Title                                   
   1.00000000000000     
     9.8694509999999998    0.0000000000000000    0.0000000000000000
     0.0000000000000000    8.5490480000000009    0.0000000000000000
     0.0000000000000000    0.0000000000000000   20.0000000000000000
    27     4     1
Selective dynamics
Direct
  0.0562461117937384  0.0922459190844718  0.0882489353191992   T   T   T
  0.9304464270297990  0.1752428676016178  0.0897991422923080   T   T   T
  0.0562351644163560  0.9250999365581724  0.0872235590525710   T   T   T
  0.9286035958830021  0.3425716229802637  0.0924839929422128   T   T   T
  0.0562579121753266  0.5901834149397097  0.0898579228954934   T   T   T
  0.9315913223020682  0.6739630222304404  0.0900846749607040   T   T   T
  0.0562646565877216  0.4241170226099687  0.0914931840034506   T   T   T
  0.9317039159888094  0.8402508135271329  0.0881468758392444   T   T   T
  0.3055290593385698  0.0891551283873551  0.0895037332653767   T   T   T
  0.1820602328038859  0.1751978692964133  0.0898968480936486   T   T   T
  0.3057456139000358  0.9241921229610176  0.0886871818816827   T   T   T
  0.1838845989508532  0.3425276106721760  0.0923064166335664   T   T   T
  0.3080599549486748  0.5946632673608805  0.0951849633649583   T   T   T
  0.1809263550316448  0.6739777842677125  0.0897379896120263   T   T   T
  0.3110895069437453  0.4253804490727295  0.0961969558179383   T   T   T
  0.1808102554997629  0.8402655541878987  0.0880723102537751   T   T   T
  0.5562683587193895  0.0814466509663754  0.0938945867618185   T   T   T
  0.4325403202424441  0.1672267962044874  0.0931436174814431   T   T   T
  0.4367240297252085  0.3342059968267904  0.0991076458692583   T   T   T
  0.4273992138756114  0.8344732762695126  0.0937419788603283   T   T   T
  0.8069855218474644  0.0891948533446955  0.0893206721534315   T   T   T
  0.6800067366476532  0.1672272926992329  0.0931581768206569   T   T   T
  0.8068022025870359  0.9241994092686440  0.0886657906391565   T   T   T
  0.6758118087871346  0.3341985689631243  0.0993390908067916   T   T   T
  0.8045341528862833  0.5947152396186671  0.0960299642893371   T   T   T
  0.8014547124594740  0.4253935870923965  0.0967933054298985   T   T   T
  0.6852073608040140  0.8345426189655398  0.0941457370771565   T   T   T
  0.4252699027595480  0.6802815060075444  0.1001318985295030   T   T   T
  0.5562361972056734  0.4090813896624628  0.1078473349575997   T   T   T
  0.6874318095258580  0.6804842443996632  0.1013217020152029   T   T   T
  0.5563049404018628  0.9153398750081649  0.0943615413257131   T   T   T
  0.5552070479313582  0.5892002889647385  0.1977472707545648   T   T   T
 
  0.00000000E+00  0.00000000E+00  0.00000000E+00
  0.00000000E+00  0.00000000E+00  0.00000000E+00
  0.00000000E+00  0.00000000E+00  0.00000000E+00
  0.00000000E+00  0.00000000E+00  0.00000000E+00
  0.00000000E+00  0.00000000E+00  0.00000000E+00
  0.00000000E+00  0.00000000E+00  0.00000000E+00
  0.00000000E+00  0.00000000E+00  0.00000000E+00
  0.00000000E+00  0.00000000E+00  0.00000000E+00
  0.00000000E+00  0.00000000E+00  0.00000000E+00
  0.00000000E+00  0.00000000E+00  0.00000000E+00
  0.00000000E+00  0.00000000E+00  0.00000000E+00
  0.00000000E+00  0.00000000E+00  0.00000000E+00
  0.00000000E+00  0.00000000E+00  0.00000000E+00
  0.00000000E+00  0.00000000E+00  0.00000000E+00
  0.00000000E+00  0.00000000E+00  0.00000000E+00
  0.00000000E+00  0.00000000E+00  0.00000000E+00
  0.00000000E+00  0.00000000E+00  0.00000000E+00
  0.00000000E+00  0.00000000E+00  0.00000000E+00
  0.00000000E+00  0.00000000E+00  0.00000000E+00
  0.00000000E+00  0.00000000E+00  0.00000000E+00
  0.00000000E+00  0.00000000E+00  0.00000000E+00
  0.00000000E+00  0.00000000E+00  0.00000000E+00
  0.00000000E+00  0.00000000E+00  0.00000000E+00
  0.00000000E+00  0.00000000E+00  0.00000000E+00
  0.00000000E+00  0.00000000E+00  0.00000000E+00
  0.00000000E+00  0.00000000E+00  0.00000000E+00
  0.00000000E+00  0.00000000E+00  0.00000000E+00
  0.00000000E+00  0.00000000E+00  0.00000000E+00
  0.00000000E+00  0.00000000E+00  0.00000000E+00
  0.00000000E+00  0.00000000E+00  0.00000000E+00
  0.00000000E+00  0.00000000E+00  0.00000000E+00
  0.00000000E+00  0.00000000E+00  0.00000000E+00
