Title                                   
   1.00000000000000     
     9.8694509999999998    0.0000000000000000    0.0000000000000000
     0.0000000000000000    8.5490480000000009    0.0000000000000000
     0.0000000000000000    0.0000000000000000   20.0000000000000000
    26     5     1
Selective dynamics
Direct
  0.0559740525909941  0.0923420995574466  0.0866506280672200   T   T   T
  0.9299933795576718  0.1755880691919779  0.0881563247670395   T   T   T
  0.0567826006622254  0.9237690271801015  0.0855188720665720   T   T   T
  0.9292414753864811  0.3417886356611362  0.0901216367830636   T   T   T
  0.0565487655726055  0.5899237564930552  0.0864595091800570   T   T   T
  0.9321490512367419  0.6719538058228429  0.0863199707019025   T   T   T
  0.0557546092547942  0.4233168187205337  0.0901938899890636   T   T   T
  0.9315203796948982  0.8399176939007402  0.0861764721847221   T   T   T
  0.3055594635717617  0.0887648309744112  0.0894487622928538   T   T   T
  0.1822033512005829  0.1745227233069363  0.0890361415525029   T   T   T
  0.3072894241986433  0.9227839114103902  0.0905207509223891   T   T   T
  0.1824552709528361  0.3404235986267821  0.0928125710802957   T   T   T
  0.3052509756712463  0.5909164389244181  0.1026767807744535   T   T   T
  0.1816935936107583  0.6709870119491727  0.0893750311310665   T   T   T
  0.1819776993009418  0.8391845920809514  0.0879187812282591   T   T   T
  0.5568526573506419  0.0855534371015284  0.0964144423741018   T   T   T
  0.4308037208925539  0.1692094090282794  0.0944324220784159   T   T   T
  0.4335345316149600  0.3348289851486192  0.0994367410974939   T   T   T
  0.4289366418974649  0.8388293451965387  0.1033158742087840   T   T   T
  0.8069705728709479  0.0894443217977542  0.0887972174424200   T   T   T
  0.6811655290120321  0.1699782094414456  0.0928880397257814   T   T   T
  0.8066444950332928  0.9242873614256563  0.0889698672452851   T   T   T
  0.6768686155538635  0.3356451112041142  0.0956690655244050   T   T   T
  0.8057942596261349  0.5941702467363391  0.0928894609484893   T   T   T
  0.6845583399277657  0.8382568443139302  0.0973876094310151   T   T   T
  0.4188112182817059  0.6805099534752741  0.1241986027031611   T   T   T
  0.5554381486458791  0.4096340609111839  0.1058764422522755   T   T   T
  0.6910890058349782  0.6795244916752246  0.1043990773156751   T   T   T
  0.5573313880524960  0.9189272319456164  0.1006336909564645   T   T   T
  0.3088308553413974  0.4227466426054745  0.0996582631071116   T   T   T
  0.8004113506490743  0.4256839534171130  0.0925441933755049   T   T   T
  0.5612035769516351  0.5868333807750145  0.1667778674921712   T   T   T
 
  0.00000000E+00  0.00000000E+00  0.00000000E+00
  0.00000000E+00  0.00000000E+00  0.00000000E+00
  0.00000000E+00  0.00000000E+00  0.00000000E+00
  0.00000000E+00  0.00000000E+00  0.00000000E+00
  0.00000000E+00  0.00000000E+00  0.00000000E+00
  0.00000000E+00  0.00000000E+00  0.00000000E+00
  0.00000000E+00  0.00000000E+00  0.00000000E+00
  0.00000000E+00  0.00000000E+00  0.00000000E+00
  0.00000000E+00  0.00000000E+00  0.00000000E+00
  0.00000000E+00  0.00000000E+00  0.00000000E+00
  0.00000000E+00  0.00000000E+00  0.00000000E+00
  0.00000000E+00  0.00000000E+00  0.00000000E+00
  0.00000000E+00  0.00000000E+00  0.00000000E+00
  0.00000000E+00  0.00000000E+00  0.00000000E+00
  0.00000000E+00  0.00000000E+00  0.00000000E+00
  0.00000000E+00  0.00000000E+00  0.00000000E+00
  0.00000000E+00  0.00000000E+00  0.00000000E+00
  0.00000000E+00  0.00000000E+00  0.00000000E+00
  0.00000000E+00  0.00000000E+00  0.00000000E+00
  0.00000000E+00  0.00000000E+00  0.00000000E+00
  0.00000000E+00  0.00000000E+00  0.00000000E+00
  0.00000000E+00  0.00000000E+00  0.00000000E+00
  0.00000000E+00  0.00000000E+00  0.00000000E+00
  0.00000000E+00  0.00000000E+00  0.00000000E+00
  0.00000000E+00  0.00000000E+00  0.00000000E+00
  0.00000000E+00  0.00000000E+00  0.00000000E+00
  0.00000000E+00  0.00000000E+00  0.00000000E+00
  0.00000000E+00  0.00000000E+00  0.00000000E+00
  0.00000000E+00  0.00000000E+00  0.00000000E+00
  0.00000000E+00  0.00000000E+00  0.00000000E+00
  0.00000000E+00  0.00000000E+00  0.00000000E+00
  0.00000000E+00  0.00000000E+00  0.00000000E+00
