Title                                   
   1.00000000000000     
     9.8694509999999998    0.0000000000000000    0.0000000000000000
     0.0000000000000000    8.5490480000000009    0.0000000000000000
     0.0000000000000000    0.0000000000000000   20.0000000000000000
    26     5     1
Selective dynamics
Direct
  0.0562889787793227  0.0923626701082250  0.0848850953851384   T   T   T
  0.9310685776642054  0.1746622503718143  0.0865036757873360   T   T   T
  0.0575993587416484  0.9250449233871066  0.0842976041659090   T   T   T
  0.9296825550168992  0.3424553583038658  0.0895967506536375   T   T   T
  0.0571897292682089  0.5909272358187896  0.0860115478560770   T   T   T
  0.9330192239300729  0.6740226638254262  0.0883853249679982   T   T   T
  0.0567431982609959  0.4235408760498363  0.0879679493098553   T   T   T
  0.9331222261471173  0.8405732162543855  0.0866279192806263   T   T   T
  0.3061122114770339  0.0884035345914659  0.0891271568115490   T   T   T
  0.1830165938753662  0.1741818552935673  0.0872919672717278   T   T   T
  0.1837047577973666  0.3412436319002183  0.0898066840485363   T   T   T
  0.3047949568877828  0.5927547199898219  0.0991496500902360   T   T   T
  0.1813172648843263  0.6750630411459615  0.0877353090707828   T   T   T
  0.3101429119552285  0.4239524949873480  0.0978304056084137   T   T   T
  0.1810071811795043  0.8414245587271246  0.0863152565103153   T   T   T
  0.5562393978009211  0.0830732583624679  0.0953679541132118   T   T   T
  0.5546618289287673  0.9179332760102530  0.1013935709076974   T   T   T
  0.4332192913631280  0.3313827521073595  0.1023100407967305   T   T   T
  0.4253131613393419  0.8385504455361706  0.1030147798509741   T   T   T
  0.8063488116822047  0.0890033184924208  0.0872746935481618   T   T   T
  0.6796848065580953  0.1685434773027148  0.0918077405868034   T   T   T
  0.8078483292833525  0.9237050757612358  0.0890922746134926   T   T   T
  0.6789103929107391  0.3337843559320084  0.0999665816108766   T   T   T
  0.8086003076067341  0.5945418555858230  0.0994283376911114   T   T   T
  0.8022483444610453  0.4246663673797074  0.0972595115377580   T   T   T
  0.6860035331393028  0.8385571685678194  0.1009016798365350   T   T   T
  0.4144059686347449  0.6852870347031035  0.1155205618946075   T   T   T
  0.5543299162468968  0.3991491492611978  0.1139590814410252   T   T   T
  0.6961473226972102  0.6823576238314830  0.1139712290702622   T   T   T
  0.3056951939093331  0.9255160229572532  0.0891733260743403   T   T   T
  0.4294114100021875  0.1661637111312327  0.0940682229598304   T   T   T
  0.5557612575709218  0.5874180763227936  0.1596331166484594   T   T   T
 
  0.00000000E+00  0.00000000E+00  0.00000000E+00
  0.00000000E+00  0.00000000E+00  0.00000000E+00
  0.00000000E+00  0.00000000E+00  0.00000000E+00
  0.00000000E+00  0.00000000E+00  0.00000000E+00
  0.00000000E+00  0.00000000E+00  0.00000000E+00
  0.00000000E+00  0.00000000E+00  0.00000000E+00
  0.00000000E+00  0.00000000E+00  0.00000000E+00
  0.00000000E+00  0.00000000E+00  0.00000000E+00
  0.00000000E+00  0.00000000E+00  0.00000000E+00
  0.00000000E+00  0.00000000E+00  0.00000000E+00
  0.00000000E+00  0.00000000E+00  0.00000000E+00
  0.00000000E+00  0.00000000E+00  0.00000000E+00
  0.00000000E+00  0.00000000E+00  0.00000000E+00
  0.00000000E+00  0.00000000E+00  0.00000000E+00
  0.00000000E+00  0.00000000E+00  0.00000000E+00
  0.00000000E+00  0.00000000E+00  0.00000000E+00
  0.00000000E+00  0.00000000E+00  0.00000000E+00
  0.00000000E+00  0.00000000E+00  0.00000000E+00
  0.00000000E+00  0.00000000E+00  0.00000000E+00
  0.00000000E+00  0.00000000E+00  0.00000000E+00
  0.00000000E+00  0.00000000E+00  0.00000000E+00
  0.00000000E+00  0.00000000E+00  0.00000000E+00
  0.00000000E+00  0.00000000E+00  0.00000000E+00
  0.00000000E+00  0.00000000E+00  0.00000000E+00
  0.00000000E+00  0.00000000E+00  0.00000000E+00
  0.00000000E+00  0.00000000E+00  0.00000000E+00
  0.00000000E+00  0.00000000E+00  0.00000000E+00
  0.00000000E+00  0.00000000E+00  0.00000000E+00
  0.00000000E+00  0.00000000E+00  0.00000000E+00
  0.00000000E+00  0.00000000E+00  0.00000000E+00
  0.00000000E+00  0.00000000E+00  0.00000000E+00
  0.00000000E+00  0.00000000E+00  0.00000000E+00
