Title                                   
   1.00000000000000     
     4.9440799999999996    0.0000000000000000    0.0000000000000000
     0.0000000000000000   17.1295089999999988    0.0000000000000000
     0.0000000000000000    0.0000000000000000   20.0000000000000000
    26     4     1
Selective dynamics
Direct
  0.0012034300785340  0.1060639488108726  0.2970180621585768   T   T   T
  0.2501917504429756  0.1493291101615312  0.2971330830357688   T   T   T
  0.2501531028058694  0.2340364551255155  0.2980724555691264   T   T   T
 -0.0043339995847225  0.2748794192372023  0.3012105570897300   T   T   T
 -0.0046284516886927  0.6000613441898106  0.3011250162843920   T   T   T
  0.2500137965260510  0.7256123062758369  0.2967047853834741   T   T   T
  0.0007476090464739  0.8531133935573411  0.2957790716735985   T   T   T
  0.2501809792695511  0.8954329288010877  0.2954753617244435   T   T   T
  0.2501844720486102  0.9795148007075746  0.2956907917286172   T   T   T
  0.0010370059832337  0.7688652780150683  0.2964870478821421   T   T   T
  0.4992119449514587  0.1060980777116674  0.2961855436331955   T   T   T
  0.7502511548962235  0.1474146307050101  0.2967331387369531   T   T   T
  0.7501571267813590  0.2311472632202837  0.2973083050797842   T   T   T
  0.4995808327886514  0.0218736958569523  0.2957139025083800   T   T   T
  0.7498987031729961  0.3917938252072157  0.2985464331493609   T   T   T
  0.7498411793429727  0.4830977945000975  0.2987738310188850   T   T   T
  0.5047377517697366  0.2752154885758623  0.2953152686997876   T   T   T
  0.5043946963457020  0.5997058419821826  0.2956258975221052   T   T   T
  0.7500595340962598  0.7274908562476313  0.2962479839861452   T   T   T
  0.4995284223380408  0.8530712805182041  0.2952913913398997   T   T   T
  0.7501271354324329  0.8952689845603178  0.2954389476939035   T   T   T
  0.7501626217778937  0.9796734214468060  0.2956739873905292   T   T   T
  0.4990339387002258  0.7688419387226200  0.2956930154533053   T   T   T
  0.7498586885027159  0.6437763481172071  0.2971450581443197   T   T   T
  0.2498973896314834  0.6409266064212187  0.2980373802697107   T   T   T
  0.0007839925195678  0.0218409491430414  0.2962054372224960   T   T   T
  0.5119687338971401  0.5196499262805571  0.2909448786662294   T   T   T
  0.9848197255567066  0.5202230270959539  0.3084125896395181   T   T   T
  0.5123590664133625  0.3552239726784354  0.2899644655901101   T   T   T
 -0.0153284034446832  0.3546717773497267  0.3087015874071656   T   T   T
  0.2639130696018727  0.4374273087771658  0.3684047243182991   T   T   T
 
  0.00000000E+00  0.00000000E+00  0.00000000E+00
  0.00000000E+00  0.00000000E+00  0.00000000E+00
  0.00000000E+00  0.00000000E+00  0.00000000E+00
  0.00000000E+00  0.00000000E+00  0.00000000E+00
  0.00000000E+00  0.00000000E+00  0.00000000E+00
  0.00000000E+00  0.00000000E+00  0.00000000E+00
  0.00000000E+00  0.00000000E+00  0.00000000E+00
  0.00000000E+00  0.00000000E+00  0.00000000E+00
  0.00000000E+00  0.00000000E+00  0.00000000E+00
  0.00000000E+00  0.00000000E+00  0.00000000E+00
  0.00000000E+00  0.00000000E+00  0.00000000E+00
  0.00000000E+00  0.00000000E+00  0.00000000E+00
  0.00000000E+00  0.00000000E+00  0.00000000E+00
  0.00000000E+00  0.00000000E+00  0.00000000E+00
  0.00000000E+00  0.00000000E+00  0.00000000E+00
  0.00000000E+00  0.00000000E+00  0.00000000E+00
  0.00000000E+00  0.00000000E+00  0.00000000E+00
  0.00000000E+00  0.00000000E+00  0.00000000E+00
  0.00000000E+00  0.00000000E+00  0.00000000E+00
  0.00000000E+00  0.00000000E+00  0.00000000E+00
  0.00000000E+00  0.00000000E+00  0.00000000E+00
  0.00000000E+00  0.00000000E+00  0.00000000E+00
  0.00000000E+00  0.00000000E+00  0.00000000E+00
  0.00000000E+00  0.00000000E+00  0.00000000E+00
  0.00000000E+00  0.00000000E+00  0.00000000E+00
  0.00000000E+00  0.00000000E+00  0.00000000E+00
  0.00000000E+00  0.00000000E+00  0.00000000E+00
  0.00000000E+00  0.00000000E+00  0.00000000E+00
  0.00000000E+00  0.00000000E+00  0.00000000E+00
  0.00000000E+00  0.00000000E+00  0.00000000E+00
  0.00000000E+00  0.00000000E+00  0.00000000E+00
