Title                                   
   1.00000000000000     
     9.8694509999999998    0.0000000000000000    0.0000000000000000
     0.0000000000000000    8.5490480000000009    0.0000000000000000
     0.0000000000000000    0.0000000000000000   20.0000000000000000
    26     4     1
Selective dynamics
Direct
  0.0555182554668071  0.0894051452390925  0.0945347694385308   T   T   T
  0.9303906570092226  0.1726013514475384  0.0945486317353061   T   T   T
  0.0571280575631118  0.9236746164065677  0.0945779289958917   T   T   T
  0.9332113231178821  0.3404382540591196  0.0943272031915651   T   T   T
  0.0563503760957389  0.5897136177582698  0.0943011982363621   T   T   T
  0.9327612800926112  0.6739934437257535  0.0943475422325883   T   T   T
  0.0571544178018372  0.4232829014987308  0.0942620805520011   T   T   T
  0.9320131806483801  0.8409465572666424  0.0945687120955188   T   T   T
  0.3070948341512178  0.0888069900755994  0.0948875702902763   T   T   T
  0.1816088280870934  0.1701297815428934  0.0945703886590529   T   T   T
  0.1807573843852003  0.3377526771294330  0.0945166299275641   T   T   T
  0.3030431651588051  0.5880623232756096  0.0950716726312553   T   T   T
  0.1806867751925238  0.6728919302202618  0.0945433950465902   T   T   T
  0.3026001378307593  0.4187554519501535  0.0950643346673057   T   T   T
  0.1825597167787032  0.8405587164781403  0.0945953574605627   T   T   T
  0.4312378639672937  0.1773588752963946  0.0953179590034160   T   T   T
  0.5553088892690646  0.9212794931186764  0.0952353970581669   T   T   T
  0.4274669867897625  0.6688097847833345  0.0957144971310750   T   T   T
  0.4300028469642921  0.8354772753065467  0.0952907626926408   T   T   T
  0.8038431141237650  0.0897727758049487  0.0948526039895329   T   T   T
  0.6806225182178400  0.1793238137243530  0.0951347520268223   T   T   T
  0.8056182923505152  0.9214992846913279  0.0947969854071285   T   T   T
  0.6838521525961516  0.3451060108976066  0.0951958004493164   T   T   T
  0.8104568774396076  0.5925363219150320  0.0944955570303833   T   T   T
  0.8105406520196363  0.4236727496003685  0.0945497646797015   T   T   T
  0.6806327109119980  0.8338341790201260  0.0950102749651216   T   T   T
  0.5554711766146702  0.0934571476709131  0.0952212828031325   T   T   T
  0.4266061516677264  0.3404364522227458  0.0955822718618207   T   T   T
  0.6859443019340723  0.6681120826030152  0.0949638126372854   T   T   T
  0.3062794283610434  0.9220755856778045  0.0948051245196297   T   T   T
  0.5563726473926697  0.5071094095930277  0.0960807385844890   T   T   T
 
  0.00000000E+00  0.00000000E+00  0.00000000E+00
  0.00000000E+00  0.00000000E+00  0.00000000E+00
  0.00000000E+00  0.00000000E+00  0.00000000E+00
  0.00000000E+00  0.00000000E+00  0.00000000E+00
  0.00000000E+00  0.00000000E+00  0.00000000E+00
  0.00000000E+00  0.00000000E+00  0.00000000E+00
  0.00000000E+00  0.00000000E+00  0.00000000E+00
  0.00000000E+00  0.00000000E+00  0.00000000E+00
  0.00000000E+00  0.00000000E+00  0.00000000E+00
  0.00000000E+00  0.00000000E+00  0.00000000E+00
  0.00000000E+00  0.00000000E+00  0.00000000E+00
  0.00000000E+00  0.00000000E+00  0.00000000E+00
  0.00000000E+00  0.00000000E+00  0.00000000E+00
  0.00000000E+00  0.00000000E+00  0.00000000E+00
  0.00000000E+00  0.00000000E+00  0.00000000E+00
  0.00000000E+00  0.00000000E+00  0.00000000E+00
  0.00000000E+00  0.00000000E+00  0.00000000E+00
  0.00000000E+00  0.00000000E+00  0.00000000E+00
  0.00000000E+00  0.00000000E+00  0.00000000E+00
  0.00000000E+00  0.00000000E+00  0.00000000E+00
  0.00000000E+00  0.00000000E+00  0.00000000E+00
  0.00000000E+00  0.00000000E+00  0.00000000E+00
  0.00000000E+00  0.00000000E+00  0.00000000E+00
  0.00000000E+00  0.00000000E+00  0.00000000E+00
  0.00000000E+00  0.00000000E+00  0.00000000E+00
  0.00000000E+00  0.00000000E+00  0.00000000E+00
  0.00000000E+00  0.00000000E+00  0.00000000E+00
  0.00000000E+00  0.00000000E+00  0.00000000E+00
  0.00000000E+00  0.00000000E+00  0.00000000E+00
  0.00000000E+00  0.00000000E+00  0.00000000E+00
  0.00000000E+00  0.00000000E+00  0.00000000E+00
