Title                                   
   1.00000000000000     
     9.8694509999999998    0.0000000000000000    0.0000000000000000
     0.0000000000000000    8.5490480000000009    0.0000000000000000
     0.0000000000000000    0.0000000000000000   20.0000000000000000
    26     4     1
Selective dynamics
Direct
  0.0558720488880575  0.0907360039026582  0.0932233708222815   T   T   T
  0.9309570782162192  0.1728164779239275  0.0940102698324436   T   T   T
  0.0575682666306470  0.9239728267462280  0.0932860672235578   T   T   T
  0.9333875323818402  0.3403270336957074  0.0932809630073123   T   T   T
  0.0572406481642531  0.5901302000163785  0.0912067010634805   T   T   T
  0.9340073133871150  0.6747896698425583  0.0930443332660276   T   T   T
  0.0574948969725740  0.4233374491408669  0.0913312244720417   T   T   T
  0.9325705642224270  0.8410215622930971  0.0939258964088561   T   T   T
  0.3066111432472147  0.0886811821394906  0.0962547228725685   T   T   T
  0.1807497480979481  0.1715278582812103  0.0936592692048790   T   T   T
  0.1807499587296212  0.3389888819064688  0.0928828693371348   T   T   T
  0.3023198446906946  0.5898896655083270  0.0959783376533203   T   T   T
  0.1803735463457483  0.6738653047898354  0.0927601621231891   T   T   T
  0.3036343511473306  0.4221636018470485  0.0961865422743952   T   T   T
  0.1811811879490070  0.8408077487322031  0.0936992318696138   T   T   T
  0.5550917058268815  0.0895326616845465  0.1008230565010672   T   T   T
  0.4294773616118748  0.1744553263696543  0.0998197497200866   T   T   T
  0.5543690089980164  0.9181602672445476  0.1005453758503704   T   T   T
  0.4277795141430546  0.8346070482560936  0.0993641037000441   T   T   T
  0.8049818458587835  0.0897108478310228  0.0966418288984486   T   T   T
  0.6808350407277368  0.1757033970217156  0.1001251443845187   T   T   T
  0.8058056341708419  0.9217960659984149  0.0965170076774026   T   T   T
  0.6862004819596627  0.3424908241339028  0.1017936257499558   T   T   T
  0.8120621947022905  0.5929376080741532  0.0966917268818090   T   T   T
  0.8107669472209803  0.4243111838374858  0.0968340994141173   T   T   T
  0.6824076141756598  0.8332284272256197  0.0997577968035566   T   T   T
  0.4248179095360944  0.3388994865303425  0.1012868712060428   T   T   T
  0.6898940978896824  0.6708949633617527  0.1014126508651106   T   T   T
  0.4218640395327883  0.6753090081446981  0.1009942974042573   T   T   T
  0.3066177366085295  0.9227559355594068  0.0959394841702201   T   T   T
  0.5554457379664346  0.5030264819606491  0.1076882193419269   T   T   T
 
  0.00000000E+00  0.00000000E+00  0.00000000E+00
  0.00000000E+00  0.00000000E+00  0.00000000E+00
  0.00000000E+00  0.00000000E+00  0.00000000E+00
  0.00000000E+00  0.00000000E+00  0.00000000E+00
  0.00000000E+00  0.00000000E+00  0.00000000E+00
  0.00000000E+00  0.00000000E+00  0.00000000E+00
  0.00000000E+00  0.00000000E+00  0.00000000E+00
  0.00000000E+00  0.00000000E+00  0.00000000E+00
  0.00000000E+00  0.00000000E+00  0.00000000E+00
  0.00000000E+00  0.00000000E+00  0.00000000E+00
  0.00000000E+00  0.00000000E+00  0.00000000E+00
  0.00000000E+00  0.00000000E+00  0.00000000E+00
  0.00000000E+00  0.00000000E+00  0.00000000E+00
  0.00000000E+00  0.00000000E+00  0.00000000E+00
  0.00000000E+00  0.00000000E+00  0.00000000E+00
  0.00000000E+00  0.00000000E+00  0.00000000E+00
  0.00000000E+00  0.00000000E+00  0.00000000E+00
  0.00000000E+00  0.00000000E+00  0.00000000E+00
  0.00000000E+00  0.00000000E+00  0.00000000E+00
  0.00000000E+00  0.00000000E+00  0.00000000E+00
  0.00000000E+00  0.00000000E+00  0.00000000E+00
  0.00000000E+00  0.00000000E+00  0.00000000E+00
  0.00000000E+00  0.00000000E+00  0.00000000E+00
  0.00000000E+00  0.00000000E+00  0.00000000E+00
  0.00000000E+00  0.00000000E+00  0.00000000E+00
  0.00000000E+00  0.00000000E+00  0.00000000E+00
  0.00000000E+00  0.00000000E+00  0.00000000E+00
  0.00000000E+00  0.00000000E+00  0.00000000E+00
  0.00000000E+00  0.00000000E+00  0.00000000E+00
  0.00000000E+00  0.00000000E+00  0.00000000E+00
  0.00000000E+00  0.00000000E+00  0.00000000E+00
