Title                                   
   1.00000000000000     
     4.9440799999999996    0.0000000000000000    0.0000000000000000
     0.0000000000000000   17.1295089999999988    0.0000000000000000
     0.0000000000000000    0.0000000000000000   20.0000000000000000
    25     5     1
Selective dynamics
Direct
  0.0011537241331590  0.1055856798624116  0.2984924504767494   T   T   T
  0.2503910153552399  0.1487278328535815  0.2987288203430999   T   T   T
  0.2502389708799751  0.2333632056997238  0.3002312058869234   T   T   T
 -0.0031767368222701  0.2742695349038937  0.3037919781679184   T   T   T
 -0.0039429931498784  0.6009474965643360  0.3039794882309950   T   T   T
  0.2498910886790911  0.7258417089542315  0.2982918264156816   T   T   T
  0.0016673665198690  0.8525952550874972  0.2973320124735542   T   T   T
  0.2502501841132291  0.8950947982917778  0.2970934594774743   T   T   T
  0.2504067680432716  0.9792171053235488  0.2972049890029383   T   T   T
  0.0021878301373752  0.7682468944281994  0.2979740844024089   T   T   T
  0.4998561234300540  0.1056553007159053  0.2975959686192475   T   T   T
  0.7506676391671594  0.1472843837314480  0.2983714742748149   T   T   T
  0.7508093681567254  0.2310107678252955  0.2994872876267725   T   T   T
  0.5000158370676617  0.0214821721345474  0.2970999327195863   T   T   T
  0.7503108693549324  0.3946532742515492  0.3024555173331056   T   T   T
  0.7489530472387416  0.4817849495559109  0.3029729744185559   T   T   T
  0.5040891155644621  0.2741184369746375  0.2976017599869169   T   T   T
  0.5033648233319102  0.6011758932200764  0.2965549688282982   T   T   T
  0.7502048825571125  0.7272780187690207  0.2978239424094219   T   T   T
  0.4986854218180837  0.8525423617877084  0.2968819035300354   T   T   T
  0.7502147528985985  0.8946362314519110  0.2969510914765426   T   T   T
  0.7503427429101189  0.9789278784494263  0.2970875202233853   T   T   T
  0.4979735918305925  0.7681882020787553  0.2972993935615348   T   T   T
  0.7501742912709514  0.6448364031563691  0.2989385466679659   T   T   T
  0.0008083393008139  0.0214258518835169  0.2975928467369187   T   T   T
  0.5132003262822947  0.5223590618815044  0.2925823244534640   T   T   T
  0.9863205552031490  0.5223249293046643  0.3126239414215953   T   T   T
  0.5150094890511195  0.3544037382056457  0.2941511563514493   T   T   T
 -0.0140259448158232  0.3545639223013905  0.3112340306876485   T   T   T
  0.2495883843781305  0.6412996026434256  0.2997288903896018   T   T   T
  0.2543761261141507  0.4375011077080848  0.3069042134053464   T   T   T
 
  0.00000000E+00  0.00000000E+00  0.00000000E+00
  0.00000000E+00  0.00000000E+00  0.00000000E+00
  0.00000000E+00  0.00000000E+00  0.00000000E+00
  0.00000000E+00  0.00000000E+00  0.00000000E+00
  0.00000000E+00  0.00000000E+00  0.00000000E+00
  0.00000000E+00  0.00000000E+00  0.00000000E+00
  0.00000000E+00  0.00000000E+00  0.00000000E+00
  0.00000000E+00  0.00000000E+00  0.00000000E+00
  0.00000000E+00  0.00000000E+00  0.00000000E+00
  0.00000000E+00  0.00000000E+00  0.00000000E+00
  0.00000000E+00  0.00000000E+00  0.00000000E+00
  0.00000000E+00  0.00000000E+00  0.00000000E+00
  0.00000000E+00  0.00000000E+00  0.00000000E+00
  0.00000000E+00  0.00000000E+00  0.00000000E+00
  0.00000000E+00  0.00000000E+00  0.00000000E+00
  0.00000000E+00  0.00000000E+00  0.00000000E+00
  0.00000000E+00  0.00000000E+00  0.00000000E+00
  0.00000000E+00  0.00000000E+00  0.00000000E+00
  0.00000000E+00  0.00000000E+00  0.00000000E+00
  0.00000000E+00  0.00000000E+00  0.00000000E+00
  0.00000000E+00  0.00000000E+00  0.00000000E+00
  0.00000000E+00  0.00000000E+00  0.00000000E+00
  0.00000000E+00  0.00000000E+00  0.00000000E+00
  0.00000000E+00  0.00000000E+00  0.00000000E+00
  0.00000000E+00  0.00000000E+00  0.00000000E+00
  0.00000000E+00  0.00000000E+00  0.00000000E+00
  0.00000000E+00  0.00000000E+00  0.00000000E+00
  0.00000000E+00  0.00000000E+00  0.00000000E+00
  0.00000000E+00  0.00000000E+00  0.00000000E+00
  0.00000000E+00  0.00000000E+00  0.00000000E+00
  0.00000000E+00  0.00000000E+00  0.00000000E+00
