Title                                   
   1.00000000000000     
     9.8694509999999998    0.0000000000000000    0.0000000000000000
     0.0000000000000000    8.5490480000000009    0.0000000000000000
     0.0000000000000000    0.0000000000000000   20.0000000000000000
    24     6     1
Selective dynamics
Direct
  0.0554460907970476  0.0903446817810102  0.0937978240088074   T   T   T
  0.9310440059806354  0.1732683635047460  0.0958482588594732   T   T   T
  0.0571630409878964  0.9222142120176723  0.0938892148380151   T   T   T
  0.9340833402534325  0.3397906851676298  0.0948883361381631   T   T   T
  0.0561448141010945  0.5909233790411836  0.0900904662463264   T   T   T
  0.0563047391487374  0.4240263879665154  0.0902065333615396   T   T   T
  0.9325669711493518  0.8400205863221242  0.0957274852765259   T   T   T
  0.3065044793953963  0.0884507444804397  0.0951989266388764   T   T   T
  0.1803430098448007  0.1720608824309585  0.0922802472061404   T   T   T
  0.1798461617927775  0.3388742558665377  0.0895461418153793   T   T   T
  0.3017738915713217  0.5897828755427555  0.0902913209696281   T   T   T
  0.1783289928326805  0.6740073820339130  0.0890775895648001   T   T   T
  0.3036096784749421  0.4210924526846811  0.0893581248052191   T   T   T
  0.1808808637004116  0.8405352195322384  0.0923354693784163   T   T   T
  0.4285004517624388  0.1723567521299801  0.0961290909799470   T   T   T
  0.5542065399031737  0.9180848178141188  0.1001231103498529   T   T   T
  0.4269614015849992  0.8368445463441408  0.0980702014488423   T   T   T
  0.8055731181881632  0.0887408580145981  0.0993357086692870   T   T   T
  0.6804937823592301  0.1748349011340167  0.1034652480289982   T   T   T
  0.8073937733206619  0.9222245201101738  0.0993849694784051   T   T   T
  0.6919158157883866  0.3369955662729358  0.1107151554296798   T   T   T
  0.8133878250607476  0.5938045507105826  0.1014678432256056   T   T   T
  0.8124923465046928  0.4248835669495122  0.1025095885157322   T   T   T
  0.6822546741046738  0.8370159331014877  0.1020029123343725   T   T   T
  0.9343777828779868  0.6743179987131908  0.0948849211636729   T   T   T
  0.5549368418561728  0.0919102999803021  0.0995430624904436   T   T   T
  0.4230345185258454  0.3332157499208999  0.0906133832502241   T   T   T
  0.6959669245638942  0.6759083839806711  0.1046322979122991   T   T   T
  0.4177978554233501  0.6786192469569523  0.0992324211170080   T   T   T
  0.3045612722841035  0.9223738128466472  0.0945459888531843   T   T   T
  0.5552399958609615  0.5033513866473969  0.1117731576451713   T   T   T
 
  0.00000000E+00  0.00000000E+00  0.00000000E+00
  0.00000000E+00  0.00000000E+00  0.00000000E+00
  0.00000000E+00  0.00000000E+00  0.00000000E+00
  0.00000000E+00  0.00000000E+00  0.00000000E+00
  0.00000000E+00  0.00000000E+00  0.00000000E+00
  0.00000000E+00  0.00000000E+00  0.00000000E+00
  0.00000000E+00  0.00000000E+00  0.00000000E+00
  0.00000000E+00  0.00000000E+00  0.00000000E+00
  0.00000000E+00  0.00000000E+00  0.00000000E+00
  0.00000000E+00  0.00000000E+00  0.00000000E+00
  0.00000000E+00  0.00000000E+00  0.00000000E+00
  0.00000000E+00  0.00000000E+00  0.00000000E+00
  0.00000000E+00  0.00000000E+00  0.00000000E+00
  0.00000000E+00  0.00000000E+00  0.00000000E+00
  0.00000000E+00  0.00000000E+00  0.00000000E+00
  0.00000000E+00  0.00000000E+00  0.00000000E+00
  0.00000000E+00  0.00000000E+00  0.00000000E+00
  0.00000000E+00  0.00000000E+00  0.00000000E+00
  0.00000000E+00  0.00000000E+00  0.00000000E+00
  0.00000000E+00  0.00000000E+00  0.00000000E+00
  0.00000000E+00  0.00000000E+00  0.00000000E+00
  0.00000000E+00  0.00000000E+00  0.00000000E+00
  0.00000000E+00  0.00000000E+00  0.00000000E+00
  0.00000000E+00  0.00000000E+00  0.00000000E+00
  0.00000000E+00  0.00000000E+00  0.00000000E+00
  0.00000000E+00  0.00000000E+00  0.00000000E+00
  0.00000000E+00  0.00000000E+00  0.00000000E+00
  0.00000000E+00  0.00000000E+00  0.00000000E+00
  0.00000000E+00  0.00000000E+00  0.00000000E+00
  0.00000000E+00  0.00000000E+00  0.00000000E+00
  0.00000000E+00  0.00000000E+00  0.00000000E+00
