Title                                   
   1.00000000000000     
     4.9440799999999996    0.0000000000000000    0.0000000000000000
     0.0000000000000000   17.1295089999999988    0.0000000000000000
     0.0000000000000000    0.0000000000000000   20.0000000000000000
    27     3     1
Selective dynamics
Direct
 -0.0046834302541435  0.1048395271336430  0.2932900836486045   T   T   T
  0.2432493148344580  0.1477482867541405  0.2948693505138357   T   T   T
  0.2405703360953626  0.2315433464831126  0.2994743880790946   T   T   T
 -0.0123325740493039  0.2736561042288694  0.3033154225863388   T   T   T
  0.0064788866697081  0.6020883556252835  0.3027190445059968   T   T   T
  0.2557620086577207  0.7270291485283122  0.2946223033068666   T   T   T
  0.0028782918885157  0.8529218097683808  0.2913417379884692   T   T   T
  0.2507889253898369  0.8952893545105481  0.2911885060467012   T   T   T
  0.2480750494482381  0.9791812144469337  0.2914569802035176   T   T   T
  0.0059921692360417  0.7687665988398625  0.2927531917187130   T   T   T
  0.4945594377203424  0.1052993128285094  0.2924859195552805   T   T   T
  0.7450994605155732  0.1468744303073447  0.2929721843381861   T   T   T
  0.7421360363908558  0.2304992249689567  0.2955082376309018   T   T   T
  0.4969790756837634  0.0212982128668304  0.2913992237666282   T   T   T
  0.7451500607126896  0.3948966467214501  0.3065988015259670   T   T   T
  0.7554321714500670  0.4820452885184699  0.3089972959571500   T   T   T
  0.4922180973195305  0.2733672010314897  0.2973904602482562   T   T   T
  0.5097133966069642  0.6015467529360214  0.2996301185505269   T   T   T
  0.7540968024131169  0.7278345237669895  0.2928755743342111   T   T   T
  0.5002228233611645  0.8531851140213931  0.2910673069472675   T   T   T
  0.7506934304457410  0.8948347254538902  0.2907788773530460   T   T   T
  0.7479980405827505  0.9789280957752360  0.2910133425937872   T   T   T
  0.5024061871010637  0.7690094936871421  0.2924195893204060   T   T   T
  0.7577617869441837  0.6452673559551684  0.2961739098468970   T   T   T
 -0.0024985617175585  0.0210747755205494  0.2918307353204107   T   T   T
  0.0011748070294174  0.5219505691199695  0.3152703055621739   T   T   T
  0.5007173523653438  0.3557758378581586  0.2986525593307440   T   T   T
  0.5110309847068703  0.5230007317392639  0.3042957094032926   T   T   T
 -0.0161878407010888  0.3529736423008388  0.3161068189000901   T   T   T
  0.2589439431775430  0.6435087818833508  0.2992419426074737   T   T   T
  0.2755805299752341  0.4351075364198860  0.3653200783091169   T   T   T
 
  0.00000000E+00  0.00000000E+00  0.00000000E+00
  0.00000000E+00  0.00000000E+00  0.00000000E+00
  0.00000000E+00  0.00000000E+00  0.00000000E+00
  0.00000000E+00  0.00000000E+00  0.00000000E+00
  0.00000000E+00  0.00000000E+00  0.00000000E+00
  0.00000000E+00  0.00000000E+00  0.00000000E+00
  0.00000000E+00  0.00000000E+00  0.00000000E+00
  0.00000000E+00  0.00000000E+00  0.00000000E+00
  0.00000000E+00  0.00000000E+00  0.00000000E+00
  0.00000000E+00  0.00000000E+00  0.00000000E+00
  0.00000000E+00  0.00000000E+00  0.00000000E+00
  0.00000000E+00  0.00000000E+00  0.00000000E+00
  0.00000000E+00  0.00000000E+00  0.00000000E+00
  0.00000000E+00  0.00000000E+00  0.00000000E+00
  0.00000000E+00  0.00000000E+00  0.00000000E+00
  0.00000000E+00  0.00000000E+00  0.00000000E+00
  0.00000000E+00  0.00000000E+00  0.00000000E+00
  0.00000000E+00  0.00000000E+00  0.00000000E+00
  0.00000000E+00  0.00000000E+00  0.00000000E+00
  0.00000000E+00  0.00000000E+00  0.00000000E+00
  0.00000000E+00  0.00000000E+00  0.00000000E+00
  0.00000000E+00  0.00000000E+00  0.00000000E+00
  0.00000000E+00  0.00000000E+00  0.00000000E+00
  0.00000000E+00  0.00000000E+00  0.00000000E+00
  0.00000000E+00  0.00000000E+00  0.00000000E+00
  0.00000000E+00  0.00000000E+00  0.00000000E+00
  0.00000000E+00  0.00000000E+00  0.00000000E+00
  0.00000000E+00  0.00000000E+00  0.00000000E+00
  0.00000000E+00  0.00000000E+00  0.00000000E+00
  0.00000000E+00  0.00000000E+00  0.00000000E+00
  0.00000000E+00  0.00000000E+00  0.00000000E+00
