Title                                   
   1.00000000000000     
     4.9440799999999996    0.0000000000000000    0.0000000000000000
     0.0000000000000000   17.1295089999999988    0.0000000000000000
     0.0000000000000000    0.0000000000000000   20.0000000000000000
    29     2     1
Selective dynamics
Direct
  0.0030005078995507  0.1038859599180964  0.2839222699754098   T   T   T
  0.2538067350362330  0.1455636629268163  0.2861555720395350   T   T   T
  0.2567798855990917  0.2287076162562021  0.2929659533602475   T   T   T
  0.0149073094885080  0.3531325344520727  0.3081886407881165   T   T   T
  0.0074826587048748  0.2701556791440619  0.2970757273223683   T   T   T
 -0.0162603743001288  0.6048058707984032  0.3102939321310031   T   T   T
  0.2412389598226339  0.7283234592199964  0.2976621683339078   T   T   T
 -0.0046107098405537  0.8535704174613299  0.2864911507166799   T   T   T
  0.2458525512436860  0.8954598200890070  0.2847398467086572   T   T   T
  0.2489513417716548  0.9787570305085284  0.2823643082242757   T   T   T
 -0.0074230941545153  0.7703986988319295  0.2922303888993174   T   T   T
  0.5030257621926788  0.1039643380619273  0.2839749979511765   T   T   T
  0.7541484617063664  0.1455591423863715  0.2858527734971982   T   T   T
  0.7573501549160697  0.2286992834456837  0.2922784447717232   T   T   T
  0.5000262508171605  0.0204967447990070  0.2821628232481658   T   T   T
  0.5070358058464459  0.3522346906335500  0.3087675809137941   T   T   T
  0.7609161190762741  0.3962822597729376  0.3132331308098767   T   T   T
  0.7522077300391142  0.4815903453599012  0.3207745193764625   T   T   T
  0.5085276616689449  0.2697528952433078  0.2971556461159637   T   T   T
  0.4901005202401167  0.6052175234889318  0.3163623322162200   T   T   T
  0.7409186209000042  0.7296250789693304  0.2960571909274649   T   T   T
  0.4945764777672095  0.8536782072158282  0.2870026529930139   T   T   T
  0.7459597713871076  0.8951757038188978  0.2845136767097945   T   T   T
  0.7489901116755719  0.9786895596906714  0.2822212700652048   T   T   T
  0.4915045085925434  0.7706490535873420  0.2933302024810181   T   T   T
  0.7377299672180538  0.6472129342815807  0.3058585733265327   T   T   T
  0.2383343582062586  0.6459509133880678  0.3086424902196120   T   T   T
 -0.0001620650252580  0.0204544879842504  0.2820698412786475   T   T   T
  0.5187879831608270  0.5260587517426907  0.3362550314994220   T   T   T
  0.9846449420150636  0.5255641873979310  0.3136188061906429   T   T   T
  0.2631844222134088  0.3891929779284638  0.3157203555356299   T   T   T
  0.2552896641150071  0.4797411711968765  0.3946227013728691   T   T   T
 
  0.00000000E+00  0.00000000E+00  0.00000000E+00
  0.00000000E+00  0.00000000E+00  0.00000000E+00
  0.00000000E+00  0.00000000E+00  0.00000000E+00
  0.00000000E+00  0.00000000E+00  0.00000000E+00
  0.00000000E+00  0.00000000E+00  0.00000000E+00
  0.00000000E+00  0.00000000E+00  0.00000000E+00
  0.00000000E+00  0.00000000E+00  0.00000000E+00
  0.00000000E+00  0.00000000E+00  0.00000000E+00
  0.00000000E+00  0.00000000E+00  0.00000000E+00
  0.00000000E+00  0.00000000E+00  0.00000000E+00
  0.00000000E+00  0.00000000E+00  0.00000000E+00
  0.00000000E+00  0.00000000E+00  0.00000000E+00
  0.00000000E+00  0.00000000E+00  0.00000000E+00
  0.00000000E+00  0.00000000E+00  0.00000000E+00
  0.00000000E+00  0.00000000E+00  0.00000000E+00
  0.00000000E+00  0.00000000E+00  0.00000000E+00
  0.00000000E+00  0.00000000E+00  0.00000000E+00
  0.00000000E+00  0.00000000E+00  0.00000000E+00
  0.00000000E+00  0.00000000E+00  0.00000000E+00
  0.00000000E+00  0.00000000E+00  0.00000000E+00
  0.00000000E+00  0.00000000E+00  0.00000000E+00
  0.00000000E+00  0.00000000E+00  0.00000000E+00
  0.00000000E+00  0.00000000E+00  0.00000000E+00
  0.00000000E+00  0.00000000E+00  0.00000000E+00
  0.00000000E+00  0.00000000E+00  0.00000000E+00
  0.00000000E+00  0.00000000E+00  0.00000000E+00
  0.00000000E+00  0.00000000E+00  0.00000000E+00
  0.00000000E+00  0.00000000E+00  0.00000000E+00
  0.00000000E+00  0.00000000E+00  0.00000000E+00
  0.00000000E+00  0.00000000E+00  0.00000000E+00
  0.00000000E+00  0.00000000E+00  0.00000000E+00
  0.00000000E+00  0.00000000E+00  0.00000000E+00
