Title                                   
   1.00000000000000     
     4.9440799999999996    0.0000000000000000    0.0000000000000000
     0.0000000000000000    8.5647549999999999    0.0000000000000000
     0.0000000000000000    0.0000000000000000   20.0000000000000000
    13     1     1
Selective dynamics
Direct
  0.2481290806395074  0.2068238333297298  0.0948235656152897   T   T   T
 -0.0048015831176594  0.2924452665620387  0.0989846030588273   T   T   T
  0.2504467941962573  0.0399852074103890  0.0952040804929430   T   T   T
 -0.0005584219194449  0.9562318665951246  0.0984659810294112   T   T   T
  0.7470105925450600  0.2080096617425314  0.0909441652801453   T   T   T
  0.4966514597479150  0.2928128500681921  0.0902889769413861   T   T   T
  0.7502391028996845  0.0406914385971994  0.0914720749604929   T   T   T
  0.7484359534352836  0.7151811214297037  0.1017041788549938   T   T   T
  0.7430999701278789  0.5391165112154275  0.1007920445383195   T   T   T
  0.5028424913671840  0.9552236046965363  0.0925250706518622   T   T   T
  0.5002267772858098  0.4591604337532190  0.0898859175245692   T   T   T
 -0.0111201949411146  0.4558791303030811  0.1120160980715730   T   T   T
 -0.0064560300598685  0.7930467320736356  0.1096153594672216   T   T   T
  0.5091812874128384  0.7936700817672631  0.0937326784544415   T   T   T
  0.2766727203806686  0.6234032604559311  0.1475252050585271   T   T   T
 
  0.00000000E+00  0.00000000E+00  0.00000000E+00
  0.00000000E+00  0.00000000E+00  0.00000000E+00
  0.00000000E+00  0.00000000E+00  0.00000000E+00
  0.00000000E+00  0.00000000E+00  0.00000000E+00
  0.00000000E+00  0.00000000E+00  0.00000000E+00
  0.00000000E+00  0.00000000E+00  0.00000000E+00
  0.00000000E+00  0.00000000E+00  0.00000000E+00
  0.00000000E+00  0.00000000E+00  0.00000000E+00
  0.00000000E+00  0.00000000E+00  0.00000000E+00
  0.00000000E+00  0.00000000E+00  0.00000000E+00
  0.00000000E+00  0.00000000E+00  0.00000000E+00
  0.00000000E+00  0.00000000E+00  0.00000000E+00
  0.00000000E+00  0.00000000E+00  0.00000000E+00
  0.00000000E+00  0.00000000E+00  0.00000000E+00
  0.00000000E+00  0.00000000E+00  0.00000000E+00
