Title                                   
   1.00000000000000     
     9.8694509999999998    0.0000000000000000    0.0000000000000000
     0.0000000000000000    8.5490480000000009    0.0000000000000000
     0.0000000000000000    0.0000000000000000   20.0000000000000000
    26     4     1
Selective dynamics
Direct
  0.0556097935427924  0.0905461278734655  0.0893197120151213   T   T   T
  0.9312728780359008  0.1721808405895167  0.0906901062258541   T   T   T
  0.0573608733246238  0.9242207737457452  0.0894440438320616   T   T   T
  0.9346070054598756  0.3399222049470271  0.0896207283986653   T   T   T
  0.0571598193603621  0.5899744974672246  0.0857095618190099   T   T   T
  0.9347416273214159  0.6750721238198095  0.0895184519994926   T   T   T
  0.0577688955899551  0.4234586222309464  0.0858176456349565   T   T   T
  0.9326028034953643  0.8410962463560546  0.0909526424271866   T   T   T
  0.3056238687408922  0.0891326164376375  0.0958235365350361   T   T   T
  0.1805533924967916  0.1711203934750691  0.0906294777792468   T   T   T
  0.1802619624120889  0.3387859831813519  0.0892857562922642   T   T   T
  0.3000065084797165  0.5908830635802305  0.0958601406003919   T   T   T
  0.1796293992009714  0.6744113078859798  0.0887460431785737   T   T   T
  0.3009829942600534  0.4212962643124146  0.0965287890480907   T   T   T
  0.1808598546340609  0.8417971834767934  0.0904523386671346   T   T   T
  0.5555486239021805  0.0894104317108920  0.1043918103617725   T   T   T
  0.4282296823889882  0.1750240079283197  0.1029947536677101   T   T   T
  0.5543087444570486  0.9179661515873245  0.1039897230808802   T   T   T
  0.4263343983486056  0.8347087561054288  0.1018563030623819   T   T   T
  0.8053780060595362  0.0895016412064465  0.0959253907477533   T   T   T
  0.6819920203480653  0.1749683687255877  0.1027576669704814   T   T   T
  0.8063464880803469  0.9212211422637770  0.0960005098858938   T   T   T
  0.6895032921186137  0.3434777678929158  0.1069783658235447   T   T   T
  0.8149847614527380  0.5924617781680511  0.0975494609815704   T   T   T
  0.8147122127608792  0.4235161466706637  0.0972900633308206   T   T   T
  0.6835922916579611  0.8325733208878413  0.1027529450201699   T   T   T
  0.4206468147159121  0.3390264007825411  0.1069278948318571   T   T   T
  0.6936630811492112  0.6702209040655754  0.1071975931606204   T   T   T
  0.4171598634338436  0.6763042319063196  0.1052559851357590   T   T   T
  0.3053482648106920  0.9233564471322632  0.0950757063508156   T   T   T
  0.5563447779605232  0.5032392535867971  0.1156218531349196   T   T   T
 
  0.00000000E+00  0.00000000E+00  0.00000000E+00
  0.00000000E+00  0.00000000E+00  0.00000000E+00
  0.00000000E+00  0.00000000E+00  0.00000000E+00
  0.00000000E+00  0.00000000E+00  0.00000000E+00
  0.00000000E+00  0.00000000E+00  0.00000000E+00
  0.00000000E+00  0.00000000E+00  0.00000000E+00
  0.00000000E+00  0.00000000E+00  0.00000000E+00
  0.00000000E+00  0.00000000E+00  0.00000000E+00
  0.00000000E+00  0.00000000E+00  0.00000000E+00
  0.00000000E+00  0.00000000E+00  0.00000000E+00
  0.00000000E+00  0.00000000E+00  0.00000000E+00
  0.00000000E+00  0.00000000E+00  0.00000000E+00
  0.00000000E+00  0.00000000E+00  0.00000000E+00
  0.00000000E+00  0.00000000E+00  0.00000000E+00
  0.00000000E+00  0.00000000E+00  0.00000000E+00
  0.00000000E+00  0.00000000E+00  0.00000000E+00
  0.00000000E+00  0.00000000E+00  0.00000000E+00
  0.00000000E+00  0.00000000E+00  0.00000000E+00
  0.00000000E+00  0.00000000E+00  0.00000000E+00
  0.00000000E+00  0.00000000E+00  0.00000000E+00
  0.00000000E+00  0.00000000E+00  0.00000000E+00
  0.00000000E+00  0.00000000E+00  0.00000000E+00
  0.00000000E+00  0.00000000E+00  0.00000000E+00
  0.00000000E+00  0.00000000E+00  0.00000000E+00
  0.00000000E+00  0.00000000E+00  0.00000000E+00
  0.00000000E+00  0.00000000E+00  0.00000000E+00
  0.00000000E+00  0.00000000E+00  0.00000000E+00
  0.00000000E+00  0.00000000E+00  0.00000000E+00
  0.00000000E+00  0.00000000E+00  0.00000000E+00
  0.00000000E+00  0.00000000E+00  0.00000000E+00
  0.00000000E+00  0.00000000E+00  0.00000000E+00
