Title                                   
   1.00000000000000     
     9.8694509999999998    0.0000000000000000    0.0000000000000000
     0.0000000000000000    8.5490480000000009    0.0000000000000000
     0.0000000000000000    0.0000000000000000   20.0000000000000000
    29     2     1
Selective dynamics
Direct
  0.0565845467414997  0.0903371452631730  0.0851025436291444   T   T   T
  0.9312500983021349  0.1728852749567993  0.0877382903072754   T   T   T
  0.0567162790662231  0.9231037125831587  0.0848521691946079   T   T   T
  0.9309265624330080  0.3400403779460957  0.0911156770160122   T   T   T
  0.0561991744725222  0.5894801583082101  0.0879599144695995   T   T   T
  0.9318175307721723  0.6727856313784963  0.0903968706654180   T   T   T
  0.0571201661930619  0.4232821423602980  0.0894948283082192   T   T   T
  0.9311930343049127  0.8399261469749504  0.0875104301072762   T   T   T
  0.3057807876248780  0.0887184609772033  0.0874212889422985   T   T   T
  0.1823377925894170  0.1741224993141562  0.0867300253668090   T   T   T
  0.3070705698689600  0.9231236157799254  0.0885393059877219   T   T   T
  0.1826025373396046  0.3406069899601618  0.0901909943550400   T   T   T
  0.3054921569664341  0.5893887941531470  0.0981019219146675   T   T   T
  0.1815569757083672  0.6716325614606771  0.0884806246052183   T   T   T
  0.1820533265654503  0.8384932568908621  0.0866326851525920   T   T   T
  0.5555257842533327  0.0875095549177377  0.0945522169995797   T   T   T
  0.4303452193369141  0.1709761312741881  0.0925200207085408   T   T   T
  0.4303636855045061  0.3369622339834193  0.1000832146682513   T   T   T
  0.4302924474769277  0.8398162512376537  0.0985269741337196   T   T   T
  0.8070484747498183  0.0894421299337512  0.0889995223941263   T   T   T
  0.6809155472049430  0.1701219734281743  0.0945043351781619   T   T   T
  0.8057859397188749  0.9238561843207346  0.0893983764008237   T   T   T
  0.6802632780309462  0.3354336242663307  0.1025441787013070   T   T   T
  0.8078634916687712  0.5908772779266566  0.1007064736182247   T   T   T
  0.8059830180534208  0.4224695453965667  0.0990405091736942   T   T   T
  0.6815015609407499  0.8413010512254342  0.0987138568572719   T   T   T
  0.4246354568352937  0.6769453287598713  0.1135389587150374   T   T   T
  0.5538104247717618  0.4118797334118632  0.1146860495786144   T   T   T
  0.6879029497800190  0.6802575894511635  0.1131862244636880   T   T   T
  0.5552075400882353  0.9222258683161030  0.0974514803902534   T   T   T
  0.3058383147687719  0.4230174217141149  0.0965502090376319   T   T   T
  0.5576543278680743  0.5892273321289234  0.1604048289591899   T   T   T
 
  0.00000000E+00  0.00000000E+00  0.00000000E+00
  0.00000000E+00  0.00000000E+00  0.00000000E+00
  0.00000000E+00  0.00000000E+00  0.00000000E+00
  0.00000000E+00  0.00000000E+00  0.00000000E+00
  0.00000000E+00  0.00000000E+00  0.00000000E+00
  0.00000000E+00  0.00000000E+00  0.00000000E+00
  0.00000000E+00  0.00000000E+00  0.00000000E+00
  0.00000000E+00  0.00000000E+00  0.00000000E+00
  0.00000000E+00  0.00000000E+00  0.00000000E+00
  0.00000000E+00  0.00000000E+00  0.00000000E+00
  0.00000000E+00  0.00000000E+00  0.00000000E+00
  0.00000000E+00  0.00000000E+00  0.00000000E+00
  0.00000000E+00  0.00000000E+00  0.00000000E+00
  0.00000000E+00  0.00000000E+00  0.00000000E+00
  0.00000000E+00  0.00000000E+00  0.00000000E+00
  0.00000000E+00  0.00000000E+00  0.00000000E+00
  0.00000000E+00  0.00000000E+00  0.00000000E+00
  0.00000000E+00  0.00000000E+00  0.00000000E+00
  0.00000000E+00  0.00000000E+00  0.00000000E+00
  0.00000000E+00  0.00000000E+00  0.00000000E+00
  0.00000000E+00  0.00000000E+00  0.00000000E+00
  0.00000000E+00  0.00000000E+00  0.00000000E+00
  0.00000000E+00  0.00000000E+00  0.00000000E+00
  0.00000000E+00  0.00000000E+00  0.00000000E+00
  0.00000000E+00  0.00000000E+00  0.00000000E+00
  0.00000000E+00  0.00000000E+00  0.00000000E+00
  0.00000000E+00  0.00000000E+00  0.00000000E+00
  0.00000000E+00  0.00000000E+00  0.00000000E+00
  0.00000000E+00  0.00000000E+00  0.00000000E+00
  0.00000000E+00  0.00000000E+00  0.00000000E+00
  0.00000000E+00  0.00000000E+00  0.00000000E+00
  0.00000000E+00  0.00000000E+00  0.00000000E+00
