Title                                   
   1.00000000000000     
     8.5490480000000009    0.0000000000000000    0.0000000000000000
     0.0000000000000000    8.5490480000000009    0.0000000000000000
     0.0000000000000000    0.0000000000000000   20.0000000000000000
    22     2     1
Selective dynamics
Direct
  0.9104140158159165  0.2047803242766365  0.0954521616566679   T   T   T
  0.9024318112417324  0.5018072355055364  0.0952921449869955   T   T   T
  0.9104256519113406  0.7987963275040096  0.0954639089931267   T   T   T
  0.1997462673238138  0.0839889505504625  0.0954691451237202   T   T   T
  0.0756118388545590  0.2069141122553412  0.0954513056437756   T   T   T
  0.1997603064787895  0.9195449111400290  0.0954853033570776   T   T   T
  0.1551137249024712  0.6473588804528813  0.0953652372447367   T   T   T
  0.0719407762685041  0.5017928292081656  0.0953333530183895   T   T   T
  0.1551091533865704  0.3562098150288284  0.0953580216450935   T   T   T
  0.0756203700908820  0.7966331635675846  0.0954697265032976   T   T   T
  0.4950906467781297  0.0873886821013352  0.0953500131422349   T   T   T
  0.3492421886274884  0.1676724406811014  0.0953695191746760   T   T   T
  0.4950992543133024  0.9161882963785414  0.0953559441311389   T   T   T
  0.3492523720606810  0.8358967743683116  0.0953843228170722   T   T   T
  0.7899650668467484  0.0852770393793189  0.0954677716579330   T   T   T
  0.6434679564782374  0.1664488047801476  0.0953088696828653   T   T   T
  0.7899770362788020  0.9183158509864874  0.0954728188657034   T   T   T
  0.8245316883632874  0.6499760035471914  0.0952931325544942   T   T   T
  0.8245331533467953  0.3536206827413163  0.0952878696384366   T   T   T
  0.6434766851757816  0.8371467572500682  0.0953162829968965   T   T   T
  0.3233880227378947  0.3368237361469447  0.0952768800415493   T   T   T
  0.3234015987844010  0.6667777787404381  0.0952886456376671   T   T   T
  0.6654358619497454  0.3285774171429930  0.0951432556322946   T   T   T
  0.6654314933481911  0.6750103528306258  0.0951494014880005   T   T   T
  0.4869450586359280  0.5018428334357178  0.0950999643661341   T   T   T
 
  0.00000000E+00  0.00000000E+00  0.00000000E+00
  0.00000000E+00  0.00000000E+00  0.00000000E+00
  0.00000000E+00  0.00000000E+00  0.00000000E+00
  0.00000000E+00  0.00000000E+00  0.00000000E+00
  0.00000000E+00  0.00000000E+00  0.00000000E+00
  0.00000000E+00  0.00000000E+00  0.00000000E+00
  0.00000000E+00  0.00000000E+00  0.00000000E+00
  0.00000000E+00  0.00000000E+00  0.00000000E+00
  0.00000000E+00  0.00000000E+00  0.00000000E+00
  0.00000000E+00  0.00000000E+00  0.00000000E+00
  0.00000000E+00  0.00000000E+00  0.00000000E+00
  0.00000000E+00  0.00000000E+00  0.00000000E+00
  0.00000000E+00  0.00000000E+00  0.00000000E+00
  0.00000000E+00  0.00000000E+00  0.00000000E+00
  0.00000000E+00  0.00000000E+00  0.00000000E+00
  0.00000000E+00  0.00000000E+00  0.00000000E+00
  0.00000000E+00  0.00000000E+00  0.00000000E+00
  0.00000000E+00  0.00000000E+00  0.00000000E+00
  0.00000000E+00  0.00000000E+00  0.00000000E+00
  0.00000000E+00  0.00000000E+00  0.00000000E+00
  0.00000000E+00  0.00000000E+00  0.00000000E+00
  0.00000000E+00  0.00000000E+00  0.00000000E+00
  0.00000000E+00  0.00000000E+00  0.00000000E+00
  0.00000000E+00  0.00000000E+00  0.00000000E+00
  0.00000000E+00  0.00000000E+00  0.00000000E+00
