Title                                   
   1.00000000000000     
     8.5490480000000009    0.0000000000000000    0.0000000000000000
     0.0000000000000000    8.5490480000000009    0.0000000000000000
     0.0000000000000000    0.0000000000000000   20.0000000000000000
    19     5     1
Selective dynamics
Direct
  0.9079222294438395  0.2065277834532700  0.0955030812683701   T   T   T
  0.9112857804419336  0.8006871128844456  0.0966442031249542   T   T   T
  0.1969678450777526  0.0827142665396306  0.0966998418841562   T   T   T
  0.0758434864135713  0.2018289494552887  0.0969288321375915   T   T   T
  0.1580813995746018  0.6497204150931895  0.0958447249729772   T   T   T
  0.0773857627402501  0.5005557747848868  0.0974090112136787   T   T   T
  0.1571526016239650  0.3503144149791462  0.0988095718638006   T   T   T
  0.0792788899856039  0.7991006156832952  0.0955882730500956   T   T   T
  0.3432821997249387  0.1643750901163971  0.0983562815226052   T   T   T
  0.4933296994844444  0.9186579216357947  0.0974679330066903   T   T   T
  0.3453867631810730  0.8361984563989127  0.0959451913222550   T   T   T
  0.7871950057601644  0.0867790603956224  0.0954882623942525   T   T   T
  0.6379362622515414  0.1691244530067943  0.0957744294272846   T   T   T
  0.7895458026264668  0.9196699475224791  0.0969183070363819   T   T   T
  0.8298778321846760  0.6520459033644915  0.0982978529032277   T   T   T
  0.8265202239115631  0.3562713149362391  0.0958621928009971   T   T   T
  0.6423879702157806  0.8376362909468770  0.0987834826391629   T   T   T
  0.3244138659454921  0.6727755559803784  0.0956349094386303   T   T   T
  0.6594813805781342  0.3357648659955113  0.0964257214258324   T   T   T
  0.4931985117510012  0.0866249947183498  0.0971827001192265   T   T   T
  0.9086200853276356  0.5024309120599156  0.0972002447846147   T   T   T
  0.3218741955027811  0.3260352345438710  0.1012686352308618   T   T   T
  0.6680889311843848  0.6725026619678981  0.1013117456741571   T   T   T
  0.1961037990217616  0.9159441136000563  0.0954345607587806   T   T   T
  0.4942514760466299  0.5005038899372720  0.1129250099993956   T   T   T
 
  0.00000000E+00  0.00000000E+00  0.00000000E+00
  0.00000000E+00  0.00000000E+00  0.00000000E+00
  0.00000000E+00  0.00000000E+00  0.00000000E+00
  0.00000000E+00  0.00000000E+00  0.00000000E+00
  0.00000000E+00  0.00000000E+00  0.00000000E+00
  0.00000000E+00  0.00000000E+00  0.00000000E+00
  0.00000000E+00  0.00000000E+00  0.00000000E+00
  0.00000000E+00  0.00000000E+00  0.00000000E+00
  0.00000000E+00  0.00000000E+00  0.00000000E+00
  0.00000000E+00  0.00000000E+00  0.00000000E+00
  0.00000000E+00  0.00000000E+00  0.00000000E+00
  0.00000000E+00  0.00000000E+00  0.00000000E+00
  0.00000000E+00  0.00000000E+00  0.00000000E+00
  0.00000000E+00  0.00000000E+00  0.00000000E+00
  0.00000000E+00  0.00000000E+00  0.00000000E+00
  0.00000000E+00  0.00000000E+00  0.00000000E+00
  0.00000000E+00  0.00000000E+00  0.00000000E+00
  0.00000000E+00  0.00000000E+00  0.00000000E+00
  0.00000000E+00  0.00000000E+00  0.00000000E+00
  0.00000000E+00  0.00000000E+00  0.00000000E+00
  0.00000000E+00  0.00000000E+00  0.00000000E+00
  0.00000000E+00  0.00000000E+00  0.00000000E+00
  0.00000000E+00  0.00000000E+00  0.00000000E+00
  0.00000000E+00  0.00000000E+00  0.00000000E+00
  0.00000000E+00  0.00000000E+00  0.00000000E+00
