Title                                   
   1.00000000000000     
     9.8694509999999998    0.0000000000000000    0.0000000000000000
     0.0000000000000000    8.5490480000000009    0.0000000000000000
     0.0000000000000000    0.0000000000000000   20.0000000000000000
    26     5     1
Selective dynamics
Direct
  0.0559506951409731  0.0924152274110767  0.0902770149276745   T   T   T
  0.9296263598625553  0.1760690810571254  0.0899485988453665   T   T   T
  0.0570462160021530  0.9238222862999267  0.0906814086589831   T   T   T
  0.9283735448159880  0.3427754637499358  0.0888602160997462   T   T   T
  0.0566351960694996  0.5907997612949643  0.0886452376299123   T   T   T
  0.9317788657989990  0.6728021751677943  0.0896816107416626   T   T   T
  0.0553320455158131  0.4232389726309528  0.0897036932471705   T   T   T
  0.9319798659860896  0.8403660163984624  0.0909350809934490   T   T   T
  0.3056619518859747  0.0877422240368389  0.0933369253235185   T   T   T
  0.1821399298326256  0.1738038541165072  0.0912308170287066   T   T   T
  0.3079709901297791  0.9222217538365476  0.0947404763786243   T   T   T
  0.1818613988548901  0.3401252579038356  0.0918831896457503   T   T   T
  0.3076707804745334  0.5884429320411830  0.1001967623362535   T   T   T
  0.1820311221761998  0.6711520881393076  0.0916938191143201   T   T   T
  0.1825828813135015  0.8387845152636022  0.0924291485337867   T   T   T
  0.5570131814277374  0.0860691290774311  0.0963887450170554   T   T   T
  0.4312425415722085  0.1692623655555916  0.0959529149872368   T   T   T
  0.4339483038080774  0.3348205527056172  0.0957338747718787   T   T   T
  0.4322350971370976  0.8378472751058289  0.1031780377456122   T   T   T
  0.8068035460418814  0.0905283219563287  0.0919761569323209   T   T   T
  0.6805543833460596  0.1715666454449591  0.0936186690196354   T   T   T
  0.8068206829183983  0.9250959408093232  0.0932012664633841   T   T   T
  0.6749613523343451  0.3379059292704656  0.0910812444393307   T   T   T
  0.8036925718767444  0.5952791869483496  0.0908544700197793   T   T   T
  0.6850032145245005  0.8384450779054680  0.0970895680088454   T   T   T
  0.4237995869434701  0.6758299852473899  0.1193968963175256   T   T   T
  0.5530383504816079  0.4153859207937307  0.0923579668587918   T   T   T
  0.6862906838855529  0.6792087806419018  0.0962747492703101   T   T   T
  0.5579842245686578  0.9193583897709268  0.0995372578802212   T   T   T
  0.3083320312418774  0.4216695750816897  0.0954360044544351   T   T   T
  0.7997245078542073  0.4266566731644587  0.0875038161919401   T   T   T
  0.5615528961780070  0.5807546411724799  0.1718493621167888   T   T   T
 
  0.00000000E+00  0.00000000E+00  0.00000000E+00
  0.00000000E+00  0.00000000E+00  0.00000000E+00
  0.00000000E+00  0.00000000E+00  0.00000000E+00
  0.00000000E+00  0.00000000E+00  0.00000000E+00
  0.00000000E+00  0.00000000E+00  0.00000000E+00
  0.00000000E+00  0.00000000E+00  0.00000000E+00
  0.00000000E+00  0.00000000E+00  0.00000000E+00
  0.00000000E+00  0.00000000E+00  0.00000000E+00
  0.00000000E+00  0.00000000E+00  0.00000000E+00
  0.00000000E+00  0.00000000E+00  0.00000000E+00
  0.00000000E+00  0.00000000E+00  0.00000000E+00
  0.00000000E+00  0.00000000E+00  0.00000000E+00
  0.00000000E+00  0.00000000E+00  0.00000000E+00
  0.00000000E+00  0.00000000E+00  0.00000000E+00
  0.00000000E+00  0.00000000E+00  0.00000000E+00
  0.00000000E+00  0.00000000E+00  0.00000000E+00
  0.00000000E+00  0.00000000E+00  0.00000000E+00
  0.00000000E+00  0.00000000E+00  0.00000000E+00
  0.00000000E+00  0.00000000E+00  0.00000000E+00
  0.00000000E+00  0.00000000E+00  0.00000000E+00
  0.00000000E+00  0.00000000E+00  0.00000000E+00
  0.00000000E+00  0.00000000E+00  0.00000000E+00
  0.00000000E+00  0.00000000E+00  0.00000000E+00
  0.00000000E+00  0.00000000E+00  0.00000000E+00
  0.00000000E+00  0.00000000E+00  0.00000000E+00
  0.00000000E+00  0.00000000E+00  0.00000000E+00
  0.00000000E+00  0.00000000E+00  0.00000000E+00
  0.00000000E+00  0.00000000E+00  0.00000000E+00
  0.00000000E+00  0.00000000E+00  0.00000000E+00
  0.00000000E+00  0.00000000E+00  0.00000000E+00
  0.00000000E+00  0.00000000E+00  0.00000000E+00
  0.00000000E+00  0.00000000E+00  0.00000000E+00
