Title                                   
   1.00000000000000     
     9.8694509999999998    0.0000000000000000    0.0000000000000000
     0.0000000000000000    8.5490480000000009    0.0000000000000000
     0.0000000000000000    0.0000000000000000   20.0000000000000000
    27     4     1
Selective dynamics
Direct
  0.0562242670277802  0.0920428966814828  0.0842007900319133   T   T   T
  0.9306128132258206  0.1749347087756918  0.0862066574904941   T   T   T
  0.0562117294307350  0.9243691531392388  0.0849372862519809   T   T   T
  0.9294123777871400  0.3419141278458329  0.0908481305242848   T   T   T
  0.0562584343041138  0.5897435280420763  0.0897188841209783   T   T   T
  0.9314797320757527  0.6733306375623493  0.0909794246398103   T   T   T
  0.0562564582338656  0.4233468394079484  0.0904088794886809   T   T   T
  0.9314615494610448  0.8403294396244166  0.0874476990773784   T   T   T
  0.3054032478303200  0.0897532386703448  0.0852730077719865   T   T   T
  0.1818809273118208  0.1749571876095081  0.0858360411938269   T   T   T
  0.3062302437597101  0.9239461927024734  0.0865342619137202   T   T   T
  0.1831115243704615  0.3419683292372828  0.0902556656444990   T   T   T
  0.3060970156589694  0.5940512838378991  0.0995674748356458   T   T   T
  0.1810248802720346  0.6733909040557435  0.0907536852391101   T   T   T
  0.3108195516725031  0.4249666854639976  0.0973477748676355   T   T   T
  0.1809831107152364  0.8403845665998074  0.0873618944129364   T   T   T
  0.5562122301909290  0.0840166463327266  0.0934380872455660   T   T   T
  0.4315757186854038  0.1681251158218952  0.0911576701379697   T   T   T
  0.4330756940647922  0.3324951977182099  0.0997203822245980   T   T   T
  0.4285231209260106  0.8394345862264329  0.0953835916305864   T   T   T
  0.8071166836161356  0.0896351778264844  0.0856063411689417   T   T   T
  0.6809845686070113  0.1679980417347260  0.0916318432104048   T   T   T
  0.8062137393222920  0.9238349874496322  0.0866092718661028   T   T   T
  0.6794840561394780  0.3323274594422196  0.1003155140329507   T   T   T
  0.8064536433167226  0.5939710945651070  0.1000271245306703   T   T   T
  0.8017663030109102  0.4248303543408365  0.0981250902805011   T   T   T
  0.6839226659094972  0.8393081159805592  0.0954260137550177   T   T   T
  0.4221160634567129  0.6846666959577725  0.1123365565882029   T   T   T
  0.5561477709919843  0.4008022598929726  0.1168193941711945   T   T   T
  0.6903821149562568  0.6846318507967478  0.1124747207458928   T   T   T
  0.5562008316186420  0.9171805470931836  0.0955771211198572   T   T   T
  0.5559959320499196  0.5835581495644013  0.1833487197866782   T   T   T
 
  0.00000000E+00  0.00000000E+00  0.00000000E+00
  0.00000000E+00  0.00000000E+00  0.00000000E+00
  0.00000000E+00  0.00000000E+00  0.00000000E+00
  0.00000000E+00  0.00000000E+00  0.00000000E+00
  0.00000000E+00  0.00000000E+00  0.00000000E+00
  0.00000000E+00  0.00000000E+00  0.00000000E+00
  0.00000000E+00  0.00000000E+00  0.00000000E+00
  0.00000000E+00  0.00000000E+00  0.00000000E+00
  0.00000000E+00  0.00000000E+00  0.00000000E+00
  0.00000000E+00  0.00000000E+00  0.00000000E+00
  0.00000000E+00  0.00000000E+00  0.00000000E+00
  0.00000000E+00  0.00000000E+00  0.00000000E+00
  0.00000000E+00  0.00000000E+00  0.00000000E+00
  0.00000000E+00  0.00000000E+00  0.00000000E+00
  0.00000000E+00  0.00000000E+00  0.00000000E+00
  0.00000000E+00  0.00000000E+00  0.00000000E+00
  0.00000000E+00  0.00000000E+00  0.00000000E+00
  0.00000000E+00  0.00000000E+00  0.00000000E+00
  0.00000000E+00  0.00000000E+00  0.00000000E+00
  0.00000000E+00  0.00000000E+00  0.00000000E+00
  0.00000000E+00  0.00000000E+00  0.00000000E+00
  0.00000000E+00  0.00000000E+00  0.00000000E+00
  0.00000000E+00  0.00000000E+00  0.00000000E+00
  0.00000000E+00  0.00000000E+00  0.00000000E+00
  0.00000000E+00  0.00000000E+00  0.00000000E+00
  0.00000000E+00  0.00000000E+00  0.00000000E+00
  0.00000000E+00  0.00000000E+00  0.00000000E+00
  0.00000000E+00  0.00000000E+00  0.00000000E+00
  0.00000000E+00  0.00000000E+00  0.00000000E+00
  0.00000000E+00  0.00000000E+00  0.00000000E+00
  0.00000000E+00  0.00000000E+00  0.00000000E+00
  0.00000000E+00  0.00000000E+00  0.00000000E+00
