Title                                   
   1.00000000000000     
     9.8694509999999998    0.0000000000000000    0.0000000000000000
     0.0000000000000000    8.5490480000000009    0.0000000000000000
     0.0000000000000000    0.0000000000000000   20.0000000000000000
    29     2     1
Selective dynamics
Direct
  0.0565162280184971  0.0911585744360780  0.0829181159286829   T   T   T
  0.9312296011816414  0.1734436664818735  0.0850566125223395   T   T   T
  0.0558957402343178  0.9239057926622910  0.0824918761089867   T   T   T
  0.9305840745070260  0.3396176435619033  0.0882673629602371   T   T   T
  0.0566663531957730  0.5891213596555276  0.0845035321620650   T   T   T
  0.9324164241239435  0.6724914046970614  0.0873589911669232   T   T   T
  0.0568379612317779  0.4228336390549589  0.0864640574496571   T   T   T
  0.9314040319285296  0.8396023675877057  0.0853932579646580   T   T   T
  0.3057333144438682  0.0902702817973937  0.0867140734786593   T   T   T
  0.1816278173688444  0.1746214309028530  0.0850109701023792   T   T   T
  0.3044966417234309  0.9244197273708399  0.0880990245944563   T   T   T
  0.1832301404160370  0.3414235835341696  0.0878891783962447   T   T   T
  0.3040322012765274  0.5934051784666510  0.0963607361652603   T   T   T
  0.1803808513531084  0.6736323049901024  0.0858197471679676   T   T   T
  0.3097051343274736  0.4251850905167808  0.0955150766205908   T   T   T
  0.1800139731405197  0.8407543233028120  0.0846790416718253   T   T   T
  0.5556331326449684  0.0854683103701736  0.0951026954325890   T   T   T
  0.4312139823395606  0.1705586254583052  0.0923930279922939   T   T   T
  0.5550713256741132  0.9196405117113398  0.1001116179046047   T   T   T
  0.4333627295396519  0.3350057944325037  0.0997644798024983   T   T   T
  0.4263586187721737  0.8406497896669479  0.0994527843946861   T   T   T
  0.8068775891599418  0.0891608730931143  0.0871827968037854   T   T   T
  0.6813814464746795  0.1690291084164213  0.0931202840448407   T   T   T
  0.8068507620169604  0.9232363686070399  0.0890624658264583   T   T   T
  0.6809454509405373  0.3334736383992907  0.1007206627151281   T   T   T
  0.8098259733912961  0.5897655617347912  0.0996943425920594   T   T   T
  0.6949833058275066  0.6799131241214614  0.1169985574752606   T   T   T
  0.8051710987263366  0.4217870570482563  0.0971410037999420   T   T   T
  0.6841595715432425  0.8405936936718279  0.1017260009168771   T   T   T
  0.4167939018636754  0.6822131606025214  0.1120742173742493   T   T   T
  0.5570668138332003  0.4038263939220581  0.1147186330318815   T   T   T
  0.5531728087808453  0.5900376197249543  0.1738697754319471   T   T   T
 
  0.00000000E+00  0.00000000E+00  0.00000000E+00
  0.00000000E+00  0.00000000E+00  0.00000000E+00
  0.00000000E+00  0.00000000E+00  0.00000000E+00
  0.00000000E+00  0.00000000E+00  0.00000000E+00
  0.00000000E+00  0.00000000E+00  0.00000000E+00
  0.00000000E+00  0.00000000E+00  0.00000000E+00
  0.00000000E+00  0.00000000E+00  0.00000000E+00
  0.00000000E+00  0.00000000E+00  0.00000000E+00
  0.00000000E+00  0.00000000E+00  0.00000000E+00
  0.00000000E+00  0.00000000E+00  0.00000000E+00
  0.00000000E+00  0.00000000E+00  0.00000000E+00
  0.00000000E+00  0.00000000E+00  0.00000000E+00
  0.00000000E+00  0.00000000E+00  0.00000000E+00
  0.00000000E+00  0.00000000E+00  0.00000000E+00
  0.00000000E+00  0.00000000E+00  0.00000000E+00
  0.00000000E+00  0.00000000E+00  0.00000000E+00
  0.00000000E+00  0.00000000E+00  0.00000000E+00
  0.00000000E+00  0.00000000E+00  0.00000000E+00
  0.00000000E+00  0.00000000E+00  0.00000000E+00
  0.00000000E+00  0.00000000E+00  0.00000000E+00
  0.00000000E+00  0.00000000E+00  0.00000000E+00
  0.00000000E+00  0.00000000E+00  0.00000000E+00
  0.00000000E+00  0.00000000E+00  0.00000000E+00
  0.00000000E+00  0.00000000E+00  0.00000000E+00
  0.00000000E+00  0.00000000E+00  0.00000000E+00
  0.00000000E+00  0.00000000E+00  0.00000000E+00
  0.00000000E+00  0.00000000E+00  0.00000000E+00
  0.00000000E+00  0.00000000E+00  0.00000000E+00
  0.00000000E+00  0.00000000E+00  0.00000000E+00
  0.00000000E+00  0.00000000E+00  0.00000000E+00
  0.00000000E+00  0.00000000E+00  0.00000000E+00
  0.00000000E+00  0.00000000E+00  0.00000000E+00
