Title                                   
   1.00000000000000     
     4.9440799999999996    0.0000000000000000    0.0000000000000000
     0.0000000000000000   17.1295089999999988    0.0000000000000000
     0.0000000000000000    0.0000000000000000   20.0000000000000000
    31     1
Selective dynamics
Direct
  0.0001251585122720  0.1042746920444750  0.2781320456606353   T   T   T
  0.2499656795839046  0.1458780931560873  0.2829265528250066   T   T   T
  0.2499380233056408  0.2282677382868105  0.2955945435016464   T   T   T
 -0.0022972054507361  0.3500089677677930  0.3210715363227782   T   T   T
 -0.0013017067023973  0.2690528412162776  0.3024449077471582   T   T   T
 -0.0031804808630859  0.6079616995541915  0.3177606017679955   T   T   T
  0.2498745264889214  0.7293362441052937  0.2934074374356652   T   T   T
  0.0002083884837379  0.8538393332279577  0.2771338324496047   T   T   T
  0.2499771433906938  0.8955670465824854  0.2743554737365573   T   T   T
  0.2499865493765722  0.9790802751311486  0.2722091642274325   T   T   T
  0.0002408123016616  0.7708831982263435  0.2863766556704002   T   T   T
  0.4998301449793850  0.1042758397730685  0.2781351756007100   T   T   T
  0.7499689330018652  0.1457106768273158  0.2821854273190386   T   T   T
  0.7499355767529634  0.2280642191396996  0.2938982014145286   T   T   T
  0.4999673487536900  0.0208846922126467  0.2729405642556882   T   T   T
  0.5020423518474316  0.3499985209561849  0.3210949991453860   T   T   T
  0.7498389740221334  0.3937350477087061  0.3264358339009031   T   T   T
  0.7497608989180417  0.4791927470500353  0.3298917256232300   T   T   T
  0.5011467050141617  0.2690441932795157  0.3024586513668112   T   T   T
  0.5028659731038113  0.6079744106481332  0.3178070899243369   T   T   T
  0.7498795011437400  0.7302412477592409  0.2918778658575011   T   T   T
  0.4997153943831544  0.8538395538847359  0.2771338373439455   T   T   T
  0.7499695699183370  0.8954194361396884  0.2741911294009110   T   T   T
  0.7499830060601975  0.9790708056289449  0.2720924607812544   T   T   T
  0.4995466298921412  0.7708852990755450  0.2863826378274251   T   T   T
  0.7498447371544086  0.6484542709900355  0.3066241271163467   T   T   T
  0.2498489769169134  0.6478456919837646  0.3105507079485597   T   T   T
 -0.0000014243286211  0.0208831528019439  0.2729368876006797   T   T   T
  0.5170880272661872  0.5272435808408231  0.3376750800368694   T   T   T
  0.9825228710256904  0.5272244880694255  0.3375893932365802   T   T   T
  0.2498613665847892  0.3851129001609891  0.3385332793643680   T   T   T
  0.2496705491623989  0.4793000957706885  0.3907171735899969   T   T   T
 
  0.00000000E+00  0.00000000E+00  0.00000000E+00
  0.00000000E+00  0.00000000E+00  0.00000000E+00
  0.00000000E+00  0.00000000E+00  0.00000000E+00
  0.00000000E+00  0.00000000E+00  0.00000000E+00
  0.00000000E+00  0.00000000E+00  0.00000000E+00
  0.00000000E+00  0.00000000E+00  0.00000000E+00
  0.00000000E+00  0.00000000E+00  0.00000000E+00
  0.00000000E+00  0.00000000E+00  0.00000000E+00
  0.00000000E+00  0.00000000E+00  0.00000000E+00
  0.00000000E+00  0.00000000E+00  0.00000000E+00
  0.00000000E+00  0.00000000E+00  0.00000000E+00
  0.00000000E+00  0.00000000E+00  0.00000000E+00
  0.00000000E+00  0.00000000E+00  0.00000000E+00
  0.00000000E+00  0.00000000E+00  0.00000000E+00
  0.00000000E+00  0.00000000E+00  0.00000000E+00
  0.00000000E+00  0.00000000E+00  0.00000000E+00
  0.00000000E+00  0.00000000E+00  0.00000000E+00
  0.00000000E+00  0.00000000E+00  0.00000000E+00
  0.00000000E+00  0.00000000E+00  0.00000000E+00
  0.00000000E+00  0.00000000E+00  0.00000000E+00
  0.00000000E+00  0.00000000E+00  0.00000000E+00
  0.00000000E+00  0.00000000E+00  0.00000000E+00
  0.00000000E+00  0.00000000E+00  0.00000000E+00
  0.00000000E+00  0.00000000E+00  0.00000000E+00
  0.00000000E+00  0.00000000E+00  0.00000000E+00
  0.00000000E+00  0.00000000E+00  0.00000000E+00
  0.00000000E+00  0.00000000E+00  0.00000000E+00
  0.00000000E+00  0.00000000E+00  0.00000000E+00
  0.00000000E+00  0.00000000E+00  0.00000000E+00
  0.00000000E+00  0.00000000E+00  0.00000000E+00
  0.00000000E+00  0.00000000E+00  0.00000000E+00
  0.00000000E+00  0.00000000E+00  0.00000000E+00
