Title                                   
   1.00000000000000     
     4.9440799999999996    0.0000000000000000    0.0000000000000000
     0.0000000000000000   17.1295089999999988    0.0000000000000000
     0.0000000000000000    0.0000000000000000   20.0000000000000000
    30     1
Selective dynamics
Direct
 -0.0001783089276529  0.1040758473370024  0.2976540804902572   T   T   T
  0.2503319796152274  0.1461438881897431  0.2982479334947981   T   T   T
  0.2503100788869136  0.2286816851085944  0.2997231448454948   T   T   T
  0.0005956639800497  0.2713303331436461  0.3006054175169180   T   T   T
  0.0006467997063849  0.6035995600096112  0.3014342159004986   T   T   T
  0.2503830195817368  0.7287810348935173  0.2989520845008024   T   T   T
  0.0000287046940080  0.8540300939622394  0.2971435372123783   T   T   T
  0.2503274798130762  0.8959257774717286  0.2968387895437183   T   T   T
  0.2503236409927994  0.9789886956616413  0.2966817618721804   T   T   T
 -0.0001310468484607  0.7708523382455835  0.2982429748240871   T   T   T
  0.5008207007888625  0.1040721357686071  0.2976534806066521   T   T   T
  0.7503184027352086  0.1457574738348130  0.2982218881927144   T   T   T
  0.7503100348642462  0.2291790928055925  0.2997190099279037   T   T   T
  0.5006140165894549  0.0208890790689062  0.2968462667316053   T   T   T
  0.7502654473389809  0.3947644536763558  0.3032054778284945   T   T   T
  0.7502991724654451  0.4801501053464197  0.3035087298084193   T   T   T
  0.5000072397862544  0.2713368002537960  0.3006159401870278   T   T   T
  0.5000631005183054  0.6035917170917402  0.3014412647876859   T   T   T
  0.7503663136402962  0.7291756403261421  0.2989407562741443   T   T   T
  0.5006276028307093  0.8540283696492051  0.2971526702341948   T   T   T
  0.7503275928631509  0.8957592412256872  0.2967753290259845   T   T   T
  0.7503129903222848  0.9791669382817679  0.2966116317798349   T   T   T
  0.5008639196222158  0.7708532671163263  0.2982528400192455   T   T   T
  0.7503485624584081  0.6457634655400123  0.3005424448523735   T   T   T
  0.2503682291325621  0.6462465858329137  0.3005213734213062   T   T   T
  0.0000203638839088  0.0208914083911596  0.2968494525847328   T   T   T
  0.5062514031481389  0.5218128396506697  0.3028421218266268   T   T   T
  0.9943522291806141  0.5218180400269271  0.3028403939686481   T   T   T
  0.5062003251843191  0.3531145701523351  0.3022894183206242   T   T   T
 -0.0056870790590229  0.3531099910933365  0.3022749318529930   T   T   T
  0.2503184202115770  0.4374515308439753  0.3024306375676069   T   T   T
 
  0.00000000E+00  0.00000000E+00  0.00000000E+00
  0.00000000E+00  0.00000000E+00  0.00000000E+00
  0.00000000E+00  0.00000000E+00  0.00000000E+00
  0.00000000E+00  0.00000000E+00  0.00000000E+00
  0.00000000E+00  0.00000000E+00  0.00000000E+00
  0.00000000E+00  0.00000000E+00  0.00000000E+00
  0.00000000E+00  0.00000000E+00  0.00000000E+00
  0.00000000E+00  0.00000000E+00  0.00000000E+00
  0.00000000E+00  0.00000000E+00  0.00000000E+00
  0.00000000E+00  0.00000000E+00  0.00000000E+00
  0.00000000E+00  0.00000000E+00  0.00000000E+00
  0.00000000E+00  0.00000000E+00  0.00000000E+00
  0.00000000E+00  0.00000000E+00  0.00000000E+00
  0.00000000E+00  0.00000000E+00  0.00000000E+00
  0.00000000E+00  0.00000000E+00  0.00000000E+00
  0.00000000E+00  0.00000000E+00  0.00000000E+00
  0.00000000E+00  0.00000000E+00  0.00000000E+00
  0.00000000E+00  0.00000000E+00  0.00000000E+00
  0.00000000E+00  0.00000000E+00  0.00000000E+00
  0.00000000E+00  0.00000000E+00  0.00000000E+00
  0.00000000E+00  0.00000000E+00  0.00000000E+00
  0.00000000E+00  0.00000000E+00  0.00000000E+00
  0.00000000E+00  0.00000000E+00  0.00000000E+00
  0.00000000E+00  0.00000000E+00  0.00000000E+00
  0.00000000E+00  0.00000000E+00  0.00000000E+00
  0.00000000E+00  0.00000000E+00  0.00000000E+00
  0.00000000E+00  0.00000000E+00  0.00000000E+00
  0.00000000E+00  0.00000000E+00  0.00000000E+00
  0.00000000E+00  0.00000000E+00  0.00000000E+00
  0.00000000E+00  0.00000000E+00  0.00000000E+00
  0.00000000E+00  0.00000000E+00  0.00000000E+00
