Title                                   
   1.00000000000000     
     4.9440799999999996    0.0000000000000000    0.0000000000000000
     0.0000000000000000   17.1295089999999988    0.0000000000000000
     0.0000000000000000    0.0000000000000000   20.0000000000000000
    26     4     1
Selective dynamics
Direct
  0.0011755936155166  0.1067977342861516  0.2982317332416022   T   T   T
  0.2502856801362005  0.1496664541901372  0.2987011034681679   T   T   T
  0.2502325206062505  0.2348335659900296  0.3001257812242463   T   T   T
 -0.0013918402297006  0.2761078237318212  0.3025912360377710   T   T   T
 -0.0014166667428027  0.5987902651813878  0.3029120807626834   T   T   T
  0.2502681831733782  0.7252545138537132  0.2991935404736437   T   T   T
  0.0007459610673759  0.8526889126313068  0.2975457741145419   T   T   T
  0.2503145834940527  0.8952100666642657  0.2970566444386331   T   T   T
  0.2503168984040833  0.9797679580680706  0.2968591550585675   T   T   T
  0.0011856541456922  0.7681471047044780  0.2987424115012666   T   T   T
  0.4994413147795778  0.1068190751724634  0.2976983518353435   T   T   T
  0.7503261505084265  0.1489716054554287  0.2985655844152875   T   T   T
  0.7503831246118128  0.2329824185559512  0.2999291186611029   T   T   T
  0.4998459580033365  0.0223054341699687  0.2968796174571811   T   T   T
  0.7502165655765418  0.3946913345108664  0.3022046573449035   T   T   T
  0.7502387885736654  0.4801934135979837  0.3022611086384220   T   T   T
  0.5019754495685959  0.2761124533819381  0.2988219426907108   T   T   T
  0.5019931939108813  0.5987938058807809  0.2991779113576555   T   T   T
  0.7503206555714601  0.7259631085379495  0.2990894124893673   T   T   T
  0.4998312387738779  0.8526693219113741  0.2972534469788397   T   T   T
  0.7502572418483263  0.8952289143106126  0.2970099028056837   T   T   T
  0.7502563468753183  0.9797511003380222  0.2968183266830041   T   T   T
  0.4994085828072173  0.7681245951971519  0.2982528967082912   T   T   T
  0.7503717042711771  0.6419437226972484  0.3003599800152844   T   T   T
  0.2502238664148395  0.6400662575347333  0.3005405542677308   T   T   T
  0.0007416266622514  0.0222811035621214  0.2972005359652766   T   T   T
  0.5106191887494451  0.5177226305558263  0.2967339097478536   T   T   T
  0.9901028393555267  0.5177588731308094  0.3072875795933356   T   T   T
  0.5106112326053924  0.3571690136329658  0.2965812291948058   T   T   T
 -0.0099101611269821  0.3571075818821828  0.3071746858900374   T   T   T
  0.2510355239892681  0.4374218366822558  0.3032597869387121   T   T   T
 
  0.00000000E+00  0.00000000E+00  0.00000000E+00
  0.00000000E+00  0.00000000E+00  0.00000000E+00
  0.00000000E+00  0.00000000E+00  0.00000000E+00
  0.00000000E+00  0.00000000E+00  0.00000000E+00
  0.00000000E+00  0.00000000E+00  0.00000000E+00
  0.00000000E+00  0.00000000E+00  0.00000000E+00
  0.00000000E+00  0.00000000E+00  0.00000000E+00
  0.00000000E+00  0.00000000E+00  0.00000000E+00
  0.00000000E+00  0.00000000E+00  0.00000000E+00
  0.00000000E+00  0.00000000E+00  0.00000000E+00
  0.00000000E+00  0.00000000E+00  0.00000000E+00
  0.00000000E+00  0.00000000E+00  0.00000000E+00
  0.00000000E+00  0.00000000E+00  0.00000000E+00
  0.00000000E+00  0.00000000E+00  0.00000000E+00
  0.00000000E+00  0.00000000E+00  0.00000000E+00
  0.00000000E+00  0.00000000E+00  0.00000000E+00
  0.00000000E+00  0.00000000E+00  0.00000000E+00
  0.00000000E+00  0.00000000E+00  0.00000000E+00
  0.00000000E+00  0.00000000E+00  0.00000000E+00
  0.00000000E+00  0.00000000E+00  0.00000000E+00
  0.00000000E+00  0.00000000E+00  0.00000000E+00
  0.00000000E+00  0.00000000E+00  0.00000000E+00
  0.00000000E+00  0.00000000E+00  0.00000000E+00
  0.00000000E+00  0.00000000E+00  0.00000000E+00
  0.00000000E+00  0.00000000E+00  0.00000000E+00
  0.00000000E+00  0.00000000E+00  0.00000000E+00
  0.00000000E+00  0.00000000E+00  0.00000000E+00
  0.00000000E+00  0.00000000E+00  0.00000000E+00
  0.00000000E+00  0.00000000E+00  0.00000000E+00
  0.00000000E+00  0.00000000E+00  0.00000000E+00
  0.00000000E+00  0.00000000E+00  0.00000000E+00
