Title                                   
   1.00000000000000     
     9.8694509999999998    0.0000000000000000    0.0000000000000000
     0.0000000000000000    8.5490480000000009    0.0000000000000000
     0.0000000000000000    0.0000000000000000   20.0000000000000000
    25     6     1
Selective dynamics
Direct
  0.0563289940719669  0.0926866654563277  0.0883158052094988   T   T   T
  0.9299870611768293  0.1751627508784081  0.0900083964037989   T   T   T
  0.0562816130651681  0.9237337531884162  0.0875860102618586   T   T   T
  0.9297494098813764  0.3412972349520889  0.0930000545616802   T   T   T
  0.0561234777969112  0.5898698616830829  0.0887108728092954   T   T   T
  0.9311621636413461  0.6713420624778249  0.0902396978904639   T   T   T
  0.0562915452048190  0.4231596917359555  0.0914572263292250   T   T   T
  0.9311399716978382  0.8396269925710795  0.0891895659613265   T   T   T
  0.3061252427445329  0.0895338136957156  0.0881257644363114   T   T   T
  0.1825651834974830  0.1752236953868945  0.0891300233209244   T   T   T
  0.3068233222683030  0.9235059464232604  0.0884414257665774   T   T   T
  0.1827722848331304  0.3413182030478917  0.0915302689925348   T   T   T
  0.3070508181787108  0.5927009729485266  0.0935840199278644   T   T   T
  0.1810604838278387  0.6713788067320777  0.0884561547802402   T   T   T
  0.1815384206955154  0.8396403601593184  0.0877987725959797   T   T   T
  0.5562940470632108  0.0856231239300839  0.0948707988675451   T   T   T
  0.4317653571053151  0.1701438481189338  0.0921985207741323   T   T   T
  0.4346065114489648  0.3358624882568924  0.0973129635263809   T   T   T
  0.4287124962511215  0.8366271211711903  0.0940849727813166   T   T   T
  0.8065553501452237  0.0893557777740476  0.0892401927246570   T   T   T
  0.6810775199246654  0.1701873952925482  0.0935821903362392   T   T   T
  0.8058274026449469  0.9232352738421404  0.0897387442000536   T   T   T
  0.6783199778098041  0.3356613948465589  0.0994482054703994   T   T   T
  0.8058287425484076  0.5924344535796883  0.0977481987656880   T   T   T
  0.6840557960321909  0.8368551969794932  0.0966564969412199   T   T   T
  0.4244564056100492  0.6771072833623913  0.1019460502814710   T   T   T
  0.5559935787727088  0.4095690373703687  0.1126583541612179   T   T   T
  0.6903262561094197  0.6788637259657515  0.1111485251498561   T   T   T
  0.5563555237278037  0.9161024613127995  0.0958198750887307   T   T   T
  0.3114316518198048  0.4245561013194345  0.0942238949640551   T   T   T
  0.8012800522320509  0.4246152945905362  0.0974093974464970   T   T   T
  0.5517523381725497  0.5932652109502728  0.1820135592729768   T   T   T
 
  0.00000000E+00  0.00000000E+00  0.00000000E+00
  0.00000000E+00  0.00000000E+00  0.00000000E+00
  0.00000000E+00  0.00000000E+00  0.00000000E+00
  0.00000000E+00  0.00000000E+00  0.00000000E+00
  0.00000000E+00  0.00000000E+00  0.00000000E+00
  0.00000000E+00  0.00000000E+00  0.00000000E+00
  0.00000000E+00  0.00000000E+00  0.00000000E+00
  0.00000000E+00  0.00000000E+00  0.00000000E+00
  0.00000000E+00  0.00000000E+00  0.00000000E+00
  0.00000000E+00  0.00000000E+00  0.00000000E+00
  0.00000000E+00  0.00000000E+00  0.00000000E+00
  0.00000000E+00  0.00000000E+00  0.00000000E+00
  0.00000000E+00  0.00000000E+00  0.00000000E+00
  0.00000000E+00  0.00000000E+00  0.00000000E+00
  0.00000000E+00  0.00000000E+00  0.00000000E+00
  0.00000000E+00  0.00000000E+00  0.00000000E+00
  0.00000000E+00  0.00000000E+00  0.00000000E+00
  0.00000000E+00  0.00000000E+00  0.00000000E+00
  0.00000000E+00  0.00000000E+00  0.00000000E+00
  0.00000000E+00  0.00000000E+00  0.00000000E+00
  0.00000000E+00  0.00000000E+00  0.00000000E+00
  0.00000000E+00  0.00000000E+00  0.00000000E+00
  0.00000000E+00  0.00000000E+00  0.00000000E+00
  0.00000000E+00  0.00000000E+00  0.00000000E+00
  0.00000000E+00  0.00000000E+00  0.00000000E+00
  0.00000000E+00  0.00000000E+00  0.00000000E+00
  0.00000000E+00  0.00000000E+00  0.00000000E+00
  0.00000000E+00  0.00000000E+00  0.00000000E+00
  0.00000000E+00  0.00000000E+00  0.00000000E+00
  0.00000000E+00  0.00000000E+00  0.00000000E+00
  0.00000000E+00  0.00000000E+00  0.00000000E+00
  0.00000000E+00  0.00000000E+00  0.00000000E+00
