Title                                   
   1.00000000000000     
     4.9440799999999996    0.0000000000000000    0.0000000000000000
     0.0000000000000000   17.1295089999999988    0.0000000000000000
     0.0000000000000000    0.0000000000000000   20.0000000000000000
    30     1     1
Selective dynamics
Direct
  0.0003238733977356  0.1042503222544030  0.2801674625651884   T   T   T
  0.2504148668137813  0.1457746421158876  0.2852729168155328   T   T   T
  0.2505650182426189  0.2275386071955721  0.2984314303343689   T   T   T
  0.0006522058343079  0.3485330999771433  0.3233926143187634   T   T   T
 -0.0007310029830648  0.2683231325279367  0.3052762177136988   T   T   T
 -0.0031258379334037  0.6078954744701135  0.3129940703110065   T   T   T
  0.2499449595237203  0.7300047023180196  0.2909252154947836   T   T   T
  0.0002946116061432  0.8543858951045550  0.2761125431331779   T   T   T
  0.2500174268883028  0.8962253801834648  0.2741081947019708   T   T   T
  0.2501284410727397  0.9795134727259603  0.2731698697816823   T   T   T
  0.0003612864667909  0.7715183525466229  0.2839516656738283   T   T   T
  0.5003722381523054  0.1042330427154562  0.2801781096457117   T   T   T
  0.7503680975012386  0.1456582929420761  0.2844152695147305   T   T   T
  0.7505661402977243  0.2275778315036077  0.2964601431394637   T   T   T
  0.5002358798196969  0.0212374648023373  0.2742902404661619   T   T   T
  0.5008630982802763  0.3484741802578357  0.3236134756142013   T   T   T
  0.7506734918843505  0.3940566465574438  0.3294175604240291   T   T   T
  0.7496424044269020  0.4809168943340324  0.3310404529550954   T   T   T
  0.5019280407689737  0.2683505742253298  0.3053567340580399   T   T   T
  0.5028026910063148  0.6078468091736222  0.3140609517207830   T   T   T
  0.7496739274835633  0.7305431855465102  0.2886919319764844   T   T   T
  0.4996682776512860  0.8544328562615620  0.2761601205774124   T   T   T
  0.7500348379027678  0.8960361433461553  0.2737231935694215   T   T   T
  0.7501558789987598  0.9794124176608934  0.2728696528726967   T   T   T
  0.4993416559541797  0.7715916073730970  0.2840792403562963   T   T   T
  0.7494622312253666  0.6489006260833128  0.3021219270418660   T   T   T
  0.2500345803070804  0.6485662962795391  0.3071308489518871   T   T   T
  0.0001391817181449  0.0212532960049630  0.2742737461082945   T   T   T
  0.5096847518334753  0.5275340290680750  0.3335218937807751   T   T   T
  0.9896855329170152  0.5272580926434559  0.3303614914521345   T   T   T
  0.2507741157285858  0.3821549306424440  0.3378910326254665   T   T   T
  0.2418700972123269  0.4785527011585646  0.3991047823050010   T   T   T
 
  0.00000000E+00  0.00000000E+00  0.00000000E+00
  0.00000000E+00  0.00000000E+00  0.00000000E+00
  0.00000000E+00  0.00000000E+00  0.00000000E+00
  0.00000000E+00  0.00000000E+00  0.00000000E+00
  0.00000000E+00  0.00000000E+00  0.00000000E+00
  0.00000000E+00  0.00000000E+00  0.00000000E+00
  0.00000000E+00  0.00000000E+00  0.00000000E+00
  0.00000000E+00  0.00000000E+00  0.00000000E+00
  0.00000000E+00  0.00000000E+00  0.00000000E+00
  0.00000000E+00  0.00000000E+00  0.00000000E+00
  0.00000000E+00  0.00000000E+00  0.00000000E+00
  0.00000000E+00  0.00000000E+00  0.00000000E+00
  0.00000000E+00  0.00000000E+00  0.00000000E+00
  0.00000000E+00  0.00000000E+00  0.00000000E+00
  0.00000000E+00  0.00000000E+00  0.00000000E+00
  0.00000000E+00  0.00000000E+00  0.00000000E+00
  0.00000000E+00  0.00000000E+00  0.00000000E+00
  0.00000000E+00  0.00000000E+00  0.00000000E+00
  0.00000000E+00  0.00000000E+00  0.00000000E+00
  0.00000000E+00  0.00000000E+00  0.00000000E+00
  0.00000000E+00  0.00000000E+00  0.00000000E+00
  0.00000000E+00  0.00000000E+00  0.00000000E+00
  0.00000000E+00  0.00000000E+00  0.00000000E+00
  0.00000000E+00  0.00000000E+00  0.00000000E+00
  0.00000000E+00  0.00000000E+00  0.00000000E+00
  0.00000000E+00  0.00000000E+00  0.00000000E+00
  0.00000000E+00  0.00000000E+00  0.00000000E+00
  0.00000000E+00  0.00000000E+00  0.00000000E+00
  0.00000000E+00  0.00000000E+00  0.00000000E+00
  0.00000000E+00  0.00000000E+00  0.00000000E+00
  0.00000000E+00  0.00000000E+00  0.00000000E+00
  0.00000000E+00  0.00000000E+00  0.00000000E+00
