Title                                   
   1.00000000000000     
     9.8694509999999998    0.0000000000000000    0.0000000000000000
     0.0000000000000000    8.5490480000000009    0.0000000000000000
     0.0000000000000000    0.0000000000000000   20.0000000000000000
    29     1     1
Selective dynamics
Direct
  0.0553827648138952  0.0884481499559730  0.0810983596618007   T   T   T
  0.9310492613033315  0.1729667239698215  0.0882847078449426   T   T   T
  0.0561755970034004  0.9224171907540828  0.0810881720718093   T   T   T
  0.9323735183682523  0.3397367233879964  0.0909826269439966   T   T   T
  0.0560166590531492  0.5894355106707521  0.0820953511098102   T   T   T
  0.9326313896919727  0.6735825708044867  0.0912200790006696   T   T   T
  0.0555827418201806  0.4230770287780987  0.0820872038879754   T   T   T
  0.9317763545949956  0.8401250548136721  0.0886116613166276   T   T   T
  0.3058134334173547  0.0885779569874984  0.0828355426742773   T   T   T
  0.1801978953691899  0.1709980904720131  0.0794625345249865   T   T   T
  0.3072871400399225  0.9218388547925191  0.0823889749024500   T   T   T
  0.1794390681872413  0.3377431510764592  0.0788819519066725   T   T   T
  0.3069557730343381  0.5889748936017603  0.0812077487349267   T   T   T
  0.1807732684902306  0.6716391294717620  0.0785939769414883   T   T   T
  0.3045581869744565  0.4172025709392208  0.0819311828647524   T   T   T
  0.1820069899927482  0.8387570906122385  0.0788110914434345   T   T   T
  0.5556058533013426  0.0916817950399437  0.1036647191170958   T   T   T
  0.4280573246849236  0.1761548795678927  0.0924610526140473   T   T   T
  0.5561982291878875  0.9251670041072292  0.1037134313088216   T   T   T
  0.4298817507764320  0.6713015203112351  0.0894693119810265   T   T   T
  0.4316712348609311  0.8365037944680077  0.0914755197183165   T   T   T
  0.8068702471873371  0.0907651380552001  0.0956861898683928   T   T   T
  0.6841031461088932  0.1768309993483164  0.1084822731146605   T   T   T
  0.8072863069095720  0.9237988430984402  0.0961223042992475   T   T   T
  0.6909966780720765  0.3382329373691470  0.1222180470855149   T   T   T
  0.8123041439595673  0.5931947470009533  0.1092115957770159   T   T   T
  0.6919029207748550  0.6777574701174909  0.1243744013725924   T   T   T
  0.8120338796650868  0.4216474812562043  0.1088553417434084   T   T   T
  0.6848694440901612  0.8396001416420740  0.1096180064353619   T   T   T
  0.4229000826989908  0.3360907905960980  0.0920191831077251   T   T   T
  0.5304337155672941  0.5066267669334258  0.1640124566261940   T   T   T
 
  0.00000000E+00  0.00000000E+00  0.00000000E+00
  0.00000000E+00  0.00000000E+00  0.00000000E+00
  0.00000000E+00  0.00000000E+00  0.00000000E+00
  0.00000000E+00  0.00000000E+00  0.00000000E+00
  0.00000000E+00  0.00000000E+00  0.00000000E+00
  0.00000000E+00  0.00000000E+00  0.00000000E+00
  0.00000000E+00  0.00000000E+00  0.00000000E+00
  0.00000000E+00  0.00000000E+00  0.00000000E+00
  0.00000000E+00  0.00000000E+00  0.00000000E+00
  0.00000000E+00  0.00000000E+00  0.00000000E+00
  0.00000000E+00  0.00000000E+00  0.00000000E+00
  0.00000000E+00  0.00000000E+00  0.00000000E+00
  0.00000000E+00  0.00000000E+00  0.00000000E+00
  0.00000000E+00  0.00000000E+00  0.00000000E+00
  0.00000000E+00  0.00000000E+00  0.00000000E+00
  0.00000000E+00  0.00000000E+00  0.00000000E+00
  0.00000000E+00  0.00000000E+00  0.00000000E+00
  0.00000000E+00  0.00000000E+00  0.00000000E+00
  0.00000000E+00  0.00000000E+00  0.00000000E+00
  0.00000000E+00  0.00000000E+00  0.00000000E+00
  0.00000000E+00  0.00000000E+00  0.00000000E+00
  0.00000000E+00  0.00000000E+00  0.00000000E+00
  0.00000000E+00  0.00000000E+00  0.00000000E+00
  0.00000000E+00  0.00000000E+00  0.00000000E+00
  0.00000000E+00  0.00000000E+00  0.00000000E+00
  0.00000000E+00  0.00000000E+00  0.00000000E+00
  0.00000000E+00  0.00000000E+00  0.00000000E+00
  0.00000000E+00  0.00000000E+00  0.00000000E+00
  0.00000000E+00  0.00000000E+00  0.00000000E+00
  0.00000000E+00  0.00000000E+00  0.00000000E+00
  0.00000000E+00  0.00000000E+00  0.00000000E+00
