Title                                   
   1.00000000000000     
     4.9440799999999996    0.0000000000000000    0.0000000000000000
     0.0000000000000000    8.5647549999999999    0.0000000000000000
     0.0000000000000000    0.0000000000000000   20.0000000000000000
    10     4     1
Selective dynamics
Direct
  0.2500000000000000  0.2107723416805199  0.0987263966439012   T   T   T
 -0.0024807401424047  0.2939650840287074  0.0983693199741138   T   T   T
  0.2500000000000000  0.0388193821950459  0.0987396973968169   T   T   T
 -0.0024567812658697  0.9555833643909787  0.0983891487763956   T   T   T
  0.7500000000000000  0.2089459212967389  0.0961621605515260   T   T   T
  0.5024807401424050  0.2939650840287074  0.0983693199741138   T   T   T
  0.7500000000000000  0.0405594322855776  0.0961814165927962   T   T   T
  0.7500000000000000  0.7147965481178434  0.1013944415253575   T   T   T
  0.7500000000000000  0.5347980841721865  0.1013458088116278   T   T   T
  0.5024567812658699  0.9555833643909787  0.0983891487763956   T   T   T
  0.5129836152090843  0.4571173050450332  0.1021316616197980   T   T   T
 -0.0129836152090841  0.4571173050450332  0.1021316616197980   T   T   T
 -0.0129610652933926  0.7924488868561912  0.1021513974980815   T   T   T
  0.5129610652933927  0.7924488868561912  0.1021513974980815   T   T   T
  0.2500000000000000  0.6247600096102685  0.1133470227412000   T   T   T
 
  0.00000000E+00  0.00000000E+00  0.00000000E+00
  0.00000000E+00  0.00000000E+00  0.00000000E+00
  0.00000000E+00  0.00000000E+00  0.00000000E+00
  0.00000000E+00  0.00000000E+00  0.00000000E+00
  0.00000000E+00  0.00000000E+00  0.00000000E+00
  0.00000000E+00  0.00000000E+00  0.00000000E+00
  0.00000000E+00  0.00000000E+00  0.00000000E+00
  0.00000000E+00  0.00000000E+00  0.00000000E+00
  0.00000000E+00  0.00000000E+00  0.00000000E+00
  0.00000000E+00  0.00000000E+00  0.00000000E+00
  0.00000000E+00  0.00000000E+00  0.00000000E+00
  0.00000000E+00  0.00000000E+00  0.00000000E+00
  0.00000000E+00  0.00000000E+00  0.00000000E+00
  0.00000000E+00  0.00000000E+00  0.00000000E+00
  0.00000000E+00  0.00000000E+00  0.00000000E+00
