Title                                   
   1.00000000000000     
     4.9440799999999996    0.0000000000000000    0.0000000000000000
     0.0000000000000000    8.5647549999999999    0.0000000000000000
     0.0000000000000000    0.0000000000000000   20.0000000000000000
    12     2     1
Selective dynamics
Direct
  0.2449341458310480  0.2093500896347284  0.0971102900199661   T   T   T
 -0.0104423563411421  0.2943065558262347  0.0990034213400141   T   T   T
  0.2550761800273533  0.0402192613266833  0.0971305664418388   T   T   T
  0.0092977285959272  0.9548159243424243  0.0937476131131213   T   T   T
  0.7438973935881136  0.2094923955454471  0.0929328661410024   T   T   T
  0.4907420581984122  0.2947344448988748  0.0937330033981678   T   T   T
  0.7561323287347562  0.0400315150878659  0.0929612536749359   T   T   T
  0.7588034242972733  0.7117134616447062  0.1011460984116530   T   T   T
  0.7411620273330027  0.5378930173223976  0.1011369556407956   T   T   T
  0.5104311407250177  0.9552658230344344  0.0990666455479678   T   T   T
  0.4945438603848367  0.4631048383537549  0.0929346472489401   T   T   T
  0.0054246361725842  0.7864681872887503  0.0929488510983813   T   T   T
 -0.0211203487094402  0.4545131705289056  0.1108427458369685   T   T   T
  0.5211150992574883  0.7950633752742362  0.1108710052725669   T   T   T
  0.2500026819047692  0.6247089398905580  0.1324140368136840   T   T   T
 
  0.00000000E+00  0.00000000E+00  0.00000000E+00
  0.00000000E+00  0.00000000E+00  0.00000000E+00
  0.00000000E+00  0.00000000E+00  0.00000000E+00
  0.00000000E+00  0.00000000E+00  0.00000000E+00
  0.00000000E+00  0.00000000E+00  0.00000000E+00
  0.00000000E+00  0.00000000E+00  0.00000000E+00
  0.00000000E+00  0.00000000E+00  0.00000000E+00
  0.00000000E+00  0.00000000E+00  0.00000000E+00
  0.00000000E+00  0.00000000E+00  0.00000000E+00
  0.00000000E+00  0.00000000E+00  0.00000000E+00
  0.00000000E+00  0.00000000E+00  0.00000000E+00
  0.00000000E+00  0.00000000E+00  0.00000000E+00
  0.00000000E+00  0.00000000E+00  0.00000000E+00
  0.00000000E+00  0.00000000E+00  0.00000000E+00
  0.00000000E+00  0.00000000E+00  0.00000000E+00
