Title                                   
   1.00000000000000     
     4.9440799999999996    0.0000000000000000    0.0000000000000000
     0.0000000000000000   17.1295089999999988    0.0000000000000000
     0.0000000000000000    0.0000000000000000   20.0000000000000000
    28     3     1
Selective dynamics
Direct
  0.0015442093901940  0.1047798352872804  0.2852970316494244   T   T   T
  0.2516711941022470  0.1468153050493085  0.2881753471666841   T   T   T
  0.2524253552293020  0.2300210039492982  0.2964030499047112   T   T   T
  0.0078113537454840  0.3517039740070673  0.3155184306628341   T   T   T
  0.0003255479350698  0.2712202383198765  0.3002616483239190   T   T   T
 -0.0056385975787323  0.6023731341756086  0.3036720670620284   T   T   T
  0.2486711931985134  0.7273060883430809  0.2932895196155931   T   T   T
  0.0003397120069856  0.8535079117935975  0.2847721272453772   T   T   T
  0.2500752871802102  0.8955684022375814  0.2839869612164697   T   T   T
  0.2506412038857623  0.9792161033414344  0.2829719301011715   T   T   T
  0.0000059579746608  0.7698904490781108  0.2886611153142610   T   T   T
  0.5012498340078444  0.1047421938676032  0.2855392797286528   T   T   T
  0.7514839852811079  0.1467119079581478  0.2872432872211146   T   T   T
  0.7519148436465913  0.2293971719758295  0.2939084117250205   T   T   T
  0.5008399985118220  0.0211915076116183  0.2831742595489096   T   T   T
  0.4976850437144094  0.3521474501825604  0.3173312621842770   T   T   T
  0.7512686863825391  0.4826550149048270  0.3204953398964422   T   T   T
  0.5044340557128303  0.2713967536183844  0.3012791056747977   T   T   T
  0.5033112200066309  0.6043081925005301  0.3113571978480596   T   T   T
  0.7495864773813814  0.7286848628486284  0.2915322955017028   T   T   T
  0.4994796196339419  0.8534288320907860  0.2854246871945325   T   T   T
  0.7500901700089290  0.8953611374617289  0.2837103884659619   T   T   T
  0.7506402546424202  0.9790907313854021  0.2827038588488665   T   T   T
  0.4987194241375718  0.7698729318076334  0.2899208447058331   T   T   T
  0.7488047784824887  0.6457514805496617  0.2994275555960269   T   T   T
  0.2489709532017476  0.6440705889135699  0.3032713527397629   T   T   T
  0.0007683594466440  0.0212100895390775  0.2829900395340968   T   T   T
  0.5183273487913453  0.5256207470830971  0.3344234617257958   T   T   T
  0.9878024659939906  0.5216277525908478  0.3071824051708602   T   T   T
  0.2518241023425391  0.3861471973470419  0.3300235530160084   T   T   T
  0.7541238741757477  0.3967686573746690  0.3213316480183939   T   T   T
  0.2176250874277868  0.4859633528061041  0.3872855373923603   T   T   T
 
  0.00000000E+00  0.00000000E+00  0.00000000E+00
  0.00000000E+00  0.00000000E+00  0.00000000E+00
  0.00000000E+00  0.00000000E+00  0.00000000E+00
  0.00000000E+00  0.00000000E+00  0.00000000E+00
  0.00000000E+00  0.00000000E+00  0.00000000E+00
  0.00000000E+00  0.00000000E+00  0.00000000E+00
  0.00000000E+00  0.00000000E+00  0.00000000E+00
  0.00000000E+00  0.00000000E+00  0.00000000E+00
  0.00000000E+00  0.00000000E+00  0.00000000E+00
  0.00000000E+00  0.00000000E+00  0.00000000E+00
  0.00000000E+00  0.00000000E+00  0.00000000E+00
  0.00000000E+00  0.00000000E+00  0.00000000E+00
  0.00000000E+00  0.00000000E+00  0.00000000E+00
  0.00000000E+00  0.00000000E+00  0.00000000E+00
  0.00000000E+00  0.00000000E+00  0.00000000E+00
  0.00000000E+00  0.00000000E+00  0.00000000E+00
  0.00000000E+00  0.00000000E+00  0.00000000E+00
  0.00000000E+00  0.00000000E+00  0.00000000E+00
  0.00000000E+00  0.00000000E+00  0.00000000E+00
  0.00000000E+00  0.00000000E+00  0.00000000E+00
  0.00000000E+00  0.00000000E+00  0.00000000E+00
  0.00000000E+00  0.00000000E+00  0.00000000E+00
  0.00000000E+00  0.00000000E+00  0.00000000E+00
  0.00000000E+00  0.00000000E+00  0.00000000E+00
  0.00000000E+00  0.00000000E+00  0.00000000E+00
  0.00000000E+00  0.00000000E+00  0.00000000E+00
  0.00000000E+00  0.00000000E+00  0.00000000E+00
  0.00000000E+00  0.00000000E+00  0.00000000E+00
  0.00000000E+00  0.00000000E+00  0.00000000E+00
  0.00000000E+00  0.00000000E+00  0.00000000E+00
  0.00000000E+00  0.00000000E+00  0.00000000E+00
  0.00000000E+00  0.00000000E+00  0.00000000E+00
