Title                                   
   1.00000000000000     
     4.9440799999999996    0.0000000000000000    0.0000000000000000
     0.0000000000000000    8.5647549999999999    0.0000000000000000
     0.0000000000000000    0.0000000000000000   20.0000000000000000
    15     1
Selective dynamics
Direct
  0.2500000000000000  0.2066247152523845  0.0909796008075059   T   T   T
 -0.0010640080180778  0.2887905868030596  0.0947596088510815   T   T   T
  0.2500000000000000  0.0418395373978014  0.0870723405313487   T   T   T
 -0.0017688361345380  0.7949749029670007  0.0995460276242346   T   T   T
 -0.0005487741308938  0.9591756615719758  0.0874413009003042   T   T   T
  0.7500000000000000  0.2067252972533852  0.0865351676119855   T   T   T
  0.5010640080180778  0.2887905868030596  0.0947596088510815   T   T   T
  0.7500000000000000  0.0409139851964382  0.0833161813670147   T   T   T
  0.7500000000000000  0.7103301808440050  0.1021595062120331   T   T   T
  0.5017688361345380  0.7949749029670007  0.0995460276242346   T   T   T
  0.7500000000000000  0.5429332906254085  0.1054908810775662   T   T   T
  0.5005487741308936  0.9591756615719758  0.0874413009003042   T   T   T
  0.5162691814267042  0.4490584207065990  0.1097141838897922   T   T   T
 -0.0162691814267040  0.4490584207065990  0.1097141838897922   T   T   T
  0.2500000000000000  0.7267309882979878  0.1141330471040614   T   T   T
  0.2500000000000000  0.5399028610353188  0.1699030327576668   T   T   T
 
  0.00000000E+00  0.00000000E+00  0.00000000E+00
  0.00000000E+00  0.00000000E+00  0.00000000E+00
  0.00000000E+00  0.00000000E+00  0.00000000E+00
  0.00000000E+00  0.00000000E+00  0.00000000E+00
  0.00000000E+00  0.00000000E+00  0.00000000E+00
  0.00000000E+00  0.00000000E+00  0.00000000E+00
  0.00000000E+00  0.00000000E+00  0.00000000E+00
  0.00000000E+00  0.00000000E+00  0.00000000E+00
  0.00000000E+00  0.00000000E+00  0.00000000E+00
  0.00000000E+00  0.00000000E+00  0.00000000E+00
  0.00000000E+00  0.00000000E+00  0.00000000E+00
  0.00000000E+00  0.00000000E+00  0.00000000E+00
  0.00000000E+00  0.00000000E+00  0.00000000E+00
  0.00000000E+00  0.00000000E+00  0.00000000E+00
  0.00000000E+00  0.00000000E+00  0.00000000E+00
  0.00000000E+00  0.00000000E+00  0.00000000E+00
