Title                                   
   1.00000000000000     
     9.8694509999999998    0.0000000000000000    0.0000000000000000
     0.0000000000000000    8.5490480000000009    0.0000000000000000
     0.0000000000000000    0.0000000000000000   20.0000000000000000
    27     3     1
Selective dynamics
Direct
  0.0565110327914207  0.0895821508733568  0.0916715358648351   T   T   T
  0.9319975689338625  0.1719735422766108  0.0972568727548687   T   T   T
  0.0579814190072517  0.9232027651752526  0.0918569970577440   T   T   T
  0.9343961331987344  0.3390585869567481  0.0999548158891680   T   T   T
  0.0590846101761138  0.5900887762851685  0.0953099541481071   T   T   T
  0.9346924602007031  0.6734929813331207  0.0999341434255114   T   T   T
  0.0589574802993843  0.4227233101378735  0.0949240001508167   T   T   T
  0.9325177153210962  0.8400404325854992  0.0970770738272248   T   T   T
  0.3070184419738694  0.0883180097733578  0.0834078270316890   T   T   T
  0.1815479330884278  0.1717810793393985  0.0870319043533342   T   T   T
  0.1815490869107452  0.3384741969874290  0.0883916446314808   T   T   T
  0.3065778438632507  0.5901643356391617  0.0824519660242429   T   T   T
  0.1822469453265810  0.6739554632991358  0.0895169079840733   T   T   T
  0.3066608020913751  0.4215181834631923  0.0819920129703980   T   T   T
  0.1820569541262053  0.8396820864227308  0.0880830606661368   T   T   T
  0.5556301096058553  0.0912218124598506  0.0933464795332083   T   T   T
  0.4305966299008359  0.1727627694815475  0.0843183206865077   T   T   T
  0.5544828035059655  0.9215852050474660  0.0934450535148149   T   T   T
  0.4298131833390177  0.8389455432771421  0.0852536770162812   T   T   T
  0.8054430733059766  0.0898493269050625  0.0988674771799489   T   T   T
  0.6807048195816269  0.1771962286234213  0.1017738085596738   T   T   T
  0.8056338525814423  0.9220979161534579  0.0984635605002436   T   T   T
  0.6851966699015398  0.3433111379057287  0.1113402422468042   T   T   T
  0.8120187893073194  0.5905567374083771  0.1071102638894155   T   T   T
  0.6855985646280891  0.6689661198364145  0.1102754781189005   T   T   T
  0.8118258337616736  0.4218122778626524  0.1074364770489815   T   T   T
  0.6804284915665831  0.8345529861122072  0.1010492274565815   T   T   T
  0.4275947046289383  0.3364395537431096  0.0809692842633464   T   T   T
  0.4268689066506851  0.6778614043285870  0.0806831085365160   T   T   T
  0.3073970451697969  0.9230734282924850  0.0838764219842754   T   T   T
  0.5301050952556500  0.5065866520144615  0.1338954026849185   T   T   T
 
  0.00000000E+00  0.00000000E+00  0.00000000E+00
  0.00000000E+00  0.00000000E+00  0.00000000E+00
  0.00000000E+00  0.00000000E+00  0.00000000E+00
  0.00000000E+00  0.00000000E+00  0.00000000E+00
  0.00000000E+00  0.00000000E+00  0.00000000E+00
  0.00000000E+00  0.00000000E+00  0.00000000E+00
  0.00000000E+00  0.00000000E+00  0.00000000E+00
  0.00000000E+00  0.00000000E+00  0.00000000E+00
  0.00000000E+00  0.00000000E+00  0.00000000E+00
  0.00000000E+00  0.00000000E+00  0.00000000E+00
  0.00000000E+00  0.00000000E+00  0.00000000E+00
  0.00000000E+00  0.00000000E+00  0.00000000E+00
  0.00000000E+00  0.00000000E+00  0.00000000E+00
  0.00000000E+00  0.00000000E+00  0.00000000E+00
  0.00000000E+00  0.00000000E+00  0.00000000E+00
  0.00000000E+00  0.00000000E+00  0.00000000E+00
  0.00000000E+00  0.00000000E+00  0.00000000E+00
  0.00000000E+00  0.00000000E+00  0.00000000E+00
  0.00000000E+00  0.00000000E+00  0.00000000E+00
  0.00000000E+00  0.00000000E+00  0.00000000E+00
  0.00000000E+00  0.00000000E+00  0.00000000E+00
  0.00000000E+00  0.00000000E+00  0.00000000E+00
  0.00000000E+00  0.00000000E+00  0.00000000E+00
  0.00000000E+00  0.00000000E+00  0.00000000E+00
  0.00000000E+00  0.00000000E+00  0.00000000E+00
  0.00000000E+00  0.00000000E+00  0.00000000E+00
  0.00000000E+00  0.00000000E+00  0.00000000E+00
  0.00000000E+00  0.00000000E+00  0.00000000E+00
  0.00000000E+00  0.00000000E+00  0.00000000E+00
  0.00000000E+00  0.00000000E+00  0.00000000E+00
  0.00000000E+00  0.00000000E+00  0.00000000E+00
