Title                                   
   1.00000000000000     
     9.8694509999999998    0.0000000000000000    0.0000000000000000
     0.0000000000000000    8.5490480000000009    0.0000000000000000
     0.0000000000000000    0.0000000000000000   20.0000000000000000
    27     4     1
Selective dynamics
Direct
  0.0559525808851531  0.0923044288035663  0.0857458779225567   T   T   T
  0.9312242270740687  0.1742042921565414  0.0878513259453882   T   T   T
  0.0573971443471857  0.9245569679600998  0.0851829840050853   T   T   T
  0.9301244316698309  0.3417556940623943  0.0907048780289453   T   T   T
  0.0567979937740364  0.5900920198827080  0.0866022397991746   T   T   T
  0.9325602283349419  0.6736826390433612  0.0886504150165516   T   T   T
  0.0566532843662408  0.4228320753425344  0.0886400217795273   T   T   T
  0.9329812989313671  0.8402032751696329  0.0872533319808217   T   T   T
  0.3060688803103775  0.0884074354781500  0.0886397936469959   T   T   T
  0.1819942005501080  0.1733030102016509  0.0874294991938836   T   T   T
  0.1835363444607328  0.3403184512192019  0.0900586511845361   T   T   T
  0.3042147152029808  0.5922116451617553  0.0977978384535886   T   T   T
  0.1806490623363023  0.6747390925713544  0.0881715400682368   T   T   T
  0.3093892155793639  0.4250144994049859  0.0970310369232736   T   T   T
  0.1806462769532159  0.8407461431047452  0.0871457997461531   T   T   T
  0.5568136093314285  0.0840798160290997  0.0955580831542068   T   T   T
  0.4307846343323888  0.1678617758210950  0.0935154481753281   T   T   T
  0.5552733020610505  0.9177335615228565  0.0995008293218078   T   T   T
  0.4329435977080554  0.3335732559967907  0.1001178849638075   T   T   T
  0.4255572878605230  0.8395036745639888  0.1003313509212487   T   T   T
  0.8067443275607540  0.0891584800868163  0.0887681497866929   T   T   T
  0.6807752507408521  0.1687757523780850  0.0935714267259315   T   T   T
  0.8075761007793862  0.9233893615396672  0.0896860809495509   T   T   T
  0.6793459083565072  0.3347181034014641  0.1004554159287434   T   T   T
  0.8083161651462549  0.5928771074191346  0.0982644320003079   T   T   T
  0.8031820817524572  0.4244068940439696  0.0975614397096939   T   T   T
  0.6849729932065133  0.8381753603263757  0.0992638773208910   T   T   T
  0.4158649876434211  0.6842693958373173  0.1125933874941971   T   T   T
  0.5556783858671049  0.4039711121491849  0.1120435772386757   T   T   T
  0.6944797717232400  0.6808266302529572  0.1109757246781978   T   T   T
  0.3052649041800023  0.9234809426626799  0.0896122640726066   T   T   T
  0.5558758069741587  0.5890731064058380  0.1669503938634102   T   T   T
 
  0.00000000E+00  0.00000000E+00  0.00000000E+00
  0.00000000E+00  0.00000000E+00  0.00000000E+00
  0.00000000E+00  0.00000000E+00  0.00000000E+00
  0.00000000E+00  0.00000000E+00  0.00000000E+00
  0.00000000E+00  0.00000000E+00  0.00000000E+00
  0.00000000E+00  0.00000000E+00  0.00000000E+00
  0.00000000E+00  0.00000000E+00  0.00000000E+00
  0.00000000E+00  0.00000000E+00  0.00000000E+00
  0.00000000E+00  0.00000000E+00  0.00000000E+00
  0.00000000E+00  0.00000000E+00  0.00000000E+00
  0.00000000E+00  0.00000000E+00  0.00000000E+00
  0.00000000E+00  0.00000000E+00  0.00000000E+00
  0.00000000E+00  0.00000000E+00  0.00000000E+00
  0.00000000E+00  0.00000000E+00  0.00000000E+00
  0.00000000E+00  0.00000000E+00  0.00000000E+00
  0.00000000E+00  0.00000000E+00  0.00000000E+00
  0.00000000E+00  0.00000000E+00  0.00000000E+00
  0.00000000E+00  0.00000000E+00  0.00000000E+00
  0.00000000E+00  0.00000000E+00  0.00000000E+00
  0.00000000E+00  0.00000000E+00  0.00000000E+00
  0.00000000E+00  0.00000000E+00  0.00000000E+00
  0.00000000E+00  0.00000000E+00  0.00000000E+00
  0.00000000E+00  0.00000000E+00  0.00000000E+00
  0.00000000E+00  0.00000000E+00  0.00000000E+00
  0.00000000E+00  0.00000000E+00  0.00000000E+00
  0.00000000E+00  0.00000000E+00  0.00000000E+00
  0.00000000E+00  0.00000000E+00  0.00000000E+00
  0.00000000E+00  0.00000000E+00  0.00000000E+00
  0.00000000E+00  0.00000000E+00  0.00000000E+00
  0.00000000E+00  0.00000000E+00  0.00000000E+00
  0.00000000E+00  0.00000000E+00  0.00000000E+00
  0.00000000E+00  0.00000000E+00  0.00000000E+00
