Title                                   
   1.00000000000000     
     9.8694509999999998    0.0000000000000000    0.0000000000000000
     0.0000000000000000    8.5490480000000009    0.0000000000000000
     0.0000000000000000    0.0000000000000000   20.0000000000000000
    26     4     1
Selective dynamics
Direct
  0.0551133602968932  0.0896765212137422  0.0835947279420252   T   T   T
  0.9299669783782121  0.1736573500900381  0.0840716656984782   T   T   T
  0.0573631017134050  0.9232194501910979  0.0838126587009813   T   T   T
  0.9320036696728278  0.3415743042616730  0.0840159133419477   T   T   T
  0.0571034792230759  0.5900568247163053  0.0829729093134449   T   T   T
  0.9331014051753997  0.6740032577852669  0.0849959604435522   T   T   T
  0.0569611301747889  0.4228645592899783  0.0829094736441234   T   T   T
  0.9324223826969673  0.8410000850734701  0.0854378585412097   T   T   T
  0.3058816927061280  0.0862725990796848  0.0914755716886494   T   T   T
  0.1810942390206465  0.1707047759256872  0.0867746307259223   T   T   T
  0.1808888045237366  0.3372584301728063  0.0870466921047501   T   T   T
  0.3058864145315210  0.5868846605046042  0.0969460858320087   T   T   T
  0.1823122389451516  0.6722927266465278  0.0864354032383519   T   T   T
  0.3040025334393410  0.4172100730420881  0.0973835596068763   T   T   T
  0.1828130121179005  0.8386493269428619  0.0859934629724463   T   T   T
  0.4282351284510377  0.1725457562481030  0.1007591006682937   T   T   T
  0.5555618321046298  0.9220169078611726  0.1018627780066792   T   T   T
  0.4246957304110941  0.6746296546219003  0.1095909471390223   T   T   T
  0.4292524634060885  0.8374211825075610  0.1017302010628858   T   T   T
  0.8040261521616912  0.0898528530594100  0.0879808357084830   T   T   T
  0.6799734529221095  0.1778655398132252  0.0956338553551804   T   T   T
  0.8064933197300390  0.9241210493936135  0.0894607159406029   T   T   T
  0.6838098752066518  0.3408353028113732  0.0999455434697484   T   T   T
  0.8089682162300177  0.5944302424672354  0.0923031542602842   T   T   T
  0.8071564805688544  0.4245533837449664  0.0907497617482987   T   T   T
  0.6825830134939547  0.8383835297127818  0.0988160035582817   T   T   T
  0.5549427191415488  0.0923596618722294  0.1006645553081653   T   T   T
  0.4217590531909233  0.3313364353505013  0.1098593561835630   T   T   T
  0.6900198029348241  0.6765683374302217  0.1046491511710375   T   T   T
  0.3059283130028331  0.9225536178891379  0.0903529687431509   T   T   T
  0.5628150044277090  0.5060766002807608  0.1627394978815896   T   T   T
 
  0.00000000E+00  0.00000000E+00  0.00000000E+00
  0.00000000E+00  0.00000000E+00  0.00000000E+00
  0.00000000E+00  0.00000000E+00  0.00000000E+00
  0.00000000E+00  0.00000000E+00  0.00000000E+00
  0.00000000E+00  0.00000000E+00  0.00000000E+00
  0.00000000E+00  0.00000000E+00  0.00000000E+00
  0.00000000E+00  0.00000000E+00  0.00000000E+00
  0.00000000E+00  0.00000000E+00  0.00000000E+00
  0.00000000E+00  0.00000000E+00  0.00000000E+00
  0.00000000E+00  0.00000000E+00  0.00000000E+00
  0.00000000E+00  0.00000000E+00  0.00000000E+00
  0.00000000E+00  0.00000000E+00  0.00000000E+00
  0.00000000E+00  0.00000000E+00  0.00000000E+00
  0.00000000E+00  0.00000000E+00  0.00000000E+00
  0.00000000E+00  0.00000000E+00  0.00000000E+00
  0.00000000E+00  0.00000000E+00  0.00000000E+00
  0.00000000E+00  0.00000000E+00  0.00000000E+00
  0.00000000E+00  0.00000000E+00  0.00000000E+00
  0.00000000E+00  0.00000000E+00  0.00000000E+00
  0.00000000E+00  0.00000000E+00  0.00000000E+00
  0.00000000E+00  0.00000000E+00  0.00000000E+00
  0.00000000E+00  0.00000000E+00  0.00000000E+00
  0.00000000E+00  0.00000000E+00  0.00000000E+00
  0.00000000E+00  0.00000000E+00  0.00000000E+00
  0.00000000E+00  0.00000000E+00  0.00000000E+00
  0.00000000E+00  0.00000000E+00  0.00000000E+00
  0.00000000E+00  0.00000000E+00  0.00000000E+00
  0.00000000E+00  0.00000000E+00  0.00000000E+00
  0.00000000E+00  0.00000000E+00  0.00000000E+00
  0.00000000E+00  0.00000000E+00  0.00000000E+00
  0.00000000E+00  0.00000000E+00  0.00000000E+00
