Title                                   
   1.00000000000000     
     9.8694509999999998    0.0000000000000000    0.0000000000000000
     0.0000000000000000    8.5490480000000009    0.0000000000000000
     0.0000000000000000    0.0000000000000000   20.0000000000000000
    28     3     1
Selective dynamics
Direct
  0.0562477978680540  0.0921398062007039  0.0823920407443477   T   T   T
  0.9307270455416562  0.1747462923072966  0.0843956514273831   T   T   T
  0.0562372736728570  0.9248510454523193  0.0825563166172335   T   T   T
  0.9294900590628288  0.3414029326184565  0.0880212053605787   T   T   T
  0.0562280956809586  0.5894485972617356  0.0851644703425823   T   T   T
  0.9325502702505868  0.6740581342777335  0.0877296333125619   T   T   T
  0.0562421858454688  0.4234561691995815  0.0866106343079268   T   T   T
  0.9324224405936297  0.8406290641520863  0.0855566360281255   T   T   T
  0.3057873228504233  0.0893308203583094  0.0857103115085907   T   T   T
  0.1817586595738779  0.1747464713077199  0.0843901241050729   T   T   T
  0.3049181496969952  0.9236625046177166  0.0878560084785878   T   T   T
  0.1829982186912223  0.3414069714477904  0.0879823362380844   T   T   T
  0.3027613124034824  0.5926912327755245  0.0991537389862859   T   T   T
  0.1798991212200416  0.6740823463478230  0.0876539812327014   T   T   T
  0.3092344617873649  0.4247242111458709  0.0968144499811287   T   T   T
  0.1800494551658036  0.8406619595326735  0.0855236674230292   T   T   T
  0.5562450637617218  0.0833594215422738  0.0943129296396095   T   T   T
  0.4313748550756461  0.1689833179192926  0.0919337367121607   T   T   T
  0.5562389208180949  0.9171769548994757  0.0992407431069755   T   T   T
  0.4323074578138925  0.3326276810663698  0.1006117222568568   T   T   T
  0.4263227455338816  0.8395383365410577  0.0997874670484131   T   T   T
  0.8067070867638081  0.0892967304269245  0.0857298546978165   T   T   T
  0.6811358382807378  0.1689709830772341  0.0919613697477579   T   T   T
  0.8075610918215903  0.9236128227572314  0.0878974652111966   T   T   T
  0.6801944549524157  0.3326126971588704  0.1006749586897098   T   T   T
  0.8097363435889010  0.5926491686147837  0.0993206815242408   T   T   T
  0.8032623729484687  0.4247041652400362  0.0969274457560366   T   T   T
  0.6861640133750280  0.8394907367803736  0.0998703349264407   T   T   T
  0.4151836750606928  0.6830088011406921  0.1164024936371267   T   T   T
  0.5562321039069363  0.4008302203468814  0.1177281022355666   T   T   T
  0.6973217003437456  0.6830015585184785  0.1165728694951972   T   T   T
  0.5560994060491934  0.5883438449666913  0.1691916192207087   T   T   T
 
  0.00000000E+00  0.00000000E+00  0.00000000E+00
  0.00000000E+00  0.00000000E+00  0.00000000E+00
  0.00000000E+00  0.00000000E+00  0.00000000E+00
  0.00000000E+00  0.00000000E+00  0.00000000E+00
  0.00000000E+00  0.00000000E+00  0.00000000E+00
  0.00000000E+00  0.00000000E+00  0.00000000E+00
  0.00000000E+00  0.00000000E+00  0.00000000E+00
  0.00000000E+00  0.00000000E+00  0.00000000E+00
  0.00000000E+00  0.00000000E+00  0.00000000E+00
  0.00000000E+00  0.00000000E+00  0.00000000E+00
  0.00000000E+00  0.00000000E+00  0.00000000E+00
  0.00000000E+00  0.00000000E+00  0.00000000E+00
  0.00000000E+00  0.00000000E+00  0.00000000E+00
  0.00000000E+00  0.00000000E+00  0.00000000E+00
  0.00000000E+00  0.00000000E+00  0.00000000E+00
  0.00000000E+00  0.00000000E+00  0.00000000E+00
  0.00000000E+00  0.00000000E+00  0.00000000E+00
  0.00000000E+00  0.00000000E+00  0.00000000E+00
  0.00000000E+00  0.00000000E+00  0.00000000E+00
  0.00000000E+00  0.00000000E+00  0.00000000E+00
  0.00000000E+00  0.00000000E+00  0.00000000E+00
  0.00000000E+00  0.00000000E+00  0.00000000E+00
  0.00000000E+00  0.00000000E+00  0.00000000E+00
  0.00000000E+00  0.00000000E+00  0.00000000E+00
  0.00000000E+00  0.00000000E+00  0.00000000E+00
  0.00000000E+00  0.00000000E+00  0.00000000E+00
  0.00000000E+00  0.00000000E+00  0.00000000E+00
  0.00000000E+00  0.00000000E+00  0.00000000E+00
  0.00000000E+00  0.00000000E+00  0.00000000E+00
  0.00000000E+00  0.00000000E+00  0.00000000E+00
  0.00000000E+00  0.00000000E+00  0.00000000E+00
  0.00000000E+00  0.00000000E+00  0.00000000E+00
