Title                                   
   1.00000000000000     
     9.8694509999999998    0.0000000000000000    0.0000000000000000
     0.0000000000000000    8.5490480000000009    0.0000000000000000
     0.0000000000000000    0.0000000000000000   20.0000000000000000
    27     4     1
Selective dynamics
Direct
  0.0558360867041994  0.0921525778048390  0.0856151374462421   T   T   T
  0.9310011682250151  0.1743816817321689  0.0870256946314770   T   T   T
  0.0572492213089623  0.9246718089495777  0.0859163689545777   T   T   T
  0.9301228719577193  0.3415038613146369  0.0897012541121852   T   T   T
  0.0568780291533465  0.5898622089613925  0.0864297635105421   T   T   T
  0.9326987856298443  0.6731918472505298  0.0889139257447451   T   T   T
  0.0567677446962451  0.4228304476906000  0.0878940959884444   T   T   T
  0.9329474626806865  0.8402197862410781  0.0877944914192274   T   T   T
  0.3055087999179855  0.0883817249940219  0.0885818608271894   T   T   T
  0.1818009678709100  0.1733688830626904  0.0870551741333278   T   T   T
  0.1835115834296958  0.3404408452878426  0.0889865842318064   T   T   T
  0.3039444275819514  0.5924661805433187  0.0979156007105236   T   T   T
  0.1808720131347156  0.6741588719346490  0.0885607138299861   T   T   T
  0.3099350224013302  0.4250944694104760  0.0958533486122566   T   T   T
  0.1808813019562020  0.8411522729162195  0.0881265156999008   T   T   T
  0.5566296991800446  0.0844314203726520  0.0941365910489532   T   T   T
  0.4308066795281588  0.1680580037895966  0.0928386630826782   T   T   T
  0.5550391639927497  0.9172445314361779  0.0981823710028360   T   T   T
  0.4327111910245148  0.3331142910081368  0.0995859054337798   T   T   T
  0.4252067917886652  0.8403115015975211  0.1001788520998881   T   T   T
  0.8067496117574208  0.0892078735086325  0.0878065717789305   T   T   T
  0.6810108281648014  0.1689593748857491  0.0923888517430915   T   T   T
  0.8073805612135615  0.9233029746934573  0.0894903495308374   T   T   T
  0.6795115692531377  0.3342500743127470  0.0999446225369972   T   T   T
  0.8090540657136908  0.5927840247593937  0.0986868653522836   T   T   T
  0.8030801786862146  0.4244951589535620  0.0970090634089851   T   T   T
  0.6849224159588472  0.8384881051580121  0.0991235635031621   T   T   T
  0.4152502845999089  0.6845421676554814  0.1148965016101455   T   T   T
  0.5559284553742631  0.4038708358303798  0.1132425778986657   T   T   T
  0.6948666954403562  0.6806502229585345  0.1131141427545003   T   T   T
  0.3051809789472301  0.9238843688293616  0.0902157991053802   T   T   T
  0.5563543427276323  0.5887736021565647  0.1704631782564697   T   T   T
 
  0.00000000E+00  0.00000000E+00  0.00000000E+00
  0.00000000E+00  0.00000000E+00  0.00000000E+00
  0.00000000E+00  0.00000000E+00  0.00000000E+00
  0.00000000E+00  0.00000000E+00  0.00000000E+00
  0.00000000E+00  0.00000000E+00  0.00000000E+00
  0.00000000E+00  0.00000000E+00  0.00000000E+00
  0.00000000E+00  0.00000000E+00  0.00000000E+00
  0.00000000E+00  0.00000000E+00  0.00000000E+00
  0.00000000E+00  0.00000000E+00  0.00000000E+00
  0.00000000E+00  0.00000000E+00  0.00000000E+00
  0.00000000E+00  0.00000000E+00  0.00000000E+00
  0.00000000E+00  0.00000000E+00  0.00000000E+00
  0.00000000E+00  0.00000000E+00  0.00000000E+00
  0.00000000E+00  0.00000000E+00  0.00000000E+00
  0.00000000E+00  0.00000000E+00  0.00000000E+00
  0.00000000E+00  0.00000000E+00  0.00000000E+00
  0.00000000E+00  0.00000000E+00  0.00000000E+00
  0.00000000E+00  0.00000000E+00  0.00000000E+00
  0.00000000E+00  0.00000000E+00  0.00000000E+00
  0.00000000E+00  0.00000000E+00  0.00000000E+00
  0.00000000E+00  0.00000000E+00  0.00000000E+00
  0.00000000E+00  0.00000000E+00  0.00000000E+00
  0.00000000E+00  0.00000000E+00  0.00000000E+00
  0.00000000E+00  0.00000000E+00  0.00000000E+00
  0.00000000E+00  0.00000000E+00  0.00000000E+00
  0.00000000E+00  0.00000000E+00  0.00000000E+00
  0.00000000E+00  0.00000000E+00  0.00000000E+00
  0.00000000E+00  0.00000000E+00  0.00000000E+00
  0.00000000E+00  0.00000000E+00  0.00000000E+00
  0.00000000E+00  0.00000000E+00  0.00000000E+00
  0.00000000E+00  0.00000000E+00  0.00000000E+00
  0.00000000E+00  0.00000000E+00  0.00000000E+00
