Title                                   
   1.00000000000000     
     4.9440799999999996    0.0000000000000000    0.0000000000000000
     0.0000000000000000   17.1295089999999988    0.0000000000000000
     0.0000000000000000    0.0000000000000000   20.0000000000000000
    30     1
Selective dynamics
Direct
  0.0002092749417996  0.1030082769758610  0.2974123125133779   T   T   T
  0.2503422488479689  0.1448730547277924  0.2980625697727304   T   T   T
  0.2503553565477333  0.2272607525915427  0.2997341704320259   T   T   T
 -0.0009340923203705  0.2688115857794859  0.3006891138436966   T   T   T
 -0.0009761936566629  0.6061169249721132  0.3017310003643471   T   T   T
  0.2502962963898805  0.7300551412459088  0.2988411490195028   T   T   T
  0.0002228394725347  0.8546662847433969  0.2969316543232339   T   T   T
  0.2503136838892803  0.8961297830190452  0.2966496378289866   T   T   T
  0.2503298678776738  0.9787584033913647  0.2965442332279046   T   T   T
  0.0001537130897139  0.7719179624368934  0.2980317646235503   T   T   T
  0.5004628063851158  0.1029982929042575  0.2974123639377370   T   T   T
  0.7503326814497414  0.1439632552275826  0.2979890045761653   T   T   T
  0.7503448503682404  0.2267219909755903  0.2996543429513501   T   T   T
  0.5004050252193993  0.0202326380231014  0.2966726306424362   T   T   T
  0.7503400703276051  0.3935721824046257  0.3028596927087482   T   T   T
  0.7503312165991967  0.4813807060068562  0.3032208003765087   T   T   T
  0.5016290378990025  0.2688184640754310  0.3006926618263445   T   T   T
  0.5015738427757993  0.6061089796073703  0.3017397168091698   T   T   T
  0.7502940828550733  0.7309601171741456  0.2987602164086594   T   T   T
  0.5004247078831520  0.8546757777905539  0.2969274719328885   T   T   T
  0.7503355773569597  0.8959737032072503  0.2965329012321112   T   T   T
  0.7503481157836397  0.9789556783285506  0.2964255337311966   T   T   T
  0.5004430957727989  0.7719249674982053  0.2980329470618130   T   T   T
  0.7502993806064340  0.6481999843899020  0.3006917294955004   T   T   T
  0.2503071437400282  0.6476674341426726  0.3007577413178998   T   T   T
  0.0002637516600631  0.0202443148577617  0.2966744563421622   T   T   T
  0.5141205655503875  0.5248020970022351  0.3032311894868049   T   T   T
  0.9864862569062962  0.5248112379436379  0.3032191188989759   T   T   T
  0.5141749314152885  0.3501343427791113  0.3024598539774885   T   T   T
 -0.0135267032602093  0.3501258526719187  0.3024585351717107   T   T   T
  0.2503035676264381  0.4374718131058317  0.3040194851649248   T   T   T
 
  0.00000000E+00  0.00000000E+00  0.00000000E+00
  0.00000000E+00  0.00000000E+00  0.00000000E+00
  0.00000000E+00  0.00000000E+00  0.00000000E+00
  0.00000000E+00  0.00000000E+00  0.00000000E+00
  0.00000000E+00  0.00000000E+00  0.00000000E+00
  0.00000000E+00  0.00000000E+00  0.00000000E+00
  0.00000000E+00  0.00000000E+00  0.00000000E+00
  0.00000000E+00  0.00000000E+00  0.00000000E+00
  0.00000000E+00  0.00000000E+00  0.00000000E+00
  0.00000000E+00  0.00000000E+00  0.00000000E+00
  0.00000000E+00  0.00000000E+00  0.00000000E+00
  0.00000000E+00  0.00000000E+00  0.00000000E+00
  0.00000000E+00  0.00000000E+00  0.00000000E+00
  0.00000000E+00  0.00000000E+00  0.00000000E+00
  0.00000000E+00  0.00000000E+00  0.00000000E+00
  0.00000000E+00  0.00000000E+00  0.00000000E+00
  0.00000000E+00  0.00000000E+00  0.00000000E+00
  0.00000000E+00  0.00000000E+00  0.00000000E+00
  0.00000000E+00  0.00000000E+00  0.00000000E+00
  0.00000000E+00  0.00000000E+00  0.00000000E+00
  0.00000000E+00  0.00000000E+00  0.00000000E+00
  0.00000000E+00  0.00000000E+00  0.00000000E+00
  0.00000000E+00  0.00000000E+00  0.00000000E+00
  0.00000000E+00  0.00000000E+00  0.00000000E+00
  0.00000000E+00  0.00000000E+00  0.00000000E+00
  0.00000000E+00  0.00000000E+00  0.00000000E+00
  0.00000000E+00  0.00000000E+00  0.00000000E+00
  0.00000000E+00  0.00000000E+00  0.00000000E+00
  0.00000000E+00  0.00000000E+00  0.00000000E+00
  0.00000000E+00  0.00000000E+00  0.00000000E+00
  0.00000000E+00  0.00000000E+00  0.00000000E+00
