Title                                   
   1.00000000000000     
     8.5490480000000009    0.0000000000000000    0.0000000000000000
     0.0000000000000000    8.5490480000000009    0.0000000000000000
     0.0000000000000000    0.0000000000000000   20.0000000000000000
    20     4     1
Selective dynamics
Direct
  0.9090254673857021  0.2071461737272786  0.0954517291715282   T   T   T
  0.9068673321613413  0.5018087535091266  0.0953134467725367   T   T   T
  0.9090460083954207  0.7964445212881976  0.0954697287477670   T   T   T
  0.1984062840605725  0.0857428899005116  0.0954885073158781   T   T   T
  0.0769986685560699  0.2071196855587394  0.0954670515386378   T   T   T
  0.1984197763939013  0.9177811965305877  0.0954934840631377   T   T   T
  0.1587687556288650  0.6493246910014656  0.0953426076445520   T   T   T
  0.0792065611109729  0.5017827764119892  0.0953317492327601   T   T   T
  0.1587456820966436  0.3542185278230963  0.0953315958574429   T   T   T
  0.0770209876964943  0.7964094422989814  0.0954794628571161   T   T   T
  0.4929952669514422  0.0879629785486178  0.0953545612737908   T   T   T
  0.3454692680068073  0.1675259304263834  0.0953548152017948   T   T   T
  0.4929980735440646  0.9156420977729990  0.0953624059447197   T   T   T
  0.3454951334797043  0.8360389207768230  0.0953608703833349   T   T   T
  0.7876157479484978  0.0857883052543809  0.0954697875062067   T   T   T
  0.6405245024579468  0.1675598017615303  0.0953257576598290   T   T   T
  0.7876372469082622  0.9178229457368097  0.0954759767482049   T   T   T
  0.8272881564769292  0.6493579361880543  0.0953193622134724   T   T   T
  0.8272806059600749  0.3542623040894748  0.0952982991557588   T   T   T
  0.6405406431371305  0.8360650588094763  0.0953376980904120   T   T   T
  0.3236351408705718  0.3323865185809856  0.0952023514045855   T   T   T
  0.3236571792346717  0.6711775393920613  0.0952161029724236   T   T   T
  0.6623893349327218  0.3324144195333755  0.0951754789362397   T   T   T
  0.6623882890287274  0.6712003828817706  0.0951921518370857   T   T   T
  0.4929918875764565  0.5018062021972974  0.0950900174707627   T   T   T
 
  0.00000000E+00  0.00000000E+00  0.00000000E+00
  0.00000000E+00  0.00000000E+00  0.00000000E+00
  0.00000000E+00  0.00000000E+00  0.00000000E+00
  0.00000000E+00  0.00000000E+00  0.00000000E+00
  0.00000000E+00  0.00000000E+00  0.00000000E+00
  0.00000000E+00  0.00000000E+00  0.00000000E+00
  0.00000000E+00  0.00000000E+00  0.00000000E+00
  0.00000000E+00  0.00000000E+00  0.00000000E+00
  0.00000000E+00  0.00000000E+00  0.00000000E+00
  0.00000000E+00  0.00000000E+00  0.00000000E+00
  0.00000000E+00  0.00000000E+00  0.00000000E+00
  0.00000000E+00  0.00000000E+00  0.00000000E+00
  0.00000000E+00  0.00000000E+00  0.00000000E+00
  0.00000000E+00  0.00000000E+00  0.00000000E+00
  0.00000000E+00  0.00000000E+00  0.00000000E+00
  0.00000000E+00  0.00000000E+00  0.00000000E+00
  0.00000000E+00  0.00000000E+00  0.00000000E+00
  0.00000000E+00  0.00000000E+00  0.00000000E+00
  0.00000000E+00  0.00000000E+00  0.00000000E+00
  0.00000000E+00  0.00000000E+00  0.00000000E+00
  0.00000000E+00  0.00000000E+00  0.00000000E+00
  0.00000000E+00  0.00000000E+00  0.00000000E+00
  0.00000000E+00  0.00000000E+00  0.00000000E+00
  0.00000000E+00  0.00000000E+00  0.00000000E+00
  0.00000000E+00  0.00000000E+00  0.00000000E+00
