Title                                   
   1.00000000000000     
     8.5490480000000009    0.0000000000000000    0.0000000000000000
     0.0000000000000000    8.5490480000000009    0.0000000000000000
     0.0000000000000000    0.0000000000000000   20.0000000000000000
    19     5     1
Selective dynamics
Direct
  0.9084474154559423  0.2057352966190995  0.0974189794949418   T   T   T
  0.9115703907479984  0.8011001671758678  0.0975134390840235   T   T   T
  0.1974417927927032  0.0841144489083801  0.0977831084540171   T   T   T
  0.0774421035748901  0.2001320045508687  0.0975698242377909   T   T   T
  0.1548757605228434  0.6482393389763296  0.0977361068000047   T   T   T
  0.0715179829731172  0.5000335004640577  0.0977233403512212   T   T   T
  0.1545749717272057  0.3544799962758922  0.0977111377543271   T   T   T
  0.0802208860615452  0.7994318896071763  0.0976456748192721   T   T   T
  0.3484613408550719  0.1675284401338026  0.0979431353124185   T   T   T
  0.4951166808564300  0.9192712499023448  0.0978082903708355   T   T   T
  0.3468899325743818  0.8357534557722684  0.0978748362005552   T   T   T
  0.7892661293186258  0.0865479180162797  0.0973854037650039   T   T   T
  0.6419496614589327  0.1665262074432164  0.0977546345246603   T   T   T
  0.7915128340608499  0.9191769071264296  0.0974231790525120   T   T   T
  0.8277186571051889  0.6526185848670278  0.0977512729708711   T   T   T
  0.8256177726009160  0.3520088678638454  0.0976986067206310   T   T   T
  0.6436472229575904  0.8390383523945523  0.0977019853673770   T   T   T
  0.3208563398171253  0.3313715363816684  0.0979056186965557   T   T   T
  0.3197413224632846  0.6721271703527216  0.0978199716009616   T   T   T
  0.4959599320490397  0.0867435776992172  0.0979430798313228   T   T   T
  0.9027934793137913  0.5018558102391522  0.0978147013240164   T   T   T
  0.6638104039120781  0.3268962176289926  0.0980532366921923   T   T   T
  0.6686261135318946  0.6767235977207448  0.0979579920725165   T   T   T
  0.1974307511100392  0.9151405592346169  0.0978308009657674   T   T   T
  0.4899221221585072  0.5021949046454672  0.0979366435361772   T   T   T
 
  0.00000000E+00  0.00000000E+00  0.00000000E+00
  0.00000000E+00  0.00000000E+00  0.00000000E+00
  0.00000000E+00  0.00000000E+00  0.00000000E+00
  0.00000000E+00  0.00000000E+00  0.00000000E+00
  0.00000000E+00  0.00000000E+00  0.00000000E+00
  0.00000000E+00  0.00000000E+00  0.00000000E+00
  0.00000000E+00  0.00000000E+00  0.00000000E+00
  0.00000000E+00  0.00000000E+00  0.00000000E+00
  0.00000000E+00  0.00000000E+00  0.00000000E+00
  0.00000000E+00  0.00000000E+00  0.00000000E+00
  0.00000000E+00  0.00000000E+00  0.00000000E+00
  0.00000000E+00  0.00000000E+00  0.00000000E+00
  0.00000000E+00  0.00000000E+00  0.00000000E+00
  0.00000000E+00  0.00000000E+00  0.00000000E+00
  0.00000000E+00  0.00000000E+00  0.00000000E+00
  0.00000000E+00  0.00000000E+00  0.00000000E+00
  0.00000000E+00  0.00000000E+00  0.00000000E+00
  0.00000000E+00  0.00000000E+00  0.00000000E+00
  0.00000000E+00  0.00000000E+00  0.00000000E+00
  0.00000000E+00  0.00000000E+00  0.00000000E+00
  0.00000000E+00  0.00000000E+00  0.00000000E+00
  0.00000000E+00  0.00000000E+00  0.00000000E+00
  0.00000000E+00  0.00000000E+00  0.00000000E+00
  0.00000000E+00  0.00000000E+00  0.00000000E+00
  0.00000000E+00  0.00000000E+00  0.00000000E+00
