Title                                   
   1.00000000000000     
     9.8694509999999998    0.0000000000000000    0.0000000000000000
     0.0000000000000000    8.5490480000000009    0.0000000000000000
     0.0000000000000000    0.0000000000000000   20.0000000000000000
    30     1
Selective dynamics
Direct
  0.0562587788018533  0.0888423814873678  0.0871433460485636   T   T   T
  0.9310683252956203  0.1717762474209361  0.0888128478729841   T   T   T
  0.0562511446170560  0.9235105673187725  0.0871731950779832   T   T   T
  0.9327525368752986  0.3382812201302576  0.0887663740432787   T   T   T
  0.0562414462699089  0.5895202808542066  0.0869400935882416   T   T   T
  0.9327515444575751  0.6740438979323677  0.0888132132983701   T   T   T
  0.0562345394110937  0.4227936463162090  0.0869185801461073   T   T   T
  0.9310696752849755  0.8405582951487405  0.0888579843397898   T   T   T
  0.3073084535615059  0.0901694785571353  0.0915513517899164   T   T   T
  0.1814704675893229  0.1718121394143434  0.0882703064483381   T   T   T
  0.3073073812689210  0.9221479422371446  0.0915577902466195   T   T   T
  0.1797170878099799  0.3382761438901731  0.0882723943752708   T   T   T
  0.3022610648410946  0.5903058949128188  0.0932530807238893   T   T   T
  0.1797264480257762  0.6740643748197584  0.0883152679787134   T   T   T
  0.3022446572525277  0.4219718381092782  0.0932358707578483   T   T   T
  0.1814661997244980  0.8405414366110759  0.0883086489456115   T   T   T
  0.5563774114127397  0.0898681967178123  0.0993517103494772   T   T   T
  0.4319180313855388  0.1767309414446071  0.0971789734559982   T   T   T
  0.5563687788421420  0.9224402074348115  0.0993731664621332   T   T   T
  0.4271321418501439  0.3436952728245465  0.1013492676399810   T   T   T
  0.4271647009185912  0.6685971449449853  0.1013716093933833   T   T   T
  0.4319247214840494  0.8355718971819510  0.0971892274272230   T   T   T
  0.8052372108682354  0.0902490943135784  0.0925481011185668   T   T   T
  0.6807236252358465  0.1772041657117182  0.0983273954509507   T   T   T
  0.8052312410270963  0.9220762265590188  0.0925724742045841   T   T   T
  0.6855268893219506  0.3442907966843744  0.1030517616107230   T   T   T
  0.8104713833227226  0.5902432458494106  0.0944677548486128   T   T   T
  0.6855341033265251  0.6680257483592128  0.1030890233227648   T   T   T
  0.8104668197237849  0.4220723077573624  0.0944503038957383   T   T   T
  0.6807238605096037  0.8351124172637808  0.0983753252864285   T   T   T
  0.5542043296840297  0.5060815517922579  0.1420785598519506   T   T   T
 
  0.00000000E+00  0.00000000E+00  0.00000000E+00
  0.00000000E+00  0.00000000E+00  0.00000000E+00
  0.00000000E+00  0.00000000E+00  0.00000000E+00
  0.00000000E+00  0.00000000E+00  0.00000000E+00
  0.00000000E+00  0.00000000E+00  0.00000000E+00
  0.00000000E+00  0.00000000E+00  0.00000000E+00
  0.00000000E+00  0.00000000E+00  0.00000000E+00
  0.00000000E+00  0.00000000E+00  0.00000000E+00
  0.00000000E+00  0.00000000E+00  0.00000000E+00
  0.00000000E+00  0.00000000E+00  0.00000000E+00
  0.00000000E+00  0.00000000E+00  0.00000000E+00
  0.00000000E+00  0.00000000E+00  0.00000000E+00
  0.00000000E+00  0.00000000E+00  0.00000000E+00
  0.00000000E+00  0.00000000E+00  0.00000000E+00
  0.00000000E+00  0.00000000E+00  0.00000000E+00
  0.00000000E+00  0.00000000E+00  0.00000000E+00
  0.00000000E+00  0.00000000E+00  0.00000000E+00
  0.00000000E+00  0.00000000E+00  0.00000000E+00
  0.00000000E+00  0.00000000E+00  0.00000000E+00
  0.00000000E+00  0.00000000E+00  0.00000000E+00
  0.00000000E+00  0.00000000E+00  0.00000000E+00
  0.00000000E+00  0.00000000E+00  0.00000000E+00
  0.00000000E+00  0.00000000E+00  0.00000000E+00
  0.00000000E+00  0.00000000E+00  0.00000000E+00
  0.00000000E+00  0.00000000E+00  0.00000000E+00
  0.00000000E+00  0.00000000E+00  0.00000000E+00
  0.00000000E+00  0.00000000E+00  0.00000000E+00
  0.00000000E+00  0.00000000E+00  0.00000000E+00
  0.00000000E+00  0.00000000E+00  0.00000000E+00
  0.00000000E+00  0.00000000E+00  0.00000000E+00
  0.00000000E+00  0.00000000E+00  0.00000000E+00
