Title                                   
   1.00000000000000     
     9.8694509999999998    0.0000000000000000    0.0000000000000000
     0.0000000000000000    8.5490480000000009    0.0000000000000000
     0.0000000000000000    0.0000000000000000   20.0000000000000000
    25     6     1
Selective dynamics
Direct
  0.0558410430950676  0.0911761708879254  0.0868392015168529   T   T   T
  0.9310316306087356  0.1743921400339423  0.0870545377586956   T   T   T
  0.0573309679873137  0.9230513144011500  0.0873801376279813   T   T   T
  0.9301545832968366  0.3414374737230940  0.0893702119617164   T   T   T
  0.0565211351532692  0.5913142740501135  0.0879744415621830   T   T   T
  0.0560909007090276  0.4237558975023453  0.0887725710310282   T   T   T
  0.9327109479696061  0.8400185691223040  0.0886369488656238   T   T   T
  0.3063032094038154  0.0890015432792416  0.0896581906356317   T   T   T
  0.1822814566658423  0.1733222323368634  0.0885055590524102   T   T   T
  0.1824651590435141  0.3409506761961091  0.0901400427030425   T   T   T
  0.3042804575019535  0.5911938640397935  0.0975547013133963   T   T   T
  0.1805261995741358  0.6742534608579396  0.0898145727435354   T   T   T
  0.3099363760872119  0.4228094404057825  0.0960045091044108   T   T   T
  0.1818049234192150  0.8422335792433729  0.0894185446600945   T   T   T
  0.5559498236548991  0.0854218562438274  0.0936547098843914   T   T   T
  0.5548614743071701  0.9182850782879031  0.0977660244352188   T   T   T
  0.4324365146575769  0.3324627230806707  0.0986006229984410   T   T   T
  0.4264461521975609  0.8390153222865103  0.0988668775489617   T   T   T
  0.8062861586948598  0.0888769283559534  0.0871311608868657   T   T   T
  0.6800224898849058  0.1702506333740825  0.0904687970068201   T   T   T
  0.8076946715985922  0.9223997490475018  0.0892569375032763   T   T   T
  0.6797630762967304  0.3361155500130952  0.0969512608003527   T   T   T
  0.8092443758713753  0.5939936587036713  0.0975807651365172   T   T   T
  0.8034723404784369  0.4254934540073813  0.0953697681605910   T   T   T
  0.6837894088338987  0.8392917141090783  0.0976121512414694   T   T   T
  0.4171259993307820  0.6830234245066633  0.1129633555041613   T   T   T
  0.5547343371070258  0.4032190297886385  0.1118104599866878   T   T   T
  0.6954945018357470  0.6800920509843214  0.1114978124406571   T   T   T
  0.3062407406391832  0.9247752693566834  0.0907593365666024   T   T   T
  0.4302988992706638  0.1676576801991620  0.0929710397818582   T   T   T
  0.9323954567460490  0.6726679418297005  0.0896050990176648   T   T   T
  0.5561035880790052  0.5882932997451824  0.1756846505628767   T   T   T
 
  0.00000000E+00  0.00000000E+00  0.00000000E+00
  0.00000000E+00  0.00000000E+00  0.00000000E+00
  0.00000000E+00  0.00000000E+00  0.00000000E+00
  0.00000000E+00  0.00000000E+00  0.00000000E+00
  0.00000000E+00  0.00000000E+00  0.00000000E+00
  0.00000000E+00  0.00000000E+00  0.00000000E+00
  0.00000000E+00  0.00000000E+00  0.00000000E+00
  0.00000000E+00  0.00000000E+00  0.00000000E+00
  0.00000000E+00  0.00000000E+00  0.00000000E+00
  0.00000000E+00  0.00000000E+00  0.00000000E+00
  0.00000000E+00  0.00000000E+00  0.00000000E+00
  0.00000000E+00  0.00000000E+00  0.00000000E+00
  0.00000000E+00  0.00000000E+00  0.00000000E+00
  0.00000000E+00  0.00000000E+00  0.00000000E+00
  0.00000000E+00  0.00000000E+00  0.00000000E+00
  0.00000000E+00  0.00000000E+00  0.00000000E+00
  0.00000000E+00  0.00000000E+00  0.00000000E+00
  0.00000000E+00  0.00000000E+00  0.00000000E+00
  0.00000000E+00  0.00000000E+00  0.00000000E+00
  0.00000000E+00  0.00000000E+00  0.00000000E+00
  0.00000000E+00  0.00000000E+00  0.00000000E+00
  0.00000000E+00  0.00000000E+00  0.00000000E+00
  0.00000000E+00  0.00000000E+00  0.00000000E+00
  0.00000000E+00  0.00000000E+00  0.00000000E+00
  0.00000000E+00  0.00000000E+00  0.00000000E+00
  0.00000000E+00  0.00000000E+00  0.00000000E+00
  0.00000000E+00  0.00000000E+00  0.00000000E+00
  0.00000000E+00  0.00000000E+00  0.00000000E+00
  0.00000000E+00  0.00000000E+00  0.00000000E+00
  0.00000000E+00  0.00000000E+00  0.00000000E+00
  0.00000000E+00  0.00000000E+00  0.00000000E+00
  0.00000000E+00  0.00000000E+00  0.00000000E+00
