Title                                   
   1.00000000000000     
     9.8694509999999998    0.0000000000000000    0.0000000000000000
     0.0000000000000000    8.5490480000000009    0.0000000000000000
     0.0000000000000000    0.0000000000000000   20.0000000000000000
    26     5     1
Selective dynamics
Direct
  0.0557617323415115  0.0919757413326845  0.0855752700802717   T   T   T
  0.9295385178373470  0.1753363543895683  0.0871759883290815   T   T   T
  0.0563520975075272  0.9232177360221401  0.0844701951769921   T   T   T
  0.9289088569375112  0.3416979874294123  0.0898571148261199   T   T   T
  0.0560970565989154  0.5897768003792528  0.0856238557099227   T   T   T
  0.9313008402481341  0.6715966915412177  0.0860740671596643   T   T   T
  0.0556107255081224  0.4231696208786621  0.0892675984729219   T   T   T
  0.9312147490528480  0.8397327292517919  0.0857199647953067   T   T   T
  0.3051996024549816  0.0892367617153352  0.0878728315405342   T   T   T
  0.1817186804595517  0.1741186781080115  0.0877947963697523   T   T   T
  0.3071381438142137  0.9233395473537354  0.0887047414407983   T   T   T
  0.1814224183709868  0.3401077608038184  0.0912220165052886   T   T   T
  0.3055054281427648  0.5897775667783358  0.0987613414934088   T   T   T
  0.1810194554394418  0.6704086797569115  0.0875919856748787   T   T   T
  0.1821596086806384  0.8387595920870994  0.0863196843626300   T   T   T
  0.5563574248051922  0.0865529360355285  0.0966865462197055   T   T   T
  0.4307379704579161  0.1697496242867918  0.0939116853545975   T   T   T
  0.4318178664359095  0.3344140261803523  0.1003297647470551   T   T   T
  0.4295725645156583  0.8391747368450067  0.0996699323304516   T   T   T
  0.8065990832689802  0.0900123618773823  0.0875362579175628   T   T   T
  0.6811382190685349  0.1714362903898618  0.0934759958425582   T   T   T
  0.8059761349675219  0.9244945657516483  0.0882475517015466   T   T   T
  0.6780900584851771  0.3351855411114423  0.0987883501539993   T   T   T
  0.8063024989065352  0.5928144968824071  0.0933788770938025   T   T   T
  0.6841892951708091  0.8400249626654041  0.0970708030466668   T   T   T
  0.4219837002353740  0.6777810977571720  0.1154706390709568   T   T   T
  0.5545484868018585  0.4076663738912842  0.1160554401570509   T   T   T
  0.6913833627482230  0.6799474190045121  0.1087816912587045   T   T   T
  0.5572168008624349  0.9190343712065383  0.0992569066867946   T   T   T
  0.3089586561974434  0.4218892632273518  0.0976256836176311   T   T   T
  0.8006309660210935  0.4255636948004762  0.0940833444668266   T   T   T
  0.5651879976568500  0.5922519902588668  0.1832740783965345   T   T   T
 
  0.00000000E+00  0.00000000E+00  0.00000000E+00
  0.00000000E+00  0.00000000E+00  0.00000000E+00
  0.00000000E+00  0.00000000E+00  0.00000000E+00
  0.00000000E+00  0.00000000E+00  0.00000000E+00
  0.00000000E+00  0.00000000E+00  0.00000000E+00
  0.00000000E+00  0.00000000E+00  0.00000000E+00
  0.00000000E+00  0.00000000E+00  0.00000000E+00
  0.00000000E+00  0.00000000E+00  0.00000000E+00
  0.00000000E+00  0.00000000E+00  0.00000000E+00
  0.00000000E+00  0.00000000E+00  0.00000000E+00
  0.00000000E+00  0.00000000E+00  0.00000000E+00
  0.00000000E+00  0.00000000E+00  0.00000000E+00
  0.00000000E+00  0.00000000E+00  0.00000000E+00
  0.00000000E+00  0.00000000E+00  0.00000000E+00
  0.00000000E+00  0.00000000E+00  0.00000000E+00
  0.00000000E+00  0.00000000E+00  0.00000000E+00
  0.00000000E+00  0.00000000E+00  0.00000000E+00
  0.00000000E+00  0.00000000E+00  0.00000000E+00
  0.00000000E+00  0.00000000E+00  0.00000000E+00
  0.00000000E+00  0.00000000E+00  0.00000000E+00
  0.00000000E+00  0.00000000E+00  0.00000000E+00
  0.00000000E+00  0.00000000E+00  0.00000000E+00
  0.00000000E+00  0.00000000E+00  0.00000000E+00
  0.00000000E+00  0.00000000E+00  0.00000000E+00
  0.00000000E+00  0.00000000E+00  0.00000000E+00
  0.00000000E+00  0.00000000E+00  0.00000000E+00
  0.00000000E+00  0.00000000E+00  0.00000000E+00
  0.00000000E+00  0.00000000E+00  0.00000000E+00
  0.00000000E+00  0.00000000E+00  0.00000000E+00
  0.00000000E+00  0.00000000E+00  0.00000000E+00
  0.00000000E+00  0.00000000E+00  0.00000000E+00
  0.00000000E+00  0.00000000E+00  0.00000000E+00
