Title                                   
   1.00000000000000     
     9.8694509999999998    0.0000000000000000    0.0000000000000000
     0.0000000000000000    8.5490480000000009    0.0000000000000000
     0.0000000000000000    0.0000000000000000   20.0000000000000000
    24     6     1
Selective dynamics
Direct
  0.0561158824402388  0.0903420158322947  0.0873237843581534   T   T   T
  0.9312812319095377  0.1723684616627112  0.0888135524546980   T   T   T
  0.0573689140167171  0.9223960061461768  0.0873941911068664   T   T   T
  0.9325700722958775  0.3396756614895770  0.0878844115682950   T   T   T
  0.0566995076821691  0.5895433722211811  0.0840766352339781   T   T   T
  0.9327255486123934  0.6721922541974762  0.0877906373781474   T   T   T
  0.0568062315244782  0.4228822095039632  0.0842142346275212   T   T   T
  0.9319959624919947  0.8395404556640814  0.0888471069031891   T   T   T
  0.3078160610889512  0.0881606085200438  0.0930022146998447   T   T   T
  0.1814347604255505  0.1717668461173600  0.0886925092540006   T   T   T
  0.1806515379402022  0.3388134234176225  0.0874715163602267   T   T   T
  0.3030778498081377  0.5905356596841174  0.0959792248672867   T   T   T
  0.1808725880604614  0.6733743928845062  0.0871530679174929   T   T   T
  0.3034932877405420  0.4214912011487725  0.0959909610028406   T   T   T
  0.1811682181344399  0.8401096905500234  0.0886497389262051   T   T   T
  0.4282663434696826  0.1742554586307670  0.1018062912202781   T   T   T
  0.5546851735969852  0.9201740215401959  0.1044972961149002   T   T   T
  0.4277497963159181  0.8388213766631034  0.1030834762230133   T   T   T
  0.8048925875362816  0.0892207993424561  0.0928158684974363   T   T   T
  0.6832363009386092  0.1760146022970606  0.1014417961581752   T   T   T
  0.8061631088726597  0.9220623800404754  0.0931631570289107   T   T   T
  0.8098233025278481  0.5906365989804842  0.0965927255290436   T   T   T
  0.8097543761378742  0.4209070468813989  0.0963996481887405   T   T   T
  0.6833797659816085  0.8368631117177182  0.1025894170719097   T   T   T
  0.5568954112433133  0.0951639578799958  0.1040936071637268   T   T   T
  0.4206160722770753  0.3341898293074870  0.1101589522874719   T   T   T
  0.4187059014302070  0.6791185021433502  0.1115417017178624   T   T   T
  0.6910507841998981  0.3352979449003877  0.1094133443013040   T   T   T
  0.6922000664137757  0.6758725553913982  0.1100922211097852   T   T   T
  0.3061241918694796  0.9225177943053944  0.0926443508461850   T   T   T
  0.5555151630170924  0.5065667609384172  0.1373473598825689   T   T   T
 
  0.00000000E+00  0.00000000E+00  0.00000000E+00
  0.00000000E+00  0.00000000E+00  0.00000000E+00
  0.00000000E+00  0.00000000E+00  0.00000000E+00
  0.00000000E+00  0.00000000E+00  0.00000000E+00
  0.00000000E+00  0.00000000E+00  0.00000000E+00
  0.00000000E+00  0.00000000E+00  0.00000000E+00
  0.00000000E+00  0.00000000E+00  0.00000000E+00
  0.00000000E+00  0.00000000E+00  0.00000000E+00
  0.00000000E+00  0.00000000E+00  0.00000000E+00
  0.00000000E+00  0.00000000E+00  0.00000000E+00
  0.00000000E+00  0.00000000E+00  0.00000000E+00
  0.00000000E+00  0.00000000E+00  0.00000000E+00
  0.00000000E+00  0.00000000E+00  0.00000000E+00
  0.00000000E+00  0.00000000E+00  0.00000000E+00
  0.00000000E+00  0.00000000E+00  0.00000000E+00
  0.00000000E+00  0.00000000E+00  0.00000000E+00
  0.00000000E+00  0.00000000E+00  0.00000000E+00
  0.00000000E+00  0.00000000E+00  0.00000000E+00
  0.00000000E+00  0.00000000E+00  0.00000000E+00
  0.00000000E+00  0.00000000E+00  0.00000000E+00
  0.00000000E+00  0.00000000E+00  0.00000000E+00
  0.00000000E+00  0.00000000E+00  0.00000000E+00
  0.00000000E+00  0.00000000E+00  0.00000000E+00
  0.00000000E+00  0.00000000E+00  0.00000000E+00
  0.00000000E+00  0.00000000E+00  0.00000000E+00
  0.00000000E+00  0.00000000E+00  0.00000000E+00
  0.00000000E+00  0.00000000E+00  0.00000000E+00
  0.00000000E+00  0.00000000E+00  0.00000000E+00
  0.00000000E+00  0.00000000E+00  0.00000000E+00
  0.00000000E+00  0.00000000E+00  0.00000000E+00
  0.00000000E+00  0.00000000E+00  0.00000000E+00
