Title                                   
   1.00000000000000     
     9.8694509999999998    0.0000000000000000    0.0000000000000000
     0.0000000000000000    8.5490480000000009    0.0000000000000000
     0.0000000000000000    0.0000000000000000   20.0000000000000000
    27     4     1
Selective dynamics
Direct
  0.0561469481430418  0.0922062289510664  0.0883832171581127   T   T   T
  0.9305315558746211  0.1754360505410403  0.0887745730952661   T   T   T
  0.0573414760784250  0.9245310077373962  0.0879601836443160   T   T   T
  0.9285141235742808  0.3428601151707553  0.0890737609007258   T   T   T
  0.0562447058903405  0.5903587432847258  0.0878065118930122   T   T   T
  0.9325311695626198  0.6743115081728139  0.0878698160175992   T   T   T
  0.0567615582600614  0.4237318977364480  0.0900192886479937   T   T   T
  0.9322792325669071  0.8417080070100975  0.0880937388974434   T   T   T
  0.3051584028457692  0.0876833878834699  0.0929940618757548   T   T   T
  0.1822306842828814  0.1745600211420166  0.0908290202066837   T   T   T
  0.3072433638784932  0.9222578755380908  0.0939587434722977   T   T   T
  0.1823276072143970  0.3406294986373380  0.0929934758535217   T   T   T
  0.3059185478541430  0.5902426864704031  0.1031419525164738   T   T   T
  0.1819427368444550  0.6716245057203508  0.0912223841437800   T   T   T
  0.1822907335271850  0.8386713081974418  0.0907013949753836   T   T   T
  0.5560973106280164  0.0845692283476098  0.0975494298189373   T   T   T
  0.4305906539694303  0.1677917923766023  0.0964725416719881   T   T   T
  0.4332805618899011  0.3343132352763959  0.0966416440987382   T   T   T
  0.4292693079703037  0.8370430216274771  0.1057778797166055   T   T   T
  0.8068193230990399  0.0907429562285475  0.0905914578922527   T   T   T
  0.6797702428668474  0.1698256511515961  0.0935720079609285   T   T   T
  0.8073230638218769  0.9258353178986150  0.0906348467053288   T   T   T
  0.6750420206413610  0.3359440909152492  0.0916277154431284   T   T   T
  0.8055007738042285  0.5958363949278560  0.0918046782331636   T   T   T
  0.8008062898690800  0.4264203998291271  0.0898652468120667   T   T   T
  0.6845634120479663  0.8394231211009704  0.0977798720457942   T   T   T
  0.4207544956398783  0.6777181032584972  0.1230519273045743   T   T   T
  0.5514408301794860  0.4121062316883830  0.0936408232301706   T   T   T
  0.6890407323149859  0.6827212202433373  0.1011142612507318   T   T   T
  0.5575777641888733  0.9189121726375163  0.1023728128365935   T   T   T
  0.3084117421136114  0.4223002142060712  0.0985497848469440   T   T   T
  0.5658876285574983  0.5779300060926970  0.1608059468337055   T   T   T
 
  0.00000000E+00  0.00000000E+00  0.00000000E+00
  0.00000000E+00  0.00000000E+00  0.00000000E+00
  0.00000000E+00  0.00000000E+00  0.00000000E+00
  0.00000000E+00  0.00000000E+00  0.00000000E+00
  0.00000000E+00  0.00000000E+00  0.00000000E+00
  0.00000000E+00  0.00000000E+00  0.00000000E+00
  0.00000000E+00  0.00000000E+00  0.00000000E+00
  0.00000000E+00  0.00000000E+00  0.00000000E+00
  0.00000000E+00  0.00000000E+00  0.00000000E+00
  0.00000000E+00  0.00000000E+00  0.00000000E+00
  0.00000000E+00  0.00000000E+00  0.00000000E+00
  0.00000000E+00  0.00000000E+00  0.00000000E+00
  0.00000000E+00  0.00000000E+00  0.00000000E+00
  0.00000000E+00  0.00000000E+00  0.00000000E+00
  0.00000000E+00  0.00000000E+00  0.00000000E+00
  0.00000000E+00  0.00000000E+00  0.00000000E+00
  0.00000000E+00  0.00000000E+00  0.00000000E+00
  0.00000000E+00  0.00000000E+00  0.00000000E+00
  0.00000000E+00  0.00000000E+00  0.00000000E+00
  0.00000000E+00  0.00000000E+00  0.00000000E+00
  0.00000000E+00  0.00000000E+00  0.00000000E+00
  0.00000000E+00  0.00000000E+00  0.00000000E+00
  0.00000000E+00  0.00000000E+00  0.00000000E+00
  0.00000000E+00  0.00000000E+00  0.00000000E+00
  0.00000000E+00  0.00000000E+00  0.00000000E+00
  0.00000000E+00  0.00000000E+00  0.00000000E+00
  0.00000000E+00  0.00000000E+00  0.00000000E+00
  0.00000000E+00  0.00000000E+00  0.00000000E+00
  0.00000000E+00  0.00000000E+00  0.00000000E+00
  0.00000000E+00  0.00000000E+00  0.00000000E+00
  0.00000000E+00  0.00000000E+00  0.00000000E+00
  0.00000000E+00  0.00000000E+00  0.00000000E+00
