Title                                   
   1.00000000000000     
     8.5490480000000009    0.0000000000000000    0.0000000000000000
     0.0000000000000000    8.5490480000000009    0.0000000000000000
     0.0000000000000000    0.0000000000000000   20.0000000000000000
    23     1     1
Selective dynamics
Direct
  0.9106088234388192  0.2068729043515520  0.0954137833506584   T   T   T
  0.9066572949183413  0.5032188257473041  0.0952898000081239   T   T   T
  0.9105135743464454  0.7988693357720584  0.0954207933419720   T   T   T
  0.1977548964705385  0.0836161725627317  0.0954444240260131   T   T   T
  0.0748245306593852  0.2064963402218924  0.0954157844824259   T   T   T
  0.1981442581373664  0.9193969633558412  0.0954671484678968   T   T   T
  0.1563370495418341  0.6489502400156183  0.0953723866939680   T   T   T
  0.0754298716651390  0.5029286305580460  0.0953230178358500   T   T   T
  0.1546441621122988  0.3554857709071232  0.0953537179394061   T   T   T
  0.0763862812953420  0.7969094484937287  0.0954416690371239   T   T   T
  0.4941208183021793  0.0842311222353994  0.0953808721896178   T   T   T
  0.3466944108030385  0.1634630458935249  0.0953930381571101   T   T   T
  0.4944364145486062  0.9154336705760628  0.0953651277249775   T   T   T
  0.3474789218138055  0.8379517547635547  0.0954162618004740   T   T   T
  0.7881109263545263  0.0851273893160145  0.0954347842864840   T   T   T
  0.6401371249648854  0.1651042075850551  0.0953560693900294   T   T   T
  0.7901180040221008  0.9192540363270439  0.0954251597487652   T   T   T
  0.8275357286701436  0.6515921888658098  0.0952767896377290   T   T   T
  0.8291465729605755  0.3562351114452034  0.0953149959307063   T   T   T
  0.6428162741350416  0.8362838276704202  0.0952917472194490   T   T   T
  0.3232346069627494  0.3320398329071556  0.0953039371420145   T   T   T
  0.3253279452332645  0.6715431098826764  0.0953240703859346   T   T   T
  0.6627502556006631  0.3340861294828069  0.0952477738701376   T   T   T
  0.6663205190588762  0.6750674636433286  0.0951339531798855   T   T   T
  0.4858827339840267  0.4946324774200614  0.0950978941532253   T   T   T
 
  0.00000000E+00  0.00000000E+00  0.00000000E+00
  0.00000000E+00  0.00000000E+00  0.00000000E+00
  0.00000000E+00  0.00000000E+00  0.00000000E+00
  0.00000000E+00  0.00000000E+00  0.00000000E+00
  0.00000000E+00  0.00000000E+00  0.00000000E+00
  0.00000000E+00  0.00000000E+00  0.00000000E+00
  0.00000000E+00  0.00000000E+00  0.00000000E+00
  0.00000000E+00  0.00000000E+00  0.00000000E+00
  0.00000000E+00  0.00000000E+00  0.00000000E+00
  0.00000000E+00  0.00000000E+00  0.00000000E+00
  0.00000000E+00  0.00000000E+00  0.00000000E+00
  0.00000000E+00  0.00000000E+00  0.00000000E+00
  0.00000000E+00  0.00000000E+00  0.00000000E+00
  0.00000000E+00  0.00000000E+00  0.00000000E+00
  0.00000000E+00  0.00000000E+00  0.00000000E+00
  0.00000000E+00  0.00000000E+00  0.00000000E+00
  0.00000000E+00  0.00000000E+00  0.00000000E+00
  0.00000000E+00  0.00000000E+00  0.00000000E+00
  0.00000000E+00  0.00000000E+00  0.00000000E+00
  0.00000000E+00  0.00000000E+00  0.00000000E+00
  0.00000000E+00  0.00000000E+00  0.00000000E+00
  0.00000000E+00  0.00000000E+00  0.00000000E+00
  0.00000000E+00  0.00000000E+00  0.00000000E+00
  0.00000000E+00  0.00000000E+00  0.00000000E+00
  0.00000000E+00  0.00000000E+00  0.00000000E+00
