Title                                   
   1.00000000000000     
     9.8694509999999998    0.0000000000000000    0.0000000000000000
     0.0000000000000000    8.5490480000000009    0.0000000000000000
     0.0000000000000000    0.0000000000000000   20.0000000000000000
    28     2     1
Selective dynamics
Direct
  0.0555586536846668  0.0894070114134198  0.0929908927682933   T   T   T
  0.9305265508238033  0.1738620083269840  0.0928997014241351   T   T   T
  0.0569233435491297  0.9229154880454382  0.0930041477011960   T   T   T
  0.9317193313444357  0.3405664788526754  0.0959169332488352   T   T   T
  0.0566781647007690  0.5897087823874534  0.0979919744962476   T   T   T
  0.9336025978846338  0.6753809810750551  0.0969615822984755   T   T   T
  0.0557772418995301  0.4226070893718326  0.0980021367443368   T   T   T
  0.9324391524758362  0.8415329365982483  0.0940398136671016   T   T   T
  0.3060266871259801  0.0882458815489275  0.0912868666245389   T   T   T
  0.1800366983867999  0.1707974936261870  0.0940205440306689   T   T   T
  0.3075313912807916  0.9207826185651979  0.0901326216089878   T   T   T
  0.1788485015477045  0.3369469024572682  0.0969806732120937   T   T   T
  0.3054499369494884  0.5864486807255169  0.0946771346335839   T   T   T
  0.1807502118222841  0.6717637027493540  0.0959101572450762   T   T   T
  0.3030071809020826  0.4175158508657431  0.0966623609302166   T   T   T
  0.1819502543572048  0.8384488742872107  0.0928900945437494   T   T   T
  0.5554904047404023  0.0908982502183859  0.0900267685012166   T   T   T
  0.4294687943430991  0.1741983269337725  0.0917099896266157   T   T   T
  0.5570162979838053  0.9213926702872927  0.0900215929983559   T   T   T
  0.4299057915150253  0.6682983170286173  0.0911824989602614   T   T   T
  0.4324017495095239  0.8347509436739041  0.0893282176530621   T   T   T
  0.8049409420269794  0.0915376897105282  0.0901965791153879   T   T   T
  0.6800797655077675  0.1775951483381520  0.0894242935998917   T   T   T
  0.8064454554836868  0.9240758386961855  0.0913423855807462   T   T   T
  0.6825582432549278  0.3440757918593283  0.0913467638970538   T   T   T
  0.8094723751363950  0.5947764947381656  0.0967274894287799   T   T   T
  0.8070292462719610  0.4258513110876195  0.0947479430216454   T   T   T
  0.6830328513727992  0.8380564381867137  0.0917984581068193   T   T   T
  0.4247110832337901  0.3371477125968462  0.0967233809666430   T   T   T
  0.6877925833258806  0.6751260243806648  0.0969198698684740   T   T   T
  0.5559635175588246  0.5061632613673248  0.1351011334975518   T   T   T
 
  0.00000000E+00  0.00000000E+00  0.00000000E+00
  0.00000000E+00  0.00000000E+00  0.00000000E+00
  0.00000000E+00  0.00000000E+00  0.00000000E+00
  0.00000000E+00  0.00000000E+00  0.00000000E+00
  0.00000000E+00  0.00000000E+00  0.00000000E+00
  0.00000000E+00  0.00000000E+00  0.00000000E+00
  0.00000000E+00  0.00000000E+00  0.00000000E+00
  0.00000000E+00  0.00000000E+00  0.00000000E+00
  0.00000000E+00  0.00000000E+00  0.00000000E+00
  0.00000000E+00  0.00000000E+00  0.00000000E+00
  0.00000000E+00  0.00000000E+00  0.00000000E+00
  0.00000000E+00  0.00000000E+00  0.00000000E+00
  0.00000000E+00  0.00000000E+00  0.00000000E+00
  0.00000000E+00  0.00000000E+00  0.00000000E+00
  0.00000000E+00  0.00000000E+00  0.00000000E+00
  0.00000000E+00  0.00000000E+00  0.00000000E+00
  0.00000000E+00  0.00000000E+00  0.00000000E+00
  0.00000000E+00  0.00000000E+00  0.00000000E+00
  0.00000000E+00  0.00000000E+00  0.00000000E+00
  0.00000000E+00  0.00000000E+00  0.00000000E+00
  0.00000000E+00  0.00000000E+00  0.00000000E+00
  0.00000000E+00  0.00000000E+00  0.00000000E+00
  0.00000000E+00  0.00000000E+00  0.00000000E+00
  0.00000000E+00  0.00000000E+00  0.00000000E+00
  0.00000000E+00  0.00000000E+00  0.00000000E+00
  0.00000000E+00  0.00000000E+00  0.00000000E+00
  0.00000000E+00  0.00000000E+00  0.00000000E+00
  0.00000000E+00  0.00000000E+00  0.00000000E+00
  0.00000000E+00  0.00000000E+00  0.00000000E+00
  0.00000000E+00  0.00000000E+00  0.00000000E+00
  0.00000000E+00  0.00000000E+00  0.00000000E+00
