Title                                   
   1.00000000000000     
     9.8694509999999998    0.0000000000000000    0.0000000000000000
     0.0000000000000000    8.5490480000000009    0.0000000000000000
     0.0000000000000000    0.0000000000000000   20.0000000000000000
    28     3     1
Selective dynamics
Direct
  0.0560365022936714  0.0908473013733447  0.0822588633802997   T   T   T
  0.9307644183072425  0.1745157091751750  0.0837884937017974   T   T   T
  0.0579241962725769  0.9240626685500403  0.0824184907566583   T   T   T
  0.9298967263311724  0.3419759751138173  0.0859779399051269   T   T   T
  0.0568350052980152  0.5901749102166057  0.0828656886237407   T   T   T
  0.9325502472440351  0.6737223847981282  0.0855369343596803   T   T   T
  0.0564148851992708  0.4229729706100407  0.0838287932515869   T   T   T
  0.9330584816072690  0.8407301832334196  0.0846788383883855   T   T   T
  0.3058394087295540  0.0876900782779128  0.0880446218209648   T   T   T
  0.1823677953538614  0.1723085570494162  0.0846653545940147   T   T   T
  0.1817102720266481  0.3389595669675273  0.0865210517372284   T   T   T
  0.3033580021787949  0.5878792903539712  0.1003196900376919   T   T   T
  0.1822283550073022  0.6730441298371049  0.0865856394796105   T   T   T
  0.3061698663414537  0.4200253297415557  0.0981268347423910   T   T   T
  0.1825987473467379  0.8404516813747424  0.0852218896932561   T   T   T
  0.5558331551279106  0.0864408781864083  0.0948584065560115   T   T   T
  0.5556325614435202  0.9204582781808266  0.1001608831809660   T   T   T
  0.4289107974015196  0.3306059092992762  0.1062789340720993   T   T   T
  0.4268957998096191  0.8402393632189876  0.1038192246154710   T   T   T
  0.8057345765554552  0.0900703221815929  0.0857414244498352   T   T   T
  0.6799912694737930  0.1720343050356186  0.0919694891834309   T   T   T
  0.8076433709628644  0.9243984668156628  0.0878305930873066   T   T   T
  0.6807603943354207  0.3365735891527588  0.1021473043315016   T   T   T
  0.8089353325858316  0.5938380118213582  0.0971008989826706   T   T   T
  0.8040981766093560  0.4251677539727396  0.0955625226776280   T   T   T
  0.6851560799901316  0.8407539645014022  0.0996671571791677   T   T   T
  0.4163367841379303  0.6807240198437420  0.1201500802377024   T   T   T
  0.5542393373836664  0.4022868226792253  0.1233039649293528   T   T   T
  0.6959721732311855  0.6821859050571135  0.1141360205527374   T   T   T
  0.3068294189041929  0.9247123424268768  0.0894328276296483   T   T   T
  0.4293433079503950  0.1672896378115364  0.0950427693069369   T   T   T
  0.5595735545596098  0.5931056931420744  0.1776333745551171   T   T   T
 
  0.00000000E+00  0.00000000E+00  0.00000000E+00
  0.00000000E+00  0.00000000E+00  0.00000000E+00
  0.00000000E+00  0.00000000E+00  0.00000000E+00
  0.00000000E+00  0.00000000E+00  0.00000000E+00
  0.00000000E+00  0.00000000E+00  0.00000000E+00
  0.00000000E+00  0.00000000E+00  0.00000000E+00
  0.00000000E+00  0.00000000E+00  0.00000000E+00
  0.00000000E+00  0.00000000E+00  0.00000000E+00
  0.00000000E+00  0.00000000E+00  0.00000000E+00
  0.00000000E+00  0.00000000E+00  0.00000000E+00
  0.00000000E+00  0.00000000E+00  0.00000000E+00
  0.00000000E+00  0.00000000E+00  0.00000000E+00
  0.00000000E+00  0.00000000E+00  0.00000000E+00
  0.00000000E+00  0.00000000E+00  0.00000000E+00
  0.00000000E+00  0.00000000E+00  0.00000000E+00
  0.00000000E+00  0.00000000E+00  0.00000000E+00
  0.00000000E+00  0.00000000E+00  0.00000000E+00
  0.00000000E+00  0.00000000E+00  0.00000000E+00
  0.00000000E+00  0.00000000E+00  0.00000000E+00
  0.00000000E+00  0.00000000E+00  0.00000000E+00
  0.00000000E+00  0.00000000E+00  0.00000000E+00
  0.00000000E+00  0.00000000E+00  0.00000000E+00
  0.00000000E+00  0.00000000E+00  0.00000000E+00
  0.00000000E+00  0.00000000E+00  0.00000000E+00
  0.00000000E+00  0.00000000E+00  0.00000000E+00
  0.00000000E+00  0.00000000E+00  0.00000000E+00
  0.00000000E+00  0.00000000E+00  0.00000000E+00
  0.00000000E+00  0.00000000E+00  0.00000000E+00
  0.00000000E+00  0.00000000E+00  0.00000000E+00
  0.00000000E+00  0.00000000E+00  0.00000000E+00
  0.00000000E+00  0.00000000E+00  0.00000000E+00
  0.00000000E+00  0.00000000E+00  0.00000000E+00
