Title                                   
   1.00000000000000     
     9.8694509999999998    0.0000000000000000    0.0000000000000000
     0.0000000000000000    8.5490480000000009    0.0000000000000000
     0.0000000000000000    0.0000000000000000   20.0000000000000000
    28     3     1
Selective dynamics
Direct
  0.0561165673812778  0.0910488608342034  0.0837821833552482   T   T   T
  0.9312118098615524  0.1742169196753178  0.0846739693247805   T   T   T
  0.0577440838442949  0.9238521329420473  0.0832205551845836   T   T   T
  0.9305675361007160  0.3420822741596474  0.0870169896488714   T   T   T
  0.0571334124779431  0.5906439159883311  0.0853007315049883   T   T   T
  0.9327386053260197  0.6739514176530127  0.0854712725053749   T   T   T
  0.0566759689245480  0.4233592606913458  0.0864189960724208   T   T   T
  0.9329759513035621  0.8404393874698945  0.0841185577269445   T   T   T
  0.3058495692650555  0.0880352308977699  0.0899104301054522   T   T   T
  0.1823634128489628  0.1726511755994006  0.0871824591520860   T   T   T
  0.1820801899482271  0.3395776199989592  0.0901620528938149   T   T   T
  0.3030937697237081  0.5882709756621368  0.1041986972756099   T   T   T
  0.1818568326663524  0.6741172074135454  0.0899492716759156   T   T   T
  0.3057318326111516  0.4208962737654620  0.1020220399979911   T   T   T
  0.1819808924291711  0.8405034113388453  0.0870640562743191   T   T   T
  0.5562011187463930  0.0860362172259204  0.0937382126484870   T   T   T
  0.5554514167438057  0.9210946777688821  0.0983921361853047   T   T   T
  0.4291115344298080  0.3309733394317332  0.1080807434644298   T   T   T
  0.4272219022432908  0.8408939771990790  0.1046433976668533   T   T   T
  0.8059547038033008  0.0896720348152589  0.0850263875246872   T   T   T
  0.6796690788239649  0.1708102157125115  0.0904502197629393   T   T   T
  0.8076062530976881  0.9243153338449741  0.0862629670847598   T   T   T
  0.6812616166961774  0.3358442448885410  0.1010844738236795   T   T   T
  0.8082805361954414  0.5931222606823265  0.0941441416305792   T   T   T
  0.8046658610833534  0.4247599623340313  0.0945755376660204   T   T   T
  0.6843483407447772  0.8407113158999963  0.0957025712385099   T   T   T
  0.4159019394766115  0.6831256281622760  0.1212642973973732   T   T   T
  0.5555766474671515  0.3998187010917182  0.1215400982359540   T   T   T
  0.6925222042680056  0.6811876063057077  0.1046025834978939   T   T   T
  0.3058336610085830  0.9251257835126289  0.0905480048939392   T   T   T
  0.4286429062549861  0.1669275694622711  0.0954982504885764   T   T   T
  0.5632688442041259  0.5921810675722278  0.1696287140916283   T   T   T
 
  0.00000000E+00  0.00000000E+00  0.00000000E+00
  0.00000000E+00  0.00000000E+00  0.00000000E+00
  0.00000000E+00  0.00000000E+00  0.00000000E+00
  0.00000000E+00  0.00000000E+00  0.00000000E+00
  0.00000000E+00  0.00000000E+00  0.00000000E+00
  0.00000000E+00  0.00000000E+00  0.00000000E+00
  0.00000000E+00  0.00000000E+00  0.00000000E+00
  0.00000000E+00  0.00000000E+00  0.00000000E+00
  0.00000000E+00  0.00000000E+00  0.00000000E+00
  0.00000000E+00  0.00000000E+00  0.00000000E+00
  0.00000000E+00  0.00000000E+00  0.00000000E+00
  0.00000000E+00  0.00000000E+00  0.00000000E+00
  0.00000000E+00  0.00000000E+00  0.00000000E+00
  0.00000000E+00  0.00000000E+00  0.00000000E+00
  0.00000000E+00  0.00000000E+00  0.00000000E+00
  0.00000000E+00  0.00000000E+00  0.00000000E+00
  0.00000000E+00  0.00000000E+00  0.00000000E+00
  0.00000000E+00  0.00000000E+00  0.00000000E+00
  0.00000000E+00  0.00000000E+00  0.00000000E+00
  0.00000000E+00  0.00000000E+00  0.00000000E+00
  0.00000000E+00  0.00000000E+00  0.00000000E+00
  0.00000000E+00  0.00000000E+00  0.00000000E+00
  0.00000000E+00  0.00000000E+00  0.00000000E+00
  0.00000000E+00  0.00000000E+00  0.00000000E+00
  0.00000000E+00  0.00000000E+00  0.00000000E+00
  0.00000000E+00  0.00000000E+00  0.00000000E+00
  0.00000000E+00  0.00000000E+00  0.00000000E+00
  0.00000000E+00  0.00000000E+00  0.00000000E+00
  0.00000000E+00  0.00000000E+00  0.00000000E+00
  0.00000000E+00  0.00000000E+00  0.00000000E+00
  0.00000000E+00  0.00000000E+00  0.00000000E+00
  0.00000000E+00  0.00000000E+00  0.00000000E+00
