Title                                   
   1.00000000000000     
     9.8694509999999998    0.0000000000000000    0.0000000000000000
     0.0000000000000000    8.5490480000000009    0.0000000000000000
     0.0000000000000000    0.0000000000000000   20.0000000000000000
    27     4     1
Selective dynamics
Direct
  0.0558938677170430  0.0916278562357408  0.0846641755776654   T   T   T
  0.9297727918642074  0.1748592035458629  0.0866766374427437   T   T   T
  0.0566102962035580  0.9231361009461897  0.0831836948570397   T   T   T
  0.9296721591318869  0.3414698187294394  0.0903290316297379   T   T   T
  0.0560761173836197  0.5894637157191340  0.0855395141878475   T   T   T
  0.9317214928810121  0.6718651718955536  0.0857196882932635   T   T   T
  0.0555741028222246  0.4228287824212128  0.0893822410386993   T   T   T
  0.9314558452193848  0.8396309798396842  0.0844896598657812   T   T   T
  0.3053352549185164  0.0886653139308068  0.0874213442557321   T   T   T
  0.1817536265641258  0.1736432015886538  0.0875572434641918   T   T   T
  0.3073300602082388  0.9229151845227815  0.0875456301124268   T   T   T
  0.1812275721314838  0.3398109457560942  0.0916744980428023   T   T   T
  0.3042064402086185  0.5887102625322117  0.0998269248420844   T   T   T
  0.1808873759356319  0.6704772126929647  0.0873363567250863   T   T   T
  0.1820547439027564  0.8385099736110297  0.0852232127210217   T   T   T
  0.5565353021605804  0.0869136137041862  0.0944952825389464   T   T   T
  0.4304066458109942  0.1697719410565429  0.0938585944742101   T   T   T
  0.4301454416642452  0.3346864488318920  0.1038671073495918   T   T   T
  0.4298500002620558  0.8391510568884633  0.0984125997481595   T   T   T
  0.8066883486904768  0.0898534702831075  0.0862248401944768   T   T   T
  0.6814386551754700  0.1715540260186118  0.0924627347174303   T   T   T
  0.8062031967897666  0.9242907742763238  0.0866527975471941   T   T   T
  0.6797915974853709  0.3361813589949152  0.1018678730678651   T   T   T
  0.8073012471495570  0.5924156258064764  0.0954854601686296   T   T   T
  0.6847990656153848  0.8396499088918817  0.0962005338067046   T   T   T
  0.4201145374257921  0.6782974385974884  0.1172320820175062   T   T   T
  0.5551198965351199  0.4080468130314586  0.1214887146347070   T   T   T
  0.6939257198245293  0.6806247854783127  0.1104736350874027   T   T   T
  0.5572312273986061  0.9184001281712973  0.0966277122446628   T   T   T
  0.3059254959867436  0.4213725233129695  0.0994503782731374   T   T   T
  0.8035693631454505  0.4252214941076507  0.0963426290006527   T   T   T
  0.5610215117875547  0.5962008685810656  0.1779621720726154   T   T   T
 
  0.00000000E+00  0.00000000E+00  0.00000000E+00
  0.00000000E+00  0.00000000E+00  0.00000000E+00
  0.00000000E+00  0.00000000E+00  0.00000000E+00
  0.00000000E+00  0.00000000E+00  0.00000000E+00
  0.00000000E+00  0.00000000E+00  0.00000000E+00
  0.00000000E+00  0.00000000E+00  0.00000000E+00
  0.00000000E+00  0.00000000E+00  0.00000000E+00
  0.00000000E+00  0.00000000E+00  0.00000000E+00
  0.00000000E+00  0.00000000E+00  0.00000000E+00
  0.00000000E+00  0.00000000E+00  0.00000000E+00
  0.00000000E+00  0.00000000E+00  0.00000000E+00
  0.00000000E+00  0.00000000E+00  0.00000000E+00
  0.00000000E+00  0.00000000E+00  0.00000000E+00
  0.00000000E+00  0.00000000E+00  0.00000000E+00
  0.00000000E+00  0.00000000E+00  0.00000000E+00
  0.00000000E+00  0.00000000E+00  0.00000000E+00
  0.00000000E+00  0.00000000E+00  0.00000000E+00
  0.00000000E+00  0.00000000E+00  0.00000000E+00
  0.00000000E+00  0.00000000E+00  0.00000000E+00
  0.00000000E+00  0.00000000E+00  0.00000000E+00
  0.00000000E+00  0.00000000E+00  0.00000000E+00
  0.00000000E+00  0.00000000E+00  0.00000000E+00
  0.00000000E+00  0.00000000E+00  0.00000000E+00
  0.00000000E+00  0.00000000E+00  0.00000000E+00
  0.00000000E+00  0.00000000E+00  0.00000000E+00
  0.00000000E+00  0.00000000E+00  0.00000000E+00
  0.00000000E+00  0.00000000E+00  0.00000000E+00
  0.00000000E+00  0.00000000E+00  0.00000000E+00
  0.00000000E+00  0.00000000E+00  0.00000000E+00
  0.00000000E+00  0.00000000E+00  0.00000000E+00
  0.00000000E+00  0.00000000E+00  0.00000000E+00
  0.00000000E+00  0.00000000E+00  0.00000000E+00
