Title                                   
   1.00000000000000     
     8.5490480000000009    0.0000000000000000    0.0000000000000000
     0.0000000000000000    8.5490480000000009    0.0000000000000000
     0.0000000000000000    0.0000000000000000   20.0000000000000000
    22     2     1
Selective dynamics
Direct
  0.9096620251811831  0.2077368475911611  0.0959931228838061   T   T   T
  0.9078843489961583  0.5025626266045697  0.0945874226491104   T   T   T
  0.9116514755256286  0.7980943323995021  0.0956493424204786   T   T   T
  0.1967610613079740  0.0831996951506768  0.0956885727274401   T   T   T
  0.0744277393706970  0.2055211512179641  0.0956535754660950   T   T   T
  0.1989858591946407  0.9184316058240390  0.0960284145349799   T   T   T
  0.1596701193489770  0.6460413985664952  0.0963285381453965   T   T   T
  0.0781721699931913  0.5010523349078911  0.0945958299913898   T   T   T
  0.1587390147752283  0.3536020682313884  0.0938106535758658   T   T   T
  0.0764050173436559  0.7958844430064700  0.0959967007433991   T   T   T
  0.4922428058901586  0.0869210125467003  0.0946857623772777   T   T   T
  0.3448354948951632  0.1675048357026348  0.0938675450615248   T   T   T
  0.4937604575606475  0.9166354643723862  0.0946879121479465   T   T   T
  0.3487998824419548  0.8351179163275789  0.0963773355008706   T   T   T
  0.7870846366173641  0.0851756856857057  0.0960269538276916   T   T   T
  0.6372080076104002  0.1684550523330657  0.0963706338228594   T   T   T
  0.7893200982303233  0.9204040191708550  0.0956772038576993   T   T   T
  0.8273246769651547  0.6500029730770179  0.0938120031599787   T   T   T
  0.8263458488211535  0.3575800903006137  0.0962945826583850   T   T   T
  0.6412081437106375  0.8360677046089208  0.0938731135316995   T   T   T
  0.3255018383558597  0.6692831352963067  0.0998531745016786   T   T   T
  0.6604820404749889  0.3342723059021473  0.0998100061588178   T   T   T
  0.3201397170534093  0.3288747050946118  0.0905415494589727   T   T   T
  0.6659381121373151  0.6747027353538938  0.0905635013349982   T   T   T
  0.4928614081981273  0.5016658607274161  0.0969315494616163   T   T   T
 
  0.00000000E+00  0.00000000E+00  0.00000000E+00
  0.00000000E+00  0.00000000E+00  0.00000000E+00
  0.00000000E+00  0.00000000E+00  0.00000000E+00
  0.00000000E+00  0.00000000E+00  0.00000000E+00
  0.00000000E+00  0.00000000E+00  0.00000000E+00
  0.00000000E+00  0.00000000E+00  0.00000000E+00
  0.00000000E+00  0.00000000E+00  0.00000000E+00
  0.00000000E+00  0.00000000E+00  0.00000000E+00
  0.00000000E+00  0.00000000E+00  0.00000000E+00
  0.00000000E+00  0.00000000E+00  0.00000000E+00
  0.00000000E+00  0.00000000E+00  0.00000000E+00
  0.00000000E+00  0.00000000E+00  0.00000000E+00
  0.00000000E+00  0.00000000E+00  0.00000000E+00
  0.00000000E+00  0.00000000E+00  0.00000000E+00
  0.00000000E+00  0.00000000E+00  0.00000000E+00
  0.00000000E+00  0.00000000E+00  0.00000000E+00
  0.00000000E+00  0.00000000E+00  0.00000000E+00
  0.00000000E+00  0.00000000E+00  0.00000000E+00
  0.00000000E+00  0.00000000E+00  0.00000000E+00
  0.00000000E+00  0.00000000E+00  0.00000000E+00
  0.00000000E+00  0.00000000E+00  0.00000000E+00
  0.00000000E+00  0.00000000E+00  0.00000000E+00
  0.00000000E+00  0.00000000E+00  0.00000000E+00
  0.00000000E+00  0.00000000E+00  0.00000000E+00
  0.00000000E+00  0.00000000E+00  0.00000000E+00
