Title                                   
   1.00000000000000     
     9.8694509999999998    0.0000000000000000    0.0000000000000000
     0.0000000000000000    8.5490480000000009    0.0000000000000000
     0.0000000000000000    0.0000000000000000   20.0000000000000000
    27     4     1
Selective dynamics
Direct
  0.0562583652979202  0.0920915624051608  0.0866228556651018   T   T   T
  0.9305268844861885  0.1749919946404494  0.0891452994090105   T   T   T
  0.0562667852139931  0.9246869949039043  0.0851380486240211   T   T   T
  0.9288261767237835  0.3421327695075537  0.0927671061605758   T   T   T
  0.0562526956336337  0.5898366342821917  0.0887814119139132   T   T   T
  0.9316665006500473  0.6737665570737731  0.0890938321821518   T   T   T
  0.0562693764823070  0.4236533857730318  0.0913215050769692   T   T   T
  0.9317302136962634  0.8399882065775357  0.0867082432003540   T   T   T
  0.3056659635073789  0.0890556454679549  0.0887726236219296   T   T   T
  0.1820177306973282  0.1749451544670546  0.0888711705870711   T   T   T
  0.3060085082412303  0.9241404713679071  0.0877187128252334   T   T   T
  0.1836879338518770  0.3420852230702381  0.0924261060973261   T   T   T
  0.3071396131211968  0.5941871577783988  0.0967610149412077   T   T   T
  0.1808507302217651  0.6737651555617659  0.0886549312804342   T   T   T
  0.3108303955978181  0.4252537002572089  0.0979136180174718   T   T   T
  0.1808035280347458  0.8399922110212980  0.0863171638574566   T   T   T
  0.5562588161739072  0.0820756788649660  0.0958890763193106   T   T   T
  0.4323608507495854  0.1673030061593417  0.0940679474278703   T   T   T
  0.4359353253819621  0.3337151011967202  0.1006261417994691   T   T   T
  0.4271937650470142  0.8358245157913813  0.0956934868307068   T   T   T
  0.8068884565469737  0.0890835628411320  0.0891106420387622   T   T   T
  0.6801875633561563  0.1673736704350895  0.0942879182794770   T   T   T
  0.8065475376551811  0.9241354686555771  0.0881514022665158   T   T   T
  0.6766197487999523  0.3337681739357113  0.1009719192405561   T   T   T
  0.8054387084013850  0.5942457131072384  0.0974422802596508   T   T   T
  0.8017389026758125  0.4253049347744414  0.0984500657058641   T   T   T
  0.6853829551777000  0.8358230661547769  0.0961373312061426   T   T   T
  0.4233801862556525  0.6816692851946760  0.1050402174687648   T   T   T
  0.5562220522915514  0.4073847973269631  0.1105663621520047   T   T   T
  0.6892667117335040  0.6817789669390198  0.1057989750400750   T   T   T
  0.5562522226432740  0.9160239592621877  0.0978941691889121   T   T   T
  0.5551637956529191  0.5901632752053524  0.1785334213157062   T   T   T
 
  0.00000000E+00  0.00000000E+00  0.00000000E+00
  0.00000000E+00  0.00000000E+00  0.00000000E+00
  0.00000000E+00  0.00000000E+00  0.00000000E+00
  0.00000000E+00  0.00000000E+00  0.00000000E+00
  0.00000000E+00  0.00000000E+00  0.00000000E+00
  0.00000000E+00  0.00000000E+00  0.00000000E+00
  0.00000000E+00  0.00000000E+00  0.00000000E+00
  0.00000000E+00  0.00000000E+00  0.00000000E+00
  0.00000000E+00  0.00000000E+00  0.00000000E+00
  0.00000000E+00  0.00000000E+00  0.00000000E+00
  0.00000000E+00  0.00000000E+00  0.00000000E+00
  0.00000000E+00  0.00000000E+00  0.00000000E+00
  0.00000000E+00  0.00000000E+00  0.00000000E+00
  0.00000000E+00  0.00000000E+00  0.00000000E+00
  0.00000000E+00  0.00000000E+00  0.00000000E+00
  0.00000000E+00  0.00000000E+00  0.00000000E+00
  0.00000000E+00  0.00000000E+00  0.00000000E+00
  0.00000000E+00  0.00000000E+00  0.00000000E+00
  0.00000000E+00  0.00000000E+00  0.00000000E+00
  0.00000000E+00  0.00000000E+00  0.00000000E+00
  0.00000000E+00  0.00000000E+00  0.00000000E+00
  0.00000000E+00  0.00000000E+00  0.00000000E+00
  0.00000000E+00  0.00000000E+00  0.00000000E+00
  0.00000000E+00  0.00000000E+00  0.00000000E+00
  0.00000000E+00  0.00000000E+00  0.00000000E+00
  0.00000000E+00  0.00000000E+00  0.00000000E+00
  0.00000000E+00  0.00000000E+00  0.00000000E+00
  0.00000000E+00  0.00000000E+00  0.00000000E+00
  0.00000000E+00  0.00000000E+00  0.00000000E+00
  0.00000000E+00  0.00000000E+00  0.00000000E+00
  0.00000000E+00  0.00000000E+00  0.00000000E+00
  0.00000000E+00  0.00000000E+00  0.00000000E+00
