Title                                   
   1.00000000000000     
     9.8694509999999998    0.0000000000000000    0.0000000000000000
     0.0000000000000000    8.5490480000000009    0.0000000000000000
     0.0000000000000000    0.0000000000000000   20.0000000000000000
    28     3     1
Selective dynamics
Direct
  0.0565821979656791  0.0913723391074896  0.0816640261275262   T   T   T
  0.9306444104050139  0.1734174798457257  0.0843223265496719   T   T   T
  0.0556281254751619  0.9242313660238834  0.0817620510814541   T   T   T
  0.9300721997213637  0.3404190656468119  0.0890462971939359   T   T   T
  0.0567226118639791  0.5893205564865560  0.0859213613559282   T   T   T
  0.9318794433655948  0.6726298218205992  0.0884932922527662   T   T   T
  0.0569647526379027  0.4234041711352374  0.0875609704189857   T   T   T
  0.9308033666541541  0.8396516655242680  0.0847918981640348   T   T   T
  0.3057019372060958  0.0901344370747783  0.0848556740333196   T   T   T
  0.1821873058452425  0.1746171969483841  0.0841102639793195   T   T   T
  0.3056882503807121  0.9242280913024190  0.0859497857824811   T   T   T
  0.1842466391047437  0.3423647188546584  0.0885319808704746   T   T   T
  0.3049458635973936  0.5948231340169147  0.0987413292161609   T   T   T
  0.1810963408822495  0.6739344171562585  0.0874580023097651   T   T   T
  0.3104005908805889  0.4257538108073257  0.0970497896242428   T   T   T
  0.1805828038350140  0.8408623416110438  0.0845319809260045   T   T   T
  0.5556161994369158  0.0840946903403772  0.0943385307121500   T   T   T
  0.4320092029370274  0.1693029324304008  0.0915784617437579   T   T   T
  0.4345591503078015  0.3339623085991648  0.1003444528627053   T   T   T
  0.4275199045518426  0.8402280503885635  0.0974334243212919   T   T   T
  0.8070903874907314  0.0889455912323893  0.0854999515087797   T   T   T
  0.6807103459370724  0.1675198208240644  0.0926741228308970   T   T   T
  0.8050137739248195  0.9227059239326569  0.0866000013838585   T   T   T
  0.6800833525632584  0.3322366451279407  0.1019492920888649   T   T   T
  0.8091547858815510  0.5911258234565827  0.1016019026620240   T   T   T
  0.6921332824799262  0.6819186392479192  0.1192445552329958   T   T   T
  0.8048649761833491  0.4224783353851599  0.0988210758009719   T   T   T
  0.6826891471573819  0.8396941369608870  0.0987095717177459   T   T   T
  0.4185184559405056  0.6860656893788102  0.1157713427005270   T   T   T
  0.5571162824930259  0.4024064780266344  0.1171193787342571   T   T   T
  0.5544476137467841  0.9194263565380938  0.0978038675309403   T   T   T
  0.5539652991471249  0.5869699647680107  0.1713940382821965   T   T   T
 
  0.00000000E+00  0.00000000E+00  0.00000000E+00
  0.00000000E+00  0.00000000E+00  0.00000000E+00
  0.00000000E+00  0.00000000E+00  0.00000000E+00
  0.00000000E+00  0.00000000E+00  0.00000000E+00
  0.00000000E+00  0.00000000E+00  0.00000000E+00
  0.00000000E+00  0.00000000E+00  0.00000000E+00
  0.00000000E+00  0.00000000E+00  0.00000000E+00
  0.00000000E+00  0.00000000E+00  0.00000000E+00
  0.00000000E+00  0.00000000E+00  0.00000000E+00
  0.00000000E+00  0.00000000E+00  0.00000000E+00
  0.00000000E+00  0.00000000E+00  0.00000000E+00
  0.00000000E+00  0.00000000E+00  0.00000000E+00
  0.00000000E+00  0.00000000E+00  0.00000000E+00
  0.00000000E+00  0.00000000E+00  0.00000000E+00
  0.00000000E+00  0.00000000E+00  0.00000000E+00
  0.00000000E+00  0.00000000E+00  0.00000000E+00
  0.00000000E+00  0.00000000E+00  0.00000000E+00
  0.00000000E+00  0.00000000E+00  0.00000000E+00
  0.00000000E+00  0.00000000E+00  0.00000000E+00
  0.00000000E+00  0.00000000E+00  0.00000000E+00
  0.00000000E+00  0.00000000E+00  0.00000000E+00
  0.00000000E+00  0.00000000E+00  0.00000000E+00
  0.00000000E+00  0.00000000E+00  0.00000000E+00
  0.00000000E+00  0.00000000E+00  0.00000000E+00
  0.00000000E+00  0.00000000E+00  0.00000000E+00
  0.00000000E+00  0.00000000E+00  0.00000000E+00
  0.00000000E+00  0.00000000E+00  0.00000000E+00
  0.00000000E+00  0.00000000E+00  0.00000000E+00
  0.00000000E+00  0.00000000E+00  0.00000000E+00
  0.00000000E+00  0.00000000E+00  0.00000000E+00
  0.00000000E+00  0.00000000E+00  0.00000000E+00
  0.00000000E+00  0.00000000E+00  0.00000000E+00
