Title                                   
   1.00000000000000     
     8.5490480000000009    0.0000000000000000    0.0000000000000000
     0.0000000000000000    8.5490480000000009    0.0000000000000000
     0.0000000000000000    0.0000000000000000   20.0000000000000000
    20     4     1
Selective dynamics
Direct
  0.9091755652369991  0.2054960148810079  0.0976449048502158   T   T   T
  0.9050304263131171  0.5038291945711141  0.0977524609623322   T   T   T
  0.9103948517297015  0.8019576983225516  0.0974842362826137   T   T   T
  0.1993923830888407  0.0834427018830990  0.0976594587456052   T   T   T
  0.0754608377973944  0.2044965461892285  0.0976521855240307   T   T   T
  0.1572466108909739  0.6513813839341237  0.0977261977729352   T   T   T
  0.0758512365774312  0.5025363624189977  0.0977304191438398   T   T   T
  0.1577108971088987  0.3561166455236707  0.0977774260459397   T   T   T
  0.0786094904563808  0.7990353812606116  0.0975968226001717   T   T   T
  0.4939040234889843  0.0844024093572836  0.0977501335268848   T   T   T
  0.3472675114167354  0.1635164509034032  0.0977738204916909   T   T   T
  0.4933860060770209  0.9136378413060176  0.0977502410691958   T   T   T
  0.3451775059312844  0.8332338410807960  0.0978414348322755   T   T   T
  0.7883122812974447  0.0859286687284671  0.0975710804252602   T   T   T
  0.6407728454236515  0.1662700718858219  0.0977599669123914   T   T   T
  0.7892819040076912  0.9193965563140123  0.0974979869590866   T   T   T
  0.8282527056749656  0.6526478218815819  0.0976978924180554   T   T   T
  0.8246192557060518  0.3553248181265639  0.0978438547442840   T   T   T
  0.6413896188738476  0.8347393648523215  0.0977279110379978   T   T   T
  0.3245756519267153  0.3339562065076660  0.0978421437168205   T   T   T
  0.3193141280892230  0.6746284359954624  0.0979478534185791   T   T   T
  0.6638937344544653  0.3294384183930326  0.0980094160412323   T   T   T
  0.6666109085319494  0.6747187573837824  0.0979253926584811   T   T   T
  0.1986742094587997  0.9161920068943318  0.0977309113995918   T   T   T
  0.4911074104414253  0.4984664014050713  0.0980108484204617   T   T   T
 
  0.00000000E+00  0.00000000E+00  0.00000000E+00
  0.00000000E+00  0.00000000E+00  0.00000000E+00
  0.00000000E+00  0.00000000E+00  0.00000000E+00
  0.00000000E+00  0.00000000E+00  0.00000000E+00
  0.00000000E+00  0.00000000E+00  0.00000000E+00
  0.00000000E+00  0.00000000E+00  0.00000000E+00
  0.00000000E+00  0.00000000E+00  0.00000000E+00
  0.00000000E+00  0.00000000E+00  0.00000000E+00
  0.00000000E+00  0.00000000E+00  0.00000000E+00
  0.00000000E+00  0.00000000E+00  0.00000000E+00
  0.00000000E+00  0.00000000E+00  0.00000000E+00
  0.00000000E+00  0.00000000E+00  0.00000000E+00
  0.00000000E+00  0.00000000E+00  0.00000000E+00
  0.00000000E+00  0.00000000E+00  0.00000000E+00
  0.00000000E+00  0.00000000E+00  0.00000000E+00
  0.00000000E+00  0.00000000E+00  0.00000000E+00
  0.00000000E+00  0.00000000E+00  0.00000000E+00
  0.00000000E+00  0.00000000E+00  0.00000000E+00
  0.00000000E+00  0.00000000E+00  0.00000000E+00
  0.00000000E+00  0.00000000E+00  0.00000000E+00
  0.00000000E+00  0.00000000E+00  0.00000000E+00
  0.00000000E+00  0.00000000E+00  0.00000000E+00
  0.00000000E+00  0.00000000E+00  0.00000000E+00
  0.00000000E+00  0.00000000E+00  0.00000000E+00
  0.00000000E+00  0.00000000E+00  0.00000000E+00
