Title                                   
   1.00000000000000     
     9.8694509999999998    0.0000000000000000    0.0000000000000000
     0.0000000000000000    8.5490480000000009    0.0000000000000000
     0.0000000000000000    0.0000000000000000   20.0000000000000000
    26     4     1
Selective dynamics
Direct
  0.0560925798585367  0.0905677131602867  0.0919940499587226   T   T   T
  0.9315746459794982  0.1733074632697962  0.0971409587694774   T   T   T
  0.0582484319388324  0.9233434836259220  0.0921753229798206   T   T   T
  0.9330210967575446  0.3409836481844808  0.0988826048913292   T   T   T
  0.0581690487498445  0.5901834814638953  0.0937942396080281   T   T   T
  0.9342885016641521  0.6742534975020704  0.0987703093020453   T   T   T
  0.0575001594942657  0.4228488570961417  0.0934951544949999   T   T   T
  0.9336858874223545  0.8407509049941474  0.0971103174157862   T   T   T
  0.3071363592277708  0.0876260533940787  0.0869369319320232   T   T   T
  0.1812971637722931  0.1717142865065160  0.0883885617629939   T   T   T
  0.1808143641410358  0.3382377541963357  0.0888636306936283   T   T   T
  0.3069486424915125  0.5891848833904794  0.0841335098865346   T   T   T
  0.1818532436831827  0.6734995911652790  0.0890451448439702   T   T   T
  0.3067067454571211  0.4206285952042326  0.0855527363471516   T   T   T
  0.1822568769957804  0.8390332637413221  0.0887337768888438   T   T   T
  0.5563285973447034  0.0893792409501648  0.0982135122487016   T   T   T
  0.4298623651827330  0.1712420424604004  0.0901185068082447   T   T   T
  0.5557337683432291  0.9188379140916576  0.0974865227381860   T   T   T
  0.4296992468891331  0.8364395030145869  0.0887037649012440   T   T   T
  0.8054708795187635  0.0901360265947281  0.1000880757586254   T   T   T
  0.6807277861400890  0.1762832081270825  0.1046971978081497   T   T   T
  0.8067361182835742  0.9228705141324544  0.0998319607688914   T   T   T
  0.6847525950708119  0.3426374036018844  0.1139239898626793   T   T   T
  0.8111515726178188  0.5932802351959717  0.1067367219941941   T   T   T
  0.8089829912851019  0.4243633567568666  0.1074912138160838   T   T   T
  0.6832895542205895  0.8344534945916906  0.1035566041479576   T   T   T
  0.4264056647173194  0.3344548298116751  0.0887893873606354   T   T   T
  0.6897285390138540  0.6732910172688861  0.1123411205303762   T   T   T
  0.4267894496431112  0.6773357632756445  0.0829730139704668   T   T   T
  0.3077063978204619  0.9217518421916416  0.0868018766303973   T   T   T
  0.5301757262749915  0.5079551310396936  0.1441942808798486   T   T   T
 
  0.00000000E+00  0.00000000E+00  0.00000000E+00
  0.00000000E+00  0.00000000E+00  0.00000000E+00
  0.00000000E+00  0.00000000E+00  0.00000000E+00
  0.00000000E+00  0.00000000E+00  0.00000000E+00
  0.00000000E+00  0.00000000E+00  0.00000000E+00
  0.00000000E+00  0.00000000E+00  0.00000000E+00
  0.00000000E+00  0.00000000E+00  0.00000000E+00
  0.00000000E+00  0.00000000E+00  0.00000000E+00
  0.00000000E+00  0.00000000E+00  0.00000000E+00
  0.00000000E+00  0.00000000E+00  0.00000000E+00
  0.00000000E+00  0.00000000E+00  0.00000000E+00
  0.00000000E+00  0.00000000E+00  0.00000000E+00
  0.00000000E+00  0.00000000E+00  0.00000000E+00
  0.00000000E+00  0.00000000E+00  0.00000000E+00
  0.00000000E+00  0.00000000E+00  0.00000000E+00
  0.00000000E+00  0.00000000E+00  0.00000000E+00
  0.00000000E+00  0.00000000E+00  0.00000000E+00
  0.00000000E+00  0.00000000E+00  0.00000000E+00
  0.00000000E+00  0.00000000E+00  0.00000000E+00
  0.00000000E+00  0.00000000E+00  0.00000000E+00
  0.00000000E+00  0.00000000E+00  0.00000000E+00
  0.00000000E+00  0.00000000E+00  0.00000000E+00
  0.00000000E+00  0.00000000E+00  0.00000000E+00
  0.00000000E+00  0.00000000E+00  0.00000000E+00
  0.00000000E+00  0.00000000E+00  0.00000000E+00
  0.00000000E+00  0.00000000E+00  0.00000000E+00
  0.00000000E+00  0.00000000E+00  0.00000000E+00
  0.00000000E+00  0.00000000E+00  0.00000000E+00
  0.00000000E+00  0.00000000E+00  0.00000000E+00
  0.00000000E+00  0.00000000E+00  0.00000000E+00
  0.00000000E+00  0.00000000E+00  0.00000000E+00
