Title                                   
   1.00000000000000     
     4.9440799999999996    0.0000000000000000    0.0000000000000000
     0.0000000000000000   17.1295089999999988    0.0000000000000000
     0.0000000000000000    0.0000000000000000   20.0000000000000000
    28     3     1
Selective dynamics
Direct
 -0.0001802033253221  0.1047236272407192  0.2882735046665093   T   T   T
  0.2499242220079541  0.1464319459024248  0.2914068897366158   T   T   T
  0.2499311792356798  0.2295058399657390  0.2996832399064792   T   T   T
  0.0013362918165539  0.3529678205935872  0.3178775630215959   T   T   T
 -0.0002934892207087  0.2710354324234060  0.3037225621664488   T   T   T
 -0.0046171137989265  0.6033834269186616  0.3031412367158022   T   T   T
  0.2499307359121081  0.7273975689208341  0.2920254326514665   T   T   T
  0.0003940533914425  0.8535902329826597  0.2853702916257724   T   T   T
  0.2498761165099731  0.8956355603974306  0.2846026147695953   T   T   T
  0.2498519183579467  0.9792823118334782  0.2845032117729772   T   T   T
  0.0006714938800246  0.7699763775339263  0.2887677466204563   T   T   T
  0.4999887387658703  0.1047225114854763  0.2882862930740792   T   T   T
  0.7499137400915058  0.1467050191705974  0.2903440226706658   T   T   T
  0.7499215382371219  0.2298389489777968  0.2972617469348532   T   T   T
  0.5000171384763086  0.0211575900164870  0.2851167666076402   T   T   T
  0.4984119332629429  0.3529711227011926  0.3178821013262442   T   T   T
  0.7498732968800924  0.3977867283363729  0.3197960259491872   T   T   T
  0.7499016054451053  0.4836039311224475  0.3156131994932214   T   T   T
  0.5001050496468753  0.2710379587062941  0.3037222608661213   T   T   T
  0.5044313623977550  0.6033964748106868  0.3031867775335778   T   T   T
  0.7499416423630186  0.7289609480862994  0.2907311236505692   T   T   T
  0.4994070628336746  0.8535852154407908  0.2853701139996632   T   T   T
  0.7498798031213459  0.8953947648435497  0.2844390648490218   T   T   T
  0.7498629862504480  0.9791102573715754  0.2842735763401429   T   T   T
  0.4991939859641473  0.7699744179224396  0.2887715429624927   T   T   T
  0.7499462570715228  0.6459459329815854  0.2977245573280351   T   T   T
  0.2499240198030626  0.6436326792489832  0.2994087509679402   T   T   T
 -0.0002766805177812  0.0211622725876400  0.2850993065701589   T   T   T
  0.5124690103554931  0.5236384689621844  0.3134468011659368   T   T   T
  0.9874211142073782  0.5235960518810745  0.3132787055881136   T   T   T
  0.2498791977149801  0.3863948271612104  0.3326878169530775   T   T   T
  0.2497849928624137  0.4820047334724434  0.3867501515154906   T   T   T
 
  0.00000000E+00  0.00000000E+00  0.00000000E+00
  0.00000000E+00  0.00000000E+00  0.00000000E+00
  0.00000000E+00  0.00000000E+00  0.00000000E+00
  0.00000000E+00  0.00000000E+00  0.00000000E+00
  0.00000000E+00  0.00000000E+00  0.00000000E+00
  0.00000000E+00  0.00000000E+00  0.00000000E+00
  0.00000000E+00  0.00000000E+00  0.00000000E+00
  0.00000000E+00  0.00000000E+00  0.00000000E+00
  0.00000000E+00  0.00000000E+00  0.00000000E+00
  0.00000000E+00  0.00000000E+00  0.00000000E+00
  0.00000000E+00  0.00000000E+00  0.00000000E+00
  0.00000000E+00  0.00000000E+00  0.00000000E+00
  0.00000000E+00  0.00000000E+00  0.00000000E+00
  0.00000000E+00  0.00000000E+00  0.00000000E+00
  0.00000000E+00  0.00000000E+00  0.00000000E+00
  0.00000000E+00  0.00000000E+00  0.00000000E+00
  0.00000000E+00  0.00000000E+00  0.00000000E+00
  0.00000000E+00  0.00000000E+00  0.00000000E+00
  0.00000000E+00  0.00000000E+00  0.00000000E+00
  0.00000000E+00  0.00000000E+00  0.00000000E+00
  0.00000000E+00  0.00000000E+00  0.00000000E+00
  0.00000000E+00  0.00000000E+00  0.00000000E+00
  0.00000000E+00  0.00000000E+00  0.00000000E+00
  0.00000000E+00  0.00000000E+00  0.00000000E+00
  0.00000000E+00  0.00000000E+00  0.00000000E+00
  0.00000000E+00  0.00000000E+00  0.00000000E+00
  0.00000000E+00  0.00000000E+00  0.00000000E+00
  0.00000000E+00  0.00000000E+00  0.00000000E+00
  0.00000000E+00  0.00000000E+00  0.00000000E+00
  0.00000000E+00  0.00000000E+00  0.00000000E+00
  0.00000000E+00  0.00000000E+00  0.00000000E+00
  0.00000000E+00  0.00000000E+00  0.00000000E+00
