Title                                   
   1.00000000000000     
     8.5490480000000009    0.0000000000000000    0.0000000000000000
     0.0000000000000000    8.5490480000000009    0.0000000000000000
     0.0000000000000000    0.0000000000000000   20.0000000000000000
    21     3     1
Selective dynamics
Direct
  0.9102038768498448  0.2045191338860927  0.0972236254112208   T   T   T
  0.9056658499366238  0.5020400978621028  0.0963264334088651   T   T   T
  0.9082488930345448  0.7981232572938539  0.0984722241469655   T   T   T
  0.1971578315604543  0.0862014565891938  0.0988197351155164   T   T   T
  0.0773894542932566  0.2059378514982371  0.0988257784904082   T   T   T
  0.1957462724849083  0.9189901811116629  0.0972214996929013   T   T   T
  0.1552286113751270  0.6516596614316632  0.0947535541483177   T   T   T
  0.0762359294531170  0.5030561959218298  0.0962337484745866   T   T   T
  0.1570420735843275  0.3564028320267461  0.0979989074333531   T   T   T
  0.0760623108973816  0.7989499054853920  0.0970284180507968   T   T   T
  0.4941824942948549  0.0850574162710749  0.0962965048293541   T   T   T
  0.3475696168023699  0.1659460970048632  0.0979842443940520   T   T   T
  0.4931588377774759  0.9144927211272510  0.0964052445942852   T   T   T
  0.3433156444862709  0.8377584018401365  0.0949618767342362   T   T   T
  0.7901257100945465  0.0848325707224571  0.0970788948798898   T   T   T
  0.6428367664425105  0.1639380100191855  0.0948453810964705   T   T   T
  0.7892761182991703  0.9170549277294135  0.0985322100413159   T   T   T
  0.8276017508126365  0.6502303335718346  0.0980225361541698   T   T   T
  0.8290612194526963  0.3520878444284857  0.0949664749616195   T   T   T
  0.6413443854760972  0.8364377043178708  0.0981270238172680   T   T   T
  0.3244554251081921  0.3333625026186942  0.0967058724892755   T   T   T
  0.3190789943762636  0.6751245133416269  0.0909847305675304   T   T   T
  0.6664283558664624  0.3277260683159806  0.0911030132538440   T   T   T
  0.6648063668238317  0.6736821096575960  0.0980315801526903   T   T   T
  0.4931892104170288  0.5011782059267684  0.0667554876610451   T   T   T
 
  0.00000000E+00  0.00000000E+00  0.00000000E+00
  0.00000000E+00  0.00000000E+00  0.00000000E+00
  0.00000000E+00  0.00000000E+00  0.00000000E+00
  0.00000000E+00  0.00000000E+00  0.00000000E+00
  0.00000000E+00  0.00000000E+00  0.00000000E+00
  0.00000000E+00  0.00000000E+00  0.00000000E+00
  0.00000000E+00  0.00000000E+00  0.00000000E+00
  0.00000000E+00  0.00000000E+00  0.00000000E+00
  0.00000000E+00  0.00000000E+00  0.00000000E+00
  0.00000000E+00  0.00000000E+00  0.00000000E+00
  0.00000000E+00  0.00000000E+00  0.00000000E+00
  0.00000000E+00  0.00000000E+00  0.00000000E+00
  0.00000000E+00  0.00000000E+00  0.00000000E+00
  0.00000000E+00  0.00000000E+00  0.00000000E+00
  0.00000000E+00  0.00000000E+00  0.00000000E+00
  0.00000000E+00  0.00000000E+00  0.00000000E+00
  0.00000000E+00  0.00000000E+00  0.00000000E+00
  0.00000000E+00  0.00000000E+00  0.00000000E+00
  0.00000000E+00  0.00000000E+00  0.00000000E+00
  0.00000000E+00  0.00000000E+00  0.00000000E+00
  0.00000000E+00  0.00000000E+00  0.00000000E+00
  0.00000000E+00  0.00000000E+00  0.00000000E+00
  0.00000000E+00  0.00000000E+00  0.00000000E+00
  0.00000000E+00  0.00000000E+00  0.00000000E+00
  0.00000000E+00  0.00000000E+00  0.00000000E+00
