Title                                   
   1.00000000000000     
     9.8694509999999998    0.0000000000000000    0.0000000000000000
     0.0000000000000000    8.5490480000000009    0.0000000000000000
     0.0000000000000000    0.0000000000000000   20.0000000000000000
    28     3     1
Selective dynamics
Direct
  0.0561564652905141  0.0915027055584786  0.0820074482924901   T   T   T
  0.9312534583581105  0.1738322405769511  0.0832086969395907   T   T   T
  0.0566627017284709  0.9245614559760601  0.0833870694953647   T   T   T
  0.9309835752757575  0.3404226622592711  0.0860113025981182   T   T   T
  0.0573667693471720  0.5898700697924080  0.0835067627446366   T   T   T
  0.9328575905996547  0.6723443634677460  0.0877786131319187   T   T   T
  0.0576225538999388  0.4231537823253781  0.0839354693241287   T   T   T
  0.9322280870089906  0.8398865782108113  0.0858293953433076   T   T   T
  0.3053500717344682  0.0886824339588344  0.0865080078792100   T   T   T
  0.1820059013642363  0.1734478854134506  0.0835441744553546   T   T   T
  0.1844170851615717  0.3409182151582398  0.0850595322247138   T   T   T
  0.3033523013597387  0.5927767344078060  0.0975735073436215   T   T   T
  0.1816194960604602  0.6745078095097675  0.0868227691424558   T   T   T
  0.3106601143767919  0.4254648410482883  0.0940874498842558   T   T   T
  0.1809042755575537  0.8416496160271436  0.0868616345784927   T   T   T
  0.5559476521159529  0.0853423060606144  0.0929654568848546   T   T   T
  0.4309133051888651  0.1691175279360346  0.0916711208392392   T   T   T
  0.5541114033089132  0.9194756752765861  0.0979700233997164   T   T   T
  0.4322364003207769  0.3329379355651683  0.0998361771443682   T   T   T
  0.4244610684680073  0.8427564448789912  0.1012186571660031   T   T   T
  0.8069657330964010  0.0891675244364653  0.0851754749348731   T   T   T
  0.6813970685990942  0.1691192181030475  0.0916401571956007   T   T   T
  0.8065504122456697  0.9233498737663882  0.0879901027151223   T   T   T
  0.6817724242441744  0.3324029398683319  0.1015314264650684   T   T   T
  0.8111078248183656  0.5898075777842147  0.1004612460968522   T   T   T
  0.6953842447190145  0.6806793475643622  0.1193200314805635   T   T   T
  0.8052288696189954  0.4224402036510562  0.0965882177856683   T   T   T
  0.6833446921179186  0.8410668388869805  0.1004622441515618   T   T   T
  0.4120055117236109  0.6866311354641622  0.1204700863280570   T   T   T
  0.5566682635155090  0.3998471276580062  0.1199197838201866   T   T   T
  0.3045929420858762  0.9246087063138573  0.0900664250950312   T   T   T
  0.5535107366894307  0.5884742230951072  0.1722665351196085   T   T   T
 
  0.00000000E+00  0.00000000E+00  0.00000000E+00
  0.00000000E+00  0.00000000E+00  0.00000000E+00
  0.00000000E+00  0.00000000E+00  0.00000000E+00
  0.00000000E+00  0.00000000E+00  0.00000000E+00
  0.00000000E+00  0.00000000E+00  0.00000000E+00
  0.00000000E+00  0.00000000E+00  0.00000000E+00
  0.00000000E+00  0.00000000E+00  0.00000000E+00
  0.00000000E+00  0.00000000E+00  0.00000000E+00
  0.00000000E+00  0.00000000E+00  0.00000000E+00
  0.00000000E+00  0.00000000E+00  0.00000000E+00
  0.00000000E+00  0.00000000E+00  0.00000000E+00
  0.00000000E+00  0.00000000E+00  0.00000000E+00
  0.00000000E+00  0.00000000E+00  0.00000000E+00
  0.00000000E+00  0.00000000E+00  0.00000000E+00
  0.00000000E+00  0.00000000E+00  0.00000000E+00
  0.00000000E+00  0.00000000E+00  0.00000000E+00
  0.00000000E+00  0.00000000E+00  0.00000000E+00
  0.00000000E+00  0.00000000E+00  0.00000000E+00
  0.00000000E+00  0.00000000E+00  0.00000000E+00
  0.00000000E+00  0.00000000E+00  0.00000000E+00
  0.00000000E+00  0.00000000E+00  0.00000000E+00
  0.00000000E+00  0.00000000E+00  0.00000000E+00
  0.00000000E+00  0.00000000E+00  0.00000000E+00
  0.00000000E+00  0.00000000E+00  0.00000000E+00
  0.00000000E+00  0.00000000E+00  0.00000000E+00
  0.00000000E+00  0.00000000E+00  0.00000000E+00
  0.00000000E+00  0.00000000E+00  0.00000000E+00
  0.00000000E+00  0.00000000E+00  0.00000000E+00
  0.00000000E+00  0.00000000E+00  0.00000000E+00
  0.00000000E+00  0.00000000E+00  0.00000000E+00
  0.00000000E+00  0.00000000E+00  0.00000000E+00
  0.00000000E+00  0.00000000E+00  0.00000000E+00
