Title                                   
   1.00000000000000     
     8.5490480000000009    0.0000000000000000    0.0000000000000000
     0.0000000000000000    8.5490480000000009    0.0000000000000000
     0.0000000000000000    0.0000000000000000   20.0000000000000000
    21     3     1
Selective dynamics
Direct
  0.9091686360001274  0.2062126978870011  0.0937477333397255   T   T   T
  0.9117953872314507  0.8010380550742402  0.0933082297129931   T   T   T
  0.1970521137625272  0.0823272223340802  0.0934402865477955   T   T   T
  0.0756051672369309  0.2007508322413553  0.0940033061649329   T   T   T
  0.1568928988253984  0.6498028822391781  0.0956828620636002   T   T   T
  0.0763499212467445  0.5002562814196588  0.0963154510625136   T   T   T
  0.1569910332079577  0.3530131014604908  0.0970509206708314   T   T   T
  0.0785750564358491  0.7993288210605932  0.0932239031108430   T   T   T
  0.3461257061015030  0.1637436931531850  0.0960317886247671   T   T   T
  0.4934455436308363  0.9197128089664049  0.0962599474482247   T   T   T
  0.3449733290691664  0.8378688306737589  0.0958308730185291   T   T   T
  0.7871702706945631  0.0855451701093803  0.0937212760360497   T   T   T
  0.6382410645115907  0.1672622086993488  0.0962652175380744   T   T   T
  0.7902653277949583  0.9197574986054496  0.0938728707736910   T   T   T
  0.8305605240871120  0.6492096863932425  0.0960507762837064   T   T   T
  0.8281927644831009  0.3561917369880853  0.0962591579013766   T   T   T
  0.6397218833824276  0.8377543265086855  0.0969552187195365   T   T   T
  0.3244217323200863  0.3291878392798176  0.1002976120612511   T   T   T
  0.3229230991087171  0.6740335697177287  0.0978453491236403   T   T   T
  0.6611772048119520  0.3345378648175165  0.1000054772052395   T   T   T
  0.6651146868238039  0.6698809485636780  0.1005170400307783   T   T   T
  0.4937314514697867  0.0856591594240219  0.0960033141831001   T   T   T
  0.9097986631282967  0.5019673125876554  0.0960627974458685   T   T   T
  0.1962608553653969  0.9163680658859772  0.0931569085662670   T   T   T
  0.4908576792697021  0.5033793859094721  0.1417966823666442   T   T   T
 
  0.00000000E+00  0.00000000E+00  0.00000000E+00
  0.00000000E+00  0.00000000E+00  0.00000000E+00
  0.00000000E+00  0.00000000E+00  0.00000000E+00
  0.00000000E+00  0.00000000E+00  0.00000000E+00
  0.00000000E+00  0.00000000E+00  0.00000000E+00
  0.00000000E+00  0.00000000E+00  0.00000000E+00
  0.00000000E+00  0.00000000E+00  0.00000000E+00
  0.00000000E+00  0.00000000E+00  0.00000000E+00
  0.00000000E+00  0.00000000E+00  0.00000000E+00
  0.00000000E+00  0.00000000E+00  0.00000000E+00
  0.00000000E+00  0.00000000E+00  0.00000000E+00
  0.00000000E+00  0.00000000E+00  0.00000000E+00
  0.00000000E+00  0.00000000E+00  0.00000000E+00
  0.00000000E+00  0.00000000E+00  0.00000000E+00
  0.00000000E+00  0.00000000E+00  0.00000000E+00
  0.00000000E+00  0.00000000E+00  0.00000000E+00
  0.00000000E+00  0.00000000E+00  0.00000000E+00
  0.00000000E+00  0.00000000E+00  0.00000000E+00
  0.00000000E+00  0.00000000E+00  0.00000000E+00
  0.00000000E+00  0.00000000E+00  0.00000000E+00
  0.00000000E+00  0.00000000E+00  0.00000000E+00
  0.00000000E+00  0.00000000E+00  0.00000000E+00
  0.00000000E+00  0.00000000E+00  0.00000000E+00
  0.00000000E+00  0.00000000E+00  0.00000000E+00
  0.00000000E+00  0.00000000E+00  0.00000000E+00
