Title                                   
   1.00000000000000     
     4.9440799999999996    0.0000000000000000    0.0000000000000000
     0.0000000000000000    8.5647549999999999    0.0000000000000000
     0.0000000000000000    0.0000000000000000   20.0000000000000000
    10     4     1
Selective dynamics
Direct
  0.2500000000000000  0.2101960732675797  0.1004020822639089   T   T   T
 -0.0023817835972750  0.2946018931552494  0.1005022152664448   T   T   T
  0.2500000000000000  0.0393286377123676  0.1003995654291707   T   T   T
 -0.0023808313497994  0.9549331251691553  0.1005169923554168   T   T   T
  0.7500000000000000  0.2082366839104556  0.1005187352710671   T   T   T
  0.5023817835972747  0.2946018931552494  0.1005022152664448   T   T   T
  0.7500000000000000  0.0413664321160451  0.1005147297683312   T   T   T
  0.7500000000000000  0.7134407084204968  0.1006562058723991   T   T   T
  0.7500000000000000  0.5361596888000728  0.1006397977639493   T   T   T
  0.5023808313497996  0.9549331251691553  0.1005169923554168   T   T   T
  0.5140626378835329  0.4561130167162353  0.1005693824705665   T   T   T
 -0.0140626378835331  0.4561130167162353  0.1005693824705665   T   T   T
 -0.0140285544398878  0.7934532980786855  0.1005674176258934   T   T   T
  0.5140285544398882  0.7934532980786855  0.1005674176258934   T   T   T
  0.2500000000000000  0.6247501095343330  0.1005368681945340   T   T   T
 
  0.00000000E+00  0.00000000E+00  0.00000000E+00
  0.00000000E+00  0.00000000E+00  0.00000000E+00
  0.00000000E+00  0.00000000E+00  0.00000000E+00
  0.00000000E+00  0.00000000E+00  0.00000000E+00
  0.00000000E+00  0.00000000E+00  0.00000000E+00
  0.00000000E+00  0.00000000E+00  0.00000000E+00
  0.00000000E+00  0.00000000E+00  0.00000000E+00
  0.00000000E+00  0.00000000E+00  0.00000000E+00
  0.00000000E+00  0.00000000E+00  0.00000000E+00
  0.00000000E+00  0.00000000E+00  0.00000000E+00
  0.00000000E+00  0.00000000E+00  0.00000000E+00
  0.00000000E+00  0.00000000E+00  0.00000000E+00
  0.00000000E+00  0.00000000E+00  0.00000000E+00
  0.00000000E+00  0.00000000E+00  0.00000000E+00
  0.00000000E+00  0.00000000E+00  0.00000000E+00
