Title                                   
   1.00000000000000     
     9.8694509999999998    0.0000000000000000    0.0000000000000000
     0.0000000000000000    8.5490480000000009    0.0000000000000000
     0.0000000000000000    0.0000000000000000   20.0000000000000000
    29     2     1
Selective dynamics
Direct
  0.0562429359819486  0.0907812634588564  0.0848300787818175   T   T   T
  0.9315212480001719  0.1724529853222196  0.0866686394768243   T   T   T
  0.0567600778022121  0.9238654221732367  0.0850082935979772   T   T   T
  0.9318835251445868  0.3395630659357678  0.0896953816626268   T   T   T
  0.0572930632946752  0.5897144721764580  0.0863593109361299   T   T   T
  0.9327051803525495  0.6720396174952048  0.0894583237626771   T   T   T
  0.0576381067068480  0.4227460451972993  0.0873044135334536   T   T   T
  0.9319133210002016  0.8388563262933635  0.0872426263575408   T   T   T
  0.3058243424994843  0.0886977278286846  0.0887068956170540   T   T   T
  0.1819097641492460  0.1733720670428614  0.0865669876772389   T   T   T
  0.1835633590978180  0.3407904785769331  0.0886203577753709   T   T   T
  0.3041043666247390  0.5928093160810384  0.0980766667836134   T   T   T
  0.1812374990037776  0.6747655681636362  0.0879857279350926   T   T   T
  0.3083858230053046  0.4256183464569326  0.0968675500487361   T   T   T
  0.1806822614120339  0.8411569339029472  0.0872765625127186   T   T   T
  0.5560154496552034  0.0862071626046328  0.0946888055084394   T   T   T
  0.4308577689211666  0.1701244318742144  0.0936950967259685   T   T   T
  0.5537487997547413  0.9196445325866525  0.0986692949255850   T   T   T
  0.4321343818746634  0.3361275346491844  0.1022104288075400   T   T   T
  0.5576225404128692  0.4087466616481413  0.1174368703859952   T   T   T
  0.4253270822241731  0.8409300293875541  0.1001911285522723   T   T   T
  0.8068570945651982  0.0877346155658667  0.0882973772260844   T   T   T
  0.6818390756223391  0.1691663629270412  0.0939786358616111   T   T   T
  0.8063635305276565  0.9219387286101256  0.0894769401460243   T   T   T
  0.6826719197592998  0.3342125202066082  0.1035897679546878   T   T   T
  0.8099278656019554  0.5890118196032030  0.1009708116248128   T   T   T
  0.6914936979217234  0.6766298423108797  0.1150469725923399   T   T   T
  0.8077561924923806  0.4211114606912854  0.0993280329897483   T   T   T
  0.6823865730559805  0.8378126857490101  0.1002133717945211   T   T   T
  0.4161541183302523  0.6846115036666439  0.1141605509569851   T   T   T
  0.3046230592506021  0.9250460511616899  0.0898684170632248   T   T   T
  0.5521949759542056  0.5939604206518165  0.1711846804253336   T   T   T
 
  0.00000000E+00  0.00000000E+00  0.00000000E+00
  0.00000000E+00  0.00000000E+00  0.00000000E+00
  0.00000000E+00  0.00000000E+00  0.00000000E+00
  0.00000000E+00  0.00000000E+00  0.00000000E+00
  0.00000000E+00  0.00000000E+00  0.00000000E+00
  0.00000000E+00  0.00000000E+00  0.00000000E+00
  0.00000000E+00  0.00000000E+00  0.00000000E+00
  0.00000000E+00  0.00000000E+00  0.00000000E+00
  0.00000000E+00  0.00000000E+00  0.00000000E+00
  0.00000000E+00  0.00000000E+00  0.00000000E+00
  0.00000000E+00  0.00000000E+00  0.00000000E+00
  0.00000000E+00  0.00000000E+00  0.00000000E+00
  0.00000000E+00  0.00000000E+00  0.00000000E+00
  0.00000000E+00  0.00000000E+00  0.00000000E+00
  0.00000000E+00  0.00000000E+00  0.00000000E+00
  0.00000000E+00  0.00000000E+00  0.00000000E+00
  0.00000000E+00  0.00000000E+00  0.00000000E+00
  0.00000000E+00  0.00000000E+00  0.00000000E+00
  0.00000000E+00  0.00000000E+00  0.00000000E+00
  0.00000000E+00  0.00000000E+00  0.00000000E+00
  0.00000000E+00  0.00000000E+00  0.00000000E+00
  0.00000000E+00  0.00000000E+00  0.00000000E+00
  0.00000000E+00  0.00000000E+00  0.00000000E+00
  0.00000000E+00  0.00000000E+00  0.00000000E+00
  0.00000000E+00  0.00000000E+00  0.00000000E+00
  0.00000000E+00  0.00000000E+00  0.00000000E+00
  0.00000000E+00  0.00000000E+00  0.00000000E+00
  0.00000000E+00  0.00000000E+00  0.00000000E+00
  0.00000000E+00  0.00000000E+00  0.00000000E+00
  0.00000000E+00  0.00000000E+00  0.00000000E+00
  0.00000000E+00  0.00000000E+00  0.00000000E+00
  0.00000000E+00  0.00000000E+00  0.00000000E+00
