Title                                   
   1.00000000000000     
     9.8694509999999998    0.0000000000000000    0.0000000000000000
     0.0000000000000000    8.5490480000000009    0.0000000000000000
     0.0000000000000000    0.0000000000000000   20.0000000000000000
    26     4     1
Selective dynamics
Direct
  0.0559856401383989  0.0902278169353068  0.0907277584570795   T   T   T
  0.9312375395160972  0.1732295746576538  0.0863521916365111   T   T   T
  0.0559946809758298  0.9220808557938273  0.0907404862188496   T   T   T
  0.9319804995565024  0.3390938516202928  0.0872537145874846   T   T   T
  0.0554613891231181  0.5894469547744812  0.0922006851601099   T   T   T
  0.9319894313959837  0.6732439590474929  0.0872484152965455   T   T   T
  0.0554654845955521  0.4228382056550610  0.0921936412152324   T   T   T
  0.9312500190590554  0.8391134620986995  0.0863481201026785   T   T   T
  0.3066356842259971  0.0900776895970749  0.0993683976916169   T   T   T
  0.1798791515772545  0.1726299239285674  0.0963824375290002   T   T   T
  0.3066327761848587  0.9222516551533845  0.0993462636805034   T   T   T
  0.1794982635847382  0.3396577204244852  0.0975250217233998   T   T   T
  0.3032421759165503  0.5900589141704722  0.1050366616729516   T   T   T
  0.1795137656388394  0.6726370185578969  0.0975035807050354   T   T   T
  0.3032217716970630  0.4222251422565219  0.1050322670463457   T   T   T
  0.1798969513172359  0.8396748464134098  0.0963627671554942   T   T   T
  0.5547580303703102  0.0923823994187727  0.0952814513689575   T   T   T
  0.4293173598705693  0.1775274245313820  0.1027112778961524   T   T   T
  0.5547556634473970  0.9198885930420976  0.0952705445565663   T   T   T
  0.4293155343177243  0.8347896454381492  0.1027107764673838   T   T   T
  0.8049396124999009  0.0895575968508245  0.0842711900534437   T   T   T
  0.6815495879842869  0.1740032311813645  0.0863005370719635   T   T   T
  0.8049461475560533  0.9227962298316106  0.0842678921651998   T   T   T
  0.8058703463942720  0.5909977438785200  0.0828320039682951   T   T   T
  0.8058716765110547  0.4213386228456464  0.0828239306438716   T   T   T
  0.6815681883211183  0.8383051350157460  0.0862888023481374   T   T   T
  0.4245890385390542  0.3406100306507744  0.1121715641430696   T   T   T
  0.4246277385399337  0.6716820229642663  0.1121388037554071   T   T   T
  0.6849660116974385  0.3363240523271032  0.0824911327918613   T   T   T
  0.6849673156358833  0.6759921813698614  0.0824639602449223   T   T   T
  0.5832085238119341  0.5061924995692541  0.1393187226459713   T   T   T
 
  0.00000000E+00  0.00000000E+00  0.00000000E+00
  0.00000000E+00  0.00000000E+00  0.00000000E+00
  0.00000000E+00  0.00000000E+00  0.00000000E+00
  0.00000000E+00  0.00000000E+00  0.00000000E+00
  0.00000000E+00  0.00000000E+00  0.00000000E+00
  0.00000000E+00  0.00000000E+00  0.00000000E+00
  0.00000000E+00  0.00000000E+00  0.00000000E+00
  0.00000000E+00  0.00000000E+00  0.00000000E+00
  0.00000000E+00  0.00000000E+00  0.00000000E+00
  0.00000000E+00  0.00000000E+00  0.00000000E+00
  0.00000000E+00  0.00000000E+00  0.00000000E+00
  0.00000000E+00  0.00000000E+00  0.00000000E+00
  0.00000000E+00  0.00000000E+00  0.00000000E+00
  0.00000000E+00  0.00000000E+00  0.00000000E+00
  0.00000000E+00  0.00000000E+00  0.00000000E+00
  0.00000000E+00  0.00000000E+00  0.00000000E+00
  0.00000000E+00  0.00000000E+00  0.00000000E+00
  0.00000000E+00  0.00000000E+00  0.00000000E+00
  0.00000000E+00  0.00000000E+00  0.00000000E+00
  0.00000000E+00  0.00000000E+00  0.00000000E+00
  0.00000000E+00  0.00000000E+00  0.00000000E+00
  0.00000000E+00  0.00000000E+00  0.00000000E+00
  0.00000000E+00  0.00000000E+00  0.00000000E+00
  0.00000000E+00  0.00000000E+00  0.00000000E+00
  0.00000000E+00  0.00000000E+00  0.00000000E+00
  0.00000000E+00  0.00000000E+00  0.00000000E+00
  0.00000000E+00  0.00000000E+00  0.00000000E+00
  0.00000000E+00  0.00000000E+00  0.00000000E+00
  0.00000000E+00  0.00000000E+00  0.00000000E+00
  0.00000000E+00  0.00000000E+00  0.00000000E+00
  0.00000000E+00  0.00000000E+00  0.00000000E+00
