Title                                   
   1.00000000000000     
     9.8694509999999998    0.0000000000000000    0.0000000000000000
     0.0000000000000000    8.5490480000000009    0.0000000000000000
     0.0000000000000000    0.0000000000000000   20.0000000000000000
    25     6     1
Selective dynamics
Direct
  0.0559176646658565  0.0918334726560224  0.0854016991321852   T   T   T
  0.9310304926564631  0.1750173102430158  0.0861230313047163   T   T   T
  0.0570795884939704  0.9237723930520998  0.0854560399990215   T   T   T
  0.9298060104553016  0.3421065744445487  0.0893211228703612   T   T   T
  0.0565488799424245  0.5916493335871190  0.0877969655012828   T   T   T
  0.0560193247844241  0.4243504980751669  0.0888861071684852   T   T   T
  0.9331266420279858  0.8399396929472454  0.0873408531784420   T   T   T
  0.3060610434251584  0.0886702634356044  0.0892406732215436   T   T   T
  0.1823374582053390  0.1742652607214327  0.0878812230802770   T   T   T
  0.1829883892508755  0.3415197518088495  0.0905659391940056   T   T   T
  0.3036661509372478  0.5921710132078877  0.1002592182806215   T   T   T
  0.1798830401622548  0.6749067232929324  0.0896597591012169   T   T   T
  0.3101951328381287  0.4232869325899301  0.0983588829397418   T   T   T
  0.1816218064637205  0.8421362010782499  0.0878405910143050   T   T   T
  0.5562380562840969  0.0840257062173332  0.0933802334066442   T   T   T
  0.5549196090786767  0.9168865713033342  0.0990562408863188   T   T   T
  0.4330583333646882  0.3313140471997406  0.1018881822775298   T   T   T
  0.4254784615126500  0.8385884543976893  0.1023108202032758   T   T   T
  0.8066006468246593  0.0887219109501316  0.0862816061553460   T   T   T
  0.6798324541179540  0.1685287625201402  0.0902574765197838   T   T   T
  0.8081977601597415  0.9228079697900610  0.0885955478568343   T   T   T
  0.6791578238964695  0.3349462424094768  0.0989056961493920   T   T   T
  0.8097999490379543  0.5953230508288661  0.1002179673225330   T   T   T
  0.8029533286719419  0.4256968019212083  0.0967124862494747   T   T   T
  0.6854442136375323  0.8393900608965658  0.0996134928979085   T   T   T
  0.4137933619909552  0.6851228647376489  0.1154095482160837   T   T   T
  0.5546873637369852  0.3985108036795187  0.1137625334950796   T   T   T
  0.6991681593356763  0.6825562523324403  0.1143175594732091   T   T   T
  0.3048519091133050  0.9255234785352020  0.0900059379895988   T   T   T
  0.4298767027610372  0.1656009887777682  0.0930740852275024   T   T   T
  0.9330603104666469  0.6733993259506538  0.0890448900499352   T   T   T
  0.5562389316998829  0.5876772864121181  0.1587085896373614   T   T   T
 
  0.00000000E+00  0.00000000E+00  0.00000000E+00
  0.00000000E+00  0.00000000E+00  0.00000000E+00
  0.00000000E+00  0.00000000E+00  0.00000000E+00
  0.00000000E+00  0.00000000E+00  0.00000000E+00
  0.00000000E+00  0.00000000E+00  0.00000000E+00
  0.00000000E+00  0.00000000E+00  0.00000000E+00
  0.00000000E+00  0.00000000E+00  0.00000000E+00
  0.00000000E+00  0.00000000E+00  0.00000000E+00
  0.00000000E+00  0.00000000E+00  0.00000000E+00
  0.00000000E+00  0.00000000E+00  0.00000000E+00
  0.00000000E+00  0.00000000E+00  0.00000000E+00
  0.00000000E+00  0.00000000E+00  0.00000000E+00
  0.00000000E+00  0.00000000E+00  0.00000000E+00
  0.00000000E+00  0.00000000E+00  0.00000000E+00
  0.00000000E+00  0.00000000E+00  0.00000000E+00
  0.00000000E+00  0.00000000E+00  0.00000000E+00
  0.00000000E+00  0.00000000E+00  0.00000000E+00
  0.00000000E+00  0.00000000E+00  0.00000000E+00
  0.00000000E+00  0.00000000E+00  0.00000000E+00
  0.00000000E+00  0.00000000E+00  0.00000000E+00
  0.00000000E+00  0.00000000E+00  0.00000000E+00
  0.00000000E+00  0.00000000E+00  0.00000000E+00
  0.00000000E+00  0.00000000E+00  0.00000000E+00
  0.00000000E+00  0.00000000E+00  0.00000000E+00
  0.00000000E+00  0.00000000E+00  0.00000000E+00
  0.00000000E+00  0.00000000E+00  0.00000000E+00
  0.00000000E+00  0.00000000E+00  0.00000000E+00
  0.00000000E+00  0.00000000E+00  0.00000000E+00
  0.00000000E+00  0.00000000E+00  0.00000000E+00
  0.00000000E+00  0.00000000E+00  0.00000000E+00
  0.00000000E+00  0.00000000E+00  0.00000000E+00
  0.00000000E+00  0.00000000E+00  0.00000000E+00
