Title                                   
   1.00000000000000     
     4.9440799999999996    0.0000000000000000    0.0000000000000000
     0.0000000000000000   17.1295089999999988    0.0000000000000000
     0.0000000000000000    0.0000000000000000   20.0000000000000000
    30     1     1
Selective dynamics
Direct
 -0.0001741852802515  0.1042586055616575  0.2806870887969130   T   T   T
  0.2499049032739654  0.1457269484892914  0.2854170920529115   T   T   T
  0.2499341539960191  0.2277695112186164  0.2979170161414781   T   T   T
  0.0010765792127066  0.3493216517219189  0.3224790558948042   T   T   T
 -0.0008604788142907  0.2686331286584070  0.3046270946104949   T   T   T
 -0.0028584845719449  0.6076446134579523  0.3142614255533194   T   T   T
  0.2498988647689806  0.7297047153334549  0.2916221768920020   T   T   T
  0.0001290067419333  0.8542638183677720  0.2773643997096610   T   T   T
  0.2499035594398420  0.8960382380563947  0.2752758390948272   T   T   T
  0.2498771568090979  0.9793706856811074  0.2741655847275369   T   T   T
  0.0002863180806678  0.7713324831626135  0.2851667341243259   T   T   T
  0.4999639519935667  0.1042574938401015  0.2806837687337663   T   T   T
  0.7498967548487776  0.1456858357202810  0.2847453414518892   T   T   T
  0.7499276123342811  0.2279873506368031  0.2963041430741427   T   T   T
  0.4999748075405708  0.0211052940935215  0.2751446486331002   T   T   T
  0.4987713535110708  0.3493248508751986  0.3224748872502320   T   T   T
  0.7499089373641395  0.3938635916151719  0.3279443308228494   T   T   T
  0.7498808287563098  0.4804281194534823  0.3306992195902010   T   T   T
  0.5007336396824976  0.2686355832688699  0.3046220643927232   T   T   T
  0.5026473641315896  0.6076369822992652  0.3142689777137411   T   T   T
  0.7498968601408346  0.7304628300722512  0.2900520625526763   T   T   T
  0.4996549414166442  0.8542596122910615  0.2773654234316081   T   T   T
  0.7498862766990165  0.8958463127715082  0.2749551180122701   T   T   T
  0.7498875150385875  0.9793503282179485  0.2739029802977523   T   T   T
  0.4995203579318732  0.7713327801255623  0.2851715768507758   T   T   T
  0.7498797146063845  0.6486644929803763  0.3037103387351410   T   T   T
  0.2499112398124904  0.6481739403590808  0.3072132024009475   T   T   T
 -0.0001983201246301  0.0211084042702381  0.2751463219052140   T   T   T
  0.5092557483091038  0.5270317826178429  0.3320373105429820   T   T   T
  0.9905024395790764  0.5270396047948097  0.3320279418067930   T   T   T
  0.2499206341778175  0.3834304587749183  0.3368398188911033   T   T   T
  0.2498829485932780  0.4788609512125112  0.3882720153117694   T   T   T
 
  0.00000000E+00  0.00000000E+00  0.00000000E+00
  0.00000000E+00  0.00000000E+00  0.00000000E+00
  0.00000000E+00  0.00000000E+00  0.00000000E+00
  0.00000000E+00  0.00000000E+00  0.00000000E+00
  0.00000000E+00  0.00000000E+00  0.00000000E+00
  0.00000000E+00  0.00000000E+00  0.00000000E+00
  0.00000000E+00  0.00000000E+00  0.00000000E+00
  0.00000000E+00  0.00000000E+00  0.00000000E+00
  0.00000000E+00  0.00000000E+00  0.00000000E+00
  0.00000000E+00  0.00000000E+00  0.00000000E+00
  0.00000000E+00  0.00000000E+00  0.00000000E+00
  0.00000000E+00  0.00000000E+00  0.00000000E+00
  0.00000000E+00  0.00000000E+00  0.00000000E+00
  0.00000000E+00  0.00000000E+00  0.00000000E+00
  0.00000000E+00  0.00000000E+00  0.00000000E+00
  0.00000000E+00  0.00000000E+00  0.00000000E+00
  0.00000000E+00  0.00000000E+00  0.00000000E+00
  0.00000000E+00  0.00000000E+00  0.00000000E+00
  0.00000000E+00  0.00000000E+00  0.00000000E+00
  0.00000000E+00  0.00000000E+00  0.00000000E+00
  0.00000000E+00  0.00000000E+00  0.00000000E+00
  0.00000000E+00  0.00000000E+00  0.00000000E+00
  0.00000000E+00  0.00000000E+00  0.00000000E+00
  0.00000000E+00  0.00000000E+00  0.00000000E+00
  0.00000000E+00  0.00000000E+00  0.00000000E+00
  0.00000000E+00  0.00000000E+00  0.00000000E+00
  0.00000000E+00  0.00000000E+00  0.00000000E+00
  0.00000000E+00  0.00000000E+00  0.00000000E+00
  0.00000000E+00  0.00000000E+00  0.00000000E+00
  0.00000000E+00  0.00000000E+00  0.00000000E+00
  0.00000000E+00  0.00000000E+00  0.00000000E+00
  0.00000000E+00  0.00000000E+00  0.00000000E+00
