Title                                   
   1.00000000000000     
     9.8694509999999998    0.0000000000000000    0.0000000000000000
     0.0000000000000000    8.5490480000000009    0.0000000000000000
     0.0000000000000000    0.0000000000000000   20.0000000000000000
    25     6     1
Selective dynamics
Direct
  0.0562529677524304  0.0933122126802441  0.0912824503504426   T   T   T
  0.9299213683646240  0.1757160935664088  0.0917841187753769   T   T   T
  0.0562706911539461  0.9245058298079537  0.0911782224900871   T   T   T
  0.9294519950747725  0.3420510138920163  0.0926485335497087   T   T   T
  0.0562622132916898  0.5905923955217741  0.0907675177093395   T   T   T
  0.9316867767403669  0.6720470471790388  0.0918194232740325   T   T   T
  0.0562634006430564  0.4235745986707954  0.0919920409677483   T   T   T
  0.9313241501165926  0.8400949845707616  0.0918485197986493   T   T   T
  0.3057594418640968  0.0893356965844197  0.0909500627806522   T   T   T
  0.1826021664842301  0.1756700708835842  0.0913482295204984   T   T   T
  0.3064104590522680  0.9235505243682348  0.0916117705171554   T   T   T
  0.1830854517007815  0.3420024420764447  0.0921770685860560   T   T   T
  0.3076992056640912  0.5937170866042819  0.0943568452771585   T   T   T
  0.1808556603971548  0.6720329353491057  0.0914112044452998   T   T   T
  0.1812195845229074  0.8400619633390806  0.0913734052111039   T   T   T
  0.5562777155592781  0.0847324849479493  0.0941029625750909   T   T   T
  0.4316684559980132  0.1695264066532221  0.0931186729247660   T   T   T
  0.4354950778919069  0.3359229391797872  0.0956923323189443   T   T   T
  0.4283592687982567  0.8356706202377939  0.0947536562092628   T   T   T
  0.8067933263988649  0.0893871361192055  0.0916061180802560   T   T   T
  0.6808711172252433  0.1695275039699319  0.0936043127546110   T   T   T
  0.8062006120267770  0.9236103645480850  0.0922010933489533   T   T   T
  0.6770152126825401  0.3359040902896970  0.0962572176220679   T   T   T
  0.8048405452335051  0.5937493495251733  0.0950828745593107   T   T   T
  0.6842504459007949  0.8357015839242597  0.0953505920288652   T   T   T
  0.4251924533798860  0.6764251080914606  0.0999689331000090   T   T   T
  0.5562074358503490  0.4130652427475601  0.1019787831569083   T   T   T
  0.6874809360298076  0.6765215681692709  0.1008647651249324   T   T   T
  0.5562911133020040  0.9152873076690564  0.0942385750438498   T   T   T
  0.3115090483078735  0.4250099977478873  0.0931280597951476   T   T   T
  0.8010376726830466  0.4250435128052586  0.0938765183471886   T   T   T
  0.5550830299088515  0.5868958882802564  0.1833001197565433   T   T   T
 
  0.00000000E+00  0.00000000E+00  0.00000000E+00
  0.00000000E+00  0.00000000E+00  0.00000000E+00
  0.00000000E+00  0.00000000E+00  0.00000000E+00
  0.00000000E+00  0.00000000E+00  0.00000000E+00
  0.00000000E+00  0.00000000E+00  0.00000000E+00
  0.00000000E+00  0.00000000E+00  0.00000000E+00
  0.00000000E+00  0.00000000E+00  0.00000000E+00
  0.00000000E+00  0.00000000E+00  0.00000000E+00
  0.00000000E+00  0.00000000E+00  0.00000000E+00
  0.00000000E+00  0.00000000E+00  0.00000000E+00
  0.00000000E+00  0.00000000E+00  0.00000000E+00
  0.00000000E+00  0.00000000E+00  0.00000000E+00
  0.00000000E+00  0.00000000E+00  0.00000000E+00
  0.00000000E+00  0.00000000E+00  0.00000000E+00
  0.00000000E+00  0.00000000E+00  0.00000000E+00
  0.00000000E+00  0.00000000E+00  0.00000000E+00
  0.00000000E+00  0.00000000E+00  0.00000000E+00
  0.00000000E+00  0.00000000E+00  0.00000000E+00
  0.00000000E+00  0.00000000E+00  0.00000000E+00
  0.00000000E+00  0.00000000E+00  0.00000000E+00
  0.00000000E+00  0.00000000E+00  0.00000000E+00
  0.00000000E+00  0.00000000E+00  0.00000000E+00
  0.00000000E+00  0.00000000E+00  0.00000000E+00
  0.00000000E+00  0.00000000E+00  0.00000000E+00
  0.00000000E+00  0.00000000E+00  0.00000000E+00
  0.00000000E+00  0.00000000E+00  0.00000000E+00
  0.00000000E+00  0.00000000E+00  0.00000000E+00
  0.00000000E+00  0.00000000E+00  0.00000000E+00
  0.00000000E+00  0.00000000E+00  0.00000000E+00
  0.00000000E+00  0.00000000E+00  0.00000000E+00
  0.00000000E+00  0.00000000E+00  0.00000000E+00
  0.00000000E+00  0.00000000E+00  0.00000000E+00
