Title                                   
   1.00000000000000     
     4.9440799999999996    0.0000000000000000    0.0000000000000000
     0.0000000000000000   17.1295089999999988    0.0000000000000000
     0.0000000000000000    0.0000000000000000   20.0000000000000000
    29     2     1
Selective dynamics
Direct
 -0.0000049888690895  0.1048419083410469  0.2849121783558172   T   T   T
  0.2498722376955762  0.1465502262914012  0.2894110345384828   T   T   T
  0.2498622177661501  0.2288712923458276  0.3012188573607157   T   T   T
  0.0034248562472727  0.3498465659387683  0.3242100224186190   T   T   T
 -0.0015838544351343  0.2700349266043071  0.3068260370323166   T   T   T
 -0.0035045070753556  0.6051223168091553  0.3066226668021343   T   T   T
  0.2499228380906007  0.7287288100863901  0.2895842045934303   T   T   T
  0.0001651154207102  0.8542608121096271  0.2799256455964475   T   T   T
  0.2499097208231114  0.8962079429744483  0.2788673134130499   T   T   T
  0.2499039864172636  0.9797367219982072  0.2787950002363429   T   T   T
  0.0003309863444585  0.7708557187977445  0.2848989618068299   T   T   T
  0.4997583515495932  0.1048399952861298  0.2849087617908371   T   T   T
  0.7498714813173896  0.1466136967975730  0.2883244922012564   T   T   T
  0.7498566652608992  0.2287828758988022  0.2981652650665374   T   T   T
  0.4999057968831648  0.0216044622265536  0.2798569520047613   T   T   T
  0.4963342314278651  0.3498455361469047  0.3242072941147683   T   T   T
  0.7499338030004459  0.4791384487265050  0.3217484291885112   T   T   T
  0.5012999074685129  0.2700390742171000  0.3068265996723444   T   T   T
  0.5033794154752529  0.6051266548647768  0.3066270419138456   T   T   T
  0.7499235234571144  0.7296734356661400  0.2879122345960761   T   T   T
  0.4996551621301190  0.8542630080649867  0.2799268917280531   T   T   T
  0.7499084006887090  0.8960803726042376  0.2785070243952099   T   T   T
  0.7499035839243846  0.9796662063158119  0.2784933836594771   T   T   T
  0.4995158437552321  0.7708553508594946  0.2849015830361524   T   T   T
  0.7499357396496209  0.6470090524862118  0.2977147329399126   T   T   T
  0.2499398445830145  0.6460532293787552  0.3014975377612451   T   T   T
 -0.0001321342634610  0.0216073234773040  0.2798546782644130   T   T   T
  0.5103153883450731  0.5236153978220696  0.3226054192130948   T   T   T
  0.9895407263200856  0.5236080501470043  0.3225929029131332   T   T   T
  0.2498759155105662  0.3844885165091496  0.3402495834431542   T   T   T
  0.7498833733967316  0.3939590308110063  0.3275581073591458   T   T   T
  0.2499193716941280  0.4866240393965526  0.3848141625838369   T   T   T
 
  0.00000000E+00  0.00000000E+00  0.00000000E+00
  0.00000000E+00  0.00000000E+00  0.00000000E+00
  0.00000000E+00  0.00000000E+00  0.00000000E+00
  0.00000000E+00  0.00000000E+00  0.00000000E+00
  0.00000000E+00  0.00000000E+00  0.00000000E+00
  0.00000000E+00  0.00000000E+00  0.00000000E+00
  0.00000000E+00  0.00000000E+00  0.00000000E+00
  0.00000000E+00  0.00000000E+00  0.00000000E+00
  0.00000000E+00  0.00000000E+00  0.00000000E+00
  0.00000000E+00  0.00000000E+00  0.00000000E+00
  0.00000000E+00  0.00000000E+00  0.00000000E+00
  0.00000000E+00  0.00000000E+00  0.00000000E+00
  0.00000000E+00  0.00000000E+00  0.00000000E+00
  0.00000000E+00  0.00000000E+00  0.00000000E+00
  0.00000000E+00  0.00000000E+00  0.00000000E+00
  0.00000000E+00  0.00000000E+00  0.00000000E+00
  0.00000000E+00  0.00000000E+00  0.00000000E+00
  0.00000000E+00  0.00000000E+00  0.00000000E+00
  0.00000000E+00  0.00000000E+00  0.00000000E+00
  0.00000000E+00  0.00000000E+00  0.00000000E+00
  0.00000000E+00  0.00000000E+00  0.00000000E+00
  0.00000000E+00  0.00000000E+00  0.00000000E+00
  0.00000000E+00  0.00000000E+00  0.00000000E+00
  0.00000000E+00  0.00000000E+00  0.00000000E+00
  0.00000000E+00  0.00000000E+00  0.00000000E+00
  0.00000000E+00  0.00000000E+00  0.00000000E+00
  0.00000000E+00  0.00000000E+00  0.00000000E+00
  0.00000000E+00  0.00000000E+00  0.00000000E+00
  0.00000000E+00  0.00000000E+00  0.00000000E+00
  0.00000000E+00  0.00000000E+00  0.00000000E+00
  0.00000000E+00  0.00000000E+00  0.00000000E+00
  0.00000000E+00  0.00000000E+00  0.00000000E+00
