Title                                   
   1.00000000000000     
     8.5490480000000009    0.0000000000000000    0.0000000000000000
     0.0000000000000000    8.5490480000000009    0.0000000000000000
     0.0000000000000000    0.0000000000000000   20.0000000000000000
    22     2     1
Selective dynamics
Direct
  0.9091388235833489  0.2053544638666892  0.0977520672289016   T   T   T
  0.9036760698849481  0.5017873552611788  0.0965224013099150   T   T   T
  0.9091013439768089  0.7981772215709525  0.0977518965476939   T   T   T
  0.1969145933748743  0.0843289525229762  0.0979953732718660   T   T   T
  0.0760960255148810  0.2065647851107587  0.0979604240596517   T   T   T
  0.1968943531717155  0.9192548444421180  0.0979977721240865   T   T   T
  0.1544488021903920  0.6484698980381169  0.0966995960337181   T   T   T
  0.0734304587611122  0.5018110258323909  0.0967782612127366   T   T   T
  0.1544579146618764  0.3551402092026682  0.0967034878132517   T   T   T
  0.0760681527542284  0.7970107026836905  0.0979570155213849   T   T   T
  0.4952031524078867  0.0863515706800069  0.0966050971826132   T   T   T
  0.3480611208348373  0.1666209514292923  0.0964919430627969   T   T   T
  0.4951975717107017  0.9172388601069602  0.0966146228014629   T   T   T
  0.3480424930086877  0.8369948865143226  0.0965060231435609   T   T   T
  0.7898965866431767  0.0855096053309641  0.0978371961336616   T   T   T
  0.6423957154047029  0.1654528563666585  0.0963461714976789   T   T   T
  0.7898697158054693  0.9180278017064992  0.0978401317326015   T   T   T
  0.8270364085378085  0.6506785680863473  0.0962382712241488   T   T   T
  0.8270583847125477  0.3528737667735051  0.0962159989203755   T   T   T
  0.6423704898105975  0.8381114917334421  0.0963802912065510   T   T   T
  0.3243373661169561  0.3323848176404678  0.0935903295410222   T   T   T
  0.3243206670702776  0.6712353079551018  0.0935918061046568   T   T   T
  0.6646925149128740  0.3286363429631347  0.0936866578505579   T   T   T
  0.6646613863842789  0.6749136947909556  0.0937384178435998   T   T   T
  0.4920418887650036  0.5018600193908139  0.0679037466314838   T   T   T
 
  0.00000000E+00  0.00000000E+00  0.00000000E+00
  0.00000000E+00  0.00000000E+00  0.00000000E+00
  0.00000000E+00  0.00000000E+00  0.00000000E+00
  0.00000000E+00  0.00000000E+00  0.00000000E+00
  0.00000000E+00  0.00000000E+00  0.00000000E+00
  0.00000000E+00  0.00000000E+00  0.00000000E+00
  0.00000000E+00  0.00000000E+00  0.00000000E+00
  0.00000000E+00  0.00000000E+00  0.00000000E+00
  0.00000000E+00  0.00000000E+00  0.00000000E+00
  0.00000000E+00  0.00000000E+00  0.00000000E+00
  0.00000000E+00  0.00000000E+00  0.00000000E+00
  0.00000000E+00  0.00000000E+00  0.00000000E+00
  0.00000000E+00  0.00000000E+00  0.00000000E+00
  0.00000000E+00  0.00000000E+00  0.00000000E+00
  0.00000000E+00  0.00000000E+00  0.00000000E+00
  0.00000000E+00  0.00000000E+00  0.00000000E+00
  0.00000000E+00  0.00000000E+00  0.00000000E+00
  0.00000000E+00  0.00000000E+00  0.00000000E+00
  0.00000000E+00  0.00000000E+00  0.00000000E+00
  0.00000000E+00  0.00000000E+00  0.00000000E+00
  0.00000000E+00  0.00000000E+00  0.00000000E+00
  0.00000000E+00  0.00000000E+00  0.00000000E+00
  0.00000000E+00  0.00000000E+00  0.00000000E+00
  0.00000000E+00  0.00000000E+00  0.00000000E+00
  0.00000000E+00  0.00000000E+00  0.00000000E+00
