Title                                   
   1.00000000000000     
     4.9440799999999996    0.0000000000000000    0.0000000000000000
     0.0000000000000000   17.1295089999999988    0.0000000000000000
     0.0000000000000000    0.0000000000000000   20.0000000000000000
    26     4     1
Selective dynamics
Direct
 -0.0003638451909745  0.1060821942493533  0.2954901698484387   T   T   T
  0.2485671476090894  0.1488899659187195  0.2963554082969150   T   T   T
  0.2476281486340875  0.2337477501315551  0.2996759622704531   T   T   T
 -0.0040197554186785  0.2754115890970487  0.3036728175531492   T   T   T
 -0.0038860123369560  0.5995028905570280  0.3037162084928394   T   T   T
  0.2487259047311551  0.7260354928984546  0.2962322080261159   T   T   T
 -0.0004487788261697  0.8531635182310432  0.2942763850502381   T   T   T
  0.2493849737348328  0.8953350367466805  0.2939885990803629   T   T   T
  0.2493357520771357  0.9796095515882157  0.2940303389481532   T   T   T
 -0.0002051480986907  0.7688545890912322  0.2953209506164122   T   T   T
  0.4985427477892430  0.1063028732102907  0.2945339979046964   T   T   T
  0.7495940245648934  0.1479348853918655  0.2950631741334897   T   T   T
  0.7498078521689344  0.2319229560049759  0.2965931662146395   T   T   T
  0.4989472389947405  0.0219778967209936  0.2938540696886779   T   T   T
  0.7483561798868011  0.3954835306730837  0.3022185694722584   T   T   T
  0.7482996883451494  0.4794547498329010  0.3023137839612690   T   T   T
  0.5010569988144585  0.2741996292724103  0.2966481228921869   T   T   T
  0.5011976511294102  0.6007394183653572  0.2966460742291324   T   T   T
  0.7498080009797968  0.7269788633685049  0.2949357993238682   T   T   T
  0.4990137694654710  0.8529592281660688  0.2937324167904285   T   T   T
  0.7491836464780631  0.8953043229834386  0.2937120098536041   T   T   T
  0.7491409453047325  0.9796357311065840  0.2937508982898638   T   T   T
  0.4987118411983693  0.7686078976816486  0.2943583190308334   T   T   T
  0.7500226428873450  0.6429858257407652  0.2965235585124474   T   T   T
  0.2477460279041998  0.6411772576673883  0.2996258639309526   T   T   T
 -0.0005155710832015  0.0217828475964821  0.2943811776072796   T   T   T
  0.5077299974110598  0.5204328538178454  0.2939099576431474   T   T   T
  0.9870967259418886  0.5194658273542176  0.3172745006296143   T   T   T
  0.5077525999577153  0.3544937458885239  0.2938265301825168   T   T   T
 -0.0129160046630856  0.3554292412326587  0.3171612398728532   T   T   T
  0.2967116096091872  0.4374398394146602  0.3512377216531146   T   T   T
 
  0.00000000E+00  0.00000000E+00  0.00000000E+00
  0.00000000E+00  0.00000000E+00  0.00000000E+00
  0.00000000E+00  0.00000000E+00  0.00000000E+00
  0.00000000E+00  0.00000000E+00  0.00000000E+00
  0.00000000E+00  0.00000000E+00  0.00000000E+00
  0.00000000E+00  0.00000000E+00  0.00000000E+00
  0.00000000E+00  0.00000000E+00  0.00000000E+00
  0.00000000E+00  0.00000000E+00  0.00000000E+00
  0.00000000E+00  0.00000000E+00  0.00000000E+00
  0.00000000E+00  0.00000000E+00  0.00000000E+00
  0.00000000E+00  0.00000000E+00  0.00000000E+00
  0.00000000E+00  0.00000000E+00  0.00000000E+00
  0.00000000E+00  0.00000000E+00  0.00000000E+00
  0.00000000E+00  0.00000000E+00  0.00000000E+00
  0.00000000E+00  0.00000000E+00  0.00000000E+00
  0.00000000E+00  0.00000000E+00  0.00000000E+00
  0.00000000E+00  0.00000000E+00  0.00000000E+00
  0.00000000E+00  0.00000000E+00  0.00000000E+00
  0.00000000E+00  0.00000000E+00  0.00000000E+00
  0.00000000E+00  0.00000000E+00  0.00000000E+00
  0.00000000E+00  0.00000000E+00  0.00000000E+00
  0.00000000E+00  0.00000000E+00  0.00000000E+00
  0.00000000E+00  0.00000000E+00  0.00000000E+00
  0.00000000E+00  0.00000000E+00  0.00000000E+00
  0.00000000E+00  0.00000000E+00  0.00000000E+00
  0.00000000E+00  0.00000000E+00  0.00000000E+00
  0.00000000E+00  0.00000000E+00  0.00000000E+00
  0.00000000E+00  0.00000000E+00  0.00000000E+00
  0.00000000E+00  0.00000000E+00  0.00000000E+00
  0.00000000E+00  0.00000000E+00  0.00000000E+00
  0.00000000E+00  0.00000000E+00  0.00000000E+00
