Title                                   
   1.00000000000000     
     9.8694509999999998    0.0000000000000000    0.0000000000000000
     0.0000000000000000    8.5490480000000009    0.0000000000000000
     0.0000000000000000    0.0000000000000000   20.0000000000000000
    29     2     1
Selective dynamics
Direct
  0.0561481034700340  0.0908066737690540  0.0864158947890959   T   T   T
  0.9317299882429915  0.1723726745176686  0.0883908206375888   T   T   T
  0.0569957292947666  0.9237851154534978  0.0864147581032899   T   T   T
  0.9319144160012091  0.3396358885268627  0.0913522857961379   T   T   T
  0.0571512357613604  0.5897728474570458  0.0879191608881627   T   T   T
  0.9327297992755362  0.6723239970589325  0.0909395539467726   T   T   T
  0.0576035455319721  0.4227071109735384  0.0889251784755115   T   T   T
  0.9319744476172361  0.8388689283435297  0.0888402286827731   T   T   T
  0.3057628322165999  0.0887607953811831  0.0890919474763876   T   T   T
  0.1820371101556691  0.1732086046106679  0.0877127730026470   T   T   T
  0.1832335409833943  0.3405658708984106  0.0896415702031127   T   T   T
  0.3043462910125745  0.5924020364575242  0.0965474055612922   T   T   T
  0.1808756821626764  0.6748906153147787  0.0885380048789343   T   T   T
  0.3080209975412215  0.4256389359997138  0.0962420858530518   T   T   T
  0.1804737071708347  0.8408626849302205  0.0878002345579500   T   T   T
  0.5559918835733314  0.0867327344261076  0.0946664627977221   T   T   T
  0.4307126937052295  0.1700012232922177  0.0935759378823790   T   T   T
  0.5537451131794701  0.9198745255232673  0.0977720973723827   T   T   T
  0.4316976742680283  0.3362799984113664  0.1013078972610256   T   T   T
  0.5572377971722285  0.4088246889282967  0.1148084992142860   T   T   T
  0.4261714065168462  0.8408830417911344  0.0980563374958888   T   T   T
  0.8069031441985404  0.0879162996469544  0.0896637519245059   T   T   T
  0.6817020851865823  0.1692825894856123  0.0945687957891909   T   T   T
  0.8067071199260530  0.9222328590935344  0.0907922352196252   T   T   T
  0.6827239575654126  0.3350159017235562  0.1031894184334358   T   T   T
  0.8096627791159405  0.5888042835089183  0.1015344872836640   T   T   T
  0.6914838213574824  0.6770416613915462  0.1140591418895300   T   T   T
  0.8080200041223318  0.4211461844686444  0.0998675477870932   T   T   T
  0.6823147309023180  0.8381463573025680  0.1003838681866037   T   T   T
  0.4183070790907720  0.6832876609247359  0.1089608258195378   T   T   T
  0.3049474364669683  0.9247341150039862  0.0895792919089905   T   T   T
  0.5503128472143946  0.5934390953849142  0.1661165008814763   T   T   T
 
  0.00000000E+00  0.00000000E+00  0.00000000E+00
  0.00000000E+00  0.00000000E+00  0.00000000E+00
  0.00000000E+00  0.00000000E+00  0.00000000E+00
  0.00000000E+00  0.00000000E+00  0.00000000E+00
  0.00000000E+00  0.00000000E+00  0.00000000E+00
  0.00000000E+00  0.00000000E+00  0.00000000E+00
  0.00000000E+00  0.00000000E+00  0.00000000E+00
  0.00000000E+00  0.00000000E+00  0.00000000E+00
  0.00000000E+00  0.00000000E+00  0.00000000E+00
  0.00000000E+00  0.00000000E+00  0.00000000E+00
  0.00000000E+00  0.00000000E+00  0.00000000E+00
  0.00000000E+00  0.00000000E+00  0.00000000E+00
  0.00000000E+00  0.00000000E+00  0.00000000E+00
  0.00000000E+00  0.00000000E+00  0.00000000E+00
  0.00000000E+00  0.00000000E+00  0.00000000E+00
  0.00000000E+00  0.00000000E+00  0.00000000E+00
  0.00000000E+00  0.00000000E+00  0.00000000E+00
  0.00000000E+00  0.00000000E+00  0.00000000E+00
  0.00000000E+00  0.00000000E+00  0.00000000E+00
  0.00000000E+00  0.00000000E+00  0.00000000E+00
  0.00000000E+00  0.00000000E+00  0.00000000E+00
  0.00000000E+00  0.00000000E+00  0.00000000E+00
  0.00000000E+00  0.00000000E+00  0.00000000E+00
  0.00000000E+00  0.00000000E+00  0.00000000E+00
  0.00000000E+00  0.00000000E+00  0.00000000E+00
  0.00000000E+00  0.00000000E+00  0.00000000E+00
  0.00000000E+00  0.00000000E+00  0.00000000E+00
  0.00000000E+00  0.00000000E+00  0.00000000E+00
  0.00000000E+00  0.00000000E+00  0.00000000E+00
  0.00000000E+00  0.00000000E+00  0.00000000E+00
  0.00000000E+00  0.00000000E+00  0.00000000E+00
  0.00000000E+00  0.00000000E+00  0.00000000E+00
