Title                                   
   1.00000000000000     
     9.8694509999999998    0.0000000000000000    0.0000000000000000
     0.0000000000000000    8.5490480000000009    0.0000000000000000
     0.0000000000000000    0.0000000000000000   20.0000000000000000
    27     3     1
Selective dynamics
Direct
  0.0557546267043171  0.0895170059081031  0.0943152481686732   T   T   T
  0.9308891000011744  0.1726714902772317  0.0941879047590548   T   T   T
  0.0572702510146045  0.9237139113607876  0.0943073384059127   T   T   T
  0.9334301097769575  0.3400158275363634  0.0943530366522085   T   T   T
  0.0563187225002476  0.5903430357999242  0.0946902061726789   T   T   T
  0.9332455850372805  0.6750829643540609  0.0943204034361131   T   T   T
  0.0571276254916755  0.4230790755007617  0.0947170203466220   T   T   T
  0.9325551440003033  0.8411355851525346  0.0941629194401217   T   T   T
  0.3065763307394151  0.0890431512382346  0.0952408748530572   T   T   T
  0.1803910955002276  0.1699436411156148  0.0948992217294016   T   T   T
  0.1800665302672572  0.3372032843945448  0.0951667356129482   T   T   T
  0.3024550440185912  0.5882636581740921  0.0957916535407185   T   T   T
  0.1802894960070487  0.6736616993617013  0.0951554245320373   T   T   T
  0.3025235226585535  0.4187323832827768  0.0957011100507773   T   T   T
  0.1824389877309273  0.8408157698740361  0.0948740604386585   T   T   T
  0.5562850557483465  0.0909869117580166  0.0951009028897323   T   T   T
  0.4294871964584542  0.1775584521819634  0.0954609527596858   T   T   T
  0.5552460485885007  0.9214222271728691  0.0950345010361736   T   T   T
  0.4261787786234145  0.6682663662896864  0.0958355645958939   T   T   T
  0.4296178507353063  0.8338305143892477  0.0954180182111301   T   T   T
  0.8050252343744491  0.0904453762387447  0.0942705804485909   T   T   T
  0.6813206697673342  0.1788274255220515  0.0947072419358187   T   T   T
  0.8054360985777865  0.9216255097102135  0.0942331427026917   T   T   T
  0.6851911970931224  0.3461244231346520  0.0947425841484934   T   T   T
  0.8103150505256823  0.5933010148739822  0.0944182441113097   T   T   T
  0.8104478868311922  0.4240570666968034  0.0944537350186594   T   T   T
  0.6821128432100697  0.8324910598067425  0.0945862511078173   T   T   T
  0.4245896046966233  0.3418953392993399  0.0956842575632505   T   T   T
  0.6877434451612402  0.6685052294529921  0.0945755892822745   T   T   T
  0.3065776498465311  0.9222225750976867  0.0951548596054722   T   T   T
  0.5562282183133684  0.5060930250442668  0.0954054164440565   T   T   T
 
  0.00000000E+00  0.00000000E+00  0.00000000E+00
  0.00000000E+00  0.00000000E+00  0.00000000E+00
  0.00000000E+00  0.00000000E+00  0.00000000E+00
  0.00000000E+00  0.00000000E+00  0.00000000E+00
  0.00000000E+00  0.00000000E+00  0.00000000E+00
  0.00000000E+00  0.00000000E+00  0.00000000E+00
  0.00000000E+00  0.00000000E+00  0.00000000E+00
  0.00000000E+00  0.00000000E+00  0.00000000E+00
  0.00000000E+00  0.00000000E+00  0.00000000E+00
  0.00000000E+00  0.00000000E+00  0.00000000E+00
  0.00000000E+00  0.00000000E+00  0.00000000E+00
  0.00000000E+00  0.00000000E+00  0.00000000E+00
  0.00000000E+00  0.00000000E+00  0.00000000E+00
  0.00000000E+00  0.00000000E+00  0.00000000E+00
  0.00000000E+00  0.00000000E+00  0.00000000E+00
  0.00000000E+00  0.00000000E+00  0.00000000E+00
  0.00000000E+00  0.00000000E+00  0.00000000E+00
  0.00000000E+00  0.00000000E+00  0.00000000E+00
  0.00000000E+00  0.00000000E+00  0.00000000E+00
  0.00000000E+00  0.00000000E+00  0.00000000E+00
  0.00000000E+00  0.00000000E+00  0.00000000E+00
  0.00000000E+00  0.00000000E+00  0.00000000E+00
  0.00000000E+00  0.00000000E+00  0.00000000E+00
  0.00000000E+00  0.00000000E+00  0.00000000E+00
  0.00000000E+00  0.00000000E+00  0.00000000E+00
  0.00000000E+00  0.00000000E+00  0.00000000E+00
  0.00000000E+00  0.00000000E+00  0.00000000E+00
  0.00000000E+00  0.00000000E+00  0.00000000E+00
  0.00000000E+00  0.00000000E+00  0.00000000E+00
  0.00000000E+00  0.00000000E+00  0.00000000E+00
  0.00000000E+00  0.00000000E+00  0.00000000E+00
