Title                                   
   1.00000000000000     
     8.5490480000000009    0.0000000000000000    0.0000000000000000
     0.0000000000000000    8.5490480000000009    0.0000000000000000
     0.0000000000000000    0.0000000000000000   20.0000000000000000
    19     5     1
Selective dynamics
Direct
  0.9092424268657144  0.2063903668046979  0.0988371347533825   T   T   T
  0.9110386949557958  0.8016976181830615  0.0979970178928394   T   T   T
  0.1966405846647936  0.0848657161344756  0.0978162953879939   T   T   T
  0.0766661150842790  0.2016783753863378  0.0977487474358084   T   T   T
  0.1541254069901712  0.6521390560375377  0.0979909207186261   T   T   T
  0.0740115264402981  0.5024029690173158  0.0981101166840109   T   T   T
  0.1557113227297719  0.3562016047449090  0.0992864592111160   T   T   T
  0.0783534089900866  0.8002577536504869  0.0980586324427242   T   T   T
  0.4949367625782372  0.0845134582950890  0.0971059437076301   T   T   T
  0.3475031813444686  0.1652800969865657  0.0992557503199067   T   T   T
  0.4938898744920480  0.9141888150457582  0.0971122115400021   T   T   T
  0.3431976216854186  0.8343888371509632  0.0976024186671497   T   T   T
  0.7897723572674153  0.0871964782600763  0.0986399502268141   T   T   T
  0.6424546162058408  0.1664838460492928  0.0960378368731782   T   T   T
  0.7900912877079384  0.9189605948602965  0.0983974220960977   T   T   T
  0.8298424959038103  0.6522927727100681  0.0966782939796589   T   T   T
  0.8271362636711364  0.3544403485431300  0.0964411519980470   T   T   T
  0.6437227585561688  0.8351524594841810  0.0971662176905307   T   T   T
  0.3193213305643041  0.3287268146153946  0.1043707674520706   T   T   T
  0.9056209459869498  0.5034118943840306  0.0963457937276512   T   T   T
  0.3151590566162146  0.6765039838126117  0.0976065606998012   T   T   T
  0.6671482622968784  0.3287473149293623  0.0921006508151645   T   T   T
  0.6714744967785817  0.6739065261173373  0.0958363868660054   T   T   T
  0.1975340288601412  0.9160422608614160  0.0980227144638705   T   T   T
  0.4908171727635298  0.4989200379356256  0.0991396043498931   T   T   T
 
  0.00000000E+00  0.00000000E+00  0.00000000E+00
  0.00000000E+00  0.00000000E+00  0.00000000E+00
  0.00000000E+00  0.00000000E+00  0.00000000E+00
  0.00000000E+00  0.00000000E+00  0.00000000E+00
  0.00000000E+00  0.00000000E+00  0.00000000E+00
  0.00000000E+00  0.00000000E+00  0.00000000E+00
  0.00000000E+00  0.00000000E+00  0.00000000E+00
  0.00000000E+00  0.00000000E+00  0.00000000E+00
  0.00000000E+00  0.00000000E+00  0.00000000E+00
  0.00000000E+00  0.00000000E+00  0.00000000E+00
  0.00000000E+00  0.00000000E+00  0.00000000E+00
  0.00000000E+00  0.00000000E+00  0.00000000E+00
  0.00000000E+00  0.00000000E+00  0.00000000E+00
  0.00000000E+00  0.00000000E+00  0.00000000E+00
  0.00000000E+00  0.00000000E+00  0.00000000E+00
  0.00000000E+00  0.00000000E+00  0.00000000E+00
  0.00000000E+00  0.00000000E+00  0.00000000E+00
  0.00000000E+00  0.00000000E+00  0.00000000E+00
  0.00000000E+00  0.00000000E+00  0.00000000E+00
  0.00000000E+00  0.00000000E+00  0.00000000E+00
  0.00000000E+00  0.00000000E+00  0.00000000E+00
  0.00000000E+00  0.00000000E+00  0.00000000E+00
  0.00000000E+00  0.00000000E+00  0.00000000E+00
  0.00000000E+00  0.00000000E+00  0.00000000E+00
  0.00000000E+00  0.00000000E+00  0.00000000E+00
