Title                                   
   1.00000000000000     
     8.5490480000000009    0.0000000000000000    0.0000000000000000
     0.0000000000000000    8.5490480000000009    0.0000000000000000
     0.0000000000000000    0.0000000000000000   20.0000000000000000
    21     3     1
Selective dynamics
Direct
  0.9098094491680482  0.2063436936014695  0.0974282747216395   T   T   T
  0.9094240962826393  0.5020677327507498  0.0976433515291098   T   T   T
  0.9106294523432874  0.8004584929845785  0.0976325170255679   T   T   T
  0.1978527802025788  0.0835749984887147  0.0977260489047606   T   T   T
  0.0759018701509795  0.2036479940537932  0.0976172032859197   T   T   T
  0.1579269923215785  0.6500847424888648  0.0975893395980229   T   T   T
  0.0783971514468374  0.5019512537874986  0.0976535302396987   T   T   T
  0.1583038580325189  0.3527361737862420  0.0978022949213373   T   T   T
  0.0775713469570437  0.7986058401840446  0.0975573281906274   T   T   T
  0.4930885675427804  0.0861973809133624  0.0977123387572626   T   T   T
  0.3436941554495465  0.1647383618745536  0.0978621852703509   T   T   T
  0.4916246723514128  0.9171740007554222  0.0977730763544816   T   T   T
  0.3447618085460091  0.8371537312638515  0.0977282016602064   T   T   T
  0.7868686255869879  0.0845922466765990  0.0974472737443401   T   T   T
  0.6387352862432624  0.1655929505339117  0.0975745423170311   T   T   T
  0.7876458340888830  0.9194400971162379  0.0976256601774899   T   T   T
  0.8299256826707854  0.6515597519886930  0.0977911458800062   T   T   T
  0.8300129798983360  0.3550958582734006  0.0975392631414141   T   T   T
  0.6400549092308915  0.8363707732355444  0.0978627254954808   T   T   T
  0.3234221202625019  0.6725649755772042  0.0977715787890999   T   T   T
  0.6613734291407490  0.3338795369211203  0.0978114911858846   T   T   T
  0.3206415282225150  0.3288431417710522  0.0981215289562985   T   T   T
  0.6656534032833608  0.6735105238045811  0.0981024976252686   T   T   T
  0.1977008140817784  0.9180968729935056  0.0976863926025331   T   T   T
  0.4943911864946750  0.5005088741750175  0.0986452096261480   T   T   T
 
  0.00000000E+00  0.00000000E+00  0.00000000E+00
  0.00000000E+00  0.00000000E+00  0.00000000E+00
  0.00000000E+00  0.00000000E+00  0.00000000E+00
  0.00000000E+00  0.00000000E+00  0.00000000E+00
  0.00000000E+00  0.00000000E+00  0.00000000E+00
  0.00000000E+00  0.00000000E+00  0.00000000E+00
  0.00000000E+00  0.00000000E+00  0.00000000E+00
  0.00000000E+00  0.00000000E+00  0.00000000E+00
  0.00000000E+00  0.00000000E+00  0.00000000E+00
  0.00000000E+00  0.00000000E+00  0.00000000E+00
  0.00000000E+00  0.00000000E+00  0.00000000E+00
  0.00000000E+00  0.00000000E+00  0.00000000E+00
  0.00000000E+00  0.00000000E+00  0.00000000E+00
  0.00000000E+00  0.00000000E+00  0.00000000E+00
  0.00000000E+00  0.00000000E+00  0.00000000E+00
  0.00000000E+00  0.00000000E+00  0.00000000E+00
  0.00000000E+00  0.00000000E+00  0.00000000E+00
  0.00000000E+00  0.00000000E+00  0.00000000E+00
  0.00000000E+00  0.00000000E+00  0.00000000E+00
  0.00000000E+00  0.00000000E+00  0.00000000E+00
  0.00000000E+00  0.00000000E+00  0.00000000E+00
  0.00000000E+00  0.00000000E+00  0.00000000E+00
  0.00000000E+00  0.00000000E+00  0.00000000E+00
  0.00000000E+00  0.00000000E+00  0.00000000E+00
  0.00000000E+00  0.00000000E+00  0.00000000E+00
