Title                                   
   1.00000000000000     
     9.8694509999999998    0.0000000000000000    0.0000000000000000
     0.0000000000000000    8.5490480000000009    0.0000000000000000
     0.0000000000000000    0.0000000000000000   20.0000000000000000
    25     5     1
Selective dynamics
Direct
  0.0549317505392692  0.0909476055993563  0.0882111037134344   T   T   T
  0.9295865258470208  0.1739099148579562  0.0890187149398988   T   T   T
  0.0578878294126023  0.9234242638786648  0.0879109210807582   T   T   T
  0.9319154460756378  0.3415564718319427  0.0885676424291109   T   T   T
  0.0576274259745870  0.5898444234210237  0.0846886274914655   T   T   T
  0.9339981087704834  0.6745882572122190  0.0884884827677736   T   T   T
  0.0570540813316456  0.4230921543047987  0.0852846756787192   T   T   T
  0.9326680463733665  0.8414631605790850  0.0894639979145074   T   T   T
  0.3067786830916213  0.0867316526258816  0.0943809906869012   T   T   T
  0.1808830980971235  0.1712290525147477  0.0901264716521225   T   T   T
  0.1808917334920503  0.3381451393887963  0.0883770979580990   T   T   T
  0.3049763823532772  0.5881323990223659  0.0931233355004613   T   T   T
  0.1820920892633552  0.6725420797176863  0.0865432188901090   T   T   T
  0.3045742521489883  0.4197676489046516  0.0957067978502963   T   T   T
  0.1817921679380526  0.8393370943888973  0.0883992567426748   T   T   T
  0.4278293979834473  0.1723270988823100  0.1026655073609698   T   T   T
  0.5545070277085586  0.9187600442536233  0.1034435725855131   T   T   T
  0.4293424291332828  0.8352799484515933  0.1000933224018373   T   T   T
  0.8026977018195580  0.0907927083598204  0.0927068373258479   T   T   T
  0.6785811481116544  0.1761438544769906  0.0999164098450642   T   T   T
  0.8064231347612727  0.9233957976458844  0.0936048918671569   T   T   T
  0.6846321795836148  0.3420492735109386  0.1068592477038972   T   T   T
  0.8118607969073541  0.5942918806597912  0.0976847202988124   T   T   T
  0.8090924896942598  0.4255421085453181  0.0963932958369832   T   T   T
  0.6840352701466946  0.8368985901121195  0.1031077092945189   T   T   T
  0.5542066495909796  0.0914321531255936  0.1031982379671015   T   T   T
  0.4215869734688263  0.3328847102803140  0.1110659499576186   T   T   T
  0.6934442897767210  0.6767663160532417  0.1122365756242705   T   T   T
  0.4234809402006390  0.6741932058365745  0.1036705156141538   T   T   T
  0.3067841886932565  0.9207225588936241  0.0926720122024163   T   T   T
  0.5569727617108080  0.5046834326641999  0.1433548588175422   T   T   T
 
  0.00000000E+00  0.00000000E+00  0.00000000E+00
  0.00000000E+00  0.00000000E+00  0.00000000E+00
  0.00000000E+00  0.00000000E+00  0.00000000E+00
  0.00000000E+00  0.00000000E+00  0.00000000E+00
  0.00000000E+00  0.00000000E+00  0.00000000E+00
  0.00000000E+00  0.00000000E+00  0.00000000E+00
  0.00000000E+00  0.00000000E+00  0.00000000E+00
  0.00000000E+00  0.00000000E+00  0.00000000E+00
  0.00000000E+00  0.00000000E+00  0.00000000E+00
  0.00000000E+00  0.00000000E+00  0.00000000E+00
  0.00000000E+00  0.00000000E+00  0.00000000E+00
  0.00000000E+00  0.00000000E+00  0.00000000E+00
  0.00000000E+00  0.00000000E+00  0.00000000E+00
  0.00000000E+00  0.00000000E+00  0.00000000E+00
  0.00000000E+00  0.00000000E+00  0.00000000E+00
  0.00000000E+00  0.00000000E+00  0.00000000E+00
  0.00000000E+00  0.00000000E+00  0.00000000E+00
  0.00000000E+00  0.00000000E+00  0.00000000E+00
  0.00000000E+00  0.00000000E+00  0.00000000E+00
  0.00000000E+00  0.00000000E+00  0.00000000E+00
  0.00000000E+00  0.00000000E+00  0.00000000E+00
  0.00000000E+00  0.00000000E+00  0.00000000E+00
  0.00000000E+00  0.00000000E+00  0.00000000E+00
  0.00000000E+00  0.00000000E+00  0.00000000E+00
  0.00000000E+00  0.00000000E+00  0.00000000E+00
  0.00000000E+00  0.00000000E+00  0.00000000E+00
  0.00000000E+00  0.00000000E+00  0.00000000E+00
  0.00000000E+00  0.00000000E+00  0.00000000E+00
  0.00000000E+00  0.00000000E+00  0.00000000E+00
  0.00000000E+00  0.00000000E+00  0.00000000E+00
  0.00000000E+00  0.00000000E+00  0.00000000E+00
