Title                                   
   1.00000000000000     
     9.8694509999999998    0.0000000000000000    0.0000000000000000
     0.0000000000000000    8.5490480000000009    0.0000000000000000
     0.0000000000000000    0.0000000000000000   20.0000000000000000
    26     4     1
Selective dynamics
Direct
  0.0560255733302611  0.0897629417104499  0.0935430725365184   T   T   T
  0.9308616634956133  0.1737187606567781  0.0969365921474929   T   T   T
  0.0582808588200738  0.9228186420108954  0.0934289842975512   T   T   T
  0.9323726462359880  0.3414118431254540  0.0992009159412549   T   T   T
  0.0581509611184603  0.5900139364111405  0.0959559756108741   T   T   T
  0.9335850919641230  0.6738849061560780  0.0996569237459482   T   T   T
  0.0576097484565669  0.4227692400735800  0.0960546171467061   T   T   T
  0.9333691840030105  0.8410315592136535  0.0976441886913741   T   T   T
  0.3077728269596857  0.0865278904424791  0.0873099327229001   T   T   T
  0.1816612186769992  0.1709562435797048  0.0906106917697423   T   T   T
  0.1810396141098042  0.3368201470981633  0.0915989930585442   T   T   T
  0.3083932926718618  0.5862632513872659  0.0822376453851267   T   T   T
  0.1831518190652112  0.6721158906891526  0.0902501851038184   T   T   T
  0.3061842827263678  0.4172187960760558  0.0853870262646707   T   T   T
  0.1835436705018774  0.8382191592042221  0.0895616556515081   T   T   T
  0.4304435174560008  0.1711035197426491  0.0872101965818536   T   T   T
  0.5571553383928681  0.9219257521712256  0.0935100670321361   T   T   T
  0.4307505990927825  0.6747821136100528  0.0768628528189027   T   T   T
  0.4322007591996603  0.8377544091570703  0.0840899773077363   T   T   T
  0.8042763604977705  0.0906330747429700  0.0972469118167386   T   T   T
  0.6797345683756026  0.1793629928036018  0.0985278937799357   T   T   T
  0.8068515725874564  0.9234877317763281  0.0983223238115049   T   T   T
  0.6812325991569549  0.3443081618987937  0.1053122088419264   T   T   T
  0.8093195267832162  0.5938803533864309  0.1051396554569580   T   T   T
  0.8075369051582556  0.4249802520044444  0.1039981569205339   T   T   T
  0.6821706655869915  0.8364525210610482  0.1009393830054131   T   T   T
  0.5569269424555781  0.0917971219495876  0.0928199452819901   T   T   T
  0.4273638986955890  0.3320195635815524  0.0845527518194630   T   T   T
  0.6864700704199167  0.6736840877815680  0.1096822396650785   T   T   T
  0.3070279421287834  0.9218361682411439  0.0858168701450019   T   T   T
  0.5316712818766693  0.5093339682564880  0.1275561656408310   T   T   T
 
  0.00000000E+00  0.00000000E+00  0.00000000E+00
  0.00000000E+00  0.00000000E+00  0.00000000E+00
  0.00000000E+00  0.00000000E+00  0.00000000E+00
  0.00000000E+00  0.00000000E+00  0.00000000E+00
  0.00000000E+00  0.00000000E+00  0.00000000E+00
  0.00000000E+00  0.00000000E+00  0.00000000E+00
  0.00000000E+00  0.00000000E+00  0.00000000E+00
  0.00000000E+00  0.00000000E+00  0.00000000E+00
  0.00000000E+00  0.00000000E+00  0.00000000E+00
  0.00000000E+00  0.00000000E+00  0.00000000E+00
  0.00000000E+00  0.00000000E+00  0.00000000E+00
  0.00000000E+00  0.00000000E+00  0.00000000E+00
  0.00000000E+00  0.00000000E+00  0.00000000E+00
  0.00000000E+00  0.00000000E+00  0.00000000E+00
  0.00000000E+00  0.00000000E+00  0.00000000E+00
  0.00000000E+00  0.00000000E+00  0.00000000E+00
  0.00000000E+00  0.00000000E+00  0.00000000E+00
  0.00000000E+00  0.00000000E+00  0.00000000E+00
  0.00000000E+00  0.00000000E+00  0.00000000E+00
  0.00000000E+00  0.00000000E+00  0.00000000E+00
  0.00000000E+00  0.00000000E+00  0.00000000E+00
  0.00000000E+00  0.00000000E+00  0.00000000E+00
  0.00000000E+00  0.00000000E+00  0.00000000E+00
  0.00000000E+00  0.00000000E+00  0.00000000E+00
  0.00000000E+00  0.00000000E+00  0.00000000E+00
  0.00000000E+00  0.00000000E+00  0.00000000E+00
  0.00000000E+00  0.00000000E+00  0.00000000E+00
  0.00000000E+00  0.00000000E+00  0.00000000E+00
  0.00000000E+00  0.00000000E+00  0.00000000E+00
  0.00000000E+00  0.00000000E+00  0.00000000E+00
  0.00000000E+00  0.00000000E+00  0.00000000E+00
