Title                                   
   1.00000000000000     
     9.8694509999999998    0.0000000000000000    0.0000000000000000
     0.0000000000000000    8.5490480000000009    0.0000000000000000
     0.0000000000000000    0.0000000000000000   20.0000000000000000
    27     3     1
Selective dynamics
Direct
  0.0553454404733039  0.0881073708637327  0.0848538843550699   T   T   T
  0.9308278313565829  0.1716111953457123  0.0866241450251075   T   T   T
  0.0569150567684608  0.9229602334138406  0.0853830315248086   T   T   T
  0.9346323618492132  0.3388726183981085  0.0855365032606292   T   T   T
  0.0573743406165079  0.5899294144445779  0.0816133014407616   T   T   T
  0.9342882148910689  0.6737242300255016  0.0864742653156953   T   T   T
  0.0576497267048554  0.4227754374350634  0.0808474907001364   T   T   T
  0.9316296904005601  0.8399797079507044  0.0876454085669905   T   T   T
  0.3047916001331577  0.0872325993999350  0.0926763787335075   T   T   T
  0.1811588984563140  0.1698881148684810  0.0863522153224951   T   T   T
  0.1801451690156376  0.3377188323886413  0.0844993831575734   T   T   T
  0.3035102274591452  0.5886560958611503  0.0946837557601232   T   T   T
  0.1811125851378147  0.6730699273624235  0.0852852158961289   T   T   T
  0.3013924615091974  0.4176967315134571  0.0937832947226484   T   T   T
  0.1819956006967997  0.8396820166956381  0.0871750564196185   T   T   T
  0.4282664154153047  0.1743344194607870  0.1007060947871383   T   T   T
  0.5536153844857773  0.9250660781067935  0.1044117607008461   T   T   T
  0.4206402626854529  0.6765825540129601  0.1075226140137319   T   T   T
  0.4285353914924461  0.8405880745264583  0.1027897949162531   T   T   T
  0.8051415786776613  0.0890362231593030  0.0929807855834145   T   T   T
  0.6818451036474239  0.1771220748197918  0.1018307843337551   T   T   T
  0.8062973017321258  0.9226439290673447  0.0938699208705946   T   T   T
  0.6928118913005188  0.3387224905628118  0.1086050242949125   T   T   T
  0.8131168706966491  0.5909213044335225  0.0966474064333219   T   T   T
  0.6919943905427409  0.6744094123090720  0.1080981531729129   T   T   T
  0.8144606094136432  0.4209599861799761  0.0964095678623582   T   T   T
  0.6805076870033745  0.8393246792853084  0.1031712461912615   T   T   T
  0.5540567949897068  0.0946820105504714  0.1033849027699319   T   T   T
  0.4184721957417737  0.3325496143198395  0.1048308906604300   T   T   T
  0.3045076221418779  0.9230530420165283  0.0932211446080325   T   T   T
  0.5560962945649206  0.5089745812220832  0.1190515785998595   T   T   T
 
  0.00000000E+00  0.00000000E+00  0.00000000E+00
  0.00000000E+00  0.00000000E+00  0.00000000E+00
  0.00000000E+00  0.00000000E+00  0.00000000E+00
  0.00000000E+00  0.00000000E+00  0.00000000E+00
  0.00000000E+00  0.00000000E+00  0.00000000E+00
  0.00000000E+00  0.00000000E+00  0.00000000E+00
  0.00000000E+00  0.00000000E+00  0.00000000E+00
  0.00000000E+00  0.00000000E+00  0.00000000E+00
  0.00000000E+00  0.00000000E+00  0.00000000E+00
  0.00000000E+00  0.00000000E+00  0.00000000E+00
  0.00000000E+00  0.00000000E+00  0.00000000E+00
  0.00000000E+00  0.00000000E+00  0.00000000E+00
  0.00000000E+00  0.00000000E+00  0.00000000E+00
  0.00000000E+00  0.00000000E+00  0.00000000E+00
  0.00000000E+00  0.00000000E+00  0.00000000E+00
  0.00000000E+00  0.00000000E+00  0.00000000E+00
  0.00000000E+00  0.00000000E+00  0.00000000E+00
  0.00000000E+00  0.00000000E+00  0.00000000E+00
  0.00000000E+00  0.00000000E+00  0.00000000E+00
  0.00000000E+00  0.00000000E+00  0.00000000E+00
  0.00000000E+00  0.00000000E+00  0.00000000E+00
  0.00000000E+00  0.00000000E+00  0.00000000E+00
  0.00000000E+00  0.00000000E+00  0.00000000E+00
  0.00000000E+00  0.00000000E+00  0.00000000E+00
  0.00000000E+00  0.00000000E+00  0.00000000E+00
  0.00000000E+00  0.00000000E+00  0.00000000E+00
  0.00000000E+00  0.00000000E+00  0.00000000E+00
  0.00000000E+00  0.00000000E+00  0.00000000E+00
  0.00000000E+00  0.00000000E+00  0.00000000E+00
  0.00000000E+00  0.00000000E+00  0.00000000E+00
  0.00000000E+00  0.00000000E+00  0.00000000E+00
