Title                                   
   1.00000000000000     
     8.5490480000000009    0.0000000000000000    0.0000000000000000
     0.0000000000000000    8.5490480000000009    0.0000000000000000
     0.0000000000000000    0.0000000000000000   20.0000000000000000
    22     2     1
Selective dynamics
Direct
  0.9096730193332362  0.2074932343350734  0.0945387800764187   T   T   T
  0.9117179867179299  0.7995717298135496  0.0944998184701811   T   T   T
  0.1980139465887924  0.0835380462177577  0.0946391620539225   T   T   T
  0.0751512127671837  0.2034223311820404  0.0947784801394629   T   T   T
  0.1566183575109064  0.6490456847654126  0.0963562524041800   T   T   T
  0.0755567850766849  0.5014580829331354  0.0960266128808911   T   T   T
  0.1555974987166864  0.3549845439148919  0.0966349332621984   T   T   T
  0.0780809799298418  0.7986107252038345  0.0945409318126596   T   T   T
  0.4937186874523135  0.0860871090055513  0.0960660320856884   T   T   T
  0.3455964445291496  0.1648180841735884  0.0964931003031035   T   T   T
  0.4929959079308546  0.9175476989878445  0.0961342489399626   T   T   T
  0.3456824463522871  0.8357609151488209  0.0967621575480510   T   T   T
  0.7872391835054566  0.0863095919064679  0.0949787724584462   T   T   T
  0.6388973506130649  0.1681276167165336  0.0966008924405155   T   T   T
  0.7879742054133333  0.9192240503215157  0.0950323009380082   T   T   T
  0.8306427657488346  0.6477757847254618  0.0959308982389996   T   T   T
  0.8292397361864111  0.3581284264138577  0.0956942449896010   T   T   T
  0.6392718703903730  0.8354845146339378  0.0968009845351039   T   T   T
  0.3228735584546594  0.3330577941638828  0.1019539598551226   T   T   T
  0.3229109450824501  0.6709070943311174  0.1005982934732934   T   T   T
  0.6627917488369446  0.3375421609282451  0.1011414875442574   T   T   T
  0.6640765108228377  0.6668927114071524  0.1013812465810914   T   T   T
  0.9099996558649373  0.5026242838886491  0.0954698830267721   T   T   T
  0.1980919531613959  0.9170092920883943  0.0946360185296026   T   T   T
  0.4929992430134204  0.4993684927932908  0.1260155074124462   T   T   T
 
  0.00000000E+00  0.00000000E+00  0.00000000E+00
  0.00000000E+00  0.00000000E+00  0.00000000E+00
  0.00000000E+00  0.00000000E+00  0.00000000E+00
  0.00000000E+00  0.00000000E+00  0.00000000E+00
  0.00000000E+00  0.00000000E+00  0.00000000E+00
  0.00000000E+00  0.00000000E+00  0.00000000E+00
  0.00000000E+00  0.00000000E+00  0.00000000E+00
  0.00000000E+00  0.00000000E+00  0.00000000E+00
  0.00000000E+00  0.00000000E+00  0.00000000E+00
  0.00000000E+00  0.00000000E+00  0.00000000E+00
  0.00000000E+00  0.00000000E+00  0.00000000E+00
  0.00000000E+00  0.00000000E+00  0.00000000E+00
  0.00000000E+00  0.00000000E+00  0.00000000E+00
  0.00000000E+00  0.00000000E+00  0.00000000E+00
  0.00000000E+00  0.00000000E+00  0.00000000E+00
  0.00000000E+00  0.00000000E+00  0.00000000E+00
  0.00000000E+00  0.00000000E+00  0.00000000E+00
  0.00000000E+00  0.00000000E+00  0.00000000E+00
  0.00000000E+00  0.00000000E+00  0.00000000E+00
  0.00000000E+00  0.00000000E+00  0.00000000E+00
  0.00000000E+00  0.00000000E+00  0.00000000E+00
  0.00000000E+00  0.00000000E+00  0.00000000E+00
  0.00000000E+00  0.00000000E+00  0.00000000E+00
  0.00000000E+00  0.00000000E+00  0.00000000E+00
  0.00000000E+00  0.00000000E+00  0.00000000E+00
