Title                                   
   1.00000000000000     
     4.9440799999999996    0.0000000000000000    0.0000000000000000
     0.0000000000000000    8.5647549999999999    0.0000000000000000
     0.0000000000000000    0.0000000000000000   20.0000000000000000
    14     1     1
Selective dynamics
Direct
 -0.0017122610831145  0.2899228373752781  0.0906415789634413   T   T   T
  0.2500000000000000  0.0435323347304533  0.0850727850086063   T   T   T
  0.0006476897796847  0.7962323281822237  0.1005193981382004   T   T   T
 -0.0007641195666173  0.9607567495509104  0.0858314721356540   T   T   T
  0.7500000000000000  0.2066079015586822  0.0803606139857365   T   T   T
  0.5017122610831145  0.2899228373752781  0.0906415789634413   T   T   T
  0.7500000000000000  0.0418556438025213  0.0801746559036654   T   T   T
  0.7500000000000000  0.7091907788525585  0.1053600476662482   T   T   T
  0.4993523102203152  0.7962323281822237  0.1005193981382004   T   T   T
  0.7500000000000000  0.5371642787564840  0.1072079992255692   T   T   T
  0.5007641195666174  0.9607567495509104  0.0858314721356540   T   T   T
  0.5047481107183737  0.4476053552137014  0.1088642424341381   T   T   T
 -0.0047481107183738  0.4476053552137014  0.1088642424341381   T   T   T
  0.2500000000000000  0.7245737196750851  0.1142242659172680   T   T   T
  0.2500000000000000  0.2067594494233837  0.0879928989061926   T   T   T
  0.2500000000000000  0.5412813525566038  0.1804053500438557   T   T   T
 
  0.00000000E+00  0.00000000E+00  0.00000000E+00
  0.00000000E+00  0.00000000E+00  0.00000000E+00
  0.00000000E+00  0.00000000E+00  0.00000000E+00
  0.00000000E+00  0.00000000E+00  0.00000000E+00
  0.00000000E+00  0.00000000E+00  0.00000000E+00
  0.00000000E+00  0.00000000E+00  0.00000000E+00
  0.00000000E+00  0.00000000E+00  0.00000000E+00
  0.00000000E+00  0.00000000E+00  0.00000000E+00
  0.00000000E+00  0.00000000E+00  0.00000000E+00
  0.00000000E+00  0.00000000E+00  0.00000000E+00
  0.00000000E+00  0.00000000E+00  0.00000000E+00
  0.00000000E+00  0.00000000E+00  0.00000000E+00
  0.00000000E+00  0.00000000E+00  0.00000000E+00
  0.00000000E+00  0.00000000E+00  0.00000000E+00
  0.00000000E+00  0.00000000E+00  0.00000000E+00
  0.00000000E+00  0.00000000E+00  0.00000000E+00
