Title                                   
   1.00000000000000     
     9.8694509999999998    0.0000000000000000    0.0000000000000000
     0.0000000000000000    8.5490480000000009    0.0000000000000000
     0.0000000000000000    0.0000000000000000   20.0000000000000000
    29     2     1
Selective dynamics
Direct
  0.0562953213028769  0.0902912916240894  0.0815485036962380   T   T   T
  0.9313056726785351  0.1731238268800542  0.0833178726659106   T   T   T
  0.0572659576930336  0.9234563385990490  0.0807336709425482   T   T   T
  0.9309319617903508  0.3404189356489585  0.0872578318685764   T   T   T
  0.0572632721253613  0.5906696840721479  0.0841143717737630   T   T   T
  0.9323613824019101  0.6728434891257109  0.0856280541739530   T   T   T
  0.0569455638050021  0.4228617683144923  0.0858312356260879   T   T   T
  0.9319893496385796  0.8395563103479377  0.0829490470403550   T   T   T
  0.3058012398390415  0.0882555969604401  0.0867041233652147   T   T   T
  0.1823271729884006  0.1728134686769688  0.0847755915907953   T   T   T
  0.1823653386308112  0.3398532051202618  0.0884023831540207   T   T   T
  0.3047676428337945  0.5899717427106939  0.1012253563769547   T   T   T
  0.1824216847683243  0.6737173952802237  0.0866016268464085   T   T   T
  0.3063041185308542  0.4216344278161935  0.0996876593199235   T   T   T
  0.1820958523261246  0.8407947235950287  0.0837606545192619   T   T   T
  0.5551625050930648  0.0871065078591521  0.0925011216812380   T   T   T
  0.5541366333120537  0.9234329270564056  0.0999430748269705   T   T   T
  0.4310772656712529  0.3329169653553781  0.1051983009476948   T   T   T
  0.4264366116261557  0.8408524696674150  0.1039106336467772   T   T   T
  0.8059149958281820  0.0888080655250299  0.0840963164375775   T   T   T
  0.6800482627665846  0.1710545093161252  0.0896043787276958   T   T   T
  0.8063918152223810  0.9234787887077336  0.0859469262317956   T   T   T
  0.6810255296238963  0.3355060747621922  0.1009967227213436   T   T   T
  0.8082771490830479  0.5915666317201341  0.0986412265235763   T   T   T
  0.8059908952128073  0.4221220905341629  0.0968924483582989   T   T   T
  0.6830009218277416  0.8408502406914351  0.0995848889805033   T   T   T
  0.4187184448629108  0.6823056682587892  0.1190039728480108   T   T   T
  0.5550548571675370  0.4049274185071179  0.1186346742991203   T   T   T
  0.6912167893931316  0.6793803179034241  0.1141773882398148   T   T   T
  0.3057823675495199  0.9258575662150342  0.0873996177409703   T   T   T
  0.4288190729296064  0.1680776067562094  0.0919921859303809   T   T   T
  0.5621433514771321  0.5917399463920118  0.1946131388982362   T   T   T
 
  0.00000000E+00  0.00000000E+00  0.00000000E+00
  0.00000000E+00  0.00000000E+00  0.00000000E+00
  0.00000000E+00  0.00000000E+00  0.00000000E+00
  0.00000000E+00  0.00000000E+00  0.00000000E+00
  0.00000000E+00  0.00000000E+00  0.00000000E+00
  0.00000000E+00  0.00000000E+00  0.00000000E+00
  0.00000000E+00  0.00000000E+00  0.00000000E+00
  0.00000000E+00  0.00000000E+00  0.00000000E+00
  0.00000000E+00  0.00000000E+00  0.00000000E+00
  0.00000000E+00  0.00000000E+00  0.00000000E+00
  0.00000000E+00  0.00000000E+00  0.00000000E+00
  0.00000000E+00  0.00000000E+00  0.00000000E+00
  0.00000000E+00  0.00000000E+00  0.00000000E+00
  0.00000000E+00  0.00000000E+00  0.00000000E+00
  0.00000000E+00  0.00000000E+00  0.00000000E+00
  0.00000000E+00  0.00000000E+00  0.00000000E+00
  0.00000000E+00  0.00000000E+00  0.00000000E+00
  0.00000000E+00  0.00000000E+00  0.00000000E+00
  0.00000000E+00  0.00000000E+00  0.00000000E+00
  0.00000000E+00  0.00000000E+00  0.00000000E+00
  0.00000000E+00  0.00000000E+00  0.00000000E+00
  0.00000000E+00  0.00000000E+00  0.00000000E+00
  0.00000000E+00  0.00000000E+00  0.00000000E+00
  0.00000000E+00  0.00000000E+00  0.00000000E+00
  0.00000000E+00  0.00000000E+00  0.00000000E+00
  0.00000000E+00  0.00000000E+00  0.00000000E+00
  0.00000000E+00  0.00000000E+00  0.00000000E+00
  0.00000000E+00  0.00000000E+00  0.00000000E+00
  0.00000000E+00  0.00000000E+00  0.00000000E+00
  0.00000000E+00  0.00000000E+00  0.00000000E+00
  0.00000000E+00  0.00000000E+00  0.00000000E+00
  0.00000000E+00  0.00000000E+00  0.00000000E+00
