Title                                   
   1.00000000000000     
     8.5490480000000009    0.0000000000000000    0.0000000000000000
     0.0000000000000000    8.5490480000000009    0.0000000000000000
     0.0000000000000000    0.0000000000000000   20.0000000000000000
    21     3     1
Selective dynamics
Direct
  0.9092395229784639  0.2070420781401800  0.0943218490814648   T   T   T
  0.9108913434964582  0.7992512286314511  0.0942918402199742   T   T   T
  0.1989345231284903  0.0830664331346439  0.0942665834099627   T   T   T
  0.0762356243439666  0.2032454131945645  0.0946432816726926   T   T   T
  0.1569244410410948  0.6500400564413149  0.0970153330027499   T   T   T
  0.0763080227031339  0.5008409408160169  0.0966950063554673   T   T   T
  0.1569903676245676  0.3540360986431459  0.0969315781792667   T   T   T
  0.0781061482857152  0.7989359521235012  0.0945862601700635   T   T   T
  0.3471410263164347  0.1644112823740073  0.0961843080757653   T   T   T
  0.4930973444279917  0.9196837048994144  0.0966489837425541   T   T   T
  0.3449671760472487  0.8378578834699738  0.0972931613205434   T   T   T
  0.7864906422936022  0.0852595054759163  0.0944077850154606   T   T   T
  0.6378861088932852  0.1668816590132653  0.0963920257073987   T   T   T
  0.7881870748371029  0.9190734453494536  0.0945935630828431   T   T   T
  0.8298164760565898  0.6482900054549224  0.0961433127161965   T   T   T
  0.8284505203673664  0.3563846065160354  0.0962242116179624   T   T   T
  0.6385966416056453  0.8374660730710445  0.0968160782682570   T   T   T
  0.3259625565522276  0.3308751211610530  0.1014979378096676   T   T   T
  0.3234637688693051  0.6735506581230526  0.1012289677558959   T   T   T
  0.6605194459964386  0.3350178689443536  0.1018869489836620   T   T   T
  0.6630848959332336  0.6683215395021651  0.1014189482188094   T   T   T
  0.4943598039602937  0.0856366757413329  0.0960792401858182   T   T   T
  0.9096524374664321  0.5015302516652110  0.0960515816247390   T   T   T
  0.1967947881626021  0.9173063961093655  0.0945493385160718   T   T   T
  0.4933112986122951  0.5007851220046222  0.1235368752666932   T   T   T
 
  0.00000000E+00  0.00000000E+00  0.00000000E+00
  0.00000000E+00  0.00000000E+00  0.00000000E+00
  0.00000000E+00  0.00000000E+00  0.00000000E+00
  0.00000000E+00  0.00000000E+00  0.00000000E+00
  0.00000000E+00  0.00000000E+00  0.00000000E+00
  0.00000000E+00  0.00000000E+00  0.00000000E+00
  0.00000000E+00  0.00000000E+00  0.00000000E+00
  0.00000000E+00  0.00000000E+00  0.00000000E+00
  0.00000000E+00  0.00000000E+00  0.00000000E+00
  0.00000000E+00  0.00000000E+00  0.00000000E+00
  0.00000000E+00  0.00000000E+00  0.00000000E+00
  0.00000000E+00  0.00000000E+00  0.00000000E+00
  0.00000000E+00  0.00000000E+00  0.00000000E+00
  0.00000000E+00  0.00000000E+00  0.00000000E+00
  0.00000000E+00  0.00000000E+00  0.00000000E+00
  0.00000000E+00  0.00000000E+00  0.00000000E+00
  0.00000000E+00  0.00000000E+00  0.00000000E+00
  0.00000000E+00  0.00000000E+00  0.00000000E+00
  0.00000000E+00  0.00000000E+00  0.00000000E+00
  0.00000000E+00  0.00000000E+00  0.00000000E+00
  0.00000000E+00  0.00000000E+00  0.00000000E+00
  0.00000000E+00  0.00000000E+00  0.00000000E+00
  0.00000000E+00  0.00000000E+00  0.00000000E+00
  0.00000000E+00  0.00000000E+00  0.00000000E+00
  0.00000000E+00  0.00000000E+00  0.00000000E+00
