Title                                   
   1.00000000000000     
     8.5490480000000009    0.0000000000000000    0.0000000000000000
     0.0000000000000000    8.5490480000000009    0.0000000000000000
     0.0000000000000000    0.0000000000000000   20.0000000000000000
    21     3     1
Selective dynamics
Direct
  0.9070626619606907  0.2093110229698663  0.0938657317746408   T   T   T
  0.9134703333144590  0.8024132855988353  0.0954906999995422   T   T   T
  0.1962564332052217  0.0816504506997083  0.0947977528262663   T   T   T
  0.0731705993901993  0.2021626157211157  0.0945692005965459   T   T   T
  0.1583704768649329  0.6480249421546591  0.0970524876942287   T   T   T
  0.0743259624813611  0.5018928384827982  0.0967126378797893   T   T   T
  0.1509528567612857  0.3526969504072898  0.0969141623776845   T   T   T
  0.0815734324814927  0.7972503386142467  0.0951837674487334   T   T   T
  0.4937350585194917  0.0846172955504698  0.0972907925401190   T   T   T
  0.3432571628929622  0.1606851858592693  0.0971416510285105   T   T   T
  0.4958002010568710  0.9160844476953844  0.0970538548837676   T   T   T
  0.3487039690454084  0.8346898513893867  0.0953024986466726   T   T   T
  0.7862474567494515  0.0899650954531091  0.0956593884989336   T   T   T
  0.6377608310155540  0.1699139330817154  0.0977133377629386   T   T   T
  0.7910001734873183  0.9211518118528831  0.0960289901939187   T   T   T
  0.8314067951304778  0.6539191106661073  0.0978272406856472   T   T   T
  0.8283373881819175  0.3607792905572402  0.0937622843714556   T   T   T
  0.6450830178674585  0.8362892118827514  0.0986131545984321   T   T   T
  0.3182563133146808  0.3288913375652486  0.1015650597030674   T   T   T
  0.3274739727406676  0.6706599166853749  0.0975262977392070   T   T   T
  0.6625754061116347  0.3419618582775383  0.0973143973112550   T   T   T
  0.9082198596043412  0.5060316542269296  0.0957866959421903   T   T   T
  0.6707417901471687  0.6733075584787445  0.1022485591274946   T   T   T
  0.1995393034230762  0.9145137280446928  0.0941814675948555   T   T   T
  0.4820905442518701  0.4859262680846479  0.1291028887740864   T   T   T
 
  0.00000000E+00  0.00000000E+00  0.00000000E+00
  0.00000000E+00  0.00000000E+00  0.00000000E+00
  0.00000000E+00  0.00000000E+00  0.00000000E+00
  0.00000000E+00  0.00000000E+00  0.00000000E+00
  0.00000000E+00  0.00000000E+00  0.00000000E+00
  0.00000000E+00  0.00000000E+00  0.00000000E+00
  0.00000000E+00  0.00000000E+00  0.00000000E+00
  0.00000000E+00  0.00000000E+00  0.00000000E+00
  0.00000000E+00  0.00000000E+00  0.00000000E+00
  0.00000000E+00  0.00000000E+00  0.00000000E+00
  0.00000000E+00  0.00000000E+00  0.00000000E+00
  0.00000000E+00  0.00000000E+00  0.00000000E+00
  0.00000000E+00  0.00000000E+00  0.00000000E+00
  0.00000000E+00  0.00000000E+00  0.00000000E+00
  0.00000000E+00  0.00000000E+00  0.00000000E+00
  0.00000000E+00  0.00000000E+00  0.00000000E+00
  0.00000000E+00  0.00000000E+00  0.00000000E+00
  0.00000000E+00  0.00000000E+00  0.00000000E+00
  0.00000000E+00  0.00000000E+00  0.00000000E+00
  0.00000000E+00  0.00000000E+00  0.00000000E+00
  0.00000000E+00  0.00000000E+00  0.00000000E+00
  0.00000000E+00  0.00000000E+00  0.00000000E+00
  0.00000000E+00  0.00000000E+00  0.00000000E+00
  0.00000000E+00  0.00000000E+00  0.00000000E+00
  0.00000000E+00  0.00000000E+00  0.00000000E+00
