Title                                   
   1.00000000000000     
     4.9440799999999996    0.0000000000000000    0.0000000000000000
     0.0000000000000000   17.1295089999999988    0.0000000000000000
     0.0000000000000000    0.0000000000000000   20.0000000000000000
    28     2     1
Selective dynamics
Direct
 -0.0047306414516226  0.1054414660849240  0.2929760348032963   T   T   T
  0.2432950655392667  0.1479252999260762  0.2943455772429182   T   T   T
  0.2403765422217932  0.2317944714919487  0.2988215625878103   T   T   T
 -0.0100452176944414  0.2738899543542109  0.3022144571003641   T   T   T
  0.0102137449175602  0.6012940855787142  0.3009597543061083   T   T   T
  0.2570603895808394  0.7270181186116281  0.2947291370490118   T   T   T
  0.0026322128692225  0.8532071417624838  0.2915658164298590   T   T   T
  0.2515621107062590  0.8955082847748602  0.2913524110986999   T   T   T
  0.2486325888978206  0.9794552782799194  0.2913301399273508   T   T   T
  0.0055823358151669  0.7691690928455492  0.2929783368158793   T   T   T
  0.4948054190375499  0.1057933417442907  0.2926335948958094   T   T   T
  0.7450610811984849  0.1476134629931263  0.2935600210440409   T   T   T
  0.7421111903686507  0.2314842938588928  0.2970110699872786   T   T   T
  0.4975906576734625  0.0217537996391838  0.2914159792812417   T   T   T
  0.7432275751573069  0.3949565310465323  0.3092036963026942   T   T   T
  0.7570981977415391  0.4799922069171951  0.3096748470456673   T   T   T
  0.4902739884766538  0.2735542925037576  0.2997617067360058   T   T   T
  0.5104516123560734  0.6011736243408365  0.3021167473256349   T   T   T
  0.7554622794104450  0.7273189658794320  0.2939603485053341   T   T   T
  0.5023342780438760  0.8534333378244708  0.2916050619269410   T   T   T
  0.7515540198883502  0.8954528706926438  0.2911790038279820   T   T   T
  0.7486618496623377  0.9794981669073655  0.2911639910071177   T   T   T
  0.5051416967035087  0.7694780780581699  0.2931232008351737   T   T   T
  0.7585331021508215  0.6434651478195484  0.2975798298139932   T   T   T
  0.2599166671467585  0.6431687507045868  0.2992853198283138   T   T   T
 -0.0021023240418838  0.0215115609289952  0.2915608248263741   T   T   T
  0.0055680693985867  0.5189546694871040  0.3075357341563149   T   T   T
  0.4954594425942656  0.3559366661329499  0.3051717599332315   T   T   T
  0.5133449537326896  0.5206706417100416  0.3116698897278197   T   T   T
 -0.0129893182885761  0.3542738069792166  0.3127676550582092   T   T   T
  0.2539234301872361  0.4371545901213422  0.3518064905734739   T   T   T
 
  0.00000000E+00  0.00000000E+00  0.00000000E+00
  0.00000000E+00  0.00000000E+00  0.00000000E+00
  0.00000000E+00  0.00000000E+00  0.00000000E+00
  0.00000000E+00  0.00000000E+00  0.00000000E+00
  0.00000000E+00  0.00000000E+00  0.00000000E+00
  0.00000000E+00  0.00000000E+00  0.00000000E+00
  0.00000000E+00  0.00000000E+00  0.00000000E+00
  0.00000000E+00  0.00000000E+00  0.00000000E+00
  0.00000000E+00  0.00000000E+00  0.00000000E+00
  0.00000000E+00  0.00000000E+00  0.00000000E+00
  0.00000000E+00  0.00000000E+00  0.00000000E+00
  0.00000000E+00  0.00000000E+00  0.00000000E+00
  0.00000000E+00  0.00000000E+00  0.00000000E+00
  0.00000000E+00  0.00000000E+00  0.00000000E+00
  0.00000000E+00  0.00000000E+00  0.00000000E+00
  0.00000000E+00  0.00000000E+00  0.00000000E+00
  0.00000000E+00  0.00000000E+00  0.00000000E+00
  0.00000000E+00  0.00000000E+00  0.00000000E+00
  0.00000000E+00  0.00000000E+00  0.00000000E+00
  0.00000000E+00  0.00000000E+00  0.00000000E+00
  0.00000000E+00  0.00000000E+00  0.00000000E+00
  0.00000000E+00  0.00000000E+00  0.00000000E+00
  0.00000000E+00  0.00000000E+00  0.00000000E+00
  0.00000000E+00  0.00000000E+00  0.00000000E+00
  0.00000000E+00  0.00000000E+00  0.00000000E+00
  0.00000000E+00  0.00000000E+00  0.00000000E+00
  0.00000000E+00  0.00000000E+00  0.00000000E+00
  0.00000000E+00  0.00000000E+00  0.00000000E+00
  0.00000000E+00  0.00000000E+00  0.00000000E+00
  0.00000000E+00  0.00000000E+00  0.00000000E+00
  0.00000000E+00  0.00000000E+00  0.00000000E+00
