Title                                   
   1.00000000000000     
     9.8694509999999998    0.0000000000000000    0.0000000000000000
     0.0000000000000000    8.5490480000000009    0.0000000000000000
     0.0000000000000000    0.0000000000000000   20.0000000000000000
    29     1     1
Selective dynamics
Direct
  0.0554081247583185  0.0885088254730466  0.0907730062698223   T   T   T
  0.9305737361425860  0.1726626313162238  0.0860397489743564   T   T   T
  0.0559723468574016  0.9221994520139130  0.0914494420893337   T   T   T
  0.9325246150203137  0.3390512860178496  0.0873750062928880   T   T   T
  0.0558144778277811  0.5893920436662633  0.0937444875691682   T   T   T
  0.9324386051766129  0.6738244277398364  0.0902517987316820   T   T   T
  0.0556382292857620  0.4225668871212825  0.0929715020085029   T   T   T
  0.9307838121867984  0.8401136821137668  0.0882008375872396   T   T   T
  0.3058778178076155  0.0899385526523325  0.0995102269751080   T   T   T
  0.1795299431214455  0.1706632262430577  0.0962966912375128   T   T   T
  0.3072253030507988  0.9208268164239994  0.0993560249492808   T   T   T
  0.1790068228425521  0.3373742968447972  0.0976191426141505   T   T   T
  0.3030518403767445  0.5873688936434525  0.1049856828436325   T   T   T
  0.1800595950704856  0.6719201137186306  0.0981174757190297   T   T   T
  0.3012411691959451  0.4192204152278183  0.1054134493061114   T   T   T
  0.1810799689320441  0.8390547516525245  0.0967020160260369   T   T   T
  0.5530904019711570  0.0930622684638883  0.0947976058009676   T   T   T
  0.4285234561951795  0.1794130148642124  0.1028488823744768   T   T   T
  0.5537177466114225  0.9247501142962229  0.0951272760352503   T   T   T
  0.4297821042549791  0.6646117387173303  0.1096267425263232   T   T   T
  0.4316568367995378  0.8336764282333031  0.1022630496517223   T   T   T
  0.8048759312140479  0.0907331768594862  0.0833782300611136   T   T   T
  0.6788004217299555  0.1748028235062654  0.0840935140436067   T   T   T
  0.8050507035076963  0.9240594499775134  0.0846868944096936   T   T   T
  0.6833151502156578  0.3395185143369224  0.0804169664197186   T   T   T
  0.8075881990882126  0.5917765321364018  0.0860228515174009   T   T   T
  0.6832177623583072  0.6769622394614088  0.0867806642069389   T   T   T
  0.8080727933532268  0.4219928261664835  0.0824715893336850   T   T   T
  0.6793377864545485  0.8425645101043491  0.0864915173027092   T   T   T
  0.4239256530738916  0.3429157808084614  0.1116733025953578   T   T   T
  0.5859536455189683  0.5053492801989690  0.1314793745272212   T   T   T
 
  0.00000000E+00  0.00000000E+00  0.00000000E+00
  0.00000000E+00  0.00000000E+00  0.00000000E+00
  0.00000000E+00  0.00000000E+00  0.00000000E+00
  0.00000000E+00  0.00000000E+00  0.00000000E+00
  0.00000000E+00  0.00000000E+00  0.00000000E+00
  0.00000000E+00  0.00000000E+00  0.00000000E+00
  0.00000000E+00  0.00000000E+00  0.00000000E+00
  0.00000000E+00  0.00000000E+00  0.00000000E+00
  0.00000000E+00  0.00000000E+00  0.00000000E+00
  0.00000000E+00  0.00000000E+00  0.00000000E+00
  0.00000000E+00  0.00000000E+00  0.00000000E+00
  0.00000000E+00  0.00000000E+00  0.00000000E+00
  0.00000000E+00  0.00000000E+00  0.00000000E+00
  0.00000000E+00  0.00000000E+00  0.00000000E+00
  0.00000000E+00  0.00000000E+00  0.00000000E+00
  0.00000000E+00  0.00000000E+00  0.00000000E+00
  0.00000000E+00  0.00000000E+00  0.00000000E+00
  0.00000000E+00  0.00000000E+00  0.00000000E+00
  0.00000000E+00  0.00000000E+00  0.00000000E+00
  0.00000000E+00  0.00000000E+00  0.00000000E+00
  0.00000000E+00  0.00000000E+00  0.00000000E+00
  0.00000000E+00  0.00000000E+00  0.00000000E+00
  0.00000000E+00  0.00000000E+00  0.00000000E+00
  0.00000000E+00  0.00000000E+00  0.00000000E+00
  0.00000000E+00  0.00000000E+00  0.00000000E+00
  0.00000000E+00  0.00000000E+00  0.00000000E+00
  0.00000000E+00  0.00000000E+00  0.00000000E+00
  0.00000000E+00  0.00000000E+00  0.00000000E+00
  0.00000000E+00  0.00000000E+00  0.00000000E+00
  0.00000000E+00  0.00000000E+00  0.00000000E+00
  0.00000000E+00  0.00000000E+00  0.00000000E+00
