Title                                   
   1.00000000000000     
     9.8694509999999998    0.0000000000000000    0.0000000000000000
     0.0000000000000000    8.5490480000000009    0.0000000000000000
     0.0000000000000000    0.0000000000000000   20.0000000000000000
    29     2     1
Selective dynamics
Direct
  0.0564097486302003  0.0912637068692533  0.0824298055013574   T   T   T
  0.9311030505563977  0.1735339495139314  0.0845005572065594   T   T   T
  0.0557022094426282  0.9240727535918718  0.0824015337949783   T   T   T
  0.9303718609014537  0.3398760472906314  0.0881137548141576   T   T   T
  0.0566839535152434  0.5891853215450386  0.0851764057184569   T   T   T
  0.9324020909477709  0.6726850697126039  0.0878772879880832   T   T   T
  0.0568435942941535  0.4231458819146363  0.0866269406042983   T   T   T
  0.9314440114771511  0.8397556215042521  0.0853320862207702   T   T   T
  0.3057663627742094  0.0901699717329011  0.0858895356335823   T   T   T
  0.1818451628803624  0.1745245874228566  0.0844704926263186   T   T   T
  0.3045846529895722  0.9240253036953153  0.0882522681486173   T   T   T
  0.1835664647650943  0.3416038587269557  0.0879217399774520   T   T   T
  0.3039583860573523  0.5936080989866658  0.0983185202942775   T   T   T
  0.1806033800447900  0.6740005872597649  0.0871701183909846   T   T   T
  0.3097432708305258  0.4251174892154479  0.0963235497728780   T   T   T
  0.1799488138974853  0.8408433483187403  0.0853588149876690   T   T   T
  0.5556025197117964  0.0851184008139396  0.0935367570673190   T   T   T
  0.4313410230719917  0.1705537034845337  0.0911548505161173   T   T   T
  0.5552043312974184  0.9195113094621581  0.0993229667875120   T   T   T
  0.4334458039868907  0.3346731847891211  0.0996327070715675   T   T   T
  0.4260784124920848  0.8405648685297875  0.1001854630937496   T   T   T
  0.8068596312484562  0.0892023347276066  0.0862235118092564   T   T   T
  0.6811793734735778  0.1691565023745759  0.0919097024863714   T   T   T
  0.8066385632993296  0.9231911749457974  0.0884303810097310   T   T   T
  0.6805705388022039  0.3331099392881040  0.1007619337807584   T   T   T
  0.8099700159535835  0.5899161885218325  0.1003766526755392   T   T   T
  0.6946685359974363  0.6803760957399634  0.1180717870808855   T   T   T
  0.8051816645388925  0.4220581827829801  0.0975228751669961   T   T   T
  0.6839734044394393  0.8409249537740651  0.1010969102457361   T   T   T
  0.4162723885227688  0.6829113349817879  0.1155322517704983   T   T   T
  0.5569371958364242  0.4029125357279286  0.1161877620210447   T   T   T
  0.5547385833233223  0.5886536927549604  0.1695650757365109   T   T   T
 
  0.00000000E+00  0.00000000E+00  0.00000000E+00
  0.00000000E+00  0.00000000E+00  0.00000000E+00
  0.00000000E+00  0.00000000E+00  0.00000000E+00
  0.00000000E+00  0.00000000E+00  0.00000000E+00
  0.00000000E+00  0.00000000E+00  0.00000000E+00
  0.00000000E+00  0.00000000E+00  0.00000000E+00
  0.00000000E+00  0.00000000E+00  0.00000000E+00
  0.00000000E+00  0.00000000E+00  0.00000000E+00
  0.00000000E+00  0.00000000E+00  0.00000000E+00
  0.00000000E+00  0.00000000E+00  0.00000000E+00
  0.00000000E+00  0.00000000E+00  0.00000000E+00
  0.00000000E+00  0.00000000E+00  0.00000000E+00
  0.00000000E+00  0.00000000E+00  0.00000000E+00
  0.00000000E+00  0.00000000E+00  0.00000000E+00
  0.00000000E+00  0.00000000E+00  0.00000000E+00
  0.00000000E+00  0.00000000E+00  0.00000000E+00
  0.00000000E+00  0.00000000E+00  0.00000000E+00
  0.00000000E+00  0.00000000E+00  0.00000000E+00
  0.00000000E+00  0.00000000E+00  0.00000000E+00
  0.00000000E+00  0.00000000E+00  0.00000000E+00
  0.00000000E+00  0.00000000E+00  0.00000000E+00
  0.00000000E+00  0.00000000E+00  0.00000000E+00
  0.00000000E+00  0.00000000E+00  0.00000000E+00
  0.00000000E+00  0.00000000E+00  0.00000000E+00
  0.00000000E+00  0.00000000E+00  0.00000000E+00
  0.00000000E+00  0.00000000E+00  0.00000000E+00
  0.00000000E+00  0.00000000E+00  0.00000000E+00
  0.00000000E+00  0.00000000E+00  0.00000000E+00
  0.00000000E+00  0.00000000E+00  0.00000000E+00
  0.00000000E+00  0.00000000E+00  0.00000000E+00
  0.00000000E+00  0.00000000E+00  0.00000000E+00
  0.00000000E+00  0.00000000E+00  0.00000000E+00
