Title                                   
   1.00000000000000     
     9.8694509999999998    0.0000000000000000    0.0000000000000000
     0.0000000000000000    8.5490480000000009    0.0000000000000000
     0.0000000000000000    0.0000000000000000   20.0000000000000000
    26     5     1
Selective dynamics
Direct
  0.0547581051985099  0.0913202060536709  0.0908868467089822   T   T   T
  0.9290002700935652  0.1733206631320441  0.0915267200119136   T   T   T
  0.0555039218027758  0.9240869441807698  0.0920127021879005   T   T   T
  0.9275262777304319  0.3413020665957827  0.0930800864468000   T   T   T
  0.0550471464976749  0.5900640647178740  0.0904320026437284   T   T   T
  0.9300572335925940  0.6727657906860948  0.0953265074366761   T   T   T
  0.0553702495926704  0.4227532606785143  0.0904857218853092   T   T   T
  0.9311327982557506  0.8392009282003402  0.0950842466920410   T   T   T
  0.3048857780494901  0.0873248547712324  0.0904021760345880   T   T   T
  0.1816069943396205  0.1734923043113787  0.0894444957689383   T   T   T
  0.1827527949312799  0.3411306292097702  0.0878627147545865   T   T   T
  0.3074450855908966  0.5926373507237032  0.0851312919826520   T   T   T
  0.1802620726006363  0.6738848843655068  0.0884003269183069   T   T   T
  0.3097533135270100  0.4239220240453320  0.0849658352816206   T   T   T
  0.1795938686893359  0.8406068206054893  0.0902736396542365   T   T   T
  0.5537875640537038  0.0815128256760968  0.0934001300653654   T   T   T
  0.5530148806554913  0.9160625694401546  0.0975044734262208   T   T   T
  0.4360504226727319  0.3348991541962575  0.0866013051666893   T   T   T
  0.4255058715248871  0.8320823010863726  0.0906658874182683   T   T   T
  0.8041268969756904  0.0869245367552632  0.0928699389382145   T   T   T
  0.6779609206488503  0.1679808202133276  0.0933600084953263   T   T   T
  0.8053022590060559  0.9212182878566265  0.0959216912306758   T   T   T
  0.6748893882660885  0.3344908415133512  0.0936350161017341   T   T   T
  0.8043006811257881  0.5920733065599494  0.1045255088334794   T   T   T
  0.8001421730433910  0.4236581055953657  0.0979221165453100   T   T   T
  0.6819207118368119  0.8359060134098149  0.1047124057968376   T   T   T
  0.4231233258121216  0.6798402078585081  0.0853460072784044   T   T   T
  0.5533170002179745  0.4076911703361107  0.0884590611243518   T   T   T
  0.6906100366151999  0.6790382887749560  0.1210970117267590   T   T   T
  0.3037244790683571  0.9245099772731422  0.0907791138062654   T   T   T
  0.4290178939148470  0.1649732424175761  0.0901926758542341   T   T   T
  0.5981485840697732  0.6195715587596253  0.2033673337836002   T   T   T
 
  0.00000000E+00  0.00000000E+00  0.00000000E+00
  0.00000000E+00  0.00000000E+00  0.00000000E+00
  0.00000000E+00  0.00000000E+00  0.00000000E+00
  0.00000000E+00  0.00000000E+00  0.00000000E+00
  0.00000000E+00  0.00000000E+00  0.00000000E+00
  0.00000000E+00  0.00000000E+00  0.00000000E+00
  0.00000000E+00  0.00000000E+00  0.00000000E+00
  0.00000000E+00  0.00000000E+00  0.00000000E+00
  0.00000000E+00  0.00000000E+00  0.00000000E+00
  0.00000000E+00  0.00000000E+00  0.00000000E+00
  0.00000000E+00  0.00000000E+00  0.00000000E+00
  0.00000000E+00  0.00000000E+00  0.00000000E+00
  0.00000000E+00  0.00000000E+00  0.00000000E+00
  0.00000000E+00  0.00000000E+00  0.00000000E+00
  0.00000000E+00  0.00000000E+00  0.00000000E+00
  0.00000000E+00  0.00000000E+00  0.00000000E+00
  0.00000000E+00  0.00000000E+00  0.00000000E+00
  0.00000000E+00  0.00000000E+00  0.00000000E+00
  0.00000000E+00  0.00000000E+00  0.00000000E+00
  0.00000000E+00  0.00000000E+00  0.00000000E+00
  0.00000000E+00  0.00000000E+00  0.00000000E+00
  0.00000000E+00  0.00000000E+00  0.00000000E+00
  0.00000000E+00  0.00000000E+00  0.00000000E+00
  0.00000000E+00  0.00000000E+00  0.00000000E+00
  0.00000000E+00  0.00000000E+00  0.00000000E+00
  0.00000000E+00  0.00000000E+00  0.00000000E+00
  0.00000000E+00  0.00000000E+00  0.00000000E+00
  0.00000000E+00  0.00000000E+00  0.00000000E+00
  0.00000000E+00  0.00000000E+00  0.00000000E+00
  0.00000000E+00  0.00000000E+00  0.00000000E+00
  0.00000000E+00  0.00000000E+00  0.00000000E+00
  0.00000000E+00  0.00000000E+00  0.00000000E+00
