Title                                   
   1.00000000000000     
     4.9440799999999996    0.0000000000000000    0.0000000000000000
     0.0000000000000000   17.1295089999999988    0.0000000000000000
     0.0000000000000000    0.0000000000000000   20.0000000000000000
    29     1     1
Selective dynamics
Direct
 -0.0006603905143822  0.1048204860399628  0.2911617817992829   T   T   T
  0.2481151510543077  0.1472699650751957  0.2944516060536795   T   T   T
  0.2480214737825226  0.2302962964810667  0.3016834693078472   T   T   T
 -0.0044426358446759  0.2723023036811403  0.3019901038759519   T   T   T
  0.0025646106405107  0.6035531156557182  0.2993561166562688   T   T   T
  0.2526955158749165  0.7284302828558892  0.2935197304732786   T   T   T
  0.0013671794190675  0.8541553082491464  0.2890139602442829   T   T   T
  0.2509781699654018  0.8961435109050495  0.2888033715308851   T   T   T
  0.2501571785425991  0.9794230845362282  0.2886702027771689   T   T   T
  0.0021563235620473  0.7707219997914349  0.2909237232164689   T   T   T
  0.4987006766116041  0.1049548617882108  0.2920631378042284   T   T   T
  0.7492851550658559  0.1462498788227563  0.2931479943042336   T   T   T
  0.7478577085579807  0.2294406389359817  0.2987984334515154   T   T   T
  0.4996611450070867  0.0215305793516893  0.2892944855026157   T   T   T
  0.7514534840345071  0.3911204018359674  0.3121337330872636   T   T   T
  0.7569143820262361  0.4792980807418935  0.3104587348649037   T   T   T
  0.4999077802632802  0.2712482200634645  0.3069710558983818   T   T   T
  0.5053271779191081  0.6031470046909134  0.3041184825860960   T   T   T
  0.7523806384505678  0.7292513582050481  0.2926990983622592   T   T   T
  0.5013474131764827  0.8541680211560236  0.2894939466577298   T   T   T
  0.7511055691453075  0.8960189212659240  0.2885298772843637   T   T   T
  0.7502066795226199  0.9796632038327298  0.2883919819122610   T   T   T
  0.5023020837760113  0.7709047360915562  0.2918814949264846   T   T   T
  0.7530975516061967  0.6459196801987885  0.2974532540816154   T   T   T
  0.2536400612026161  0.6456784886748547  0.2989477410686514   T   T   T
  0.0000856092127041  0.0213953848941840  0.2888172591589550   T   T   T
  0.5097799412983864  0.5217142477688154  0.3160816108937921   T   T   T
 -0.0011079141351522  0.5213087008626084  0.3031010057383585   T   T   T
  0.5075226457331269  0.3523773525459043  0.3206054147195286   T   T   T
 -0.0094103211241467  0.3523793462032303  0.3049337436140846   T   T   T
  0.2289969561673060  0.4364565387986212  0.3575634481475145   T   T   T
 
  0.00000000E+00  0.00000000E+00  0.00000000E+00
  0.00000000E+00  0.00000000E+00  0.00000000E+00
  0.00000000E+00  0.00000000E+00  0.00000000E+00
  0.00000000E+00  0.00000000E+00  0.00000000E+00
  0.00000000E+00  0.00000000E+00  0.00000000E+00
  0.00000000E+00  0.00000000E+00  0.00000000E+00
  0.00000000E+00  0.00000000E+00  0.00000000E+00
  0.00000000E+00  0.00000000E+00  0.00000000E+00
  0.00000000E+00  0.00000000E+00  0.00000000E+00
  0.00000000E+00  0.00000000E+00  0.00000000E+00
  0.00000000E+00  0.00000000E+00  0.00000000E+00
  0.00000000E+00  0.00000000E+00  0.00000000E+00
  0.00000000E+00  0.00000000E+00  0.00000000E+00
  0.00000000E+00  0.00000000E+00  0.00000000E+00
  0.00000000E+00  0.00000000E+00  0.00000000E+00
  0.00000000E+00  0.00000000E+00  0.00000000E+00
  0.00000000E+00  0.00000000E+00  0.00000000E+00
  0.00000000E+00  0.00000000E+00  0.00000000E+00
  0.00000000E+00  0.00000000E+00  0.00000000E+00
  0.00000000E+00  0.00000000E+00  0.00000000E+00
  0.00000000E+00  0.00000000E+00  0.00000000E+00
  0.00000000E+00  0.00000000E+00  0.00000000E+00
  0.00000000E+00  0.00000000E+00  0.00000000E+00
  0.00000000E+00  0.00000000E+00  0.00000000E+00
  0.00000000E+00  0.00000000E+00  0.00000000E+00
  0.00000000E+00  0.00000000E+00  0.00000000E+00
  0.00000000E+00  0.00000000E+00  0.00000000E+00
  0.00000000E+00  0.00000000E+00  0.00000000E+00
  0.00000000E+00  0.00000000E+00  0.00000000E+00
  0.00000000E+00  0.00000000E+00  0.00000000E+00
  0.00000000E+00  0.00000000E+00  0.00000000E+00
