Title                                   
   1.00000000000000     
     8.5490480000000009    0.0000000000000000    0.0000000000000000
     0.0000000000000000    8.5490480000000009    0.0000000000000000
     0.0000000000000000    0.0000000000000000   20.0000000000000000
    22     2     1
Selective dynamics
Direct
  0.9104792633886256  0.2051609401829344  0.0978678908960076   T   T   T
  0.9067432112518510  0.5041103064182283  0.0979355449985029   T   T   T
  0.9115097164447098  0.8023545505334909  0.0977874289620795   T   T   T
  0.1984085414108646  0.0816605076094724  0.0980871054725337   T   T   T
  0.0740893668080138  0.2028243502854104  0.0980504254091388   T   T   T
  0.1572229388321000  0.6498452754516172  0.0978826096404817   T   T   T
  0.0751178205904398  0.5032701912182316  0.0979506128959511   T   T   T
  0.1576226660032453  0.3556566176104814  0.0980693839609916   T   T   T
  0.0784613123708584  0.7993407546147114  0.0978723838662970   T   T   T
  0.4935570739784543  0.0832714060052919  0.0979378441153081   T   T   T
  0.3454565692920897  0.1627756672714208  0.0980743696381271   T   T   T
  0.4930083255791995  0.9149750947060169  0.0979641501735058   T   T   T
  0.3465352366763945  0.8334734589773216  0.0980144532443875   T   T   T
  0.7879099036904972  0.0846569015570306  0.0977488812804126   T   T   T
  0.6392392684797955  0.1649546781458480  0.0978334168342076   T   T   T
  0.7899502361744735  0.9201718507897642  0.0977626321984026   T   T   T
  0.8289738386410361  0.6536806403503774  0.0979104054989590   T   T   T
  0.8261947613665515  0.3571670468446010  0.0979028298170432   T   T   T
  0.6415765711153518  0.8355533314755906  0.0979158698345771   T   T   T
  0.3219744579342516  0.3323506664670414  0.0980907895968973   T   T   T
  0.3229259184807927  0.6707129464196163  0.0979360971520519   T   T   T
  0.6618541365836834  0.3326714188146641  0.0978963947392727   T   T   T
  0.6670788436262101  0.6756967806972526  0.0980651442532482   T   T   T
  0.1975050367278015  0.9169471879570136  0.0980730095178103   T   T   T
  0.4920169845527033  0.5015074295965845  0.0980753260037876   T   T   T
 
  0.00000000E+00  0.00000000E+00  0.00000000E+00
  0.00000000E+00  0.00000000E+00  0.00000000E+00
  0.00000000E+00  0.00000000E+00  0.00000000E+00
  0.00000000E+00  0.00000000E+00  0.00000000E+00
  0.00000000E+00  0.00000000E+00  0.00000000E+00
  0.00000000E+00  0.00000000E+00  0.00000000E+00
  0.00000000E+00  0.00000000E+00  0.00000000E+00
  0.00000000E+00  0.00000000E+00  0.00000000E+00
  0.00000000E+00  0.00000000E+00  0.00000000E+00
  0.00000000E+00  0.00000000E+00  0.00000000E+00
  0.00000000E+00  0.00000000E+00  0.00000000E+00
  0.00000000E+00  0.00000000E+00  0.00000000E+00
  0.00000000E+00  0.00000000E+00  0.00000000E+00
  0.00000000E+00  0.00000000E+00  0.00000000E+00
  0.00000000E+00  0.00000000E+00  0.00000000E+00
  0.00000000E+00  0.00000000E+00  0.00000000E+00
  0.00000000E+00  0.00000000E+00  0.00000000E+00
  0.00000000E+00  0.00000000E+00  0.00000000E+00
  0.00000000E+00  0.00000000E+00  0.00000000E+00
  0.00000000E+00  0.00000000E+00  0.00000000E+00
  0.00000000E+00  0.00000000E+00  0.00000000E+00
  0.00000000E+00  0.00000000E+00  0.00000000E+00
  0.00000000E+00  0.00000000E+00  0.00000000E+00
  0.00000000E+00  0.00000000E+00  0.00000000E+00
  0.00000000E+00  0.00000000E+00  0.00000000E+00
