Title                                   
   1.00000000000000     
     4.9440799999999996    0.0000000000000000    0.0000000000000000
     0.0000000000000000    8.5647549999999999    0.0000000000000000
     0.0000000000000000    0.0000000000000000   20.0000000000000000
    14     1
Selective dynamics
Direct
  0.2500000000000000  0.2069558165864632  0.0957908638230116   T   T   T
 -0.0005597853945569  0.2925077748388115  0.0960708651031871   T   T   T
  0.2500000000000000  0.0426116220432734  0.0958288030958759   T   T   T
 -0.0005502328059683  0.9570576356367175  0.0961572357162698   T   T   T
  0.7500000000000000  0.2083139075953860  0.0933102448598704   T   T   T
  0.5005597853945570  0.2925077748388115  0.0960708651031871   T   T   T
  0.7500000000000000  0.0412561719674934  0.0933592987958223   T   T   T
  0.7500000000000000  0.7114940373862809  0.1009332167795113   T   T   T
  0.7500000000000000  0.5380881422377159  0.1008698597720004   T   T   T
  0.5005502328059682  0.9570576356367175  0.0961572357162698   T   T   T
  0.5031668588711391  0.4569995799993846  0.1008453529269402   T   T   T
 -0.0031668588711390  0.4569995799993846  0.1008453529269402   T   T   T
 -0.0031546094258958  0.7925589002361668  0.1009557414250640   T   T   T
  0.5031546094258958  0.7925589002361668  0.1009557414250640   T   T   T
  0.2500000000000000  0.6247135207612281  0.1398293225309893   T   T   T
 
  0.00000000E+00  0.00000000E+00  0.00000000E+00
  0.00000000E+00  0.00000000E+00  0.00000000E+00
  0.00000000E+00  0.00000000E+00  0.00000000E+00
  0.00000000E+00  0.00000000E+00  0.00000000E+00
  0.00000000E+00  0.00000000E+00  0.00000000E+00
  0.00000000E+00  0.00000000E+00  0.00000000E+00
  0.00000000E+00  0.00000000E+00  0.00000000E+00
  0.00000000E+00  0.00000000E+00  0.00000000E+00
  0.00000000E+00  0.00000000E+00  0.00000000E+00
  0.00000000E+00  0.00000000E+00  0.00000000E+00
  0.00000000E+00  0.00000000E+00  0.00000000E+00
  0.00000000E+00  0.00000000E+00  0.00000000E+00
  0.00000000E+00  0.00000000E+00  0.00000000E+00
  0.00000000E+00  0.00000000E+00  0.00000000E+00
  0.00000000E+00  0.00000000E+00  0.00000000E+00
