Title                                   
   1.00000000000000     
     8.5490480000000009    0.0000000000000000    0.0000000000000000
     0.0000000000000000    8.5490480000000009    0.0000000000000000
     0.0000000000000000    0.0000000000000000   20.0000000000000000
    22     2     1
Selective dynamics
Direct
  0.9108851501272921  0.2057389149952889  0.0978061951963790   T   T   T
  0.9064077806265619  0.5042703123989384  0.0979087053620177   T   T   T
  0.9115892214253151  0.8022997241684793  0.0977018667633931   T   T   T
  0.1989440121443961  0.0816113013221215  0.0980179228037043   T   T   T
  0.0741761013027175  0.2038248399389321  0.0979800239781789   T   T   T
  0.1564008851635728  0.6501580762899151  0.0979017012759753   T   T   T
  0.0749904546152207  0.5035325706344470  0.0979382578119100   T   T   T
  0.1570626673813489  0.3564030342321091  0.0980811131274876   T   T   T
  0.0782243556504141  0.7996649371722251  0.0978137650443196   T   T   T
  0.4939225585465508  0.0826471684765317  0.0979723302194773   T   T   T
  0.3460880691386106  0.1624990154193349  0.0980889476094202   T   T   T
  0.4932109782360473  0.9149144352966064  0.0979692381100486   T   T   T
  0.3467820943518002  0.8335444902658632  0.0980681568285044   T   T   T
  0.7882319394534270  0.0843965935138550  0.0976749990500830   T   T   T
  0.6395121836442864  0.1639938280419740  0.0978471043996291   T   T   T
  0.7900538306668322  0.9203699300448709  0.0976953491258366   T   T   T
  0.8295083447383449  0.6538124668479927  0.0978774376872948   T   T   T
  0.8264949384472705  0.3574506657686376  0.0979228140341250   T   T   T
  0.6415297472510458  0.8360862092359005  0.0979296945376134   T   T   T
  0.3206050450736442  0.3307675976432398  0.0981319517318628   T   T   T
  0.3211854781141703  0.6719024909699108  0.0980734389367499   T   T   T
  0.6627317949134165  0.3306444773927633  0.0979729137327741   T   T   T
  0.6681060150127420  0.6772370952603235  0.0981177527748125   T   T   T
  0.1975014983941304  0.9174389988050961  0.0980301774613964   T   T   T
  0.4912668555808350  0.4995808258646563  0.0981831423969888   T   T   T
 
  0.00000000E+00  0.00000000E+00  0.00000000E+00
  0.00000000E+00  0.00000000E+00  0.00000000E+00
  0.00000000E+00  0.00000000E+00  0.00000000E+00
  0.00000000E+00  0.00000000E+00  0.00000000E+00
  0.00000000E+00  0.00000000E+00  0.00000000E+00
  0.00000000E+00  0.00000000E+00  0.00000000E+00
  0.00000000E+00  0.00000000E+00  0.00000000E+00
  0.00000000E+00  0.00000000E+00  0.00000000E+00
  0.00000000E+00  0.00000000E+00  0.00000000E+00
  0.00000000E+00  0.00000000E+00  0.00000000E+00
  0.00000000E+00  0.00000000E+00  0.00000000E+00
  0.00000000E+00  0.00000000E+00  0.00000000E+00
  0.00000000E+00  0.00000000E+00  0.00000000E+00
  0.00000000E+00  0.00000000E+00  0.00000000E+00
  0.00000000E+00  0.00000000E+00  0.00000000E+00
  0.00000000E+00  0.00000000E+00  0.00000000E+00
  0.00000000E+00  0.00000000E+00  0.00000000E+00
  0.00000000E+00  0.00000000E+00  0.00000000E+00
  0.00000000E+00  0.00000000E+00  0.00000000E+00
  0.00000000E+00  0.00000000E+00  0.00000000E+00
  0.00000000E+00  0.00000000E+00  0.00000000E+00
  0.00000000E+00  0.00000000E+00  0.00000000E+00
  0.00000000E+00  0.00000000E+00  0.00000000E+00
  0.00000000E+00  0.00000000E+00  0.00000000E+00
  0.00000000E+00  0.00000000E+00  0.00000000E+00
