Title                                   
   1.00000000000000     
     9.8694509999999998    0.0000000000000000    0.0000000000000000
     0.0000000000000000    8.5490480000000009    0.0000000000000000
     0.0000000000000000    0.0000000000000000   20.0000000000000000
    29     1     1
Selective dynamics
Direct
  0.0558449551512236  0.0882750756393846  0.0877528712687070   T   T   T
  0.9309175967979308  0.1724047654099926  0.0884865354358320   T   T   T
  0.0566286245693797  0.9224312406251780  0.0879404065552298   T   T   T
  0.9327478964749940  0.3391231924390977  0.0891177327828290   T   T   T
  0.0568804678734852  0.5892955275344854  0.0886023782683265   T   T   T
  0.9329641607066368  0.6739564140745412  0.0898400126592036   T   T   T
  0.0565753293168233  0.4229414855616418  0.0883875692576217   T   T   T
  0.9313887726009746  0.8404010575609135  0.0891290772979807   T   T   T
  0.3056307778377198  0.0894775124676129  0.0923614529560911   T   T   T
  0.1802512878829248  0.1709683640871276  0.0895837908720566   T   T   T
  0.3069733226846728  0.9216084451586294  0.0921569356409654   T   T   T
  0.1798179430572627  0.3377511803549223  0.0900931419816134   T   T   T
  0.3055057954988447  0.5879895826225842  0.0949861566333107   T   T   T
  0.1812382836756773  0.6716859341790374  0.0901795267425259   T   T   T
  0.3031970756597630  0.4183913304711239  0.0953279305060462   T   T   T
  0.1818861860234418  0.8388620723445004  0.0895346877328339   T   T   T
  0.5547847571390875  0.0924531896886966  0.0984563481756851   T   T   T
  0.4283801027609783  0.1775135334130522  0.0978873032724688   T   T   T
  0.5553610581089492  0.9248353006510787  0.0986796215584942   T   T   T
  0.4298336207644761  0.6691957107931898  0.1006877771711458   T   T   T
  0.4313675703672454  0.8359787927773118  0.0973465570154229   T   T   T
  0.8055712302998693  0.0908313285252713  0.0907736798215427   T   T   T
  0.6809385449543496  0.1777900000895739  0.0956922887951761   T   T   T
  0.8058581665277205  0.9234531220639414  0.0913484415688607   T   T   T
  0.6849602931413903  0.3428454089616434  0.0979541167587120   T   T   T
  0.8092794437871480  0.5919722790932933  0.0943845569807424   T   T   T
  0.6849154304443319  0.6725670202525049  0.1011622510480766   T   T   T
  0.8094398245767711  0.4224472348063770  0.0931877979116569   T   T   T
  0.6813181546460214  0.8384216761657550  0.0970989548410017   T   T   T
  0.4239073211365474  0.3392036311028931  0.1020084420795610   T   T   T
  0.5587710055333709  0.5058035910846579  0.1408166564103209   T   T   T
 
  0.00000000E+00  0.00000000E+00  0.00000000E+00
  0.00000000E+00  0.00000000E+00  0.00000000E+00
  0.00000000E+00  0.00000000E+00  0.00000000E+00
  0.00000000E+00  0.00000000E+00  0.00000000E+00
  0.00000000E+00  0.00000000E+00  0.00000000E+00
  0.00000000E+00  0.00000000E+00  0.00000000E+00
  0.00000000E+00  0.00000000E+00  0.00000000E+00
  0.00000000E+00  0.00000000E+00  0.00000000E+00
  0.00000000E+00  0.00000000E+00  0.00000000E+00
  0.00000000E+00  0.00000000E+00  0.00000000E+00
  0.00000000E+00  0.00000000E+00  0.00000000E+00
  0.00000000E+00  0.00000000E+00  0.00000000E+00
  0.00000000E+00  0.00000000E+00  0.00000000E+00
  0.00000000E+00  0.00000000E+00  0.00000000E+00
  0.00000000E+00  0.00000000E+00  0.00000000E+00
  0.00000000E+00  0.00000000E+00  0.00000000E+00
  0.00000000E+00  0.00000000E+00  0.00000000E+00
  0.00000000E+00  0.00000000E+00  0.00000000E+00
  0.00000000E+00  0.00000000E+00  0.00000000E+00
  0.00000000E+00  0.00000000E+00  0.00000000E+00
  0.00000000E+00  0.00000000E+00  0.00000000E+00
  0.00000000E+00  0.00000000E+00  0.00000000E+00
  0.00000000E+00  0.00000000E+00  0.00000000E+00
  0.00000000E+00  0.00000000E+00  0.00000000E+00
  0.00000000E+00  0.00000000E+00  0.00000000E+00
  0.00000000E+00  0.00000000E+00  0.00000000E+00
  0.00000000E+00  0.00000000E+00  0.00000000E+00
  0.00000000E+00  0.00000000E+00  0.00000000E+00
  0.00000000E+00  0.00000000E+00  0.00000000E+00
  0.00000000E+00  0.00000000E+00  0.00000000E+00
  0.00000000E+00  0.00000000E+00  0.00000000E+00
