Title                                   
   1.00000000000000     
     4.9440799999999996    0.0000000000000000    0.0000000000000000
     0.0000000000000000   17.1295089999999988    0.0000000000000000
     0.0000000000000000    0.0000000000000000   20.0000000000000000
    27     3     1
Selective dynamics
Direct
 -0.0015634294400335  0.1059384998911553  0.2981996520124164   T   T   T
  0.2470614586701242  0.1491305382092735  0.2988642011459656   T   T   T
  0.2464844531923679  0.2331817733594123  0.3001843177923715   T   T   T
 -0.0037693768569138  0.2769194820502696  0.3008475988397792   T   T   T
  0.0035091935198488  0.6003245543242653  0.3011192588481619   T   T   T
  0.2536585500241093  0.7250019901492505  0.2990519148370271   T   T   T
  0.0023597428598553  0.8522043271572306  0.2974747601033287   T   T   T
  0.2508962734594604  0.8949976344257222  0.2971976952575686   T   T   T
  0.2500043689017030  0.9793562024397160  0.2971008426827074   T   T   T
  0.0032034593536574  0.7673995943037740  0.2984586781289447   T   T   T
  0.4985231622061283  0.1064661609478298  0.2982052853676124   T   T   T
  0.7491595265187331  0.1484663068547958  0.2988036005006516   T   T   T
  0.7475618550593688  0.2330308830768247  0.3001159179309694   T   T   T
  0.4994816563962443  0.0218893057108635  0.2972835686198979   T   T   T
  0.7474851196956652  0.3952681351942768  0.3020406758662892   T   T   T
  0.7521997768483742  0.4816005985196190  0.3021500461935523   T   T   T
  0.4970336733756031  0.2747967651009707  0.3006751683334243   T   T   T
  0.5044674928448294  0.5986448715379284  0.3007637019846911   T   T   T
  0.7516050722568797  0.7263526446506084  0.2990171512883948   T   T   T
  0.5001535203151614  0.8524766451280745  0.2974364759192982   T   T   T
  0.7509170938275682  0.8944938189968581  0.2971772857327685   T   T   T
  0.7498257390615767  0.9791766222526174  0.2970702431783515   T   T   T
  0.5014098674866188  0.7678137760565968  0.2983871643271373   T   T   T
  0.7535413557564138  0.6426855011083787  0.3003235866438210   T   T   T
 -0.0004317394454318  0.0216833276013425  0.2972866486917370   T   T   T
  0.0000863109105115  0.5184885676979836  0.3023555342450187   T   T   T
  0.5022829189741294  0.3577726925210329  0.3014765648338142   T   T   T
  0.5074105137634178  0.5188297558943357  0.3014785518546153   T   T   T
 -0.0088237625193677  0.3578794299805930  0.3020183680260077   T   T   T
  0.2545710769829988  0.6416643766796891  0.3002920279557306   T   T   T
  0.2497020760003997  0.4374072181787082  0.3022035128578968   T   T   T
 
  0.00000000E+00  0.00000000E+00  0.00000000E+00
  0.00000000E+00  0.00000000E+00  0.00000000E+00
  0.00000000E+00  0.00000000E+00  0.00000000E+00
  0.00000000E+00  0.00000000E+00  0.00000000E+00
  0.00000000E+00  0.00000000E+00  0.00000000E+00
  0.00000000E+00  0.00000000E+00  0.00000000E+00
  0.00000000E+00  0.00000000E+00  0.00000000E+00
  0.00000000E+00  0.00000000E+00  0.00000000E+00
  0.00000000E+00  0.00000000E+00  0.00000000E+00
  0.00000000E+00  0.00000000E+00  0.00000000E+00
  0.00000000E+00  0.00000000E+00  0.00000000E+00
  0.00000000E+00  0.00000000E+00  0.00000000E+00
  0.00000000E+00  0.00000000E+00  0.00000000E+00
  0.00000000E+00  0.00000000E+00  0.00000000E+00
  0.00000000E+00  0.00000000E+00  0.00000000E+00
  0.00000000E+00  0.00000000E+00  0.00000000E+00
  0.00000000E+00  0.00000000E+00  0.00000000E+00
  0.00000000E+00  0.00000000E+00  0.00000000E+00
  0.00000000E+00  0.00000000E+00  0.00000000E+00
  0.00000000E+00  0.00000000E+00  0.00000000E+00
  0.00000000E+00  0.00000000E+00  0.00000000E+00
  0.00000000E+00  0.00000000E+00  0.00000000E+00
  0.00000000E+00  0.00000000E+00  0.00000000E+00
  0.00000000E+00  0.00000000E+00  0.00000000E+00
  0.00000000E+00  0.00000000E+00  0.00000000E+00
  0.00000000E+00  0.00000000E+00  0.00000000E+00
  0.00000000E+00  0.00000000E+00  0.00000000E+00
  0.00000000E+00  0.00000000E+00  0.00000000E+00
  0.00000000E+00  0.00000000E+00  0.00000000E+00
  0.00000000E+00  0.00000000E+00  0.00000000E+00
  0.00000000E+00  0.00000000E+00  0.00000000E+00
