Title                                   
   1.00000000000000     
     8.5490480000000009    0.0000000000000000    0.0000000000000000
     0.0000000000000000    8.5490480000000009    0.0000000000000000
     0.0000000000000000    0.0000000000000000   20.0000000000000000
    21     3     1
Selective dynamics
Direct
  0.9067490482378473  0.2077606698418441  0.0978508525784222   T   T   T
  0.9090277096118180  0.5050338369526346  0.0973880843319606   T   T   T
  0.9173495991148374  0.8056850228130424  0.0975849070773952   T   T   T
  0.1930375625090341  0.0779472945994002  0.0976514355961506   T   T   T
  0.0703750465938017  0.1976767718808526  0.0975764398680052   T   T   T
  0.1620464724061156  0.6458563937171240  0.0983168101953718   T   T   T
  0.0780044924547607  0.4995664506901918  0.0977282972492432   T   T   T
  0.1551446468664846  0.3473841131412813  0.0974887782605612   T   T   T
  0.0821288652524233  0.7976419305401629  0.0980092987702558   T   T   T
  0.4899973670640385  0.0864790843330767  0.0976990845815758   T   T   T
  0.3372411204416607  0.1611576925240847  0.0975208840262042   T   T   T
  0.4936926870005656  0.9170366769930094  0.0973552017751500   T   T   T
  0.3485807366052285  0.8329969161986446  0.0981992607102871   T   T   T
  0.7859575435264364  0.0877952740882421  0.0978717269563827   T   T   T
  0.6346665238543435  0.1690742183168774  0.0981817465445468   T   T   T
  0.7937944488535081  0.9257733548794829  0.0975531444767278   T   T   T
  0.8339583599087044  0.6580110055670335  0.0967178266224178   T   T   T
  0.8261153503384384  0.3586240682072629  0.0980414464693615   T   T   T
  0.6456307543359844  0.8398070009383805  0.0966848804291399   T   T   T
  0.3261950192796616  0.6689918277533581  0.0990922074461350   T   T   T
  0.6595950296995206  0.3349949031423015  0.0992443804796896   T   T   T
  0.3116137090994812  0.3215363534798157  0.0972715914667667   T   T   T
  0.6745321676380019  0.6834344535480089  0.0953488862647469   T   T   T
  0.1991744462714760  0.9134068255452312  0.0980664996981840   T   T   T
  0.4908032930358142  0.5011178603086688  0.0992613281252987   T   T   T
 
  0.00000000E+00  0.00000000E+00  0.00000000E+00
  0.00000000E+00  0.00000000E+00  0.00000000E+00
  0.00000000E+00  0.00000000E+00  0.00000000E+00
  0.00000000E+00  0.00000000E+00  0.00000000E+00
  0.00000000E+00  0.00000000E+00  0.00000000E+00
  0.00000000E+00  0.00000000E+00  0.00000000E+00
  0.00000000E+00  0.00000000E+00  0.00000000E+00
  0.00000000E+00  0.00000000E+00  0.00000000E+00
  0.00000000E+00  0.00000000E+00  0.00000000E+00
  0.00000000E+00  0.00000000E+00  0.00000000E+00
  0.00000000E+00  0.00000000E+00  0.00000000E+00
  0.00000000E+00  0.00000000E+00  0.00000000E+00
  0.00000000E+00  0.00000000E+00  0.00000000E+00
  0.00000000E+00  0.00000000E+00  0.00000000E+00
  0.00000000E+00  0.00000000E+00  0.00000000E+00
  0.00000000E+00  0.00000000E+00  0.00000000E+00
  0.00000000E+00  0.00000000E+00  0.00000000E+00
  0.00000000E+00  0.00000000E+00  0.00000000E+00
  0.00000000E+00  0.00000000E+00  0.00000000E+00
  0.00000000E+00  0.00000000E+00  0.00000000E+00
  0.00000000E+00  0.00000000E+00  0.00000000E+00
  0.00000000E+00  0.00000000E+00  0.00000000E+00
  0.00000000E+00  0.00000000E+00  0.00000000E+00
  0.00000000E+00  0.00000000E+00  0.00000000E+00
  0.00000000E+00  0.00000000E+00  0.00000000E+00
