Title                                   
   1.00000000000000     
     4.9440799999999996    0.0000000000000000    0.0000000000000000
     0.0000000000000000    8.5647549999999999    0.0000000000000000
     0.0000000000000000    0.0000000000000000   20.0000000000000000
    13     1     1
Selective dynamics
Direct
  0.0014747341173609  0.2927075082963262  0.0953283523365228   T   T   T
  0.2500000000000000  0.0437713217076903  0.0977791303899049   T   T   T
  0.0011730232625588  0.9583366269115637  0.0984856321374817   T   T   T
  0.7500000000000000  0.2078371092337325  0.0935980066663390   T   T   T
  0.4985252658826390  0.2927075082963262  0.0953283523365228   T   T   T
  0.7500000000000000  0.0408607503132975  0.0953982435303261   T   T   T
  0.7500000000000000  0.7111756368709267  0.0997824244756880   T   T   T
  0.7500000000000000  0.5368937968593332  0.0974745246227212   T   T   T
  0.4988269767374413  0.9583366269115637  0.0984856321374817   T   T   T
  0.5021079258347674  0.4567903573110110  0.0992559602201752   T   T   T
 -0.0021079258347673  0.4567903573110110  0.0992559602201752   T   T   T
 -0.0038500093183693  0.7919847351844101  0.1041509868779261   T   T   T
  0.5038500093183693  0.7919847351844101  0.1041509868779261   T   T   T
  0.2500000000000000  0.2072920759307291  0.0956762878202033   T   T   T
  0.2500000000000000  0.6242118536776714  0.1338295193506097   T   T   T
 
  0.00000000E+00  0.00000000E+00  0.00000000E+00
  0.00000000E+00  0.00000000E+00  0.00000000E+00
  0.00000000E+00  0.00000000E+00  0.00000000E+00
  0.00000000E+00  0.00000000E+00  0.00000000E+00
  0.00000000E+00  0.00000000E+00  0.00000000E+00
  0.00000000E+00  0.00000000E+00  0.00000000E+00
  0.00000000E+00  0.00000000E+00  0.00000000E+00
  0.00000000E+00  0.00000000E+00  0.00000000E+00
  0.00000000E+00  0.00000000E+00  0.00000000E+00
  0.00000000E+00  0.00000000E+00  0.00000000E+00
  0.00000000E+00  0.00000000E+00  0.00000000E+00
  0.00000000E+00  0.00000000E+00  0.00000000E+00
  0.00000000E+00  0.00000000E+00  0.00000000E+00
  0.00000000E+00  0.00000000E+00  0.00000000E+00
  0.00000000E+00  0.00000000E+00  0.00000000E+00
