Title                                   
   1.00000000000000     
     4.9440799999999996    0.0000000000000000    0.0000000000000000
     0.0000000000000000   17.1295089999999988    0.0000000000000000
     0.0000000000000000    0.0000000000000000   20.0000000000000000
    26     4     1
Selective dynamics
Direct
  0.0006639740157730  0.1070165517573642  0.2979955091918369   T   T   T
  0.2506862323853120  0.1499700639064264  0.2986534746148173   T   T   T
  0.2511690259731915  0.2349811302456406  0.3000889547089716   T   T   T
 -0.0011040621355071  0.2759843706797785  0.3007973738757437   T   T   T
 -0.0013264228044873  0.5984595467080771  0.3010904834336053   T   T   T
  0.2481750537390648  0.7250403710817284  0.2990873785541009   T   T   T
  0.0004048365435673  0.8525147701639157  0.2974466901927525   T   T   T
  0.2493782213989917  0.8949895883989234  0.2970995980829547   T   T   T
  0.2497461623793478  0.9797174964437989  0.2969020666590773   T   T   T
  0.0000576147416737  0.7674426804882342  0.2984836424758722   T   T   T
  0.4997301116672875  0.1068178677772292  0.2979730239477063   T   T   T
  0.7499287884809547  0.1489999718603864  0.2986078480406724   T   T   T
  0.7500114675071040  0.2335126599637667  0.3000082971178557   T   T   T
  0.4995544721187312  0.0221266685414482  0.2970976769015737   T   T   T
  0.7557995948552633  0.3944458163968808  0.3022542154964524   T   T   T
  0.7546641080304080  0.4803104016082619  0.3023412819263303   T   T   T
  0.5026132333322220  0.2771113859545158  0.3007009240615821   T   T   T
  0.4983029352711464  0.5993062910073333  0.3009637772742716   T   T   T
  0.7497726701121901  0.7258717261171983  0.2990999932183070   T   T   T
  0.4982243038468020  0.8522178618664338  0.2974523743530590   T   T   T
  0.7494443935076426  0.8946026343483366  0.2971077072964254   T   T   T
  0.7497621151398369  0.9795090624416031  0.2969004914717436   T   T   T
  0.4980445910181770  0.7671779043627025  0.2984914630047024   T   T   T
  0.7482576829753688  0.6418874915736776  0.3003730662147074   T   T   T
  0.0001442256101644  0.0222134811632499  0.2971055211915473   T   T   T
  0.5039857306192836  0.5164835383644385  0.3019392481739299   T   T   T
  0.9988797776565069  0.5182219156442490  0.3021523584820177   T   T   T
  0.5116861779102506  0.3586830414930977  0.3018217410871304   T   T   T
 -0.0070944957809148  0.3569080204365257  0.3020558912689084   T   T   T
  0.2478174173151965  0.6408848415050183  0.3003917381250223   T   T   T
  0.2526270625694522  0.4379328476997552  0.3025761895562743   T   T   T
 
  0.00000000E+00  0.00000000E+00  0.00000000E+00
  0.00000000E+00  0.00000000E+00  0.00000000E+00
  0.00000000E+00  0.00000000E+00  0.00000000E+00
  0.00000000E+00  0.00000000E+00  0.00000000E+00
  0.00000000E+00  0.00000000E+00  0.00000000E+00
  0.00000000E+00  0.00000000E+00  0.00000000E+00
  0.00000000E+00  0.00000000E+00  0.00000000E+00
  0.00000000E+00  0.00000000E+00  0.00000000E+00
  0.00000000E+00  0.00000000E+00  0.00000000E+00
  0.00000000E+00  0.00000000E+00  0.00000000E+00
  0.00000000E+00  0.00000000E+00  0.00000000E+00
  0.00000000E+00  0.00000000E+00  0.00000000E+00
  0.00000000E+00  0.00000000E+00  0.00000000E+00
  0.00000000E+00  0.00000000E+00  0.00000000E+00
  0.00000000E+00  0.00000000E+00  0.00000000E+00
  0.00000000E+00  0.00000000E+00  0.00000000E+00
  0.00000000E+00  0.00000000E+00  0.00000000E+00
  0.00000000E+00  0.00000000E+00  0.00000000E+00
  0.00000000E+00  0.00000000E+00  0.00000000E+00
  0.00000000E+00  0.00000000E+00  0.00000000E+00
  0.00000000E+00  0.00000000E+00  0.00000000E+00
  0.00000000E+00  0.00000000E+00  0.00000000E+00
  0.00000000E+00  0.00000000E+00  0.00000000E+00
  0.00000000E+00  0.00000000E+00  0.00000000E+00
  0.00000000E+00  0.00000000E+00  0.00000000E+00
  0.00000000E+00  0.00000000E+00  0.00000000E+00
  0.00000000E+00  0.00000000E+00  0.00000000E+00
  0.00000000E+00  0.00000000E+00  0.00000000E+00
  0.00000000E+00  0.00000000E+00  0.00000000E+00
  0.00000000E+00  0.00000000E+00  0.00000000E+00
  0.00000000E+00  0.00000000E+00  0.00000000E+00
