Title                                   
   1.00000000000000     
     9.8694509999999998    0.0000000000000000    0.0000000000000000
     0.0000000000000000    8.5490480000000009    0.0000000000000000
     0.0000000000000000    0.0000000000000000   20.0000000000000000
    28     3     1
Selective dynamics
Direct
  0.0565626090093710  0.0916416748637207  0.0891539634423843   T   T   T
  0.9309441295408851  0.1757088694267698  0.0901230054802842   T   T   T
  0.0585935543781641  0.9243826529531198  0.0876922315149411   T   T   T
  0.9287793364283010  0.3434391412679181  0.0907098541420369   T   T   T
  0.0562115414817895  0.5904109783319124  0.0897756058956950   T   T   T
  0.9328589475577896  0.6750497149138214  0.0861207911915914   T   T   T
  0.0561783570409637  0.4237712642092579  0.0915990693666087   T   T   T
  0.9333957795980339  0.8422807442830722  0.0857275817467873   T   T   T
  0.3066325094962236  0.0863599269715671  0.0908960334177574   T   T   T
  0.1827065121624176  0.1733742378185158  0.0915718969300814   T   T   T
  0.3095606798576634  0.9201555074264139  0.0915411734469164   T   T   T
  0.1809891802837314  0.3393158856088179  0.0952526967743575   T   T   T
  0.3055874877287037  0.5872095103060340  0.1036604213575054   T   T   T
  0.1821245918693991  0.6712250667926076  0.0927944878174631   T   T   T
  0.1837499192544151  0.8376729948052575  0.0905778868204801   T   T   T
  0.5567101589080589  0.0857774525881757  0.0940835509786792   T   T   T
  0.4311109489206447  0.1687617346777091  0.0948416049801226   T   T   T
  0.4293354617629797  0.3353520142332631  0.1047642750575416   T   T   T
  0.4339428175671580  0.8338706155400077  0.0992416394793995   T   T   T
  0.8068783738043148  0.0919458518111042  0.0894207399141284   T   T   T
  0.6797184049689693  0.1725872338308868  0.0934535286691251   T   T   T
  0.8084551210995964  0.9268901639963242  0.0867262134475070   T   T   T
  0.6770197921159097  0.3406572247875806  0.1002944160136731   T   T   T
  0.8047168488415701  0.5972831467456563  0.0852631504505996   T   T   T
  0.8022118237855281  0.4281877658153494  0.0919637879458700   T   T   T
  0.6863421905461834  0.8372846425336791  0.0855222770531167   T   T   T
  0.4254155270027545  0.6717102736692980  0.1160586569057931   T   T   T
  0.5505112355581950  0.4123824014787720  0.1171539740626549   T   T   T
  0.6871538954375447  0.6823190493895597  0.0807982003517481   T   T   T
  0.5589218099829700  0.9177763216460719  0.0929170305056306   T   T   T
  0.3042260543458650  0.4207145681716534  0.1028855310695630   T   T   T
  0.5520933996639140  0.5847473691061068  0.1830897237699732   T   T   T
 
  0.00000000E+00  0.00000000E+00  0.00000000E+00
  0.00000000E+00  0.00000000E+00  0.00000000E+00
  0.00000000E+00  0.00000000E+00  0.00000000E+00
  0.00000000E+00  0.00000000E+00  0.00000000E+00
  0.00000000E+00  0.00000000E+00  0.00000000E+00
  0.00000000E+00  0.00000000E+00  0.00000000E+00
  0.00000000E+00  0.00000000E+00  0.00000000E+00
  0.00000000E+00  0.00000000E+00  0.00000000E+00
  0.00000000E+00  0.00000000E+00  0.00000000E+00
  0.00000000E+00  0.00000000E+00  0.00000000E+00
  0.00000000E+00  0.00000000E+00  0.00000000E+00
  0.00000000E+00  0.00000000E+00  0.00000000E+00
  0.00000000E+00  0.00000000E+00  0.00000000E+00
  0.00000000E+00  0.00000000E+00  0.00000000E+00
  0.00000000E+00  0.00000000E+00  0.00000000E+00
  0.00000000E+00  0.00000000E+00  0.00000000E+00
  0.00000000E+00  0.00000000E+00  0.00000000E+00
  0.00000000E+00  0.00000000E+00  0.00000000E+00
  0.00000000E+00  0.00000000E+00  0.00000000E+00
  0.00000000E+00  0.00000000E+00  0.00000000E+00
  0.00000000E+00  0.00000000E+00  0.00000000E+00
  0.00000000E+00  0.00000000E+00  0.00000000E+00
  0.00000000E+00  0.00000000E+00  0.00000000E+00
  0.00000000E+00  0.00000000E+00  0.00000000E+00
  0.00000000E+00  0.00000000E+00  0.00000000E+00
  0.00000000E+00  0.00000000E+00  0.00000000E+00
  0.00000000E+00  0.00000000E+00  0.00000000E+00
  0.00000000E+00  0.00000000E+00  0.00000000E+00
  0.00000000E+00  0.00000000E+00  0.00000000E+00
  0.00000000E+00  0.00000000E+00  0.00000000E+00
  0.00000000E+00  0.00000000E+00  0.00000000E+00
  0.00000000E+00  0.00000000E+00  0.00000000E+00
