Title                                   
   1.00000000000000     
     4.9440799999999996    0.0000000000000000    0.0000000000000000
     0.0000000000000000    8.5647549999999999    0.0000000000000000
     0.0000000000000000    0.0000000000000000   20.0000000000000000
    13     2     1
Selective dynamics
Direct
  0.2485897110417517  0.2093742161882717  0.0920672721143927   T   T   T
 -0.0058385708190292  0.2911144982528320  0.0926320125543654   T   T   T
  0.2504550309977436  0.0436481276661487  0.0873779878149514   T   T   T
  0.0058157741495060  0.7958378106784427  0.0987203523616156   T   T   T
  0.0013073498700529  0.9592005344970645  0.0864764969767967   T   T   T
  0.7480627110154262  0.2070433216261805  0.0864601913428057   T   T   T
  0.5019154232276851  0.2894806010638831  0.0971878691857985   T   T   T
  0.7510230950364831  0.0407166026172310  0.0830135159154971   T   T   T
  0.7551289970931070  0.7075825273530194  0.1036986746196385   T   T   T
  0.5018227950455699  0.7951610617653273  0.0999131179659800   T   T   T
  0.7511084934036582  0.5365451543419967  0.1068201595167341   T   T   T
  0.5015075433987435  0.9594990165478641  0.0877841788697153   T   T   T
  0.5153725340060853  0.4485754068055384  0.1177158544432449   T   T   T
 -0.0143607880101788  0.4493168580145262  0.1022431886930965   T   T   T
  0.2538340970375812  0.7273806401899170  0.1131712523501338   T   T   T
  0.2342558035058150  0.5395236223917572  0.1672298752752413   T   T   T
 
  0.00000000E+00  0.00000000E+00  0.00000000E+00
  0.00000000E+00  0.00000000E+00  0.00000000E+00
  0.00000000E+00  0.00000000E+00  0.00000000E+00
  0.00000000E+00  0.00000000E+00  0.00000000E+00
  0.00000000E+00  0.00000000E+00  0.00000000E+00
  0.00000000E+00  0.00000000E+00  0.00000000E+00
  0.00000000E+00  0.00000000E+00  0.00000000E+00
  0.00000000E+00  0.00000000E+00  0.00000000E+00
  0.00000000E+00  0.00000000E+00  0.00000000E+00
  0.00000000E+00  0.00000000E+00  0.00000000E+00
  0.00000000E+00  0.00000000E+00  0.00000000E+00
  0.00000000E+00  0.00000000E+00  0.00000000E+00
  0.00000000E+00  0.00000000E+00  0.00000000E+00
  0.00000000E+00  0.00000000E+00  0.00000000E+00
  0.00000000E+00  0.00000000E+00  0.00000000E+00
  0.00000000E+00  0.00000000E+00  0.00000000E+00
