Title                                   
   1.00000000000000     
     8.5490480000000009    0.0000000000000000    0.0000000000000000
     0.0000000000000000    8.5490480000000009    0.0000000000000000
     0.0000000000000000    0.0000000000000000   20.0000000000000000
    19     5     1
Selective dynamics
Direct
  0.9091792574342176  0.2059306437660819  0.0974912217258967   T   T   T
  0.9114283922169900  0.8011601739142930  0.0972907420384290   T   T   T
  0.1971604740000055  0.0837203283856337  0.0975744222413437   T   T   T
  0.0751548491135793  0.2024098415223099  0.0974127040926468   T   T   T
  0.1542328984542975  0.6518991907972538  0.0978330146987304   T   T   T
  0.0746532801729959  0.5012128998647120  0.0976723532523624   T   T   T
  0.1535484386084519  0.3538854380954836  0.0975724917218482   T   T   T
  0.0785614910478798  0.7995292027612990  0.0975430431455488   T   T   T
  0.4940864261860816  0.0849870824595475  0.0978217606788574   T   T   T
  0.3450062688819551  0.1634419408180030  0.0977384217338439   T   T   T
  0.4934963096894571  0.9144137176963396  0.0977666828679474   T   T   T
  0.3431825349489172  0.8354732233284995  0.0979832000963630   T   T   T
  0.7888863374785801  0.0868797488743522  0.0975301407066187   T   T   T
  0.6422643723760786  0.1659953901726830  0.0978937990257651   T   T   T
  0.7899097976930852  0.9190706301147213  0.0973303601594925   T   T   T
  0.8311935562660195  0.6525041738304179  0.0974283503845405   T   T   T
  0.8280906583252514  0.3541310894987125  0.0977969157546785   T   T   T
  0.6440236760585423  0.8362310676037330  0.0974894240482361   T   T   T
  0.3217053146432574  0.3318664468484335  0.0979219066032522   T   T   T
  0.9054984965178733  0.5031647973462293  0.0976759585550338   T   T   T
  0.3168654366576587  0.6761991167945434  0.0983034737495836   T   T   T
  0.6672925736543918  0.3311209935683869  0.0982642486255925   T   T   T
  0.6714236450727019  0.6739619562073701  0.0975961823973821   T   T   T
  0.1970854456838061  0.9161298568926308  0.0977648405708771   T   T   T
  0.4914820688179184  0.4994710488383494  0.0990093411251024   T   T   T
 
  0.00000000E+00  0.00000000E+00  0.00000000E+00
  0.00000000E+00  0.00000000E+00  0.00000000E+00
  0.00000000E+00  0.00000000E+00  0.00000000E+00
  0.00000000E+00  0.00000000E+00  0.00000000E+00
  0.00000000E+00  0.00000000E+00  0.00000000E+00
  0.00000000E+00  0.00000000E+00  0.00000000E+00
  0.00000000E+00  0.00000000E+00  0.00000000E+00
  0.00000000E+00  0.00000000E+00  0.00000000E+00
  0.00000000E+00  0.00000000E+00  0.00000000E+00
  0.00000000E+00  0.00000000E+00  0.00000000E+00
  0.00000000E+00  0.00000000E+00  0.00000000E+00
  0.00000000E+00  0.00000000E+00  0.00000000E+00
  0.00000000E+00  0.00000000E+00  0.00000000E+00
  0.00000000E+00  0.00000000E+00  0.00000000E+00
  0.00000000E+00  0.00000000E+00  0.00000000E+00
  0.00000000E+00  0.00000000E+00  0.00000000E+00
  0.00000000E+00  0.00000000E+00  0.00000000E+00
  0.00000000E+00  0.00000000E+00  0.00000000E+00
  0.00000000E+00  0.00000000E+00  0.00000000E+00
  0.00000000E+00  0.00000000E+00  0.00000000E+00
  0.00000000E+00  0.00000000E+00  0.00000000E+00
  0.00000000E+00  0.00000000E+00  0.00000000E+00
  0.00000000E+00  0.00000000E+00  0.00000000E+00
  0.00000000E+00  0.00000000E+00  0.00000000E+00
  0.00000000E+00  0.00000000E+00  0.00000000E+00
