Title                                   
   1.00000000000000     
     8.5490480000000009    0.0000000000000000    0.0000000000000000
     0.0000000000000000    8.5490480000000009    0.0000000000000000
     0.0000000000000000    0.0000000000000000   20.0000000000000000
    20     4     1
Selective dynamics
Direct
  0.9092968091708812  0.2045089560543745  0.0977576878832804   T   T   T
  0.9058595623736844  0.5036617574897408  0.0977325037133224   T   T   T
  0.9101430098507460  0.8022636354108671  0.0975238960116438   T   T   T
  0.1985207584133695  0.0830607697851571  0.0978202289703713   T   T   T
  0.0750554373023045  0.2035521615290073  0.0977810698351206   T   T   T
  0.1570846605785656  0.6520951855483826  0.0977059042032853   T   T   T
  0.0760489543024941  0.5026565501330580  0.0977078709098860   T   T   T
  0.1576089795368941  0.3549897267162903  0.0977242315561838   T   T   T
  0.0778235628888929  0.7992571327110142  0.0976265126999022   T   T   T
  0.4938943511793550  0.0845246751541839  0.0977597780460494   T   T   T
  0.3463169967606458  0.1635035484486675  0.0977614670961375   T   T   T
  0.4931812154482015  0.9143402828044974  0.0977359452811979   T   T   T
  0.3437574251936303  0.8343973454171589  0.0978177337257967   T   T   T
  0.7882653611809762  0.0856471965084102  0.0976809763830484   T   T   T
  0.6416000960114033  0.1663645868042137  0.0977874770559767   T   T   T
  0.7890305375595467  0.9191552560661649  0.0975436632258852   T   T   T
  0.8281312188611019  0.6526005475374913  0.0976683973543768   T   T   T
  0.8258015761217196  0.3541298123943297  0.0978471695637345   T   T   T
  0.6414987188333813  0.8348039655002280  0.0976662712443840   T   T   T
  0.3239847033906617  0.3328697128126483  0.0977382053587340   T   T   T
  0.3190498344680970  0.6763303050016994  0.0978543962290977   T   T   T
  0.6653336997640825  0.3298952731092356  0.0979238627272669   T   T   T
  0.6667755436563723  0.6742629231925754  0.0978092333829452   T   T   T
  0.1978190112188067  0.9166338702529431  0.0978158323505402   T   T   T
  0.4935299759341800  0.4992848236176801  0.0979146851918058   T   T   T
 
  0.00000000E+00  0.00000000E+00  0.00000000E+00
  0.00000000E+00  0.00000000E+00  0.00000000E+00
  0.00000000E+00  0.00000000E+00  0.00000000E+00
  0.00000000E+00  0.00000000E+00  0.00000000E+00
  0.00000000E+00  0.00000000E+00  0.00000000E+00
  0.00000000E+00  0.00000000E+00  0.00000000E+00
  0.00000000E+00  0.00000000E+00  0.00000000E+00
  0.00000000E+00  0.00000000E+00  0.00000000E+00
  0.00000000E+00  0.00000000E+00  0.00000000E+00
  0.00000000E+00  0.00000000E+00  0.00000000E+00
  0.00000000E+00  0.00000000E+00  0.00000000E+00
  0.00000000E+00  0.00000000E+00  0.00000000E+00
  0.00000000E+00  0.00000000E+00  0.00000000E+00
  0.00000000E+00  0.00000000E+00  0.00000000E+00
  0.00000000E+00  0.00000000E+00  0.00000000E+00
  0.00000000E+00  0.00000000E+00  0.00000000E+00
  0.00000000E+00  0.00000000E+00  0.00000000E+00
  0.00000000E+00  0.00000000E+00  0.00000000E+00
  0.00000000E+00  0.00000000E+00  0.00000000E+00
  0.00000000E+00  0.00000000E+00  0.00000000E+00
  0.00000000E+00  0.00000000E+00  0.00000000E+00
  0.00000000E+00  0.00000000E+00  0.00000000E+00
  0.00000000E+00  0.00000000E+00  0.00000000E+00
  0.00000000E+00  0.00000000E+00  0.00000000E+00
  0.00000000E+00  0.00000000E+00  0.00000000E+00
