Title                                   
   1.00000000000000     
     4.9440799999999996    0.0000000000000000    0.0000000000000000
     0.0000000000000000   17.1295089999999988    0.0000000000000000
     0.0000000000000000    0.0000000000000000   20.0000000000000000
    28     2     1
Selective dynamics
Direct
  0.0031502664103475  0.1054848251436390  0.2958537509588288   T   T   T
  0.2524450155052336  0.1481125093607144  0.2969445516983173   T   T   T
  0.2535851594833248  0.2324442632965147  0.2995806677098701   T   T   T
  0.0014795551300426  0.2734668382813559  0.2998794002927478   T   T   T
 -0.0045191056468135  0.6022282323786472  0.3023343350303676   T   T   T
  0.2476672759263590  0.7279445652579825  0.2965665537858888   T   T   T
 -0.0007825122043996  0.8539820525485809  0.2952506276789145   T   T   T
  0.2495854833214987  0.8959552154115831  0.2950428078499618   T   T   T
  0.2508193229961471  0.9796421724497528  0.2950897852607031   T   T   T
 -0.0020052737571986  0.7702538474581833  0.2960033753375360   T   T   T
  0.5015432314112938  0.1056236223463165  0.2960062596784311   T   T   T
  0.7529942113313730  0.1467952020236253  0.2962160534005525   T   T   T
  0.7544904756504514  0.2302907827710998  0.2980051341417510   T   T   T
  0.5007141590836198  0.0217561952842225  0.2952335008009778   T   T   T
  0.7518173713607070  0.3912260310474720  0.3038562853557792   T   T   T
  0.7478403740350972  0.4783463003087368  0.3035636967826330   T   T   T
  0.5073275403082211  0.2726328139951958  0.3010376409627941   T   T   T
  0.4965846186918148  0.6021954824511152  0.2992009393912091   T   T   T
  0.7476373473139183  0.7284865585653607  0.2962258098374590   T   T   T
  0.4991631178403077  0.8539925447664211  0.2950346240552825   T   T   T
  0.7495259921816834  0.8959948950614061  0.2949983514779136   T   T   T
  0.7507615294864393  0.9798859242483081  0.2950161878878516   T   T   T
  0.4980468766808831  0.7702323865544827  0.2955009510229206   T   T   T
  0.7465639513078763  0.6446456937911925  0.2985435907640541   T   T   T
  0.2464953861767561  0.6444816195546252  0.2992509141582222   T   T   T
  0.0016318417012787  0.0216814364383046  0.2951775465607093   T   T   T
  0.5005556241978300  0.5189743198176391  0.3013614454244739   T   T   T
  0.9925499834830973  0.5195403932065341  0.3098086026712739   T   T   T
  0.5161843203257510  0.3526011611205176  0.3064025573181261   T   T   T
 -0.0086878125118578  0.3542268068819675  0.3023866897411809   T   T   T
  0.2548416727789206  0.4382173081784999  0.3296873629632202   T   T   T
 
  0.00000000E+00  0.00000000E+00  0.00000000E+00
  0.00000000E+00  0.00000000E+00  0.00000000E+00
  0.00000000E+00  0.00000000E+00  0.00000000E+00
  0.00000000E+00  0.00000000E+00  0.00000000E+00
  0.00000000E+00  0.00000000E+00  0.00000000E+00
  0.00000000E+00  0.00000000E+00  0.00000000E+00
  0.00000000E+00  0.00000000E+00  0.00000000E+00
  0.00000000E+00  0.00000000E+00  0.00000000E+00
  0.00000000E+00  0.00000000E+00  0.00000000E+00
  0.00000000E+00  0.00000000E+00  0.00000000E+00
  0.00000000E+00  0.00000000E+00  0.00000000E+00
  0.00000000E+00  0.00000000E+00  0.00000000E+00
  0.00000000E+00  0.00000000E+00  0.00000000E+00
  0.00000000E+00  0.00000000E+00  0.00000000E+00
  0.00000000E+00  0.00000000E+00  0.00000000E+00
  0.00000000E+00  0.00000000E+00  0.00000000E+00
  0.00000000E+00  0.00000000E+00  0.00000000E+00
  0.00000000E+00  0.00000000E+00  0.00000000E+00
  0.00000000E+00  0.00000000E+00  0.00000000E+00
  0.00000000E+00  0.00000000E+00  0.00000000E+00
  0.00000000E+00  0.00000000E+00  0.00000000E+00
  0.00000000E+00  0.00000000E+00  0.00000000E+00
  0.00000000E+00  0.00000000E+00  0.00000000E+00
  0.00000000E+00  0.00000000E+00  0.00000000E+00
  0.00000000E+00  0.00000000E+00  0.00000000E+00
  0.00000000E+00  0.00000000E+00  0.00000000E+00
  0.00000000E+00  0.00000000E+00  0.00000000E+00
  0.00000000E+00  0.00000000E+00  0.00000000E+00
  0.00000000E+00  0.00000000E+00  0.00000000E+00
  0.00000000E+00  0.00000000E+00  0.00000000E+00
  0.00000000E+00  0.00000000E+00  0.00000000E+00
