Title                                   
   1.00000000000000     
     4.9440799999999996    0.0000000000000000    0.0000000000000000
     0.0000000000000000   17.1295089999999988    0.0000000000000000
     0.0000000000000000    0.0000000000000000   20.0000000000000000
    30     1
Selective dynamics
Direct
  0.0001814541962538  0.1027761979507873  0.2972377675955358   T   T   T
  0.2503368226158964  0.1447222550852507  0.2979734888547385   T   T   T
  0.2503190256474055  0.2268662795018058  0.2997988543714158   T   T   T
 -0.0011592745415443  0.2685207796011704  0.3007828773511311   T   T   T
 -0.0011765620494378  0.6064007205059255  0.3018105277646141   T   T   T
  0.2503029028273364  0.7302092438002782  0.2988420400100775   T   T   T
  0.0001959631527364  0.8547693728123474  0.2967914217538691   T   T   T
  0.2503335979140835  0.8962541732016143  0.2964865935181373   T   T   T
  0.2503448636727220  0.9786663516248223  0.2963876697277749   T   T   T
  0.0001410374835184  0.7721573470379464  0.2979682915601841   T   T   T
  0.5005150932588890  0.1027807635481403  0.2972312831950663   T   T   T
  0.7503410308789943  0.1436638280410005  0.2978625569417677   T   T   T
  0.7503179329612844  0.2263275450583878  0.2997026461112038   T   T   T
  0.5004526392019764  0.0201607183703993  0.2964963801993424   T   T   T
  0.7503533616637680  0.3937719671958833  0.3028830936725350   T   T   T
  0.7503443573912570  0.4811651861956951  0.3031700173996756   T   T   T
  0.5017984105796957  0.2685226862564493  0.3007803341376272   T   T   T
  0.5017154269554696  0.6063965949656137  0.3018097341847684   T   T   T
  0.7502978343643601  0.7312639432224917  0.2987512715319092   T   T   T
  0.5004508127507207  0.8547673508984079  0.2967915655788267   T   T   T
  0.7503236265971771  0.8960186845186140  0.2964096682186038   T   T   T
  0.7503277289647857  0.9789104178548196  0.2963102404259448   T   T   T
  0.5004673578805942  0.7721557975784251  0.2979672244277601   T   T   T
  0.7502794934234411  0.6485906396303600  0.3007473583906014   T   T   T
  0.2502707952011100  0.6480618449300884  0.3008251868862128   T   T   T
  0.0002154492898247  0.0201577005775066  0.2965000191075655   T   T   T
  0.5138766377375743  0.5253719230580569  0.3032824474672436   T   T   T
  0.9867811054486931  0.5253739283622841  0.3032888352113058   T   T   T
  0.5139300251223476  0.3495472608596456  0.3025752706522840   T   T   T
 -0.0132387824742584  0.3495446434436639  0.3025737855790867   T   T   T
  0.2503668318833270  0.4374458543121153  0.3050215481731427   T   T   T
 
  0.00000000E+00  0.00000000E+00  0.00000000E+00
  0.00000000E+00  0.00000000E+00  0.00000000E+00
  0.00000000E+00  0.00000000E+00  0.00000000E+00
  0.00000000E+00  0.00000000E+00  0.00000000E+00
  0.00000000E+00  0.00000000E+00  0.00000000E+00
  0.00000000E+00  0.00000000E+00  0.00000000E+00
  0.00000000E+00  0.00000000E+00  0.00000000E+00
  0.00000000E+00  0.00000000E+00  0.00000000E+00
  0.00000000E+00  0.00000000E+00  0.00000000E+00
  0.00000000E+00  0.00000000E+00  0.00000000E+00
  0.00000000E+00  0.00000000E+00  0.00000000E+00
  0.00000000E+00  0.00000000E+00  0.00000000E+00
  0.00000000E+00  0.00000000E+00  0.00000000E+00
  0.00000000E+00  0.00000000E+00  0.00000000E+00
  0.00000000E+00  0.00000000E+00  0.00000000E+00
  0.00000000E+00  0.00000000E+00  0.00000000E+00
  0.00000000E+00  0.00000000E+00  0.00000000E+00
  0.00000000E+00  0.00000000E+00  0.00000000E+00
  0.00000000E+00  0.00000000E+00  0.00000000E+00
  0.00000000E+00  0.00000000E+00  0.00000000E+00
  0.00000000E+00  0.00000000E+00  0.00000000E+00
  0.00000000E+00  0.00000000E+00  0.00000000E+00
  0.00000000E+00  0.00000000E+00  0.00000000E+00
  0.00000000E+00  0.00000000E+00  0.00000000E+00
  0.00000000E+00  0.00000000E+00  0.00000000E+00
  0.00000000E+00  0.00000000E+00  0.00000000E+00
  0.00000000E+00  0.00000000E+00  0.00000000E+00
  0.00000000E+00  0.00000000E+00  0.00000000E+00
  0.00000000E+00  0.00000000E+00  0.00000000E+00
  0.00000000E+00  0.00000000E+00  0.00000000E+00
  0.00000000E+00  0.00000000E+00  0.00000000E+00
