Title                                   
   1.00000000000000     
     8.5490480000000009    0.0000000000000000    0.0000000000000000
     0.0000000000000000    8.5490480000000009    0.0000000000000000
     0.0000000000000000    0.0000000000000000   20.0000000000000000
    21     3     1
Selective dynamics
Direct
  0.9096662797808563  0.2065423156950877  0.0975958702833688   T   T   T
  0.9091996446804900  0.5019222205912388  0.0977155207291144   T   T   T
  0.9102479984958609  0.7999821263308556  0.0977124110018086   T   T   T
  0.1984193043512337  0.0839395302409149  0.0977811931514132   T   T   T
  0.0760034942670826  0.2041438101576943  0.0977415222940533   T   T   T
  0.1585430230805162  0.6496732667150221  0.0976485475614648   T   T   T
  0.0785338809574672  0.5018405439366304  0.0977388987856720   T   T   T
  0.1592363413986019  0.3532268458346891  0.0978361384851077   T   T   T
  0.0778304946115192  0.7977884930976493  0.0976616371204847   T   T   T
  0.4932431977920650  0.0865226941854164  0.0977097328304047   T   T   T
  0.3441947174609922  0.1658164081754830  0.0978506932136339   T   T   T
  0.4914551672905451  0.9171268250766805  0.0977579275523273   T   T   T
  0.3453664985992927  0.8368605057139811  0.0977321877715147   T   T   T
  0.7865062020533962  0.0847285774250252  0.0975597639595307   T   T   T
  0.6383976942673696  0.1662205311692769  0.0975718558338174   T   T   T
  0.7873018368072061  0.9189708160789661  0.0976788791122916   T   T   T
  0.8289671778938906  0.6510668844978331  0.0977980969469210   T   T   T
  0.8289569068034165  0.3556105575881266  0.0976280855394083   T   T   T
  0.6398887101582794  0.8352838381704447  0.0977905457188590   T   T   T
  0.3246304463887916  0.6710741503297526  0.0977186381802744   T   T   T
  0.6599954039397347  0.3350897970477993  0.0976935279391799   T   T   T
  0.3219229929604914  0.3303031718919090  0.0979969152534173   T   T   T
  0.6641857810250624  0.6720943237705964  0.0979489168774062   T   T   T
  0.1984896916432114  0.9181069032165408  0.0977445709742607   T   T   T
  0.4942291132926136  0.5008548630623989  0.0980929228842452   T   T   T
 
  0.00000000E+00  0.00000000E+00  0.00000000E+00
  0.00000000E+00  0.00000000E+00  0.00000000E+00
  0.00000000E+00  0.00000000E+00  0.00000000E+00
  0.00000000E+00  0.00000000E+00  0.00000000E+00
  0.00000000E+00  0.00000000E+00  0.00000000E+00
  0.00000000E+00  0.00000000E+00  0.00000000E+00
  0.00000000E+00  0.00000000E+00  0.00000000E+00
  0.00000000E+00  0.00000000E+00  0.00000000E+00
  0.00000000E+00  0.00000000E+00  0.00000000E+00
  0.00000000E+00  0.00000000E+00  0.00000000E+00
  0.00000000E+00  0.00000000E+00  0.00000000E+00
  0.00000000E+00  0.00000000E+00  0.00000000E+00
  0.00000000E+00  0.00000000E+00  0.00000000E+00
  0.00000000E+00  0.00000000E+00  0.00000000E+00
  0.00000000E+00  0.00000000E+00  0.00000000E+00
  0.00000000E+00  0.00000000E+00  0.00000000E+00
  0.00000000E+00  0.00000000E+00  0.00000000E+00
  0.00000000E+00  0.00000000E+00  0.00000000E+00
  0.00000000E+00  0.00000000E+00  0.00000000E+00
  0.00000000E+00  0.00000000E+00  0.00000000E+00
  0.00000000E+00  0.00000000E+00  0.00000000E+00
  0.00000000E+00  0.00000000E+00  0.00000000E+00
  0.00000000E+00  0.00000000E+00  0.00000000E+00
  0.00000000E+00  0.00000000E+00  0.00000000E+00
  0.00000000E+00  0.00000000E+00  0.00000000E+00
