Title                                   
   1.00000000000000     
     9.8694509999999998    0.0000000000000000    0.0000000000000000
     0.0000000000000000    8.5490480000000009    0.0000000000000000
     0.0000000000000000    0.0000000000000000   20.0000000000000000
    29     1     1
Selective dynamics
Direct
  0.0551830264784903  0.0883790777251955  0.0849487105567940   T   T   T
  0.9299904057809950  0.1730451413770240  0.0857058022687480   T   T   T
  0.0564413303619290  0.9224393116070594  0.0855404294812478   T   T   T
  0.9324167634934589  0.3396361786193773  0.0849163112545857   T   T   T
  0.0572181660749518  0.5892495420284271  0.0835993782119589   T   T   T
  0.9335696592792472  0.6748968380179100  0.0870994055469654   T   T   T
  0.0563639449466264  0.4228687474576428  0.0831366265771087   T   T   T
  0.9315314520974886  0.8416534391481092  0.0879190428070387   T   T   T
  0.3053607475931382  0.0878011356804346  0.0928210907657059   T   T   T
  0.1797671145687441  0.1698418344701909  0.0873690507059187   T   T   T
  0.3076860995480020  0.9195392602786372  0.0923359317733893   T   T   T
  0.1791915183268569  0.3364480217146481  0.0862863615695984   T   T   T
  0.3044935074853995  0.5858061504856324  0.0925417322880276   T   T   T
  0.1814818749788597  0.6712534048426204  0.0863306738116256   T   T   T
  0.3015623401845963  0.4170167837515402  0.0938432089210404   T   T   T
  0.1823237376274239  0.8382092366689088  0.0871054927904321   T   T   T
  0.5542014765893228  0.0928549852105257  0.1021668911638320   T   T   T
  0.4269268487926809  0.1761060793604040  0.1006764708908739   T   T   T
  0.5561917831515889  0.9240155083502686  0.1030300849615332   T   T   T
  0.4294776960184087  0.6650319536301638  0.1012451670997374   T   T   T
  0.4327888448904407  0.8337575519278385  0.0993496738735557   T   T   T
  0.8041133690847115  0.0927387047515767  0.0914023942195909   T   T   T
  0.6790456625281674  0.1800732143455987  0.0982808510110247   T   T   T
  0.8053793110592288  0.9246636728926461  0.0930734209284128   T   T   T
  0.6854420459160094  0.3473986753446605  0.1007751001118304   T   T   T
  0.8122558504369565  0.5926993043655971  0.0953423704137872   T   T   T
  0.6894016004422170  0.6728362245146168  0.1116858783576532   T   T   T
  0.8108106541732299  0.4250100463066404  0.0920292862916208   T   T   T
  0.6823657688322989  0.8395290250633352  0.1025908480599079   T   T   T
  0.4206439346005450  0.3378341953192392  0.1054172436880025   T   T   T
  0.5595084646579979  0.5082417547435433  0.1424000695984932   T   T   T
 
  0.00000000E+00  0.00000000E+00  0.00000000E+00
  0.00000000E+00  0.00000000E+00  0.00000000E+00
  0.00000000E+00  0.00000000E+00  0.00000000E+00
  0.00000000E+00  0.00000000E+00  0.00000000E+00
  0.00000000E+00  0.00000000E+00  0.00000000E+00
  0.00000000E+00  0.00000000E+00  0.00000000E+00
  0.00000000E+00  0.00000000E+00  0.00000000E+00
  0.00000000E+00  0.00000000E+00  0.00000000E+00
  0.00000000E+00  0.00000000E+00  0.00000000E+00
  0.00000000E+00  0.00000000E+00  0.00000000E+00
  0.00000000E+00  0.00000000E+00  0.00000000E+00
  0.00000000E+00  0.00000000E+00  0.00000000E+00
  0.00000000E+00  0.00000000E+00  0.00000000E+00
  0.00000000E+00  0.00000000E+00  0.00000000E+00
  0.00000000E+00  0.00000000E+00  0.00000000E+00
  0.00000000E+00  0.00000000E+00  0.00000000E+00
  0.00000000E+00  0.00000000E+00  0.00000000E+00
  0.00000000E+00  0.00000000E+00  0.00000000E+00
  0.00000000E+00  0.00000000E+00  0.00000000E+00
  0.00000000E+00  0.00000000E+00  0.00000000E+00
  0.00000000E+00  0.00000000E+00  0.00000000E+00
  0.00000000E+00  0.00000000E+00  0.00000000E+00
  0.00000000E+00  0.00000000E+00  0.00000000E+00
  0.00000000E+00  0.00000000E+00  0.00000000E+00
  0.00000000E+00  0.00000000E+00  0.00000000E+00
  0.00000000E+00  0.00000000E+00  0.00000000E+00
  0.00000000E+00  0.00000000E+00  0.00000000E+00
  0.00000000E+00  0.00000000E+00  0.00000000E+00
  0.00000000E+00  0.00000000E+00  0.00000000E+00
  0.00000000E+00  0.00000000E+00  0.00000000E+00
  0.00000000E+00  0.00000000E+00  0.00000000E+00
