Title                                   
   1.00000000000000     
     9.8694509999999998    0.0000000000000000    0.0000000000000000
     0.0000000000000000    8.5490480000000009    0.0000000000000000
     0.0000000000000000    0.0000000000000000   20.0000000000000000
    24     6     1
Selective dynamics
Direct
  0.0557003098600355  0.0899296474255211  0.0953995624375889   T   T   T
  0.9306580918736415  0.1723737485364974  0.0956379122529950   T   T   T
  0.0572440829611279  0.9218835867975955  0.0954223531137310   T   T   T
  0.9337634060544262  0.3396550780538876  0.0953148615319766   T   T   T
  0.0560193572463425  0.5907992831418722  0.0948466432523142   T   T   T
  0.0566842677854408  0.4238680131181408  0.0947331350068445   T   T   T
  0.9321079121147503  0.8396356165668113  0.0957253172565802   T   T   T
  0.3078382615161243  0.0891988868893707  0.0967668204170537   T   T   T
  0.1809709042968151  0.1715802321155778  0.0956896632101547   T   T   T
  0.1807253723931320  0.3391182305249585  0.0953546321105536   T   T   T
  0.3023867732034403  0.5894676869846572  0.0968016948090432   T   T   T
  0.1793465111605095  0.6739666322939926  0.0955109916584353   T   T   T
  0.3040361886615326  0.4214620168757516  0.0967149424645475   T   T   T
  0.1816779028169931  0.8409496311037936  0.0958251589772870   T   T   T
  0.4303813146805144  0.1760186986496301  0.0979412126130500   T   T   T
  0.5545979114867188  0.9180634751933540  0.0983828578149595   T   T   T
  0.4284391548826192  0.8341582044497079  0.0980558594107152   T   T   T
  0.8041987522624154  0.0890097071249429  0.0966933362103488   T   T   T
  0.6804321957621576  0.1779030383403461  0.0977763215867464   T   T   T
  0.8058768551101481  0.9207245642309722  0.0967887147110773   T   T   T
  0.6851405340067270  0.3444646531569326  0.0981980021181518   T   T   T
  0.8119369190925597  0.5926664972803389  0.0967382769981385   T   T   T
  0.8115871174745704  0.4238775325662947  0.0965596484496264   T   T   T
  0.6812923354920448  0.8341434583503495  0.0980350442539315   T   T   T
  0.9332719553470050  0.6734960362209821  0.0953437182984931   T   T   T
  0.5552160327640892  0.0926547106440907  0.0984560089361332   T   T   T
  0.4266279816826662  0.3397960410534961  0.0984886919197184   T   T   T
  0.6903410218031510  0.6693894839438569  0.0985042887160304   T   T   T
  0.4227919373195017  0.6737245567200026  0.0986130312845278   T   T   T
  0.3058696470001793  0.9222850675423547  0.0967718697956145   T   T   T
  0.5559739918886294  0.5046109841039319  0.0998744283836679   T   T   T
 
  0.00000000E+00  0.00000000E+00  0.00000000E+00
  0.00000000E+00  0.00000000E+00  0.00000000E+00
  0.00000000E+00  0.00000000E+00  0.00000000E+00
  0.00000000E+00  0.00000000E+00  0.00000000E+00
  0.00000000E+00  0.00000000E+00  0.00000000E+00
  0.00000000E+00  0.00000000E+00  0.00000000E+00
  0.00000000E+00  0.00000000E+00  0.00000000E+00
  0.00000000E+00  0.00000000E+00  0.00000000E+00
  0.00000000E+00  0.00000000E+00  0.00000000E+00
  0.00000000E+00  0.00000000E+00  0.00000000E+00
  0.00000000E+00  0.00000000E+00  0.00000000E+00
  0.00000000E+00  0.00000000E+00  0.00000000E+00
  0.00000000E+00  0.00000000E+00  0.00000000E+00
  0.00000000E+00  0.00000000E+00  0.00000000E+00
  0.00000000E+00  0.00000000E+00  0.00000000E+00
  0.00000000E+00  0.00000000E+00  0.00000000E+00
  0.00000000E+00  0.00000000E+00  0.00000000E+00
  0.00000000E+00  0.00000000E+00  0.00000000E+00
  0.00000000E+00  0.00000000E+00  0.00000000E+00
  0.00000000E+00  0.00000000E+00  0.00000000E+00
  0.00000000E+00  0.00000000E+00  0.00000000E+00
  0.00000000E+00  0.00000000E+00  0.00000000E+00
  0.00000000E+00  0.00000000E+00  0.00000000E+00
  0.00000000E+00  0.00000000E+00  0.00000000E+00
  0.00000000E+00  0.00000000E+00  0.00000000E+00
  0.00000000E+00  0.00000000E+00  0.00000000E+00
  0.00000000E+00  0.00000000E+00  0.00000000E+00
  0.00000000E+00  0.00000000E+00  0.00000000E+00
  0.00000000E+00  0.00000000E+00  0.00000000E+00
  0.00000000E+00  0.00000000E+00  0.00000000E+00
  0.00000000E+00  0.00000000E+00  0.00000000E+00
