Title                                   
   1.00000000000000     
     9.8694509999999998    0.0000000000000000    0.0000000000000000
     0.0000000000000000    8.5490480000000009    0.0000000000000000
     0.0000000000000000    0.0000000000000000   20.0000000000000000
    24     6     1
Selective dynamics
Direct
  0.0550819850200450  0.0898455726605943  0.0877501312437357   T   T   T
  0.9304009269434458  0.1722313168338584  0.0871812993058357   T   T   T
  0.0573616467219620  0.9220235499499287  0.0887769206113316   T   T   T
  0.9339969946202634  0.3399471282893630  0.0862554082289631   T   T   T
  0.0565778539999999  0.5906703788044326  0.0863003897235601   T   T   T
  0.0570198189501095  0.4241216154934843  0.0851880594933503   T   T   T
  0.9324458253444304  0.8397783689897736  0.0900487281232235   T   T   T
  0.3068849897369283  0.0888138013340457  0.0954586651206350   T   T   T
  0.1806481290338880  0.1710744490064567  0.0903330817844991   T   T   T
  0.1804976450942214  0.3389755489698477  0.0894138517128832   T   T   T
  0.3005352696905114  0.5894283659956502  0.0981306331259853   T   T   T
  0.1795082008461780  0.6741200948793959  0.0899759355283380   T   T   T
  0.3015001423115047  0.4208843165990065  0.0988302745582816   T   T   T
  0.1817933827325165  0.8413980820332984  0.0908360233302196   T   T   T
  0.4290684757929913  0.1750534328644606  0.1033790118474354   T   T   T
  0.5543984477852226  0.9180506491773893  0.1036143069982243   T   T   T
  0.4276258610840656  0.8356476712662739  0.1030985856225138   T   T   T
  0.8036986620592271  0.0889226871781640  0.0914687242436264   T   T   T
  0.6806962535098896  0.1761655400694873  0.0980334106902277   T   T   T
  0.8060738040474237  0.9205447725050504  0.0933631538977713   T   T   T
  0.6880583400035132  0.3437701285970995  0.1037399999643694   T   T   T
  0.8146951657080108  0.5930769755136005  0.0966256519673513   T   T   T
  0.8135964478286696  0.4242449782489151  0.0933039930376832   T   T   T
  0.6828401262360139  0.8352456122563974  0.1020927564386659   T   T   T
  0.9339090926859245  0.6737042280014950  0.0893377848075794   T   T   T
  0.5550058714614984  0.0924664915090472  0.1027341079925690   T   T   T
  0.4215287223420606  0.3379788502792319  0.1125433516446995   T   T   T
  0.6949461359996711  0.6715686059803886  0.1102583518073010   T   T   T
  0.4184967372798098  0.6744044618560376  0.1105651058794701   T   T   T
  0.3058507002045732  0.9226132915371609  0.0948305548212557   T   T   T
  0.5583933449254389  0.5041040333206783  0.1274967464484511   T   T   T
 
  0.00000000E+00  0.00000000E+00  0.00000000E+00
  0.00000000E+00  0.00000000E+00  0.00000000E+00
  0.00000000E+00  0.00000000E+00  0.00000000E+00
  0.00000000E+00  0.00000000E+00  0.00000000E+00
  0.00000000E+00  0.00000000E+00  0.00000000E+00
  0.00000000E+00  0.00000000E+00  0.00000000E+00
  0.00000000E+00  0.00000000E+00  0.00000000E+00
  0.00000000E+00  0.00000000E+00  0.00000000E+00
  0.00000000E+00  0.00000000E+00  0.00000000E+00
  0.00000000E+00  0.00000000E+00  0.00000000E+00
  0.00000000E+00  0.00000000E+00  0.00000000E+00
  0.00000000E+00  0.00000000E+00  0.00000000E+00
  0.00000000E+00  0.00000000E+00  0.00000000E+00
  0.00000000E+00  0.00000000E+00  0.00000000E+00
  0.00000000E+00  0.00000000E+00  0.00000000E+00
  0.00000000E+00  0.00000000E+00  0.00000000E+00
  0.00000000E+00  0.00000000E+00  0.00000000E+00
  0.00000000E+00  0.00000000E+00  0.00000000E+00
  0.00000000E+00  0.00000000E+00  0.00000000E+00
  0.00000000E+00  0.00000000E+00  0.00000000E+00
  0.00000000E+00  0.00000000E+00  0.00000000E+00
  0.00000000E+00  0.00000000E+00  0.00000000E+00
  0.00000000E+00  0.00000000E+00  0.00000000E+00
  0.00000000E+00  0.00000000E+00  0.00000000E+00
  0.00000000E+00  0.00000000E+00  0.00000000E+00
  0.00000000E+00  0.00000000E+00  0.00000000E+00
  0.00000000E+00  0.00000000E+00  0.00000000E+00
  0.00000000E+00  0.00000000E+00  0.00000000E+00
  0.00000000E+00  0.00000000E+00  0.00000000E+00
  0.00000000E+00  0.00000000E+00  0.00000000E+00
  0.00000000E+00  0.00000000E+00  0.00000000E+00
