Title                                   
   1.00000000000000     
     9.8694509999999998    0.0000000000000000    0.0000000000000000
     0.0000000000000000    8.5490480000000009    0.0000000000000000
     0.0000000000000000    0.0000000000000000   20.0000000000000000
    28     2     1
Selective dynamics
Direct
  0.0562112120426758  0.0893643161487328  0.0809355249107835   T   T   T
  0.9311909420361372  0.1724758775773087  0.0859949629641617   T   T   T
  0.0562180955598267  0.9229568230742010  0.0809426200581075   T   T   T
  0.9329169941906185  0.3389538111557771  0.0879954082809455   T   T   T
  0.0566422142763157  0.5893816755333878  0.0812501831294266   T   T   T
  0.9329157189977988  0.6733743286858630  0.0880189232084233   T   T   T
  0.0566400633159084  0.4229643434462690  0.0812574407490749   T   T   T
  0.9311859962717239  0.8398602151015360  0.0859989213330175   T   T   T
  0.3065013600248621  0.0897619493966091  0.0860504915078265   T   T   T
  0.1811115182563427  0.1722144363958619  0.0813329064463504   T   T   T
  0.3065090010032352  0.9225018752616124  0.0860243308209106   T   T   T
  0.1806825505784477  0.3398104717757200  0.0810324257092276   T   T   T
  0.3056031780345968  0.5916837928808177  0.0871365511930341   T   T   T
  0.1806985477346327  0.6725002358308062  0.0810177320453862   T   T   T
  0.3056072556677086  0.4205735109318098  0.0871505831414232   T   T   T
  0.1811158069857465  0.8401054141331098  0.0813173866786069   T   T   T
  0.5547553080102562  0.0907026182459817  0.1034021697832712   T   T   T
  0.4289157639972643  0.1767097752120362  0.0957933777604121   T   T   T
  0.5547405140160487  0.9215869690661942  0.1033660899562676   T   T   T
  0.4289158051955035  0.8355493069123300  0.0957396642879903   T   T   T
  0.8064419422765036  0.0897274836554010  0.0927376749652476   T   T   T
  0.6836273293532682  0.1751747896490632  0.1054319403247924   T   T   T
  0.8064315371262887  0.9226141368371295  0.0927186319809807   T   T   T
  0.6912862574748688  0.3379256239298545  0.1175325105240315   T   T   T
  0.8121143255452983  0.5918459116043296  0.1037253520570029   T   T   T
  0.6912791571252954  0.6744246012056850  0.1174792353116172   T   T   T
  0.8121110461072971  0.4204684392927190  0.1037183216782033   T   T   T
  0.6836113725189269  0.8371655111049009  0.1053811789075749   T   T   T
  0.4239340591694910  0.3384719704227207  0.0980889891957592   T   T   T
  0.4239331158619997  0.6738049521271962  0.0980344387061269   T   T   T
  0.5392870112451240  0.5062198334050503  0.1643590323840575   T   T   T
 
  0.00000000E+00  0.00000000E+00  0.00000000E+00
  0.00000000E+00  0.00000000E+00  0.00000000E+00
  0.00000000E+00  0.00000000E+00  0.00000000E+00
  0.00000000E+00  0.00000000E+00  0.00000000E+00
  0.00000000E+00  0.00000000E+00  0.00000000E+00
  0.00000000E+00  0.00000000E+00  0.00000000E+00
  0.00000000E+00  0.00000000E+00  0.00000000E+00
  0.00000000E+00  0.00000000E+00  0.00000000E+00
  0.00000000E+00  0.00000000E+00  0.00000000E+00
  0.00000000E+00  0.00000000E+00  0.00000000E+00
  0.00000000E+00  0.00000000E+00  0.00000000E+00
  0.00000000E+00  0.00000000E+00  0.00000000E+00
  0.00000000E+00  0.00000000E+00  0.00000000E+00
  0.00000000E+00  0.00000000E+00  0.00000000E+00
  0.00000000E+00  0.00000000E+00  0.00000000E+00
  0.00000000E+00  0.00000000E+00  0.00000000E+00
  0.00000000E+00  0.00000000E+00  0.00000000E+00
  0.00000000E+00  0.00000000E+00  0.00000000E+00
  0.00000000E+00  0.00000000E+00  0.00000000E+00
  0.00000000E+00  0.00000000E+00  0.00000000E+00
  0.00000000E+00  0.00000000E+00  0.00000000E+00
  0.00000000E+00  0.00000000E+00  0.00000000E+00
  0.00000000E+00  0.00000000E+00  0.00000000E+00
  0.00000000E+00  0.00000000E+00  0.00000000E+00
  0.00000000E+00  0.00000000E+00  0.00000000E+00
  0.00000000E+00  0.00000000E+00  0.00000000E+00
  0.00000000E+00  0.00000000E+00  0.00000000E+00
  0.00000000E+00  0.00000000E+00  0.00000000E+00
  0.00000000E+00  0.00000000E+00  0.00000000E+00
  0.00000000E+00  0.00000000E+00  0.00000000E+00
  0.00000000E+00  0.00000000E+00  0.00000000E+00
