Title                                   
   1.00000000000000     
     8.5490480000000009    0.0000000000000000    0.0000000000000000
     0.0000000000000000    8.5490480000000009    0.0000000000000000
     0.0000000000000000    0.0000000000000000   20.0000000000000000
    21     3     1
Selective dynamics
Direct
  0.9086060584940724  0.2062335086601698  0.0976049633482689   T   T   T
  0.9092011541699146  0.5027661563077661  0.0977595848223738   T   T   T
  0.9116736950976787  0.8017717945045033  0.0976847479614955   T   T   T
  0.1967347876131560  0.0830403632953055  0.0977519620411426   T   T   T
  0.0751453818689486  0.2022352926375781  0.0977168078437972   T   T   T
  0.1597862143038046  0.6485686551230954  0.0977276536361317   T   T   T
  0.0782546766201078  0.5012565783768104  0.0978070456308159   T   T   T
  0.1586472730977329  0.3522434466700107  0.0979056380320948   T   T   T
  0.0789838397479925  0.7986330716054131  0.0976663450602068   T   T   T
  0.4922625822401123  0.0865074147413667  0.0977605401506826   T   T   T
  0.3427967074656882  0.1649793919404981  0.0978832317077732   T   T   T
  0.4921374518478580  0.9169396873780584  0.0977284858194822   T   T   T
  0.3460787351596109  0.8352921046177352  0.0976702958291938   T   T   T
  0.7868503992874856  0.0858119667919187  0.0976016337970208   T   T   T
  0.6372459894743494  0.1673866212376879  0.0976563218513803   T   T   T
  0.7889540463925813  0.9202907726995617  0.0976572479319658   T   T   T
  0.8297619013302043  0.6522366064397358  0.0977980382843970   T   T   T
  0.8278559896208350  0.3564855818555933  0.0976517404015355   T   T   T
  0.6407986562525096  0.8361505625671886  0.0977695883609421   T   T   T
  0.3244836488805501  0.6712337765927621  0.0976921111076086   T   T   T
  0.6607127335073776  0.3345046615083343  0.0976701745875679   T   T   T
  0.3198112524646176  0.3284689911148020  0.0980664064001421   T   T   T
  0.6668550381242675  0.6745178249025883  0.0978984249200723   T   T   T
  0.1978785008224070  0.9164701203492372  0.0976997205952948   T   T   T
  0.4938952861161231  0.5007650480822915  0.0978762898785938   T   T   T
 
  0.00000000E+00  0.00000000E+00  0.00000000E+00
  0.00000000E+00  0.00000000E+00  0.00000000E+00
  0.00000000E+00  0.00000000E+00  0.00000000E+00
  0.00000000E+00  0.00000000E+00  0.00000000E+00
  0.00000000E+00  0.00000000E+00  0.00000000E+00
  0.00000000E+00  0.00000000E+00  0.00000000E+00
  0.00000000E+00  0.00000000E+00  0.00000000E+00
  0.00000000E+00  0.00000000E+00  0.00000000E+00
  0.00000000E+00  0.00000000E+00  0.00000000E+00
  0.00000000E+00  0.00000000E+00  0.00000000E+00
  0.00000000E+00  0.00000000E+00  0.00000000E+00
  0.00000000E+00  0.00000000E+00  0.00000000E+00
  0.00000000E+00  0.00000000E+00  0.00000000E+00
  0.00000000E+00  0.00000000E+00  0.00000000E+00
  0.00000000E+00  0.00000000E+00  0.00000000E+00
  0.00000000E+00  0.00000000E+00  0.00000000E+00
  0.00000000E+00  0.00000000E+00  0.00000000E+00
  0.00000000E+00  0.00000000E+00  0.00000000E+00
  0.00000000E+00  0.00000000E+00  0.00000000E+00
  0.00000000E+00  0.00000000E+00  0.00000000E+00
  0.00000000E+00  0.00000000E+00  0.00000000E+00
  0.00000000E+00  0.00000000E+00  0.00000000E+00
  0.00000000E+00  0.00000000E+00  0.00000000E+00
  0.00000000E+00  0.00000000E+00  0.00000000E+00
  0.00000000E+00  0.00000000E+00  0.00000000E+00
