Title                                   
   1.00000000000000     
     4.9440799999999996    0.0000000000000000    0.0000000000000000
     0.0000000000000000    8.5647549999999999    0.0000000000000000
     0.0000000000000000    0.0000000000000000   20.0000000000000000
    10     4     1
Selective dynamics
Direct
  0.2500000000000000  0.2118065941276097  0.0955610140657018   T   T   T
 -0.0015831360112067  0.2947962368358715  0.0956499873636857   T   T   T
  0.2500000000000000  0.0377827319088443  0.0956229769516184   T   T   T
 -0.0015754302640275  0.9547539819558638  0.0957218942753109   T   T   T
  0.7500000000000000  0.2091819306378416  0.0929605551642104   T   T   T
  0.5015831360112066  0.2947962368358715  0.0956499873636857   T   T   T
  0.7500000000000000  0.0403517746778373  0.0929863856413656   T   T   T
  0.7500000000000000  0.7106075122367588  0.0991581621580296   T   T   T
  0.7500000000000000  0.5390112431488897  0.0990591437336112   T   T   T
  0.5015754302640275  0.9547539819558638  0.0957218942753109   T   T   T
  0.5080492944587106  0.4578236716835773  0.1004301186968403   T   T   T
 -0.0080492944587107  0.4578236716835773  0.1004301186968403   T   T   T
 -0.0081239577209053  0.7917574542373270  0.1005581488892702   T   T   T
  0.5081239577209051  0.7917574542373270  0.1005581488892702   T   T   T
  0.2500000000000000  0.6246765238369413  0.1479114638352525   T   T   T
 
  0.00000000E+00  0.00000000E+00  0.00000000E+00
  0.00000000E+00  0.00000000E+00  0.00000000E+00
  0.00000000E+00  0.00000000E+00  0.00000000E+00
  0.00000000E+00  0.00000000E+00  0.00000000E+00
  0.00000000E+00  0.00000000E+00  0.00000000E+00
  0.00000000E+00  0.00000000E+00  0.00000000E+00
  0.00000000E+00  0.00000000E+00  0.00000000E+00
  0.00000000E+00  0.00000000E+00  0.00000000E+00
  0.00000000E+00  0.00000000E+00  0.00000000E+00
  0.00000000E+00  0.00000000E+00  0.00000000E+00
  0.00000000E+00  0.00000000E+00  0.00000000E+00
  0.00000000E+00  0.00000000E+00  0.00000000E+00
  0.00000000E+00  0.00000000E+00  0.00000000E+00
  0.00000000E+00  0.00000000E+00  0.00000000E+00
  0.00000000E+00  0.00000000E+00  0.00000000E+00
