Title                                   
   1.00000000000000     
     8.5490480000000009    0.0000000000000000    0.0000000000000000
     0.0000000000000000    8.5490480000000009    0.0000000000000000
     0.0000000000000000    0.0000000000000000   20.0000000000000000
    18     6     1
Selective dynamics
Direct
  0.9078361694583230  0.2053235513660994  0.0975425620655200   T   T   T
  0.9107804934900258  0.8009759032995333  0.0975102061696159   T   T   T
  0.1961972860283026  0.0837287085060329  0.0977797321788505   T   T   T
  0.0765877808903671  0.1999200080006153  0.0976602703162726   T   T   T
  0.1569355705003739  0.6517033859811847  0.0977966484358179   T   T   T
  0.0761181392415351  0.4998083430064667  0.0977553751350998   T   T   T
  0.1573634358236399  0.3529728749471825  0.0977320073609501   T   T   T
  0.0789301220248511  0.7991123528209573  0.0976746984286911   T   T   T
  0.3473017730915580  0.1668621396509875  0.0978534010403443   T   T   T
  0.4939359642640796  0.9169893685729332  0.0978358985439336   T   T   T
  0.3425305353078719  0.8363674660716798  0.0979100325219639   T   T   T
  0.7879783243232493  0.0864922043962475  0.0975278094610861   T   T   T
  0.6405204633911824  0.1674560620500327  0.0977485670820474   T   T   T
  0.7903178588645114  0.9188431144811531  0.0975083782930292   T   T   T
  0.8282674950362803  0.6520485370969799  0.0976634236027562   T   T   T
  0.8257090984456583  0.3524140239134449  0.0976829220183760   T   T   T
  0.6429370177557916  0.8365359907320915  0.0976899785288767   T   T   T
  0.3262123344734263  0.3313771890453308  0.0978300760420899   T   T   T
  0.4945200237723531  0.0861394029632817  0.0978948032944187   T   T   T
  0.9048408670643494  0.5021717940474568  0.0977589217133150   T   T   T
  0.3191733025876244  0.6771640010034973  0.0979585412262501   T   T   T
  0.6625446817814051  0.3296743818115317  0.0978548571220058   T   T   T
  0.6685673634744962  0.6734308621368770  0.0977963499263815   T   T   T
  0.1965557721071134  0.9157196774899276  0.0978346263082175   T   T   T
  0.4927501268016250  0.5015586566084949  0.0979049131840632   T   T   T
 
  0.00000000E+00  0.00000000E+00  0.00000000E+00
  0.00000000E+00  0.00000000E+00  0.00000000E+00
  0.00000000E+00  0.00000000E+00  0.00000000E+00
  0.00000000E+00  0.00000000E+00  0.00000000E+00
  0.00000000E+00  0.00000000E+00  0.00000000E+00
  0.00000000E+00  0.00000000E+00  0.00000000E+00
  0.00000000E+00  0.00000000E+00  0.00000000E+00
  0.00000000E+00  0.00000000E+00  0.00000000E+00
  0.00000000E+00  0.00000000E+00  0.00000000E+00
  0.00000000E+00  0.00000000E+00  0.00000000E+00
  0.00000000E+00  0.00000000E+00  0.00000000E+00
  0.00000000E+00  0.00000000E+00  0.00000000E+00
  0.00000000E+00  0.00000000E+00  0.00000000E+00
  0.00000000E+00  0.00000000E+00  0.00000000E+00
  0.00000000E+00  0.00000000E+00  0.00000000E+00
  0.00000000E+00  0.00000000E+00  0.00000000E+00
  0.00000000E+00  0.00000000E+00  0.00000000E+00
  0.00000000E+00  0.00000000E+00  0.00000000E+00
  0.00000000E+00  0.00000000E+00  0.00000000E+00
  0.00000000E+00  0.00000000E+00  0.00000000E+00
  0.00000000E+00  0.00000000E+00  0.00000000E+00
  0.00000000E+00  0.00000000E+00  0.00000000E+00
  0.00000000E+00  0.00000000E+00  0.00000000E+00
  0.00000000E+00  0.00000000E+00  0.00000000E+00
  0.00000000E+00  0.00000000E+00  0.00000000E+00
