Title                                   
   1.00000000000000     
     4.9440799999999996    0.0000000000000000    0.0000000000000000
     0.0000000000000000   17.1295089999999988    0.0000000000000000
     0.0000000000000000    0.0000000000000000   20.0000000000000000
    27     4     1
Selective dynamics
Direct
 -0.0006990793185189  0.1051486348060698  0.2865882807335275   T   T   T
  0.2488725238509019  0.1472528620659828  0.2898480293207042   T   T   T
  0.2481704922481601  0.2304895623864208  0.2991458111582925   T   T   T
  0.0020299257660401  0.3519487850637293  0.3202422068258701   T   T   T
 -0.0043633513234603  0.2718819870221620  0.3035148121959985   T   T   T
 -0.0016462507594758  0.6018944317823550  0.3015699930272848   T   T   T
  0.2526410455632349  0.7265757030479605  0.2915744776483216   T   T   T
  0.0020782326427881  0.8532650612600842  0.2841971480312369   T   T   T
  0.2511087623445667  0.8955075056877910  0.2836008304490923   T   T   T
  0.2502136796658102  0.9793910275425622  0.2832327278383334   T   T   T
  0.0033517351101172  0.7693866831650623  0.2875861951975021   T   T   T
  0.4988533871393843  0.1051136633943975  0.2867012693344713   T   T   T
  0.7486816354948497  0.1472956363628689  0.2887092672828280   T   T   T
  0.7475774655672355  0.2299626725369840  0.2959389732738196   T   T   T
  0.4999635038061009  0.0214202722955563  0.2837360225402899   T   T   T
  0.4917053912750556  0.3524830207387299  0.3210074824530074   T   T   T
  0.7515619354984744  0.4839787840273521  0.3197194851059240   T   T   T
  0.4996195103619601  0.2719578726631240  0.3039332170261377   T   T   T
  0.5099251826265304  0.6034698251013154  0.3082092615279118   T   T   T
  0.7526034709411221  0.7284302825307649  0.2901077152682143   T   T   T
  0.5007940619061363  0.8533140358988643  0.2846731143780211   T   T   T
  0.7511647047049429  0.8952985084616635  0.2833516273663886   T   T   T
  0.7502693611708288  0.9791612277881201  0.2829538821965171   T   T   T
  0.5013335446412583  0.7694714950287649  0.2885547237406634   T   T   T
  0.7537379254440605  0.6453516911531799  0.2978390637992797   T   T   T
  0.2539832753236087  0.6423703812250218  0.3004318771801722   T   T   T
 -0.0000534624722507  0.0214845902683767  0.2836266062867963   T   T   T
  0.5244304471330437  0.5260976236402629  0.3305958431617090   T   T   T
  0.9872903645105869  0.5208974170661970  0.3055197598884627   T   T   T
  0.2462824684934691  0.3852563975345834  0.3370743924363520   T   T   T
  0.7466552269427960  0.3982777448131465  0.3242233556115234   T   T   T
  0.2286858837006472  0.4847156136405371  0.3745575477152986   T   T   T
 
  0.00000000E+00  0.00000000E+00  0.00000000E+00
  0.00000000E+00  0.00000000E+00  0.00000000E+00
  0.00000000E+00  0.00000000E+00  0.00000000E+00
  0.00000000E+00  0.00000000E+00  0.00000000E+00
  0.00000000E+00  0.00000000E+00  0.00000000E+00
  0.00000000E+00  0.00000000E+00  0.00000000E+00
  0.00000000E+00  0.00000000E+00  0.00000000E+00
  0.00000000E+00  0.00000000E+00  0.00000000E+00
  0.00000000E+00  0.00000000E+00  0.00000000E+00
  0.00000000E+00  0.00000000E+00  0.00000000E+00
  0.00000000E+00  0.00000000E+00  0.00000000E+00
  0.00000000E+00  0.00000000E+00  0.00000000E+00
  0.00000000E+00  0.00000000E+00  0.00000000E+00
  0.00000000E+00  0.00000000E+00  0.00000000E+00
  0.00000000E+00  0.00000000E+00  0.00000000E+00
  0.00000000E+00  0.00000000E+00  0.00000000E+00
  0.00000000E+00  0.00000000E+00  0.00000000E+00
  0.00000000E+00  0.00000000E+00  0.00000000E+00
  0.00000000E+00  0.00000000E+00  0.00000000E+00
  0.00000000E+00  0.00000000E+00  0.00000000E+00
  0.00000000E+00  0.00000000E+00  0.00000000E+00
  0.00000000E+00  0.00000000E+00  0.00000000E+00
  0.00000000E+00  0.00000000E+00  0.00000000E+00
  0.00000000E+00  0.00000000E+00  0.00000000E+00
  0.00000000E+00  0.00000000E+00  0.00000000E+00
  0.00000000E+00  0.00000000E+00  0.00000000E+00
  0.00000000E+00  0.00000000E+00  0.00000000E+00
  0.00000000E+00  0.00000000E+00  0.00000000E+00
  0.00000000E+00  0.00000000E+00  0.00000000E+00
  0.00000000E+00  0.00000000E+00  0.00000000E+00
  0.00000000E+00  0.00000000E+00  0.00000000E+00
  0.00000000E+00  0.00000000E+00  0.00000000E+00
