Title                                   
   1.00000000000000     
     9.8694509999999998    0.0000000000000000    0.0000000000000000
     0.0000000000000000    8.5490480000000009    0.0000000000000000
     0.0000000000000000    0.0000000000000000   20.0000000000000000
    28     2     1
Selective dynamics
Direct
  0.0552341073519767  0.0893023108287593  0.0844893831868790   T   T   T
  0.9296394555326958  0.1742441671017835  0.0856563848285124   T   T   T
  0.0571908039947146  0.9230228628018281  0.0844884098088516   T   T   T
  0.9312602681362991  0.3415117831057239  0.0850461723122823   T   T   T
  0.0566701371195868  0.5892888106604407  0.0825695629540649   T   T   T
  0.9335067974344019  0.6757791797915661  0.0863657071314214   T   T   T
  0.0558012005211782  0.4230164609076538  0.0825680865194540   T   T   T
  0.9326102115381011  0.8424306401907671  0.0872814344577588   T   T   T
  0.3056766683721978  0.0874743769516588  0.0927598850526047   T   T   T
  0.1798162328191500  0.1698810015827183  0.0872507752859995   T   T   T
  0.3083316717549582  0.9190648901340237  0.0913708159376298   T   T   T
  0.1789704984838465  0.3365189511311489  0.0862972104474514   T   T   T
  0.3040868713840644  0.5851154409414486  0.0920673689020988   T   T   T
  0.1812080033127064  0.6708219177077503  0.0849611464740761   T   T   T
  0.3011028912299936  0.4163172791590445  0.0952302894437700   T   T   T
  0.1827998098935065  0.8381064642088781  0.0856116452467810   T   T   T
  0.5549073785365352  0.0911583489301587  0.1034397714429357   T   T   T
  0.4270044716605333  0.1742962005114982  0.1024866722919713   T   T   T
  0.5575417372305893  0.9211408316359271  0.1034484917861816   T   T   T
  0.4286637430137227  0.6646090414630205  0.1001743944214422   T   T   T
  0.4332147804752862  0.8324596491844763  0.0987134386019180   T   T   T
  0.8041258499563732  0.0932474570003547  0.0914069111652666   T   T   T
  0.6792405764263847  0.1798285509781291  0.0987328623829811   T   T   T
  0.8067702497980380  0.9248424880218976  0.0927946232390756   T   T   T
  0.6837994660406306  0.3476916870028337  0.1002530945697430   T   T   T
  0.8113983334240640  0.5959854986053442  0.0953524729367021   T   T   T
  0.8083770049205057  0.4271863594042852  0.0922041897281662   T   T   T
  0.6854465295226562  0.8380297576821322  0.1025310384533174   T   T   T
  0.4193507647838484  0.3363478223097598  0.1103237669476642   T   T   T
  0.6931758978504580  0.6759853747537600  0.1104293487296047   T   T   T
  0.5562125874810077  0.5061693953112402  0.1446596453134357   T   T   T
 
  0.00000000E+00  0.00000000E+00  0.00000000E+00
  0.00000000E+00  0.00000000E+00  0.00000000E+00
  0.00000000E+00  0.00000000E+00  0.00000000E+00
  0.00000000E+00  0.00000000E+00  0.00000000E+00
  0.00000000E+00  0.00000000E+00  0.00000000E+00
  0.00000000E+00  0.00000000E+00  0.00000000E+00
  0.00000000E+00  0.00000000E+00  0.00000000E+00
  0.00000000E+00  0.00000000E+00  0.00000000E+00
  0.00000000E+00  0.00000000E+00  0.00000000E+00
  0.00000000E+00  0.00000000E+00  0.00000000E+00
  0.00000000E+00  0.00000000E+00  0.00000000E+00
  0.00000000E+00  0.00000000E+00  0.00000000E+00
  0.00000000E+00  0.00000000E+00  0.00000000E+00
  0.00000000E+00  0.00000000E+00  0.00000000E+00
  0.00000000E+00  0.00000000E+00  0.00000000E+00
  0.00000000E+00  0.00000000E+00  0.00000000E+00
  0.00000000E+00  0.00000000E+00  0.00000000E+00
  0.00000000E+00  0.00000000E+00  0.00000000E+00
  0.00000000E+00  0.00000000E+00  0.00000000E+00
  0.00000000E+00  0.00000000E+00  0.00000000E+00
  0.00000000E+00  0.00000000E+00  0.00000000E+00
  0.00000000E+00  0.00000000E+00  0.00000000E+00
  0.00000000E+00  0.00000000E+00  0.00000000E+00
  0.00000000E+00  0.00000000E+00  0.00000000E+00
  0.00000000E+00  0.00000000E+00  0.00000000E+00
  0.00000000E+00  0.00000000E+00  0.00000000E+00
  0.00000000E+00  0.00000000E+00  0.00000000E+00
  0.00000000E+00  0.00000000E+00  0.00000000E+00
  0.00000000E+00  0.00000000E+00  0.00000000E+00
  0.00000000E+00  0.00000000E+00  0.00000000E+00
  0.00000000E+00  0.00000000E+00  0.00000000E+00
