Title                                   
   1.00000000000000     
     9.8694509999999998    0.0000000000000000    0.0000000000000000
     0.0000000000000000    8.5490480000000009    0.0000000000000000
     0.0000000000000000    0.0000000000000000   20.0000000000000000
    25     5     1
Selective dynamics
Direct
  0.0554941571451382  0.0889673634280789  0.0901346827010880   T   T   T
  0.9307452292711698  0.1724217772826278  0.0898619618941129   T   T   T
  0.0571864881257397  0.9214260379541825  0.0906305421036050   T   T   T
  0.9335125021622919  0.3399630895571022  0.0891941175383971   T   T   T
  0.0558067658961635  0.5906308868938289  0.0897117447088341   T   T   T
  0.0562880947040604  0.4239637629052633  0.0890072111563790   T   T   T
  0.9324284796817925  0.8394637314186403  0.0910937667126372   T   T   T
  0.3068769736086661  0.0886336567750285  0.0946513568868963   T   T   T
  0.1804280591054076  0.1705230133880831  0.0916846627287150   T   T   T
  0.1798603647079398  0.3379194989748163  0.0914018169952669   T   T   T
  0.3018691707627301  0.5873950999265386  0.0969751785032906   T   T   T
  0.1792736725714004  0.6733178872218779  0.0921271704113487   T   T   T
  0.3018220865669424  0.4189462449932438  0.0966276412253673   T   T   T
  0.1824540234789272  0.8404833557801494  0.0921763416439737   T   T   T
  0.4301228686373660  0.1749361043167192  0.0987808045484215   T   T   T
  0.5560074347477256  0.9215132439649495  0.0989816125705825   T   T   T
  0.4240582259365031  0.6736363555640694  0.1032205212389878   T   T   T
  0.4288867269343614  0.8374152795510189  0.0995235201614979   T   T   T
  0.8051406031250761  0.0884514059103560  0.0924017360131579   T   T   T
  0.6816953951814673  0.1773408146108399  0.0958862183711485   T   T   T
  0.8066434948514397  0.9211848948990452  0.0931827007273676   T   T   T
  0.6868698305696641  0.3417101883105403  0.0973049639410468   T   T   T
  0.8116414269301189  0.5936479451116005  0.0933648807561552   T   T   T
  0.8112633245558446  0.4241665319763258  0.0923105337167720   T   T   T
  0.6813185266591714  0.8371180592541353  0.0972668775051784   T   T   T
  0.9328298691697630  0.6733636220837328  0.0904670501245410   T   T   T
  0.5559017849964960  0.0934444544386816  0.0985745939920772   T   T   T
  0.4242959144749232  0.3373306765604052  0.1023444961971271   T   T   T
  0.6909463766539373  0.6719731928284860  0.0989778204709800   T   T   T
  0.3056626776350111  0.9233812507689568  0.0945467941882207   T   T   T
  0.5558044511527637  0.5062055733507040  0.1085516802668604   T   T   T
 
  0.00000000E+00  0.00000000E+00  0.00000000E+00
  0.00000000E+00  0.00000000E+00  0.00000000E+00
  0.00000000E+00  0.00000000E+00  0.00000000E+00
  0.00000000E+00  0.00000000E+00  0.00000000E+00
  0.00000000E+00  0.00000000E+00  0.00000000E+00
  0.00000000E+00  0.00000000E+00  0.00000000E+00
  0.00000000E+00  0.00000000E+00  0.00000000E+00
  0.00000000E+00  0.00000000E+00  0.00000000E+00
  0.00000000E+00  0.00000000E+00  0.00000000E+00
  0.00000000E+00  0.00000000E+00  0.00000000E+00
  0.00000000E+00  0.00000000E+00  0.00000000E+00
  0.00000000E+00  0.00000000E+00  0.00000000E+00
  0.00000000E+00  0.00000000E+00  0.00000000E+00
  0.00000000E+00  0.00000000E+00  0.00000000E+00
  0.00000000E+00  0.00000000E+00  0.00000000E+00
  0.00000000E+00  0.00000000E+00  0.00000000E+00
  0.00000000E+00  0.00000000E+00  0.00000000E+00
  0.00000000E+00  0.00000000E+00  0.00000000E+00
  0.00000000E+00  0.00000000E+00  0.00000000E+00
  0.00000000E+00  0.00000000E+00  0.00000000E+00
  0.00000000E+00  0.00000000E+00  0.00000000E+00
  0.00000000E+00  0.00000000E+00  0.00000000E+00
  0.00000000E+00  0.00000000E+00  0.00000000E+00
  0.00000000E+00  0.00000000E+00  0.00000000E+00
  0.00000000E+00  0.00000000E+00  0.00000000E+00
  0.00000000E+00  0.00000000E+00  0.00000000E+00
  0.00000000E+00  0.00000000E+00  0.00000000E+00
  0.00000000E+00  0.00000000E+00  0.00000000E+00
  0.00000000E+00  0.00000000E+00  0.00000000E+00
  0.00000000E+00  0.00000000E+00  0.00000000E+00
  0.00000000E+00  0.00000000E+00  0.00000000E+00
