Title                                   
   1.00000000000000     
     4.9440799999999996    0.0000000000000000    0.0000000000000000
     0.0000000000000000   17.1295089999999988    0.0000000000000000
     0.0000000000000000    0.0000000000000000   20.0000000000000000
    26     4     1
Selective dynamics
Direct
  0.0014015998683303  0.1058869734647466  0.2978993343612652   T   T   T
  0.2502956529016971  0.1486991613925392  0.2985384729740251   T   T   T
  0.2502591165786082  0.2333953379766410  0.3000124580420931   T   T   T
 -0.0020114128530814  0.2745779066666378  0.3007593655871211   T   T   T
 -0.0019842520464747  0.6003462826239835  0.3012281231740135   T   T   T
  0.2503261732640399  0.7262180960690625  0.2990935901229677   T   T   T
  0.0009599306538962  0.8530573830671951  0.2971944778226189   T   T   T
  0.2503551785917238  0.8953979007206310  0.2968547408589577   T   T   T
  0.2503449889115090  0.9795349851191234  0.2967503442903981   T   T   T
  0.0014318485446559  0.7690334498241412  0.2983693231432902   T   T   T
  0.4991994561736363  0.1058731168689673  0.2979051963067601   T   T   T
  0.7502956079520053  0.1478711488997795  0.2985590653747827   T   T   T
  0.7502754891748608  0.2310600529310912  0.2999908051476755   T   T   T
  0.4997344161662304  0.0218687854177510  0.2969821261447580   T   T   T
  0.7503541445532019  0.3945704947373441  0.3024410122604921   T   T   T
  0.7503601645184629  0.4803416415394973  0.3026569070984710   T   T   T
  0.5025771306979138  0.2745833711460994  0.3007930600661757   T   T   T
  0.5026678106498244  0.6003450796259513  0.3012521813019310   T   T   T
  0.7503191461414521  0.7270523283259164  0.2990745786809227   T   T   T
  0.4997358055391116  0.8530640816916220  0.2971956255113644   T   T   T
  0.7503381491887451  0.8954705607017510  0.2968329264630808   T   T   T
  0.7503383473862868  0.9794533252449394  0.2967248623716153   T   T   T
  0.4992067690712003  0.7690442690626702  0.2983727398610358   T   T   T
  0.7503344190222819  0.6438708525379430  0.3004938083250052   T   T   T
  0.2503242420547679  0.6415183750266302  0.3005363411685175   T   T   T
  0.0009415119697119  0.0218788809931499  0.2969819764132047   T   T   T
  0.5152218656468358  0.5206850654208984  0.3024837018852254   T   T   T
  0.9854580605363106  0.5206901532950764  0.3024084515806519   T   T   T
  0.5151649618927580  0.3542344735911458  0.3021609000377936   T   T   T
 -0.0145406284280263  0.3542323398121015  0.3020746390684806   T   T   T
  0.2503213056775257  0.4374861262049707  0.3024388645552556   T   T   T
 
  0.00000000E+00  0.00000000E+00  0.00000000E+00
  0.00000000E+00  0.00000000E+00  0.00000000E+00
  0.00000000E+00  0.00000000E+00  0.00000000E+00
  0.00000000E+00  0.00000000E+00  0.00000000E+00
  0.00000000E+00  0.00000000E+00  0.00000000E+00
  0.00000000E+00  0.00000000E+00  0.00000000E+00
  0.00000000E+00  0.00000000E+00  0.00000000E+00
  0.00000000E+00  0.00000000E+00  0.00000000E+00
  0.00000000E+00  0.00000000E+00  0.00000000E+00
  0.00000000E+00  0.00000000E+00  0.00000000E+00
  0.00000000E+00  0.00000000E+00  0.00000000E+00
  0.00000000E+00  0.00000000E+00  0.00000000E+00
  0.00000000E+00  0.00000000E+00  0.00000000E+00
  0.00000000E+00  0.00000000E+00  0.00000000E+00
  0.00000000E+00  0.00000000E+00  0.00000000E+00
  0.00000000E+00  0.00000000E+00  0.00000000E+00
  0.00000000E+00  0.00000000E+00  0.00000000E+00
  0.00000000E+00  0.00000000E+00  0.00000000E+00
  0.00000000E+00  0.00000000E+00  0.00000000E+00
  0.00000000E+00  0.00000000E+00  0.00000000E+00
  0.00000000E+00  0.00000000E+00  0.00000000E+00
  0.00000000E+00  0.00000000E+00  0.00000000E+00
  0.00000000E+00  0.00000000E+00  0.00000000E+00
  0.00000000E+00  0.00000000E+00  0.00000000E+00
  0.00000000E+00  0.00000000E+00  0.00000000E+00
  0.00000000E+00  0.00000000E+00  0.00000000E+00
  0.00000000E+00  0.00000000E+00  0.00000000E+00
  0.00000000E+00  0.00000000E+00  0.00000000E+00
  0.00000000E+00  0.00000000E+00  0.00000000E+00
  0.00000000E+00  0.00000000E+00  0.00000000E+00
  0.00000000E+00  0.00000000E+00  0.00000000E+00
