Title                                   
   1.00000000000000     
     9.8694509999999998    0.0000000000000000    0.0000000000000000
     0.0000000000000000    8.5490480000000009    0.0000000000000000
     0.0000000000000000    0.0000000000000000   20.0000000000000000
    23     7     1
Selective dynamics
Direct
  0.0556459274153907  0.0896627740432998  0.0930538307276329   T   T   T
  0.9320069573515494  0.1722246330031464  0.0936175960544574   T   T   T
  0.0572265980250971  0.9207909014900788  0.0932634791445791   T   T   T
  0.9335386151066128  0.3388834945545023  0.0930502173898951   T   T   T
  0.0559255067864971  0.5904187992151083  0.0920099004570530   T   T   T
  0.0559386048008448  0.4236882728640824  0.0916360673434031   T   T   T
  0.9319216154906025  0.8384707522164063  0.0938887381705192   T   T   T
  0.3076233817481884  0.0890093677516795  0.0960030178731131   T   T   T
  0.1809244020551080  0.1717022498205687  0.0937496992438270   T   T   T
  0.1794247841147969  0.3390245390557332  0.0930981369072334   T   T   T
  0.3017765399823127  0.5905343364776271  0.0965678402119349   T   T   T
  0.1784957914134230  0.6733116864286393  0.0935074049039848   T   T   T
  0.3031896782816883  0.4208632589382920  0.0965313716386311   T   T   T
  0.1808808945957414  0.8406113825616103  0.0940443888723912   T   T   T
  0.4284142913295492  0.1758052814490981  0.0993556768634219   T   T   T
  0.5551261313267384  0.9191178859521314  0.1004839425334191   T   T   T
  0.4278537042898651  0.8365801436460218  0.0996971845200823   T   T   T
  0.8055673665630294  0.0885464706974134  0.0958429866325827   T   T   T
  0.6837803298615679  0.1777974413426327  0.0991738703684776   T   T   T
  0.8069957610638822  0.9211587826329823  0.0960546673512279   T   T   T
  0.8104072409576801  0.5914522400010140  0.0970001782121435   T   T   T
  0.8105042266241400  0.4209251069378163  0.0966388145926577   T   T   T
  0.6824424538990760  0.8357416367461937  0.0996565126980681   T   T   T
  0.9332244814683472  0.6722644553973454  0.0932296086466054   T   T   T
  0.5568546067466037  0.0964057685282341  0.1005881304904113   T   T   T
  0.4218981217983050  0.3372880510019186  0.1011355486844096   T   T   T
  0.4201154227982370  0.6768046820813703  0.1014317196007779   T   T   T
  0.6908721392014169  0.3382062140896254  0.1009715768531653   T   T   T
  0.6936982394055516  0.6735332856836066  0.1014893338037755   T   T   T
  0.3054323477353967  0.9219295659419233  0.0957478515880600   T   T   T
  0.5554298377627604  0.5081215394498968  0.1084457076221160   T   T   T
 
  0.00000000E+00  0.00000000E+00  0.00000000E+00
  0.00000000E+00  0.00000000E+00  0.00000000E+00
  0.00000000E+00  0.00000000E+00  0.00000000E+00
  0.00000000E+00  0.00000000E+00  0.00000000E+00
  0.00000000E+00  0.00000000E+00  0.00000000E+00
  0.00000000E+00  0.00000000E+00  0.00000000E+00
  0.00000000E+00  0.00000000E+00  0.00000000E+00
  0.00000000E+00  0.00000000E+00  0.00000000E+00
  0.00000000E+00  0.00000000E+00  0.00000000E+00
  0.00000000E+00  0.00000000E+00  0.00000000E+00
  0.00000000E+00  0.00000000E+00  0.00000000E+00
  0.00000000E+00  0.00000000E+00  0.00000000E+00
  0.00000000E+00  0.00000000E+00  0.00000000E+00
  0.00000000E+00  0.00000000E+00  0.00000000E+00
  0.00000000E+00  0.00000000E+00  0.00000000E+00
  0.00000000E+00  0.00000000E+00  0.00000000E+00
  0.00000000E+00  0.00000000E+00  0.00000000E+00
  0.00000000E+00  0.00000000E+00  0.00000000E+00
  0.00000000E+00  0.00000000E+00  0.00000000E+00
  0.00000000E+00  0.00000000E+00  0.00000000E+00
  0.00000000E+00  0.00000000E+00  0.00000000E+00
  0.00000000E+00  0.00000000E+00  0.00000000E+00
  0.00000000E+00  0.00000000E+00  0.00000000E+00
  0.00000000E+00  0.00000000E+00  0.00000000E+00
  0.00000000E+00  0.00000000E+00  0.00000000E+00
  0.00000000E+00  0.00000000E+00  0.00000000E+00
  0.00000000E+00  0.00000000E+00  0.00000000E+00
  0.00000000E+00  0.00000000E+00  0.00000000E+00
  0.00000000E+00  0.00000000E+00  0.00000000E+00
  0.00000000E+00  0.00000000E+00  0.00000000E+00
  0.00000000E+00  0.00000000E+00  0.00000000E+00
