Title                                   
   1.00000000000000     
     9.8694509999999998    0.0000000000000000    0.0000000000000000
     0.0000000000000000    8.5490480000000009    0.0000000000000000
     0.0000000000000000    0.0000000000000000   20.0000000000000000
    26     4     1
Selective dynamics
Direct
  0.0552753868959976  0.0908014918282821  0.0868995858567527   T   T   T
  0.9305172210373825  0.1726493944610906  0.0881367809087615   T   T   T
  0.0574793901749676  0.9239368286736050  0.0872104113435107   T   T   T
  0.9335132417196937  0.3404170503944253  0.0856727363180453   T   T   T
  0.0572856422096138  0.5902705978125787  0.0805881573502637   T   T   T
  0.9341208756465919  0.6751848392794378  0.0858836927396366   T   T   T
  0.0575381991849071  0.4233931348124449  0.0807177921653698   T   T   T
  0.9325612402520470  0.8411341256640322  0.0888081782458671   T   T   T
  0.3063456765974251  0.0889772283648123  0.0952693274546139   T   T   T
  0.1806175233829385  0.1711843088880506  0.0880433281417830   T   T   T
  0.1808251439777527  0.3385308452439803  0.0851938406295115   T   T   T
  0.3014533301103995  0.5897121392503948  0.0930979581524399   T   T   T
  0.1807499134892110  0.6743147632415670  0.0843151113148285   T   T   T
  0.3017859497804957  0.4215325864588223  0.0948318169446485   T   T   T
  0.1814715971218544  0.8412060624250550  0.0876481132157409   T   T   T
  0.5553167929776284  0.0897775942488122  0.1077002834629432   T   T   T
  0.4275617791356555  0.1751045670293971  0.1058589620403960   T   T   T
  0.5545604716867667  0.9176828246245554  0.1071428459504752   T   T   T
  0.4271806783294146  0.8339338543178449  0.1033012574161410   T   T   T
  0.8040712611556196  0.0900784318412177  0.0953039057260956   T   T   T
  0.6811851627793828  0.1756282923452126  0.1047015592943941   T   T   T
  0.8056004640066742  0.9213254097610367  0.0956605010758289   T   T   T
  0.6891988071202534  0.3456099973500809  0.1111150601816755   T   T   T
  0.8142329506233764  0.5923965701000612  0.0965203541189139   T   T   T
  0.8132268091906174  0.4247449396726588  0.0954724365239238   T   T   T
  0.6839863385819097  0.8326953126845603  0.1054792930345088   T   T   T
  0.4194632879426286  0.3401430762561196  0.1126598171836247   T   T   T
  0.6942867403872485  0.6694724018994996  0.1128768302681654   T   T   T
  0.4185188642178559  0.6735347756830614  0.1072654492104477   T   T   T
  0.3067959773343314  0.9226558131492246  0.0939665518500114   T   T   T
  0.5564082829493696  0.5028457422380898  0.1336230618807174   T   T   T
 
  0.00000000E+00  0.00000000E+00  0.00000000E+00
  0.00000000E+00  0.00000000E+00  0.00000000E+00
  0.00000000E+00  0.00000000E+00  0.00000000E+00
  0.00000000E+00  0.00000000E+00  0.00000000E+00
  0.00000000E+00  0.00000000E+00  0.00000000E+00
  0.00000000E+00  0.00000000E+00  0.00000000E+00
  0.00000000E+00  0.00000000E+00  0.00000000E+00
  0.00000000E+00  0.00000000E+00  0.00000000E+00
  0.00000000E+00  0.00000000E+00  0.00000000E+00
  0.00000000E+00  0.00000000E+00  0.00000000E+00
  0.00000000E+00  0.00000000E+00  0.00000000E+00
  0.00000000E+00  0.00000000E+00  0.00000000E+00
  0.00000000E+00  0.00000000E+00  0.00000000E+00
  0.00000000E+00  0.00000000E+00  0.00000000E+00
  0.00000000E+00  0.00000000E+00  0.00000000E+00
  0.00000000E+00  0.00000000E+00  0.00000000E+00
  0.00000000E+00  0.00000000E+00  0.00000000E+00
  0.00000000E+00  0.00000000E+00  0.00000000E+00
  0.00000000E+00  0.00000000E+00  0.00000000E+00
  0.00000000E+00  0.00000000E+00  0.00000000E+00
  0.00000000E+00  0.00000000E+00  0.00000000E+00
  0.00000000E+00  0.00000000E+00  0.00000000E+00
  0.00000000E+00  0.00000000E+00  0.00000000E+00
  0.00000000E+00  0.00000000E+00  0.00000000E+00
  0.00000000E+00  0.00000000E+00  0.00000000E+00
  0.00000000E+00  0.00000000E+00  0.00000000E+00
  0.00000000E+00  0.00000000E+00  0.00000000E+00
  0.00000000E+00  0.00000000E+00  0.00000000E+00
  0.00000000E+00  0.00000000E+00  0.00000000E+00
  0.00000000E+00  0.00000000E+00  0.00000000E+00
  0.00000000E+00  0.00000000E+00  0.00000000E+00
