Title                                   
   1.00000000000000     
     4.9440799999999996    0.0000000000000000    0.0000000000000000
     0.0000000000000000   17.1295089999999988    0.0000000000000000
     0.0000000000000000    0.0000000000000000   20.0000000000000000
    30     1     1
Selective dynamics
Direct
  0.0012157173871133  0.1040728657602361  0.2820950774739466   T   T   T
  0.2512985317803762  0.1454919936346413  0.2872357084296823   T   T   T
  0.2512669244133999  0.2273761881888638  0.3000190551971691   T   T   T
  0.0025170349496146  0.3492076355336821  0.3230590511209904   T   T   T
  0.0000484537775501  0.2680906966458904  0.3065380848553265   T   T   T
 -0.0013278902880358  0.6068057461804469  0.3087082189239274   T   T   T
  0.2513474996572754  0.7297541517225045  0.2912304481637212   T   T   T
  0.0013854400002826  0.8542837927773667  0.2771525550373143   T   T   T
  0.2511031536991952  0.8962178766069859  0.2754674436748903   T   T   T
  0.2511883299859116  0.9793173694055078  0.2747079466041377   T   T   T
  0.0013454286882311  0.7714437456010851  0.2843329587090752   T   T   T
  0.5012961656993590  0.1040133746965595  0.2821469303082633   T   T   T
  0.7511790284607819  0.1453427574510229  0.2864980031700605   T   T   T
  0.7511130228485868  0.2274757063227114  0.2985284841393438   T   T   T
  0.5013679146268634  0.0210663596787857  0.2759178026424004   T   T   T
  0.5000450653484323  0.3492471918958582  0.3237929046870376   T   T   T
  0.7512319983541323  0.3939409329738018  0.3286164033647149   T   T   T
  0.7490548029279863  0.4817850735324787  0.3279646364080466   T   T   T
  0.5023577067276551  0.2682083104456687  0.3067920211714108   T   T   T
  0.5047512205380328  0.6074381076020979  0.3137340677337468   T   T   T
  0.7506871285698130  0.7305939648442653  0.2888678868942082   T   T   T
  0.5009282235741198  0.8544305457482130  0.2775021947738835   T   T   T
  0.7512420455623798  0.8959383278282428  0.2749826363616736   T   T   T
  0.7512997433115447  0.9793530465686623  0.2743436522641343   T   T   T
  0.5007273177627675  0.7717253142432103  0.2850655087417444   T   T   T
  0.7504028815239523  0.6485940477645891  0.3009422773219029   T   T   T
  0.2519728573291781  0.6483769185305382  0.3057282389817915   T   T   T
  0.0011435351154885  0.0211000204967444  0.2758612555095873   T   T   T
  0.5099073553177940  0.5276484079337020  0.3346459274952732   T   T   T
  0.9902793011864808  0.5252737702109300  0.3192603231963777   T   T   T
  0.2514593664002923  0.3835510538761485  0.3359849983048966   T   T   T
  0.2129876947634533  0.4813857052985497  0.3948422983392729   T   T   T
 
  0.00000000E+00  0.00000000E+00  0.00000000E+00
  0.00000000E+00  0.00000000E+00  0.00000000E+00
  0.00000000E+00  0.00000000E+00  0.00000000E+00
  0.00000000E+00  0.00000000E+00  0.00000000E+00
  0.00000000E+00  0.00000000E+00  0.00000000E+00
  0.00000000E+00  0.00000000E+00  0.00000000E+00
  0.00000000E+00  0.00000000E+00  0.00000000E+00
  0.00000000E+00  0.00000000E+00  0.00000000E+00
  0.00000000E+00  0.00000000E+00  0.00000000E+00
  0.00000000E+00  0.00000000E+00  0.00000000E+00
  0.00000000E+00  0.00000000E+00  0.00000000E+00
  0.00000000E+00  0.00000000E+00  0.00000000E+00
  0.00000000E+00  0.00000000E+00  0.00000000E+00
  0.00000000E+00  0.00000000E+00  0.00000000E+00
  0.00000000E+00  0.00000000E+00  0.00000000E+00
  0.00000000E+00  0.00000000E+00  0.00000000E+00
  0.00000000E+00  0.00000000E+00  0.00000000E+00
  0.00000000E+00  0.00000000E+00  0.00000000E+00
  0.00000000E+00  0.00000000E+00  0.00000000E+00
  0.00000000E+00  0.00000000E+00  0.00000000E+00
  0.00000000E+00  0.00000000E+00  0.00000000E+00
  0.00000000E+00  0.00000000E+00  0.00000000E+00
  0.00000000E+00  0.00000000E+00  0.00000000E+00
  0.00000000E+00  0.00000000E+00  0.00000000E+00
  0.00000000E+00  0.00000000E+00  0.00000000E+00
  0.00000000E+00  0.00000000E+00  0.00000000E+00
  0.00000000E+00  0.00000000E+00  0.00000000E+00
  0.00000000E+00  0.00000000E+00  0.00000000E+00
  0.00000000E+00  0.00000000E+00  0.00000000E+00
  0.00000000E+00  0.00000000E+00  0.00000000E+00
  0.00000000E+00  0.00000000E+00  0.00000000E+00
  0.00000000E+00  0.00000000E+00  0.00000000E+00
