Title                                   
   1.00000000000000     
     9.8694509999999998    0.0000000000000000    0.0000000000000000
     0.0000000000000000    8.5490480000000009    0.0000000000000000
     0.0000000000000000    0.0000000000000000   20.0000000000000000
    25     5     1
Selective dynamics
Direct
  0.0545361575170779  0.0885648585594822  0.0852171014390330   T   T   T
  0.9306155262181737  0.1709048436190947  0.0875151508040534   T   T   T
  0.0569830739333166  0.9215963642882097  0.0864232859464009   T   T   T
  0.9348499864095956  0.3385529506425333  0.0874929419198178   T   T   T
  0.0572300583991984  0.5903563177489709  0.0833705359692498   T   T   T
  0.0572383325162221  0.4239360250069655  0.0819415081684485   T   T   T
  0.9316198383620747  0.8386879519172495  0.0892322251315759   T   T   T
  0.3053577962637676  0.0884298196191622  0.0907549016673384   T   T   T
  0.1806358688802711  0.1706042816408083  0.0853935419909304   T   T   T
  0.1803825431817495  0.3393318767685029  0.0833562929913575   T   T   T
  0.3019366043556041  0.5910006968095779  0.0914079152625052   T   T   T
  0.1798925187368885  0.6738949497190586  0.0851573525287686   T   T   T
  0.3023227643844695  0.4200991055512546  0.0906098111524795   T   T   T
  0.1811951314825332  0.8413899922775595  0.0874456491046107   T   T   T
  0.4283916044855438  0.1758985279270593  0.0982691398841607   T   T   T
  0.5524992894863768  0.9211590308366470  0.1026811554427166   T   T   T
  0.4276329088086577  0.8375842947994964  0.0996939726144647   T   T   T
  0.8039152666089361  0.0895701072817174  0.0932990809350641   T   T   T
  0.6817441614839350  0.1768983965641558  0.1013991096786454   T   T   T
  0.8054112994497867  0.9198115260875809  0.0941929868421943   T   T   T
  0.6903568586504873  0.3442815979789359  0.1099848643519439   T   T   T
  0.8176074563017448  0.5920272661380765  0.1009891866831478   T   T   T
  0.6920196645899495  0.6696546852298770  0.1122017392812204   T   T   T
  0.8176662440372940  0.4215900631308960  0.0993531389367543   T   T   T
  0.6815034870014549  0.8367498350975062  0.1034203826236280   T   T   T
  0.9350509726196621  0.6731723395534780  0.0897954611305537   T   T   T
  0.5535759774532464  0.0942161330497344  0.1018590064158296   T   T   T
  0.4202396390964316  0.3358491954102700  0.1023288300730836   T   T   T
  0.4182837889959863  0.6756046942617852  0.1041854256395278   T   T   T
  0.3047619153167676  0.9228939445352358  0.0915519266063661   T   T   T
  0.5576782649728120  0.5065633279491237  0.1204413787841781   T   T   T
 
  0.00000000E+00  0.00000000E+00  0.00000000E+00
  0.00000000E+00  0.00000000E+00  0.00000000E+00
  0.00000000E+00  0.00000000E+00  0.00000000E+00
  0.00000000E+00  0.00000000E+00  0.00000000E+00
  0.00000000E+00  0.00000000E+00  0.00000000E+00
  0.00000000E+00  0.00000000E+00  0.00000000E+00
  0.00000000E+00  0.00000000E+00  0.00000000E+00
  0.00000000E+00  0.00000000E+00  0.00000000E+00
  0.00000000E+00  0.00000000E+00  0.00000000E+00
  0.00000000E+00  0.00000000E+00  0.00000000E+00
  0.00000000E+00  0.00000000E+00  0.00000000E+00
  0.00000000E+00  0.00000000E+00  0.00000000E+00
  0.00000000E+00  0.00000000E+00  0.00000000E+00
  0.00000000E+00  0.00000000E+00  0.00000000E+00
  0.00000000E+00  0.00000000E+00  0.00000000E+00
  0.00000000E+00  0.00000000E+00  0.00000000E+00
  0.00000000E+00  0.00000000E+00  0.00000000E+00
  0.00000000E+00  0.00000000E+00  0.00000000E+00
  0.00000000E+00  0.00000000E+00  0.00000000E+00
  0.00000000E+00  0.00000000E+00  0.00000000E+00
  0.00000000E+00  0.00000000E+00  0.00000000E+00
  0.00000000E+00  0.00000000E+00  0.00000000E+00
  0.00000000E+00  0.00000000E+00  0.00000000E+00
  0.00000000E+00  0.00000000E+00  0.00000000E+00
  0.00000000E+00  0.00000000E+00  0.00000000E+00
  0.00000000E+00  0.00000000E+00  0.00000000E+00
  0.00000000E+00  0.00000000E+00  0.00000000E+00
  0.00000000E+00  0.00000000E+00  0.00000000E+00
  0.00000000E+00  0.00000000E+00  0.00000000E+00
  0.00000000E+00  0.00000000E+00  0.00000000E+00
  0.00000000E+00  0.00000000E+00  0.00000000E+00
