Title                                   
   1.00000000000000     
     9.8694509999999998    0.0000000000000000    0.0000000000000000
     0.0000000000000000    8.5490480000000009    0.0000000000000000
     0.0000000000000000    0.0000000000000000   20.0000000000000000
    27     4     1
Selective dynamics
Direct
  0.0561136951622941  0.0912642927961843  0.0858211878546126   T   T   T
  0.9309958416631128  0.1745975124412772  0.0860443033889132   T   T   T
  0.0579550363394481  0.9240113681185654  0.0862925528077460   T   T   T
  0.9292813593242707  0.3423200171043562  0.0876647563061401   T   T   T
  0.0574087152738362  0.5907729346581118  0.0875092472319464   T   T   T
  0.9327388639713466  0.6739818888820370  0.0881214011009672   T   T   T
  0.0562442994826516  0.4231811813509954  0.0883010773807501   T   T   T
  0.9332757546222050  0.8405694669370706  0.0873400363350977   T   T   T
  0.3060414003625797  0.0875434795183793  0.0905733608634616   T   T   T
  0.1824317344768407  0.1724772830276676  0.0879187653080987   T   T   T
  0.1823076801805774  0.3393988772679004  0.0904862984751705   T   T   T
  0.3050673305666219  0.5884837738276019  0.1039856035677198   T   T   T
  0.1825767123728685  0.6738966971144060  0.0917784048389244   T   T   T
  0.3076602963528462  0.4211371967100970  0.0987060076132019   T   T   T
  0.1823888504344414  0.8407044450695537  0.0897993674496641   T   T   T
  0.5566930828655939  0.0848792671479316  0.0945617128859185   T   T   T
  0.5556259473702183  0.9212455849973098  0.1012469587333795   T   T   T
  0.4322254605867457  0.3320573252640215  0.0988061721718946   T   T   T
  0.4275701579715024  0.8405592106186841  0.1072641441646213   T   T   T
  0.8061415473937670  0.0896275003441170  0.0869377337188432   T   T   T
  0.6796056523677579  0.1702769634052683  0.0900155919392334   T   T   T
  0.8078037889342177  0.9242486171659112  0.0890530807350367   T   T   T
  0.6779212886670257  0.3359862455866090  0.0935287616592472   T   T   T
  0.8069945108134460  0.5943098078646162  0.0939474021773830   T   T   T
  0.8015106012229518  0.4253176071226823  0.0914266651314148   T   T   T
  0.6846343449698125  0.8403577005376623  0.0982152333871646   T   T   T
  0.4175495239934290  0.6822521390590341  0.1240227371455125   T   T   T
  0.5528663091478505  0.4058225917896453  0.1026970975406148   T   T   T
  0.6910131743528476  0.6810872007011580  0.1046625970434586   T   T   T
  0.3063698612737605  0.9245678175525139  0.0926479676272255   T   T   T
  0.4291301650946915  0.1668034444503457  0.0944717260589492   T   T   T
  0.5634960123884488  0.5865065615682874  0.1718270473577040   T   T   T
 
  0.00000000E+00  0.00000000E+00  0.00000000E+00
  0.00000000E+00  0.00000000E+00  0.00000000E+00
  0.00000000E+00  0.00000000E+00  0.00000000E+00
  0.00000000E+00  0.00000000E+00  0.00000000E+00
  0.00000000E+00  0.00000000E+00  0.00000000E+00
  0.00000000E+00  0.00000000E+00  0.00000000E+00
  0.00000000E+00  0.00000000E+00  0.00000000E+00
  0.00000000E+00  0.00000000E+00  0.00000000E+00
  0.00000000E+00  0.00000000E+00  0.00000000E+00
  0.00000000E+00  0.00000000E+00  0.00000000E+00
  0.00000000E+00  0.00000000E+00  0.00000000E+00
  0.00000000E+00  0.00000000E+00  0.00000000E+00
  0.00000000E+00  0.00000000E+00  0.00000000E+00
  0.00000000E+00  0.00000000E+00  0.00000000E+00
  0.00000000E+00  0.00000000E+00  0.00000000E+00
  0.00000000E+00  0.00000000E+00  0.00000000E+00
  0.00000000E+00  0.00000000E+00  0.00000000E+00
  0.00000000E+00  0.00000000E+00  0.00000000E+00
  0.00000000E+00  0.00000000E+00  0.00000000E+00
  0.00000000E+00  0.00000000E+00  0.00000000E+00
  0.00000000E+00  0.00000000E+00  0.00000000E+00
  0.00000000E+00  0.00000000E+00  0.00000000E+00
  0.00000000E+00  0.00000000E+00  0.00000000E+00
  0.00000000E+00  0.00000000E+00  0.00000000E+00
  0.00000000E+00  0.00000000E+00  0.00000000E+00
  0.00000000E+00  0.00000000E+00  0.00000000E+00
  0.00000000E+00  0.00000000E+00  0.00000000E+00
  0.00000000E+00  0.00000000E+00  0.00000000E+00
  0.00000000E+00  0.00000000E+00  0.00000000E+00
  0.00000000E+00  0.00000000E+00  0.00000000E+00
  0.00000000E+00  0.00000000E+00  0.00000000E+00
  0.00000000E+00  0.00000000E+00  0.00000000E+00
