Title                                   
   1.00000000000000     
     8.5490480000000009    0.0000000000000000    0.0000000000000000
     0.0000000000000000    8.5490480000000009    0.0000000000000000
     0.0000000000000000    0.0000000000000000   20.0000000000000000
    19     5     1
Selective dynamics
Direct
  0.9080251096796033  0.2060101903992133  0.0945939666162732   T   T   T
  0.9110607787430391  0.8009568149284945  0.0945757313331509   T   T   T
  0.1971183268845679  0.0834739934122357  0.0937764620313608   T   T   T
  0.0767727770995204  0.2013397764233274  0.0946808687289359   T   T   T
  0.1557119832952598  0.6497084078831901  0.0969397293968185   T   T   T
  0.0733588748284721  0.5001394518256499  0.0975043749377403   T   T   T
  0.1551000501616857  0.3530748053310934  0.0977213460632530   T   T   T
  0.0795385420882433  0.7991170827873376  0.0943478745421030   T   T   T
  0.3466006911828454  0.1652039030992098  0.0963528610490376   T   T   T
  0.4944012054153479  0.9192329338428379  0.0962881456585071   T   T   T
  0.3452750827136796  0.8376414754978205  0.0961428744669624   T   T   T
  0.7878490044467624  0.0867790011702967  0.0944687339470774   T   T   T
  0.6412490224793749  0.1671274367404031  0.0960657385016509   T   T   T
  0.7902090318115186  0.9188145737917961  0.0947787740564159   T   T   T
  0.8286066212992375  0.6525196966770583  0.0967986879575349   T   T   T
  0.8263813374078177  0.3524893210377876  0.0964841297626401   T   T   T
  0.6429767014904154  0.8381322913803564  0.0967382754455811   T   T   T
  0.3245971098484092  0.3303826055748408  0.1009452749815408   T   T   T
  0.3230798062800679  0.6734023447868089  0.0990796822617431   T   T   T
  0.4951926724485524  0.0865226360216249  0.0959842949143067   T   T   T
  0.9041842100193730  0.5020133863446565  0.0969377822045028   T   T   T
  0.6636503027454798  0.3295041827741439  0.0985624299894110   T   T   T
  0.6683851413523034  0.6743143390220219  0.0994330126311904   T   T   T
  0.1964904293998194  0.9161762109655506  0.0935797099472477   T   T   T
  0.4895971868785975  0.5007131382822640  0.1309242385749876   T   T   T
 
  0.00000000E+00  0.00000000E+00  0.00000000E+00
  0.00000000E+00  0.00000000E+00  0.00000000E+00
  0.00000000E+00  0.00000000E+00  0.00000000E+00
  0.00000000E+00  0.00000000E+00  0.00000000E+00
  0.00000000E+00  0.00000000E+00  0.00000000E+00
  0.00000000E+00  0.00000000E+00  0.00000000E+00
  0.00000000E+00  0.00000000E+00  0.00000000E+00
  0.00000000E+00  0.00000000E+00  0.00000000E+00
  0.00000000E+00  0.00000000E+00  0.00000000E+00
  0.00000000E+00  0.00000000E+00  0.00000000E+00
  0.00000000E+00  0.00000000E+00  0.00000000E+00
  0.00000000E+00  0.00000000E+00  0.00000000E+00
  0.00000000E+00  0.00000000E+00  0.00000000E+00
  0.00000000E+00  0.00000000E+00  0.00000000E+00
  0.00000000E+00  0.00000000E+00  0.00000000E+00
  0.00000000E+00  0.00000000E+00  0.00000000E+00
  0.00000000E+00  0.00000000E+00  0.00000000E+00
  0.00000000E+00  0.00000000E+00  0.00000000E+00
  0.00000000E+00  0.00000000E+00  0.00000000E+00
  0.00000000E+00  0.00000000E+00  0.00000000E+00
  0.00000000E+00  0.00000000E+00  0.00000000E+00
  0.00000000E+00  0.00000000E+00  0.00000000E+00
  0.00000000E+00  0.00000000E+00  0.00000000E+00
  0.00000000E+00  0.00000000E+00  0.00000000E+00
  0.00000000E+00  0.00000000E+00  0.00000000E+00
