Title                                   
   1.00000000000000     
     9.8694509999999998    0.0000000000000000    0.0000000000000000
     0.0000000000000000    8.5490480000000009    0.0000000000000000
     0.0000000000000000    0.0000000000000000   20.0000000000000000
    30     1     1
Selective dynamics
Direct
  0.0563185660583769  0.0908426982971517  0.0793167646028326   T   T   T
  0.9316322836335135  0.1722105065389552  0.0806271979858024   T   T   T
  0.0567638961903942  0.9242333122063456  0.0789498989974547   T   T   T
  0.9320497870225302  0.3396001533171235  0.0836322798945628   T   T   T
  0.0578724289795985  0.5898328031619515  0.0808062537130483   T   T   T
  0.9334597474842995  0.6721349840429279  0.0819188905063332   T   T   T
  0.0581742984253196  0.4232393555065466  0.0831162274314871   T   T   T
  0.9317283705401531  0.8389166812280038  0.0805686938321324   T   T   T
  0.3050521247275280  0.0897109802815794  0.0879263081598419   T   T   T
  0.1819881028055776  0.1735791461876128  0.0837253700998516   T   T   T
  0.1840522917614106  0.3412746868010586  0.0883084660644181   T   T   T
  0.3008088151647675  0.5944752544723197  0.1070179586806978   T   T   T
  0.1819787464272669  0.6749855164235711  0.0863827965501341   T   T   T
  0.3063826543206811  0.4245620415730426  0.1026419967749533   T   T   T
  0.1811973257586813  0.8418965784240180  0.0838727869171275   T   T   T
  0.5558254364904929  0.0854748291695104  0.0951024572645890   T   T   T
  0.4301554306013829  0.1702176521065935  0.0950700930172932   T   T   T
  0.5531453311780992  0.9213119274935009  0.1024295880338000   T   T   T
  0.4313125030011343  0.3358746426316024  0.1060343121355610   T   T   T
  0.4070766743978300  0.6899677202251397  0.1315700535575665   T   T   T
  0.5609952526504620  0.4008282447513592  0.1201055694668862   T   T   T
  0.4218951069184091  0.8439641484090911  0.1094372832465269   T   T   T
  0.8069328838594076  0.0872961022118991  0.0831653719733186   T   T   T
  0.6821734740482067  0.1683459478667598  0.0901721787599835   T   T   T
  0.8061117376688708  0.9214685123859740  0.0848905080887889   T   T   T
  0.6834690518525600  0.3328915916278708  0.0996578205268169   T   T   T
  0.8107093985687771  0.5889838664418201  0.0944558284574048   T   T   T
  0.6966631359563296  0.6769216289023352  0.1120268210310637   T   T   T
  0.8084438852140278  0.4206402691476829  0.0926919959743506   T   T   T
  0.6819727126724890  0.8379239270191376  0.0995066390255645   T   T   T
  0.3035339397915596  0.9256396043603350  0.0895618736433666   T   T   T
  0.5597636058298695  0.5910006867871898  0.1709847155864758   T   T   T
 
  0.00000000E+00  0.00000000E+00  0.00000000E+00
  0.00000000E+00  0.00000000E+00  0.00000000E+00
  0.00000000E+00  0.00000000E+00  0.00000000E+00
  0.00000000E+00  0.00000000E+00  0.00000000E+00
  0.00000000E+00  0.00000000E+00  0.00000000E+00
  0.00000000E+00  0.00000000E+00  0.00000000E+00
  0.00000000E+00  0.00000000E+00  0.00000000E+00
  0.00000000E+00  0.00000000E+00  0.00000000E+00
  0.00000000E+00  0.00000000E+00  0.00000000E+00
  0.00000000E+00  0.00000000E+00  0.00000000E+00
  0.00000000E+00  0.00000000E+00  0.00000000E+00
  0.00000000E+00  0.00000000E+00  0.00000000E+00
  0.00000000E+00  0.00000000E+00  0.00000000E+00
  0.00000000E+00  0.00000000E+00  0.00000000E+00
  0.00000000E+00  0.00000000E+00  0.00000000E+00
  0.00000000E+00  0.00000000E+00  0.00000000E+00
  0.00000000E+00  0.00000000E+00  0.00000000E+00
  0.00000000E+00  0.00000000E+00  0.00000000E+00
  0.00000000E+00  0.00000000E+00  0.00000000E+00
  0.00000000E+00  0.00000000E+00  0.00000000E+00
  0.00000000E+00  0.00000000E+00  0.00000000E+00
  0.00000000E+00  0.00000000E+00  0.00000000E+00
  0.00000000E+00  0.00000000E+00  0.00000000E+00
  0.00000000E+00  0.00000000E+00  0.00000000E+00
  0.00000000E+00  0.00000000E+00  0.00000000E+00
  0.00000000E+00  0.00000000E+00  0.00000000E+00
  0.00000000E+00  0.00000000E+00  0.00000000E+00
  0.00000000E+00  0.00000000E+00  0.00000000E+00
  0.00000000E+00  0.00000000E+00  0.00000000E+00
  0.00000000E+00  0.00000000E+00  0.00000000E+00
  0.00000000E+00  0.00000000E+00  0.00000000E+00
  0.00000000E+00  0.00000000E+00  0.00000000E+00
