Title                                   
   1.00000000000000     
     4.9440799999999996    0.0000000000000000    0.0000000000000000
     0.0000000000000000   17.1295089999999988    0.0000000000000000
     0.0000000000000000    0.0000000000000000   20.0000000000000000
    30     1     1
Selective dynamics
Direct
 -0.0001068534554480  0.1044037736076638  0.2753127131502886   T   T   T
  0.2499049242100934  0.1456182983800668  0.2811752842449521   T   T   T
  0.2499199356825382  0.2270634686976261  0.2969311931824690   T   T   T
  0.0022309369694028  0.3464418104390497  0.3287286880463585   T   T   T
 -0.0012853467312440  0.2672773011740046  0.3054013507142780   T   T   T
 -0.0045573383931171  0.6092785679809216  0.3183280287871670   T   T   T
  0.2498902214624500  0.7302567139288084  0.2924971730229134   T   T   T
  0.0003762194984317  0.8545687923543185  0.2743375232409079   T   T   T
  0.2498968898607581  0.8962964101482370  0.2709614227617504   T   T   T
  0.2498833705536236  0.9795503596924672  0.2681840698068130   T   T   T
  0.0005903770185575  0.7720991258331189  0.2847578391629634   T   T   T
  0.4999054764940380  0.1044030904795659  0.2753147100163281   T   T   T
  0.7498926971614854  0.1456406216179002  0.2802940308891468   T   T   T
  0.7499149464812506  0.2273490392466124  0.2948333509591691   T   T   T
  0.4999524010370930  0.0212598240370301  0.2689528943911904   T   T   T
  0.4976038540809292  0.3464401315880421  0.3287308682025934   T   T   T
  0.7499204733227153  0.3915266520043230  0.3350199483365379   T   T   T
  0.7499171359124079  0.4790449022156629  0.3368563345977552   T   T   T
  0.5011014650580512  0.2672753471219221  0.3054025864235653   T   T   T
  0.5043502585202182  0.6092773737100851  0.3183333549440972   T   T   T
  0.7498867273932133  0.7318671772032210  0.2909665258338967   T   T   T
  0.4994299512871791  0.8545673842478620  0.2743390843254686   T   T   T
  0.7498904785069433  0.8959837298355939  0.2707950927166564   T   T   T
  0.7498747951933468  0.9795002235882539  0.2680349615161143   T   T   T
  0.4991948239008579  0.7721019928953858  0.2847604160785401   T   T   T
  0.7499080530509146  0.6511347396234122  0.3073292055788015   T   T   T
  0.2498936862167470  0.6492889360758581  0.3098010872054233   T   T   T
 -0.0001680823880250  0.0212619875601776  0.2689497682984106   T   T   T
  0.5210294219469228  0.5304707694043641  0.3380757828267756   T   T   T
  0.9787694703697587  0.5304678352530356  0.3380590184773225   T   T   T
  0.2499153378325967  0.3771239615068672  0.3465089382910240   T   T   T
  0.2498962919453174  0.4797106585485362  0.3845917539702722   T   T   T
 
  0.00000000E+00  0.00000000E+00  0.00000000E+00
  0.00000000E+00  0.00000000E+00  0.00000000E+00
  0.00000000E+00  0.00000000E+00  0.00000000E+00
  0.00000000E+00  0.00000000E+00  0.00000000E+00
  0.00000000E+00  0.00000000E+00  0.00000000E+00
  0.00000000E+00  0.00000000E+00  0.00000000E+00
  0.00000000E+00  0.00000000E+00  0.00000000E+00
  0.00000000E+00  0.00000000E+00  0.00000000E+00
  0.00000000E+00  0.00000000E+00  0.00000000E+00
  0.00000000E+00  0.00000000E+00  0.00000000E+00
  0.00000000E+00  0.00000000E+00  0.00000000E+00
  0.00000000E+00  0.00000000E+00  0.00000000E+00
  0.00000000E+00  0.00000000E+00  0.00000000E+00
  0.00000000E+00  0.00000000E+00  0.00000000E+00
  0.00000000E+00  0.00000000E+00  0.00000000E+00
  0.00000000E+00  0.00000000E+00  0.00000000E+00
  0.00000000E+00  0.00000000E+00  0.00000000E+00
  0.00000000E+00  0.00000000E+00  0.00000000E+00
  0.00000000E+00  0.00000000E+00  0.00000000E+00
  0.00000000E+00  0.00000000E+00  0.00000000E+00
  0.00000000E+00  0.00000000E+00  0.00000000E+00
  0.00000000E+00  0.00000000E+00  0.00000000E+00
  0.00000000E+00  0.00000000E+00  0.00000000E+00
  0.00000000E+00  0.00000000E+00  0.00000000E+00
  0.00000000E+00  0.00000000E+00  0.00000000E+00
  0.00000000E+00  0.00000000E+00  0.00000000E+00
  0.00000000E+00  0.00000000E+00  0.00000000E+00
  0.00000000E+00  0.00000000E+00  0.00000000E+00
  0.00000000E+00  0.00000000E+00  0.00000000E+00
  0.00000000E+00  0.00000000E+00  0.00000000E+00
  0.00000000E+00  0.00000000E+00  0.00000000E+00
  0.00000000E+00  0.00000000E+00  0.00000000E+00
