Title                                   
   1.00000000000000     
     9.8694509999999998    0.0000000000000000    0.0000000000000000
     0.0000000000000000    8.5490480000000009    0.0000000000000000
     0.0000000000000000    0.0000000000000000   20.0000000000000000
    25     5     1
Selective dynamics
Direct
  0.0558008674799722  0.0899388726315628  0.0894218219956822   T   T   T
  0.9320326291231362  0.1720033169082082  0.0909017930853348   T   T   T
  0.0572686017930145  0.9229645393641119  0.0897117408716889   T   T   T
  0.9334686047648707  0.3396096263394029  0.0898384456160611   T   T   T
  0.0568020470632219  0.5898877132018209  0.0865218927840581   T   T   T
  0.9335809407772107  0.6731693923193808  0.0897611205832831   T   T   T
  0.0567719297846620  0.4232543671810526  0.0865150393532702   T   T   T
  0.9324689004150365  0.8400070579312087  0.0908855260042290   T   T   T
  0.3056498160722190  0.0879338119802194  0.0950955353375890   T   T   T
  0.1808133328266280  0.1713346242652827  0.0903319268449063   T   T   T
  0.1798658500851988  0.3385300636652135  0.0891044212434028   T   T   T
  0.3015940884843440  0.5900665664200724  0.0960642379415315   T   T   T
  0.1802731272815206  0.6741638213762842  0.0893319951136557   T   T   T
  0.3017962263197611  0.4218155610956554  0.0959551655391960   T   T   T
  0.1811688652654097  0.8404251587661764  0.0907818907828835   T   T   T
  0.5565186927748770  0.0925813255958914  0.1038395572112742   T   T   T
  0.4279658743722891  0.1739230684343160  0.1022417044146232   T   T   T
  0.5550453720632285  0.9199923351146826  0.1037003435923653   T   T   T
  0.4276016912365882  0.8374517862935706  0.1023950931964569   T   T   T
  0.8064316901276579  0.0893535789416973  0.0953091218042533   T   T   T
  0.6835687392357209  0.1757921023766548  0.1022468215911870   T   T   T
  0.8065027963121305  0.9228010619167367  0.0951739319090832   T   T   T
  0.8113791961295744  0.5907660900178240  0.0965453614853467   T   T   T
  0.8113177628987482  0.4215586696149541  0.0966529197308834   T   T   T
  0.6833759629424779  0.8359192492971824  0.1019734804074454   T   T   T
  0.4198926304996094  0.3355199993825063  0.1064604118276197   T   T   T
  0.4192112788872561  0.6779996950319916  0.1072611420841515   T   T   T
  0.6917124129414515  0.3379215225050664  0.1064095710587983   T   T   T
  0.6920866156302958  0.6746501255484403  0.1061726365428630   T   T   T
  0.3058443157700607  0.9234408749596049  0.0949638707791288   T   T   T
  0.5553251406418266  0.5060990215232261  0.1193964792678056   T   T   T
 
  0.00000000E+00  0.00000000E+00  0.00000000E+00
  0.00000000E+00  0.00000000E+00  0.00000000E+00
  0.00000000E+00  0.00000000E+00  0.00000000E+00
  0.00000000E+00  0.00000000E+00  0.00000000E+00
  0.00000000E+00  0.00000000E+00  0.00000000E+00
  0.00000000E+00  0.00000000E+00  0.00000000E+00
  0.00000000E+00  0.00000000E+00  0.00000000E+00
  0.00000000E+00  0.00000000E+00  0.00000000E+00
  0.00000000E+00  0.00000000E+00  0.00000000E+00
  0.00000000E+00  0.00000000E+00  0.00000000E+00
  0.00000000E+00  0.00000000E+00  0.00000000E+00
  0.00000000E+00  0.00000000E+00  0.00000000E+00
  0.00000000E+00  0.00000000E+00  0.00000000E+00
  0.00000000E+00  0.00000000E+00  0.00000000E+00
  0.00000000E+00  0.00000000E+00  0.00000000E+00
  0.00000000E+00  0.00000000E+00  0.00000000E+00
  0.00000000E+00  0.00000000E+00  0.00000000E+00
  0.00000000E+00  0.00000000E+00  0.00000000E+00
  0.00000000E+00  0.00000000E+00  0.00000000E+00
  0.00000000E+00  0.00000000E+00  0.00000000E+00
  0.00000000E+00  0.00000000E+00  0.00000000E+00
  0.00000000E+00  0.00000000E+00  0.00000000E+00
  0.00000000E+00  0.00000000E+00  0.00000000E+00
  0.00000000E+00  0.00000000E+00  0.00000000E+00
  0.00000000E+00  0.00000000E+00  0.00000000E+00
  0.00000000E+00  0.00000000E+00  0.00000000E+00
  0.00000000E+00  0.00000000E+00  0.00000000E+00
  0.00000000E+00  0.00000000E+00  0.00000000E+00
  0.00000000E+00  0.00000000E+00  0.00000000E+00
  0.00000000E+00  0.00000000E+00  0.00000000E+00
  0.00000000E+00  0.00000000E+00  0.00000000E+00
