Title                                   
   1.00000000000000     
     4.9440799999999996    0.0000000000000000    0.0000000000000000
     0.0000000000000000    8.5647549999999999    0.0000000000000000
     0.0000000000000000    0.0000000000000000   20.0000000000000000
    12     3     1
Selective dynamics
Direct
  0.2500000000000000  0.2164765206773137  0.0908885973786579   T   T   T
 -0.0062550830102849  0.2961239755186134  0.0888000730810357   T   T   T
  0.2500000000000000  0.0477826244890792  0.1018315116469822   T   T   T
  0.0038738586795467  0.7961476711149132  0.1097980780428761   T   T   T
  0.0014774772788730  0.9622252733427089  0.1040031104572133   T   T   T
  0.7500000000000000  0.2089447430607388  0.0950861361783027   T   T   T
  0.5062550830102849  0.2961239755186134  0.0888000730810357   T   T   T
  0.7500000000000000  0.0445536430091651  0.1001420367198123   T   T   T
  0.7500000000000000  0.7078200420544002  0.1050035902379297   T   T   T
  0.4961261413204530  0.7961476711149132  0.1097980780428761   T   T   T
  0.7500000000000000  0.5418319182036830  0.0883269575932845   T   T   T
  0.4985225227211272  0.9622252733427089  0.1040031104572133   T   T   T
  0.5145786566566448  0.4610362264333189  0.0788856126331026   T   T   T
 -0.0145786566566449  0.4610362264333189  0.0788856126331026   T   T   T
  0.2500000000000000  0.7198900494860984  0.1213350819123050   T   T   T
  0.2500000000000000  0.4816341662004133  0.1569243399042778   T   T   T
 
  0.00000000E+00  0.00000000E+00  0.00000000E+00
  0.00000000E+00  0.00000000E+00  0.00000000E+00
  0.00000000E+00  0.00000000E+00  0.00000000E+00
  0.00000000E+00  0.00000000E+00  0.00000000E+00
  0.00000000E+00  0.00000000E+00  0.00000000E+00
  0.00000000E+00  0.00000000E+00  0.00000000E+00
  0.00000000E+00  0.00000000E+00  0.00000000E+00
  0.00000000E+00  0.00000000E+00  0.00000000E+00
  0.00000000E+00  0.00000000E+00  0.00000000E+00
  0.00000000E+00  0.00000000E+00  0.00000000E+00
  0.00000000E+00  0.00000000E+00  0.00000000E+00
  0.00000000E+00  0.00000000E+00  0.00000000E+00
  0.00000000E+00  0.00000000E+00  0.00000000E+00
  0.00000000E+00  0.00000000E+00  0.00000000E+00
  0.00000000E+00  0.00000000E+00  0.00000000E+00
  0.00000000E+00  0.00000000E+00  0.00000000E+00
