Title                                   
   1.00000000000000     
     4.9440799999999996    0.0000000000000000    0.0000000000000000
     0.0000000000000000    8.5647549999999999    0.0000000000000000
     0.0000000000000000    0.0000000000000000   20.0000000000000000
    12     3     1
Selective dynamics
Direct
 -0.0013862158239575  0.2879805424560938  0.0873091353589438   T   T   T
  0.2529864832881531  0.0434195740480442  0.0843084832809170   T   T   T
  0.0048370752065588  0.7968103175941774  0.0946534150744870   T   T   T
  0.0024438135329866  0.9616820089528677  0.0831221495129147   T   T   T
  0.7475177593757042  0.2076874941465203  0.0827180417170312   T   T   T
  0.5011848251539527  0.2923880564257961  0.0977251001266030   T   T   T
  0.7518055487629144  0.0425031082210071  0.0794151177236779   T   T   T
  0.7580346278203347  0.7049368186759253  0.1003092367215372   T   T   T
  0.5093898424983514  0.7949959176977031  0.0954427999529175   T   T   T
  0.7677756908872562  0.5323121218306848  0.1231332494203120   T   T   T
  0.5046538504655941  0.9601009454552950  0.0844972120478254   T   T   T
  0.5086771948273088  0.4392839323876173  0.1316326978256558   T   T   T
 -0.0031237573016997  0.4423210885567698  0.0993961773275692   T   T   T
  0.2578938322033908  0.7286832907372502  0.1095497679876238   T   T   T
  0.2512176760159614  0.2090959120838314  0.0871649128098274   T   T   T
  0.1860917530871909  0.5557988707304174  0.1721345031121667   T   T   T
 
  0.00000000E+00  0.00000000E+00  0.00000000E+00
  0.00000000E+00  0.00000000E+00  0.00000000E+00
  0.00000000E+00  0.00000000E+00  0.00000000E+00
  0.00000000E+00  0.00000000E+00  0.00000000E+00
  0.00000000E+00  0.00000000E+00  0.00000000E+00
  0.00000000E+00  0.00000000E+00  0.00000000E+00
  0.00000000E+00  0.00000000E+00  0.00000000E+00
  0.00000000E+00  0.00000000E+00  0.00000000E+00
  0.00000000E+00  0.00000000E+00  0.00000000E+00
  0.00000000E+00  0.00000000E+00  0.00000000E+00
  0.00000000E+00  0.00000000E+00  0.00000000E+00
  0.00000000E+00  0.00000000E+00  0.00000000E+00
  0.00000000E+00  0.00000000E+00  0.00000000E+00
  0.00000000E+00  0.00000000E+00  0.00000000E+00
  0.00000000E+00  0.00000000E+00  0.00000000E+00
  0.00000000E+00  0.00000000E+00  0.00000000E+00
