Title                                   
   1.00000000000000     
     9.8694509999999998    0.0000000000000000    0.0000000000000000
     0.0000000000000000    8.5490480000000009    0.0000000000000000
     0.0000000000000000    0.0000000000000000   20.0000000000000000
    30     1
Selective dynamics
Direct
  0.0562505648002933  0.0889171253314922  0.0925280859599740   T   T   T
  0.9312629933672155  0.1720893804208985  0.0929516256680501   T   T   T
  0.0562287278100266  0.9234434041321138  0.0925306534787421   T   T   T
  0.9326429667381940  0.3383228219969163  0.0958993419225198   T   T   T
  0.0562294180731466  0.5896732964910502  0.0973348120945797   T   T   T
  0.9326212055154467  0.6740030522520805  0.0958870408861175   T   T   T
  0.0562387813122659  0.4226528300543707  0.0973253970075064   T   T   T
  0.9312342304808444  0.8402453006001830  0.0929479694315614   T   T   T
  0.3067333918353419  0.0898574165521449  0.0904431854277534   T   T   T
  0.1812424304350498  0.1720980371646653  0.0929436385054977   T   T   T
  0.3067242796747700  0.9224598284852261  0.0904549865781817   T   T   T
  0.1798276223510968  0.3383202025764838  0.0959411556254990   T   T   T
  0.3035874387874996  0.5905844762832361  0.0958467781719928   T   T   T
  0.1798210429759271  0.6740223514118195  0.0959658305245403   T   T   T
  0.3035990094761429  0.4217219925539161  0.0958274527060299   T   T   T
  0.1812162560191914  0.8402479887417229  0.0929703456951165   T   T   T
  0.5562675075121500  0.0895708916021340  0.0904185690870191   T   T   T
  0.4318117738660073  0.1755499422013936  0.0909054731316517   T   T   T
  0.5562674151037552  0.9227114812648565  0.0904068594360523   T   T   T
  0.4289910592661509  0.3416717958871975  0.0951337128902229   T   T   T
  0.4289795285413101  0.6706494828381444  0.0951612492879277   T   T   T
  0.4318070791604552  0.8367507422324277  0.0909100704672030   T   T   T
  0.8057521423563314  0.0898539724990717  0.0905079743362560   T   T   T
  0.6806766053737283  0.1756242015120328  0.0910153446679213   T   T   T
  0.8057342819293510  0.9224364210431933  0.0904910011390949   T   T   T
  0.6834921282817438  0.3417788299312288  0.0952841381594367   T   T   T
  0.8088926012827665  0.5905754434950700  0.0958025257925000   T   T   T
  0.6834680595778653  0.6705263491921973  0.0952485109928080   T   T   T
  0.8089030486416263  0.4217339673719405  0.0958222434012079   T   T   T
  0.6806703283569109  0.8366759128551655  0.0909846803714119   T   T   T
  0.5559610810974053  0.5061060610256396  0.1350743471556660   T   T   T
 
  0.00000000E+00  0.00000000E+00  0.00000000E+00
  0.00000000E+00  0.00000000E+00  0.00000000E+00
  0.00000000E+00  0.00000000E+00  0.00000000E+00
  0.00000000E+00  0.00000000E+00  0.00000000E+00
  0.00000000E+00  0.00000000E+00  0.00000000E+00
  0.00000000E+00  0.00000000E+00  0.00000000E+00
  0.00000000E+00  0.00000000E+00  0.00000000E+00
  0.00000000E+00  0.00000000E+00  0.00000000E+00
  0.00000000E+00  0.00000000E+00  0.00000000E+00
  0.00000000E+00  0.00000000E+00  0.00000000E+00
  0.00000000E+00  0.00000000E+00  0.00000000E+00
  0.00000000E+00  0.00000000E+00  0.00000000E+00
  0.00000000E+00  0.00000000E+00  0.00000000E+00
  0.00000000E+00  0.00000000E+00  0.00000000E+00
  0.00000000E+00  0.00000000E+00  0.00000000E+00
  0.00000000E+00  0.00000000E+00  0.00000000E+00
  0.00000000E+00  0.00000000E+00  0.00000000E+00
  0.00000000E+00  0.00000000E+00  0.00000000E+00
  0.00000000E+00  0.00000000E+00  0.00000000E+00
  0.00000000E+00  0.00000000E+00  0.00000000E+00
  0.00000000E+00  0.00000000E+00  0.00000000E+00
  0.00000000E+00  0.00000000E+00  0.00000000E+00
  0.00000000E+00  0.00000000E+00  0.00000000E+00
  0.00000000E+00  0.00000000E+00  0.00000000E+00
  0.00000000E+00  0.00000000E+00  0.00000000E+00
  0.00000000E+00  0.00000000E+00  0.00000000E+00
  0.00000000E+00  0.00000000E+00  0.00000000E+00
  0.00000000E+00  0.00000000E+00  0.00000000E+00
  0.00000000E+00  0.00000000E+00  0.00000000E+00
  0.00000000E+00  0.00000000E+00  0.00000000E+00
  0.00000000E+00  0.00000000E+00  0.00000000E+00
