Title                                   
   1.00000000000000     
     8.5490480000000009    0.0000000000000000    0.0000000000000000
     0.0000000000000000    8.5490480000000009    0.0000000000000000
     0.0000000000000000    0.0000000000000000   20.0000000000000000
    20     4     1
Selective dynamics
Direct
  0.9088308196135642  0.2065112031558125  0.0976756722567449   T   T   T
  0.9048374241553492  0.5036770756018686  0.0977004925176678   T   T   T
  0.9105825148414788  0.8017426480102526  0.0975302557702227   T   T   T
  0.2007874994593878  0.0831168719248501  0.0977515917634691   T   T   T
  0.0750790147465107  0.2063681726448260  0.0977272598417439   T   T   T
  0.1571253108975555  0.6515580417157161  0.0977100320827924   T   T   T
  0.0755104359770933  0.5024929543500148  0.0977071838198309   T   T   T
  0.1567978244879240  0.3559097938883664  0.0977930484675590   T   T   T
  0.0784025771943394  0.7985280214054685  0.0976486263672532   T   T   T
  0.4940897042341342  0.0834991166909206  0.0977762685005349   T   T   T
  0.3473565791012868  0.1630063089411044  0.0978209628464520   T   T   T
  0.4935468448636399  0.9134066467722374  0.0977658682057938   T   T   T
  0.3451896941916238  0.8329593128826861  0.0978309311148987   T   T   T
  0.7878488869314728  0.0859888441179741  0.0976166158386383   T   T   T
  0.6407940727858651  0.1661024203437234  0.0977619038400650   T   T   T
  0.7890194427737769  0.9195916389941957  0.0975544845031536   T   T   T
  0.8281858783907287  0.6527593331207370  0.0976685868847552   T   T   T
  0.8244097021476164  0.3552325301423647  0.0978039629244417   T   T   T
  0.6417324839905252  0.8346519204767330  0.0977338013838323   T   T   T
  0.3267921288602568  0.3353086897134818  0.0978099487284574   T   T   T
  0.3199911801998337  0.6737869235400551  0.0978577261065143   T   T   T
  0.6620715312571794  0.3304160974090458  0.0978918906462085   T   T   T
  0.6663804674292024  0.6742253535530300  0.0978658175923411   T   T   T
  0.1994178508689365  0.9167971972290329  0.0977986572091961   T   T   T
  0.4906321306007115  0.4971528833755233  0.0979034107874060   T   T   T
 
  0.00000000E+00  0.00000000E+00  0.00000000E+00
  0.00000000E+00  0.00000000E+00  0.00000000E+00
  0.00000000E+00  0.00000000E+00  0.00000000E+00
  0.00000000E+00  0.00000000E+00  0.00000000E+00
  0.00000000E+00  0.00000000E+00  0.00000000E+00
  0.00000000E+00  0.00000000E+00  0.00000000E+00
  0.00000000E+00  0.00000000E+00  0.00000000E+00
  0.00000000E+00  0.00000000E+00  0.00000000E+00
  0.00000000E+00  0.00000000E+00  0.00000000E+00
  0.00000000E+00  0.00000000E+00  0.00000000E+00
  0.00000000E+00  0.00000000E+00  0.00000000E+00
  0.00000000E+00  0.00000000E+00  0.00000000E+00
  0.00000000E+00  0.00000000E+00  0.00000000E+00
  0.00000000E+00  0.00000000E+00  0.00000000E+00
  0.00000000E+00  0.00000000E+00  0.00000000E+00
  0.00000000E+00  0.00000000E+00  0.00000000E+00
  0.00000000E+00  0.00000000E+00  0.00000000E+00
  0.00000000E+00  0.00000000E+00  0.00000000E+00
  0.00000000E+00  0.00000000E+00  0.00000000E+00
  0.00000000E+00  0.00000000E+00  0.00000000E+00
  0.00000000E+00  0.00000000E+00  0.00000000E+00
  0.00000000E+00  0.00000000E+00  0.00000000E+00
  0.00000000E+00  0.00000000E+00  0.00000000E+00
  0.00000000E+00  0.00000000E+00  0.00000000E+00
  0.00000000E+00  0.00000000E+00  0.00000000E+00
