Title                                   
   1.00000000000000     
     9.8694509999999998    0.0000000000000000    0.0000000000000000
     0.0000000000000000    8.5490480000000009    0.0000000000000000
     0.0000000000000000    0.0000000000000000   20.0000000000000000
    26     4     1
Selective dynamics
Direct
  0.0553450711823785  0.0893920672218682  0.0862361161848672   T   T   T
  0.9307343142536979  0.1720351558449326  0.0901652874912642   T   T   T
  0.0568547186494306  0.9235338279023537  0.0863879698948914   T   T   T
  0.9334863575630636  0.3388800549113102  0.0911474728653980   T   T   T
  0.0574538505077988  0.5897407305934430  0.0839376586752411   T   T   T
  0.9343487577254577  0.6730920740951934  0.0910815091627481   T   T   T
  0.0570013635529368  0.4228338622168799  0.0837779809123295   T   T   T
  0.9313542010841022  0.8397405050303169  0.0896344547814139   T   T   T
  0.3057278472377372  0.0879970927536832  0.0899021664173904   T   T   T
  0.1814738788858516  0.1716627490676022  0.0850290176212176   T   T   T
  0.1807573629437868  0.3392887347448126  0.0828485768471776   T   T   T
  0.3043393331131335  0.5911855945696580  0.0890583591733198   T   T   T
  0.1810222402835790  0.6735054984536073  0.0832110211064812   T   T   T
  0.3049520176451153  0.4206042178870234  0.0860410328417912   T   T   T
  0.1810980057508077  0.8407411182311505  0.0864387750596644   T   T   T
  0.4294118028092287  0.1767735906643814  0.0942685946692284   T   T   T
  0.5515876266304738  0.9213877857529761  0.1023120458144575   T   T   T
  0.4274779384533585  0.8368355642172333  0.1001451956081996   T   T   T
  0.8047136925606488  0.0892195482509000  0.0946609734899358   T   T   T
  0.6817805543696861  0.1758771220969913  0.1049569142667690   T   T   T
  0.8060045162368480  0.9225740898844371  0.0943796797388290   T   T   T
  0.6914208747096564  0.3360604971819795  0.1187715755563714   T   T   T
  0.8128761377079788  0.5911865097240349  0.1024392460181685   T   T   T
  0.6905380591410857  0.6736425545011153  0.1077555601029177   T   T   T
  0.8126899293792441  0.4195207911355125  0.1049069930953365   T   T   T
  0.6812730763659710  0.8373945621550265  0.1022406005048995   T   T   T
  0.5531320452982259  0.0934440057250734  0.1012835022440622   T   T   T
  0.4238856795227317  0.3358491146378007  0.0908602270777839   T   T   T
  0.4177968666184140  0.6759390722367441  0.1046761841816867   T   T   T
  0.3044231327827792  0.9236459256034895  0.0912566248284409   T   T   T
  0.5581737470348100  0.5072909827084753  0.1211536837677659   T   T   T
 
  0.00000000E+00  0.00000000E+00  0.00000000E+00
  0.00000000E+00  0.00000000E+00  0.00000000E+00
  0.00000000E+00  0.00000000E+00  0.00000000E+00
  0.00000000E+00  0.00000000E+00  0.00000000E+00
  0.00000000E+00  0.00000000E+00  0.00000000E+00
  0.00000000E+00  0.00000000E+00  0.00000000E+00
  0.00000000E+00  0.00000000E+00  0.00000000E+00
  0.00000000E+00  0.00000000E+00  0.00000000E+00
  0.00000000E+00  0.00000000E+00  0.00000000E+00
  0.00000000E+00  0.00000000E+00  0.00000000E+00
  0.00000000E+00  0.00000000E+00  0.00000000E+00
  0.00000000E+00  0.00000000E+00  0.00000000E+00
  0.00000000E+00  0.00000000E+00  0.00000000E+00
  0.00000000E+00  0.00000000E+00  0.00000000E+00
  0.00000000E+00  0.00000000E+00  0.00000000E+00
  0.00000000E+00  0.00000000E+00  0.00000000E+00
  0.00000000E+00  0.00000000E+00  0.00000000E+00
  0.00000000E+00  0.00000000E+00  0.00000000E+00
  0.00000000E+00  0.00000000E+00  0.00000000E+00
  0.00000000E+00  0.00000000E+00  0.00000000E+00
  0.00000000E+00  0.00000000E+00  0.00000000E+00
  0.00000000E+00  0.00000000E+00  0.00000000E+00
  0.00000000E+00  0.00000000E+00  0.00000000E+00
  0.00000000E+00  0.00000000E+00  0.00000000E+00
  0.00000000E+00  0.00000000E+00  0.00000000E+00
  0.00000000E+00  0.00000000E+00  0.00000000E+00
  0.00000000E+00  0.00000000E+00  0.00000000E+00
  0.00000000E+00  0.00000000E+00  0.00000000E+00
  0.00000000E+00  0.00000000E+00  0.00000000E+00
  0.00000000E+00  0.00000000E+00  0.00000000E+00
  0.00000000E+00  0.00000000E+00  0.00000000E+00
