Title                                   
   1.00000000000000     
     8.5490480000000009    0.0000000000000000    0.0000000000000000
     0.0000000000000000    8.5490480000000009    0.0000000000000000
     0.0000000000000000    0.0000000000000000   20.0000000000000000
    23     1     1
Selective dynamics
Direct
  0.9104830534124626  0.2048801594285655  0.0960439349323688   T   T   T
  0.9100652419022756  0.5028083402776019  0.0970183739820825   T   T   T
  0.9126894664414368  0.8016371799744214  0.0957435971863155   T   T   T
  0.1974305560471894  0.0823850412848661  0.0958360076257165   T   T   T
  0.0744656970679404  0.2020804810121466  0.0960509938915595   T   T   T
  0.1588037743880552  0.6497424637335442  0.0971191485427424   T   T   T
  0.0773201547169137  0.5016359579018510  0.0970311101659495   T   T   T
  0.1579808016796328  0.3542267244018553  0.0973886050378342   T   T   T
  0.0776508101547530  0.7995646078496093  0.0956620628826500   T   T   T
  0.4921045503444196  0.0857832270187083  0.0966826602853660   T   T   T
  0.3444635111262693  0.1637620311956736  0.0970224197859253   T   T   T
  0.4914277414791239  0.9177458780120107  0.0966905503942102   T   T   T
  0.3448379454857932  0.8364531800539755  0.0972607693171528   T   T   T
  0.7878400290150168  0.0841609356427347  0.0957912964541527   T   T   T
  0.6385724535413447  0.1666685049258674  0.0969585206701856   T   T   T
  0.7886340933746786  0.9210433166886507  0.0957959260908777   T   T   T
  0.8310457198880163  0.6508020902561142  0.0970747224298892   T   T   T
  0.8286540611786251  0.3550558652214925  0.0973667542371121   T   T   T
  0.6390543937633245  0.8368625038237434  0.0969420631840907   T   T   T
  0.3225360445465639  0.3324198268439785  0.0999962911379512   T   T   T
  0.3229524510331810  0.6717280122163990  0.0997052644724953   T   T   T
  0.6623417006126034  0.3329878221172093  0.0999447473283336   T   T   T
  0.6638511115808277  0.6715632791325531  0.0996484036048464   T   T   T
  0.1975452309327130  0.9178911840294454  0.0957103683869144   T   T   T
  0.4926614062868253  0.5009013869569878  0.1132204079732580   T   T   T
 
  0.00000000E+00  0.00000000E+00  0.00000000E+00
  0.00000000E+00  0.00000000E+00  0.00000000E+00
  0.00000000E+00  0.00000000E+00  0.00000000E+00
  0.00000000E+00  0.00000000E+00  0.00000000E+00
  0.00000000E+00  0.00000000E+00  0.00000000E+00
  0.00000000E+00  0.00000000E+00  0.00000000E+00
  0.00000000E+00  0.00000000E+00  0.00000000E+00
  0.00000000E+00  0.00000000E+00  0.00000000E+00
  0.00000000E+00  0.00000000E+00  0.00000000E+00
  0.00000000E+00  0.00000000E+00  0.00000000E+00
  0.00000000E+00  0.00000000E+00  0.00000000E+00
  0.00000000E+00  0.00000000E+00  0.00000000E+00
  0.00000000E+00  0.00000000E+00  0.00000000E+00
  0.00000000E+00  0.00000000E+00  0.00000000E+00
  0.00000000E+00  0.00000000E+00  0.00000000E+00
  0.00000000E+00  0.00000000E+00  0.00000000E+00
  0.00000000E+00  0.00000000E+00  0.00000000E+00
  0.00000000E+00  0.00000000E+00  0.00000000E+00
  0.00000000E+00  0.00000000E+00  0.00000000E+00
  0.00000000E+00  0.00000000E+00  0.00000000E+00
  0.00000000E+00  0.00000000E+00  0.00000000E+00
  0.00000000E+00  0.00000000E+00  0.00000000E+00
  0.00000000E+00  0.00000000E+00  0.00000000E+00
  0.00000000E+00  0.00000000E+00  0.00000000E+00
  0.00000000E+00  0.00000000E+00  0.00000000E+00
