Title                                   
   1.00000000000000     
     4.9440799999999996    0.0000000000000000    0.0000000000000000
     0.0000000000000000    8.5647549999999999    0.0000000000000000
     0.0000000000000000    0.0000000000000000   20.0000000000000000
    11     3     1
Selective dynamics
Direct
  0.2473221006271381  0.2084941050993444  0.1005328420505438   T   T   T
 -0.0018328631803425  0.2930413388512604  0.1006230246243469   T   T   T
  0.2479825993971734  0.0378704516620283  0.1004771069479846   T   T   T
 -0.0035507626261824  0.9564611253996833  0.1004510531504601   T   T   T
  0.7481645485214274  0.2079739232590588  0.1005035239749955   T   T   T
  0.4971786587898346  0.2930819899124704  0.1004787639386911   T   T   T
  0.7486109307784260  0.0420004066078661  0.1004423960328865   T   T   T
  0.7542604238648536  0.7132342408691252  0.1004667125863870   T   T   T
  0.7535409026250632  0.5410346177645228  0.1005275851516494   T   T   T
  0.4997508030018973  0.9546871044334817  0.1004679365979197   T   T   T
  0.5158719423446931  0.4565203938446249  0.1004471897121719   T   T   T
 -0.0111931500928972  0.4545683293228498  0.1008229254064370   T   T   T
 -0.0156227764764782  0.7968300446923524  0.1004256590665548   T   T   T
  0.5173831731397421  0.7939016361694681  0.1006334855689074   T   T   T
  0.2521334692856506  0.6219812921118673  0.1006797951900678   T   T   T
 
  0.00000000E+00  0.00000000E+00  0.00000000E+00
  0.00000000E+00  0.00000000E+00  0.00000000E+00
  0.00000000E+00  0.00000000E+00  0.00000000E+00
  0.00000000E+00  0.00000000E+00  0.00000000E+00
  0.00000000E+00  0.00000000E+00  0.00000000E+00
  0.00000000E+00  0.00000000E+00  0.00000000E+00
  0.00000000E+00  0.00000000E+00  0.00000000E+00
  0.00000000E+00  0.00000000E+00  0.00000000E+00
  0.00000000E+00  0.00000000E+00  0.00000000E+00
  0.00000000E+00  0.00000000E+00  0.00000000E+00
  0.00000000E+00  0.00000000E+00  0.00000000E+00
  0.00000000E+00  0.00000000E+00  0.00000000E+00
  0.00000000E+00  0.00000000E+00  0.00000000E+00
  0.00000000E+00  0.00000000E+00  0.00000000E+00
  0.00000000E+00  0.00000000E+00  0.00000000E+00
