Title                                   
   1.00000000000000     
     9.8694509999999998    0.0000000000000000    0.0000000000000000
     0.0000000000000000    8.5490480000000009    0.0000000000000000
     0.0000000000000000    0.0000000000000000   20.0000000000000000
    27     4     1
Selective dynamics
Direct
  0.0553682313188209  0.0918196973150385  0.0854310713938093   T   T   T
  0.9302759150874942  0.1754139836158295  0.0862038933974688   T   T   T
  0.0573231043514617  0.9245387910327310  0.0851000711504829   T   T   T
  0.9288392052693163  0.3427507906451701  0.0887896009659137   T   T   T
  0.0571071413507924  0.5914385672016622  0.0874800215369735   T   T   T
  0.9330678792308039  0.6744386533529650  0.0867983451805054   T   T   T
  0.0554174948884092  0.4235700330166168  0.0892444641062109   T   T   T
  0.9327782107840199  0.8411781106439626  0.0856416992089912   T   T   T
  0.3049289474882352  0.0877925936269549  0.0899874352935525   T   T   T
  0.1813572362796812  0.1732641462381803  0.0881985802679079   T   T   T
  0.1811939271535943  0.3397782035021051  0.0916399310362374   T   T   T
  0.3052172594312346  0.5905358219638986  0.1046514008191949   T   T   T
  0.1822897535843900  0.6743544297361002  0.0914533614438477   T   T   T
  0.3068706885315857  0.4220055205391127  0.1000102099034161   T   T   T
  0.1819651110167453  0.8410737758383419  0.0888731246395877   T   T   T
  0.5559156035508519  0.0858234332693087  0.0939565327361254   T   T   T
  0.5545654978739656  0.9217517702957035  0.1007690825043032   T   T   T
  0.4303307159853087  0.3326666542921073  0.0984835536454570   T   T   T
  0.4269499700746619  0.8396123167015596  0.1069432167779343   T   T   T
  0.8055669324699593  0.0899824617373566  0.0863695161785651   T   T   T
  0.6787722398561759  0.1704286795122532  0.0895213622836958   T   T   T
  0.8072186578474346  0.9251721955842683  0.0872377906166670   T   T   T
  0.6769112617757859  0.3362897183443143  0.0937578070234889   T   T   T
  0.8069292863175259  0.5956998535640665  0.0928191203497374   T   T   T
  0.8003437913605961  0.4266135524482240  0.0925195217234863   T   T   T
  0.6835676261809075  0.8409192366678909  0.0962663051834532   T   T   T
  0.4200908492225183  0.6816687693991028  0.1220600331562460   T   T   T
  0.5512296045632777  0.4053726681097499  0.1027679347199886   T   T   T
  0.6905724186072938  0.6822502743232935  0.1030623826540121   T   T   T
  0.3055334837805605  0.9252487256497547  0.0916702625353524   T   T   T
  0.4278624732424879  0.1673671822076884  0.0932592490443434   T   T   T
  0.5832784815241112  0.5694253896246906  0.1847081185230601   T   T   T
 
  0.00000000E+00  0.00000000E+00  0.00000000E+00
  0.00000000E+00  0.00000000E+00  0.00000000E+00
  0.00000000E+00  0.00000000E+00  0.00000000E+00
  0.00000000E+00  0.00000000E+00  0.00000000E+00
  0.00000000E+00  0.00000000E+00  0.00000000E+00
  0.00000000E+00  0.00000000E+00  0.00000000E+00
  0.00000000E+00  0.00000000E+00  0.00000000E+00
  0.00000000E+00  0.00000000E+00  0.00000000E+00
  0.00000000E+00  0.00000000E+00  0.00000000E+00
  0.00000000E+00  0.00000000E+00  0.00000000E+00
  0.00000000E+00  0.00000000E+00  0.00000000E+00
  0.00000000E+00  0.00000000E+00  0.00000000E+00
  0.00000000E+00  0.00000000E+00  0.00000000E+00
  0.00000000E+00  0.00000000E+00  0.00000000E+00
  0.00000000E+00  0.00000000E+00  0.00000000E+00
  0.00000000E+00  0.00000000E+00  0.00000000E+00
  0.00000000E+00  0.00000000E+00  0.00000000E+00
  0.00000000E+00  0.00000000E+00  0.00000000E+00
  0.00000000E+00  0.00000000E+00  0.00000000E+00
  0.00000000E+00  0.00000000E+00  0.00000000E+00
  0.00000000E+00  0.00000000E+00  0.00000000E+00
  0.00000000E+00  0.00000000E+00  0.00000000E+00
  0.00000000E+00  0.00000000E+00  0.00000000E+00
  0.00000000E+00  0.00000000E+00  0.00000000E+00
  0.00000000E+00  0.00000000E+00  0.00000000E+00
  0.00000000E+00  0.00000000E+00  0.00000000E+00
  0.00000000E+00  0.00000000E+00  0.00000000E+00
  0.00000000E+00  0.00000000E+00  0.00000000E+00
  0.00000000E+00  0.00000000E+00  0.00000000E+00
  0.00000000E+00  0.00000000E+00  0.00000000E+00
  0.00000000E+00  0.00000000E+00  0.00000000E+00
  0.00000000E+00  0.00000000E+00  0.00000000E+00
