Title                                   
   1.00000000000000     
     4.9440799999999996    0.0000000000000000    0.0000000000000000
     0.0000000000000000    8.5647549999999999    0.0000000000000000
     0.0000000000000000    0.0000000000000000   20.0000000000000000
    10     4     1
Selective dynamics
Direct
  0.2500000000000000  0.2107589962744866  0.0980397058770961   T   T   T
 -0.0024474743194320  0.2939896606459155  0.0973906400830479   T   T   T
  0.2500000000000000  0.0388578545186247  0.0980391007706352   T   T   T
 -0.0024096770341572  0.9555715820720853  0.0974028551472419   T   T   T
  0.7500000000000000  0.2083372402564398  0.0937002738088253   T   T   T
  0.5024474743194320  0.2939896606459155  0.0973906400830479   T   T   T
  0.7500000000000000  0.0412129830600364  0.0936989912627985   T   T   T
  0.7500000000000000  0.7118349158514894  0.1001140724068626   T   T   T
  0.7500000000000000  0.5377451922954348  0.1001321085906823   T   T   T
  0.5024096770341572  0.9555715820720853  0.0974028551472419   T   T   T
  0.5121433608232495  0.4555674564001440  0.1028042190077995   T   T   T
 -0.0121433608232498  0.4555674564001440  0.1028042190077995   T   T   T
 -0.0121023173736360  0.7939866551002531  0.1027909176529690   T   T   T
  0.5121023173736361  0.7939866551002531  0.1027909176529690   T   T   T
  0.2500000000000000  0.6247031093066950  0.1234784835009868   T   T   T
 
  0.00000000E+00  0.00000000E+00  0.00000000E+00
  0.00000000E+00  0.00000000E+00  0.00000000E+00
  0.00000000E+00  0.00000000E+00  0.00000000E+00
  0.00000000E+00  0.00000000E+00  0.00000000E+00
  0.00000000E+00  0.00000000E+00  0.00000000E+00
  0.00000000E+00  0.00000000E+00  0.00000000E+00
  0.00000000E+00  0.00000000E+00  0.00000000E+00
  0.00000000E+00  0.00000000E+00  0.00000000E+00
  0.00000000E+00  0.00000000E+00  0.00000000E+00
  0.00000000E+00  0.00000000E+00  0.00000000E+00
  0.00000000E+00  0.00000000E+00  0.00000000E+00
  0.00000000E+00  0.00000000E+00  0.00000000E+00
  0.00000000E+00  0.00000000E+00  0.00000000E+00
  0.00000000E+00  0.00000000E+00  0.00000000E+00
  0.00000000E+00  0.00000000E+00  0.00000000E+00
