Title                                   
   1.00000000000000     
     9.8694509999999998    0.0000000000000000    0.0000000000000000
     0.0000000000000000    8.5490480000000009    0.0000000000000000
     0.0000000000000000    0.0000000000000000   20.0000000000000000
    28     3     1
Selective dynamics
Direct
  0.0559444699821758  0.0914075817439681  0.0870111581738759   T   T   T
  0.9312215555747985  0.1726585477613852  0.0878971568027295   T   T   T
  0.0565991184004692  0.9243491071270893  0.0878476699075700   T   T   T
  0.9307934729453743  0.3398798166936689  0.0909816055634981   T   T   T
  0.0566625025032728  0.5901048610780454  0.0890116074019525   T   T   T
  0.9317714666545006  0.6724811939052536  0.0928298600157072   T   T   T
  0.0575326911486739  0.4229360791837158  0.0893367701524269   T   T   T
  0.9316041794389005  0.8390794388688569  0.0908448393338840   T   T   T
  0.3054380869960054  0.0892159041302448  0.0888326799782352   T   T   T
  0.1818998645701094  0.1739708553057356  0.0876248109725329   T   T   T
  0.1843466793875475  0.3414152223341519  0.0885919457943863   T   T   T
  0.3063134570150688  0.5941725834156319  0.0923651578587196   T   T   T
  0.1808667673572917  0.6750959240588876  0.0889746977756964   T   T   T
  0.3109398266873070  0.4264296806617309  0.0911407589228488   T   T   T
  0.1801437271224376  0.8416183180751674  0.0886948083919387   T   T   T
  0.5557341948821148  0.0853865622044921  0.0928354767581937   T   T   T
  0.4311593984028516  0.1698137014699434  0.0909526058814424   T   T   T
  0.5533904753542986  0.9204224858838250  0.0975808693514546   T   T   T
  0.4351432186814756  0.3361698513179677  0.0936920929190055   T   T   T
  0.4257861381499104  0.8402349146732193  0.0957252864926423   T   T   T
  0.8066105948100676  0.0876250129936772  0.0890724825963743   T   T   T
  0.6813073621904330  0.1684648344812307  0.0916142736721122   T   T   T
  0.8062386573855554  0.9217028036950839  0.0921972036108040   T   T   T
  0.6797723572740724  0.3340325474429807  0.0965791527335371   T   T   T
  0.8076993638570875  0.5891340357180740  0.1031521775084640   T   T   T
  0.6921981207745925  0.6790399983874558  0.1196797831665392   T   T   T
  0.8053362884823473  0.4211512260664673  0.0979869824367449   T   T   T
  0.6814706787790047  0.8383737992423995  0.1023360790509532   T   T   T
  0.4222221602135738  0.6829073806730375  0.0991605245217193   T   T   T
  0.5582269695853257  0.4095372487844098  0.1008943518988820   T   T   T
  0.3044119966837438  0.9254899696364531  0.0900840354126629   T   T   T
  0.5508531587096194  0.5859445129857600  0.1701460949425007   T   T   T
 
  0.00000000E+00  0.00000000E+00  0.00000000E+00
  0.00000000E+00  0.00000000E+00  0.00000000E+00
  0.00000000E+00  0.00000000E+00  0.00000000E+00
  0.00000000E+00  0.00000000E+00  0.00000000E+00
  0.00000000E+00  0.00000000E+00  0.00000000E+00
  0.00000000E+00  0.00000000E+00  0.00000000E+00
  0.00000000E+00  0.00000000E+00  0.00000000E+00
  0.00000000E+00  0.00000000E+00  0.00000000E+00
  0.00000000E+00  0.00000000E+00  0.00000000E+00
  0.00000000E+00  0.00000000E+00  0.00000000E+00
  0.00000000E+00  0.00000000E+00  0.00000000E+00
  0.00000000E+00  0.00000000E+00  0.00000000E+00
  0.00000000E+00  0.00000000E+00  0.00000000E+00
  0.00000000E+00  0.00000000E+00  0.00000000E+00
  0.00000000E+00  0.00000000E+00  0.00000000E+00
  0.00000000E+00  0.00000000E+00  0.00000000E+00
  0.00000000E+00  0.00000000E+00  0.00000000E+00
  0.00000000E+00  0.00000000E+00  0.00000000E+00
  0.00000000E+00  0.00000000E+00  0.00000000E+00
  0.00000000E+00  0.00000000E+00  0.00000000E+00
  0.00000000E+00  0.00000000E+00  0.00000000E+00
  0.00000000E+00  0.00000000E+00  0.00000000E+00
  0.00000000E+00  0.00000000E+00  0.00000000E+00
  0.00000000E+00  0.00000000E+00  0.00000000E+00
  0.00000000E+00  0.00000000E+00  0.00000000E+00
  0.00000000E+00  0.00000000E+00  0.00000000E+00
  0.00000000E+00  0.00000000E+00  0.00000000E+00
  0.00000000E+00  0.00000000E+00  0.00000000E+00
  0.00000000E+00  0.00000000E+00  0.00000000E+00
  0.00000000E+00  0.00000000E+00  0.00000000E+00
  0.00000000E+00  0.00000000E+00  0.00000000E+00
  0.00000000E+00  0.00000000E+00  0.00000000E+00
