Title                                   
   1.00000000000000     
     4.9440799999999996    0.0000000000000000    0.0000000000000000
     0.0000000000000000    8.5647549999999999    0.0000000000000000
     0.0000000000000000    0.0000000000000000   20.0000000000000000
    13     1     1
Selective dynamics
Direct
  0.2475841407371154  0.2065575539030292  0.0972208788613669   T   T   T
 -0.0053789855373290  0.2934932697400134  0.1002125351564106   T   T   T
  0.2567683627448690  0.0399140937046192  0.0973479001804759   T   T   T
  0.0100517601927726  0.9532399934566662  0.0949615008313121   T   T   T
  0.7475731420462781  0.2092299251793137  0.0942838746045719   T   T   T
  0.4932525199397303  0.2931667037806713  0.0938977321930877   T   T   T
  0.7581314382698527  0.0403027305770190  0.0942028127983662   T   T   T
  0.7489004001601390  0.7140671046801539  0.0998621745320788   T   T   T
  0.7375295714975846  0.5402477493008775  0.1008949027369408   T   T   T
  0.5118106791150662  0.9563463010554482  0.0990336202751036   T   T   T
  0.4955789619157163  0.4607424197672156  0.0931405025061010   T   T   T
 -0.0170010929336383  0.4574092881510471  0.1118225951880280   T   T   T
 -0.0015169958595109  0.7861060090588352  0.0943473966762835   T   T   T
  0.5194358013579198  0.7981863217133641  0.1077287766707429   T   T   T
  0.2472802963534341  0.6226715359317293  0.1290227967891333   T   T   T
 
  0.00000000E+00  0.00000000E+00  0.00000000E+00
  0.00000000E+00  0.00000000E+00  0.00000000E+00
  0.00000000E+00  0.00000000E+00  0.00000000E+00
  0.00000000E+00  0.00000000E+00  0.00000000E+00
  0.00000000E+00  0.00000000E+00  0.00000000E+00
  0.00000000E+00  0.00000000E+00  0.00000000E+00
  0.00000000E+00  0.00000000E+00  0.00000000E+00
  0.00000000E+00  0.00000000E+00  0.00000000E+00
  0.00000000E+00  0.00000000E+00  0.00000000E+00
  0.00000000E+00  0.00000000E+00  0.00000000E+00
  0.00000000E+00  0.00000000E+00  0.00000000E+00
  0.00000000E+00  0.00000000E+00  0.00000000E+00
  0.00000000E+00  0.00000000E+00  0.00000000E+00
  0.00000000E+00  0.00000000E+00  0.00000000E+00
  0.00000000E+00  0.00000000E+00  0.00000000E+00
