Title                                   
   1.00000000000000     
     9.8694509999999998    0.0000000000000000    0.0000000000000000
     0.0000000000000000    8.5490480000000009    0.0000000000000000
     0.0000000000000000    0.0000000000000000   20.0000000000000000
    29     1     1
Selective dynamics
Direct
  0.0556564477960774  0.0880835181391086  0.0833149117071353   T   T   T
  0.9309292223627381  0.1718677427982824  0.0861660523246184   T   T   T
  0.0562952080061677  0.9226061531859424  0.0836402515007913   T   T   T
  0.9332952326680896  0.3384692007920159  0.0855530520131192   T   T   T
  0.0565483898175958  0.5893236263670883  0.0816270937619424   T   T   T
  0.9330392899374532  0.6740491833424197  0.0863239219849330   T   T   T
  0.0565307807218344  0.4229885958593719  0.0812555843060029   T   T   T
  0.9311699504987696  0.8403035730420341  0.0868392567968311   T   T   T
  0.3052774142024207  0.0896780368556713  0.0918873044627168   T   T   T
  0.1803067374660748  0.1710818132855401  0.0852808563708003   T   T   T
  0.3063373105761617  0.9221756722855476  0.0919693985685708   T   T   T
  0.1796722881128148  0.3375846216463756  0.0841265231469208   T   T   T
  0.3037883251140253  0.5888636197366223  0.0927177325733805   T   T   T
  0.1806516909987035  0.6722628361739146  0.0845414383003570   T   T   T
  0.3021640880457725  0.4183169836025746  0.0928172298846640   T   T   T
  0.1816720365742392  0.8392975196458433  0.0854905560615080   T   T   T
  0.5551908330355186  0.0922829977655136  0.1052519825058820   T   T   T
  0.4272055168689796  0.1778440328420078  0.1010514760106879   T   T   T
  0.5552948581891779  0.9250466003960367  0.1054239307480451   T   T   T
  0.4255882383177222  0.6711201625962000  0.1039919019462007   T   T   T
  0.4297114805581800  0.8367788738257439  0.1010733083788665   T   T   T
  0.8059857870575172  0.0901810101217562  0.0935398569284053   T   T   T
  0.6829566696206650  0.1775424711828092  0.1033173699861250   T   T   T
  0.8061260208027018  0.9228493868128279  0.0940570840021229   T   T   T
  0.6901631160126042  0.3417631662315284  0.1090016044034690   T   T   T
  0.8115977619408297  0.5914338327485019  0.0971570003085483   T   T   T
  0.6888758691486653  0.6719492967832550  0.1096696340344282   T   T   T
  0.8122337123690477  0.4216600020579125  0.0966728977928972   T   T   T
  0.6824977775914951  0.8373794973892881  0.1041604266492514   T   T   T
  0.4205768024911679  0.3386133782240311  0.1038596694776408   T   T   T
  0.5557961430967996  0.5074775942642467  0.1291856930631793   T   T   T
 
  0.00000000E+00  0.00000000E+00  0.00000000E+00
  0.00000000E+00  0.00000000E+00  0.00000000E+00
  0.00000000E+00  0.00000000E+00  0.00000000E+00
  0.00000000E+00  0.00000000E+00  0.00000000E+00
  0.00000000E+00  0.00000000E+00  0.00000000E+00
  0.00000000E+00  0.00000000E+00  0.00000000E+00
  0.00000000E+00  0.00000000E+00  0.00000000E+00
  0.00000000E+00  0.00000000E+00  0.00000000E+00
  0.00000000E+00  0.00000000E+00  0.00000000E+00
  0.00000000E+00  0.00000000E+00  0.00000000E+00
  0.00000000E+00  0.00000000E+00  0.00000000E+00
  0.00000000E+00  0.00000000E+00  0.00000000E+00
  0.00000000E+00  0.00000000E+00  0.00000000E+00
  0.00000000E+00  0.00000000E+00  0.00000000E+00
  0.00000000E+00  0.00000000E+00  0.00000000E+00
  0.00000000E+00  0.00000000E+00  0.00000000E+00
  0.00000000E+00  0.00000000E+00  0.00000000E+00
  0.00000000E+00  0.00000000E+00  0.00000000E+00
  0.00000000E+00  0.00000000E+00  0.00000000E+00
  0.00000000E+00  0.00000000E+00  0.00000000E+00
  0.00000000E+00  0.00000000E+00  0.00000000E+00
  0.00000000E+00  0.00000000E+00  0.00000000E+00
  0.00000000E+00  0.00000000E+00  0.00000000E+00
  0.00000000E+00  0.00000000E+00  0.00000000E+00
  0.00000000E+00  0.00000000E+00  0.00000000E+00
  0.00000000E+00  0.00000000E+00  0.00000000E+00
  0.00000000E+00  0.00000000E+00  0.00000000E+00
  0.00000000E+00  0.00000000E+00  0.00000000E+00
  0.00000000E+00  0.00000000E+00  0.00000000E+00
  0.00000000E+00  0.00000000E+00  0.00000000E+00
  0.00000000E+00  0.00000000E+00  0.00000000E+00
