Title                                   
   1.00000000000000     
     8.5490480000000009    0.0000000000000000    0.0000000000000000
     0.0000000000000000    8.5490480000000009    0.0000000000000000
     0.0000000000000000    0.0000000000000000   20.0000000000000000
    19     5     1
Selective dynamics
Direct
  0.9084157148057544  0.2048742434232553  0.0975664965464305   T   T   T
  0.9082718141526105  0.5023145881916409  0.0977193306820363   T   T   T
  0.9101864959838477  0.8010995345197066  0.0975408582048960   T   T   T
  0.1968987467483178  0.0835756912131482  0.0976687533593347   T   T   T
  0.0757322778643437  0.2025374748646450  0.0975799783469887   T   T   T
  0.1572792615874218  0.6521016146528450  0.0977103824297384   T   T   T
  0.0790258785284603  0.5012761284128096  0.0977198758085074   T   T   T
  0.1572247536237069  0.3509941566612264  0.0977511790326075   T   T   T
  0.0778579493881394  0.7988627488374913  0.0975731376112649   T   T   T
  0.4931342179095922  0.0874368358820684  0.0978286589422949   T   T   T
  0.3433917698432422  0.1640837437776080  0.0978745192445334   T   T   T
  0.4921207163300927  0.9168877619773352  0.0977496264632157   T   T   T
  0.3432569858047899  0.8377470221776840  0.0977392930826321   T   T   T
  0.7880262978441882  0.0858012006991579  0.0975973028651067   T   T   T
  0.6410396315924147  0.1665246731901175  0.0978377657004884   T   T   T
  0.7881654060799171  0.9192607223259902  0.0975645074910473   T   T   T
  0.8307855556902002  0.6520746094400383  0.0976831831989562   T   T   T
  0.8289171515935874  0.3528581087034748  0.0977715943591047   T   T   T
  0.6413598048326803  0.8372102934266961  0.0977045587108820   T   T   T
  0.3196392360736231  0.3267921402260891  0.0980099854311431   T   T   T
  0.3193150386162670  0.6783954095230811  0.0978812577516642   T   T   T
  0.6660155541342603  0.3294167736846982  0.0980080052565750   T   T   T
  0.6670887739913550  0.6747669415603604  0.0978477316125125   T   T   T
  0.1975523292316512  0.9169296381159405  0.0976553491521755   T   T   T
  0.4947106377495294  0.5009679445128901  0.0981216687158439   T   T   T
 
  0.00000000E+00  0.00000000E+00  0.00000000E+00
  0.00000000E+00  0.00000000E+00  0.00000000E+00
  0.00000000E+00  0.00000000E+00  0.00000000E+00
  0.00000000E+00  0.00000000E+00  0.00000000E+00
  0.00000000E+00  0.00000000E+00  0.00000000E+00
  0.00000000E+00  0.00000000E+00  0.00000000E+00
  0.00000000E+00  0.00000000E+00  0.00000000E+00
  0.00000000E+00  0.00000000E+00  0.00000000E+00
  0.00000000E+00  0.00000000E+00  0.00000000E+00
  0.00000000E+00  0.00000000E+00  0.00000000E+00
  0.00000000E+00  0.00000000E+00  0.00000000E+00
  0.00000000E+00  0.00000000E+00  0.00000000E+00
  0.00000000E+00  0.00000000E+00  0.00000000E+00
  0.00000000E+00  0.00000000E+00  0.00000000E+00
  0.00000000E+00  0.00000000E+00  0.00000000E+00
  0.00000000E+00  0.00000000E+00  0.00000000E+00
  0.00000000E+00  0.00000000E+00  0.00000000E+00
  0.00000000E+00  0.00000000E+00  0.00000000E+00
  0.00000000E+00  0.00000000E+00  0.00000000E+00
  0.00000000E+00  0.00000000E+00  0.00000000E+00
  0.00000000E+00  0.00000000E+00  0.00000000E+00
  0.00000000E+00  0.00000000E+00  0.00000000E+00
  0.00000000E+00  0.00000000E+00  0.00000000E+00
  0.00000000E+00  0.00000000E+00  0.00000000E+00
  0.00000000E+00  0.00000000E+00  0.00000000E+00
