Title                                   
   1.00000000000000     
     4.9440799999999996    0.0000000000000000    0.0000000000000000
     0.0000000000000000   17.1295089999999988    0.0000000000000000
     0.0000000000000000    0.0000000000000000   20.0000000000000000
    28     2     1
Selective dynamics
Direct
 -0.0014924763074707  0.1059342724620901  0.2980116691446499   T   T   T
  0.2472980631988788  0.1489795616901450  0.2986835283245751   T   T   T
  0.2466266706378113  0.2328513179091982  0.3001105637027789   T   T   T
 -0.0036507221185797  0.2762329642135701  0.3008203758483003   T   T   T
  0.0029012407101524  0.6005153044059101  0.3012385369904311   T   T   T
  0.2533924639783541  0.7259446706330391  0.2990975302463485   T   T   T
  0.0011055245296585  0.8528144873938032  0.2973120637493623   T   T   T
  0.2507846573788578  0.8954579487450246  0.2969273364668811   T   T   T
  0.2499286819773192  0.9794868937506152  0.2968004551620037   T   T   T
  0.0019320110489389  0.7685301795382494  0.2984302794718775   T   T   T
  0.4987932776202870  0.1063958500899198  0.2980022546303293   T   T   T
  0.7493573017493357  0.1482870275563436  0.2985980924492809   T   T   T
  0.7480352903583890  0.2326253795074436  0.2999912106867987   T   T   T
  0.4996605529254741  0.0221162740786806  0.2970718114841491   T   T   T
  0.7482888372222221  0.3942604802455835  0.3023183869350570   T   T   T
  0.7521877804276693  0.4806583329263913  0.3024852524454560   T   T   T
  0.4977292578034566  0.2744215378804771  0.3006766845078029   T   T   T
  0.5042491676213231  0.5986814405696222  0.3011139936902393   T   T   T
  0.7513658949365410  0.7266337052980495  0.2990213502283022   T   T   T
  0.5012335264038540  0.8530696864680518  0.2972786127921608   T   T   T
  0.7509391542238527  0.8952862055854133  0.2969083131148465   T   T   T
  0.7498313574265638  0.9796441921507516  0.2967853508829437   T   T   T
  0.5022235313802719  0.7689847667569599  0.2983856465614252   T   T   T
  0.7525859480774922  0.6423018922797784  0.3004195813474101   T   T   T
  0.2540294759971177  0.6420790127354793  0.3005034347031836   T   T   T
 -0.0004928056279917  0.0218750409560774  0.2970735167104145   T   T   T
 -0.0017478292220086  0.5179076413382208  0.3024232775924794   T   T   T
  0.5022427451438122  0.3570156753606147  0.3018201853639819   T   T   T
  0.5094880370868529  0.5173424221839527  0.3020753136927625   T   T   T
 -0.0090280015467464  0.3575583283806386  0.3021137330731754   T   T   T
  0.2502083849583120  0.4374495069099015  0.3025616580005449   T   T   T
 
  0.00000000E+00  0.00000000E+00  0.00000000E+00
  0.00000000E+00  0.00000000E+00  0.00000000E+00
  0.00000000E+00  0.00000000E+00  0.00000000E+00
  0.00000000E+00  0.00000000E+00  0.00000000E+00
  0.00000000E+00  0.00000000E+00  0.00000000E+00
  0.00000000E+00  0.00000000E+00  0.00000000E+00
  0.00000000E+00  0.00000000E+00  0.00000000E+00
  0.00000000E+00  0.00000000E+00  0.00000000E+00
  0.00000000E+00  0.00000000E+00  0.00000000E+00
  0.00000000E+00  0.00000000E+00  0.00000000E+00
  0.00000000E+00  0.00000000E+00  0.00000000E+00
  0.00000000E+00  0.00000000E+00  0.00000000E+00
  0.00000000E+00  0.00000000E+00  0.00000000E+00
  0.00000000E+00  0.00000000E+00  0.00000000E+00
  0.00000000E+00  0.00000000E+00  0.00000000E+00
  0.00000000E+00  0.00000000E+00  0.00000000E+00
  0.00000000E+00  0.00000000E+00  0.00000000E+00
  0.00000000E+00  0.00000000E+00  0.00000000E+00
  0.00000000E+00  0.00000000E+00  0.00000000E+00
  0.00000000E+00  0.00000000E+00  0.00000000E+00
  0.00000000E+00  0.00000000E+00  0.00000000E+00
  0.00000000E+00  0.00000000E+00  0.00000000E+00
  0.00000000E+00  0.00000000E+00  0.00000000E+00
  0.00000000E+00  0.00000000E+00  0.00000000E+00
  0.00000000E+00  0.00000000E+00  0.00000000E+00
  0.00000000E+00  0.00000000E+00  0.00000000E+00
  0.00000000E+00  0.00000000E+00  0.00000000E+00
  0.00000000E+00  0.00000000E+00  0.00000000E+00
  0.00000000E+00  0.00000000E+00  0.00000000E+00
  0.00000000E+00  0.00000000E+00  0.00000000E+00
  0.00000000E+00  0.00000000E+00  0.00000000E+00
