Title                                   
   1.00000000000000     
     9.8694509999999998    0.0000000000000000    0.0000000000000000
     0.0000000000000000    8.5490480000000009    0.0000000000000000
     0.0000000000000000    0.0000000000000000   20.0000000000000000
    28     3     1
Selective dynamics
Direct
  0.0567054102210600  0.0912617621730962  0.0829043242574086   T   T   T
  0.9313883383836943  0.1738000322902327  0.0851100508487159   T   T   T
  0.0559973705460467  0.9240595397826775  0.0829112659613629   T   T   T
  0.9310508714957800  0.3400667622437438  0.0895970983491278   T   T   T
  0.0566272888360056  0.5897173060430216  0.0870438524333261   T   T   T
  0.9314445134442332  0.6724682650920195  0.0885564453105657   T   T   T
  0.0572278124698839  0.4233461355318366  0.0884854937731123   T   T   T
  0.9304380736591155  0.8394096662405228  0.0850571210261132   T   T   T
  0.3055820779986124  0.0905140411550023  0.0859342204962153   T   T   T
  0.1820080001972323  0.1754813975283169  0.0851993037751016   T   T   T
  0.3055508877321786  0.9253833705418286  0.0866040377776816   T   T   T
  0.1838955834895891  0.3422423520101173  0.0889067418710463   T   T   T
  0.3057856348408753  0.5947743714940740  0.0975337150001430   T   T   T
  0.1811676264691595  0.6736689627571244  0.0882291678424182   T   T   T
  0.3117922599823237  0.4261080286509862  0.0959744598483707   T   T   T
  0.1806537258916681  0.8408409210148589  0.0855709292371688   T   T   T
  0.5558646403454333  0.0851525363872701  0.0948664274652076   T   T   T
  0.4315791816242468  0.1696837845401356  0.0924893941095032   T   T   T
  0.4337033115846872  0.3336877722210635  0.0996619939027658   T   T   T
  0.4283717986211984  0.8422873210480971  0.0964199693440556   T   T   T
  0.8073627536212156  0.0890596928071820  0.0855680356793811   T   T   T
  0.6818565506220626  0.1674805781990881  0.0926094897627964   T   T   T
  0.8054356013430702  0.9233238676929675  0.0860118363986946   T   T   T
  0.6818364365586964  0.3315453464286454  0.1008482613338343   T   T   T
  0.8070986324461704  0.5911985785114849  0.0997097081836715   T   T   T
  0.6880383540415207  0.6810798276889664  0.1129035789510509   T   T   T
  0.8044919352374752  0.4220809210549076  0.0979823857373174   T   T   T
  0.6823305215730369  0.8397866224985034  0.0970492683558380   T   T   T
  0.4216096664739477  0.6863560175972081  0.1120831953316949   T   T   T
  0.5584305091098745  0.4018392527074915  0.1163031363866523   T   T   T
  0.5542849048802677  0.9206317012619015  0.0973486527825115   T   T   T
  0.5500287262596444  0.5819092648056370  0.1802014384671811   T   T   T
 
  0.00000000E+00  0.00000000E+00  0.00000000E+00
  0.00000000E+00  0.00000000E+00  0.00000000E+00
  0.00000000E+00  0.00000000E+00  0.00000000E+00
  0.00000000E+00  0.00000000E+00  0.00000000E+00
  0.00000000E+00  0.00000000E+00  0.00000000E+00
  0.00000000E+00  0.00000000E+00  0.00000000E+00
  0.00000000E+00  0.00000000E+00  0.00000000E+00
  0.00000000E+00  0.00000000E+00  0.00000000E+00
  0.00000000E+00  0.00000000E+00  0.00000000E+00
  0.00000000E+00  0.00000000E+00  0.00000000E+00
  0.00000000E+00  0.00000000E+00  0.00000000E+00
  0.00000000E+00  0.00000000E+00  0.00000000E+00
  0.00000000E+00  0.00000000E+00  0.00000000E+00
  0.00000000E+00  0.00000000E+00  0.00000000E+00
  0.00000000E+00  0.00000000E+00  0.00000000E+00
  0.00000000E+00  0.00000000E+00  0.00000000E+00
  0.00000000E+00  0.00000000E+00  0.00000000E+00
  0.00000000E+00  0.00000000E+00  0.00000000E+00
  0.00000000E+00  0.00000000E+00  0.00000000E+00
  0.00000000E+00  0.00000000E+00  0.00000000E+00
  0.00000000E+00  0.00000000E+00  0.00000000E+00
  0.00000000E+00  0.00000000E+00  0.00000000E+00
  0.00000000E+00  0.00000000E+00  0.00000000E+00
  0.00000000E+00  0.00000000E+00  0.00000000E+00
  0.00000000E+00  0.00000000E+00  0.00000000E+00
  0.00000000E+00  0.00000000E+00  0.00000000E+00
  0.00000000E+00  0.00000000E+00  0.00000000E+00
  0.00000000E+00  0.00000000E+00  0.00000000E+00
  0.00000000E+00  0.00000000E+00  0.00000000E+00
  0.00000000E+00  0.00000000E+00  0.00000000E+00
  0.00000000E+00  0.00000000E+00  0.00000000E+00
  0.00000000E+00  0.00000000E+00  0.00000000E+00
