Title                                   
   1.00000000000000     
     4.9440799999999996    0.0000000000000000    0.0000000000000000
     0.0000000000000000   17.1295089999999988    0.0000000000000000
     0.0000000000000000    0.0000000000000000   20.0000000000000000
    28     2     1
Selective dynamics
Direct
  0.0011437388574012  0.1048446550636173  0.2973662331641883   T   T   T
  0.2502971775295623  0.1476378763737160  0.2981387808085383   T   T   T
  0.2502890367222922  0.2315059323839390  0.2999892888055206   T   T   T
 -0.0042187038799071  0.2718996143592732  0.3010359249486671   T   T   T
 -0.0013018928627565  0.6035771973016101  0.3018291033232174   T   T   T
  0.2503363213740745  0.7286426068813915  0.2990272089538789   T   T   T
  0.0002384722692454  0.8542563024124114  0.2969994732286322   T   T   T
  0.2503177388371769  0.8959989720640730  0.2966263442220000   T   T   T
  0.2503100306270297  0.9794084316527307  0.2963351417141269   T   T   T
  0.0002431800003878  0.7707525165354280  0.2982068156936597   T   T   T
  0.4994488240085728  0.1048474296042215  0.2972927722768229   T   T   T
  0.7502983096806253  0.1456266206955299  0.2979555548162881   T   T   T
  0.7502975758421554  0.2287346379688780  0.2996606963068770   T   T   T
  0.4997003051777340  0.0213201881007035  0.2964536528129522   T   T   T
  0.7503676143088684  0.3901183585982098  0.3028198387103260   T   T   T
  0.7504012428561193  0.4792909234529138  0.3030547387494402   T   T   T
  0.5047925782766015  0.2719047879021556  0.3005659288776037   T   T   T
  0.5019507121417607  0.6035760886518233  0.3016052989180166   T   T   T
  0.7503435298675980  0.7293251878247242  0.2989839807402003   T   T   T
  0.5003668185192414  0.8542489724221614  0.2969781570265437   T   T   T
  0.7502883612845286  0.8960478998995934  0.2966261851869935   T   T   T
  0.7502837234230235  0.9797131329335407  0.2963457356811932   T   T   T
  0.5004295294122737  0.7707497408690941  0.2981744190171282   T   T   T
  0.7503182897842856  0.6458816863106888  0.3007952665250029   T   T   T
  0.2503156851704160  0.6452320866274408  0.3008694104013689   T   T   T
  0.0008827809139644  0.0213145953319621  0.2964840601002816   T   T   T
  0.5092980181598069  0.5209402815884360  0.3027164150107231   T   T   T
  0.9914660951941444  0.5209532584592997  0.3032991299427089   T   T   T
  0.5171427146858936  0.3513143382648535  0.3017478045163383   T   T   T
 -0.0164634390400288  0.3512823404320147  0.3032686844936704   T   T   T
  0.2504226308579100  0.4403953390335601  0.3038079550270413   T   T   T
 
  0.00000000E+00  0.00000000E+00  0.00000000E+00
  0.00000000E+00  0.00000000E+00  0.00000000E+00
  0.00000000E+00  0.00000000E+00  0.00000000E+00
  0.00000000E+00  0.00000000E+00  0.00000000E+00
  0.00000000E+00  0.00000000E+00  0.00000000E+00
  0.00000000E+00  0.00000000E+00  0.00000000E+00
  0.00000000E+00  0.00000000E+00  0.00000000E+00
  0.00000000E+00  0.00000000E+00  0.00000000E+00
  0.00000000E+00  0.00000000E+00  0.00000000E+00
  0.00000000E+00  0.00000000E+00  0.00000000E+00
  0.00000000E+00  0.00000000E+00  0.00000000E+00
  0.00000000E+00  0.00000000E+00  0.00000000E+00
  0.00000000E+00  0.00000000E+00  0.00000000E+00
  0.00000000E+00  0.00000000E+00  0.00000000E+00
  0.00000000E+00  0.00000000E+00  0.00000000E+00
  0.00000000E+00  0.00000000E+00  0.00000000E+00
  0.00000000E+00  0.00000000E+00  0.00000000E+00
  0.00000000E+00  0.00000000E+00  0.00000000E+00
  0.00000000E+00  0.00000000E+00  0.00000000E+00
  0.00000000E+00  0.00000000E+00  0.00000000E+00
  0.00000000E+00  0.00000000E+00  0.00000000E+00
  0.00000000E+00  0.00000000E+00  0.00000000E+00
  0.00000000E+00  0.00000000E+00  0.00000000E+00
  0.00000000E+00  0.00000000E+00  0.00000000E+00
  0.00000000E+00  0.00000000E+00  0.00000000E+00
  0.00000000E+00  0.00000000E+00  0.00000000E+00
  0.00000000E+00  0.00000000E+00  0.00000000E+00
  0.00000000E+00  0.00000000E+00  0.00000000E+00
  0.00000000E+00  0.00000000E+00  0.00000000E+00
  0.00000000E+00  0.00000000E+00  0.00000000E+00
  0.00000000E+00  0.00000000E+00  0.00000000E+00
