Title                                   
   1.00000000000000     
     8.5490480000000009    0.0000000000000000    0.0000000000000000
     0.0000000000000000    8.5490480000000009    0.0000000000000000
     0.0000000000000000    0.0000000000000000   20.0000000000000000
    17     7     1
Selective dynamics
Direct
  0.9080539958211696  0.2048826274786746  0.0973311409815362   T   T   T
  0.9110153021404797  0.8014460623963767  0.0974392936843961   T   T   T
  0.1964654684111492  0.0827886883146542  0.0975721204047523   T   T   T
  0.0764818064323344  0.2002133932986729  0.0974776627005910   T   T   T
  0.1560969898654444  0.6522191213993980  0.0978181011411608   T   T   T
  0.0783798817786293  0.5006738861123852  0.0978504332506840   T   T   T
  0.1561134600632913  0.3490879171827638  0.0978208703808464   T   T   T
  0.0784954752461137  0.7998415336452211  0.0975431072379214   T   T   T
  0.3435091108563941  0.1641478022639460  0.0978972659706480   T   T   T
  0.4922906360102488  0.9174320659737730  0.0978399318213579   T   T   T
  0.3431695131270875  0.8387858732802991  0.0978562835456287   T   T   T
  0.7883679574313991  0.0867586197866028  0.0973452856009569   T   T   T
  0.6420068075606564  0.1675093742951509  0.0976930444457787   T   T   T
  0.7904878282193152  0.9185886139132475  0.0974197246213473   T   T   T
  0.8305095547766014  0.6517770927228956  0.0977424327687490   T   T   T
  0.8285074772564898  0.3526397585561494  0.0976440685114455   T   T   T
  0.6436539435043528  0.8381251096627197  0.0977432087334572   T   T   T
  0.4933647175545508  0.0896031496049608  0.0979019358537092   T   T   T
  0.9065067458284363  0.5021498087954875  0.0978241975601491   T   T   T
  0.3187347952285598  0.3236892937435696  0.0981281178092141   T   T   T
  0.3181315184766699  0.6795124054700667  0.0980700334226569   T   T   T
  0.6667022027529430  0.3288881867431574  0.0979096501755476   T   T   T
  0.6705144029201614  0.6753981984350590  0.0979662370879849   T   T   T
  0.1957344460139420  0.9158511129714342  0.0976200461626589   T   T   T
  0.4921179627235743  0.5027803039533343  0.0982508061268018   T   T   T
 
  0.00000000E+00  0.00000000E+00  0.00000000E+00
  0.00000000E+00  0.00000000E+00  0.00000000E+00
  0.00000000E+00  0.00000000E+00  0.00000000E+00
  0.00000000E+00  0.00000000E+00  0.00000000E+00
  0.00000000E+00  0.00000000E+00  0.00000000E+00
  0.00000000E+00  0.00000000E+00  0.00000000E+00
  0.00000000E+00  0.00000000E+00  0.00000000E+00
  0.00000000E+00  0.00000000E+00  0.00000000E+00
  0.00000000E+00  0.00000000E+00  0.00000000E+00
  0.00000000E+00  0.00000000E+00  0.00000000E+00
  0.00000000E+00  0.00000000E+00  0.00000000E+00
  0.00000000E+00  0.00000000E+00  0.00000000E+00
  0.00000000E+00  0.00000000E+00  0.00000000E+00
  0.00000000E+00  0.00000000E+00  0.00000000E+00
  0.00000000E+00  0.00000000E+00  0.00000000E+00
  0.00000000E+00  0.00000000E+00  0.00000000E+00
  0.00000000E+00  0.00000000E+00  0.00000000E+00
  0.00000000E+00  0.00000000E+00  0.00000000E+00
  0.00000000E+00  0.00000000E+00  0.00000000E+00
  0.00000000E+00  0.00000000E+00  0.00000000E+00
  0.00000000E+00  0.00000000E+00  0.00000000E+00
  0.00000000E+00  0.00000000E+00  0.00000000E+00
  0.00000000E+00  0.00000000E+00  0.00000000E+00
  0.00000000E+00  0.00000000E+00  0.00000000E+00
  0.00000000E+00  0.00000000E+00  0.00000000E+00
