Title                                   
   1.00000000000000     
     8.5490480000000009    0.0000000000000000    0.0000000000000000
     0.0000000000000000    8.5490480000000009    0.0000000000000000
     0.0000000000000000    0.0000000000000000   20.0000000000000000
    21     3     1
Selective dynamics
Direct
  0.9062666656122355  0.2074813972821527  0.0940091041188991   T   T   T
  0.9101894458052693  0.5049703799707222  0.0964320129519445   T   T   T
  0.9127374043563411  0.8027115859423725  0.0970649851855751   T   T   T
  0.1950890949381243  0.0808080853106417  0.0960520956768689   T   T   T
  0.0730005537303559  0.2008503577430736  0.0959601798112018   T   T   T
  0.1619514363926051  0.6475349806993191  0.0959697521633596   T   T   T
  0.0789335209612099  0.5006279244317854  0.0970778735009788   T   T   T
  0.1540004564632908  0.3491591395363585  0.0984658082198862   T   T   T
  0.0813889128541536  0.7963041654248721  0.0957407005062707   T   T   T
  0.4917538221443358  0.0874762865068783  0.0970131050814136   T   T   T
  0.3406722383969403  0.1608827587372426  0.0983767315600379   T   T   T
  0.4943227507452775  0.9184679845584139  0.0967757698562666   T   T   T
  0.3485718901575585  0.8367830666281186  0.0934819082236919   T   T   T
  0.7852952551912660  0.0889305930738350  0.0953498446820102   T   T   T
  0.6360516080024372  0.1706012445735989  0.0956512574766270   T   T   T
  0.7898742366327010  0.9218278328679764  0.0968766482941211   T   T   T
  0.8315516105134296  0.6541694842991478  0.0996509673603170   T   T   T
  0.8291868386233490  0.3588276786737929  0.0926325928943353   T   T   T
  0.6427095841733546  0.8382115489932880  0.0995064580605058   T   T   T
  0.3293956510811972  0.6727966816005440  0.0930450020112523   T   T   T
  0.6622152624844714  0.3397714159779467  0.0922581225051780   T   T   T
  0.3161060773495518  0.3240377770060948  0.1030827047767768   T   T   T
  0.6674633214552134  0.6755562750508702  0.1048411948791783   T   T   T
  0.1994039966447618  0.9147658293683260  0.0942859851887588   T   T   T
  0.4872803652905556  0.4912355257426401  0.1241041950145250   T   T   T
 
  0.00000000E+00  0.00000000E+00  0.00000000E+00
  0.00000000E+00  0.00000000E+00  0.00000000E+00
  0.00000000E+00  0.00000000E+00  0.00000000E+00
  0.00000000E+00  0.00000000E+00  0.00000000E+00
  0.00000000E+00  0.00000000E+00  0.00000000E+00
  0.00000000E+00  0.00000000E+00  0.00000000E+00
  0.00000000E+00  0.00000000E+00  0.00000000E+00
  0.00000000E+00  0.00000000E+00  0.00000000E+00
  0.00000000E+00  0.00000000E+00  0.00000000E+00
  0.00000000E+00  0.00000000E+00  0.00000000E+00
  0.00000000E+00  0.00000000E+00  0.00000000E+00
  0.00000000E+00  0.00000000E+00  0.00000000E+00
  0.00000000E+00  0.00000000E+00  0.00000000E+00
  0.00000000E+00  0.00000000E+00  0.00000000E+00
  0.00000000E+00  0.00000000E+00  0.00000000E+00
  0.00000000E+00  0.00000000E+00  0.00000000E+00
  0.00000000E+00  0.00000000E+00  0.00000000E+00
  0.00000000E+00  0.00000000E+00  0.00000000E+00
  0.00000000E+00  0.00000000E+00  0.00000000E+00
  0.00000000E+00  0.00000000E+00  0.00000000E+00
  0.00000000E+00  0.00000000E+00  0.00000000E+00
  0.00000000E+00  0.00000000E+00  0.00000000E+00
  0.00000000E+00  0.00000000E+00  0.00000000E+00
  0.00000000E+00  0.00000000E+00  0.00000000E+00
  0.00000000E+00  0.00000000E+00  0.00000000E+00
