Title                                   
   1.00000000000000     
     9.8694509999999998    0.0000000000000000    0.0000000000000000
     0.0000000000000000    8.5490480000000009    0.0000000000000000
     0.0000000000000000    0.0000000000000000   20.0000000000000000
    26     5     1
Selective dynamics
Direct
  0.0557875266521622  0.0920984582979993  0.0863589226120941   T   T   T
  0.9297224770598521  0.1756014970436824  0.0882848527859607   T   T   T
  0.0564516088977209  0.9234988627719497  0.0850741675672796   T   T   T
  0.9291040366401440  0.3416476135668799  0.0912698593615445   T   T   T
  0.0560151134430978  0.5899384179668161  0.0866786110830170   T   T   T
  0.9315594131214687  0.6717979518423250  0.0873618161105676   T   T   T
  0.0556337795597469  0.4231351242458335  0.0905832755034805   T   T   T
  0.9314499205835914  0.8398849047126770  0.0865639778636058   T   T   T
  0.3051850144319640  0.0891654528811544  0.0882489915858892   T   T   T
  0.1817313316321124  0.1742928622205550  0.0884695224703715   T   T   T
  0.3070020132519621  0.9233643697279669  0.0889443644119291   T   T   T
  0.1815268224868541  0.3400387922515258  0.0921395871449632   T   T   T
  0.3056429967744655  0.5902961614135265  0.0990931711791582   T   T   T
  0.1809495695691356  0.6705862308606513  0.0881784051799618   T   T   T
  0.1821569531651176  0.8388585730742177  0.0866740843134540   T   T   T
  0.5565782269942317  0.0864572111689982  0.0963714055596107   T   T   T
  0.4308614628485994  0.1693177003109634  0.0938058593128527   T   T   T
  0.4325184921982109  0.3344425257154243  0.1000449216641026   T   T   T
  0.4294210927588974  0.8389891681046567  0.0997243258265363   T   T   T
  0.8067587052192667  0.0898045839362643  0.0882867243698818   T   T   T
  0.6812053809307773  0.1710416602466656  0.0935756861364365   T   T   T
  0.8064860554367116  0.9245991089393999  0.0888885982756064   T   T   T
  0.6777537421785010  0.3353543892620664  0.0988232971541470   T   T   T
  0.8061126652055867  0.5937065776339409  0.0954919838713268   T   T   T
  0.6844977323661584  0.8396299311153371  0.0977633553884461   T   T   T
  0.4219589255285657  0.6783228140438909  0.1148703158680725   T   T   T
  0.5546919601916834  0.4078044390771762  0.1125087287904953   T   T   T
  0.6917344345213660  0.6809994203452324  0.1089760706054718   T   T   T
  0.5575667770998567  0.9194669332741328  0.0989001136946446   T   T   T
  0.3090385040032812  0.4217015561139229  0.0976263917636044   T   T   T
  0.8004698920431443  0.4257437265454120  0.0950764205257009   T   T   T
  0.5620663732057742  0.5886589812887580  0.1710171920198029   T   T   T
 
  0.00000000E+00  0.00000000E+00  0.00000000E+00
  0.00000000E+00  0.00000000E+00  0.00000000E+00
  0.00000000E+00  0.00000000E+00  0.00000000E+00
  0.00000000E+00  0.00000000E+00  0.00000000E+00
  0.00000000E+00  0.00000000E+00  0.00000000E+00
  0.00000000E+00  0.00000000E+00  0.00000000E+00
  0.00000000E+00  0.00000000E+00  0.00000000E+00
  0.00000000E+00  0.00000000E+00  0.00000000E+00
  0.00000000E+00  0.00000000E+00  0.00000000E+00
  0.00000000E+00  0.00000000E+00  0.00000000E+00
  0.00000000E+00  0.00000000E+00  0.00000000E+00
  0.00000000E+00  0.00000000E+00  0.00000000E+00
  0.00000000E+00  0.00000000E+00  0.00000000E+00
  0.00000000E+00  0.00000000E+00  0.00000000E+00
  0.00000000E+00  0.00000000E+00  0.00000000E+00
  0.00000000E+00  0.00000000E+00  0.00000000E+00
  0.00000000E+00  0.00000000E+00  0.00000000E+00
  0.00000000E+00  0.00000000E+00  0.00000000E+00
  0.00000000E+00  0.00000000E+00  0.00000000E+00
  0.00000000E+00  0.00000000E+00  0.00000000E+00
  0.00000000E+00  0.00000000E+00  0.00000000E+00
  0.00000000E+00  0.00000000E+00  0.00000000E+00
  0.00000000E+00  0.00000000E+00  0.00000000E+00
  0.00000000E+00  0.00000000E+00  0.00000000E+00
  0.00000000E+00  0.00000000E+00  0.00000000E+00
  0.00000000E+00  0.00000000E+00  0.00000000E+00
  0.00000000E+00  0.00000000E+00  0.00000000E+00
  0.00000000E+00  0.00000000E+00  0.00000000E+00
  0.00000000E+00  0.00000000E+00  0.00000000E+00
  0.00000000E+00  0.00000000E+00  0.00000000E+00
  0.00000000E+00  0.00000000E+00  0.00000000E+00
  0.00000000E+00  0.00000000E+00  0.00000000E+00
