Title                                   
   1.00000000000000     
     9.8694509999999998    0.0000000000000000    0.0000000000000000
     0.0000000000000000    8.5490480000000009    0.0000000000000000
     0.0000000000000000    0.0000000000000000   20.0000000000000000
    29     2     1
Selective dynamics
Direct
  0.0564941683451284  0.0905452903759359  0.0827760181424591   T   T   T
  0.9313003144376645  0.1733603397766112  0.0868926714351525   T   T   T
  0.0567456304428554  0.9230895566869000  0.0809009911334394   T   T   T
  0.9306061260704146  0.3400734426811549  0.0923178701016572   T   T   T
  0.0558799876161117  0.5894989712132329  0.0864961786295616   T   T   T
  0.9319793802165649  0.6724229379228346  0.0878710183012387   T   T   T
  0.0570565800858648  0.4229656795476590  0.0901309299953928   T   T   T
  0.9310875316687995  0.8398419739357421  0.0835364433040399   T   T   T
  0.3056450623607988  0.0883815686273564  0.0843525086305455   T   T   T
  0.1823029886388647  0.1743749239770961  0.0851516687824726   T   T   T
  0.3070224801827309  0.9231247982619004  0.0842665383043518   T   T   T
  0.1821373706581794  0.3400730384854673  0.0905539995988436   T   T   T
  0.3058177625078152  0.5901574843490770  0.0972745165646704   T   T   T
  0.1817110996442044  0.6711654258817635  0.0852308639679442   T   T   T
  0.1821637039798912  0.8380027566375878  0.0822362817751984   T   T   T
  0.5553635113385978  0.0871012814537173  0.0936596046082582   T   T   T
  0.4303058236061938  0.1699718266102807  0.0909526482983189   T   T   T
  0.4310343462382126  0.3353387905653449  0.1017016116070885   T   T   T
  0.4291695454794972  0.8385703084510201  0.0967146565130362   T   T   T
  0.8069074267661337  0.0894971642477566  0.0869487086017661   T   T   T
  0.6808369680479387  0.1697560244163900  0.0940416314446096   T   T   T
  0.8062224765407935  0.9245393806784804  0.0856288441554081   T   T   T
  0.6790341337082212  0.3345108405039133  0.1048903726419776   T   T   T
  0.8073409138234026  0.5918148409933647  0.1006664533257117   T   T   T
  0.8054144562347063  0.4226998797452176  0.1015100482111500   T   T   T
  0.6824361924722285  0.8409139295378966  0.0971880678029179   T   T   T
  0.4236155955381550  0.6776608898943108  0.1128149332855372   T   T   T
  0.5525656015516213  0.4090540444952201  0.1182190372507564   T   T   T
  0.6887142035749415  0.6821516215967787  0.1125603363577608   T   T   T
  0.5555035334265057  0.9216650148602212  0.0970787294730102   T   T   T
  0.3063477452534866  0.4225376478175370  0.0981031141684967   T   T   T
  0.5608763395434815  0.5953843257722327  0.1930077035872442   T   T   T
 
  0.00000000E+00  0.00000000E+00  0.00000000E+00
  0.00000000E+00  0.00000000E+00  0.00000000E+00
  0.00000000E+00  0.00000000E+00  0.00000000E+00
  0.00000000E+00  0.00000000E+00  0.00000000E+00
  0.00000000E+00  0.00000000E+00  0.00000000E+00
  0.00000000E+00  0.00000000E+00  0.00000000E+00
  0.00000000E+00  0.00000000E+00  0.00000000E+00
  0.00000000E+00  0.00000000E+00  0.00000000E+00
  0.00000000E+00  0.00000000E+00  0.00000000E+00
  0.00000000E+00  0.00000000E+00  0.00000000E+00
  0.00000000E+00  0.00000000E+00  0.00000000E+00
  0.00000000E+00  0.00000000E+00  0.00000000E+00
  0.00000000E+00  0.00000000E+00  0.00000000E+00
  0.00000000E+00  0.00000000E+00  0.00000000E+00
  0.00000000E+00  0.00000000E+00  0.00000000E+00
  0.00000000E+00  0.00000000E+00  0.00000000E+00
  0.00000000E+00  0.00000000E+00  0.00000000E+00
  0.00000000E+00  0.00000000E+00  0.00000000E+00
  0.00000000E+00  0.00000000E+00  0.00000000E+00
  0.00000000E+00  0.00000000E+00  0.00000000E+00
  0.00000000E+00  0.00000000E+00  0.00000000E+00
  0.00000000E+00  0.00000000E+00  0.00000000E+00
  0.00000000E+00  0.00000000E+00  0.00000000E+00
  0.00000000E+00  0.00000000E+00  0.00000000E+00
  0.00000000E+00  0.00000000E+00  0.00000000E+00
  0.00000000E+00  0.00000000E+00  0.00000000E+00
  0.00000000E+00  0.00000000E+00  0.00000000E+00
  0.00000000E+00  0.00000000E+00  0.00000000E+00
  0.00000000E+00  0.00000000E+00  0.00000000E+00
  0.00000000E+00  0.00000000E+00  0.00000000E+00
  0.00000000E+00  0.00000000E+00  0.00000000E+00
  0.00000000E+00  0.00000000E+00  0.00000000E+00
