Title                                   
   1.00000000000000     
     9.8694509999999998    0.0000000000000000    0.0000000000000000
     0.0000000000000000    8.5490480000000009    0.0000000000000000
     0.0000000000000000    0.0000000000000000   20.0000000000000000
    24     6     1
Selective dynamics
Direct
  0.0560414774675114  0.0899644261077136  0.0954215421223950   T   T   T
  0.9315580095580309  0.1720780654333536  0.0957747563851500   T   T   T
  0.0574532478031371  0.9225620589689311  0.0953546139515949   T   T   T
  0.9334566217607900  0.3390351606849161  0.0953754823241651   T   T   T
  0.0565699006010938  0.5895008167514993  0.0943840661924413   T   T   T
  0.9336319628644703  0.6727517978689334  0.0952524088977707   T   T   T
  0.0566772741320690  0.4225958714074422  0.0944758096753337   T   T   T
  0.9320848921089573  0.8399284766242541  0.0956911223569434   T   T   T
  0.3076166402962666  0.0880689897462615  0.0965530300673865   T   T   T
  0.1813748025684469  0.1713454340985560  0.0955434080208911   T   T   T
  0.1795985944698755  0.3380081036913408  0.0951509269721733   T   T   T
  0.3018622420199027  0.5900184615614340  0.0966596909264374   T   T   T
  0.1797818494777877  0.6736191743941701  0.0951091431262731   T   T   T
  0.3023810901259012  0.4214129486558703  0.0965182743534555   T   T   T
  0.1808700151813254  0.8401829105091454  0.0955087344146963   T   T   T
  0.4293868666076671  0.1760884926740771  0.0978842448514689   T   T   T
  0.5549697578462832  0.9197047488871473  0.0985893887479748   T   T   T
  0.4287176344654205  0.8364964857818705  0.0981696384551238   T   T   T
  0.8048503728514355  0.0893558024687238  0.0967818264930997   T   T   T
  0.6824756238761972  0.1780591523308185  0.0980071827262503   T   T   T
  0.8064069494455469  0.9220560661519754  0.0968414540583626   T   T   T
  0.8106510104216248  0.5905245588588416  0.0968887589050531   T   T   T
  0.8105802049568698  0.4211775037445311  0.0968601745903236   T   T   T
  0.6822115766671013  0.8352635409850453  0.0982328486273518   T   T   T
  0.5564923456138660  0.0960778960062038  0.0987116553647342   T   T   T
  0.4220617033944266  0.3367013434805681  0.0983845889183557   T   T   T
  0.4207613920653148  0.6766995217041029  0.0988993937435759   T   T   T
  0.6898529432703843  0.3380069259549983  0.0985943385145486   T   T   T
  0.6908497552715747  0.6738489105039976  0.0988992375929944   T   T   T
  0.3060490362102302  0.9221841585681239  0.0965836704722625   T   T   T
  0.5558602066004918  0.5075571953951502  0.0998635881514702   T   T   T
 
  0.00000000E+00  0.00000000E+00  0.00000000E+00
  0.00000000E+00  0.00000000E+00  0.00000000E+00
  0.00000000E+00  0.00000000E+00  0.00000000E+00
  0.00000000E+00  0.00000000E+00  0.00000000E+00
  0.00000000E+00  0.00000000E+00  0.00000000E+00
  0.00000000E+00  0.00000000E+00  0.00000000E+00
  0.00000000E+00  0.00000000E+00  0.00000000E+00
  0.00000000E+00  0.00000000E+00  0.00000000E+00
  0.00000000E+00  0.00000000E+00  0.00000000E+00
  0.00000000E+00  0.00000000E+00  0.00000000E+00
  0.00000000E+00  0.00000000E+00  0.00000000E+00
  0.00000000E+00  0.00000000E+00  0.00000000E+00
  0.00000000E+00  0.00000000E+00  0.00000000E+00
  0.00000000E+00  0.00000000E+00  0.00000000E+00
  0.00000000E+00  0.00000000E+00  0.00000000E+00
  0.00000000E+00  0.00000000E+00  0.00000000E+00
  0.00000000E+00  0.00000000E+00  0.00000000E+00
  0.00000000E+00  0.00000000E+00  0.00000000E+00
  0.00000000E+00  0.00000000E+00  0.00000000E+00
  0.00000000E+00  0.00000000E+00  0.00000000E+00
  0.00000000E+00  0.00000000E+00  0.00000000E+00
  0.00000000E+00  0.00000000E+00  0.00000000E+00
  0.00000000E+00  0.00000000E+00  0.00000000E+00
  0.00000000E+00  0.00000000E+00  0.00000000E+00
  0.00000000E+00  0.00000000E+00  0.00000000E+00
  0.00000000E+00  0.00000000E+00  0.00000000E+00
  0.00000000E+00  0.00000000E+00  0.00000000E+00
  0.00000000E+00  0.00000000E+00  0.00000000E+00
  0.00000000E+00  0.00000000E+00  0.00000000E+00
  0.00000000E+00  0.00000000E+00  0.00000000E+00
  0.00000000E+00  0.00000000E+00  0.00000000E+00
