Title                                   
   1.00000000000000     
     4.9440799999999996    0.0000000000000000    0.0000000000000000
     0.0000000000000000    8.5647549999999999    0.0000000000000000
     0.0000000000000000    0.0000000000000000   20.0000000000000000
    13     2     1
Selective dynamics
Direct
  0.2440180436107465  0.2103355732477724  0.0931113201287650   T   T   T
 -0.0107397906149554  0.2936121889402815  0.0931818948334524   T   T   T
  0.2477725017350382  0.0445847065235599  0.0891044942256654   T   T   T
  0.0087385971505284  0.7936934392936137  0.0942191518110140   T   T   T
 -0.0004899806183927  0.9598349244783330  0.0878720029691108   T   T   T
  0.7441776269529152  0.2067188445046350  0.0904157972993658   T   T   T
  0.4963070762375653  0.2910489907806342  0.0989149548280478   T   T   T
  0.7483571789574259  0.0414104414448612  0.0870312900708737   T   T   T
  0.7546925045227045  0.7070966992426321  0.0976097056579152   T   T   T
  0.4971343576776707  0.7940340773553661  0.0952127885112614   T   T   T
  0.7526850275348139  0.5373758831868746  0.1026515604237468   T   T   T
  0.4990842651203200  0.9602716592647482  0.0892832311264700   T   T   T
  0.5188553988204551  0.4490335281532290  0.1162737327619682   T   T   T
 -0.0126338697965984  0.4509042097152735  0.0950745837193154   T   T   T
  0.2541468435620972  0.7193099909375376  0.1003496119737964   T   T   T
  0.2578942191476659  0.5407348429306478  0.1922058796592392   T   T   T
 
  0.00000000E+00  0.00000000E+00  0.00000000E+00
  0.00000000E+00  0.00000000E+00  0.00000000E+00
  0.00000000E+00  0.00000000E+00  0.00000000E+00
  0.00000000E+00  0.00000000E+00  0.00000000E+00
  0.00000000E+00  0.00000000E+00  0.00000000E+00
  0.00000000E+00  0.00000000E+00  0.00000000E+00
  0.00000000E+00  0.00000000E+00  0.00000000E+00
  0.00000000E+00  0.00000000E+00  0.00000000E+00
  0.00000000E+00  0.00000000E+00  0.00000000E+00
  0.00000000E+00  0.00000000E+00  0.00000000E+00
  0.00000000E+00  0.00000000E+00  0.00000000E+00
  0.00000000E+00  0.00000000E+00  0.00000000E+00
  0.00000000E+00  0.00000000E+00  0.00000000E+00
  0.00000000E+00  0.00000000E+00  0.00000000E+00
  0.00000000E+00  0.00000000E+00  0.00000000E+00
  0.00000000E+00  0.00000000E+00  0.00000000E+00
