Title                                   
   1.00000000000000     
     4.9440799999999996    0.0000000000000000    0.0000000000000000
     0.0000000000000000    8.5647549999999999    0.0000000000000000
     0.0000000000000000    0.0000000000000000   20.0000000000000000
    12     3     1
Selective dynamics
Direct
  0.2500000000000000  0.2123747713711604  0.0921143141047554   T   T   T
 -0.0050013471217335  0.2934533767296391  0.0933075997434961   T   T   T
  0.2500000000000000  0.0447193964212376  0.0915471529241071   T   T   T
  0.0033352026599276  0.7930021690384693  0.0999659703974662   T   T   T
  0.0003474408224356  0.9593688156736659  0.0917450479030481   T   T   T
  0.7500000000000000  0.2070300562942526  0.0892320568359870   T   T   T
  0.5050013471217335  0.2934533767296391  0.0933075997434961   T   T   T
  0.7500000000000000  0.0406394015951772  0.0884215211719677   T   T   T
  0.7500000000000000  0.7045956830857253  0.1001992477747772   T   T   T
  0.4966647973400727  0.7930021690384693  0.0999659703974662   T   T   T
  0.7500000000000000  0.5320394739158238  0.0995820558666379   T   T   T
  0.4996525591775646  0.9593688156736659  0.0917450479030481   T   T   T
  0.5123888332330681  0.4525680923979986  0.0996643228050941   T   T   T
 -0.0123888332330679  0.4525680923979986  0.0996643228050941   T   T   T
  0.2500000000000000  0.7219090371335788  0.1103098504943347   T   T   T
  0.2500000000000000  0.5399072725034975  0.1817399191292312   T   T   T
 
  0.00000000E+00  0.00000000E+00  0.00000000E+00
  0.00000000E+00  0.00000000E+00  0.00000000E+00
  0.00000000E+00  0.00000000E+00  0.00000000E+00
  0.00000000E+00  0.00000000E+00  0.00000000E+00
  0.00000000E+00  0.00000000E+00  0.00000000E+00
  0.00000000E+00  0.00000000E+00  0.00000000E+00
  0.00000000E+00  0.00000000E+00  0.00000000E+00
  0.00000000E+00  0.00000000E+00  0.00000000E+00
  0.00000000E+00  0.00000000E+00  0.00000000E+00
  0.00000000E+00  0.00000000E+00  0.00000000E+00
  0.00000000E+00  0.00000000E+00  0.00000000E+00
  0.00000000E+00  0.00000000E+00  0.00000000E+00
  0.00000000E+00  0.00000000E+00  0.00000000E+00
  0.00000000E+00  0.00000000E+00  0.00000000E+00
  0.00000000E+00  0.00000000E+00  0.00000000E+00
  0.00000000E+00  0.00000000E+00  0.00000000E+00
