Title                                   
   1.00000000000000     
     4.9440799999999996    0.0000000000000000    0.0000000000000000
     0.0000000000000000   17.1295089999999988    0.0000000000000000
     0.0000000000000000    0.0000000000000000   20.0000000000000000
    27     4     1
Selective dynamics
Direct
 -0.0000583331848901  0.1043256971130140  0.2967059297175224   T   T   T
  0.2499027927717391  0.1464968719486602  0.2984858945889386   T   T   T
  0.2499202108316132  0.2302290232597094  0.3036753931527778   T   T   T
  0.0068466501770566  0.3542100706569445  0.3152880692033905   T   T   T
 -0.0012427458140473  0.2722261030661625  0.3053433885366208   T   T   T
 -0.0061829368820931  0.6000106479044127  0.2890211940812973   T   T   T
  0.2499070011378650  0.7254716574985939  0.2929963040949507   T   T   T
  0.0006416725857514  0.8521647668724487  0.2944879317117275   T   T   T
  0.2499144625220956  0.8943840879320776  0.2948090637341421   T   T   T
  0.2499087911502385  0.9784416472107729  0.2953652387645622   T   T   T
  0.0013943012259977  0.7680248385076581  0.2936872386811182   T   T   T
  0.4998878146641540  0.1043219685464415  0.2967102301071780   T   T   T
  0.7499101392626117  0.1466756437749593  0.2971988109001465   T   T   T
  0.7498982502762561  0.2298990356710647  0.3003965169591173   T   T   T
  0.4999974086899459  0.0204734428410005  0.2955385444513982   T   T   T
  0.4929563302095199  0.3542155980592951  0.3152941519736905   T   T   T
  0.7499584479896739  0.4807863122736170  0.2967454713036695   T   T   T
  0.5010721969154183  0.2722321022854843  0.3053516128903142   T   T   T
  0.5059951700477839  0.6000236481431630  0.2890447281721181   T   T   T
  0.7499221639272979  0.7267767591016819  0.2932113652526622   T   T   T
  0.4991970904602447  0.8521632858685527  0.2944916792411437   T   T   T
  0.7499226162322762  0.8941654872610687  0.2947294184187206   T   T   T
  0.7499216832751393  0.9780980902990397  0.2951230692677864   T   T   T
  0.4984608160249729  0.7680204829500668  0.2936941279771939   T   T   T
  0.7499192445820231  0.6435952091833639  0.2918132553019993   T   T   T
  0.2499011911096052  0.6396374778293077  0.2895791340396496   T   T   T
 -0.0001846072134949  0.0204768997584379  0.2955349166047415   T   T   T
  0.5123750930472443  0.5168659029043714  0.2886994520666740   T   T   T
  0.9875720126496310  0.5168175050898680  0.2884013899017712   T   T   T
  0.2498983906971103  0.3908322643593126  0.3289188890523099   T   T   T
  0.7499357094551122  0.3986476421191426  0.3141094326118283   T   T   T
  0.2493539711761533  0.5178408297102975  0.3781131572387910   T   T   T
 
  0.00000000E+00  0.00000000E+00  0.00000000E+00
  0.00000000E+00  0.00000000E+00  0.00000000E+00
  0.00000000E+00  0.00000000E+00  0.00000000E+00
  0.00000000E+00  0.00000000E+00  0.00000000E+00
  0.00000000E+00  0.00000000E+00  0.00000000E+00
  0.00000000E+00  0.00000000E+00  0.00000000E+00
  0.00000000E+00  0.00000000E+00  0.00000000E+00
  0.00000000E+00  0.00000000E+00  0.00000000E+00
  0.00000000E+00  0.00000000E+00  0.00000000E+00
  0.00000000E+00  0.00000000E+00  0.00000000E+00
  0.00000000E+00  0.00000000E+00  0.00000000E+00
  0.00000000E+00  0.00000000E+00  0.00000000E+00
  0.00000000E+00  0.00000000E+00  0.00000000E+00
  0.00000000E+00  0.00000000E+00  0.00000000E+00
  0.00000000E+00  0.00000000E+00  0.00000000E+00
  0.00000000E+00  0.00000000E+00  0.00000000E+00
  0.00000000E+00  0.00000000E+00  0.00000000E+00
  0.00000000E+00  0.00000000E+00  0.00000000E+00
  0.00000000E+00  0.00000000E+00  0.00000000E+00
  0.00000000E+00  0.00000000E+00  0.00000000E+00
  0.00000000E+00  0.00000000E+00  0.00000000E+00
  0.00000000E+00  0.00000000E+00  0.00000000E+00
  0.00000000E+00  0.00000000E+00  0.00000000E+00
  0.00000000E+00  0.00000000E+00  0.00000000E+00
  0.00000000E+00  0.00000000E+00  0.00000000E+00
  0.00000000E+00  0.00000000E+00  0.00000000E+00
  0.00000000E+00  0.00000000E+00  0.00000000E+00
  0.00000000E+00  0.00000000E+00  0.00000000E+00
  0.00000000E+00  0.00000000E+00  0.00000000E+00
  0.00000000E+00  0.00000000E+00  0.00000000E+00
  0.00000000E+00  0.00000000E+00  0.00000000E+00
  0.00000000E+00  0.00000000E+00  0.00000000E+00
