Title                                   
   1.00000000000000     
     4.9440799999999996    0.0000000000000000    0.0000000000000000
     0.0000000000000000   17.1295089999999988    0.0000000000000000
     0.0000000000000000    0.0000000000000000   20.0000000000000000
    27     3     1
Selective dynamics
Direct
  0.0013120488523378  0.1059087596763677  0.2965403975616412   T   T   T
  0.2503903825783098  0.1485836464180926  0.2968470653601522   T   T   T
  0.2508114247721450  0.2333583817640844  0.2991956942637802   T   T   T
  0.0007977488855652  0.2751736500885489  0.3036365476281446   T   T   T
 -0.0072809954415955  0.5998098238287273  0.3036379233817339   T   T   T
  0.2446754140846026  0.7266541384418914  0.2976732219386400   T   T   T
 -0.0021342083210675  0.8535573243073967  0.2968633209077394   T   T   T
  0.2482522513727553  0.8955241576440507  0.2964258946270939   T   T   T
  0.2494647994182427  0.9796453103979121  0.2960433074853361   T   T   T
 -0.0032296582650148  0.7694432525714661  0.2975884434792392   T   T   T
  0.5001989527416248  0.1062628080182308  0.2954531246981404   T   T   T
  0.7518983024064042  0.1479060078453347  0.2958359730665867   T   T   T
  0.7534740606596211  0.2317996584905603  0.2969700180096989   T   T   T
  0.4993433809393339  0.0220560495420951  0.2954634984646791   T   T   T
  0.7533509194068274  0.3944467774412190  0.3009951903418421   T   T   T
  0.7480126087054704  0.4782769862109618  0.2993826425205812   T   T   T
  0.5040489183755102  0.2731717750636914  0.2959531744974913   T   T   T
  0.4942652663821505  0.6015363407522064  0.2938209812343704   T   T   T
  0.7476716208246704  0.7270914315688648  0.2964592488150041   T   T   T
  0.4975666370864483  0.8529832069885961  0.2960682323315005   T   T   T
  0.7479248396775253  0.8955343155542828  0.2961099678674640   T   T   T
  0.7490373708358313  0.9796796927226483  0.2957254583703683   T   T   T
  0.4963045556088366  0.7688912058376454  0.2960997874931781   T   T   T
  0.7466930081206802  0.6431787679588881  0.2966360501654174   T   T   T
  0.2421332799488810  0.6424071980740838  0.2993407629432361   T   T   T
 -0.0001475306319670  0.0217372071424292  0.2961160035997848   T   T   T
  0.5032063018849502  0.5197723803028522  0.2883257141795050   T   T   T
  0.9887987185260263  0.5183306326415809  0.3163958546328592   T   T   T
  0.5124593196641474  0.3537361903260584  0.2939126245931293   T   T   T
 -0.0067291850637709  0.3560416111311191  0.3154919132791053   T   T   T
  0.2974364459645181  0.4388433112481112  0.3400519622625094   T   T   T
 
  0.00000000E+00  0.00000000E+00  0.00000000E+00
  0.00000000E+00  0.00000000E+00  0.00000000E+00
  0.00000000E+00  0.00000000E+00  0.00000000E+00
  0.00000000E+00  0.00000000E+00  0.00000000E+00
  0.00000000E+00  0.00000000E+00  0.00000000E+00
  0.00000000E+00  0.00000000E+00  0.00000000E+00
  0.00000000E+00  0.00000000E+00  0.00000000E+00
  0.00000000E+00  0.00000000E+00  0.00000000E+00
  0.00000000E+00  0.00000000E+00  0.00000000E+00
  0.00000000E+00  0.00000000E+00  0.00000000E+00
  0.00000000E+00  0.00000000E+00  0.00000000E+00
  0.00000000E+00  0.00000000E+00  0.00000000E+00
  0.00000000E+00  0.00000000E+00  0.00000000E+00
  0.00000000E+00  0.00000000E+00  0.00000000E+00
  0.00000000E+00  0.00000000E+00  0.00000000E+00
  0.00000000E+00  0.00000000E+00  0.00000000E+00
  0.00000000E+00  0.00000000E+00  0.00000000E+00
  0.00000000E+00  0.00000000E+00  0.00000000E+00
  0.00000000E+00  0.00000000E+00  0.00000000E+00
  0.00000000E+00  0.00000000E+00  0.00000000E+00
  0.00000000E+00  0.00000000E+00  0.00000000E+00
  0.00000000E+00  0.00000000E+00  0.00000000E+00
  0.00000000E+00  0.00000000E+00  0.00000000E+00
  0.00000000E+00  0.00000000E+00  0.00000000E+00
  0.00000000E+00  0.00000000E+00  0.00000000E+00
  0.00000000E+00  0.00000000E+00  0.00000000E+00
  0.00000000E+00  0.00000000E+00  0.00000000E+00
  0.00000000E+00  0.00000000E+00  0.00000000E+00
  0.00000000E+00  0.00000000E+00  0.00000000E+00
  0.00000000E+00  0.00000000E+00  0.00000000E+00
  0.00000000E+00  0.00000000E+00  0.00000000E+00
