Title                                   
   1.00000000000000     
     9.8694509999999998    0.0000000000000000    0.0000000000000000
     0.0000000000000000    8.5490480000000009    0.0000000000000000
     0.0000000000000000    0.0000000000000000   20.0000000000000000
    23     7     1
Selective dynamics
Direct
  0.0556975702876140  0.0894317299508280  0.0955133410864090   T   T   T
  0.9319513871065782  0.1722377993941762  0.0956641311105076   T   T   T
  0.0571715275709245  0.9210529207692515  0.0955131319344078   T   T   T
  0.9337688795296319  0.3384182946666203  0.0953504013067252   T   T   T
  0.0557785894367818  0.5905331161449714  0.0949619552704862   T   T   T
  0.0558754555530474  0.4236840699973445  0.0948932884059063   T   T   T
  0.9319621524774273  0.8385411102715966  0.0956129424907085   T   T   T
  0.3078178129319866  0.0889550709270342  0.0968854472694114   T   T   T
  0.1810300710974484  0.1714629541713397  0.0959069433047532   T   T   T
  0.1791959736533952  0.3385264571256156  0.0956068410899419   T   T   T
  0.3010040254227160  0.5897644537083385  0.0969900594243961   T   T   T
  0.1781925171594900  0.6738813753302408  0.0957255110328245   T   T   T
  0.3022785941554717  0.4215352838203649  0.0968858371090000   T   T   T
  0.1809908013857104  0.8405206893332483  0.0960424973973552   T   T   T
  0.4290232554974598  0.1757222042105261  0.0979034313455292   T   T   T
  0.5552203121954989  0.9191581083585674  0.0982409265979623   T   T   T
  0.4285749073261855  0.8361344490249415  0.0981160509305013   T   T   T
  0.8054061803523300  0.0887073084494847  0.0965539556540776   T   T   T
  0.6828857480043806  0.1778240487150004  0.0976362849913052   T   T   T
  0.8068409876693337  0.9214427032205076  0.0965342240517188   T   T   T
  0.8111019088926329  0.5907778513173154  0.0966332418104776   T   T   T
  0.8113628732743335  0.4220010237987796  0.0965454595154162   T   T   T
  0.6820125685289850  0.8357315582851030  0.0977863230637299   T   T   T
  0.9333846963676049  0.6731761265923900  0.0952462591085256   T   T   T
  0.5568501700886946  0.0962472115417164  0.0983818208782387   T   T   T
  0.4219358877951813  0.3376223587887380  0.0983931175670221   T   T   T
  0.4201623911148001  0.6763994345672614  0.0986889425813247   T   T   T
  0.6905727098251260  0.3384195306189529  0.0980909218637026   T   T   T
  0.6930558138295653  0.6739493858177934  0.0983593790098271   T   T   T
  0.3054725013416104  0.9217956905000068  0.0970349720637368   T   T   T
  0.5565577301280537  0.5072206805819431  0.0992673607341289   T   T   T
 
  0.00000000E+00  0.00000000E+00  0.00000000E+00
  0.00000000E+00  0.00000000E+00  0.00000000E+00
  0.00000000E+00  0.00000000E+00  0.00000000E+00
  0.00000000E+00  0.00000000E+00  0.00000000E+00
  0.00000000E+00  0.00000000E+00  0.00000000E+00
  0.00000000E+00  0.00000000E+00  0.00000000E+00
  0.00000000E+00  0.00000000E+00  0.00000000E+00
  0.00000000E+00  0.00000000E+00  0.00000000E+00
  0.00000000E+00  0.00000000E+00  0.00000000E+00
  0.00000000E+00  0.00000000E+00  0.00000000E+00
  0.00000000E+00  0.00000000E+00  0.00000000E+00
  0.00000000E+00  0.00000000E+00  0.00000000E+00
  0.00000000E+00  0.00000000E+00  0.00000000E+00
  0.00000000E+00  0.00000000E+00  0.00000000E+00
  0.00000000E+00  0.00000000E+00  0.00000000E+00
  0.00000000E+00  0.00000000E+00  0.00000000E+00
  0.00000000E+00  0.00000000E+00  0.00000000E+00
  0.00000000E+00  0.00000000E+00  0.00000000E+00
  0.00000000E+00  0.00000000E+00  0.00000000E+00
  0.00000000E+00  0.00000000E+00  0.00000000E+00
  0.00000000E+00  0.00000000E+00  0.00000000E+00
  0.00000000E+00  0.00000000E+00  0.00000000E+00
  0.00000000E+00  0.00000000E+00  0.00000000E+00
  0.00000000E+00  0.00000000E+00  0.00000000E+00
  0.00000000E+00  0.00000000E+00  0.00000000E+00
  0.00000000E+00  0.00000000E+00  0.00000000E+00
  0.00000000E+00  0.00000000E+00  0.00000000E+00
  0.00000000E+00  0.00000000E+00  0.00000000E+00
  0.00000000E+00  0.00000000E+00  0.00000000E+00
  0.00000000E+00  0.00000000E+00  0.00000000E+00
  0.00000000E+00  0.00000000E+00  0.00000000E+00
