Title                                   
   1.00000000000000     
     8.5490480000000009    0.0000000000000000    0.0000000000000000
     0.0000000000000000    8.5490480000000009    0.0000000000000000
     0.0000000000000000    0.0000000000000000   20.0000000000000000
    20     4     1
Selective dynamics
Direct
  0.9085372764994759  0.2081394225343643  0.0976062962590072   T   T   T
  0.9119412993681162  0.8002596124268273  0.0976527039772139   T   T   T
  0.1963828000067974  0.0832729697272412  0.0977856979041276   T   T   T
  0.0750463433246848  0.2023936742567317  0.0977431720097941   T   T   T
  0.1578782848629667  0.6485745628942970  0.0977529202625759   T   T   T
  0.0766283478711700  0.5016416154817500  0.0978085805505292   T   T   T
  0.1566854857642671  0.3521917983974044  0.0979261729998861   T   T   T
  0.0792493998705719  0.7983996764207443  0.0976835138488737   T   T   T
  0.4932858628597571  0.0866681322996443  0.0977629003512783   T   T   T
  0.3424443686263421  0.1656242666962956  0.0979435181980410   T   T   T
  0.4933477037866157  0.9164593351485208  0.0977420050660232   T   T   T
  0.3462601719297675  0.8338745087129719  0.0977508488313354   T   T   T
  0.7865941199062176  0.0868938585873704  0.0975821278618707   T   T   T
  0.6383404904981238  0.1685973152028251  0.0976499087930608   T   T   T
  0.7889293384005356  0.9193844916141531  0.0976269568448880   T   T   T
  0.8304717413609222  0.6508441798583815  0.0976953424978318   T   T   T
  0.8275738128725153  0.3580982608165470  0.0975929351056004   T   T   T
  0.6418708739829884  0.8350835676844390  0.0977482957140360   T   T   T
  0.3243531285138435  0.6701286192076135  0.0977276218907306   T   T   T
  0.6617771373494102  0.3382329893493912  0.0976271988101709   T   T   T
  0.9090816614257354  0.5037541465274477  0.0977736882829528   T   T   T
  0.3188687903896963  0.3290583301157090  0.0980768794341428   T   T   T
  0.6683045921395128  0.6707825611779991  0.0978390436848159   T   T   T
  0.1977636571281706  0.9156896942942161  0.0977513326408390   T   T   T
  0.4937953112617822  0.5007424105671273  0.0978553381803547   T   T   T
 
  0.00000000E+00  0.00000000E+00  0.00000000E+00
  0.00000000E+00  0.00000000E+00  0.00000000E+00
  0.00000000E+00  0.00000000E+00  0.00000000E+00
  0.00000000E+00  0.00000000E+00  0.00000000E+00
  0.00000000E+00  0.00000000E+00  0.00000000E+00
  0.00000000E+00  0.00000000E+00  0.00000000E+00
  0.00000000E+00  0.00000000E+00  0.00000000E+00
  0.00000000E+00  0.00000000E+00  0.00000000E+00
  0.00000000E+00  0.00000000E+00  0.00000000E+00
  0.00000000E+00  0.00000000E+00  0.00000000E+00
  0.00000000E+00  0.00000000E+00  0.00000000E+00
  0.00000000E+00  0.00000000E+00  0.00000000E+00
  0.00000000E+00  0.00000000E+00  0.00000000E+00
  0.00000000E+00  0.00000000E+00  0.00000000E+00
  0.00000000E+00  0.00000000E+00  0.00000000E+00
  0.00000000E+00  0.00000000E+00  0.00000000E+00
  0.00000000E+00  0.00000000E+00  0.00000000E+00
  0.00000000E+00  0.00000000E+00  0.00000000E+00
  0.00000000E+00  0.00000000E+00  0.00000000E+00
  0.00000000E+00  0.00000000E+00  0.00000000E+00
  0.00000000E+00  0.00000000E+00  0.00000000E+00
  0.00000000E+00  0.00000000E+00  0.00000000E+00
  0.00000000E+00  0.00000000E+00  0.00000000E+00
  0.00000000E+00  0.00000000E+00  0.00000000E+00
  0.00000000E+00  0.00000000E+00  0.00000000E+00
