Title                                   
   1.00000000000000     
     8.5490480000000009    0.0000000000000000    0.0000000000000000
     0.0000000000000000    8.5490480000000009    0.0000000000000000
     0.0000000000000000    0.0000000000000000   20.0000000000000000
    21     3     1
Selective dynamics
Direct
  0.9104255050241972  0.2039287507735535  0.0975034323688099   T   T   T
  0.9056140809749386  0.5026335726864637  0.0960852771948157   T   T   T
  0.9087591627255508  0.7987184002098353  0.0978375125884942   T   T   T
  0.1969029242592185  0.0838966845659871  0.0984929358217675   T   T   T
  0.0751419579644419  0.2056455983631538  0.0984796039409951   T   T   T
  0.1951885508971720  0.9191800746606797  0.0975554777714719   T   T   T
  0.1556178717885920  0.6522274128261286  0.0951924490988042   T   T   T
  0.0761729608477146  0.5029885855746103  0.0961179404135167   T   T   T
  0.1559497725290997  0.3553739663792825  0.0974469665480068   T   T   T
  0.0754983964606152  0.7985569304315993  0.0972148559651640   T   T   T
  0.4941878419101660  0.0849787803968063  0.0960827141966257   T   T   T
  0.3465759783624937  0.1647451237336131  0.0974202498955787   T   T   T
  0.4938369334763161  0.9143934454881857  0.0960966017412524   T   T   T
  0.3441485897342754  0.8364165369178607  0.0954364696932067   T   T   T
  0.7897741707787880  0.0842607771265058  0.0971479899191896   T   T   T
  0.6434344637503669  0.1644216723932302  0.0951087095223650   T   T   T
  0.7899240453579800  0.9175259343936054  0.0978179376367699   T   T   T
  0.8275273082393612  0.6511187103094660  0.0969549155954269   T   T   T
  0.8276740642905107  0.3529039927631226  0.0953691128041187   T   T   T
  0.6423206952014394  0.8362837464067997  0.0969491695532491   T   T   T
  0.3218988296768749  0.3306851858799010  0.0965859344923475   T   T   T
  0.3188602929513842  0.6765081368234894  0.0924817492668696   T   T   T
  0.6677733393325592  0.3276264330628648  0.0923965629550717   T   T   T
  0.6664199875638621  0.6751712752834335  0.0965335173760330   T   T   T
  0.4957842759020751  0.5046002725498339  0.0693969136400275   T   T   T
 
  0.00000000E+00  0.00000000E+00  0.00000000E+00
  0.00000000E+00  0.00000000E+00  0.00000000E+00
  0.00000000E+00  0.00000000E+00  0.00000000E+00
  0.00000000E+00  0.00000000E+00  0.00000000E+00
  0.00000000E+00  0.00000000E+00  0.00000000E+00
  0.00000000E+00  0.00000000E+00  0.00000000E+00
  0.00000000E+00  0.00000000E+00  0.00000000E+00
  0.00000000E+00  0.00000000E+00  0.00000000E+00
  0.00000000E+00  0.00000000E+00  0.00000000E+00
  0.00000000E+00  0.00000000E+00  0.00000000E+00
  0.00000000E+00  0.00000000E+00  0.00000000E+00
  0.00000000E+00  0.00000000E+00  0.00000000E+00
  0.00000000E+00  0.00000000E+00  0.00000000E+00
  0.00000000E+00  0.00000000E+00  0.00000000E+00
  0.00000000E+00  0.00000000E+00  0.00000000E+00
  0.00000000E+00  0.00000000E+00  0.00000000E+00
  0.00000000E+00  0.00000000E+00  0.00000000E+00
  0.00000000E+00  0.00000000E+00  0.00000000E+00
  0.00000000E+00  0.00000000E+00  0.00000000E+00
  0.00000000E+00  0.00000000E+00  0.00000000E+00
  0.00000000E+00  0.00000000E+00  0.00000000E+00
  0.00000000E+00  0.00000000E+00  0.00000000E+00
  0.00000000E+00  0.00000000E+00  0.00000000E+00
  0.00000000E+00  0.00000000E+00  0.00000000E+00
  0.00000000E+00  0.00000000E+00  0.00000000E+00
