Title                                   
   1.00000000000000     
     8.5490480000000009    0.0000000000000000    0.0000000000000000
     0.0000000000000000    8.5490480000000009    0.0000000000000000
     0.0000000000000000    0.0000000000000000   20.0000000000000000
    23     1     1
Selective dynamics
Direct
  0.9113104179879510  0.2061205227985853  0.0954243439717895   T   T   T
  0.9058568185515044  0.5041138416188210  0.0952805289491945   T   T   T
  0.9109299712191173  0.7995253897571920  0.0954582478640449   T   T   T
  0.1977720897874645  0.0828024459464761  0.0954628015301792   T   T   T
  0.0740268242093598  0.2065133722629344  0.0954384036470281   T   T   T
  0.1973837403612117  0.9200889903557520  0.0954714235009685   T   T   T
  0.1535860597803719  0.6492511495033396  0.0953550221417526   T   T   T
  0.0736865690575908  0.5036831023733819  0.0953158340890032   T   T   T
  0.1548002665439295  0.3575369730105291  0.0953471642271110   T   T   T
  0.0749851813147995  0.7984356229319107  0.0954509267544874   T   T   T
  0.4948817764019718  0.0824690476181235  0.0953621887879311   T   T   T
  0.3487513991833956  0.1635931016424856  0.0953725807937404   T   T   T
  0.4953230698376372  0.9146392246778247  0.0953571556458800   T   T   T
  0.3485150393461858  0.8359697356589310  0.0953845282847993   T   T   T
  0.7896687256893845  0.0837477324968027  0.0954362262517153   T   T   T
  0.6404518435476351  0.1623712882067145  0.0953298552723394   T   T   T
  0.7907808036667953  0.9196913128851010  0.0954603024161813   T   T   T
  0.8287828992043474  0.6517121237867726  0.0952823411020677   T   T   T
  0.8271761294682800  0.3572882516673745  0.0953043868663940   T   T   T
  0.6429429596958975  0.8375626689016306  0.0952940989920999   T   T   T
  0.3170719604563909  0.3258462994140938  0.0952511246188410   T   T   T
  0.3174236691843193  0.6751579334218314  0.0953443721497567   T   T   T
  0.6663672558031100  0.3261837734940744  0.0952852423452751   T   T   T
  0.6693919583768405  0.6781525038878611  0.0950667819890549   T   T   T
  0.4935445713245025  0.5023335916814700  0.0951691178083425   T   T   T
 
  0.00000000E+00  0.00000000E+00  0.00000000E+00
  0.00000000E+00  0.00000000E+00  0.00000000E+00
  0.00000000E+00  0.00000000E+00  0.00000000E+00
  0.00000000E+00  0.00000000E+00  0.00000000E+00
  0.00000000E+00  0.00000000E+00  0.00000000E+00
  0.00000000E+00  0.00000000E+00  0.00000000E+00
  0.00000000E+00  0.00000000E+00  0.00000000E+00
  0.00000000E+00  0.00000000E+00  0.00000000E+00
  0.00000000E+00  0.00000000E+00  0.00000000E+00
  0.00000000E+00  0.00000000E+00  0.00000000E+00
  0.00000000E+00  0.00000000E+00  0.00000000E+00
  0.00000000E+00  0.00000000E+00  0.00000000E+00
  0.00000000E+00  0.00000000E+00  0.00000000E+00
  0.00000000E+00  0.00000000E+00  0.00000000E+00
  0.00000000E+00  0.00000000E+00  0.00000000E+00
  0.00000000E+00  0.00000000E+00  0.00000000E+00
  0.00000000E+00  0.00000000E+00  0.00000000E+00
  0.00000000E+00  0.00000000E+00  0.00000000E+00
  0.00000000E+00  0.00000000E+00  0.00000000E+00
  0.00000000E+00  0.00000000E+00  0.00000000E+00
  0.00000000E+00  0.00000000E+00  0.00000000E+00
  0.00000000E+00  0.00000000E+00  0.00000000E+00
  0.00000000E+00  0.00000000E+00  0.00000000E+00
  0.00000000E+00  0.00000000E+00  0.00000000E+00
  0.00000000E+00  0.00000000E+00  0.00000000E+00
