Title                                   
   1.00000000000000     
     4.9440799999999996    0.0000000000000000    0.0000000000000000
     0.0000000000000000   17.1295089999999988    0.0000000000000000
     0.0000000000000000    0.0000000000000000   20.0000000000000000
    28     2     1
Selective dynamics
Direct
  0.0000198533041233  0.1054653336970347  0.2927841127512294   T   T   T
  0.2490254556040658  0.1480104567666454  0.2939990617772203   T   T   T
  0.2484342790255778  0.2321914110384833  0.2977682721397599   T   T   T
 -0.0044578814375955  0.2729452022203064  0.3005237943566852   T   T   T
  0.0014799040251170  0.6024331471939396  0.3049403706403626   T   T   T
  0.2510016990277293  0.7280753372583078  0.2967088115406158   T   T   T
  0.0007597888212698  0.8539847637530726  0.2926392935879190   T   T   T
  0.2505654812591055  0.8958686707362763  0.2921152465044740   T   T   T
  0.2500199672600157  0.9796063116114695  0.2916620921131496   T   T   T
  0.0012229639057203  0.7702104213744206  0.2947073964075423   T   T   T
  0.4984738260562110  0.1054894592329185  0.2923372647294208   T   T   T
  0.7491235809774909  0.1468213359846861  0.2929909039403163   T   T   T
  0.7484864016559032  0.2301973921474533  0.2956689220473862   T   T   T
  0.4993584787362910  0.0216831296222302  0.2915244658197084   T   T   T
  0.7480898602414929  0.3911713730933720  0.3054757802056985   T   T   T
  0.7512644307425229  0.4771438525601254  0.3076897544693948   T   T   T
  0.5009502640122817  0.2730782886861791  0.2978127976698001   T   T   T
  0.5019482980316102  0.6028750138461915  0.3038508918760810   T   T   T
  0.7515267733967536  0.7283669839783086  0.2957675186832259   T   T   T
  0.5006592004760083  0.8538994461864682  0.2925264731897644   T   T   T
  0.7505440728295466  0.8959372600547686  0.2918884684058410   T   T   T
  0.7499959856428828  0.9798235419727847  0.2914464334583186   T   T   T
  0.5010627934028796  0.7701042536585954  0.2945433270834046   T   T   T
  0.7522292236219063  0.6446275942429982  0.3000103611562658   T   T   T
  0.2510430483592201  0.6445598291670704  0.3023120109406928   T   T   T
  0.0003066883586129  0.0216578564028767  0.2917592136332540   T   T   T
  0.5071881344992381  0.5202475906027512  0.3111630339881367   T   T   T
  0.9974719104228329  0.5191934894915853  0.3141834287735176   T   T   T
  0.5088213283180539  0.3532017814819358  0.2997701734975344   T   T   T
 -0.0145511331621178  0.3522845048924900  0.3101040139274939   T   T   T
  0.2579423225852497  0.4401869670442506  0.3443863106857371   T   T   T
 
  0.00000000E+00  0.00000000E+00  0.00000000E+00
  0.00000000E+00  0.00000000E+00  0.00000000E+00
  0.00000000E+00  0.00000000E+00  0.00000000E+00
  0.00000000E+00  0.00000000E+00  0.00000000E+00
  0.00000000E+00  0.00000000E+00  0.00000000E+00
  0.00000000E+00  0.00000000E+00  0.00000000E+00
  0.00000000E+00  0.00000000E+00  0.00000000E+00
  0.00000000E+00  0.00000000E+00  0.00000000E+00
  0.00000000E+00  0.00000000E+00  0.00000000E+00
  0.00000000E+00  0.00000000E+00  0.00000000E+00
  0.00000000E+00  0.00000000E+00  0.00000000E+00
  0.00000000E+00  0.00000000E+00  0.00000000E+00
  0.00000000E+00  0.00000000E+00  0.00000000E+00
  0.00000000E+00  0.00000000E+00  0.00000000E+00
  0.00000000E+00  0.00000000E+00  0.00000000E+00
  0.00000000E+00  0.00000000E+00  0.00000000E+00
  0.00000000E+00  0.00000000E+00  0.00000000E+00
  0.00000000E+00  0.00000000E+00  0.00000000E+00
  0.00000000E+00  0.00000000E+00  0.00000000E+00
  0.00000000E+00  0.00000000E+00  0.00000000E+00
  0.00000000E+00  0.00000000E+00  0.00000000E+00
  0.00000000E+00  0.00000000E+00  0.00000000E+00
  0.00000000E+00  0.00000000E+00  0.00000000E+00
  0.00000000E+00  0.00000000E+00  0.00000000E+00
  0.00000000E+00  0.00000000E+00  0.00000000E+00
  0.00000000E+00  0.00000000E+00  0.00000000E+00
  0.00000000E+00  0.00000000E+00  0.00000000E+00
  0.00000000E+00  0.00000000E+00  0.00000000E+00
  0.00000000E+00  0.00000000E+00  0.00000000E+00
  0.00000000E+00  0.00000000E+00  0.00000000E+00
  0.00000000E+00  0.00000000E+00  0.00000000E+00
