Title                                   
   1.00000000000000     
     9.8694509999999998    0.0000000000000000    0.0000000000000000
     0.0000000000000000    8.5490480000000009    0.0000000000000000
     0.0000000000000000    0.0000000000000000   20.0000000000000000
    30     1
Selective dynamics
Direct
  0.0562341964735037  0.0887882244727790  0.0851876936026141   T   T   T
  0.9311699265259697  0.1721121805866133  0.0872040437012965   T   T   T
  0.0562386623092180  0.9235593086117750  0.0851469393140687   T   T   T
  0.9323256912635866  0.3386978629188735  0.0875173681023204   T   T   T
  0.0562243245950062  0.5892876251004170  0.0852526047281894   T   T   T
  0.9323359956112391  0.6736780918844029  0.0875413798965854   T   T   T
  0.0562225315111035  0.4230816073907587  0.0852719016316455   T   T   T
  0.9311571787735915  0.8402614805824152  0.0871863175718646   T   T   T
  0.3061962276630669  0.0898112628562545  0.0919627844176582   T   T   T
  0.1812924247718227  0.1720891855171962  0.0873665378371462   T   T   T
  0.3062130006286988  0.9224567100124126  0.0918827504654433   T   T   T
  0.1800933756776197  0.3386674824986869  0.0876452926812341   T   T   T
  0.3031438746772072  0.5910015809401965  0.0944388842524183   T   T   T
  0.1801310226951261  0.6736498545294566  0.0875346036308967   T   T   T
  0.3031391589317651  0.4212328857360580  0.0944984188057131   T   T   T
  0.1812979530693893  0.8402337039387492  0.0872480884785790   T   T   T
  0.5562440429065877  0.0887024368336188  0.1015223681041890   T   T   T
  0.4302049599804800  0.1759405078291728  0.0993413291697700   T   T   T
  0.5562414382716810  0.9235378924355807  0.1014629876029790   T   T   T
  0.4267744517347216  0.3409398130496795  0.1029850697492285   T   T   T
  0.4267770175400363  0.6713392590810109  0.1028818751975647   T   T   T
  0.4302169323288965  0.8363033935244748  0.0992176764415551   T   T   T
  0.8062547841361456  0.0898399822329563  0.0917304698950653   T   T   T
  0.6822456275464119  0.1759666881094137  0.0991547203215004   T   T   T
  0.8062487015845528  0.9225020173489541  0.0917190098604324   T   T   T
  0.6856655073040827  0.3409316657207445  0.1027916493508320   T   T   T
  0.8092914628356488  0.5910461767538245  0.0943579969819122   T   T   T
  0.6856763263637455  0.6714071284051378  0.1027671509885596   T   T   T
  0.8092793185373227  0.4212952038403844  0.0943375210382524   T   T   T
  0.6822581414226327  0.8363480525130268  0.0991205838183346   T   T   T
  0.5563407423291479  0.5061657347449883  0.1446889823621925   T   T   T
 
  0.00000000E+00  0.00000000E+00  0.00000000E+00
  0.00000000E+00  0.00000000E+00  0.00000000E+00
  0.00000000E+00  0.00000000E+00  0.00000000E+00
  0.00000000E+00  0.00000000E+00  0.00000000E+00
  0.00000000E+00  0.00000000E+00  0.00000000E+00
  0.00000000E+00  0.00000000E+00  0.00000000E+00
  0.00000000E+00  0.00000000E+00  0.00000000E+00
  0.00000000E+00  0.00000000E+00  0.00000000E+00
  0.00000000E+00  0.00000000E+00  0.00000000E+00
  0.00000000E+00  0.00000000E+00  0.00000000E+00
  0.00000000E+00  0.00000000E+00  0.00000000E+00
  0.00000000E+00  0.00000000E+00  0.00000000E+00
  0.00000000E+00  0.00000000E+00  0.00000000E+00
  0.00000000E+00  0.00000000E+00  0.00000000E+00
  0.00000000E+00  0.00000000E+00  0.00000000E+00
  0.00000000E+00  0.00000000E+00  0.00000000E+00
  0.00000000E+00  0.00000000E+00  0.00000000E+00
  0.00000000E+00  0.00000000E+00  0.00000000E+00
  0.00000000E+00  0.00000000E+00  0.00000000E+00
  0.00000000E+00  0.00000000E+00  0.00000000E+00
  0.00000000E+00  0.00000000E+00  0.00000000E+00
  0.00000000E+00  0.00000000E+00  0.00000000E+00
  0.00000000E+00  0.00000000E+00  0.00000000E+00
  0.00000000E+00  0.00000000E+00  0.00000000E+00
  0.00000000E+00  0.00000000E+00  0.00000000E+00
  0.00000000E+00  0.00000000E+00  0.00000000E+00
  0.00000000E+00  0.00000000E+00  0.00000000E+00
  0.00000000E+00  0.00000000E+00  0.00000000E+00
  0.00000000E+00  0.00000000E+00  0.00000000E+00
  0.00000000E+00  0.00000000E+00  0.00000000E+00
  0.00000000E+00  0.00000000E+00  0.00000000E+00
