Title                                   
   1.00000000000000     
     4.9440799999999996    0.0000000000000000    0.0000000000000000
     0.0000000000000000    8.5647549999999999    0.0000000000000000
     0.0000000000000000    0.0000000000000000   20.0000000000000000
    13     1     1
Selective dynamics
Direct
  0.0030096902356790  0.2943599022678581  0.0956515690691536   T   T   T
  0.2500000000000000  0.0430521139480386  0.0961984262366887   T   T   T
  0.0021171953087367  0.9565114805278468  0.0962230201527743   T   T   T
  0.7500000000000000  0.2086954245989470  0.0932783611788645   T   T   T
  0.4969903097643211  0.2943599022678581  0.0956515690691536   T   T   T
  0.7500000000000000  0.0403096899624113  0.0936555175948399   T   T   T
  0.7500000000000000  0.7091540050064877  0.0988333304426339   T   T   T
  0.7500000000000000  0.5380813070920359  0.0991962626202712   T   T   T
  0.4978828046912633  0.9565114805278468  0.0962230201527743   T   T   T
  0.4978065383484620  0.4601782244873054  0.1010912732798421   T   T   T
  0.0021934616515380  0.4601782244873054  0.1010912732798421   T   T   T
 -0.0001071930503928  0.7883166159740571  0.1015998779700637   T   T   T
  0.5001071930503928  0.7883166159740571  0.1015998779700637   T   T   T
  0.2500000000000000  0.2078100538842795  0.0956647201910626   T   T   T
  0.2500000000000000  0.6258459589936670  0.1420219007919753   T   T   T
 
  0.00000000E+00  0.00000000E+00  0.00000000E+00
  0.00000000E+00  0.00000000E+00  0.00000000E+00
  0.00000000E+00  0.00000000E+00  0.00000000E+00
  0.00000000E+00  0.00000000E+00  0.00000000E+00
  0.00000000E+00  0.00000000E+00  0.00000000E+00
  0.00000000E+00  0.00000000E+00  0.00000000E+00
  0.00000000E+00  0.00000000E+00  0.00000000E+00
  0.00000000E+00  0.00000000E+00  0.00000000E+00
  0.00000000E+00  0.00000000E+00  0.00000000E+00
  0.00000000E+00  0.00000000E+00  0.00000000E+00
  0.00000000E+00  0.00000000E+00  0.00000000E+00
  0.00000000E+00  0.00000000E+00  0.00000000E+00
  0.00000000E+00  0.00000000E+00  0.00000000E+00
  0.00000000E+00  0.00000000E+00  0.00000000E+00
  0.00000000E+00  0.00000000E+00  0.00000000E+00
