Title                                   
   1.00000000000000     
     4.9440799999999996    0.0000000000000000    0.0000000000000000
     0.0000000000000000   17.1295089999999988    0.0000000000000000
     0.0000000000000000    0.0000000000000000   20.0000000000000000
    26     4     1
Selective dynamics
Direct
  0.0037261727037493  0.1061695931759395  0.2935646114412555   T   T   T
  0.2541060788229239  0.1487355841759616  0.2955406082086271   T   T   T
  0.2561888882610476  0.2336837397030189  0.2992471594012582   T   T   T
  0.0028097908364195  0.2742705131669807  0.2964852543981361   T   T   T
 -0.0039830255797370  0.6015502504862520  0.2970911137444182   T   T   T
  0.2481725943387190  0.7262351212166031  0.2955796030888740   T   T   T
  0.0011598829786745  0.8528899943437056  0.2928943003118076   T   T   T
  0.2504651749746779  0.8951456546181552  0.2931516669927504   T   T   T
  0.2517470779638872  0.9795195588112546  0.2932159595795442   T   T   T
 -0.0000124010321250  0.7682551928145966  0.2936877284229617   T   T   T
  0.5025768397914617  0.1059286074844248  0.2946136259559449   T   T   T
  0.7528489077969119  0.1479137385958492  0.2942254244060609   T   T   T
  0.7535495487523334  0.2317393307462452  0.2962953665064947   T   T   T
  0.5018725502294634  0.0215632406093876  0.2935257308324233   T   T   T
  0.7584080424546368  0.3953555869929627  0.3036434118363951   T   T   T
  0.7543440479038961  0.4797691822243547  0.3056498896101149   T   T   T
  0.5081454158791953  0.2752982922431854  0.3036796394812676   T   T   T
  0.4972622170297676  0.5998670952486974  0.3040814771214781   T   T   T
  0.7486341272924596  0.7270422060754276  0.2940911193378357   T   T   T
  0.4990465279358891  0.8528256369146834  0.2933795592053852   T   T   T
  0.7505613431317579  0.8948618440413313  0.2928180738112213   T   T   T
  0.7517479319065106  0.9793000768407886  0.2928795353744832   T   T   T
  0.4977567469991366  0.7682580182978928  0.2944546676957293   T   T   T
  0.7471162901769794  0.6439317460041829  0.2958321491676563   T   T   T
  0.0023765907983369  0.0218036034940553  0.2929535928593718   T   T   T
  0.5045231370656689  0.5197971329416911  0.3184712303783237   T   T   T
  0.9974021813315690  0.5221977490664128  0.2983013890196645   T   T   T
  0.5185631206918723  0.3551541443740968  0.3178777252374922   T   T   T
 -0.0034989433074338  0.3543662188288226  0.2937006885810344   T   T   T
  0.2466084842358608  0.6421717817802499  0.2992490123405242   T   T   T
  0.2057816576354913  0.4357415646827858  0.3548786856514181   T   T   T
 
  0.00000000E+00  0.00000000E+00  0.00000000E+00
  0.00000000E+00  0.00000000E+00  0.00000000E+00
  0.00000000E+00  0.00000000E+00  0.00000000E+00
  0.00000000E+00  0.00000000E+00  0.00000000E+00
  0.00000000E+00  0.00000000E+00  0.00000000E+00
  0.00000000E+00  0.00000000E+00  0.00000000E+00
  0.00000000E+00  0.00000000E+00  0.00000000E+00
  0.00000000E+00  0.00000000E+00  0.00000000E+00
  0.00000000E+00  0.00000000E+00  0.00000000E+00
  0.00000000E+00  0.00000000E+00  0.00000000E+00
  0.00000000E+00  0.00000000E+00  0.00000000E+00
  0.00000000E+00  0.00000000E+00  0.00000000E+00
  0.00000000E+00  0.00000000E+00  0.00000000E+00
  0.00000000E+00  0.00000000E+00  0.00000000E+00
  0.00000000E+00  0.00000000E+00  0.00000000E+00
  0.00000000E+00  0.00000000E+00  0.00000000E+00
  0.00000000E+00  0.00000000E+00  0.00000000E+00
  0.00000000E+00  0.00000000E+00  0.00000000E+00
  0.00000000E+00  0.00000000E+00  0.00000000E+00
  0.00000000E+00  0.00000000E+00  0.00000000E+00
  0.00000000E+00  0.00000000E+00  0.00000000E+00
  0.00000000E+00  0.00000000E+00  0.00000000E+00
  0.00000000E+00  0.00000000E+00  0.00000000E+00
  0.00000000E+00  0.00000000E+00  0.00000000E+00
  0.00000000E+00  0.00000000E+00  0.00000000E+00
  0.00000000E+00  0.00000000E+00  0.00000000E+00
  0.00000000E+00  0.00000000E+00  0.00000000E+00
  0.00000000E+00  0.00000000E+00  0.00000000E+00
  0.00000000E+00  0.00000000E+00  0.00000000E+00
  0.00000000E+00  0.00000000E+00  0.00000000E+00
  0.00000000E+00  0.00000000E+00  0.00000000E+00
