Title                                   
   1.00000000000000     
     9.8694509999999998    0.0000000000000000    0.0000000000000000
     0.0000000000000000    8.5490480000000009    0.0000000000000000
     0.0000000000000000    0.0000000000000000   20.0000000000000000
    29     2     1
Selective dynamics
Direct
  0.0561722522997889  0.0909605883715722  0.0834644551420558   T   T   T
  0.9311886684766104  0.1730423922778362  0.0849932160671135   T   T   T
  0.0568144988619742  0.9240275188032085  0.0844372621014505   T   T   T
  0.9313311431366319  0.3400334413071112  0.0879601142146043   T   T   T
  0.0572679964794978  0.5897080479413765  0.0853091499557637   T   T   T
  0.9327493390375038  0.6723089785986373  0.0894540851422807   T   T   T
  0.0574007652730668  0.4229337597310263  0.0855560312403341   T   T   T
  0.9321872816390807  0.8392746397775771  0.0868935963735953   T   T   T
  0.3056528862012854  0.0883178792123685  0.0879213414214032   T   T   T
  0.1817679951085522  0.1728761608647733  0.0851479822977258   T   T   T
  0.1833745237068235  0.3408112686685216  0.0868488433739125   T   T   T
  0.3035899351740782  0.5926028378665448  0.0985615238468938   T   T   T
  0.1815133131475441  0.6744561642704177  0.0879683405464091   T   T   T
  0.3081445734426512  0.4250347053944768  0.0960577211225438   T   T   T
  0.1809363816159958  0.8413797392100080  0.0874887603738901   T   T   T
  0.5558618779627331  0.0859805731174537  0.0939591880178562   T   T   T
  0.4306753997827032  0.1699032055483315  0.0929833251594412   T   T   T
  0.5540224084259178  0.9197666240747213  0.0984223922858620   T   T   T
  0.4310418073311408  0.3351011730075817  0.1021018203825921   T   T   T
  0.5564276234558440  0.4059234031743247  0.1209945387923901   T   T   T
  0.4251257162861238  0.8410075070026276  0.1010312502346151   T   T   T
  0.8068080232949408  0.0884284287918262  0.0870573969008405   T   T   T
  0.6818126906579964  0.1696436558691605  0.0935026293195192   T   T   T
  0.8064450284537191  0.9222453121558504  0.0888737727338675   T   T   T
  0.6828459465902098  0.3339336507363106  0.1042964867291351   T   T   T
  0.8107809944111553  0.5895146884476147  0.1022522687480390   T   T   T
  0.6936838320630707  0.6793792457755193  0.1192861128590063   T   T   T
  0.8072355768852590  0.4216765662456055  0.0992415958363352   T   T   T
  0.6828291428735772  0.8394618377096085  0.1004795286919305   T   T   T
  0.4146792819198797  0.6845129767198743  0.1177216219528716   T   T   T
  0.3048394538439210  0.9241120178394894  0.0904306018602146   T   T   T
  0.5544326421607301  0.5918870114886321  0.1729780462755525   T   T   T
 
  0.00000000E+00  0.00000000E+00  0.00000000E+00
  0.00000000E+00  0.00000000E+00  0.00000000E+00
  0.00000000E+00  0.00000000E+00  0.00000000E+00
  0.00000000E+00  0.00000000E+00  0.00000000E+00
  0.00000000E+00  0.00000000E+00  0.00000000E+00
  0.00000000E+00  0.00000000E+00  0.00000000E+00
  0.00000000E+00  0.00000000E+00  0.00000000E+00
  0.00000000E+00  0.00000000E+00  0.00000000E+00
  0.00000000E+00  0.00000000E+00  0.00000000E+00
  0.00000000E+00  0.00000000E+00  0.00000000E+00
  0.00000000E+00  0.00000000E+00  0.00000000E+00
  0.00000000E+00  0.00000000E+00  0.00000000E+00
  0.00000000E+00  0.00000000E+00  0.00000000E+00
  0.00000000E+00  0.00000000E+00  0.00000000E+00
  0.00000000E+00  0.00000000E+00  0.00000000E+00
  0.00000000E+00  0.00000000E+00  0.00000000E+00
  0.00000000E+00  0.00000000E+00  0.00000000E+00
  0.00000000E+00  0.00000000E+00  0.00000000E+00
  0.00000000E+00  0.00000000E+00  0.00000000E+00
  0.00000000E+00  0.00000000E+00  0.00000000E+00
  0.00000000E+00  0.00000000E+00  0.00000000E+00
  0.00000000E+00  0.00000000E+00  0.00000000E+00
  0.00000000E+00  0.00000000E+00  0.00000000E+00
  0.00000000E+00  0.00000000E+00  0.00000000E+00
  0.00000000E+00  0.00000000E+00  0.00000000E+00
  0.00000000E+00  0.00000000E+00  0.00000000E+00
  0.00000000E+00  0.00000000E+00  0.00000000E+00
  0.00000000E+00  0.00000000E+00  0.00000000E+00
  0.00000000E+00  0.00000000E+00  0.00000000E+00
  0.00000000E+00  0.00000000E+00  0.00000000E+00
  0.00000000E+00  0.00000000E+00  0.00000000E+00
  0.00000000E+00  0.00000000E+00  0.00000000E+00
