Title                                   
   1.00000000000000     
     4.9440799999999996    0.0000000000000000    0.0000000000000000
     0.0000000000000000   17.1295089999999988    0.0000000000000000
     0.0000000000000000    0.0000000000000000   20.0000000000000000
    30     1
Selective dynamics
Direct
  0.0001354308684453  0.1036618639147863  0.2964685596507134   T   T   T
  0.2503423462486855  0.1455240259830365  0.2972241517107465   T   T   T
  0.2503241509265235  0.2282652664935812  0.2997040940166483   T   T   T
 -0.0003465060503781  0.2701230257399838  0.3004289317419044   T   T   T
 -0.0002817394242121  0.6047854296882648  0.3009276247894766   T   T   T
  0.2503750151292686  0.7294294405613470  0.2980602314282533   T   T   T
  0.0002221467319022  0.8543797862573336  0.2967520906642032   T   T   T
  0.2503283749124622  0.8959684322853807  0.2965754563998745   T   T   T
  0.2503142420069344  0.9789936532909159  0.2962468318077641   T   T   T
  0.0001514720680465  0.7712977178922062  0.2972725060070848   T   T   T
  0.5004695385637528  0.1036562173531492  0.2964782609105732   T   T   T
  0.7503407585870794  0.1449124157519565  0.2967159848346206   T   T   T
  0.7503490581618252  0.2279845022765052  0.2986379793822996   T   T   T
  0.5004377310064256  0.0205731954762241  0.2961874414080042   T   T   T
  0.7502836536566503  0.3942002125347970  0.2975734634363989   T   T   T
  0.7502747260929780  0.4807515342277346  0.2977176202040991   T   T   T
  0.5009511980656720  0.2701090164335099  0.3004563638270650   T   T   T
  0.5009043662847774  0.6047850307495285  0.3009493037312017   T   T   T
  0.7503701130454057  0.7300201246435940  0.2975044227056247   T   T   T
  0.5004690701965119  0.8543764574350717  0.2967540473987070   T   T   T
  0.7503326557223750  0.8958791104389116  0.2964541961896373   T   T   T
  0.7503565131783096  0.9790801558330456  0.2961283200701391   T   T   T
  0.5005233735999092  0.7713041265835515  0.2972734567361091   T   T   T
  0.7503325879979925  0.6469238699430488  0.2992651031338791   T   T   T
  0.2502925017294597  0.6466764945776258  0.3003425833823913   T   T   T
  0.0002386354429592  0.0205650898905993  0.2961895021235564   T   T   T
  0.5101968900463626  0.5228922832064090  0.3034898866922538   T   T   T
  0.9904042559547473  0.5228900346505259  0.3034291903579354   T   T   T
  0.5103006529298187  0.3519921638142421  0.3032230320074353   T   T   T
 -0.0096831976161626  0.3519914796031015  0.3031759073944546   T   T   T
  0.2502969839354751  0.4373498424700282  0.3274534558568978   T   T   T
 
  0.00000000E+00  0.00000000E+00  0.00000000E+00
  0.00000000E+00  0.00000000E+00  0.00000000E+00
  0.00000000E+00  0.00000000E+00  0.00000000E+00
  0.00000000E+00  0.00000000E+00  0.00000000E+00
  0.00000000E+00  0.00000000E+00  0.00000000E+00
  0.00000000E+00  0.00000000E+00  0.00000000E+00
  0.00000000E+00  0.00000000E+00  0.00000000E+00
  0.00000000E+00  0.00000000E+00  0.00000000E+00
  0.00000000E+00  0.00000000E+00  0.00000000E+00
  0.00000000E+00  0.00000000E+00  0.00000000E+00
  0.00000000E+00  0.00000000E+00  0.00000000E+00
  0.00000000E+00  0.00000000E+00  0.00000000E+00
  0.00000000E+00  0.00000000E+00  0.00000000E+00
  0.00000000E+00  0.00000000E+00  0.00000000E+00
  0.00000000E+00  0.00000000E+00  0.00000000E+00
  0.00000000E+00  0.00000000E+00  0.00000000E+00
  0.00000000E+00  0.00000000E+00  0.00000000E+00
  0.00000000E+00  0.00000000E+00  0.00000000E+00
  0.00000000E+00  0.00000000E+00  0.00000000E+00
  0.00000000E+00  0.00000000E+00  0.00000000E+00
  0.00000000E+00  0.00000000E+00  0.00000000E+00
  0.00000000E+00  0.00000000E+00  0.00000000E+00
  0.00000000E+00  0.00000000E+00  0.00000000E+00
  0.00000000E+00  0.00000000E+00  0.00000000E+00
  0.00000000E+00  0.00000000E+00  0.00000000E+00
  0.00000000E+00  0.00000000E+00  0.00000000E+00
  0.00000000E+00  0.00000000E+00  0.00000000E+00
  0.00000000E+00  0.00000000E+00  0.00000000E+00
  0.00000000E+00  0.00000000E+00  0.00000000E+00
  0.00000000E+00  0.00000000E+00  0.00000000E+00
  0.00000000E+00  0.00000000E+00  0.00000000E+00
