Title                                   
   1.00000000000000     
     8.5490480000000009    0.0000000000000000    0.0000000000000000
     0.0000000000000000    8.5490480000000009    0.0000000000000000
     0.0000000000000000    0.0000000000000000   20.0000000000000000
    22     2     1
Selective dynamics
Direct
  0.9091604248123548  0.2069409064253598  0.0944539568876489   T   T   T
  0.9118108367286359  0.8004825955527127  0.0945106185631715   T   T   T
  0.1968395668219912  0.0836338946929810  0.0941175043124663   T   T   T
  0.0753201708012311  0.2019509055377993  0.0945019948380656   T   T   T
  0.1574532279375822  0.6486946631893695  0.0963231861117400   T   T   T
  0.0761580454254389  0.5014561231514143  0.0958588756621124   T   T   T
  0.1558476830886685  0.3545018469864161  0.0960761795068252   T   T   T
  0.0787133022563530  0.7988366935204451  0.0945960630138806   T   T   T
  0.4939217279319915  0.0867403559582580  0.0963352349552268   T   T   T
  0.3452351228242405  0.1641761627204984  0.0952979281943984   T   T   T
  0.4936268152678413  0.9176380166976625  0.0964867584310957   T   T   T
  0.3461916297493470  0.8362590676098771  0.0958712728330499   T   T   T
  0.7877340382184284  0.0871508588407900  0.0956661200700253   T   T   T
  0.6386394393347908  0.1695158345795135  0.0977185344245856   T   T   T
  0.7887897430625270  0.9193664530626011  0.0954486424905595   T   T   T
  0.8305756235747568  0.6479100526516574  0.0961292405787045   T   T   T
  0.8293248359566188  0.3585837618887973  0.0951421897668135   T   T   T
  0.6394669053413680  0.8350843281122879  0.0977421209238426   T   T   T
  0.3229520300229832  0.3323804258508960  0.0984090106705561   T   T   T
  0.3247296254473057  0.6714266251044657  0.0982662249360824   T   T   T
  0.6631291563698133  0.3400587510541196  0.0995230079295521   T   T   T
  0.6642634166388616  0.6656883541745636  0.1011049768517688   T   T   T
  0.9104105078747959  0.5030271185089207  0.0952318435705040   T   T   T
  0.1977554180707355  0.9160489111769407  0.0942918683560878   T   T   T
  0.4873627064413242  0.4972372929516600  0.1346016461212167   T   T   T
 
  0.00000000E+00  0.00000000E+00  0.00000000E+00
  0.00000000E+00  0.00000000E+00  0.00000000E+00
  0.00000000E+00  0.00000000E+00  0.00000000E+00
  0.00000000E+00  0.00000000E+00  0.00000000E+00
  0.00000000E+00  0.00000000E+00  0.00000000E+00
  0.00000000E+00  0.00000000E+00  0.00000000E+00
  0.00000000E+00  0.00000000E+00  0.00000000E+00
  0.00000000E+00  0.00000000E+00  0.00000000E+00
  0.00000000E+00  0.00000000E+00  0.00000000E+00
  0.00000000E+00  0.00000000E+00  0.00000000E+00
  0.00000000E+00  0.00000000E+00  0.00000000E+00
  0.00000000E+00  0.00000000E+00  0.00000000E+00
  0.00000000E+00  0.00000000E+00  0.00000000E+00
  0.00000000E+00  0.00000000E+00  0.00000000E+00
  0.00000000E+00  0.00000000E+00  0.00000000E+00
  0.00000000E+00  0.00000000E+00  0.00000000E+00
  0.00000000E+00  0.00000000E+00  0.00000000E+00
  0.00000000E+00  0.00000000E+00  0.00000000E+00
  0.00000000E+00  0.00000000E+00  0.00000000E+00
  0.00000000E+00  0.00000000E+00  0.00000000E+00
  0.00000000E+00  0.00000000E+00  0.00000000E+00
  0.00000000E+00  0.00000000E+00  0.00000000E+00
  0.00000000E+00  0.00000000E+00  0.00000000E+00
  0.00000000E+00  0.00000000E+00  0.00000000E+00
  0.00000000E+00  0.00000000E+00  0.00000000E+00
