Title                                   
   1.00000000000000     
     9.8694509999999998    0.0000000000000000    0.0000000000000000
     0.0000000000000000    8.5490480000000009    0.0000000000000000
     0.0000000000000000    0.0000000000000000   20.0000000000000000
    28     3     1
Selective dynamics
Direct
  0.0562454050226193  0.0911331279137245  0.0818644272089294   T   T   T
  0.9313460860686561  0.1735208726191052  0.0831091867421457   T   T   T
  0.0568067799930418  0.9244681273349415  0.0831612663433657   T   T   T
  0.9313969333033235  0.3399108791290110  0.0858280787012549   T   T   T
  0.0575559237111733  0.5898305242840370  0.0828721431769860   T   T   T
  0.9328174407792913  0.6722424553178229  0.0861684207781241   T   T   T
  0.0578512651234280  0.4231054954939283  0.0834833697454606   T   T   T
  0.9318837977790949  0.8395214229368033  0.0846420389869568   T   T   T
  0.3054251192908615  0.0888585582648942  0.0873267898007252   T   T   T
  0.1820855489161307  0.1736589455452294  0.0835215446084587   T   T   T
  0.1846851849892603  0.3409511618905584  0.0848178459815668   T   T   T
  0.3034710385628976  0.5928325423069170  0.0978285837909709   T   T   T
  0.1819345423910277  0.6743614573821396  0.0869771510532424   T   T   T
  0.3111868223744099  0.4258201339332566  0.0939617480856398   T   T   T
  0.1808056852955405  0.8417084060318760  0.0873790519192711   T   T   T
  0.5560641619022477  0.0856457218091439  0.0946236588995674   T   T   T
  0.4308653001710466  0.1698200712106941  0.0931002121035066   T   T   T
  0.5535410209931529  0.9201195293713239  0.0988376947493073   T   T   T
  0.4322441283863513  0.3333909135968042  0.1003016848851498   T   T   T
  0.4244776144595370  0.8433423136338164  0.1022113348845152   T   T   T
  0.8069510066489320  0.0889731152413532  0.0851488093512807   T   T   T
  0.6816929878549211  0.1688925230765729  0.0924430267796606   T   T   T
  0.8063784399888507  0.9229848537690567  0.0868864980293546   T   T   T
  0.6822906608460878  0.3323198821223655  0.1017018273369352   T   T   T
  0.8101912696287702  0.5897338464898307  0.0981383439680410   T   T   T
  0.6934346199891191  0.6791042465454886  0.1146720691018318   T   T   T
  0.8053193366993394  0.4217115249587322  0.0959299178317614   T   T   T
  0.6829970729517364  0.8401949204217853  0.0990792844241262   T   T   T
  0.4115368837173672  0.6874899659974429  0.1219325955202625   T   T   T
  0.5576075312691474  0.4002622853678127  0.1207600969285074   T   T   T
  0.3044107973538682  0.9252915144801308  0.0910658894441438   T   T   T
  0.5541385935387746  0.5890446615234101  0.1759004088389846   T   T   T
 
  0.00000000E+00  0.00000000E+00  0.00000000E+00
  0.00000000E+00  0.00000000E+00  0.00000000E+00
  0.00000000E+00  0.00000000E+00  0.00000000E+00
  0.00000000E+00  0.00000000E+00  0.00000000E+00
  0.00000000E+00  0.00000000E+00  0.00000000E+00
  0.00000000E+00  0.00000000E+00  0.00000000E+00
  0.00000000E+00  0.00000000E+00  0.00000000E+00
  0.00000000E+00  0.00000000E+00  0.00000000E+00
  0.00000000E+00  0.00000000E+00  0.00000000E+00
  0.00000000E+00  0.00000000E+00  0.00000000E+00
  0.00000000E+00  0.00000000E+00  0.00000000E+00
  0.00000000E+00  0.00000000E+00  0.00000000E+00
  0.00000000E+00  0.00000000E+00  0.00000000E+00
  0.00000000E+00  0.00000000E+00  0.00000000E+00
  0.00000000E+00  0.00000000E+00  0.00000000E+00
  0.00000000E+00  0.00000000E+00  0.00000000E+00
  0.00000000E+00  0.00000000E+00  0.00000000E+00
  0.00000000E+00  0.00000000E+00  0.00000000E+00
  0.00000000E+00  0.00000000E+00  0.00000000E+00
  0.00000000E+00  0.00000000E+00  0.00000000E+00
  0.00000000E+00  0.00000000E+00  0.00000000E+00
  0.00000000E+00  0.00000000E+00  0.00000000E+00
  0.00000000E+00  0.00000000E+00  0.00000000E+00
  0.00000000E+00  0.00000000E+00  0.00000000E+00
  0.00000000E+00  0.00000000E+00  0.00000000E+00
  0.00000000E+00  0.00000000E+00  0.00000000E+00
  0.00000000E+00  0.00000000E+00  0.00000000E+00
  0.00000000E+00  0.00000000E+00  0.00000000E+00
  0.00000000E+00  0.00000000E+00  0.00000000E+00
  0.00000000E+00  0.00000000E+00  0.00000000E+00
  0.00000000E+00  0.00000000E+00  0.00000000E+00
  0.00000000E+00  0.00000000E+00  0.00000000E+00
