Title                                   
   1.00000000000000     
     8.5490480000000009    0.0000000000000000    0.0000000000000000
     0.0000000000000000    8.5490480000000009    0.0000000000000000
     0.0000000000000000    0.0000000000000000   20.0000000000000000
    23     1     1
Selective dynamics
Direct
  0.9111922253610806  0.2071476072532647  0.0954315162485844   T   T   T
  0.9052350542762305  0.5026532553296795  0.0952940761689506   T   T   T
  0.9112412213628699  0.7999946364857708  0.0954467567708393   T   T   T
  0.1978063084925961  0.0834656167963188  0.0954546134940451   T   T   T
  0.0746838831855506  0.2065564963189937  0.0954334752800262   T   T   T
  0.1984006537278768  0.9199794411768284  0.0954721712901842   T   T   T
  0.1550603278651022  0.6489830663002045  0.0953630665437256   T   T   T
  0.0744351479080400  0.5029668853328422  0.0953192576527384   T   T   T
  0.1572944576510592  0.3562589476740599  0.0953469669651388   T   T   T
  0.0753165246453265  0.7977819443448914  0.0954587725413542   T   T   T
  0.4941366226034496  0.0832082156792912  0.0953568481288560   T   T   T
  0.3474609314184058  0.1661092156640827  0.0953719232682472   T   T   T
  0.4938527980072528  0.9140105542733750  0.0953454142965563   T   T   T
  0.3472070073340615  0.8350712388887899  0.0953894749886115   T   T   T
  0.7889666433596383  0.0840618957349275  0.0954483112676393   T   T   T
  0.6401540254211525  0.1638264153737192  0.0953388507742093   T   T   T
  0.7912122474271924  0.9199969806105017  0.0954524796222593   T   T   T
  0.8270251912572693  0.6519598813435529  0.0952897539804766   T   T   T
  0.8262912309091989  0.3559803594180824  0.0953207011527755   T   T   T
  0.6431640599237700  0.8357604666929114  0.0953008979558399   T   T   T
  0.3243829789019966  0.3331709798510684  0.0952833701429857   T   T   T
  0.3222054710474563  0.6691640329510474  0.0953069249013399   T   T   T
  0.6603706190766198  0.3309367000537221  0.0952279864909872   T   T   T
  0.6678859828920035  0.6766213146217059  0.0951479871909081   T   T   T
  0.4904303859447928  0.4991238518303822  0.0951034028826996   T   T   T
 
  0.00000000E+00  0.00000000E+00  0.00000000E+00
  0.00000000E+00  0.00000000E+00  0.00000000E+00
  0.00000000E+00  0.00000000E+00  0.00000000E+00
  0.00000000E+00  0.00000000E+00  0.00000000E+00
  0.00000000E+00  0.00000000E+00  0.00000000E+00
  0.00000000E+00  0.00000000E+00  0.00000000E+00
  0.00000000E+00  0.00000000E+00  0.00000000E+00
  0.00000000E+00  0.00000000E+00  0.00000000E+00
  0.00000000E+00  0.00000000E+00  0.00000000E+00
  0.00000000E+00  0.00000000E+00  0.00000000E+00
  0.00000000E+00  0.00000000E+00  0.00000000E+00
  0.00000000E+00  0.00000000E+00  0.00000000E+00
  0.00000000E+00  0.00000000E+00  0.00000000E+00
  0.00000000E+00  0.00000000E+00  0.00000000E+00
  0.00000000E+00  0.00000000E+00  0.00000000E+00
  0.00000000E+00  0.00000000E+00  0.00000000E+00
  0.00000000E+00  0.00000000E+00  0.00000000E+00
  0.00000000E+00  0.00000000E+00  0.00000000E+00
  0.00000000E+00  0.00000000E+00  0.00000000E+00
  0.00000000E+00  0.00000000E+00  0.00000000E+00
  0.00000000E+00  0.00000000E+00  0.00000000E+00
  0.00000000E+00  0.00000000E+00  0.00000000E+00
  0.00000000E+00  0.00000000E+00  0.00000000E+00
  0.00000000E+00  0.00000000E+00  0.00000000E+00
  0.00000000E+00  0.00000000E+00  0.00000000E+00
