Title                                   
   1.00000000000000     
     9.8694509999999998    0.0000000000000000    0.0000000000000000
     0.0000000000000000    8.5490480000000009    0.0000000000000000
     0.0000000000000000    0.0000000000000000   20.0000000000000000
    26     5     1
Selective dynamics
Direct
  0.0559443832060041  0.0919810710414808  0.0862158113333156   T   T   T
  0.9297556941846830  0.1754143414551444  0.0881105657937328   T   T   T
  0.0565938967717253  0.9233446463144919  0.0850413038798711   T   T   T
  0.9290781790989413  0.3416638559625842  0.0909232542314483   T   T   T
  0.0559647093797715  0.5899313106092583  0.0864236149618394   T   T   T
  0.9310541548690254  0.6718637599375556  0.0868032785940001   T   T   T
  0.0555906288300330  0.4231194475964456  0.0900625458782690   T   T   T
  0.9313737490245909  0.8398928183266472  0.0864818584569592   T   T   T
  0.3056098462635912  0.0890588812320964  0.0880862560995943   T   T   T
  0.1819678668581630  0.1740471232773334  0.0881354236044586   T   T   T
  0.3075893396942701  0.9230672034884211  0.0885064338896824   T   T   T
  0.1817968093681445  0.3400156679103614  0.0915917055883353   T   T   T
  0.3060705598965783  0.5896202127361186  0.0980094993751006   T   T   T
  0.1811939175511901  0.6704978303810307  0.0877551187103614   T   T   T
  0.1824059962221114  0.8388504372299470  0.0864057083283492   T   T   T
  0.5566452537184967  0.0864039665827533  0.0959367727553009   T   T   T
  0.4310711192916695  0.1697590175573948  0.0935107047787445   T   T   T
  0.4326313985462281  0.3350183541149689  0.0994284627083303   T   T   T
  0.4303715103801991  0.8387504716265071  0.0987725342558898   T   T   T
  0.8065702662877042  0.0899428068037458  0.0882176424452944   T   T   T
  0.6810758331010557  0.1716837032706772  0.0929404540560340   T   T   T
  0.8061325754598972  0.9243276966102369  0.0889082889248533   T   T   T
  0.6775987209312740  0.3361513491222049  0.0975374726660612   T   T   T
  0.8054809456471627  0.5935081059224330  0.0940454136207077   T   T   T
  0.6841815698377554  0.8392402841707900  0.0976092493932218   T   T   T
  0.4230259078469815  0.6774087711518301  0.1149343976205709   T   T   T
  0.5548775406808475  0.4096584206712979  0.1127605372890470   T   T   T
  0.6905099617899342  0.6795488606905579  0.1091087393820172   T   T   T
  0.5576642234188465  0.9195297486151376  0.0988336167348451   T   T   T
  0.3088714044060132  0.4217372369240392  0.0972902699686023   T   T   T
  0.8008453820136491  0.4257260429796990  0.0947992963295179   T   T   T
  0.5600956554234685  0.5894825556868113  0.1824887683456604   T   T   T
 
  0.00000000E+00  0.00000000E+00  0.00000000E+00
  0.00000000E+00  0.00000000E+00  0.00000000E+00
  0.00000000E+00  0.00000000E+00  0.00000000E+00
  0.00000000E+00  0.00000000E+00  0.00000000E+00
  0.00000000E+00  0.00000000E+00  0.00000000E+00
  0.00000000E+00  0.00000000E+00  0.00000000E+00
  0.00000000E+00  0.00000000E+00  0.00000000E+00
  0.00000000E+00  0.00000000E+00  0.00000000E+00
  0.00000000E+00  0.00000000E+00  0.00000000E+00
  0.00000000E+00  0.00000000E+00  0.00000000E+00
  0.00000000E+00  0.00000000E+00  0.00000000E+00
  0.00000000E+00  0.00000000E+00  0.00000000E+00
  0.00000000E+00  0.00000000E+00  0.00000000E+00
  0.00000000E+00  0.00000000E+00  0.00000000E+00
  0.00000000E+00  0.00000000E+00  0.00000000E+00
  0.00000000E+00  0.00000000E+00  0.00000000E+00
  0.00000000E+00  0.00000000E+00  0.00000000E+00
  0.00000000E+00  0.00000000E+00  0.00000000E+00
  0.00000000E+00  0.00000000E+00  0.00000000E+00
  0.00000000E+00  0.00000000E+00  0.00000000E+00
  0.00000000E+00  0.00000000E+00  0.00000000E+00
  0.00000000E+00  0.00000000E+00  0.00000000E+00
  0.00000000E+00  0.00000000E+00  0.00000000E+00
  0.00000000E+00  0.00000000E+00  0.00000000E+00
  0.00000000E+00  0.00000000E+00  0.00000000E+00
  0.00000000E+00  0.00000000E+00  0.00000000E+00
  0.00000000E+00  0.00000000E+00  0.00000000E+00
  0.00000000E+00  0.00000000E+00  0.00000000E+00
  0.00000000E+00  0.00000000E+00  0.00000000E+00
  0.00000000E+00  0.00000000E+00  0.00000000E+00
  0.00000000E+00  0.00000000E+00  0.00000000E+00
  0.00000000E+00  0.00000000E+00  0.00000000E+00
