Title                                   
   1.00000000000000     
     4.9440799999999996    0.0000000000000000    0.0000000000000000
     0.0000000000000000   17.1295089999999988    0.0000000000000000
     0.0000000000000000    0.0000000000000000   20.0000000000000000
    28     2     1
Selective dynamics
Direct
 -0.0022814545609054  0.1051784205116144  0.2929109477183239   T   T   T
  0.2464086967404084  0.1475656764124573  0.2947464466513630   T   T   T
  0.2452430390091750  0.2314192170245320  0.2996078392020451   T   T   T
 -0.0052248837518105  0.2730745398920776  0.3019136220828069   T   T   T
  0.0063736066005358  0.6026664012938455  0.2999801987710770   T   T   T
  0.2529819617702656  0.7272176133427011  0.2942225581461673   T   T   T
  0.0020036825713848  0.8531195201156271  0.2912109288482697   T   T   T
  0.2505592933520899  0.8953563103643483  0.2910503213732695   T   T   T
  0.2491608719496164  0.9793491434166677  0.2911244267609232   T   T   T
  0.0034193318792221  0.7689416969909376  0.2925060739014681   T   T   T
  0.4971721185934037  0.1054220367234482  0.2930088779902356   T   T   T
  0.7476397874037607  0.1473085917061361  0.2938960325600983   T   T   T
  0.7459125378752870  0.2310245708084526  0.2978570818704314   T   T   T
  0.4985845699869746  0.0214318717182920  0.2914243587641897   T   T   T
  0.7514641700477600  0.3945814757075693  0.3096696544297365   T   T   T
  0.7590811378428163  0.4800040519481311  0.3103467126307338   T   T   T
  0.4951839115010108  0.2734454791896564  0.3020161388975844   T   T   T
  0.5027588295468483  0.6017476066384182  0.3015919156249341   T   T   T
  0.7524711296438342  0.7275904842256056  0.2932044448524138   T   T   T
  0.4998489437321391  0.8531499292009319  0.2912964692388221   T   T   T
  0.7504700610628021  0.8949911750933596  0.2908903320019626   T   T   T
  0.7490898883487125  0.9790703398708136  0.2909323126344588   T   T   T
  0.5012083857062657  0.7690345033818361  0.2926921255652571   T   T   T
  0.7540009942618725  0.6447062908646338  0.2965845661172106   T   T   T
 -0.0011112986376216  0.0212298152624235  0.2913686209634348   T   T   T
  0.5052586487357850  0.5203488303728570  0.3120001000421079   T   T   T
  0.0082220112936151  0.5209693704793305  0.3073504274256396   T   T   T
  0.5023660825851072  0.3557756892957101  0.3094767582715486   T   T   T
 -0.0070479503790743  0.3538031267935530  0.3094248385591136   T   T   T
  0.2544585885660375  0.6445406972456903  0.2980766498119691   T   T   T
  0.2443303067226833  0.4372775241083402  0.3526782182923557   T   T   T
 
  0.00000000E+00  0.00000000E+00  0.00000000E+00
  0.00000000E+00  0.00000000E+00  0.00000000E+00
  0.00000000E+00  0.00000000E+00  0.00000000E+00
  0.00000000E+00  0.00000000E+00  0.00000000E+00
  0.00000000E+00  0.00000000E+00  0.00000000E+00
  0.00000000E+00  0.00000000E+00  0.00000000E+00
  0.00000000E+00  0.00000000E+00  0.00000000E+00
  0.00000000E+00  0.00000000E+00  0.00000000E+00
  0.00000000E+00  0.00000000E+00  0.00000000E+00
  0.00000000E+00  0.00000000E+00  0.00000000E+00
  0.00000000E+00  0.00000000E+00  0.00000000E+00
  0.00000000E+00  0.00000000E+00  0.00000000E+00
  0.00000000E+00  0.00000000E+00  0.00000000E+00
  0.00000000E+00  0.00000000E+00  0.00000000E+00
  0.00000000E+00  0.00000000E+00  0.00000000E+00
  0.00000000E+00  0.00000000E+00  0.00000000E+00
  0.00000000E+00  0.00000000E+00  0.00000000E+00
  0.00000000E+00  0.00000000E+00  0.00000000E+00
  0.00000000E+00  0.00000000E+00  0.00000000E+00
  0.00000000E+00  0.00000000E+00  0.00000000E+00
  0.00000000E+00  0.00000000E+00  0.00000000E+00
  0.00000000E+00  0.00000000E+00  0.00000000E+00
  0.00000000E+00  0.00000000E+00  0.00000000E+00
  0.00000000E+00  0.00000000E+00  0.00000000E+00
  0.00000000E+00  0.00000000E+00  0.00000000E+00
  0.00000000E+00  0.00000000E+00  0.00000000E+00
  0.00000000E+00  0.00000000E+00  0.00000000E+00
  0.00000000E+00  0.00000000E+00  0.00000000E+00
  0.00000000E+00  0.00000000E+00  0.00000000E+00
  0.00000000E+00  0.00000000E+00  0.00000000E+00
  0.00000000E+00  0.00000000E+00  0.00000000E+00
