Title                                   
   1.00000000000000     
     8.5490480000000009    0.0000000000000000    0.0000000000000000
     0.0000000000000000    8.5490480000000009    0.0000000000000000
     0.0000000000000000    0.0000000000000000   20.0000000000000000
    22     2     1
Selective dynamics
Direct
  0.9109087672309556  0.2060980505894836  0.0954513197864376   T   T   T
  0.9082852220683368  0.5012543137610698  0.0953130230380831   T   T   T
  0.9096005826553966  0.7975943451099214  0.0954609533979678   T   T   T
  0.1972169396929008  0.0851755086509834  0.0954823706245666   T   T   T
  0.0764173695435358  0.2059707637069595  0.0954651787503065   T   T   T
  0.1973379136347311  0.9196941470733792  0.0954896717356870   T   T   T
  0.1555950456800737  0.6492758590728268  0.0953718749265447   T   T   T
  0.0777473753461469  0.5023295440948509  0.0953352270814978   T   T   T
  0.1575489782210640  0.3534316241311685  0.0953328462137445   T   T   T
  0.0750883400108588  0.7974680963443393  0.0954750311619141   T   T   T
  0.4935232572092287  0.0865107502873999  0.0953620064402162   T   T   T
  0.3446693236259843  0.1663201793518949  0.0953515348780543   T   T   T
  0.4924386838036444  0.9170694756650598  0.0953670696789245   T   T   T
  0.3455224734172048  0.8391858434531088  0.0953879149127717   T   T   T
  0.7886569250303603  0.0838724671221067  0.0954668802018001   T   T   T
  0.6404565385745038  0.1643679031229106  0.0953497981732767   T   T   T
  0.7887763328668459  0.9183931131734222  0.0954721419718198   T   T   T
  0.8285113412550924  0.6501486554872407  0.0953096624352060   T   T   T
  0.8304106536587833  0.3543028482061499  0.0953171258636448   T   T   T
  0.6413145746385218  0.8372972281109093  0.0953325678816083   T   T   T
  0.3229272629964482  0.6718666882332114  0.0952756379407755   T   T   T
  0.6630840974476292  0.3316606716843604  0.0952111285049400   T   T   T
  0.3207026138077065  0.3294218519292774  0.0951840239228354   T   T   T
  0.6653930991250213  0.6741802985310017  0.0951677999707009   T   T   T
  0.4932782884590175  0.5018997731069762  0.0949722105066537   T   T   T
 
  0.00000000E+00  0.00000000E+00  0.00000000E+00
  0.00000000E+00  0.00000000E+00  0.00000000E+00
  0.00000000E+00  0.00000000E+00  0.00000000E+00
  0.00000000E+00  0.00000000E+00  0.00000000E+00
  0.00000000E+00  0.00000000E+00  0.00000000E+00
  0.00000000E+00  0.00000000E+00  0.00000000E+00
  0.00000000E+00  0.00000000E+00  0.00000000E+00
  0.00000000E+00  0.00000000E+00  0.00000000E+00
  0.00000000E+00  0.00000000E+00  0.00000000E+00
  0.00000000E+00  0.00000000E+00  0.00000000E+00
  0.00000000E+00  0.00000000E+00  0.00000000E+00
  0.00000000E+00  0.00000000E+00  0.00000000E+00
  0.00000000E+00  0.00000000E+00  0.00000000E+00
  0.00000000E+00  0.00000000E+00  0.00000000E+00
  0.00000000E+00  0.00000000E+00  0.00000000E+00
  0.00000000E+00  0.00000000E+00  0.00000000E+00
  0.00000000E+00  0.00000000E+00  0.00000000E+00
  0.00000000E+00  0.00000000E+00  0.00000000E+00
  0.00000000E+00  0.00000000E+00  0.00000000E+00
  0.00000000E+00  0.00000000E+00  0.00000000E+00
  0.00000000E+00  0.00000000E+00  0.00000000E+00
  0.00000000E+00  0.00000000E+00  0.00000000E+00
  0.00000000E+00  0.00000000E+00  0.00000000E+00
  0.00000000E+00  0.00000000E+00  0.00000000E+00
  0.00000000E+00  0.00000000E+00  0.00000000E+00
