Title                                   
   1.00000000000000     
     4.9440799999999996    0.0000000000000000    0.0000000000000000
     0.0000000000000000   17.1295089999999988    0.0000000000000000
     0.0000000000000000    0.0000000000000000   20.0000000000000000
    26     4     1
Selective dynamics
Direct
  0.0010526763739157  0.1057738589232673  0.2963122587269098   T   T   T
  0.2502913321021067  0.1484369785505604  0.2971702532340976   T   T   T
  0.2502298702669608  0.2331044622136172  0.2995308260740989   T   T   T
 -0.0026427604133879  0.2733436487147390  0.3003969237192717   T   T   T
 -0.0026183075834897  0.6015617915615907  0.3003465525729392   T   T   T
  0.2502925979611063  0.7265250776373054  0.2977124986138320   T   T   T
  0.0007356350724248  0.8533151799309965  0.2965570053614811   T   T   T
  0.2503460961860715  0.8954981570531340  0.2964815830116364   T   T   T
  0.2503464980668982  0.9795037429442254  0.2961721160472340   T   T   T
  0.0010598038260368  0.7691708936630495  0.2970220338144938   T   T   T
  0.4995552498036556  0.1057875998854309  0.2962537358897088   T   T   T
  0.7503265907573547  0.1471517550451055  0.2963751198767844   T   T   T
  0.7503692576197606  0.2309262274043659  0.2977640417209526   T   T   T
  0.4999334917672399  0.0216782265552472  0.2959467632298286   T   T   T
  0.7502194102157160  0.3930097519633307  0.3041078960069633   T   T   T
  0.7502124247438847  0.4818158719913854  0.3039472781423521   T   T   T
  0.5032088480603619  0.2733123078274114  0.2999690574814573   T   T   T
  0.5031991129042035  0.6015957085022156  0.2999388309208128   T   T   T
  0.7503268386597033  0.7277601116668595  0.2969557445861805   T   T   T
  0.4999086562864291  0.8533006931939033  0.2965274245158496   T   T   T
  0.7503213139983419  0.8953673235546643  0.2962365419482467   T   T   T
  0.7503046497199827  0.9795877628907268  0.2959346697254188   T   T   T
  0.4995712714238377  0.7691643855632190  0.2969671651736913   T   T   T
  0.7503721971000391  0.6439738891927115  0.2979099152421959   T   T   T
  0.2502308799982972  0.6418446831959510  0.2996250130817930   T   T   T
  0.0007056257303318  0.0216544560723406  0.2959773246582983   T   T   T
  0.5146001568208237  0.5204682770227744  0.3046615820569854   T   T   T
  0.9859989237439013  0.5203669482982832  0.3057529528146980   T   T   T
  0.5146119482583863  0.3543925013709355  0.3048571989295956   T   T   T
 -0.0139836911863822  0.3544896282756664  0.3059471591955706   T   T   T
  0.2509204017154891  0.4374600993349819  0.3157025336265733   T   T   T
 
  0.00000000E+00  0.00000000E+00  0.00000000E+00
  0.00000000E+00  0.00000000E+00  0.00000000E+00
  0.00000000E+00  0.00000000E+00  0.00000000E+00
  0.00000000E+00  0.00000000E+00  0.00000000E+00
  0.00000000E+00  0.00000000E+00  0.00000000E+00
  0.00000000E+00  0.00000000E+00  0.00000000E+00
  0.00000000E+00  0.00000000E+00  0.00000000E+00
  0.00000000E+00  0.00000000E+00  0.00000000E+00
  0.00000000E+00  0.00000000E+00  0.00000000E+00
  0.00000000E+00  0.00000000E+00  0.00000000E+00
  0.00000000E+00  0.00000000E+00  0.00000000E+00
  0.00000000E+00  0.00000000E+00  0.00000000E+00
  0.00000000E+00  0.00000000E+00  0.00000000E+00
  0.00000000E+00  0.00000000E+00  0.00000000E+00
  0.00000000E+00  0.00000000E+00  0.00000000E+00
  0.00000000E+00  0.00000000E+00  0.00000000E+00
  0.00000000E+00  0.00000000E+00  0.00000000E+00
  0.00000000E+00  0.00000000E+00  0.00000000E+00
  0.00000000E+00  0.00000000E+00  0.00000000E+00
  0.00000000E+00  0.00000000E+00  0.00000000E+00
  0.00000000E+00  0.00000000E+00  0.00000000E+00
  0.00000000E+00  0.00000000E+00  0.00000000E+00
  0.00000000E+00  0.00000000E+00  0.00000000E+00
  0.00000000E+00  0.00000000E+00  0.00000000E+00
  0.00000000E+00  0.00000000E+00  0.00000000E+00
  0.00000000E+00  0.00000000E+00  0.00000000E+00
  0.00000000E+00  0.00000000E+00  0.00000000E+00
  0.00000000E+00  0.00000000E+00  0.00000000E+00
  0.00000000E+00  0.00000000E+00  0.00000000E+00
  0.00000000E+00  0.00000000E+00  0.00000000E+00
  0.00000000E+00  0.00000000E+00  0.00000000E+00
