Title                                   
   1.00000000000000     
     4.9440799999999996    0.0000000000000000    0.0000000000000000
     0.0000000000000000   17.1295089999999988    0.0000000000000000
     0.0000000000000000    0.0000000000000000   20.0000000000000000
    27     3     1
Selective dynamics
Direct
  0.0012657055789276  0.1049553931381012  0.2970702715876501   T   T   T
  0.2500756286982936  0.1479724731351863  0.2980384721956216   T   T   T
  0.2497898852794335  0.2322629097483053  0.3015005968030955   T   T   T
 -0.0035603976267921  0.2729005672158195  0.3059829774289434   T   T   T
 -0.0014028873413854  0.6030946298965969  0.3046039628916435   T   T   T
  0.2491009846143327  0.7270077796947069  0.2968836904818561   T   T   T
  0.0008426460296999  0.8533960283334022  0.2955626719985822   T   T   T
  0.2499930587952106  0.8956000076049762  0.2949971262073713   T   T   T
  0.2502643861976009  0.9792073293319002  0.2950261498416790   T   T   T
  0.0003551675149840  0.7696567359369479  0.2967652858988046   T   T   T
  0.4998010208146668  0.1052468887483297  0.2959329860414765   T   T   T
  0.7511508041276503  0.1462759005042135  0.2970954066722497   T   T   T
  0.7518326177631183  0.2296588863551728  0.2997109769082367   T   T   T
  0.4998655672193251  0.0214008658731370  0.2948716923529504   T   T   T
  0.7488512496342502  0.3913720393689073  0.3051893943203398   T   T   T
  0.7494792711122222  0.4806907271855420  0.3038222672799853   T   T   T
  0.5047313396796548  0.2720873095046238  0.2988683014395765   T   T   T
  0.4992287336112209  0.6038813901630952  0.2957285819105729   T   T   T
  0.7499534346939942  0.7286389613862386  0.2961824037092469   T   T   T
  0.4987980530252213  0.8532730556083907  0.2947061611054331   T   T   T
  0.7498234826142435  0.8951950679206051  0.2948289026386969   T   T   T
  0.7500595423060580  0.9791802301574716  0.2948473188444256   T   T   T
  0.4987946275984713  0.7694337968740871  0.2950907963310897   T   T   T
  0.7498553861004762  0.6459204523658666  0.2978508259453791   T   T   T
  0.0006140084636462  0.0211774070262411  0.2955460585713700   T   T   T
  0.5062376405969419  0.5217032837120437  0.2950481970839132   T   T   T
 -0.0058997242564108  0.5207537918249642  0.3155568230804612   T   T   T
  0.5184596709128759  0.3518264737932376  0.2957828780835336   T   T   T
 -0.0178089009887438  0.3531056701016798  0.3169864764079947   T   T   T
  0.2481838930767326  0.6450808277535711  0.2992046238037347   T   T   T
  0.2612711041540816  0.4393851197366365  0.3157777221340375   T   T   T
 
  0.00000000E+00  0.00000000E+00  0.00000000E+00
  0.00000000E+00  0.00000000E+00  0.00000000E+00
  0.00000000E+00  0.00000000E+00  0.00000000E+00
  0.00000000E+00  0.00000000E+00  0.00000000E+00
  0.00000000E+00  0.00000000E+00  0.00000000E+00
  0.00000000E+00  0.00000000E+00  0.00000000E+00
  0.00000000E+00  0.00000000E+00  0.00000000E+00
  0.00000000E+00  0.00000000E+00  0.00000000E+00
  0.00000000E+00  0.00000000E+00  0.00000000E+00
  0.00000000E+00  0.00000000E+00  0.00000000E+00
  0.00000000E+00  0.00000000E+00  0.00000000E+00
  0.00000000E+00  0.00000000E+00  0.00000000E+00
  0.00000000E+00  0.00000000E+00  0.00000000E+00
  0.00000000E+00  0.00000000E+00  0.00000000E+00
  0.00000000E+00  0.00000000E+00  0.00000000E+00
  0.00000000E+00  0.00000000E+00  0.00000000E+00
  0.00000000E+00  0.00000000E+00  0.00000000E+00
  0.00000000E+00  0.00000000E+00  0.00000000E+00
  0.00000000E+00  0.00000000E+00  0.00000000E+00
  0.00000000E+00  0.00000000E+00  0.00000000E+00
  0.00000000E+00  0.00000000E+00  0.00000000E+00
  0.00000000E+00  0.00000000E+00  0.00000000E+00
  0.00000000E+00  0.00000000E+00  0.00000000E+00
  0.00000000E+00  0.00000000E+00  0.00000000E+00
  0.00000000E+00  0.00000000E+00  0.00000000E+00
  0.00000000E+00  0.00000000E+00  0.00000000E+00
  0.00000000E+00  0.00000000E+00  0.00000000E+00
  0.00000000E+00  0.00000000E+00  0.00000000E+00
  0.00000000E+00  0.00000000E+00  0.00000000E+00
  0.00000000E+00  0.00000000E+00  0.00000000E+00
  0.00000000E+00  0.00000000E+00  0.00000000E+00
