Title                                   
   1.00000000000000     
     9.8694509999999998    0.0000000000000000    0.0000000000000000
     0.0000000000000000    8.5490480000000009    0.0000000000000000
     0.0000000000000000    0.0000000000000000   20.0000000000000000
    27     4     1
Selective dynamics
Direct
  0.0563360427085382  0.0909989823112549  0.0867594846991016   T   T   T
  0.9313988003396159  0.1754665431304406  0.0866503824771755   T   T   T
  0.0583826288142160  0.9231199468319570  0.0858736336751954   T   T   T
  0.9296750067889683  0.3433840146471311  0.0868853717488854   T   T   T
  0.0564414622340932  0.5919425258773799  0.0893858286729576   T   T   T
  0.0552534008024564  0.4249678483830873  0.0893090335694988   T   T   T
  0.9343534804031440  0.8405537481994764  0.0835551513584061   T   T   T
  0.3070464971203204  0.0869883564970668  0.0922185587604486   T   T   T
  0.1824175556612218  0.1720188114684295  0.0908846307513178   T   T   T
  0.1810110281531801  0.3394090319379642  0.0949435590485094   T   T   T
  0.3027908969186331  0.5869394871796532  0.1087953464013819   T   T   T
  0.1812056588530576  0.6738916771412629  0.0950148338151007   T   T   T
  0.3039872427055232  0.4197623504994252  0.1071819251612669   T   T   T
  0.1837952486300372  0.8402214898598515  0.0908599018502586   T   T   T
  0.5570851734588247  0.0863722120486905  0.0940497906854691   T   T   T
  0.5574955179818460  0.9186514787199972  0.0936654170500682   T   T   T
  0.4302659231439236  0.3318257549453211  0.1105681376418918   T   T   T
  0.4310130385662225  0.8355842015796193  0.1039351921407452   T   T   T
  0.8066202885300896  0.0908260532364829  0.0863317873582931   T   T   T
  0.6796428451207622  0.1735795271879821  0.0914046684107148   T   T   T
  0.8083771861329936  0.9245405964950724  0.0838526619925075   T   T   T
  0.6800894981776688  0.3422553262275413  0.0991343585320044   T   T   T
  0.8060082706742517  0.5980469880274886  0.0827571191305947   T   T   T
  0.8041442452166246  0.4281169158649853  0.0890517518965113   T   T   T
  0.6850278178769157  0.8379142029419282  0.0844363667909647   T   T   T
  0.4196075517138789  0.6785330728522799  0.1221023334906516   T   T   T
  0.5538426554499007  0.4067062348093198  0.1199863385402377   T   T   T
  0.6915231556329360  0.6784446591050489  0.0786410415599218   T   T   T
  0.3071155746678005  0.9225127265051266  0.0925691229526247   T   T   T
  0.4300170665870582  0.1664182932154468  0.0973940483110753   T   T   T
  0.9338391041057502  0.6754067476290614  0.0846516978978776   T   T   T
  0.5538291368295526  0.5848461946442297  0.1828255236283584   T   T   T
 
  0.00000000E+00  0.00000000E+00  0.00000000E+00
  0.00000000E+00  0.00000000E+00  0.00000000E+00
  0.00000000E+00  0.00000000E+00  0.00000000E+00
  0.00000000E+00  0.00000000E+00  0.00000000E+00
  0.00000000E+00  0.00000000E+00  0.00000000E+00
  0.00000000E+00  0.00000000E+00  0.00000000E+00
  0.00000000E+00  0.00000000E+00  0.00000000E+00
  0.00000000E+00  0.00000000E+00  0.00000000E+00
  0.00000000E+00  0.00000000E+00  0.00000000E+00
  0.00000000E+00  0.00000000E+00  0.00000000E+00
  0.00000000E+00  0.00000000E+00  0.00000000E+00
  0.00000000E+00  0.00000000E+00  0.00000000E+00
  0.00000000E+00  0.00000000E+00  0.00000000E+00
  0.00000000E+00  0.00000000E+00  0.00000000E+00
  0.00000000E+00  0.00000000E+00  0.00000000E+00
  0.00000000E+00  0.00000000E+00  0.00000000E+00
  0.00000000E+00  0.00000000E+00  0.00000000E+00
  0.00000000E+00  0.00000000E+00  0.00000000E+00
  0.00000000E+00  0.00000000E+00  0.00000000E+00
  0.00000000E+00  0.00000000E+00  0.00000000E+00
  0.00000000E+00  0.00000000E+00  0.00000000E+00
  0.00000000E+00  0.00000000E+00  0.00000000E+00
  0.00000000E+00  0.00000000E+00  0.00000000E+00
  0.00000000E+00  0.00000000E+00  0.00000000E+00
  0.00000000E+00  0.00000000E+00  0.00000000E+00
  0.00000000E+00  0.00000000E+00  0.00000000E+00
  0.00000000E+00  0.00000000E+00  0.00000000E+00
  0.00000000E+00  0.00000000E+00  0.00000000E+00
  0.00000000E+00  0.00000000E+00  0.00000000E+00
  0.00000000E+00  0.00000000E+00  0.00000000E+00
  0.00000000E+00  0.00000000E+00  0.00000000E+00
  0.00000000E+00  0.00000000E+00  0.00000000E+00
