Title                                   
   1.00000000000000     
     8.5490480000000009    0.0000000000000000    0.0000000000000000
     0.0000000000000000    8.5490480000000009    0.0000000000000000
     0.0000000000000000    0.0000000000000000   20.0000000000000000
    22     2     1
Selective dynamics
Direct
  0.9094293587411354  0.2080143459809984  0.0961194712320853   T   T   T
  0.9058425178125712  0.5034613043370685  0.0974267349871649   T   T   T
  0.9122584228882441  0.8028044783035072  0.0970142541514445   T   T   T
  0.1998299951442762  0.0825758942845344  0.0970193565546488   T   T   T
  0.0743826493924803  0.2058916588769331  0.0969882915155789   T   T   T
  0.1570124714701870  0.6499468745670146  0.0968138255279762   T   T   T
  0.0748768917798538  0.5020649986781240  0.0973990453084960   T   T   T
  0.1562436746694083  0.3556922177459108  0.0981543555763452   T   T   T
  0.0787584487950331  0.7984018843363567  0.0962046753218584   T   T   T
  0.4935035506643968  0.0823253927967550  0.0971768475283811   T   T   T
  0.3464135531489959  0.1628930789589010  0.0981111602519916   T   T   T
  0.4929429199460501  0.9141233447234773  0.0974335078393506   T   T   T
  0.3469073052954962  0.8337315660357519  0.0970928018545589   T   T   T
  0.7870596780709315  0.0855670754959732  0.0958063983997420   T   T   T
  0.6381477838589190  0.1646232698397697  0.0963267509797405   T   T   T
  0.7902868361068365  0.9209483239628061  0.0968395835823744   T   T   T
  0.8291627505765190  0.6539972677224012  0.0982883707003753   T   T   T
  0.8259185616058561  0.3571542393429435  0.0968278618392622   T   T   T
  0.6427157566973898  0.8353453393027015  0.0981767090264560   T   T   T
  0.3259138020029964  0.3337272082560799  0.1009067068150295   T   T   T
  0.3228188325417765  0.6686577121326052  0.0985693959101517   T   T   T
  0.6569844154603827  0.3324729632632032  0.0990450299161998   T   T   T
  0.6683456496389374  0.6764279453836680  0.1001749586909352   T   T   T
  0.1995192192504906  0.9181301186680024  0.0961915266534014   T   T   T
  0.4901369544408291  0.4958114970045265  0.1085973798364342   T   T   T
 
  0.00000000E+00  0.00000000E+00  0.00000000E+00
  0.00000000E+00  0.00000000E+00  0.00000000E+00
  0.00000000E+00  0.00000000E+00  0.00000000E+00
  0.00000000E+00  0.00000000E+00  0.00000000E+00
  0.00000000E+00  0.00000000E+00  0.00000000E+00
  0.00000000E+00  0.00000000E+00  0.00000000E+00
  0.00000000E+00  0.00000000E+00  0.00000000E+00
  0.00000000E+00  0.00000000E+00  0.00000000E+00
  0.00000000E+00  0.00000000E+00  0.00000000E+00
  0.00000000E+00  0.00000000E+00  0.00000000E+00
  0.00000000E+00  0.00000000E+00  0.00000000E+00
  0.00000000E+00  0.00000000E+00  0.00000000E+00
  0.00000000E+00  0.00000000E+00  0.00000000E+00
  0.00000000E+00  0.00000000E+00  0.00000000E+00
  0.00000000E+00  0.00000000E+00  0.00000000E+00
  0.00000000E+00  0.00000000E+00  0.00000000E+00
  0.00000000E+00  0.00000000E+00  0.00000000E+00
  0.00000000E+00  0.00000000E+00  0.00000000E+00
  0.00000000E+00  0.00000000E+00  0.00000000E+00
  0.00000000E+00  0.00000000E+00  0.00000000E+00
  0.00000000E+00  0.00000000E+00  0.00000000E+00
  0.00000000E+00  0.00000000E+00  0.00000000E+00
  0.00000000E+00  0.00000000E+00  0.00000000E+00
  0.00000000E+00  0.00000000E+00  0.00000000E+00
  0.00000000E+00  0.00000000E+00  0.00000000E+00
