Title                                   
   1.00000000000000     
     4.9440799999999996    0.0000000000000000    0.0000000000000000
     0.0000000000000000    8.5647549999999999    0.0000000000000000
     0.0000000000000000    0.0000000000000000   20.0000000000000000
    10     4     1
Selective dynamics
Direct
  0.2500000000000000  0.2117756945939632  0.0951930813436294   T   T   T
 -0.0010691438627642  0.2943830919056343  0.0955422545485349   T   T   T
  0.2500000000000000  0.0377892499073691  0.0952040964412330   T   T   T
 -0.0010637107068851  0.9551658268590015  0.0955335109462725   T   T   T
  0.7500000000000000  0.2094194763746644  0.0925964866356300   T   T   T
  0.5010691438627644  0.2943830919056343  0.0955422545485349   T   T   T
  0.7500000000000000  0.0401166683965731  0.0925797850340885   T   T   T
  0.7500000000000000  0.7106005942958706  0.1001063979397705   T   T   T
  0.7500000000000000  0.5389397491968958  0.1000855368817369   T   T   T
  0.5010637107068852  0.9551658268590015  0.0955335109462725   T   T   T
  0.5086322866286294  0.4584961446731332  0.1021544536982920   T   T   T
 -0.0086322866286291  0.4584961446731332  0.1021544536982920   T   T   T
 -0.0086629832279546  0.7910709021676696  0.1021817362221753   T   T   T
  0.5086629832279544  0.7910709021676696  0.1021817362221753   T   T   T
  0.2500000000000000  0.6248076360237894  0.1413907048933657   T   T   T
 
  0.00000000E+00  0.00000000E+00  0.00000000E+00
  0.00000000E+00  0.00000000E+00  0.00000000E+00
  0.00000000E+00  0.00000000E+00  0.00000000E+00
  0.00000000E+00  0.00000000E+00  0.00000000E+00
  0.00000000E+00  0.00000000E+00  0.00000000E+00
  0.00000000E+00  0.00000000E+00  0.00000000E+00
  0.00000000E+00  0.00000000E+00  0.00000000E+00
  0.00000000E+00  0.00000000E+00  0.00000000E+00
  0.00000000E+00  0.00000000E+00  0.00000000E+00
  0.00000000E+00  0.00000000E+00  0.00000000E+00
  0.00000000E+00  0.00000000E+00  0.00000000E+00
  0.00000000E+00  0.00000000E+00  0.00000000E+00
  0.00000000E+00  0.00000000E+00  0.00000000E+00
  0.00000000E+00  0.00000000E+00  0.00000000E+00
  0.00000000E+00  0.00000000E+00  0.00000000E+00
