Title                                   
   1.00000000000000     
     4.9440799999999996    0.0000000000000000    0.0000000000000000
     0.0000000000000000   17.1295089999999988    0.0000000000000000
     0.0000000000000000    0.0000000000000000   20.0000000000000000
    28     2     1
Selective dynamics
Direct
  0.0014211774433604  0.1045037677482052  0.2973667736978208   T   T   T
  0.2502728371329869  0.1469247456215329  0.2980744843374927   T   T   T
  0.2502921118073453  0.2310805337325859  0.2998497395668953   T   T   T
 -0.0034554516634880  0.2711499093337707  0.3009092672936099   T   T   T
 -0.0003972462517212  0.6041021153215629  0.3017791556036815   T   T   T
  0.2503358680864992  0.7288413233965929  0.2990956056698916   T   T   T
  0.0004329651850158  0.8543261886327771  0.2970737001320847   T   T   T
  0.2502862148872390  0.8960690859874838  0.2966995834077625   T   T   T
  0.2502921671359142  0.9792543262486982  0.2964670208838930   T   T   T
  0.0003412794229981  0.7711079953602771  0.2983129572850350   T   T   T
  0.4991350316989032  0.1045051987571302  0.2973219507541738   T   T   T
  0.7502769666069592  0.1453539917811812  0.2979348250433529   T   T   T
  0.7502956221527507  0.2282470847961105  0.2996611805253999   T   T   T
  0.4996830897423831  0.0210898871965247  0.2965423324318018   T   T   T
  0.7503976685914582  0.3898326044687925  0.3029945383318292   T   T   T
  0.7503902334718038  0.4785597374647948  0.3033823744727826   T   T   T
  0.5040780776286381  0.2711605857669442  0.3005860363601794   T   T   T
  0.5010849507845523  0.6040984038707105  0.3016018646356350   T   T   T
  0.7503190373383266  0.7297728206463083  0.2990938910138602   T   T   T
  0.5001567909954908  0.8543310980331770  0.2970610273160044   T   T   T
  0.7502980947090592  0.8960634044639993  0.2966091598581180   T   T   T
  0.7502924174046934  0.9795647702272173  0.2963576341639756   T   T   T
  0.5003018900464421  0.7711066934734618  0.2982835939083873   T   T   T
  0.7503349770144466  0.6464248262253983  0.3008515740192569   T   T   T
  0.2503384051419607  0.6461630007136631  0.3008124245647375   T   T   T
  0.0008962520999177  0.0210930528690313  0.2965672624265248   T   T   T
  0.5130688180139462  0.5224701796377085  0.3027502717854580   T   T   T
  0.9876981949645811  0.5224796479230781  0.3032227608565810   T   T   T
  0.5178933193347919  0.3508145170380812  0.3019449380888060   T   T   T
 -0.0171314230793077  0.3507847871802199  0.3030793952734826   T   T   T
  0.2503766621520560  0.4400657160829774  0.3027726762914378   T   T   T
 
  0.00000000E+00  0.00000000E+00  0.00000000E+00
  0.00000000E+00  0.00000000E+00  0.00000000E+00
  0.00000000E+00  0.00000000E+00  0.00000000E+00
  0.00000000E+00  0.00000000E+00  0.00000000E+00
  0.00000000E+00  0.00000000E+00  0.00000000E+00
  0.00000000E+00  0.00000000E+00  0.00000000E+00
  0.00000000E+00  0.00000000E+00  0.00000000E+00
  0.00000000E+00  0.00000000E+00  0.00000000E+00
  0.00000000E+00  0.00000000E+00  0.00000000E+00
  0.00000000E+00  0.00000000E+00  0.00000000E+00
  0.00000000E+00  0.00000000E+00  0.00000000E+00
  0.00000000E+00  0.00000000E+00  0.00000000E+00
  0.00000000E+00  0.00000000E+00  0.00000000E+00
  0.00000000E+00  0.00000000E+00  0.00000000E+00
  0.00000000E+00  0.00000000E+00  0.00000000E+00
  0.00000000E+00  0.00000000E+00  0.00000000E+00
  0.00000000E+00  0.00000000E+00  0.00000000E+00
  0.00000000E+00  0.00000000E+00  0.00000000E+00
  0.00000000E+00  0.00000000E+00  0.00000000E+00
  0.00000000E+00  0.00000000E+00  0.00000000E+00
  0.00000000E+00  0.00000000E+00  0.00000000E+00
  0.00000000E+00  0.00000000E+00  0.00000000E+00
  0.00000000E+00  0.00000000E+00  0.00000000E+00
  0.00000000E+00  0.00000000E+00  0.00000000E+00
  0.00000000E+00  0.00000000E+00  0.00000000E+00
  0.00000000E+00  0.00000000E+00  0.00000000E+00
  0.00000000E+00  0.00000000E+00  0.00000000E+00
  0.00000000E+00  0.00000000E+00  0.00000000E+00
  0.00000000E+00  0.00000000E+00  0.00000000E+00
  0.00000000E+00  0.00000000E+00  0.00000000E+00
  0.00000000E+00  0.00000000E+00  0.00000000E+00
