Title                                   
   1.00000000000000     
     9.8694509999999998    0.0000000000000000    0.0000000000000000
     0.0000000000000000    8.5490480000000009    0.0000000000000000
     0.0000000000000000    0.0000000000000000   20.0000000000000000
    26     4     1
Selective dynamics
Direct
  0.0550427099506583  0.0872497844797579  0.0923218829753381   T   T   T
  0.9310964151162450  0.1709990955970185  0.0927690233604906   T   T   T
  0.0568906319488730  0.9212004932514122  0.0927136596380511   T   T   T
  0.9342984380912387  0.3385437672035751  0.0925249856079544   T   T   T
  0.0566073166102269  0.5903273011782156  0.0922458263976732   T   T   T
  0.0569472478672082  0.4240970015167898  0.0917238656358218   T   T   T
  0.9317610789827040  0.8382652486569596  0.0934705193654801   T   T   T
  0.3056069006917652  0.0881238795016624  0.0942294510140394   T   T   T
  0.1808081721722534  0.1704396062504595  0.0926637084431204   T   T   T
  0.1801112460868843  0.3378363138723917  0.0923272896478942   T   T   T
  0.3041142056614293  0.5874785956067805  0.0946413896533431   T   T   T
  0.1807851450425129  0.6735572122132897  0.0929704033649894   T   T   T
  0.3025286943503295  0.4187692781968015  0.0944339009109515   T   T   T
  0.1825409814820679  0.8396204387744237  0.0931733421953378   T   T   T
  0.4295205462902637  0.1760471615717213  0.0962487918914152   T   T   T
  0.5546620149241105  0.9252904165154763  0.0973491011939016   T   T   T
  0.4272667151644227  0.6743566391625693  0.0974863841627600   T   T   T
  0.4299457762665792  0.8394239089319766  0.0966305287124601   T   T   T
  0.8051935333554682  0.0886392401646029  0.0944913769636734   T   T   T
  0.6815195438086963  0.1789982050748772  0.0964415293217405   T   T   T
  0.8059222566641304  0.9207936523558019  0.0949711762268658   T   T   T
  0.6871054837298692  0.3435235921502161  0.0976098480113643   T   T   T
  0.8119741976977721  0.5918245178262119  0.0954035288339429   T   T   T
  0.6862723139677587  0.6697470897744058  0.0980448049666400   T   T   T
  0.8135920408701148  0.4217130354990380  0.0949586536062244   T   T   T
  0.6792571850762000  0.8379566000043401  0.0971529445876016   T   T   T
  0.9339167093019299  0.6728815815224369  0.0932672526613866   T   T   T
  0.5550138463289204  0.0951016197281489  0.0970821600442737   T   T   T
  0.4237723818707558  0.3357319036270224  0.0972110070641208   T   T   T
  0.3051908636710322  0.9236171537823860  0.0943131186921892   T   T   T
  0.5538704069575944  0.5087206660092504  0.1000935448490029   T   T   T
 
  0.00000000E+00  0.00000000E+00  0.00000000E+00
  0.00000000E+00  0.00000000E+00  0.00000000E+00
  0.00000000E+00  0.00000000E+00  0.00000000E+00
  0.00000000E+00  0.00000000E+00  0.00000000E+00
  0.00000000E+00  0.00000000E+00  0.00000000E+00
  0.00000000E+00  0.00000000E+00  0.00000000E+00
  0.00000000E+00  0.00000000E+00  0.00000000E+00
  0.00000000E+00  0.00000000E+00  0.00000000E+00
  0.00000000E+00  0.00000000E+00  0.00000000E+00
  0.00000000E+00  0.00000000E+00  0.00000000E+00
  0.00000000E+00  0.00000000E+00  0.00000000E+00
  0.00000000E+00  0.00000000E+00  0.00000000E+00
  0.00000000E+00  0.00000000E+00  0.00000000E+00
  0.00000000E+00  0.00000000E+00  0.00000000E+00
  0.00000000E+00  0.00000000E+00  0.00000000E+00
  0.00000000E+00  0.00000000E+00  0.00000000E+00
  0.00000000E+00  0.00000000E+00  0.00000000E+00
  0.00000000E+00  0.00000000E+00  0.00000000E+00
  0.00000000E+00  0.00000000E+00  0.00000000E+00
  0.00000000E+00  0.00000000E+00  0.00000000E+00
  0.00000000E+00  0.00000000E+00  0.00000000E+00
  0.00000000E+00  0.00000000E+00  0.00000000E+00
  0.00000000E+00  0.00000000E+00  0.00000000E+00
  0.00000000E+00  0.00000000E+00  0.00000000E+00
  0.00000000E+00  0.00000000E+00  0.00000000E+00
  0.00000000E+00  0.00000000E+00  0.00000000E+00
  0.00000000E+00  0.00000000E+00  0.00000000E+00
  0.00000000E+00  0.00000000E+00  0.00000000E+00
  0.00000000E+00  0.00000000E+00  0.00000000E+00
  0.00000000E+00  0.00000000E+00  0.00000000E+00
  0.00000000E+00  0.00000000E+00  0.00000000E+00
