Title                                   
   1.00000000000000     
     4.9440799999999996    0.0000000000000000    0.0000000000000000
     0.0000000000000000   17.1295089999999988    0.0000000000000000
     0.0000000000000000    0.0000000000000000   20.0000000000000000
    28     3     1
Selective dynamics
Direct
  0.0002914550324285  0.1043576243000556  0.2913833173696730   T   T   T
  0.2503808069347536  0.1464361558139352  0.2940440126443607   T   T   T
  0.2494274379444263  0.2294455472301190  0.3003255607586028   T   T   T
  0.0009280652219996  0.3522572033535085  0.3115391813965195   T   T   T
 -0.0021095122254597  0.2711290310399549  0.3017239725094631   T   T   T
  0.0012503094420905  0.5988360309811264  0.3007396746172570   T   T   T
  0.2549355701573833  0.7264393899347771  0.2948208724314917   T   T   T
  0.0043978408615644  0.8527853472203824  0.2898429316115101   T   T   T
  0.2536714013778672  0.8950348394942933  0.2892822548164896   T   T   T
  0.2523019829449922  0.9786775686654181  0.2888694034513611   T   T   T
  0.0060852843683163  0.7693475155971349  0.2923913742676799   T   T   T
  0.5004882908352640  0.1042599037049780  0.2917099607215169   T   T   T
  0.7494914682231165  0.1465220147820764  0.2928977190791661   T   T   T
  0.7477247336111129  0.2297701878596759  0.2974623112438887   T   T   T
  0.5018793911476113  0.0206805577567949  0.2893405745701174   T   T   T
  0.4928910201736887  0.3544461411633941  0.3135601038868406   T   T   T
  0.7629366716014282  0.4795133406868904  0.3102211204446623   T   T   T
  0.4985702159954229  0.2720651153788874  0.3034745510258838   T   T   T
  0.5118596880587785  0.6037328803653969  0.3078664616418231   T   T   T
  0.7558252733355487  0.7278152365166068  0.2955130328658276   T   T   T
  0.5033244856253309  0.8528107989934609  0.2905176067779477   T   T   T
  0.7532673517216301  0.8948363463330273  0.2892901439998685   T   T   T
  0.7521525515558897  0.9785140635442735  0.2887027924576320   T   T   T
  0.5039112646685491  0.7690278572958388  0.2938253254791873   T   T   T
  0.7555453615733314  0.6453656400055334  0.3016606414778317   T   T   T
  0.2578616737059704  0.6419534098122609  0.2989733936246503   T   T   T
  0.0017476104325837  0.0208517844769880  0.2891089649957828   T   T   T
  0.5334778409278974  0.5222373090938019  0.3288703399014128   T   T   T
  0.9861627298344333  0.5171486547129611  0.2762457891228927   T   T   T
  0.2425421674387380  0.3919382631509037  0.3269080769029429   T   T   T
  0.7498844798594075  0.3950734162754456  0.3115903902754558   T   T   T
  0.1637180876139118  0.5052418244600890  0.3698631436302119   T   T   T
 
  0.00000000E+00  0.00000000E+00  0.00000000E+00
  0.00000000E+00  0.00000000E+00  0.00000000E+00
  0.00000000E+00  0.00000000E+00  0.00000000E+00
  0.00000000E+00  0.00000000E+00  0.00000000E+00
  0.00000000E+00  0.00000000E+00  0.00000000E+00
  0.00000000E+00  0.00000000E+00  0.00000000E+00
  0.00000000E+00  0.00000000E+00  0.00000000E+00
  0.00000000E+00  0.00000000E+00  0.00000000E+00
  0.00000000E+00  0.00000000E+00  0.00000000E+00
  0.00000000E+00  0.00000000E+00  0.00000000E+00
  0.00000000E+00  0.00000000E+00  0.00000000E+00
  0.00000000E+00  0.00000000E+00  0.00000000E+00
  0.00000000E+00  0.00000000E+00  0.00000000E+00
  0.00000000E+00  0.00000000E+00  0.00000000E+00
  0.00000000E+00  0.00000000E+00  0.00000000E+00
  0.00000000E+00  0.00000000E+00  0.00000000E+00
  0.00000000E+00  0.00000000E+00  0.00000000E+00
  0.00000000E+00  0.00000000E+00  0.00000000E+00
  0.00000000E+00  0.00000000E+00  0.00000000E+00
  0.00000000E+00  0.00000000E+00  0.00000000E+00
  0.00000000E+00  0.00000000E+00  0.00000000E+00
  0.00000000E+00  0.00000000E+00  0.00000000E+00
  0.00000000E+00  0.00000000E+00  0.00000000E+00
  0.00000000E+00  0.00000000E+00  0.00000000E+00
  0.00000000E+00  0.00000000E+00  0.00000000E+00
  0.00000000E+00  0.00000000E+00  0.00000000E+00
  0.00000000E+00  0.00000000E+00  0.00000000E+00
  0.00000000E+00  0.00000000E+00  0.00000000E+00
  0.00000000E+00  0.00000000E+00  0.00000000E+00
  0.00000000E+00  0.00000000E+00  0.00000000E+00
  0.00000000E+00  0.00000000E+00  0.00000000E+00
  0.00000000E+00  0.00000000E+00  0.00000000E+00
