Title                                   
   1.00000000000000     
     9.8694509999999998    0.0000000000000000    0.0000000000000000
     0.0000000000000000    8.5490480000000009    0.0000000000000000
     0.0000000000000000    0.0000000000000000   20.0000000000000000
    29     1     1
Selective dynamics
Direct
  0.0565644584838211  0.0891406842731549  0.0863491299269371   T   T   T
  0.9317290649580255  0.1720269549200429  0.0829258839255171   T   T   T
  0.0576873493933798  0.9238845501878173  0.0864714742616271   T   T   T
  0.9339757195900111  0.3387586255946914  0.0811156965953902   T   T   T
  0.0577987686369597  0.5901844162448056  0.0845922918587224   T   T   T
  0.9339531694324573  0.6739159882174235  0.0811790086353137   T   T   T
  0.0579309126748011  0.4230018794091586  0.0847140752307166   T   T   T
  0.9321848032924238  0.8401194706004056  0.0831854471765007   T   T   T
  0.3054940900034745  0.0884770237437733  0.1006171097333160   T   T   T
  0.1812087853676715  0.1711268711359934  0.0930402780002592   T   T   T
  0.1805314347448013  0.3384933276771679  0.0937332925506966   T   T   T
  0.3010281555188915  0.5913202766863597  0.1078807208527919   T   T   T
  0.1812294305989863  0.6743339754822179  0.0932638535063387   T   T   T
  0.3011093735766330  0.4207370248132159  0.1080640747898317   T   T   T
  0.1822525534840856  0.8412408493363387  0.0927274136138388   T   T   T
  0.5563789844719285  0.0890318960399904  0.1019650159198349   T   T   T
  0.4292076575463427  0.1738024794287114  0.1088842639276863   T   T   T
  0.5551441456384129  0.9235655035372490  0.1015310631130164   T   T   T
  0.4236109205531213  0.3382835104122465  0.1185556861615556   T   T   T
  0.4227643997499050  0.6749350541929258  0.1186814675455466   T   T   T
  0.4280957300464218  0.8374312924261429  0.1083258972400762   T   T   T
  0.8060528278062690  0.0894553131353444  0.0855091003166919   T   T   T
  0.6816790174933879  0.1760732520946089  0.0919862726846592   T   T   T
  0.8060436925114773  0.9222855857794826  0.0856067526130224   T   T   T
  0.6858054048516521  0.3415355312347590  0.0902079734112491   T   T   T
  0.8099040218347797  0.5912553012445960  0.0815781845854788   T   T   T
  0.6853392083200724  0.6704440174440973  0.0894336244080112   T   T   T
  0.8101141529890883  0.4211780441293829  0.0816362356981278   T   T   T
  0.6809955489115586  0.8355823741718071  0.0917085614503308   T   T   T
  0.3049655488094685  0.9230995327828383  0.0999546699926879   T   T   T
  0.5623556687096952  0.5061543936232689  0.1255404802742542   T   T   T
 
  0.00000000E+00  0.00000000E+00  0.00000000E+00
  0.00000000E+00  0.00000000E+00  0.00000000E+00
  0.00000000E+00  0.00000000E+00  0.00000000E+00
  0.00000000E+00  0.00000000E+00  0.00000000E+00
  0.00000000E+00  0.00000000E+00  0.00000000E+00
  0.00000000E+00  0.00000000E+00  0.00000000E+00
  0.00000000E+00  0.00000000E+00  0.00000000E+00
  0.00000000E+00  0.00000000E+00  0.00000000E+00
  0.00000000E+00  0.00000000E+00  0.00000000E+00
  0.00000000E+00  0.00000000E+00  0.00000000E+00
  0.00000000E+00  0.00000000E+00  0.00000000E+00
  0.00000000E+00  0.00000000E+00  0.00000000E+00
  0.00000000E+00  0.00000000E+00  0.00000000E+00
  0.00000000E+00  0.00000000E+00  0.00000000E+00
  0.00000000E+00  0.00000000E+00  0.00000000E+00
  0.00000000E+00  0.00000000E+00  0.00000000E+00
  0.00000000E+00  0.00000000E+00  0.00000000E+00
  0.00000000E+00  0.00000000E+00  0.00000000E+00
  0.00000000E+00  0.00000000E+00  0.00000000E+00
  0.00000000E+00  0.00000000E+00  0.00000000E+00
  0.00000000E+00  0.00000000E+00  0.00000000E+00
  0.00000000E+00  0.00000000E+00  0.00000000E+00
  0.00000000E+00  0.00000000E+00  0.00000000E+00
  0.00000000E+00  0.00000000E+00  0.00000000E+00
  0.00000000E+00  0.00000000E+00  0.00000000E+00
  0.00000000E+00  0.00000000E+00  0.00000000E+00
  0.00000000E+00  0.00000000E+00  0.00000000E+00
  0.00000000E+00  0.00000000E+00  0.00000000E+00
  0.00000000E+00  0.00000000E+00  0.00000000E+00
  0.00000000E+00  0.00000000E+00  0.00000000E+00
  0.00000000E+00  0.00000000E+00  0.00000000E+00
