Title                                   
   1.00000000000000     
     4.9440799999999996    0.0000000000000000    0.0000000000000000
     0.0000000000000000    8.5647549999999999    0.0000000000000000
     0.0000000000000000    0.0000000000000000   20.0000000000000000
    11     3     1
Selective dynamics
Direct
  0.0011417584340016  0.2928496434642042  0.0952834687419364   T   T   T
  0.2500000000000000  0.0379580813766461  0.0953962684915787   T   T   T
 -0.0012408304861680  0.9559490729981445  0.0956453115072835   T   T   T
  0.7500000000000000  0.2066626207225037  0.0920174597646537   T   T   T
  0.4988582415659985  0.2928496434642042  0.0952834687419364   T   T   T
  0.7500000000000000  0.0404017330594306  0.0929546120314422   T   T   T
  0.7500000000000000  0.7145927680388470  0.0994403005833636   T   T   T
  0.7500000000000000  0.5413691068382341  0.1005024020819330   T   T   T
  0.5012408304861681  0.9559490729981445  0.0956453115072835   T   T   T
  0.4999898159726139  0.4571378916030517  0.1016111024295561   T   T   T
  0.0000101840273861  0.4571378916030517  0.1016111024295561   T   T   T
 -0.0080743567782226  0.7929044329806684  0.0998999540378382   T   T   T
  0.5080743567782225  0.7929044329806684  0.0998999540378382   T   T   T
  0.2500000000000000  0.2071636712021628  0.0951847122145568   T   T   T
  0.2500000000000000  0.6258509366700390  0.1476045713992470   T   T   T
 
  0.00000000E+00  0.00000000E+00  0.00000000E+00
  0.00000000E+00  0.00000000E+00  0.00000000E+00
  0.00000000E+00  0.00000000E+00  0.00000000E+00
  0.00000000E+00  0.00000000E+00  0.00000000E+00
  0.00000000E+00  0.00000000E+00  0.00000000E+00
  0.00000000E+00  0.00000000E+00  0.00000000E+00
  0.00000000E+00  0.00000000E+00  0.00000000E+00
  0.00000000E+00  0.00000000E+00  0.00000000E+00
  0.00000000E+00  0.00000000E+00  0.00000000E+00
  0.00000000E+00  0.00000000E+00  0.00000000E+00
  0.00000000E+00  0.00000000E+00  0.00000000E+00
  0.00000000E+00  0.00000000E+00  0.00000000E+00
  0.00000000E+00  0.00000000E+00  0.00000000E+00
  0.00000000E+00  0.00000000E+00  0.00000000E+00
  0.00000000E+00  0.00000000E+00  0.00000000E+00
