Title                                   
   1.00000000000000     
     9.8694509999999998    0.0000000000000000    0.0000000000000000
     0.0000000000000000    8.5490480000000009    0.0000000000000000
     0.0000000000000000    0.0000000000000000   20.0000000000000000
    30     1
Selective dynamics
Direct
  0.0562824873459225  0.0889333472798026  0.0845083575131560   T   T   T
  0.9310422045631307  0.1715337754007871  0.0865332105064967   T   T   T
  0.0561521290119126  0.9233750299899698  0.0845156596440072   T   T   T
  0.9327426528046151  0.3383159552279907  0.0849246507001175   T   T   T
  0.0561788751369583  0.5892386402802676  0.0816693929121480   T   T   T
  0.9325188294401561  0.6737005589572114  0.0848286601798694   T   T   T
  0.0562848330417013  0.4230640242736820  0.0816476680750422   T   T   T
  0.9308429085455134  0.8404348732370517  0.0864000804692593   T   T   T
  0.3070201959618613  0.0907221426382389  0.0931182986437357   T   T   T
  0.1816163926979872  0.1718922187986309  0.0864475602312272   T   T   T
  0.3067986412635004  0.9222595591049361  0.0931989275135907   T   T   T
  0.1799490435278594  0.3386286143681853  0.0848829714454851   T   T   T
  0.3008764888966756  0.5906417253716982  0.0932692237804938   T   T   T
  0.1796820455538153  0.6740285798984041  0.0850294004923240   T   T   T
  0.3011387356296990  0.4223806454678438  0.0929334015294035   T   T   T
  0.1813773393509732  0.8408210121042285  0.0865992609246228   T   T   T
  0.5563850544734921  0.0896492781314179  0.1035720039152681   T   T   T
  0.4314413762330941  0.1773528381460623  0.1010545908523300   T   T   T
  0.5560866903305183  0.9226752552847663  0.1035457280933012   T   T   T
  0.4242216944795547  0.3439036325299069  0.1061428524223592   T   T   T
  0.4235167241241518  0.6693177551324814  0.1073078459279078   T   T   T
  0.4308338882043272  0.8355824882622589  0.1013960840391921   T   T   T
  0.8056400002221146  0.0900692186124887  0.0931353784931099   T   T   T
  0.6816217152321851  0.1767174277815578  0.1013818455233418   T   T   T
  0.8054479716022700  0.9216014978203413  0.0930284462823741   T   T   T
  0.6889946041472275  0.3429513065621777  0.1072606561760639   T   T   T
  0.8113300570829362  0.5899102715956612  0.0928166280500880   T   T   T
  0.6882470729008681  0.6683647552829919  0.1060287978317804   T   T   T
  0.8115521071545306  0.4216630830045127  0.0931552573246115   T   T   T
  0.6810357381183536  0.8349389859634642  0.1009596657660141   T   T   T
  0.5562765029221065  0.5062065034909946  0.1396724947413196   T   T   T
 
  0.00000000E+00  0.00000000E+00  0.00000000E+00
  0.00000000E+00  0.00000000E+00  0.00000000E+00
  0.00000000E+00  0.00000000E+00  0.00000000E+00
  0.00000000E+00  0.00000000E+00  0.00000000E+00
  0.00000000E+00  0.00000000E+00  0.00000000E+00
  0.00000000E+00  0.00000000E+00  0.00000000E+00
  0.00000000E+00  0.00000000E+00  0.00000000E+00
  0.00000000E+00  0.00000000E+00  0.00000000E+00
  0.00000000E+00  0.00000000E+00  0.00000000E+00
  0.00000000E+00  0.00000000E+00  0.00000000E+00
  0.00000000E+00  0.00000000E+00  0.00000000E+00
  0.00000000E+00  0.00000000E+00  0.00000000E+00
  0.00000000E+00  0.00000000E+00  0.00000000E+00
  0.00000000E+00  0.00000000E+00  0.00000000E+00
  0.00000000E+00  0.00000000E+00  0.00000000E+00
  0.00000000E+00  0.00000000E+00  0.00000000E+00
  0.00000000E+00  0.00000000E+00  0.00000000E+00
  0.00000000E+00  0.00000000E+00  0.00000000E+00
  0.00000000E+00  0.00000000E+00  0.00000000E+00
  0.00000000E+00  0.00000000E+00  0.00000000E+00
  0.00000000E+00  0.00000000E+00  0.00000000E+00
  0.00000000E+00  0.00000000E+00  0.00000000E+00
  0.00000000E+00  0.00000000E+00  0.00000000E+00
  0.00000000E+00  0.00000000E+00  0.00000000E+00
  0.00000000E+00  0.00000000E+00  0.00000000E+00
  0.00000000E+00  0.00000000E+00  0.00000000E+00
  0.00000000E+00  0.00000000E+00  0.00000000E+00
  0.00000000E+00  0.00000000E+00  0.00000000E+00
  0.00000000E+00  0.00000000E+00  0.00000000E+00
  0.00000000E+00  0.00000000E+00  0.00000000E+00
  0.00000000E+00  0.00000000E+00  0.00000000E+00
