Title                                   
   1.00000000000000     
     9.8694509999999998    0.0000000000000000    0.0000000000000000
     0.0000000000000000    8.5490480000000009    0.0000000000000000
     0.0000000000000000    0.0000000000000000   20.0000000000000000
    29     2     1
Selective dynamics
Direct
  0.0566880813649730  0.0907199752641098  0.0839610673596173   T   T   T
  0.9312555979896145  0.1728659648747727  0.0870674003181738   T   T   T
  0.0557914126867916  0.9236331675697774  0.0836706968820862   T   T   T
  0.9313273766273261  0.3399112378920788  0.0914520373136759   T   T   T
  0.0566449035610117  0.5893169626142315  0.0877618223581596   T   T   T
  0.9318346192904334  0.6722869026583698  0.0905793374774822   T   T   T
  0.0571724183418161  0.4232310713674250  0.0891779866455962   T   T   T
  0.9308112990379311  0.8389543538961231  0.0869040990339556   T   T   T
  0.3059076958000245  0.0901394247785360  0.0865630683463072   T   T   T
  0.1821091278123297  0.1745176031329570  0.0859461018215240   T   T   T
  0.3057827989099949  0.9244292999548531  0.0866580840232242   T   T   T
  0.1833758386671490  0.3421126865738183  0.0897354779762109   T   T   T
  0.3051191185705066  0.5944138935042322  0.0981127473684508   T   T   T
  0.1807686544424051  0.6738288691238986  0.0882449416863238   T   T   T
  0.3088575489012916  0.4256090262730853  0.0975021037337453   T   T   T
  0.1806523673786526  0.8404319247803315  0.0854855821136094   T   T   T
  0.5558895920095168  0.0853433945732688  0.0952503132409230   T   T   T
  0.4317069157313354  0.1697999070366625  0.0930699623090028   T   T   T
  0.4332312848039794  0.3358903013154812  0.1019790582108043   T   T   T
  0.5578061274423209  0.4082645347149921  0.1171761704561303   T   T   T
  0.4279113442828330  0.8401983042383813  0.0969393842488584   T   T   T
  0.8073218355841353  0.0880469060979610  0.0884043653372447   T   T   T
  0.6817385521925364  0.1677310353789964  0.0950881170314859   T   T   T
  0.8053286204122281  0.9222639846005631  0.0886442350219079   T   T   T
  0.6824613620462291  0.3333240142727646  0.1046497578128965   T   T   T
  0.8088259534656177  0.5905128008512452  0.1032250643960534   T   T   T
  0.6896131017487709  0.6793915482912282  0.1173656770873073   T   T   T
  0.8072465844240101  0.4216311069452418  0.1013400321853666   T   T   T
  0.6822783655515311  0.8380998377392976  0.0998240222705737   T   T   T
  0.4207411547273081  0.6843667479709065  0.1115685865397802   T   T   T
  0.5545648561131699  0.9191086142356646  0.0979043532005773   T   T   T
  0.5488744900822318  0.5898705974787323  0.1724233461929905   T   T   T
 
  0.00000000E+00  0.00000000E+00  0.00000000E+00
  0.00000000E+00  0.00000000E+00  0.00000000E+00
  0.00000000E+00  0.00000000E+00  0.00000000E+00
  0.00000000E+00  0.00000000E+00  0.00000000E+00
  0.00000000E+00  0.00000000E+00  0.00000000E+00
  0.00000000E+00  0.00000000E+00  0.00000000E+00
  0.00000000E+00  0.00000000E+00  0.00000000E+00
  0.00000000E+00  0.00000000E+00  0.00000000E+00
  0.00000000E+00  0.00000000E+00  0.00000000E+00
  0.00000000E+00  0.00000000E+00  0.00000000E+00
  0.00000000E+00  0.00000000E+00  0.00000000E+00
  0.00000000E+00  0.00000000E+00  0.00000000E+00
  0.00000000E+00  0.00000000E+00  0.00000000E+00
  0.00000000E+00  0.00000000E+00  0.00000000E+00
  0.00000000E+00  0.00000000E+00  0.00000000E+00
  0.00000000E+00  0.00000000E+00  0.00000000E+00
  0.00000000E+00  0.00000000E+00  0.00000000E+00
  0.00000000E+00  0.00000000E+00  0.00000000E+00
  0.00000000E+00  0.00000000E+00  0.00000000E+00
  0.00000000E+00  0.00000000E+00  0.00000000E+00
  0.00000000E+00  0.00000000E+00  0.00000000E+00
  0.00000000E+00  0.00000000E+00  0.00000000E+00
  0.00000000E+00  0.00000000E+00  0.00000000E+00
  0.00000000E+00  0.00000000E+00  0.00000000E+00
  0.00000000E+00  0.00000000E+00  0.00000000E+00
  0.00000000E+00  0.00000000E+00  0.00000000E+00
  0.00000000E+00  0.00000000E+00  0.00000000E+00
  0.00000000E+00  0.00000000E+00  0.00000000E+00
  0.00000000E+00  0.00000000E+00  0.00000000E+00
  0.00000000E+00  0.00000000E+00  0.00000000E+00
  0.00000000E+00  0.00000000E+00  0.00000000E+00
  0.00000000E+00  0.00000000E+00  0.00000000E+00
