Title                                   
   1.00000000000000     
     9.8694509999999998    0.0000000000000000    0.0000000000000000
     0.0000000000000000    8.5490480000000009    0.0000000000000000
     0.0000000000000000    0.0000000000000000   20.0000000000000000
    29     2     1
Selective dynamics
Direct
  0.0563259225077174  0.0912633687310086  0.0777494301322943   T   T   T
  0.9310933957883920  0.1738270347462720  0.0802600210588821   T   T   T
  0.0574891760295673  0.9241404779446171  0.0763074450667984   T   T   T
  0.9299820687902628  0.3412131367374148  0.0864670307482711   T   T   T
  0.0572933817448495  0.5903571656299665  0.0809570938262551   T   T   T
  0.9328150068443952  0.6730388860899856  0.0830801587439359   T   T   T
  0.0573204093790205  0.4234901831881794  0.0839364323911849   T   T   T
  0.9323580697203002  0.8398130916288621  0.0788849226737548   T   T   T
  0.3055791005124589  0.0885033419756424  0.0846971430559174   T   T   T
  0.1827911437083955  0.1731758466088322  0.0823732832796748   T   T   T
  0.1833267257674080  0.3411069531738572  0.0876968092869532   T   T   T
  0.3014239481897849  0.5919592280197192  0.1052058951769528   T   T   T
  0.1825270649856550  0.6738285604887287  0.0845581338581865   T   T   T
  0.3062992663025618  0.4216504843602847  0.1026910134362252   T   T   T
  0.1822008220455441  0.8414824254002153  0.0807175536122555   T   T   T
  0.5547217851452568  0.0844940415967430  0.0928449223149458   T   T   T
  0.5545081443263149  0.9222516684292441  0.1028435395004840   T   T   T
  0.4314137350876925  0.3294273198818545  0.1099027086182696   T   T   T
  0.4232176101503585  0.8422209015277107  0.1081569332465319   T   T   T
  0.8060024950164016  0.0890469441012929  0.0809492548450091   T   T   T
  0.6805657780819476  0.1702083688109624  0.0890924477100228   T   T   T
  0.8068393274300695  0.9234065799978727  0.0830059924435836   T   T   T
  0.6811020763888569  0.3314688352337608  0.1058205236496770   T   T   T
  0.8115348665934426  0.5931829058006927  0.1025472849559101   T   T   T
  0.8067705724252213  0.4222176330782704  0.1003989028345313   T   T   T
  0.6860585339658642  0.8418253657392805  0.1026316965336195   T   T   T
  0.4072970707609290  0.6892775473420707  0.1293627604881813   T   T   T
  0.5556357255608024  0.3922140134063700  0.1289180560515613   T   T   T
  0.7027539813183821  0.6865157238632791  0.1247380211428041   T   T   T
  0.3057246574023480  0.9256739678632161  0.0858110399866091   T   T   T
  0.4291960945420635  0.1668187606367349  0.0919585376965411   T   T   T
  0.5574710434877409  0.5911452379670609  0.1711100116341925   T   T   T
 
  0.00000000E+00  0.00000000E+00  0.00000000E+00
  0.00000000E+00  0.00000000E+00  0.00000000E+00
  0.00000000E+00  0.00000000E+00  0.00000000E+00
  0.00000000E+00  0.00000000E+00  0.00000000E+00
  0.00000000E+00  0.00000000E+00  0.00000000E+00
  0.00000000E+00  0.00000000E+00  0.00000000E+00
  0.00000000E+00  0.00000000E+00  0.00000000E+00
  0.00000000E+00  0.00000000E+00  0.00000000E+00
  0.00000000E+00  0.00000000E+00  0.00000000E+00
  0.00000000E+00  0.00000000E+00  0.00000000E+00
  0.00000000E+00  0.00000000E+00  0.00000000E+00
  0.00000000E+00  0.00000000E+00  0.00000000E+00
  0.00000000E+00  0.00000000E+00  0.00000000E+00
  0.00000000E+00  0.00000000E+00  0.00000000E+00
  0.00000000E+00  0.00000000E+00  0.00000000E+00
  0.00000000E+00  0.00000000E+00  0.00000000E+00
  0.00000000E+00  0.00000000E+00  0.00000000E+00
  0.00000000E+00  0.00000000E+00  0.00000000E+00
  0.00000000E+00  0.00000000E+00  0.00000000E+00
  0.00000000E+00  0.00000000E+00  0.00000000E+00
  0.00000000E+00  0.00000000E+00  0.00000000E+00
  0.00000000E+00  0.00000000E+00  0.00000000E+00
  0.00000000E+00  0.00000000E+00  0.00000000E+00
  0.00000000E+00  0.00000000E+00  0.00000000E+00
  0.00000000E+00  0.00000000E+00  0.00000000E+00
  0.00000000E+00  0.00000000E+00  0.00000000E+00
  0.00000000E+00  0.00000000E+00  0.00000000E+00
  0.00000000E+00  0.00000000E+00  0.00000000E+00
  0.00000000E+00  0.00000000E+00  0.00000000E+00
  0.00000000E+00  0.00000000E+00  0.00000000E+00
  0.00000000E+00  0.00000000E+00  0.00000000E+00
  0.00000000E+00  0.00000000E+00  0.00000000E+00
