Title                                   
   1.00000000000000     
     4.9440799999999996    0.0000000000000000    0.0000000000000000
     0.0000000000000000   17.1295089999999988    0.0000000000000000
     0.0000000000000000    0.0000000000000000   20.0000000000000000
    29     1     1
Selective dynamics
Direct
 -0.0027649577831024  0.1053618720286741  0.2979886934066058   T   T   T
  0.2462294214056903  0.1480140885150216  0.2982746513428281   T   T   T
  0.2452686858375530  0.2315187402885383  0.2995051896074211   T   T   T
 -0.0055539216652341  0.2739377165115078  0.3016779511237428   T   T   T
  0.0041216375752085  0.6020301920485324  0.2999184894426254   T   T   T
  0.2522517740866587  0.7276958544388061  0.2985151099223468   T   T   T
  0.0001923305944001  0.8536595171453329  0.2971837207369152   T   T   T
  0.2500643887151194  0.8958078498721990  0.2970462782874020   T   T   T
  0.2488428414779450  0.9795023392479214  0.2969438145734017   T   T   T
  0.0012583053820749  0.7698630758509222  0.2978052732785352   T   T   T
  0.4973242443285665  0.1056217722284718  0.2974985285609728   T   T   T
  0.7475564448663202  0.1472858940577857  0.2981894627640411   T   T   T
  0.7459505983592362  0.2311460059947842  0.2994296668238795   T   T   T
  0.4984783340530787  0.0217961156356360  0.2969763781725413   T   T   T
  0.7539249115322032  0.3932091151730707  0.3015417365337293   T   T   T
  0.7581330704122734  0.4787460628854426  0.3018940560172972   T   T   T
  0.4957126285705927  0.2734984405974061  0.2986825446834836   T   T   T
  0.5031840812013003  0.6011265285683557  0.3019376776018943   T   T   T
  0.7518967622570653  0.7278220213477570  0.2985371640258538   T   T   T
  0.5007401494318281  0.8536975586489416  0.2973100896146715   T   T   T
  0.7500984197527828  0.8957742353176046  0.2970072375734699   T   T   T
  0.7488169688436781  0.9796771764391723  0.2968868661079700   T   T   T
  0.5021422004666546  0.7699520781336513  0.2981579728806142   T   T   T
  0.7528263872134354  0.6438764581666059  0.3001137614702563   T   T   T
  0.2535353844565449  0.6443847677555373  0.2999583026491261   T   T   T
 -0.0015470658681159  0.0216210550998210  0.2971765780384157   T   T   T
  0.5073887119487132  0.5180929866012061  0.3050584144097550   T   T   T
  0.0026791122039733  0.5194404205190338  0.3004687954177619   T   T   T
  0.5057902238851557  0.3558160064711766  0.2982928038298876   T   T   T
 -0.0084261346695017  0.3542050655724442  0.3053767901513281   T   T   T
  0.2538910611279037  0.4371609888386363  0.3097060009511785   T   T   T
 
  0.00000000E+00  0.00000000E+00  0.00000000E+00
  0.00000000E+00  0.00000000E+00  0.00000000E+00
  0.00000000E+00  0.00000000E+00  0.00000000E+00
  0.00000000E+00  0.00000000E+00  0.00000000E+00
  0.00000000E+00  0.00000000E+00  0.00000000E+00
  0.00000000E+00  0.00000000E+00  0.00000000E+00
  0.00000000E+00  0.00000000E+00  0.00000000E+00
  0.00000000E+00  0.00000000E+00  0.00000000E+00
  0.00000000E+00  0.00000000E+00  0.00000000E+00
  0.00000000E+00  0.00000000E+00  0.00000000E+00
  0.00000000E+00  0.00000000E+00  0.00000000E+00
  0.00000000E+00  0.00000000E+00  0.00000000E+00
  0.00000000E+00  0.00000000E+00  0.00000000E+00
  0.00000000E+00  0.00000000E+00  0.00000000E+00
  0.00000000E+00  0.00000000E+00  0.00000000E+00
  0.00000000E+00  0.00000000E+00  0.00000000E+00
  0.00000000E+00  0.00000000E+00  0.00000000E+00
  0.00000000E+00  0.00000000E+00  0.00000000E+00
  0.00000000E+00  0.00000000E+00  0.00000000E+00
  0.00000000E+00  0.00000000E+00  0.00000000E+00
  0.00000000E+00  0.00000000E+00  0.00000000E+00
  0.00000000E+00  0.00000000E+00  0.00000000E+00
  0.00000000E+00  0.00000000E+00  0.00000000E+00
  0.00000000E+00  0.00000000E+00  0.00000000E+00
  0.00000000E+00  0.00000000E+00  0.00000000E+00
  0.00000000E+00  0.00000000E+00  0.00000000E+00
  0.00000000E+00  0.00000000E+00  0.00000000E+00
  0.00000000E+00  0.00000000E+00  0.00000000E+00
  0.00000000E+00  0.00000000E+00  0.00000000E+00
  0.00000000E+00  0.00000000E+00  0.00000000E+00
  0.00000000E+00  0.00000000E+00  0.00000000E+00
