Title                                   
   1.00000000000000     
     9.8694509999999998    0.0000000000000000    0.0000000000000000
     0.0000000000000000    8.5490480000000009    0.0000000000000000
     0.0000000000000000    0.0000000000000000   20.0000000000000000
    31     1
Selective dynamics
Direct
  0.0562432830561653  0.0903645542390573  0.0806048814549323   T   T   T
  0.9313469217449446  0.1732840091224767  0.0832749393483970   T   T   T
  0.0562449500183923  0.9233226260989394  0.0807828949855598   T   T   T
  0.9306283743358641  0.3401500269479033  0.0870429402654554   T   T   T
  0.0562162997274966  0.5889068201062804  0.0839606838932027   T   T   T
  0.9323581433264178  0.6728735625780242  0.0868479667458030   T   T   T
  0.0562151468697439  0.4229381399316831  0.0850362163644700   T   T   T
  0.9317793668517865  0.8397860578959814  0.0844322663685175   T   T   T
  0.3053374378401789  0.0896484032896313  0.0858326956151689   T   T   T
  0.1811474564266776  0.1732462090784861  0.0832081156214788   T   T   T
  0.3051503919000625  0.9235721902230840  0.0879827841927202   T   T   T
  0.1818094589504222  0.3401131740338399  0.0869221685705308   T   T   T
  0.3026752899044783  0.5904442603053195  0.0997103742676728   T   T   T
  0.1800947833277726  0.6728537513142020  0.0867152513486066   T   T   T
  0.3053104115452650  0.4221081855548276  0.0970694457430365   T   T   T
  0.1807347245777400  0.8397550193625034  0.0843413274165275   T   T   T
  0.5562644184096527  0.0870486159862186  0.0942288184691242   T   T   T
  0.4302175403447674  0.1707326303493896  0.0921375654399043   T   T   T
  0.5562745345628777  0.9227243261267060  0.0998617439756588   T   T   T
  0.4300196253868855  0.3353404807976328  0.1017437555878088   T   T   T
  0.4158362960931832  0.6819080293237120  0.1167230536720266   T   T   T
  0.5561233056731001  0.4016907243079407  0.1192562417134115   T   T   T
  0.4281097051779569  0.8414246484049380  0.1012337852497648   T   T   T
  0.8071684494276387  0.0896807552411598  0.0859126687120579   T   T   T
  0.6822952690511678  0.1707969012049513  0.0922185359838533   T   T   T
  0.8073673437950381  0.9236121345706201  0.0880826830917255   T   T   T
  0.6824102233888595  0.3354068270006102  0.1018867845322020   T   T   T
  0.8098453004853003  0.5905396694104590  0.1000299745212781   T   T   T
  0.6967670929529133  0.6821243079088358  0.1172001221783273   T   T   T
  0.8071391228765000  0.4221828275403396  0.0973185291343769   T   T   T
  0.6844680529209876  0.8414781251498737  0.1014073218705515   T   T   T
  0.5560402790497705  0.5901880065943831  0.1726684636658832   T   T   T
 
  0.00000000E+00  0.00000000E+00  0.00000000E+00
  0.00000000E+00  0.00000000E+00  0.00000000E+00
  0.00000000E+00  0.00000000E+00  0.00000000E+00
  0.00000000E+00  0.00000000E+00  0.00000000E+00
  0.00000000E+00  0.00000000E+00  0.00000000E+00
  0.00000000E+00  0.00000000E+00  0.00000000E+00
  0.00000000E+00  0.00000000E+00  0.00000000E+00
  0.00000000E+00  0.00000000E+00  0.00000000E+00
  0.00000000E+00  0.00000000E+00  0.00000000E+00
  0.00000000E+00  0.00000000E+00  0.00000000E+00
  0.00000000E+00  0.00000000E+00  0.00000000E+00
  0.00000000E+00  0.00000000E+00  0.00000000E+00
  0.00000000E+00  0.00000000E+00  0.00000000E+00
  0.00000000E+00  0.00000000E+00  0.00000000E+00
  0.00000000E+00  0.00000000E+00  0.00000000E+00
  0.00000000E+00  0.00000000E+00  0.00000000E+00
  0.00000000E+00  0.00000000E+00  0.00000000E+00
  0.00000000E+00  0.00000000E+00  0.00000000E+00
  0.00000000E+00  0.00000000E+00  0.00000000E+00
  0.00000000E+00  0.00000000E+00  0.00000000E+00
  0.00000000E+00  0.00000000E+00  0.00000000E+00
  0.00000000E+00  0.00000000E+00  0.00000000E+00
  0.00000000E+00  0.00000000E+00  0.00000000E+00
  0.00000000E+00  0.00000000E+00  0.00000000E+00
  0.00000000E+00  0.00000000E+00  0.00000000E+00
  0.00000000E+00  0.00000000E+00  0.00000000E+00
  0.00000000E+00  0.00000000E+00  0.00000000E+00
  0.00000000E+00  0.00000000E+00  0.00000000E+00
  0.00000000E+00  0.00000000E+00  0.00000000E+00
  0.00000000E+00  0.00000000E+00  0.00000000E+00
  0.00000000E+00  0.00000000E+00  0.00000000E+00
  0.00000000E+00  0.00000000E+00  0.00000000E+00
