Title                                   
   1.00000000000000     
     9.8694509999999998    0.0000000000000000    0.0000000000000000
     0.0000000000000000    8.5490480000000009    0.0000000000000000
     0.0000000000000000    0.0000000000000000   20.0000000000000000
    26     4     1
Selective dynamics
Direct
  0.0555493777210477  0.0882272891184813  0.0879596738059813   T   T   T
  0.9312208048834392  0.1722117107952325  0.0918783104533359   T   T   T
  0.0574543089860322  0.9208913357465571  0.0883873631752888   T   T   T
  0.9330583602895165  0.3396938432517137  0.0942071368283897   T   T   T
  0.0567752568996377  0.5905991140983723  0.0897210537814517   T   T   T
  0.0565415102979066  0.4237135707388638  0.0891972728565876   T   T   T
  0.9325276694661812  0.8384012409591405  0.0931749891316457   T   T   T
  0.3074798767465847  0.0878303431726565  0.0861410739685961   T   T   T
  0.1809482102454266  0.1710151884167277  0.0859049470541991   T   T   T
  0.1800654696534667  0.3375285654865021  0.0859536541779437   T   T   T
  0.3065520770486042  0.5868348805669669  0.0841305261429966   T   T   T
  0.1810751878795668  0.6728311202542833  0.0861473054251937   T   T   T
  0.3049249043250122  0.4181775754808993  0.0850920118166362   T   T   T
  0.1834312301635813  0.8390166255226028  0.0859127554994423   T   T   T
  0.4302333198123686  0.1731186928608683  0.0896363526090707   T   T   T
  0.5559849427338306  0.9249820810377052  0.0978556341268136   T   T   T
  0.4295841703514351  0.6747964015128798  0.0869688389265842   T   T   T
  0.4318515521035059  0.8387893571340631  0.0894100670770571   T   T   T
  0.8055874099824253  0.0894187673939149  0.0947386193469126   T   T   T
  0.6814003511317845  0.1784317094699243  0.1006278822353543   T   T   T
  0.8068073195416856  0.9218574190914671  0.0961783149418825   T   T   T
  0.6859458163813859  0.3419559200283991  0.1109974340653804   T   T   T
  0.8114546723830754  0.5930443462706232  0.1062596124768456   T   T   T
  0.6887447003135463  0.6735352435476541  0.1152769710561882   T   T   T
  0.8117001161967730  0.4220534920570895  0.1045918351224073   T   T   T
  0.6809391171729012  0.8396660502978486  0.1036940508663562   T   T   T
  0.9338096780099285  0.6725422610437974  0.0949778203709802   T   T   T
  0.5561637973570203  0.0943358503260118  0.0961082007701127   T   T   T
  0.4266234158714057  0.3344320911703338  0.0890986441251365   T   T   T
  0.3063272471485817  0.9225802510078266  0.0851107963780670   T   T   T
  0.5323731289023607  0.5083626621406127  0.1456258513872107   T   T   T
 
  0.00000000E+00  0.00000000E+00  0.00000000E+00
  0.00000000E+00  0.00000000E+00  0.00000000E+00
  0.00000000E+00  0.00000000E+00  0.00000000E+00
  0.00000000E+00  0.00000000E+00  0.00000000E+00
  0.00000000E+00  0.00000000E+00  0.00000000E+00
  0.00000000E+00  0.00000000E+00  0.00000000E+00
  0.00000000E+00  0.00000000E+00  0.00000000E+00
  0.00000000E+00  0.00000000E+00  0.00000000E+00
  0.00000000E+00  0.00000000E+00  0.00000000E+00
  0.00000000E+00  0.00000000E+00  0.00000000E+00
  0.00000000E+00  0.00000000E+00  0.00000000E+00
  0.00000000E+00  0.00000000E+00  0.00000000E+00
  0.00000000E+00  0.00000000E+00  0.00000000E+00
  0.00000000E+00  0.00000000E+00  0.00000000E+00
  0.00000000E+00  0.00000000E+00  0.00000000E+00
  0.00000000E+00  0.00000000E+00  0.00000000E+00
  0.00000000E+00  0.00000000E+00  0.00000000E+00
  0.00000000E+00  0.00000000E+00  0.00000000E+00
  0.00000000E+00  0.00000000E+00  0.00000000E+00
  0.00000000E+00  0.00000000E+00  0.00000000E+00
  0.00000000E+00  0.00000000E+00  0.00000000E+00
  0.00000000E+00  0.00000000E+00  0.00000000E+00
  0.00000000E+00  0.00000000E+00  0.00000000E+00
  0.00000000E+00  0.00000000E+00  0.00000000E+00
  0.00000000E+00  0.00000000E+00  0.00000000E+00
  0.00000000E+00  0.00000000E+00  0.00000000E+00
  0.00000000E+00  0.00000000E+00  0.00000000E+00
  0.00000000E+00  0.00000000E+00  0.00000000E+00
  0.00000000E+00  0.00000000E+00  0.00000000E+00
  0.00000000E+00  0.00000000E+00  0.00000000E+00
  0.00000000E+00  0.00000000E+00  0.00000000E+00
