Title                                   
   1.00000000000000     
     8.5490480000000009    0.0000000000000000    0.0000000000000000
     0.0000000000000000    8.5490480000000009    0.0000000000000000
     0.0000000000000000    0.0000000000000000   20.0000000000000000
    19     5     1
Selective dynamics
Direct
  0.9079142565160701  0.2052199490030749  0.0976206174944288   T   T   T
  0.9082565373406891  0.5025641323052339  0.0977036359571601   T   T   T
  0.9101299415713389  0.8017274028358344  0.0975894432441535   T   T   T
  0.1963013727162148  0.0834943723344550  0.0977229619015249   T   T   T
  0.0756805717254890  0.2019217289215459  0.0976405470690670   T   T   T
  0.1578946737842664  0.6518531466695742  0.0976711130897357   T   T   T
  0.0791489084236820  0.5010694341917297  0.0976864222444737   T   T   T
  0.1579244671771071  0.3509911557635299  0.0977508078848457   T   T   T
  0.0783539094105764  0.7986307517499670  0.0976119391742462   T   T   T
  0.4927766321552093  0.0874743461527005  0.0978194133837284   T   T   T
  0.3433834276712346  0.1645299349592622  0.0978663497683904   T   T   T
  0.4923743177546573  0.9168366272147221  0.0977402913771489   T   T   T
  0.3433951288981738  0.8369333137246630  0.0977350290137833   T   T   T
  0.7877119072857479  0.0864544949074149  0.0976459148044592   T   T   T
  0.6406682579371520  0.1674092225880076  0.0978205977601279   T   T   T
  0.7886552340802088  0.9193350737075616  0.0976183260655623   T   T   T
  0.8302003853650045  0.6521689989741033  0.0976909167547655   T   T   T
  0.8282773034434037  0.3533557291957060  0.0977596788167903   T   T   T
  0.6412593743310677  0.8365955256876111  0.0977185823810638   T   T   T
  0.3195800817736468  0.3264697977845609  0.0979836876898861   T   T   T
  0.3197282748800922  0.6781153763889407  0.0977994431101369   T   T   T
  0.6655705101788608  0.3299462174866986  0.0979559681548949   T   T   T
  0.6674141047619766  0.6748402239155178  0.0978397181364985   T   T   T
  0.1977074180726005  0.9162597268833548  0.0977149905826921   T   T   T
  0.4951050027455237  0.5005933166542295  0.0979986041404159   T   T   T
 
  0.00000000E+00  0.00000000E+00  0.00000000E+00
  0.00000000E+00  0.00000000E+00  0.00000000E+00
  0.00000000E+00  0.00000000E+00  0.00000000E+00
  0.00000000E+00  0.00000000E+00  0.00000000E+00
  0.00000000E+00  0.00000000E+00  0.00000000E+00
  0.00000000E+00  0.00000000E+00  0.00000000E+00
  0.00000000E+00  0.00000000E+00  0.00000000E+00
  0.00000000E+00  0.00000000E+00  0.00000000E+00
  0.00000000E+00  0.00000000E+00  0.00000000E+00
  0.00000000E+00  0.00000000E+00  0.00000000E+00
  0.00000000E+00  0.00000000E+00  0.00000000E+00
  0.00000000E+00  0.00000000E+00  0.00000000E+00
  0.00000000E+00  0.00000000E+00  0.00000000E+00
  0.00000000E+00  0.00000000E+00  0.00000000E+00
  0.00000000E+00  0.00000000E+00  0.00000000E+00
  0.00000000E+00  0.00000000E+00  0.00000000E+00
  0.00000000E+00  0.00000000E+00  0.00000000E+00
  0.00000000E+00  0.00000000E+00  0.00000000E+00
  0.00000000E+00  0.00000000E+00  0.00000000E+00
  0.00000000E+00  0.00000000E+00  0.00000000E+00
  0.00000000E+00  0.00000000E+00  0.00000000E+00
  0.00000000E+00  0.00000000E+00  0.00000000E+00
  0.00000000E+00  0.00000000E+00  0.00000000E+00
  0.00000000E+00  0.00000000E+00  0.00000000E+00
  0.00000000E+00  0.00000000E+00  0.00000000E+00
