Title                                   
   1.00000000000000     
     9.8694509999999998    0.0000000000000000    0.0000000000000000
     0.0000000000000000    8.5490480000000009    0.0000000000000000
     0.0000000000000000    0.0000000000000000   20.0000000000000000
    26     4     1
Selective dynamics
Direct
  0.0547294436527966  0.0872415220641019  0.0835334820942017   T   T   T
  0.9309025695842198  0.1709093793069765  0.0848697351690122   T   T   T
  0.0568057071360143  0.9218049989713583  0.0849577247062514   T   T   T
  0.9346144170684285  0.3384920055134333  0.0843333106501954   T   T   T
  0.0563100440602496  0.5907167866161999  0.0827163497014237   T   T   T
  0.0569192830537677  0.4245044686534211  0.0806825839530897   T   T   T
  0.9319436491475415  0.8384043563919533  0.0876610877397206   T   T   T
  0.3047503649881552  0.0882558128263095  0.0924191852008839   T   T   T
  0.1808722060528220  0.1697651344843435  0.0856664535831906   T   T   T
  0.1796056680340893  0.3381490925030894  0.0845885360719963   T   T   T
  0.3003589865678093  0.5888152442264917  0.0960897936302545   T   T   T
  0.1794720902285787  0.6741217092846435  0.0866937734646867   T   T   T
  0.2996583967855212  0.4179020756025627  0.0952871553677973   T   T   T
  0.1822408453850645  0.8403546010397333  0.0875135818355230   T   T   T
  0.4283519710723766  0.1760285403996125  0.1010856172074601   T   T   T
  0.5542164011819795  0.9240805795657827  0.1043051548078110   T   T   T
  0.4203168524812014  0.6734982924617604  0.1085924364619426   T   T   T
  0.4279165127426435  0.8390998237228123  0.1030445720733135   T   T   T
  0.8054781263144979  0.0885193650212274  0.0915863609446478   T   T   T
  0.6829972911031821  0.1780083036754393  0.1004114231811617   T   T   T
  0.8064423318342273  0.9207644992295052  0.0933262913685083   T   T   T
  0.6927158207563514  0.3413390446643597  0.1070872807995501   T   T   T
  0.8154104708977202  0.5927706773963299  0.0977442368116070   T   T   T
  0.6929265227124585  0.6713765238414596  0.1092347906005795   T   T   T
  0.8166822338497042  0.4208304031950368  0.0957556034664098   T   T   T
  0.6807606547033906  0.8387429707260594  0.1031190789128804   T   T   T
  0.9349448876216311  0.6737417819946051  0.0873893828922655   T   T   T
  0.5543726566361326  0.0954128586058721  0.1028808643765125   T   T   T
  0.4179696652349771  0.3348628020326074  0.1067992340777066   T   T   T
  0.3048237414303449  0.9227850885433230  0.0931559123084894   T   T   T
  0.5576251876821398  0.5095762574396079  0.1184340065409753   T   T   T
 
  0.00000000E+00  0.00000000E+00  0.00000000E+00
  0.00000000E+00  0.00000000E+00  0.00000000E+00
  0.00000000E+00  0.00000000E+00  0.00000000E+00
  0.00000000E+00  0.00000000E+00  0.00000000E+00
  0.00000000E+00  0.00000000E+00  0.00000000E+00
  0.00000000E+00  0.00000000E+00  0.00000000E+00
  0.00000000E+00  0.00000000E+00  0.00000000E+00
  0.00000000E+00  0.00000000E+00  0.00000000E+00
  0.00000000E+00  0.00000000E+00  0.00000000E+00
  0.00000000E+00  0.00000000E+00  0.00000000E+00
  0.00000000E+00  0.00000000E+00  0.00000000E+00
  0.00000000E+00  0.00000000E+00  0.00000000E+00
  0.00000000E+00  0.00000000E+00  0.00000000E+00
  0.00000000E+00  0.00000000E+00  0.00000000E+00
  0.00000000E+00  0.00000000E+00  0.00000000E+00
  0.00000000E+00  0.00000000E+00  0.00000000E+00
  0.00000000E+00  0.00000000E+00  0.00000000E+00
  0.00000000E+00  0.00000000E+00  0.00000000E+00
  0.00000000E+00  0.00000000E+00  0.00000000E+00
  0.00000000E+00  0.00000000E+00  0.00000000E+00
  0.00000000E+00  0.00000000E+00  0.00000000E+00
  0.00000000E+00  0.00000000E+00  0.00000000E+00
  0.00000000E+00  0.00000000E+00  0.00000000E+00
  0.00000000E+00  0.00000000E+00  0.00000000E+00
  0.00000000E+00  0.00000000E+00  0.00000000E+00
  0.00000000E+00  0.00000000E+00  0.00000000E+00
  0.00000000E+00  0.00000000E+00  0.00000000E+00
  0.00000000E+00  0.00000000E+00  0.00000000E+00
  0.00000000E+00  0.00000000E+00  0.00000000E+00
  0.00000000E+00  0.00000000E+00  0.00000000E+00
  0.00000000E+00  0.00000000E+00  0.00000000E+00
