Title                                   
   1.00000000000000     
     4.9440799999999996    0.0000000000000000    0.0000000000000000
     0.0000000000000000   17.1295089999999988    0.0000000000000000
     0.0000000000000000    0.0000000000000000   20.0000000000000000
    25     5     1
Selective dynamics
Direct
  0.0016062042691556  0.1059005602191552  0.2969760647411431   T   T   T
  0.2502489251075852  0.1490188511142952  0.2978669013167614   T   T   T
  0.2498346682033837  0.2340802878983508  0.3007836687863076   T   T   T
 -0.0012925698964843  0.2761787000110951  0.3046960063848894   T   T   T
 -0.0050190746586516  0.5995107024988923  0.3037042700298971   T   T   T
  0.2481249510279728  0.7253052629439105  0.2964334562743632   T   T   T
  0.0006346226874210  0.8524855823185646  0.2949822581510393   T   T   T
  0.2497240826561507  0.8948806644558954  0.2947391450892909   T   T   T
  0.2503204267928461  0.9793174271511085  0.2950617664611607   T   T   T
  0.0002706054743738  0.7677944329750785  0.2958192985964367   T   T   T
  0.5002045525292249  0.1062932917336218  0.2961110617458041   T   T   T
  0.7518897139004160  0.1481059519245855  0.2969633711504204   T   T   T
  0.7530444243510336  0.2319727753635656  0.2989038530187904   T   T   T
  0.5000819566794631  0.0217899126529390  0.2950972613597111   T   T   T
  0.7479846915920316  0.3957423686754148  0.3038103188629538   T   T   T
  0.7439605762844255  0.4808096773116651  0.3041310043266344   T   T   T
  0.5040759798274206  0.2742699592021752  0.2984434987046256   T   T   T
  0.4997068702530831  0.6010161654890505  0.2955432589891124   T   T   T
  0.7493168359837004  0.7267567300348666  0.2954733220805727   T   T   T
  0.4981582884321148  0.8522788455574607  0.2944804244085643   T   T   T
  0.7494711174162528  0.8945326380265528  0.2945736958257528   T   T   T
  0.7500646391263209  0.9790933916493574  0.2948744492205591   T   T   T
  0.4975412296973085  0.7675118394669778  0.2949789493551523   T   T   T
  0.7491665842835202  0.6435921706068518  0.2970864128113501   T   T   T
  0.0006723091644061  0.0215092652866415  0.2955849461639862   T   T   T
  0.5052997081391789  0.5216431302420607  0.2915935787166719   T   T   T
  0.9864307306004664  0.5202461821787184  0.3177827635522394   T   T   T
  0.5110373396024461  0.3541828926192027  0.2968229025479887   T   T   T
 -0.0103513833652481  0.3570588968359842  0.3153628426831405   T   T   T
  0.2469088468127651  0.6402342294229092  0.2987609639362335   T   T   T
  0.2808891470259156  0.4382292141330438  0.3276182847083991   T   T   T
 
  0.00000000E+00  0.00000000E+00  0.00000000E+00
  0.00000000E+00  0.00000000E+00  0.00000000E+00
  0.00000000E+00  0.00000000E+00  0.00000000E+00
  0.00000000E+00  0.00000000E+00  0.00000000E+00
  0.00000000E+00  0.00000000E+00  0.00000000E+00
  0.00000000E+00  0.00000000E+00  0.00000000E+00
  0.00000000E+00  0.00000000E+00  0.00000000E+00
  0.00000000E+00  0.00000000E+00  0.00000000E+00
  0.00000000E+00  0.00000000E+00  0.00000000E+00
  0.00000000E+00  0.00000000E+00  0.00000000E+00
  0.00000000E+00  0.00000000E+00  0.00000000E+00
  0.00000000E+00  0.00000000E+00  0.00000000E+00
  0.00000000E+00  0.00000000E+00  0.00000000E+00
  0.00000000E+00  0.00000000E+00  0.00000000E+00
  0.00000000E+00  0.00000000E+00  0.00000000E+00
  0.00000000E+00  0.00000000E+00  0.00000000E+00
  0.00000000E+00  0.00000000E+00  0.00000000E+00
  0.00000000E+00  0.00000000E+00  0.00000000E+00
  0.00000000E+00  0.00000000E+00  0.00000000E+00
  0.00000000E+00  0.00000000E+00  0.00000000E+00
  0.00000000E+00  0.00000000E+00  0.00000000E+00
  0.00000000E+00  0.00000000E+00  0.00000000E+00
  0.00000000E+00  0.00000000E+00  0.00000000E+00
  0.00000000E+00  0.00000000E+00  0.00000000E+00
  0.00000000E+00  0.00000000E+00  0.00000000E+00
  0.00000000E+00  0.00000000E+00  0.00000000E+00
  0.00000000E+00  0.00000000E+00  0.00000000E+00
  0.00000000E+00  0.00000000E+00  0.00000000E+00
  0.00000000E+00  0.00000000E+00  0.00000000E+00
  0.00000000E+00  0.00000000E+00  0.00000000E+00
  0.00000000E+00  0.00000000E+00  0.00000000E+00
