Title                                   
   1.00000000000000     
     9.8694509999999998    0.0000000000000000    0.0000000000000000
     0.0000000000000000    8.5490480000000009    0.0000000000000000
     0.0000000000000000    0.0000000000000000   20.0000000000000000
    26     4     1
Selective dynamics
Direct
  0.0561350908753829  0.0906022468506587  0.0935326441892966   T   T   T
  0.9312892756783777  0.1732469298528120  0.0978388027778807   T   T   T
  0.0582148042145236  0.9235431558576304  0.0933535456223960   T   T   T
  0.9328873127211378  0.3408690747371635  0.0996492072595102   T   T   T
  0.0581915183000195  0.5901984207087611  0.0954265394657415   T   T   T
  0.9341428789729280  0.6745266592818930  0.0993201380830722   T   T   T
  0.0578057460890532  0.4230052781920020  0.0955021338135527   T   T   T
  0.9333592982919603  0.8409034221292226  0.0975704281413847   T   T   T
  0.3072059955713622  0.0877324274798659  0.0885199015321269   T   T   T
  0.1813345839218333  0.1718284442123586  0.0906491107524124   T   T   T
  0.1813295343893689  0.3384907780046599  0.0916119764366789   T   T   T
  0.3067444436642895  0.5893277602521417  0.0858064247223888   T   T   T
  0.1820543256940683  0.6735232228942218  0.0909464318472850   T   T   T
  0.3069712159473718  0.4210789180100343  0.0877426399040793   T   T   T
  0.1821176551422114  0.8392038248840084  0.0902290492495779   T   T   T
  0.5561137114440172  0.0891956047230827  0.0972390967886715   T   T   T
  0.4299917399780770  0.1718183869815354  0.0904218130364226   T   T   T
  0.5556104756663004  0.9187300136323743  0.0966979877375904   T   T   T
  0.4296591876534778  0.8357841068175080  0.0888335365639025   T   T   T
  0.8049721761699581  0.0903448527660718  0.0998078638514797   T   T   T
  0.6803587696345553  0.1774020738422463  0.1030203261259849   T   T   T
  0.8062638344413883  0.9225873568290184  0.0996174742593065   T   T   T
  0.6833295052720919  0.3444461909185219  0.1101023455971286   T   T   T
  0.8106926899051674  0.5933983604887610  0.1057955290306602   T   T   T
  0.8087442398327226  0.4245847763785895  0.1060505687403044   T   T   T
  0.6829863670234237  0.8331849293560901  0.1024906874860205   T   T   T
  0.4270840493024952  0.3350463981981311  0.0897757874963018   T   T   T
  0.6886202540542133  0.6717467672804525  0.1099889747238099   T   T   T
  0.4267195862702657  0.6767209475665542  0.0834313286736873   T   T   T
  0.3078304451907494  0.9219127870388781  0.0881970699901139   T   T   T
  0.5343742886872200  0.5058908838347631  0.1317956361012688   T   T   T
 
  0.00000000E+00  0.00000000E+00  0.00000000E+00
  0.00000000E+00  0.00000000E+00  0.00000000E+00
  0.00000000E+00  0.00000000E+00  0.00000000E+00
  0.00000000E+00  0.00000000E+00  0.00000000E+00
  0.00000000E+00  0.00000000E+00  0.00000000E+00
  0.00000000E+00  0.00000000E+00  0.00000000E+00
  0.00000000E+00  0.00000000E+00  0.00000000E+00
  0.00000000E+00  0.00000000E+00  0.00000000E+00
  0.00000000E+00  0.00000000E+00  0.00000000E+00
  0.00000000E+00  0.00000000E+00  0.00000000E+00
  0.00000000E+00  0.00000000E+00  0.00000000E+00
  0.00000000E+00  0.00000000E+00  0.00000000E+00
  0.00000000E+00  0.00000000E+00  0.00000000E+00
  0.00000000E+00  0.00000000E+00  0.00000000E+00
  0.00000000E+00  0.00000000E+00  0.00000000E+00
  0.00000000E+00  0.00000000E+00  0.00000000E+00
  0.00000000E+00  0.00000000E+00  0.00000000E+00
  0.00000000E+00  0.00000000E+00  0.00000000E+00
  0.00000000E+00  0.00000000E+00  0.00000000E+00
  0.00000000E+00  0.00000000E+00  0.00000000E+00
  0.00000000E+00  0.00000000E+00  0.00000000E+00
  0.00000000E+00  0.00000000E+00  0.00000000E+00
  0.00000000E+00  0.00000000E+00  0.00000000E+00
  0.00000000E+00  0.00000000E+00  0.00000000E+00
  0.00000000E+00  0.00000000E+00  0.00000000E+00
  0.00000000E+00  0.00000000E+00  0.00000000E+00
  0.00000000E+00  0.00000000E+00  0.00000000E+00
  0.00000000E+00  0.00000000E+00  0.00000000E+00
  0.00000000E+00  0.00000000E+00  0.00000000E+00
  0.00000000E+00  0.00000000E+00  0.00000000E+00
  0.00000000E+00  0.00000000E+00  0.00000000E+00
