Title                                   
   1.00000000000000     
     9.8694509999999998    0.0000000000000000    0.0000000000000000
     0.0000000000000000    8.5490480000000009    0.0000000000000000
     0.0000000000000000    0.0000000000000000   20.0000000000000000
    28     3     1
Selective dynamics
Direct
  0.0558042855213023  0.0908348745411289  0.0836411911661493   T   T   T
  0.9306883251330157  0.1742146117708993  0.0849049217005889   T   T   T
  0.0575612779233196  0.9234705663238389  0.0823842421961777   T   T   T
  0.9299212957174495  0.3417671107742249  0.0877673939135826   T   T   T
  0.0568172733510200  0.5902709300997114  0.0850374074376496   T   T   T
  0.9327637452483545  0.6735209716451629  0.0847339794580338   T   T   T
  0.0558816459060256  0.4227201698285106  0.0871819318189104   T   T   T
  0.9328769653247598  0.8401884476923248  0.0832822864919978   T   T   T
  0.3055553209327900  0.0875549617875909  0.0888679719912553   T   T   T
  0.1818353364776347  0.1722614999406986  0.0874487916818181   T   T   T
  0.1812355737889618  0.3389931750306864  0.0909527516843761   T   T   T
  0.3035331919344649  0.5886210253097632  0.1029043107129559   T   T   T
  0.1816654242417777  0.6731773945170136  0.0885632340424291   T   T   T
  0.3050834260376890  0.4205020867817558  0.1020207002971942   T   T   T
  0.1819620863470400  0.8399289582195895  0.0854412734061559   T   T   T
  0.5556582515397046  0.0863180094622100  0.0933410534048347   T   T   T
  0.5551345100449447  0.9202110790317134  0.0987583765706649   T   T   T
  0.4296656663463608  0.3316069281692909  0.1066454257968179   T   T   T
  0.4268537836573542  0.8389008016297651  0.1036921421324644   T   T   T
  0.8055722097656478  0.0894685605561269  0.0850823112540049   T   T   T
  0.6790548848988534  0.1708714592444661  0.0903263685900867   T   T   T
  0.8073688725990875  0.9243268692141149  0.0855396000757194   T   T   T
  0.6793814826587562  0.3368412114887769  0.1002930533959728   T   T   T
  0.8080442633932574  0.5936897209709394  0.0939860008666039   T   T   T
  0.8035003203498050  0.4249528220372668  0.0949217760483067   T   T   T
  0.6844991566478971  0.8399113787011754  0.0955816227131787   T   T   T
  0.4183838367459403  0.6809005904548036  0.1183010308401116   T   T   T
  0.5535045895220972  0.4050714297837157  0.1172872844800989   T   T   T
  0.6929712001944642  0.6809402571419207  0.1058864308878644   T   T   T
  0.3057843338112224  0.9244416532820319  0.0882612585280016   T   T   T
  0.4282953150427356  0.1663341253784260  0.0940964993280129   T   T   T
  0.5727811488962720  0.5974323191903589  0.1885423770879969   T   T   T
 
  0.00000000E+00  0.00000000E+00  0.00000000E+00
  0.00000000E+00  0.00000000E+00  0.00000000E+00
  0.00000000E+00  0.00000000E+00  0.00000000E+00
  0.00000000E+00  0.00000000E+00  0.00000000E+00
  0.00000000E+00  0.00000000E+00  0.00000000E+00
  0.00000000E+00  0.00000000E+00  0.00000000E+00
  0.00000000E+00  0.00000000E+00  0.00000000E+00
  0.00000000E+00  0.00000000E+00  0.00000000E+00
  0.00000000E+00  0.00000000E+00  0.00000000E+00
  0.00000000E+00  0.00000000E+00  0.00000000E+00
  0.00000000E+00  0.00000000E+00  0.00000000E+00
  0.00000000E+00  0.00000000E+00  0.00000000E+00
  0.00000000E+00  0.00000000E+00  0.00000000E+00
  0.00000000E+00  0.00000000E+00  0.00000000E+00
  0.00000000E+00  0.00000000E+00  0.00000000E+00
  0.00000000E+00  0.00000000E+00  0.00000000E+00
  0.00000000E+00  0.00000000E+00  0.00000000E+00
  0.00000000E+00  0.00000000E+00  0.00000000E+00
  0.00000000E+00  0.00000000E+00  0.00000000E+00
  0.00000000E+00  0.00000000E+00  0.00000000E+00
  0.00000000E+00  0.00000000E+00  0.00000000E+00
  0.00000000E+00  0.00000000E+00  0.00000000E+00
  0.00000000E+00  0.00000000E+00  0.00000000E+00
  0.00000000E+00  0.00000000E+00  0.00000000E+00
  0.00000000E+00  0.00000000E+00  0.00000000E+00
  0.00000000E+00  0.00000000E+00  0.00000000E+00
  0.00000000E+00  0.00000000E+00  0.00000000E+00
  0.00000000E+00  0.00000000E+00  0.00000000E+00
  0.00000000E+00  0.00000000E+00  0.00000000E+00
  0.00000000E+00  0.00000000E+00  0.00000000E+00
  0.00000000E+00  0.00000000E+00  0.00000000E+00
  0.00000000E+00  0.00000000E+00  0.00000000E+00
