Title                                   
   1.00000000000000     
     8.5490480000000009    0.0000000000000000    0.0000000000000000
     0.0000000000000000    8.5490480000000009    0.0000000000000000
     0.0000000000000000    0.0000000000000000   20.0000000000000000
    19     5     1
Selective dynamics
Direct
  0.9090089386315325  0.2049722812281769  0.0975162052905402   T   T   T
  0.9115747878070538  0.8011709320694678  0.0975468497672292   T   T   T
  0.1984370124559563  0.0832872942692322  0.0978011591244180   T   T   T
  0.0764595660937381  0.2012418875059015  0.0976600284284809   T   T   T
  0.1556414342243377  0.6487846279444791  0.0977492067889517   T   T   T
  0.0722528742324208  0.5004520678617250  0.0977350764948743   T   T   T
  0.1546374102324322  0.3545634868105285  0.0977233085539075   T   T   T
  0.0797254823164745  0.7993428454038697  0.0976980551715732   T   T   T
  0.3479842389257843  0.1676140832239229  0.0978599489794379   T   T   T
  0.4946694731219803  0.9182536678812230  0.0977936543017535   T   T   T
  0.3473881700407505  0.8347821790365370  0.0978892686141539   T   T   T
  0.7890885469891945  0.0859911216327808  0.0974332331594918   T   T   T
  0.6422227462491572  0.1669147830473821  0.0976946004582765   T   T   T
  0.7914280780162997  0.9188714548005094  0.0974647291487864   T   T   T
  0.8263350322830562  0.6521750119892165  0.0977676600161212   T   T   T
  0.8243336834745946  0.3528678514643098  0.0977318103052730   T   T   T
  0.6434344626480017  0.8380441071939121  0.0977239797111945   T   T   T
  0.3233286283162323  0.3344223464230524  0.0977904179959242   T   T   T
  0.3228398169713290  0.6695367120868777  0.0977904576505924   T   T   T
  0.4957822661139816  0.0878613318690284  0.0978577551856741   T   T   T
  0.9016719914101684  0.5019436600566128  0.0978208042512376   T   T   T
  0.6640953849247202  0.3284283184868167  0.0979029988588086   T   T   T
  0.6674136018478970  0.6755129297403420  0.0979456115680717   T   T   T
  0.1971784909394432  0.9159486268199754  0.0978894746219412   T   T   T
  0.4884798817334562  0.5018063911541424  0.0979187055532596   T   T   T
 
  0.00000000E+00  0.00000000E+00  0.00000000E+00
  0.00000000E+00  0.00000000E+00  0.00000000E+00
  0.00000000E+00  0.00000000E+00  0.00000000E+00
  0.00000000E+00  0.00000000E+00  0.00000000E+00
  0.00000000E+00  0.00000000E+00  0.00000000E+00
  0.00000000E+00  0.00000000E+00  0.00000000E+00
  0.00000000E+00  0.00000000E+00  0.00000000E+00
  0.00000000E+00  0.00000000E+00  0.00000000E+00
  0.00000000E+00  0.00000000E+00  0.00000000E+00
  0.00000000E+00  0.00000000E+00  0.00000000E+00
  0.00000000E+00  0.00000000E+00  0.00000000E+00
  0.00000000E+00  0.00000000E+00  0.00000000E+00
  0.00000000E+00  0.00000000E+00  0.00000000E+00
  0.00000000E+00  0.00000000E+00  0.00000000E+00
  0.00000000E+00  0.00000000E+00  0.00000000E+00
  0.00000000E+00  0.00000000E+00  0.00000000E+00
  0.00000000E+00  0.00000000E+00  0.00000000E+00
  0.00000000E+00  0.00000000E+00  0.00000000E+00
  0.00000000E+00  0.00000000E+00  0.00000000E+00
  0.00000000E+00  0.00000000E+00  0.00000000E+00
  0.00000000E+00  0.00000000E+00  0.00000000E+00
  0.00000000E+00  0.00000000E+00  0.00000000E+00
  0.00000000E+00  0.00000000E+00  0.00000000E+00
  0.00000000E+00  0.00000000E+00  0.00000000E+00
  0.00000000E+00  0.00000000E+00  0.00000000E+00
