Title                                   
   1.00000000000000     
     4.9440799999999996    0.0000000000000000    0.0000000000000000
     0.0000000000000000   17.1295089999999988    0.0000000000000000
     0.0000000000000000    0.0000000000000000   20.0000000000000000
    28     3     1
Selective dynamics
Direct
  0.0016638350344788  0.1047288261731842  0.2899238525645184   T   T   T
  0.2520977253177228  0.1469341528843558  0.2914796883928433   T   T   T
  0.2547876711064964  0.2304494678124963  0.2958176534484059   T   T   T
  0.0131424951002817  0.3548620774477978  0.3058840785489389   T   T   T
  0.0044541499451627  0.2722236700711935  0.2978762022976542   T   T   T
 -0.0155002283363567  0.6019812573972996  0.2991926113017299   T   T   T
  0.2409439699282493  0.7269486805626328  0.2960907841840765   T   T   T
 -0.0053557530754021  0.8533032167846257  0.2900879461859098   T   T   T
  0.2450068081151581  0.8955536168555929  0.2897316955815517   T   T   T
  0.2477033525244825  0.9790930582681162  0.2888010258984439   T   T   T
 -0.0078259955053486  0.7697228568253237  0.2923768413600409   T   T   T
  0.5011594086292587  0.1047899449919287  0.2899938729693289   T   T   T
  0.7523681640872725  0.1467902585247455  0.2909140705035707   T   T   T
  0.7553071629724819  0.2298715503283001  0.2943041981253487   T   T   T
  0.4985029388001614  0.0212234711796307  0.2887846243665720   T   T   T
  0.5033336678828586  0.3541369782011028  0.3064114728232469   T   T   T
  0.7522899464650962  0.4833031399230652  0.3094365876604686   T   T   T
  0.5071931295337935  0.2719962189538065  0.2979797214930410   T   T   T
  0.4919390357259641  0.6032550502873861  0.3109614498694165   T   T   T
  0.7408304896172720  0.7285487460987289  0.2947210564683230   T   T   T
  0.4939149874798511  0.8533919297707071  0.2909785363127278   T   T   T
  0.7451076415051748  0.8953679392619173  0.2894493936761970   T   T   T
  0.7477683881067209  0.9790647763177083  0.2885605166317670   T   T   T
  0.4911739292479695  0.7699070472774393  0.2943201987372714   T   T   T
  0.7385187763933242  0.6453501639917483  0.3000513398459719   T   T   T
  0.2389496245401566  0.6435645584537443  0.3025918225101931   T   T   T
 -0.0014229640154941  0.0211962757898192  0.2886429317557965   T   T   T
  0.5208265842443827  0.5240368659780040  0.3330338562553883   T   T   T
  0.9780560418774539  0.5225118109855053  0.2939597337838465   T   T   T
  0.2596681478839832  0.3915429625194760  0.3144808423011519   T   T   T
  0.7585302260993113  0.3977964503181892  0.3073599501559450   T   T   T
  0.2916896427680882  0.4751039797644206  0.3983664439902652   T   T   T
 
  0.00000000E+00  0.00000000E+00  0.00000000E+00
  0.00000000E+00  0.00000000E+00  0.00000000E+00
  0.00000000E+00  0.00000000E+00  0.00000000E+00
  0.00000000E+00  0.00000000E+00  0.00000000E+00
  0.00000000E+00  0.00000000E+00  0.00000000E+00
  0.00000000E+00  0.00000000E+00  0.00000000E+00
  0.00000000E+00  0.00000000E+00  0.00000000E+00
  0.00000000E+00  0.00000000E+00  0.00000000E+00
  0.00000000E+00  0.00000000E+00  0.00000000E+00
  0.00000000E+00  0.00000000E+00  0.00000000E+00
  0.00000000E+00  0.00000000E+00  0.00000000E+00
  0.00000000E+00  0.00000000E+00  0.00000000E+00
  0.00000000E+00  0.00000000E+00  0.00000000E+00
  0.00000000E+00  0.00000000E+00  0.00000000E+00
  0.00000000E+00  0.00000000E+00  0.00000000E+00
  0.00000000E+00  0.00000000E+00  0.00000000E+00
  0.00000000E+00  0.00000000E+00  0.00000000E+00
  0.00000000E+00  0.00000000E+00  0.00000000E+00
  0.00000000E+00  0.00000000E+00  0.00000000E+00
  0.00000000E+00  0.00000000E+00  0.00000000E+00
  0.00000000E+00  0.00000000E+00  0.00000000E+00
  0.00000000E+00  0.00000000E+00  0.00000000E+00
  0.00000000E+00  0.00000000E+00  0.00000000E+00
  0.00000000E+00  0.00000000E+00  0.00000000E+00
  0.00000000E+00  0.00000000E+00  0.00000000E+00
  0.00000000E+00  0.00000000E+00  0.00000000E+00
  0.00000000E+00  0.00000000E+00  0.00000000E+00
  0.00000000E+00  0.00000000E+00  0.00000000E+00
  0.00000000E+00  0.00000000E+00  0.00000000E+00
  0.00000000E+00  0.00000000E+00  0.00000000E+00
  0.00000000E+00  0.00000000E+00  0.00000000E+00
  0.00000000E+00  0.00000000E+00  0.00000000E+00
