Title                                   
   1.00000000000000     
     9.8694509999999998    0.0000000000000000    0.0000000000000000
     0.0000000000000000    8.5490480000000009    0.0000000000000000
     0.0000000000000000    0.0000000000000000   20.0000000000000000
    29     1     1
Selective dynamics
Direct
  0.0550856610967407  0.0883008704813022  0.0836109212747725   T   T   T
  0.9297166388320993  0.1729947517761114  0.0841532121446099   T   T   T
  0.0566542431637158  0.9225763936751675  0.0839652286994557   T   T   T
  0.9323273096227447  0.3395355431253957  0.0818987835779122   T   T   T
  0.0574410567080721  0.5891905703890005  0.0799078379173538   T   T   T
  0.9338415623945768  0.6750794739028364  0.0836966931693400   T   T   T
  0.0566539352304894  0.4228206670286032  0.0795690290093463   T   T   T
  0.9313579965084059  0.8418300074166648  0.0859033498554238   T   T   T
  0.3052810666718178  0.0878914497944770  0.0945014281403195   T   T   T
  0.1799213328089116  0.1696696282713433  0.0867976561493618   T   T   T
  0.3078530746962313  0.9190713117457635  0.0939613540844294   T   T   T
  0.1794488480443039  0.3362394727346779  0.0845907821272324   T   T   T
  0.3035972783772231  0.5855102010430875  0.0927834023698208   T   T   T
  0.1817471345038065  0.6711996008972482  0.0842014410989591   T   T   T
  0.3010486488029628  0.4169287227200227  0.0949309579599246   T   T   T
  0.1825566768541342  0.8382947650008599  0.0861658660836718   T   T   T
  0.5539854857461451  0.0930175027995482  0.1055099599791939   T   T   T
  0.4262726342264365  0.1771970523584594  0.1043549163640447   T   T   T
  0.5562548603368279  0.9237054316906799  0.1061639713064331   T   T   T
  0.4278532345446438  0.6628134378860361  0.1047216951946249   T   T   T
  0.4325496634768830  0.8322807053079833  0.1025735432123821   T   T   T
  0.8036511904566178  0.0932543153117571  0.0915450182462704   T   T   T
  0.6787396852385879  0.1813238261505553  0.0997504733286445   T   T   T
  0.8052491886243569  0.9246493064606556  0.0929879055777705   T   T   T
  0.6857294101284467  0.3495379240421667  0.1014001896724748   T   T   T
  0.8129208904684605  0.5928387408823543  0.0927934112838710   T   T   T
  0.6909354915863821  0.6708032656021783  0.1117629227983542   T   T   T
  0.8111213223237390  0.4251556999973342  0.0896994558438083   T   T   T
  0.6827228687696487  0.8385138365718059  0.1038278687464261   T   T   T
  0.4187703845718039  0.3390908324173931  0.1103488384973469   T   T   T
  0.5618462251847922  0.5095596925185438  0.1428868862864619   T   T   T
 
  0.00000000E+00  0.00000000E+00  0.00000000E+00
  0.00000000E+00  0.00000000E+00  0.00000000E+00
  0.00000000E+00  0.00000000E+00  0.00000000E+00
  0.00000000E+00  0.00000000E+00  0.00000000E+00
  0.00000000E+00  0.00000000E+00  0.00000000E+00
  0.00000000E+00  0.00000000E+00  0.00000000E+00
  0.00000000E+00  0.00000000E+00  0.00000000E+00
  0.00000000E+00  0.00000000E+00  0.00000000E+00
  0.00000000E+00  0.00000000E+00  0.00000000E+00
  0.00000000E+00  0.00000000E+00  0.00000000E+00
  0.00000000E+00  0.00000000E+00  0.00000000E+00
  0.00000000E+00  0.00000000E+00  0.00000000E+00
  0.00000000E+00  0.00000000E+00  0.00000000E+00
  0.00000000E+00  0.00000000E+00  0.00000000E+00
  0.00000000E+00  0.00000000E+00  0.00000000E+00
  0.00000000E+00  0.00000000E+00  0.00000000E+00
  0.00000000E+00  0.00000000E+00  0.00000000E+00
  0.00000000E+00  0.00000000E+00  0.00000000E+00
  0.00000000E+00  0.00000000E+00  0.00000000E+00
  0.00000000E+00  0.00000000E+00  0.00000000E+00
  0.00000000E+00  0.00000000E+00  0.00000000E+00
  0.00000000E+00  0.00000000E+00  0.00000000E+00
  0.00000000E+00  0.00000000E+00  0.00000000E+00
  0.00000000E+00  0.00000000E+00  0.00000000E+00
  0.00000000E+00  0.00000000E+00  0.00000000E+00
  0.00000000E+00  0.00000000E+00  0.00000000E+00
  0.00000000E+00  0.00000000E+00  0.00000000E+00
  0.00000000E+00  0.00000000E+00  0.00000000E+00
  0.00000000E+00  0.00000000E+00  0.00000000E+00
  0.00000000E+00  0.00000000E+00  0.00000000E+00
  0.00000000E+00  0.00000000E+00  0.00000000E+00
