Title                                   
   1.00000000000000     
     8.5490480000000009    0.0000000000000000    0.0000000000000000
     0.0000000000000000    8.5490480000000009    0.0000000000000000
     0.0000000000000000    0.0000000000000000   20.0000000000000000
    22     2     1
Selective dynamics
Direct
  0.9085070926615625  0.2071426296829287  0.0949754636310580   T   T   T
  0.9067877178307880  0.5042834648688862  0.0967875039313215   T   T   T
  0.9123863399810263  0.8034249275925336  0.0961177607081306   T   T   T
  0.1984620613252597  0.0822385108327124  0.0962633504862960   T   T   T
  0.0738234863702100  0.2041460406568339  0.0962959471965072   T   T   T
  0.1573390417658541  0.6493705958390725  0.0958308600712803   T   T   T
  0.0750407825181256  0.5019162428393198  0.0968310234328562   T   T   T
  0.1550011314625513  0.3545289508764843  0.0984580870644903   T   T   T
  0.0793101748534939  0.7984787050635924  0.0950211288622363   T   T   T
  0.4933251960911801  0.0829563748922710  0.0966486666553383   T   T   T
  0.3453643095682088  0.1616371167816470  0.0983284284323009   T   T   T
  0.4938270885882188  0.9148151743526309  0.0968184228165830   T   T   T
  0.3471872199876785  0.8348259242262495  0.0959648371305676   T   T   T
  0.7868751797629614  0.0866101224878346  0.0946329985567802   T   T   T
  0.6379368181083074  0.1651188712604847  0.0954799555651962   T   T   T
  0.7903014694259584  0.9209531225398606  0.0959338685449351   T   T   T
  0.8301533194362840  0.6541347535951575  0.0983707356173222   T   T   T
  0.8265942252387143  0.3577389708593991  0.0958273656314277   T   T   T
  0.6432713144557698  0.8365965230991711  0.0982475036084455   T   T   T
  0.3229239913002125  0.3310703955408250  0.1038140810537455   T   T   T
  0.3229589867676911  0.6708769470255912  0.0975940231598010   T   T   T
  0.6599695997688173  0.3331371527886055  0.0987596412392542   T   T   T
  0.6692283029331034  0.6763883704031823  0.1021663863826299   T   T   T
  0.1993225242043291  0.9171130844309713  0.0949052394919467   T   T   T
  0.4895146255936866  0.4952870274637669  0.1186317207295322   T   T   T
 
  0.00000000E+00  0.00000000E+00  0.00000000E+00
  0.00000000E+00  0.00000000E+00  0.00000000E+00
  0.00000000E+00  0.00000000E+00  0.00000000E+00
  0.00000000E+00  0.00000000E+00  0.00000000E+00
  0.00000000E+00  0.00000000E+00  0.00000000E+00
  0.00000000E+00  0.00000000E+00  0.00000000E+00
  0.00000000E+00  0.00000000E+00  0.00000000E+00
  0.00000000E+00  0.00000000E+00  0.00000000E+00
  0.00000000E+00  0.00000000E+00  0.00000000E+00
  0.00000000E+00  0.00000000E+00  0.00000000E+00
  0.00000000E+00  0.00000000E+00  0.00000000E+00
  0.00000000E+00  0.00000000E+00  0.00000000E+00
  0.00000000E+00  0.00000000E+00  0.00000000E+00
  0.00000000E+00  0.00000000E+00  0.00000000E+00
  0.00000000E+00  0.00000000E+00  0.00000000E+00
  0.00000000E+00  0.00000000E+00  0.00000000E+00
  0.00000000E+00  0.00000000E+00  0.00000000E+00
  0.00000000E+00  0.00000000E+00  0.00000000E+00
  0.00000000E+00  0.00000000E+00  0.00000000E+00
  0.00000000E+00  0.00000000E+00  0.00000000E+00
  0.00000000E+00  0.00000000E+00  0.00000000E+00
  0.00000000E+00  0.00000000E+00  0.00000000E+00
  0.00000000E+00  0.00000000E+00  0.00000000E+00
  0.00000000E+00  0.00000000E+00  0.00000000E+00
  0.00000000E+00  0.00000000E+00  0.00000000E+00
