Title                                   
   1.00000000000000     
     9.8694509999999998    0.0000000000000000    0.0000000000000000
     0.0000000000000000    8.5490480000000009    0.0000000000000000
     0.0000000000000000    0.0000000000000000   20.0000000000000000
    27     3     1
Selective dynamics
Direct
  0.0558024261414717  0.0899354601964472  0.0845481956129977   T   T   T
  0.9305049315546117  0.1737017153086644  0.0845179924743941   T   T   T
  0.0575634475084764  0.9233588366992087  0.0849874721771680   T   T   T
  0.9325042729849340  0.3413914036817036  0.0831298755931324   T   T   T
  0.0568674013950053  0.5902886767137521  0.0815693886877702   T   T   T
  0.9328843043194327  0.6746446589559215  0.0842396751764942   T   T   T
  0.0570886313961834  0.4232890955140047  0.0813972203455604   T   T   T
  0.9325978692725657  0.8412533581783980  0.0860391880931447   T   T   T
  0.3054784517728451  0.0875490597583779  0.0940114730424052   T   T   T
  0.1803301201571259  0.1700514186290163  0.0876097556539420   T   T   T
  0.1806443165761289  0.3379076289068383  0.0866719500936782   T   T   T
  0.3039208759548935  0.5873962375489492  0.0962085902345318   T   T   T
  0.1815459347908140  0.6721643182955527  0.0862335482349998   T   T   T
  0.3026948590595699  0.4175145900448426  0.0972526486344214   T   T   T
  0.1828421419611026  0.8397753955812691  0.0871778465596961   T   T   T
  0.5554351496071335  0.0909949106065486  0.1023789909820475   T   T   T
  0.4276884250217256  0.1733510872297851  0.1031437662995029   T   T   T
  0.5557657403290405  0.9214090598492738  0.1023326335649572   T   T   T
  0.4244093800168479  0.6716947056272117  0.1077502842325656   T   T   T
  0.4292781184979680  0.8352064313756139  0.1018877951564231   T   T   T
  0.8053225300270402  0.0908963149246917  0.0897635615999808   T   T   T
  0.6812691385257104  0.1774103720058533  0.0976906449642536   T   T   T
  0.8063697775521309  0.9232426481023718  0.0909026921488751   T   T   T
  0.6858569833724418  0.3432867813069871  0.1003817806368910   T   T   T
  0.8095430902721847  0.5949280684171169  0.0916018390182804   T   T   T
  0.8082102996075191  0.4246633055775287  0.0900463799331056   T   T   T
  0.6833097760195632  0.8365005154193431  0.0993567921212404   T   T   T
  0.4210330238173635  0.3361608569794111  0.1105586534319256   T   T   T
  0.6901453082841417  0.6738778028230296  0.1038398517682758   T   T   T
  0.3060640063404925  0.9218926062715597  0.0927662103445973   T   T   T
  0.5601642678635385  0.5051376794707537  0.1509683031827759   T   T   T
 
  0.00000000E+00  0.00000000E+00  0.00000000E+00
  0.00000000E+00  0.00000000E+00  0.00000000E+00
  0.00000000E+00  0.00000000E+00  0.00000000E+00
  0.00000000E+00  0.00000000E+00  0.00000000E+00
  0.00000000E+00  0.00000000E+00  0.00000000E+00
  0.00000000E+00  0.00000000E+00  0.00000000E+00
  0.00000000E+00  0.00000000E+00  0.00000000E+00
  0.00000000E+00  0.00000000E+00  0.00000000E+00
  0.00000000E+00  0.00000000E+00  0.00000000E+00
  0.00000000E+00  0.00000000E+00  0.00000000E+00
  0.00000000E+00  0.00000000E+00  0.00000000E+00
  0.00000000E+00  0.00000000E+00  0.00000000E+00
  0.00000000E+00  0.00000000E+00  0.00000000E+00
  0.00000000E+00  0.00000000E+00  0.00000000E+00
  0.00000000E+00  0.00000000E+00  0.00000000E+00
  0.00000000E+00  0.00000000E+00  0.00000000E+00
  0.00000000E+00  0.00000000E+00  0.00000000E+00
  0.00000000E+00  0.00000000E+00  0.00000000E+00
  0.00000000E+00  0.00000000E+00  0.00000000E+00
  0.00000000E+00  0.00000000E+00  0.00000000E+00
  0.00000000E+00  0.00000000E+00  0.00000000E+00
  0.00000000E+00  0.00000000E+00  0.00000000E+00
  0.00000000E+00  0.00000000E+00  0.00000000E+00
  0.00000000E+00  0.00000000E+00  0.00000000E+00
  0.00000000E+00  0.00000000E+00  0.00000000E+00
  0.00000000E+00  0.00000000E+00  0.00000000E+00
  0.00000000E+00  0.00000000E+00  0.00000000E+00
  0.00000000E+00  0.00000000E+00  0.00000000E+00
  0.00000000E+00  0.00000000E+00  0.00000000E+00
  0.00000000E+00  0.00000000E+00  0.00000000E+00
  0.00000000E+00  0.00000000E+00  0.00000000E+00
