Title                                   
   1.00000000000000     
     9.8694509999999998    0.0000000000000000    0.0000000000000000
     0.0000000000000000    8.5490480000000009    0.0000000000000000
     0.0000000000000000    0.0000000000000000   20.0000000000000000
    28     2     1
Selective dynamics
Direct
  0.0556955442481984  0.0887967691118476  0.0825577047241444   T   T   T
  0.9309413802997085  0.1722959355948460  0.0841537414254183   T   T   T
  0.0571769697104177  0.9236140805453393  0.0827775954875158   T   T   T
  0.9332991993012264  0.3394980686648127  0.0830501678816114   T   T   T
  0.0564646304753785  0.5890303735542206  0.0803280061706585   T   T   T
  0.9336148584826477  0.6749572121553383  0.0832942381986481   T   T   T
  0.0567157698855484  0.4232997334220180  0.0801850185352501   T   T   T
  0.9323099514355452  0.8409519113019417  0.0845861213729393   T   T   T
  0.3047782931210048  0.0900174315840725  0.0949054758735213   T   T   T
  0.1803331836040618  0.1714492623349732  0.0865559325624269   T   T   T
  0.3058283005306902  0.9225329679024823  0.0950302937806389   T   T   T
  0.1791534666705135  0.3374839789257071  0.0859743206797230   T   T   T
  0.2995415850906906  0.5893283100318543  0.0987271457633817   T   T   T
  0.1793969438579405  0.6727461708011553  0.0864480221859193   T   T   T
  0.2993481578577346  0.4185448489309540  0.0982599035019481   T   T   T
  0.1816581388403167  0.8400126536207436  0.0868458736975249   T   T   T
  0.5567014153871152  0.0902032955328565  0.1068976284666284   T   T   T
  0.4269164452828749  0.1777010989377373  0.1051733904184009   T   T   T
  0.5560291300658093  0.9219311830175629  0.1070159032607319   T   T   T
  0.4204320849554032  0.6720384725135997  0.1112640664677853   T   T   T
  0.4282799909546878  0.8361569534499892  0.1054811557900965   T   T   T
  0.8064994340923823  0.0897822070023002  0.0916195576563163   T   T   T
  0.6839971128975344  0.1761548401995763  0.1019081676687030   T   T   T
  0.8075068316809876  0.9223205090841067  0.0918198338536925   T   T   T
  0.6915364384147983  0.3406345546522188  0.1053946158174390   T   T   T
  0.8125614978111889  0.5937191855869329  0.0928634349995596   T   T   T
  0.8122827355858963  0.4230516258372548  0.0926946464617034   T   T   T
  0.6854205975428597  0.8344941748633237  0.1020953040694479   T   T   T
  0.4178010355848612  0.3378522404240568  0.1097780604007927   T   T   T
  0.6942175976143041  0.6741216288323236  0.1046818782745487   T   T   T
  0.5566962787176826  0.5061533215838663  0.1185977945529253   T   T   T
 
  0.00000000E+00  0.00000000E+00  0.00000000E+00
  0.00000000E+00  0.00000000E+00  0.00000000E+00
  0.00000000E+00  0.00000000E+00  0.00000000E+00
  0.00000000E+00  0.00000000E+00  0.00000000E+00
  0.00000000E+00  0.00000000E+00  0.00000000E+00
  0.00000000E+00  0.00000000E+00  0.00000000E+00
  0.00000000E+00  0.00000000E+00  0.00000000E+00
  0.00000000E+00  0.00000000E+00  0.00000000E+00
  0.00000000E+00  0.00000000E+00  0.00000000E+00
  0.00000000E+00  0.00000000E+00  0.00000000E+00
  0.00000000E+00  0.00000000E+00  0.00000000E+00
  0.00000000E+00  0.00000000E+00  0.00000000E+00
  0.00000000E+00  0.00000000E+00  0.00000000E+00
  0.00000000E+00  0.00000000E+00  0.00000000E+00
  0.00000000E+00  0.00000000E+00  0.00000000E+00
  0.00000000E+00  0.00000000E+00  0.00000000E+00
  0.00000000E+00  0.00000000E+00  0.00000000E+00
  0.00000000E+00  0.00000000E+00  0.00000000E+00
  0.00000000E+00  0.00000000E+00  0.00000000E+00
  0.00000000E+00  0.00000000E+00  0.00000000E+00
  0.00000000E+00  0.00000000E+00  0.00000000E+00
  0.00000000E+00  0.00000000E+00  0.00000000E+00
  0.00000000E+00  0.00000000E+00  0.00000000E+00
  0.00000000E+00  0.00000000E+00  0.00000000E+00
  0.00000000E+00  0.00000000E+00  0.00000000E+00
  0.00000000E+00  0.00000000E+00  0.00000000E+00
  0.00000000E+00  0.00000000E+00  0.00000000E+00
  0.00000000E+00  0.00000000E+00  0.00000000E+00
  0.00000000E+00  0.00000000E+00  0.00000000E+00
  0.00000000E+00  0.00000000E+00  0.00000000E+00
  0.00000000E+00  0.00000000E+00  0.00000000E+00
