Title                                   
   1.00000000000000     
     4.9440799999999996    0.0000000000000000    0.0000000000000000
     0.0000000000000000   17.1295089999999988    0.0000000000000000
     0.0000000000000000    0.0000000000000000   20.0000000000000000
    25     5     1
Selective dynamics
Direct
  0.0008680276499987  0.1056987068316272  0.2997854461429629   T   T   T
  0.2503290669836760  0.1488845268146821  0.2999017133504609   T   T   T
  0.2502982948724438  0.2333094852979523  0.3000845701741425   T   T   T
 -0.0027950256563127  0.2745226500381610  0.3001229260414016   T   T   T
 -0.0023911640807180  0.6006764299000201  0.2991979289088869   T   T   T
  0.2503384906535771  0.7258723711776052  0.2989551340099205   T   T   T
  0.0018276306886401  0.8524980709724175  0.2991013157819822   T   T   T
  0.2503464757541239  0.8951045011905442  0.2992414247136130   T   T   T
  0.2503561756118667  0.9792507653226236  0.2994177493859120   T   T   T
  0.0025355376210840  0.7681867369452992  0.2989406827531778   T   T   T
  0.4997798991404535  0.1056948739227137  0.2997858624088576   T   T   T
  0.7503219389880993  0.1475488423822438  0.2999184527739419   T   T   T
  0.7502936974608065  0.2312648152621917  0.3001166402545299   T   T   T
  0.4999407943677908  0.0215739248376795  0.2995185977515600   T   T   T
  0.7502804492695151  0.3952161847770433  0.2999934555626563   T   T   T
  0.7503060977895878  0.4812186809322408  0.2997655566120552   T   T   T
  0.5033822693259112  0.2745248642833527  0.3001049145165368   T   T   T
  0.5030457060006356  0.6006705317516068  0.2991637796849533   T   T   T
  0.7503280473036236  0.7268737277096085  0.2989011227673138   T   T   T
  0.4988799980906872  0.8524996911989412  0.2991081802142916   T   T   T
  0.7503479341184708  0.8946976750343284  0.2992052997837683   T   T   T
  0.7503485081572259  0.9789179336140106  0.2993923988035262   T   T   T
  0.4981465159531874  0.7681938930790533  0.2989450127530781   T   T   T
  0.7503345852574965  0.6445952470826684  0.2989843087014668   T   T   T
  0.0007377169497734  0.0215711747416436  0.2995099650843661   T   T   T
  0.5126824985177947  0.5219197391208240  0.2994880415400866   T   T   T
  0.9879290227468157  0.5219201434317898  0.2995094086257056   T   T   T
  0.5144910092340448  0.3547758084330692  0.3000302105908376   T   T   T
 -0.0139166979439840  0.3547756599738161  0.3000515789178744   T   T   T
  0.2503450116586492  0.6414603254996476  0.2990256122672584   T   T   T
  0.2502884875150365  0.4374240184405876  0.2997927091228278   T   T   T
 
  0.00000000E+00  0.00000000E+00  0.00000000E+00
  0.00000000E+00  0.00000000E+00  0.00000000E+00
  0.00000000E+00  0.00000000E+00  0.00000000E+00
  0.00000000E+00  0.00000000E+00  0.00000000E+00
  0.00000000E+00  0.00000000E+00  0.00000000E+00
  0.00000000E+00  0.00000000E+00  0.00000000E+00
  0.00000000E+00  0.00000000E+00  0.00000000E+00
  0.00000000E+00  0.00000000E+00  0.00000000E+00
  0.00000000E+00  0.00000000E+00  0.00000000E+00
  0.00000000E+00  0.00000000E+00  0.00000000E+00
  0.00000000E+00  0.00000000E+00  0.00000000E+00
  0.00000000E+00  0.00000000E+00  0.00000000E+00
  0.00000000E+00  0.00000000E+00  0.00000000E+00
  0.00000000E+00  0.00000000E+00  0.00000000E+00
  0.00000000E+00  0.00000000E+00  0.00000000E+00
  0.00000000E+00  0.00000000E+00  0.00000000E+00
  0.00000000E+00  0.00000000E+00  0.00000000E+00
  0.00000000E+00  0.00000000E+00  0.00000000E+00
  0.00000000E+00  0.00000000E+00  0.00000000E+00
  0.00000000E+00  0.00000000E+00  0.00000000E+00
  0.00000000E+00  0.00000000E+00  0.00000000E+00
  0.00000000E+00  0.00000000E+00  0.00000000E+00
  0.00000000E+00  0.00000000E+00  0.00000000E+00
  0.00000000E+00  0.00000000E+00  0.00000000E+00
  0.00000000E+00  0.00000000E+00  0.00000000E+00
  0.00000000E+00  0.00000000E+00  0.00000000E+00
  0.00000000E+00  0.00000000E+00  0.00000000E+00
  0.00000000E+00  0.00000000E+00  0.00000000E+00
  0.00000000E+00  0.00000000E+00  0.00000000E+00
  0.00000000E+00  0.00000000E+00  0.00000000E+00
  0.00000000E+00  0.00000000E+00  0.00000000E+00
