Title                                   
   1.00000000000000     
     9.8694509999999998    0.0000000000000000    0.0000000000000000
     0.0000000000000000    8.5490480000000009    0.0000000000000000
     0.0000000000000000    0.0000000000000000   20.0000000000000000
    28     3     1
Selective dynamics
Direct
  0.0560109325277291  0.0916122965529793  0.0835848677447940   T   T   T
  0.9313319498170740  0.1730182607610992  0.0851891739339222   T   T   T
  0.0570859288681863  0.9244143433483846  0.0833862963791752   T   T   T
  0.9305641634883979  0.3400907743401050  0.0891235698929213   T   T   T
  0.0572581204780839  0.5901162134587991  0.0855773367672303   T   T   T
  0.9324798655690351  0.6728703737707791  0.0882468169457161   T   T   T
  0.0574446373567028  0.4229511363630068  0.0873804375254049   T   T   T
  0.9319574422773667  0.8394997015026165  0.0855751431887729   T   T   T
  0.3055277798912057  0.0890090439057400  0.0878138188663091   T   T   T
  0.1820349817600030  0.1736439940149663  0.0859456792090814   T   T   T
  0.1840574831053955  0.3410903211187388  0.0886776733648391   T   T   T
  0.3045845808819782  0.5934034370125766  0.0974442136887380   T   T   T
  0.1811775400630939  0.6750584924826246  0.0870426196271453   T   T   T
  0.3099759874085550  0.4259714912342066  0.0961046818312607   T   T   T
  0.1804524838454977  0.8416484972297388  0.0861012975228417   T   T   T
  0.5556004865449490  0.0850526800520256  0.0936506784927281   T   T   T
  0.4308301001602224  0.1694032348616516  0.0922049393235223   T   T   T
  0.5536974360865101  0.9198663280682824  0.0987603786963589   T   T   T
  0.4335726728732321  0.3345782000234108  0.0994317624052383   T   T   T
  0.4255256828662247  0.8410358875894255  0.1001949321173611   T   T   T
  0.8065938445566284  0.0886047021599918  0.0861363376409248   T   T   T
  0.6810119510453660  0.1685442349791706  0.0914161033744042   T   T   T
  0.8066336825218808  0.9225866738079093  0.0880752349587592   T   T   T
  0.6802075231346746  0.3336024746325550  0.0997979671032926   T   T   T
  0.8094659139595928  0.5901610045120943  0.1004148633128571   T   T   T
  0.6939039567586308  0.6799449035864017  0.1168161284118694   T   T   T
  0.8054773370760935  0.4216123103979307  0.0977250234037913   T   T   T
  0.6832520297028237  0.8394617847600629  0.1002573018369683   T   T   T
  0.4154836067911587  0.6853618440859616  0.1137565594743451   T   T   T
  0.5571158247994148  0.4033741411751031  0.1127421045907668   T   T   T
  0.3048389468393535  0.9249706061013088  0.0890725140404528   T   T   T
  0.5544841269449456  0.5876866121103630  0.1680285443282421   T   T   T
 
  0.00000000E+00  0.00000000E+00  0.00000000E+00
  0.00000000E+00  0.00000000E+00  0.00000000E+00
  0.00000000E+00  0.00000000E+00  0.00000000E+00
  0.00000000E+00  0.00000000E+00  0.00000000E+00
  0.00000000E+00  0.00000000E+00  0.00000000E+00
  0.00000000E+00  0.00000000E+00  0.00000000E+00
  0.00000000E+00  0.00000000E+00  0.00000000E+00
  0.00000000E+00  0.00000000E+00  0.00000000E+00
  0.00000000E+00  0.00000000E+00  0.00000000E+00
  0.00000000E+00  0.00000000E+00  0.00000000E+00
  0.00000000E+00  0.00000000E+00  0.00000000E+00
  0.00000000E+00  0.00000000E+00  0.00000000E+00
  0.00000000E+00  0.00000000E+00  0.00000000E+00
  0.00000000E+00  0.00000000E+00  0.00000000E+00
  0.00000000E+00  0.00000000E+00  0.00000000E+00
  0.00000000E+00  0.00000000E+00  0.00000000E+00
  0.00000000E+00  0.00000000E+00  0.00000000E+00
  0.00000000E+00  0.00000000E+00  0.00000000E+00
  0.00000000E+00  0.00000000E+00  0.00000000E+00
  0.00000000E+00  0.00000000E+00  0.00000000E+00
  0.00000000E+00  0.00000000E+00  0.00000000E+00
  0.00000000E+00  0.00000000E+00  0.00000000E+00
  0.00000000E+00  0.00000000E+00  0.00000000E+00
  0.00000000E+00  0.00000000E+00  0.00000000E+00
  0.00000000E+00  0.00000000E+00  0.00000000E+00
  0.00000000E+00  0.00000000E+00  0.00000000E+00
  0.00000000E+00  0.00000000E+00  0.00000000E+00
  0.00000000E+00  0.00000000E+00  0.00000000E+00
  0.00000000E+00  0.00000000E+00  0.00000000E+00
  0.00000000E+00  0.00000000E+00  0.00000000E+00
  0.00000000E+00  0.00000000E+00  0.00000000E+00
  0.00000000E+00  0.00000000E+00  0.00000000E+00
