Title                                   
   1.00000000000000     
     4.9440799999999996    0.0000000000000000    0.0000000000000000
     0.0000000000000000   17.1295089999999988    0.0000000000000000
     0.0000000000000000    0.0000000000000000   20.0000000000000000
    28     3     1
Selective dynamics
Direct
 -0.0001265837553312  0.1044775177921656  0.2811205663740314   T   T   T
  0.2498425508156266  0.1463128387687543  0.2849339756419940   T   T   T
  0.2499645137786400  0.2291872642643029  0.2955284649072187   T   T   T
  0.0016385510146676  0.3514724067819100  0.3189021548860711   T   T   T
 -0.0009615755251502  0.2704516197942730  0.3012299205671702   T   T   T
 -0.0045466025744699  0.6055340140991209  0.3135122893395328   T   T   T
  0.2499288774548863  0.7275980242050248  0.2931596103057232   T   T   T
  0.0002878389101967  0.8531124007319359  0.2801294915192605   T   T   T
  0.2497860299398732  0.8952133479132549  0.2782900208318100   T   T   T
  0.2497442303389861  0.9788901291044916  0.2767648599707253   T   T   T
  0.0005971358823475  0.7697350980313103  0.2868906749371395   T   T   T
  0.4997561089529499  0.1044753639015161  0.2811144989063765   T   T   T
  0.7498317999612514  0.1463955904941404  0.2841786590535826   T   T   T
  0.7499371336011531  0.2292261820088790  0.2934938441101709   T   T   T
  0.4997661969844919  0.0208836883011168  0.2771949186765685   T   T   T
  0.4984761661629510  0.3514968890125754  0.3189324862215178   T   T   T
  0.7500680084178414  0.3973043166199030  0.3246465011678939   T   T   T
  0.7499635564723741  0.4836426319161787  0.3278702655738872   T   T   T
  0.5009109163823184  0.2704563639652741  0.3012297747375018   T   T   T
  0.5046956534095487  0.6055686232205355  0.3138101224228063   T   T   T
  0.7498844932619888  0.7287475900568510  0.2903891814495941   T   T   T
  0.4993359613799662  0.8531266000385020  0.2801503928564530   T   T   T
  0.7498096889374325  0.8950128502382125  0.2779114466419012   T   T   T
  0.7497687764967029  0.9787629262905911  0.2764958778746539   T   T   T
  0.4991829499583762  0.7697447092428316  0.2869323861842338   T   T   T
  0.7499806374361027  0.6464701543253502  0.3024998113870587   T   T   T
  0.2500873982251114  0.6450157753855900  0.3078052756637012   T   T   T
 -0.0002505698780104  0.0208961844617096  0.2771949876158220   T   T   T
  0.5179680586136797  0.5276676304219906  0.3336921768707786   T   T   T
  0.9823323852266872  0.5276204806634023  0.3330170861946360   T   T   T
  0.2500778690898822  0.3841628620946387  0.3345501735969451   T   T   T
  0.2490848446269341  0.4798889258536609  0.3889931035131925   T   T   T
 
  0.00000000E+00  0.00000000E+00  0.00000000E+00
  0.00000000E+00  0.00000000E+00  0.00000000E+00
  0.00000000E+00  0.00000000E+00  0.00000000E+00
  0.00000000E+00  0.00000000E+00  0.00000000E+00
  0.00000000E+00  0.00000000E+00  0.00000000E+00
  0.00000000E+00  0.00000000E+00  0.00000000E+00
  0.00000000E+00  0.00000000E+00  0.00000000E+00
  0.00000000E+00  0.00000000E+00  0.00000000E+00
  0.00000000E+00  0.00000000E+00  0.00000000E+00
  0.00000000E+00  0.00000000E+00  0.00000000E+00
  0.00000000E+00  0.00000000E+00  0.00000000E+00
  0.00000000E+00  0.00000000E+00  0.00000000E+00
  0.00000000E+00  0.00000000E+00  0.00000000E+00
  0.00000000E+00  0.00000000E+00  0.00000000E+00
  0.00000000E+00  0.00000000E+00  0.00000000E+00
  0.00000000E+00  0.00000000E+00  0.00000000E+00
  0.00000000E+00  0.00000000E+00  0.00000000E+00
  0.00000000E+00  0.00000000E+00  0.00000000E+00
  0.00000000E+00  0.00000000E+00  0.00000000E+00
  0.00000000E+00  0.00000000E+00  0.00000000E+00
  0.00000000E+00  0.00000000E+00  0.00000000E+00
  0.00000000E+00  0.00000000E+00  0.00000000E+00
  0.00000000E+00  0.00000000E+00  0.00000000E+00
  0.00000000E+00  0.00000000E+00  0.00000000E+00
  0.00000000E+00  0.00000000E+00  0.00000000E+00
  0.00000000E+00  0.00000000E+00  0.00000000E+00
  0.00000000E+00  0.00000000E+00  0.00000000E+00
  0.00000000E+00  0.00000000E+00  0.00000000E+00
  0.00000000E+00  0.00000000E+00  0.00000000E+00
  0.00000000E+00  0.00000000E+00  0.00000000E+00
  0.00000000E+00  0.00000000E+00  0.00000000E+00
  0.00000000E+00  0.00000000E+00  0.00000000E+00
