Title                                   
   1.00000000000000     
     9.8694509999999998    0.0000000000000000    0.0000000000000000
     0.0000000000000000    8.5490480000000009    0.0000000000000000
     0.0000000000000000    0.0000000000000000   20.0000000000000000
    26     5     1
Selective dynamics
Direct
  0.0564486462060226  0.0926807664667497  0.0869108887152733   T   T   T
  0.9307707167161371  0.1750127088140140  0.0898165959481142   T   T   T
  0.0567802231803123  0.9246252403286560  0.0857102576761735   T   T   T
  0.9291989150884187  0.3420909967864171  0.0940144751391558   T   T   T
  0.0557968405073075  0.5899100208810921  0.0890652574697512   T   T   T
  0.9325037613448143  0.6735353290977708  0.0908721414728585   T   T   T
  0.0575003824527443  0.4232676152391663  0.0920161208206244   T   T   T
  0.9321368100283622  0.8410343467929596  0.0880140748488586   T   T   T
  0.3052119358943001  0.0886450142654871  0.0871360395802545   T   T   T
  0.1826228042602095  0.1754234025533665  0.0881945411199345   T   T   T
  0.3062009958956640  0.9235247055599023  0.0874838138219021   T   T   T
  0.1830238563847006  0.3415218211577254  0.0918009657397518   T   T   T
  0.3063082306820796  0.5929637719845041  0.0949905484859705   T   T   T
  0.1807005295254804  0.6718985698536284  0.0879967587644241   T   T   T
  0.1812609726428774  0.8391023239629249  0.0864304762275377   T   T   T
  0.5555618316038223  0.0833863484676598  0.0953408050453023   T   T   T
  0.4314066099440652  0.1676282079767016  0.0924032628472197   T   T   T
  0.4341205027707385  0.3332083589783195  0.0996069762443188   T   T   T
  0.4271048496714551  0.8363348366925902  0.0952124011831882   T   T   T
  0.8070721732097882  0.0901055260851749  0.0894900926102296   T   T   T
  0.6802858759244949  0.1681374803781261  0.0951837054407813   T   T   T
  0.8071737539747572  0.9246763323480102  0.0890903240897161   T   T   T
  0.6770493443565451  0.3331823846237831  0.1033576567165405   T   T   T
  0.8072209389008620  0.5949382985685177  0.1013571656624917   T   T   T
  0.8020089370853611  0.4250755969051417  0.1010315206966365   T   T   T
  0.6854909885347609  0.8387819128587797  0.0979768733592239   T   T   T
  0.4203576169388323  0.6794193647305703  0.1051821965230045   T   T   T
  0.5529078613111100  0.4041486316382971  0.1144280067063055   T   T   T
  0.6932901554007237  0.6846302720611956  0.1126639814389906   T   T   T
  0.5564982202256114  0.9159027280422648  0.0965884807226115   T   T   T
  0.3113491742202542  0.4240141729495743  0.0955115326964119   T   T   T
  0.5542745451173924  0.5914389129509302  0.1607970621864587   T   T   T
 
  0.00000000E+00  0.00000000E+00  0.00000000E+00
  0.00000000E+00  0.00000000E+00  0.00000000E+00
  0.00000000E+00  0.00000000E+00  0.00000000E+00
  0.00000000E+00  0.00000000E+00  0.00000000E+00
  0.00000000E+00  0.00000000E+00  0.00000000E+00
  0.00000000E+00  0.00000000E+00  0.00000000E+00
  0.00000000E+00  0.00000000E+00  0.00000000E+00
  0.00000000E+00  0.00000000E+00  0.00000000E+00
  0.00000000E+00  0.00000000E+00  0.00000000E+00
  0.00000000E+00  0.00000000E+00  0.00000000E+00
  0.00000000E+00  0.00000000E+00  0.00000000E+00
  0.00000000E+00  0.00000000E+00  0.00000000E+00
  0.00000000E+00  0.00000000E+00  0.00000000E+00
  0.00000000E+00  0.00000000E+00  0.00000000E+00
  0.00000000E+00  0.00000000E+00  0.00000000E+00
  0.00000000E+00  0.00000000E+00  0.00000000E+00
  0.00000000E+00  0.00000000E+00  0.00000000E+00
  0.00000000E+00  0.00000000E+00  0.00000000E+00
  0.00000000E+00  0.00000000E+00  0.00000000E+00
  0.00000000E+00  0.00000000E+00  0.00000000E+00
  0.00000000E+00  0.00000000E+00  0.00000000E+00
  0.00000000E+00  0.00000000E+00  0.00000000E+00
  0.00000000E+00  0.00000000E+00  0.00000000E+00
  0.00000000E+00  0.00000000E+00  0.00000000E+00
  0.00000000E+00  0.00000000E+00  0.00000000E+00
  0.00000000E+00  0.00000000E+00  0.00000000E+00
  0.00000000E+00  0.00000000E+00  0.00000000E+00
  0.00000000E+00  0.00000000E+00  0.00000000E+00
  0.00000000E+00  0.00000000E+00  0.00000000E+00
  0.00000000E+00  0.00000000E+00  0.00000000E+00
  0.00000000E+00  0.00000000E+00  0.00000000E+00
  0.00000000E+00  0.00000000E+00  0.00000000E+00
