Title                                   
   1.00000000000000     
     8.5490480000000009    0.0000000000000000    0.0000000000000000
     0.0000000000000000    8.5490480000000009    0.0000000000000000
     0.0000000000000000    0.0000000000000000   20.0000000000000000
    20     4     1
Selective dynamics
Direct
  0.9093143664130864  0.2060469097220832  0.0977406039191193   T   T   T
  0.9049455718351386  0.5040756269990234  0.0978010447753663   T   T   T
  0.9096689406257489  0.8014608092156154  0.0975144838748922   T   T   T
  0.2002820356753154  0.0842289746566008  0.0977521535667948   T   T   T
  0.0762394660066259  0.2051900662036729  0.0977769332055465   T   T   T
  0.1582621425881509  0.6513421940134171  0.0977465427451913   T   T   T
  0.0758717081852517  0.5033859933143492  0.0977795515443433   T   T   T
  0.1600566454114279  0.3578762902421919  0.0977818647090555   T   T   T
  0.0786166295256769  0.7988854516760661  0.0976303137385048   T   T   T
  0.4942760522144816  0.0843376667519998  0.0977109733839634   T   T   T
  0.3483558605688566  0.1647406163899824  0.0977126449804960   T   T   T
  0.4932397491137831  0.9132545526097205  0.0977533826901189   T   T   T
  0.3454839409300134  0.8319203447819604  0.0978242973596430   T   T   T
  0.7878385448200780  0.0860734558688341  0.0976215884770717   T   T   T
  0.6405073881212907  0.1672592485040555  0.0977522501705426   T   T   T
  0.7885155595445762  0.9187002587393567  0.0975309674777105   T   T   T
  0.8264027451222129  0.6518570727679098  0.0976526662957377   T   T   T
  0.8231014527779714  0.3562436650098546  0.0978790036310245   T   T   T
  0.6402446139795137  0.8327532802868778  0.0976799326843962   T   T   T
  0.3265466047141093  0.3360202996192173  0.0977562455165801   T   T   T
  0.3209250009143123  0.6728768164268252  0.0979158802076511   T   T   T
  0.6619162515702414  0.3316582798859836  0.0980096619823788   T   T   T
  0.6640988104161462  0.6719635671909193  0.0977618235716086   T   T   T
  0.1991950719958442  0.9160191087550278  0.0977581980332679   T   T   T
  0.4915068469301387  0.4966194503684749  0.0978619914589678   T   T   T
 
  0.00000000E+00  0.00000000E+00  0.00000000E+00
  0.00000000E+00  0.00000000E+00  0.00000000E+00
  0.00000000E+00  0.00000000E+00  0.00000000E+00
  0.00000000E+00  0.00000000E+00  0.00000000E+00
  0.00000000E+00  0.00000000E+00  0.00000000E+00
  0.00000000E+00  0.00000000E+00  0.00000000E+00
  0.00000000E+00  0.00000000E+00  0.00000000E+00
  0.00000000E+00  0.00000000E+00  0.00000000E+00
  0.00000000E+00  0.00000000E+00  0.00000000E+00
  0.00000000E+00  0.00000000E+00  0.00000000E+00
  0.00000000E+00  0.00000000E+00  0.00000000E+00
  0.00000000E+00  0.00000000E+00  0.00000000E+00
  0.00000000E+00  0.00000000E+00  0.00000000E+00
  0.00000000E+00  0.00000000E+00  0.00000000E+00
  0.00000000E+00  0.00000000E+00  0.00000000E+00
  0.00000000E+00  0.00000000E+00  0.00000000E+00
  0.00000000E+00  0.00000000E+00  0.00000000E+00
  0.00000000E+00  0.00000000E+00  0.00000000E+00
  0.00000000E+00  0.00000000E+00  0.00000000E+00
  0.00000000E+00  0.00000000E+00  0.00000000E+00
  0.00000000E+00  0.00000000E+00  0.00000000E+00
  0.00000000E+00  0.00000000E+00  0.00000000E+00
  0.00000000E+00  0.00000000E+00  0.00000000E+00
  0.00000000E+00  0.00000000E+00  0.00000000E+00
  0.00000000E+00  0.00000000E+00  0.00000000E+00
