Title                                   
   1.00000000000000     
     8.5490480000000009    0.0000000000000000    0.0000000000000000
     0.0000000000000000    8.5490480000000009    0.0000000000000000
     0.0000000000000000    0.0000000000000000   20.0000000000000000
    21     3     1
Selective dynamics
Direct
  0.9062349898044236  0.2060361746486047  0.0941761097481508   T   T   T
  0.9091214921238618  0.5040332296946952  0.0968231143345020   T   T   T
  0.9128912095352043  0.8031869875643272  0.0965446305232064   T   T   T
  0.1951815736537691  0.0816734530315652  0.0963384650482378   T   T   T
  0.0734692766878197  0.2006187580818897  0.0961830727624113   T   T   T
  0.1599376574441983  0.6475254612580615  0.0945035820508841   T   T   T
  0.0779212281269161  0.5002931674228587  0.0968307026311224   T   T   T
  0.1551063453896393  0.3494680152310447  0.0989490766883697   T   T   T
  0.0803855125986438  0.7977994252394996  0.0947308771584915   T   T   T
  0.4918266837857780  0.0867919793508033  0.0965700036908066   T   T   T
  0.3410113387569809  0.1622028708758136  0.0990449821064237   T   T   T
  0.4935994670101777  0.9172739764464261  0.0968469209589163   T   T   T
  0.3474556011249641  0.8354583221721772  0.0939790018598859   T   T   T
  0.7866776737179755  0.0879244264643343  0.0940694391000828   T   T   T
  0.6363820696689418  0.1683176765616913  0.0936675219702568   T   T   T
  0.7901613857056571  0.9214274876204197  0.0963297410705837   T   T   T
  0.8325843383561792  0.6537284817526227  0.0993019919623356   T   T   T
  0.8266271606252876  0.3577312787974791  0.0939575988788169   T   T   T
  0.6431266151099839  0.8390639757758956  0.0991594802721016   T   T   T
  0.3256582809358602  0.6712184970878655  0.0923200934345992   T   T   T
  0.6604122777774273  0.3360786584132687  0.0921881692058224   T   T   T
  0.3170919634839097  0.3252825931617655  0.1036366824428611   T   T   T
  0.6695242520994937  0.6763774005387136  0.1040642276142958   T   T   T
  0.1986925325017870  0.9149069214770442  0.0941522833589900   T   T   T
  0.4943310739751066  0.5003707813311443  0.1293372311278257   T   T   T
 
  0.00000000E+00  0.00000000E+00  0.00000000E+00
  0.00000000E+00  0.00000000E+00  0.00000000E+00
  0.00000000E+00  0.00000000E+00  0.00000000E+00
  0.00000000E+00  0.00000000E+00  0.00000000E+00
  0.00000000E+00  0.00000000E+00  0.00000000E+00
  0.00000000E+00  0.00000000E+00  0.00000000E+00
  0.00000000E+00  0.00000000E+00  0.00000000E+00
  0.00000000E+00  0.00000000E+00  0.00000000E+00
  0.00000000E+00  0.00000000E+00  0.00000000E+00
  0.00000000E+00  0.00000000E+00  0.00000000E+00
  0.00000000E+00  0.00000000E+00  0.00000000E+00
  0.00000000E+00  0.00000000E+00  0.00000000E+00
  0.00000000E+00  0.00000000E+00  0.00000000E+00
  0.00000000E+00  0.00000000E+00  0.00000000E+00
  0.00000000E+00  0.00000000E+00  0.00000000E+00
  0.00000000E+00  0.00000000E+00  0.00000000E+00
  0.00000000E+00  0.00000000E+00  0.00000000E+00
  0.00000000E+00  0.00000000E+00  0.00000000E+00
  0.00000000E+00  0.00000000E+00  0.00000000E+00
  0.00000000E+00  0.00000000E+00  0.00000000E+00
  0.00000000E+00  0.00000000E+00  0.00000000E+00
  0.00000000E+00  0.00000000E+00  0.00000000E+00
  0.00000000E+00  0.00000000E+00  0.00000000E+00
  0.00000000E+00  0.00000000E+00  0.00000000E+00
  0.00000000E+00  0.00000000E+00  0.00000000E+00
