Title                                   
   1.00000000000000     
     8.5490480000000009    0.0000000000000000    0.0000000000000000
     0.0000000000000000    8.5490480000000009    0.0000000000000000
     0.0000000000000000    0.0000000000000000   20.0000000000000000
    19     5     1
Selective dynamics
Direct
  0.9094370218320402  0.2046628637295821  0.0951029283001353   T   T   T
  0.9109408230800727  0.8009448960065844  0.0948104970584977   T   T   T
  0.1984137803119999  0.0835664916583271  0.0949068725803809   T   T   T
  0.0767004271967969  0.2025408613686432  0.0949768308551657   T   T   T
  0.1539787826815884  0.6509584290539453  0.0982041644656295   T   T   T
  0.0726283394923636  0.5009747397163683  0.0976214340616660   T   T   T
  0.1537190211194309  0.3537164717632702  0.0970690370034493   T   T   T
  0.0785028667677744  0.8003215421915095  0.0954064137927442   T   T   T
  0.3467551624096117  0.1646723376641809  0.0969022127556247   T   T   T
  0.4938088965681400  0.9187677160015144  0.0977023421554293   T   T   T
  0.3448197061105077  0.8382489014297697  0.0984014087332059   T   T   T
  0.7893892092637090  0.0853337723521947  0.0952718268122396   T   T   T
  0.6429851277727575  0.1652560159960492  0.0973558394653765   T   T   T
  0.7904555525810186  0.9184820956876351  0.0950872158083407   T   T   T
  0.8285173712199482  0.6524803370340885  0.0966548788307002   T   T   T
  0.8270134026069677  0.3513809066398109  0.0970396500102826   T   T   T
  0.6431374914509236  0.8386091007244861  0.0970937979812879   T   T   T
  0.3233827490976184  0.3307670543540315  0.1001024976037591   T   T   T
  0.3206819394867314  0.6744995605750083  0.1018508861048333   T   T   T
  0.4959012946186707  0.0866553657362126  0.0974049353335471   T   T   T
  0.9031606792748330  0.5016590804124448  0.0972088960039273   T   T   T
  0.6665163089090500  0.3263724256200577  0.0998260427263177   T   T   T
  0.6690829453842493  0.6758475184264986  0.0987781262919689   T   T   T
  0.1955388825840454  0.9175599203109835  0.0953189783541639   T   T   T
  0.4899442181791439  0.5005115955468229  0.1136072869112997   T   T   T
 
  0.00000000E+00  0.00000000E+00  0.00000000E+00
  0.00000000E+00  0.00000000E+00  0.00000000E+00
  0.00000000E+00  0.00000000E+00  0.00000000E+00
  0.00000000E+00  0.00000000E+00  0.00000000E+00
  0.00000000E+00  0.00000000E+00  0.00000000E+00
  0.00000000E+00  0.00000000E+00  0.00000000E+00
  0.00000000E+00  0.00000000E+00  0.00000000E+00
  0.00000000E+00  0.00000000E+00  0.00000000E+00
  0.00000000E+00  0.00000000E+00  0.00000000E+00
  0.00000000E+00  0.00000000E+00  0.00000000E+00
  0.00000000E+00  0.00000000E+00  0.00000000E+00
  0.00000000E+00  0.00000000E+00  0.00000000E+00
  0.00000000E+00  0.00000000E+00  0.00000000E+00
  0.00000000E+00  0.00000000E+00  0.00000000E+00
  0.00000000E+00  0.00000000E+00  0.00000000E+00
  0.00000000E+00  0.00000000E+00  0.00000000E+00
  0.00000000E+00  0.00000000E+00  0.00000000E+00
  0.00000000E+00  0.00000000E+00  0.00000000E+00
  0.00000000E+00  0.00000000E+00  0.00000000E+00
  0.00000000E+00  0.00000000E+00  0.00000000E+00
  0.00000000E+00  0.00000000E+00  0.00000000E+00
  0.00000000E+00  0.00000000E+00  0.00000000E+00
  0.00000000E+00  0.00000000E+00  0.00000000E+00
  0.00000000E+00  0.00000000E+00  0.00000000E+00
  0.00000000E+00  0.00000000E+00  0.00000000E+00
