Title                                   
   1.00000000000000     
     4.9440799999999996    0.0000000000000000    0.0000000000000000
     0.0000000000000000    8.5647549999999999    0.0000000000000000
     0.0000000000000000    0.0000000000000000   20.0000000000000000
     9     5     1
Selective dynamics
Direct
 -0.0021379023643395  0.2952407613758362  0.1004771358920271   T   T   T
  0.2500000000000000  0.0392713397965916  0.1004962239785353   T   T   T
 -0.0016770397457403  0.9557861515983700  0.1005760724394334   T   T   T
  0.7500000000000000  0.2070596559194045  0.1004808822069350   T   T   T
  0.5021379023643392  0.2952407613758362  0.1004771358920271   T   T   T
  0.7500000000000000  0.0414208190503575  0.1005453694557297   T   T   T
  0.7500000000000000  0.7120319319606434  0.1006417160557645   T   T   T
  0.7500000000000000  0.5368726269540959  0.1005544359267384   T   T   T
  0.5016770397457400  0.9557861515983700  0.1005760724394334   T   T   T
  0.5117783038706430  0.4542896612601584  0.1004841665704466   T   T   T
 -0.0117783038706429  0.4542896612601584  0.1004841665704466   T   T   T
 -0.0129459476373462  0.7936346062226260  0.1006106920594397   T   T   T
  0.5129459476373460  0.7936346062226260  0.1006106920594397   T   T   T
  0.2500000000000000  0.2119291486446296  0.1004733130322760   T   T   T
  0.2500000000000000  0.6251931167602989  0.1004919254213309   T   T   T
 
  0.00000000E+00  0.00000000E+00  0.00000000E+00
  0.00000000E+00  0.00000000E+00  0.00000000E+00
  0.00000000E+00  0.00000000E+00  0.00000000E+00
  0.00000000E+00  0.00000000E+00  0.00000000E+00
  0.00000000E+00  0.00000000E+00  0.00000000E+00
  0.00000000E+00  0.00000000E+00  0.00000000E+00
  0.00000000E+00  0.00000000E+00  0.00000000E+00
  0.00000000E+00  0.00000000E+00  0.00000000E+00
  0.00000000E+00  0.00000000E+00  0.00000000E+00
  0.00000000E+00  0.00000000E+00  0.00000000E+00
  0.00000000E+00  0.00000000E+00  0.00000000E+00
  0.00000000E+00  0.00000000E+00  0.00000000E+00
  0.00000000E+00  0.00000000E+00  0.00000000E+00
  0.00000000E+00  0.00000000E+00  0.00000000E+00
  0.00000000E+00  0.00000000E+00  0.00000000E+00
