Title                                   
   1.00000000000000     
     9.8694509999999998    0.0000000000000000    0.0000000000000000
     0.0000000000000000    8.5490480000000009    0.0000000000000000
     0.0000000000000000    0.0000000000000000   20.0000000000000000
    23     7     1
Selective dynamics
Direct
  0.0556423336096031  0.0901869421011026  0.0927029948234365   T   T   T
  0.9316591590133693  0.1734619090274762  0.0933471995892533   T   T   T
  0.0572577452947305  0.9209885661954558  0.0924534809225245   T   T   T
  0.9326381334115071  0.3395284280504473  0.0943066132284155   T   T   T
  0.0563493346485275  0.5905826906535858  0.0932250873136786   T   T   T
  0.0560892588989261  0.4236888573757493  0.0935758340479909   T   T   T
  0.9315284931544922  0.8387758901850429  0.0927328361075876   T   T   T
  0.3077163980403342  0.0885140770788619  0.0929475789557745   T   T   T
  0.1811202340870356  0.1722706895243062  0.0933304685015360   T   T   T
  0.1805667572995487  0.3393974843939450  0.0940388592235229   T   T   T
  0.3051469686749240  0.5898995139208608  0.0963566334579580   T   T   T
  0.1794071017349225  0.6724900756600664  0.0938320035932114   T   T   T
  0.3065437163286076  0.4209629054423721  0.0963096453613078   T   T   T
  0.1810391254307886  0.8403346803041796  0.0927658775769568   T   T   T
  0.4290642800825662  0.1731435189563807  0.0952428169059255   T   T   T
  0.5552632036839641  0.9203769794337728  0.0953516321952222   T   T   T
  0.4280587719689015  0.8386084314867012  0.0957057938753264   T   T   T
  0.8050321704963359  0.0889242654269008  0.0930014920931355   T   T   T
  0.6833727427238465  0.1760887684801668  0.0950900133232076   T   T   T
  0.8073917169363071  0.9213082146713535  0.0926913770850846   T   T   T
  0.8076172746681812  0.5909742652122959  0.0966483952018092   T   T   T
  0.8073768424917334  0.4224147751228535  0.0970888462095465   T   T   T
  0.6817030744385446  0.8369946677430701  0.0949406233703437   T   T   T
  0.9324923030154498  0.6719182991702842  0.0926964657597884   T   T   T
  0.5567139789810097  0.0948187747358528  0.0949199116451362   T   T   T
  0.4261213724977052  0.3347513265278814  0.1001249597434865   T   T   T
  0.4239938888173238  0.6786323496619723  0.1006649477664787   T   T   T
  0.6860295984205346  0.3374176871429218  0.0997337882416527   T   T   T
  0.6891403533928241  0.6751683799503144  0.0997486893848162   T   T   T
  0.3053100465758863  0.9217649252362926  0.0920630405615889   T   T   T
  0.5557496211815689  0.5064866611275310  0.1533270939343548   T   T   T
 
  0.00000000E+00  0.00000000E+00  0.00000000E+00
  0.00000000E+00  0.00000000E+00  0.00000000E+00
  0.00000000E+00  0.00000000E+00  0.00000000E+00
  0.00000000E+00  0.00000000E+00  0.00000000E+00
  0.00000000E+00  0.00000000E+00  0.00000000E+00
  0.00000000E+00  0.00000000E+00  0.00000000E+00
  0.00000000E+00  0.00000000E+00  0.00000000E+00
  0.00000000E+00  0.00000000E+00  0.00000000E+00
  0.00000000E+00  0.00000000E+00  0.00000000E+00
  0.00000000E+00  0.00000000E+00  0.00000000E+00
  0.00000000E+00  0.00000000E+00  0.00000000E+00
  0.00000000E+00  0.00000000E+00  0.00000000E+00
  0.00000000E+00  0.00000000E+00  0.00000000E+00
  0.00000000E+00  0.00000000E+00  0.00000000E+00
  0.00000000E+00  0.00000000E+00  0.00000000E+00
  0.00000000E+00  0.00000000E+00  0.00000000E+00
  0.00000000E+00  0.00000000E+00  0.00000000E+00
  0.00000000E+00  0.00000000E+00  0.00000000E+00
  0.00000000E+00  0.00000000E+00  0.00000000E+00
  0.00000000E+00  0.00000000E+00  0.00000000E+00
  0.00000000E+00  0.00000000E+00  0.00000000E+00
  0.00000000E+00  0.00000000E+00  0.00000000E+00
  0.00000000E+00  0.00000000E+00  0.00000000E+00
  0.00000000E+00  0.00000000E+00  0.00000000E+00
  0.00000000E+00  0.00000000E+00  0.00000000E+00
  0.00000000E+00  0.00000000E+00  0.00000000E+00
  0.00000000E+00  0.00000000E+00  0.00000000E+00
  0.00000000E+00  0.00000000E+00  0.00000000E+00
  0.00000000E+00  0.00000000E+00  0.00000000E+00
  0.00000000E+00  0.00000000E+00  0.00000000E+00
  0.00000000E+00  0.00000000E+00  0.00000000E+00
