Title                                   
   1.00000000000000     
     9.8694509999999998    0.0000000000000000    0.0000000000000000
     0.0000000000000000    8.5490480000000009    0.0000000000000000
     0.0000000000000000    0.0000000000000000   20.0000000000000000
    27     3     1
Selective dynamics
Direct
  0.0553709637781849  0.0897664934826246  0.0833688832852927   T   T   T
  0.9312454111190596  0.1715604929443369  0.0867679380031352   T   T   T
  0.0568490397161183  0.9232462149425562  0.0839154902276341   T   T   T
  0.9348592653117153  0.3386944865548986  0.0855450147522184   T   T   T
  0.0577314491109710  0.5898218291184680  0.0794665034320348   T   T   T
  0.9350261080628564  0.6741335672251535  0.0857743095361810   T   T   T
  0.0578795569335016  0.4232081400260764  0.0791966767875864   T   T   T
  0.9316669745190000  0.8405565075162610  0.0870581906009997   T   T   T
  0.3053873046559815  0.0885752796688246  0.0904159168318598   T   T   T
  0.1806280071448752  0.1706460883135841  0.0836035119068360   T   T   T
  0.1808959923994677  0.3386529271117427  0.0818909738190591   T   T   T
  0.3014403853581206  0.5906689638185243  0.0917510415825339   T   T   T
  0.1812784765677080  0.6738833958411837  0.0825250217531762   T   T   T
  0.3018226224055834  0.4211205740900262  0.0916954805299752   T   T   T
  0.1810709531084240  0.8412894228533540  0.0846938683483305   T   T   T
  0.5546577091272868  0.0909923734928280  0.1060463174853118   T   T   T
  0.4266124608566760  0.1759356985136545  0.1013416054681846   T   T   T
  0.5535413102559318  0.9217160355606275  0.1057575950096902   T   T   T
  0.4259553917261846  0.8354168193389009  0.1014628840677791   T   T   T
  0.8051181670953654  0.0901025373157800  0.0948895249829927   T   T   T
  0.6822840036188964  0.1767041151650796  0.1050278214267243   T   T   T
  0.8052841465699702  0.9218313091463404  0.0947977297802564   T   T   T
  0.6911614729277812  0.3447558119134735  0.1123546612371775   T   T   T
  0.8166816257890238  0.5903048828531579  0.0982008839072519   T   T   T
  0.6913180312441403  0.6677225222958461  0.1121361036108273   T   T   T
  0.8169255688757321  0.4223632964774127  0.0981810464756989   T   T   T
  0.6818241916471182  0.8349643636389991  0.1046969395179471   T   T   T
  0.4187889341644596  0.3375349889047038  0.1064853088940034   T   T   T
  0.4179825502155626  0.6763136399859045  0.1062432765534764   T   T   T
  0.3054573213364938  0.9227560981707833  0.0906315712849305   T   T   T
  0.5563896043578258  0.5056361237188997  0.1250429089009426   T   T   T
 
  0.00000000E+00  0.00000000E+00  0.00000000E+00
  0.00000000E+00  0.00000000E+00  0.00000000E+00
  0.00000000E+00  0.00000000E+00  0.00000000E+00
  0.00000000E+00  0.00000000E+00  0.00000000E+00
  0.00000000E+00  0.00000000E+00  0.00000000E+00
  0.00000000E+00  0.00000000E+00  0.00000000E+00
  0.00000000E+00  0.00000000E+00  0.00000000E+00
  0.00000000E+00  0.00000000E+00  0.00000000E+00
  0.00000000E+00  0.00000000E+00  0.00000000E+00
  0.00000000E+00  0.00000000E+00  0.00000000E+00
  0.00000000E+00  0.00000000E+00  0.00000000E+00
  0.00000000E+00  0.00000000E+00  0.00000000E+00
  0.00000000E+00  0.00000000E+00  0.00000000E+00
  0.00000000E+00  0.00000000E+00  0.00000000E+00
  0.00000000E+00  0.00000000E+00  0.00000000E+00
  0.00000000E+00  0.00000000E+00  0.00000000E+00
  0.00000000E+00  0.00000000E+00  0.00000000E+00
  0.00000000E+00  0.00000000E+00  0.00000000E+00
  0.00000000E+00  0.00000000E+00  0.00000000E+00
  0.00000000E+00  0.00000000E+00  0.00000000E+00
  0.00000000E+00  0.00000000E+00  0.00000000E+00
  0.00000000E+00  0.00000000E+00  0.00000000E+00
  0.00000000E+00  0.00000000E+00  0.00000000E+00
  0.00000000E+00  0.00000000E+00  0.00000000E+00
  0.00000000E+00  0.00000000E+00  0.00000000E+00
  0.00000000E+00  0.00000000E+00  0.00000000E+00
  0.00000000E+00  0.00000000E+00  0.00000000E+00
  0.00000000E+00  0.00000000E+00  0.00000000E+00
  0.00000000E+00  0.00000000E+00  0.00000000E+00
  0.00000000E+00  0.00000000E+00  0.00000000E+00
  0.00000000E+00  0.00000000E+00  0.00000000E+00
