Title                                   
   1.00000000000000     
     9.8694509999999998    0.0000000000000000    0.0000000000000000
     0.0000000000000000    8.5490480000000009    0.0000000000000000
     0.0000000000000000    0.0000000000000000   20.0000000000000000
    27     3     1
Selective dynamics
Direct
  0.0565306235353016  0.0904387643355252  0.0929548193479418   T   T   T
  0.9309415223205033  0.1730801128167764  0.0932498037646711   T   T   T
  0.0565141651007163  0.9238539339742753  0.0928647940856777   T   T   T
  0.9333658786452602  0.3399984079044870  0.0930041032530225   T   T   T
  0.0566021463611929  0.5893341560156814  0.0922272646861668   T   T   T
  0.9338024875538453  0.6747159999126410  0.0930570887454389   T   T   T
  0.0568483311203683  0.4235433069209546  0.0923149297983007   T   T   T
  0.9321132274502970  0.8411722987132907  0.0933757948216776   T   T   T
  0.3064313115712344  0.0903236883687034  0.0947531015661804   T   T   T
  0.1805322526861151  0.1723387847179821  0.0935143373817296   T   T   T
  0.3060652878022623  0.9221079896265275  0.0944151328726434   T   T   T
  0.1802885782999072  0.3399480845013654  0.0931239425605040   T   T   T
  0.3022488572209102  0.5908528092764519  0.0942683762135539   T   T   T
  0.1793122631039284  0.6729621402943680  0.0927613326677131   T   T   T
  0.3030841049643688  0.4215445149324887  0.0946678405244988   T   T   T
  0.1804921416853930  0.8405014116209425  0.0931219417112585   T   T   T
  0.5545987894629767  0.0891981951555250  0.0967481278317885   T   T   T
  0.4298510010341979  0.1759802958871422  0.0964791623705572   T   T   T
  0.5550440178812795  0.9177965231580204  0.0966833294862188   T   T   T
  0.4286531675233993  0.8337083790999369  0.0958970443817979   T   T   T
  0.8057662144137325  0.0900250015589035  0.0944919347538233   T   T   T
  0.6812325879715907  0.1749570261979937  0.0961434932198259   T   T   T
  0.8063007028306347  0.9218764464238459  0.0946545760846114   T   T   T
  0.6869934773667431  0.3404982913017017  0.0968769623911848   T   T   T
  0.8114858427096789  0.5936287123228949  0.0948670326965132   T   T   T
  0.8101728732517500  0.4235155998123804  0.0946523944837260   T   T   T
  0.6831778255875235  0.8344458691874157  0.0964035063286202   T   T   T
  0.4253634384408414  0.3405931124353162  0.0974347512330351   T   T   T
  0.6903228338209566  0.6723863747225929  0.0974088904140089   T   T   T
  0.4227920836302191  0.6719114499311838  0.0963797217294219   T   T   T
  0.5562069646528816  0.5036373188726988  0.1021694685939292   T   T   T
 
  0.00000000E+00  0.00000000E+00  0.00000000E+00
  0.00000000E+00  0.00000000E+00  0.00000000E+00
  0.00000000E+00  0.00000000E+00  0.00000000E+00
  0.00000000E+00  0.00000000E+00  0.00000000E+00
  0.00000000E+00  0.00000000E+00  0.00000000E+00
  0.00000000E+00  0.00000000E+00  0.00000000E+00
  0.00000000E+00  0.00000000E+00  0.00000000E+00
  0.00000000E+00  0.00000000E+00  0.00000000E+00
  0.00000000E+00  0.00000000E+00  0.00000000E+00
  0.00000000E+00  0.00000000E+00  0.00000000E+00
  0.00000000E+00  0.00000000E+00  0.00000000E+00
  0.00000000E+00  0.00000000E+00  0.00000000E+00
  0.00000000E+00  0.00000000E+00  0.00000000E+00
  0.00000000E+00  0.00000000E+00  0.00000000E+00
  0.00000000E+00  0.00000000E+00  0.00000000E+00
  0.00000000E+00  0.00000000E+00  0.00000000E+00
  0.00000000E+00  0.00000000E+00  0.00000000E+00
  0.00000000E+00  0.00000000E+00  0.00000000E+00
  0.00000000E+00  0.00000000E+00  0.00000000E+00
  0.00000000E+00  0.00000000E+00  0.00000000E+00
  0.00000000E+00  0.00000000E+00  0.00000000E+00
  0.00000000E+00  0.00000000E+00  0.00000000E+00
  0.00000000E+00  0.00000000E+00  0.00000000E+00
  0.00000000E+00  0.00000000E+00  0.00000000E+00
  0.00000000E+00  0.00000000E+00  0.00000000E+00
  0.00000000E+00  0.00000000E+00  0.00000000E+00
  0.00000000E+00  0.00000000E+00  0.00000000E+00
  0.00000000E+00  0.00000000E+00  0.00000000E+00
  0.00000000E+00  0.00000000E+00  0.00000000E+00
  0.00000000E+00  0.00000000E+00  0.00000000E+00
  0.00000000E+00  0.00000000E+00  0.00000000E+00
