Title                                   
   1.00000000000000     
     4.9440799999999996    0.0000000000000000    0.0000000000000000
     0.0000000000000000   17.1295089999999988    0.0000000000000000
     0.0000000000000000    0.0000000000000000   20.0000000000000000
    27     4     1
Selective dynamics
Direct
  0.0001141611763649  0.1044873605884882  0.2925380919674420   T   T   T
  0.2499052363308961  0.1465893844342986  0.2936168996880590   T   T   T
  0.2499013327856103  0.2303548703912421  0.2973232865833007   T   T   T
  0.0062519394238711  0.3539029941424853  0.3077199627631945   T   T   T
 -0.0021177287455119  0.2718602031345327  0.2990649300643867   T   T   T
 -0.0051999847432417  0.6020514040672410  0.2999197115846239   T   T   T
  0.2499081909293616  0.7266626406511041  0.2946274169091505   T   T   T
  0.0004822635052728  0.8531752486851933  0.2923885706488034   T   T   T
  0.2499228820495658  0.8952251771941618  0.2922297885808902   T   T   T
  0.2499334991115355  0.9789500735485330  0.2920837716608675   T   T   T
  0.0008272411060909  0.7693672344913397  0.2934072516463695   T   T   T
  0.4996977451229943  0.1044878702134271  0.2925361391743523   T   T   T
  0.7499031413365849  0.1465155797814671  0.2928125425527063   T   T   T
  0.7498961600506961  0.2294434773938313  0.2952100083111492   T   T   T
  0.4999488069717553  0.0208630852021827  0.2920122761846838   T   T   T
  0.4935102084877404  0.3539026690256917  0.3077234665218836   T   T   T
  0.7498866453496077  0.4832082995002598  0.3059845569627612   T   T   T
  0.5019197148669777  0.2718626715882692  0.2990670149624526   T   T   T
  0.5049917212253014  0.6020477171571801  0.2999273445139091   T   T   T
  0.7499036768261613  0.7283462288190803  0.2939916205788987   T   T   T
  0.4993726308777959  0.8531724360723095  0.2923912114262104   T   T   T
  0.7499192779438483  0.8950468432900783  0.2920899197542217   T   T   T
  0.7499237586566364  0.9787587060674523  0.2918885891412326   T   T   T
  0.4989873102791388  0.7693659482153119  0.2934115889024277   T   T   T
  0.7498953257583272  0.6450289178915647  0.2970688757090594   T   T   T
  0.2499050472815916  0.6421694387494380  0.2978574079097574   T   T   T
 -0.0001003029056690  0.0208612240037604  0.2920134399512985   T   T   T
  0.5111768132678187  0.5211942699138985  0.3067886073493400   T   T   T
  0.9886042801368442  0.5211872968340006  0.3067585277487362   T   T   T
  0.2498847426184516  0.3899009009384665  0.3170470401353736   T   T   T
  0.7498917060600071  0.3991243337862385  0.3085212692894319   T   T   T
  0.2497755568575807  0.4894364942274645  0.3925438708229755   T   T   T
 
  0.00000000E+00  0.00000000E+00  0.00000000E+00
  0.00000000E+00  0.00000000E+00  0.00000000E+00
  0.00000000E+00  0.00000000E+00  0.00000000E+00
  0.00000000E+00  0.00000000E+00  0.00000000E+00
  0.00000000E+00  0.00000000E+00  0.00000000E+00
  0.00000000E+00  0.00000000E+00  0.00000000E+00
  0.00000000E+00  0.00000000E+00  0.00000000E+00
  0.00000000E+00  0.00000000E+00  0.00000000E+00
  0.00000000E+00  0.00000000E+00  0.00000000E+00
  0.00000000E+00  0.00000000E+00  0.00000000E+00
  0.00000000E+00  0.00000000E+00  0.00000000E+00
  0.00000000E+00  0.00000000E+00  0.00000000E+00
  0.00000000E+00  0.00000000E+00  0.00000000E+00
  0.00000000E+00  0.00000000E+00  0.00000000E+00
  0.00000000E+00  0.00000000E+00  0.00000000E+00
  0.00000000E+00  0.00000000E+00  0.00000000E+00
  0.00000000E+00  0.00000000E+00  0.00000000E+00
  0.00000000E+00  0.00000000E+00  0.00000000E+00
  0.00000000E+00  0.00000000E+00  0.00000000E+00
  0.00000000E+00  0.00000000E+00  0.00000000E+00
  0.00000000E+00  0.00000000E+00  0.00000000E+00
  0.00000000E+00  0.00000000E+00  0.00000000E+00
  0.00000000E+00  0.00000000E+00  0.00000000E+00
  0.00000000E+00  0.00000000E+00  0.00000000E+00
  0.00000000E+00  0.00000000E+00  0.00000000E+00
  0.00000000E+00  0.00000000E+00  0.00000000E+00
  0.00000000E+00  0.00000000E+00  0.00000000E+00
  0.00000000E+00  0.00000000E+00  0.00000000E+00
  0.00000000E+00  0.00000000E+00  0.00000000E+00
  0.00000000E+00  0.00000000E+00  0.00000000E+00
  0.00000000E+00  0.00000000E+00  0.00000000E+00
  0.00000000E+00  0.00000000E+00  0.00000000E+00
