Title                                   
   1.00000000000000     
     9.8694509999999998    0.0000000000000000    0.0000000000000000
     0.0000000000000000    8.5490480000000009    0.0000000000000000
     0.0000000000000000    0.0000000000000000   20.0000000000000000
    28     3     1
Selective dynamics
Direct
  0.0559042426881664  0.0896239986802203  0.0828913174987610   T   T   T
  0.9313220117847615  0.1730967040619210  0.0839663802283541   T   T   T
  0.0570327496589234  0.9222175675697674  0.0831254502405782   T   T   T
  0.9309076665758824  0.3404171600564165  0.0868854797539113   T   T   T
  0.0564285531528639  0.5913808544786656  0.0861887963023648   T   T   T
  0.0559712616609330  0.4241900209374425  0.0865111293315146   T   T   T
  0.9323899796385813  0.8379051304049302  0.0853941636388839   T   T   T
  0.3058096593246796  0.0890991280033454  0.0875051130184295   T   T   T
  0.1819035583859341  0.1728085232843724  0.0856642706597343   T   T   T
  0.1816263582800587  0.3404007049506068  0.0888495480959364   T   T   T
  0.3038185887016054  0.5886359543339077  0.1013532511579845   T   T   T
  0.1809778983228769  0.6744890564143349  0.0892190595826673   T   T   T
  0.3058034452081266  0.4215565809368736  0.0984963844004060   T   T   T
  0.1825579415856096  0.8410015343012345  0.0862068434684584   T   T   T
  0.5556626411547448  0.0877898023808581  0.0926917080285598   T   T   T
  0.5544799668073263  0.9230592336689356  0.0993014448251463   T   T   T
  0.4308768214644640  0.3337662868574005  0.1025300042494656   T   T   T
  0.4276034263602039  0.8404225577390577  0.1031888419139408   T   T   T
  0.8065780299742903  0.0882587259469927  0.0853922614452327   T   T   T
  0.6805013171353805  0.1712491202395418  0.0900332356638764   T   T   T
  0.8068731650904114  0.9219860052316970  0.0877740368449623   T   T   T
  0.6823418069878600  0.3376657663367021  0.0986923696694430   T   T   T
  0.8096410957832048  0.5921545928818079  0.0995027082245582   T   T   T
  0.8072443864428702  0.4233935007501384  0.0950850577444695   T   T   T
  0.6821855863822899  0.8411609064384505  0.1000128020165767   T   T   T
  0.4169756455210524  0.6827211628345874  0.1170539619506651   T   T   T
  0.5554055053153915  0.4044888426554282  0.1134244845266089   T   T   T
  0.6952856126111775  0.6806423807184308  0.1141776768812650   T   T   T
  0.3053256447133971  0.9251352421225619  0.0884021500469627   T   T   T
  0.4288251817878763  0.1680276667771460  0.0920776157127433   T   T   T
  0.9330880355517182  0.6731799322367895  0.0872164498249593   T   T   T
  0.5582912159473440  0.5883213557694339  0.1868610030525960   T   T   T
 
  0.00000000E+00  0.00000000E+00  0.00000000E+00
  0.00000000E+00  0.00000000E+00  0.00000000E+00
  0.00000000E+00  0.00000000E+00  0.00000000E+00
  0.00000000E+00  0.00000000E+00  0.00000000E+00
  0.00000000E+00  0.00000000E+00  0.00000000E+00
  0.00000000E+00  0.00000000E+00  0.00000000E+00
  0.00000000E+00  0.00000000E+00  0.00000000E+00
  0.00000000E+00  0.00000000E+00  0.00000000E+00
  0.00000000E+00  0.00000000E+00  0.00000000E+00
  0.00000000E+00  0.00000000E+00  0.00000000E+00
  0.00000000E+00  0.00000000E+00  0.00000000E+00
  0.00000000E+00  0.00000000E+00  0.00000000E+00
  0.00000000E+00  0.00000000E+00  0.00000000E+00
  0.00000000E+00  0.00000000E+00  0.00000000E+00
  0.00000000E+00  0.00000000E+00  0.00000000E+00
  0.00000000E+00  0.00000000E+00  0.00000000E+00
  0.00000000E+00  0.00000000E+00  0.00000000E+00
  0.00000000E+00  0.00000000E+00  0.00000000E+00
  0.00000000E+00  0.00000000E+00  0.00000000E+00
  0.00000000E+00  0.00000000E+00  0.00000000E+00
  0.00000000E+00  0.00000000E+00  0.00000000E+00
  0.00000000E+00  0.00000000E+00  0.00000000E+00
  0.00000000E+00  0.00000000E+00  0.00000000E+00
  0.00000000E+00  0.00000000E+00  0.00000000E+00
  0.00000000E+00  0.00000000E+00  0.00000000E+00
  0.00000000E+00  0.00000000E+00  0.00000000E+00
  0.00000000E+00  0.00000000E+00  0.00000000E+00
  0.00000000E+00  0.00000000E+00  0.00000000E+00
  0.00000000E+00  0.00000000E+00  0.00000000E+00
  0.00000000E+00  0.00000000E+00  0.00000000E+00
  0.00000000E+00  0.00000000E+00  0.00000000E+00
  0.00000000E+00  0.00000000E+00  0.00000000E+00
