Title                                   
   1.00000000000000     
     9.8694509999999998    0.0000000000000000    0.0000000000000000
     0.0000000000000000    8.5490480000000009    0.0000000000000000
     0.0000000000000000    0.0000000000000000   20.0000000000000000
    29     1     1
Selective dynamics
Direct
  0.0558578764865827  0.0892971083015229  0.0878255174306221   T   T   T
  0.9310767036750577  0.1720700127066601  0.0857468949137125   T   T   T
  0.0571508850080672  0.9237383558800427  0.0879553126645212   T   T   T
  0.9327689777316244  0.3391221797403531  0.0858254132737988   T   T   T
  0.0567010388383086  0.5902579193046263  0.0886845440742240   T   T   T
  0.9328416163679534  0.6735565637549469  0.0860330321262753   T   T   T
  0.0568012526678184  0.4229350056671378  0.0886654419692044   T   T   T
  0.9315139701526958  0.8399523589169366  0.0860701714648508   T   T   T
  0.3057829878518323  0.0886798800150994  0.0967974662939417   T   T   T
  0.1809137340222215  0.1712039436671898  0.0924831576189268   T   T   T
  0.1804581731533126  0.3385870525785647  0.0939162554502650   T   T   T
  0.3027963849058953  0.5909591358057018  0.1034742887257811   T   T   T
  0.1810340462190012  0.6743153744561904  0.0936894140328028   T   T   T
  0.3029921542264316  0.4211583293040660  0.1035883776695303   T   T   T
  0.1818851452731381  0.8411876275455968  0.0922548474227545   T   T   T
  0.5557056486451923  0.0889910928903041  0.0981119138144932   T   T   T
  0.4298106037653742  0.1743954714483454  0.1031168415638641   T   T   T
  0.5544322399697192  0.9234622577860371  0.0979959085744449   T   T   T
  0.4269711280792871  0.3401827583331752  0.1112071644996674   T   T   T
  0.4259888357410503  0.6731939763048811  0.1113268686802547   T   T   T
  0.4287818299127685  0.8369944442416560  0.1028959352569533   T   T   T
  0.8053926822802393  0.0893875633422394  0.0864468949795847   T   T   T
  0.6805008390335296  0.1754319779566352  0.0907593414266868   T   T   T
  0.8054320427570962  0.9222370118095521  0.0866387618774127   T   T   T
  0.6831517642468219  0.3412463879898298  0.0900618091707933   T   T   T
  0.8081639353027964  0.5910533178553341  0.0856704099730787   T   T   T
  0.6831905916028174  0.6707630954647812  0.0899369155800929   T   T   T
  0.8082074679085210  0.4212940026303899  0.0855706831319420   T   T   T
  0.6797990487495599  0.8360667918171711  0.0908971436717265   T   T   T
  0.3053966528016810  0.9230692611030159  0.0962134563761999   T   T   T
  0.5716347426236082  0.5060847413820349  0.1411048162916207   T   T   T
 
  0.00000000E+00  0.00000000E+00  0.00000000E+00
  0.00000000E+00  0.00000000E+00  0.00000000E+00
  0.00000000E+00  0.00000000E+00  0.00000000E+00
  0.00000000E+00  0.00000000E+00  0.00000000E+00
  0.00000000E+00  0.00000000E+00  0.00000000E+00
  0.00000000E+00  0.00000000E+00  0.00000000E+00
  0.00000000E+00  0.00000000E+00  0.00000000E+00
  0.00000000E+00  0.00000000E+00  0.00000000E+00
  0.00000000E+00  0.00000000E+00  0.00000000E+00
  0.00000000E+00  0.00000000E+00  0.00000000E+00
  0.00000000E+00  0.00000000E+00  0.00000000E+00
  0.00000000E+00  0.00000000E+00  0.00000000E+00
  0.00000000E+00  0.00000000E+00  0.00000000E+00
  0.00000000E+00  0.00000000E+00  0.00000000E+00
  0.00000000E+00  0.00000000E+00  0.00000000E+00
  0.00000000E+00  0.00000000E+00  0.00000000E+00
  0.00000000E+00  0.00000000E+00  0.00000000E+00
  0.00000000E+00  0.00000000E+00  0.00000000E+00
  0.00000000E+00  0.00000000E+00  0.00000000E+00
  0.00000000E+00  0.00000000E+00  0.00000000E+00
  0.00000000E+00  0.00000000E+00  0.00000000E+00
  0.00000000E+00  0.00000000E+00  0.00000000E+00
  0.00000000E+00  0.00000000E+00  0.00000000E+00
  0.00000000E+00  0.00000000E+00  0.00000000E+00
  0.00000000E+00  0.00000000E+00  0.00000000E+00
  0.00000000E+00  0.00000000E+00  0.00000000E+00
  0.00000000E+00  0.00000000E+00  0.00000000E+00
  0.00000000E+00  0.00000000E+00  0.00000000E+00
  0.00000000E+00  0.00000000E+00  0.00000000E+00
  0.00000000E+00  0.00000000E+00  0.00000000E+00
  0.00000000E+00  0.00000000E+00  0.00000000E+00
