Title                                   
   1.00000000000000     
     9.8694509999999998    0.0000000000000000    0.0000000000000000
     0.0000000000000000    8.5490480000000009    0.0000000000000000
     0.0000000000000000    0.0000000000000000   20.0000000000000000
    26     5     1
Selective dynamics
Direct
  0.0551879282440979  0.0911129834405871  0.0861915232265836   T   T   T
  0.9304135794368926  0.1756720893283142  0.0865279108998995   T   T   T
  0.0570033330183708  0.9231058106666337  0.0860528991650329   T   T   T
  0.9293116439106880  0.3421014945993805  0.0887736848266014   T   T   T
  0.0564991506636037  0.5919658815324762  0.0884697311621179   T   T   T
  0.0550241635096360  0.4242815273600662  0.0897648492923333   T   T   T
  0.9325350674510439  0.8403811082109586  0.0862603952936978   T   T   T
  0.3050234199778035  0.0883337785590784  0.0894943077815647   T   T   T
  0.1809429066481586  0.1733153210512509  0.0885396589649493   T   T   T
  0.1806170122546429  0.3403434548692078  0.0919033539698929   T   T   T
  0.3038516461919751  0.5902643908981577  0.1048682131364056   T   T   T
  0.1806788099176827  0.6740811632603956  0.0923389077393440   T   T   T
  0.3073028257890421  0.4214952412354654  0.0999183522454007   T   T   T
  0.1822610969663520  0.8418844182260711  0.0896568775748722   T   T   T
  0.5557583727296643  0.0868788525207338  0.0926687135062460   T   T   T
  0.5547719863713613  0.9209143406866955  0.0990430570586039   T   T   T
  0.4301950235860628  0.3329867551772559  0.0980801608417901   T   T   T
  0.4269850739620812  0.8399462970151593  0.1059856523509385   T   T   T
  0.8058072238526646  0.0894767181472174  0.0863389136117172   T   T   T
  0.6794323237640472  0.1703575813513340  0.0888754896894200   T   T   T
  0.8078881269392065  0.9238631121584876  0.0872674515317088   T   T   T
  0.6775801862366675  0.3375365622457573  0.0936169069956147   T   T   T
  0.8086626178170448  0.5961241920434922  0.0931536369317894   T   T   T
  0.8015984002649448  0.4275861164690730  0.0924887334396054   T   T   T
  0.6831085717164409  0.8409823519593366  0.0955782058547524   T   T   T
  0.4190133448663959  0.6820695811044322  0.1213901294923255   T   T   T
  0.5520178633573124  0.4048275837447664  0.1036815198052786   T   T   T
  0.6937508999932226  0.6817508682105150  0.1037521133982406   T   T   T
  0.3048401983370719  0.9256421283929486  0.0914260614521105   T   T   T
  0.4288109158078225  0.1668672623844891  0.0920275244372903   T   T   T
  0.9327490246487923  0.6733747510592821  0.0867813332035380   T   T   T
  0.5800162617692131  0.5707222820909835  0.1847587311203505   T   T   T
 
  0.00000000E+00  0.00000000E+00  0.00000000E+00
  0.00000000E+00  0.00000000E+00  0.00000000E+00
  0.00000000E+00  0.00000000E+00  0.00000000E+00
  0.00000000E+00  0.00000000E+00  0.00000000E+00
  0.00000000E+00  0.00000000E+00  0.00000000E+00
  0.00000000E+00  0.00000000E+00  0.00000000E+00
  0.00000000E+00  0.00000000E+00  0.00000000E+00
  0.00000000E+00  0.00000000E+00  0.00000000E+00
  0.00000000E+00  0.00000000E+00  0.00000000E+00
  0.00000000E+00  0.00000000E+00  0.00000000E+00
  0.00000000E+00  0.00000000E+00  0.00000000E+00
  0.00000000E+00  0.00000000E+00  0.00000000E+00
  0.00000000E+00  0.00000000E+00  0.00000000E+00
  0.00000000E+00  0.00000000E+00  0.00000000E+00
  0.00000000E+00  0.00000000E+00  0.00000000E+00
  0.00000000E+00  0.00000000E+00  0.00000000E+00
  0.00000000E+00  0.00000000E+00  0.00000000E+00
  0.00000000E+00  0.00000000E+00  0.00000000E+00
  0.00000000E+00  0.00000000E+00  0.00000000E+00
  0.00000000E+00  0.00000000E+00  0.00000000E+00
  0.00000000E+00  0.00000000E+00  0.00000000E+00
  0.00000000E+00  0.00000000E+00  0.00000000E+00
  0.00000000E+00  0.00000000E+00  0.00000000E+00
  0.00000000E+00  0.00000000E+00  0.00000000E+00
  0.00000000E+00  0.00000000E+00  0.00000000E+00
  0.00000000E+00  0.00000000E+00  0.00000000E+00
  0.00000000E+00  0.00000000E+00  0.00000000E+00
  0.00000000E+00  0.00000000E+00  0.00000000E+00
  0.00000000E+00  0.00000000E+00  0.00000000E+00
  0.00000000E+00  0.00000000E+00  0.00000000E+00
  0.00000000E+00  0.00000000E+00  0.00000000E+00
  0.00000000E+00  0.00000000E+00  0.00000000E+00
