Title                                   
   1.00000000000000     
     9.8694509999999998    0.0000000000000000    0.0000000000000000
     0.0000000000000000    8.5490480000000009    0.0000000000000000
     0.0000000000000000    0.0000000000000000   20.0000000000000000
    30     1     1
Selective dynamics
Direct
  0.0562401028955693  0.0899969533102270  0.0813159514219456   T   T   T
  0.9308572449314750  0.1730378469066753  0.0838539617107629   T   T   T
  0.0562346834981281  0.9232006211104529  0.0814782445952733   T   T   T
  0.9302282978806633  0.3405714402758985  0.0877549948875941   T   T   T
  0.0562312461186316  0.5892397862949666  0.0852406539779194   T   T   T
  0.9313944926701119  0.6727456113737506  0.0876648948021673   T   T   T
  0.0562182862582412  0.4233092006526420  0.0860846506677831   T   T   T
  0.9309257392475729  0.8396083656377648  0.0844422403647591   T   T   T
  0.3054905489346637  0.0893350818360951  0.0856872598396485   T   T   T
  0.1816186916220869  0.1730388571916402  0.0838344724208439   T   T   T
  0.3067095329358309  0.9232144674253230  0.0866031674992963   T   T   T
  0.1822098459899349  0.3405636455256088  0.0877495876006289   T   T   T
  0.3040567663775695  0.5913590224993959  0.1001853221898907   T   T   T
  0.1810786894509385  0.6727445012679732  0.0876412642982824   T   T   T
  0.3060830322854275  0.4225045371316526  0.0980572145038343   T   T   T
  0.1815407733818116  0.8396035620040704  0.0844158050220820   T   T   T
  0.5562378774760475  0.0864057401304872  0.0939019853576927   T   T   T
  0.4310221798708448  0.1696529881347364  0.0927112085147684   T   T   T
  0.4309275857016051  0.3346737500728023  0.1026903759970515   T   T   T
  0.4219039079384664  0.6816662912747583  0.1166343186854019   T   T   T
  0.5562238649502178  0.4068440933606798  0.1188788645130699   T   T   T
  0.4302670588347898  0.8412140055399858  0.0983870552484257   T   T   T
  0.8069929746453307  0.0893319786210704  0.0857178421221426   T   T   T
  0.6814684605728026  0.1696639823918850  0.0927296359426698   T   T   T
  0.8057567728080416  0.9232215630651381  0.0866441120186988   T   T   T
  0.6815370166073689  0.3346798100914715  0.1027075898366745   T   T   T
  0.8084517302835261  0.5913552691560316  0.1002217570421662   T   T   T
  0.6906590040544158  0.6816838013943226  0.1166732660725183   T   T   T
  0.8063707078591583  0.4225116748451815  0.0980709027428841   T   T   T
  0.6822006302096235  0.8412225218727243  0.0984251608793578   T   T   T
  0.5562333645824792  0.9224758829941324  0.0974118862881931   T   T   T
  0.5562678891266303  0.5895691466104652  0.1718593529356072   T   T   T
 
  0.00000000E+00  0.00000000E+00  0.00000000E+00
  0.00000000E+00  0.00000000E+00  0.00000000E+00
  0.00000000E+00  0.00000000E+00  0.00000000E+00
  0.00000000E+00  0.00000000E+00  0.00000000E+00
  0.00000000E+00  0.00000000E+00  0.00000000E+00
  0.00000000E+00  0.00000000E+00  0.00000000E+00
  0.00000000E+00  0.00000000E+00  0.00000000E+00
  0.00000000E+00  0.00000000E+00  0.00000000E+00
  0.00000000E+00  0.00000000E+00  0.00000000E+00
  0.00000000E+00  0.00000000E+00  0.00000000E+00
  0.00000000E+00  0.00000000E+00  0.00000000E+00
  0.00000000E+00  0.00000000E+00  0.00000000E+00
  0.00000000E+00  0.00000000E+00  0.00000000E+00
  0.00000000E+00  0.00000000E+00  0.00000000E+00
  0.00000000E+00  0.00000000E+00  0.00000000E+00
  0.00000000E+00  0.00000000E+00  0.00000000E+00
  0.00000000E+00  0.00000000E+00  0.00000000E+00
  0.00000000E+00  0.00000000E+00  0.00000000E+00
  0.00000000E+00  0.00000000E+00  0.00000000E+00
  0.00000000E+00  0.00000000E+00  0.00000000E+00
  0.00000000E+00  0.00000000E+00  0.00000000E+00
  0.00000000E+00  0.00000000E+00  0.00000000E+00
  0.00000000E+00  0.00000000E+00  0.00000000E+00
  0.00000000E+00  0.00000000E+00  0.00000000E+00
  0.00000000E+00  0.00000000E+00  0.00000000E+00
  0.00000000E+00  0.00000000E+00  0.00000000E+00
  0.00000000E+00  0.00000000E+00  0.00000000E+00
  0.00000000E+00  0.00000000E+00  0.00000000E+00
  0.00000000E+00  0.00000000E+00  0.00000000E+00
  0.00000000E+00  0.00000000E+00  0.00000000E+00
  0.00000000E+00  0.00000000E+00  0.00000000E+00
  0.00000000E+00  0.00000000E+00  0.00000000E+00
