Title                                   
   1.00000000000000     
     9.8694509999999998    0.0000000000000000    0.0000000000000000
     0.0000000000000000    8.5490480000000009    0.0000000000000000
     0.0000000000000000    0.0000000000000000   20.0000000000000000
    28     3     1
Selective dynamics
Direct
  0.0559674551392446  0.0893586034089849  0.0866589670808728   T   T   T
  0.9316396196770975  0.1731615951049318  0.0871825335273508   T   T   T
  0.0569398299060541  0.9220997734213323  0.0872555563064260   T   T   T
  0.9313200427551376  0.3405252234427327  0.0887075740064021   T   T   T
  0.0561157321834974  0.5912361179036707  0.0889472679227426   T   T   T
  0.0557801787235927  0.4244104319918628  0.0884395737156406   T   T   T
  0.9324560433852098  0.8382130459084546  0.0891347935104529   T   T   T
  0.3060966237364771  0.0886884799842049  0.0899529648349203   T   T   T
  0.1818546213292828  0.1723970777768373  0.0881821881941418   T   T   T
  0.1813769091671794  0.3396512854619639  0.0899474936882028   T   T   T
  0.3040350848268231  0.5875890061649702  0.0998192554297694   T   T   T
  0.1807013379888607  0.6745178191205780  0.0916126409153259   T   T   T
  0.3054229304238795  0.4212861214467509  0.0973466957073836   T   T   T
  0.1825768672699855  0.8405356604746352  0.0896680526855678   T   T   T
  0.5561066960344208  0.0887654946609940  0.0934126115401790   T   T   T
  0.5549468502019334  0.9238430485705884  0.0981900064201131   T   T   T
  0.4305866083374728  0.3343212737730499  0.1010025757142674   T   T   T
  0.4287197295666151  0.8401700798789121  0.1015074853460248   T   T   T
  0.8069888221270333  0.0886111959563924  0.0887788802328331   T   T   T
  0.6806627456998111  0.1716793990027368  0.0920688825429157   T   T   T
  0.8071020304678178  0.9224752009250166  0.0910567006880432   T   T   T
  0.6830629037132726  0.3384411263000593  0.0983945168864179   T   T   T
  0.8088297578249045  0.5919103901943558  0.0993735770578787   T   T   T
  0.8073382276064993  0.4233788516946910  0.0951678925620285   T   T   T
  0.6815014818007197  0.8420432509220405  0.0997602933950571   T   T   T
  0.4213983491749067  0.6795765000633659  0.1119154820194387   T   T   T
  0.5552794755085683  0.4084047429185534  0.1104931314470701   T   T   T
  0.6913223387731414  0.6788613627919721  0.1116643994851221   T   T   T
  0.3056262307328653  0.9248857961031591  0.0914308243148648   T   T   T
  0.4291397232085126  0.1686355682079309  0.0929100743305304   T   T   T
  0.9325272717740574  0.6735411875001603  0.0900655231837615   T   T   T
  0.5562164809351313  0.5870312889241129  0.1556265853082705   T   T   T
 
  0.00000000E+00  0.00000000E+00  0.00000000E+00
  0.00000000E+00  0.00000000E+00  0.00000000E+00
  0.00000000E+00  0.00000000E+00  0.00000000E+00
  0.00000000E+00  0.00000000E+00  0.00000000E+00
  0.00000000E+00  0.00000000E+00  0.00000000E+00
  0.00000000E+00  0.00000000E+00  0.00000000E+00
  0.00000000E+00  0.00000000E+00  0.00000000E+00
  0.00000000E+00  0.00000000E+00  0.00000000E+00
  0.00000000E+00  0.00000000E+00  0.00000000E+00
  0.00000000E+00  0.00000000E+00  0.00000000E+00
  0.00000000E+00  0.00000000E+00  0.00000000E+00
  0.00000000E+00  0.00000000E+00  0.00000000E+00
  0.00000000E+00  0.00000000E+00  0.00000000E+00
  0.00000000E+00  0.00000000E+00  0.00000000E+00
  0.00000000E+00  0.00000000E+00  0.00000000E+00
  0.00000000E+00  0.00000000E+00  0.00000000E+00
  0.00000000E+00  0.00000000E+00  0.00000000E+00
  0.00000000E+00  0.00000000E+00  0.00000000E+00
  0.00000000E+00  0.00000000E+00  0.00000000E+00
  0.00000000E+00  0.00000000E+00  0.00000000E+00
  0.00000000E+00  0.00000000E+00  0.00000000E+00
  0.00000000E+00  0.00000000E+00  0.00000000E+00
  0.00000000E+00  0.00000000E+00  0.00000000E+00
  0.00000000E+00  0.00000000E+00  0.00000000E+00
  0.00000000E+00  0.00000000E+00  0.00000000E+00
  0.00000000E+00  0.00000000E+00  0.00000000E+00
  0.00000000E+00  0.00000000E+00  0.00000000E+00
  0.00000000E+00  0.00000000E+00  0.00000000E+00
  0.00000000E+00  0.00000000E+00  0.00000000E+00
  0.00000000E+00  0.00000000E+00  0.00000000E+00
  0.00000000E+00  0.00000000E+00  0.00000000E+00
  0.00000000E+00  0.00000000E+00  0.00000000E+00
