Title                                   
   1.00000000000000     
     4.9440799999999996    0.0000000000000000    0.0000000000000000
     0.0000000000000000    8.5647549999999999    0.0000000000000000
     0.0000000000000000    0.0000000000000000   20.0000000000000000
    11     3     1
Selective dynamics
Direct
  0.0014482675295553  0.2974891597813539  0.1017817881873179   T   T   T
  0.2432030694359364  0.0407684222663449  0.0964944982448269   T   T   T
 -0.0074078137174316  0.9532727476580728  0.1017974137581556   T   T   T
  0.7523298021912884  0.2079357859749706  0.0941348928250599   T   T   T
  0.5020405877037861  0.2910670026490445  0.0929506920812642   T   T   T
  0.7478576177827020  0.0396952287499935  0.0932789979048376   T   T   T
  0.7401330385743981  0.7095327966381488  0.0981816596344898   T   T   T
  0.7463420236645009  0.5377170188670604  0.0995163724674812   T   T   T
  0.4920363654189963  0.9604676946902269  0.0896726429051301   T   T   T
  0.4986321510228921  0.7939351900088669  0.0871956709371170   T   T   T
 -0.0047069102259896  0.4615046441470620  0.1131545474666630   T   T   T
  0.5047740341355174  0.4517177718514697  0.0913669358825015   T   T   T
 -0.0137262887109606  0.7882308556411708  0.1164367624163788   T   T   T
  0.2482013903707227  0.2106418155849355  0.0972734041672912   T   T   T
  0.2988426648240860  0.6277048654912800  0.1347437211214887   T   T   T
 
  0.00000000E+00  0.00000000E+00  0.00000000E+00
  0.00000000E+00  0.00000000E+00  0.00000000E+00
  0.00000000E+00  0.00000000E+00  0.00000000E+00
  0.00000000E+00  0.00000000E+00  0.00000000E+00
  0.00000000E+00  0.00000000E+00  0.00000000E+00
  0.00000000E+00  0.00000000E+00  0.00000000E+00
  0.00000000E+00  0.00000000E+00  0.00000000E+00
  0.00000000E+00  0.00000000E+00  0.00000000E+00
  0.00000000E+00  0.00000000E+00  0.00000000E+00
  0.00000000E+00  0.00000000E+00  0.00000000E+00
  0.00000000E+00  0.00000000E+00  0.00000000E+00
  0.00000000E+00  0.00000000E+00  0.00000000E+00
  0.00000000E+00  0.00000000E+00  0.00000000E+00
  0.00000000E+00  0.00000000E+00  0.00000000E+00
  0.00000000E+00  0.00000000E+00  0.00000000E+00
