Title                                   
   1.00000000000000     
     4.9440799999999996    0.0000000000000000    0.0000000000000000
     0.0000000000000000    8.5647549999999999    0.0000000000000000
     0.0000000000000000    0.0000000000000000   20.0000000000000000
    11     3     1
Selective dynamics
Direct
  0.0018415452887367  0.2930496141897683  0.0955403935373494   T   T   T
  0.2500000000000000  0.0377376384099598  0.0952696228751698   T   T   T
 -0.0012357969423930  0.9557209500390520  0.0956149076108912   T   T   T
  0.7500000000000000  0.2076385425690571  0.0927651734090452   T   T   T
  0.4981584547112634  0.2930496141897683  0.0955403935373494   T   T   T
  0.7500000000000000  0.0400050162132550  0.0935336300104070   T   T   T
  0.7500000000000000  0.7144018419954774  0.0992570646220625   T   T   T
  0.7500000000000000  0.5423050519076259  0.1017954032305595   T   T   T
  0.5012357969423931  0.9557209500390520  0.0956149076108912   T   T   T
  0.4975589335105093  0.4579267903826560  0.1023763393641737   T   T   T
  0.0024410664894908  0.4579267903826560  0.1023763393641737   T   T   T
 -0.0078802111857137  0.7920723265024282  0.0994074972872390   T   T   T
  0.5078802111857137  0.7920723265024282  0.0994074972872390   T   T   T
  0.2500000000000000  0.2072260348189514  0.0949412466792303   T   T   T
  0.2500000000000000  0.6248275118578673  0.1445395835742228   T   T   T
 
  0.00000000E+00  0.00000000E+00  0.00000000E+00
  0.00000000E+00  0.00000000E+00  0.00000000E+00
  0.00000000E+00  0.00000000E+00  0.00000000E+00
  0.00000000E+00  0.00000000E+00  0.00000000E+00
  0.00000000E+00  0.00000000E+00  0.00000000E+00
  0.00000000E+00  0.00000000E+00  0.00000000E+00
  0.00000000E+00  0.00000000E+00  0.00000000E+00
  0.00000000E+00  0.00000000E+00  0.00000000E+00
  0.00000000E+00  0.00000000E+00  0.00000000E+00
  0.00000000E+00  0.00000000E+00  0.00000000E+00
  0.00000000E+00  0.00000000E+00  0.00000000E+00
  0.00000000E+00  0.00000000E+00  0.00000000E+00
  0.00000000E+00  0.00000000E+00  0.00000000E+00
  0.00000000E+00  0.00000000E+00  0.00000000E+00
  0.00000000E+00  0.00000000E+00  0.00000000E+00
