Title                                   
   1.00000000000000     
     8.5490480000000009    0.0000000000000000    0.0000000000000000
     0.0000000000000000    8.5490480000000009    0.0000000000000000
     0.0000000000000000    0.0000000000000000   20.0000000000000000
    18     6     1
Selective dynamics
Direct
  0.9088943633653859  0.2046811744640444  0.0973801369529618   T   T   T
  0.9113901825661489  0.8020040542430077  0.0973791426163204   T   T   T
  0.1949088898053649  0.0833159144017337  0.0976317525337366   T   T   T
  0.0753023577951816  0.2000760230078960  0.0974975933529239   T   T   T
  0.1554670297882341  0.6523313305326647  0.0977743588033762   T   T   T
  0.0773431891334940  0.5006917745283482  0.0977720917406548   T   T   T
  0.1551036174332965  0.3499219985823757  0.0977821554964988   T   T   T
  0.0780209291202791  0.8000753459514446  0.0975456051200990   T   T   T
  0.4935236233378641  0.0878754332464272  0.0978940956185354   T   T   T
  0.3420504346701339  0.1649888580184712  0.0979293559552327   T   T   T
  0.4931564556627999  0.9168312643313032  0.0977924948218349   T   T   T
  0.3424326433707650  0.8364827542561060  0.0978582192109199   T   T   T
  0.7896817508506369  0.0870037840709096  0.0974338017322657   T   T   T
  0.6428271338394672  0.1681393515960240  0.0978572590667310   T   T   T
  0.7904362053212739  0.9191758162065591  0.0973961231280512   T   T   T
  0.8311119263431052  0.6520955447942794  0.0976511199633494   T   T   T
  0.8291948109526204  0.3533835285309830  0.0977529276359567   T   T   T
  0.6440221062668430  0.8366637547112792  0.0976688130458749   T   T   T
  0.9079550438534815  0.5023554576383731  0.0977590462685055   T   T   T
  0.3148769219644160  0.3241862250714615  0.0981209763480072   T   T   T
  0.3154421234328741  0.6800049533050699  0.0980312547235041   T   T   T
  0.6706918011833167  0.3294595061830882  0.0981623958789386   T   T   T
  0.6730586692942457  0.6755106525777804  0.0978630649689613   T   T   T
  0.1961426792346734  0.9161362278723972  0.0976619492086234   T   T   T
  0.4923771114140909  0.5013992718779712  0.0981092658081171   T   T   T
 
  0.00000000E+00  0.00000000E+00  0.00000000E+00
  0.00000000E+00  0.00000000E+00  0.00000000E+00
  0.00000000E+00  0.00000000E+00  0.00000000E+00
  0.00000000E+00  0.00000000E+00  0.00000000E+00
  0.00000000E+00  0.00000000E+00  0.00000000E+00
  0.00000000E+00  0.00000000E+00  0.00000000E+00
  0.00000000E+00  0.00000000E+00  0.00000000E+00
  0.00000000E+00  0.00000000E+00  0.00000000E+00
  0.00000000E+00  0.00000000E+00  0.00000000E+00
  0.00000000E+00  0.00000000E+00  0.00000000E+00
  0.00000000E+00  0.00000000E+00  0.00000000E+00
  0.00000000E+00  0.00000000E+00  0.00000000E+00
  0.00000000E+00  0.00000000E+00  0.00000000E+00
  0.00000000E+00  0.00000000E+00  0.00000000E+00
  0.00000000E+00  0.00000000E+00  0.00000000E+00
  0.00000000E+00  0.00000000E+00  0.00000000E+00
  0.00000000E+00  0.00000000E+00  0.00000000E+00
  0.00000000E+00  0.00000000E+00  0.00000000E+00
  0.00000000E+00  0.00000000E+00  0.00000000E+00
  0.00000000E+00  0.00000000E+00  0.00000000E+00
  0.00000000E+00  0.00000000E+00  0.00000000E+00
  0.00000000E+00  0.00000000E+00  0.00000000E+00
  0.00000000E+00  0.00000000E+00  0.00000000E+00
  0.00000000E+00  0.00000000E+00  0.00000000E+00
  0.00000000E+00  0.00000000E+00  0.00000000E+00
