Title                                   
   1.00000000000000     
     8.5490480000000009    0.0000000000000000    0.0000000000000000
     0.0000000000000000    8.5490480000000009    0.0000000000000000
     0.0000000000000000    0.0000000000000000   20.0000000000000000
    21     3     1
Selective dynamics
Direct
  0.9083497081201586  0.2042872635497611  0.0950936925864058   T   T   T
  0.9049639896416255  0.5027169245309928  0.0962208528263149   T   T   T
  0.9107204731714428  0.8023598327407090  0.0951560982126987   T   T   T
  0.1963528254059724  0.0833689494424223  0.0948588834800218   T   T   T
  0.0756795422269921  0.2018262995916349  0.0950793280172986   T   T   T
  0.1564515721305527  0.6491422770346287  0.0966841171974220   T   T   T
  0.0740772879587045  0.5013350139905164  0.0965332916580706   T   T   T
  0.1555207056508664  0.3538757262799563  0.0968473384722480   T   T   T
  0.0786600708803108  0.7989857073206763  0.0950324338683547   T   T   T
  0.4941151237037836  0.0867136480598977  0.0962948099751442   T   T   T
  0.3455893607481427  0.1640778833367333  0.0965921002241824   T   T   T
  0.4936735844590754  0.9175728793173195  0.0962687393912595   T   T   T
  0.3457522703167104  0.8368928438499981  0.0965679185531024   T   T   T
  0.7886172220322364  0.0865437353492079  0.0952814088784085   T   T   T
  0.6411969105189868  0.1664130873325048  0.0963807039407181   T   T   T
  0.7893953573436686  0.9193616926611898  0.0952672444450761   T   T   T
  0.8291192728692854  0.6526286977866986  0.0963811680260214   T   T   T
  0.8273168385824576  0.3531053733383084  0.0961230131823158   T   T   T
  0.6417945284861218  0.8379076413861111  0.0964280672802763   T   T   T
  0.3222690015205435  0.3310472658565360  0.0998484921439725   T   T   T
  0.3230431629829306  0.6730423801523129  0.0990140452151125   T   T   T
  0.6654163809476937  0.3297313046110832  0.0979436702560696   T   T   T
  0.6670249888453358  0.6753821822905374  0.0983720731825166   T   T   T
  0.1971230349793092  0.9167175065242684  0.0947193298135550   T   T   T
  0.4931887864770851  0.4997538836660159  0.1307161791734066   T   T   T
 
  0.00000000E+00  0.00000000E+00  0.00000000E+00
  0.00000000E+00  0.00000000E+00  0.00000000E+00
  0.00000000E+00  0.00000000E+00  0.00000000E+00
  0.00000000E+00  0.00000000E+00  0.00000000E+00
  0.00000000E+00  0.00000000E+00  0.00000000E+00
  0.00000000E+00  0.00000000E+00  0.00000000E+00
  0.00000000E+00  0.00000000E+00  0.00000000E+00
  0.00000000E+00  0.00000000E+00  0.00000000E+00
  0.00000000E+00  0.00000000E+00  0.00000000E+00
  0.00000000E+00  0.00000000E+00  0.00000000E+00
  0.00000000E+00  0.00000000E+00  0.00000000E+00
  0.00000000E+00  0.00000000E+00  0.00000000E+00
  0.00000000E+00  0.00000000E+00  0.00000000E+00
  0.00000000E+00  0.00000000E+00  0.00000000E+00
  0.00000000E+00  0.00000000E+00  0.00000000E+00
  0.00000000E+00  0.00000000E+00  0.00000000E+00
  0.00000000E+00  0.00000000E+00  0.00000000E+00
  0.00000000E+00  0.00000000E+00  0.00000000E+00
  0.00000000E+00  0.00000000E+00  0.00000000E+00
  0.00000000E+00  0.00000000E+00  0.00000000E+00
  0.00000000E+00  0.00000000E+00  0.00000000E+00
  0.00000000E+00  0.00000000E+00  0.00000000E+00
  0.00000000E+00  0.00000000E+00  0.00000000E+00
  0.00000000E+00  0.00000000E+00  0.00000000E+00
  0.00000000E+00  0.00000000E+00  0.00000000E+00
