Title                                   
   1.00000000000000     
     9.8694509999999998    0.0000000000000000    0.0000000000000000
     0.0000000000000000    8.5490480000000009    0.0000000000000000
     0.0000000000000000    0.0000000000000000   20.0000000000000000
    28     2     1
Selective dynamics
Direct
  0.0557120963844948  0.0893142135482961  0.0835996870973609   T   T   T
  0.9304071049809960  0.1737413707362563  0.0854058021856809   T   T   T
  0.0567305676844180  0.9230419815166583  0.0835933742749074   T   T   T
  0.9320439204170733  0.3408804583523337  0.0852866035831893   T   T   T
  0.0563871699289611  0.5893998956768509  0.0824186148796386   T   T   T
  0.9330363078461427  0.6748258361737980  0.0857860490140898   T   T   T
  0.0561005900123737  0.4229274815998474  0.0824136937173784   T   T   T
  0.9324835321116184  0.8414492240979851  0.0861260849488438   T   T   T
  0.3054443922691096  0.0884687156622796  0.0918440751885386   T   T   T
  0.1799324289562729  0.1709095796226860  0.0862071744662538   T   T   T
  0.3068230444028409  0.9210159733196156  0.0910849868471274   T   T   T
  0.1794429699772786  0.3375191270905436  0.0858854905170006   T   T   T
  0.3043415009425743  0.5879258797028393  0.0940726555121524   T   T   T
  0.1804242604965011  0.6714591604325875  0.0854003255125729   T   T   T
  0.3025530514156080  0.4168411459174532  0.0953068744005098   T   T   T
  0.1820150335254109  0.8386141744792531  0.0854874506941776   T   T   T
  0.5556902549145005  0.0904912650133808  0.1031757207099801   T   T   T
  0.4270639459805217  0.1748328058048834  0.1013757283223070   T   T   T
  0.5567331687136839  0.9217964617125507  0.1031923146019290   T   T   T
  0.4260102579297285  0.6697942474595961  0.1035450170867074   T   T   T
  0.4305096104450730  0.8350405675330241  0.0997191069531300   T   T   T
  0.8055981702094932  0.0912938874361559  0.0909557217405301   T   T   T
  0.6818962257064259  0.1772489463236458  0.0995396961695727   T   T   T
  0.8069665818952083  0.9238533534261616  0.0917274604584786   T   T   T
  0.6864191694321853  0.3425138688964920  0.1032219060078403   T   T   T
  0.8099445653945033  0.5954512457445656  0.0950871904311516   T   T   T
  0.8080934686353994  0.4243829393052749  0.0938203218424283   T   T   T
  0.6853713062393588  0.8374501167151044  0.1012496498162549   T   T   T
  0.4204861143264162  0.3362077718854006  0.1071546868393173   T   T   T
  0.6920196281663357  0.6760785650591877  0.1069015435895048   T   T   T
  0.5564545606594989  0.5061047397553040  0.1503799925914865   T   T   T
 
  0.00000000E+00  0.00000000E+00  0.00000000E+00
  0.00000000E+00  0.00000000E+00  0.00000000E+00
  0.00000000E+00  0.00000000E+00  0.00000000E+00
  0.00000000E+00  0.00000000E+00  0.00000000E+00
  0.00000000E+00  0.00000000E+00  0.00000000E+00
  0.00000000E+00  0.00000000E+00  0.00000000E+00
  0.00000000E+00  0.00000000E+00  0.00000000E+00
  0.00000000E+00  0.00000000E+00  0.00000000E+00
  0.00000000E+00  0.00000000E+00  0.00000000E+00
  0.00000000E+00  0.00000000E+00  0.00000000E+00
  0.00000000E+00  0.00000000E+00  0.00000000E+00
  0.00000000E+00  0.00000000E+00  0.00000000E+00
  0.00000000E+00  0.00000000E+00  0.00000000E+00
  0.00000000E+00  0.00000000E+00  0.00000000E+00
  0.00000000E+00  0.00000000E+00  0.00000000E+00
  0.00000000E+00  0.00000000E+00  0.00000000E+00
  0.00000000E+00  0.00000000E+00  0.00000000E+00
  0.00000000E+00  0.00000000E+00  0.00000000E+00
  0.00000000E+00  0.00000000E+00  0.00000000E+00
  0.00000000E+00  0.00000000E+00  0.00000000E+00
  0.00000000E+00  0.00000000E+00  0.00000000E+00
  0.00000000E+00  0.00000000E+00  0.00000000E+00
  0.00000000E+00  0.00000000E+00  0.00000000E+00
  0.00000000E+00  0.00000000E+00  0.00000000E+00
  0.00000000E+00  0.00000000E+00  0.00000000E+00
  0.00000000E+00  0.00000000E+00  0.00000000E+00
  0.00000000E+00  0.00000000E+00  0.00000000E+00
  0.00000000E+00  0.00000000E+00  0.00000000E+00
  0.00000000E+00  0.00000000E+00  0.00000000E+00
  0.00000000E+00  0.00000000E+00  0.00000000E+00
  0.00000000E+00  0.00000000E+00  0.00000000E+00
