Title                                   
   1.00000000000000     
     8.5490480000000009    0.0000000000000000    0.0000000000000000
     0.0000000000000000    8.5490480000000009    0.0000000000000000
     0.0000000000000000    0.0000000000000000   20.0000000000000000
    20     4     1
Selective dynamics
Direct
  0.9075430993171955  0.2079878063965099  0.0941610915013275   T   T   T
  0.9129836103192971  0.8012154750495577  0.0960360417213784   T   T   T
  0.1955025514300411  0.0818632526415357  0.0965685967806096   T   T   T
  0.0734244822288753  0.2014883866593426  0.0963755177990467   T   T   T
  0.1578607933175660  0.6477348226507640  0.0943330123710865   T   T   T
  0.0765463324392165  0.5005041853149480  0.0969219968450410   T   T   T
  0.1540322765334000  0.3502766345008165  0.0994321914010435   T   T   T
  0.0802097243286526  0.7976966819015933  0.0943034719889628   T   T   T
  0.4925367983728057  0.0866364884530360  0.0969984013651792   T   T   T
  0.3408744280772557  0.1633315135837660  0.0994591402359765   T   T   T
  0.4942650081828714  0.9171697858900451  0.0973524006034203   T   T   T
  0.3473745771819636  0.8344319880140674  0.0949400013117892   T   T   T
  0.7865650550872501  0.0883807828898420  0.0942793256718987   T   T   T
  0.6376209475660883  0.1693826316949943  0.0944223737655874   T   T   T
  0.7898366859297539  0.9205514379847762  0.0963778781663051   T   T   T
  0.8323763504560452  0.6526047455484019  0.0987083479882225   T   T   T
  0.8278401957158040  0.3594511236527819  0.0940866187134832   T   T   T
  0.6439356160248300  0.8371522680324550  0.0993697850190347   T   T   T
  0.3242720915936062  0.6708615191195012  0.0941297327344943   T   T   T
  0.6625371729525538  0.3383685946133888  0.0944859629697280   T   T   T
  0.9093011987773151  0.5043047987972549  0.0965521809095021   T   T   T
  0.3162363827197456  0.3263668361725055  0.1046774112188681   T   T   T
  0.6708005240018542  0.6731114057297725  0.1042917139568325   T   T   T
  0.1983711163867425  0.9149406253671810  0.0943367081855615   T   T   T
  0.4925649810592563  0.4989762093411749  0.1211050967756010   T   T   T
 
  0.00000000E+00  0.00000000E+00  0.00000000E+00
  0.00000000E+00  0.00000000E+00  0.00000000E+00
  0.00000000E+00  0.00000000E+00  0.00000000E+00
  0.00000000E+00  0.00000000E+00  0.00000000E+00
  0.00000000E+00  0.00000000E+00  0.00000000E+00
  0.00000000E+00  0.00000000E+00  0.00000000E+00
  0.00000000E+00  0.00000000E+00  0.00000000E+00
  0.00000000E+00  0.00000000E+00  0.00000000E+00
  0.00000000E+00  0.00000000E+00  0.00000000E+00
  0.00000000E+00  0.00000000E+00  0.00000000E+00
  0.00000000E+00  0.00000000E+00  0.00000000E+00
  0.00000000E+00  0.00000000E+00  0.00000000E+00
  0.00000000E+00  0.00000000E+00  0.00000000E+00
  0.00000000E+00  0.00000000E+00  0.00000000E+00
  0.00000000E+00  0.00000000E+00  0.00000000E+00
  0.00000000E+00  0.00000000E+00  0.00000000E+00
  0.00000000E+00  0.00000000E+00  0.00000000E+00
  0.00000000E+00  0.00000000E+00  0.00000000E+00
  0.00000000E+00  0.00000000E+00  0.00000000E+00
  0.00000000E+00  0.00000000E+00  0.00000000E+00
  0.00000000E+00  0.00000000E+00  0.00000000E+00
  0.00000000E+00  0.00000000E+00  0.00000000E+00
  0.00000000E+00  0.00000000E+00  0.00000000E+00
  0.00000000E+00  0.00000000E+00  0.00000000E+00
  0.00000000E+00  0.00000000E+00  0.00000000E+00
