Title                                   
   1.00000000000000     
     4.9440799999999996    0.0000000000000000    0.0000000000000000
     0.0000000000000000    8.5647549999999999    0.0000000000000000
     0.0000000000000000    0.0000000000000000   20.0000000000000000
    10     4     1
Selective dynamics
Direct
 -0.0036462457192366  0.2943002450970110  0.1004333700048133   T   T   T
  0.2483267375793614  0.0383076079595958  0.1005477788635887   T   T   T
 -0.0033058656804900  0.9574208355255664  0.1003338821713693   T   T   T
  0.7464373328743050  0.2078626522712216  0.1005383352277743   T   T   T
  0.4977342565488980  0.2934974316215945  0.1006343290866156   T   T   T
  0.7487686999627110  0.0410977813039144  0.1005234626444412   T   T   T
  0.7556122758389560  0.7157036281917625  0.1005277316571220   T   T   T
  0.7540768877595528  0.5376770521452433  0.1005235304720653   T   T   T
  0.5011492623692746  0.9550739025585234  0.1007277040184844   T   T   T
  0.5104007564705739  0.4576635657280077  0.1007786183664843   T   T   T
 -0.0084139064283668  0.4523334122139609  0.1002376763292648   T   T   T
 -0.0127956902266296  0.7962712041062288  0.0999705866232199   T   T   T
  0.5166949033703460  0.7931260977475776  0.1011564229947028   T   T   T
  0.2469943431972823  0.2098449236729101  0.1005990521194363   T   T   T
  0.2519662520834610  0.6215006598568849  0.1004475194206214   T   T   T
 
  0.00000000E+00  0.00000000E+00  0.00000000E+00
  0.00000000E+00  0.00000000E+00  0.00000000E+00
  0.00000000E+00  0.00000000E+00  0.00000000E+00
  0.00000000E+00  0.00000000E+00  0.00000000E+00
  0.00000000E+00  0.00000000E+00  0.00000000E+00
  0.00000000E+00  0.00000000E+00  0.00000000E+00
  0.00000000E+00  0.00000000E+00  0.00000000E+00
  0.00000000E+00  0.00000000E+00  0.00000000E+00
  0.00000000E+00  0.00000000E+00  0.00000000E+00
  0.00000000E+00  0.00000000E+00  0.00000000E+00
  0.00000000E+00  0.00000000E+00  0.00000000E+00
  0.00000000E+00  0.00000000E+00  0.00000000E+00
  0.00000000E+00  0.00000000E+00  0.00000000E+00
  0.00000000E+00  0.00000000E+00  0.00000000E+00
  0.00000000E+00  0.00000000E+00  0.00000000E+00
