Title                                   
   1.00000000000000     
     9.8694509999999998    0.0000000000000000    0.0000000000000000
     0.0000000000000000    8.5490480000000009    0.0000000000000000
     0.0000000000000000    0.0000000000000000   20.0000000000000000
    28     2     1
Selective dynamics
Direct
  0.0561076013789298  0.0892881485120017  0.0797825878345978   T   T   T
  0.9309444534024900  0.1718908189721665  0.0819866958603629   T   T   T
  0.0572496301179875  0.9241229962224349  0.0805987431591395   T   T   T
  0.9331554788624699  0.3388346312811343  0.0809836752494441   T   T   T
  0.0566653594782780  0.5902084043365311  0.0771070884865445   T   T   T
  0.9332756279305655  0.6739515410464493  0.0822525210576013   T   T   T
  0.0567460055267371  0.4233755891136353  0.0764879832748115   T   T   T
  0.9316483564080518  0.8407942165133604  0.0834119104958388   T   T   T
  0.3066675701003121  0.0880373890516407  0.0914275522702089   T   T   T
  0.1819182247488428  0.1706731371955914  0.0824229082452735   T   T   T
  0.1798274045577159  0.3381480628582957  0.0818804327109598   T   T   T
  0.2980543201008313  0.5905084177017993  0.0972391704407415   T   T   T
  0.1804317206603226  0.6744524022594083  0.0832184479406827   T   T   T
  0.2984578045829198  0.4204011393344075  0.0966691593125057   T   T   T
  0.1821690603637180  0.8421637694106288  0.0841737977846371   T   T   T
  0.4284823698315470  0.1743290873287244  0.1043443022831428   T   T   T
  0.5557475684840616  0.9246357857726725  0.1088146907126630   T   T   T
  0.4201885338365898  0.3380093029469730  0.1128331676018451   T   T   T
  0.4191170593082164  0.6735489477007094  0.1140843917487182   T   T   T
  0.4267304622612265  0.8376981792939096  0.1064228770529942   T   T   T
  0.8056997909182415  0.0893749047631933  0.0908738798310455   T   T   T
  0.6835748057233930  0.1758735629159406  0.1032260497759279   T   T   T
  0.8069688357249607  0.9225380870772802  0.0919671319872052   T   T   T
  0.6915562240104606  0.3400016760072564  0.1113550711474988   T   T   T
  0.8141367152475258  0.5910386491661204  0.0954875886020696   T   T   T
  0.6922175346004706  0.6711098219222094  0.1126370329196295   T   T   T
  0.8140244568570433  0.4207686590769071  0.0949142441943306   T   T   T
  0.6834209473662639  0.8373306134836336  0.1053995218440465   T   T   T
  0.5569202527794170  0.0882926300146250  0.1079303364464996   T   T   T
  0.3047630912408161  0.9231540233809000  0.0921900330637781   T   T   T
  0.5562677335895960  0.5063204053394802  0.1288420066652825   T   T   T
 
  0.00000000E+00  0.00000000E+00  0.00000000E+00
  0.00000000E+00  0.00000000E+00  0.00000000E+00
  0.00000000E+00  0.00000000E+00  0.00000000E+00
  0.00000000E+00  0.00000000E+00  0.00000000E+00
  0.00000000E+00  0.00000000E+00  0.00000000E+00
  0.00000000E+00  0.00000000E+00  0.00000000E+00
  0.00000000E+00  0.00000000E+00  0.00000000E+00
  0.00000000E+00  0.00000000E+00  0.00000000E+00
  0.00000000E+00  0.00000000E+00  0.00000000E+00
  0.00000000E+00  0.00000000E+00  0.00000000E+00
  0.00000000E+00  0.00000000E+00  0.00000000E+00
  0.00000000E+00  0.00000000E+00  0.00000000E+00
  0.00000000E+00  0.00000000E+00  0.00000000E+00
  0.00000000E+00  0.00000000E+00  0.00000000E+00
  0.00000000E+00  0.00000000E+00  0.00000000E+00
  0.00000000E+00  0.00000000E+00  0.00000000E+00
  0.00000000E+00  0.00000000E+00  0.00000000E+00
  0.00000000E+00  0.00000000E+00  0.00000000E+00
  0.00000000E+00  0.00000000E+00  0.00000000E+00
  0.00000000E+00  0.00000000E+00  0.00000000E+00
  0.00000000E+00  0.00000000E+00  0.00000000E+00
  0.00000000E+00  0.00000000E+00  0.00000000E+00
  0.00000000E+00  0.00000000E+00  0.00000000E+00
  0.00000000E+00  0.00000000E+00  0.00000000E+00
  0.00000000E+00  0.00000000E+00  0.00000000E+00
  0.00000000E+00  0.00000000E+00  0.00000000E+00
  0.00000000E+00  0.00000000E+00  0.00000000E+00
  0.00000000E+00  0.00000000E+00  0.00000000E+00
  0.00000000E+00  0.00000000E+00  0.00000000E+00
  0.00000000E+00  0.00000000E+00  0.00000000E+00
  0.00000000E+00  0.00000000E+00  0.00000000E+00
