Title                                   
   1.00000000000000     
     9.8694509999999998    0.0000000000000000    0.0000000000000000
     0.0000000000000000    8.5490480000000009    0.0000000000000000
     0.0000000000000000    0.0000000000000000   20.0000000000000000
    29     2     1
Selective dynamics
Direct
  0.0566560321957304  0.0907300546892374  0.0852896824469393   T   T   T
  0.9311307817813232  0.1713013269452786  0.0876055908975884   T   T   T
  0.0547513185999919  0.9239773869816259  0.0845388599439733   T   T   T
  0.9324082755758965  0.3385419412836811  0.0905105373927566   T   T   T
  0.0563510894884292  0.5894187218165409  0.0874686441532085   T   T   T
  0.9315754308030221  0.6717040536008940  0.0897914545354783   T   T   T
  0.0579289558611646  0.4234264979245485  0.0891073876585792   T   T   T
  0.9296400184200453  0.8381429311515813  0.0872755727792521   T   T   T
  0.3057329434681934  0.0927613973751386  0.0891010617893701   T   T   T
  0.1819930558454167  0.1760472719635316  0.0880366877935908   T   T   T
  0.3040450949919651  0.9274745411630424  0.0879646341690718   T   T   T
  0.1843644801506625  0.3435173552851183  0.0914294365454839   T   T   T
  0.3043673806373542  0.5968211737989534  0.0981469686422172   T   T   T
  0.1797225934933361  0.6751393879362675  0.0880342809821005   T   T   T
  0.3094621532780808  0.4280877868191725  0.0993083387661785   T   T   T
  0.1795539720868387  0.8416746829084091  0.0859994906551463   T   T   T
  0.5554107410196807  0.0853361583661890  0.0973037374450881   T   T   T
  0.4324174149036162  0.1718212396447671  0.0962005789551199   T   T   T
  0.4349988551465818  0.3397509260861573  0.1047081205444297   T   T   T
  0.5629085073386312  0.4077201294734626  0.1177459477427205   T   T   T
  0.4248710074205694  0.8415530207294961  0.0976681886310260   T   T   T
  0.8068920873695495  0.0857221033507903  0.0894862601268465   T   T   T
  0.6817280547552820  0.1661481849373320  0.0959193340999576   T   T   T
  0.8039070695224427  0.9199395574383902  0.0898512216665423   T   T   T
  0.6844808221336187  0.3318592381863463  0.1038103808102068   T   T   T
  0.8088589282277568  0.5874923678282095  0.1000194739276843   T   T   T
  0.6893255946571533  0.6733490301961242  0.1126114294054006   T   T   T
  0.8089741348777783  0.4195675642422551  0.0985701022768236   T   T   T
  0.6789727581800121  0.8348957571843095  0.0996172787805630   T   T   T
  0.4179443457856694  0.6877126790259740  0.1095009141793329   T   T   T
  0.5526662608144954  0.9188510500555696  0.0988498849971672   T   T   T
  0.5555988411697154  0.5897604816115924  0.1622035172602011   T   T   T
 
  0.00000000E+00  0.00000000E+00  0.00000000E+00
  0.00000000E+00  0.00000000E+00  0.00000000E+00
  0.00000000E+00  0.00000000E+00  0.00000000E+00
  0.00000000E+00  0.00000000E+00  0.00000000E+00
  0.00000000E+00  0.00000000E+00  0.00000000E+00
  0.00000000E+00  0.00000000E+00  0.00000000E+00
  0.00000000E+00  0.00000000E+00  0.00000000E+00
  0.00000000E+00  0.00000000E+00  0.00000000E+00
  0.00000000E+00  0.00000000E+00  0.00000000E+00
  0.00000000E+00  0.00000000E+00  0.00000000E+00
  0.00000000E+00  0.00000000E+00  0.00000000E+00
  0.00000000E+00  0.00000000E+00  0.00000000E+00
  0.00000000E+00  0.00000000E+00  0.00000000E+00
  0.00000000E+00  0.00000000E+00  0.00000000E+00
  0.00000000E+00  0.00000000E+00  0.00000000E+00
  0.00000000E+00  0.00000000E+00  0.00000000E+00
  0.00000000E+00  0.00000000E+00  0.00000000E+00
  0.00000000E+00  0.00000000E+00  0.00000000E+00
  0.00000000E+00  0.00000000E+00  0.00000000E+00
  0.00000000E+00  0.00000000E+00  0.00000000E+00
  0.00000000E+00  0.00000000E+00  0.00000000E+00
  0.00000000E+00  0.00000000E+00  0.00000000E+00
  0.00000000E+00  0.00000000E+00  0.00000000E+00
  0.00000000E+00  0.00000000E+00  0.00000000E+00
  0.00000000E+00  0.00000000E+00  0.00000000E+00
  0.00000000E+00  0.00000000E+00  0.00000000E+00
  0.00000000E+00  0.00000000E+00  0.00000000E+00
  0.00000000E+00  0.00000000E+00  0.00000000E+00
  0.00000000E+00  0.00000000E+00  0.00000000E+00
  0.00000000E+00  0.00000000E+00  0.00000000E+00
  0.00000000E+00  0.00000000E+00  0.00000000E+00
  0.00000000E+00  0.00000000E+00  0.00000000E+00
