Title                                   
   1.00000000000000     
     4.9440799999999996    0.0000000000000000    0.0000000000000000
     0.0000000000000000    8.5647549999999999    0.0000000000000000
     0.0000000000000000    0.0000000000000000   20.0000000000000000
    11     3     1
Selective dynamics
Direct
  0.2438797793930602  0.2091309103224526  0.0967820913858918   T   T   T
 -0.0065268599517000  0.2947358741840261  0.0993555929940636   T   T   T
  0.2468842545608871  0.0377772241796661  0.0964620809424929   T   T   T
 -0.0027570957350307  0.9538371280733532  0.0982527109754322   T   T   T
  0.7472479175653325  0.2082427760393518  0.0929901208842075   T   T   T
  0.4945935605100716  0.2933288714692477  0.0929254438355295   T   T   T
  0.7499196413167684  0.0409082179675125  0.0930145920646345   T   T   T
  0.7524899471347841  0.7127853831192215  0.0984270212100888   T   T   T
  0.7478621460662662  0.5412001757866540  0.0984030571614340   T   T   T
  0.5008171770174055  0.9551967678631907  0.0936256395615893   T   T   T
  0.5032938900737032  0.4584234105094561  0.0911120323496852   T   T   T
 -0.0107008364758407  0.4570366885821826  0.1101889887225485   T   T   T
 -0.0079115391624179  0.7925384793751956  0.1066964624148793   T   T   T
  0.5110476323201237  0.7938038171493940  0.0929329585275459   T   T   T
  0.2798603853665874  0.6227352753790982  0.1468112069699807   T   T   T
 
  0.00000000E+00  0.00000000E+00  0.00000000E+00
  0.00000000E+00  0.00000000E+00  0.00000000E+00
  0.00000000E+00  0.00000000E+00  0.00000000E+00
  0.00000000E+00  0.00000000E+00  0.00000000E+00
  0.00000000E+00  0.00000000E+00  0.00000000E+00
  0.00000000E+00  0.00000000E+00  0.00000000E+00
  0.00000000E+00  0.00000000E+00  0.00000000E+00
  0.00000000E+00  0.00000000E+00  0.00000000E+00
  0.00000000E+00  0.00000000E+00  0.00000000E+00
  0.00000000E+00  0.00000000E+00  0.00000000E+00
  0.00000000E+00  0.00000000E+00  0.00000000E+00
  0.00000000E+00  0.00000000E+00  0.00000000E+00
  0.00000000E+00  0.00000000E+00  0.00000000E+00
  0.00000000E+00  0.00000000E+00  0.00000000E+00
  0.00000000E+00  0.00000000E+00  0.00000000E+00
