Title                                   
   1.00000000000000     
     9.8694509999999998    0.0000000000000000    0.0000000000000000
     0.0000000000000000    8.5490480000000009    0.0000000000000000
     0.0000000000000000    0.0000000000000000   20.0000000000000000
    30     1
Selective dynamics
Direct
  0.0562827233365633  0.0885072529067183  0.0778629728451031   T   T   T
  0.9312853205411389  0.1717931834253241  0.0816534309785633   T   T   T
  0.0562630750187581  0.9238257435993089  0.0778662726812767   T   T   T
  0.9335026077602074  0.3381285829789134  0.0808971372806863   T   T   T
  0.0562919563226054  0.5891124076913257  0.0753174226109770   T   T   T
  0.9334859484504977  0.6742243815630521  0.0809082253692291   T   T   T
  0.0562973627612990  0.4232434972496500  0.0753002063475347   T   T   T
  0.9312486037700017  0.8405603078697160  0.0816594743354847   T   T   T
  0.3049001032779359  0.0893120361864941  0.0923557632499548   T   T   T
  0.1812520915617243  0.1717922519606966  0.0820274579946259   T   T   T
  0.3048900310804771  0.9229450281244769  0.0923770341176815   T   T   T
  0.1790272275609453  0.3381630023017450  0.0813927859505070   T   T   T
  0.2975762685923174  0.5908646459140527  0.0968457113403141   T   T   T
  0.1790204866704660  0.6741814932705731  0.0814228571275747   T   T   T
  0.2975969465516026  0.4214030980364820  0.0968190683295571   T   T   T
  0.1812190677105706  0.8405237200003802  0.0820522825599558   T   T   T
  0.5562701599921883  0.0885048875924781  0.1103844967907028   T   T   T
  0.4275168807734918  0.1740552956976561  0.1067478189793887   T   T   T
  0.5562573365007581  0.9237976090343839  0.1104014443610678   T   T   T
  0.4146892063969592  0.3355197187552903  0.1130779352776196   T   T   T
  0.4146734240350068  0.6767446069048855  0.1131206470916575   T   T   T
  0.4275060312375399  0.8382073040008494  0.1067822160756387   T   T   T
  0.8075483942378443  0.0893612826969012  0.0918495959450865   T   T   T
  0.6849294936567766  0.1741005580536284  0.1062483184638980   T   T   T
  0.8075270676045958  0.9229927456676906  0.0918566464909194   T   T   T
  0.6976676280155220  0.3356431572786931  0.1122365501003365   T   T   T
  0.8147450502803222  0.5908982799587009  0.0959126238084598   T   T   T
  0.6976509635291096  0.6766762719339672  0.1122319597278382   T   T   T
  0.8147633260057061  0.4214363023329661  0.0959273296940934   T   T   T
  0.6849105641796596  0.8382341210896948  0.1062560882818625   T   T   T
  0.5563396525874174  0.5061222259233176  0.1311732257924457   T   T   T
 
  0.00000000E+00  0.00000000E+00  0.00000000E+00
  0.00000000E+00  0.00000000E+00  0.00000000E+00
  0.00000000E+00  0.00000000E+00  0.00000000E+00
  0.00000000E+00  0.00000000E+00  0.00000000E+00
  0.00000000E+00  0.00000000E+00  0.00000000E+00
  0.00000000E+00  0.00000000E+00  0.00000000E+00
  0.00000000E+00  0.00000000E+00  0.00000000E+00
  0.00000000E+00  0.00000000E+00  0.00000000E+00
  0.00000000E+00  0.00000000E+00  0.00000000E+00
  0.00000000E+00  0.00000000E+00  0.00000000E+00
  0.00000000E+00  0.00000000E+00  0.00000000E+00
  0.00000000E+00  0.00000000E+00  0.00000000E+00
  0.00000000E+00  0.00000000E+00  0.00000000E+00
  0.00000000E+00  0.00000000E+00  0.00000000E+00
  0.00000000E+00  0.00000000E+00  0.00000000E+00
  0.00000000E+00  0.00000000E+00  0.00000000E+00
  0.00000000E+00  0.00000000E+00  0.00000000E+00
  0.00000000E+00  0.00000000E+00  0.00000000E+00
  0.00000000E+00  0.00000000E+00  0.00000000E+00
  0.00000000E+00  0.00000000E+00  0.00000000E+00
  0.00000000E+00  0.00000000E+00  0.00000000E+00
  0.00000000E+00  0.00000000E+00  0.00000000E+00
  0.00000000E+00  0.00000000E+00  0.00000000E+00
  0.00000000E+00  0.00000000E+00  0.00000000E+00
  0.00000000E+00  0.00000000E+00  0.00000000E+00
  0.00000000E+00  0.00000000E+00  0.00000000E+00
  0.00000000E+00  0.00000000E+00  0.00000000E+00
  0.00000000E+00  0.00000000E+00  0.00000000E+00
  0.00000000E+00  0.00000000E+00  0.00000000E+00
  0.00000000E+00  0.00000000E+00  0.00000000E+00
  0.00000000E+00  0.00000000E+00  0.00000000E+00
