Title                                   
   1.00000000000000     
     9.8694509999999998    0.0000000000000000    0.0000000000000000
     0.0000000000000000    8.5490480000000009    0.0000000000000000
     0.0000000000000000    0.0000000000000000   20.0000000000000000
    31     1
Selective dynamics
Direct
  0.0562446965864443  0.0895975901979698  0.0837012993541611   T   T   T
  0.9313658696444433  0.1727612218350618  0.0856508036786135   T   T   T
  0.0562342833599711  0.9227408469453139  0.0836774598220173   T   T   T
  0.9310478414507034  0.3394711410832508  0.0876708924689761   T   T   T
  0.0562352136590803  0.5888971323460864  0.0849868684936111   T   T   T
  0.9321222782563325  0.6724711924182882  0.0873277466825820   T   T   T
  0.0562248059888480  0.4226196728186054  0.0857155578371078   T   T   T
  0.9315173432113592  0.8394761614956421  0.0861670834326393   T   T   T
  0.3056469508897797  0.0895492434552968  0.0885496979246161   T   T   T
  0.1811142076174973  0.1727720012271298  0.0856174657505004   T   T   T
  0.3054305588066109  0.9233339102384552  0.0897963994494212   T   T   T
  0.1814114866953230  0.3394862654245305  0.0876303179779168   T   T   T
  0.3032054916275519  0.5894997104157450  0.0973195143307399   T   T   T
  0.1803581396476216  0.6724604212906687  0.0872462271475253   T   T   T
  0.3052689053918540  0.4220195822421699  0.0960679651791595   T   T   T
  0.1809542205377349  0.8394671587139653  0.0860952916523253   T   T   T
  0.5562477612472235  0.0881027777993997  0.0955161977625384   T   T   T
  0.4306486686547384  0.1715378826555855  0.0940592187367903   T   T   T
  0.5562457172641387  0.9226153317325225  0.0993942080640356   T   T   T
  0.4304375442199030  0.3369143904006273  0.1011687973596592   T   T   T
  0.4217144242991466  0.6770101988399868  0.1112199016016629   T   T   T
  0.5562231105814561  0.4122438038962918  0.1144173568246289   T   T   T
  0.4291526126411232  0.8405034448625195  0.0998418863205958   T   T   T
  0.8068448352168571  0.0895377002048764  0.0886101858182145   T   T   T
  0.6818499527926993  0.1715356617579683  0.0940927799577810   T   T   T
  0.8070525917482830  0.9233339878117158  0.0898911518067916   T   T   T
  0.6820330632103592  0.3369007379515319  0.1012114484121704   T   T   T
  0.8093025743039824  0.5894953374474993  0.0974279243644713   T   T   T
  0.6908162028619435  0.6769951079213659  0.1113290997481612   T   T   T
  0.8071935943965586  0.4220084209666272  0.0961391616268868   T   T   T
  0.6833346284624356  0.8404810445171013  0.0999336289961626   T   T   T
  0.5561594247280034  0.5944069190862108  0.1682014614175710   T   T   T
 
  0.00000000E+00  0.00000000E+00  0.00000000E+00
  0.00000000E+00  0.00000000E+00  0.00000000E+00
  0.00000000E+00  0.00000000E+00  0.00000000E+00
  0.00000000E+00  0.00000000E+00  0.00000000E+00
  0.00000000E+00  0.00000000E+00  0.00000000E+00
  0.00000000E+00  0.00000000E+00  0.00000000E+00
  0.00000000E+00  0.00000000E+00  0.00000000E+00
  0.00000000E+00  0.00000000E+00  0.00000000E+00
  0.00000000E+00  0.00000000E+00  0.00000000E+00
  0.00000000E+00  0.00000000E+00  0.00000000E+00
  0.00000000E+00  0.00000000E+00  0.00000000E+00
  0.00000000E+00  0.00000000E+00  0.00000000E+00
  0.00000000E+00  0.00000000E+00  0.00000000E+00
  0.00000000E+00  0.00000000E+00  0.00000000E+00
  0.00000000E+00  0.00000000E+00  0.00000000E+00
  0.00000000E+00  0.00000000E+00  0.00000000E+00
  0.00000000E+00  0.00000000E+00  0.00000000E+00
  0.00000000E+00  0.00000000E+00  0.00000000E+00
  0.00000000E+00  0.00000000E+00  0.00000000E+00
  0.00000000E+00  0.00000000E+00  0.00000000E+00
  0.00000000E+00  0.00000000E+00  0.00000000E+00
  0.00000000E+00  0.00000000E+00  0.00000000E+00
  0.00000000E+00  0.00000000E+00  0.00000000E+00
  0.00000000E+00  0.00000000E+00  0.00000000E+00
  0.00000000E+00  0.00000000E+00  0.00000000E+00
  0.00000000E+00  0.00000000E+00  0.00000000E+00
  0.00000000E+00  0.00000000E+00  0.00000000E+00
  0.00000000E+00  0.00000000E+00  0.00000000E+00
  0.00000000E+00  0.00000000E+00  0.00000000E+00
  0.00000000E+00  0.00000000E+00  0.00000000E+00
  0.00000000E+00  0.00000000E+00  0.00000000E+00
  0.00000000E+00  0.00000000E+00  0.00000000E+00
