Title                                   
   1.00000000000000     
     9.8694509999999998    0.0000000000000000    0.0000000000000000
     0.0000000000000000    8.5490480000000009    0.0000000000000000
     0.0000000000000000    0.0000000000000000   20.0000000000000000
    27     4     1
Selective dynamics
Direct
  0.0553966708288291  0.0896144886335334  0.0843591567233329   T   T   T
  0.9307504474679618  0.1745292687300247  0.0851648132757814   T   T   T
  0.0574980623306552  0.9220305037314804  0.0850611925721343   T   T   T
  0.9301891813725151  0.3410744461049544  0.0873543131825794   T   T   T
  0.0563639880381493  0.5906672678248297  0.0868175149910594   T   T   T
  0.0552824777079281  0.4233351567064706  0.0869124658624004   T   T   T
  0.9329789340845902  0.8394199502227845  0.0875179406716289   T   T   T
  0.3055736486033727  0.0879380494426815  0.0876334323718778   T   T   T
  0.1812821719845850  0.1717830902203353  0.0863051018890466   T   T   T
  0.1802648679056776  0.3387943339968749  0.0887495556630066   T   T   T
  0.3028393959950652  0.5874910552486203  0.1001968628874216   T   T   T
  0.1802121583554991  0.6732168803890735  0.0894322674251147   T   T   T
  0.3054537100427525  0.4197144713584359  0.0978531361902679   T   T   T
  0.1825687945989267  0.8405326900733142  0.0872357747226881   T   T   T
  0.5559018777962046  0.0875989003494527  0.0919677192434350   T   T   T
  0.5559447744453614  0.9202572167108468  0.0974591911873801   T   T   T
  0.4289198901716694  0.3317761866845426  0.1022028641311279   T   T   T
  0.4274748546457410  0.8396903294872685  0.1005387646453681   T   T   T
  0.8059447637513346  0.0893820620102983  0.0861964796895587   T   T   T
  0.6800286065564790  0.1718092504651211  0.0901746898673093   T   T   T
  0.8081427425051102  0.9235244226374267  0.0888862908832379   T   T   T
  0.6805656487524414  0.3384598380879017  0.0995741729846466   T   T   T
  0.8110320810079283  0.5941641934921253  0.0980842763959281   T   T   T
  0.8046466923238504  0.4265257487067958  0.0954033861075590   T   T   T
  0.6844898300519534  0.8417574882609721  0.0990405111451545   T   T   T
  0.4192341292069874  0.6799527081766222  0.1142709534238710   T   T   T
  0.5528453232819623  0.4056582774530587  0.1155889791736579   T   T   T
  0.6989093232155925  0.6827520202441806  0.1153724082583079   T   T   T
  0.3063390801750107  0.9246779567308943  0.0886415398190887   T   T   T
  0.4288663819495669  0.1666969244505830  0.0916240147346771   T   T   T
  0.9325136190733265  0.6729999284821399  0.0886633316374583   T   T   T
  0.5611848717729782  0.5924208948863582  0.1813918982439102   T   T   T
 
  0.00000000E+00  0.00000000E+00  0.00000000E+00
  0.00000000E+00  0.00000000E+00  0.00000000E+00
  0.00000000E+00  0.00000000E+00  0.00000000E+00
  0.00000000E+00  0.00000000E+00  0.00000000E+00
  0.00000000E+00  0.00000000E+00  0.00000000E+00
  0.00000000E+00  0.00000000E+00  0.00000000E+00
  0.00000000E+00  0.00000000E+00  0.00000000E+00
  0.00000000E+00  0.00000000E+00  0.00000000E+00
  0.00000000E+00  0.00000000E+00  0.00000000E+00
  0.00000000E+00  0.00000000E+00  0.00000000E+00
  0.00000000E+00  0.00000000E+00  0.00000000E+00
  0.00000000E+00  0.00000000E+00  0.00000000E+00
  0.00000000E+00  0.00000000E+00  0.00000000E+00
  0.00000000E+00  0.00000000E+00  0.00000000E+00
  0.00000000E+00  0.00000000E+00  0.00000000E+00
  0.00000000E+00  0.00000000E+00  0.00000000E+00
  0.00000000E+00  0.00000000E+00  0.00000000E+00
  0.00000000E+00  0.00000000E+00  0.00000000E+00
  0.00000000E+00  0.00000000E+00  0.00000000E+00
  0.00000000E+00  0.00000000E+00  0.00000000E+00
  0.00000000E+00  0.00000000E+00  0.00000000E+00
  0.00000000E+00  0.00000000E+00  0.00000000E+00
  0.00000000E+00  0.00000000E+00  0.00000000E+00
  0.00000000E+00  0.00000000E+00  0.00000000E+00
  0.00000000E+00  0.00000000E+00  0.00000000E+00
  0.00000000E+00  0.00000000E+00  0.00000000E+00
  0.00000000E+00  0.00000000E+00  0.00000000E+00
  0.00000000E+00  0.00000000E+00  0.00000000E+00
  0.00000000E+00  0.00000000E+00  0.00000000E+00
  0.00000000E+00  0.00000000E+00  0.00000000E+00
  0.00000000E+00  0.00000000E+00  0.00000000E+00
  0.00000000E+00  0.00000000E+00  0.00000000E+00
