Title                                   
   1.00000000000000     
     9.8694509999999998    0.0000000000000000    0.0000000000000000
     0.0000000000000000    8.5490480000000009    0.0000000000000000
     0.0000000000000000    0.0000000000000000   20.0000000000000000
    26     4     1
Selective dynamics
Direct
  0.0552315377126498  0.0887688030351261  0.0871270000917211   T   T   T
  0.9307371284069060  0.1712330862931446  0.0902387467545507   T   T   T
  0.0568422603803532  0.9236005265076873  0.0876232142090436   T   T   T
  0.9353766789900110  0.3380631372191899  0.0899255740733122   T   T   T
  0.0579594962684878  0.5895120430308548  0.0840183082717392   T   T   T
  0.9357870531485530  0.6739679600068347  0.0905014792843215   T   T   T
  0.0579084785717281  0.4227046067972923  0.0837010536264483   T   T   T
  0.9317290792262681  0.8404542191866504  0.0908989863886017   T   T   T
  0.3053414911609911  0.0871964311474694  0.0914054317321852   T   T   T
  0.1811680742349145  0.1715205092336294  0.0866010432498844   T   T   T
  0.1802847745768733  0.3379551884919063  0.0844548492653013   T   T   T
  0.3024482813728568  0.5900314557788542  0.0905485770590697   T   T   T
  0.1806376457102272  0.6740889556254713  0.0848391004877402   T   T   T
  0.3024485517420111  0.4212718378898570  0.0901237362558546   T   T   T
  0.1808881645418005  0.8398338959335673  0.0874004144499644   T   T   T
  0.4282315882595297  0.1742223464996456  0.0979969481654791   T   T   T
  0.5520046653089924  0.9215387659896912  0.1027206500566201   T   T   T
  0.4274265963712580  0.8389032256432669  0.0991181380974246   T   T   T
  0.8044274378050777  0.0890218757598933  0.0957366933409184   T   T   T
  0.6801240058751381  0.1770802924106498  0.1025176890776369   T   T   T
  0.8057472626843049  0.9226113146673464  0.0963049456694882   T   T   T
  0.6920780973701148  0.3399553278381776  0.1077928422257937   T   T   T
  0.8161665431448070  0.5903497028722541  0.1001496352623692   T   T   T
  0.6935831776497536  0.6725934211223453  0.1085894317630020   T   T   T
  0.8160906545146934  0.4212878485990736  0.0997963069784762   T   T   T
  0.6804746134120216  0.8366693240183022  0.1036283318666802   T   T   T
  0.5530484252895522  0.0935677501264872  0.1022428742894484   T   T   T
  0.4197777148753034  0.3333485324700720  0.0998823832243392   T   T   T
  0.4180910611930742  0.6785963490171841  0.1016486343932648   T   T   T
  0.3045739288646772  0.9235185953540448  0.0918083192973111   T   T   T
  0.5565005313370858  0.5074076714340373  0.1116236610920584   T   T   T
 
  0.00000000E+00  0.00000000E+00  0.00000000E+00
  0.00000000E+00  0.00000000E+00  0.00000000E+00
  0.00000000E+00  0.00000000E+00  0.00000000E+00
  0.00000000E+00  0.00000000E+00  0.00000000E+00
  0.00000000E+00  0.00000000E+00  0.00000000E+00
  0.00000000E+00  0.00000000E+00  0.00000000E+00
  0.00000000E+00  0.00000000E+00  0.00000000E+00
  0.00000000E+00  0.00000000E+00  0.00000000E+00
  0.00000000E+00  0.00000000E+00  0.00000000E+00
  0.00000000E+00  0.00000000E+00  0.00000000E+00
  0.00000000E+00  0.00000000E+00  0.00000000E+00
  0.00000000E+00  0.00000000E+00  0.00000000E+00
  0.00000000E+00  0.00000000E+00  0.00000000E+00
  0.00000000E+00  0.00000000E+00  0.00000000E+00
  0.00000000E+00  0.00000000E+00  0.00000000E+00
  0.00000000E+00  0.00000000E+00  0.00000000E+00
  0.00000000E+00  0.00000000E+00  0.00000000E+00
  0.00000000E+00  0.00000000E+00  0.00000000E+00
  0.00000000E+00  0.00000000E+00  0.00000000E+00
  0.00000000E+00  0.00000000E+00  0.00000000E+00
  0.00000000E+00  0.00000000E+00  0.00000000E+00
  0.00000000E+00  0.00000000E+00  0.00000000E+00
  0.00000000E+00  0.00000000E+00  0.00000000E+00
  0.00000000E+00  0.00000000E+00  0.00000000E+00
  0.00000000E+00  0.00000000E+00  0.00000000E+00
  0.00000000E+00  0.00000000E+00  0.00000000E+00
  0.00000000E+00  0.00000000E+00  0.00000000E+00
  0.00000000E+00  0.00000000E+00  0.00000000E+00
  0.00000000E+00  0.00000000E+00  0.00000000E+00
  0.00000000E+00  0.00000000E+00  0.00000000E+00
  0.00000000E+00  0.00000000E+00  0.00000000E+00
