Title                                   
   1.00000000000000     
     4.9440799999999996    0.0000000000000000    0.0000000000000000
     0.0000000000000000   17.1295089999999988    0.0000000000000000
     0.0000000000000000    0.0000000000000000   20.0000000000000000
    27     3     1
Selective dynamics
Direct
 -0.0046515707404190  0.1052246294853387  0.2968335840386701   T   T   T
  0.2429456933641116  0.1479927874606341  0.2968966861391810   T   T   T
  0.2393900113305588  0.2323216891277583  0.2986870143017020   T   T   T
 -0.0107248997615116  0.2747201648479768  0.3029033594884925   T   T   T
  0.0085345173367584  0.6005510251684127  0.3026064736366267   T   T   T
  0.2544912693801158  0.7266651684363657  0.2965225085806572   T   T   T
  0.0021636179502063  0.8529071750530793  0.2958540396407806   T   T   T
  0.2504209767928010  0.8951863690170059  0.2958260790083119   T   T   T
  0.2481126472426683  0.9793082867239005  0.2960363008615831   T   T   T
  0.0044657768817664  0.7685102582222020  0.2960974621873170   T   T   T
  0.4948615076283421  0.1057220679606183  0.2955405453146642   T   T   T
  0.7458016019092959  0.1475197638020936  0.2958652691122557   T   T   T
  0.7437041378463431  0.2314320998760996  0.2963120223971405   T   T   T
  0.4972696449429101  0.0216336581221590  0.2956815472377689   T   T   T
  0.7416322315907771  0.3965212094687283  0.3000525115328663   T   T   T
  0.7526140433293802  0.4810182999674351  0.3031368571058505   T   T   T
  0.4911506685867336  0.2734137545163758  0.2939948627239985   T   T   T
  0.5076636224375317  0.6023683541135789  0.2971811040680811   T   T   T
  0.7540790060432520  0.7274781541068733  0.2955921112160779   T   T   T
  0.5000197214045266  0.8529375535049425  0.2954373591163291   T   T   T
  0.7503233816748486  0.8948277810304571  0.2956277328720614   T   T   T
  0.7480459018353558  0.9790099811187822  0.2958291702746041   T   T   T
  0.5024856195439550  0.7685790598110461  0.2955177515366999   T   T   T
  0.7570440587552661  0.6442249009664039  0.2967097511546051   T   T   T
 -0.0025263917456445  0.0211422967408116  0.2963339453361605   T   T   T
  0.0037001433946396  0.5191071117740040  0.3128778800999198   T   T   T
  0.4993624613343871  0.3553573341952761  0.2885875396068557   T   T   T
  0.5080671561824622  0.5224808355927053  0.2988146725996731   T   T   T
 -0.0166730959121336  0.3560283097897525  0.3158312829761659   T   T   T
  0.2572963771693483  0.6426792374738040  0.2986813731859158   T   T   T
  0.2889371622713692  0.4344726825253741  0.3431912026489352   T   T   T
 
  0.00000000E+00  0.00000000E+00  0.00000000E+00
  0.00000000E+00  0.00000000E+00  0.00000000E+00
  0.00000000E+00  0.00000000E+00  0.00000000E+00
  0.00000000E+00  0.00000000E+00  0.00000000E+00
  0.00000000E+00  0.00000000E+00  0.00000000E+00
  0.00000000E+00  0.00000000E+00  0.00000000E+00
  0.00000000E+00  0.00000000E+00  0.00000000E+00
  0.00000000E+00  0.00000000E+00  0.00000000E+00
  0.00000000E+00  0.00000000E+00  0.00000000E+00
  0.00000000E+00  0.00000000E+00  0.00000000E+00
  0.00000000E+00  0.00000000E+00  0.00000000E+00
  0.00000000E+00  0.00000000E+00  0.00000000E+00
  0.00000000E+00  0.00000000E+00  0.00000000E+00
  0.00000000E+00  0.00000000E+00  0.00000000E+00
  0.00000000E+00  0.00000000E+00  0.00000000E+00
  0.00000000E+00  0.00000000E+00  0.00000000E+00
  0.00000000E+00  0.00000000E+00  0.00000000E+00
  0.00000000E+00  0.00000000E+00  0.00000000E+00
  0.00000000E+00  0.00000000E+00  0.00000000E+00
  0.00000000E+00  0.00000000E+00  0.00000000E+00
  0.00000000E+00  0.00000000E+00  0.00000000E+00
  0.00000000E+00  0.00000000E+00  0.00000000E+00
  0.00000000E+00  0.00000000E+00  0.00000000E+00
  0.00000000E+00  0.00000000E+00  0.00000000E+00
  0.00000000E+00  0.00000000E+00  0.00000000E+00
  0.00000000E+00  0.00000000E+00  0.00000000E+00
  0.00000000E+00  0.00000000E+00  0.00000000E+00
  0.00000000E+00  0.00000000E+00  0.00000000E+00
  0.00000000E+00  0.00000000E+00  0.00000000E+00
  0.00000000E+00  0.00000000E+00  0.00000000E+00
  0.00000000E+00  0.00000000E+00  0.00000000E+00
