Title                                   
   1.00000000000000     
     9.8694509999999998    0.0000000000000000    0.0000000000000000
     0.0000000000000000    8.5490480000000009    0.0000000000000000
     0.0000000000000000    0.0000000000000000   20.0000000000000000
    27     3     1
Selective dynamics
Direct
  0.0553995551812048  0.0883374612697193  0.0864846492455084   T   T   T
  0.9305091505041783  0.1719059108655970  0.0876231982818425   T   T   T
  0.0571010642136114  0.9228439981340401  0.0870157998773417   T   T   T
  0.9334444511908623  0.3393205091453841  0.0867611228679025   T   T   T
  0.0573469465454051  0.5899309025162842  0.0841103062445251   T   T   T
  0.9331993887507097  0.6733113555870920  0.0877646810963243   T   T   T
  0.0575035681524460  0.4228516418868905  0.0834915742929061   T   T   T
  0.9314845290310046  0.8399604661938803  0.0887729816644506   T   T   T
  0.3058141453485824  0.0875784966391739  0.0926215289327306   T   T   T
  0.1815098115248139  0.1700556853650013  0.0876181893907236   T   T   T
  0.1809501700437569  0.3378534839497431  0.0859950906761750   T   T   T
  0.3058758150960917  0.5882197274124640  0.0932975929193548   T   T   T
  0.1822527142071256  0.6726048792424676  0.0864680152212330   T   T   T
  0.3035026477688401  0.4179940374295215  0.0929279240781997   T   T   T
  0.1826607035913749  0.8395217445107231  0.0881648850564644   T   T   T
  0.4294080055203710  0.1756257661330335  0.0993986541260114   T   T   T
  0.5539401175433164  0.9251357968381357  0.1026717754718724   T   T   T
  0.4266288050061084  0.6729218483763681  0.1045894484862523   T   T   T
  0.4299150033374295  0.8390289816876410  0.1008083374392099   T   T   T
  0.8044218977788842  0.0894294487569216  0.0924578299883192   T   T   T
  0.6808544765052231  0.1782329530706616  0.0996046255282163   T   T   T
  0.8056717117583648  0.9225646035992604  0.0935058527160902   T   T   T
  0.6870950940584708  0.3415228292981842  0.1051140414999901   T   T   T
  0.8102974832290428  0.5911535740334387  0.0955646063340055   T   T   T
  0.6860156903891037  0.6714791007025864  0.1063325218157683   T   T   T
  0.8114445997845603  0.4213834227154002  0.0949100194633779   T   T   T
  0.6799949088277426  0.8384042508214933  0.1015671323600016   T   T   T
  0.5542519551662960  0.0945827198377426  0.1016579240863298   T   T   T
  0.4231385775524318  0.3354753843668779  0.1027969549010777   T   T   T
  0.3056757651983176  0.9226095875087840  0.0927963332768070   T   T   T
  0.5558262471943455  0.5090344321055110  0.1280714026610366   T   T   T
 
  0.00000000E+00  0.00000000E+00  0.00000000E+00
  0.00000000E+00  0.00000000E+00  0.00000000E+00
  0.00000000E+00  0.00000000E+00  0.00000000E+00
  0.00000000E+00  0.00000000E+00  0.00000000E+00
  0.00000000E+00  0.00000000E+00  0.00000000E+00
  0.00000000E+00  0.00000000E+00  0.00000000E+00
  0.00000000E+00  0.00000000E+00  0.00000000E+00
  0.00000000E+00  0.00000000E+00  0.00000000E+00
  0.00000000E+00  0.00000000E+00  0.00000000E+00
  0.00000000E+00  0.00000000E+00  0.00000000E+00
  0.00000000E+00  0.00000000E+00  0.00000000E+00
  0.00000000E+00  0.00000000E+00  0.00000000E+00
  0.00000000E+00  0.00000000E+00  0.00000000E+00
  0.00000000E+00  0.00000000E+00  0.00000000E+00
  0.00000000E+00  0.00000000E+00  0.00000000E+00
  0.00000000E+00  0.00000000E+00  0.00000000E+00
  0.00000000E+00  0.00000000E+00  0.00000000E+00
  0.00000000E+00  0.00000000E+00  0.00000000E+00
  0.00000000E+00  0.00000000E+00  0.00000000E+00
  0.00000000E+00  0.00000000E+00  0.00000000E+00
  0.00000000E+00  0.00000000E+00  0.00000000E+00
  0.00000000E+00  0.00000000E+00  0.00000000E+00
  0.00000000E+00  0.00000000E+00  0.00000000E+00
  0.00000000E+00  0.00000000E+00  0.00000000E+00
  0.00000000E+00  0.00000000E+00  0.00000000E+00
  0.00000000E+00  0.00000000E+00  0.00000000E+00
  0.00000000E+00  0.00000000E+00  0.00000000E+00
  0.00000000E+00  0.00000000E+00  0.00000000E+00
  0.00000000E+00  0.00000000E+00  0.00000000E+00
  0.00000000E+00  0.00000000E+00  0.00000000E+00
  0.00000000E+00  0.00000000E+00  0.00000000E+00
