Title                                   
   1.00000000000000     
     4.9440799999999996    0.0000000000000000    0.0000000000000000
     0.0000000000000000   17.1295089999999988    0.0000000000000000
     0.0000000000000000    0.0000000000000000   20.0000000000000000
    28     2     1
Selective dynamics
Direct
 -0.0015733698191293  0.1055944250513099  0.2980137108931873   T   T   T
  0.2467742291043460  0.1484466544078319  0.2987104698998661   T   T   T
  0.2459478610734434  0.2323043434157647  0.3001010023648316   T   T   T
 -0.0043086758915865  0.2754367399062524  0.3008676318905025   T   T   T
  0.0042249628941721  0.6012755797492473  0.3012972302377796   T   T   T
  0.2538756403268827  0.7264794846751060  0.2990792092860778   T   T   T
  0.0014851877400028  0.8530927592817440  0.2972998859308126   T   T   T
  0.2508600601835653  0.8954718322443875  0.2969761678434736   T   T   T
  0.2498401869518613  0.9794681304873555  0.2968564190331403   T   T   T
  0.0026246383812407  0.7688713578207094  0.2983703937887567   T   T   T
  0.4980153439693432  0.1060548325093078  0.2980014371110857   T   T   T
  0.7488081754745232  0.1477196943717849  0.2986366726596481   T   T   T
  0.7471229732858536  0.2318628242001472  0.3000286039643738   T   T   T
  0.4992103762393097  0.0218563188914342  0.2970528878746054   T   T   T
  0.7473363434408909  0.3943010385825703  0.3023377546955689   T   T   T
  0.7532922030554383  0.4806109864855188  0.3025064698143548   T   T   T
  0.4964005558612318  0.2736563543087425  0.3006822178786726   T   T   T
  0.5049586508137532  0.5994879669670781  0.3010504174095330   T   T   T
  0.7517857948301069  0.7272057507405502  0.2990256210230812   T   T   T
  0.5010854311429799  0.8533095071383411  0.2972825968480612   T   T   T
  0.7509478072633328  0.8953657872198076  0.2969599866726209   T   T   T
  0.7497220908476228  0.9795741964109945  0.2968330963728233   T   T   T
  0.5022318010319224  0.7693244484223133  0.2983174137056239   T   T   T
  0.7534349530625758  0.6430694924854485  0.3005046142207429   T   T   T
  0.2547225616534481  0.6426218946402424  0.3005177234197262   T   T   T
 -0.0003894755231119  0.0216213819867199  0.2970740631182719   T   T   T
  0.9954902162024923  0.5189089347344972  0.3024985534546007   T   T   T
  0.5051423033038767  0.3560117266063947  0.3016408356729546   T   T   T
  0.5121309526516578  0.5188825020839125  0.3019842589904387   T   T   T
 -0.0114795806567687  0.3560098904630169  0.3022599963204098   T   T   T
  0.2502868011047246  0.4374451637114643  0.3022926576043267   T   T   T
 
  0.00000000E+00  0.00000000E+00  0.00000000E+00
  0.00000000E+00  0.00000000E+00  0.00000000E+00
  0.00000000E+00  0.00000000E+00  0.00000000E+00
  0.00000000E+00  0.00000000E+00  0.00000000E+00
  0.00000000E+00  0.00000000E+00  0.00000000E+00
  0.00000000E+00  0.00000000E+00  0.00000000E+00
  0.00000000E+00  0.00000000E+00  0.00000000E+00
  0.00000000E+00  0.00000000E+00  0.00000000E+00
  0.00000000E+00  0.00000000E+00  0.00000000E+00
  0.00000000E+00  0.00000000E+00  0.00000000E+00
  0.00000000E+00  0.00000000E+00  0.00000000E+00
  0.00000000E+00  0.00000000E+00  0.00000000E+00
  0.00000000E+00  0.00000000E+00  0.00000000E+00
  0.00000000E+00  0.00000000E+00  0.00000000E+00
  0.00000000E+00  0.00000000E+00  0.00000000E+00
  0.00000000E+00  0.00000000E+00  0.00000000E+00
  0.00000000E+00  0.00000000E+00  0.00000000E+00
  0.00000000E+00  0.00000000E+00  0.00000000E+00
  0.00000000E+00  0.00000000E+00  0.00000000E+00
  0.00000000E+00  0.00000000E+00  0.00000000E+00
  0.00000000E+00  0.00000000E+00  0.00000000E+00
  0.00000000E+00  0.00000000E+00  0.00000000E+00
  0.00000000E+00  0.00000000E+00  0.00000000E+00
  0.00000000E+00  0.00000000E+00  0.00000000E+00
  0.00000000E+00  0.00000000E+00  0.00000000E+00
  0.00000000E+00  0.00000000E+00  0.00000000E+00
  0.00000000E+00  0.00000000E+00  0.00000000E+00
  0.00000000E+00  0.00000000E+00  0.00000000E+00
  0.00000000E+00  0.00000000E+00  0.00000000E+00
  0.00000000E+00  0.00000000E+00  0.00000000E+00
  0.00000000E+00  0.00000000E+00  0.00000000E+00
