Title                                   
   1.00000000000000     
     8.5490480000000009    0.0000000000000000    0.0000000000000000
     0.0000000000000000    8.5490480000000009    0.0000000000000000
     0.0000000000000000    0.0000000000000000   20.0000000000000000
    20     4     1
Selective dynamics
Direct
  0.9093316283753781  0.2066128173779309  0.0954606856323659   T   T   T
  0.9067981479814202  0.5018384375647381  0.0953151448887717   T   T   T
  0.9094592425074793  0.7971688817706446  0.0954728125280769   T   T   T
  0.1976435647897543  0.0853134013080182  0.0954959034257531   T   T   T
  0.0765553348321492  0.2063834549684866  0.0954756602159515   T   T   T
  0.1978628746766350  0.9180968959368148  0.0955016926219486   T   T   T
  0.1589207763969940  0.6496381607939865  0.0953461628318080   T   T   T
  0.0792590540475621  0.5017624413504980  0.0953349036307219   T   T   T
  0.1589185613007481  0.3538179941878399  0.0953338678025898   T   T   T
  0.0766913176769473  0.7969451185239528  0.0954840499914714   T   T   T
  0.4929480025964856  0.0880224202698334  0.0953576376128968   T   T   T
  0.3450402768594653  0.1676990095881657  0.0953573022859689   T   T   T
  0.4930013614956746  0.9155801880026549  0.0953650782894088   T   T   T
  0.3451610106225954  0.8358851685718585  0.0953672375847553   T   T   T
  0.7881258528005002  0.0854623495791524  0.0954750740284858   T   T   T
  0.6408139372370323  0.1677022732460276  0.0953293961932379   T   T   T
  0.7883400866722007  0.9182470849849838  0.0954799574145449   T   T   T
  0.8271235953575519  0.6497674577085019  0.0953242558786851   T   T   T
  0.8271406507019579  0.3539449631933382  0.0953023347776383   T   T   T
  0.6409144203083298  0.8358919923436477  0.0953416501112278   T   T   T
  0.3223156672978797  0.3310535992782002  0.0951959051228328   T   T   T
  0.3226440480947774  0.6722194151698665  0.0952115450712092   T   T   T
  0.6634396971533226  0.3313900986873152  0.0951724131825693   T   T   T
  0.6637351717608722  0.6725213936947300  0.0951885516839901   T   T   T
  0.4932277184562796  0.5018249818988266  0.0950157771930683   T   T   T
 
  0.00000000E+00  0.00000000E+00  0.00000000E+00
  0.00000000E+00  0.00000000E+00  0.00000000E+00
  0.00000000E+00  0.00000000E+00  0.00000000E+00
  0.00000000E+00  0.00000000E+00  0.00000000E+00
  0.00000000E+00  0.00000000E+00  0.00000000E+00
  0.00000000E+00  0.00000000E+00  0.00000000E+00
  0.00000000E+00  0.00000000E+00  0.00000000E+00
  0.00000000E+00  0.00000000E+00  0.00000000E+00
  0.00000000E+00  0.00000000E+00  0.00000000E+00
  0.00000000E+00  0.00000000E+00  0.00000000E+00
  0.00000000E+00  0.00000000E+00  0.00000000E+00
  0.00000000E+00  0.00000000E+00  0.00000000E+00
  0.00000000E+00  0.00000000E+00  0.00000000E+00
  0.00000000E+00  0.00000000E+00  0.00000000E+00
  0.00000000E+00  0.00000000E+00  0.00000000E+00
  0.00000000E+00  0.00000000E+00  0.00000000E+00
  0.00000000E+00  0.00000000E+00  0.00000000E+00
  0.00000000E+00  0.00000000E+00  0.00000000E+00
  0.00000000E+00  0.00000000E+00  0.00000000E+00
  0.00000000E+00  0.00000000E+00  0.00000000E+00
  0.00000000E+00  0.00000000E+00  0.00000000E+00
  0.00000000E+00  0.00000000E+00  0.00000000E+00
  0.00000000E+00  0.00000000E+00  0.00000000E+00
  0.00000000E+00  0.00000000E+00  0.00000000E+00
  0.00000000E+00  0.00000000E+00  0.00000000E+00
