Title                                   
   1.00000000000000     
     9.8694509999999998    0.0000000000000000    0.0000000000000000
     0.0000000000000000    8.5490480000000009    0.0000000000000000
     0.0000000000000000    0.0000000000000000   20.0000000000000000
    28     3     1
Selective dynamics
Direct
  0.0561495262065898  0.0912751173991893  0.0833354303880888   T   T   T
  0.9305865895111241  0.1746398603956202  0.0858945727790503   T   T   T
  0.0572750856482098  0.9235216182032064  0.0826669757654676   T   T   T
  0.9294612594099071  0.3418493991194761  0.0899424877465380   T   T   T
  0.0558010624230742  0.5893574558363718  0.0864498438275400   T   T   T
  0.9321505419256061  0.6737175852768550  0.0873942309618128   T   T   T
  0.0561878727324619  0.4233095226552756  0.0887298225934630   T   T   T
  0.9320501247608364  0.8408588658167180  0.0842800139678331   T   T   T
  0.3054771089059002  0.0876778907914486  0.0861859097352786   T   T   T
  0.1820614599040079  0.1739006787713928  0.0858460361809292   T   T   T
  0.3076065557176205  0.9219951579449133  0.0875603602314364   T   T   T
  0.1815093734390413  0.3400070521715180  0.0901603813179679   T   T   T
  0.3041036937408086  0.5884490403464676  0.1005195180450942   T   T   T
  0.1813990289778147  0.6708069918429227  0.0881382532904599   T   T   T
  0.1823643814979969  0.8379625825643890  0.0855615989727060   T   T   T
  0.5559681392622944  0.0861644170306552  0.0941543562605610   T   T   T
  0.4300460916639060  0.1691557693032086  0.0923779714272933   T   T   T
  0.4286825219394182  0.3342699608247076  0.1021530154632425   T   T   T
  0.4298105700027449  0.8378080875886853  0.0996270612412722   T   T   T
  0.8066928341855665  0.0906714041396267  0.0859409484372828   T   T   T
  0.6807520368964906  0.1702372302722638  0.0932306449739576   T   T   T
  0.8066990307322577  0.9249821229218428  0.0853222438011333   T   T   T
  0.6787631905338948  0.3350442521097370  0.1035269758897923   T   T   T
  0.8077899113912486  0.5944463774793738  0.0981296278853985   T   T   T
  0.8030667474309404  0.4254969077402309  0.0982722535550540   T   T   T
  0.6844221892608882  0.8412804135878619  0.0955905960068836   T   T   T
  0.4206186115163844  0.6777455784354940  0.1193552416670195   T   T   T
  0.5517237461057229  0.4063671527702360  0.1204315120363597   T   T   T
  0.6929601658425347  0.6857633987787142  0.1115176276288919   T   T   T
  0.5569566067464533  0.9187682463588618  0.0970746370853218   T   T   T
  0.3053388143652234  0.4218644724382969  0.0984872898402987   T   T   T
  0.5651641273230371  0.5908513890844402  0.1778175609965877   T   T   T
 
  0.00000000E+00  0.00000000E+00  0.00000000E+00
  0.00000000E+00  0.00000000E+00  0.00000000E+00
  0.00000000E+00  0.00000000E+00  0.00000000E+00
  0.00000000E+00  0.00000000E+00  0.00000000E+00
  0.00000000E+00  0.00000000E+00  0.00000000E+00
  0.00000000E+00  0.00000000E+00  0.00000000E+00
  0.00000000E+00  0.00000000E+00  0.00000000E+00
  0.00000000E+00  0.00000000E+00  0.00000000E+00
  0.00000000E+00  0.00000000E+00  0.00000000E+00
  0.00000000E+00  0.00000000E+00  0.00000000E+00
  0.00000000E+00  0.00000000E+00  0.00000000E+00
  0.00000000E+00  0.00000000E+00  0.00000000E+00
  0.00000000E+00  0.00000000E+00  0.00000000E+00
  0.00000000E+00  0.00000000E+00  0.00000000E+00
  0.00000000E+00  0.00000000E+00  0.00000000E+00
  0.00000000E+00  0.00000000E+00  0.00000000E+00
  0.00000000E+00  0.00000000E+00  0.00000000E+00
  0.00000000E+00  0.00000000E+00  0.00000000E+00
  0.00000000E+00  0.00000000E+00  0.00000000E+00
  0.00000000E+00  0.00000000E+00  0.00000000E+00
  0.00000000E+00  0.00000000E+00  0.00000000E+00
  0.00000000E+00  0.00000000E+00  0.00000000E+00
  0.00000000E+00  0.00000000E+00  0.00000000E+00
  0.00000000E+00  0.00000000E+00  0.00000000E+00
  0.00000000E+00  0.00000000E+00  0.00000000E+00
  0.00000000E+00  0.00000000E+00  0.00000000E+00
  0.00000000E+00  0.00000000E+00  0.00000000E+00
  0.00000000E+00  0.00000000E+00  0.00000000E+00
  0.00000000E+00  0.00000000E+00  0.00000000E+00
  0.00000000E+00  0.00000000E+00  0.00000000E+00
  0.00000000E+00  0.00000000E+00  0.00000000E+00
  0.00000000E+00  0.00000000E+00  0.00000000E+00
