Title                                   
   1.00000000000000     
     4.9440799999999996    0.0000000000000000    0.0000000000000000
     0.0000000000000000    8.5647549999999999    0.0000000000000000
     0.0000000000000000    0.0000000000000000   20.0000000000000000
     9     5     1
Selective dynamics
Direct
 -0.0018208030389455  0.2939391422998505  0.0958346220946055   T   T   T
  0.2500000000000000  0.0393950545749865  0.0971443060155688   T   T   T
 -0.0020521243460164  0.9570929366936847  0.0966955905359912   T   T   T
  0.7500000000000000  0.2079880881368265  0.0905022920342334   T   T   T
  0.5018208030389453  0.2939391422998505  0.0958346220946055   T   T   T
  0.7500000000000000  0.0406798267391065  0.0913303908385262   T   T   T
  0.7500000000000000  0.7087514079643361  0.0967291896301967   T   T   T
  0.7500000000000000  0.5395210969467865  0.0962433266410005   T   T   T
  0.5020521243460163  0.9570929366936847  0.0966955905359912   T   T   T
  0.5091774793783627  0.4538769679212784  0.1055445228256757   T   T   T
 -0.0091774793783629  0.4538769679212784  0.1055445228256757   T   T   T
 -0.0102083332378812  0.7939980497272632  0.1053158820914413   T   T   T
  0.5102083332378814  0.7939980497272632  0.1053158820914413   T   T   T
  0.2500000000000000  0.2123993406958230  0.0966696766192301   T   T   T
  0.2500000000000000  0.6251319916579835  0.1325795831258204   T   T   T
 
  0.00000000E+00  0.00000000E+00  0.00000000E+00
  0.00000000E+00  0.00000000E+00  0.00000000E+00
  0.00000000E+00  0.00000000E+00  0.00000000E+00
  0.00000000E+00  0.00000000E+00  0.00000000E+00
  0.00000000E+00  0.00000000E+00  0.00000000E+00
  0.00000000E+00  0.00000000E+00  0.00000000E+00
  0.00000000E+00  0.00000000E+00  0.00000000E+00
  0.00000000E+00  0.00000000E+00  0.00000000E+00
  0.00000000E+00  0.00000000E+00  0.00000000E+00
  0.00000000E+00  0.00000000E+00  0.00000000E+00
  0.00000000E+00  0.00000000E+00  0.00000000E+00
  0.00000000E+00  0.00000000E+00  0.00000000E+00
  0.00000000E+00  0.00000000E+00  0.00000000E+00
  0.00000000E+00  0.00000000E+00  0.00000000E+00
  0.00000000E+00  0.00000000E+00  0.00000000E+00
