Title                                   
   1.00000000000000     
     9.8694509999999998    0.0000000000000000    0.0000000000000000
     0.0000000000000000    8.5490480000000009    0.0000000000000000
     0.0000000000000000    0.0000000000000000   20.0000000000000000
    28     2     1
Selective dynamics
Direct
  0.0553991957215594  0.0884246868930305  0.0812532253144782   T   T   T
  0.9312822402968219  0.1714537497373817  0.0839130749767477   T   T   T
  0.0571576357872748  0.9230544415348432  0.0820364376152917   T   T   T
  0.9347723019119323  0.3384276949148745  0.0828307548080330   T   T   T
  0.0572527041011307  0.5900218238687022  0.0779409544306781   T   T   T
  0.9344921018518400  0.6743514480164238  0.0838777323769395   T   T   T
  0.0574822387993397  0.4231388249429833  0.0774931980680836   T   T   T
  0.9319627722255212  0.8405479838179558  0.0850207224753403   T   T   T
  0.3042473043315138  0.0880406237645405  0.0925478478713927   T   T   T
  0.1801925164280324  0.1696206321959598  0.0837699565833713   T   T   T
  0.1797288244839526  0.3369418725231918  0.0822874982846434   T   T   T
  0.3001133666462060  0.5890264475139966  0.0949936989335332   T   T   T
  0.1809543123626727  0.6734215101774735  0.0829522615948022   T   T   T
  0.2992100758347149  0.4181675629577968  0.0950156459530927   T   T   T
  0.1821783152336802  0.8408952230978992  0.0846173665227652   T   T   T
  0.5553945472935774  0.0924215673723112  0.1074724038575647   T   T   T
  0.4255627621281223  0.1761857702389588  0.1042878437849000   T   T   T
  0.5539756887654671  0.9251646591634657  0.1073884712950827   T   T   T
  0.4196837031726092  0.6734103397455268  0.1098636103716469   T   T   T
  0.4266884332776482  0.8378266517954681  0.1043307995935798   T   T   T
  0.8061835689560783  0.0898863951266012  0.0928275864890818   T   T   T
  0.6841060760572628  0.1775960481316845  0.1044680958534417   T   T   T
  0.8062771295130794  0.9223472871757261  0.0934649958740354   T   T   T
  0.6940812869669917  0.3423573217450738  0.1111057393044931   T   T   T
  0.8159056712224239  0.5912135723396136  0.0968153805490003   T   T   T
  0.6924812676505189  0.6704479270237828  0.1114247472929835   T   T   T
  0.8163956074765435  0.4217713361248595  0.0963342079352818   T   T   T
  0.6827177707584225  0.8364275058197019  0.1051823485855626   T   T   T
  0.4152671380231640  0.3360519167058489  0.1093716606424903   T   T   T
  0.3049588026741482  0.9231104404172816  0.0925943335315308   T   T   T
  0.5570296400477673  0.5091217351170614  0.1234823992301800   T   T   T
 
  0.00000000E+00  0.00000000E+00  0.00000000E+00
  0.00000000E+00  0.00000000E+00  0.00000000E+00
  0.00000000E+00  0.00000000E+00  0.00000000E+00
  0.00000000E+00  0.00000000E+00  0.00000000E+00
  0.00000000E+00  0.00000000E+00  0.00000000E+00
  0.00000000E+00  0.00000000E+00  0.00000000E+00
  0.00000000E+00  0.00000000E+00  0.00000000E+00
  0.00000000E+00  0.00000000E+00  0.00000000E+00
  0.00000000E+00  0.00000000E+00  0.00000000E+00
  0.00000000E+00  0.00000000E+00  0.00000000E+00
  0.00000000E+00  0.00000000E+00  0.00000000E+00
  0.00000000E+00  0.00000000E+00  0.00000000E+00
  0.00000000E+00  0.00000000E+00  0.00000000E+00
  0.00000000E+00  0.00000000E+00  0.00000000E+00
  0.00000000E+00  0.00000000E+00  0.00000000E+00
  0.00000000E+00  0.00000000E+00  0.00000000E+00
  0.00000000E+00  0.00000000E+00  0.00000000E+00
  0.00000000E+00  0.00000000E+00  0.00000000E+00
  0.00000000E+00  0.00000000E+00  0.00000000E+00
  0.00000000E+00  0.00000000E+00  0.00000000E+00
  0.00000000E+00  0.00000000E+00  0.00000000E+00
  0.00000000E+00  0.00000000E+00  0.00000000E+00
  0.00000000E+00  0.00000000E+00  0.00000000E+00
  0.00000000E+00  0.00000000E+00  0.00000000E+00
  0.00000000E+00  0.00000000E+00  0.00000000E+00
  0.00000000E+00  0.00000000E+00  0.00000000E+00
  0.00000000E+00  0.00000000E+00  0.00000000E+00
  0.00000000E+00  0.00000000E+00  0.00000000E+00
  0.00000000E+00  0.00000000E+00  0.00000000E+00
  0.00000000E+00  0.00000000E+00  0.00000000E+00
  0.00000000E+00  0.00000000E+00  0.00000000E+00
