Title                                   
   1.00000000000000     
     4.9440799999999996    0.0000000000000000    0.0000000000000000
     0.0000000000000000   17.1295089999999988    0.0000000000000000
     0.0000000000000000    0.0000000000000000   20.0000000000000000
    28     2     1
Selective dynamics
Direct
 -0.0044968920770509  0.1055004423698047  0.2961271976225384   T   T   T
  0.2433706950388821  0.1482036596389357  0.2964463147295867   T   T   T
  0.2408582340037742  0.2322515907980285  0.2981807207172056   T   T   T
 -0.0097653726377351  0.2751875761264159  0.3016400584986829   T   T   T
  0.0083168886809283  0.6004862039947416  0.3014434629482253   T   T   T
  0.2554682008061840  0.7267858461908198  0.2966791097111168   T   T   T
  0.0019981877482650  0.8532448676812280  0.2952383799610341   T   T   T
  0.2510924364600643  0.8954962158508235  0.2951755844878553   T   T   T
  0.2486244510586462  0.9794828858952987  0.2952785331850808   T   T   T
  0.0045029235105953  0.7691712791610718  0.2958581480677980   T   T   T
  0.4950119674904055  0.1059792368668704  0.2953073503158928   T   T   T
  0.7455346017579951  0.1477056911464550  0.2956815919044668   T   T   T
  0.7427379298657134  0.2317569247842478  0.2966649335436282   T   T   T
  0.4975419614982364  0.0218387399156237  0.2951031207147005   T   T   T
  0.7428677034319321  0.3942791753441324  0.3035001329555600   T   T   T
  0.7534889503333112  0.4804439323576862  0.3049807834071920   T   T   T
  0.4910959249168370  0.2734604823987951  0.2958261272011116   T   T   T
  0.5090162072344095  0.6009998252245113  0.3002244423728251   T   T   T
  0.7546500086544961  0.7272578399212338  0.2960926487037690   T   T   T
  0.5016438358629765  0.8533283863287132  0.2950687678647351   T   T   T
  0.7509558864147632  0.8954197362099879  0.2949882645415261   T   T   T
  0.7484102789385789  0.9795550216495402  0.2950749158739974   T   T   T
  0.5040237101988293  0.7692839734114580  0.2956171361708992   T   T   T
  0.7578439754087293  0.6432308360836422  0.2982116628565705   T   T   T
  0.2574606513029477  0.6427979206477055  0.2994953730983841   T   T   T
 -0.0021054819032023  0.0215417562406405  0.2955114771117483   T   T   T
  0.0018042480751663  0.5174252463006240  0.3070208839832045   T   T   T
  0.4983621107663371  0.3561787375654547  0.2953033517000218   T   T   T
  0.5119260356258795  0.5203385942488276  0.3045553270910876   T   T   T
 -0.0140828662945462  0.3557278723126339  0.3112164736236797   T   T   T
  0.2718496078276527  0.4369815033340434  0.3375477250358291   T   T   T
 
  0.00000000E+00  0.00000000E+00  0.00000000E+00
  0.00000000E+00  0.00000000E+00  0.00000000E+00
  0.00000000E+00  0.00000000E+00  0.00000000E+00
  0.00000000E+00  0.00000000E+00  0.00000000E+00
  0.00000000E+00  0.00000000E+00  0.00000000E+00
  0.00000000E+00  0.00000000E+00  0.00000000E+00
  0.00000000E+00  0.00000000E+00  0.00000000E+00
  0.00000000E+00  0.00000000E+00  0.00000000E+00
  0.00000000E+00  0.00000000E+00  0.00000000E+00
  0.00000000E+00  0.00000000E+00  0.00000000E+00
  0.00000000E+00  0.00000000E+00  0.00000000E+00
  0.00000000E+00  0.00000000E+00  0.00000000E+00
  0.00000000E+00  0.00000000E+00  0.00000000E+00
  0.00000000E+00  0.00000000E+00  0.00000000E+00
  0.00000000E+00  0.00000000E+00  0.00000000E+00
  0.00000000E+00  0.00000000E+00  0.00000000E+00
  0.00000000E+00  0.00000000E+00  0.00000000E+00
  0.00000000E+00  0.00000000E+00  0.00000000E+00
  0.00000000E+00  0.00000000E+00  0.00000000E+00
  0.00000000E+00  0.00000000E+00  0.00000000E+00
  0.00000000E+00  0.00000000E+00  0.00000000E+00
  0.00000000E+00  0.00000000E+00  0.00000000E+00
  0.00000000E+00  0.00000000E+00  0.00000000E+00
  0.00000000E+00  0.00000000E+00  0.00000000E+00
  0.00000000E+00  0.00000000E+00  0.00000000E+00
  0.00000000E+00  0.00000000E+00  0.00000000E+00
  0.00000000E+00  0.00000000E+00  0.00000000E+00
  0.00000000E+00  0.00000000E+00  0.00000000E+00
  0.00000000E+00  0.00000000E+00  0.00000000E+00
  0.00000000E+00  0.00000000E+00  0.00000000E+00
  0.00000000E+00  0.00000000E+00  0.00000000E+00
