Title                                   
   1.00000000000000     
     8.5490480000000009    0.0000000000000000    0.0000000000000000
     0.0000000000000000    8.5490480000000009    0.0000000000000000
     0.0000000000000000    0.0000000000000000   20.0000000000000000
    22     2     1
Selective dynamics
Direct
  0.9095256515336951  0.2082824320576984  0.0954263873844199   T   T   T
  0.9077799294522862  0.5022008196919154  0.0953043133431426   T   T   T
  0.9111619762992581  0.7978583204109114  0.0954444312357313   T   T   T
  0.1969556848057342  0.0836144155480012  0.0954550973170710   T   T   T
  0.0748762579420046  0.2056663726113324  0.0954186120137101   T   T   T
  0.1995529831882606  0.9182731379669027  0.0954925983690071   T   T   T
  0.1598652399942366  0.6461496609455671  0.0953601874414757   T   T   T
  0.0782648798319118  0.5013514552267312  0.0953123033787619   T   T   T
  0.1597872277522199  0.3536589880264538  0.0952898673006293   T   T   T
  0.0765108808863746  0.7952558476711985  0.0954722419820953   T   T   T
  0.4925849614115702  0.0870346129979533  0.0953566946044849   T   T   T
  0.3449239580990850  0.1685597104831101  0.0953425174632029   T   T   T
  0.4934023281538630  0.9165526091607267  0.0953567149526004   T   T   T
  0.3486389221760414  0.8349128141300175  0.0953984928621280   T   T   T
  0.7864769402443800  0.0852869214246796  0.0954529316582482   T   T   T
  0.6373581151656628  0.1686787634580803  0.0953649397785514   T   T   T
  0.7890939907261585  0.9199335460704092  0.0954483946547896   T   T   T
  0.8262392516305006  0.6498807745337809  0.0952959807798028   T   T   T
  0.8261587083906241  0.3574071086582840  0.0953384823037477   T   T   T
  0.6410838842506544  0.8350238714043310  0.0953099977196640   T   T   T
  0.3279569579235831  0.6668638974492608  0.0953028727410965   T   T   T
  0.6580849706587164  0.3367670677785192  0.0952866347476841   T   T   T
  0.3220732608912686  0.3308269870961523  0.0951830440445265   T   T   T
  0.6639477488891296  0.6727529348004593  0.0951677011295439   T   T   T
  0.4931072897027732  0.5019969303975356  0.0951235607938628   T   T   T
 
  0.00000000E+00  0.00000000E+00  0.00000000E+00
  0.00000000E+00  0.00000000E+00  0.00000000E+00
  0.00000000E+00  0.00000000E+00  0.00000000E+00
  0.00000000E+00  0.00000000E+00  0.00000000E+00
  0.00000000E+00  0.00000000E+00  0.00000000E+00
  0.00000000E+00  0.00000000E+00  0.00000000E+00
  0.00000000E+00  0.00000000E+00  0.00000000E+00
  0.00000000E+00  0.00000000E+00  0.00000000E+00
  0.00000000E+00  0.00000000E+00  0.00000000E+00
  0.00000000E+00  0.00000000E+00  0.00000000E+00
  0.00000000E+00  0.00000000E+00  0.00000000E+00
  0.00000000E+00  0.00000000E+00  0.00000000E+00
  0.00000000E+00  0.00000000E+00  0.00000000E+00
  0.00000000E+00  0.00000000E+00  0.00000000E+00
  0.00000000E+00  0.00000000E+00  0.00000000E+00
  0.00000000E+00  0.00000000E+00  0.00000000E+00
  0.00000000E+00  0.00000000E+00  0.00000000E+00
  0.00000000E+00  0.00000000E+00  0.00000000E+00
  0.00000000E+00  0.00000000E+00  0.00000000E+00
  0.00000000E+00  0.00000000E+00  0.00000000E+00
  0.00000000E+00  0.00000000E+00  0.00000000E+00
  0.00000000E+00  0.00000000E+00  0.00000000E+00
  0.00000000E+00  0.00000000E+00  0.00000000E+00
  0.00000000E+00  0.00000000E+00  0.00000000E+00
  0.00000000E+00  0.00000000E+00  0.00000000E+00
