Title                                   
   1.00000000000000     
     9.8694509999999998    0.0000000000000000    0.0000000000000000
     0.0000000000000000    8.5490480000000009    0.0000000000000000
     0.0000000000000000    0.0000000000000000   20.0000000000000000
    31     1
Selective dynamics
Direct
  0.0562392365921981  0.0899597594884484  0.0801530869829169   T   T   T
  0.9311658798258259  0.1731489256337617  0.0824443815310241   T   T   T
  0.0562242571339427  0.9228243407042621  0.0809027196822945   T   T   T
  0.9307236535590298  0.3398761716569136  0.0851077931480392   T   T   T
  0.0562337362797504  0.5889190825719163  0.0829113075906860   T   T   T
  0.9320474037764651  0.6725728839147533  0.0863820893837131   T   T   T
  0.0562300362800825  0.4229021285656153  0.0831041622215202   T   T   T
  0.9316344209815072  0.8396655262277989  0.0844069298679254   T   T   T
  0.3055779031374702  0.0896407074297804  0.0860336019631118   T   T   T
  0.1813101800340538  0.1731441886621577  0.0823936046114157   T   T   T
  0.3053166124733702  0.9234470323414984  0.0884438895459604   T   T   T
  0.1817352306711948  0.3398812004217052  0.0850617466453816   T   T   T
  0.3017975165213303  0.5897042773693901  0.0992820646876038   T   T   T
  0.1804361838502392  0.6725652609727052  0.0863269658862574   T   T   T
  0.3054429815984068  0.4222228053269887  0.0965036955417543   T   T   T
  0.1808242954202032  0.8396603669683641  0.0843457406565641   T   T   T
  0.5562399578061971  0.0875587585059771  0.0945946524501080   T   T   T
  0.4304340816759398  0.1711574739158554  0.0930237320636422   T   T   T
  0.5562333392368307  0.9225252734669872  0.1003611379850537   T   T   T
  0.4294345837327451  0.3351981496637994  0.1026620670649016   T   T   T
  0.4175013121812935  0.6800532650941826  0.1183522055588419   T   T   T
  0.5562173508171213  0.4059616201132720  0.1212960342452798   T   T   T
  0.4280965330421808  0.8420361193725903  0.1016311961738607   T   T   T
  0.8068967120336773  0.0896543780615564  0.0860952746631878   T   T   T
  0.6820441762422882  0.1711777892699626  0.0930502575935747   T   T   T
  0.8071543747346432  0.9234673915968654  0.0885201463228938   T   T   T
  0.6830123078367885  0.3352110660840527  0.1026809977329520   T   T   T
  0.8107171966186785  0.5896890013548262  0.0993392131046513   T   T   T
  0.6950155334030363  0.6800627444187984  0.1183543476685938   T   T   T
  0.8070203076584458  0.4222054547592046  0.0965547064850170   T   T   T
  0.6843742990987712  0.8420269237976805  0.1016469964476418   T   T   T
  0.5563074057462992  0.5921259322683383  0.1737082544936657   T   T   T
 
  0.00000000E+00  0.00000000E+00  0.00000000E+00
  0.00000000E+00  0.00000000E+00  0.00000000E+00
  0.00000000E+00  0.00000000E+00  0.00000000E+00
  0.00000000E+00  0.00000000E+00  0.00000000E+00
  0.00000000E+00  0.00000000E+00  0.00000000E+00
  0.00000000E+00  0.00000000E+00  0.00000000E+00
  0.00000000E+00  0.00000000E+00  0.00000000E+00
  0.00000000E+00  0.00000000E+00  0.00000000E+00
  0.00000000E+00  0.00000000E+00  0.00000000E+00
  0.00000000E+00  0.00000000E+00  0.00000000E+00
  0.00000000E+00  0.00000000E+00  0.00000000E+00
  0.00000000E+00  0.00000000E+00  0.00000000E+00
  0.00000000E+00  0.00000000E+00  0.00000000E+00
  0.00000000E+00  0.00000000E+00  0.00000000E+00
  0.00000000E+00  0.00000000E+00  0.00000000E+00
  0.00000000E+00  0.00000000E+00  0.00000000E+00
  0.00000000E+00  0.00000000E+00  0.00000000E+00
  0.00000000E+00  0.00000000E+00  0.00000000E+00
  0.00000000E+00  0.00000000E+00  0.00000000E+00
  0.00000000E+00  0.00000000E+00  0.00000000E+00
  0.00000000E+00  0.00000000E+00  0.00000000E+00
  0.00000000E+00  0.00000000E+00  0.00000000E+00
  0.00000000E+00  0.00000000E+00  0.00000000E+00
  0.00000000E+00  0.00000000E+00  0.00000000E+00
  0.00000000E+00  0.00000000E+00  0.00000000E+00
  0.00000000E+00  0.00000000E+00  0.00000000E+00
  0.00000000E+00  0.00000000E+00  0.00000000E+00
  0.00000000E+00  0.00000000E+00  0.00000000E+00
  0.00000000E+00  0.00000000E+00  0.00000000E+00
  0.00000000E+00  0.00000000E+00  0.00000000E+00
  0.00000000E+00  0.00000000E+00  0.00000000E+00
  0.00000000E+00  0.00000000E+00  0.00000000E+00
