Title                                   
   1.00000000000000     
     9.8694509999999998    0.0000000000000000    0.0000000000000000
     0.0000000000000000    8.5490480000000009    0.0000000000000000
     0.0000000000000000    0.0000000000000000   20.0000000000000000
    29     2     1
Selective dynamics
Direct
  0.0564382203854555  0.0914541399175188  0.0835296063569311   T   T   T
  0.9310204511462319  0.1736695392581254  0.0858546915131774   T   T   T
  0.0559519755692591  0.9244212751866872  0.0831453505683799   T   T   T
  0.9298203948977846  0.3402327097255091  0.0896894148860642   T   T   T
  0.0561891873910813  0.5892084690264854  0.0854024679140902   T   T   T
  0.9323786066093206  0.6730266284945764  0.0888106305708627   T   T   T
  0.0565906477267663  0.4232657759398890  0.0874046188115318   T   T   T
  0.9316781070250698  0.8398076384603307  0.0865461676534364   T   T   T
  0.3054818070886874  0.0900504486809995  0.0871346946504836   T   T   T
  0.1817040389086625  0.1746693972762429  0.0854672582515266   T   T   T
  0.3045045192742935  0.9240724231974689  0.0885135550732733   T   T   T
  0.1833358701781489  0.3419289638160016  0.0883601953675361   T   T   T
  0.3044040614670183  0.5941121833913448  0.0961340618657932   T   T   T
  0.1800297907787165  0.6739737920403689  0.0863364059344107   T   T   T
  0.3094460987907128  0.4250643763005326  0.0947964264860728   T   T   T
  0.1800074679976367  0.8407991293054671  0.0851538130422575   T   T   T
  0.5555861185864278  0.0844011286083260  0.0951742458813965   T   T   T
  0.4312619969592019  0.1697923151877562  0.0918561037584579   T   T   T
  0.5552548324479503  0.9192780392587575  0.1013706189789423   T   T   T
  0.4342518675161127  0.3349618939164857  0.0979182684477044   T   T   T
  0.4262731944686435  0.8393228291506410  0.0998820881540431   T   T   T
  0.8071412453873564  0.0890274803575489  0.0881431808688497   T   T   T
  0.6813625523868366  0.1687702818138284  0.0933105047235570   T   T   T
  0.8072955598011708  0.9230278452023359  0.0902402833377177   T   T   T
  0.6795718914414151  0.3336172109445902  0.1003124722514529   T   T   T
  0.8095789619040098  0.5908912507612940  0.1026867937413520   T   T   T
  0.6969926425158154  0.6816956611054426  0.1208520703604306   T   T   T
  0.8051813318229948  0.4221458305765343  0.0989364654387829   T   T   T
  0.6847343195469502  0.8400544029185421  0.1040277319522648   T   T   T
  0.4173199583315781  0.6814995886998991  0.1095193164325203   T   T   T
  0.5564923200247797  0.4053561812823415  0.1090738735562944   T   T   T
  0.5523589616239172  0.5866471701981391  0.1600916231704402   T   T   T
 
  0.00000000E+00  0.00000000E+00  0.00000000E+00
  0.00000000E+00  0.00000000E+00  0.00000000E+00
  0.00000000E+00  0.00000000E+00  0.00000000E+00
  0.00000000E+00  0.00000000E+00  0.00000000E+00
  0.00000000E+00  0.00000000E+00  0.00000000E+00
  0.00000000E+00  0.00000000E+00  0.00000000E+00
  0.00000000E+00  0.00000000E+00  0.00000000E+00
  0.00000000E+00  0.00000000E+00  0.00000000E+00
  0.00000000E+00  0.00000000E+00  0.00000000E+00
  0.00000000E+00  0.00000000E+00  0.00000000E+00
  0.00000000E+00  0.00000000E+00  0.00000000E+00
  0.00000000E+00  0.00000000E+00  0.00000000E+00
  0.00000000E+00  0.00000000E+00  0.00000000E+00
  0.00000000E+00  0.00000000E+00  0.00000000E+00
  0.00000000E+00  0.00000000E+00  0.00000000E+00
  0.00000000E+00  0.00000000E+00  0.00000000E+00
  0.00000000E+00  0.00000000E+00  0.00000000E+00
  0.00000000E+00  0.00000000E+00  0.00000000E+00
  0.00000000E+00  0.00000000E+00  0.00000000E+00
  0.00000000E+00  0.00000000E+00  0.00000000E+00
  0.00000000E+00  0.00000000E+00  0.00000000E+00
  0.00000000E+00  0.00000000E+00  0.00000000E+00
  0.00000000E+00  0.00000000E+00  0.00000000E+00
  0.00000000E+00  0.00000000E+00  0.00000000E+00
  0.00000000E+00  0.00000000E+00  0.00000000E+00
  0.00000000E+00  0.00000000E+00  0.00000000E+00
  0.00000000E+00  0.00000000E+00  0.00000000E+00
  0.00000000E+00  0.00000000E+00  0.00000000E+00
  0.00000000E+00  0.00000000E+00  0.00000000E+00
  0.00000000E+00  0.00000000E+00  0.00000000E+00
  0.00000000E+00  0.00000000E+00  0.00000000E+00
  0.00000000E+00  0.00000000E+00  0.00000000E+00
