Title                                   
   1.00000000000000     
     8.5490480000000009    0.0000000000000000    0.0000000000000000
     0.0000000000000000    8.5490480000000009    0.0000000000000000
     0.0000000000000000    0.0000000000000000   20.0000000000000000
    23     1     1
Selective dynamics
Direct
  0.9109051116876288  0.2049514264013804  0.0976943586375170   T   T   T
  0.9099232512518655  0.5029070633226453  0.0976744379436947   T   T   T
  0.9130934125156116  0.8015753118175082  0.0976824147610106   T   T   T
  0.1971701598120508  0.0815482534161042  0.0978400926891142   T   T   T
  0.0739606809320738  0.2022916861349362  0.0977938753964141   T   T   T
  0.1583409462939064  0.6494919308269171  0.0977749815301872   T   T   T
  0.0772612887366762  0.5017100298531167  0.0977713770539157   T   T   T
  0.1572913950070138  0.3542779224538541  0.0978293171397695   T   T   T
  0.0773937926647021  0.7995298074185740  0.0977935952757299   T   T   T
  0.4921975994136039  0.0852928373296484  0.0978004763387076   T   T   T
  0.3445472732337616  0.1632524470665776  0.0978395835375396   T   T   T
  0.4914944249788419  0.9180533622335416  0.0977362150086369   T   T   T
  0.3451326520762300  0.8367915330444202  0.0977357529989906   T   T   T
  0.7881981609293466  0.0834978093753428  0.0977195026714644   T   T   T
  0.6383580082648957  0.1661135544418902  0.0977902225983867   T   T   T
  0.7891029238376105  0.9214487594482181  0.0976909416224996   T   T   T
  0.8315108558916116  0.6508243584471028  0.0976263076776283   T   T   T
  0.8290030340185339  0.3553970656878293  0.0976830398664216   T   T   T
  0.6387099733578921  0.8373671227240413  0.0976915224608506   T   T   T
  0.3200444855083846  0.3296074058985191  0.0978465982264758   T   T   T
  0.3211955954146854  0.6739224804332454  0.0976945628935004   T   T   T
  0.6644073699956767  0.3303656890878290  0.0977567167336787   T   T   T
  0.6656043252924468  0.6745374335157821  0.0976389097328850   T   T   T
  0.1971599400012055  0.9182202903988089  0.0978711656106423   T   T   T
  0.4934053388837300  0.5018144192221730  0.0977290315943192   T   T   T
 
  0.00000000E+00  0.00000000E+00  0.00000000E+00
  0.00000000E+00  0.00000000E+00  0.00000000E+00
  0.00000000E+00  0.00000000E+00  0.00000000E+00
  0.00000000E+00  0.00000000E+00  0.00000000E+00
  0.00000000E+00  0.00000000E+00  0.00000000E+00
  0.00000000E+00  0.00000000E+00  0.00000000E+00
  0.00000000E+00  0.00000000E+00  0.00000000E+00
  0.00000000E+00  0.00000000E+00  0.00000000E+00
  0.00000000E+00  0.00000000E+00  0.00000000E+00
  0.00000000E+00  0.00000000E+00  0.00000000E+00
  0.00000000E+00  0.00000000E+00  0.00000000E+00
  0.00000000E+00  0.00000000E+00  0.00000000E+00
  0.00000000E+00  0.00000000E+00  0.00000000E+00
  0.00000000E+00  0.00000000E+00  0.00000000E+00
  0.00000000E+00  0.00000000E+00  0.00000000E+00
  0.00000000E+00  0.00000000E+00  0.00000000E+00
  0.00000000E+00  0.00000000E+00  0.00000000E+00
  0.00000000E+00  0.00000000E+00  0.00000000E+00
  0.00000000E+00  0.00000000E+00  0.00000000E+00
  0.00000000E+00  0.00000000E+00  0.00000000E+00
  0.00000000E+00  0.00000000E+00  0.00000000E+00
  0.00000000E+00  0.00000000E+00  0.00000000E+00
  0.00000000E+00  0.00000000E+00  0.00000000E+00
  0.00000000E+00  0.00000000E+00  0.00000000E+00
  0.00000000E+00  0.00000000E+00  0.00000000E+00
