Title                                   
   1.00000000000000     
     4.9440799999999996    0.0000000000000000    0.0000000000000000
     0.0000000000000000   17.1295089999999988    0.0000000000000000
     0.0000000000000000    0.0000000000000000   20.0000000000000000
    26     4     1
Selective dynamics
Direct
  0.0008706023760162  0.1055231964839996  0.2974735147600569   T   T   T
  0.2507412266492808  0.1484637796700596  0.2982411996583890   T   T   T
  0.2512050256238571  0.2327720124207485  0.3000034511866306   T   T   T
 -0.0031089186552215  0.2728221579623156  0.3004764563916915   T   T   T
 -0.0036252771097620  0.6015161500970226  0.3006672689182117   T   T   T
  0.2480704178707536  0.7262506708458217  0.2986023406363474   T   T   T
  0.0003739900012796  0.8531337627953747  0.2971646070180181   T   T   T
  0.2492829623164960  0.8953591405473112  0.2970098682347335   T   T   T
  0.2496122705932728  0.9792448366458593  0.2968505556907376   T   T   T
 -0.0001275983341672  0.7688993787130971  0.2978804928752118   T   T   T
  0.4994571624062240  0.1052604240277345  0.2975000405670440   T   T   T
  0.7498828960379540  0.1467302071395536  0.2978129793613835   T   T   T
  0.7500198601321514  0.2303935171349648  0.2991773842570254   T   T   T
  0.4993621360241861  0.0213524251071558  0.2968968998612461   T   T   T
  0.7566423515894866  0.3923855211016364  0.3027801394453685   T   T   T
  0.7554269005610045  0.4821776420511761  0.3027858520999773   T   T   T
  0.5047635002496857  0.2742261667150732  0.3007534685432546   T   T   T
  0.5003089119761595  0.6025363804258832  0.3007778615710492   T   T   T
  0.7493963799707495  0.7280869171712481  0.2981618054643143   T   T   T
  0.4979798760265606  0.8529433748541119  0.2971996816312693   T   T   T
  0.7493516475334676  0.8949147393940825  0.2968952235799390   T   T   T
  0.7497137950693545  0.9791869881179829  0.2967285243204775   T   T   T
  0.4977361798149645  0.7686450932342721  0.2979208072899941   T   T   T
  0.7475223930625441  0.6449277860870483  0.2993917007519020   T   T   T
  0.0002714871009298  0.0214252074843786  0.2968780709730407   T   T   T
  0.5093737688521531  0.5202078796991741  0.3036169206240554   T   T   T
  0.9926965398516001  0.5224004862587275  0.3024223216339930   T   T   T
  0.5183038331535939  0.3547114726391858  0.3030982971153276   T   T   T
 -0.0129123925041033  0.3527399353235666  0.3024491855458877   T   T   T
  0.2481758540509939  0.6433875893194301  0.3001400124528448   T   T   T
  0.2532392177085373  0.4387171605320000  0.3073030675405302   T   T   T
 
  0.00000000E+00  0.00000000E+00  0.00000000E+00
  0.00000000E+00  0.00000000E+00  0.00000000E+00
  0.00000000E+00  0.00000000E+00  0.00000000E+00
  0.00000000E+00  0.00000000E+00  0.00000000E+00
  0.00000000E+00  0.00000000E+00  0.00000000E+00
  0.00000000E+00  0.00000000E+00  0.00000000E+00
  0.00000000E+00  0.00000000E+00  0.00000000E+00
  0.00000000E+00  0.00000000E+00  0.00000000E+00
  0.00000000E+00  0.00000000E+00  0.00000000E+00
  0.00000000E+00  0.00000000E+00  0.00000000E+00
  0.00000000E+00  0.00000000E+00  0.00000000E+00
  0.00000000E+00  0.00000000E+00  0.00000000E+00
  0.00000000E+00  0.00000000E+00  0.00000000E+00
  0.00000000E+00  0.00000000E+00  0.00000000E+00
  0.00000000E+00  0.00000000E+00  0.00000000E+00
  0.00000000E+00  0.00000000E+00  0.00000000E+00
  0.00000000E+00  0.00000000E+00  0.00000000E+00
  0.00000000E+00  0.00000000E+00  0.00000000E+00
  0.00000000E+00  0.00000000E+00  0.00000000E+00
  0.00000000E+00  0.00000000E+00  0.00000000E+00
  0.00000000E+00  0.00000000E+00  0.00000000E+00
  0.00000000E+00  0.00000000E+00  0.00000000E+00
  0.00000000E+00  0.00000000E+00  0.00000000E+00
  0.00000000E+00  0.00000000E+00  0.00000000E+00
  0.00000000E+00  0.00000000E+00  0.00000000E+00
  0.00000000E+00  0.00000000E+00  0.00000000E+00
  0.00000000E+00  0.00000000E+00  0.00000000E+00
  0.00000000E+00  0.00000000E+00  0.00000000E+00
  0.00000000E+00  0.00000000E+00  0.00000000E+00
  0.00000000E+00  0.00000000E+00  0.00000000E+00
  0.00000000E+00  0.00000000E+00  0.00000000E+00
