Title                                   
   1.00000000000000     
     8.5490480000000009    0.0000000000000000    0.0000000000000000
     0.0000000000000000    8.5490480000000009    0.0000000000000000
     0.0000000000000000    0.0000000000000000   20.0000000000000000
    19     5     1
Selective dynamics
Direct
  0.9071351490471332  0.2077343308554608  0.0975256453043899   T   T   T
  0.9116434797255508  0.8004433051183975  0.0976816413025508   T   T   T
  0.1969185304050466  0.0826293877567867  0.0976936274677296   T   T   T
  0.0758699675303915  0.2013477339771463  0.0976647613044971   T   T   T
  0.1603860979933195  0.6476492901199968  0.0977362480000117   T   T   T
  0.0779631236419813  0.5003638210343946  0.0977487472021203   T   T   T
  0.1587185366673320  0.3511954929322297  0.0978260370348024   T   T   T
  0.0804800025501788  0.7977886771218891  0.0976507360782146   T   T   T
  0.3440526882438600  0.1659833836858068  0.0978125753582153   T   T   T
  0.4930997280902744  0.9179140351165418  0.0977904049110389   T   T   T
  0.3473186197619729  0.8340932552821219  0.0977478755347910   T   T   T
  0.7858446602791008  0.0874465514488622  0.0975907509292662   T   T   T
  0.6361435471810063  0.1709279463851166  0.0977176238314896   T   T   T
  0.7897305771486806  0.9197070105311295  0.0976863482250783   T   T   T
  0.8284523495484661  0.6510681863644773  0.0978534743764790   T   T   T
  0.8246374137889710  0.3577684675558168  0.0975687138017516   T   T   T
  0.6415580317110825  0.8361838150301257  0.0978699045062594   T   T   T
  0.3282705928099882  0.6684432001749037  0.0977630145353063   T   T   T
  0.6560902251214676  0.3391308214777611  0.0976695385194496   T   T   T
  0.4924923101428060  0.0879060379689168  0.0977908338868843   T   T   T
  0.9074938987392370  0.5028748908960904  0.0977612478661702   T   T   T
  0.3232428400164506  0.3285144271261340  0.0979381774447294   T   T   T
  0.6658575282464648  0.6712378726636178  0.0980500608299725   T   T   T
  0.1973487148720894  0.9144782464612785  0.0976884801087885   T   T   T
  0.4946633867371342  0.5019598129150115  0.0978785316399935   T   T   T
 
  0.00000000E+00  0.00000000E+00  0.00000000E+00
  0.00000000E+00  0.00000000E+00  0.00000000E+00
  0.00000000E+00  0.00000000E+00  0.00000000E+00
  0.00000000E+00  0.00000000E+00  0.00000000E+00
  0.00000000E+00  0.00000000E+00  0.00000000E+00
  0.00000000E+00  0.00000000E+00  0.00000000E+00
  0.00000000E+00  0.00000000E+00  0.00000000E+00
  0.00000000E+00  0.00000000E+00  0.00000000E+00
  0.00000000E+00  0.00000000E+00  0.00000000E+00
  0.00000000E+00  0.00000000E+00  0.00000000E+00
  0.00000000E+00  0.00000000E+00  0.00000000E+00
  0.00000000E+00  0.00000000E+00  0.00000000E+00
  0.00000000E+00  0.00000000E+00  0.00000000E+00
  0.00000000E+00  0.00000000E+00  0.00000000E+00
  0.00000000E+00  0.00000000E+00  0.00000000E+00
  0.00000000E+00  0.00000000E+00  0.00000000E+00
  0.00000000E+00  0.00000000E+00  0.00000000E+00
  0.00000000E+00  0.00000000E+00  0.00000000E+00
  0.00000000E+00  0.00000000E+00  0.00000000E+00
  0.00000000E+00  0.00000000E+00  0.00000000E+00
  0.00000000E+00  0.00000000E+00  0.00000000E+00
  0.00000000E+00  0.00000000E+00  0.00000000E+00
  0.00000000E+00  0.00000000E+00  0.00000000E+00
  0.00000000E+00  0.00000000E+00  0.00000000E+00
  0.00000000E+00  0.00000000E+00  0.00000000E+00
