Title                                   
   1.00000000000000     
     8.5490480000000009    0.0000000000000000    0.0000000000000000
     0.0000000000000000    8.5490480000000009    0.0000000000000000
     0.0000000000000000    0.0000000000000000   20.0000000000000000
    20     4     1
Selective dynamics
Direct
  0.9088654185750703  0.2067390771723132  0.0948833493651760   T   T   T
  0.9114557107603323  0.8005789079010222  0.0951070723062466   T   T   T
  0.1967692152075195  0.0833255238756761  0.0950182578668962   T   T   T
  0.0755989019595544  0.2023844289444334  0.0950819726280486   T   T   T
  0.1547281815917677  0.6493072554863389  0.0973403615756793   T   T   T
  0.0729065746368401  0.5012151123987555  0.0970300973908343   T   T   T
  0.1525008085275567  0.3534764942287656  0.0970953547995095   T   T   T
  0.0793478132644233  0.7982238898380891  0.0953581273514212   T   T   T
  0.4949801622894284  0.0865260766333545  0.0969976031129134   T   T   T
  0.3447532842877978  0.1633212901657622  0.0967519662685816   T   T   T
  0.4948362287284740  0.9180868038216906  0.0967983627834991   T   T   T
  0.3457486280055944  0.8373058134421599  0.0967131559844845   T   T   T
  0.7884015354266486  0.0877375134639961  0.0956434818011166   T   T   T
  0.6424964641590291  0.1680268792288054  0.0976807985710254   T   T   T
  0.7896287103351353  0.9188013009676477  0.0955255145980070   T   T   T
  0.8302222289486083  0.6521182766642502  0.0966670803174577   T   T   T
  0.8291022329499353  0.3545967059998933  0.0962548637296056   T   T   T
  0.6435104628050418  0.8367326864949919  0.0972460956754914   T   T   T
  0.3205679523619186  0.3302403527455770  0.0999820344738078   T   T   T
  0.3229741493873331  0.6736897838030557  0.0994010896958042   T   T   T
  0.9056505768675909  0.5029739071435613  0.0964548385938614   T   T   T
  0.6682466192639811  0.3335967438484413  0.0995081433530502   T   T   T
  0.6695567363592919  0.6726931978338760  0.0992577485851085   T   T   T
  0.1976886737411850  0.9162228083240569  0.0949610312768228   T   T   T
  0.4848747295599349  0.4968691695735076  0.1209465978955240   T   T   T
 
  0.00000000E+00  0.00000000E+00  0.00000000E+00
  0.00000000E+00  0.00000000E+00  0.00000000E+00
  0.00000000E+00  0.00000000E+00  0.00000000E+00
  0.00000000E+00  0.00000000E+00  0.00000000E+00
  0.00000000E+00  0.00000000E+00  0.00000000E+00
  0.00000000E+00  0.00000000E+00  0.00000000E+00
  0.00000000E+00  0.00000000E+00  0.00000000E+00
  0.00000000E+00  0.00000000E+00  0.00000000E+00
  0.00000000E+00  0.00000000E+00  0.00000000E+00
  0.00000000E+00  0.00000000E+00  0.00000000E+00
  0.00000000E+00  0.00000000E+00  0.00000000E+00
  0.00000000E+00  0.00000000E+00  0.00000000E+00
  0.00000000E+00  0.00000000E+00  0.00000000E+00
  0.00000000E+00  0.00000000E+00  0.00000000E+00
  0.00000000E+00  0.00000000E+00  0.00000000E+00
  0.00000000E+00  0.00000000E+00  0.00000000E+00
  0.00000000E+00  0.00000000E+00  0.00000000E+00
  0.00000000E+00  0.00000000E+00  0.00000000E+00
  0.00000000E+00  0.00000000E+00  0.00000000E+00
  0.00000000E+00  0.00000000E+00  0.00000000E+00
  0.00000000E+00  0.00000000E+00  0.00000000E+00
  0.00000000E+00  0.00000000E+00  0.00000000E+00
  0.00000000E+00  0.00000000E+00  0.00000000E+00
  0.00000000E+00  0.00000000E+00  0.00000000E+00
  0.00000000E+00  0.00000000E+00  0.00000000E+00
