Title                                   
   1.00000000000000     
     4.9440799999999996    0.0000000000000000    0.0000000000000000
     0.0000000000000000    8.5647549999999999    0.0000000000000000
     0.0000000000000000    0.0000000000000000   20.0000000000000000
    14     1
Selective dynamics
Direct
  0.2500000000000000  0.2072621775613111  0.0943865813792424   T   T   T
  0.0000313811291679  0.2927213112796976  0.0950308103305539   T   T   T
  0.2500000000000000  0.0422999036083144  0.0943665513466995   T   T   T
  0.0000229333694052  0.9568298596243793  0.0949952607249791   T   T   T
  0.7500000000000000  0.2085803309158278  0.0920683410648538   T   T   T
  0.4999686188708323  0.2927213112796976  0.0950308103305539   T   T   T
  0.7500000000000000  0.0409571084426656  0.0920497707308211   T   T   T
  0.7500000000000000  0.7110380078675856  0.1023713179650429   T   T   T
  0.7500000000000000  0.5385245766309046  0.1023609811770363   T   T   T
  0.4999770666305950  0.9568298596243793  0.0949952607249791   T   T   T
  0.5018765656437558  0.4576302804425521  0.1013459622545286   T   T   T
 -0.0018765656437559  0.4576302804425521  0.1013459622545286   T   T   T
 -0.0019451248487535  0.7919388376807808  0.1013356189205241   T   T   T
  0.5019451248487535  0.7919388376807808  0.1013356189205241   T   T   T
  0.2500000000000000  0.6247783169185744  0.1449611518751354   T   T   T
 
  0.00000000E+00  0.00000000E+00  0.00000000E+00
  0.00000000E+00  0.00000000E+00  0.00000000E+00
  0.00000000E+00  0.00000000E+00  0.00000000E+00
  0.00000000E+00  0.00000000E+00  0.00000000E+00
  0.00000000E+00  0.00000000E+00  0.00000000E+00
  0.00000000E+00  0.00000000E+00  0.00000000E+00
  0.00000000E+00  0.00000000E+00  0.00000000E+00
  0.00000000E+00  0.00000000E+00  0.00000000E+00
  0.00000000E+00  0.00000000E+00  0.00000000E+00
  0.00000000E+00  0.00000000E+00  0.00000000E+00
  0.00000000E+00  0.00000000E+00  0.00000000E+00
  0.00000000E+00  0.00000000E+00  0.00000000E+00
  0.00000000E+00  0.00000000E+00  0.00000000E+00
  0.00000000E+00  0.00000000E+00  0.00000000E+00
  0.00000000E+00  0.00000000E+00  0.00000000E+00
