Title                                   
   1.00000000000000     
     9.8694509999999998    0.0000000000000000    0.0000000000000000
     0.0000000000000000    8.5490480000000009    0.0000000000000000
     0.0000000000000000    0.0000000000000000   20.0000000000000000
    28     3     1
Selective dynamics
Direct
  0.0549386536390397  0.0901748874821047  0.0869959234167119   T   T   T
  0.9286595493081048  0.1714302956469708  0.0886739153983182   T   T   T
  0.0536832911018851  0.9233256336837624  0.0873965077637547   T   T   T
  0.9282934723172123  0.3396090209102305  0.0922240580452408   T   T   T
  0.0545673245233578  0.5885007349575901  0.0879731502357134   T   T   T
  0.9289798921283912  0.6711986963882813  0.0932045841900748   T   T   T
  0.0558785459761681  0.4227764455946861  0.0889822459325120   T   T   T
  0.9288717984547652  0.8378545955545302  0.0906507998403958   T   T   T
  0.3040234438178294  0.0900714167642437  0.0892658020696146   T   T   T
  0.1809810509949377  0.1743669174393312  0.0871920368547498   T   T   T
  0.3032777261241916  0.9242053148182511  0.0889326637573573   T   T   T
  0.1842898430446066  0.3430365630313706  0.0864683039329509   T   T   T
  0.3088904138075480  0.5962101501048989  0.0843941811936931   T   T   T
  0.1799589418400680  0.6731724042111111  0.0854473308480680   T   T   T
  0.3114709260919389  0.4259205380770278  0.0848835049981651   T   T   T
  0.1788860533817522  0.8398900485700256  0.0866014715946567   T   T   T
  0.5539242934595358  0.0822255642580493  0.0945998830218570   T   T   T
  0.4314626613444276  0.1687165864018527  0.0906992669284901   T   T   T
  0.4385438735567951  0.3367450354890478  0.0875887051412647   T   T   T
  0.4251652728778433  0.8351716316302317  0.0908510024022570   T   T   T
  0.8051658709734738  0.0857679319426657  0.0904591238317339   T   T   T
  0.6788154073900521  0.1654604624619479  0.0938284259712784   T   T   T
  0.8032349730168288  0.9190823236627540  0.0916514907692301   T   T   T
  0.6753430360874786  0.3328262912433487  0.0949730493837465   T   T   T
  0.8046872456626414  0.5891494814243887  0.1064946531687398   T   T   T
  0.6900942903950311  0.6808349853854732  0.1267351856822776   T   T   T
  0.8030166246634628  0.4206732674055966  0.0997672270456349   T   T   T
  0.6787155040797103  0.8359433309564012  0.1042412776413665   T   T   T
  0.4263528314137422  0.6815921511038969  0.0859568254127307   T   T   T
  0.5583537694438990  0.4121001623420389  0.0900796530761511   T   T   T
  0.5524210442901420  0.9176489958673106  0.0991367110315741   T   T   T
  0.5886913747931473  0.6145641351905867  0.2093260394197248   T   T   T
 
  0.00000000E+00  0.00000000E+00  0.00000000E+00
  0.00000000E+00  0.00000000E+00  0.00000000E+00
  0.00000000E+00  0.00000000E+00  0.00000000E+00
  0.00000000E+00  0.00000000E+00  0.00000000E+00
  0.00000000E+00  0.00000000E+00  0.00000000E+00
  0.00000000E+00  0.00000000E+00  0.00000000E+00
  0.00000000E+00  0.00000000E+00  0.00000000E+00
  0.00000000E+00  0.00000000E+00  0.00000000E+00
  0.00000000E+00  0.00000000E+00  0.00000000E+00
  0.00000000E+00  0.00000000E+00  0.00000000E+00
  0.00000000E+00  0.00000000E+00  0.00000000E+00
  0.00000000E+00  0.00000000E+00  0.00000000E+00
  0.00000000E+00  0.00000000E+00  0.00000000E+00
  0.00000000E+00  0.00000000E+00  0.00000000E+00
  0.00000000E+00  0.00000000E+00  0.00000000E+00
  0.00000000E+00  0.00000000E+00  0.00000000E+00
  0.00000000E+00  0.00000000E+00  0.00000000E+00
  0.00000000E+00  0.00000000E+00  0.00000000E+00
  0.00000000E+00  0.00000000E+00  0.00000000E+00
  0.00000000E+00  0.00000000E+00  0.00000000E+00
  0.00000000E+00  0.00000000E+00  0.00000000E+00
  0.00000000E+00  0.00000000E+00  0.00000000E+00
  0.00000000E+00  0.00000000E+00  0.00000000E+00
  0.00000000E+00  0.00000000E+00  0.00000000E+00
  0.00000000E+00  0.00000000E+00  0.00000000E+00
  0.00000000E+00  0.00000000E+00  0.00000000E+00
  0.00000000E+00  0.00000000E+00  0.00000000E+00
  0.00000000E+00  0.00000000E+00  0.00000000E+00
  0.00000000E+00  0.00000000E+00  0.00000000E+00
  0.00000000E+00  0.00000000E+00  0.00000000E+00
  0.00000000E+00  0.00000000E+00  0.00000000E+00
  0.00000000E+00  0.00000000E+00  0.00000000E+00
