Title                                   
   1.00000000000000     
     9.8694509999999998    0.0000000000000000    0.0000000000000000
     0.0000000000000000    8.5490480000000009    0.0000000000000000
     0.0000000000000000    0.0000000000000000   20.0000000000000000
    28     3     1
Selective dynamics
Direct
  0.0556597817755996  0.0888631805269388  0.0828296206498049   T   T   T
  0.9311756907584636  0.1735037330319098  0.0830686470445173   T   T   T
  0.0573265791809127  0.9217739117425505  0.0845208056193600   T   T   T
  0.9310580252343256  0.3400560655133223  0.0845037170750765   T   T   T
  0.0568535215282247  0.5903232277895548  0.0848916261603237   T   T   T
  0.0560765707675503  0.4234565595692136  0.0839223044546089   T   T   T
  0.9322390536355503  0.8383973178539413  0.0868377958625304   T   T   T
  0.3053306817614478  0.0887943757325799  0.0874161107194668   T   T   T
  0.1816819878157648  0.1719810187570216  0.0845655369253435   T   T   T
  0.1811619409223929  0.3392963480696740  0.0859026437350492   T   T   T
  0.3031916333623048  0.5881969992626079  0.1008183418230311   T   T   T
  0.1810599626570582  0.6733726122031806  0.0892647423940182   T   T   T
  0.3062536583070430  0.4208267304676852  0.0962291540276051   T   T   T
  0.1826716718941841  0.8407174278172961  0.0878841135604815   T   T   T
  0.5556075970266384  0.0894116227606999  0.0920095342158973   T   T   T
  0.5545809829044334  0.9234406989335509  0.0989112164822520   T   T   T
  0.4289841468162227  0.3324652383672030  0.1016175606393954   T   T   T
  0.4271385445448366  0.8427090982369383  0.1033179723005098   T   T   T
  0.8064401118080583  0.0891005201753711  0.0854482387237419   T   T   T
  0.6807456914782379  0.1722727305105814  0.0899016841792832   T   T   T
  0.8070034292520967  0.9227655249408510  0.0890661039833648   T   T   T
  0.6826945439004520  0.3381824231351165  0.0992450480710977   T   T   T
  0.8117224566815656  0.5921096345291408  0.1000054173326233   T   T   T
  0.8067721195351588  0.4243570005497901  0.0943901758004082   T   T   T
  0.6823967066693619  0.8429491482633482  0.1013534603622271   T   T   T
  0.4173784128891226  0.6818479543562102  0.1203850249161636   T   T   T
  0.5547582366141333  0.4047364086859731  0.1180676080668756   T   T   T
  0.6959214197578419  0.6809493444911161  0.1195143851227208   T   T   T
  0.3066490170727121  0.9250665723294087  0.0904802608483042   T   T   T
  0.4290461202399836  0.1695411486307422  0.0917203607325425   T   T   T
  0.9324950241209893  0.6720040662419087  0.0878970466982650   T   T   T
  0.5575636790873394  0.5867773565245746  0.1796887414731267   T   T   T
 
  0.00000000E+00  0.00000000E+00  0.00000000E+00
  0.00000000E+00  0.00000000E+00  0.00000000E+00
  0.00000000E+00  0.00000000E+00  0.00000000E+00
  0.00000000E+00  0.00000000E+00  0.00000000E+00
  0.00000000E+00  0.00000000E+00  0.00000000E+00
  0.00000000E+00  0.00000000E+00  0.00000000E+00
  0.00000000E+00  0.00000000E+00  0.00000000E+00
  0.00000000E+00  0.00000000E+00  0.00000000E+00
  0.00000000E+00  0.00000000E+00  0.00000000E+00
  0.00000000E+00  0.00000000E+00  0.00000000E+00
  0.00000000E+00  0.00000000E+00  0.00000000E+00
  0.00000000E+00  0.00000000E+00  0.00000000E+00
  0.00000000E+00  0.00000000E+00  0.00000000E+00
  0.00000000E+00  0.00000000E+00  0.00000000E+00
  0.00000000E+00  0.00000000E+00  0.00000000E+00
  0.00000000E+00  0.00000000E+00  0.00000000E+00
  0.00000000E+00  0.00000000E+00  0.00000000E+00
  0.00000000E+00  0.00000000E+00  0.00000000E+00
  0.00000000E+00  0.00000000E+00  0.00000000E+00
  0.00000000E+00  0.00000000E+00  0.00000000E+00
  0.00000000E+00  0.00000000E+00  0.00000000E+00
  0.00000000E+00  0.00000000E+00  0.00000000E+00
  0.00000000E+00  0.00000000E+00  0.00000000E+00
  0.00000000E+00  0.00000000E+00  0.00000000E+00
  0.00000000E+00  0.00000000E+00  0.00000000E+00
  0.00000000E+00  0.00000000E+00  0.00000000E+00
  0.00000000E+00  0.00000000E+00  0.00000000E+00
  0.00000000E+00  0.00000000E+00  0.00000000E+00
  0.00000000E+00  0.00000000E+00  0.00000000E+00
  0.00000000E+00  0.00000000E+00  0.00000000E+00
  0.00000000E+00  0.00000000E+00  0.00000000E+00
  0.00000000E+00  0.00000000E+00  0.00000000E+00
