Title                                   
   1.00000000000000     
     9.8694509999999998    0.0000000000000000    0.0000000000000000
     0.0000000000000000    8.5490480000000009    0.0000000000000000
     0.0000000000000000    0.0000000000000000   20.0000000000000000
    30     1     1
Selective dynamics
Direct
  0.0562556190447323  0.0898389667859450  0.0820055770108872   T   T   T
  0.9309819905458013  0.1729359018507355  0.0851425522288782   T   T   T
  0.0562484313752229  0.9231055379398511  0.0811779492960071   T   T   T
  0.9301701948972360  0.3405856250243062  0.0897715515182433   T   T   T
  0.0562294047581838  0.5890092311005533  0.0861099787342790   T   T   T
  0.9315898978423480  0.6725136362829433  0.0875699942142800   T   T   T
  0.0562243874677874  0.4231888007283747  0.0878062393310790   T   T   T
  0.9309139520174711  0.8393464761053484  0.0839170700641143   T   T   T
  0.3052084529718613  0.0895294031141309  0.0862722155930297   T   T   T
  0.1815189061960053  0.1729463210536440  0.0851299174548604   T   T   T
  0.3062400510095772  0.9236749628357330  0.0859261283911077   T   T   T
  0.1822916834718069  0.3405874320012395  0.0897482988162527   T   T   T
  0.3045118619974616  0.5912852424570830  0.0995665455526788   T   T   T
  0.1808864466040021  0.6725085435587748  0.0875299380265093   T   T   T
  0.3059450780313900  0.4221590924551529  0.0993503262362655   T   T   T
  0.1815703582655421  0.8393455788599657  0.0838864686995671   T   T   T
  0.5562489555638539  0.0864993045559406  0.0944163757025920   T   T   T
  0.4311217097234406  0.1692426459507863  0.0936306139576335   T   T   T
  0.4313172035832902  0.3344661502498995  0.1044889040450927   T   T   T
  0.4212195872573386  0.6828816357060118  0.1122279920397728   T   T   T
  0.5562193177176025  0.4031368274193022  0.1203952405569126   T   T   T
  0.4301488477920085  0.8410966035307140  0.0970314792948279   T   T   T
  0.8072810836002736  0.0895164341025816  0.0862905151536588   T   T   T
  0.6813869935522581  0.1692464509152612  0.0936524999904094   T   T   T
  0.8062365027633701  0.9236607814528275  0.0859586793572445   T   T   T
  0.6811549989340826  0.3344756281941335  0.1045272732263564   T   T   T
  0.8079873315918509  0.5912842417154363  0.0996550245196281   T   T   T
  0.6913058195088922  0.6828939184660807  0.1123536204199180   T   T   T
  0.8065274071568551  0.4221648608828955  0.0994158067867102   T   T   T
  0.6823253709867170  0.8410697427742181  0.0970798232288253   T   T   T
  0.5562393342755361  0.9225839823622055  0.0961805985798589   T   T   T
  0.5561318194962067  0.5934660395679336  0.1674598019725543   T   T   T
 
  0.00000000E+00  0.00000000E+00  0.00000000E+00
  0.00000000E+00  0.00000000E+00  0.00000000E+00
  0.00000000E+00  0.00000000E+00  0.00000000E+00
  0.00000000E+00  0.00000000E+00  0.00000000E+00
  0.00000000E+00  0.00000000E+00  0.00000000E+00
  0.00000000E+00  0.00000000E+00  0.00000000E+00
  0.00000000E+00  0.00000000E+00  0.00000000E+00
  0.00000000E+00  0.00000000E+00  0.00000000E+00
  0.00000000E+00  0.00000000E+00  0.00000000E+00
  0.00000000E+00  0.00000000E+00  0.00000000E+00
  0.00000000E+00  0.00000000E+00  0.00000000E+00
  0.00000000E+00  0.00000000E+00  0.00000000E+00
  0.00000000E+00  0.00000000E+00  0.00000000E+00
  0.00000000E+00  0.00000000E+00  0.00000000E+00
  0.00000000E+00  0.00000000E+00  0.00000000E+00
  0.00000000E+00  0.00000000E+00  0.00000000E+00
  0.00000000E+00  0.00000000E+00  0.00000000E+00
  0.00000000E+00  0.00000000E+00  0.00000000E+00
  0.00000000E+00  0.00000000E+00  0.00000000E+00
  0.00000000E+00  0.00000000E+00  0.00000000E+00
  0.00000000E+00  0.00000000E+00  0.00000000E+00
  0.00000000E+00  0.00000000E+00  0.00000000E+00
  0.00000000E+00  0.00000000E+00  0.00000000E+00
  0.00000000E+00  0.00000000E+00  0.00000000E+00
  0.00000000E+00  0.00000000E+00  0.00000000E+00
  0.00000000E+00  0.00000000E+00  0.00000000E+00
  0.00000000E+00  0.00000000E+00  0.00000000E+00
  0.00000000E+00  0.00000000E+00  0.00000000E+00
  0.00000000E+00  0.00000000E+00  0.00000000E+00
  0.00000000E+00  0.00000000E+00  0.00000000E+00
  0.00000000E+00  0.00000000E+00  0.00000000E+00
  0.00000000E+00  0.00000000E+00  0.00000000E+00
