Title                                   
   1.00000000000000     
     4.9440799999999996    0.0000000000000000    0.0000000000000000
     0.0000000000000000    8.5647549999999999    0.0000000000000000
     0.0000000000000000    0.0000000000000000   20.0000000000000000
    13     2     1
Selective dynamics
Direct
 -0.0010126348911183  0.2877273898261353  0.0925710968916221   T   T   T
  0.2500000000000000  0.0439194009096901  0.0843621889399119   T   T   T
  0.0013223074278369  0.7974194088616327  0.0975897707074017   T   T   T
 -0.0002692338245576  0.9603757251230709  0.0838557272760653   T   T   T
  0.7500000000000000  0.2063536204700931  0.0822768631137342   T   T   T
  0.5010126348911184  0.2877273898261353  0.0925710968916221   T   T   T
  0.7500000000000000  0.0410024306314392  0.0784884104407168   T   T   T
  0.7500000000000000  0.7081046747713572  0.1028667558716247   T   T   T
  0.4986776925721628  0.7974194088616327  0.0975897707074017   T   T   T
  0.7500000000000000  0.5382735701088922  0.1102450995184961   T   T   T
  0.5002692338245576  0.9603757251230709  0.0838557272760653   T   T   T
  0.5094902149269888  0.4443255544935464  0.1159473777726276   T   T   T
 -0.0094902149269886  0.4443255544935464  0.1159473777726276   T   T   T
  0.2500000000000000  0.7304964941256609  0.1144216041681333   T   T   T
  0.2500000000000000  0.2062868211529788  0.0885655003162745   T   T   T
  0.2500000000000000  0.5458668312211205  0.1713576323356845   T   T   T
 
  0.00000000E+00  0.00000000E+00  0.00000000E+00
  0.00000000E+00  0.00000000E+00  0.00000000E+00
  0.00000000E+00  0.00000000E+00  0.00000000E+00
  0.00000000E+00  0.00000000E+00  0.00000000E+00
  0.00000000E+00  0.00000000E+00  0.00000000E+00
  0.00000000E+00  0.00000000E+00  0.00000000E+00
  0.00000000E+00  0.00000000E+00  0.00000000E+00
  0.00000000E+00  0.00000000E+00  0.00000000E+00
  0.00000000E+00  0.00000000E+00  0.00000000E+00
  0.00000000E+00  0.00000000E+00  0.00000000E+00
  0.00000000E+00  0.00000000E+00  0.00000000E+00
  0.00000000E+00  0.00000000E+00  0.00000000E+00
  0.00000000E+00  0.00000000E+00  0.00000000E+00
  0.00000000E+00  0.00000000E+00  0.00000000E+00
  0.00000000E+00  0.00000000E+00  0.00000000E+00
  0.00000000E+00  0.00000000E+00  0.00000000E+00
