Title                                   
   1.00000000000000     
     9.8694509999999998    0.0000000000000000    0.0000000000000000
     0.0000000000000000    8.5490480000000009    0.0000000000000000
     0.0000000000000000    0.0000000000000000   20.0000000000000000
    27     4     1
Selective dynamics
Direct
  0.0560099558204611  0.0927160993207552  0.0876919134719392   T   T   T
  0.9313110012665547  0.1747496723530142  0.0894620750871309   T   T   T
  0.0574511351431139  0.9248251413054341  0.0874418062773069   T   T   T
  0.9303021327694833  0.3420864056011755  0.0920876250521946   T   T   T
  0.0567925936456846  0.5904564388996303  0.0884558695003182   T   T   T
  0.9326979079428658  0.6738052959854046  0.0905223227608557   T   T   T
  0.0565740887247747  0.4230191075769454  0.0903811126260882   T   T   T
  0.9332515068390902  0.8405146266051134  0.0896922169709328   T   T   T
  0.3059281573282764  0.0884317477646749  0.0886123819341226   T   T   T
  0.1819180146929800  0.1737570661337211  0.0885081006616351   T   T   T
  0.1833961428805595  0.3405870008874510  0.0907832595051246   T   T   T
  0.3051477239303692  0.5932803941857595  0.0956676561099057   T   T   T
  0.1804657067946376  0.6747354539683050  0.0889310566974153   T   T   T
  0.3099469983125322  0.4256018536350403  0.0950349578343986   T   T   T
  0.1807418972776170  0.8410306681028857  0.0881424347979774   T   T   T
  0.5571714111778197  0.0848758013216436  0.0935949637707860   T   T   T
  0.4306472164746585  0.1677501720042770  0.0913475976929719   T   T   T
  0.5555710369417429  0.9179952902225501  0.0981861088797130   T   T   T
  0.4334278996083842  0.3338384576451445  0.0953934552950182   T   T   T
  0.4262593904868656  0.8392961123759753  0.0973529875653942   T   T   T
  0.8070678432864732  0.0893327909024369  0.0898319246486787   T   T   T
  0.6809930672809558  0.1690733463718352  0.0920488194960216   T   T   T
  0.8078194918057583  0.9236980140210598  0.0913037352295430   T   T   T
  0.6788315231823588  0.3359155886603180  0.0963613557318291   T   T   T
  0.8080022889028776  0.5939996099669813  0.0989913998027790   T   T   T
  0.8028598667845995  0.4254256171326400  0.0973908545250308   T   T   T
  0.6850672392375684  0.8380455711391744  0.0996463551563510   T   T   T
  0.4195457889533353  0.6834621174319595  0.1067484347758167   T   T   T
  0.5555646400244866  0.4084554353037238  0.1020570681246929   T   T   T
  0.6927403637152733  0.6803107616306249  0.1115343546695846   T   T   T
  0.3052458826366912  0.9237278810410873  0.0889283561865667   T   T   T
  0.5508890861311589  0.5754464605032605  0.1835424391618927   T   T   T
 
  0.00000000E+00  0.00000000E+00  0.00000000E+00
  0.00000000E+00  0.00000000E+00  0.00000000E+00
  0.00000000E+00  0.00000000E+00  0.00000000E+00
  0.00000000E+00  0.00000000E+00  0.00000000E+00
  0.00000000E+00  0.00000000E+00  0.00000000E+00
  0.00000000E+00  0.00000000E+00  0.00000000E+00
  0.00000000E+00  0.00000000E+00  0.00000000E+00
  0.00000000E+00  0.00000000E+00  0.00000000E+00
  0.00000000E+00  0.00000000E+00  0.00000000E+00
  0.00000000E+00  0.00000000E+00  0.00000000E+00
  0.00000000E+00  0.00000000E+00  0.00000000E+00
  0.00000000E+00  0.00000000E+00  0.00000000E+00
  0.00000000E+00  0.00000000E+00  0.00000000E+00
  0.00000000E+00  0.00000000E+00  0.00000000E+00
  0.00000000E+00  0.00000000E+00  0.00000000E+00
  0.00000000E+00  0.00000000E+00  0.00000000E+00
  0.00000000E+00  0.00000000E+00  0.00000000E+00
  0.00000000E+00  0.00000000E+00  0.00000000E+00
  0.00000000E+00  0.00000000E+00  0.00000000E+00
  0.00000000E+00  0.00000000E+00  0.00000000E+00
  0.00000000E+00  0.00000000E+00  0.00000000E+00
  0.00000000E+00  0.00000000E+00  0.00000000E+00
  0.00000000E+00  0.00000000E+00  0.00000000E+00
  0.00000000E+00  0.00000000E+00  0.00000000E+00
  0.00000000E+00  0.00000000E+00  0.00000000E+00
  0.00000000E+00  0.00000000E+00  0.00000000E+00
  0.00000000E+00  0.00000000E+00  0.00000000E+00
  0.00000000E+00  0.00000000E+00  0.00000000E+00
  0.00000000E+00  0.00000000E+00  0.00000000E+00
  0.00000000E+00  0.00000000E+00  0.00000000E+00
  0.00000000E+00  0.00000000E+00  0.00000000E+00
  0.00000000E+00  0.00000000E+00  0.00000000E+00
