Title                                   
   1.00000000000000     
     4.9440799999999996    0.0000000000000000    0.0000000000000000
     0.0000000000000000    8.5647549999999999    0.0000000000000000
     0.0000000000000000    0.0000000000000000   20.0000000000000000
    13     1     1
Selective dynamics
Direct
  0.2470905992788463  0.2064825920911374  0.0973223611495967   T   T   T
 -0.0045207670570752  0.2950000412656885  0.1003422214333005   T   T   T
  0.2521510250839542  0.0400524058788206  0.0977729661199729   T   T   T
  0.0038554355528234  0.9530231907583293  0.0977592309118434   T   T   T
  0.7488879358163582  0.2085444950653095  0.0953938270393392   T   T   T
  0.4962960795712100  0.2910856338666262  0.0940030871982236   T   T   T
  0.7549904487439250  0.0404941175614243  0.0957548956756555   T   T   T
  0.7458592045067920  0.7148344953063939  0.0999998739380749   T   T   T
  0.7366339180783232  0.5398111084322200  0.1006887573292550   T   T   T
  0.5070504863766701  0.9571484810478705  0.0978146727589246   T   T   T
  0.4956913290238844  0.4566338547944849  0.0925832163848113   T   T   T
 -0.0119044002403996  0.4605902282756704  0.1095264720499891   T   T   T
 -0.0030020097784240  0.7863607201841259  0.0993875286965778   T   T   T
  0.5118074721623437  0.7976473393902936  0.1020220191079034   T   T   T
  0.2691132428807681  0.6239722960816071  0.1276088702065361   T   T   T
 
  0.00000000E+00  0.00000000E+00  0.00000000E+00
  0.00000000E+00  0.00000000E+00  0.00000000E+00
  0.00000000E+00  0.00000000E+00  0.00000000E+00
  0.00000000E+00  0.00000000E+00  0.00000000E+00
  0.00000000E+00  0.00000000E+00  0.00000000E+00
  0.00000000E+00  0.00000000E+00  0.00000000E+00
  0.00000000E+00  0.00000000E+00  0.00000000E+00
  0.00000000E+00  0.00000000E+00  0.00000000E+00
  0.00000000E+00  0.00000000E+00  0.00000000E+00
  0.00000000E+00  0.00000000E+00  0.00000000E+00
  0.00000000E+00  0.00000000E+00  0.00000000E+00
  0.00000000E+00  0.00000000E+00  0.00000000E+00
  0.00000000E+00  0.00000000E+00  0.00000000E+00
  0.00000000E+00  0.00000000E+00  0.00000000E+00
  0.00000000E+00  0.00000000E+00  0.00000000E+00
