Title                                   
   1.00000000000000     
     9.8694509999999998    0.0000000000000000    0.0000000000000000
     0.0000000000000000    8.5490480000000009    0.0000000000000000
     0.0000000000000000    0.0000000000000000   20.0000000000000000
    27     3     1
Selective dynamics
Direct
  0.0560648330651655  0.0901892439046997  0.0864955241311931   T   T   T
  0.9307678623262164  0.1729595502750338  0.0886762969790656   T   T   T
  0.0564722922855981  0.9238432109237378  0.0861491961187854   T   T   T
  0.9328521172309701  0.3401755858492374  0.0884841374517111   T   T   T
  0.0565609312367720  0.5891569900750320  0.0847983506001058   T   T   T
  0.9333694307000371  0.6744430153478791  0.0879369313727221   T   T   T
  0.0567278469005799  0.4234136066887416  0.0850679976854056   T   T   T
  0.9319493160195822  0.8409669952543496  0.0882940555682857   T   T   T
  0.3060707131215014  0.0902104468608254  0.0925962978690820   T   T   T
  0.1807527133209207  0.1723230939754942  0.0881367912702275   T   T   T
  0.3059790908251923  0.9222090429798386  0.0919980724433936   T   T   T
  0.1804961369846280  0.3397210440415225  0.0874748172168208   T   T   T
  0.3030260349252235  0.5913076366714002  0.0931939843877992   T   T   T
  0.1799415307851085  0.6728457529184235  0.0868288110383780   T   T   T
  0.3034756234236247  0.4206325168009543  0.0940344999665225   T   T   T
  0.1808623859577693  0.8404570591898187  0.0874346801567865   T   T   T
  0.5551782289910563  0.0892127305293974  0.1024616044714143   T   T   T
  0.4289443119074829  0.1763403056253801  0.1000855270501637   T   T   T
  0.5553860257564655  0.9182248895038274  0.1019597516488223   T   T   T
  0.4282366362534890  0.8338321844288286  0.0986241284735597   T   T   T
  0.8057675556212585  0.0899648250443825  0.0934756800876739   T   T   T
  0.6820166084040389  0.1750972435350646  0.1010859384557267   T   T   T
  0.8066320130972507  0.9220622333672917  0.0932624238927530   T   T   T
  0.6875576607779768  0.3409232949471551  0.1060053173325309   T   T   T
  0.8113527566937191  0.5935267095081662  0.0961876164306020   T   T   T
  0.8103230460061053  0.4231435981862744  0.0963522853191055   T   T   T
  0.6840730116524592  0.8342469530601854  0.1006338511322246   T   T   T
  0.4235407052259881  0.3394094657832682  0.1039283671934733   T   T   T
  0.6915163637270938  0.6731028333015803  0.1052387349879225   T   T   T
  0.4220768604981612  0.6728485718619274  0.1009846924946225   T   T   T
  0.5551643562785743  0.5040843695602941  0.1230786367731615   T   T   T
 
  0.00000000E+00  0.00000000E+00  0.00000000E+00
  0.00000000E+00  0.00000000E+00  0.00000000E+00
  0.00000000E+00  0.00000000E+00  0.00000000E+00
  0.00000000E+00  0.00000000E+00  0.00000000E+00
  0.00000000E+00  0.00000000E+00  0.00000000E+00
  0.00000000E+00  0.00000000E+00  0.00000000E+00
  0.00000000E+00  0.00000000E+00  0.00000000E+00
  0.00000000E+00  0.00000000E+00  0.00000000E+00
  0.00000000E+00  0.00000000E+00  0.00000000E+00
  0.00000000E+00  0.00000000E+00  0.00000000E+00
  0.00000000E+00  0.00000000E+00  0.00000000E+00
  0.00000000E+00  0.00000000E+00  0.00000000E+00
  0.00000000E+00  0.00000000E+00  0.00000000E+00
  0.00000000E+00  0.00000000E+00  0.00000000E+00
  0.00000000E+00  0.00000000E+00  0.00000000E+00
  0.00000000E+00  0.00000000E+00  0.00000000E+00
  0.00000000E+00  0.00000000E+00  0.00000000E+00
  0.00000000E+00  0.00000000E+00  0.00000000E+00
  0.00000000E+00  0.00000000E+00  0.00000000E+00
  0.00000000E+00  0.00000000E+00  0.00000000E+00
  0.00000000E+00  0.00000000E+00  0.00000000E+00
  0.00000000E+00  0.00000000E+00  0.00000000E+00
  0.00000000E+00  0.00000000E+00  0.00000000E+00
  0.00000000E+00  0.00000000E+00  0.00000000E+00
  0.00000000E+00  0.00000000E+00  0.00000000E+00
  0.00000000E+00  0.00000000E+00  0.00000000E+00
  0.00000000E+00  0.00000000E+00  0.00000000E+00
  0.00000000E+00  0.00000000E+00  0.00000000E+00
  0.00000000E+00  0.00000000E+00  0.00000000E+00
  0.00000000E+00  0.00000000E+00  0.00000000E+00
  0.00000000E+00  0.00000000E+00  0.00000000E+00
