Title                                   
   1.00000000000000     
     9.8694509999999998    0.0000000000000000    0.0000000000000000
     0.0000000000000000    8.5490480000000009    0.0000000000000000
     0.0000000000000000    0.0000000000000000   20.0000000000000000
    27     3     1
Selective dynamics
Direct
  0.0556070124247343  0.0896931800520363  0.0834014979203311   T   T   T
  0.9312463226422475  0.1715250963637638  0.0850699896284705   T   T   T
  0.0570725307772117  0.9232389331553200  0.0837174977534061   T   T   T
  0.9347057637671281  0.3385695160396297  0.0836283981676862   T   T   T
  0.0582289924867152  0.5899495551033629  0.0799331628780548   T   T   T
  0.9348412926477411  0.6742572948091439  0.0835208027608098   T   T   T
  0.0583724774630185  0.4231022609717630  0.0799191786224101   T   T   T
  0.9316778098071941  0.8405609804842248  0.0851129004262310   T   T   T
  0.3051212078036321  0.0885065268375418  0.0928300262857407   T   T   T
  0.1807022377195491  0.1708777850460738  0.0856909346046978   T   T   T
  0.1813893387612640  0.3388938957341925  0.0847589576511278   T   T   T
  0.3024284020138803  0.5910755645637122  0.0958375444005201   T   T   T
  0.1818126188516452  0.6736382952001911  0.0848887549329727   T   T   T
  0.3028470700826089  0.4207399521149630  0.0959703486265985   T   T   T
  0.1811942367538852  0.8411253613575216  0.0861487274402847   T   T   T
  0.5546805921774944  0.0907439627666225  0.1061156356069878   T   T   T
  0.4263329905587598  0.1759403356666831  0.1037254249353104   T   T   T
  0.5536125868726477  0.9221023929712677  0.1056551596214272   T   T   T
  0.4257476846246691  0.8355242687904795  0.1034151177794891   T   T   T
  0.8048537257631798  0.0899980792370848  0.0922580868988014   T   T   T
  0.6820782767764593  0.1771572727047057  0.1025780384103320   T   T   T
  0.8050448428075989  0.9218046560359257  0.0920857908809972   T   T   T
  0.6904167882962342  0.3448276092005784  0.1084888524413330   T   T   T
  0.8149049486640810  0.5904418869482158  0.0937532030339902   T   T   T
  0.6904515761207897  0.6675308245328051  0.1080096115372683   T   T   T
  0.8151292968847222  0.4222201924952658  0.0938681271400115   T   T   T
  0.6816243085484546  0.8344033059441505  0.1020804053723455   T   T   T
  0.4193853848853120  0.3367898954899236  0.1097525244645710   T   T   T
  0.4186391785419532  0.6771092707855981  0.1091104211498214   T   T   T
  0.3052300556405498  0.9228994063454218  0.0926669399842777   T   T   T
  0.5577554488346536  0.5056274422518378  0.1269729386437424   T   T   T
 
  0.00000000E+00  0.00000000E+00  0.00000000E+00
  0.00000000E+00  0.00000000E+00  0.00000000E+00
  0.00000000E+00  0.00000000E+00  0.00000000E+00
  0.00000000E+00  0.00000000E+00  0.00000000E+00
  0.00000000E+00  0.00000000E+00  0.00000000E+00
  0.00000000E+00  0.00000000E+00  0.00000000E+00
  0.00000000E+00  0.00000000E+00  0.00000000E+00
  0.00000000E+00  0.00000000E+00  0.00000000E+00
  0.00000000E+00  0.00000000E+00  0.00000000E+00
  0.00000000E+00  0.00000000E+00  0.00000000E+00
  0.00000000E+00  0.00000000E+00  0.00000000E+00
  0.00000000E+00  0.00000000E+00  0.00000000E+00
  0.00000000E+00  0.00000000E+00  0.00000000E+00
  0.00000000E+00  0.00000000E+00  0.00000000E+00
  0.00000000E+00  0.00000000E+00  0.00000000E+00
  0.00000000E+00  0.00000000E+00  0.00000000E+00
  0.00000000E+00  0.00000000E+00  0.00000000E+00
  0.00000000E+00  0.00000000E+00  0.00000000E+00
  0.00000000E+00  0.00000000E+00  0.00000000E+00
  0.00000000E+00  0.00000000E+00  0.00000000E+00
  0.00000000E+00  0.00000000E+00  0.00000000E+00
  0.00000000E+00  0.00000000E+00  0.00000000E+00
  0.00000000E+00  0.00000000E+00  0.00000000E+00
  0.00000000E+00  0.00000000E+00  0.00000000E+00
  0.00000000E+00  0.00000000E+00  0.00000000E+00
  0.00000000E+00  0.00000000E+00  0.00000000E+00
  0.00000000E+00  0.00000000E+00  0.00000000E+00
  0.00000000E+00  0.00000000E+00  0.00000000E+00
  0.00000000E+00  0.00000000E+00  0.00000000E+00
  0.00000000E+00  0.00000000E+00  0.00000000E+00
  0.00000000E+00  0.00000000E+00  0.00000000E+00
