Title                                   
   1.00000000000000     
     9.8694509999999998    0.0000000000000000    0.0000000000000000
     0.0000000000000000    8.5490480000000009    0.0000000000000000
     0.0000000000000000    0.0000000000000000   20.0000000000000000
    27     3     1
Selective dynamics
Direct
  0.0555188953042894  0.0887855519061500  0.0829219811308952   T   T   T
  0.9303295760770610  0.1724544707129028  0.0846686966687631   T   T   T
  0.0572598334526007  0.9229149741110928  0.0833451386785524   T   T   T
  0.9325743154577714  0.3400735361115206  0.0851048730021171   T   T   T
  0.0572649607282447  0.5900953487746620  0.0820994664907430   T   T   T
  0.9328259798286442  0.6731635365716979  0.0860143980614127   T   T   T
  0.0573620722602656  0.4229953727108587  0.0815817520577366   T   T   T
  0.9315323855797655  0.8399186291922566  0.0858097327266418   T   T   T
  0.3058048611734455  0.0874800964043490  0.0899203731024779   T   T   T
  0.1816966179135624  0.1702594294161964  0.0847309501751367   T   T   T
  0.1814475711435575  0.3384664422586108  0.0840640568059653   T   T   T
  0.3070066653139281  0.5885874305945743  0.0932069933111852   T   T   T
  0.1827000959707441  0.6722624547445367  0.0843431700980200   T   T   T
  0.3046653297164719  0.4176560219302184  0.0925243218777154   T   T   T
  0.1829491599406267  0.8394789288525791  0.0851148313249792   T   T   T
  0.4293331704770203  0.1748901931277717  0.0985332846446169   T   T   T
  0.5541657876059184  0.9250025100180680  0.1036910044792823   T   T   T
  0.4261236957566819  0.6735343244797681  0.1070349676703374   T   T   T
  0.4296929263852284  0.8390413912156082  0.1013697312959815   T   T   T
  0.8046038698850999  0.0895602690027025  0.0896805304363086   T   T   T
  0.6811941833231773  0.1777707977295827  0.0990392176538372   T   T   T
  0.8058843839550790  0.9229701332408355  0.0910320080611179   T   T   T
  0.6864692679434993  0.3400751543952031  0.1070054211675742   T   T   T
  0.8093696237650837  0.5921612817046337  0.0969237553386139   T   T   T
  0.6875010800602115  0.6735512648685846  0.1113552035488312   T   T   T
  0.8100397531942146  0.4213518123750966  0.0956337173918453   T   T   T
  0.6812070089829898  0.8394017231378997  0.1026927197723096   T   T   T
  0.5542253097801613  0.0940668705908720  0.1013584204700225   T   T   T
  0.4234278397197812  0.3341349650856923  0.1042605125514987   T   T   T
  0.3058138119823742  0.9226320276679031  0.0901523381231999   T   T   T
  0.5531449673225175  0.5061380570675910  0.1557514318823300   T   T   T
 
  0.00000000E+00  0.00000000E+00  0.00000000E+00
  0.00000000E+00  0.00000000E+00  0.00000000E+00
  0.00000000E+00  0.00000000E+00  0.00000000E+00
  0.00000000E+00  0.00000000E+00  0.00000000E+00
  0.00000000E+00  0.00000000E+00  0.00000000E+00
  0.00000000E+00  0.00000000E+00  0.00000000E+00
  0.00000000E+00  0.00000000E+00  0.00000000E+00
  0.00000000E+00  0.00000000E+00  0.00000000E+00
  0.00000000E+00  0.00000000E+00  0.00000000E+00
  0.00000000E+00  0.00000000E+00  0.00000000E+00
  0.00000000E+00  0.00000000E+00  0.00000000E+00
  0.00000000E+00  0.00000000E+00  0.00000000E+00
  0.00000000E+00  0.00000000E+00  0.00000000E+00
  0.00000000E+00  0.00000000E+00  0.00000000E+00
  0.00000000E+00  0.00000000E+00  0.00000000E+00
  0.00000000E+00  0.00000000E+00  0.00000000E+00
  0.00000000E+00  0.00000000E+00  0.00000000E+00
  0.00000000E+00  0.00000000E+00  0.00000000E+00
  0.00000000E+00  0.00000000E+00  0.00000000E+00
  0.00000000E+00  0.00000000E+00  0.00000000E+00
  0.00000000E+00  0.00000000E+00  0.00000000E+00
  0.00000000E+00  0.00000000E+00  0.00000000E+00
  0.00000000E+00  0.00000000E+00  0.00000000E+00
  0.00000000E+00  0.00000000E+00  0.00000000E+00
  0.00000000E+00  0.00000000E+00  0.00000000E+00
  0.00000000E+00  0.00000000E+00  0.00000000E+00
  0.00000000E+00  0.00000000E+00  0.00000000E+00
  0.00000000E+00  0.00000000E+00  0.00000000E+00
  0.00000000E+00  0.00000000E+00  0.00000000E+00
  0.00000000E+00  0.00000000E+00  0.00000000E+00
  0.00000000E+00  0.00000000E+00  0.00000000E+00
