Title                                   
   1.00000000000000     
     8.5490480000000009    0.0000000000000000    0.0000000000000000
     0.0000000000000000    8.5490480000000009    0.0000000000000000
     0.0000000000000000    0.0000000000000000   20.0000000000000000
    20     4     1
Selective dynamics
Direct
  0.9086364902010131  0.2074678002195154  0.0978242561441465   T   T   T
  0.9114561610683412  0.8009752846712269  0.0977527914002381   T   T   T
  0.1991243591481616  0.0828173960472203  0.0980352137272882   T   T   T
  0.0755281844784326  0.2032038465963473  0.0979974651019160   T   T   T
  0.1571429355399820  0.6494377222348666  0.0979910988003114   T   T   T
  0.0745207932886889  0.5019524843850374  0.0980083814442297   T   T   T
  0.1571298874940890  0.3556127539389878  0.0980615954328150   T   T   T
  0.0797981196924368  0.7991182320470546  0.0978858005630388   T   T   T
  0.3476199986150823  0.1644027476657977  0.0980280247119951   T   T   T
  0.4942349623360458  0.9157905392950291  0.0979741768898247   T   T   T
  0.3471996902924734  0.8337542758216069  0.0981039737210952   T   T   T
  0.7866211991151060  0.0861097404012624  0.0977084174941580   T   T   T
  0.6380025485257672  0.1663480974305544  0.0977976612596725   T   T   T
  0.7901593548989051  0.9190321059997083  0.0977279367834551   T   T   T
  0.8284645756123834  0.6518254173435224  0.0979416507499953   T   T   T
  0.8235864719097027  0.3579647272643944  0.0978843073823990   T   T   T
  0.6424757225229811  0.8356350219282621  0.0979274524861014   T   T   T
  0.3265128144115866  0.3332980191817481  0.0980335959800395   T   T   T
  0.3247715492572334  0.6693689704299254  0.0980734779824649   T   T   T
  0.6571845858194069  0.3360556932512971  0.0978363151791595   T   T   T
  0.4948354322628354  0.0839307319074999  0.0979516878531591   T   T   T
  0.9054998929804450  0.5040614447037290  0.0980106636901501   T   T   T
  0.6671778160399882  0.6720706883595552  0.0980781714844821   T   T   T
  0.1974358602628881  0.9160129458970019  0.0980680689145670   T   T   T
  0.4902925942260167  0.4985433129788625  0.0980028148232804   T   T   T
 
  0.00000000E+00  0.00000000E+00  0.00000000E+00
  0.00000000E+00  0.00000000E+00  0.00000000E+00
  0.00000000E+00  0.00000000E+00  0.00000000E+00
  0.00000000E+00  0.00000000E+00  0.00000000E+00
  0.00000000E+00  0.00000000E+00  0.00000000E+00
  0.00000000E+00  0.00000000E+00  0.00000000E+00
  0.00000000E+00  0.00000000E+00  0.00000000E+00
  0.00000000E+00  0.00000000E+00  0.00000000E+00
  0.00000000E+00  0.00000000E+00  0.00000000E+00
  0.00000000E+00  0.00000000E+00  0.00000000E+00
  0.00000000E+00  0.00000000E+00  0.00000000E+00
  0.00000000E+00  0.00000000E+00  0.00000000E+00
  0.00000000E+00  0.00000000E+00  0.00000000E+00
  0.00000000E+00  0.00000000E+00  0.00000000E+00
  0.00000000E+00  0.00000000E+00  0.00000000E+00
  0.00000000E+00  0.00000000E+00  0.00000000E+00
  0.00000000E+00  0.00000000E+00  0.00000000E+00
  0.00000000E+00  0.00000000E+00  0.00000000E+00
  0.00000000E+00  0.00000000E+00  0.00000000E+00
  0.00000000E+00  0.00000000E+00  0.00000000E+00
  0.00000000E+00  0.00000000E+00  0.00000000E+00
  0.00000000E+00  0.00000000E+00  0.00000000E+00
  0.00000000E+00  0.00000000E+00  0.00000000E+00
  0.00000000E+00  0.00000000E+00  0.00000000E+00
  0.00000000E+00  0.00000000E+00  0.00000000E+00
