Title                                   
   1.00000000000000     
     8.5490480000000009    0.0000000000000000    0.0000000000000000
     0.0000000000000000    8.5490480000000009    0.0000000000000000
     0.0000000000000000    0.0000000000000000   20.0000000000000000
    21     3     1
Selective dynamics
Direct
  0.9089625543478570  0.2052467231890931  0.0976189152117595   T   T   T
  0.9029720586313288  0.5025853824766534  0.0979084867949312   T   T   T
  0.9107588626580310  0.8012973397937226  0.0975635048278605   T   T   T
  0.2006930172329283  0.0828495239701534  0.0976572375980215   T   T   T
  0.0754647421958306  0.2053615705798218  0.0976697923930628   T   T   T
  0.1551864522277013  0.6491502872534547  0.0977909687028091   T   T   T
  0.0721105062274010  0.5014920132071117  0.0978815363381631   T   T   T
  0.1538016531382203  0.3548096445993740  0.0978426349572900   T   T   T
  0.0784011026841257  0.7966987260128208  0.0976576491094857   T   T   T
  0.4946818354141406  0.0864771682541401  0.0976384846372079   T   T   T
  0.3476724134359052  0.1644880733129219  0.0977154533281354   T   T   T
  0.4937868474924768  0.9168250684782574  0.0975663577889868   T   T   T
  0.3476525045053833  0.8362597781639757  0.0976717432062748   T   T   T
  0.7887472754183357  0.0858061335036126  0.0974342380934406   T   T   T
  0.6422789421947256  0.1661125741239198  0.0976721163625646   T   T   T
  0.7894120338806642  0.9191108575827392  0.0973693870051922   T   T   T
  0.8273684287379207  0.6524091895733338  0.0977956529677844   T   T   T
  0.8253805165187237  0.3532838273463183  0.0978561100037021   T   T   T
  0.6425357518412059  0.8371953721012260  0.0975357980684149   T   T   T
  0.3244068851043673  0.3359753304842631  0.0979939435105630   T   T   T
  0.3240669062636810  0.6682056184555815  0.0978916898895800   T   T   T
  0.6642747748956375  0.3285314149774701  0.0980123533926649   T   T   T
  0.6659328828755996  0.6760857706691402  0.0978583743169445   T   T   T
  0.2008196747895507  0.9181072806236887  0.0976724905975147   T   T   T
  0.4880433772882519  0.5004253312672272  0.0984300808976186   T   T   T
 
  0.00000000E+00  0.00000000E+00  0.00000000E+00
  0.00000000E+00  0.00000000E+00  0.00000000E+00
  0.00000000E+00  0.00000000E+00  0.00000000E+00
  0.00000000E+00  0.00000000E+00  0.00000000E+00
  0.00000000E+00  0.00000000E+00  0.00000000E+00
  0.00000000E+00  0.00000000E+00  0.00000000E+00
  0.00000000E+00  0.00000000E+00  0.00000000E+00
  0.00000000E+00  0.00000000E+00  0.00000000E+00
  0.00000000E+00  0.00000000E+00  0.00000000E+00
  0.00000000E+00  0.00000000E+00  0.00000000E+00
  0.00000000E+00  0.00000000E+00  0.00000000E+00
  0.00000000E+00  0.00000000E+00  0.00000000E+00
  0.00000000E+00  0.00000000E+00  0.00000000E+00
  0.00000000E+00  0.00000000E+00  0.00000000E+00
  0.00000000E+00  0.00000000E+00  0.00000000E+00
  0.00000000E+00  0.00000000E+00  0.00000000E+00
  0.00000000E+00  0.00000000E+00  0.00000000E+00
  0.00000000E+00  0.00000000E+00  0.00000000E+00
  0.00000000E+00  0.00000000E+00  0.00000000E+00
  0.00000000E+00  0.00000000E+00  0.00000000E+00
  0.00000000E+00  0.00000000E+00  0.00000000E+00
  0.00000000E+00  0.00000000E+00  0.00000000E+00
  0.00000000E+00  0.00000000E+00  0.00000000E+00
  0.00000000E+00  0.00000000E+00  0.00000000E+00
  0.00000000E+00  0.00000000E+00  0.00000000E+00
