Title                                   
   1.00000000000000     
     8.5490480000000009    0.0000000000000000    0.0000000000000000
     0.0000000000000000    8.5490480000000009    0.0000000000000000
     0.0000000000000000    0.0000000000000000   20.0000000000000000
    18     6     1
Selective dynamics
Direct
  0.9083300092333314  0.2059717586195396  0.0974608761423711   T   T   T
  0.9110097850997340  0.8005826009601139  0.0974958863554574   T   T   T
  0.1959395944176809  0.0841720036164272  0.0976137007385353   T   T   T
  0.0759165573756874  0.2010621879952535  0.0975142343221554   T   T   T
  0.1580039041257790  0.6505629159145772  0.0977958620622355   T   T   T
  0.0780250752881925  0.5007026352857658  0.0977932221434225   T   T   T
  0.1576645594854272  0.3518858830795734  0.0978358353108089   T   T   T
  0.0789503546220635  0.7988343972648462  0.0975663536491269   T   T   T
  0.4932801534575826  0.0890647862403508  0.0978248136008926   T   T   T
  0.3433743917039870  0.1673511785839098  0.0979057244169691   T   T   T
  0.4929435402293588  0.9156004840089726  0.0977544645325837   T   T   T
  0.3442397809582905  0.8338605207316808  0.0977790182262168   T   T   T
  0.7885352088774308  0.0873646741136135  0.0975110044218932   T   T   T
  0.6408429678667343  0.1700641515324452  0.0977914394182329   T   T   T
  0.7894738470132255  0.9187728528650072  0.0975185275091642   T   T   T
  0.8285872182238654  0.6506719504627878  0.0976758451572574   T   T   T
  0.8264046312986758  0.3548260326566925  0.0977171779502483   T   T   T
  0.6421613820298794  0.8346596306069034  0.0977220938722202   T   T   T
  0.9063917148438769  0.5024578133568653  0.0977371503274844   T   T   T
  0.3197776698454513  0.3296723708717262  0.0981339406497389   T   T   T
  0.3204570028162722  0.6744855728430652  0.0979907239537906   T   T   T
  0.6656054419338461  0.3340346176634881  0.0979833650111966   T   T   T
  0.6680016888530180  0.6710790672668828  0.0978745035477114   T   T   T
  0.1972591010401718  0.9150498208506683  0.0976061235656376   T   T   T
  0.4942364193604303  0.5020000926088417  0.0981031131146288   T   T   T
 
  0.00000000E+00  0.00000000E+00  0.00000000E+00
  0.00000000E+00  0.00000000E+00  0.00000000E+00
  0.00000000E+00  0.00000000E+00  0.00000000E+00
  0.00000000E+00  0.00000000E+00  0.00000000E+00
  0.00000000E+00  0.00000000E+00  0.00000000E+00
  0.00000000E+00  0.00000000E+00  0.00000000E+00
  0.00000000E+00  0.00000000E+00  0.00000000E+00
  0.00000000E+00  0.00000000E+00  0.00000000E+00
  0.00000000E+00  0.00000000E+00  0.00000000E+00
  0.00000000E+00  0.00000000E+00  0.00000000E+00
  0.00000000E+00  0.00000000E+00  0.00000000E+00
  0.00000000E+00  0.00000000E+00  0.00000000E+00
  0.00000000E+00  0.00000000E+00  0.00000000E+00
  0.00000000E+00  0.00000000E+00  0.00000000E+00
  0.00000000E+00  0.00000000E+00  0.00000000E+00
  0.00000000E+00  0.00000000E+00  0.00000000E+00
  0.00000000E+00  0.00000000E+00  0.00000000E+00
  0.00000000E+00  0.00000000E+00  0.00000000E+00
  0.00000000E+00  0.00000000E+00  0.00000000E+00
  0.00000000E+00  0.00000000E+00  0.00000000E+00
  0.00000000E+00  0.00000000E+00  0.00000000E+00
  0.00000000E+00  0.00000000E+00  0.00000000E+00
  0.00000000E+00  0.00000000E+00  0.00000000E+00
  0.00000000E+00  0.00000000E+00  0.00000000E+00
  0.00000000E+00  0.00000000E+00  0.00000000E+00
