Title                                   
   1.00000000000000     
     9.8694509999999998    0.0000000000000000    0.0000000000000000
     0.0000000000000000    8.5490480000000009    0.0000000000000000
     0.0000000000000000    0.0000000000000000   20.0000000000000000
    28     3     1
Selective dynamics
Direct
  0.0565285242605552  0.0912187234200688  0.0819297415724909   T   T   T
  0.9311155499344705  0.1739327548331218  0.0839480739410246   T   T   T
  0.0558805724083811  0.9240064130631047  0.0824294685134774   T   T   T
  0.9305722479237822  0.3404603362237480  0.0881183291052488   T   T   T
  0.0566894980651930  0.5895277490594686  0.0856877434493872   T   T   T
  0.9315615664666063  0.6724422183947664  0.0880529821957083   T   T   T
  0.0570007251639585  0.4234609909115598  0.0867232789070998   T   T   T
  0.9305425525495253  0.8396137967060262  0.0847810011013840   T   T   T
  0.3055412655720972  0.0902301222657266  0.0851606741030199   T   T   T
  0.1820240546592307  0.1750760943572399  0.0839878005632956   T   T   T
  0.3056719203169237  0.9247354591862509  0.0869712019010958   T   T   T
  0.1839242706011444  0.3421978913214008  0.0874076906148500   T   T   T
  0.3052250703475100  0.5943333082562333  0.0981316805830107   T   T   T
  0.1813392994408375  0.6735728528665240  0.0879081806482832   T   T   T
  0.3111913687631566  0.4257347741151157  0.0955648653952933   T   T   T
  0.1806924887166678  0.8407564233314639  0.0856773064222301   T   T   T
  0.5558717317316790  0.0848299564298925  0.0945939258055905   T   T   T
  0.4314057367362726  0.1694595801660478  0.0919196242172497   T   T   T
  0.4331190783413718  0.3330000542506884  0.1000559429895892   T   T   T
  0.4281452370231133  0.8418970037633527  0.0977624737128983   T   T   T
  0.8072212894031240  0.0893530453946619  0.0849134685383820   T   T   T
  0.6815113123536736  0.1678311261445780  0.0924803959412090   T   T   T
  0.8053950668543927  0.9235741534664348  0.0860149231166702   T   T   T
  0.6814206248597782  0.3315900044512168  0.1016043998911828   T   T   T
  0.8081297498592411  0.5912678984750984  0.1003895409473285   T   T   T
  0.6905352434429173  0.6826043896020150  0.1167128908137265   T   T   T
  0.8043059937117258  0.4225029633975675  0.0976438444199488   T   T   T
  0.6824057658530669  0.8408796567559317  0.0981854350204034   T   T   T
  0.4199347877155575  0.6863403302656910  0.1157832391600495   T   T   T
  0.5573249337666317  0.4000918213175222  0.1192110436214486   T   T   T
  0.5547344568754369  0.9204619288298662  0.0978077919081645   T   T   T
  0.5526770162819831  0.5832621789776241  0.1781160408792932   T   T   T
 
  0.00000000E+00  0.00000000E+00  0.00000000E+00
  0.00000000E+00  0.00000000E+00  0.00000000E+00
  0.00000000E+00  0.00000000E+00  0.00000000E+00
  0.00000000E+00  0.00000000E+00  0.00000000E+00
  0.00000000E+00  0.00000000E+00  0.00000000E+00
  0.00000000E+00  0.00000000E+00  0.00000000E+00
  0.00000000E+00  0.00000000E+00  0.00000000E+00
  0.00000000E+00  0.00000000E+00  0.00000000E+00
  0.00000000E+00  0.00000000E+00  0.00000000E+00
  0.00000000E+00  0.00000000E+00  0.00000000E+00
  0.00000000E+00  0.00000000E+00  0.00000000E+00
  0.00000000E+00  0.00000000E+00  0.00000000E+00
  0.00000000E+00  0.00000000E+00  0.00000000E+00
  0.00000000E+00  0.00000000E+00  0.00000000E+00
  0.00000000E+00  0.00000000E+00  0.00000000E+00
  0.00000000E+00  0.00000000E+00  0.00000000E+00
  0.00000000E+00  0.00000000E+00  0.00000000E+00
  0.00000000E+00  0.00000000E+00  0.00000000E+00
  0.00000000E+00  0.00000000E+00  0.00000000E+00
  0.00000000E+00  0.00000000E+00  0.00000000E+00
  0.00000000E+00  0.00000000E+00  0.00000000E+00
  0.00000000E+00  0.00000000E+00  0.00000000E+00
  0.00000000E+00  0.00000000E+00  0.00000000E+00
  0.00000000E+00  0.00000000E+00  0.00000000E+00
  0.00000000E+00  0.00000000E+00  0.00000000E+00
  0.00000000E+00  0.00000000E+00  0.00000000E+00
  0.00000000E+00  0.00000000E+00  0.00000000E+00
  0.00000000E+00  0.00000000E+00  0.00000000E+00
  0.00000000E+00  0.00000000E+00  0.00000000E+00
  0.00000000E+00  0.00000000E+00  0.00000000E+00
  0.00000000E+00  0.00000000E+00  0.00000000E+00
  0.00000000E+00  0.00000000E+00  0.00000000E+00
