Title                                   
   1.00000000000000     
     9.8694509999999998    0.0000000000000000    0.0000000000000000
     0.0000000000000000    8.5490480000000009    0.0000000000000000
     0.0000000000000000    0.0000000000000000   20.0000000000000000
    24     6     1
Selective dynamics
Direct
  0.0559020562928058  0.0900071465194464  0.0957850063450205   T   T   T
  0.9310174961035123  0.1720147388143109  0.0962154841270861   T   T   T
  0.0573302297633594  0.9225571153932765  0.0957516699720690   T   T   T
  0.9325689449777745  0.3393196571872754  0.0962317122545801   T   T   T
  0.0566413770757610  0.5894603749970516  0.0953615824465614   T   T   T
  0.9327249808405899  0.6724789705764443  0.0960989325885193   T   T   T
  0.0566953817595807  0.4227839277037645  0.0955100183692549   T   T   T
  0.9317057702568686  0.8398152924477373  0.0961774637195651   T   T   T
  0.3083431468808486  0.0886534562811214  0.0964852040102669   T   T   T
  0.1816991127376706  0.1713380161082797  0.0958347796834026   T   T   T
  0.1804653911450563  0.3384111846377379  0.0957111614005847   T   T   T
  0.3033244219987819  0.5897698612079632  0.0960213922109589   T   T   T
  0.1807613278833786  0.6734561770256915  0.0954362350822843   T   T   T
  0.3035476001463777  0.4218510482743638  0.0963091641766351   T   T   T
  0.1813644243867998  0.8402324726066341  0.0957116526830225   T   T   T
  0.4301299914562824  0.1781468455514747  0.0973973919957679   T   T   T
  0.5548599322047659  0.9193843838020557  0.0979607229848114   T   T   T
  0.4298243004692091  0.8350066748081231  0.0973202494987270   T   T   T
  0.8038580867878252  0.0898690282018881  0.0968394880379255   T   T   T
  0.6816042448633630  0.1798393505556030  0.0977326829441759   T   T   T
  0.8052466034011825  0.9214233811167015  0.0969014088068780   T   T   T
  0.8093851291695437  0.5900993292929230  0.0974739404978904   T   T   T
  0.8093798595314529  0.4214882260542305  0.0973586630009731   T   T   T
  0.6815952928609040  0.8333406249058968  0.0980138584048456   T   T   T
  0.5565471939141255  0.0964306529211736  0.0980532446469475   T   T   T
  0.4257754061407693  0.3405335461048486  0.0974608938750502   T   T   T
  0.4250656189731575  0.6722339255850486  0.0972399623044341   T   T   T
  0.6859937634135723  0.3419223313220424  0.0983341427216676   T   T   T
  0.6867954503402968  0.6696140570866805  0.0991650221694710   T   T   T
  0.3069514320108758  0.9218104709257785  0.0963897317900435   T   T   T
  0.5560320322135065  0.5075827319844317  0.0986821372506374   T   T   T
 
  0.00000000E+00  0.00000000E+00  0.00000000E+00
  0.00000000E+00  0.00000000E+00  0.00000000E+00
  0.00000000E+00  0.00000000E+00  0.00000000E+00
  0.00000000E+00  0.00000000E+00  0.00000000E+00
  0.00000000E+00  0.00000000E+00  0.00000000E+00
  0.00000000E+00  0.00000000E+00  0.00000000E+00
  0.00000000E+00  0.00000000E+00  0.00000000E+00
  0.00000000E+00  0.00000000E+00  0.00000000E+00
  0.00000000E+00  0.00000000E+00  0.00000000E+00
  0.00000000E+00  0.00000000E+00  0.00000000E+00
  0.00000000E+00  0.00000000E+00  0.00000000E+00
  0.00000000E+00  0.00000000E+00  0.00000000E+00
  0.00000000E+00  0.00000000E+00  0.00000000E+00
  0.00000000E+00  0.00000000E+00  0.00000000E+00
  0.00000000E+00  0.00000000E+00  0.00000000E+00
  0.00000000E+00  0.00000000E+00  0.00000000E+00
  0.00000000E+00  0.00000000E+00  0.00000000E+00
  0.00000000E+00  0.00000000E+00  0.00000000E+00
  0.00000000E+00  0.00000000E+00  0.00000000E+00
  0.00000000E+00  0.00000000E+00  0.00000000E+00
  0.00000000E+00  0.00000000E+00  0.00000000E+00
  0.00000000E+00  0.00000000E+00  0.00000000E+00
  0.00000000E+00  0.00000000E+00  0.00000000E+00
  0.00000000E+00  0.00000000E+00  0.00000000E+00
  0.00000000E+00  0.00000000E+00  0.00000000E+00
  0.00000000E+00  0.00000000E+00  0.00000000E+00
  0.00000000E+00  0.00000000E+00  0.00000000E+00
  0.00000000E+00  0.00000000E+00  0.00000000E+00
  0.00000000E+00  0.00000000E+00  0.00000000E+00
  0.00000000E+00  0.00000000E+00  0.00000000E+00
  0.00000000E+00  0.00000000E+00  0.00000000E+00
