Title                                   
   1.00000000000000     
     9.8694509999999998    0.0000000000000000    0.0000000000000000
     0.0000000000000000    8.5490480000000009    0.0000000000000000
     0.0000000000000000    0.0000000000000000   20.0000000000000000
    30     1     1
Selective dynamics
Direct
  0.0563154605498200  0.0898847475525053  0.0836823500217198   T   T   T
  0.9312752482390171  0.1731836892638950  0.0859268895953003   T   T   T
  0.0562110505525021  0.9228739616200728  0.0839087393380387   T   T   T
  0.9308014882572569  0.3401296949549383  0.0903850386367868   T   T   T
  0.0561846322978605  0.5892994684602554  0.0890024280482540   T   T   T
  0.9314090628524359  0.6726263638381410  0.0906008330207691   T   T   T
  0.0563398655137742  0.4227984251721927  0.0896761390580674   T   T   T
  0.9310054271979928  0.8391402271315439  0.0867537543458868   T   T   T
  0.3053494249533061  0.0892965110095717  0.0858958754795490   T   T   T
  0.1813526889990810  0.1733284045888712  0.0857040289828976   T   T   T
  0.3066077485583630  0.9239306875594651  0.0864453431580625   T   T   T
  0.1819039566452719  0.3402260247900807  0.0900605636977567   T   T   T
  0.3055880402755626  0.5913337772062129  0.0996978535675956   T   T   T
  0.1809319098097886  0.6727674370092986  0.0899390705259773   T   T   T
  0.3066389563104503  0.4228497173206160  0.0978106291695605   T   T   T
  0.1814756619907851  0.8392458230802144  0.0861842061268095   T   T   T
  0.5563529426388394  0.0875936997271026  0.0917999715937536   T   T   T
  0.4310153605167796  0.1695952142024805  0.0910747864665861   T   T   T
  0.4313934177051383  0.3352331429104889  0.0998586175738383   T   T   T
  0.4256481550832686  0.6817915996183944  0.1110778446402542   T   T   T
  0.5565374406768376  0.4092819811453563  0.1117100293704341   T   T   T
  0.4307128873617063  0.8419267159228515  0.0960324668481087   T   T   T
  0.8073238566459977  0.0889739800708188  0.0862585499433145   T   T   T
  0.6817848476021998  0.1695150064079125  0.0912939051549864   T   T   T
  0.8058894212036585  0.9235880588439086  0.0871438420872731   T   T   T
  0.6816210861038857  0.3349941841832081  0.1001535215590203   T   T   T
  0.8069594255851628  0.5911947783047471  0.1008430053057150   T   T   T
  0.6868108841002135  0.6815091889198119  0.1127962398294766   T   T   T
  0.8062144688731938  0.4227169089639282  0.0985036188795803   T   T   T
  0.6817553796447652  0.8415279717447888  0.0969796132390515   T   T   T
  0.5563067253914169  0.9232402235532599  0.0948212084658910   T   T   T
  0.5539220778636744  0.5846483849230756  0.1736540362697194   T   T   T
 
  0.00000000E+00  0.00000000E+00  0.00000000E+00
  0.00000000E+00  0.00000000E+00  0.00000000E+00
  0.00000000E+00  0.00000000E+00  0.00000000E+00
  0.00000000E+00  0.00000000E+00  0.00000000E+00
  0.00000000E+00  0.00000000E+00  0.00000000E+00
  0.00000000E+00  0.00000000E+00  0.00000000E+00
  0.00000000E+00  0.00000000E+00  0.00000000E+00
  0.00000000E+00  0.00000000E+00  0.00000000E+00
  0.00000000E+00  0.00000000E+00  0.00000000E+00
  0.00000000E+00  0.00000000E+00  0.00000000E+00
  0.00000000E+00  0.00000000E+00  0.00000000E+00
  0.00000000E+00  0.00000000E+00  0.00000000E+00
  0.00000000E+00  0.00000000E+00  0.00000000E+00
  0.00000000E+00  0.00000000E+00  0.00000000E+00
  0.00000000E+00  0.00000000E+00  0.00000000E+00
  0.00000000E+00  0.00000000E+00  0.00000000E+00
  0.00000000E+00  0.00000000E+00  0.00000000E+00
  0.00000000E+00  0.00000000E+00  0.00000000E+00
  0.00000000E+00  0.00000000E+00  0.00000000E+00
  0.00000000E+00  0.00000000E+00  0.00000000E+00
  0.00000000E+00  0.00000000E+00  0.00000000E+00
  0.00000000E+00  0.00000000E+00  0.00000000E+00
  0.00000000E+00  0.00000000E+00  0.00000000E+00
  0.00000000E+00  0.00000000E+00  0.00000000E+00
  0.00000000E+00  0.00000000E+00  0.00000000E+00
  0.00000000E+00  0.00000000E+00  0.00000000E+00
  0.00000000E+00  0.00000000E+00  0.00000000E+00
  0.00000000E+00  0.00000000E+00  0.00000000E+00
  0.00000000E+00  0.00000000E+00  0.00000000E+00
  0.00000000E+00  0.00000000E+00  0.00000000E+00
  0.00000000E+00  0.00000000E+00  0.00000000E+00
  0.00000000E+00  0.00000000E+00  0.00000000E+00
