Title                                   
   1.00000000000000     
     4.9440799999999996    0.0000000000000000    0.0000000000000000
     0.0000000000000000    8.5647549999999999    0.0000000000000000
     0.0000000000000000    0.0000000000000000   20.0000000000000000
    12     2     1
Selective dynamics
Direct
  0.2475095228087630  0.2097065229206088  0.0956128937159720   T   T   T
 -0.0049164027427385  0.2941205961007001  0.0968096889798840   T   T   T
  0.2524827214963027  0.0398671772037231  0.0956487690133338   T   T   T
  0.0047730972693181  0.9558276091145883  0.0951157097835749   T   T   T
  0.7473409210781873  0.2091472013295033  0.0932389663024467   T   T   T
  0.4952544388501077  0.2937181396717788  0.0950293972392990   T   T   T
  0.7527039013186096  0.0404123432955433  0.0932695845674246   T   T   T
  0.7559812683053796  0.7103321881564417  0.0999053211829878   T   T   T
  0.7439070883549413  0.5392501367745418  0.0998491426909074   T   T   T
  0.5049022124190313  0.9554668703196122  0.0968413053832124   T   T   T
  0.4982443960533944  0.4600861718809636  0.0978230571911798   T   T   T
  0.0017160165283652  0.7894581903740747  0.0979983124932915   T   T   T
 -0.0111155189605296  0.4571996959953379  0.1045887580610192   T   T   T
  0.5110224257249329  0.7923940666882140  0.1045757082661954   T   T   T
  0.2501939114959349  0.6246940901743703  0.1416733851292751   T   T   T
 
  0.00000000E+00  0.00000000E+00  0.00000000E+00
  0.00000000E+00  0.00000000E+00  0.00000000E+00
  0.00000000E+00  0.00000000E+00  0.00000000E+00
  0.00000000E+00  0.00000000E+00  0.00000000E+00
  0.00000000E+00  0.00000000E+00  0.00000000E+00
  0.00000000E+00  0.00000000E+00  0.00000000E+00
  0.00000000E+00  0.00000000E+00  0.00000000E+00
  0.00000000E+00  0.00000000E+00  0.00000000E+00
  0.00000000E+00  0.00000000E+00  0.00000000E+00
  0.00000000E+00  0.00000000E+00  0.00000000E+00
  0.00000000E+00  0.00000000E+00  0.00000000E+00
  0.00000000E+00  0.00000000E+00  0.00000000E+00
  0.00000000E+00  0.00000000E+00  0.00000000E+00
  0.00000000E+00  0.00000000E+00  0.00000000E+00
  0.00000000E+00  0.00000000E+00  0.00000000E+00
