Title                                   
   1.00000000000000     
     4.9440799999999996    0.0000000000000000    0.0000000000000000
     0.0000000000000000    8.5647549999999999    0.0000000000000000
     0.0000000000000000    0.0000000000000000   20.0000000000000000
    13     2     1
Selective dynamics
Direct
 -0.0008696571165599  0.2909585212019598  0.1022716897560290   T   T   T
  0.2500000000000000  0.0462259716577409  0.0891323304734875   T   T   T
  0.0082483364522453  0.7951692843541824  0.0839204763638080   T   T   T
  0.0007206143962518  0.9628628568888539  0.0852498793837924   T   T   T
  0.7500000000000000  0.2086921258341283  0.0914097320306616   T   T   T
  0.5008696571165600  0.2909585212019598  0.1022716897560290   T   T   T
  0.7500000000000000  0.0445199634629194  0.0859645459851408   T   T   T
  0.7500000000000000  0.7079099917715582  0.0912812066614646   T   T   T
  0.4917516635477547  0.7951692843541824  0.0839204763638080   T   T   T
  0.7500000000000000  0.5434484014948661  0.1080418715634942   T   T   T
  0.4992793856037483  0.9628628568888539  0.0852498793837924   T   T   T
  0.5113221731364824  0.4488036661996878  0.1197061976494630   T   T   T
 -0.0113221731364827  0.4488036661996878  0.1197061976494630   T   T   T
  0.2500000000000000  0.7190578452714987  0.0810064865097063   T   T   T
  0.2500000000000000  0.2071730818523176  0.0991692351664047   T   T   T
  0.2500000000000000  0.5273839613656051  0.1842101053034652   T   T   T
 
  0.00000000E+00  0.00000000E+00  0.00000000E+00
  0.00000000E+00  0.00000000E+00  0.00000000E+00
  0.00000000E+00  0.00000000E+00  0.00000000E+00
  0.00000000E+00  0.00000000E+00  0.00000000E+00
  0.00000000E+00  0.00000000E+00  0.00000000E+00
  0.00000000E+00  0.00000000E+00  0.00000000E+00
  0.00000000E+00  0.00000000E+00  0.00000000E+00
  0.00000000E+00  0.00000000E+00  0.00000000E+00
  0.00000000E+00  0.00000000E+00  0.00000000E+00
  0.00000000E+00  0.00000000E+00  0.00000000E+00
  0.00000000E+00  0.00000000E+00  0.00000000E+00
  0.00000000E+00  0.00000000E+00  0.00000000E+00
  0.00000000E+00  0.00000000E+00  0.00000000E+00
  0.00000000E+00  0.00000000E+00  0.00000000E+00
  0.00000000E+00  0.00000000E+00  0.00000000E+00
  0.00000000E+00  0.00000000E+00  0.00000000E+00
