Title                                   
   1.00000000000000     
     4.9440799999999996    0.0000000000000000    0.0000000000000000
     0.0000000000000000    8.5647549999999999    0.0000000000000000
     0.0000000000000000    0.0000000000000000   20.0000000000000000
    14     1
Selective dynamics
Direct
  0.2500000000000000  0.2071486769469244  0.0962141405049871   T   T   T
  0.0003454707272744  0.2939429539580807  0.0967980131599531   T   T   T
  0.2500000000000000  0.0423942695504118  0.0961542587218146   T   T   T
  0.0003344425246869  0.9556089205370689  0.0967062589355817   T   T   T
  0.7500000000000000  0.2090398780510521  0.0951257773160329   T   T   T
  0.4996545292727255  0.2939429539580807  0.0967980131599531   T   T   T
  0.7500000000000000  0.0405488922351965  0.0950798717098895   T   T   T
  0.7500000000000000  0.7104897493752202  0.1000618357554008   T   T   T
  0.7500000000000000  0.5390490739370741  0.1001249069699486   T   T   T
  0.4996655574753132  0.9556089205370689  0.0967062589355817   T   T   T
  0.5020123128032228  0.4594227740563788  0.1009815291101017   T   T   T
 -0.0020123128032225  0.4594227740563788  0.1009815291101017   T   T   T
 -0.0019828526355572  0.7901084515755694  0.1008755287821772   T   T   T
  0.5019828526355572  0.7901084515755694  0.1008755287821772   T   T   T
  0.2500000000000000  0.6248442596499280  0.1344965490463023   T   T   T
 
  0.00000000E+00  0.00000000E+00  0.00000000E+00
  0.00000000E+00  0.00000000E+00  0.00000000E+00
  0.00000000E+00  0.00000000E+00  0.00000000E+00
  0.00000000E+00  0.00000000E+00  0.00000000E+00
  0.00000000E+00  0.00000000E+00  0.00000000E+00
  0.00000000E+00  0.00000000E+00  0.00000000E+00
  0.00000000E+00  0.00000000E+00  0.00000000E+00
  0.00000000E+00  0.00000000E+00  0.00000000E+00
  0.00000000E+00  0.00000000E+00  0.00000000E+00
  0.00000000E+00  0.00000000E+00  0.00000000E+00
  0.00000000E+00  0.00000000E+00  0.00000000E+00
  0.00000000E+00  0.00000000E+00  0.00000000E+00
  0.00000000E+00  0.00000000E+00  0.00000000E+00
  0.00000000E+00  0.00000000E+00  0.00000000E+00
  0.00000000E+00  0.00000000E+00  0.00000000E+00
