Title                                   
   1.00000000000000     
     8.5490480000000009    0.0000000000000000    0.0000000000000000
     0.0000000000000000    8.5490480000000009    0.0000000000000000
     0.0000000000000000    0.0000000000000000   20.0000000000000000
    18     6     1
Selective dynamics
Direct
  0.9078329050569959  0.2055727469806892  0.0974422436350757   T   T   T
  0.9114133943848255  0.8012788812100049  0.0974111899715045   T   T   T
  0.1969526583380553  0.0834293720210109  0.0977237912807900   T   T   T
  0.0765063788231129  0.2005547676579753  0.0976131265000407   T   T   T
  0.1556882457670535  0.6512582823402518  0.0978061396575202   T   T   T
  0.0758689435870344  0.5003801169577016  0.0977818392676192   T   T   T
  0.1554104824115547  0.3530927415560474  0.0977729691022255   T   T   T
  0.0794413136729960  0.7994381956056525  0.0975676139332100   T   T   T
  0.3471639261133265  0.1644380520149029  0.0978633547050146   T   T   T
  0.4933842860281470  0.9160811009874754  0.0977902428835896   T   T   T
  0.3439696869071159  0.8371818377495827  0.0978968414660757   T   T   T
  0.7881531105983205  0.0867238919665888  0.0973642783540780   T   T   T
  0.6404922284807801  0.1661136032146599  0.0976908741736516   T   T   T
  0.7908695643395777  0.9190264898782311  0.0973600327949806   T   T   T
  0.8299343582192527  0.6521174943151115  0.0976980668221577   T   T   T
  0.8266058746492394  0.3531478464167579  0.0976893548330307   T   T   T
  0.6436565538430311  0.8377310273430636  0.0976716999838695   T   T   T
  0.3248476353665318  0.3307078467327622  0.0979578816206826   T   T   T
  0.4942194393460020  0.0865021629989889  0.0978467575087101   T   T   T
  0.9042248714429926  0.5027357917478090  0.0977890279159280   T   T   T
  0.3194495741002434  0.6761404484023872  0.0980782048969289   T   T   T
  0.6630403731699183  0.3293274207242851  0.0979597078474612   T   T   T
  0.6698547573123617  0.6749253332475514  0.0979422629176282   T   T   T
  0.1963965341822343  0.9155096549871656  0.0977338429566699   T   T   T
  0.4900349038592906  0.5013748929433631  0.0982536549715300   T   T   T
 
  0.00000000E+00  0.00000000E+00  0.00000000E+00
  0.00000000E+00  0.00000000E+00  0.00000000E+00
  0.00000000E+00  0.00000000E+00  0.00000000E+00
  0.00000000E+00  0.00000000E+00  0.00000000E+00
  0.00000000E+00  0.00000000E+00  0.00000000E+00
  0.00000000E+00  0.00000000E+00  0.00000000E+00
  0.00000000E+00  0.00000000E+00  0.00000000E+00
  0.00000000E+00  0.00000000E+00  0.00000000E+00
  0.00000000E+00  0.00000000E+00  0.00000000E+00
  0.00000000E+00  0.00000000E+00  0.00000000E+00
  0.00000000E+00  0.00000000E+00  0.00000000E+00
  0.00000000E+00  0.00000000E+00  0.00000000E+00
  0.00000000E+00  0.00000000E+00  0.00000000E+00
  0.00000000E+00  0.00000000E+00  0.00000000E+00
  0.00000000E+00  0.00000000E+00  0.00000000E+00
  0.00000000E+00  0.00000000E+00  0.00000000E+00
  0.00000000E+00  0.00000000E+00  0.00000000E+00
  0.00000000E+00  0.00000000E+00  0.00000000E+00
  0.00000000E+00  0.00000000E+00  0.00000000E+00
  0.00000000E+00  0.00000000E+00  0.00000000E+00
  0.00000000E+00  0.00000000E+00  0.00000000E+00
  0.00000000E+00  0.00000000E+00  0.00000000E+00
  0.00000000E+00  0.00000000E+00  0.00000000E+00
  0.00000000E+00  0.00000000E+00  0.00000000E+00
  0.00000000E+00  0.00000000E+00  0.00000000E+00
