Title                                   
   1.00000000000000     
     8.5490480000000009    0.0000000000000000    0.0000000000000000
     0.0000000000000000    8.5490480000000009    0.0000000000000000
     0.0000000000000000    0.0000000000000000   20.0000000000000000
    18     6     1
Selective dynamics
Direct
  0.9079883903946390  0.2057105913573881  0.0973895538145041   T   T   T
  0.9109703363673540  0.8008994717105890  0.0973219472998023   T   T   T
  0.1972020924824557  0.0832594482724683  0.0974246274769309   T   T   T
  0.0766362569927980  0.2011527191915235  0.0973604874398788   T   T   T
  0.1554826733003930  0.6519038137902570  0.0978955037012700   T   T   T
  0.0761129262862735  0.5007994711602145  0.0976938584013656   T   T   T
  0.1562026910668405  0.3525790968904848  0.0975338578213035   T   T   T
  0.0789904204737640  0.7994838085818031  0.0975104889620235   T   T   T
  0.3470176623285581  0.1642361997407390  0.0975306478640682   T   T   T
  0.4929585667287936  0.9160673695648504  0.0976959994374389   T   T   T
  0.3433125887369511  0.8380975639006866  0.0979177616075525   T   T   T
  0.7877066719935044  0.0868021219292257  0.0973900075476313   T   T   T
  0.6410120801141983  0.1664330994792778  0.0977933643720866   T   T   T
  0.7899449197342449  0.9184051647265093  0.0973039638716798   T   T   T
  0.8301712221398877  0.6519676284657999  0.0975763045252469   T   T   T
  0.8269747576263697  0.3529495494309355  0.0977317325671982   T   T   T
  0.6436260591154785  0.8369022657249550  0.0975806803281608   T   T   T
  0.3246699823299413  0.3287596830926293  0.0976629919898695   T   T   T
  0.4945479197718795  0.0862981225889378  0.0977278757057421   T   T   T
  0.9049213445982742  0.5024799909743868  0.0977079178351079   T   T   T
  0.3183273331875102  0.6779817988375023  0.0983658077813664   T   T   T
  0.6639388821879589  0.3293326537251477  0.0982763485513775   T   T   T
  0.6702924027134216  0.6741722701106054  0.0977696604392517   T   T   T
  0.1965091968205178  0.9161386573603342  0.0975982781661802   T   T   T
  0.4898946225079857  0.5019774393927702  0.0999453324929361   T   T   T
 
  0.00000000E+00  0.00000000E+00  0.00000000E+00
  0.00000000E+00  0.00000000E+00  0.00000000E+00
  0.00000000E+00  0.00000000E+00  0.00000000E+00
  0.00000000E+00  0.00000000E+00  0.00000000E+00
  0.00000000E+00  0.00000000E+00  0.00000000E+00
  0.00000000E+00  0.00000000E+00  0.00000000E+00
  0.00000000E+00  0.00000000E+00  0.00000000E+00
  0.00000000E+00  0.00000000E+00  0.00000000E+00
  0.00000000E+00  0.00000000E+00  0.00000000E+00
  0.00000000E+00  0.00000000E+00  0.00000000E+00
  0.00000000E+00  0.00000000E+00  0.00000000E+00
  0.00000000E+00  0.00000000E+00  0.00000000E+00
  0.00000000E+00  0.00000000E+00  0.00000000E+00
  0.00000000E+00  0.00000000E+00  0.00000000E+00
  0.00000000E+00  0.00000000E+00  0.00000000E+00
  0.00000000E+00  0.00000000E+00  0.00000000E+00
  0.00000000E+00  0.00000000E+00  0.00000000E+00
  0.00000000E+00  0.00000000E+00  0.00000000E+00
  0.00000000E+00  0.00000000E+00  0.00000000E+00
  0.00000000E+00  0.00000000E+00  0.00000000E+00
  0.00000000E+00  0.00000000E+00  0.00000000E+00
  0.00000000E+00  0.00000000E+00  0.00000000E+00
  0.00000000E+00  0.00000000E+00  0.00000000E+00
  0.00000000E+00  0.00000000E+00  0.00000000E+00
  0.00000000E+00  0.00000000E+00  0.00000000E+00
