Title                                   
   1.00000000000000     
     9.8694509999999998    0.0000000000000000    0.0000000000000000
     0.0000000000000000    8.5490480000000009    0.0000000000000000
     0.0000000000000000    0.0000000000000000   20.0000000000000000
    27     3     1
Selective dynamics
Direct
  0.0555681236112887  0.0883581382718650  0.0890483265374129   T   T   T
  0.9312106457669229  0.1715048943678604  0.0915082350508117   T   T   T
  0.0570133624053751  0.9218500712327912  0.0895285849070182   T   T   T
  0.9328636003706013  0.3389969559574559  0.0928917286168021   T   T   T
  0.0563100653619975  0.5904942712892771  0.0913354867464045   T   T   T
  0.0564556368882498  0.4237422946970095  0.0905908319159050   T   T   T
  0.9317639063289203  0.8382912372845982  0.0923208160236432   T   T   T
  0.3078248053498008  0.0882572258685898  0.0876028922982335   T   T   T
  0.1821978659728779  0.1716171263953179  0.0878263051357072   T   T   T
  0.1805739355187816  0.3385477191447869  0.0886246482263452   T   T   T
  0.3041984341048880  0.5896861004264443  0.0890481292026578   T   T   T
  0.1802564772464420  0.6746119322444677  0.0897820984908378   T   T   T
  0.3048326058026747  0.4211252503889015  0.0886628819154023   T   T   T
  0.1827259007793109  0.8404759634559642  0.0887206917654914   T   T   T
  0.4331109054211827  0.1728883932700087  0.0907847921468630   T   T   T
  0.5564444572303238  0.9238941953827486  0.0965970996836544   T   T   T
  0.4299446988232911  0.3375621640428589  0.0925984789579222   T   T   T
  0.4282143909910830  0.6754683280742426  0.0926906304290449   T   T   T
  0.4311133479691300  0.8398945561628219  0.0920862569804204   T   T   T
  0.8052948044649979  0.0886266411033623  0.0935766943885639   T   T   T
  0.6805984017350631  0.1770842335260306  0.0982977896341473   T   T   T
  0.8061541222393371  0.9207858669271165  0.0941694076062375   T   T   T
  0.6837954746865537  0.3430195217738906  0.1059814676180562   T   T   T
  0.8109331947770904  0.5911023785292682  0.1002170354039673   T   T   T
  0.6860411706393701  0.6695783434332935  0.1072904389801573   T   T   T
  0.8111793325213573  0.4216305067474380  0.0994988397885822   T   T   T
  0.6798451772509022  0.8369336714647553  0.0994757442331369   T   T   T
  0.9330657203516247  0.6721498100867449  0.0936254152241455   T   T   T
  0.5579315713794362  0.0915309355654453  0.0955891544707886   T   T   T
  0.3059420640223572  0.9234367437403428  0.0878850356444731   T   T   T
  0.5397307999887708  0.5077295291443216  0.1431090619771939   T   T   T
 
  0.00000000E+00  0.00000000E+00  0.00000000E+00
  0.00000000E+00  0.00000000E+00  0.00000000E+00
  0.00000000E+00  0.00000000E+00  0.00000000E+00
  0.00000000E+00  0.00000000E+00  0.00000000E+00
  0.00000000E+00  0.00000000E+00  0.00000000E+00
  0.00000000E+00  0.00000000E+00  0.00000000E+00
  0.00000000E+00  0.00000000E+00  0.00000000E+00
  0.00000000E+00  0.00000000E+00  0.00000000E+00
  0.00000000E+00  0.00000000E+00  0.00000000E+00
  0.00000000E+00  0.00000000E+00  0.00000000E+00
  0.00000000E+00  0.00000000E+00  0.00000000E+00
  0.00000000E+00  0.00000000E+00  0.00000000E+00
  0.00000000E+00  0.00000000E+00  0.00000000E+00
  0.00000000E+00  0.00000000E+00  0.00000000E+00
  0.00000000E+00  0.00000000E+00  0.00000000E+00
  0.00000000E+00  0.00000000E+00  0.00000000E+00
  0.00000000E+00  0.00000000E+00  0.00000000E+00
  0.00000000E+00  0.00000000E+00  0.00000000E+00
  0.00000000E+00  0.00000000E+00  0.00000000E+00
  0.00000000E+00  0.00000000E+00  0.00000000E+00
  0.00000000E+00  0.00000000E+00  0.00000000E+00
  0.00000000E+00  0.00000000E+00  0.00000000E+00
  0.00000000E+00  0.00000000E+00  0.00000000E+00
  0.00000000E+00  0.00000000E+00  0.00000000E+00
  0.00000000E+00  0.00000000E+00  0.00000000E+00
  0.00000000E+00  0.00000000E+00  0.00000000E+00
  0.00000000E+00  0.00000000E+00  0.00000000E+00
  0.00000000E+00  0.00000000E+00  0.00000000E+00
  0.00000000E+00  0.00000000E+00  0.00000000E+00
  0.00000000E+00  0.00000000E+00  0.00000000E+00
  0.00000000E+00  0.00000000E+00  0.00000000E+00
