Title                                   
   1.00000000000000     
     4.9440799999999996    0.0000000000000000    0.0000000000000000
     0.0000000000000000    8.5647549999999999    0.0000000000000000
     0.0000000000000000    0.0000000000000000   20.0000000000000000
    14     1     1
Selective dynamics
Direct
  0.2500000000000000  0.2078034219980209  0.0916852304177460   T   T   T
 -0.0029685531929946  0.2877290212455583  0.0960630307461014   T   T   T
  0.2500000000000000  0.0425508144362793  0.0852353201267619   T   T   T
  0.0020334311501540  0.7963726014218846  0.0983362742840456   T   T   T
  0.0001362070357434  0.9593420326760962  0.0854484169754620   T   T   T
  0.7500000000000000  0.2057816139967802  0.0868335934027903   T   T   T
  0.5029685531929945  0.2877290212455583  0.0960630307461014   T   T   T
  0.7500000000000000  0.0403042439095060  0.0817318509228769   T   T   T
  0.7500000000000000  0.7104604411336324  0.1033138594948132   T   T   T
  0.4979665688498462  0.7963726014218846  0.0983362742840456   T   T   T
  0.7500000000000000  0.5412092970535213  0.1066082837954606   T   T   T
  0.4998637929642567  0.9593420326760962  0.0854484169754620   T   T   T
  0.5156129871689296  0.4483712303433661  0.1137313924458487   T   T   T
 -0.0156129871689296  0.4483712303433661  0.1137313924458487   T   T   T
  0.2500000000000000  0.7277823592768758  0.1124064834292351   T   T   T
  0.2500000000000000  0.5404780368215721  0.1675391495074081   T   T   T
 
  0.00000000E+00  0.00000000E+00  0.00000000E+00
  0.00000000E+00  0.00000000E+00  0.00000000E+00
  0.00000000E+00  0.00000000E+00  0.00000000E+00
  0.00000000E+00  0.00000000E+00  0.00000000E+00
  0.00000000E+00  0.00000000E+00  0.00000000E+00
  0.00000000E+00  0.00000000E+00  0.00000000E+00
  0.00000000E+00  0.00000000E+00  0.00000000E+00
  0.00000000E+00  0.00000000E+00  0.00000000E+00
  0.00000000E+00  0.00000000E+00  0.00000000E+00
  0.00000000E+00  0.00000000E+00  0.00000000E+00
  0.00000000E+00  0.00000000E+00  0.00000000E+00
  0.00000000E+00  0.00000000E+00  0.00000000E+00
  0.00000000E+00  0.00000000E+00  0.00000000E+00
  0.00000000E+00  0.00000000E+00  0.00000000E+00
  0.00000000E+00  0.00000000E+00  0.00000000E+00
  0.00000000E+00  0.00000000E+00  0.00000000E+00
