Title                                   
   1.00000000000000     
     4.9440799999999996    0.0000000000000000    0.0000000000000000
     0.0000000000000000   17.1295089999999988    0.0000000000000000
     0.0000000000000000    0.0000000000000000   20.0000000000000000
    31     1
Selective dynamics
Direct
  0.0000649676521234  0.1044907279139585  0.2772094473449776   T   T   T
  0.2498547188813430  0.1461338610027438  0.2823880910220485   T   T   T
  0.2498424355835479  0.2284686218960252  0.2958656415817788   T   T   T
 -0.0008824002223022  0.3497613051472591  0.3234234633705745   T   T   T
 -0.0019265846546724  0.2688902604698585  0.3034432878359760   T   T   T
 -0.0033563982419168  0.6074651385312717  0.3163736119061843   T   T   T
  0.2499015830162182  0.7294777804200543  0.2913151206769102   T   T   T
  0.0001031435019578  0.8539831699997931  0.2745147358274636   T   T   T
  0.2498975792009386  0.8958820743148472  0.2719180554540298   T   T   T
  0.2498889792782051  0.9793066254959477  0.2701102639690630   T   T   T
  0.0002463514409146  0.7712026511506130  0.2837585614960046   T   T   T
  0.4996359071808810  0.1044876972064626  0.2772066947621849   T   T   T
  0.7498253147199485  0.1457644571990208  0.2818037960974314   T   T   T
  0.7498038970569113  0.2279165036677321  0.2946211713951273   T   T   T
  0.4998729929539159  0.0211927549335453  0.2711245615042875   T   T   T
  0.5005573074378551  0.3497749377324021  0.3234110183468871   T   T   T
  0.7498502945387193  0.3936331054419352  0.3303661690559943   T   T   T
  0.7499347445131792  0.4798824517897491  0.3341912424641015   T   T   T
  0.5015906616909694  0.2689032390797676  0.3034346069265997   T   T   T
  0.5032502263877674  0.6074613126364810  0.3163351552959648   T   T   T
  0.7499249736777213  0.7302554855811817  0.2891296497472354   T   T   T
  0.4997079125758085  0.8539828962614151  0.2745172980401860   T   T   T
  0.7499036637096350  0.8956861819120376  0.2715083499615565   T   T   T
  0.7498841535056533  0.9793105814656370  0.2699075385536273   T   T   T
  0.4995744160591315  0.7712010543095102  0.2837560101186034   T   T   T
  0.7499690190422843  0.6489565525865162  0.3044952849599307   T   T   T
  0.2499305525848879  0.6485310363695360  0.3086951506393132   T   T   T
 -0.0001102849161099  0.0211890225301323  0.2711299152273776   T   T   T
  0.5106284191296291  0.5279967022419270  0.3363272093414799   T   T   T
  0.9892511910822436  0.5280081873533131  0.3364627599461362   T   T   T
  0.2498380097367052  0.3848734288523022  0.3382435472874555   T   T   T
  0.2503652518959111  0.4744811945070159  0.4155775898434613   T   T   T
 
  0.00000000E+00  0.00000000E+00  0.00000000E+00
  0.00000000E+00  0.00000000E+00  0.00000000E+00
  0.00000000E+00  0.00000000E+00  0.00000000E+00
  0.00000000E+00  0.00000000E+00  0.00000000E+00
  0.00000000E+00  0.00000000E+00  0.00000000E+00
  0.00000000E+00  0.00000000E+00  0.00000000E+00
  0.00000000E+00  0.00000000E+00  0.00000000E+00
  0.00000000E+00  0.00000000E+00  0.00000000E+00
  0.00000000E+00  0.00000000E+00  0.00000000E+00
  0.00000000E+00  0.00000000E+00  0.00000000E+00
  0.00000000E+00  0.00000000E+00  0.00000000E+00
  0.00000000E+00  0.00000000E+00  0.00000000E+00
  0.00000000E+00  0.00000000E+00  0.00000000E+00
  0.00000000E+00  0.00000000E+00  0.00000000E+00
  0.00000000E+00  0.00000000E+00  0.00000000E+00
  0.00000000E+00  0.00000000E+00  0.00000000E+00
  0.00000000E+00  0.00000000E+00  0.00000000E+00
  0.00000000E+00  0.00000000E+00  0.00000000E+00
  0.00000000E+00  0.00000000E+00  0.00000000E+00
  0.00000000E+00  0.00000000E+00  0.00000000E+00
  0.00000000E+00  0.00000000E+00  0.00000000E+00
  0.00000000E+00  0.00000000E+00  0.00000000E+00
  0.00000000E+00  0.00000000E+00  0.00000000E+00
  0.00000000E+00  0.00000000E+00  0.00000000E+00
  0.00000000E+00  0.00000000E+00  0.00000000E+00
  0.00000000E+00  0.00000000E+00  0.00000000E+00
  0.00000000E+00  0.00000000E+00  0.00000000E+00
  0.00000000E+00  0.00000000E+00  0.00000000E+00
  0.00000000E+00  0.00000000E+00  0.00000000E+00
  0.00000000E+00  0.00000000E+00  0.00000000E+00
  0.00000000E+00  0.00000000E+00  0.00000000E+00
  0.00000000E+00  0.00000000E+00  0.00000000E+00
