Title                                   
   1.00000000000000     
     9.8694509999999998    0.0000000000000000    0.0000000000000000
     0.0000000000000000    8.5490480000000009    0.0000000000000000
     0.0000000000000000    0.0000000000000000   20.0000000000000000
    25     6     1
Selective dynamics
Direct
  0.0559176773746444  0.0915562498942624  0.0884018981777909   T   T   T
  0.9310844611886636  0.1748818112682332  0.0891336228888459   T   T   T
  0.0571235575079490  0.9234628571361755  0.0881897286175130   T   T   T
  0.9299951734963841  0.3419189867964879  0.0914191696775653   T   T   T
  0.0566279882536520  0.5916131071803494  0.0892814422783293   T   T   T
  0.0560011337399670  0.4240514990615395  0.0905896351546190   T   T   T
  0.9329715407075162  0.8399002412212188  0.0895028106083669   T   T   T
  0.3063665468243450  0.0887220267357382  0.0902317841311824   T   T   T
  0.1823372109664043  0.1739893159418156  0.0898322971068169   T   T   T
  0.1827813248140751  0.3411649108501962  0.0914489412339562   T   T   T
  0.3055964015547826  0.5919899145269133  0.0968556351550540   T   T   T
  0.1802743351459550  0.6746249856386055  0.0899835020134241   T   T   T
  0.3104022756122626  0.4232413485038687  0.0957954659893740   T   T   T
  0.1818604329662705  0.8419513629721336  0.0891526624083025   T   T   T
  0.5562534195107587  0.0848624155525676  0.0936519982863666   T   T   T
  0.5550034115813357  0.9173000538174512  0.0970635525046990   T   T   T
  0.4338004767844175  0.3332367308952334  0.0977372475031337   T   T   T
  0.4267394450212977  0.8368276727785123  0.0976325237817224   T   T   T
  0.8063565078442239  0.0888289109999164  0.0889658289789609   T   T   T
  0.6798306392717349  0.1694634001557896  0.0915364800473196   T   T   T
  0.8080204520290172  0.9226264912104152  0.0902688572574030   T   T   T
  0.6783368736429813  0.3369060966783711  0.0974151952526267   T   T   T
  0.8081444551559127  0.5952036290078101  0.0979532326832997   T   T   T
  0.8027736129157244  0.4259650569982635  0.0963551076759449   T   T   T
  0.6844868222544425  0.8378491462424811  0.0976782182883307   T   T   T
  0.4192972348977644  0.6822564802436775  0.1065345652055947   T   T   T
  0.5538438531056479  0.4049435425089838  0.1066605691221848   T   T   T
  0.6944018304318996  0.6793412334353661  0.1080235980890829   T   T   T
  0.3051625084898757  0.9253068206837559  0.0901450204441816   T   T   T
  0.4301906274910495  0.1663619132013499  0.0925900159824935   T   T   T
  0.9326556820833016  0.6730500051694100  0.0902447884542262   T   T   T
  0.5550010873357505  0.5868477826931090  0.1753996050013047   T   T   T
 
  0.00000000E+00  0.00000000E+00  0.00000000E+00
  0.00000000E+00  0.00000000E+00  0.00000000E+00
  0.00000000E+00  0.00000000E+00  0.00000000E+00
  0.00000000E+00  0.00000000E+00  0.00000000E+00
  0.00000000E+00  0.00000000E+00  0.00000000E+00
  0.00000000E+00  0.00000000E+00  0.00000000E+00
  0.00000000E+00  0.00000000E+00  0.00000000E+00
  0.00000000E+00  0.00000000E+00  0.00000000E+00
  0.00000000E+00  0.00000000E+00  0.00000000E+00
  0.00000000E+00  0.00000000E+00  0.00000000E+00
  0.00000000E+00  0.00000000E+00  0.00000000E+00
  0.00000000E+00  0.00000000E+00  0.00000000E+00
  0.00000000E+00  0.00000000E+00  0.00000000E+00
  0.00000000E+00  0.00000000E+00  0.00000000E+00
  0.00000000E+00  0.00000000E+00  0.00000000E+00
  0.00000000E+00  0.00000000E+00  0.00000000E+00
  0.00000000E+00  0.00000000E+00  0.00000000E+00
  0.00000000E+00  0.00000000E+00  0.00000000E+00
  0.00000000E+00  0.00000000E+00  0.00000000E+00
  0.00000000E+00  0.00000000E+00  0.00000000E+00
  0.00000000E+00  0.00000000E+00  0.00000000E+00
  0.00000000E+00  0.00000000E+00  0.00000000E+00
  0.00000000E+00  0.00000000E+00  0.00000000E+00
  0.00000000E+00  0.00000000E+00  0.00000000E+00
  0.00000000E+00  0.00000000E+00  0.00000000E+00
  0.00000000E+00  0.00000000E+00  0.00000000E+00
  0.00000000E+00  0.00000000E+00  0.00000000E+00
  0.00000000E+00  0.00000000E+00  0.00000000E+00
  0.00000000E+00  0.00000000E+00  0.00000000E+00
  0.00000000E+00  0.00000000E+00  0.00000000E+00
  0.00000000E+00  0.00000000E+00  0.00000000E+00
  0.00000000E+00  0.00000000E+00  0.00000000E+00
