Title                                   
   1.00000000000000     
     4.9440799999999996    0.0000000000000000    0.0000000000000000
     0.0000000000000000   17.1295089999999988    0.0000000000000000
     0.0000000000000000    0.0000000000000000   20.0000000000000000
    29     1     1
Selective dynamics
Direct
 -0.0074231406051518  0.1055028012876655  0.2933293011603342   T   T   T
  0.2412969401724754  0.1477277304687862  0.2947405925831676   T   T   T
  0.2379272732768363  0.2313366172833864  0.2988326948555702   T   T   T
 -0.0142567500232915  0.2725985119485232  0.3015581130475520   T   T   T
  0.0139960708535822  0.6018205278757199  0.2997114335358973   T   T   T
  0.2576176281007013  0.7277597047388902  0.2950598442213659   T   T   T
  0.0025821169446451  0.8536388253925891  0.2921140586190968   T   T   T
  0.2514354653252666  0.8956911336934987  0.2920499460146322   T   T   T
  0.2474965547282102  0.9794886052727056  0.2920119367938740   T   T   T
  0.0062693754215029  0.7697593145904528  0.2931936143187742   T   T   T
  0.4924086132194607  0.1054394632626273  0.2931072918634200   T   T   T
  0.7412676755481550  0.1473781709486374  0.2938180546531822   T   T   T
  0.7362981381158564  0.2312191383872640  0.2970286205346708   T   T   T
  0.4962574271713497  0.0215902722620405  0.2920919025286912   T   T   T
  0.7497659219405307  0.3931974894873356  0.3073436047256960   T   T   T
  0.7649877600433180  0.4786885284634494  0.3095824903567916   T   T   T
  0.4855176363514004  0.2741543957830188  0.2997477119932030   T   T   T
  0.5115845293124761  0.6020183032494234  0.3041780431837062   T   T   T
  0.7576892448156390  0.7276737588397405  0.2943820203656610   T   T   T
  0.5027990264526220  0.8536075068698823  0.2923800503763089   T   T   T
  0.7515156441140221  0.8956875875325216  0.2919051819794881   T   T   T
  0.7476367246895493  0.9796142296328926  0.2918580795210360   T   T   T
  0.5066893187730417  0.7697935202124755  0.2938460132551375   T   T   T
  0.7612463177242421  0.6436843964272891  0.2980645581493784   T   T   T
  0.2613632327236882  0.6443678989830650  0.2996045341451014   T   T   T
 -0.0035678178715363  0.0216427284896697  0.2921528102863048   T   T   T
  0.5167214631152723  0.5202426487428768  0.3177140470086802   T   T   T
  0.0116043077790385  0.5183086826736033  0.3034209292774477   T   T   T
  0.4968819105762046  0.3574682818944974  0.3047793916235595   T   T   T
 -0.0159499496399849  0.3519491642951592  0.3097952804068512   T   T   T
  0.2503483408508811  0.4382920610103097  0.3456578486153707   T   T   T
 
  0.00000000E+00  0.00000000E+00  0.00000000E+00
  0.00000000E+00  0.00000000E+00  0.00000000E+00
  0.00000000E+00  0.00000000E+00  0.00000000E+00
  0.00000000E+00  0.00000000E+00  0.00000000E+00
  0.00000000E+00  0.00000000E+00  0.00000000E+00
  0.00000000E+00  0.00000000E+00  0.00000000E+00
  0.00000000E+00  0.00000000E+00  0.00000000E+00
  0.00000000E+00  0.00000000E+00  0.00000000E+00
  0.00000000E+00  0.00000000E+00  0.00000000E+00
  0.00000000E+00  0.00000000E+00  0.00000000E+00
  0.00000000E+00  0.00000000E+00  0.00000000E+00
  0.00000000E+00  0.00000000E+00  0.00000000E+00
  0.00000000E+00  0.00000000E+00  0.00000000E+00
  0.00000000E+00  0.00000000E+00  0.00000000E+00
  0.00000000E+00  0.00000000E+00  0.00000000E+00
  0.00000000E+00  0.00000000E+00  0.00000000E+00
  0.00000000E+00  0.00000000E+00  0.00000000E+00
  0.00000000E+00  0.00000000E+00  0.00000000E+00
  0.00000000E+00  0.00000000E+00  0.00000000E+00
  0.00000000E+00  0.00000000E+00  0.00000000E+00
  0.00000000E+00  0.00000000E+00  0.00000000E+00
  0.00000000E+00  0.00000000E+00  0.00000000E+00
  0.00000000E+00  0.00000000E+00  0.00000000E+00
  0.00000000E+00  0.00000000E+00  0.00000000E+00
  0.00000000E+00  0.00000000E+00  0.00000000E+00
  0.00000000E+00  0.00000000E+00  0.00000000E+00
  0.00000000E+00  0.00000000E+00  0.00000000E+00
  0.00000000E+00  0.00000000E+00  0.00000000E+00
  0.00000000E+00  0.00000000E+00  0.00000000E+00
  0.00000000E+00  0.00000000E+00  0.00000000E+00
  0.00000000E+00  0.00000000E+00  0.00000000E+00
