Title                                   
   1.00000000000000     
     9.8694509999999998    0.0000000000000000    0.0000000000000000
     0.0000000000000000    8.5490480000000009    0.0000000000000000
     0.0000000000000000    0.0000000000000000   20.0000000000000000
    28     2     1
Selective dynamics
Direct
  0.0559654292224878  0.0891673603618638  0.0866997124448034   T   T   T
  0.9307422821677773  0.1728387869127311  0.0880804653197875   T   T   T
  0.0565015644064386  0.9231421399886491  0.0867091886600198   T   T   T
  0.9328864987518568  0.3399374592678853  0.0873375053851769   T   T   T
  0.0560631164531344  0.5893600830776354  0.0849377339031145   T   T   T
  0.9329910699441977  0.6746742548284271  0.0878158589799213   T   T   T
  0.0563882155172097  0.4229665908390695  0.0849371408495841   T   T   T
  0.9321798862009972  0.8411518756591508  0.0886665911129465   T   T   T
  0.3060668968686342  0.0898612493556938  0.0938128955298816   T   T   T
  0.1802706024655907  0.1711914618394426  0.0887594110765430   T   T   T
  0.3067313156516437  0.9219734342418240  0.0932158887015380   T   T   T
  0.1794736085493028  0.3376702669685473  0.0879456913059720   T   T   T
  0.3025109964992403  0.5883963782234541  0.0941558189736243   T   T   T
  0.1795550713437449  0.6723731018290973  0.0875040148789419   T   T   T
  0.3018441579460826  0.4184657461621399  0.0949504384147464   T   T   T
  0.1817101097113062  0.8394721052388960  0.0882232669027970   T   T   T
  0.5559879461045255  0.0908285476242182  0.1026629122578250   T   T   T
  0.4285914733767114  0.1767734971469372  0.1009860601392984   T   T   T
  0.5564706721648613  0.9214724907471235  0.1026811300887057   T   T   T
  0.4247300615692121  0.6701176485407611  0.1025853956117463   T   T   T
  0.4302838954064196  0.8353985979669863  0.0999349660000205   T   T   T
  0.8057100983482371  0.0903273708185226  0.0930322200334540   T   T   T
  0.6821626030690606  0.1769101792758933  0.0997194672646096   T   T   T
  0.8063907090075252  0.9224579678851302  0.0936570932209860   T   T   T
  0.6877030548885020  0.3421936630204718  0.1022346499696794   T   T   T
  0.8106200896429427  0.5938369870355052  0.0947064449356717   T   T   T
  0.8099257346038655  0.4239061954271462  0.0938483241033372   T   T   T
  0.6838593259688508  0.8355403198869888  0.1008545542025455   T   T   T
  0.4222222864736659  0.3396624472322927  0.1040075383399998   T   T   T
  0.6902830471141075  0.6726556101870981  0.1037993729222332   T   T   T
  0.5563131805618783  0.5061511824104317  0.1225032484705307   T   T   T
 
  0.00000000E+00  0.00000000E+00  0.00000000E+00
  0.00000000E+00  0.00000000E+00  0.00000000E+00
  0.00000000E+00  0.00000000E+00  0.00000000E+00
  0.00000000E+00  0.00000000E+00  0.00000000E+00
  0.00000000E+00  0.00000000E+00  0.00000000E+00
  0.00000000E+00  0.00000000E+00  0.00000000E+00
  0.00000000E+00  0.00000000E+00  0.00000000E+00
  0.00000000E+00  0.00000000E+00  0.00000000E+00
  0.00000000E+00  0.00000000E+00  0.00000000E+00
  0.00000000E+00  0.00000000E+00  0.00000000E+00
  0.00000000E+00  0.00000000E+00  0.00000000E+00
  0.00000000E+00  0.00000000E+00  0.00000000E+00
  0.00000000E+00  0.00000000E+00  0.00000000E+00
  0.00000000E+00  0.00000000E+00  0.00000000E+00
  0.00000000E+00  0.00000000E+00  0.00000000E+00
  0.00000000E+00  0.00000000E+00  0.00000000E+00
  0.00000000E+00  0.00000000E+00  0.00000000E+00
  0.00000000E+00  0.00000000E+00  0.00000000E+00
  0.00000000E+00  0.00000000E+00  0.00000000E+00
  0.00000000E+00  0.00000000E+00  0.00000000E+00
  0.00000000E+00  0.00000000E+00  0.00000000E+00
  0.00000000E+00  0.00000000E+00  0.00000000E+00
  0.00000000E+00  0.00000000E+00  0.00000000E+00
  0.00000000E+00  0.00000000E+00  0.00000000E+00
  0.00000000E+00  0.00000000E+00  0.00000000E+00
  0.00000000E+00  0.00000000E+00  0.00000000E+00
  0.00000000E+00  0.00000000E+00  0.00000000E+00
  0.00000000E+00  0.00000000E+00  0.00000000E+00
  0.00000000E+00  0.00000000E+00  0.00000000E+00
  0.00000000E+00  0.00000000E+00  0.00000000E+00
  0.00000000E+00  0.00000000E+00  0.00000000E+00
