Title                                   
   1.00000000000000     
     4.9440799999999996    0.0000000000000000    0.0000000000000000
     0.0000000000000000   17.1295089999999988    0.0000000000000000
     0.0000000000000000    0.0000000000000000   20.0000000000000000
    27     3     1
Selective dynamics
Direct
  0.0013531595695275  0.1055680848354227  0.2941426502177114   T   T   T
  0.2503765787547123  0.1482019891991870  0.2954948305953313   T   T   T
  0.2503476963496694  0.2327026339133603  0.2989970247481474   T   T   T
 -0.0021845774705676  0.2737798937633098  0.3004019488278520   T   T   T
  0.0002068670251960  0.6018778671568924  0.3002564737465875   T   T   T
  0.2501232947557491  0.7271162861246543  0.2954725443313275   T   T   T
  0.0015655027795475  0.8533297276769046  0.2931523387004130   T   T   T
  0.2503697027193810  0.8955475965109805  0.2930950240181189   T   T   T
  0.2504300770909544  0.9795169662048111  0.2930895525688105   T   T   T
  0.0015645432438092  0.7692175471470269  0.2940100116597015   T   T   T
  0.4994613285385238  0.1055953199965025  0.2941142024256676   T   T   T
  0.7504284141221677  0.1472498279759042  0.2945371822388779   T   T   T
  0.7504293964634525  0.2306904861659715  0.2970317204108446   T   T   T
  0.4999061852055926  0.0215779157875929  0.2931695203325692   T   T   T
  0.7503232242746645  0.3929266377342142  0.3062237266804740   T   T   T
  0.7501240784808650  0.4790688195712399  0.3069446031567551   T   T   T
  0.5029706933638375  0.2737648138458723  0.3002136213761939   T   T   T
  0.4998007870639323  0.6018798647623133  0.2999870231677786   T   T   T
  0.7501561004324891  0.7278560395591551  0.2939638434553775   T   T   T
  0.4990720896590689  0.8533117711822722  0.2931264403400055   T   T   T
  0.7503377346103850  0.8952257795709442  0.2928159183809498   T   T   T
  0.7503914867701030  0.9793492443383865  0.2928596415901006   T   T   T
  0.4988128036950994  0.7692025722297706  0.2939788362165553   T   T   T
  0.7500588551416901  0.6451001530939620  0.2960737093186231   T   T   T
  0.0009106899085679  0.0215460358200139  0.2931861929117098   T   T   T
  0.4997174471531916  0.5205457671822930  0.3071489665727610   T   T   T
  0.0004770707846726  0.5206112701924934  0.3080217225516602   T   T   T
  0.5096658076831895  0.3539080762027211  0.3056781194319636   T   T   T
 -0.0088222985960309  0.3539229772524904  0.3062750492080768   T   T   T
  0.2500415095554667  0.6447402316956646  0.2988311552092618   T   T   T
  0.2515907508710946  0.4364098033076690  0.3527664056097441   T   T   T
 
  0.00000000E+00  0.00000000E+00  0.00000000E+00
  0.00000000E+00  0.00000000E+00  0.00000000E+00
  0.00000000E+00  0.00000000E+00  0.00000000E+00
  0.00000000E+00  0.00000000E+00  0.00000000E+00
  0.00000000E+00  0.00000000E+00  0.00000000E+00
  0.00000000E+00  0.00000000E+00  0.00000000E+00
  0.00000000E+00  0.00000000E+00  0.00000000E+00
  0.00000000E+00  0.00000000E+00  0.00000000E+00
  0.00000000E+00  0.00000000E+00  0.00000000E+00
  0.00000000E+00  0.00000000E+00  0.00000000E+00
  0.00000000E+00  0.00000000E+00  0.00000000E+00
  0.00000000E+00  0.00000000E+00  0.00000000E+00
  0.00000000E+00  0.00000000E+00  0.00000000E+00
  0.00000000E+00  0.00000000E+00  0.00000000E+00
  0.00000000E+00  0.00000000E+00  0.00000000E+00
  0.00000000E+00  0.00000000E+00  0.00000000E+00
  0.00000000E+00  0.00000000E+00  0.00000000E+00
  0.00000000E+00  0.00000000E+00  0.00000000E+00
  0.00000000E+00  0.00000000E+00  0.00000000E+00
  0.00000000E+00  0.00000000E+00  0.00000000E+00
  0.00000000E+00  0.00000000E+00  0.00000000E+00
  0.00000000E+00  0.00000000E+00  0.00000000E+00
  0.00000000E+00  0.00000000E+00  0.00000000E+00
  0.00000000E+00  0.00000000E+00  0.00000000E+00
  0.00000000E+00  0.00000000E+00  0.00000000E+00
  0.00000000E+00  0.00000000E+00  0.00000000E+00
  0.00000000E+00  0.00000000E+00  0.00000000E+00
  0.00000000E+00  0.00000000E+00  0.00000000E+00
  0.00000000E+00  0.00000000E+00  0.00000000E+00
  0.00000000E+00  0.00000000E+00  0.00000000E+00
  0.00000000E+00  0.00000000E+00  0.00000000E+00
