Title                                   
   1.00000000000000     
     8.5490480000000009    0.0000000000000000    0.0000000000000000
     0.0000000000000000    8.5490480000000009    0.0000000000000000
     0.0000000000000000    0.0000000000000000   20.0000000000000000
    22     2     1
Selective dynamics
Direct
  0.9103814887681472  0.2070329776841095  0.0978398515349555   T   T   T
  0.9059524162909148  0.5036887650923353  0.0978981553849955   T   T   T
  0.9128208662974900  0.8030821776596238  0.0977961747453043   T   T   T
  0.1991299089635841  0.0816570733880765  0.0980796599810354   T   T   T
  0.0737916332932712  0.2049100043505749  0.0980076608466608   T   T   T
  0.1566822114292245  0.6499544191603368  0.0979055608239894   T   T   T
  0.0750765317609462  0.5026494675279856  0.0979106171539011   T   T   T
  0.1568432653772031  0.3556403571838990  0.0980277203613266   T   T   T
  0.0778549939581817  0.7992434073338401  0.0979082127654020   T   T   T
  0.4936950329195599  0.0823505527710089  0.0979702619803933   T   T   T
  0.3460195130402408  0.1631844381464493  0.0980820846805754   T   T   T
  0.4928404971255932  0.9144245915777793  0.0979783725212680   T   T   T
  0.3463603906639640  0.8337225219910923  0.0980461571597121   T   T   T
  0.7878251478823056  0.0844780674101355  0.0977498274507476   T   T   T
  0.6388755347039085  0.1642689559210850  0.0978551580286459   T   T   T
  0.7906495358284952  0.9211997562157180  0.0977733819895836   T   T   T
  0.8293725721788345  0.6537286682737666  0.0979044233943857   T   T   T
  0.8258801492041696  0.3568382445709301  0.0978721100453129   T   T   T
  0.6425497486639783  0.8354603803749702  0.0979356885619253   T   T   T
  0.3231261655899229  0.3319520422723187  0.0980476482834410   T   T   T
  0.3214728352658048  0.6702167130124037  0.0979846077608495   T   T   T
  0.6596365490793190  0.3312155020325341  0.0979057882949071   T   T   T
  0.6690104018575054  0.6772968135907685  0.0980749251007036   T   T   T
  0.1986683385407329  0.9186289222215166  0.0981053291673108   T   T   T
  0.4908962713166949  0.4979651802367541  0.0980456219826503   T   T   T
 
  0.00000000E+00  0.00000000E+00  0.00000000E+00
  0.00000000E+00  0.00000000E+00  0.00000000E+00
  0.00000000E+00  0.00000000E+00  0.00000000E+00
  0.00000000E+00  0.00000000E+00  0.00000000E+00
  0.00000000E+00  0.00000000E+00  0.00000000E+00
  0.00000000E+00  0.00000000E+00  0.00000000E+00
  0.00000000E+00  0.00000000E+00  0.00000000E+00
  0.00000000E+00  0.00000000E+00  0.00000000E+00
  0.00000000E+00  0.00000000E+00  0.00000000E+00
  0.00000000E+00  0.00000000E+00  0.00000000E+00
  0.00000000E+00  0.00000000E+00  0.00000000E+00
  0.00000000E+00  0.00000000E+00  0.00000000E+00
  0.00000000E+00  0.00000000E+00  0.00000000E+00
  0.00000000E+00  0.00000000E+00  0.00000000E+00
  0.00000000E+00  0.00000000E+00  0.00000000E+00
  0.00000000E+00  0.00000000E+00  0.00000000E+00
  0.00000000E+00  0.00000000E+00  0.00000000E+00
  0.00000000E+00  0.00000000E+00  0.00000000E+00
  0.00000000E+00  0.00000000E+00  0.00000000E+00
  0.00000000E+00  0.00000000E+00  0.00000000E+00
  0.00000000E+00  0.00000000E+00  0.00000000E+00
  0.00000000E+00  0.00000000E+00  0.00000000E+00
  0.00000000E+00  0.00000000E+00  0.00000000E+00
  0.00000000E+00  0.00000000E+00  0.00000000E+00
  0.00000000E+00  0.00000000E+00  0.00000000E+00
