Title                                   
   1.00000000000000     
     9.8694509999999998    0.0000000000000000    0.0000000000000000
     0.0000000000000000    8.5490480000000009    0.0000000000000000
     0.0000000000000000    0.0000000000000000   20.0000000000000000
    28     3     1
Selective dynamics
Direct
  0.0562873586454401  0.0905870719735672  0.0867366045299748   T   T   T
  0.9305548826108899  0.1730587841850718  0.0891110938578036   T   T   T
  0.0557121722573661  0.9224610457924124  0.0851374510973441   T   T   T
  0.9312745510725075  0.3391149601701015  0.0934622787872117   T   T   T
  0.0558720115777832  0.5895310614211507  0.0896281937921292   T   T   T
  0.9306417558340915  0.6703303404458069  0.0897665304958415   T   T   T
  0.0566072050227657  0.4221715748151686  0.0928937173160138   T   T   T
  0.9299988497649674  0.8377814509517348  0.0871095454670058   T   T   T
  0.3053856253497991  0.0899844724561940  0.0870665532430117   T   T   T
  0.1819738956721977  0.1743619915375001  0.0888830657762843   T   T   T
  0.3058893109395417  0.9248885985813464  0.0865155892795977   T   T   T
  0.1822432768954481  0.3403557340866073  0.0934702608512762   T   T   T
  0.3069713267972291  0.5901897521878406  0.0980067800038541   T   T   T
  0.1808446446345375  0.6712603875471705  0.0890348628540077   T   T   T
  0.1814125152502758  0.8388494500731228  0.0860383954352973   T   T   T
  0.5562828761905309  0.0890684894116335  0.0923257043243034   T   T   T
  0.4311160133670839  0.1717631897260654  0.0916620112010720   T   T   T
  0.4327705289038123  0.3373103342990589  0.1007933575433334   T   T   T
  0.4297833500518281  0.8420836485677839  0.0950047617149937   T   T   T
  0.8070645746364037  0.0876256595778360  0.0878609144973854   T   T   T
  0.6821835882355471  0.1699982820443581  0.0918176507953530   T   T   T
  0.8051962728848616  0.9223054717863232  0.0880898059034734   T   T   T
  0.6816269144565618  0.3348492426032812  0.1007421416855709   T   T   T
  0.8051125121662477  0.5874066584455585  0.0987893324800126   T   T   T
  0.6799375452136752  0.8399702727960997  0.0962099419613636   T   T   T
  0.4235829556746759  0.6822737157736415  0.1083298093386569   T   T   T
  0.5585225651985748  0.4080389201497063  0.1143060577549207   T   T   T
  0.6871832606376796  0.6779867175837686  0.1097864006912198   T   T   T
  0.5556177000785270  0.9233163178652323  0.0940868798870490   T   T   T
  0.3077533610004879  0.4228754242717677  0.0987162795932448   T   T   T
  0.8061670843163100  0.4209760191614259  0.0986928012966460   T   T   T
  0.5580685146623594  0.5974709597116664  0.1756002265447640   T   T   T
 
  0.00000000E+00  0.00000000E+00  0.00000000E+00
  0.00000000E+00  0.00000000E+00  0.00000000E+00
  0.00000000E+00  0.00000000E+00  0.00000000E+00
  0.00000000E+00  0.00000000E+00  0.00000000E+00
  0.00000000E+00  0.00000000E+00  0.00000000E+00
  0.00000000E+00  0.00000000E+00  0.00000000E+00
  0.00000000E+00  0.00000000E+00  0.00000000E+00
  0.00000000E+00  0.00000000E+00  0.00000000E+00
  0.00000000E+00  0.00000000E+00  0.00000000E+00
  0.00000000E+00  0.00000000E+00  0.00000000E+00
  0.00000000E+00  0.00000000E+00  0.00000000E+00
  0.00000000E+00  0.00000000E+00  0.00000000E+00
  0.00000000E+00  0.00000000E+00  0.00000000E+00
  0.00000000E+00  0.00000000E+00  0.00000000E+00
  0.00000000E+00  0.00000000E+00  0.00000000E+00
  0.00000000E+00  0.00000000E+00  0.00000000E+00
  0.00000000E+00  0.00000000E+00  0.00000000E+00
  0.00000000E+00  0.00000000E+00  0.00000000E+00
  0.00000000E+00  0.00000000E+00  0.00000000E+00
  0.00000000E+00  0.00000000E+00  0.00000000E+00
  0.00000000E+00  0.00000000E+00  0.00000000E+00
  0.00000000E+00  0.00000000E+00  0.00000000E+00
  0.00000000E+00  0.00000000E+00  0.00000000E+00
  0.00000000E+00  0.00000000E+00  0.00000000E+00
  0.00000000E+00  0.00000000E+00  0.00000000E+00
  0.00000000E+00  0.00000000E+00  0.00000000E+00
  0.00000000E+00  0.00000000E+00  0.00000000E+00
  0.00000000E+00  0.00000000E+00  0.00000000E+00
  0.00000000E+00  0.00000000E+00  0.00000000E+00
  0.00000000E+00  0.00000000E+00  0.00000000E+00
  0.00000000E+00  0.00000000E+00  0.00000000E+00
  0.00000000E+00  0.00000000E+00  0.00000000E+00
