Title                                   
   1.00000000000000     
     4.9440799999999996    0.0000000000000000    0.0000000000000000
     0.0000000000000000   17.1295089999999988    0.0000000000000000
     0.0000000000000000    0.0000000000000000   20.0000000000000000
    28     2     1
Selective dynamics
Direct
 -0.0024781171959928  0.1059113375278904  0.2978636929326698   T   T   T
  0.2460974296281163  0.1488354609302050  0.2982065337430391   T   T   T
  0.2447626428637930  0.2328221498950030  0.2995624312266708   T   T   T
 -0.0058324203969909  0.2760515189804608  0.3016349233424950   T   T   T
  0.0055036391078714  0.6006347513610087  0.2987907452893011   T   T   T
  0.2545899881107019  0.7260893612728695  0.2985548799393552   T   T   T
  0.0016447846351596  0.8528771390251189  0.2972752259957266   T   T   T
  0.2511133705987663  0.8954231488781237  0.2972977830198347   T   T   T
  0.2496877966979562  0.9795002182449393  0.2972173299617070   T   T   T
  0.0031634051184579  0.7685735691328862  0.2976513774895821   T   T   T
  0.4975623045480120  0.1063487122492969  0.2973240686135511   T   T   T
  0.7479723624626903  0.1482547254516215  0.2976364162819661   T   T   T
  0.7458660586468900  0.2325673339158864  0.2984132626086967   T   T   T
  0.4991144713206752  0.0220601465955796  0.2971078532311038   T   T   T
  0.7469831483829644  0.3943065354377879  0.3018461435166984   T   T   T
  0.7533057873280353  0.4806002048850456  0.3021670161604257   T   T   T
  0.4950760409250542  0.2742990755660825  0.2978630465055213   T   T   T
  0.5064032445476074  0.5988950280145502  0.3019035407901481   T   T   T
  0.7527066236179327  0.7266696171529866  0.2980111677773979   T   T   T
  0.5016302635239291  0.8530914981839707  0.2974480749892493   T   T   T
  0.7511988157275320  0.8952986184197715  0.2971486672174895   T   T   T
  0.7495179480538368  0.9796272967709178  0.2970625575489411   T   T   T
  0.5031921215886324  0.7690048911884676  0.2980868289276878   T   T   T
  0.7547476896446452  0.6423643996192903  0.2989556807688895   T   T   T
  0.2558424519190655  0.6421134582585863  0.3000348707678676   T   T   T
 -0.0008715261304365  0.0218234611257391  0.2973357299136981   T   T   T
 -0.0009799619664308  0.5177446115421840  0.2987277660862441   T   T   T
  0.5014430905714237  0.3571797899287764  0.2972864798855376   T   T   T
  0.5103546216470652  0.5177832763014087  0.3065147365035334   T   T   T
 -0.0099895278068756  0.3571343955544410  0.3068371917006649   T   T   T
  0.2506784522799153  0.4374562685890984  0.3132939772642579   T   T   T
 
  0.00000000E+00  0.00000000E+00  0.00000000E+00
  0.00000000E+00  0.00000000E+00  0.00000000E+00
  0.00000000E+00  0.00000000E+00  0.00000000E+00
  0.00000000E+00  0.00000000E+00  0.00000000E+00
  0.00000000E+00  0.00000000E+00  0.00000000E+00
  0.00000000E+00  0.00000000E+00  0.00000000E+00
  0.00000000E+00  0.00000000E+00  0.00000000E+00
  0.00000000E+00  0.00000000E+00  0.00000000E+00
  0.00000000E+00  0.00000000E+00  0.00000000E+00
  0.00000000E+00  0.00000000E+00  0.00000000E+00
  0.00000000E+00  0.00000000E+00  0.00000000E+00
  0.00000000E+00  0.00000000E+00  0.00000000E+00
  0.00000000E+00  0.00000000E+00  0.00000000E+00
  0.00000000E+00  0.00000000E+00  0.00000000E+00
  0.00000000E+00  0.00000000E+00  0.00000000E+00
  0.00000000E+00  0.00000000E+00  0.00000000E+00
  0.00000000E+00  0.00000000E+00  0.00000000E+00
  0.00000000E+00  0.00000000E+00  0.00000000E+00
  0.00000000E+00  0.00000000E+00  0.00000000E+00
  0.00000000E+00  0.00000000E+00  0.00000000E+00
  0.00000000E+00  0.00000000E+00  0.00000000E+00
  0.00000000E+00  0.00000000E+00  0.00000000E+00
  0.00000000E+00  0.00000000E+00  0.00000000E+00
  0.00000000E+00  0.00000000E+00  0.00000000E+00
  0.00000000E+00  0.00000000E+00  0.00000000E+00
  0.00000000E+00  0.00000000E+00  0.00000000E+00
  0.00000000E+00  0.00000000E+00  0.00000000E+00
  0.00000000E+00  0.00000000E+00  0.00000000E+00
  0.00000000E+00  0.00000000E+00  0.00000000E+00
  0.00000000E+00  0.00000000E+00  0.00000000E+00
  0.00000000E+00  0.00000000E+00  0.00000000E+00
