Title                                   
   1.00000000000000     
     4.9440799999999996    0.0000000000000000    0.0000000000000000
     0.0000000000000000   17.1295089999999988    0.0000000000000000
     0.0000000000000000    0.0000000000000000   20.0000000000000000
    29     1     1
Selective dynamics
Direct
 -0.0034771110075212  0.1046151514765122  0.2910897326088983   T   T   T
  0.2449708367138594  0.1469778971275570  0.2945187917719670   T   T   T
  0.2430473869291086  0.2298757434825495  0.3027045122565298   T   T   T
 -0.0102765227864275  0.2710480349185567  0.3064585158464129   T   T   T
  0.0050471233830329  0.6038230652480538  0.3023628184980433   T   T   T
  0.2538530729184432  0.7286478915441049  0.2926334937434431   T   T   T
  0.0013304936303355  0.8542619301626563  0.2869091310099313   T   T   T
  0.2506719320977324  0.8961890998686820  0.2865043499875538   T   T   T
  0.2487916788904683  0.9794251011862787  0.2868617675764454   T   T   T
  0.0032477705182727  0.7709360815001259  0.2896536739343067   T   T   T
  0.4958083282594315  0.1048388380589717  0.2905824035027350   T   T   T
  0.7461034441134049  0.1460548803530352  0.2922473718069633   T   T   T
  0.7430494367304040  0.2292104280886194  0.2979927043325586   T   T   T
  0.4979448753496324  0.0214721733731573  0.2874279222172292   T   T   T
  0.7506113451823264  0.3909464194484166  0.3120426380412147   T   T   T
  0.7594681190686201  0.4791806476713273  0.3117020730083276   T   T   T
  0.4941283687962759  0.2717926048630844  0.3028540847737103   T   T   T
  0.5080306518467941  0.6039047238092972  0.3036406073915316   T   T   T
  0.7538820658544693  0.7295302981122412  0.2916948878008591   T   T   T
  0.5012017762141918  0.8542389250958573  0.2869905469732186   T   T   T
  0.7506943672419182  0.8960565782348043  0.2861305182848021   T   T   T
  0.7487370932262033  0.9796518866495835  0.2863943913754900   T   T   T
  0.5032775433427638  0.7709964289129222  0.2899050428449326   T   T   T
  0.7558197091061534  0.6463869345855376  0.2979547530528583   T   T   T
  0.2558309476060510  0.6461014510885356  0.2996272164619431   T   T   T
 -0.0016365291432682  0.0213038076268086  0.2876588343509329   T   T   T
  0.5143825706992475  0.5223173561480178  0.3136072247917107   T   T   T
  0.0027440481353308  0.5217894057106267  0.3096356122639748   T   T   T
  0.5027423825846762  0.3542721488275238  0.3071758873516483   T   T   T
 -0.0139858039330790  0.3500112965851523  0.3188120587537047   T   T   T
  0.2539655984311487  0.4354847702413996  0.3712864333860730   T   T   T
 
  0.00000000E+00  0.00000000E+00  0.00000000E+00
  0.00000000E+00  0.00000000E+00  0.00000000E+00
  0.00000000E+00  0.00000000E+00  0.00000000E+00
  0.00000000E+00  0.00000000E+00  0.00000000E+00
  0.00000000E+00  0.00000000E+00  0.00000000E+00
  0.00000000E+00  0.00000000E+00  0.00000000E+00
  0.00000000E+00  0.00000000E+00  0.00000000E+00
  0.00000000E+00  0.00000000E+00  0.00000000E+00
  0.00000000E+00  0.00000000E+00  0.00000000E+00
  0.00000000E+00  0.00000000E+00  0.00000000E+00
  0.00000000E+00  0.00000000E+00  0.00000000E+00
  0.00000000E+00  0.00000000E+00  0.00000000E+00
  0.00000000E+00  0.00000000E+00  0.00000000E+00
  0.00000000E+00  0.00000000E+00  0.00000000E+00
  0.00000000E+00  0.00000000E+00  0.00000000E+00
  0.00000000E+00  0.00000000E+00  0.00000000E+00
  0.00000000E+00  0.00000000E+00  0.00000000E+00
  0.00000000E+00  0.00000000E+00  0.00000000E+00
  0.00000000E+00  0.00000000E+00  0.00000000E+00
  0.00000000E+00  0.00000000E+00  0.00000000E+00
  0.00000000E+00  0.00000000E+00  0.00000000E+00
  0.00000000E+00  0.00000000E+00  0.00000000E+00
  0.00000000E+00  0.00000000E+00  0.00000000E+00
  0.00000000E+00  0.00000000E+00  0.00000000E+00
  0.00000000E+00  0.00000000E+00  0.00000000E+00
  0.00000000E+00  0.00000000E+00  0.00000000E+00
  0.00000000E+00  0.00000000E+00  0.00000000E+00
  0.00000000E+00  0.00000000E+00  0.00000000E+00
  0.00000000E+00  0.00000000E+00  0.00000000E+00
  0.00000000E+00  0.00000000E+00  0.00000000E+00
  0.00000000E+00  0.00000000E+00  0.00000000E+00
