Title                                   
   1.00000000000000     
     8.5490480000000009    0.0000000000000000    0.0000000000000000
     0.0000000000000000    8.5490480000000009    0.0000000000000000
     0.0000000000000000    0.0000000000000000   20.0000000000000000
    19     5     1
Selective dynamics
Direct
  0.9080908310243559  0.2050491291802032  0.0975987469331115   T   T   T
  0.9077988237591019  0.5024009573344420  0.0976513750190339   T   T   T
  0.9102041736407347  0.8013187274378866  0.0976010859229609   T   T   T
  0.1965878919210586  0.0835615922838167  0.0977120118296144   T   T   T
  0.0758253443254278  0.2022118477275814  0.0976339918787874   T   T   T
  0.1588056807074877  0.6513118649916637  0.0977095768812335   T   T   T
  0.0793748589104084  0.5011837441547679  0.0976524792959243   T   T   T
  0.1588924419212663  0.3514431239214441  0.0977616676601058   T   T   T
  0.0782639684583368  0.7986614264789624  0.0976381998639601   T   T   T
  0.4928680757037137  0.0878837755722614  0.0977740305664300   T   T   T
  0.3437979440448538  0.1655908476602482  0.0978503828125763   T   T   T
  0.4922534028811529  0.9163579697382253  0.0977013739759944   T   T   T
  0.3437606226148172  0.8358579155008674  0.0977613086408749   T   T   T
  0.7879870581764522  0.0861196844852021  0.0976286611379295   T   T   T
  0.6402649726274232  0.1683977903009254  0.0978213616923973   T   T   T
  0.7884615179120669  0.9194516041087046  0.0976155343688282   T   T   T
  0.8292694052188305  0.6516784978526090  0.0976955816158576   T   T   T
  0.8272231356717989  0.3535757422130995  0.0977453035116064   T   T   T
  0.6408113613049848  0.8357417126514928  0.0977107472487089   T   T   T
  0.3206185894939306  0.3278063050509026  0.0979955719510954   T   T   T
  0.3204983597091697  0.6767636125988802  0.0978555928304349   T   T   T
  0.6646716662965872  0.3307215135724081  0.0979723649557114   T   T   T
  0.6662899535742495  0.6738548104586635  0.0978504823379252   T   T   T
  0.1976110203749632  0.9164045705481960  0.0977348652679666   T   T   T
  0.4951808997268199  0.5014412341765455  0.0980327018009112   T   T   T
 
  0.00000000E+00  0.00000000E+00  0.00000000E+00
  0.00000000E+00  0.00000000E+00  0.00000000E+00
  0.00000000E+00  0.00000000E+00  0.00000000E+00
  0.00000000E+00  0.00000000E+00  0.00000000E+00
  0.00000000E+00  0.00000000E+00  0.00000000E+00
  0.00000000E+00  0.00000000E+00  0.00000000E+00
  0.00000000E+00  0.00000000E+00  0.00000000E+00
  0.00000000E+00  0.00000000E+00  0.00000000E+00
  0.00000000E+00  0.00000000E+00  0.00000000E+00
  0.00000000E+00  0.00000000E+00  0.00000000E+00
  0.00000000E+00  0.00000000E+00  0.00000000E+00
  0.00000000E+00  0.00000000E+00  0.00000000E+00
  0.00000000E+00  0.00000000E+00  0.00000000E+00
  0.00000000E+00  0.00000000E+00  0.00000000E+00
  0.00000000E+00  0.00000000E+00  0.00000000E+00
  0.00000000E+00  0.00000000E+00  0.00000000E+00
  0.00000000E+00  0.00000000E+00  0.00000000E+00
  0.00000000E+00  0.00000000E+00  0.00000000E+00
  0.00000000E+00  0.00000000E+00  0.00000000E+00
  0.00000000E+00  0.00000000E+00  0.00000000E+00
  0.00000000E+00  0.00000000E+00  0.00000000E+00
  0.00000000E+00  0.00000000E+00  0.00000000E+00
  0.00000000E+00  0.00000000E+00  0.00000000E+00
  0.00000000E+00  0.00000000E+00  0.00000000E+00
  0.00000000E+00  0.00000000E+00  0.00000000E+00
