Title                                   
   1.00000000000000     
     4.9440799999999996    0.0000000000000000    0.0000000000000000
     0.0000000000000000    8.5647549999999999    0.0000000000000000
     0.0000000000000000    0.0000000000000000   20.0000000000000000
    14     1     1
Selective dynamics
Direct
  0.2500000000000000  0.2061851762353756  0.0882979367399579   T   T   T
 -0.0028083642267460  0.2882678407169343  0.0917967220416021   T   T   T
  0.2500000000000000  0.0419888555348004  0.0838754448404511   T   T   T
  0.0010748016313450  0.7982827366252139  0.1007972854206683   T   T   T
 -0.0008658534337908  0.9587084396629096  0.0848721860576093   T   T   T
  0.7500000000000000  0.2057949913978119  0.0817264113970084   T   T   T
  0.5028083642267461  0.2882678407169343  0.0917967220416021   T   T   T
  0.7500000000000000  0.0406169254291680  0.0792185843146887   T   T   T
  0.7500000000000000  0.7095608678453452  0.1071355778600120   T   T   T
  0.4989251983686551  0.7982827366252139  0.1007972854206683   T   T   T
  0.7500000000000000  0.5387774990684069  0.1095802018696688   T   T   T
  0.5008658534337911  0.9587084396629096  0.0848721860576093   T   T   T
  0.5094729530609946  0.4469302170522619  0.1102603155843292   T   T   T
 -0.0094729530609944  0.4469302170522619  0.1102603155843292   T   T   T
  0.2500000000000000  0.7313994393275678  0.1157484515768675   T   T   T
  0.2500000000000000  0.5412977770468870  0.1814763731929356   T   T   T
 
  0.00000000E+00  0.00000000E+00  0.00000000E+00
  0.00000000E+00  0.00000000E+00  0.00000000E+00
  0.00000000E+00  0.00000000E+00  0.00000000E+00
  0.00000000E+00  0.00000000E+00  0.00000000E+00
  0.00000000E+00  0.00000000E+00  0.00000000E+00
  0.00000000E+00  0.00000000E+00  0.00000000E+00
  0.00000000E+00  0.00000000E+00  0.00000000E+00
  0.00000000E+00  0.00000000E+00  0.00000000E+00
  0.00000000E+00  0.00000000E+00  0.00000000E+00
  0.00000000E+00  0.00000000E+00  0.00000000E+00
  0.00000000E+00  0.00000000E+00  0.00000000E+00
  0.00000000E+00  0.00000000E+00  0.00000000E+00
  0.00000000E+00  0.00000000E+00  0.00000000E+00
  0.00000000E+00  0.00000000E+00  0.00000000E+00
  0.00000000E+00  0.00000000E+00  0.00000000E+00
  0.00000000E+00  0.00000000E+00  0.00000000E+00
