Title                                   
   1.00000000000000     
     8.5490480000000009    0.0000000000000000    0.0000000000000000
     0.0000000000000000    8.5490480000000009    0.0000000000000000
     0.0000000000000000    0.0000000000000000   20.0000000000000000
    20     4     1
Selective dynamics
Direct
  0.9090618902325276  0.2067242584583311  0.0954586483953229   T   T   T
  0.9065706017986761  0.5018038807723280  0.0953097087449832   T   T   T
  0.9090694582772174  0.7968392939544717  0.0954706116693734   T   T   T
  0.1979877274366632  0.0857032641212203  0.0954902966151887   T   T   T
  0.0769601646821803  0.2067001620379468  0.0954700662255804   T   T   T
  0.1979972117771080  0.9178144071407296  0.0954963266038582   T   T   T
  0.1606561211144793  0.6487746692499115  0.0953369166222515   T   T   T
  0.0794914620918498  0.5017761422731327  0.0953280539633494   T   T   T
  0.1606374496604097  0.3547529294564993  0.0953226521466452   T   T   T
  0.0769773405452781  0.7968094798949465  0.0954784461956205   T   T   T
  0.4929912849142422  0.0882450391459435  0.0953531882745456   T   T   T
  0.3460102043878925  0.1694023297754476  0.0953566450648007   T   T   T
  0.4929957295437333  0.9153448575944316  0.0953608504184987   T   T   T
  0.3460187651130547  0.8341581359681950  0.0953603130175645   T   T   T
  0.7880313484707144  0.0857435882064611  0.0954740371801692   T   T   T
  0.6399865422271103  0.1694343348595173  0.0953212830115328   T   T   T
  0.7880469066364256  0.9178498867184515  0.0954784250305592   T   T   T
  0.8253906099415430  0.6488034991020006  0.0953179866542044   T   T   T
  0.8253983817790410  0.3547925591430386  0.0953034606568356   T   T   T
  0.6399944759218346  0.8341845548767215  0.0953357916224155   T   T   T
  0.3241267929813603  0.3328794141931802  0.0951968168911799   T   T   T
  0.3241623353834489  0.6706844455481155  0.0952081102919914   T   T   T
  0.6618973447641703  0.3329150095553676  0.0951704538675064   T   T   T
  0.6618799585619027  0.6707070757919789  0.0951862338176851   T   T   T
  0.4930718917571298  0.5019467821616451  0.0951196770183154   T   T   T
 
  0.00000000E+00  0.00000000E+00  0.00000000E+00
  0.00000000E+00  0.00000000E+00  0.00000000E+00
  0.00000000E+00  0.00000000E+00  0.00000000E+00
  0.00000000E+00  0.00000000E+00  0.00000000E+00
  0.00000000E+00  0.00000000E+00  0.00000000E+00
  0.00000000E+00  0.00000000E+00  0.00000000E+00
  0.00000000E+00  0.00000000E+00  0.00000000E+00
  0.00000000E+00  0.00000000E+00  0.00000000E+00
  0.00000000E+00  0.00000000E+00  0.00000000E+00
  0.00000000E+00  0.00000000E+00  0.00000000E+00
  0.00000000E+00  0.00000000E+00  0.00000000E+00
  0.00000000E+00  0.00000000E+00  0.00000000E+00
  0.00000000E+00  0.00000000E+00  0.00000000E+00
  0.00000000E+00  0.00000000E+00  0.00000000E+00
  0.00000000E+00  0.00000000E+00  0.00000000E+00
  0.00000000E+00  0.00000000E+00  0.00000000E+00
  0.00000000E+00  0.00000000E+00  0.00000000E+00
  0.00000000E+00  0.00000000E+00  0.00000000E+00
  0.00000000E+00  0.00000000E+00  0.00000000E+00
  0.00000000E+00  0.00000000E+00  0.00000000E+00
  0.00000000E+00  0.00000000E+00  0.00000000E+00
  0.00000000E+00  0.00000000E+00  0.00000000E+00
  0.00000000E+00  0.00000000E+00  0.00000000E+00
  0.00000000E+00  0.00000000E+00  0.00000000E+00
  0.00000000E+00  0.00000000E+00  0.00000000E+00
