Title                                   
   1.00000000000000     
     9.8694509999999998    0.0000000000000000    0.0000000000000000
     0.0000000000000000    8.5490480000000009    0.0000000000000000
     0.0000000000000000    0.0000000000000000   20.0000000000000000
    30     1     1
Selective dynamics
Direct
  0.0562396916294610  0.0900108626159702  0.0810225331025335   T   T   T
  0.9309319913146654  0.1732005488286922  0.0838126494780510   T   T   T
  0.0562269621210541  0.9231099741425857  0.0809428666361397   T   T   T
  0.9303879075976089  0.3404705027958729  0.0883618569421819   T   T   T
  0.0562414415281514  0.5892314709339728  0.0857874452372729   T   T   T
  0.9314595022393890  0.6726899950336988  0.0876806163272785   T   T   T
  0.0562254204414958  0.4230302908502827  0.0869524826441650   T   T   T
  0.9309296148850231  0.8393920827442518  0.0838831530205008   T   T   T
  0.3054262936462279  0.0893105855376162  0.0851058078608814   T   T   T
  0.1815367306369531  0.1732076847082650  0.0837835447654195   T   T   T
  0.3067331396305232  0.9233746731573698  0.0855895366982479   T   T   T
  0.1820694071290508  0.3404727952978032  0.0883496106992024   T   T   T
  0.3044574753272722  0.5916367280323531  0.1004138392469807   T   T   T
  0.1810325221593092  0.6726846010908678  0.0876844996016247   T   T   T
  0.3062017135570052  0.4226733302484170  0.0985780817183447   T   T   T
  0.1815335451690218  0.8393859126228580  0.0838767970519490   T   T   T
  0.5562299656360259  0.0869794557459455  0.0934560054038807   T   T   T
  0.4309188305861284  0.1695078317198260  0.0923498919756647   T   T   T
  0.4307059483509758  0.3345205503235200  0.1027277387711952   T   T   T
  0.4225485525936656  0.6824969721731328  0.1157088313581962   T   T   T
  0.5562022558438358  0.4059646954660582  0.1186029654100833   T   T   T
  0.4302296975304656  0.8414276556733150  0.0975633159208066   T   T   T
  0.8070408525256992  0.0893181992009265  0.0851384800078678   T   T   T
  0.6815612376563134  0.1695124922299805  0.0923711677779436   T   T   T
  0.8057198611449903  0.9233851238382060  0.0855967989196691   T   T   T
  0.6817430246292933  0.3345341087612171  0.1027530934054878   T   T   T
  0.8080602531142709  0.5916267403432596  0.1003991844369432   T   T   T
  0.6900063745420362  0.6825085029786377  0.1156888765963318   T   T   T
  0.8062477658836626  0.4226692758701999  0.0985810659884930   T   T   T
  0.6822250829480958  0.8414265614756665  0.0975550508194581   T   T   T
  0.5562328113023872  0.9227246683948592  0.0965063934195279   T   T   T
  0.5563331266999478  0.5877611271643819  0.1788508187577111   T   T   T
 
  0.00000000E+00  0.00000000E+00  0.00000000E+00
  0.00000000E+00  0.00000000E+00  0.00000000E+00
  0.00000000E+00  0.00000000E+00  0.00000000E+00
  0.00000000E+00  0.00000000E+00  0.00000000E+00
  0.00000000E+00  0.00000000E+00  0.00000000E+00
  0.00000000E+00  0.00000000E+00  0.00000000E+00
  0.00000000E+00  0.00000000E+00  0.00000000E+00
  0.00000000E+00  0.00000000E+00  0.00000000E+00
  0.00000000E+00  0.00000000E+00  0.00000000E+00
  0.00000000E+00  0.00000000E+00  0.00000000E+00
  0.00000000E+00  0.00000000E+00  0.00000000E+00
  0.00000000E+00  0.00000000E+00  0.00000000E+00
  0.00000000E+00  0.00000000E+00  0.00000000E+00
  0.00000000E+00  0.00000000E+00  0.00000000E+00
  0.00000000E+00  0.00000000E+00  0.00000000E+00
  0.00000000E+00  0.00000000E+00  0.00000000E+00
  0.00000000E+00  0.00000000E+00  0.00000000E+00
  0.00000000E+00  0.00000000E+00  0.00000000E+00
  0.00000000E+00  0.00000000E+00  0.00000000E+00
  0.00000000E+00  0.00000000E+00  0.00000000E+00
  0.00000000E+00  0.00000000E+00  0.00000000E+00
  0.00000000E+00  0.00000000E+00  0.00000000E+00
  0.00000000E+00  0.00000000E+00  0.00000000E+00
  0.00000000E+00  0.00000000E+00  0.00000000E+00
  0.00000000E+00  0.00000000E+00  0.00000000E+00
  0.00000000E+00  0.00000000E+00  0.00000000E+00
  0.00000000E+00  0.00000000E+00  0.00000000E+00
  0.00000000E+00  0.00000000E+00  0.00000000E+00
  0.00000000E+00  0.00000000E+00  0.00000000E+00
  0.00000000E+00  0.00000000E+00  0.00000000E+00
  0.00000000E+00  0.00000000E+00  0.00000000E+00
  0.00000000E+00  0.00000000E+00  0.00000000E+00
