Title                                   
   1.00000000000000     
     9.8694509999999998    0.0000000000000000    0.0000000000000000
     0.0000000000000000    8.5490480000000009    0.0000000000000000
     0.0000000000000000    0.0000000000000000   20.0000000000000000
    28     3     1
Selective dynamics
Direct
  0.0565959697290018  0.0910959848047668  0.0868868108735470   T   T   T
  0.9312340542695119  0.1732696013949818  0.0887250935573937   T   T   T
  0.0557452610189615  0.9238637859569770  0.0869116455669646   T   T   T
  0.9306766280198148  0.3401015035492188  0.0926613004406309   T   T   T
  0.0565800947873850  0.5895539620695125  0.0899948757443474   T   T   T
  0.9314617542141290  0.6723737577556844  0.0930385546012601   T   T   T
  0.0571699071566780  0.4231240472759483  0.0909619633575388   T   T   T
  0.9307484031077112  0.8389996537569093  0.0898458102493350   T   T   T
  0.3054304584627380  0.0902490595019634  0.0879155600800794   T   T   T
  0.1820465436520161  0.1750726876511534  0.0878936313043379   T   T   T
  0.3052606329424806  0.9253081138650242  0.0881371213733316   T   T   T
  0.1843039444198373  0.3423150258657697  0.0900430318620184   T   T   T
  0.3076451555340055  0.5950101707560180  0.0927670642645528   T   T   T
  0.1809412266177310  0.6738629559183335  0.0890514468655149   T   T   T
  0.3117306521718602  0.4260603623581160  0.0926847404732398   T   T   T
  0.1804322820279420  0.8405315583147637  0.0875155651615443   T   T   T
  0.5560188770449793  0.0845809232354058  0.0932973739793381   T   T   T
  0.4320589534124039  0.1692406733267601  0.0912707062017657   T   T   T
  0.4360323512239424  0.3349017347422337  0.0951722470100593   T   T   T
  0.4279143213470773  0.8400765521576706  0.0936642583926917   T   T   T
  0.8074130049534577  0.0881853753684536  0.0889794883469210   T   T   T
  0.6812018218363810  0.1671985991734879  0.0928900993724917   T   T   T
  0.8055721572669402  0.9226104927477157  0.0902090070866935   T   T   T
  0.6795733604933822  0.3331275020608270  0.0989285963410893   T   T   T
  0.8069490595088240  0.5906149987218557  0.1037346629366105   T   T   T
  0.6886009877290837  0.6808208739198028  0.1174301094457604   T   T   T
  0.8046337190914954  0.4220756390353965  0.0997637902644352   T   T   T
  0.6818509398987855  0.8389889406534118  0.0998225075037532   T   T   T
  0.4261062547584278  0.6829530344950676  0.0981691748676821   T   T   T
  0.5582451222606468  0.4085416301239910  0.1042263159789808   T   T   T
  0.5547348661575633  0.9200973722798170  0.0957258766206994   T   T   T
  0.5447302348848102  0.5854394271629718  0.1673565698754259   T   T   T
 
  0.00000000E+00  0.00000000E+00  0.00000000E+00
  0.00000000E+00  0.00000000E+00  0.00000000E+00
  0.00000000E+00  0.00000000E+00  0.00000000E+00
  0.00000000E+00  0.00000000E+00  0.00000000E+00
  0.00000000E+00  0.00000000E+00  0.00000000E+00
  0.00000000E+00  0.00000000E+00  0.00000000E+00
  0.00000000E+00  0.00000000E+00  0.00000000E+00
  0.00000000E+00  0.00000000E+00  0.00000000E+00
  0.00000000E+00  0.00000000E+00  0.00000000E+00
  0.00000000E+00  0.00000000E+00  0.00000000E+00
  0.00000000E+00  0.00000000E+00  0.00000000E+00
  0.00000000E+00  0.00000000E+00  0.00000000E+00
  0.00000000E+00  0.00000000E+00  0.00000000E+00
  0.00000000E+00  0.00000000E+00  0.00000000E+00
  0.00000000E+00  0.00000000E+00  0.00000000E+00
  0.00000000E+00  0.00000000E+00  0.00000000E+00
  0.00000000E+00  0.00000000E+00  0.00000000E+00
  0.00000000E+00  0.00000000E+00  0.00000000E+00
  0.00000000E+00  0.00000000E+00  0.00000000E+00
  0.00000000E+00  0.00000000E+00  0.00000000E+00
  0.00000000E+00  0.00000000E+00  0.00000000E+00
  0.00000000E+00  0.00000000E+00  0.00000000E+00
  0.00000000E+00  0.00000000E+00  0.00000000E+00
  0.00000000E+00  0.00000000E+00  0.00000000E+00
  0.00000000E+00  0.00000000E+00  0.00000000E+00
  0.00000000E+00  0.00000000E+00  0.00000000E+00
  0.00000000E+00  0.00000000E+00  0.00000000E+00
  0.00000000E+00  0.00000000E+00  0.00000000E+00
  0.00000000E+00  0.00000000E+00  0.00000000E+00
  0.00000000E+00  0.00000000E+00  0.00000000E+00
  0.00000000E+00  0.00000000E+00  0.00000000E+00
  0.00000000E+00  0.00000000E+00  0.00000000E+00
