Title                                   
   1.00000000000000     
     4.9440799999999996    0.0000000000000000    0.0000000000000000
     0.0000000000000000    8.5647549999999999    0.0000000000000000
     0.0000000000000000    0.0000000000000000   20.0000000000000000
     9     5     1
Selective dynamics
Direct
 -0.0025778840621150  0.2961784812710865  0.1004856062678105   T   T   T
  0.2500000000000000  0.0370806629628317  0.1004467037583138   T   T   T
 -0.0021590876344479  0.9549477870282240  0.1004348885774974   T   T   T
  0.7500000000000000  0.2062859771220544  0.1003350770365649   T   T   T
  0.5025778840621148  0.2961784812710865  0.1004856062678105   T   T   T
  0.7500000000000000  0.0414698665136851  0.1003391947236853   T   T   T
  0.7500000000000000  0.7125996382091117  0.1001675630071039   T   T   T
  0.7500000000000000  0.5365018097881395  0.1001090360876179   T   T   T
  0.5021590876344476  0.9549477870282240  0.1004348885774974   T   T   T
  0.5121273257418408  0.4540232248967666  0.1004501490805855   T   T   T
 -0.0121273257418408  0.4540232248967666  0.1004501490805855   T   T   T
 -0.0138448874437640  0.7931829148390994  0.1004423397871022   T   T   T
  0.5138448874437639  0.7931829148390994  0.1004423397871022   T   T   T
  0.2500000000000000  0.2139720061625371  0.1005686980801241   T   T   T
  0.2500000000000000  0.6271062231712904  0.1023877598806023   T   T   T
 
  0.00000000E+00  0.00000000E+00  0.00000000E+00
  0.00000000E+00  0.00000000E+00  0.00000000E+00
  0.00000000E+00  0.00000000E+00  0.00000000E+00
  0.00000000E+00  0.00000000E+00  0.00000000E+00
  0.00000000E+00  0.00000000E+00  0.00000000E+00
  0.00000000E+00  0.00000000E+00  0.00000000E+00
  0.00000000E+00  0.00000000E+00  0.00000000E+00
  0.00000000E+00  0.00000000E+00  0.00000000E+00
  0.00000000E+00  0.00000000E+00  0.00000000E+00
  0.00000000E+00  0.00000000E+00  0.00000000E+00
  0.00000000E+00  0.00000000E+00  0.00000000E+00
  0.00000000E+00  0.00000000E+00  0.00000000E+00
  0.00000000E+00  0.00000000E+00  0.00000000E+00
  0.00000000E+00  0.00000000E+00  0.00000000E+00
  0.00000000E+00  0.00000000E+00  0.00000000E+00
