Title                                   
   1.00000000000000     
     9.8694509999999998    0.0000000000000000    0.0000000000000000
     0.0000000000000000    8.5490480000000009    0.0000000000000000
     0.0000000000000000    0.0000000000000000   20.0000000000000000
    25     5     1
Selective dynamics
Direct
  0.0549965433033979  0.0879186392740325  0.0889344438234740   T   T   T
  0.9310124880796621  0.1707127177926621  0.0909882079111212   T   T   T
  0.0568821960011442  0.9219471738655054  0.0895000733835780   T   T   T
  0.9351754493395085  0.3379307353990710  0.0910030748016206   T   T   T
  0.0570990468106061  0.5904433802560014  0.0880071359140460   T   T   T
  0.0573334947143990  0.4238138893931781  0.0872677768018700   T   T   T
  0.9318146890539617  0.8383057508545179  0.0917352582663400   T   T   T
  0.3050713694896005  0.0880756379326064  0.0921523938234230   T   T   T
  0.1808805125651435  0.1714927081984522  0.0889027032852580   T   T   T
  0.1803027644023334  0.3392284083948804  0.0878463538234424   T   T   T
  0.3028811121616992  0.5907176305274535  0.0924817644344801   T   T   T
  0.1797122850048574  0.6742555465793335  0.0886737588926484   T   T   T
  0.3035136001274543  0.4206488153279142  0.0921375092236854   T   T   T
  0.1811995443277743  0.8402557663474477  0.0898618808959544   T   T   T
  0.4286575965161772  0.1754890717234582  0.0969695713469866   T   T   T
  0.5527150813504021  0.9215974637922092  0.1000804699431953   T   T   T
  0.4273716461391815  0.8376743984878838  0.0977598862173992   T   T   T
  0.8050590732584987  0.0885743158632583  0.0949077401306473   T   T   T
  0.6814207522565442  0.1777496782883361  0.0999582454860860   T   T   T
  0.8060520251161776  0.9206306096131376  0.0953024744647230   T   T   T
  0.6902979722924579  0.3421122474330997  0.1041450301062494   T   T   T
  0.8153988215856115  0.5919737942022069  0.0987312405044072   T   T   T
  0.6918176598273370  0.6709072789297876  0.1046884858225985   T   T   T
  0.8159300086196185  0.4211213523726977  0.0982148983783839   T   T   T
  0.6803299273398087  0.8365575410069317  0.1005535140103094   T   T   T
  0.9355016833640449  0.6734967702988746  0.0919178342494165   T   T   T
  0.5535720467630235  0.0938434218139414  0.0998146074907876   T   T   T
  0.4213263074615536  0.3340808174720532  0.0987523218791352   T   T   T
  0.4189360949972125  0.6785070827742490  0.0996422252158669   T   T   T
  0.3041129701607996  0.9237201020057572  0.0924695410925285   T   T   T
  0.5567602375700240  0.5070922537790663  0.1075645783803862   T   T   T
 
  0.00000000E+00  0.00000000E+00  0.00000000E+00
  0.00000000E+00  0.00000000E+00  0.00000000E+00
  0.00000000E+00  0.00000000E+00  0.00000000E+00
  0.00000000E+00  0.00000000E+00  0.00000000E+00
  0.00000000E+00  0.00000000E+00  0.00000000E+00
  0.00000000E+00  0.00000000E+00  0.00000000E+00
  0.00000000E+00  0.00000000E+00  0.00000000E+00
  0.00000000E+00  0.00000000E+00  0.00000000E+00
  0.00000000E+00  0.00000000E+00  0.00000000E+00
  0.00000000E+00  0.00000000E+00  0.00000000E+00
  0.00000000E+00  0.00000000E+00  0.00000000E+00
  0.00000000E+00  0.00000000E+00  0.00000000E+00
  0.00000000E+00  0.00000000E+00  0.00000000E+00
  0.00000000E+00  0.00000000E+00  0.00000000E+00
  0.00000000E+00  0.00000000E+00  0.00000000E+00
  0.00000000E+00  0.00000000E+00  0.00000000E+00
  0.00000000E+00  0.00000000E+00  0.00000000E+00
  0.00000000E+00  0.00000000E+00  0.00000000E+00
  0.00000000E+00  0.00000000E+00  0.00000000E+00
  0.00000000E+00  0.00000000E+00  0.00000000E+00
  0.00000000E+00  0.00000000E+00  0.00000000E+00
  0.00000000E+00  0.00000000E+00  0.00000000E+00
  0.00000000E+00  0.00000000E+00  0.00000000E+00
  0.00000000E+00  0.00000000E+00  0.00000000E+00
  0.00000000E+00  0.00000000E+00  0.00000000E+00
  0.00000000E+00  0.00000000E+00  0.00000000E+00
  0.00000000E+00  0.00000000E+00  0.00000000E+00
  0.00000000E+00  0.00000000E+00  0.00000000E+00
  0.00000000E+00  0.00000000E+00  0.00000000E+00
  0.00000000E+00  0.00000000E+00  0.00000000E+00
  0.00000000E+00  0.00000000E+00  0.00000000E+00
