Title                                   
   1.00000000000000     
     9.8694509999999998    0.0000000000000000    0.0000000000000000
     0.0000000000000000    8.5490480000000009    0.0000000000000000
     0.0000000000000000    0.0000000000000000   20.0000000000000000
    28     3     1
Selective dynamics
Direct
  0.0562675434592778  0.0906531515584228  0.0880600847628763   T   T   T
  0.9306134513861825  0.1735910730703800  0.0902521205483231   T   T   T
  0.0562499360882383  0.9226941631400899  0.0871942422377228   T   T   T
  0.9310175255719265  0.3397208918892223  0.0933800297615471   T   T   T
  0.0562338799554467  0.5898801978713293  0.0896229620072721   T   T   T
  0.9316507696228998  0.6712194349947623  0.0905840061579119   T   T   T
  0.0562588711056204  0.4222469949517203  0.0921879456448405   T   T   T
  0.9307019870342474  0.8387247824517076  0.0890484318666643   T   T   T
  0.3055779430057212  0.0889681509403117  0.0887874468941221   T   T   T
  0.1819842696243531  0.1735453714889318  0.0892882416794661   T   T   T
  0.3068634327014672  0.9237192989272860  0.0891801751963489   T   T   T
  0.1815634939052787  0.3396720298389917  0.0924031268342256   T   T   T
  0.3060518285958193  0.5887940514902585  0.0968375974246813   T   T   T
  0.1808461357975421  0.6712289223437680  0.0895724435058656   T   T   T
  0.1818508097169939  0.8387089532118563  0.0880779735972406   T   T   T
  0.5563067623765799  0.0891439385684700  0.0945933239139299   T   T   T
  0.4309370916649057  0.1715088608525914  0.0930179370404781   T   T   T
  0.4311585944099491  0.3373952113942689  0.0993300594571259   T   T   T
  0.4310976999828554  0.8406620694060826  0.0965193661805458   T   T   T
  0.8070585792871877  0.0889857185716189  0.0901817411702492   T   T   T
  0.6816991768921353  0.1715423506849232  0.0940034699833629   T   T   T
  0.8057322755506797  0.9237271140639597  0.0905281412315306   T   T   T
  0.6813977930383754  0.3374494402638690  0.1002991867119479   T   T   T
  0.8065270461507250  0.5888660920376542  0.0984325863684263   T   T   T
  0.6814883218755746  0.8406781963776827  0.0976160627393720   T   T   T
  0.4246509269886669  0.6772572154116835  0.1081747570829382   T   T   T
  0.5560619658050534  0.4135806148922683  0.1117976248535823   T   T   T
  0.6878036078907629  0.6773305804154125  0.1095874976012487   T   T   T
  0.5563075953373519  0.9230925695579616  0.0962645076625794   T   T   T
  0.3064242924638257  0.4219749534434022  0.0962889239957889   T   T   T
  0.8061600296822660  0.4220262528772907  0.0979389415333857   T   T   T
  0.5550953630320961  0.5916573530118263  0.1566240443544163   T   T   T
 
  0.00000000E+00  0.00000000E+00  0.00000000E+00
  0.00000000E+00  0.00000000E+00  0.00000000E+00
  0.00000000E+00  0.00000000E+00  0.00000000E+00
  0.00000000E+00  0.00000000E+00  0.00000000E+00
  0.00000000E+00  0.00000000E+00  0.00000000E+00
  0.00000000E+00  0.00000000E+00  0.00000000E+00
  0.00000000E+00  0.00000000E+00  0.00000000E+00
  0.00000000E+00  0.00000000E+00  0.00000000E+00
  0.00000000E+00  0.00000000E+00  0.00000000E+00
  0.00000000E+00  0.00000000E+00  0.00000000E+00
  0.00000000E+00  0.00000000E+00  0.00000000E+00
  0.00000000E+00  0.00000000E+00  0.00000000E+00
  0.00000000E+00  0.00000000E+00  0.00000000E+00
  0.00000000E+00  0.00000000E+00  0.00000000E+00
  0.00000000E+00  0.00000000E+00  0.00000000E+00
  0.00000000E+00  0.00000000E+00  0.00000000E+00
  0.00000000E+00  0.00000000E+00  0.00000000E+00
  0.00000000E+00  0.00000000E+00  0.00000000E+00
  0.00000000E+00  0.00000000E+00  0.00000000E+00
  0.00000000E+00  0.00000000E+00  0.00000000E+00
  0.00000000E+00  0.00000000E+00  0.00000000E+00
  0.00000000E+00  0.00000000E+00  0.00000000E+00
  0.00000000E+00  0.00000000E+00  0.00000000E+00
  0.00000000E+00  0.00000000E+00  0.00000000E+00
  0.00000000E+00  0.00000000E+00  0.00000000E+00
  0.00000000E+00  0.00000000E+00  0.00000000E+00
  0.00000000E+00  0.00000000E+00  0.00000000E+00
  0.00000000E+00  0.00000000E+00  0.00000000E+00
  0.00000000E+00  0.00000000E+00  0.00000000E+00
  0.00000000E+00  0.00000000E+00  0.00000000E+00
  0.00000000E+00  0.00000000E+00  0.00000000E+00
  0.00000000E+00  0.00000000E+00  0.00000000E+00
