Title                                   
   1.00000000000000     
     9.8694509999999998    0.0000000000000000    0.0000000000000000
     0.0000000000000000    8.5490480000000009    0.0000000000000000
     0.0000000000000000    0.0000000000000000   20.0000000000000000
    28     3     1
Selective dynamics
Direct
  0.0562356310128255  0.0914259114098494  0.0839314733468413   T   T   T
  0.9303033781935519  0.1740243298049340  0.0870749641482626   T   T   T
  0.0562188360352291  0.9232293419909260  0.0820423631762880   T   T   T
  0.9302190382562359  0.3404693666789341  0.0918162423171951   T   T   T
  0.0562370023029702  0.5901712555655034  0.0858730000866935   T   T   T
  0.9312721418851576  0.6715825915163466  0.0865441128747855   T   T   T
  0.0562248834586181  0.4230646890008011  0.0900824576785759   T   T   T
  0.9307168560218519  0.8391983783052374  0.0840741409618942   T   T   T
  0.3058723952816151  0.0889373049237395  0.0862580630187016   T   T   T
  0.1822234107330498  0.1740162916687270  0.0865537794585292   T   T   T
  0.3071653655739429  0.9234728566186321  0.0862525961310701   T   T   T
  0.1822461270402349  0.3404393337885080  0.0913372223837194   T   T   T
  0.3052418016485857  0.5902376778314226  0.0981788389236499   T   T   T
  0.1812193921931251  0.6715942596428786  0.0860785413320397   T   T   T
  0.1817584459883267  0.8391926703677860  0.0835809353684319   T   T   T
  0.5562502520042609  0.0871621419057238  0.0941801485270363   T   T   T
  0.4310037083173637  0.1709581097733335  0.0924149069607966   T   T   T
  0.4318966622477081  0.3358517828457329  0.1018229214769844   T   T   T
  0.4297146454515668  0.8398090782348195  0.0982020487429327   T   T   T
  0.8067040692860695  0.0889655609505927  0.0870636025196834   T   T   T
  0.6815510242578848  0.1709232882224950  0.0930056417630547   T   T   T
  0.8053884298564590  0.9235358810730414  0.0870270181459555   T   T   T
  0.6806166866261821  0.3357845601594047  0.1023701712233140   T   T   T
  0.8073195823762965  0.5902829196331855  0.0989158900686561   T   T   T
  0.6827980931812281  0.8399117935728944  0.0988290973430410   T   T   T
  0.4211287667641808  0.6790564970438873  0.1162459295585196   T   T   T
  0.5561131423668352  0.4096486009805355  0.1195634983731760   T   T   T
  0.6914207557121624  0.6791335496173301  0.1168735499540218   T   T   T
  0.5562302199733684  0.9213240096891975  0.0983822378846182   T   T   T
  0.3061764523304978  0.4223784633710163  0.0985540159740906   T   T   T
  0.8063351897752149  0.4223362385540814  0.0993033288226021   T   T   T
  0.5558366138474069  0.5921272652585062  0.1732422614548553   T   T   T
 
  0.00000000E+00  0.00000000E+00  0.00000000E+00
  0.00000000E+00  0.00000000E+00  0.00000000E+00
  0.00000000E+00  0.00000000E+00  0.00000000E+00
  0.00000000E+00  0.00000000E+00  0.00000000E+00
  0.00000000E+00  0.00000000E+00  0.00000000E+00
  0.00000000E+00  0.00000000E+00  0.00000000E+00
  0.00000000E+00  0.00000000E+00  0.00000000E+00
  0.00000000E+00  0.00000000E+00  0.00000000E+00
  0.00000000E+00  0.00000000E+00  0.00000000E+00
  0.00000000E+00  0.00000000E+00  0.00000000E+00
  0.00000000E+00  0.00000000E+00  0.00000000E+00
  0.00000000E+00  0.00000000E+00  0.00000000E+00
  0.00000000E+00  0.00000000E+00  0.00000000E+00
  0.00000000E+00  0.00000000E+00  0.00000000E+00
  0.00000000E+00  0.00000000E+00  0.00000000E+00
  0.00000000E+00  0.00000000E+00  0.00000000E+00
  0.00000000E+00  0.00000000E+00  0.00000000E+00
  0.00000000E+00  0.00000000E+00  0.00000000E+00
  0.00000000E+00  0.00000000E+00  0.00000000E+00
  0.00000000E+00  0.00000000E+00  0.00000000E+00
  0.00000000E+00  0.00000000E+00  0.00000000E+00
  0.00000000E+00  0.00000000E+00  0.00000000E+00
  0.00000000E+00  0.00000000E+00  0.00000000E+00
  0.00000000E+00  0.00000000E+00  0.00000000E+00
  0.00000000E+00  0.00000000E+00  0.00000000E+00
  0.00000000E+00  0.00000000E+00  0.00000000E+00
  0.00000000E+00  0.00000000E+00  0.00000000E+00
  0.00000000E+00  0.00000000E+00  0.00000000E+00
  0.00000000E+00  0.00000000E+00  0.00000000E+00
  0.00000000E+00  0.00000000E+00  0.00000000E+00
  0.00000000E+00  0.00000000E+00  0.00000000E+00
  0.00000000E+00  0.00000000E+00  0.00000000E+00
