Title                                   
   1.00000000000000     
     4.9440799999999996    0.0000000000000000    0.0000000000000000
     0.0000000000000000   17.1295089999999988    0.0000000000000000
     0.0000000000000000    0.0000000000000000   20.0000000000000000
    28     2     1
Selective dynamics
Direct
 -0.0057872633650566  0.1051743360951633  0.2963429606484425   T   T   T
  0.2428721731630997  0.1476843682310009  0.2968533330574417   T   T   T
  0.2401110834643667  0.2315260062439883  0.2988514973162318   T   T   T
 -0.0128249883281262  0.2729000782836738  0.3010033460970420   T   T   T
  0.0126542029653172  0.6023140136896746  0.2960872402323799   T   T   T
  0.2569409908133615  0.7268457745428305  0.2969750572836579   T   T   T
  0.0036259828587265  0.8531615011945720  0.2961719242674610   T   T   T
  0.2515885501877175  0.8953639893994682  0.2964635484445712   T   T   T
  0.2482556596953765  0.9792265414678388  0.2963252240425707   T   T   T
  0.0066841187038859  0.7689858686936606  0.2960270239393589   T   T   T
  0.4937407750416941  0.1051737867988311  0.2959957637815927   T   T   T
  0.7430414522695877  0.1469959696632662  0.2960944716511767   T   T   T
  0.7386740620010026  0.2308979951890845  0.2974503541925851   T   T   T
  0.4970739853598921  0.0212644455254725  0.2960658020120642   T   T   T
  0.7498658609502022  0.3937645511641000  0.3032596570104514   T   T   T
  0.7629275763553731  0.4809313913659750  0.3039155247109073   T   T   T
  0.4889800949568540  0.2741685376517867  0.2983537997403885   T   T   T
  0.5106750927897079  0.6019176111734231  0.3022287588271625   T   T   T
  0.7568868624582776  0.7278973937752601  0.2961282608370824   T   T   T
  0.5015870735627925  0.8531092096324894  0.2965406558137359   T   T   T
  0.7515678714031268  0.8949419886043899  0.2962101140045141   T   T   T
  0.7482628025982653  0.9790588316921900  0.2960809187275403   T   T   T
  0.5051752551871851  0.7690197438600438  0.2968072446009084   T   T   T
  0.7600396451096004  0.6446461379945431  0.2968940567057611   T   T   T
 -0.0025951449874369  0.0212214950446756  0.2961718009699482   T   T   T
  0.5130759719626868  0.5206919360666865  0.3131054539686004   T   T   T
  0.0109413389087131  0.5198061171009546  0.2951434212740434   T   T   T
  0.4994263277392724  0.3576242043219180  0.2998027784703432   T   T   T
 -0.0153919315699627  0.3526177966394122  0.3074932051670419   T   T   T
  0.2598300796061350  0.6445719086111578  0.2983895293165112   T   T   T
  0.2421014381383657  0.4378384702824677  0.3318272728884336   T   T   T
 
  0.00000000E+00  0.00000000E+00  0.00000000E+00
  0.00000000E+00  0.00000000E+00  0.00000000E+00
  0.00000000E+00  0.00000000E+00  0.00000000E+00
  0.00000000E+00  0.00000000E+00  0.00000000E+00
  0.00000000E+00  0.00000000E+00  0.00000000E+00
  0.00000000E+00  0.00000000E+00  0.00000000E+00
  0.00000000E+00  0.00000000E+00  0.00000000E+00
  0.00000000E+00  0.00000000E+00  0.00000000E+00
  0.00000000E+00  0.00000000E+00  0.00000000E+00
  0.00000000E+00  0.00000000E+00  0.00000000E+00
  0.00000000E+00  0.00000000E+00  0.00000000E+00
  0.00000000E+00  0.00000000E+00  0.00000000E+00
  0.00000000E+00  0.00000000E+00  0.00000000E+00
  0.00000000E+00  0.00000000E+00  0.00000000E+00
  0.00000000E+00  0.00000000E+00  0.00000000E+00
  0.00000000E+00  0.00000000E+00  0.00000000E+00
  0.00000000E+00  0.00000000E+00  0.00000000E+00
  0.00000000E+00  0.00000000E+00  0.00000000E+00
  0.00000000E+00  0.00000000E+00  0.00000000E+00
  0.00000000E+00  0.00000000E+00  0.00000000E+00
  0.00000000E+00  0.00000000E+00  0.00000000E+00
  0.00000000E+00  0.00000000E+00  0.00000000E+00
  0.00000000E+00  0.00000000E+00  0.00000000E+00
  0.00000000E+00  0.00000000E+00  0.00000000E+00
  0.00000000E+00  0.00000000E+00  0.00000000E+00
  0.00000000E+00  0.00000000E+00  0.00000000E+00
  0.00000000E+00  0.00000000E+00  0.00000000E+00
  0.00000000E+00  0.00000000E+00  0.00000000E+00
  0.00000000E+00  0.00000000E+00  0.00000000E+00
  0.00000000E+00  0.00000000E+00  0.00000000E+00
  0.00000000E+00  0.00000000E+00  0.00000000E+00
