Title                                   
   1.00000000000000     
     4.9440799999999996    0.0000000000000000    0.0000000000000000
     0.0000000000000000    8.5647549999999999    0.0000000000000000
     0.0000000000000000    0.0000000000000000   20.0000000000000000
    13     1     1
Selective dynamics
Direct
  0.2545655427329385  0.2066465160611980  0.0967902482690243   T   T   T
  0.0024453193573578  0.2898177547963030  0.0936497492344786   T   T   T
  0.2568227478600648  0.0390373709545072  0.0961230104508175   T   T   T
  0.0059501412022048  0.9573103604022586  0.0910131461955402   T   T   T
  0.7496297053807224  0.2085839107307850  0.0943573855459649   T   T   T
  0.5001751618053226  0.2959083076928810  0.1005932977602008   T   T   T
  0.7526095305347626  0.0397267830455075  0.0932148004277529   T   T   T
  0.7536512083406716  0.7124724364698795  0.0980592220989389   T   T   T
  0.7516975022883456  0.5420011429777816  0.1018285738513205   T   T   T
  0.5065141963444204  0.9519406602544117  0.0993851215696122   T   T   T
  0.4994870191381832  0.4633224241537713  0.1099413492801310   T   T   T
 -0.0022122055133473  0.4559159218466011  0.0967814712352775   T   T   T
 -0.0024727623877161  0.7920706239326456  0.0888042303532442   T   T   T
  0.5115572395195053  0.7898675708277804  0.1094676427879386   T   T   T
  0.2095796533965635  0.6270592158536917  0.1379707509397616   T   T   T
 
  0.00000000E+00  0.00000000E+00  0.00000000E+00
  0.00000000E+00  0.00000000E+00  0.00000000E+00
  0.00000000E+00  0.00000000E+00  0.00000000E+00
  0.00000000E+00  0.00000000E+00  0.00000000E+00
  0.00000000E+00  0.00000000E+00  0.00000000E+00
  0.00000000E+00  0.00000000E+00  0.00000000E+00
  0.00000000E+00  0.00000000E+00  0.00000000E+00
  0.00000000E+00  0.00000000E+00  0.00000000E+00
  0.00000000E+00  0.00000000E+00  0.00000000E+00
  0.00000000E+00  0.00000000E+00  0.00000000E+00
  0.00000000E+00  0.00000000E+00  0.00000000E+00
  0.00000000E+00  0.00000000E+00  0.00000000E+00
  0.00000000E+00  0.00000000E+00  0.00000000E+00
  0.00000000E+00  0.00000000E+00  0.00000000E+00
  0.00000000E+00  0.00000000E+00  0.00000000E+00
