Title                                   
   1.00000000000000     
     4.9440799999999996    0.0000000000000000    0.0000000000000000
     0.0000000000000000    8.5647549999999999    0.0000000000000000
     0.0000000000000000    0.0000000000000000   20.0000000000000000
    14     1
Selective dynamics
Direct
  0.2500000000000000  0.2076912475786631  0.0974257121567375   T   T   T
  0.0018749007719160  0.2945980219274354  0.0969771129532461   T   T   T
  0.2500000000000000  0.0418674086909219  0.0974280471611530   T   T   T
  0.0018600323356571  0.9549682503432613  0.0969876789475832   T   T   T
  0.7500000000000000  0.2098462731841410  0.0949812442715070   T   T   T
  0.4981250992280841  0.2945980219274354  0.0969771129532461   T   T   T
  0.7500000000000000  0.0397353801684423  0.0950042076430477   T   T   T
  0.7500000000000000  0.7096142655701835  0.0963004474210168   T   T   T
  0.7500000000000000  0.5399181742658814  0.0963129509751839   T   T   T
  0.4981399676643429  0.9549682503432613  0.0969876789475832   T   T   T
  0.5033507195833784  0.4618086665878457  0.1009757672557961   T   T   T
 -0.0033507195833784  0.4618086665878457  0.1009757672557961   T   T   T
 -0.0033472376445406  0.7877433738723716  0.1009912970198451   T   T   T
  0.5033472376445406  0.7877433738723716  0.1009912970198451   T   T   T
  0.2500000000000000  0.6247716250799406  0.1386636780184165   T   T   T
 
  0.00000000E+00  0.00000000E+00  0.00000000E+00
  0.00000000E+00  0.00000000E+00  0.00000000E+00
  0.00000000E+00  0.00000000E+00  0.00000000E+00
  0.00000000E+00  0.00000000E+00  0.00000000E+00
  0.00000000E+00  0.00000000E+00  0.00000000E+00
  0.00000000E+00  0.00000000E+00  0.00000000E+00
  0.00000000E+00  0.00000000E+00  0.00000000E+00
  0.00000000E+00  0.00000000E+00  0.00000000E+00
  0.00000000E+00  0.00000000E+00  0.00000000E+00
  0.00000000E+00  0.00000000E+00  0.00000000E+00
  0.00000000E+00  0.00000000E+00  0.00000000E+00
  0.00000000E+00  0.00000000E+00  0.00000000E+00
  0.00000000E+00  0.00000000E+00  0.00000000E+00
  0.00000000E+00  0.00000000E+00  0.00000000E+00
  0.00000000E+00  0.00000000E+00  0.00000000E+00
