Title                                   
   1.00000000000000     
     8.5490480000000009    0.0000000000000000    0.0000000000000000
     0.0000000000000000    8.5490480000000009    0.0000000000000000
     0.0000000000000000    0.0000000000000000   20.0000000000000000
    21     3     1
Selective dynamics
Direct
  0.9103468055939757  0.2059068031211634  0.0975316000437770   T   T   T
  0.9125305978652944  0.8001655440803962  0.0976138225028738   T   T   T
  0.1978480660223052  0.0820478689148808  0.0977387193895586   T   T   T
  0.0753738268568648  0.2013374683506791  0.0976556442017656   T   T   T
  0.1573610789199443  0.6491649267824269  0.0979357886914338   T   T   T
  0.0763326159811174  0.5005772155278129  0.0978134566549556   T   T   T
  0.1569598549777011  0.3538582163132863  0.0978166819521433   T   T   T
  0.0780733943571549  0.7995433460890610  0.0977458542295720   T   T   T
  0.3461745537771243  0.1645042381976536  0.0978463552052663   T   T   T
  0.4928602157168998  0.9196029869831230  0.0977584097118286   T   T   T
  0.3451906177740760  0.8374303362210813  0.0979068714774148   T   T   T
  0.7875690644446649  0.0843042806860523  0.0975369813949537   T   T   T
  0.6377174389975477  0.1671349520683313  0.0976348959276811   T   T   T
  0.7896909722811667  0.9203770280334728  0.0975709520184511   T   T   T
  0.8300655353006160  0.6490465905175216  0.0976849270782999   T   T   T
  0.8281644519010347  0.3560880951811266  0.0975730920895768   T   T   T
  0.6390481269132139  0.8380502205374228  0.0976946339151195   T   T   T
  0.3226452277233872  0.3298503988227866  0.0979328443545537   T   T   T
  0.3218972868462268  0.6738508358315956  0.0980445148322863   T   T   T
  0.6623624556707570  0.3326895576189636  0.0976637009638308   T   T   T
  0.6650574815889599  0.6720043505152644  0.0977747363996616   T   T   T
  0.4937146933762030  0.0861249168883244  0.0977978491657664   T   T   T
  0.9091178174714440  0.5017181061092195  0.0977094276600514   T   T   T
  0.1963527946951233  0.9170496874140898  0.0977998183197285   T   T   T
  0.4929570249471825  0.5023620291942708  0.0979234218194301   T   T   T
 
  0.00000000E+00  0.00000000E+00  0.00000000E+00
  0.00000000E+00  0.00000000E+00  0.00000000E+00
  0.00000000E+00  0.00000000E+00  0.00000000E+00
  0.00000000E+00  0.00000000E+00  0.00000000E+00
  0.00000000E+00  0.00000000E+00  0.00000000E+00
  0.00000000E+00  0.00000000E+00  0.00000000E+00
  0.00000000E+00  0.00000000E+00  0.00000000E+00
  0.00000000E+00  0.00000000E+00  0.00000000E+00
  0.00000000E+00  0.00000000E+00  0.00000000E+00
  0.00000000E+00  0.00000000E+00  0.00000000E+00
  0.00000000E+00  0.00000000E+00  0.00000000E+00
  0.00000000E+00  0.00000000E+00  0.00000000E+00
  0.00000000E+00  0.00000000E+00  0.00000000E+00
  0.00000000E+00  0.00000000E+00  0.00000000E+00
  0.00000000E+00  0.00000000E+00  0.00000000E+00
  0.00000000E+00  0.00000000E+00  0.00000000E+00
  0.00000000E+00  0.00000000E+00  0.00000000E+00
  0.00000000E+00  0.00000000E+00  0.00000000E+00
  0.00000000E+00  0.00000000E+00  0.00000000E+00
  0.00000000E+00  0.00000000E+00  0.00000000E+00
  0.00000000E+00  0.00000000E+00  0.00000000E+00
  0.00000000E+00  0.00000000E+00  0.00000000E+00
  0.00000000E+00  0.00000000E+00  0.00000000E+00
  0.00000000E+00  0.00000000E+00  0.00000000E+00
  0.00000000E+00  0.00000000E+00  0.00000000E+00
