Title                                   
   1.00000000000000     
     9.8694509999999998    0.0000000000000000    0.0000000000000000
     0.0000000000000000    8.5490480000000009    0.0000000000000000
     0.0000000000000000    0.0000000000000000   20.0000000000000000
    25     5     1
Selective dynamics
Direct
  0.0557876243530485  0.0901137906333119  0.0864533372122435   T   T   T
  0.9317124274830219  0.1721691629150405  0.0881767878912927   T   T   T
  0.0572999451435489  0.9227567529659860  0.0868361081351106   T   T   T
  0.9329025645208312  0.3397853722012049  0.0868277291833592   T   T   T
  0.0568068332406363  0.5899382178213334  0.0825758087120976   T   T   T
  0.9330542476759668  0.6730129509152339  0.0867330232728447   T   T   T
  0.0568382526888874  0.4231396758352623  0.0825366157016210   T   T   T
  0.9321962526020271  0.8398730406598565  0.0882109258222490   T   T   T
  0.3064129459706151  0.0883504338511841  0.0939714783714986   T   T   T
  0.1809946461881595  0.1714280745955015  0.0878329574471402   T   T   T
  0.1803911595970559  0.3386911595914873  0.0861625378571440   T   T   T
  0.3021532115870429  0.5900898276061295  0.0953949228615670   T   T   T
  0.1807833969599829  0.6738442717473314  0.0863062628417674   T   T   T
  0.3025392533346553  0.4218931244545002  0.0955953630815386   T   T   T
  0.1813492046562643  0.8402523870301055  0.0883002720554417   T   T   T
  0.5563175696934435  0.0927670328717609  0.1056179092639538   T   T   T
  0.4278401305096202  0.1745009034480301  0.1037460030735694   T   T   T
  0.5550303524566899  0.9199556450541038  0.1051692176722158   T   T   T
  0.4273343629549313  0.8368426424927474  0.1035070464625556   T   T   T
  0.8056119189733865  0.0896690008129958  0.0937585755042774   T   T   T
  0.6837677165956448  0.1763104556116795  0.1035538675472868   T   T   T
  0.8057547603561800  0.9224081623201310  0.0935088438145299   T   T   T
  0.8107540980536727  0.5908259995163032  0.0960190081948184   T   T   T
  0.8107741338905375  0.4215812293713987  0.0963639190617625   T   T   T
  0.6834214875460840  0.8353632069248921  0.1028180198026684   T   T   T
  0.4189244212209252  0.3364779284903093  0.1109783897567889   T   T   T
  0.4181552767728803  0.6775490871738100  0.1110920433732557   T   T   T
  0.6927788578027044  0.3384284095585098  0.1108959031366357   T   T   T
  0.6927578012242825  0.6740625433665933  0.1098278983269334   T   T   T
  0.3067580227611267  0.9229837439966985  0.0936544326680302   T   T   T
  0.5559331231861457  0.5058107661665660  0.1385397918938601   T   T   T
 
  0.00000000E+00  0.00000000E+00  0.00000000E+00
  0.00000000E+00  0.00000000E+00  0.00000000E+00
  0.00000000E+00  0.00000000E+00  0.00000000E+00
  0.00000000E+00  0.00000000E+00  0.00000000E+00
  0.00000000E+00  0.00000000E+00  0.00000000E+00
  0.00000000E+00  0.00000000E+00  0.00000000E+00
  0.00000000E+00  0.00000000E+00  0.00000000E+00
  0.00000000E+00  0.00000000E+00  0.00000000E+00
  0.00000000E+00  0.00000000E+00  0.00000000E+00
  0.00000000E+00  0.00000000E+00  0.00000000E+00
  0.00000000E+00  0.00000000E+00  0.00000000E+00
  0.00000000E+00  0.00000000E+00  0.00000000E+00
  0.00000000E+00  0.00000000E+00  0.00000000E+00
  0.00000000E+00  0.00000000E+00  0.00000000E+00
  0.00000000E+00  0.00000000E+00  0.00000000E+00
  0.00000000E+00  0.00000000E+00  0.00000000E+00
  0.00000000E+00  0.00000000E+00  0.00000000E+00
  0.00000000E+00  0.00000000E+00  0.00000000E+00
  0.00000000E+00  0.00000000E+00  0.00000000E+00
  0.00000000E+00  0.00000000E+00  0.00000000E+00
  0.00000000E+00  0.00000000E+00  0.00000000E+00
  0.00000000E+00  0.00000000E+00  0.00000000E+00
  0.00000000E+00  0.00000000E+00  0.00000000E+00
  0.00000000E+00  0.00000000E+00  0.00000000E+00
  0.00000000E+00  0.00000000E+00  0.00000000E+00
  0.00000000E+00  0.00000000E+00  0.00000000E+00
  0.00000000E+00  0.00000000E+00  0.00000000E+00
  0.00000000E+00  0.00000000E+00  0.00000000E+00
  0.00000000E+00  0.00000000E+00  0.00000000E+00
  0.00000000E+00  0.00000000E+00  0.00000000E+00
  0.00000000E+00  0.00000000E+00  0.00000000E+00
