Title                                   
   1.00000000000000     
     9.8694509999999998    0.0000000000000000    0.0000000000000000
     0.0000000000000000    8.5490480000000009    0.0000000000000000
     0.0000000000000000    0.0000000000000000   20.0000000000000000
    29     2     1
Selective dynamics
Direct
  0.0564546703514836  0.0907665110255770  0.0850786164218704   T   T   T
  0.9310445367297252  0.1722449458452668  0.0877546595898653   T   T   T
  0.0551711307758414  0.9237255614286665  0.0843335001943680   T   T   T
  0.9317251566613013  0.3392421429899036  0.0915720379093339   T   T   T
  0.0564812311581121  0.5894007162269937  0.0878416326737241   T   T   T
  0.9317402404522882  0.6720818313087686  0.0904103433000294   T   T   T
  0.0572553783288919  0.4232079928797380  0.0894260899050239   T   T   T
  0.9301297897688329  0.8385439324697787  0.0869882682205400   T   T   T
  0.3056619733398097  0.0914004455655647  0.0879442139004352   T   T   T
  0.1817975734333261  0.1751967284329852  0.0873480753570392   T   T   T
  0.3048343757003438  0.9260128093658136  0.0872958557874424   T   T   T
  0.1835886572492016  0.3426599523613544  0.0906642024532710   T   T   T
  0.3051670112141585  0.5954295925905048  0.0968917705854929   T   T   T
  0.1802794073535757  0.6743257998792236  0.0878548349730407   T   T   T
  0.3089431548669514  0.4267043028725875  0.0979003750491548   T   T   T
  0.1799788198363944  0.8409935596604780  0.0857704307849097   T   T   T
  0.5555386479761352  0.0856187687045625  0.0960880859355651   T   T   T
  0.4318412725570790  0.1710653260767660  0.0945082626053649   T   T   T
  0.4334663650157373  0.3377201566563179  0.1032970229879403   T   T   T
  0.5596870784048188  0.4076308870730143  0.1184395581083501   T   T   T
  0.4264624656964991  0.8404789415260536  0.0962055163859133   T   T   T
  0.8069012059638957  0.0871962354686575  0.0888123102000640   T   T   T
  0.6815563901219180  0.1669972376641383  0.0956722457692551   T   T   T
  0.8044579311229275  0.9213369603390071  0.0886070625289279   T   T   T
  0.6832013792732579  0.3326164251159741  0.1052562475532020   T   T   T
  0.8088569962680192  0.5891256641132198  0.1021952446127470   T   T   T
  0.6894736331720340  0.6771469601339986  0.1146598468504672   T   T   T
  0.8077274325382595  0.4207370078182898  0.1008558373132434   T   T   T
  0.6805629297125725  0.8371620219515620  0.0989258320982550   T   T   T
  0.4208133122965949  0.6848977817862726  0.1076839242014722   T   T   T
  0.5534939005100000  0.9190705620057148  0.0975526711917309   T   T   T
  0.5553449521500190  0.5895082386632341  0.1698404245520060   T   T   T
 
  0.00000000E+00  0.00000000E+00  0.00000000E+00
  0.00000000E+00  0.00000000E+00  0.00000000E+00
  0.00000000E+00  0.00000000E+00  0.00000000E+00
  0.00000000E+00  0.00000000E+00  0.00000000E+00
  0.00000000E+00  0.00000000E+00  0.00000000E+00
  0.00000000E+00  0.00000000E+00  0.00000000E+00
  0.00000000E+00  0.00000000E+00  0.00000000E+00
  0.00000000E+00  0.00000000E+00  0.00000000E+00
  0.00000000E+00  0.00000000E+00  0.00000000E+00
  0.00000000E+00  0.00000000E+00  0.00000000E+00
  0.00000000E+00  0.00000000E+00  0.00000000E+00
  0.00000000E+00  0.00000000E+00  0.00000000E+00
  0.00000000E+00  0.00000000E+00  0.00000000E+00
  0.00000000E+00  0.00000000E+00  0.00000000E+00
  0.00000000E+00  0.00000000E+00  0.00000000E+00
  0.00000000E+00  0.00000000E+00  0.00000000E+00
  0.00000000E+00  0.00000000E+00  0.00000000E+00
  0.00000000E+00  0.00000000E+00  0.00000000E+00
  0.00000000E+00  0.00000000E+00  0.00000000E+00
  0.00000000E+00  0.00000000E+00  0.00000000E+00
  0.00000000E+00  0.00000000E+00  0.00000000E+00
  0.00000000E+00  0.00000000E+00  0.00000000E+00
  0.00000000E+00  0.00000000E+00  0.00000000E+00
  0.00000000E+00  0.00000000E+00  0.00000000E+00
  0.00000000E+00  0.00000000E+00  0.00000000E+00
  0.00000000E+00  0.00000000E+00  0.00000000E+00
  0.00000000E+00  0.00000000E+00  0.00000000E+00
  0.00000000E+00  0.00000000E+00  0.00000000E+00
  0.00000000E+00  0.00000000E+00  0.00000000E+00
  0.00000000E+00  0.00000000E+00  0.00000000E+00
  0.00000000E+00  0.00000000E+00  0.00000000E+00
  0.00000000E+00  0.00000000E+00  0.00000000E+00
