Title                                   
   1.00000000000000     
     9.8694509999999998    0.0000000000000000    0.0000000000000000
     0.0000000000000000    8.5490480000000009    0.0000000000000000
     0.0000000000000000    0.0000000000000000   20.0000000000000000
    28     3     1
Selective dynamics
Direct
  0.0562662279841501  0.0908017691860734  0.0846130541908875   T   T   T
  0.9304217638117038  0.1741268305440829  0.0877105342686387   T   T   T
  0.0562525005242992  0.9228113592582885  0.0830115780728550   T   T   T
  0.9304857392373290  0.3401447620506634  0.0919993445432997   T   T   T
  0.0562281065181776  0.5892780639069796  0.0867633698434916   T   T   T
  0.9312961040816584  0.6708919420851610  0.0876947483248674   T   T   T
  0.0562637501257183  0.4230543314291791  0.0904029447712468   T   T   T
  0.9305718638047599  0.8386341506429688  0.0852515320036876   T   T   T
  0.3056549780442216  0.0891251602469242  0.0866497865027028   T   T   T
  0.1821557323321464  0.1741225730296307  0.0869355562504359   T   T   T
  0.3069085809536791  0.9236144640348002  0.0866168523367115   T   T   T
  0.1820790825567984  0.3400958960007650  0.0912140524260706   T   T   T
  0.3054273974810214  0.5899484956209929  0.0977513201144385   T   T   T
  0.1811902661031052  0.6708652171232093  0.0867486727888054   T   T   T
  0.1819818964338444  0.8385936946917448  0.0843887216695666   T   T   T
  0.5563066625966879  0.0882663299277112  0.0943436893339208   T   T   T
  0.4306606708279020  0.1711409667119932  0.0925255726485121   T   T   T
  0.4318273902883439  0.3362829226025623  0.1014691975749867   T   T   T
  0.4298577255817518  0.8400105992649730  0.0976921956625914   T   T   T
  0.8069771747456073  0.0891228269513941  0.0877035099925789   T   T   T
  0.6819656412535753  0.1711699744543962  0.0932121278410340   T   T   T
  0.8056764137311638  0.9236282220679247  0.0877047997229766   T   T   T
  0.6807263539785853  0.3363400752303232  0.1021375970191126   T   T   T
  0.8071812658139630  0.5900502847417286  0.0991457481603292   T   T   T
  0.6826858096547849  0.8400300225504163  0.0986254985190792   T   T   T
  0.4231387997677846  0.6783950664708951  0.1129528308722288   T   T   T
  0.5560951320663572  0.4114566455322712  0.1172055426056602   T   T   T
  0.6893921009048893  0.6785124709359206  0.1142463207877303   T   T   T
  0.5562799991073276  0.9217552198249149  0.0977931344653809   T   T   T
  0.3070542587570136  0.4226543145072025  0.0979022317563711   T   T   T
  0.8055508124989355  0.4226801746251720  0.0990674712328543   T   T   T
  0.5550787984327200  0.5926411737487387  0.1741954636969633   T   T   T
 
  0.00000000E+00  0.00000000E+00  0.00000000E+00
  0.00000000E+00  0.00000000E+00  0.00000000E+00
  0.00000000E+00  0.00000000E+00  0.00000000E+00
  0.00000000E+00  0.00000000E+00  0.00000000E+00
  0.00000000E+00  0.00000000E+00  0.00000000E+00
  0.00000000E+00  0.00000000E+00  0.00000000E+00
  0.00000000E+00  0.00000000E+00  0.00000000E+00
  0.00000000E+00  0.00000000E+00  0.00000000E+00
  0.00000000E+00  0.00000000E+00  0.00000000E+00
  0.00000000E+00  0.00000000E+00  0.00000000E+00
  0.00000000E+00  0.00000000E+00  0.00000000E+00
  0.00000000E+00  0.00000000E+00  0.00000000E+00
  0.00000000E+00  0.00000000E+00  0.00000000E+00
  0.00000000E+00  0.00000000E+00  0.00000000E+00
  0.00000000E+00  0.00000000E+00  0.00000000E+00
  0.00000000E+00  0.00000000E+00  0.00000000E+00
  0.00000000E+00  0.00000000E+00  0.00000000E+00
  0.00000000E+00  0.00000000E+00  0.00000000E+00
  0.00000000E+00  0.00000000E+00  0.00000000E+00
  0.00000000E+00  0.00000000E+00  0.00000000E+00
  0.00000000E+00  0.00000000E+00  0.00000000E+00
  0.00000000E+00  0.00000000E+00  0.00000000E+00
  0.00000000E+00  0.00000000E+00  0.00000000E+00
  0.00000000E+00  0.00000000E+00  0.00000000E+00
  0.00000000E+00  0.00000000E+00  0.00000000E+00
  0.00000000E+00  0.00000000E+00  0.00000000E+00
  0.00000000E+00  0.00000000E+00  0.00000000E+00
  0.00000000E+00  0.00000000E+00  0.00000000E+00
  0.00000000E+00  0.00000000E+00  0.00000000E+00
  0.00000000E+00  0.00000000E+00  0.00000000E+00
  0.00000000E+00  0.00000000E+00  0.00000000E+00
  0.00000000E+00  0.00000000E+00  0.00000000E+00
