Title                                   
   1.00000000000000     
     8.5490480000000009    0.0000000000000000    0.0000000000000000
     0.0000000000000000    8.5490480000000009    0.0000000000000000
     0.0000000000000000    0.0000000000000000   20.0000000000000000
    20     4     1
Selective dynamics
Direct
  0.9094415728650950  0.2074565695105105  0.0974214446064986   T   T   T
  0.9118838232728159  0.8006652792612537  0.0975129510372327   T   T   T
  0.1957937108235731  0.0830258173508377  0.0976818040023070   T   T   T
  0.0749594482578462  0.2018971213718435  0.0976365804092032   T   T   T
  0.1563834895218460  0.6501477458837974  0.0975906728631630   T   T   T
  0.0768367868515890  0.5020754501022878  0.0977361480668221   T   T   T
  0.1552949887689217  0.3516115696907172  0.0978578655517806   T   T   T
  0.0783748583762152  0.7993252242389077  0.0975413936149201   T   T   T
  0.4936144754677825  0.0866204786872859  0.0976999696802662   T   T   T
  0.3418427464786135  0.1641937035590557  0.0978724757863197   T   T   T
  0.4930840507061769  0.9169083108694830  0.0976940001954182   T   T   T
  0.3448954802250111  0.8363237221248514  0.0976839139595908   T   T   T
  0.7871950079191664  0.0861633477094692  0.0974071777730820   T   T   T
  0.6396645871442990  0.1670226854005646  0.0976029921215422   T   T   T
  0.7891590053930494  0.9193641831735677  0.0975034167417102   T   T   T
  0.8314075065483107  0.6513305350774706  0.0977861503615567   T   T   T
  0.8304463393183941  0.3567465384809178  0.0975967778556536   T   T   T
  0.6422576594846917  0.8359528624324858  0.0977744067068011   T   T   T
  0.3223268317211978  0.6735385561767545  0.0977431472228201   T   T   T
  0.6650413895672915  0.3364673424838341  0.0979176215635221   T   T   T
  0.9096578112898528  0.5035542033107743  0.0977340918041616   T   T   T
  0.3168126616682485  0.3269345050420590  0.0981814653368972   T   T   T
  0.6697691582287553  0.6722668397026980  0.0981112956181464   T   T   T
  0.1966078958648963  0.9169217719343817  0.0976296572152908   T   T   T
  0.4926607142363456  0.4982756364242036  0.0987875799052742   T   T   T
 
  0.00000000E+00  0.00000000E+00  0.00000000E+00
  0.00000000E+00  0.00000000E+00  0.00000000E+00
  0.00000000E+00  0.00000000E+00  0.00000000E+00
  0.00000000E+00  0.00000000E+00  0.00000000E+00
  0.00000000E+00  0.00000000E+00  0.00000000E+00
  0.00000000E+00  0.00000000E+00  0.00000000E+00
  0.00000000E+00  0.00000000E+00  0.00000000E+00
  0.00000000E+00  0.00000000E+00  0.00000000E+00
  0.00000000E+00  0.00000000E+00  0.00000000E+00
  0.00000000E+00  0.00000000E+00  0.00000000E+00
  0.00000000E+00  0.00000000E+00  0.00000000E+00
  0.00000000E+00  0.00000000E+00  0.00000000E+00
  0.00000000E+00  0.00000000E+00  0.00000000E+00
  0.00000000E+00  0.00000000E+00  0.00000000E+00
  0.00000000E+00  0.00000000E+00  0.00000000E+00
  0.00000000E+00  0.00000000E+00  0.00000000E+00
  0.00000000E+00  0.00000000E+00  0.00000000E+00
  0.00000000E+00  0.00000000E+00  0.00000000E+00
  0.00000000E+00  0.00000000E+00  0.00000000E+00
  0.00000000E+00  0.00000000E+00  0.00000000E+00
  0.00000000E+00  0.00000000E+00  0.00000000E+00
  0.00000000E+00  0.00000000E+00  0.00000000E+00
  0.00000000E+00  0.00000000E+00  0.00000000E+00
  0.00000000E+00  0.00000000E+00  0.00000000E+00
  0.00000000E+00  0.00000000E+00  0.00000000E+00
