Title                                   
   1.00000000000000     
     9.8694509999999998    0.0000000000000000    0.0000000000000000
     0.0000000000000000    8.5490480000000009    0.0000000000000000
     0.0000000000000000    0.0000000000000000   20.0000000000000000
    26     5     1
Selective dynamics
Direct
  0.0547121466133038  0.0915840364596168  0.0911682560182678   T   T   T
  0.9290260942944328  0.1737199642884603  0.0918922075941933   T   T   T
  0.0556040683007845  0.9243838095934558  0.0920617490789245   T   T   T
  0.9272866829503285  0.3417334935203966  0.0929775384081913   T   T   T
  0.0550080638580595  0.5903096185912123  0.0906638851278043   T   T   T
  0.9301879253502953  0.6731183091802418  0.0944896264061375   T   T   T
  0.0550954474095963  0.4230276893807976  0.0906821570430733   T   T   T
  0.9312767989078188  0.8394536204260657  0.0945877763502625   T   T   T
  0.3047804238909277  0.0872749620107754  0.0902972303514506   T   T   T
  0.1815132810965143  0.1736187741524484  0.0897854820527099   T   T   T
  0.1824765966091773  0.3412365950414192  0.0886133284987582   T   T   T
  0.3070116837783957  0.5925852348697471  0.0862582585043552   T   T   T
  0.1800148434044221  0.6740399569769052  0.0889733832296607   T   T   T
  0.3092787045487426  0.4239130372110702  0.0864116367853020   T   T   T
  0.1795566099173031  0.8407863025626929  0.0904099894023637   T   T   T
  0.5538482216508352  0.0812529554830123  0.0929307071429157   T   T   T
  0.5533329485950947  0.9156062050798093  0.0955869123603023   T   T   T
  0.4358023034084670  0.3346238894241912  0.0877727499145948   T   T   T
  0.4258404676573658  0.8314653682674005  0.0902647562362517   T   T   T
  0.8041763251593335  0.0872406591113390  0.0930541144809802   T   T   T
  0.6778637978399010  0.1679141568265905  0.0932732068245502   T   T   T
  0.8055152469933319  0.9215449176219391  0.0952335820278762   T   T   T
  0.6746599958305258  0.3348293359776841  0.0934079751245381   T   T   T
  0.8032047063318938  0.5936529264620100  0.1012330690804817   T   T   T
  0.7998123814271054  0.4241956603548322  0.0965351712649139   T   T   T
  0.6825827655580232  0.8341885392490483  0.1012145964193788   T   T   T
  0.4224173317941814  0.6795365372928052  0.0858501423837642   T   T   T
  0.5526967060464657  0.4070369927686546  0.0892652428478731   T   T   T
  0.6869350247569592  0.6766772604486890  0.1130182498369863   T   T   T
  0.3036033255210092  0.9245166484863240  0.0905876980501996   T   T   T
  0.4288219073425050  0.1646677993879746  0.0901601211478366   T   T   T
  0.6056961731569077  0.6205107434923898  0.2170142000051175   T   T   T
 
  0.00000000E+00  0.00000000E+00  0.00000000E+00
  0.00000000E+00  0.00000000E+00  0.00000000E+00
  0.00000000E+00  0.00000000E+00  0.00000000E+00
  0.00000000E+00  0.00000000E+00  0.00000000E+00
  0.00000000E+00  0.00000000E+00  0.00000000E+00
  0.00000000E+00  0.00000000E+00  0.00000000E+00
  0.00000000E+00  0.00000000E+00  0.00000000E+00
  0.00000000E+00  0.00000000E+00  0.00000000E+00
  0.00000000E+00  0.00000000E+00  0.00000000E+00
  0.00000000E+00  0.00000000E+00  0.00000000E+00
  0.00000000E+00  0.00000000E+00  0.00000000E+00
  0.00000000E+00  0.00000000E+00  0.00000000E+00
  0.00000000E+00  0.00000000E+00  0.00000000E+00
  0.00000000E+00  0.00000000E+00  0.00000000E+00
  0.00000000E+00  0.00000000E+00  0.00000000E+00
  0.00000000E+00  0.00000000E+00  0.00000000E+00
  0.00000000E+00  0.00000000E+00  0.00000000E+00
  0.00000000E+00  0.00000000E+00  0.00000000E+00
  0.00000000E+00  0.00000000E+00  0.00000000E+00
  0.00000000E+00  0.00000000E+00  0.00000000E+00
  0.00000000E+00  0.00000000E+00  0.00000000E+00
  0.00000000E+00  0.00000000E+00  0.00000000E+00
  0.00000000E+00  0.00000000E+00  0.00000000E+00
  0.00000000E+00  0.00000000E+00  0.00000000E+00
  0.00000000E+00  0.00000000E+00  0.00000000E+00
  0.00000000E+00  0.00000000E+00  0.00000000E+00
  0.00000000E+00  0.00000000E+00  0.00000000E+00
  0.00000000E+00  0.00000000E+00  0.00000000E+00
  0.00000000E+00  0.00000000E+00  0.00000000E+00
  0.00000000E+00  0.00000000E+00  0.00000000E+00
  0.00000000E+00  0.00000000E+00  0.00000000E+00
  0.00000000E+00  0.00000000E+00  0.00000000E+00
