Title                                   
   1.00000000000000     
     8.5490480000000009    0.0000000000000000    0.0000000000000000
     0.0000000000000000    8.5490480000000009    0.0000000000000000
     0.0000000000000000    0.0000000000000000   20.0000000000000000
    20     4     1
Selective dynamics
Direct
  0.9093931889865970  0.2059883706124924  0.0954604667393333   T   T   T
  0.9071633732286042  0.5018078157845635  0.0953159640020211   T   T   T
  0.9094038117318345  0.7975924933312097  0.0954744485856490   T   T   T
  0.1972172512535894  0.0853676445736347  0.0954949990595170   T   T   T
  0.0766088291335148  0.2059663065770792  0.0954749652681218   T   T   T
  0.1972368344896904  0.9181603936456809  0.0954994510521863   T   T   T
  0.1575308056231946  0.6501643683362672  0.0953460954387498   T   T   T
  0.0788763260666523  0.5017819320572274  0.0953321734640059   T   T   T
  0.1575178606779767  0.3533842512505477  0.0953372130933583   T   T   T
  0.0766276077826952  0.7975637946000431  0.0954845011893414   T   T   T
  0.4929707478164180  0.0876436424586370  0.0953574123649753   T   T   T
  0.3446109286997839  0.1662889152466990  0.0953583967338692   T   T   T
  0.4929753463951737  0.9159507066701239  0.0953645644203230   T   T   T
  0.3446299714145387  0.8372807458755048  0.0953613588131567   T   T   T
  0.7887579114774860  0.0854079044686493  0.0954773036153382   T   T   T
  0.6413467429189921  0.1663020323308804  0.0953277174154091   T   T   T
  0.7887721412106867  0.9181899166978893  0.0954818980886619   T   T   T
  0.8285230618675918  0.6501970406120745  0.0953196992998325   T   T   T
  0.8285204035386297  0.3534098583346491  0.0953012707227774   T   T   T
  0.6413577986102008  0.8373055711152180  0.0953389093602131   T   T   T
  0.3209376568945050  0.3296783269295472  0.0951961541289795   T   T   T
  0.3209508512211337  0.6738813141840615  0.0952067693385553   T   T   T
  0.6651295207786373  0.3296805070331550  0.0951677371387153   T   T   T
  0.6651295306794123  0.6739279257035811  0.0951821595709158   T   T   T
  0.4932234975024541  0.5018682215705973  0.0950433710959711   T   T   T
 
  0.00000000E+00  0.00000000E+00  0.00000000E+00
  0.00000000E+00  0.00000000E+00  0.00000000E+00
  0.00000000E+00  0.00000000E+00  0.00000000E+00
  0.00000000E+00  0.00000000E+00  0.00000000E+00
  0.00000000E+00  0.00000000E+00  0.00000000E+00
  0.00000000E+00  0.00000000E+00  0.00000000E+00
  0.00000000E+00  0.00000000E+00  0.00000000E+00
  0.00000000E+00  0.00000000E+00  0.00000000E+00
  0.00000000E+00  0.00000000E+00  0.00000000E+00
  0.00000000E+00  0.00000000E+00  0.00000000E+00
  0.00000000E+00  0.00000000E+00  0.00000000E+00
  0.00000000E+00  0.00000000E+00  0.00000000E+00
  0.00000000E+00  0.00000000E+00  0.00000000E+00
  0.00000000E+00  0.00000000E+00  0.00000000E+00
  0.00000000E+00  0.00000000E+00  0.00000000E+00
  0.00000000E+00  0.00000000E+00  0.00000000E+00
  0.00000000E+00  0.00000000E+00  0.00000000E+00
  0.00000000E+00  0.00000000E+00  0.00000000E+00
  0.00000000E+00  0.00000000E+00  0.00000000E+00
  0.00000000E+00  0.00000000E+00  0.00000000E+00
  0.00000000E+00  0.00000000E+00  0.00000000E+00
  0.00000000E+00  0.00000000E+00  0.00000000E+00
  0.00000000E+00  0.00000000E+00  0.00000000E+00
  0.00000000E+00  0.00000000E+00  0.00000000E+00
  0.00000000E+00  0.00000000E+00  0.00000000E+00
