Title                                   
   1.00000000000000     
     8.5490480000000009    0.0000000000000000    0.0000000000000000
     0.0000000000000000    8.5490480000000009    0.0000000000000000
     0.0000000000000000    0.0000000000000000   20.0000000000000000
    21     3     1
Selective dynamics
Direct
  0.9093602260390297  0.2055573293007940  0.0975526393992744   T   T   T
  0.9089389049815609  0.5026105716459410  0.0977550814663089   T   T   T
  0.9110179482191819  0.8010222873034605  0.0976563550262700   T   T   T
  0.1970588547938565  0.0833671345511836  0.0977550051398820   T   T   T
  0.0756955639718322  0.2023247262152527  0.0977171800623926   T   T   T
  0.1587678909208856  0.6490987156237151  0.0976936681216210   T   T   T
  0.0781059776686248  0.5016896062577304  0.0977698994221668   T   T   T
  0.1583218968656450  0.3531879135334098  0.0978949728672778   T   T   T
  0.0785504175458495  0.7987809852677900  0.0976379827236487   T   T   T
  0.4927013929623158  0.0865528983371970  0.0977546479370863   T   T   T
  0.3436021625081482  0.1648659310237036  0.0978983412723226   T   T   T
  0.4918359739533093  0.9171081424379465  0.0977218619929191   T   T   T
  0.3457590426499126  0.8360801673331351  0.0976875805808767   T   T   T
  0.7876177470221276  0.0848866664565290  0.0975303601502394   T   T   T
  0.6379476871727219  0.1663757116513218  0.0976580509445429   T   T   T
  0.7889144866086482  0.9197364807892717  0.0976308192499715   T   T   T
  0.8299205277095548  0.6514673123007571  0.0978005520940916   T   T   T
  0.8285864703546513  0.3559895687118902  0.0976605245035869   T   T   T
  0.6397185128518161  0.8364749537269568  0.0977890390403513   T   T   T
  0.3225622084442278  0.6732991917430241  0.0977112113832216   T   T   T
  0.6635156454149960  0.3317536265998597  0.0976989972834047   T   T   T
  0.3187200019402510  0.3277971384042622  0.0981361526756135   T   T   T
  0.6671354862728829  0.6758290522286282  0.0979991987731008   T   T   T
  0.1973534323445047  0.9167929081917983  0.0976821928649804   T   T   T
  0.4937035407834525  0.5021409803644552  0.0979126850248285   T   T   T
 
  0.00000000E+00  0.00000000E+00  0.00000000E+00
  0.00000000E+00  0.00000000E+00  0.00000000E+00
  0.00000000E+00  0.00000000E+00  0.00000000E+00
  0.00000000E+00  0.00000000E+00  0.00000000E+00
  0.00000000E+00  0.00000000E+00  0.00000000E+00
  0.00000000E+00  0.00000000E+00  0.00000000E+00
  0.00000000E+00  0.00000000E+00  0.00000000E+00
  0.00000000E+00  0.00000000E+00  0.00000000E+00
  0.00000000E+00  0.00000000E+00  0.00000000E+00
  0.00000000E+00  0.00000000E+00  0.00000000E+00
  0.00000000E+00  0.00000000E+00  0.00000000E+00
  0.00000000E+00  0.00000000E+00  0.00000000E+00
  0.00000000E+00  0.00000000E+00  0.00000000E+00
  0.00000000E+00  0.00000000E+00  0.00000000E+00
  0.00000000E+00  0.00000000E+00  0.00000000E+00
  0.00000000E+00  0.00000000E+00  0.00000000E+00
  0.00000000E+00  0.00000000E+00  0.00000000E+00
  0.00000000E+00  0.00000000E+00  0.00000000E+00
  0.00000000E+00  0.00000000E+00  0.00000000E+00
  0.00000000E+00  0.00000000E+00  0.00000000E+00
  0.00000000E+00  0.00000000E+00  0.00000000E+00
  0.00000000E+00  0.00000000E+00  0.00000000E+00
  0.00000000E+00  0.00000000E+00  0.00000000E+00
  0.00000000E+00  0.00000000E+00  0.00000000E+00
  0.00000000E+00  0.00000000E+00  0.00000000E+00
