Title                                   
   1.00000000000000     
     9.8694509999999998    0.0000000000000000    0.0000000000000000
     0.0000000000000000    8.5490480000000009    0.0000000000000000
     0.0000000000000000    0.0000000000000000   20.0000000000000000
    27     3     1
Selective dynamics
Direct
  0.0544697534055140  0.0887725481943186  0.0849005023187669   T   T   T
  0.9290929914148049  0.1738267468872554  0.0852260228885567   T   T   T
  0.0575869723639738  0.9226486925239876  0.0862117602509681   T   T   T
  0.9318565189316321  0.3408650343341172  0.0842118248223821   T   T   T
  0.0580696902436463  0.5898960140417625  0.0835682533483456   T   T   T
  0.9341625863661724  0.6749751410252709  0.0876771132665871   T   T   T
  0.0569438451953436  0.4227970809676767  0.0825619640079856   T   T   T
  0.9321769003167966  0.8422776932287244  0.0889935973788027   T   T   T
  0.3057156271428301  0.0844318499126544  0.0918495260448060   T   T   T
  0.1801227159079659  0.1683504281305040  0.0867277975559606   T   T   T
  0.1799994498399644  0.3354825092162575  0.0856437729634019   T   T   T
  0.3065100278639920  0.5837252358375038  0.0921862606956271   T   T   T
  0.1837440305156034  0.6709244082977687  0.0859133597708750   T   T   T
  0.3029213475364549  0.4146905161999427  0.0947773399961320   T   T   T
  0.1836978262601223  0.8377999297534821  0.0871093570899168   T   T   T
  0.4258974629536579  0.1734536437563730  0.1012311478522151   T   T   T
  0.5556083303011607  0.9247752401699757  0.1034869588451941   T   T   T
  0.4308723288520958  0.6643402439205106  0.1006573217647025   T   T   T
  0.4330239958880159  0.8341862493081359  0.0988679451819744   T   T   T
  0.8021642513464385  0.0937941051144887  0.0909490072872901   T   T   T
  0.6768865492392565  0.1829376937367084  0.0963260670755011   T   T   T
  0.8055007323220188  0.9257608341414849  0.0938815702479202   T   T   T
  0.6817555810250421  0.3503244554946427  0.0978396292681816   T   T   T
  0.8123339817500113  0.5939012851997620  0.0961485138076864   T   T   T
  0.6898386331036002  0.6729149642286986  0.1154422790017633   T   T   T
  0.8097449860386873  0.4260299884664652  0.0909511808933568   T   T   T
  0.6820502420997631  0.8409019609064609  0.1044023908791565   T   T   T
  0.5533641725911521  0.0939386463992270  0.1018172994172931   T   T   T
  0.4193981422395990  0.3313874405635109  0.1099034269837250   T   T   T
  0.3075204201586410  0.9187197922376693  0.0915018478302061   T   T   T
  0.5601049067860615  0.5120446278046789  0.1399999612647681   T   T   T
 
  0.00000000E+00  0.00000000E+00  0.00000000E+00
  0.00000000E+00  0.00000000E+00  0.00000000E+00
  0.00000000E+00  0.00000000E+00  0.00000000E+00
  0.00000000E+00  0.00000000E+00  0.00000000E+00
  0.00000000E+00  0.00000000E+00  0.00000000E+00
  0.00000000E+00  0.00000000E+00  0.00000000E+00
  0.00000000E+00  0.00000000E+00  0.00000000E+00
  0.00000000E+00  0.00000000E+00  0.00000000E+00
  0.00000000E+00  0.00000000E+00  0.00000000E+00
  0.00000000E+00  0.00000000E+00  0.00000000E+00
  0.00000000E+00  0.00000000E+00  0.00000000E+00
  0.00000000E+00  0.00000000E+00  0.00000000E+00
  0.00000000E+00  0.00000000E+00  0.00000000E+00
  0.00000000E+00  0.00000000E+00  0.00000000E+00
  0.00000000E+00  0.00000000E+00  0.00000000E+00
  0.00000000E+00  0.00000000E+00  0.00000000E+00
  0.00000000E+00  0.00000000E+00  0.00000000E+00
  0.00000000E+00  0.00000000E+00  0.00000000E+00
  0.00000000E+00  0.00000000E+00  0.00000000E+00
  0.00000000E+00  0.00000000E+00  0.00000000E+00
  0.00000000E+00  0.00000000E+00  0.00000000E+00
  0.00000000E+00  0.00000000E+00  0.00000000E+00
  0.00000000E+00  0.00000000E+00  0.00000000E+00
  0.00000000E+00  0.00000000E+00  0.00000000E+00
  0.00000000E+00  0.00000000E+00  0.00000000E+00
  0.00000000E+00  0.00000000E+00  0.00000000E+00
  0.00000000E+00  0.00000000E+00  0.00000000E+00
  0.00000000E+00  0.00000000E+00  0.00000000E+00
  0.00000000E+00  0.00000000E+00  0.00000000E+00
  0.00000000E+00  0.00000000E+00  0.00000000E+00
  0.00000000E+00  0.00000000E+00  0.00000000E+00
