Title                                   
   1.00000000000000     
     8.5490480000000009    0.0000000000000000    0.0000000000000000
     0.0000000000000000    8.5490480000000009    0.0000000000000000
     0.0000000000000000    0.0000000000000000   20.0000000000000000
    23     1     1
Selective dynamics
Direct
  0.9111259380394550  0.2059295368968969  0.0954267387120784   T   T   T
  0.9061317501443156  0.5025544057846055  0.0953101290084324   T   T   T
  0.9107886113291896  0.7998828209133513  0.0954424114684091   T   T   T
  0.1971243675863505  0.0838956303794055  0.0954561100655575   T   T   T
  0.0751148232985749  0.2058742268107330  0.0954352612847618   T   T   T
  0.1971805048800843  0.9199180472036121  0.0954687847795710   T   T   T
  0.1546355534591319  0.6496057893664228  0.0953914856663036   T   T   T
  0.0747018440890049  0.5029541626838265  0.0953379503671272   T   T   T
  0.1554808393650791  0.3554692899583728  0.0953718702195405   T   T   T
  0.0754464907660534  0.7983000009759555  0.0954579351094284   T   T   T
  0.4941347904699327  0.0834914554697974  0.0953772929834860   T   T   T
  0.3466735540086122  0.1642916807204936  0.0953963708218785   T   T   T
  0.4937686044711950  0.9149083239613437  0.0953652922991755   T   T   T
  0.3461466180386775  0.8375203304102959  0.0954129414270739   T   T   T
  0.7895115664933917  0.0841992553526725  0.0954472510819188   T   T   T
  0.6407858586349631  0.1634040876766404  0.0953708463691873   T   T   T
  0.7911198568063884  0.9195417121575863  0.0954467231257001   T   T   T
  0.8281721404496935  0.6521431032156030  0.0953096916620575   T   T   T
  0.8287293500331363  0.3549190143918174  0.0953350621376202   T   T   T
  0.6433808195487899  0.8369221733979085  0.0953172546457910   T   T   T
  0.3230043752805484  0.3317970085475813  0.0952894292782111   T   T   T
  0.3217420890334997  0.6715264817102864  0.0953183530479179   T   T   T
  0.6627402439267868  0.3304911214074863  0.0952353364054171   T   T   T
  0.6681229101392124  0.6768640859560839  0.0951443697527518   T   T   T
  0.4896484997079258  0.4983862546512340  0.0948401082805810   T   T   T
 
  0.00000000E+00  0.00000000E+00  0.00000000E+00
  0.00000000E+00  0.00000000E+00  0.00000000E+00
  0.00000000E+00  0.00000000E+00  0.00000000E+00
  0.00000000E+00  0.00000000E+00  0.00000000E+00
  0.00000000E+00  0.00000000E+00  0.00000000E+00
  0.00000000E+00  0.00000000E+00  0.00000000E+00
  0.00000000E+00  0.00000000E+00  0.00000000E+00
  0.00000000E+00  0.00000000E+00  0.00000000E+00
  0.00000000E+00  0.00000000E+00  0.00000000E+00
  0.00000000E+00  0.00000000E+00  0.00000000E+00
  0.00000000E+00  0.00000000E+00  0.00000000E+00
  0.00000000E+00  0.00000000E+00  0.00000000E+00
  0.00000000E+00  0.00000000E+00  0.00000000E+00
  0.00000000E+00  0.00000000E+00  0.00000000E+00
  0.00000000E+00  0.00000000E+00  0.00000000E+00
  0.00000000E+00  0.00000000E+00  0.00000000E+00
  0.00000000E+00  0.00000000E+00  0.00000000E+00
  0.00000000E+00  0.00000000E+00  0.00000000E+00
  0.00000000E+00  0.00000000E+00  0.00000000E+00
  0.00000000E+00  0.00000000E+00  0.00000000E+00
  0.00000000E+00  0.00000000E+00  0.00000000E+00
  0.00000000E+00  0.00000000E+00  0.00000000E+00
  0.00000000E+00  0.00000000E+00  0.00000000E+00
  0.00000000E+00  0.00000000E+00  0.00000000E+00
  0.00000000E+00  0.00000000E+00  0.00000000E+00
