Title                                   
   1.00000000000000     
     8.5490480000000009    0.0000000000000000    0.0000000000000000
     0.0000000000000000    8.5490480000000009    0.0000000000000000
     0.0000000000000000    0.0000000000000000   20.0000000000000000
    19     5     1
Selective dynamics
Direct
  0.9052630399174356  0.2086042213861555  0.0975651906804517   T   T   T
  0.9165281270210768  0.8051115247853583  0.0975836811965296   T   T   T
  0.1929619505732174  0.0777218748521905  0.0977142139621978   T   T   T
  0.0712211893844138  0.1968634160303530  0.0976865574079663   T   T   T
  0.1607909983480262  0.6462870021284858  0.0978923708268060   T   T   T
  0.0775770625581033  0.4985176977882261  0.0978428684438972   T   T   T
  0.1543809186686641  0.3458424046604277  0.0978039838454487   T   T   T
  0.0826775099547844  0.7973952031734292  0.0977794239273435   T   T   T
  0.3386536753419599  0.1613082569091969  0.0978315079544476   T   T   T
  0.4951993071438039  0.9180995378933133  0.0978002516314089   T   T   T
  0.3487164532555768  0.8333052135086285  0.0979200040569255   T   T   T
  0.7848415312741760  0.0894041270903072  0.0975667209305245   T   T   T
  0.6349881260493655  0.1710286388666506  0.0976300988942234   T   T   T
  0.7942011390277750  0.9243165314258521  0.0976023361983544   T   T   T
  0.8331682258087160  0.6567024550217346  0.0976841389655580   T   T   T
  0.8241436631516084  0.3592824922253654  0.0975931341731295   T   T   T
  0.6469853991588261  0.8403423823977141  0.0976923876742605   T   T   T
  0.3269445194819924  0.6694528407818034  0.0979469997198011   T   T   T
  0.6572508458719947  0.3381871793904185  0.0975966400637617   T   T   T
  0.4908636076123584  0.0870567456244804  0.0977943851490096   T   T   T
  0.9082794619065880  0.5047897163841922  0.0977286214406182   T   T   T
  0.3143276522184598  0.3195958010008295  0.0979481496497908   T   T   T
  0.6752075755502885  0.6799773575902270  0.0977454168723361   T   T   T
  0.1980991308223316  0.9123209896053768  0.0979020490157826   T   T   T
  0.4921408898984432  0.5032763894792961  0.0978538673194068   T   T   T
 
  0.00000000E+00  0.00000000E+00  0.00000000E+00
  0.00000000E+00  0.00000000E+00  0.00000000E+00
  0.00000000E+00  0.00000000E+00  0.00000000E+00
  0.00000000E+00  0.00000000E+00  0.00000000E+00
  0.00000000E+00  0.00000000E+00  0.00000000E+00
  0.00000000E+00  0.00000000E+00  0.00000000E+00
  0.00000000E+00  0.00000000E+00  0.00000000E+00
  0.00000000E+00  0.00000000E+00  0.00000000E+00
  0.00000000E+00  0.00000000E+00  0.00000000E+00
  0.00000000E+00  0.00000000E+00  0.00000000E+00
  0.00000000E+00  0.00000000E+00  0.00000000E+00
  0.00000000E+00  0.00000000E+00  0.00000000E+00
  0.00000000E+00  0.00000000E+00  0.00000000E+00
  0.00000000E+00  0.00000000E+00  0.00000000E+00
  0.00000000E+00  0.00000000E+00  0.00000000E+00
  0.00000000E+00  0.00000000E+00  0.00000000E+00
  0.00000000E+00  0.00000000E+00  0.00000000E+00
  0.00000000E+00  0.00000000E+00  0.00000000E+00
  0.00000000E+00  0.00000000E+00  0.00000000E+00
  0.00000000E+00  0.00000000E+00  0.00000000E+00
  0.00000000E+00  0.00000000E+00  0.00000000E+00
  0.00000000E+00  0.00000000E+00  0.00000000E+00
  0.00000000E+00  0.00000000E+00  0.00000000E+00
  0.00000000E+00  0.00000000E+00  0.00000000E+00
  0.00000000E+00  0.00000000E+00  0.00000000E+00
