Title                                   
   1.00000000000000     
     4.9440799999999996    0.0000000000000000    0.0000000000000000
     0.0000000000000000    8.5647549999999999    0.0000000000000000
     0.0000000000000000    0.0000000000000000   20.0000000000000000
    13     1     1
Selective dynamics
Direct
  0.0030647926756483  0.2943243137173850  0.0952922679922646   T   T   T
  0.2500000000000000  0.0427310596401735  0.0966038987828802   T   T   T
  0.0026272588805909  0.9567465008501664  0.0969218323319253   T   T   T
  0.7500000000000000  0.2088999845176452  0.0931127206121017   T   T   T
  0.4969352073243517  0.2943243137173850  0.0952922679922646   T   T   T
  0.7500000000000000  0.0397083109237402  0.0941016291734291   T   T   T
  0.7500000000000000  0.7095929612578494  0.0987121680693301   T   T   T
  0.7500000000000000  0.5378362674614557  0.0977163531182054   T   T   T
  0.4973727411194090  0.9567465008501664  0.0969218323319253   T   T   T
  0.5001943893149569  0.4606789914246565  0.1007616884274139   T   T   T
 -0.0001943893149566  0.4606789914246565  0.1007616884274139   T   T   T
 -0.0023519582953604  0.7879565979733469  0.1034528096577811   T   T   T
  0.5023519582953603  0.7879565979733469  0.1034528096577811   T   T   T
  0.2500000000000000  0.2085506443368220  0.0956398964278884   T   T   T
  0.2500000000000000  0.6249489639312068  0.1392361369973988   T   T   T
 
  0.00000000E+00  0.00000000E+00  0.00000000E+00
  0.00000000E+00  0.00000000E+00  0.00000000E+00
  0.00000000E+00  0.00000000E+00  0.00000000E+00
  0.00000000E+00  0.00000000E+00  0.00000000E+00
  0.00000000E+00  0.00000000E+00  0.00000000E+00
  0.00000000E+00  0.00000000E+00  0.00000000E+00
  0.00000000E+00  0.00000000E+00  0.00000000E+00
  0.00000000E+00  0.00000000E+00  0.00000000E+00
  0.00000000E+00  0.00000000E+00  0.00000000E+00
  0.00000000E+00  0.00000000E+00  0.00000000E+00
  0.00000000E+00  0.00000000E+00  0.00000000E+00
  0.00000000E+00  0.00000000E+00  0.00000000E+00
  0.00000000E+00  0.00000000E+00  0.00000000E+00
  0.00000000E+00  0.00000000E+00  0.00000000E+00
  0.00000000E+00  0.00000000E+00  0.00000000E+00
