Title                                   
   1.00000000000000     
     4.9440799999999996    0.0000000000000000    0.0000000000000000
     0.0000000000000000   17.1295089999999988    0.0000000000000000
     0.0000000000000000    0.0000000000000000   20.0000000000000000
    27     4     1
Selective dynamics
Direct
  0.0000211903886093  0.1049857524616139  0.2886787463939496   T   T   T
  0.2496498372245383  0.1470839029731031  0.2912062384210832   T   T   T
  0.2490575315136765  0.2306738832653075  0.2983756869476918   T   T   T
  0.0043235890089857  0.3535449740279434  0.3144623866696851   T   T   T
 -0.0030269560153641  0.2721186259360647  0.3016361704100168   T   T   T
 -0.0027848760112963  0.6012893185205500  0.3003992740824348   T   T   T
  0.2517843069260438  0.7263739927735942  0.2934489839388489   T   T   T
  0.0018839377934630  0.8531613194818308  0.2879421805633609   T   T   T
  0.2511362361222199  0.8953353056643326  0.2872412362005488   T   T   T
  0.2506021523656873  0.9792041467376619  0.2865160364901911   T   T   T
  0.0026097798059609  0.7692805865897091  0.2908071234482281   T   T   T
  0.4995530156786522  0.1049579686512220  0.2887490354455184   T   T   T
  0.7495447917694193  0.1471187675797389  0.2902266882225009   T   T   T
  0.7488095042665944  0.2299778925404233  0.2957337161234196   T   T   T
  0.5004602747450029  0.0212454806009891  0.2866544818669457   T   T   T
  0.4920987312678864  0.3538395116690718  0.3148731024443682   T   T   T
  0.7510268137558886  0.4837730466463742  0.3133551142698336   T   T   T
  0.5005609469938263  0.2722342962175442  0.3018880063607546   T   T   T
  0.5073655175995693  0.6021671918520547  0.3048015363611334   T   T   T
  0.7519960232759798  0.7282098872619571  0.2928942259519630   T   T   T
  0.5007573965754138  0.8531368664357005  0.2882833198493054   T   T   T
  0.7511682885436549  0.8951492715200157  0.2870095423612198   T   T   T
  0.7506386509069005  0.9790180864128295  0.2861725759155742   T   T   T
  0.5009669321237171  0.7692901514899678  0.2914734740546154   T   T   T
  0.7527147168369811  0.6448460110006144  0.2983053041480451   T   T   T
  0.2521651339888527  0.6420841064151801  0.2991330042194367   T   T   T
  0.0004202425043518  0.0212636772645891  0.2865788580489189   T   T   T
  0.5179328341115234  0.5233595480871442  0.3195818788262271   T   T   T
  0.9909843868215998  0.5202367711362460  0.3028965562789422   T   T   T
  0.2477786889764800  0.3880716094588470  0.3275709868065847   T   T   T
  0.7478979397021571  0.3989236714112877  0.3161212614296848   T   T   T
  0.2267254404330279  0.4865953779164817  0.3895482674489198   T   T   T
 
  0.00000000E+00  0.00000000E+00  0.00000000E+00
  0.00000000E+00  0.00000000E+00  0.00000000E+00
  0.00000000E+00  0.00000000E+00  0.00000000E+00
  0.00000000E+00  0.00000000E+00  0.00000000E+00
  0.00000000E+00  0.00000000E+00  0.00000000E+00
  0.00000000E+00  0.00000000E+00  0.00000000E+00
  0.00000000E+00  0.00000000E+00  0.00000000E+00
  0.00000000E+00  0.00000000E+00  0.00000000E+00
  0.00000000E+00  0.00000000E+00  0.00000000E+00
  0.00000000E+00  0.00000000E+00  0.00000000E+00
  0.00000000E+00  0.00000000E+00  0.00000000E+00
  0.00000000E+00  0.00000000E+00  0.00000000E+00
  0.00000000E+00  0.00000000E+00  0.00000000E+00
  0.00000000E+00  0.00000000E+00  0.00000000E+00
  0.00000000E+00  0.00000000E+00  0.00000000E+00
  0.00000000E+00  0.00000000E+00  0.00000000E+00
  0.00000000E+00  0.00000000E+00  0.00000000E+00
  0.00000000E+00  0.00000000E+00  0.00000000E+00
  0.00000000E+00  0.00000000E+00  0.00000000E+00
  0.00000000E+00  0.00000000E+00  0.00000000E+00
  0.00000000E+00  0.00000000E+00  0.00000000E+00
  0.00000000E+00  0.00000000E+00  0.00000000E+00
  0.00000000E+00  0.00000000E+00  0.00000000E+00
  0.00000000E+00  0.00000000E+00  0.00000000E+00
  0.00000000E+00  0.00000000E+00  0.00000000E+00
  0.00000000E+00  0.00000000E+00  0.00000000E+00
  0.00000000E+00  0.00000000E+00  0.00000000E+00
  0.00000000E+00  0.00000000E+00  0.00000000E+00
  0.00000000E+00  0.00000000E+00  0.00000000E+00
  0.00000000E+00  0.00000000E+00  0.00000000E+00
  0.00000000E+00  0.00000000E+00  0.00000000E+00
  0.00000000E+00  0.00000000E+00  0.00000000E+00
