Title                                   
   1.00000000000000     
     4.9440799999999996    0.0000000000000000    0.0000000000000000
     0.0000000000000000   17.1295089999999988    0.0000000000000000
     0.0000000000000000    0.0000000000000000   20.0000000000000000
    27     4     1
Selective dynamics
Direct
 -0.0016834784725416  0.1047766579871383  0.2911376189491381   T   T   T
  0.2478451575545060  0.1468201497197168  0.2937685197513254   T   T   T
  0.2462154358342587  0.2302551934674875  0.3005657108989648   T   T   T
 -0.0036584886842984  0.3526084653945924  0.3150895128523295   T   T   T
 -0.0060610459811542  0.2715795033912170  0.3030597989245418   T   T   T
  0.0040717229247769  0.6008991821199328  0.2927996041053813   T   T   T
  0.2566819884610130  0.7259049099514353  0.2931013285315444   T   T   T
  0.0045641918665588  0.8528718970094118  0.2890306285188071   T   T   T
  0.2531736906650003  0.8950739790270302  0.2889869423877863   T   T   T
  0.2510052757620305  0.9788942128025742  0.2887386379116344   T   T   T
  0.0070819411193793  0.7689004960375739  0.2904339650547912   T   T   T
  0.4980111100094193  0.1046071561507326  0.2913956697834803   T   T   T
  0.7471640820099543  0.1469414832382933  0.2927619170315084   T   T   T
  0.7446501834565388  0.2299410055206300  0.2979654800252003   T   T   T
  0.5004046005772611  0.0209625392794881  0.2891322402262092   T   T   T
  0.4899569172096961  0.3546873184265220  0.3159281695893018   T   T   T
  0.7732916459552779  0.4837871376169411  0.3208855128872677   T   T   T
  0.4957528584233642  0.2724593961685275  0.3040938379374926   T   T   T
  0.5167955157968878  0.6014954923906058  0.3045580673150649   T   T   T
  0.7570121644981950  0.7278190123647451  0.2923502702115339   T   T   T
  0.5034149546184105  0.8527462730616711  0.2899121911678658   T   T   T
  0.7533677372695118  0.8948529507193155  0.2887496815321164   T   T   T
  0.7510989767652514  0.9786999776292951  0.2884549174651007   T   T   T
  0.5053146571069869  0.7689858812303750  0.2923669226055035   T   T   T
  0.7604480628622277  0.6444422868591297  0.2954554486218920   T   T   T
  0.2587313467502054  0.6412351729283223  0.2967805105348391   T   T   T
  0.0003109371248626  0.0210443847876409  0.2888759911735485   T   T   T
  0.5336462784834342  0.5261841801813545  0.3289240087611615   T   T   T
  0.9875785261537816  0.5182764107974612  0.2818623555987738   T   T   T
  0.2396097787321863  0.3894502753174323  0.3307936597652669   T   T   T
  0.7444469669116349  0.3970573460295654  0.3169305054397683   T   T   T
  0.1765793082353906  0.4942906723938308  0.3676753744408109   T   T   T
 
  0.00000000E+00  0.00000000E+00  0.00000000E+00
  0.00000000E+00  0.00000000E+00  0.00000000E+00
  0.00000000E+00  0.00000000E+00  0.00000000E+00
  0.00000000E+00  0.00000000E+00  0.00000000E+00
  0.00000000E+00  0.00000000E+00  0.00000000E+00
  0.00000000E+00  0.00000000E+00  0.00000000E+00
  0.00000000E+00  0.00000000E+00  0.00000000E+00
  0.00000000E+00  0.00000000E+00  0.00000000E+00
  0.00000000E+00  0.00000000E+00  0.00000000E+00
  0.00000000E+00  0.00000000E+00  0.00000000E+00
  0.00000000E+00  0.00000000E+00  0.00000000E+00
  0.00000000E+00  0.00000000E+00  0.00000000E+00
  0.00000000E+00  0.00000000E+00  0.00000000E+00
  0.00000000E+00  0.00000000E+00  0.00000000E+00
  0.00000000E+00  0.00000000E+00  0.00000000E+00
  0.00000000E+00  0.00000000E+00  0.00000000E+00
  0.00000000E+00  0.00000000E+00  0.00000000E+00
  0.00000000E+00  0.00000000E+00  0.00000000E+00
  0.00000000E+00  0.00000000E+00  0.00000000E+00
  0.00000000E+00  0.00000000E+00  0.00000000E+00
  0.00000000E+00  0.00000000E+00  0.00000000E+00
  0.00000000E+00  0.00000000E+00  0.00000000E+00
  0.00000000E+00  0.00000000E+00  0.00000000E+00
  0.00000000E+00  0.00000000E+00  0.00000000E+00
  0.00000000E+00  0.00000000E+00  0.00000000E+00
  0.00000000E+00  0.00000000E+00  0.00000000E+00
  0.00000000E+00  0.00000000E+00  0.00000000E+00
  0.00000000E+00  0.00000000E+00  0.00000000E+00
  0.00000000E+00  0.00000000E+00  0.00000000E+00
  0.00000000E+00  0.00000000E+00  0.00000000E+00
  0.00000000E+00  0.00000000E+00  0.00000000E+00
  0.00000000E+00  0.00000000E+00  0.00000000E+00
