Title                                   
   1.00000000000000     
     4.9440799999999996    0.0000000000000000    0.0000000000000000
     0.0000000000000000   17.1295089999999988    0.0000000000000000
     0.0000000000000000    0.0000000000000000   20.0000000000000000
    27     3     1
Selective dynamics
Direct
  0.0013869019194423  0.1053726248323199  0.2967353534703475   T   T   T
  0.2501598734412247  0.1481586557658932  0.2977346803249457   T   T   T
  0.2500634858705377  0.2328017958266288  0.3007742188643511   T   T   T
 -0.0026195968062801  0.2737184364555991  0.3041751896531074   T   T   T
 -0.0014857176614366  0.6020232238479369  0.3032288533614857   T   T   T
  0.2490232538288299  0.7268170850720922  0.2965156224554129   T   T   T
  0.0007668546080504  0.8533629570380652  0.2948983494798206   T   T   T
  0.2498238717530634  0.8955233102181677  0.2946595181692943   T   T   T
  0.2501253666483468  0.9794088556661653  0.2949078457688158   T   T   T
  0.0003719579197849  0.7692682809341165  0.2958508477908097   T   T   T
  0.4995328999894477  0.1055507973479750  0.2960263871259907   T   T   T
  0.7509432173702622  0.1468863459758086  0.2969249849182294   T   T   T
  0.7515168412752549  0.2303860894858744  0.2992040486252647   T   T   T
  0.4996923008486167  0.0215338318088434  0.2949153161305296   T   T   T
  0.7492585951311992  0.3921877363552809  0.3044466836509113   T   T   T
  0.7486071901025203  0.4801388827557441  0.3039659089765645   T   T   T
  0.5040587358748995  0.2730964708440972  0.2991933273624258   T   T   T
  0.4989665108750829  0.6025504058674058  0.2971608409867748   T   T   T
  0.7497409029606795  0.7281457732526411  0.2955297817827747   T   T   T
  0.4985685017523256  0.8532270399301840  0.2943407485626452   T   T   T
  0.7497245228755139  0.8951864828065726  0.2943840116228060   T   T   T
  0.7500223571051309  0.9793300606231738  0.2946575760666690   T   T   T
  0.4985272671845997  0.7691039929842641  0.2948399928839821   T   T   T
  0.7495309538613604  0.6451475965180352  0.2974528238781365   T   T   T
  0.0006380535244868  0.0213766326150145  0.2953454007412108   T   T   T
  0.5018399952401773  0.5208047005600621  0.2970016389098578   T   T   T
 -0.0033253361351761  0.5202753879080142  0.3133852915919567   T   T   T
  0.5143139192134190  0.3532539098356728  0.2971488761983128   T   T   T
 -0.0137921148408119  0.3541120851347228  0.3134172277974603   T   T   T
  0.2481439493789257  0.6446111128022053  0.2992576094126175   T   T   T
  0.2658814848905223  0.4379814389314194  0.3269810434364399   T   T   T
 
  0.00000000E+00  0.00000000E+00  0.00000000E+00
  0.00000000E+00  0.00000000E+00  0.00000000E+00
  0.00000000E+00  0.00000000E+00  0.00000000E+00
  0.00000000E+00  0.00000000E+00  0.00000000E+00
  0.00000000E+00  0.00000000E+00  0.00000000E+00
  0.00000000E+00  0.00000000E+00  0.00000000E+00
  0.00000000E+00  0.00000000E+00  0.00000000E+00
  0.00000000E+00  0.00000000E+00  0.00000000E+00
  0.00000000E+00  0.00000000E+00  0.00000000E+00
  0.00000000E+00  0.00000000E+00  0.00000000E+00
  0.00000000E+00  0.00000000E+00  0.00000000E+00
  0.00000000E+00  0.00000000E+00  0.00000000E+00
  0.00000000E+00  0.00000000E+00  0.00000000E+00
  0.00000000E+00  0.00000000E+00  0.00000000E+00
  0.00000000E+00  0.00000000E+00  0.00000000E+00
  0.00000000E+00  0.00000000E+00  0.00000000E+00
  0.00000000E+00  0.00000000E+00  0.00000000E+00
  0.00000000E+00  0.00000000E+00  0.00000000E+00
  0.00000000E+00  0.00000000E+00  0.00000000E+00
  0.00000000E+00  0.00000000E+00  0.00000000E+00
  0.00000000E+00  0.00000000E+00  0.00000000E+00
  0.00000000E+00  0.00000000E+00  0.00000000E+00
  0.00000000E+00  0.00000000E+00  0.00000000E+00
  0.00000000E+00  0.00000000E+00  0.00000000E+00
  0.00000000E+00  0.00000000E+00  0.00000000E+00
  0.00000000E+00  0.00000000E+00  0.00000000E+00
  0.00000000E+00  0.00000000E+00  0.00000000E+00
  0.00000000E+00  0.00000000E+00  0.00000000E+00
  0.00000000E+00  0.00000000E+00  0.00000000E+00
  0.00000000E+00  0.00000000E+00  0.00000000E+00
  0.00000000E+00  0.00000000E+00  0.00000000E+00
