Title                                   
   1.00000000000000     
     9.8694509999999998    0.0000000000000000    0.0000000000000000
     0.0000000000000000    8.5490480000000009    0.0000000000000000
     0.0000000000000000    0.0000000000000000   20.0000000000000000
    29     1     1
Selective dynamics
Direct
  0.0554347730268733  0.0883746754281172  0.0902574712573413   T   T   T
  0.9306645056337967  0.1727088605314578  0.0864091546588638   T   T   T
  0.0561733721996510  0.9223543495084504  0.0908459874203518   T   T   T
  0.9322394355130461  0.3393040664867426  0.0867777867931906   T   T   T
  0.0561152364553666  0.5894053811027200  0.0918313613221609   T   T   T
  0.9322598337153641  0.6736793483271591  0.0887675117275667   T   T   T
  0.0559306745771850  0.4227749385114482  0.0912001211614845   T   T   T
  0.9309912146368595  0.8400662824431752  0.0880637099956041   T   T   T
  0.3053276060201690  0.0896492886166469  0.0992075605878351   T   T   T
  0.1796977359858470  0.1709635756727010  0.0952495551993536   T   T   T
  0.3067441937807880  0.9211684062581951  0.0991768612657511   T   T   T
  0.1793442754718999  0.3375879752532991  0.0959494852217348   T   T   T
  0.3045327281279206  0.5880175321195221  0.1036978942960244   T   T   T
  0.1805896500654036  0.6718413082220599  0.0965213845446936   T   T   T
  0.3026548273678875  0.4183658925518303  0.1041361852816846   T   T   T
  0.1813042025352223  0.8389097987650675  0.0956346006199763   T   T   T
  0.5536844930312406  0.0925163260022686  0.0969473181390903   T   T   T
  0.4277690879866061  0.1791257312050692  0.1034381441468265   T   T   T
  0.5542553830012182  0.9252293718371102  0.0973659493875902   T   T   T
  0.4298798357739458  0.6666726259080646  0.1088601486052394   T   T   T
  0.4310428430331946  0.8343155703320808  0.1030060353987570   T   T   T
  0.8052525691410632  0.0906057782965607  0.0854870064843932   T   T   T
  0.6796548288186977  0.1757118182645288  0.0869943080534326   T   T   T
  0.8055508888987125  0.9240117512055313  0.0865250807339493   T   T   T
  0.6832846484230256  0.3397904156320822  0.0828429168797987   T   T   T
  0.8068823281323865  0.5921790568062617  0.0856312036907582   T   T   T
  0.6832116519585589  0.6761939866728437  0.0881028736840353   T   T   T
  0.8073206203806338  0.4218409599882347  0.0832361697700144   T   T   T
  0.6802693854690357  0.8410606823360771  0.0892103949649538   T   T   T
  0.4235045536128380  0.3408035670140335  0.1108803955210334   T   T   T
  0.5815676172255733  0.5056456787006703  0.1287104231865515   T   T   T
 
  0.00000000E+00  0.00000000E+00  0.00000000E+00
  0.00000000E+00  0.00000000E+00  0.00000000E+00
  0.00000000E+00  0.00000000E+00  0.00000000E+00
  0.00000000E+00  0.00000000E+00  0.00000000E+00
  0.00000000E+00  0.00000000E+00  0.00000000E+00
  0.00000000E+00  0.00000000E+00  0.00000000E+00
  0.00000000E+00  0.00000000E+00  0.00000000E+00
  0.00000000E+00  0.00000000E+00  0.00000000E+00
  0.00000000E+00  0.00000000E+00  0.00000000E+00
  0.00000000E+00  0.00000000E+00  0.00000000E+00
  0.00000000E+00  0.00000000E+00  0.00000000E+00
  0.00000000E+00  0.00000000E+00  0.00000000E+00
  0.00000000E+00  0.00000000E+00  0.00000000E+00
  0.00000000E+00  0.00000000E+00  0.00000000E+00
  0.00000000E+00  0.00000000E+00  0.00000000E+00
  0.00000000E+00  0.00000000E+00  0.00000000E+00
  0.00000000E+00  0.00000000E+00  0.00000000E+00
  0.00000000E+00  0.00000000E+00  0.00000000E+00
  0.00000000E+00  0.00000000E+00  0.00000000E+00
  0.00000000E+00  0.00000000E+00  0.00000000E+00
  0.00000000E+00  0.00000000E+00  0.00000000E+00
  0.00000000E+00  0.00000000E+00  0.00000000E+00
  0.00000000E+00  0.00000000E+00  0.00000000E+00
  0.00000000E+00  0.00000000E+00  0.00000000E+00
  0.00000000E+00  0.00000000E+00  0.00000000E+00
  0.00000000E+00  0.00000000E+00  0.00000000E+00
  0.00000000E+00  0.00000000E+00  0.00000000E+00
  0.00000000E+00  0.00000000E+00  0.00000000E+00
  0.00000000E+00  0.00000000E+00  0.00000000E+00
  0.00000000E+00  0.00000000E+00  0.00000000E+00
  0.00000000E+00  0.00000000E+00  0.00000000E+00
