Title                                   
   1.00000000000000     
     4.9440799999999996    0.0000000000000000    0.0000000000000000
     0.0000000000000000   17.1295089999999988    0.0000000000000000
     0.0000000000000000    0.0000000000000000   20.0000000000000000
    28     2     1
Selective dynamics
Direct
 -0.0102273955470124  0.1054993884070154  0.2955305370386042   T   T   T
  0.2380682724379767  0.1480365854730112  0.2965028784075021   T   T   T
  0.2330160768568251  0.2317967591461791  0.2999998390567585   T   T   T
 -0.0206174931052932  0.2729252588700734  0.3044916619617516   T   T   T
  0.0199869366157783  0.6015488202701342  0.2965102496073611   T   T   T
  0.2605930865214698  0.7264316906346520  0.2958840536697406   T   T   T
  0.0046110632358744  0.8528921900937121  0.2936343886013774   T   T   T
  0.2519192593191882  0.8952175385956219  0.2938152497261698   T   T   T
  0.2465789550522319  0.9792370976766126  0.2938884865658686   T   T   T
  0.0096292113083588  0.7686401605803039  0.2940834311512038   T   T   T
  0.4894996333478665  0.1054365082276176  0.2945440362845451   T   T   T
  0.7376967544817919  0.1474200066723370  0.2954287441706610   T   T   T
  0.7311287288324406  0.2314667590732698  0.2980177557475468   T   T   T
  0.4947593224042777  0.0213606166882456  0.2937626316250142   T   T   T
  0.7483449104640714  0.3940640693132720  0.3063033679531899   T   T   T
  0.7662414399903011  0.4809163225116958  0.3067468281685668   T   T   T
  0.4801864364130641  0.2749008572986603  0.2981623387277321   T   T   T
  0.5165895836182998  0.6020844942078083  0.3039736869024168   T   T   T
  0.7610147526322797  0.7272852445685157  0.2945985162255486   T   T   T
  0.5027687322434684  0.8528508420214873  0.2940070086996199   T   T   T
  0.7519263831342813  0.8948020476960823  0.2935643930781173   T   T   T
  0.7465921474501857  0.9790929660559231  0.2936425839894612   T   T   T
  0.5086116355398024  0.7685779273270623  0.2950174135218773   T   T   T
  0.7663238441515487  0.6438679866631610  0.2967458291447906   T   T   T
 -0.0050628424885639  0.0214201267592336  0.2942366332558266   T   T   T
  0.5213256433677105  0.5216794953599282  0.3177106957593681   T   T   T
  0.0143120162457155  0.5185645815685331  0.2970720100840026   T   T   T
  0.4980236565498574  0.3584958722467012  0.2988494299401550   T   T   T
 -0.0241162863227094  0.3515703050859715  0.3154255780333585   T   T   T
  0.2653670071080642  0.6444343313685867  0.2988938798262034   T   T   T
  0.2549155281408509  0.4388251495385887  0.3340158630756130   T   T   T
 
  0.00000000E+00  0.00000000E+00  0.00000000E+00
  0.00000000E+00  0.00000000E+00  0.00000000E+00
  0.00000000E+00  0.00000000E+00  0.00000000E+00
  0.00000000E+00  0.00000000E+00  0.00000000E+00
  0.00000000E+00  0.00000000E+00  0.00000000E+00
  0.00000000E+00  0.00000000E+00  0.00000000E+00
  0.00000000E+00  0.00000000E+00  0.00000000E+00
  0.00000000E+00  0.00000000E+00  0.00000000E+00
  0.00000000E+00  0.00000000E+00  0.00000000E+00
  0.00000000E+00  0.00000000E+00  0.00000000E+00
  0.00000000E+00  0.00000000E+00  0.00000000E+00
  0.00000000E+00  0.00000000E+00  0.00000000E+00
  0.00000000E+00  0.00000000E+00  0.00000000E+00
  0.00000000E+00  0.00000000E+00  0.00000000E+00
  0.00000000E+00  0.00000000E+00  0.00000000E+00
  0.00000000E+00  0.00000000E+00  0.00000000E+00
  0.00000000E+00  0.00000000E+00  0.00000000E+00
  0.00000000E+00  0.00000000E+00  0.00000000E+00
  0.00000000E+00  0.00000000E+00  0.00000000E+00
  0.00000000E+00  0.00000000E+00  0.00000000E+00
  0.00000000E+00  0.00000000E+00  0.00000000E+00
  0.00000000E+00  0.00000000E+00  0.00000000E+00
  0.00000000E+00  0.00000000E+00  0.00000000E+00
  0.00000000E+00  0.00000000E+00  0.00000000E+00
  0.00000000E+00  0.00000000E+00  0.00000000E+00
  0.00000000E+00  0.00000000E+00  0.00000000E+00
  0.00000000E+00  0.00000000E+00  0.00000000E+00
  0.00000000E+00  0.00000000E+00  0.00000000E+00
  0.00000000E+00  0.00000000E+00  0.00000000E+00
  0.00000000E+00  0.00000000E+00  0.00000000E+00
  0.00000000E+00  0.00000000E+00  0.00000000E+00
