Title                                   
   1.00000000000000     
     9.8694509999999998    0.0000000000000000    0.0000000000000000
     0.0000000000000000    8.5490480000000009    0.0000000000000000
     0.0000000000000000    0.0000000000000000   20.0000000000000000
    25     6     1
Selective dynamics
Direct
  0.0562589255670465  0.0935357324634154  0.0926852807918914   T   T   T
  0.9297177277654077  0.1759350421113256  0.0925795019228675   T   T   T
  0.0562751733877702  0.9249783920660906  0.0932697445241237   T   T   T
  0.9287784260638070  0.3425602445588240  0.0925391635090868   T   T   T
  0.0562777228402679  0.5908820451191688  0.0927590242459828   T   T   T
  0.9317761878958786  0.6724349425744086  0.0937051218327434   T   T   T
  0.0562579774951210  0.4237610096216379  0.0925122716363415   T   T   T
  0.9314568321871103  0.8400676532135978  0.0938677645810507   T   T   T
  0.3056542242676329  0.0889371429382222  0.0924251654426462   T   T   T
  0.1827938491878241  0.1758820637618696  0.0922634455077031   T   T   T
  0.3062184927341650  0.9235222016390006  0.0933613552685356   T   T   T
  0.1837132134306460  0.3425208734736871  0.0922095670014737   T   T   T
  0.3088781696560659  0.5947669873805574  0.0938943023300332   T   T   T
  0.1807782273824694  0.6724128407521672  0.0933652429581407   T   T   T
  0.1810974819955106  0.8400511832967326  0.0934910737867343   T   T   T
  0.5562652962002155  0.0832753740574174  0.0933608736810547   T   T   T
  0.4319055029627681  0.1687991052828513  0.0930958322018406   T   T   T
  0.4372700271969103  0.3359726454246498  0.0936136402861966   T   T   T
  0.4279613763261954  0.8340233935683777  0.0942461741256895   T   T   T
  0.8068994604366156  0.0890002737237818  0.0929852035614266   T   T   T
  0.6806163087283846  0.1688210311686138  0.0935128677364240   T   T   T
  0.8063621819997255  0.9235791613424026  0.0939030046537921   T   T   T
  0.6752018346889973  0.3360183026547668  0.0940194278383646   T   T   T
  0.8036981502227134  0.5948035033779447  0.0947873637347897   T   T   T
  0.6846197327509416  0.8340953199906224  0.0949866217284695   T   T   T
  0.4254253436911112  0.6763274733101695  0.0957460757696306   T   T   T
  0.5562212246092181  0.4129871207262513  0.0954315734053572   T   T   T
  0.6872413391186626  0.6764411322267698  0.0972113927046059   T   T   T
  0.5562983248529757  0.9147075347954456  0.0929446056561763   T   T   T
  0.3117814212075012  0.4253901995316962  0.0919067755480500   T   T   T
  0.8007542877278168  0.4254571322051689  0.0925845106747840   T   T   T
  0.5551845554225305  0.5882989416423677  0.1864110313540092   T   T   T
 
  0.00000000E+00  0.00000000E+00  0.00000000E+00
  0.00000000E+00  0.00000000E+00  0.00000000E+00
  0.00000000E+00  0.00000000E+00  0.00000000E+00
  0.00000000E+00  0.00000000E+00  0.00000000E+00
  0.00000000E+00  0.00000000E+00  0.00000000E+00
  0.00000000E+00  0.00000000E+00  0.00000000E+00
  0.00000000E+00  0.00000000E+00  0.00000000E+00
  0.00000000E+00  0.00000000E+00  0.00000000E+00
  0.00000000E+00  0.00000000E+00  0.00000000E+00
  0.00000000E+00  0.00000000E+00  0.00000000E+00
  0.00000000E+00  0.00000000E+00  0.00000000E+00
  0.00000000E+00  0.00000000E+00  0.00000000E+00
  0.00000000E+00  0.00000000E+00  0.00000000E+00
  0.00000000E+00  0.00000000E+00  0.00000000E+00
  0.00000000E+00  0.00000000E+00  0.00000000E+00
  0.00000000E+00  0.00000000E+00  0.00000000E+00
  0.00000000E+00  0.00000000E+00  0.00000000E+00
  0.00000000E+00  0.00000000E+00  0.00000000E+00
  0.00000000E+00  0.00000000E+00  0.00000000E+00
  0.00000000E+00  0.00000000E+00  0.00000000E+00
  0.00000000E+00  0.00000000E+00  0.00000000E+00
  0.00000000E+00  0.00000000E+00  0.00000000E+00
  0.00000000E+00  0.00000000E+00  0.00000000E+00
  0.00000000E+00  0.00000000E+00  0.00000000E+00
  0.00000000E+00  0.00000000E+00  0.00000000E+00
  0.00000000E+00  0.00000000E+00  0.00000000E+00
  0.00000000E+00  0.00000000E+00  0.00000000E+00
  0.00000000E+00  0.00000000E+00  0.00000000E+00
  0.00000000E+00  0.00000000E+00  0.00000000E+00
  0.00000000E+00  0.00000000E+00  0.00000000E+00
  0.00000000E+00  0.00000000E+00  0.00000000E+00
  0.00000000E+00  0.00000000E+00  0.00000000E+00
