Title                                   
   1.00000000000000     
     9.8694509999999998    0.0000000000000000    0.0000000000000000
     0.0000000000000000    8.5490480000000009    0.0000000000000000
     0.0000000000000000    0.0000000000000000   20.0000000000000000
    25     5     1
Selective dynamics
Direct
  0.0547484905909608  0.0888564349636895  0.0857035126269620   T   T   T
  0.9304871621809856  0.1728099113927803  0.0848138646889878   T   T   T
  0.0573680527787391  0.9220717194210332  0.0867728296731625   T   T   T
  0.9332488399860978  0.3406294276340655  0.0840740516492063   T   T   T
  0.0557507642342024  0.5906168088553448  0.0855347078950125   T   T   T
  0.0564973057608328  0.4245021047480447  0.0842725377631749   T   T   T
  0.9325455861564127  0.8400904797435468  0.0881271713184210   T   T   T
  0.3059523250739261  0.0880391674046080  0.0941517007213449   T   T   T
  0.1806008776372999  0.1698219863474017  0.0889912787915029   T   T   T
  0.1799720319988357  0.3374946175216164  0.0890023363016013   T   T   T
  0.3005443443369561  0.5868096015569372  0.0983088026121805   T   T   T
  0.1797821076407803  0.6733547134660023  0.0894703050591337   T   T   T
  0.3003775967927418  0.4175147732652192  0.0993118542719031   T   T   T
  0.1828296726845260  0.8403976075097016  0.0891699688425912   T   T   T
  0.4288528666530630  0.1755796040892426  0.1024431407370363   T   T   T
  0.5561288509301592  0.9211428980417073  0.1019896273000351   T   T   T
  0.4226114154551972  0.6710766671502454  0.1086327921350437   T   T   T
  0.4290248186252243  0.8362627420409837  0.1016627419391107   T   T   T
  0.8043024650841157  0.0895013847662873  0.0890453158833763   T   T   T
  0.6811512124129687  0.1779698486437605  0.0948811244326935   T   T   T
  0.8068671743630498  0.9218768731813213  0.0915747330873343   T   T   T
  0.6876279001108327  0.3429909513070701  0.0983069276109377   T   T   T
  0.8122651667013103  0.5950217366087999  0.0937217406196225   T   T   T
  0.8118768207911861  0.4245471422849031  0.0897692588657868   T   T   T
  0.6826291817091600  0.8373833573743272  0.1001095967019986   T   T   T
  0.9334814575798364  0.6740704585982380  0.0872228546322139   T   T   T
  0.5553202087434492  0.0933710522841619  0.1008775410429976   T   T   T
  0.4210115032638063  0.3354587216070382  0.1112739231315446   T   T   T
  0.6947076419506851  0.6734970880208504  0.1059681213851807   T   T   T
  0.3063898551647269  0.9222594879245393  0.0932836452528097   T   T   T
  0.5581813026079344  0.5058556322465578  0.1224969930271271   T   T   T
 
  0.00000000E+00  0.00000000E+00  0.00000000E+00
  0.00000000E+00  0.00000000E+00  0.00000000E+00
  0.00000000E+00  0.00000000E+00  0.00000000E+00
  0.00000000E+00  0.00000000E+00  0.00000000E+00
  0.00000000E+00  0.00000000E+00  0.00000000E+00
  0.00000000E+00  0.00000000E+00  0.00000000E+00
  0.00000000E+00  0.00000000E+00  0.00000000E+00
  0.00000000E+00  0.00000000E+00  0.00000000E+00
  0.00000000E+00  0.00000000E+00  0.00000000E+00
  0.00000000E+00  0.00000000E+00  0.00000000E+00
  0.00000000E+00  0.00000000E+00  0.00000000E+00
  0.00000000E+00  0.00000000E+00  0.00000000E+00
  0.00000000E+00  0.00000000E+00  0.00000000E+00
  0.00000000E+00  0.00000000E+00  0.00000000E+00
  0.00000000E+00  0.00000000E+00  0.00000000E+00
  0.00000000E+00  0.00000000E+00  0.00000000E+00
  0.00000000E+00  0.00000000E+00  0.00000000E+00
  0.00000000E+00  0.00000000E+00  0.00000000E+00
  0.00000000E+00  0.00000000E+00  0.00000000E+00
  0.00000000E+00  0.00000000E+00  0.00000000E+00
  0.00000000E+00  0.00000000E+00  0.00000000E+00
  0.00000000E+00  0.00000000E+00  0.00000000E+00
  0.00000000E+00  0.00000000E+00  0.00000000E+00
  0.00000000E+00  0.00000000E+00  0.00000000E+00
  0.00000000E+00  0.00000000E+00  0.00000000E+00
  0.00000000E+00  0.00000000E+00  0.00000000E+00
  0.00000000E+00  0.00000000E+00  0.00000000E+00
  0.00000000E+00  0.00000000E+00  0.00000000E+00
  0.00000000E+00  0.00000000E+00  0.00000000E+00
  0.00000000E+00  0.00000000E+00  0.00000000E+00
  0.00000000E+00  0.00000000E+00  0.00000000E+00
