Title                                   
   1.00000000000000     
     8.5490480000000009    0.0000000000000000    0.0000000000000000
     0.0000000000000000    8.5490480000000009    0.0000000000000000
     0.0000000000000000    0.0000000000000000   20.0000000000000000
    21     3     1
Selective dynamics
Direct
  0.9097876523319065  0.2080728651182355  0.0979111278176277   T   T   T
  0.9124106118554167  0.8011333066166153  0.0977854370544625   T   T   T
  0.1988117774548904  0.0829846303184445  0.0980396921577908   T   T   T
  0.0743200474695065  0.2031890513220965  0.0980741616852829   T   T   T
  0.1566194808384825  0.6481956148984762  0.0979898605939516   T   T   T
  0.0727999879649600  0.5034760364762476  0.0980590622478964   T   T   T
  0.1565534962572869  0.3576495516556775  0.0981519404674618   T   T   T
  0.0796997807325154  0.7988861339526090  0.0979305474658980   T   T   T
  0.4945945832001176  0.0834302684730246  0.0978036497610825   T   T   T
  0.3460805580268067  0.1645727007908955  0.0980133798527498   T   T   T
  0.4948172631626349  0.9133517094401611  0.0978301726247244   T   T   T
  0.3481475485834319  0.8300598193325590  0.0980066374630684   T   T   T
  0.7869836466969219  0.0863901734683507  0.0977154991575565   T   T   T
  0.6385225567370652  0.1665921503595860  0.0977595010887197   T   T   T
  0.7898231496985485  0.9195181663463315  0.0977010876603797   T   T   T
  0.8290378305116792  0.6519018168869697  0.0979405791055871   T   T   T
  0.8237467522867890  0.3602965615192247  0.0979758348337642   T   T   T
  0.6423979787213253  0.8338380791505533  0.0978566938614149   T   T   T
  0.3211474807713760  0.3344520196291119  0.0981266408247657   T   T   T
  0.3231314032513903  0.6667375816304855  0.0979824828588713   T   T   T
  0.6604497634671653  0.3373065635845120  0.0978655061936029   T   T   T
  0.9063890860644314  0.5056791921332792  0.0980849958410193   T   T   T
  0.6683368766110802  0.6710058020452643  0.0980850452761667   T   T   T
  0.1990679937795341  0.9150186602664373  0.0980765985362328   T   T   T
  0.4917346935247297  0.5010515445848642  0.0979388655699047   T   T   T
 
  0.00000000E+00  0.00000000E+00  0.00000000E+00
  0.00000000E+00  0.00000000E+00  0.00000000E+00
  0.00000000E+00  0.00000000E+00  0.00000000E+00
  0.00000000E+00  0.00000000E+00  0.00000000E+00
  0.00000000E+00  0.00000000E+00  0.00000000E+00
  0.00000000E+00  0.00000000E+00  0.00000000E+00
  0.00000000E+00  0.00000000E+00  0.00000000E+00
  0.00000000E+00  0.00000000E+00  0.00000000E+00
  0.00000000E+00  0.00000000E+00  0.00000000E+00
  0.00000000E+00  0.00000000E+00  0.00000000E+00
  0.00000000E+00  0.00000000E+00  0.00000000E+00
  0.00000000E+00  0.00000000E+00  0.00000000E+00
  0.00000000E+00  0.00000000E+00  0.00000000E+00
  0.00000000E+00  0.00000000E+00  0.00000000E+00
  0.00000000E+00  0.00000000E+00  0.00000000E+00
  0.00000000E+00  0.00000000E+00  0.00000000E+00
  0.00000000E+00  0.00000000E+00  0.00000000E+00
  0.00000000E+00  0.00000000E+00  0.00000000E+00
  0.00000000E+00  0.00000000E+00  0.00000000E+00
  0.00000000E+00  0.00000000E+00  0.00000000E+00
  0.00000000E+00  0.00000000E+00  0.00000000E+00
  0.00000000E+00  0.00000000E+00  0.00000000E+00
  0.00000000E+00  0.00000000E+00  0.00000000E+00
  0.00000000E+00  0.00000000E+00  0.00000000E+00
  0.00000000E+00  0.00000000E+00  0.00000000E+00
