Title                                   
   1.00000000000000     
     8.5490480000000009    0.0000000000000000    0.0000000000000000
     0.0000000000000000    8.5490480000000009    0.0000000000000000
     0.0000000000000000    0.0000000000000000   20.0000000000000000
    21     3     1
Selective dynamics
Direct
  0.9088502648338568  0.2047163852745137  0.0951124491693922   T   T   T
  0.9038342115604429  0.5027679038476579  0.0966668459382811   T   T   T
  0.9114681218112689  0.8023677378474308  0.0952152283510269   T   T   T
  0.1986375706134243  0.0830331916773612  0.0950059428610936   T   T   T
  0.0754226014852594  0.2033345204005259  0.0950711776499414   T   T   T
  0.1557887448111307  0.6488816219888688  0.0964153605695968   T   T   T
  0.0726901653503920  0.5013192120174976  0.0964185514047631   T   T   T
  0.1544228640250250  0.3542307958506603  0.0968380806937745   T   T   T
  0.0787425751163242  0.7981036230864318  0.0949725639416124   T   T   T
  0.4942404362464005  0.0864385570428823  0.0964970094220257   T   T   T
  0.3463315079293247  0.1641200228117236  0.0967751730949884   T   T   T
  0.4937962303195191  0.9172248227807096  0.0965131656969161   T   T   T
  0.3467693537758248  0.8363882929361031  0.0967997879349511   T   T   T
  0.7890008209822963  0.0861436547512402  0.0951229312971065   T   T   T
  0.6417294739980516  0.1661842124361430  0.0967737443112908   T   T   T
  0.7900411339648085  0.9197766166368097  0.0952080281247994   T   T   T
  0.8283777450349972  0.6530507738284738  0.0970171548727889   T   T   T
  0.8261318436357674  0.3531681445485302  0.0968188417573124   T   T   T
  0.6427790776383855  0.8378957413435197  0.0969553240437413   T   T   T
  0.3219026422554054  0.3326804027927873  0.1013942446731683   T   T   T
  0.3224650167388049  0.6709464985593797  0.0999542839894149   T   T   T
  0.6653849192762817  0.3281746713049046  0.0995978164310381   T   T   T
  0.6676229706897652  0.6770116687471304  0.0998295205750785   T   T   T
  0.1993201395881259  0.9171847357778903  0.0949465232537302   T   T   T
  0.4896615683191099  0.4996461917108438  0.1217852499421405   T   T   T
 
  0.00000000E+00  0.00000000E+00  0.00000000E+00
  0.00000000E+00  0.00000000E+00  0.00000000E+00
  0.00000000E+00  0.00000000E+00  0.00000000E+00
  0.00000000E+00  0.00000000E+00  0.00000000E+00
  0.00000000E+00  0.00000000E+00  0.00000000E+00
  0.00000000E+00  0.00000000E+00  0.00000000E+00
  0.00000000E+00  0.00000000E+00  0.00000000E+00
  0.00000000E+00  0.00000000E+00  0.00000000E+00
  0.00000000E+00  0.00000000E+00  0.00000000E+00
  0.00000000E+00  0.00000000E+00  0.00000000E+00
  0.00000000E+00  0.00000000E+00  0.00000000E+00
  0.00000000E+00  0.00000000E+00  0.00000000E+00
  0.00000000E+00  0.00000000E+00  0.00000000E+00
  0.00000000E+00  0.00000000E+00  0.00000000E+00
  0.00000000E+00  0.00000000E+00  0.00000000E+00
  0.00000000E+00  0.00000000E+00  0.00000000E+00
  0.00000000E+00  0.00000000E+00  0.00000000E+00
  0.00000000E+00  0.00000000E+00  0.00000000E+00
  0.00000000E+00  0.00000000E+00  0.00000000E+00
  0.00000000E+00  0.00000000E+00  0.00000000E+00
  0.00000000E+00  0.00000000E+00  0.00000000E+00
  0.00000000E+00  0.00000000E+00  0.00000000E+00
  0.00000000E+00  0.00000000E+00  0.00000000E+00
  0.00000000E+00  0.00000000E+00  0.00000000E+00
  0.00000000E+00  0.00000000E+00  0.00000000E+00
