Title                                   
   1.00000000000000     
     4.9440799999999996    0.0000000000000000    0.0000000000000000
     0.0000000000000000    8.5647549999999999    0.0000000000000000
     0.0000000000000000    0.0000000000000000   20.0000000000000000
    10     4     1
Selective dynamics
Direct
  0.2500000000000000  0.2112714169398945  0.1004695281569297   T   T   T
 -0.0013118663756354  0.2953043541339781  0.1005255640527396   T   T   T
  0.2500000000000000  0.0382769348004529  0.1004967209296462   T   T   T
 -0.0013093748660982  0.9542452123303122  0.1005431603275238   T   T   T
  0.7500000000000000  0.2082166924212500  0.1005174396079372   T   T   T
  0.5013118663756354  0.2953043541339781  0.1005255640527396   T   T   T
  0.7500000000000000  0.0413575998121339  0.1005239545576305   T   T   T
  0.7500000000000000  0.7121325286693044  0.1006067245591015   T   T   T
  0.7500000000000000  0.5374433952716405  0.1005953276471846   T   T   T
  0.5013093748660982  0.9542452123303122  0.1005431603275238   T   T   T
  0.5147443446247879  0.4562859647495560  0.1005490521479325   T   T   T
 -0.0147443446247880  0.4562859647495560  0.1005490521479325   T   T   T
 -0.0146986875311529  0.7932779549968987  0.1005592120224786   T   T   T
  0.5146986875311529  0.7932779549968987  0.1005592120224786   T   T   T
  0.2500000000000000  0.6247554596638362  0.1004163274402249   T   T   T
 
  0.00000000E+00  0.00000000E+00  0.00000000E+00
  0.00000000E+00  0.00000000E+00  0.00000000E+00
  0.00000000E+00  0.00000000E+00  0.00000000E+00
  0.00000000E+00  0.00000000E+00  0.00000000E+00
  0.00000000E+00  0.00000000E+00  0.00000000E+00
  0.00000000E+00  0.00000000E+00  0.00000000E+00
  0.00000000E+00  0.00000000E+00  0.00000000E+00
  0.00000000E+00  0.00000000E+00  0.00000000E+00
  0.00000000E+00  0.00000000E+00  0.00000000E+00
  0.00000000E+00  0.00000000E+00  0.00000000E+00
  0.00000000E+00  0.00000000E+00  0.00000000E+00
  0.00000000E+00  0.00000000E+00  0.00000000E+00
  0.00000000E+00  0.00000000E+00  0.00000000E+00
  0.00000000E+00  0.00000000E+00  0.00000000E+00
  0.00000000E+00  0.00000000E+00  0.00000000E+00
