Title                                   
   1.00000000000000     
     9.8694509999999998    0.0000000000000000    0.0000000000000000
     0.0000000000000000    8.5490480000000009    0.0000000000000000
     0.0000000000000000    0.0000000000000000   20.0000000000000000
    28     2     1
Selective dynamics
Direct
  0.0556857685698809  0.0893111398594321  0.0831647349120365   T   T   T
  0.9307918120415115  0.1719291747628127  0.0871452717782013   T   T   T
  0.0556882794125824  0.9230202530025211  0.0831585608618571   T   T   T
  0.9333852013192804  0.3386474430580163  0.0872080656271128   T   T   T
  0.0569190955177815  0.5893269392972995  0.0812561843679914   T   T   T
  0.9333896681300921  0.6737214406426963  0.0871799404538507   T   T   T
  0.0569095763431193  0.4230224572977289  0.0812651328289125   T   T   T
  0.9307938871699505  0.8404297113802325  0.0871100201161970   T   T   T
  0.3057594284354205  0.0899908381506967  0.0891986695029505   T   T   T
  0.1806488475548866  0.1720881993103603  0.0837040369608422   T   T   T
  0.3057574502020852  0.9223036154772587  0.0891859162484775   T   T   T
  0.1806670686482160  0.3394749243213731  0.0824903146016357   T   T   T
  0.3044325594776713  0.5915014066086228  0.0896359305599079   T   T   T
  0.1806787800252833  0.6728576745894362  0.0824875639279732   T   T   T
  0.3044204554331519  0.4207802052758441  0.0896441140351438   T   T   T
  0.1806389881353321  0.8402426188044042  0.0837041243472682   T   T   T
  0.5543560618722398  0.0909230191166942  0.1043727841900659   T   T   T
  0.4279881355601588  0.1768167937303528  0.0987117441833789   T   T   T
  0.5543420244426220  0.9213522527738842  0.1043546521445527   T   T   T
  0.4279856950495471  0.8354460702883177  0.0986869017409469   T   T   T
  0.8051871588244116  0.0900840041977248  0.0940910947101972   T   T   T
  0.6817845553734451  0.1758035604253493  0.1045423517846384   T   T   T
  0.8051828873714996  0.9222400821760894  0.0940707498080559   T   T   T
  0.6904557947472637  0.3411011587143989  0.1137635541100472   T   T   T
  0.8131998814638498  0.5905522175423061  0.0997132827225768   T   T   T
  0.6904489211490581  0.6712247121979322  0.1137511412923735   T   T   T
  0.8131951036599319  0.4217941117940843  0.0997234505024301   T   T   T
  0.6817840608918339  0.8365049920802141  0.1045051854733968   T   T   T
  0.4226126778941622  0.3388636919272875  0.1012246643955701   T   T   T
  0.4226295611962379  0.6734123693914802  0.1011830014642464   T   T   T
  0.5554156140875037  0.5061079218051622  0.1407318603472060   T   T   T
 
  0.00000000E+00  0.00000000E+00  0.00000000E+00
  0.00000000E+00  0.00000000E+00  0.00000000E+00
  0.00000000E+00  0.00000000E+00  0.00000000E+00
  0.00000000E+00  0.00000000E+00  0.00000000E+00
  0.00000000E+00  0.00000000E+00  0.00000000E+00
  0.00000000E+00  0.00000000E+00  0.00000000E+00
  0.00000000E+00  0.00000000E+00  0.00000000E+00
  0.00000000E+00  0.00000000E+00  0.00000000E+00
  0.00000000E+00  0.00000000E+00  0.00000000E+00
  0.00000000E+00  0.00000000E+00  0.00000000E+00
  0.00000000E+00  0.00000000E+00  0.00000000E+00
  0.00000000E+00  0.00000000E+00  0.00000000E+00
  0.00000000E+00  0.00000000E+00  0.00000000E+00
  0.00000000E+00  0.00000000E+00  0.00000000E+00
  0.00000000E+00  0.00000000E+00  0.00000000E+00
  0.00000000E+00  0.00000000E+00  0.00000000E+00
  0.00000000E+00  0.00000000E+00  0.00000000E+00
  0.00000000E+00  0.00000000E+00  0.00000000E+00
  0.00000000E+00  0.00000000E+00  0.00000000E+00
  0.00000000E+00  0.00000000E+00  0.00000000E+00
  0.00000000E+00  0.00000000E+00  0.00000000E+00
  0.00000000E+00  0.00000000E+00  0.00000000E+00
  0.00000000E+00  0.00000000E+00  0.00000000E+00
  0.00000000E+00  0.00000000E+00  0.00000000E+00
  0.00000000E+00  0.00000000E+00  0.00000000E+00
  0.00000000E+00  0.00000000E+00  0.00000000E+00
  0.00000000E+00  0.00000000E+00  0.00000000E+00
  0.00000000E+00  0.00000000E+00  0.00000000E+00
  0.00000000E+00  0.00000000E+00  0.00000000E+00
  0.00000000E+00  0.00000000E+00  0.00000000E+00
  0.00000000E+00  0.00000000E+00  0.00000000E+00
