Title                                   
   1.00000000000000     
     9.8694509999999998    0.0000000000000000    0.0000000000000000
     0.0000000000000000    8.5490480000000009    0.0000000000000000
     0.0000000000000000    0.0000000000000000   20.0000000000000000
    27     3     1
Selective dynamics
Direct
  0.0558990802069747  0.0905557157901095  0.0925588251023510   T   T   T
  0.9301139427660073  0.1738787139248176  0.0894096767226560   T   T   T
  0.0564023504873795  0.9236445426148994  0.0924979812520465   T   T   T
  0.9314545595685311  0.3407457966905288  0.0906824911699172   T   T   T
  0.0560451681513943  0.5893403544779916  0.0943931829681070   T   T   T
  0.9329981425496606  0.6745914243637441  0.0911669032721621   T   T   T
  0.0557587472461091  0.4231349404088021  0.0944397592901231   T   T   T
  0.9317845411534690  0.8410901620239115  0.0901645104810182   T   T   T
  0.3066809781108467  0.0899844324804123  0.0980429273144010   T   T   T
  0.1802562047357355  0.1719596809011490  0.0966300772244808   T   T   T
  0.3068315279253474  0.9208313481399495  0.0972712875484062   T   T   T
  0.1802307567526940  0.3394567042667360  0.0978843038355827   T   T   T
  0.3033675588790217  0.5895339969528000  0.1018286892562783   T   T   T
  0.1798990214797235  0.6723352183401746  0.0971619088940123   T   T   T
  0.3038369297587239  0.4206397708733603  0.1033659360721950   T   T   T
  0.1806864024158569  0.8398841415229199  0.0957707447377207   T   T   T
  0.5534613445975737  0.0893901383607111  0.0937968843476037   T   T   T
  0.4298147654410507  0.1773261571282529  0.1004267622596625   T   T   T
  0.5543939064516032  0.9179027327321378  0.0939105669327630   T   T   T
  0.4297052116082266  0.8309837823015543  0.0986168893376596   T   T   T
  0.8048533513253580  0.0905817792509239  0.0869694203505817   T   T   T
  0.6791434518664340  0.1740217737719669  0.0864843329020089   T   T   T
  0.8060730409849023  0.9230252813218267  0.0879086243675781   T   T   T
  0.6821396212115408  0.3396928085042346  0.0833555000410170   T   T   T
  0.8086308498802217  0.5946729584326955  0.0876589844195795   T   T   T
  0.8058930296578838  0.4239293249486880  0.0863057105850943   T   T   T
  0.6824659978893002  0.8371621634095683  0.0888268691129801   T   T   T
  0.4270341594950017  0.3420704253863807  0.1091112910337462   T   T   T
  0.6880106281290660  0.6758672742158822  0.0874773437797554   T   T   T
  0.4252818136103229  0.6677433090294449  0.1038860987185805   T   T   T
  0.5739879156640474  0.5048981474334368  0.1229605166699724   T   T   T
 
  0.00000000E+00  0.00000000E+00  0.00000000E+00
  0.00000000E+00  0.00000000E+00  0.00000000E+00
  0.00000000E+00  0.00000000E+00  0.00000000E+00
  0.00000000E+00  0.00000000E+00  0.00000000E+00
  0.00000000E+00  0.00000000E+00  0.00000000E+00
  0.00000000E+00  0.00000000E+00  0.00000000E+00
  0.00000000E+00  0.00000000E+00  0.00000000E+00
  0.00000000E+00  0.00000000E+00  0.00000000E+00
  0.00000000E+00  0.00000000E+00  0.00000000E+00
  0.00000000E+00  0.00000000E+00  0.00000000E+00
  0.00000000E+00  0.00000000E+00  0.00000000E+00
  0.00000000E+00  0.00000000E+00  0.00000000E+00
  0.00000000E+00  0.00000000E+00  0.00000000E+00
  0.00000000E+00  0.00000000E+00  0.00000000E+00
  0.00000000E+00  0.00000000E+00  0.00000000E+00
  0.00000000E+00  0.00000000E+00  0.00000000E+00
  0.00000000E+00  0.00000000E+00  0.00000000E+00
  0.00000000E+00  0.00000000E+00  0.00000000E+00
  0.00000000E+00  0.00000000E+00  0.00000000E+00
  0.00000000E+00  0.00000000E+00  0.00000000E+00
  0.00000000E+00  0.00000000E+00  0.00000000E+00
  0.00000000E+00  0.00000000E+00  0.00000000E+00
  0.00000000E+00  0.00000000E+00  0.00000000E+00
  0.00000000E+00  0.00000000E+00  0.00000000E+00
  0.00000000E+00  0.00000000E+00  0.00000000E+00
  0.00000000E+00  0.00000000E+00  0.00000000E+00
  0.00000000E+00  0.00000000E+00  0.00000000E+00
  0.00000000E+00  0.00000000E+00  0.00000000E+00
  0.00000000E+00  0.00000000E+00  0.00000000E+00
  0.00000000E+00  0.00000000E+00  0.00000000E+00
  0.00000000E+00  0.00000000E+00  0.00000000E+00
