Title                                   
   1.00000000000000     
     9.8694509999999998    0.0000000000000000    0.0000000000000000
     0.0000000000000000    8.5490480000000009    0.0000000000000000
     0.0000000000000000    0.0000000000000000   20.0000000000000000
    29     2     1
Selective dynamics
Direct
  0.0563252601930234  0.0909791840925475  0.0858242424677203   T   T   T
  0.9310176469670012  0.1728018244902122  0.0875266724405468   T   T   T
  0.0554787814682900  0.9240778557537784  0.0858357841155633   T   T   T
  0.9303848360883591  0.3394852464943761  0.0905129036661385   T   T   T
  0.0560623872571605  0.5891477138376245  0.0878352842553682   T   T   T
  0.9315924597541215  0.6724876390454135  0.0909702425308771   T   T   T
  0.0569900876152655  0.4231316531704856  0.0890258202173392   T   T   T
  0.9310175814505488  0.8391516673341854  0.0891136263366235   T   T   T
  0.3054792777385045  0.0908668045377873  0.0876899876399861   T   T   T
  0.1816893564497006  0.1749128056365237  0.0869206101363331   T   T   T
  0.3041070669276822  0.9248279140659355  0.0886297331755362   T   T   T
  0.1837574579452567  0.3421825968431035  0.0891428899208022   T   T   T
  0.3057716276008806  0.5946802464162823  0.0943640080119308   T   T   T
  0.1801414820699458  0.6741942301724971  0.0881089065236102   T   T   T
  0.3104029488510692  0.4257957058625439  0.0932773783388304   T   T   T
  0.1796748346448406  0.8410052503079986  0.0868540926175863   T   T   T
  0.5555274941884348  0.0850768922765961  0.0938396852352064   T   T   T
  0.4315950274362034  0.1711140671469183  0.0909999283256041   T   T   T
  0.5545211398722549  0.9200445759475668  0.0989175971623142   T   T   T
  0.4354441778967059  0.3366485457706098  0.0951439616732486   T   T   T
  0.4263672171993625  0.8398972429585183  0.0967457750737919   T   T   T
  0.8068865667280263  0.0881136039941327  0.0894355165438760   T   T   T
  0.6813906112566649  0.1685163826199127  0.0928046247824695   T   T   T
  0.8064753651596227  0.9219363128378096  0.0918824245155306   T   T   T
  0.6800035343246685  0.3334605044369121  0.0975815433535512   T   T   T
  0.8078593494921026  0.5890624023820452  0.1018737545546763   T   T   T
  0.6931924859462151  0.6792614587804683  0.1186557797999129   T   T   T
  0.8054244607390986  0.4209062897184344  0.0976130981790807   T   T   T
  0.6823531314445461  0.8390862153245298  0.1027667907330156   T   T   T
  0.4212827753612487  0.6815850248928097  0.1031409683033528   T   T   T
  0.5585048995244271  0.4091265888617951  0.1028193290415116   T   T   T
  0.5529176704087757  0.5866815539896539  0.1698220403280997   T   T   T
 
  0.00000000E+00  0.00000000E+00  0.00000000E+00
  0.00000000E+00  0.00000000E+00  0.00000000E+00
  0.00000000E+00  0.00000000E+00  0.00000000E+00
  0.00000000E+00  0.00000000E+00  0.00000000E+00
  0.00000000E+00  0.00000000E+00  0.00000000E+00
  0.00000000E+00  0.00000000E+00  0.00000000E+00
  0.00000000E+00  0.00000000E+00  0.00000000E+00
  0.00000000E+00  0.00000000E+00  0.00000000E+00
  0.00000000E+00  0.00000000E+00  0.00000000E+00
  0.00000000E+00  0.00000000E+00  0.00000000E+00
  0.00000000E+00  0.00000000E+00  0.00000000E+00
  0.00000000E+00  0.00000000E+00  0.00000000E+00
  0.00000000E+00  0.00000000E+00  0.00000000E+00
  0.00000000E+00  0.00000000E+00  0.00000000E+00
  0.00000000E+00  0.00000000E+00  0.00000000E+00
  0.00000000E+00  0.00000000E+00  0.00000000E+00
  0.00000000E+00  0.00000000E+00  0.00000000E+00
  0.00000000E+00  0.00000000E+00  0.00000000E+00
  0.00000000E+00  0.00000000E+00  0.00000000E+00
  0.00000000E+00  0.00000000E+00  0.00000000E+00
  0.00000000E+00  0.00000000E+00  0.00000000E+00
  0.00000000E+00  0.00000000E+00  0.00000000E+00
  0.00000000E+00  0.00000000E+00  0.00000000E+00
  0.00000000E+00  0.00000000E+00  0.00000000E+00
  0.00000000E+00  0.00000000E+00  0.00000000E+00
  0.00000000E+00  0.00000000E+00  0.00000000E+00
  0.00000000E+00  0.00000000E+00  0.00000000E+00
  0.00000000E+00  0.00000000E+00  0.00000000E+00
  0.00000000E+00  0.00000000E+00  0.00000000E+00
  0.00000000E+00  0.00000000E+00  0.00000000E+00
  0.00000000E+00  0.00000000E+00  0.00000000E+00
  0.00000000E+00  0.00000000E+00  0.00000000E+00
