Title                                   
   1.00000000000000     
     9.8694509999999998    0.0000000000000000    0.0000000000000000
     0.0000000000000000    8.5490480000000009    0.0000000000000000
     0.0000000000000000    0.0000000000000000   20.0000000000000000
    29     2     1
Selective dynamics
Direct
  0.0568269058995893  0.0911486906017512  0.0830639436840221   T   T   T
  0.9315527696605030  0.1730817984571587  0.0849831124690447   T   T   T
  0.0558996634694894  0.9239256898449300  0.0823850425752633   T   T   T
  0.9312443826927532  0.3392058271386653  0.0883459732199956   T   T   T
  0.0565525306452027  0.5890713527610605  0.0846728311998229   T   T   T
  0.9320435799363046  0.6721006277193986  0.0867042120318448   T   T   T
  0.0573294259285508  0.4228633403317590  0.0869688136633792   T   T   T
  0.9312074101402956  0.8391484813447299  0.0848773629879118   T   T   T
  0.3058468143262743  0.0911493575344677  0.0865966125009100   T   T   T
  0.1818193268490009  0.1752338075659076  0.0854795576514183   T   T   T
  0.3042456951465166  0.9254100948156411  0.0875799214258738   T   T   T
  0.1837851709043486  0.3418928008500084  0.0887866378331681   T   T   T
  0.3039022477101010  0.5944267567975439  0.0973472384138227   T   T   T
  0.1801818192675321  0.6737681873621916  0.0862879868924540   T   T   T
  0.3107026543934361  0.4260088580420975  0.0965791075961699   T   T   T
  0.1799116833972463  0.8411495999830467  0.0846908814045596   T   T   T
  0.5560070425258962  0.0858331716925794  0.0942553785159727   T   T   T
  0.4316108338067190  0.1712870937009935  0.0921530315685370   T   T   T
  0.5549509417012208  0.9198762264230081  0.0992748346929223   T   T   T
  0.4345131576514635  0.3356879219251434  0.1001079485363907   T   T   T
  0.4260694008194853  0.8421978912421078  0.0989256742709047   T   T   T
  0.8072390539522979  0.0883825373074662  0.0864210300304174   T   T   T
  0.6820689490726350  0.1685904778817361  0.0918771033618248   T   T   T
  0.8065943530155768  0.9222513101759409  0.0881829900007192   T   T   T
  0.6821686290289973  0.3327702193689484  0.0997206372768341   T   T   T
  0.8088987169492440  0.5895259624641456  0.0984856759398977   T   T   T
  0.6925835673768144  0.6777937945243604  0.1142032488568624   T   T   T
  0.8056960846016501  0.4212234514157090  0.0965863167162353   T   T   T
  0.6835199170163747  0.8389901390459092  0.1002669002985859   T   T   T
  0.4163317549804512  0.6846523265022031  0.1130340442666625   T   T   T
  0.5593815170970603  0.4036408942438121  0.1149769741003517   T   T   T
  0.5489530000369760  0.5879573109355888  0.1818539760172551   T   T   T
 
  0.00000000E+00  0.00000000E+00  0.00000000E+00
  0.00000000E+00  0.00000000E+00  0.00000000E+00
  0.00000000E+00  0.00000000E+00  0.00000000E+00
  0.00000000E+00  0.00000000E+00  0.00000000E+00
  0.00000000E+00  0.00000000E+00  0.00000000E+00
  0.00000000E+00  0.00000000E+00  0.00000000E+00
  0.00000000E+00  0.00000000E+00  0.00000000E+00
  0.00000000E+00  0.00000000E+00  0.00000000E+00
  0.00000000E+00  0.00000000E+00  0.00000000E+00
  0.00000000E+00  0.00000000E+00  0.00000000E+00
  0.00000000E+00  0.00000000E+00  0.00000000E+00
  0.00000000E+00  0.00000000E+00  0.00000000E+00
  0.00000000E+00  0.00000000E+00  0.00000000E+00
  0.00000000E+00  0.00000000E+00  0.00000000E+00
  0.00000000E+00  0.00000000E+00  0.00000000E+00
  0.00000000E+00  0.00000000E+00  0.00000000E+00
  0.00000000E+00  0.00000000E+00  0.00000000E+00
  0.00000000E+00  0.00000000E+00  0.00000000E+00
  0.00000000E+00  0.00000000E+00  0.00000000E+00
  0.00000000E+00  0.00000000E+00  0.00000000E+00
  0.00000000E+00  0.00000000E+00  0.00000000E+00
  0.00000000E+00  0.00000000E+00  0.00000000E+00
  0.00000000E+00  0.00000000E+00  0.00000000E+00
  0.00000000E+00  0.00000000E+00  0.00000000E+00
  0.00000000E+00  0.00000000E+00  0.00000000E+00
  0.00000000E+00  0.00000000E+00  0.00000000E+00
  0.00000000E+00  0.00000000E+00  0.00000000E+00
  0.00000000E+00  0.00000000E+00  0.00000000E+00
  0.00000000E+00  0.00000000E+00  0.00000000E+00
  0.00000000E+00  0.00000000E+00  0.00000000E+00
  0.00000000E+00  0.00000000E+00  0.00000000E+00
  0.00000000E+00  0.00000000E+00  0.00000000E+00
