Title                                   
   1.00000000000000     
     4.9440799999999996    0.0000000000000000    0.0000000000000000
     0.0000000000000000    8.5647549999999999    0.0000000000000000
     0.0000000000000000    0.0000000000000000   20.0000000000000000
    12     3     1
Selective dynamics
Direct
  0.2500000000000000  0.2170329061704232  0.0900031600266044   T   T   T
 -0.0061381185733244  0.2972432150454172  0.0879367085451298   T   T   T
  0.2500000000000000  0.0481443265809642  0.1009006470037292   T   T   T
  0.0043506045142284  0.7961997252838746  0.1103812263685453   T   T   T
  0.0013554102414391  0.9626013240968272  0.1034422623660679   T   T   T
  0.7500000000000000  0.2097525811754226  0.0945736897089005   T   T   T
  0.5061381185733242  0.2972432150454172  0.0879367085451298   T   T   T
  0.7500000000000000  0.0449211195258969  0.0994384684205092   T   T   T
  0.7500000000000000  0.7076748650731812  0.1059898442991657   T   T   T
  0.4956493954857716  0.7961997252838746  0.1103812263685453   T   T   T
  0.7500000000000000  0.5411467541577419  0.0894494259948392   T   T   T
  0.4986445897585606  0.9626013240968272  0.1034422623660679   T   T   T
  0.5138938900794323  0.4611293336395239  0.0782758243262938   T   T   T
 -0.0138938900794328  0.4611293336395239  0.0782758243262938   T   T   T
  0.2500000000000000  0.7210502289866467  0.1221656819538270   T   T   T
  0.2500000000000000  0.4759300221984380  0.1599190393803583   T   T   T
 
  0.00000000E+00  0.00000000E+00  0.00000000E+00
  0.00000000E+00  0.00000000E+00  0.00000000E+00
  0.00000000E+00  0.00000000E+00  0.00000000E+00
  0.00000000E+00  0.00000000E+00  0.00000000E+00
  0.00000000E+00  0.00000000E+00  0.00000000E+00
  0.00000000E+00  0.00000000E+00  0.00000000E+00
  0.00000000E+00  0.00000000E+00  0.00000000E+00
  0.00000000E+00  0.00000000E+00  0.00000000E+00
  0.00000000E+00  0.00000000E+00  0.00000000E+00
  0.00000000E+00  0.00000000E+00  0.00000000E+00
  0.00000000E+00  0.00000000E+00  0.00000000E+00
  0.00000000E+00  0.00000000E+00  0.00000000E+00
  0.00000000E+00  0.00000000E+00  0.00000000E+00
  0.00000000E+00  0.00000000E+00  0.00000000E+00
  0.00000000E+00  0.00000000E+00  0.00000000E+00
  0.00000000E+00  0.00000000E+00  0.00000000E+00
