Title                                   
   1.00000000000000     
     4.9440799999999996    0.0000000000000000    0.0000000000000000
     0.0000000000000000   17.1295089999999988    0.0000000000000000
     0.0000000000000000    0.0000000000000000   20.0000000000000000
    25     5     1
Selective dynamics
Direct
  0.0004975535110757  0.1059095148357867  0.2946656000675070   T   T   T
  0.2495199760402735  0.1488005887633417  0.2959659058481543   T   T   T
  0.2492814706776094  0.2337700697861632  0.2999500573326473   T   T   T
 -0.0031391546036592  0.2754509995178909  0.3033399516235611   T   T   T
 -0.0043860831377532  0.6001685022180681  0.3017270377328416   T   T   T
  0.2485310359631752  0.7256964780499287  0.2950136773752267   T   T   T
  0.0002282229710676  0.8526354377296986  0.2930108612748233   T   T   T
  0.2491560288167629  0.8949720476578352  0.2928635893271185   T   T   T
  0.2494167957121155  0.9793760481606815  0.2930738374566829   T   T   T
  0.0000387131624828  0.7679226638102410  0.2939348997544423   T   T   T
  0.4989298730850960  0.1060363273756035  0.2939580608940778   T   T   T
  0.7501313941570338  0.1480689627155768  0.2945015540317001   T   T   T
  0.7505391514900728  0.2315976009884415  0.2965377535286897   T   T   T
  0.4992089947620226  0.0216866504379467  0.2930344421190790   T   T   T
  0.7502169866838785  0.3959324836983390  0.3046938175818395   T   T   T
  0.7483945580269676  0.4805083412943892  0.3041098735128964   T   T   T
  0.5027929918892556  0.2750283598143002  0.2981028801324535   T   T   T
  0.5008971171425310  0.6000622576080039  0.2971463949247768   T   T   T
  0.7488936640921505  0.7270700762227956  0.2939282936604259   T   T   T
  0.4978502812292008  0.8525468951575259  0.2928036388949889   T   T   T
  0.7490689689633547  0.8946454507834880  0.2926663444614880   T   T   T
  0.7493251260427919  0.9791260071192360  0.2927914431564281   T   T   T
  0.4974146905607693  0.7678461128982951  0.2936056876876937   T   T   T
  0.7483036177900984  0.6439634363622556  0.2961444519315741   T   T   T
 -0.0002885380426055  0.0215610551292024  0.2933971248633421   T   T   T
  0.5049796559361661  0.5206436244453958  0.2949483862007545   T   T   T
  0.9895348088028607  0.5221343354815287  0.3159631725298258   T   T   T
  0.5087980263264067  0.3548988779643487  0.2981748345754701   T   T   T
 -0.0099761703824200  0.3547865311244709  0.3155961944470649   T   T   T
  0.2470955812129970  0.6403390873239972  0.2978510204731286   T   T   T
  0.2887516611182241  0.4381571755252191  0.3615592125992498   T   T   T
 
  0.00000000E+00  0.00000000E+00  0.00000000E+00
  0.00000000E+00  0.00000000E+00  0.00000000E+00
  0.00000000E+00  0.00000000E+00  0.00000000E+00
  0.00000000E+00  0.00000000E+00  0.00000000E+00
  0.00000000E+00  0.00000000E+00  0.00000000E+00
  0.00000000E+00  0.00000000E+00  0.00000000E+00
  0.00000000E+00  0.00000000E+00  0.00000000E+00
  0.00000000E+00  0.00000000E+00  0.00000000E+00
  0.00000000E+00  0.00000000E+00  0.00000000E+00
  0.00000000E+00  0.00000000E+00  0.00000000E+00
  0.00000000E+00  0.00000000E+00  0.00000000E+00
  0.00000000E+00  0.00000000E+00  0.00000000E+00
  0.00000000E+00  0.00000000E+00  0.00000000E+00
  0.00000000E+00  0.00000000E+00  0.00000000E+00
  0.00000000E+00  0.00000000E+00  0.00000000E+00
  0.00000000E+00  0.00000000E+00  0.00000000E+00
  0.00000000E+00  0.00000000E+00  0.00000000E+00
  0.00000000E+00  0.00000000E+00  0.00000000E+00
  0.00000000E+00  0.00000000E+00  0.00000000E+00
  0.00000000E+00  0.00000000E+00  0.00000000E+00
  0.00000000E+00  0.00000000E+00  0.00000000E+00
  0.00000000E+00  0.00000000E+00  0.00000000E+00
  0.00000000E+00  0.00000000E+00  0.00000000E+00
  0.00000000E+00  0.00000000E+00  0.00000000E+00
  0.00000000E+00  0.00000000E+00  0.00000000E+00
  0.00000000E+00  0.00000000E+00  0.00000000E+00
  0.00000000E+00  0.00000000E+00  0.00000000E+00
  0.00000000E+00  0.00000000E+00  0.00000000E+00
  0.00000000E+00  0.00000000E+00  0.00000000E+00
  0.00000000E+00  0.00000000E+00  0.00000000E+00
  0.00000000E+00  0.00000000E+00  0.00000000E+00
