Title                                   
   1.00000000000000     
     8.5490480000000009    0.0000000000000000    0.0000000000000000
     0.0000000000000000    8.5490480000000009    0.0000000000000000
     0.0000000000000000    0.0000000000000000   20.0000000000000000
    18     6     1
Selective dynamics
Direct
  0.9079424936455877  0.2065136866832180  0.0975586855723962   T   T   T
  0.9111065019257198  0.8005191274873836  0.0975136466277366   T   T   T
  0.1997590487389919  0.0838043866345259  0.0977413707963504   T   T   T
  0.0763706323473594  0.2032347097543762  0.0976483954129592   T   T   T
  0.1566133905548233  0.6508333394857211  0.0978387672153530   T   T   T
  0.0751601274369469  0.5008779323238247  0.0977721469173198   T   T   T
  0.1554199867179278  0.3545997490818321  0.0977362413506104   T   T   T
  0.0797571005000960  0.7987947881597094  0.0976871247783319   T   T   T
  0.3478288325627352  0.1651129943535160  0.0978017775577292   T   T   T
  0.4935054476941081  0.9149449049892909  0.0978205085854456   T   T   T
  0.3452750181343481  0.8347986902607036  0.0979054675328071   T   T   T
  0.7875355182241683  0.0866470281697980  0.0975170751239929   T   T   T
  0.6401567275783934  0.1664818802788836  0.0977192184283101   T   T   T
  0.7902780708639067  0.9187297134316298  0.0974955796795993   T   T   T
  0.8280696351670068  0.6515901993098547  0.0977136648475002   T   T   T
  0.8246185049943151  0.3542687307613823  0.0977074437096676   T   T   T
  0.6430497100164819  0.8365377346291748  0.0977348710269768   T   T   T
  0.3273920906354529  0.3352108999368263  0.0978121138221662   T   T   T
  0.4944965527696966  0.0864585102501242  0.0978330159940635   T   T   T
  0.9027450086002197  0.5029056152445610  0.0977790893414635   T   T   T
  0.3214600566553313  0.6725473773674667  0.0979100838240569   T   T   T
  0.6608543263709502  0.3312170223996391  0.0978492962816993   T   T   T
  0.6672127798037417  0.6734487504812495  0.0978643314272745   T   T   T
  0.1978814456054484  0.9154714884400580  0.0978162116385548   T   T   T
  0.4909229924562337  0.4992407400852708  0.0979288725076081   T   T   T
 
  0.00000000E+00  0.00000000E+00  0.00000000E+00
  0.00000000E+00  0.00000000E+00  0.00000000E+00
  0.00000000E+00  0.00000000E+00  0.00000000E+00
  0.00000000E+00  0.00000000E+00  0.00000000E+00
  0.00000000E+00  0.00000000E+00  0.00000000E+00
  0.00000000E+00  0.00000000E+00  0.00000000E+00
  0.00000000E+00  0.00000000E+00  0.00000000E+00
  0.00000000E+00  0.00000000E+00  0.00000000E+00
  0.00000000E+00  0.00000000E+00  0.00000000E+00
  0.00000000E+00  0.00000000E+00  0.00000000E+00
  0.00000000E+00  0.00000000E+00  0.00000000E+00
  0.00000000E+00  0.00000000E+00  0.00000000E+00
  0.00000000E+00  0.00000000E+00  0.00000000E+00
  0.00000000E+00  0.00000000E+00  0.00000000E+00
  0.00000000E+00  0.00000000E+00  0.00000000E+00
  0.00000000E+00  0.00000000E+00  0.00000000E+00
  0.00000000E+00  0.00000000E+00  0.00000000E+00
  0.00000000E+00  0.00000000E+00  0.00000000E+00
  0.00000000E+00  0.00000000E+00  0.00000000E+00
  0.00000000E+00  0.00000000E+00  0.00000000E+00
  0.00000000E+00  0.00000000E+00  0.00000000E+00
  0.00000000E+00  0.00000000E+00  0.00000000E+00
  0.00000000E+00  0.00000000E+00  0.00000000E+00
  0.00000000E+00  0.00000000E+00  0.00000000E+00
  0.00000000E+00  0.00000000E+00  0.00000000E+00
