Title                                   
   1.00000000000000     
     9.8694509999999998    0.0000000000000000    0.0000000000000000
     0.0000000000000000    8.5490480000000009    0.0000000000000000
     0.0000000000000000    0.0000000000000000   20.0000000000000000
    25     5     1
Selective dynamics
Direct
  0.0558113386838555  0.0896631214669095  0.0897683414184756   T   T   T
  0.9318626631504334  0.1718313210160144  0.0909540731014735   T   T   T
  0.0572353090264351  0.9231853815234686  0.0901184525644515   T   T   T
  0.9335726227436612  0.3392722180383325  0.0901256807671905   T   T   T
  0.0567672013865341  0.5897393654134286  0.0874045527903553   T   T   T
  0.9337453176825571  0.6733963916578208  0.0902657024359142   T   T   T
  0.0568069464180593  0.4232050442480371  0.0872783067598055   T   T   T
  0.9323331270860364  0.8401850436228111  0.0911374702949019   T   T   T
  0.3061698766775823  0.0884215046151637  0.0954022619741747   T   T   T
  0.1808198286889264  0.1709532903353617  0.0909506954565140   T   T   T
  0.1795757141645328  0.3383087554146325  0.0900041552566410   T   T   T
  0.3006582875062408  0.5900940563767378  0.0967641569920688   T   T   T
  0.1800017840169603  0.6742157135269443  0.0902971911090426   T   T   T
  0.3009515549805624  0.4217372990066193  0.0967227554231209   T   T   T
  0.1813052250973655  0.8408210961438647  0.0914126296644002   T   T   T
  0.5563776118922205  0.0930278004481521  0.1032673883031661   T   T   T
  0.4284143622932646  0.1763177406895172  0.1019332214504834   T   T   T
  0.5551429930813548  0.9196369204903899  0.1029424251128412   T   T   T
  0.4278316269750808  0.8351186385728175  0.1018502748115808   T   T   T
  0.8058653678654026  0.0898561926400069  0.0949546021536740   T   T   T
  0.6834599556621180  0.1779038856542487  0.1014463174230195   T   T   T
  0.8059473838941159  0.9222466204104924  0.0948231581014455   T   T   T
  0.8119778169537955  0.5908033029583296  0.0965299005246668   T   T   T
  0.8119490695103365  0.4215025403624152  0.0966160493720116   T   T   T
  0.6831214572191064  0.8339828653703810  0.1009431634620364   T   T   T
  0.4202980887294581  0.3391599391657208  0.1061858455124195   T   T   T
  0.4196154757218352  0.6745440299375675  0.1063579047919477   T   T   T
  0.6913636495745797  0.3408988805932250  0.1055914951380924   T   T   T
  0.6916604664796423  0.6716164182658166  0.1050197634321134   T   T   T
  0.3063233335700200  0.9229740550034665  0.0952978169864044   T   T   T
  0.5561705432679273  0.5062555670313034  0.1185992474156245   T   T   T
 
  0.00000000E+00  0.00000000E+00  0.00000000E+00
  0.00000000E+00  0.00000000E+00  0.00000000E+00
  0.00000000E+00  0.00000000E+00  0.00000000E+00
  0.00000000E+00  0.00000000E+00  0.00000000E+00
  0.00000000E+00  0.00000000E+00  0.00000000E+00
  0.00000000E+00  0.00000000E+00  0.00000000E+00
  0.00000000E+00  0.00000000E+00  0.00000000E+00
  0.00000000E+00  0.00000000E+00  0.00000000E+00
  0.00000000E+00  0.00000000E+00  0.00000000E+00
  0.00000000E+00  0.00000000E+00  0.00000000E+00
  0.00000000E+00  0.00000000E+00  0.00000000E+00
  0.00000000E+00  0.00000000E+00  0.00000000E+00
  0.00000000E+00  0.00000000E+00  0.00000000E+00
  0.00000000E+00  0.00000000E+00  0.00000000E+00
  0.00000000E+00  0.00000000E+00  0.00000000E+00
  0.00000000E+00  0.00000000E+00  0.00000000E+00
  0.00000000E+00  0.00000000E+00  0.00000000E+00
  0.00000000E+00  0.00000000E+00  0.00000000E+00
  0.00000000E+00  0.00000000E+00  0.00000000E+00
  0.00000000E+00  0.00000000E+00  0.00000000E+00
  0.00000000E+00  0.00000000E+00  0.00000000E+00
  0.00000000E+00  0.00000000E+00  0.00000000E+00
  0.00000000E+00  0.00000000E+00  0.00000000E+00
  0.00000000E+00  0.00000000E+00  0.00000000E+00
  0.00000000E+00  0.00000000E+00  0.00000000E+00
  0.00000000E+00  0.00000000E+00  0.00000000E+00
  0.00000000E+00  0.00000000E+00  0.00000000E+00
  0.00000000E+00  0.00000000E+00  0.00000000E+00
  0.00000000E+00  0.00000000E+00  0.00000000E+00
  0.00000000E+00  0.00000000E+00  0.00000000E+00
  0.00000000E+00  0.00000000E+00  0.00000000E+00
