Title                                   
   1.00000000000000     
     9.8694509999999998    0.0000000000000000    0.0000000000000000
     0.0000000000000000    8.5490480000000009    0.0000000000000000
     0.0000000000000000    0.0000000000000000   20.0000000000000000
    25     6     1
Selective dynamics
Direct
  0.0560116907688483  0.0915915516986695  0.0840879671445541   T   T   T
  0.9307963019389549  0.1748861453700304  0.0838854017244366   T   T   T
  0.0572214641712675  0.9234472530082793  0.0852588373622329   T   T   T
  0.9299861519937528  0.3418735440621171  0.0869373142404012   T   T   T
  0.0563052219239898  0.5919081730443352  0.0874859117757762   T   T   T
  0.0561532034226272  0.4244232849736356  0.0874749477120151   T   T   T
  0.9328888102733940  0.8398689313877481  0.0873402059026523   T   T   T
  0.3060358827968764  0.0888458615703751  0.0888625420424126   T   T   T
  0.1821853092030276  0.1740803469854472  0.0867661696180220   T   T   T
  0.1828462799498446  0.3416718988439673  0.0891387437514585   T   T   T
  0.3029743956481931  0.5916821754969670  0.1006470157549525   T   T   T
  0.1803163781857582  0.6747533133058131  0.0901317203187915   T   T   T
  0.3106356323662582  0.4231270182487292  0.0975778650560816   T   T   T
  0.1815810237418947  0.8425082185366591  0.0884136891498525   T   T   T
  0.5562266967248758  0.0843939614962253  0.0918663157847523   T   T   T
  0.5548133996204380  0.9174938646349231  0.0978390010666403   T   T   T
  0.4319093870863131  0.3312326107676570  0.1011914452873072   T   T   T
  0.4262543091429697  0.8398829461213800  0.1017858831584468   T   T   T
  0.8065390864322391  0.0885683342161550  0.0840214642222474   T   T   T
  0.6798420642061415  0.1691227529397462  0.0880734079015994   T   T   T
  0.8079060898467783  0.9224632949067572  0.0875722668734405   T   T   T
  0.6804297920237468  0.3345280266286999  0.0972137062860871   T   T   T
  0.8101111676928154  0.5939383327228470  0.0997825081760356   T   T   T
  0.8030493876935597  0.4260000302681908  0.0948400655924444   T   T   T
  0.6846441914949518  0.8401514401182020  0.0988019180488285   T   T   T
  0.4131629294680303  0.6860859320109827  0.1193404814322168   T   T   T
  0.5559454544298086  0.3971970265004122  0.1166866423743298   T   T   T
  0.6992031943868410  0.6835372869026195  0.1175248919874182   T   T   T
  0.3049308942540456  0.9254996340256312  0.0902461900332269   T   T   T
  0.4294561852519829  0.1661727091270814  0.0928396851836805   T   T   T
  0.9329774314771925  0.6733295628271055  0.0895422524832626   T   T   T
  0.5562995923825887  0.5859805372526133  0.1724985425544123   T   T   T
 
  0.00000000E+00  0.00000000E+00  0.00000000E+00
  0.00000000E+00  0.00000000E+00  0.00000000E+00
  0.00000000E+00  0.00000000E+00  0.00000000E+00
  0.00000000E+00  0.00000000E+00  0.00000000E+00
  0.00000000E+00  0.00000000E+00  0.00000000E+00
  0.00000000E+00  0.00000000E+00  0.00000000E+00
  0.00000000E+00  0.00000000E+00  0.00000000E+00
  0.00000000E+00  0.00000000E+00  0.00000000E+00
  0.00000000E+00  0.00000000E+00  0.00000000E+00
  0.00000000E+00  0.00000000E+00  0.00000000E+00
  0.00000000E+00  0.00000000E+00  0.00000000E+00
  0.00000000E+00  0.00000000E+00  0.00000000E+00
  0.00000000E+00  0.00000000E+00  0.00000000E+00
  0.00000000E+00  0.00000000E+00  0.00000000E+00
  0.00000000E+00  0.00000000E+00  0.00000000E+00
  0.00000000E+00  0.00000000E+00  0.00000000E+00
  0.00000000E+00  0.00000000E+00  0.00000000E+00
  0.00000000E+00  0.00000000E+00  0.00000000E+00
  0.00000000E+00  0.00000000E+00  0.00000000E+00
  0.00000000E+00  0.00000000E+00  0.00000000E+00
  0.00000000E+00  0.00000000E+00  0.00000000E+00
  0.00000000E+00  0.00000000E+00  0.00000000E+00
  0.00000000E+00  0.00000000E+00  0.00000000E+00
  0.00000000E+00  0.00000000E+00  0.00000000E+00
  0.00000000E+00  0.00000000E+00  0.00000000E+00
  0.00000000E+00  0.00000000E+00  0.00000000E+00
  0.00000000E+00  0.00000000E+00  0.00000000E+00
  0.00000000E+00  0.00000000E+00  0.00000000E+00
  0.00000000E+00  0.00000000E+00  0.00000000E+00
  0.00000000E+00  0.00000000E+00  0.00000000E+00
  0.00000000E+00  0.00000000E+00  0.00000000E+00
  0.00000000E+00  0.00000000E+00  0.00000000E+00
