Title                                   
   1.00000000000000     
     4.9440799999999996    0.0000000000000000    0.0000000000000000
     0.0000000000000000    8.5647549999999999    0.0000000000000000
     0.0000000000000000    0.0000000000000000   20.0000000000000000
    11     3     1
Selective dynamics
Direct
  0.0022425756730516  0.2965506322503767  0.1002657061773532   T   T   T
  0.2452406677663637  0.0402321028234656  0.0970694706061681   T   T   T
 -0.0062088069149293  0.9532273724085790  0.1010209401891546   T   T   T
  0.7532326530019230  0.2076951814912220  0.0953479306570359   T   T   T
  0.5030836292039134  0.2929370954900744  0.0955863586613054   T   T   T
  0.7485353178061174  0.0400174485474073  0.0945379622325198   T   T   T
  0.7399183417363175  0.7109825801549388  0.0993618648343556   T   T   T
  0.7477832874724757  0.5366255981746968  0.1004771440068672   T   T   T
  0.4942654005415525  0.9589793849734930  0.0919740268513628   T   T   T
  0.4998972202416171  0.7925806534542766  0.0885350315325216   T   T   T
 -0.0023205811546881  0.4613970640248030  0.1077716472782652   T   T   T
  0.5055946066690136  0.4525168667015395  0.0958266531424484   T   T   T
 -0.0122958606576329  0.7892992289573960  0.1126386426074131   T   T   T
  0.2493959775493788  0.2105866627127997  0.0978284849051187   T   T   T
  0.2816355710655258  0.6280531278349334  0.1297381363181140   T   T   T
 
  0.00000000E+00  0.00000000E+00  0.00000000E+00
  0.00000000E+00  0.00000000E+00  0.00000000E+00
  0.00000000E+00  0.00000000E+00  0.00000000E+00
  0.00000000E+00  0.00000000E+00  0.00000000E+00
  0.00000000E+00  0.00000000E+00  0.00000000E+00
  0.00000000E+00  0.00000000E+00  0.00000000E+00
  0.00000000E+00  0.00000000E+00  0.00000000E+00
  0.00000000E+00  0.00000000E+00  0.00000000E+00
  0.00000000E+00  0.00000000E+00  0.00000000E+00
  0.00000000E+00  0.00000000E+00  0.00000000E+00
  0.00000000E+00  0.00000000E+00  0.00000000E+00
  0.00000000E+00  0.00000000E+00  0.00000000E+00
  0.00000000E+00  0.00000000E+00  0.00000000E+00
  0.00000000E+00  0.00000000E+00  0.00000000E+00
  0.00000000E+00  0.00000000E+00  0.00000000E+00
