Title                                   
   1.00000000000000     
     8.5490480000000009    0.0000000000000000    0.0000000000000000
     0.0000000000000000    8.5490480000000009    0.0000000000000000
     0.0000000000000000    0.0000000000000000   20.0000000000000000
    20     4     1
Selective dynamics
Direct
  0.9070668692244035  0.2078316280845346  0.0941592635879348   T   T   T
  0.9125597226534697  0.8021211668294820  0.0953406644265775   T   T   T
  0.1983347531998919  0.0821033542615561  0.0950031728681018   T   T   T
  0.0746798565723861  0.2027299537807807  0.0954237333673789   T   T   T
  0.1572329907263633  0.6487062217208109  0.0955994596170121   T   T   T
  0.0741960582143970  0.5005419427671826  0.0971702183050200   T   T   T
  0.1542649907249805  0.3528870466758849  0.0989381425053873   T   T   T
  0.0807686094224013  0.7985047367694063  0.0944165313068343   T   T   T
  0.3458773615120316  0.1619916571141431  0.0981181854992930   T   T   T
  0.4952052493067820  0.9168342606620422  0.0969384590654554   T   T   T
  0.3473775510714096  0.8347851326282676  0.0954089865834679   T   T   T
  0.7865062494096072  0.0879449238268731  0.0942724506302605   T   T   T
  0.6367841570555786  0.1674194887015168  0.0952448765907313   T   T   T
  0.7910689639890530  0.9206475432709066  0.0956840773495215   T   T   T
  0.8303324563940750  0.6538106042541644  0.0978123440040374   T   T   T
  0.8247428837148315  0.3584070975187528  0.0952081506097123   T   T   T
  0.6443180133038000  0.8378721493283309  0.0984683819517502   T   T   T
  0.3242069800875673  0.3293990612605491  0.1054539615159301   T   T   T
  0.3244458161471455  0.6708759326249941  0.0961670659563361   T   T   T
  0.6575748898385977  0.3356434092518186  0.0971766673661699   T   T   T
  0.4939559760294421  0.0832875974066969  0.0964760114580670   T   T   T
  0.9064527217824362  0.5040705486904657  0.0964534648398829   T   T   T
  0.6702563277975183  0.6746218513405334  0.1024012862767678   T   T   T
  0.1980612795174156  0.9151095357580505  0.0939366455981561   T   T   T
  0.4891412723044087  0.4966431554722692  0.1274327987201966   T   T   T
 
  0.00000000E+00  0.00000000E+00  0.00000000E+00
  0.00000000E+00  0.00000000E+00  0.00000000E+00
  0.00000000E+00  0.00000000E+00  0.00000000E+00
  0.00000000E+00  0.00000000E+00  0.00000000E+00
  0.00000000E+00  0.00000000E+00  0.00000000E+00
  0.00000000E+00  0.00000000E+00  0.00000000E+00
  0.00000000E+00  0.00000000E+00  0.00000000E+00
  0.00000000E+00  0.00000000E+00  0.00000000E+00
  0.00000000E+00  0.00000000E+00  0.00000000E+00
  0.00000000E+00  0.00000000E+00  0.00000000E+00
  0.00000000E+00  0.00000000E+00  0.00000000E+00
  0.00000000E+00  0.00000000E+00  0.00000000E+00
  0.00000000E+00  0.00000000E+00  0.00000000E+00
  0.00000000E+00  0.00000000E+00  0.00000000E+00
  0.00000000E+00  0.00000000E+00  0.00000000E+00
  0.00000000E+00  0.00000000E+00  0.00000000E+00
  0.00000000E+00  0.00000000E+00  0.00000000E+00
  0.00000000E+00  0.00000000E+00  0.00000000E+00
  0.00000000E+00  0.00000000E+00  0.00000000E+00
  0.00000000E+00  0.00000000E+00  0.00000000E+00
  0.00000000E+00  0.00000000E+00  0.00000000E+00
  0.00000000E+00  0.00000000E+00  0.00000000E+00
  0.00000000E+00  0.00000000E+00  0.00000000E+00
  0.00000000E+00  0.00000000E+00  0.00000000E+00
  0.00000000E+00  0.00000000E+00  0.00000000E+00
