Title                                   
   1.00000000000000     
     9.8694509999999998    0.0000000000000000    0.0000000000000000
     0.0000000000000000    8.5490480000000009    0.0000000000000000
     0.0000000000000000    0.0000000000000000   20.0000000000000000
    25     5     1
Selective dynamics
Direct
  0.0552656178264480  0.0894385755295839  0.0871195115859855   T   T   T
  0.9303777304117837  0.1737874457084235  0.0867907118410518   T   T   T
  0.0576361876053365  0.9210146785499116  0.0876717319761693   T   T   T
  0.9322304473200530  0.3409345181785526  0.0866840433893098   T   T   T
  0.0561633066085845  0.5907138679564049  0.0877707793615543   T   T   T
  0.0559822538365445  0.4236473190603498  0.0869385951586925   T   T   T
  0.9325955057394427  0.8397579495620718  0.0888410206167035   T   T   T
  0.3066486572625310  0.0872473519532392  0.0923449258517531   T   T   T
  0.1801058127451480  0.1705086559954429  0.0895557837167557   T   T   T
  0.1798441118487073  0.3376776908425765  0.0899452727615753   T   T   T
  0.3045926944195577  0.5862493741941861  0.0958295583037791   T   T   T
  0.1803786746135440  0.6718307557435981  0.0901727655309628   T   T   T
  0.3038326567250665  0.4173294273148277  0.0967662279839576   T   T   T
  0.1828233611509029  0.8393858709351544  0.0893150004707079   T   T   T
  0.4286406151722604  0.1725271374684974  0.0984751870628645   T   T   T
  0.5564660125451937  0.9220722527467161  0.0988265273738371   T   T   T
  0.4264019552210395  0.6735680019739215  0.1028171546659641   T   T   T
  0.4298790628142083  0.8363975953591801  0.0983857682405137   T   T   T
  0.8046445753955122  0.0897699348461061  0.0894733111394606   T   T   T
  0.6808304933125456  0.1784258264310841  0.0943305256091708   T   T   T
  0.8072453848907042  0.9229143120215163  0.0910966962979547   T   T   T
  0.6839814540805785  0.3428509453077810  0.0967574085970898   T   T   T
  0.8098842876649851  0.5951736903167830  0.0936216438939904   T   T   T
  0.8082430687436277  0.4253713135788891  0.0911518307128350   T   T   T
  0.6823208360603895  0.8390207280094073  0.0975700459036029   T   T   T
  0.9327416169738504  0.6737108537813193  0.0886405905113797   T   T   T
  0.5554641983396413  0.0930660226751769  0.0982393327389695   T   T   T
  0.4235085784316615  0.3333733395476288  0.1056167113578094   T   T   T
  0.6917356795594394  0.6756547695274674  0.1027981774614952   T   T   T
  0.3057190369267014  0.9218326640700143  0.0912685481512571   T   T   T
  0.5569511257540131  0.5056221308142157  0.1461496117328814   T   T   T
 
  0.00000000E+00  0.00000000E+00  0.00000000E+00
  0.00000000E+00  0.00000000E+00  0.00000000E+00
  0.00000000E+00  0.00000000E+00  0.00000000E+00
  0.00000000E+00  0.00000000E+00  0.00000000E+00
  0.00000000E+00  0.00000000E+00  0.00000000E+00
  0.00000000E+00  0.00000000E+00  0.00000000E+00
  0.00000000E+00  0.00000000E+00  0.00000000E+00
  0.00000000E+00  0.00000000E+00  0.00000000E+00
  0.00000000E+00  0.00000000E+00  0.00000000E+00
  0.00000000E+00  0.00000000E+00  0.00000000E+00
  0.00000000E+00  0.00000000E+00  0.00000000E+00
  0.00000000E+00  0.00000000E+00  0.00000000E+00
  0.00000000E+00  0.00000000E+00  0.00000000E+00
  0.00000000E+00  0.00000000E+00  0.00000000E+00
  0.00000000E+00  0.00000000E+00  0.00000000E+00
  0.00000000E+00  0.00000000E+00  0.00000000E+00
  0.00000000E+00  0.00000000E+00  0.00000000E+00
  0.00000000E+00  0.00000000E+00  0.00000000E+00
  0.00000000E+00  0.00000000E+00  0.00000000E+00
  0.00000000E+00  0.00000000E+00  0.00000000E+00
  0.00000000E+00  0.00000000E+00  0.00000000E+00
  0.00000000E+00  0.00000000E+00  0.00000000E+00
  0.00000000E+00  0.00000000E+00  0.00000000E+00
  0.00000000E+00  0.00000000E+00  0.00000000E+00
  0.00000000E+00  0.00000000E+00  0.00000000E+00
  0.00000000E+00  0.00000000E+00  0.00000000E+00
  0.00000000E+00  0.00000000E+00  0.00000000E+00
  0.00000000E+00  0.00000000E+00  0.00000000E+00
  0.00000000E+00  0.00000000E+00  0.00000000E+00
  0.00000000E+00  0.00000000E+00  0.00000000E+00
  0.00000000E+00  0.00000000E+00  0.00000000E+00
