Title                                   
   1.00000000000000     
     4.9440799999999996    0.0000000000000000    0.0000000000000000
     0.0000000000000000    8.5647549999999999    0.0000000000000000
     0.0000000000000000    0.0000000000000000   20.0000000000000000
    12     3     1
Selective dynamics
Direct
  0.2500000000000000  0.2172632018562236  0.0908097231719729   T   T   T
 -0.0063669911720327  0.2960014924603628  0.0876555597129962   T   T   T
  0.2500000000000000  0.0474850981951218  0.1008441224074057   T   T   T
  0.0048592701077973  0.7959974279707549  0.1104944876861970   T   T   T
  0.0014005542970547  0.9626251030224000  0.1033640053071756   T   T   T
  0.7500000000000000  0.2089131152333410  0.0930760227932200   T   T   T
  0.5063669911720322  0.2960014924603628  0.0876555597129962   T   T   T
  0.7500000000000000  0.0443704208036082  0.0990733571107181   T   T   T
  0.7500000000000000  0.7069770674605711  0.1066712180807992   T   T   T
  0.4951407298922026  0.7959974279707549  0.1104944876861970   T   T   T
  0.7500000000000000  0.5402072497666420  0.0895545976699523   T   T   T
  0.4985994457029453  0.9626251030224000  0.1033640053071756   T   T   T
  0.5148441372857244  0.4603099080381425  0.0810939273615557   T   T   T
 -0.0148441372857241  0.4603099080381425  0.0810939273615557   T   T   T
  0.2500000000000000  0.7216452804878243  0.1208107241077239   T   T   T
  0.2500000000000000  0.4832707032133474  0.1564562745223661   T   T   T
 
  0.00000000E+00  0.00000000E+00  0.00000000E+00
  0.00000000E+00  0.00000000E+00  0.00000000E+00
  0.00000000E+00  0.00000000E+00  0.00000000E+00
  0.00000000E+00  0.00000000E+00  0.00000000E+00
  0.00000000E+00  0.00000000E+00  0.00000000E+00
  0.00000000E+00  0.00000000E+00  0.00000000E+00
  0.00000000E+00  0.00000000E+00  0.00000000E+00
  0.00000000E+00  0.00000000E+00  0.00000000E+00
  0.00000000E+00  0.00000000E+00  0.00000000E+00
  0.00000000E+00  0.00000000E+00  0.00000000E+00
  0.00000000E+00  0.00000000E+00  0.00000000E+00
  0.00000000E+00  0.00000000E+00  0.00000000E+00
  0.00000000E+00  0.00000000E+00  0.00000000E+00
  0.00000000E+00  0.00000000E+00  0.00000000E+00
  0.00000000E+00  0.00000000E+00  0.00000000E+00
  0.00000000E+00  0.00000000E+00  0.00000000E+00
