Title                                   
   1.00000000000000     
     9.8694509999999998    0.0000000000000000    0.0000000000000000
     0.0000000000000000    8.5490480000000009    0.0000000000000000
     0.0000000000000000    0.0000000000000000   20.0000000000000000
    25     6     1
Selective dynamics
Direct
  0.0559158344622683  0.0913815693405455  0.0892217453105068   T   T   T
  0.9311288104219893  0.1747782825061712  0.0896000614199295   T   T   T
  0.0572011615134825  0.9234997057030865  0.0893273745181276   T   T   T
  0.9299905923206082  0.3420379521699576  0.0913071591298551   T   T   T
  0.0566180764074331  0.5916044865324243  0.0898200986501263   T   T   T
  0.0560348535924574  0.4243168329272628  0.0905365610762352   T   T   T
  0.9329591295603668  0.8398264697584742  0.0905961541528967   T   T   T
  0.3062521949650630  0.0888257488407932  0.0905731147704039   T   T   T
  0.1824596571097381  0.1739557241420858  0.0900307708451352   T   T   T
  0.1827968325615863  0.3413453120447417  0.0909549057181329   T   T   T
  0.3058926580122708  0.5918829527237505  0.0959563414501373   T   T   T
  0.1804269423316066  0.6747907581301573  0.0906327932223162   T   T   T
  0.3103815891706919  0.4233308173095745  0.0942028742814352   T   T   T
  0.1819000645550394  0.8418488897444559  0.0901298329957474   T   T   T
  0.5562618231455083  0.0848474959384246  0.0931618333134783   T   T   T
  0.5551437252513289  0.9173878030063456  0.0958794986074811   T   T   T
  0.4339836162378972  0.3336224244778377  0.0960874852616949   T   T   T
  0.4270629081291933  0.8366677353511850  0.0963290321177850   T   T   T
  0.8065234499591853  0.0888315684035006  0.0895653915674851   T   T   T
  0.6799133593643575  0.1696536892914224  0.0916504260181096   T   T   T
  0.8080379569370385  0.9225814852922528  0.0911851583613537   T   T   T
  0.6785134032217645  0.3371839787579450  0.0964550120525271   T   T   T
  0.8077974865209012  0.5951939795468777  0.0971571284126645   T   T   T
  0.8030331696255277  0.4260222831327631  0.0953340612320310   T   T   T
  0.6841264888849040  0.8377115845350985  0.0973520842945272   T   T   T
  0.4206736823782195  0.6814535421218697  0.1042290824885871   T   T   T
  0.5539747320691654  0.4065052820063135  0.1043630149004663   T   T   T
  0.6933132653891448  0.6785431186616692  0.1066787166228064   T   T   T
  0.3054781933904090  0.9251723987947736  0.0909684104492669   T   T   T
  0.4303445623148600  0.1665899686352844  0.0923160353697052   T   T   T
  0.9327032290784001  0.6732869075418622  0.0910474248879125   T   T   T
  0.5527955511175981  0.5855652526310958  0.1830254165011487   T   T   T
 
  0.00000000E+00  0.00000000E+00  0.00000000E+00
  0.00000000E+00  0.00000000E+00  0.00000000E+00
  0.00000000E+00  0.00000000E+00  0.00000000E+00
  0.00000000E+00  0.00000000E+00  0.00000000E+00
  0.00000000E+00  0.00000000E+00  0.00000000E+00
  0.00000000E+00  0.00000000E+00  0.00000000E+00
  0.00000000E+00  0.00000000E+00  0.00000000E+00
  0.00000000E+00  0.00000000E+00  0.00000000E+00
  0.00000000E+00  0.00000000E+00  0.00000000E+00
  0.00000000E+00  0.00000000E+00  0.00000000E+00
  0.00000000E+00  0.00000000E+00  0.00000000E+00
  0.00000000E+00  0.00000000E+00  0.00000000E+00
  0.00000000E+00  0.00000000E+00  0.00000000E+00
  0.00000000E+00  0.00000000E+00  0.00000000E+00
  0.00000000E+00  0.00000000E+00  0.00000000E+00
  0.00000000E+00  0.00000000E+00  0.00000000E+00
  0.00000000E+00  0.00000000E+00  0.00000000E+00
  0.00000000E+00  0.00000000E+00  0.00000000E+00
  0.00000000E+00  0.00000000E+00  0.00000000E+00
  0.00000000E+00  0.00000000E+00  0.00000000E+00
  0.00000000E+00  0.00000000E+00  0.00000000E+00
  0.00000000E+00  0.00000000E+00  0.00000000E+00
  0.00000000E+00  0.00000000E+00  0.00000000E+00
  0.00000000E+00  0.00000000E+00  0.00000000E+00
  0.00000000E+00  0.00000000E+00  0.00000000E+00
  0.00000000E+00  0.00000000E+00  0.00000000E+00
  0.00000000E+00  0.00000000E+00  0.00000000E+00
  0.00000000E+00  0.00000000E+00  0.00000000E+00
  0.00000000E+00  0.00000000E+00  0.00000000E+00
  0.00000000E+00  0.00000000E+00  0.00000000E+00
  0.00000000E+00  0.00000000E+00  0.00000000E+00
  0.00000000E+00  0.00000000E+00  0.00000000E+00
