Title                                   
   1.00000000000000     
     4.9440799999999996    0.0000000000000000    0.0000000000000000
     0.0000000000000000   17.1295089999999988    0.0000000000000000
     0.0000000000000000    0.0000000000000000   20.0000000000000000
    26     4     1
Selective dynamics
Direct
  0.0015660667969786  0.1061527979022918  0.2978623806886490   T   T   T
  0.2503378557292826  0.1490294088282397  0.2984264352767945   T   T   T
  0.2503488749617614  0.2341191196588189  0.2998543553148189   T   T   T
 -0.0023190349599562  0.2751837955539446  0.3006475235499819   T   T   T
 -0.0022899907002768  0.5997452540676049  0.3011896518119671   T   T   T
  0.2503528780840664  0.7258890106752645  0.2989547915375674   T   T   T
  0.0009674574964610  0.8529764624060220  0.2973749960029868   T   T   T
  0.2503415140361483  0.8953248377060895  0.2970953056967433   T   T   T
  0.2503476196934261  0.9796079611515648  0.2969285865882340   T   T   T
  0.0015906216706730  0.7687599197984371  0.2982908502491455   T   T   T
  0.4990788444441040  0.1061492666396298  0.2978634189281207   T   T   T
  0.7502925853240207  0.1481061607872962  0.2984313831840688   T   T   T
  0.7503067390068555  0.2314573442540020  0.2998016068399857   T   T   T
  0.4996671227712562  0.0219741854611010  0.2971072487349394   T   T   T
  0.7503043135507559  0.3938099959968554  0.3027261715113239   T   T   T
  0.7503134612056657  0.4811002495712307  0.3029382484638199   T   T   T
  0.5029718982602596  0.2752019414997726  0.3006284514640759   T   T   T
  0.5029912333029737  0.5997321932365023  0.3012072683456412   T   T   T
  0.7503084296806649  0.7268239944219170  0.2988845044947801   T   T   T
  0.4996622793347614  0.8529651781858475  0.2973732731282106   T   T   T
  0.7502828294483301  0.8954036541000343  0.2971135650449070   T   T   T
  0.7502893376654924  0.9795481418306449  0.2969533356346261   T   T   T
  0.4990608163976508  0.7687621404869308  0.2982920461052447   T   T   T
  0.7503276867646858  0.6434760889969917  0.3002966478584416   T   T   T
  0.2503738369142492  0.6408177047619062  0.3004204089013802   T   T   T
  0.0009734352668427  0.0219649696002373  0.2971077295713986   T   T   T
  0.5140663278113645  0.5194843256385048  0.3026302264695157   T   T   T
  0.9865597880357795  0.5194891788948649  0.3025648955855155   T   T   T
  0.5140831832036562  0.3554261412282014  0.3021447034512731   T   T   T
 -0.0134810852187850  0.3554151734459080  0.3022008746386773   T   T   T
  0.2503300740208530  0.4374454032133378  0.3017491149271163   T   T   T
 
  0.00000000E+00  0.00000000E+00  0.00000000E+00
  0.00000000E+00  0.00000000E+00  0.00000000E+00
  0.00000000E+00  0.00000000E+00  0.00000000E+00
  0.00000000E+00  0.00000000E+00  0.00000000E+00
  0.00000000E+00  0.00000000E+00  0.00000000E+00
  0.00000000E+00  0.00000000E+00  0.00000000E+00
  0.00000000E+00  0.00000000E+00  0.00000000E+00
  0.00000000E+00  0.00000000E+00  0.00000000E+00
  0.00000000E+00  0.00000000E+00  0.00000000E+00
  0.00000000E+00  0.00000000E+00  0.00000000E+00
  0.00000000E+00  0.00000000E+00  0.00000000E+00
  0.00000000E+00  0.00000000E+00  0.00000000E+00
  0.00000000E+00  0.00000000E+00  0.00000000E+00
  0.00000000E+00  0.00000000E+00  0.00000000E+00
  0.00000000E+00  0.00000000E+00  0.00000000E+00
  0.00000000E+00  0.00000000E+00  0.00000000E+00
  0.00000000E+00  0.00000000E+00  0.00000000E+00
  0.00000000E+00  0.00000000E+00  0.00000000E+00
  0.00000000E+00  0.00000000E+00  0.00000000E+00
  0.00000000E+00  0.00000000E+00  0.00000000E+00
  0.00000000E+00  0.00000000E+00  0.00000000E+00
  0.00000000E+00  0.00000000E+00  0.00000000E+00
  0.00000000E+00  0.00000000E+00  0.00000000E+00
  0.00000000E+00  0.00000000E+00  0.00000000E+00
  0.00000000E+00  0.00000000E+00  0.00000000E+00
  0.00000000E+00  0.00000000E+00  0.00000000E+00
  0.00000000E+00  0.00000000E+00  0.00000000E+00
  0.00000000E+00  0.00000000E+00  0.00000000E+00
  0.00000000E+00  0.00000000E+00  0.00000000E+00
  0.00000000E+00  0.00000000E+00  0.00000000E+00
  0.00000000E+00  0.00000000E+00  0.00000000E+00
