Title                                   
   1.00000000000000     
     9.8694509999999998    0.0000000000000000    0.0000000000000000
     0.0000000000000000    8.5490480000000009    0.0000000000000000
     0.0000000000000000    0.0000000000000000   20.0000000000000000
    31     1
Selective dynamics
Direct
  0.0562412309129336  0.0897739691856678  0.0824030498476339   T   T   T
  0.9313298691610902  0.1728259937396640  0.0846439330361351   T   T   T
  0.0562266791687292  0.9231859555156016  0.0824667045115255   T   T   T
  0.9310552368898490  0.3396239947808568  0.0880955984309301   T   T   T
  0.0562367053263573  0.5888680216286428  0.0856325041144805   T   T   T
  0.9322979652846740  0.6730187047286648  0.0879835562188379   T   T   T
  0.0562289807430325  0.4227577646159439  0.0865220965481802   T   T   T
  0.9315850136619627  0.8396194933539686  0.0856133286621574   T   T   T
  0.3055138792599462  0.0895862443711140  0.0868633913534952   T   T   T
  0.1811509417297651  0.1728259724897253  0.0846500890774827   T   T   T
  0.3051364489641730  0.9235122247111128  0.0886280332125885   T   T   T
  0.1814025477875266  0.3396199377261306  0.0880866122811540   T   T   T
  0.3030830288905242  0.5893082413300702  0.0992130790698645   T   T   T
  0.1801670890322178  0.6730017022602125  0.0879379431689988   T   T   T
  0.3048148404723967  0.4217233479646191  0.0969565243855052   T   T   T
  0.1808935543595883  0.8396067701494033  0.0855751990084398   T   T   T
  0.5562447013189914  0.0881205182200760  0.0940554701005136   T   T   T
  0.4305920399833099  0.1709789621498668  0.0926947435411313   T   T   T
  0.5562416472172174  0.9232675641777207  0.0984890289774580   T   T   T
  0.4296269691427357  0.3360894350768567  0.1013451211173930   T   T   T
  0.4176804983563687  0.6812546025217224  0.1132267603179483   T   T   T
  0.5562347945584186  0.4048694250730904  0.1150601668615833   T   T   T
  0.4293025855325460  0.8419330750923518  0.1000087689767325   T   T   T
  0.8069625757756702  0.0895957057808072  0.0868615987367511   T   T   T
  0.6818972264231845  0.1709827936113115  0.0926953415820856   T   T   T
  0.8073327319045051  0.9235223383110985  0.0886767058914263   T   T   T
  0.6828613357751537  0.3360953337047246  0.1013671188500211   T   T   T
  0.8094152300706289  0.5893079906898618  0.0992908345000129   T   T   T
  0.6948366997563797  0.6812603921684844  0.1133021562901462   T   T   T
  0.8076621755230632  0.4217425579411913  0.0970064417448803   T   T   T
  0.6831716690148644  0.8419245324261918  0.1000526259369436   T   T   T
  0.5562121080022118  0.5904424345032547  0.1702704736476051   T   T   T
 
  0.00000000E+00  0.00000000E+00  0.00000000E+00
  0.00000000E+00  0.00000000E+00  0.00000000E+00
  0.00000000E+00  0.00000000E+00  0.00000000E+00
  0.00000000E+00  0.00000000E+00  0.00000000E+00
  0.00000000E+00  0.00000000E+00  0.00000000E+00
  0.00000000E+00  0.00000000E+00  0.00000000E+00
  0.00000000E+00  0.00000000E+00  0.00000000E+00
  0.00000000E+00  0.00000000E+00  0.00000000E+00
  0.00000000E+00  0.00000000E+00  0.00000000E+00
  0.00000000E+00  0.00000000E+00  0.00000000E+00
  0.00000000E+00  0.00000000E+00  0.00000000E+00
  0.00000000E+00  0.00000000E+00  0.00000000E+00
  0.00000000E+00  0.00000000E+00  0.00000000E+00
  0.00000000E+00  0.00000000E+00  0.00000000E+00
  0.00000000E+00  0.00000000E+00  0.00000000E+00
  0.00000000E+00  0.00000000E+00  0.00000000E+00
  0.00000000E+00  0.00000000E+00  0.00000000E+00
  0.00000000E+00  0.00000000E+00  0.00000000E+00
  0.00000000E+00  0.00000000E+00  0.00000000E+00
  0.00000000E+00  0.00000000E+00  0.00000000E+00
  0.00000000E+00  0.00000000E+00  0.00000000E+00
  0.00000000E+00  0.00000000E+00  0.00000000E+00
  0.00000000E+00  0.00000000E+00  0.00000000E+00
  0.00000000E+00  0.00000000E+00  0.00000000E+00
  0.00000000E+00  0.00000000E+00  0.00000000E+00
  0.00000000E+00  0.00000000E+00  0.00000000E+00
  0.00000000E+00  0.00000000E+00  0.00000000E+00
  0.00000000E+00  0.00000000E+00  0.00000000E+00
  0.00000000E+00  0.00000000E+00  0.00000000E+00
  0.00000000E+00  0.00000000E+00  0.00000000E+00
  0.00000000E+00  0.00000000E+00  0.00000000E+00
  0.00000000E+00  0.00000000E+00  0.00000000E+00
