Title                                   
   1.00000000000000     
     8.5490480000000009    0.0000000000000000    0.0000000000000000
     0.0000000000000000    8.5490480000000009    0.0000000000000000
     0.0000000000000000    0.0000000000000000   20.0000000000000000
    21     3     1
Selective dynamics
Direct
  0.9071054694909123  0.2093171642310263  0.0949840620703892   T   T   T
  0.9134484994914878  0.8021033329511302  0.0963924253354598   T   T   T
  0.1960806444335867  0.0805641745449739  0.0961459394206206   T   T   T
  0.0722945305536127  0.2019500792014314  0.0954649445877612   T   T   T
  0.1596192272584041  0.6478190599959319  0.0979138746226763   T   T   T
  0.0749560456776380  0.5020738596892278  0.0968476504447157   T   T   T
  0.1491261583987307  0.3517663274126210  0.0967023631164168   T   T   T
  0.0817807497954286  0.7964618029909857  0.0965315915763098   T   T   T
  0.4939874643980477  0.0850356471423025  0.0982404645441782   T   T   T
  0.3422726988745329  0.1588128268062323  0.0977958399799503   T   T   T
  0.4964503020590380  0.9170189197960855  0.0977331372573646   T   T   T
  0.3487685541027571  0.8365995977733472  0.0966311371749749   T   T   T
  0.7852455383650995  0.0903221137303560  0.0972508841166638   T   T   T
  0.6375992150978402  0.1708092070953645  0.0991710385113131   T   T   T
  0.7906616418087961  0.9212033684282113  0.0970767734592498   T   T   T
  0.8309367992821867  0.6537895761854345  0.0976014973829276   T   T   T
  0.8307913329856508  0.3610721195430193  0.0942930338225300   T   T   T
  0.6450273907564129  0.8361991911886900  0.0985904723737114   T   T   T
  0.3160426453299338  0.3269040407814025  0.1002649405036534   T   T   T
  0.3298033247777306  0.6736884430224889  0.0984998017421675   T   T   T
  0.6661706314599737  0.3448843653795694  0.0978414902817528   T   T   T
  0.9092364442694054  0.5065277962632418  0.0958282634126916   T   T   T
  0.6700353047913159  0.6729976004623736  0.1005460579915989   T   T   T
  0.1992603948345804  0.9146403250670855  0.0957943756811978   T   T   T
  0.4787109917068901  0.4822290603174810  0.1145629405897071   T   T   T
 
  0.00000000E+00  0.00000000E+00  0.00000000E+00
  0.00000000E+00  0.00000000E+00  0.00000000E+00
  0.00000000E+00  0.00000000E+00  0.00000000E+00
  0.00000000E+00  0.00000000E+00  0.00000000E+00
  0.00000000E+00  0.00000000E+00  0.00000000E+00
  0.00000000E+00  0.00000000E+00  0.00000000E+00
  0.00000000E+00  0.00000000E+00  0.00000000E+00
  0.00000000E+00  0.00000000E+00  0.00000000E+00
  0.00000000E+00  0.00000000E+00  0.00000000E+00
  0.00000000E+00  0.00000000E+00  0.00000000E+00
  0.00000000E+00  0.00000000E+00  0.00000000E+00
  0.00000000E+00  0.00000000E+00  0.00000000E+00
  0.00000000E+00  0.00000000E+00  0.00000000E+00
  0.00000000E+00  0.00000000E+00  0.00000000E+00
  0.00000000E+00  0.00000000E+00  0.00000000E+00
  0.00000000E+00  0.00000000E+00  0.00000000E+00
  0.00000000E+00  0.00000000E+00  0.00000000E+00
  0.00000000E+00  0.00000000E+00  0.00000000E+00
  0.00000000E+00  0.00000000E+00  0.00000000E+00
  0.00000000E+00  0.00000000E+00  0.00000000E+00
  0.00000000E+00  0.00000000E+00  0.00000000E+00
  0.00000000E+00  0.00000000E+00  0.00000000E+00
  0.00000000E+00  0.00000000E+00  0.00000000E+00
  0.00000000E+00  0.00000000E+00  0.00000000E+00
  0.00000000E+00  0.00000000E+00  0.00000000E+00
