Title                                   
   1.00000000000000     
     4.9440799999999996    0.0000000000000000    0.0000000000000000
     0.0000000000000000    8.5647549999999999    0.0000000000000000
     0.0000000000000000    0.0000000000000000   20.0000000000000000
    14     1     1
Selective dynamics
Direct
  0.2500000000000000  0.2077539474789732  0.0912621480133905   T   T   T
 -0.0033755341044350  0.2869273935501962  0.0961219864939254   T   T   T
  0.2500000000000000  0.0425672681777946  0.0841937885362050   T   T   T
  0.0013291456349429  0.7970587913118964  0.0982353353698464   T   T   T
  0.0000957499257973  0.9592623662186063  0.0843620151205128   T   T   T
  0.7500000000000000  0.2054608184709903  0.0860982732566954   T   T   T
  0.5033755341044349  0.2869273935501962  0.0961219864939254   T   T   T
  0.7500000000000000  0.0401479820058786  0.0802631175384378   T   T   T
  0.7500000000000000  0.7101331582201594  0.1031455786082032   T   T   T
  0.4986708543650571  0.7970587913118964  0.0982353353698464   T   T   T
  0.7500000000000000  0.5413215839986510  0.1070336150954388   T   T   T
  0.4999042500742029  0.9592623662186063  0.0843620151205128   T   T   T
  0.5168309163504594  0.4471977427802191  0.1152241164893290   T   T   T
 -0.0168309163504594  0.4471977427802191  0.1152241164893290   T   T   T
  0.2500000000000000  0.7298266708941686  0.1140716673280852   T   T   T
  0.2500000000000000  0.5418959830315481  0.1685569046763243   T   T   T
 
  0.00000000E+00  0.00000000E+00  0.00000000E+00
  0.00000000E+00  0.00000000E+00  0.00000000E+00
  0.00000000E+00  0.00000000E+00  0.00000000E+00
  0.00000000E+00  0.00000000E+00  0.00000000E+00
  0.00000000E+00  0.00000000E+00  0.00000000E+00
  0.00000000E+00  0.00000000E+00  0.00000000E+00
  0.00000000E+00  0.00000000E+00  0.00000000E+00
  0.00000000E+00  0.00000000E+00  0.00000000E+00
  0.00000000E+00  0.00000000E+00  0.00000000E+00
  0.00000000E+00  0.00000000E+00  0.00000000E+00
  0.00000000E+00  0.00000000E+00  0.00000000E+00
  0.00000000E+00  0.00000000E+00  0.00000000E+00
  0.00000000E+00  0.00000000E+00  0.00000000E+00
  0.00000000E+00  0.00000000E+00  0.00000000E+00
  0.00000000E+00  0.00000000E+00  0.00000000E+00
  0.00000000E+00  0.00000000E+00  0.00000000E+00
