Title                                   
   1.00000000000000     
     4.9440799999999996    0.0000000000000000    0.0000000000000000
     0.0000000000000000   17.1295089999999988    0.0000000000000000
     0.0000000000000000    0.0000000000000000   20.0000000000000000
    28     2     1
Selective dynamics
Direct
 -0.0000786950562937  0.1044223048513667  0.2977807258735394   T   T   T
  0.2484671788941549  0.1472073645737892  0.2985353193138957   T   T   T
  0.2484299253617410  0.2307013652853454  0.3001277724898343   T   T   T
 -0.0034516464476715  0.2730635959133013  0.3011918144190531   T   T   T
 -0.0007564730224255  0.6040324988046986  0.3019654903144125   T   T   T
  0.2521518825737446  0.7277055671542105  0.2988828563821107   T   T   T
  0.0006978525083627  0.8536398951389877  0.2969959963615367   T   T   T
  0.2503642686731939  0.8957685414822038  0.2966898535948798   T   T   T
  0.2502358098140342  0.9791479204041582  0.2966081938876001   T   T   T
  0.0011447855293564  0.7699935494232634  0.2981413916935045   T   T   T
  0.4995349601234168  0.1049447801821373  0.2976688752856601   T   T   T
  0.7507172286372860  0.1459997833066495  0.2983312305665718   T   T   T
  0.7498695925481380  0.2294785452828292  0.2998242385704729   T   T   T
  0.4999126765906646  0.0212913313660790  0.2967475856013256   T   T   T
  0.7488408654737252  0.3925351390402845  0.3024229565501765   T   T   T
  0.7517544085711705  0.4823853012227774  0.3030304363951482   T   T   T
  0.5014056442780944  0.2708913855227321  0.3003181219143127   T   T   T
  0.5041423081755093  0.6018743906750367  0.3011669134693644   T   T   T
  0.7499613545162370  0.7289109863452262  0.2987898592581931   T   T   T
  0.5004264701344925  0.8539072473807356  0.2969197779063871   T   T   T
  0.7505475316523234  0.8955936214672270  0.2966155295096579   T   T   T
  0.7501144009388023  0.9793312268843611  0.2965232693377159   T   T   T
  0.5007466329561622  0.7704754318087056  0.2979994124774050   T   T   T
  0.7508115036175566  0.6454491870602617  0.3005825932143094   T   T   T
  0.2522309132112669  0.6442155335559734  0.3006792404651521   T   T   T
  0.0001802226891430  0.0210027848232360  0.2968038120222867   T   T   T
  0.9905529335922343  0.5221452888676527  0.3041256851726072   T   T   T
  0.5100221456752669  0.3528088043083427  0.3009640084562767   T   T   T
  0.5155954625874504  0.5210928722503160  0.3019251700082592   T   T   T
 -0.0149282503239325  0.3538266684808873  0.3032666567352152   T   T   T
  0.2503631055267975  0.4374990871372202  0.3034352127530872   T   T   T
 
  0.00000000E+00  0.00000000E+00  0.00000000E+00
  0.00000000E+00  0.00000000E+00  0.00000000E+00
  0.00000000E+00  0.00000000E+00  0.00000000E+00
  0.00000000E+00  0.00000000E+00  0.00000000E+00
  0.00000000E+00  0.00000000E+00  0.00000000E+00
  0.00000000E+00  0.00000000E+00  0.00000000E+00
  0.00000000E+00  0.00000000E+00  0.00000000E+00
  0.00000000E+00  0.00000000E+00  0.00000000E+00
  0.00000000E+00  0.00000000E+00  0.00000000E+00
  0.00000000E+00  0.00000000E+00  0.00000000E+00
  0.00000000E+00  0.00000000E+00  0.00000000E+00
  0.00000000E+00  0.00000000E+00  0.00000000E+00
  0.00000000E+00  0.00000000E+00  0.00000000E+00
  0.00000000E+00  0.00000000E+00  0.00000000E+00
  0.00000000E+00  0.00000000E+00  0.00000000E+00
  0.00000000E+00  0.00000000E+00  0.00000000E+00
  0.00000000E+00  0.00000000E+00  0.00000000E+00
  0.00000000E+00  0.00000000E+00  0.00000000E+00
  0.00000000E+00  0.00000000E+00  0.00000000E+00
  0.00000000E+00  0.00000000E+00  0.00000000E+00
  0.00000000E+00  0.00000000E+00  0.00000000E+00
  0.00000000E+00  0.00000000E+00  0.00000000E+00
  0.00000000E+00  0.00000000E+00  0.00000000E+00
  0.00000000E+00  0.00000000E+00  0.00000000E+00
  0.00000000E+00  0.00000000E+00  0.00000000E+00
  0.00000000E+00  0.00000000E+00  0.00000000E+00
  0.00000000E+00  0.00000000E+00  0.00000000E+00
  0.00000000E+00  0.00000000E+00  0.00000000E+00
  0.00000000E+00  0.00000000E+00  0.00000000E+00
  0.00000000E+00  0.00000000E+00  0.00000000E+00
  0.00000000E+00  0.00000000E+00  0.00000000E+00
