Title                                   
   1.00000000000000     
     9.8694509999999998    0.0000000000000000    0.0000000000000000
     0.0000000000000000    8.5490480000000009    0.0000000000000000
     0.0000000000000000    0.0000000000000000   20.0000000000000000
    25     5     1
Selective dynamics
Direct
  0.0557848787387908  0.0896349344979670  0.0892460786173073   T   T   T
  0.9317878352116311  0.1714956648767227  0.0907188733739880   T   T   T
  0.0572911440243220  0.9231944802657159  0.0896000484870583   T   T   T
  0.9336282695252431  0.3390842300376550  0.0894236819477974   T   T   T
  0.0567199043500823  0.5895299082521623  0.0854894059357036   T   T   T
  0.9338893114879681  0.6734419726834284  0.0892806992251188   T   T   T
  0.0567454259306444  0.4233129251827808  0.0854217876849234   T   T   T
  0.9322959478812028  0.8403790835937049  0.0906705297664782   T   T   T
  0.3063133646395558  0.0888410174841165  0.0952510225615937   T   T   T
  0.1807785121059333  0.1705501559525913  0.0901134755385522   T   T   T
  0.1793563705330354  0.3382703792581016  0.0885460822508691   T   T   T
  0.2991916876420370  0.5900950677763798  0.0963227522245125   T   T   T
  0.1798635870610376  0.6742462982256716  0.0890197238879331   T   T   T
  0.2995531555542544  0.4219856958095903  0.0960020676666758   T   T   T
  0.1813442103781161  0.8413004431860054  0.0908390336404498   T   T   T
  0.5563932401630787  0.0932887615408641  0.1037909788068418   T   T   T
  0.4284325705301965  0.1763692194901436  0.1021408612738119   T   T   T
  0.5550640406694960  0.9194694029442601  0.1035491595924818   T   T   T
  0.4278435159794692  0.8353932832619685  0.1024147054886199   T   T   T
  0.8057482197818220  0.0901644270829410  0.0955692563310188   T   T   T
  0.6835227241914568  0.1777237467741548  0.1024981575451426   T   T   T
  0.8058080293240742  0.9217756680689997  0.0953297065582905   T   T   T
  0.8134529638474136  0.5905516470430431  0.0969208511013899   T   T   T
  0.8134337750587272  0.4216484826263204  0.0971883144392350   T   T   T
  0.6831894897835303  0.8340289857945058  0.1019494869428710   T   T   T
  0.4199289162806268  0.3406502181711577  0.1069610131023025   T   T   T
  0.4191898690434278  0.6731550504519376  0.1080176327019048   T   T   T
  0.6918421435149917  0.3420365504563376  0.1077446331940579   T   T   T
  0.6921520553312818  0.6703902690608238  0.1069928549412283   T   T   T
  0.3064968581532512  0.9224388017728740  0.0954358509664664   T   T   T
  0.5560939832833035  0.5064282283770722  0.1185162742054335   T   T   T
 
  0.00000000E+00  0.00000000E+00  0.00000000E+00
  0.00000000E+00  0.00000000E+00  0.00000000E+00
  0.00000000E+00  0.00000000E+00  0.00000000E+00
  0.00000000E+00  0.00000000E+00  0.00000000E+00
  0.00000000E+00  0.00000000E+00  0.00000000E+00
  0.00000000E+00  0.00000000E+00  0.00000000E+00
  0.00000000E+00  0.00000000E+00  0.00000000E+00
  0.00000000E+00  0.00000000E+00  0.00000000E+00
  0.00000000E+00  0.00000000E+00  0.00000000E+00
  0.00000000E+00  0.00000000E+00  0.00000000E+00
  0.00000000E+00  0.00000000E+00  0.00000000E+00
  0.00000000E+00  0.00000000E+00  0.00000000E+00
  0.00000000E+00  0.00000000E+00  0.00000000E+00
  0.00000000E+00  0.00000000E+00  0.00000000E+00
  0.00000000E+00  0.00000000E+00  0.00000000E+00
  0.00000000E+00  0.00000000E+00  0.00000000E+00
  0.00000000E+00  0.00000000E+00  0.00000000E+00
  0.00000000E+00  0.00000000E+00  0.00000000E+00
  0.00000000E+00  0.00000000E+00  0.00000000E+00
  0.00000000E+00  0.00000000E+00  0.00000000E+00
  0.00000000E+00  0.00000000E+00  0.00000000E+00
  0.00000000E+00  0.00000000E+00  0.00000000E+00
  0.00000000E+00  0.00000000E+00  0.00000000E+00
  0.00000000E+00  0.00000000E+00  0.00000000E+00
  0.00000000E+00  0.00000000E+00  0.00000000E+00
  0.00000000E+00  0.00000000E+00  0.00000000E+00
  0.00000000E+00  0.00000000E+00  0.00000000E+00
  0.00000000E+00  0.00000000E+00  0.00000000E+00
  0.00000000E+00  0.00000000E+00  0.00000000E+00
  0.00000000E+00  0.00000000E+00  0.00000000E+00
  0.00000000E+00  0.00000000E+00  0.00000000E+00
