Title                                   
   1.00000000000000     
     9.8694509999999998    0.0000000000000000    0.0000000000000000
     0.0000000000000000    8.5490480000000009    0.0000000000000000
     0.0000000000000000    0.0000000000000000   20.0000000000000000
    28     2     1
Selective dynamics
Direct
  0.0555186719034790  0.0888330450412823  0.0827445478930212   T   T   T
  0.9312560743376880  0.1714181266664191  0.0868544296679323   T   T   T
  0.0555267526226326  0.9235621840815744  0.0827552590972813   T   T   T
  0.9351117454188795  0.3378865167336915  0.0866493288209847   T   T   T
  0.0572048251247768  0.5891826840583789  0.0806587337413462   T   T   T
  0.9350711565733167  0.6745310862892056  0.0866514105806139   T   T   T
  0.0572383016302108  0.4232225352470574  0.0806414125687366   T   T   T
  0.9312575406167423  0.8409798017805868  0.0868584650618046   T   T   T
  0.3045451884699947  0.0896851035229314  0.0911530719222926   T   T   T
  0.1803250821713830  0.1718015234255305  0.0843648310777480   T   T   T
  0.3045237918054054  0.9225819696513815  0.0911612239443332   T   T   T
  0.1798883195629048  0.3387342682749513  0.0834066410635518   T   T   T
  0.3014740838653989  0.5923574611033191  0.0927803023127490   T   T   T
  0.1798652460940711  0.6736187395848846  0.0834316174598060   T   T   T
  0.3015089288616482  0.4199094572522172  0.0927765835580316   T   T   T
  0.1802906730211047  0.8405391228406139  0.0843852213576787   T   T   T
  0.5546776270784514  0.0904040799273894  0.1064811706403488   T   T   T
  0.4261296989620212  0.1768289127644934  0.1013609297412497   T   T   T
  0.5546717546522258  0.9218073611656530  0.1064549550742378   T   T   T
  0.4261028671866467  0.8354160493665181  0.1013524342597750   T   T   T
  0.8060926152644303  0.0898933026165141  0.0952788600297756   T   T   T
  0.6830557605355253  0.1770618005237879  0.1055953658728281   T   T   T
  0.8060883565176893  0.9224395195162620  0.0952551242703988   T   T   T
  0.6929850850620675  0.3425387866874124  0.1110557135573530   T   T   T
  0.8169433932816772  0.5907682540731094  0.0992559232947817   T   T   T
  0.6929377461895572  0.6697412795310108  0.1109983544670818   T   T   T
  0.8169669430625082  0.4215803261665186  0.0992779657220126   T   T   T
  0.6830534729608757  0.8351889032639314  0.1055340719388818   T   T   T
  0.4179259540336132  0.3366769121388553  0.1042674530694215   T   T   T
  0.4179116444402578  0.6755605342037395  0.1042373088332426   T   T   T
  0.5569856986928278  0.5061253525007946  0.1172862891007403   T   T   T
 
  0.00000000E+00  0.00000000E+00  0.00000000E+00
  0.00000000E+00  0.00000000E+00  0.00000000E+00
  0.00000000E+00  0.00000000E+00  0.00000000E+00
  0.00000000E+00  0.00000000E+00  0.00000000E+00
  0.00000000E+00  0.00000000E+00  0.00000000E+00
  0.00000000E+00  0.00000000E+00  0.00000000E+00
  0.00000000E+00  0.00000000E+00  0.00000000E+00
  0.00000000E+00  0.00000000E+00  0.00000000E+00
  0.00000000E+00  0.00000000E+00  0.00000000E+00
  0.00000000E+00  0.00000000E+00  0.00000000E+00
  0.00000000E+00  0.00000000E+00  0.00000000E+00
  0.00000000E+00  0.00000000E+00  0.00000000E+00
  0.00000000E+00  0.00000000E+00  0.00000000E+00
  0.00000000E+00  0.00000000E+00  0.00000000E+00
  0.00000000E+00  0.00000000E+00  0.00000000E+00
  0.00000000E+00  0.00000000E+00  0.00000000E+00
  0.00000000E+00  0.00000000E+00  0.00000000E+00
  0.00000000E+00  0.00000000E+00  0.00000000E+00
  0.00000000E+00  0.00000000E+00  0.00000000E+00
  0.00000000E+00  0.00000000E+00  0.00000000E+00
  0.00000000E+00  0.00000000E+00  0.00000000E+00
  0.00000000E+00  0.00000000E+00  0.00000000E+00
  0.00000000E+00  0.00000000E+00  0.00000000E+00
  0.00000000E+00  0.00000000E+00  0.00000000E+00
  0.00000000E+00  0.00000000E+00  0.00000000E+00
  0.00000000E+00  0.00000000E+00  0.00000000E+00
  0.00000000E+00  0.00000000E+00  0.00000000E+00
  0.00000000E+00  0.00000000E+00  0.00000000E+00
  0.00000000E+00  0.00000000E+00  0.00000000E+00
  0.00000000E+00  0.00000000E+00  0.00000000E+00
  0.00000000E+00  0.00000000E+00  0.00000000E+00
