Title                                   
   1.00000000000000     
     4.9440799999999996    0.0000000000000000    0.0000000000000000
     0.0000000000000000   17.1295089999999988    0.0000000000000000
     0.0000000000000000    0.0000000000000000   20.0000000000000000
    29     2     1
Selective dynamics
Direct
  0.0040347065779596  0.1042815541573467  0.2839524510199939   T   T   T
  0.2546635079913546  0.1459515747342581  0.2877653705794010   T   T   T
  0.2562862173116579  0.2285759351738675  0.2976899204291246   T   T   T
  0.0099604464791747  0.3509273981958030  0.3173704927836660   T   T   T
  0.0054486179322034  0.2695816863914900  0.3025732809705718   T   T   T
 -0.0083079310337955  0.6051730266896294  0.3066303133797533   T   T   T
  0.2469032575012939  0.7286998729924437  0.2927959604375163   T   T   T
 -0.0001676173896309  0.8539192222363002  0.2813943417569534   T   T   T
  0.2499741993175101  0.8957945457136144  0.2801335981100057   T   T   T
  0.2517851499797511  0.9792317439808290  0.2791680269350679   T   T   T
 -0.0017254091303225  0.7706286794422205  0.2869388577425430   T   T   T
  0.5039846134082907  0.1042007002001774  0.2840916908427523   T   T   T
  0.7544797124057241  0.1459246001673369  0.2870719248465606   T   T   T
  0.7559606044257443  0.2284065861636907  0.2959986102879285   T   T   T
  0.5024323673554804  0.0210025146300135  0.2799040432634455   T   T   T
  0.5066082905523019  0.3509850549705986  0.3190564896162018   T   T   T
  0.7592413444475343  0.3966089660044712  0.3230512664381558   T   T   T
  0.7490798201781527  0.4829965215854929  0.3242611560775494   T   T   T
  0.5078946402884099  0.2698054316287210  0.3033532808347640   T   T   T
  0.4991123058823636  0.6055669434849404  0.3133138760815349   T   T   T
  0.7471296852534031  0.7295301216177557  0.2905475296712993   T   T   T
  0.4990659785601207  0.8539155872388473  0.2818959851102377   T   T   T
  0.7501286836938579  0.8956614322567247  0.2797109195635584   T   T   T
  0.7518485709898609  0.9790795507186845  0.2788578916721918   T   T   T
  0.4969926380767450  0.7708297417168128  0.2879667034340879   T   T   T
  0.7447118583676600  0.6472302819864094  0.3002061386409104   T   T   T
  0.2464067938375013  0.6461058334935996  0.3054743427807826   T   T   T
  0.0023438853465019  0.0209949679618514  0.2797610900685814   T   T   T
  0.5101450665313227  0.5266020249125475  0.3356697719880637   T   T   T
  0.9859087888675406  0.5255738180166459  0.3142288944407540   T   T   T
  0.2584884027574475  0.3852361184028514  0.3304827208322167   T   T   T
  0.1960038032368858  0.4795289631340200  0.3912480593637785   T   T   T
 
  0.00000000E+00  0.00000000E+00  0.00000000E+00
  0.00000000E+00  0.00000000E+00  0.00000000E+00
  0.00000000E+00  0.00000000E+00  0.00000000E+00
  0.00000000E+00  0.00000000E+00  0.00000000E+00
  0.00000000E+00  0.00000000E+00  0.00000000E+00
  0.00000000E+00  0.00000000E+00  0.00000000E+00
  0.00000000E+00  0.00000000E+00  0.00000000E+00
  0.00000000E+00  0.00000000E+00  0.00000000E+00
  0.00000000E+00  0.00000000E+00  0.00000000E+00
  0.00000000E+00  0.00000000E+00  0.00000000E+00
  0.00000000E+00  0.00000000E+00  0.00000000E+00
  0.00000000E+00  0.00000000E+00  0.00000000E+00
  0.00000000E+00  0.00000000E+00  0.00000000E+00
  0.00000000E+00  0.00000000E+00  0.00000000E+00
  0.00000000E+00  0.00000000E+00  0.00000000E+00
  0.00000000E+00  0.00000000E+00  0.00000000E+00
  0.00000000E+00  0.00000000E+00  0.00000000E+00
  0.00000000E+00  0.00000000E+00  0.00000000E+00
  0.00000000E+00  0.00000000E+00  0.00000000E+00
  0.00000000E+00  0.00000000E+00  0.00000000E+00
  0.00000000E+00  0.00000000E+00  0.00000000E+00
  0.00000000E+00  0.00000000E+00  0.00000000E+00
  0.00000000E+00  0.00000000E+00  0.00000000E+00
  0.00000000E+00  0.00000000E+00  0.00000000E+00
  0.00000000E+00  0.00000000E+00  0.00000000E+00
  0.00000000E+00  0.00000000E+00  0.00000000E+00
  0.00000000E+00  0.00000000E+00  0.00000000E+00
  0.00000000E+00  0.00000000E+00  0.00000000E+00
  0.00000000E+00  0.00000000E+00  0.00000000E+00
  0.00000000E+00  0.00000000E+00  0.00000000E+00
  0.00000000E+00  0.00000000E+00  0.00000000E+00
  0.00000000E+00  0.00000000E+00  0.00000000E+00
