Title                                   
   1.00000000000000     
     8.5490480000000009    0.0000000000000000    0.0000000000000000
     0.0000000000000000    8.5490480000000009    0.0000000000000000
     0.0000000000000000    0.0000000000000000   20.0000000000000000
    20     4     1
Selective dynamics
Direct
  0.9086070174935843  0.2074270247253424  0.0943367950466168   T   T   T
  0.9112876647792705  0.7997016424432373  0.0963207725531882   T   T   T
  0.1969524312381183  0.0833116753359310  0.0967081266838113   T   T   T
  0.0749513659207133  0.2030669579518059  0.0965359713082135   T   T   T
  0.1567521979141375  0.6491572253607064  0.0947735908698577   T   T   T
  0.0764257149788669  0.5012710646978784  0.0969411697257240   T   T   T
  0.1545912497111787  0.3517173373728723  0.0991165638810788   T   T   T
  0.0790792506414694  0.7982516634676640  0.0947393319531619   T   T   T
  0.4934921855471467  0.0864349206757431  0.0969531487776611   T   T   T
  0.3424966711740971  0.1639333370307481  0.0990715619832290   T   T   T
  0.4934613018914153  0.9173450006897422  0.0972154218169849   T   T   T
  0.3460738113087685  0.8353482716031201  0.0952679801096750   T   T   T
  0.7874612575529769  0.0874025877942392  0.0945034496389979   T   T   T
  0.6391220594097582  0.1684264712833508  0.0948707758396210   T   T   T
  0.7885654490883436  0.9189950717995690  0.0965494741836246   T   T   T
  0.8315940287785348  0.6510431345528914  0.0984760159644654   T   T   T
  0.8287815490264706  0.3581479303224103  0.0945662557477362   T   T   T
  0.6425250023278720  0.8366053254070106  0.0989874221219894   T   T   T
  0.3236042407598860  0.6717015661005067  0.0949918891890642   T   T   T
  0.6629977955726852  0.3376590916259338  0.0959901805843552   T   T   T
  0.9092263244959559  0.5034031151105929  0.0965881583881749   T   T   T
  0.3188198705482955  0.3285439235707170  0.1037013634051466   T   T   T
  0.6682532855488105  0.6709211146232293  0.1032632793355692   T   T   T
  0.1976476977415026  0.9161309472998340  0.0947011835732428   T   T   T
  0.4926425765501277  0.4988435991549369  0.1185351173187904   T   T   T
 
  0.00000000E+00  0.00000000E+00  0.00000000E+00
  0.00000000E+00  0.00000000E+00  0.00000000E+00
  0.00000000E+00  0.00000000E+00  0.00000000E+00
  0.00000000E+00  0.00000000E+00  0.00000000E+00
  0.00000000E+00  0.00000000E+00  0.00000000E+00
  0.00000000E+00  0.00000000E+00  0.00000000E+00
  0.00000000E+00  0.00000000E+00  0.00000000E+00
  0.00000000E+00  0.00000000E+00  0.00000000E+00
  0.00000000E+00  0.00000000E+00  0.00000000E+00
  0.00000000E+00  0.00000000E+00  0.00000000E+00
  0.00000000E+00  0.00000000E+00  0.00000000E+00
  0.00000000E+00  0.00000000E+00  0.00000000E+00
  0.00000000E+00  0.00000000E+00  0.00000000E+00
  0.00000000E+00  0.00000000E+00  0.00000000E+00
  0.00000000E+00  0.00000000E+00  0.00000000E+00
  0.00000000E+00  0.00000000E+00  0.00000000E+00
  0.00000000E+00  0.00000000E+00  0.00000000E+00
  0.00000000E+00  0.00000000E+00  0.00000000E+00
  0.00000000E+00  0.00000000E+00  0.00000000E+00
  0.00000000E+00  0.00000000E+00  0.00000000E+00
  0.00000000E+00  0.00000000E+00  0.00000000E+00
  0.00000000E+00  0.00000000E+00  0.00000000E+00
  0.00000000E+00  0.00000000E+00  0.00000000E+00
  0.00000000E+00  0.00000000E+00  0.00000000E+00
  0.00000000E+00  0.00000000E+00  0.00000000E+00
