Title                                   
   1.00000000000000     
     8.5490480000000009    0.0000000000000000    0.0000000000000000
     0.0000000000000000    8.5490480000000009    0.0000000000000000
     0.0000000000000000    0.0000000000000000   20.0000000000000000
    17     7     1
Selective dynamics
Direct
  0.9076226424344818  0.2059728660691611  0.0975060984937038   T   T   T
  0.9104574260676437  0.7999285099862765  0.0976213376155047   T   T   T
  0.1977179143794465  0.0836545261812105  0.0976430752374786   T   T   T
  0.0768473338943738  0.2013856860187430  0.0976246485289317   T   T   T
  0.1583425989591978  0.6506357132377687  0.0977991015071101   T   T   T
  0.0784640927366147  0.5005848609687311  0.0977938881234269   T   T   T
  0.1575012401519238  0.3510505672236131  0.0978299545800911   T   T   T
  0.0795181127487748  0.7986191945145367  0.0976921799897709   T   T   T
  0.3447266308842875  0.1665570427858722  0.0978429331404637   T   T   T
  0.4923177901245671  0.9172123318025602  0.0977730523546390   T   T   T
  0.3449921647090360  0.8364672975163976  0.0977394824417853   T   T   T
  0.7873720273107248  0.0870545850711087  0.0974912767772743   T   T   T
  0.6405574094536615  0.1689489274140404  0.0976781773481508   T   T   T
  0.7894373173095818  0.9182051289291320  0.0975841120901950   T   T   T
  0.8281034833406782  0.6504511670392253  0.0977511144832608   T   T   T
  0.8265220101781146  0.3538937619293098  0.0976632481981037   T   T   T
  0.6420456764877955  0.8369938935900558  0.0977860072257464   T   T   T
  0.4934656662150194  0.0902408382229159  0.0978543379658127   T   T   T
  0.9055111125813996  0.5019570613302246  0.0977600567812866   T   T   T
  0.3222653633173664  0.3285667722500583  0.0980121190890030   T   T   T
  0.3230039166868597  0.6741746176271479  0.0978799864185583   T   T   T
  0.6627263687522815  0.3326182294901426  0.0978210224309514   T   T   T
  0.6659358694599345  0.6720482322354624  0.0979261913908813   T   T   T
  0.1968824808198991  0.9149637325954479  0.0976983001579285   T   T   T
  0.4930753509963283  0.5026044559708568  0.0979332976299216   T   T   T
 
  0.00000000E+00  0.00000000E+00  0.00000000E+00
  0.00000000E+00  0.00000000E+00  0.00000000E+00
  0.00000000E+00  0.00000000E+00  0.00000000E+00
  0.00000000E+00  0.00000000E+00  0.00000000E+00
  0.00000000E+00  0.00000000E+00  0.00000000E+00
  0.00000000E+00  0.00000000E+00  0.00000000E+00
  0.00000000E+00  0.00000000E+00  0.00000000E+00
  0.00000000E+00  0.00000000E+00  0.00000000E+00
  0.00000000E+00  0.00000000E+00  0.00000000E+00
  0.00000000E+00  0.00000000E+00  0.00000000E+00
  0.00000000E+00  0.00000000E+00  0.00000000E+00
  0.00000000E+00  0.00000000E+00  0.00000000E+00
  0.00000000E+00  0.00000000E+00  0.00000000E+00
  0.00000000E+00  0.00000000E+00  0.00000000E+00
  0.00000000E+00  0.00000000E+00  0.00000000E+00
  0.00000000E+00  0.00000000E+00  0.00000000E+00
  0.00000000E+00  0.00000000E+00  0.00000000E+00
  0.00000000E+00  0.00000000E+00  0.00000000E+00
  0.00000000E+00  0.00000000E+00  0.00000000E+00
  0.00000000E+00  0.00000000E+00  0.00000000E+00
  0.00000000E+00  0.00000000E+00  0.00000000E+00
  0.00000000E+00  0.00000000E+00  0.00000000E+00
  0.00000000E+00  0.00000000E+00  0.00000000E+00
  0.00000000E+00  0.00000000E+00  0.00000000E+00
  0.00000000E+00  0.00000000E+00  0.00000000E+00
