Title                                   
   1.00000000000000     
     8.5490480000000009    0.0000000000000000    0.0000000000000000
     0.0000000000000000    8.5490480000000009    0.0000000000000000
     0.0000000000000000    0.0000000000000000   20.0000000000000000
    20     4     1
Selective dynamics
Direct
  0.9096043404984453  0.2043534518872731  0.0954656381220608   T   T   T
  0.9074073798377027  0.5018113872217361  0.0953112384571244   T   T   T
  0.9096185454644466  0.7992513857923972  0.0954806614600680   T   T   T
  0.1955680256274870  0.0851749858808808  0.0954939029215226   T   T   T
  0.0764124370282146  0.2043288849120589  0.0954765377678511   T   T   T
  0.1955876687951933  0.9183722863991934  0.0954955790116273   T   T   T
  0.1567265402387201  0.6514891210592786  0.0953463976517708   T   T   T
  0.0786512330197092  0.5017847131472554  0.0953292867726919   T   T   T
  0.1567145517389519  0.3520671182367012  0.0953336595697423   T   T   T
  0.0764352325198031  0.7992242141644629  0.0954825469884038   T   T   T
  0.4929828251739054  0.0874106784241000  0.0953544765336344   T   T   T
  0.3433027513358763  0.1654865729443839  0.0953540005712389   T   T   T
  0.4929900474494965  0.9161871111830070  0.0953614187447801   T   T   T
  0.3433269017075193  0.8380827083918162  0.0953619316036062   T   T   T
  0.7904475742101483  0.0852081413262118  0.0954775470288298   T   T   T
  0.6426895356808627  0.1655063571662145  0.0953268070743706   T   T   T
  0.7904612989639626  0.9184044305643136  0.0954844747888304   T   T   T
  0.8293194310457351  0.6515140851906768  0.0953245285331455   T   T   T
  0.8293185345690228  0.3521025653137208  0.0952996116419507   T   T   T
  0.6427002629398638  0.8381016722767970  0.0953394986131702   T   T   T
  0.3183196471597356  0.3270580861053327  0.0952042493122695   T   T   T
  0.3183371164193070  0.6764914688928169  0.0952148167487710   T   T   T
  0.6677312719854642  0.3270804883852554  0.0951712923871660   T   T   T
  0.6677314261936135  0.6765142538127962  0.0951877966087729   T   T   T
  0.4930274203968055  0.5017838313213329  0.0950271010865785   T   T   T
 
  0.00000000E+00  0.00000000E+00  0.00000000E+00
  0.00000000E+00  0.00000000E+00  0.00000000E+00
  0.00000000E+00  0.00000000E+00  0.00000000E+00
  0.00000000E+00  0.00000000E+00  0.00000000E+00
  0.00000000E+00  0.00000000E+00  0.00000000E+00
  0.00000000E+00  0.00000000E+00  0.00000000E+00
  0.00000000E+00  0.00000000E+00  0.00000000E+00
  0.00000000E+00  0.00000000E+00  0.00000000E+00
  0.00000000E+00  0.00000000E+00  0.00000000E+00
  0.00000000E+00  0.00000000E+00  0.00000000E+00
  0.00000000E+00  0.00000000E+00  0.00000000E+00
  0.00000000E+00  0.00000000E+00  0.00000000E+00
  0.00000000E+00  0.00000000E+00  0.00000000E+00
  0.00000000E+00  0.00000000E+00  0.00000000E+00
  0.00000000E+00  0.00000000E+00  0.00000000E+00
  0.00000000E+00  0.00000000E+00  0.00000000E+00
  0.00000000E+00  0.00000000E+00  0.00000000E+00
  0.00000000E+00  0.00000000E+00  0.00000000E+00
  0.00000000E+00  0.00000000E+00  0.00000000E+00
  0.00000000E+00  0.00000000E+00  0.00000000E+00
  0.00000000E+00  0.00000000E+00  0.00000000E+00
  0.00000000E+00  0.00000000E+00  0.00000000E+00
  0.00000000E+00  0.00000000E+00  0.00000000E+00
  0.00000000E+00  0.00000000E+00  0.00000000E+00
  0.00000000E+00  0.00000000E+00  0.00000000E+00
