Title                                   
   1.00000000000000     
     9.8694509999999998    0.0000000000000000    0.0000000000000000
     0.0000000000000000    8.5490480000000009    0.0000000000000000
     0.0000000000000000    0.0000000000000000   20.0000000000000000
    25     6     1
Selective dynamics
Direct
  0.0556474031936517  0.0940867009690655  0.0921792417652530   T   T   T
  0.9289662169873261  0.1762597969174017  0.0922821795889225   T   T   T
  0.0553629213848664  0.9255872844653732  0.0925415836499422   T   T   T
  0.9283985546150971  0.3429245280977277  0.0928352544374305   T   T   T
  0.0556329761316709  0.5915218240992979  0.0923900402922598   T   T   T
  0.9308159644723780  0.6729317604057675  0.0945284517410304   T   T   T
  0.0557798440548636  0.4245927096986901  0.0922547226227758   T   T   T
  0.9305530059833651  0.8405807203255516  0.0942468961239926   T   T   T
  0.3051685943320285  0.0899116560003742  0.0914813033914665   T   T   T
  0.1821491368575974  0.1767291766589878  0.0917983918917286   T   T   T
  0.3055324904059597  0.9244085298283906  0.0907430015233769   T   T   T
  0.1833318158269518  0.3434609820864471  0.0916447222312773   T   T   T
  0.3086600314776423  0.5962457151301475  0.0884082573978091   T   T   T
  0.1801311275561488  0.6733941275285262  0.0910441049387532   T   T   T
  0.1803604879099329  0.8408581440644797  0.0911625595954654   T   T   T
  0.5554729951780603  0.0838625926762675  0.0938876104477414   T   T   T
  0.4313580382318431  0.1703078854679265  0.0933700173976944   T   T   T
  0.4358475725623260  0.3372432099829458  0.0966231733560275   T   T   T
  0.4271143398119043  0.8340148576111546  0.0886214615054748   T   T   T
  0.8060136387559735  0.0893440719792014  0.0924273458453457   T   T   T
  0.6798856169423556  0.1697291349856383  0.0943217474205208   T   T   T
  0.8050736470454344  0.9236490617749047  0.0941174208533162   T   T   T
  0.6758881414411569  0.3363483721464516  0.0980538631334993   T   T   T
  0.8035937605282880  0.5943404275690011  0.0980471286247189   T   T   T
  0.6831295893880945  0.8347114563854783  0.0971038831851519   T   T   T
  0.4246909508041898  0.6772367000469609  0.0845559488857193   T   T   T
  0.5556641494925240  0.4137444749303483  0.1047214829688013   T   T   T
  0.6863517476912868  0.6766783632128281  0.1038924438402482   T   T   T
  0.5552941543553216  0.9151393642425661  0.0924047388299052   T   T   T
  0.3112280333662414  0.4265623483559056  0.0910318140486800   T   T   T
  0.8005739769502825  0.4257135157021209  0.0941718616287187   T   T   T
  0.5759680762652436  0.5681265066540744  0.1887823468369688   T   T   T
 
  0.00000000E+00  0.00000000E+00  0.00000000E+00
  0.00000000E+00  0.00000000E+00  0.00000000E+00
  0.00000000E+00  0.00000000E+00  0.00000000E+00
  0.00000000E+00  0.00000000E+00  0.00000000E+00
  0.00000000E+00  0.00000000E+00  0.00000000E+00
  0.00000000E+00  0.00000000E+00  0.00000000E+00
  0.00000000E+00  0.00000000E+00  0.00000000E+00
  0.00000000E+00  0.00000000E+00  0.00000000E+00
  0.00000000E+00  0.00000000E+00  0.00000000E+00
  0.00000000E+00  0.00000000E+00  0.00000000E+00
  0.00000000E+00  0.00000000E+00  0.00000000E+00
  0.00000000E+00  0.00000000E+00  0.00000000E+00
  0.00000000E+00  0.00000000E+00  0.00000000E+00
  0.00000000E+00  0.00000000E+00  0.00000000E+00
  0.00000000E+00  0.00000000E+00  0.00000000E+00
  0.00000000E+00  0.00000000E+00  0.00000000E+00
  0.00000000E+00  0.00000000E+00  0.00000000E+00
  0.00000000E+00  0.00000000E+00  0.00000000E+00
  0.00000000E+00  0.00000000E+00  0.00000000E+00
  0.00000000E+00  0.00000000E+00  0.00000000E+00
  0.00000000E+00  0.00000000E+00  0.00000000E+00
  0.00000000E+00  0.00000000E+00  0.00000000E+00
  0.00000000E+00  0.00000000E+00  0.00000000E+00
  0.00000000E+00  0.00000000E+00  0.00000000E+00
  0.00000000E+00  0.00000000E+00  0.00000000E+00
  0.00000000E+00  0.00000000E+00  0.00000000E+00
  0.00000000E+00  0.00000000E+00  0.00000000E+00
  0.00000000E+00  0.00000000E+00  0.00000000E+00
  0.00000000E+00  0.00000000E+00  0.00000000E+00
  0.00000000E+00  0.00000000E+00  0.00000000E+00
  0.00000000E+00  0.00000000E+00  0.00000000E+00
  0.00000000E+00  0.00000000E+00  0.00000000E+00
