Title                                   
   1.00000000000000     
     9.8694509999999998    0.0000000000000000    0.0000000000000000
     0.0000000000000000    8.5490480000000009    0.0000000000000000
     0.0000000000000000    0.0000000000000000   20.0000000000000000
    30     1     1
Selective dynamics
Direct
  0.0566787243678889  0.0903505240892705  0.0828571362749075   T   T   T
  0.9315770130439871  0.1724331029387060  0.0852420514709289   T   T   T
  0.0560265232322840  0.9232246184535281  0.0820953718305290   T   T   T
  0.9317397492370956  0.3387171896249777  0.0883425898294074   T   T   T
  0.0567647933334957  0.5886608438021507  0.0839101976202832   T   T   T
  0.9328539553664624  0.6720053006966197  0.0863980151702564   T   T   T
  0.0570508151656965  0.4223065792804075  0.0859398463638124   T   T   T
  0.9315031885098239  0.8388494187253454  0.0845852148657732   T   T   T
  0.3060201922061170  0.0900186814090306  0.0872932502092878   T   T   T
  0.1815613665174343  0.1740047192723317  0.0853375152962290   T   T   T
  0.3044426949863720  0.9243675586228315  0.0876196525628802   T   T   T
  0.1824122919121423  0.3407510556554814  0.0881395271645893   T   T   T
  0.3027736602959278  0.5921514716496394  0.0959465975670097   T   T   T
  0.1798631962871107  0.6733812390916669  0.0853706965257056   T   T   T
  0.3075124274123781  0.4246195688277999  0.0966116356383944   T   T   T
  0.1799816926153959  0.8402337890943071  0.0841922766008583   T   T   T
  0.5558298531709016  0.0863577083579728  0.0954815721864642   T   T   T
  0.4311661074027166  0.1708498177087844  0.0936917232127814   T   T   T
  0.5550530532625907  0.9190067500724611  0.0990400767510506   T   T   T
  0.4321336825478343  0.3365555665792823  0.1023985791308306   T   T   T
  0.5577720407138471  0.4094218390146512  0.1165567439967328   T   T   T
  0.4264458115978244  0.8406729977538667  0.0978142513799438   T   T   T
  0.8069576123263910  0.0883018633061524  0.0874880307912125   T   T   T
  0.6819805108924956  0.1691783136393359  0.0941962713731675   T   T   T
  0.8069573475342000  0.9225334417889961  0.0882360874933424   T   T   T
  0.6830552500701395  0.3344044868825156  0.1029232721123601   T   T   T
  0.8108007428400849  0.5885248986229885  0.0985181679878128   T   T   T
  0.6937524541890497  0.6769309653610186  0.1127965788397330   T   T   T
  0.8079086315708108  0.4207060638187914  0.0978034976582181   T   T   T
  0.6841593679928893  0.8388590317176154  0.0999163687636303   T   T   T
  0.4167118516302201  0.6812110963907647  0.1100436222030014   T   T   T
  0.5501923977683995  0.6006554977507181  0.1788885811289007   T   T   T
 
  0.00000000E+00  0.00000000E+00  0.00000000E+00
  0.00000000E+00  0.00000000E+00  0.00000000E+00
  0.00000000E+00  0.00000000E+00  0.00000000E+00
  0.00000000E+00  0.00000000E+00  0.00000000E+00
  0.00000000E+00  0.00000000E+00  0.00000000E+00
  0.00000000E+00  0.00000000E+00  0.00000000E+00
  0.00000000E+00  0.00000000E+00  0.00000000E+00
  0.00000000E+00  0.00000000E+00  0.00000000E+00
  0.00000000E+00  0.00000000E+00  0.00000000E+00
  0.00000000E+00  0.00000000E+00  0.00000000E+00
  0.00000000E+00  0.00000000E+00  0.00000000E+00
  0.00000000E+00  0.00000000E+00  0.00000000E+00
  0.00000000E+00  0.00000000E+00  0.00000000E+00
  0.00000000E+00  0.00000000E+00  0.00000000E+00
  0.00000000E+00  0.00000000E+00  0.00000000E+00
  0.00000000E+00  0.00000000E+00  0.00000000E+00
  0.00000000E+00  0.00000000E+00  0.00000000E+00
  0.00000000E+00  0.00000000E+00  0.00000000E+00
  0.00000000E+00  0.00000000E+00  0.00000000E+00
  0.00000000E+00  0.00000000E+00  0.00000000E+00
  0.00000000E+00  0.00000000E+00  0.00000000E+00
  0.00000000E+00  0.00000000E+00  0.00000000E+00
  0.00000000E+00  0.00000000E+00  0.00000000E+00
  0.00000000E+00  0.00000000E+00  0.00000000E+00
  0.00000000E+00  0.00000000E+00  0.00000000E+00
  0.00000000E+00  0.00000000E+00  0.00000000E+00
  0.00000000E+00  0.00000000E+00  0.00000000E+00
  0.00000000E+00  0.00000000E+00  0.00000000E+00
  0.00000000E+00  0.00000000E+00  0.00000000E+00
  0.00000000E+00  0.00000000E+00  0.00000000E+00
  0.00000000E+00  0.00000000E+00  0.00000000E+00
  0.00000000E+00  0.00000000E+00  0.00000000E+00
