Title                                   
   1.00000000000000     
     9.8694509999999998    0.0000000000000000    0.0000000000000000
     0.0000000000000000    8.5490480000000009    0.0000000000000000
     0.0000000000000000    0.0000000000000000   20.0000000000000000
    28     3     1
Selective dynamics
Direct
  0.0569470121272033  0.0918843336196490  0.0879030567142926   T   T   T
  0.9313245852527561  0.1754835152368469  0.0897246349893802   T   T   T
  0.0586364017215117  0.9245726905956547  0.0859527089819605   T   T   T
  0.9293270185860880  0.3433980463451027  0.0908445985779884   T   T   T
  0.0564448251916070  0.5905085141682169  0.0886974007208893   T   T   T
  0.9326639344929746  0.6747528845195648  0.0848649716015338   T   T   T
  0.0567553192833161  0.4240758591199819  0.0911395730090079   T   T   T
  0.9333392198896430  0.8420280572799314  0.0840644760638226   T   T   T
  0.3070200931229634  0.0873553423945326  0.0894898830093835   T   T   T
  0.1832041911438659  0.1740442374320373  0.0904405862272622   T   T   T
  0.3093467818239425  0.9212412248906749  0.0903187361729560   T   T   T
  0.1818491054445686  0.3400097440240029  0.0949041935054366   T   T   T
  0.3054749189953795  0.5882693095848154  0.1042820164731363   T   T   T
  0.1824352351097316  0.6717227881309766  0.0915892882118391   T   T   T
  0.1837548454557951  0.8383078163170816  0.0890365253987299   T   T   T
  0.5572485752845487  0.0856602281146815  0.0942130686592185   T   T   T
  0.4318763850186260  0.1692866368521416  0.0944239866767753   T   T   T
  0.4302221444518779  0.3351609880855564  0.1060357402592253   T   T   T
  0.4332477293262304  0.8359706294190244  0.1000882353947007   T   T   T
  0.8073398813339988  0.0913235179090054  0.0889151217266669   T   T   T
  0.6804793393452991  0.1717983762659673  0.0939230737075083   T   T   T
  0.8082951355711344  0.9262065776005887  0.0854997233150364   T   T   T
  0.6784674555513971  0.3389479546346295  0.1024859259263507   T   T   T
  0.8043233670938533  0.5968011861590238  0.0848425040355912   T   T   T
  0.8027672550904248  0.4278633532746517  0.0930324243924632   T   T   T
  0.6858884474748196  0.8364072520827086  0.0847474263691332   T   T   T
  0.4229609404431158  0.6763551384958852  0.1200715195582073   T   T   T
  0.5526591821164265  0.4083266039140375  0.1219906300087714   T   T   T
  0.6864426619088869  0.6815055264546904  0.0798225786216321   T   T   T
  0.5589969566279269  0.9179296849808711  0.0935192687793667   T   T   T
  0.3052366910666134  0.4215746570067770  0.1034984200315588   T   T   T
  0.5446633646534828  0.5814733250906912  0.1853127028801912   T   T   T
 
  0.00000000E+00  0.00000000E+00  0.00000000E+00
  0.00000000E+00  0.00000000E+00  0.00000000E+00
  0.00000000E+00  0.00000000E+00  0.00000000E+00
  0.00000000E+00  0.00000000E+00  0.00000000E+00
  0.00000000E+00  0.00000000E+00  0.00000000E+00
  0.00000000E+00  0.00000000E+00  0.00000000E+00
  0.00000000E+00  0.00000000E+00  0.00000000E+00
  0.00000000E+00  0.00000000E+00  0.00000000E+00
  0.00000000E+00  0.00000000E+00  0.00000000E+00
  0.00000000E+00  0.00000000E+00  0.00000000E+00
  0.00000000E+00  0.00000000E+00  0.00000000E+00
  0.00000000E+00  0.00000000E+00  0.00000000E+00
  0.00000000E+00  0.00000000E+00  0.00000000E+00
  0.00000000E+00  0.00000000E+00  0.00000000E+00
  0.00000000E+00  0.00000000E+00  0.00000000E+00
  0.00000000E+00  0.00000000E+00  0.00000000E+00
  0.00000000E+00  0.00000000E+00  0.00000000E+00
  0.00000000E+00  0.00000000E+00  0.00000000E+00
  0.00000000E+00  0.00000000E+00  0.00000000E+00
  0.00000000E+00  0.00000000E+00  0.00000000E+00
  0.00000000E+00  0.00000000E+00  0.00000000E+00
  0.00000000E+00  0.00000000E+00  0.00000000E+00
  0.00000000E+00  0.00000000E+00  0.00000000E+00
  0.00000000E+00  0.00000000E+00  0.00000000E+00
  0.00000000E+00  0.00000000E+00  0.00000000E+00
  0.00000000E+00  0.00000000E+00  0.00000000E+00
  0.00000000E+00  0.00000000E+00  0.00000000E+00
  0.00000000E+00  0.00000000E+00  0.00000000E+00
  0.00000000E+00  0.00000000E+00  0.00000000E+00
  0.00000000E+00  0.00000000E+00  0.00000000E+00
  0.00000000E+00  0.00000000E+00  0.00000000E+00
  0.00000000E+00  0.00000000E+00  0.00000000E+00
