Title                                   
   1.00000000000000     
     4.9440799999999996    0.0000000000000000    0.0000000000000000
     0.0000000000000000   17.1295089999999988    0.0000000000000000
     0.0000000000000000    0.0000000000000000   20.0000000000000000
    30     1
Selective dynamics
Direct
  0.0001456620396262  0.1050337516178068  0.2903245317378002   T   T   T
  0.2504530290031615  0.1470552172926854  0.2926281824992834   T   T   T
  0.2503471251152420  0.2299593547866056  0.2992635329538896   T   T   T
  0.0016550212145557  0.2723975310900340  0.3032177118410965   T   T   T
  0.0016761170777466  0.6025462849513255  0.3031931723146931   T   T   T
  0.2504408030725094  0.7278613074355194  0.2925922612261397   T   T   T
  0.0003253769475769  0.8534816447811836  0.2878742493246245   T   T   T
  0.2504986964494031  0.8956594441339308  0.2873066521815524   T   T   T
  0.2505097950322526  0.9792310405791057  0.2872713380713432   T   T   T
  0.0001440431894012  0.7698713455633086  0.2903735408418541   T   T   T
  0.5007129481213087  0.1050046579782246  0.2903484398492516   T   T   T
  0.7503704676614799  0.1471651839430465  0.2923488018521959   T   T   T
  0.7502409046153841  0.2307826181405825  0.2984728536813939   T   T   T
  0.5006725227410083  0.0214064429539209  0.2877948719378432   T   T   T
  0.7503239869249868  0.3948201043462416  0.3168874197844737   T   T   T
  0.7503484666308246  0.4801554566575959  0.3169802169116229   T   T   T
  0.4988693200202212  0.2724748079070339  0.3033483863336517   T   T   T
  0.4988276941163415  0.6024674904691946  0.3033247222273250   T   T   T
  0.7503744280229150  0.7277436403002082  0.2923396239510328   T   T   T
  0.5006626236053853  0.8534968290506808  0.2878860391779761   T   T   T
  0.7505142992795019  0.8955699571054151  0.2872563389354937   T   T   T
  0.7505094802251251  0.9793329934582173  0.2872027420869892   T   T   T
  0.5007303724050916  0.7698976291259433  0.2903913969593903   T   T   T
  0.7502471880369028  0.6441298318100566  0.2984086844078350   T   T   T
  0.2503198538325751  0.6449742820398431  0.2991866361233418   T   T   T
  0.0003487331525087  0.0214191606790568  0.2877869299807364   T   T   T
  0.5004805695525327  0.5203211210049239  0.3144672290317875   T   T   T
 -0.0001390717886274  0.5204151847639764  0.3141568094640607   T   T   T
  0.5005324872299910  0.3546407820856550  0.3144049187901134   T   T   T
 -0.0002194437990687  0.3545511942020988  0.3141028129614009   T   T   T
  0.2490835002721388  0.4374757097465738  0.3539189525597595   T   T   T
 
  0.00000000E+00  0.00000000E+00  0.00000000E+00
  0.00000000E+00  0.00000000E+00  0.00000000E+00
  0.00000000E+00  0.00000000E+00  0.00000000E+00
  0.00000000E+00  0.00000000E+00  0.00000000E+00
  0.00000000E+00  0.00000000E+00  0.00000000E+00
  0.00000000E+00  0.00000000E+00  0.00000000E+00
  0.00000000E+00  0.00000000E+00  0.00000000E+00
  0.00000000E+00  0.00000000E+00  0.00000000E+00
  0.00000000E+00  0.00000000E+00  0.00000000E+00
  0.00000000E+00  0.00000000E+00  0.00000000E+00
  0.00000000E+00  0.00000000E+00  0.00000000E+00
  0.00000000E+00  0.00000000E+00  0.00000000E+00
  0.00000000E+00  0.00000000E+00  0.00000000E+00
  0.00000000E+00  0.00000000E+00  0.00000000E+00
  0.00000000E+00  0.00000000E+00  0.00000000E+00
  0.00000000E+00  0.00000000E+00  0.00000000E+00
  0.00000000E+00  0.00000000E+00  0.00000000E+00
  0.00000000E+00  0.00000000E+00  0.00000000E+00
  0.00000000E+00  0.00000000E+00  0.00000000E+00
  0.00000000E+00  0.00000000E+00  0.00000000E+00
  0.00000000E+00  0.00000000E+00  0.00000000E+00
  0.00000000E+00  0.00000000E+00  0.00000000E+00
  0.00000000E+00  0.00000000E+00  0.00000000E+00
  0.00000000E+00  0.00000000E+00  0.00000000E+00
  0.00000000E+00  0.00000000E+00  0.00000000E+00
  0.00000000E+00  0.00000000E+00  0.00000000E+00
  0.00000000E+00  0.00000000E+00  0.00000000E+00
  0.00000000E+00  0.00000000E+00  0.00000000E+00
  0.00000000E+00  0.00000000E+00  0.00000000E+00
  0.00000000E+00  0.00000000E+00  0.00000000E+00
  0.00000000E+00  0.00000000E+00  0.00000000E+00
