Title                                   
   1.00000000000000     
     4.9440799999999996    0.0000000000000000    0.0000000000000000
     0.0000000000000000   17.1295089999999988    0.0000000000000000
     0.0000000000000000    0.0000000000000000   20.0000000000000000
    26     4     1
Selective dynamics
Direct
  0.0009781333561965  0.1069879226660929  0.2979411258369780   T   T   T
  0.2508719761792950  0.1500185572038736  0.2985990662848099   T   T   T
  0.2514697480331505  0.2349478288863409  0.3000047829349319   T   T   T
 -0.0003261591790260  0.2764131829952475  0.3007423387375703   T   T   T
 -0.0010073110409733  0.5983322827849559  0.3011088272171191   T   T   T
  0.2476817570338492  0.7251294265442801  0.2991391362034649   T   T   T
  0.0002647073696679  0.8523725139249879  0.2974951235530636   T   T   T
  0.2491899908663241  0.8949331170883629  0.2971400403716727   T   T   T
  0.2497307191011961  0.9796727372989245  0.2969278479754707   T   T   T
 -0.0000529138614992  0.7674279498610544  0.2985325503556993   T   T   T
  0.4997964576805001  0.1067835522701098  0.2979057891779333   T   T   T
  0.7501359487844591  0.1492919382375386  0.2985162131300149   T   T   T
  0.7503423985280200  0.2335441462812519  0.2999179729747513   T   T   T
  0.4994689578636053  0.0222062588232184  0.2970955757816007   T   T   T
  0.7562099991304430  0.3951070590558387  0.3023402437639944   T   T   T
  0.7548797624523970  0.4793275926236040  0.3024633553965833   T   T   T
  0.5023260755565413  0.2775778306218283  0.3006745405299895   T   T   T
  0.4969838311139601  0.5987445721426787  0.3009729403493177   T   T   T
  0.7495160738352417  0.7253615070488200  0.2991147786117613   T   T   T
  0.4979378726825574  0.8520514018009304  0.2974994413545155   T   T   T
  0.7492393397596521  0.8946709030269923  0.2971471878133212   T   T   T
  0.7497357501797949  0.9793926775155961  0.2969313162661055   T   T   T
  0.4973083779323990  0.7671600773516452  0.2985322866016055   T   T   T
  0.7478222057512386  0.6418496532945568  0.3003776728383665   T   T   T
  0.0002440718283913  0.0222464529521187  0.2971164871824762   T   T   T
  0.5044395959781320  0.5167450479452445  0.3019335849516285   T   T   T
  0.0001712336486830  0.5186577451692308  0.3022507244060475   T   T   T
  0.5120756948753927  0.3583257081315454  0.3019205495145330   T   T   T
 -0.0062203530249580  0.3566513982846194  0.3020726495223344   T   T   T
  0.2462741460957979  0.6410035464970497  0.3003896537883553   T   T   T
  0.2525189114895711  0.4384074116714579  0.3022561965739355   T   T   T
 
  0.00000000E+00  0.00000000E+00  0.00000000E+00
  0.00000000E+00  0.00000000E+00  0.00000000E+00
  0.00000000E+00  0.00000000E+00  0.00000000E+00
  0.00000000E+00  0.00000000E+00  0.00000000E+00
  0.00000000E+00  0.00000000E+00  0.00000000E+00
  0.00000000E+00  0.00000000E+00  0.00000000E+00
  0.00000000E+00  0.00000000E+00  0.00000000E+00
  0.00000000E+00  0.00000000E+00  0.00000000E+00
  0.00000000E+00  0.00000000E+00  0.00000000E+00
  0.00000000E+00  0.00000000E+00  0.00000000E+00
  0.00000000E+00  0.00000000E+00  0.00000000E+00
  0.00000000E+00  0.00000000E+00  0.00000000E+00
  0.00000000E+00  0.00000000E+00  0.00000000E+00
  0.00000000E+00  0.00000000E+00  0.00000000E+00
  0.00000000E+00  0.00000000E+00  0.00000000E+00
  0.00000000E+00  0.00000000E+00  0.00000000E+00
  0.00000000E+00  0.00000000E+00  0.00000000E+00
  0.00000000E+00  0.00000000E+00  0.00000000E+00
  0.00000000E+00  0.00000000E+00  0.00000000E+00
  0.00000000E+00  0.00000000E+00  0.00000000E+00
  0.00000000E+00  0.00000000E+00  0.00000000E+00
  0.00000000E+00  0.00000000E+00  0.00000000E+00
  0.00000000E+00  0.00000000E+00  0.00000000E+00
  0.00000000E+00  0.00000000E+00  0.00000000E+00
  0.00000000E+00  0.00000000E+00  0.00000000E+00
  0.00000000E+00  0.00000000E+00  0.00000000E+00
  0.00000000E+00  0.00000000E+00  0.00000000E+00
  0.00000000E+00  0.00000000E+00  0.00000000E+00
  0.00000000E+00  0.00000000E+00  0.00000000E+00
  0.00000000E+00  0.00000000E+00  0.00000000E+00
  0.00000000E+00  0.00000000E+00  0.00000000E+00
