Title                                   
   1.00000000000000     
     9.8694509999999998    0.0000000000000000    0.0000000000000000
     0.0000000000000000    8.5490480000000009    0.0000000000000000
     0.0000000000000000    0.0000000000000000   20.0000000000000000
    23     7     1
Selective dynamics
Direct
  0.0558085939708706  0.0900342061644366  0.0877816725606830   T   T   T
  0.9315658433087891  0.1723096995208214  0.0883681717140132   T   T   T
  0.0570730378501562  0.9208863917531444  0.0883975221881716   T   T   T
  0.9330290969480592  0.3390249834868166  0.0877619782307068   T   T   T
  0.0557567664141847  0.5907006987601183  0.0864900319253553   T   T   T
  0.0558638979702812  0.4238766394963547  0.0855069146330098   T   T   T
  0.9322172214133084  0.8386580379343918  0.0895424954573332   T   T   T
  0.3078628306085006  0.0886831772793333  0.0931982816620152   T   T   T
  0.1808086793177676  0.1713569796843171  0.0892915645598393   T   T   T
  0.1800037693088765  0.3392140643066127  0.0883873182018136   T   T   T
  0.3011962850592200  0.5899473842841457  0.0968154509599551   T   T   T
  0.1792313593883023  0.6736403881173835  0.0893874769261501   T   T   T
  0.3022429727744086  0.4213188445268674  0.0962712146680280   T   T   T
  0.1815510741706343  0.8413915586151980  0.0901379697444214   T   T   T
  0.4284806536073064  0.1736907306058200  0.1009763008871075   T   T   T
  0.5547506341911591  0.9196312599104361  0.1031612969814967   T   T   T
  0.4282391072515845  0.8386093729797335  0.1026492612085238   T   T   T
  0.8047661921431853  0.0891216310918402  0.0918218174939232   T   T   T
  0.6837479455668993  0.1759344121121816  0.0998719666047845   T   T   T
  0.8058723976788777  0.9208632777943386  0.0928191404833098   T   T   T
  0.8116697124244319  0.5905366168050795  0.0965028108181316   T   T   T
  0.8114617672690463  0.4223043894603409  0.0954354031042443   T   T   T
  0.6833071340296082  0.8376444213636903  0.1016485978078178   T   T   T
  0.9331276512703544  0.6724157802997319  0.0889979384157247   T   T   T
  0.5571067198498634  0.0952893663001289  0.1029608443459424   T   T   T
  0.4213424237292352  0.3356542966739229  0.1093241979922973   T   T   T
  0.4187027227600373  0.6774357883746924  0.1117391566854959   T   T   T
  0.6911307426121629  0.3377285792419225  0.1086525478365906   T   T   T
  0.6943294641241499  0.6741127070947653  0.1102483214640886   T   T   T
  0.3052948323604094  0.9221939693901305  0.0929938236567006   T   T   T
  0.5555944706283277  0.5066653465713027  0.1338235107823824   T   T   T
 
  0.00000000E+00  0.00000000E+00  0.00000000E+00
  0.00000000E+00  0.00000000E+00  0.00000000E+00
  0.00000000E+00  0.00000000E+00  0.00000000E+00
  0.00000000E+00  0.00000000E+00  0.00000000E+00
  0.00000000E+00  0.00000000E+00  0.00000000E+00
  0.00000000E+00  0.00000000E+00  0.00000000E+00
  0.00000000E+00  0.00000000E+00  0.00000000E+00
  0.00000000E+00  0.00000000E+00  0.00000000E+00
  0.00000000E+00  0.00000000E+00  0.00000000E+00
  0.00000000E+00  0.00000000E+00  0.00000000E+00
  0.00000000E+00  0.00000000E+00  0.00000000E+00
  0.00000000E+00  0.00000000E+00  0.00000000E+00
  0.00000000E+00  0.00000000E+00  0.00000000E+00
  0.00000000E+00  0.00000000E+00  0.00000000E+00
  0.00000000E+00  0.00000000E+00  0.00000000E+00
  0.00000000E+00  0.00000000E+00  0.00000000E+00
  0.00000000E+00  0.00000000E+00  0.00000000E+00
  0.00000000E+00  0.00000000E+00  0.00000000E+00
  0.00000000E+00  0.00000000E+00  0.00000000E+00
  0.00000000E+00  0.00000000E+00  0.00000000E+00
  0.00000000E+00  0.00000000E+00  0.00000000E+00
  0.00000000E+00  0.00000000E+00  0.00000000E+00
  0.00000000E+00  0.00000000E+00  0.00000000E+00
  0.00000000E+00  0.00000000E+00  0.00000000E+00
  0.00000000E+00  0.00000000E+00  0.00000000E+00
  0.00000000E+00  0.00000000E+00  0.00000000E+00
  0.00000000E+00  0.00000000E+00  0.00000000E+00
  0.00000000E+00  0.00000000E+00  0.00000000E+00
  0.00000000E+00  0.00000000E+00  0.00000000E+00
  0.00000000E+00  0.00000000E+00  0.00000000E+00
  0.00000000E+00  0.00000000E+00  0.00000000E+00
