Title                                   
   1.00000000000000     
     4.9440799999999996    0.0000000000000000    0.0000000000000000
     0.0000000000000000   17.1295089999999988    0.0000000000000000
     0.0000000000000000    0.0000000000000000   20.0000000000000000
    31     1
Selective dynamics
Direct
  0.0004996433305976  0.1043050040684254  0.2766279525983604   T   T   T
  0.2502343968194561  0.1461770428359428  0.2811346558975069   T   T   T
  0.2503318279250843  0.2287016320477762  0.2935012369525513   T   T   T
 -0.0026764548520827  0.3497651125002976  0.3204362882609553   T   T   T
 -0.0020151223829007  0.2691566282600668  0.3007344199793732   T   T   T
 -0.0029516799009122  0.6084252549906026  0.3192090173917149   T   T   T
  0.2495764495656118  0.7295146641668524  0.2924916751556332   T   T   T
 -0.0000290484062253  0.8538107277684293  0.2757613563295783   T   T   T
  0.2497453639013638  0.8955869240336232  0.2730180185224670   T   T   T
  0.2499457804010707  0.9790706237905406  0.2709210627250629   T   T   T
 -0.0000034865520754  0.7709319763289767  0.2851634619053414   T   T   T
  0.4998367427437570  0.1042981456134451  0.2766061898615192   T   T   T
  0.7502140113781293  0.1456239854080346  0.2805821869391779   T   T   T
  0.7503098866314269  0.2278033668345537  0.2922904815655382   T   T   T
  0.4998410677187055  0.0209314528593413  0.2716020438552945   T   T   T
  0.5033148078688467  0.3497384632845836  0.3204315287787349   T   T   T
  0.7502297134354469  0.3940089238991255  0.3288343558910978   T   T   T
  0.7498110870444273  0.4800621277566207  0.3397509339350144   T   T   T
  0.5026958162177138  0.2691537253277876  0.3007134070036327   T   T   T
  0.5020286945899778  0.6083512088990983  0.3191924995440747   T   T   T
  0.7495589338357269  0.7300922806324903  0.2910282941825533   T   T   T
  0.4994792574261280  0.8538260256102966  0.2757834984211353   T   T   T
  0.7497736015246014  0.8954754644895812  0.2727960046786647   T   T   T
  0.7499725379808938  0.9790909272076536  0.2707409633937147   T   T   T
  0.4991583484564635  0.7709485032416817  0.2851759163996041   T   T   T
  0.7494904752434969  0.6486894659526287  0.3070066713017969   T   T   T
  0.2495409415146388  0.6484410538546238  0.3106825726691493   T   T   T
  0.0001620426380948  0.0209386883786934  0.2716132542005071   T   T   T
  0.5089982655592378  0.5289536535688357  0.3416452613355662   T   T   T
  0.9902365281292491  0.5290386841068285  0.3416008049580202   T   T   T
  0.2503676942217478  0.3840701589312839  0.3358185319643944   T   T   T
  0.2491448759923121  0.4735691033512710  0.3996704534022153   T   T   T
 
  0.00000000E+00  0.00000000E+00  0.00000000E+00
  0.00000000E+00  0.00000000E+00  0.00000000E+00
  0.00000000E+00  0.00000000E+00  0.00000000E+00
  0.00000000E+00  0.00000000E+00  0.00000000E+00
  0.00000000E+00  0.00000000E+00  0.00000000E+00
  0.00000000E+00  0.00000000E+00  0.00000000E+00
  0.00000000E+00  0.00000000E+00  0.00000000E+00
  0.00000000E+00  0.00000000E+00  0.00000000E+00
  0.00000000E+00  0.00000000E+00  0.00000000E+00
  0.00000000E+00  0.00000000E+00  0.00000000E+00
  0.00000000E+00  0.00000000E+00  0.00000000E+00
  0.00000000E+00  0.00000000E+00  0.00000000E+00
  0.00000000E+00  0.00000000E+00  0.00000000E+00
  0.00000000E+00  0.00000000E+00  0.00000000E+00
  0.00000000E+00  0.00000000E+00  0.00000000E+00
  0.00000000E+00  0.00000000E+00  0.00000000E+00
  0.00000000E+00  0.00000000E+00  0.00000000E+00
  0.00000000E+00  0.00000000E+00  0.00000000E+00
  0.00000000E+00  0.00000000E+00  0.00000000E+00
  0.00000000E+00  0.00000000E+00  0.00000000E+00
  0.00000000E+00  0.00000000E+00  0.00000000E+00
  0.00000000E+00  0.00000000E+00  0.00000000E+00
  0.00000000E+00  0.00000000E+00  0.00000000E+00
  0.00000000E+00  0.00000000E+00  0.00000000E+00
  0.00000000E+00  0.00000000E+00  0.00000000E+00
  0.00000000E+00  0.00000000E+00  0.00000000E+00
  0.00000000E+00  0.00000000E+00  0.00000000E+00
  0.00000000E+00  0.00000000E+00  0.00000000E+00
  0.00000000E+00  0.00000000E+00  0.00000000E+00
  0.00000000E+00  0.00000000E+00  0.00000000E+00
  0.00000000E+00  0.00000000E+00  0.00000000E+00
  0.00000000E+00  0.00000000E+00  0.00000000E+00
