Title                                   
   1.00000000000000     
     8.5490480000000009    0.0000000000000000    0.0000000000000000
     0.0000000000000000    8.5490480000000009    0.0000000000000000
     0.0000000000000000    0.0000000000000000   20.0000000000000000
    21     3     1
Selective dynamics
Direct
  0.9089501172265584  0.2070000125087769  0.0964607471512277   T   T   T
  0.9092983377103538  0.5025696169445741  0.0976043964910392   T   T   T
  0.9120885582223549  0.8017734587656097  0.0973857783970951   T   T   T
  0.1966597945012918  0.0824727107548019  0.0974802366001289   T   T   T
  0.0746137943977599  0.2024076488905116  0.0973282808921236   T   T   T
  0.1593309544918416  0.6488530764507310  0.0969268365402389   T   T   T
  0.0785083639930089  0.5013519439655997  0.0976531411914781   T   T   T
  0.1588525738838027  0.3517326217499858  0.0982037321991027   T   T   T
  0.0785633091519048  0.7979660782914076  0.0966436211125668   T   T   T
  0.4922516594464529  0.0865481078541496  0.0975358887933055   T   T   T
  0.3425487002594154  0.1652345605815094  0.0983035215689680   T   T   T
  0.4916746727238687  0.9168867694381698  0.0976158105115586   T   T   T
  0.3458696451281395  0.8360718096498504  0.0969715740251767   T   T   T
  0.7860160148032438  0.0853783975545956  0.0963514182289662   T   T   T
  0.6372379224219574  0.1669458681882997  0.0966018001190521   T   T   T
  0.7888391741071756  0.9206790875762274  0.0973479227732150   T   T   T
  0.8298467535564793  0.6527399366315243  0.0981492255328634   T   T   T
  0.8284801389880930  0.3562483781692052  0.0968301603807280   T   T   T
  0.6411930139844343  0.8357083978538061  0.0981867193686195   T   T   T
  0.3246653466246406  0.6704951207204436  0.0975222099499699   T   T   T
  0.6598421797632389  0.3350719186582585  0.0977665435589997   T   T   T
  0.3194641013303409  0.3278964402409476  0.0992785053316874   T   T   T
  0.6671467208704318  0.6748565064826280  0.0992295726248917   T   T   T
  0.1985344330046405  0.9173055741138425  0.0966098788330443   T   T   T
  0.4949357194085560  0.5005959579645558  0.1037174778239329   T   T   T
 
  0.00000000E+00  0.00000000E+00  0.00000000E+00
  0.00000000E+00  0.00000000E+00  0.00000000E+00
  0.00000000E+00  0.00000000E+00  0.00000000E+00
  0.00000000E+00  0.00000000E+00  0.00000000E+00
  0.00000000E+00  0.00000000E+00  0.00000000E+00
  0.00000000E+00  0.00000000E+00  0.00000000E+00
  0.00000000E+00  0.00000000E+00  0.00000000E+00
  0.00000000E+00  0.00000000E+00  0.00000000E+00
  0.00000000E+00  0.00000000E+00  0.00000000E+00
  0.00000000E+00  0.00000000E+00  0.00000000E+00
  0.00000000E+00  0.00000000E+00  0.00000000E+00
  0.00000000E+00  0.00000000E+00  0.00000000E+00
  0.00000000E+00  0.00000000E+00  0.00000000E+00
  0.00000000E+00  0.00000000E+00  0.00000000E+00
  0.00000000E+00  0.00000000E+00  0.00000000E+00
  0.00000000E+00  0.00000000E+00  0.00000000E+00
  0.00000000E+00  0.00000000E+00  0.00000000E+00
  0.00000000E+00  0.00000000E+00  0.00000000E+00
  0.00000000E+00  0.00000000E+00  0.00000000E+00
  0.00000000E+00  0.00000000E+00  0.00000000E+00
  0.00000000E+00  0.00000000E+00  0.00000000E+00
  0.00000000E+00  0.00000000E+00  0.00000000E+00
  0.00000000E+00  0.00000000E+00  0.00000000E+00
  0.00000000E+00  0.00000000E+00  0.00000000E+00
  0.00000000E+00  0.00000000E+00  0.00000000E+00
