Title                                   
   1.00000000000000     
     9.8694509999999998    0.0000000000000000    0.0000000000000000
     0.0000000000000000    8.5490480000000009    0.0000000000000000
     0.0000000000000000    0.0000000000000000   20.0000000000000000
    26     5     1
Selective dynamics
Direct
  0.0555826802393160  0.0907212633723729  0.0854085715790958   T   T   T
  0.9308212035362302  0.1756946066110155  0.0860478970916450   T   T   T
  0.0577820298770864  0.9229005884105871  0.0861384090507910   T   T   T
  0.9285779607188976  0.3427833067324023  0.0889204341616776   T   T   T
  0.0563213750748317  0.5915754801054084  0.0886086147270417   T   T   T
  0.0548945961502117  0.4244207720312514  0.0888182415325424   T   T   T
  0.9338046534403298  0.8400128765334890  0.0875684659149737   T   T   T
  0.3055706926057546  0.0874536188608645  0.0890782228344549   T   T   T
  0.1817285206038682  0.1722549761262658  0.0872238315688964   T   T   T
  0.1810087462675537  0.3396893984244732  0.0898029098202024   T   T   T
  0.3040669262549715  0.5873737225519533  0.1022255252620849   T   T   T
  0.1812442863158326  0.6737487544824471  0.0917357861630645   T   T   T
  0.3070501369942732  0.4200787939579331  0.0979882324687254   T   T   T
  0.1833188874976498  0.8408448579718950  0.0895621679236519   T   T   T
  0.5567785704358059  0.0858011477204022  0.0922775144104988   T   T   T
  0.5565111279578027  0.9205692569454355  0.0984969011959904   T   T   T
  0.4308061186422874  0.3303151230176708  0.1003599448290467   T   T   T
  0.4286387547930901  0.8397461485849574  0.1045181167370431   T   T   T
  0.8067222270920105  0.0899846251788581  0.0861668089630600   T   T   T
  0.6798191666398622  0.1709541308829131  0.0897546337717852   T   T   T
  0.8088421055438629  0.9242911586676015  0.0881269131598030   T   T   T
  0.6779643484152301  0.3370069858439083  0.0977963809569870   T   T   T
  0.8088614776592362  0.5966512876900644  0.0991327961825541   T   T   T
  0.8015867318300205  0.4275824703232083  0.0957407421648587   T   T   T
  0.6855585315867739  0.8424808474151368  0.0983474407351328   T   T   T
  0.4194435783529998  0.6797532091611989  0.1188887809575941   T   T   T
  0.5510797143580296  0.4006721162811182  0.1114165177645901   T   T   T
  0.6972333012430920  0.6855788157138014  0.1130861039299198   T   T   T
  0.3061090072853569  0.9240488917975529  0.0918049386576993   T   T   T
  0.4292849425857906  0.1656042840673448  0.0921736744542487   T   T   T
  0.9330165159263190  0.6739979640399574  0.0894220389405555   T   T   T
  0.5596100840756274  0.5856545204965152  0.1590374420898011   T   T   T
 
  0.00000000E+00  0.00000000E+00  0.00000000E+00
  0.00000000E+00  0.00000000E+00  0.00000000E+00
  0.00000000E+00  0.00000000E+00  0.00000000E+00
  0.00000000E+00  0.00000000E+00  0.00000000E+00
  0.00000000E+00  0.00000000E+00  0.00000000E+00
  0.00000000E+00  0.00000000E+00  0.00000000E+00
  0.00000000E+00  0.00000000E+00  0.00000000E+00
  0.00000000E+00  0.00000000E+00  0.00000000E+00
  0.00000000E+00  0.00000000E+00  0.00000000E+00
  0.00000000E+00  0.00000000E+00  0.00000000E+00
  0.00000000E+00  0.00000000E+00  0.00000000E+00
  0.00000000E+00  0.00000000E+00  0.00000000E+00
  0.00000000E+00  0.00000000E+00  0.00000000E+00
  0.00000000E+00  0.00000000E+00  0.00000000E+00
  0.00000000E+00  0.00000000E+00  0.00000000E+00
  0.00000000E+00  0.00000000E+00  0.00000000E+00
  0.00000000E+00  0.00000000E+00  0.00000000E+00
  0.00000000E+00  0.00000000E+00  0.00000000E+00
  0.00000000E+00  0.00000000E+00  0.00000000E+00
  0.00000000E+00  0.00000000E+00  0.00000000E+00
  0.00000000E+00  0.00000000E+00  0.00000000E+00
  0.00000000E+00  0.00000000E+00  0.00000000E+00
  0.00000000E+00  0.00000000E+00  0.00000000E+00
  0.00000000E+00  0.00000000E+00  0.00000000E+00
  0.00000000E+00  0.00000000E+00  0.00000000E+00
  0.00000000E+00  0.00000000E+00  0.00000000E+00
  0.00000000E+00  0.00000000E+00  0.00000000E+00
  0.00000000E+00  0.00000000E+00  0.00000000E+00
  0.00000000E+00  0.00000000E+00  0.00000000E+00
  0.00000000E+00  0.00000000E+00  0.00000000E+00
  0.00000000E+00  0.00000000E+00  0.00000000E+00
  0.00000000E+00  0.00000000E+00  0.00000000E+00
