Title                                   
   1.00000000000000     
     9.8694509999999998    0.0000000000000000    0.0000000000000000
     0.0000000000000000    8.5490480000000009    0.0000000000000000
     0.0000000000000000    0.0000000000000000   20.0000000000000000
    27     3     1
Selective dynamics
Direct
  0.0548876712294428  0.0896511720383566  0.0883154964128293   T   T   T
  0.9301299382518806  0.1739563664830929  0.0914318069162778   T   T   T
  0.0584516094203014  0.9232375769345657  0.0889092685096061   T   T   T
  0.9320842942977823  0.3419386753109572  0.0905776612248059   T   T   T
  0.0571965493099370  0.5904180038681145  0.0868161401479311   T   T   T
  0.9342016357219753  0.6761620957906231  0.0925380970451734   T   T   T
  0.0560399831582248  0.4232716894426198  0.0860752542305180   T   T   T
  0.9337339529238931  0.8423945309937511  0.0935651670504185   T   T   T
  0.3062945674555240  0.0858460303736175  0.0885190325780515   T   T   T
  0.1799101287740705  0.1689501302489085  0.0866781041467155   T   T   T
  0.1785688638787380  0.3358159800605118  0.0852346833474134   T   T   T
  0.3054871093764113  0.5848040904187706  0.0843994717939739   T   T   T
  0.1820686144546309  0.6723113619978177  0.0853311519031284   T   T   T
  0.3011936114351522  0.4162738793859712  0.0872706421953200   T   T   T
  0.1837052647937963  0.8386568094350287  0.0861402640080300   T   T   T
  0.5560473377794212  0.0914224354517467  0.1003693390726689   T   T   T
  0.4278576780595735  0.1712107539093927  0.0954235413569900   T   T   T
  0.5574344015658239  0.9209659610437861  0.1000372941580227   T   T   T
  0.4305790999729383  0.6679414264127398  0.0869997368767127   T   T   T
  0.4335816333539231  0.8345244512466019  0.0905193651600497   T   T   T
  0.8039318834836020  0.0931249693069110  0.0971003156644263   T   T   T
  0.6791722780852913  0.1810919674964154  0.1020986788386752   T   T   T
  0.8065412977691877  0.9242069178498753  0.0984661822377369   T   T   T
  0.6849686102483470  0.3515435054943096  0.1060793809571836   T   T   T
  0.8125321018741789  0.5955295301764284  0.1014811807437205   T   T   T
  0.8107086803430484  0.4283063720821128  0.0981154534405616   T   T   T
  0.6842657301979140  0.8356911057393384  0.1053005849603611   T   T   T
  0.4196687427447336  0.3340393645614252  0.1005519452575487   T   T   T
  0.6916272478245564  0.6724361604988986  0.1153030724154477   T   T   T
  0.3088664586299271  0.9199447977951665  0.0869273236973560   T   T   T
  0.5413980235857748  0.5052068881521711  0.1343893636523796   T   T   T
 
  0.00000000E+00  0.00000000E+00  0.00000000E+00
  0.00000000E+00  0.00000000E+00  0.00000000E+00
  0.00000000E+00  0.00000000E+00  0.00000000E+00
  0.00000000E+00  0.00000000E+00  0.00000000E+00
  0.00000000E+00  0.00000000E+00  0.00000000E+00
  0.00000000E+00  0.00000000E+00  0.00000000E+00
  0.00000000E+00  0.00000000E+00  0.00000000E+00
  0.00000000E+00  0.00000000E+00  0.00000000E+00
  0.00000000E+00  0.00000000E+00  0.00000000E+00
  0.00000000E+00  0.00000000E+00  0.00000000E+00
  0.00000000E+00  0.00000000E+00  0.00000000E+00
  0.00000000E+00  0.00000000E+00  0.00000000E+00
  0.00000000E+00  0.00000000E+00  0.00000000E+00
  0.00000000E+00  0.00000000E+00  0.00000000E+00
  0.00000000E+00  0.00000000E+00  0.00000000E+00
  0.00000000E+00  0.00000000E+00  0.00000000E+00
  0.00000000E+00  0.00000000E+00  0.00000000E+00
  0.00000000E+00  0.00000000E+00  0.00000000E+00
  0.00000000E+00  0.00000000E+00  0.00000000E+00
  0.00000000E+00  0.00000000E+00  0.00000000E+00
  0.00000000E+00  0.00000000E+00  0.00000000E+00
  0.00000000E+00  0.00000000E+00  0.00000000E+00
  0.00000000E+00  0.00000000E+00  0.00000000E+00
  0.00000000E+00  0.00000000E+00  0.00000000E+00
  0.00000000E+00  0.00000000E+00  0.00000000E+00
  0.00000000E+00  0.00000000E+00  0.00000000E+00
  0.00000000E+00  0.00000000E+00  0.00000000E+00
  0.00000000E+00  0.00000000E+00  0.00000000E+00
  0.00000000E+00  0.00000000E+00  0.00000000E+00
  0.00000000E+00  0.00000000E+00  0.00000000E+00
  0.00000000E+00  0.00000000E+00  0.00000000E+00
