Title                                   
   1.00000000000000     
     9.8694509999999998    0.0000000000000000    0.0000000000000000
     0.0000000000000000    8.5490480000000009    0.0000000000000000
     0.0000000000000000    0.0000000000000000   20.0000000000000000
    28     3     1
Selective dynamics
Direct
  0.0557029280475755  0.0913258488684947  0.0872716893447337   T   T   T
  0.9297158632307249  0.1727698951341555  0.0893891254173387   T   T   T
  0.0544573518833187  0.9244549855176893  0.0868097954997414   T   T   T
  0.9295804899193097  0.3403342896470126  0.0934307734524007   T   T   T
  0.0558973079572785  0.5898470836337788  0.0888381333324677   T   T   T
  0.9304844832485033  0.6724526561818346  0.0935408717500907   T   T   T
  0.0567142306938258  0.4238201615413293  0.0899486415790674   T   T   T
  0.9296246838958736  0.8391964999759584  0.0903265571339116   T   T   T
  0.3047787562185870  0.0911069107718877  0.0885181820090796   T   T   T
  0.1814748359562973  0.1754798250427927  0.0880537501210326   T   T   T
  0.3042089957144118  0.9253853400068862  0.0868132443895218   T   T   T
  0.1844192658796787  0.3436714017555587  0.0883279944861113   T   T   T
  0.3091772051697735  0.5972987137638254  0.0841700680155945   T   T   T
  0.1808022562948484  0.6744545243928322  0.0853147977226865   T   T   T
  0.3118170207002581  0.4272959648117188  0.0885129915234563   T   T   T
  0.1795507532190629  0.8412306834177149  0.0853598999484455   T   T   T
  0.5546026553556168  0.0837092585906910  0.0943745568200308   T   T   T
  0.4318475832296427  0.1700507641614839  0.0920134921898775   T   T   T
  0.4363818820916399  0.3375584544407129  0.0953422751781938   T   T   T
  0.4263210824416714  0.8370960870076197  0.0870666785206257   T   T   T
  0.8059656517424044  0.0874820601648580  0.0901053783542970   T   T   T
  0.6798079140923272  0.1672945113343061  0.0949557244159022   T   T   T
  0.8038378817624902  0.9207854518332177  0.0911396883674868   T   T   T
  0.6783935771866709  0.3332270101564682  0.1021426282534617   T   T   T
  0.8066749579240997  0.5906191390619290  0.1064734024765714   T   T   T
  0.6898627971374328  0.6812374468597313  0.1242228648482586   T   T   T
  0.8045652602761054  0.4215811673157578  0.1023847952564108   T   T   T
  0.6791564057251916  0.8373113688331910  0.1016875128022560   T   T   T
  0.4275921353481821  0.6822416536355347  0.0820522019157082   T   T   T
  0.5576318982691383  0.4105315259285169  0.1071033494730467   T   T   T
  0.5531611755884388  0.9189017422814240  0.0951435295273137   T   T   T
  0.5654297137996277  0.5804935739310967  0.1848404058749133   T   T   T
 
  0.00000000E+00  0.00000000E+00  0.00000000E+00
  0.00000000E+00  0.00000000E+00  0.00000000E+00
  0.00000000E+00  0.00000000E+00  0.00000000E+00
  0.00000000E+00  0.00000000E+00  0.00000000E+00
  0.00000000E+00  0.00000000E+00  0.00000000E+00
  0.00000000E+00  0.00000000E+00  0.00000000E+00
  0.00000000E+00  0.00000000E+00  0.00000000E+00
  0.00000000E+00  0.00000000E+00  0.00000000E+00
  0.00000000E+00  0.00000000E+00  0.00000000E+00
  0.00000000E+00  0.00000000E+00  0.00000000E+00
  0.00000000E+00  0.00000000E+00  0.00000000E+00
  0.00000000E+00  0.00000000E+00  0.00000000E+00
  0.00000000E+00  0.00000000E+00  0.00000000E+00
  0.00000000E+00  0.00000000E+00  0.00000000E+00
  0.00000000E+00  0.00000000E+00  0.00000000E+00
  0.00000000E+00  0.00000000E+00  0.00000000E+00
  0.00000000E+00  0.00000000E+00  0.00000000E+00
  0.00000000E+00  0.00000000E+00  0.00000000E+00
  0.00000000E+00  0.00000000E+00  0.00000000E+00
  0.00000000E+00  0.00000000E+00  0.00000000E+00
  0.00000000E+00  0.00000000E+00  0.00000000E+00
  0.00000000E+00  0.00000000E+00  0.00000000E+00
  0.00000000E+00  0.00000000E+00  0.00000000E+00
  0.00000000E+00  0.00000000E+00  0.00000000E+00
  0.00000000E+00  0.00000000E+00  0.00000000E+00
  0.00000000E+00  0.00000000E+00  0.00000000E+00
  0.00000000E+00  0.00000000E+00  0.00000000E+00
  0.00000000E+00  0.00000000E+00  0.00000000E+00
  0.00000000E+00  0.00000000E+00  0.00000000E+00
  0.00000000E+00  0.00000000E+00  0.00000000E+00
  0.00000000E+00  0.00000000E+00  0.00000000E+00
  0.00000000E+00  0.00000000E+00  0.00000000E+00
