Title                                   
   1.00000000000000     
     4.9440799999999996    0.0000000000000000    0.0000000000000000
     0.0000000000000000    8.5647549999999999    0.0000000000000000
     0.0000000000000000    0.0000000000000000   20.0000000000000000
     9     5     1
Selective dynamics
Direct
 -0.0009429455419079  0.2985843541926666  0.1005037505072396   T   T   T
  0.2500000000000000  0.0376247492869128  0.1005237645395496   T   T   T
 -0.0005192025816729  0.9526471938740422  0.1005657837913249   T   T   T
  0.7500000000000000  0.2088633786710612  0.1005430065651039   T   T   T
  0.5009429455419078  0.2985843541926666  0.1005037505072396   T   T   T
  0.7500000000000000  0.0394865112261198  0.1005165720478128   T   T   T
  0.7500000000000000  0.7103905144176897  0.1005777970603188   T   T   T
  0.7500000000000000  0.5383813824737084  0.1005185229210550   T   T   T
  0.5005192025816728  0.9526471938740422  0.1005657837913249   T   T   T
  0.5058999370589677  0.4602243467432758  0.1004813811875910   T   T   T
 -0.0058999370589678  0.4602243467432758  0.1004813811875910   T   T   T
 -0.0068082099589409  0.7873837219532169  0.1006011167409873   T   T   T
  0.5068082099589409  0.7873837219532169  0.1006011167409873   T   T   T
  0.2500000000000000  0.2139998317694421  0.1005089706706912   T   T   T
  0.2500000000000000  0.6252553986286652  0.1004873017411864   T   T   T
 
  0.00000000E+00  0.00000000E+00  0.00000000E+00
  0.00000000E+00  0.00000000E+00  0.00000000E+00
  0.00000000E+00  0.00000000E+00  0.00000000E+00
  0.00000000E+00  0.00000000E+00  0.00000000E+00
  0.00000000E+00  0.00000000E+00  0.00000000E+00
  0.00000000E+00  0.00000000E+00  0.00000000E+00
  0.00000000E+00  0.00000000E+00  0.00000000E+00
  0.00000000E+00  0.00000000E+00  0.00000000E+00
  0.00000000E+00  0.00000000E+00  0.00000000E+00
  0.00000000E+00  0.00000000E+00  0.00000000E+00
  0.00000000E+00  0.00000000E+00  0.00000000E+00
  0.00000000E+00  0.00000000E+00  0.00000000E+00
  0.00000000E+00  0.00000000E+00  0.00000000E+00
  0.00000000E+00  0.00000000E+00  0.00000000E+00
  0.00000000E+00  0.00000000E+00  0.00000000E+00
