Title                                   
   1.00000000000000     
     9.8694509999999998    0.0000000000000000    0.0000000000000000
     0.0000000000000000    8.5490480000000009    0.0000000000000000
     0.0000000000000000    0.0000000000000000   20.0000000000000000
    26     4     1
Selective dynamics
Direct
  0.0562206731701691  0.0896605066330391  0.0869498297011811   T   T   T
  0.9314037807698156  0.1722541457322569  0.0882782958216345   T   T   T
  0.0562017117581677  0.9226256653691829  0.0869546466319149   T   T   T
  0.9323972801143690  0.3396764770433405  0.0873122185655046   T   T   T
  0.0562469288715405  0.5889699354887870  0.0845488350868392   T   T   T
  0.9323949648679934  0.6726422278951277  0.0873295010210203   T   T   T
  0.0562602982601079  0.4233356997662641  0.0845575681414172   T   T   T
  0.9313903482049786  0.8400575700647158  0.0883028090256985   T   T   T
  0.3066769023361806  0.0903401699028253  0.0929654392609193   T   T   T
  0.1810155961367661  0.1722616318410823  0.0885449210254422   T   T   T
  0.3066610265366577  0.9219969374395591  0.0929619601572029   T   T   T
  0.1800701554552931  0.3396639311942570  0.0876256680925095   T   T   T
  0.3029333751781413  0.5910181916070149  0.0945942280506921   T   T   T
  0.1800775349669427  0.6726373198425385  0.0876274759002893   T   T   T
  0.3029521222831333  0.4212581116905758  0.0945842109534110   T   T   T
  0.1810183056554893  0.8400594667803399  0.0885453498317787   T   T   T
  0.5562315016507623  0.0929432484269062  0.1014759912424542   T   T   T
  0.4293523556339052  0.1774607446797360  0.0997586110248932   T   T   T
  0.5561967898526173  0.9193603924055817  0.1015015182823171   T   T   T
  0.4293428507096487  0.8348518377599542  0.0997539776619821   T   T   T
  0.8057333301558266  0.0903280574422248  0.0925976311699282   T   T   T
  0.6830765967127137  0.1774850650066182  0.0994190727098056   T   T   T
  0.8057123719493451  0.9219828794003908  0.0926256903222144   T   T   T
  0.8095253996269879  0.5910472116412481  0.0940746427209716   T   T   T
  0.8095245698890137  0.4212955619645970  0.0940496902040245   T   T   T
  0.6830662526264192  0.8348326300141939  0.0994642246271479   T   T   T
  0.4230410833354147  0.3402782852715595  0.1044220096989019   T   T   T
  0.4230260463617236  0.6720349936834342  0.1044129561983098   T   T   T
  0.6894771991629891  0.3403035899696918  0.1039298673359862   T   T   T
  0.6894881062929656  0.6720362565083283  0.1039647722044596   T   T   T
  0.5564205414739271  0.5061762575346277  0.1278313873291896   T   T   T
 
  0.00000000E+00  0.00000000E+00  0.00000000E+00
  0.00000000E+00  0.00000000E+00  0.00000000E+00
  0.00000000E+00  0.00000000E+00  0.00000000E+00
  0.00000000E+00  0.00000000E+00  0.00000000E+00
  0.00000000E+00  0.00000000E+00  0.00000000E+00
  0.00000000E+00  0.00000000E+00  0.00000000E+00
  0.00000000E+00  0.00000000E+00  0.00000000E+00
  0.00000000E+00  0.00000000E+00  0.00000000E+00
  0.00000000E+00  0.00000000E+00  0.00000000E+00
  0.00000000E+00  0.00000000E+00  0.00000000E+00
  0.00000000E+00  0.00000000E+00  0.00000000E+00
  0.00000000E+00  0.00000000E+00  0.00000000E+00
  0.00000000E+00  0.00000000E+00  0.00000000E+00
  0.00000000E+00  0.00000000E+00  0.00000000E+00
  0.00000000E+00  0.00000000E+00  0.00000000E+00
  0.00000000E+00  0.00000000E+00  0.00000000E+00
  0.00000000E+00  0.00000000E+00  0.00000000E+00
  0.00000000E+00  0.00000000E+00  0.00000000E+00
  0.00000000E+00  0.00000000E+00  0.00000000E+00
  0.00000000E+00  0.00000000E+00  0.00000000E+00
  0.00000000E+00  0.00000000E+00  0.00000000E+00
  0.00000000E+00  0.00000000E+00  0.00000000E+00
  0.00000000E+00  0.00000000E+00  0.00000000E+00
  0.00000000E+00  0.00000000E+00  0.00000000E+00
  0.00000000E+00  0.00000000E+00  0.00000000E+00
  0.00000000E+00  0.00000000E+00  0.00000000E+00
  0.00000000E+00  0.00000000E+00  0.00000000E+00
  0.00000000E+00  0.00000000E+00  0.00000000E+00
  0.00000000E+00  0.00000000E+00  0.00000000E+00
  0.00000000E+00  0.00000000E+00  0.00000000E+00
  0.00000000E+00  0.00000000E+00  0.00000000E+00
