Title                                   
   1.00000000000000     
     9.8694509999999998    0.0000000000000000    0.0000000000000000
     0.0000000000000000    8.5490480000000009    0.0000000000000000
     0.0000000000000000    0.0000000000000000   20.0000000000000000
    28     3     1
Selective dynamics
Direct
  0.0559159554091061  0.0911570858360275  0.0846363255959646   T   T   T
  0.9309432969056246  0.1749669383120330  0.0864775191459833   T   T   T
  0.0580796984503404  0.9241512365042335  0.0845700574997125   T   T   T
  0.9298048083645920  0.3427453201768927  0.0886755776813323   T   T   T
  0.0568256073436569  0.5907429859412326  0.0850076563643044   T   T   T
  0.9329731360071283  0.6745162874963995  0.0876314348691407   T   T   T
  0.0559609929439491  0.4233460063894736  0.0858976644703776   T   T   T
  0.9334882485222487  0.8412405155219541  0.0867623456481704   T   T   T
  0.3060620991388123  0.0867469310616213  0.0889577454532772   T   T   T
  0.1822528900239663  0.1720016709000487  0.0859749042258206   T   T   T
  0.1812787481166548  0.3387502564640750  0.0872042964320262   T   T   T
  0.3037459583292587  0.5870788833289634  0.0989126189547171   T   T   T
  0.1821693805156810  0.6734609005316378  0.0877473432761620   T   T   T
  0.3053829864109073  0.4199432247593808  0.0962511631562693   T   T   T
  0.1827309380039835  0.8404153568750844  0.0866815946494921   T   T   T
  0.5563277400590304  0.0860796755831466  0.0946537817982250   T   T   T
  0.5561660735951404  0.9202597855533088  0.1001724202747913   T   T   T
  0.4285529050431563  0.3309395041724553  0.1032690858495968   T   T   T
  0.4285302226981275  0.8383329558815844  0.1035579726867816   T   T   T
  0.8058723395611701  0.0906165573954101  0.0878787071066602   T   T   T
  0.6796448084191645  0.1721752859168738  0.0926916458175477   T   T   T
  0.8081195956635817  0.9252275621199196  0.0894625764711919   T   T   T
  0.6801349961662022  0.3381298775820590  0.1021471095116323   T   T   T
  0.8090488687893692  0.5948844699447735  0.0987402224206558   T   T   T
  0.8042058953705513  0.4261319518643227  0.0975105736163289   T   T   T
  0.6859405166735398  0.8410833496300310  0.1002564216231104   T   T   T
  0.4186158052578979  0.6774334692754707  0.1167693573832753   T   T   T
  0.5522275043813907  0.4051377056505191  0.1177790997282486   T   T   T
  0.6958688890305832  0.6830755630792894  0.1140293133552995   T   T   T
  0.3068560543214451  0.9239175148674941  0.0903030609119135   T   T   T
  0.4288181748449416  0.1665054445995822  0.0941971586219709   T   T   T
  0.5570938656388039  0.5890517267847024  0.1608682454000362   T   T   T
 
  0.00000000E+00  0.00000000E+00  0.00000000E+00
  0.00000000E+00  0.00000000E+00  0.00000000E+00
  0.00000000E+00  0.00000000E+00  0.00000000E+00
  0.00000000E+00  0.00000000E+00  0.00000000E+00
  0.00000000E+00  0.00000000E+00  0.00000000E+00
  0.00000000E+00  0.00000000E+00  0.00000000E+00
  0.00000000E+00  0.00000000E+00  0.00000000E+00
  0.00000000E+00  0.00000000E+00  0.00000000E+00
  0.00000000E+00  0.00000000E+00  0.00000000E+00
  0.00000000E+00  0.00000000E+00  0.00000000E+00
  0.00000000E+00  0.00000000E+00  0.00000000E+00
  0.00000000E+00  0.00000000E+00  0.00000000E+00
  0.00000000E+00  0.00000000E+00  0.00000000E+00
  0.00000000E+00  0.00000000E+00  0.00000000E+00
  0.00000000E+00  0.00000000E+00  0.00000000E+00
  0.00000000E+00  0.00000000E+00  0.00000000E+00
  0.00000000E+00  0.00000000E+00  0.00000000E+00
  0.00000000E+00  0.00000000E+00  0.00000000E+00
  0.00000000E+00  0.00000000E+00  0.00000000E+00
  0.00000000E+00  0.00000000E+00  0.00000000E+00
  0.00000000E+00  0.00000000E+00  0.00000000E+00
  0.00000000E+00  0.00000000E+00  0.00000000E+00
  0.00000000E+00  0.00000000E+00  0.00000000E+00
  0.00000000E+00  0.00000000E+00  0.00000000E+00
  0.00000000E+00  0.00000000E+00  0.00000000E+00
  0.00000000E+00  0.00000000E+00  0.00000000E+00
  0.00000000E+00  0.00000000E+00  0.00000000E+00
  0.00000000E+00  0.00000000E+00  0.00000000E+00
  0.00000000E+00  0.00000000E+00  0.00000000E+00
  0.00000000E+00  0.00000000E+00  0.00000000E+00
  0.00000000E+00  0.00000000E+00  0.00000000E+00
  0.00000000E+00  0.00000000E+00  0.00000000E+00
