Title                                   
   1.00000000000000     
     4.9440799999999996    0.0000000000000000    0.0000000000000000
     0.0000000000000000    8.5647549999999999    0.0000000000000000
     0.0000000000000000    0.0000000000000000   20.0000000000000000
    14     1     1
Selective dynamics
Direct
 -0.0005888502829808  0.2878581183329903  0.0929979854868502   T   T   T
  0.2500000000000000  0.0433425622658658  0.0831880924271480   T   T   T
 -0.0013155038723702  0.7968781936960400  0.0973290371682487   T   T   T
 -0.0011878340908571  0.9604395722952485  0.0830412484901126   T   T   T
  0.7500000000000000  0.2070953007680648  0.0823075804744714   T   T   T
  0.5005888502829809  0.2878581183329903  0.0929979854868502   T   T   T
  0.7500000000000000  0.0422264034002149  0.0779470449312655   T   T   T
  0.7500000000000000  0.7086306820005541  0.1024003153567089   T   T   T
  0.5013155038723704  0.7968781936960400  0.0973290371682487   T   T   T
  0.7500000000000000  0.5393692463371942  0.1109411977047612   T   T   T
  0.5011878340908571  0.9604395722952485  0.0830412484901126   T   T   T
  0.5094409252382890  0.4444335401596222  0.1166511232863193   T   T   T
 -0.0094409252382886  0.4444335401596222  0.1166511232863193   T   T   T
  0.2500000000000000  0.7275466231186342  0.1148541676664779   T   T   T
  0.2500000000000000  0.2067274898679947  0.0882600460677152   T   T   T
  0.2500000000000000  0.5458428432736767  0.1725747665083999   T   T   T
 
  0.00000000E+00  0.00000000E+00  0.00000000E+00
  0.00000000E+00  0.00000000E+00  0.00000000E+00
  0.00000000E+00  0.00000000E+00  0.00000000E+00
  0.00000000E+00  0.00000000E+00  0.00000000E+00
  0.00000000E+00  0.00000000E+00  0.00000000E+00
  0.00000000E+00  0.00000000E+00  0.00000000E+00
  0.00000000E+00  0.00000000E+00  0.00000000E+00
  0.00000000E+00  0.00000000E+00  0.00000000E+00
  0.00000000E+00  0.00000000E+00  0.00000000E+00
  0.00000000E+00  0.00000000E+00  0.00000000E+00
  0.00000000E+00  0.00000000E+00  0.00000000E+00
  0.00000000E+00  0.00000000E+00  0.00000000E+00
  0.00000000E+00  0.00000000E+00  0.00000000E+00
  0.00000000E+00  0.00000000E+00  0.00000000E+00
  0.00000000E+00  0.00000000E+00  0.00000000E+00
  0.00000000E+00  0.00000000E+00  0.00000000E+00
