Title                                   
   1.00000000000000     
     4.9440799999999996    0.0000000000000000    0.0000000000000000
     0.0000000000000000   17.1295089999999988    0.0000000000000000
     0.0000000000000000    0.0000000000000000   20.0000000000000000
    30     1     1
Selective dynamics
Direct
  0.0003374017739689  0.1049408266229760  0.2832848762821503   T   T   T
  0.2498969581795128  0.1468252332785961  0.2875526154430594   T   T   T
  0.2498778043358595  0.2294203166206728  0.2991884557766567   T   T   T
  0.0020844512037324  0.3503443169737420  0.3254393946969825   T   T   T
 -0.0016090132538677  0.2701861938178480  0.3055079872420071   T   T   T
 -0.0041544099692838  0.6044843654734643  0.3052487652839512   T   T   T
  0.2499204664977210  0.7280934472357951  0.2889617595874313   T   T   T
  0.0004958739594060  0.8541999897820670  0.2797221549571482   T   T   T
  0.2499130150030846  0.8963169459774354  0.2783396725567578   T   T   T
  0.2499196130880029  0.9796356475492760  0.2776966778736560   T   T   T
  0.0006674145400073  0.7709887689134123  0.2847404026941950   T   T   T
  0.4994478335513856  0.1049398249968552  0.2832874104285910   T   T   T
  0.7498974108394841  0.1465152235321658  0.2867809126296039   T   T   T
  0.7498861787105303  0.2288661405431144  0.2971438380757889   T   T   T
  0.4997946961263462  0.0216130859790291  0.2785176316919133   T   T   T
  0.4976618036316101  0.3503470753006839  0.3254366720386710   T   T   T
  0.7498875641316626  0.4759498945799259  0.3230496855231806   T   T   T
  0.5013767506510706  0.2701848225055077  0.3055070311856324   T   T   T
  0.5039596288727367  0.6044917743182858  0.3052691389059096   T   T   T
  0.7499341111121568  0.7301910142776347  0.2879403893995551   T   T   T
  0.4993397164309341  0.8542007896168784  0.2797253438813226   T   T   T
  0.7499150941739953  0.8959868416874471  0.2781839800636857   T   T   T
  0.7499071021646129  0.9796557076075446  0.2775339031426803   T   T   T
  0.4991914639366634  0.7709914994038440  0.2847416953103241   T   T   T
  0.7499117919178290  0.6478650518777362  0.2977238817789148   T   T   T
  0.2499097859253150  0.6455913521880871  0.2991278817290097   T   T   T
  0.0000093380100960  0.0216117941190964  0.2785139278180634   T   T   T
  0.5243492720335121  0.5243805403428834  0.3202798960542867   T   T   T
  0.9754699348725084  0.5243712607013710  0.3202434586150009   T   T   T
  0.2498767809229533  0.3853416504190236  0.3429848289309013   T   T   T
  0.7498842967579293  0.3920841424184773  0.3290780694251828   T   T   T
  0.2498628698685321  0.4879354613391143  0.4058126609777385   T   T   T
 
  0.00000000E+00  0.00000000E+00  0.00000000E+00
  0.00000000E+00  0.00000000E+00  0.00000000E+00
  0.00000000E+00  0.00000000E+00  0.00000000E+00
  0.00000000E+00  0.00000000E+00  0.00000000E+00
  0.00000000E+00  0.00000000E+00  0.00000000E+00
  0.00000000E+00  0.00000000E+00  0.00000000E+00
  0.00000000E+00  0.00000000E+00  0.00000000E+00
  0.00000000E+00  0.00000000E+00  0.00000000E+00
  0.00000000E+00  0.00000000E+00  0.00000000E+00
  0.00000000E+00  0.00000000E+00  0.00000000E+00
  0.00000000E+00  0.00000000E+00  0.00000000E+00
  0.00000000E+00  0.00000000E+00  0.00000000E+00
  0.00000000E+00  0.00000000E+00  0.00000000E+00
  0.00000000E+00  0.00000000E+00  0.00000000E+00
  0.00000000E+00  0.00000000E+00  0.00000000E+00
  0.00000000E+00  0.00000000E+00  0.00000000E+00
  0.00000000E+00  0.00000000E+00  0.00000000E+00
  0.00000000E+00  0.00000000E+00  0.00000000E+00
  0.00000000E+00  0.00000000E+00  0.00000000E+00
  0.00000000E+00  0.00000000E+00  0.00000000E+00
  0.00000000E+00  0.00000000E+00  0.00000000E+00
  0.00000000E+00  0.00000000E+00  0.00000000E+00
  0.00000000E+00  0.00000000E+00  0.00000000E+00
  0.00000000E+00  0.00000000E+00  0.00000000E+00
  0.00000000E+00  0.00000000E+00  0.00000000E+00
  0.00000000E+00  0.00000000E+00  0.00000000E+00
  0.00000000E+00  0.00000000E+00  0.00000000E+00
  0.00000000E+00  0.00000000E+00  0.00000000E+00
  0.00000000E+00  0.00000000E+00  0.00000000E+00
  0.00000000E+00  0.00000000E+00  0.00000000E+00
  0.00000000E+00  0.00000000E+00  0.00000000E+00
  0.00000000E+00  0.00000000E+00  0.00000000E+00
