Title                                   
   1.00000000000000     
     9.8694509999999998    0.0000000000000000    0.0000000000000000
     0.0000000000000000    8.5490480000000009    0.0000000000000000
     0.0000000000000000    0.0000000000000000   20.0000000000000000
    27     3     1
Selective dynamics
Direct
  0.0560837785105402  0.0894774742370282  0.0874617875180473   T   T   T
  0.9314377870446717  0.1727478200319204  0.0877647566179973   T   T   T
  0.0573075226379674  0.9235775269696401  0.0877525404208132   T   T   T
  0.9344885579450987  0.3399676944552867  0.0857771604211682   T   T   T
  0.0566044967923847  0.5902189038260202  0.0834851651594559   T   T   T
  0.9341085854755689  0.6749997769738422  0.0859537434732668   T   T   T
  0.0573893618157094  0.4231112651736743  0.0835008352427824   T   T   T
  0.9328699156250967  0.8412340295730969  0.0882489409883295   T   T   T
  0.3054081827633225  0.0881196916526019  0.0959227385462778   T   T   T
  0.1802609824617923  0.1700271270611894  0.0898370774635374   T   T   T
  0.1793326756930313  0.3372078027231347  0.0884596690895262   T   T   T
  0.2997287117650637  0.5877400637033957  0.0975721421134543   T   T   T
  0.1794393627345713  0.6735828658217853  0.0886323141292110   T   T   T
  0.2998096207049767  0.4189681210484731  0.0969036684998706   T   T   T
  0.1819760850773696  0.8405477104644581  0.0900113641449461   T   T   T
  0.5556986351971746  0.0907554823580480  0.1026458978596893   T   T   T
  0.4284285392290159  0.1738572089270380  0.1022738597042047   T   T   T
  0.5558553147199256  0.9213444105630634  0.1025683237044817   T   T   T
  0.4184929458275669  0.6748592551903579  0.1077430673456934   T   T   T
  0.4279959886222334  0.8365129055678390  0.1029975573799432   T   T   T
  0.8064574293135574  0.0897605998468094  0.0930542141058960   T   T   T
  0.6825170276971000  0.1759430043144947  0.0998033004502613   T   T   T
  0.8067557667455012  0.9226456705639140  0.0932820264549031   T   T   T
  0.6927559026398264  0.3393981391642639  0.1021152130584077   T   T   T
  0.8126847535267381  0.5936314366204003  0.0921582982823660   T   T   T
  0.8125481119975658  0.4243468792126967  0.0922060558479770   T   T   T
  0.6828961821978092  0.8363991230538987  0.0994728837498278   T   T   T
  0.4188125770936687  0.3365712390060261  0.1052339024180585   T   T   T
  0.6932847851705723  0.6739988463390191  0.1009124252863024   T   T   T
  0.3052830226546792  0.9232282907847938  0.0956473053382713   T   T   T
  0.5564223903199024  0.5060946347718178  0.1115667651850666   T   T   T
 
  0.00000000E+00  0.00000000E+00  0.00000000E+00
  0.00000000E+00  0.00000000E+00  0.00000000E+00
  0.00000000E+00  0.00000000E+00  0.00000000E+00
  0.00000000E+00  0.00000000E+00  0.00000000E+00
  0.00000000E+00  0.00000000E+00  0.00000000E+00
  0.00000000E+00  0.00000000E+00  0.00000000E+00
  0.00000000E+00  0.00000000E+00  0.00000000E+00
  0.00000000E+00  0.00000000E+00  0.00000000E+00
  0.00000000E+00  0.00000000E+00  0.00000000E+00
  0.00000000E+00  0.00000000E+00  0.00000000E+00
  0.00000000E+00  0.00000000E+00  0.00000000E+00
  0.00000000E+00  0.00000000E+00  0.00000000E+00
  0.00000000E+00  0.00000000E+00  0.00000000E+00
  0.00000000E+00  0.00000000E+00  0.00000000E+00
  0.00000000E+00  0.00000000E+00  0.00000000E+00
  0.00000000E+00  0.00000000E+00  0.00000000E+00
  0.00000000E+00  0.00000000E+00  0.00000000E+00
  0.00000000E+00  0.00000000E+00  0.00000000E+00
  0.00000000E+00  0.00000000E+00  0.00000000E+00
  0.00000000E+00  0.00000000E+00  0.00000000E+00
  0.00000000E+00  0.00000000E+00  0.00000000E+00
  0.00000000E+00  0.00000000E+00  0.00000000E+00
  0.00000000E+00  0.00000000E+00  0.00000000E+00
  0.00000000E+00  0.00000000E+00  0.00000000E+00
  0.00000000E+00  0.00000000E+00  0.00000000E+00
  0.00000000E+00  0.00000000E+00  0.00000000E+00
  0.00000000E+00  0.00000000E+00  0.00000000E+00
  0.00000000E+00  0.00000000E+00  0.00000000E+00
  0.00000000E+00  0.00000000E+00  0.00000000E+00
  0.00000000E+00  0.00000000E+00  0.00000000E+00
  0.00000000E+00  0.00000000E+00  0.00000000E+00
