Title                                   
   1.00000000000000     
     4.9440799999999996    0.0000000000000000    0.0000000000000000
     0.0000000000000000    8.5647549999999999    0.0000000000000000
     0.0000000000000000    0.0000000000000000   20.0000000000000000
     9     5     1
Selective dynamics
Direct
 -0.0025518631419074  0.2941953614539073  0.0998237734117073   T   T   T
  0.2500000000000000  0.0397871060883576  0.1002831808788679   T   T   T
 -0.0019219718056308  0.9568644267864556  0.1000294743840529   T   T   T
  0.7500000000000000  0.2068964953861143  0.0989151532202142   T   T   T
  0.5025518631419071  0.2941953614539073  0.0998237734117073   T   T   T
  0.7500000000000000  0.0413283957185236  0.0990964485540649   T   T   T
  0.7500000000000000  0.7120829402721628  0.1000817512246696   T   T   T
  0.7500000000000000  0.5368953831255978  0.1000792414253529   T   T   T
  0.5019219718056313  0.9568644267864556  0.1000294743840529   T   T   T
  0.5114669694810715  0.4539031919635356  0.1011320617056649   T   T   T
 -0.0114669694810714  0.4539031919635356  0.1011320617056649   T   T   T
 -0.0117327255137372  0.7935452074075935  0.1014063789305809   T   T   T
  0.5117327255137373  0.7935452074075935  0.1014063789305809   T   T   T
  0.2500000000000000  0.2114160180869848  0.1001264423830282   T   T   T
  0.2500000000000000  0.6262582860992779  0.1046144054497938   T   T   T
 
  0.00000000E+00  0.00000000E+00  0.00000000E+00
  0.00000000E+00  0.00000000E+00  0.00000000E+00
  0.00000000E+00  0.00000000E+00  0.00000000E+00
  0.00000000E+00  0.00000000E+00  0.00000000E+00
  0.00000000E+00  0.00000000E+00  0.00000000E+00
  0.00000000E+00  0.00000000E+00  0.00000000E+00
  0.00000000E+00  0.00000000E+00  0.00000000E+00
  0.00000000E+00  0.00000000E+00  0.00000000E+00
  0.00000000E+00  0.00000000E+00  0.00000000E+00
  0.00000000E+00  0.00000000E+00  0.00000000E+00
  0.00000000E+00  0.00000000E+00  0.00000000E+00
  0.00000000E+00  0.00000000E+00  0.00000000E+00
  0.00000000E+00  0.00000000E+00  0.00000000E+00
  0.00000000E+00  0.00000000E+00  0.00000000E+00
  0.00000000E+00  0.00000000E+00  0.00000000E+00
