Title                                   
   1.00000000000000     
     4.9440799999999996    0.0000000000000000    0.0000000000000000
     0.0000000000000000    8.5647549999999999    0.0000000000000000
     0.0000000000000000    0.0000000000000000   20.0000000000000000
    13     2     1
Selective dynamics
Direct
 -0.0014801762427372  0.2888083560432733  0.0922225136473140   T   T   T
  0.2500000000000000  0.0447628202657958  0.0868569053573314   T   T   T
  0.0026102037783543  0.7970173049102066  0.0992275230801883   T   T   T
 -0.0000055293186196  0.9608674021497119  0.0863433976965691   T   T   T
  0.7500000000000000  0.2066020628215893  0.0827943255952825   T   T   T
  0.5014801762427372  0.2888083560432733  0.0922225136473140   T   T   T
  0.7500000000000000  0.0411337973437570  0.0809758524939667   T   T   T
  0.7500000000000000  0.7091143590794871  0.1039142221902210   T   T   T
  0.4973897962216458  0.7970173049102066  0.0992275230801883   T   T   T
  0.7500000000000000  0.5376898959397947  0.1066592007794299   T   T   T
  0.5000055293186196  0.9608674021497119  0.0863433976965691   T   T   T
  0.5105398652904178  0.4465169390849120  0.1125771684533566   T   T   T
 -0.0105398652904182  0.4465169390849120  0.1125771684533566   T   T   T
  0.2500000000000000  0.7281486953811653  0.1126217647640730   T   T   T
  0.2500000000000000  0.2057561161933921  0.0899179278163763   T   T   T
  0.2500000000000000  0.5403722485988115  0.1680305952484728   T   T   T
 
  0.00000000E+00  0.00000000E+00  0.00000000E+00
  0.00000000E+00  0.00000000E+00  0.00000000E+00
  0.00000000E+00  0.00000000E+00  0.00000000E+00
  0.00000000E+00  0.00000000E+00  0.00000000E+00
  0.00000000E+00  0.00000000E+00  0.00000000E+00
  0.00000000E+00  0.00000000E+00  0.00000000E+00
  0.00000000E+00  0.00000000E+00  0.00000000E+00
  0.00000000E+00  0.00000000E+00  0.00000000E+00
  0.00000000E+00  0.00000000E+00  0.00000000E+00
  0.00000000E+00  0.00000000E+00  0.00000000E+00
  0.00000000E+00  0.00000000E+00  0.00000000E+00
  0.00000000E+00  0.00000000E+00  0.00000000E+00
  0.00000000E+00  0.00000000E+00  0.00000000E+00
  0.00000000E+00  0.00000000E+00  0.00000000E+00
  0.00000000E+00  0.00000000E+00  0.00000000E+00
  0.00000000E+00  0.00000000E+00  0.00000000E+00
