Title                                   
   1.00000000000000     
     4.9440799999999996    0.0000000000000000    0.0000000000000000
     0.0000000000000000    8.5647549999999999    0.0000000000000000
     0.0000000000000000    0.0000000000000000   20.0000000000000000
    14     1     1
Selective dynamics
Direct
 -0.0007295760908136  0.2885044407378798  0.0913993594386711   T   T   T
  0.2500000000000000  0.0428362367727566  0.0839086869079427   T   T   T
 -0.0012186160142717  0.7971026250569040  0.0991058911381730   T   T   T
 -0.0011253557830472  0.9603352727567808  0.0842762072953215   T   T   T
  0.7500000000000000  0.2067245449198273  0.0808439162043473   T   T   T
  0.5007295760908137  0.2885044407378798  0.0913993594386711   T   T   T
  0.7500000000000000  0.0420603826962051  0.0784005756146772   T   T   T
  0.7500000000000000  0.7083791057792772  0.1034943462881858   T   T   T
  0.5012186160142718  0.7971026250569040  0.0991058911381730   T   T   T
  0.7500000000000000  0.5389902621251078  0.1094115043871706   T   T   T
  0.5011253557830470  0.9603352727567808  0.0842762072953215   T   T   T
  0.5077527755603749  0.4450167947969955  0.1139322334332032   T   T   T
 -0.0077527755603748  0.4450167947969955  0.1139322334332032   T   T   T
  0.2500000000000000  0.7282334250530997  0.1163385821548738   T   T   T
  0.2500000000000000  0.2068519976187316  0.0873362373134951   T   T   T
  0.2500000000000000  0.5440057783378748  0.1753507685185793   T   T   T
 
  0.00000000E+00  0.00000000E+00  0.00000000E+00
  0.00000000E+00  0.00000000E+00  0.00000000E+00
  0.00000000E+00  0.00000000E+00  0.00000000E+00
  0.00000000E+00  0.00000000E+00  0.00000000E+00
  0.00000000E+00  0.00000000E+00  0.00000000E+00
  0.00000000E+00  0.00000000E+00  0.00000000E+00
  0.00000000E+00  0.00000000E+00  0.00000000E+00
  0.00000000E+00  0.00000000E+00  0.00000000E+00
  0.00000000E+00  0.00000000E+00  0.00000000E+00
  0.00000000E+00  0.00000000E+00  0.00000000E+00
  0.00000000E+00  0.00000000E+00  0.00000000E+00
  0.00000000E+00  0.00000000E+00  0.00000000E+00
  0.00000000E+00  0.00000000E+00  0.00000000E+00
  0.00000000E+00  0.00000000E+00  0.00000000E+00
  0.00000000E+00  0.00000000E+00  0.00000000E+00
  0.00000000E+00  0.00000000E+00  0.00000000E+00
