Title                                   
   1.00000000000000     
     9.8694509999999998    0.0000000000000000    0.0000000000000000
     0.0000000000000000    8.5490480000000009    0.0000000000000000
     0.0000000000000000    0.0000000000000000   20.0000000000000000
    25     5     1
Selective dynamics
Direct
  0.0552793641887217  0.0900674398988833  0.0958059843693129   T   T   T
  0.9300154699924038  0.1724280132166474  0.0960318904549922   T   T   T
  0.0572009323030600  0.9241275002975798  0.0958061594147553   T   T   T
  0.9328951939747419  0.3403059812357506  0.0958272332936654   T   T   T
  0.0573379601142612  0.5896494942709308  0.0952278113721507   T   T   T
  0.9333875842167240  0.6741358250647546  0.0957396352487736   T   T   T
  0.0576982216420670  0.4231601052647794  0.0952873318766028   T   T   T
  0.9319257032963265  0.8409250537629231  0.0959602139898742   T   T   T
  0.3075149701811687  0.0885193666197799  0.0967873765753966   T   T   T
  0.1820630266326589  0.1717215683652681  0.0959505437576096   T   T   T
  0.1819227203780613  0.3387069600612946  0.0956921703087542   T   T   T
  0.3043813674821726  0.5898744276764243  0.0967124283488302   T   T   T
  0.1814264782718004  0.6739120059692046  0.0957135586204798   T   T   T
  0.3050712537799237  0.4217670201340629  0.0966485666177508   T   T   T
  0.1818016883962414  0.8405013380958688  0.0960583826601527   T   T   T
  0.4313062106036429  0.1772755030437117  0.0976399467674124   T   T   T
  0.5540583595402753  0.9182718283076617  0.0980478271131218   T   T   T
  0.4291757765495466  0.8338728075634706  0.0978254242994808   T   T   T
  0.8029696981005576  0.0894127046036590  0.0967873200808869   T   T   T
  0.6790416154039736  0.1786361002930789  0.0975867844982585   T   T   T
  0.8051503025458729  0.9215682322414641  0.0967746668729689   T   T   T
  0.6822807137294017  0.3453554520504081  0.0978113882345325   T   T   T
  0.8108448321986703  0.5920773291469382  0.0967812583315914   T   T   T
  0.8100834781965414  0.4239224244041086  0.0967167152026793   T   T   T
  0.6810534518668024  0.8314812570010582  0.0977432868886127   T   T   T
  0.5547155609513338  0.0921468396944413  0.0979951477083502   T   T   T
  0.4284889265824512  0.3403190441213081  0.0979611773660265   T   T   T
  0.6867455891524574  0.6682358835309503  0.0981079702189139   T   T   T
  0.4249085211557692  0.6725999793171343  0.0981749157117483   T   T   T
  0.3065463515273935  0.9228911693165746  0.0969195456047075   T   T   T
  0.5558436770449864  0.5030063454298922  0.0988423381916439   T   T   T
 
  0.00000000E+00  0.00000000E+00  0.00000000E+00
  0.00000000E+00  0.00000000E+00  0.00000000E+00
  0.00000000E+00  0.00000000E+00  0.00000000E+00
  0.00000000E+00  0.00000000E+00  0.00000000E+00
  0.00000000E+00  0.00000000E+00  0.00000000E+00
  0.00000000E+00  0.00000000E+00  0.00000000E+00
  0.00000000E+00  0.00000000E+00  0.00000000E+00
  0.00000000E+00  0.00000000E+00  0.00000000E+00
  0.00000000E+00  0.00000000E+00  0.00000000E+00
  0.00000000E+00  0.00000000E+00  0.00000000E+00
  0.00000000E+00  0.00000000E+00  0.00000000E+00
  0.00000000E+00  0.00000000E+00  0.00000000E+00
  0.00000000E+00  0.00000000E+00  0.00000000E+00
  0.00000000E+00  0.00000000E+00  0.00000000E+00
  0.00000000E+00  0.00000000E+00  0.00000000E+00
  0.00000000E+00  0.00000000E+00  0.00000000E+00
  0.00000000E+00  0.00000000E+00  0.00000000E+00
  0.00000000E+00  0.00000000E+00  0.00000000E+00
  0.00000000E+00  0.00000000E+00  0.00000000E+00
  0.00000000E+00  0.00000000E+00  0.00000000E+00
  0.00000000E+00  0.00000000E+00  0.00000000E+00
  0.00000000E+00  0.00000000E+00  0.00000000E+00
  0.00000000E+00  0.00000000E+00  0.00000000E+00
  0.00000000E+00  0.00000000E+00  0.00000000E+00
  0.00000000E+00  0.00000000E+00  0.00000000E+00
  0.00000000E+00  0.00000000E+00  0.00000000E+00
  0.00000000E+00  0.00000000E+00  0.00000000E+00
  0.00000000E+00  0.00000000E+00  0.00000000E+00
  0.00000000E+00  0.00000000E+00  0.00000000E+00
  0.00000000E+00  0.00000000E+00  0.00000000E+00
  0.00000000E+00  0.00000000E+00  0.00000000E+00
