Title                                   
   1.00000000000000     
     4.9440799999999996    0.0000000000000000    0.0000000000000000
     0.0000000000000000   17.1295089999999988    0.0000000000000000
     0.0000000000000000    0.0000000000000000   20.0000000000000000
    31     1
Selective dynamics
Direct
  0.0001736224237281  0.1041296015444155  0.2828328317829722   T   T   T
  0.2499669684340023  0.1457231888288169  0.2866429419285375   T   T   T
  0.2499749806462066  0.2284684754338444  0.2965505489902474   T   T   T
 -0.0021523102414476  0.3513959762029780  0.3163472822627304   T   T   T
 -0.0012225790075077  0.2692434094680060  0.3020444693613077   T   T   T
 -0.0014782248802626  0.6068668971884834  0.3145542779232645   T   T   T
  0.2498724224153287  0.7296175793970983  0.2945330128620315   T   T   T
  0.0000853429347622  0.8541107812149134  0.2810043282156479   T   T   T
  0.2499180122458375  0.8958293159705559  0.2788869358934476   T   T   T
  0.2499197117015503  0.9791580572676061  0.2776655232136380   T   T   T
  0.0000834364212011  0.7711848342428809  0.2885293615791803   T   T   T
  0.4997432298978303  0.1041294263852847  0.2828378443958238   T   T   T
  0.7499645043504989  0.1454554117048871  0.2861011405771532   T   T   T
  0.7499756702724121  0.2280494377743964  0.2955286836129518   T   T   T
  0.4998391219277929  0.0208740455123174  0.2784314258955518   T   T   T
  0.5019982927127112  0.3513916349104737  0.3163552638501168   T   T   T
  0.7499054455334667  0.3944619759175478  0.3212711968644882   T   T   T
  0.7498464950638281  0.4793369556944554  0.3270189278549377   T   T   T
  0.5011634733118971  0.2692408879872671  0.3020459533457931   T   T   T
  0.5011593400109194  0.6068677521481091  0.3146017046578425   T   T   T
  0.7498680980587473  0.7301215888322230  0.2931783475097627   T   T   T
  0.4997346915855848  0.8541071234590027  0.2810053294267886   T   T   T
  0.7499079414701482  0.8957116412465427  0.2787222011380212   T   T   T
  0.7499152317635156  0.9791915291018770  0.2775415792253449   T   T   T
  0.4996648072942617  0.7711838751336170  0.2885357146222523   T   T   T
  0.7498337341766431  0.6479945120427616  0.3055208511820563   T   T   T
  0.2498506511909722  0.6479218317060135  0.3082825939749504   T   T   T
 -0.0000003514981198  0.0208727679442625  0.2784279686994955   T   T   T
  0.5105055548190500  0.5258108569219557  0.3298715198985050   T   T   T
  0.9891944512139128  0.5258075515125594  0.3297817192235164   T   T   T
  0.2499178906282707  0.3875604251207505  0.3278524236763318   T   T   T
  0.2496933431222660  0.4767316521840874  0.3800610963552649   T   T   T
 
  0.00000000E+00  0.00000000E+00  0.00000000E+00
  0.00000000E+00  0.00000000E+00  0.00000000E+00
  0.00000000E+00  0.00000000E+00  0.00000000E+00
  0.00000000E+00  0.00000000E+00  0.00000000E+00
  0.00000000E+00  0.00000000E+00  0.00000000E+00
  0.00000000E+00  0.00000000E+00  0.00000000E+00
  0.00000000E+00  0.00000000E+00  0.00000000E+00
  0.00000000E+00  0.00000000E+00  0.00000000E+00
  0.00000000E+00  0.00000000E+00  0.00000000E+00
  0.00000000E+00  0.00000000E+00  0.00000000E+00
  0.00000000E+00  0.00000000E+00  0.00000000E+00
  0.00000000E+00  0.00000000E+00  0.00000000E+00
  0.00000000E+00  0.00000000E+00  0.00000000E+00
  0.00000000E+00  0.00000000E+00  0.00000000E+00
  0.00000000E+00  0.00000000E+00  0.00000000E+00
  0.00000000E+00  0.00000000E+00  0.00000000E+00
  0.00000000E+00  0.00000000E+00  0.00000000E+00
  0.00000000E+00  0.00000000E+00  0.00000000E+00
  0.00000000E+00  0.00000000E+00  0.00000000E+00
  0.00000000E+00  0.00000000E+00  0.00000000E+00
  0.00000000E+00  0.00000000E+00  0.00000000E+00
  0.00000000E+00  0.00000000E+00  0.00000000E+00
  0.00000000E+00  0.00000000E+00  0.00000000E+00
  0.00000000E+00  0.00000000E+00  0.00000000E+00
  0.00000000E+00  0.00000000E+00  0.00000000E+00
  0.00000000E+00  0.00000000E+00  0.00000000E+00
  0.00000000E+00  0.00000000E+00  0.00000000E+00
  0.00000000E+00  0.00000000E+00  0.00000000E+00
  0.00000000E+00  0.00000000E+00  0.00000000E+00
  0.00000000E+00  0.00000000E+00  0.00000000E+00
  0.00000000E+00  0.00000000E+00  0.00000000E+00
  0.00000000E+00  0.00000000E+00  0.00000000E+00
