Title                                   
   1.00000000000000     
     8.5490480000000009    0.0000000000000000    0.0000000000000000
     0.0000000000000000    8.5490480000000009    0.0000000000000000
     0.0000000000000000    0.0000000000000000   20.0000000000000000
    20     4     1
Selective dynamics
Direct
  0.9083251012155782  0.2057165877395765  0.0975725091322780   T   T   T
  0.9119402537524786  0.8014722254768201  0.0975581796418003   T   T   T
  0.1955295560892853  0.0835354802624120  0.0977103452111199   T   T   T
  0.0750837255645487  0.2009510141408513  0.0976769059218335   T   T   T
  0.1569542632473027  0.6484002058594243  0.0977540257642009   T   T   T
  0.0763031781543919  0.5012932377808468  0.0978366050415377   T   T   T
  0.1557933003818299  0.3517124778356676  0.0979434685969436   T   T   T
  0.0791711233086304  0.7996691273329292  0.0976673531464836   T   T   T
  0.4933698035092774  0.0871193167803464  0.0977560046952653   T   T   T
  0.3425007989971419  0.1651824874569753  0.0979489729320869   T   T   T
  0.4936009204013501  0.9162640210541979  0.0976859329467191   T   T   T
  0.3462100895230616  0.8345344247469596  0.0977348261494821   T   T   T
  0.7887713668461712  0.0872347786633944  0.0975491787440658   T   T   T
  0.6383444346559259  0.1685770835070146  0.0976907559817528   T   T   T
  0.7900976095599546  0.9193861717733216  0.0975290624350045   T   T   T
  0.8311031001281123  0.6508318070094632  0.0977321488505183   T   T   T
  0.8273176738188974  0.3582003419281790  0.0976813993772666   T   T   T
  0.6424950481406917  0.8361498341191336  0.0976804156310753   T   T   T
  0.3210700636924994  0.6727217574953376  0.0977382925777257   T   T   T
  0.6650975478451971  0.3347088932051767  0.0977314730579714   T   T   T
  0.9086510535520422  0.5038935187389586  0.0977981048040480   T   T   T
  0.3168320456612240  0.3269591107207700  0.0982579649267926   T   T   T
  0.6709996210347148  0.6727945775386545  0.0979083801033819   T   T   T
  0.1965792298186732  0.9155466457912775  0.0977151573268319   T   T   T
  0.4932710911010049  0.5019348730423250  0.0978475370037944   T   T   T
 
  0.00000000E+00  0.00000000E+00  0.00000000E+00
  0.00000000E+00  0.00000000E+00  0.00000000E+00
  0.00000000E+00  0.00000000E+00  0.00000000E+00
  0.00000000E+00  0.00000000E+00  0.00000000E+00
  0.00000000E+00  0.00000000E+00  0.00000000E+00
  0.00000000E+00  0.00000000E+00  0.00000000E+00
  0.00000000E+00  0.00000000E+00  0.00000000E+00
  0.00000000E+00  0.00000000E+00  0.00000000E+00
  0.00000000E+00  0.00000000E+00  0.00000000E+00
  0.00000000E+00  0.00000000E+00  0.00000000E+00
  0.00000000E+00  0.00000000E+00  0.00000000E+00
  0.00000000E+00  0.00000000E+00  0.00000000E+00
  0.00000000E+00  0.00000000E+00  0.00000000E+00
  0.00000000E+00  0.00000000E+00  0.00000000E+00
  0.00000000E+00  0.00000000E+00  0.00000000E+00
  0.00000000E+00  0.00000000E+00  0.00000000E+00
  0.00000000E+00  0.00000000E+00  0.00000000E+00
  0.00000000E+00  0.00000000E+00  0.00000000E+00
  0.00000000E+00  0.00000000E+00  0.00000000E+00
  0.00000000E+00  0.00000000E+00  0.00000000E+00
  0.00000000E+00  0.00000000E+00  0.00000000E+00
  0.00000000E+00  0.00000000E+00  0.00000000E+00
  0.00000000E+00  0.00000000E+00  0.00000000E+00
  0.00000000E+00  0.00000000E+00  0.00000000E+00
  0.00000000E+00  0.00000000E+00  0.00000000E+00
