Title                                   
   1.00000000000000     
     9.8694509999999998    0.0000000000000000    0.0000000000000000
     0.0000000000000000    8.5490480000000009    0.0000000000000000
     0.0000000000000000    0.0000000000000000   20.0000000000000000
    25     5     1
Selective dynamics
Direct
  0.0557279678890275  0.0896822383096244  0.0942066793013787   T   T   T
  0.9321080454637143  0.1718257789470637  0.0946936429438872   T   T   T
  0.0572979340817419  0.9231184956018947  0.0943475743941053   T   T   T
  0.9339073017658480  0.3391906414748308  0.0938826033727646   T   T   T
  0.0567301046488641  0.5900736792583212  0.0923735344381306   T   T   T
  0.9339667987127753  0.6736084685847805  0.0939375355197297   T   T   T
  0.0566894447237178  0.4230916412324366  0.0923212847025192   T   T   T
  0.9323758137418179  0.8400771229312182  0.0947969097878160   T   T   T
  0.3062150220197239  0.0883955095455971  0.0968255296005324   T   T   T
  0.1809071322206533  0.1712191933581141  0.0945502267237992   T   T   T
  0.1792887886062958  0.3381481037395614  0.0937833621427294   T   T   T
  0.3012148180821218  0.5900815755269272  0.0965856076928345   T   T   T
  0.1795603359592669  0.6746631226671306  0.0938294144172360   T   T   T
  0.3014558505767470  0.4219495020897663  0.0966126155734074   T   T   T
  0.1810188376533776  0.8404799218356289  0.0947228882152872   T   T   T
  0.5563814380404895  0.0929769578478691  0.0999911126565668   T   T   T
  0.4288285916444658  0.1765223148710285  0.0993451389071186   T   T   T
  0.5551171287353154  0.9194071998518772  0.0999099642231538   T   T   T
  0.4285745109614660  0.8348311670071223  0.0992312324063371   T   T   T
  0.8058050827875934  0.0895904136300517  0.0968146340186058   T   T   T
  0.6827285219457121  0.1780013681495544  0.0992127470968074   T   T   T
  0.8060040342305790  0.9225705254916547  0.0968207620610321   T   T   T
  0.8114166859555959  0.5907465666889034  0.0965991650445446   T   T   T
  0.8113157795651071  0.4216123568740763  0.0966179769084933   T   T   T
  0.6826013507542912  0.8336587674400461  0.0991424097459444   T   T   T
  0.4203550097938423  0.3381442187255928  0.1003235721794906   T   T   T
  0.4198487819231355  0.6754396675395092  0.1002764765018734   T   T   T
  0.6914069571255176  0.3399203776385710  0.1001005864075534   T   T   T
  0.6917266338829372  0.6726341687873981  0.1000091655412675   T   T   T
  0.3065759108090562  0.9231135532217062  0.0967803338692735   T   T   T
  0.5559853856992018  0.5061003811321430  0.1023203136058377   T   T   T
 
  0.00000000E+00  0.00000000E+00  0.00000000E+00
  0.00000000E+00  0.00000000E+00  0.00000000E+00
  0.00000000E+00  0.00000000E+00  0.00000000E+00
  0.00000000E+00  0.00000000E+00  0.00000000E+00
  0.00000000E+00  0.00000000E+00  0.00000000E+00
  0.00000000E+00  0.00000000E+00  0.00000000E+00
  0.00000000E+00  0.00000000E+00  0.00000000E+00
  0.00000000E+00  0.00000000E+00  0.00000000E+00
  0.00000000E+00  0.00000000E+00  0.00000000E+00
  0.00000000E+00  0.00000000E+00  0.00000000E+00
  0.00000000E+00  0.00000000E+00  0.00000000E+00
  0.00000000E+00  0.00000000E+00  0.00000000E+00
  0.00000000E+00  0.00000000E+00  0.00000000E+00
  0.00000000E+00  0.00000000E+00  0.00000000E+00
  0.00000000E+00  0.00000000E+00  0.00000000E+00
  0.00000000E+00  0.00000000E+00  0.00000000E+00
  0.00000000E+00  0.00000000E+00  0.00000000E+00
  0.00000000E+00  0.00000000E+00  0.00000000E+00
  0.00000000E+00  0.00000000E+00  0.00000000E+00
  0.00000000E+00  0.00000000E+00  0.00000000E+00
  0.00000000E+00  0.00000000E+00  0.00000000E+00
  0.00000000E+00  0.00000000E+00  0.00000000E+00
  0.00000000E+00  0.00000000E+00  0.00000000E+00
  0.00000000E+00  0.00000000E+00  0.00000000E+00
  0.00000000E+00  0.00000000E+00  0.00000000E+00
  0.00000000E+00  0.00000000E+00  0.00000000E+00
  0.00000000E+00  0.00000000E+00  0.00000000E+00
  0.00000000E+00  0.00000000E+00  0.00000000E+00
  0.00000000E+00  0.00000000E+00  0.00000000E+00
  0.00000000E+00  0.00000000E+00  0.00000000E+00
  0.00000000E+00  0.00000000E+00  0.00000000E+00
