Title                                   
   1.00000000000000     
     9.8694509999999998    0.0000000000000000    0.0000000000000000
     0.0000000000000000    8.5490480000000009    0.0000000000000000
     0.0000000000000000    0.0000000000000000   20.0000000000000000
    31     1
Selective dynamics
Direct
  0.0562218824535965  0.0895928981217224  0.0855937206031392   T   T   T
  0.9311092262737100  0.1722973610851705  0.0865035934432165   T   T   T
  0.0563078108290205  0.9231429401946508  0.0866205558084025   T   T   T
  0.9312912583302091  0.3393791626995271  0.0876294464407499   T   T   T
  0.0562521823819344  0.5890506642596515  0.0862575680101287   T   T   T
  0.9328555266452773  0.6732336185701006  0.0890076185540826   T   T   T
  0.0561389500701418  0.4224145110872641  0.0866500718808407   T   T   T
  0.9315873626990944  0.8401174076266740  0.0888977407503913   T   T   T
  0.3064895657073404  0.0897789459737379  0.0896546383683447   T   T   T
  0.1813041015242242  0.1720423578612655  0.0865463780954396   T   T   T
  0.3061903915901782  0.9223547643730752  0.0917595412262814   T   T   T
  0.1809286046093996  0.3391346618740428  0.0875624356363829   T   T   T
  0.3027555046387706  0.5888917818149833  0.0967542277599591   T   T   T
  0.1797167319682615  0.6730496161554448  0.0888855521511897   T   T   T
  0.3040351492892300  0.4220326800330156  0.0924359373141401   T   T   T
  0.1810657818230637  0.8399074337364515  0.0888607150695855   T   T   T
  0.5562337084937790  0.0889915440300342  0.0945387479308293   T   T   T
  0.4315159478212344  0.1731479106807627  0.0925667092014238   T   T   T
  0.5563585742706419  0.9216848683087903  0.0993188925075663   T   T   T
  0.4308000032132280  0.3420463085600421  0.0940207488051773   T   T   T
  0.4192106905246314  0.6743036531661200  0.1106603529701633   T   T   T
  0.5557792618419151  0.4214408137459068  0.0969789073736684   T   T   T
  0.4309378744587408  0.8378834999717747  0.1002223157345211   T   T   T
  0.8059841998057719  0.0901920897772800  0.0896000533214894   T   T   T
  0.6807993285948177  0.1734982749479279  0.0925818608038652   T   T   T
  0.8065340694825655  0.9228433363977735  0.0917787587623810   T   T   T
  0.6812703961755230  0.3425267874098837  0.0941297037745617   T   T   T
  0.8098381285851226  0.5893304012147139  0.0972065759284784   T   T   T
  0.6939538657193947  0.6753843644883338  0.1116103644869637   T   T   T
  0.8081338092817147  0.4224416493615085  0.0927122849940976   T   T   T
  0.6820597771487023  0.8384612554369553  0.1005172265105102   T   T   T
  0.5559793337487722  0.5796484370354245  0.1876117557820633   T   T   T
 
  0.00000000E+00  0.00000000E+00  0.00000000E+00
  0.00000000E+00  0.00000000E+00  0.00000000E+00
  0.00000000E+00  0.00000000E+00  0.00000000E+00
  0.00000000E+00  0.00000000E+00  0.00000000E+00
  0.00000000E+00  0.00000000E+00  0.00000000E+00
  0.00000000E+00  0.00000000E+00  0.00000000E+00
  0.00000000E+00  0.00000000E+00  0.00000000E+00
  0.00000000E+00  0.00000000E+00  0.00000000E+00
  0.00000000E+00  0.00000000E+00  0.00000000E+00
  0.00000000E+00  0.00000000E+00  0.00000000E+00
  0.00000000E+00  0.00000000E+00  0.00000000E+00
  0.00000000E+00  0.00000000E+00  0.00000000E+00
  0.00000000E+00  0.00000000E+00  0.00000000E+00
  0.00000000E+00  0.00000000E+00  0.00000000E+00
  0.00000000E+00  0.00000000E+00  0.00000000E+00
  0.00000000E+00  0.00000000E+00  0.00000000E+00
  0.00000000E+00  0.00000000E+00  0.00000000E+00
  0.00000000E+00  0.00000000E+00  0.00000000E+00
  0.00000000E+00  0.00000000E+00  0.00000000E+00
  0.00000000E+00  0.00000000E+00  0.00000000E+00
  0.00000000E+00  0.00000000E+00  0.00000000E+00
  0.00000000E+00  0.00000000E+00  0.00000000E+00
  0.00000000E+00  0.00000000E+00  0.00000000E+00
  0.00000000E+00  0.00000000E+00  0.00000000E+00
  0.00000000E+00  0.00000000E+00  0.00000000E+00
  0.00000000E+00  0.00000000E+00  0.00000000E+00
  0.00000000E+00  0.00000000E+00  0.00000000E+00
  0.00000000E+00  0.00000000E+00  0.00000000E+00
  0.00000000E+00  0.00000000E+00  0.00000000E+00
  0.00000000E+00  0.00000000E+00  0.00000000E+00
  0.00000000E+00  0.00000000E+00  0.00000000E+00
  0.00000000E+00  0.00000000E+00  0.00000000E+00
