Title                                   
   1.00000000000000     
     9.8694509999999998    0.0000000000000000    0.0000000000000000
     0.0000000000000000    8.5490480000000009    0.0000000000000000
     0.0000000000000000    0.0000000000000000   20.0000000000000000
    30     1     1
Selective dynamics
Direct
  0.0565008837884398  0.0906870500362855  0.0814275918921852   T   T   T
  0.9314043109163109  0.1728898598871332  0.0837802780005652   T   T   T
  0.0557726721650673  0.9234346388891260  0.0818039983646307   T   T   T
  0.9315250948678863  0.3392742439057763  0.0873666491816525   T   T   T
  0.0566303059808661  0.5888785462908899  0.0844267368665155   T   T   T
  0.9326996675579398  0.6722589732102978  0.0879691894363648   T   T   T
  0.0569447291138837  0.4226691651171589  0.0852624624287751   T   T   T
  0.9315148420395624  0.8391230481792218  0.0851996333274680   T   T   T
  0.3058479784829364  0.0900746285784152  0.0856735736112584   T   T   T
  0.1816405180941983  0.1742006389094035  0.0835560661201356   T   T   T
  0.3044256082768589  0.9241251263003787  0.0874148122156212   T   T   T
  0.1826445600945236  0.3411744229998095  0.0866071802991073   T   T   T
  0.3027544813987331  0.5927920028353472  0.0973482376268626   T   T   T
  0.1799699863470109  0.6736884034582130  0.0863314266230499   T   T   T
  0.3077137161764040  0.4247096709508606  0.0960054262356444   T   T   T
  0.1798229740519066  0.8404523033935907  0.0845932759710370   T   T   T
  0.5558109193409304  0.0863729672589501  0.0939641862153049   T   T   T
  0.4308722799576699  0.1710211683444517  0.0920485364627828   T   T   T
  0.5552147240454386  0.9197472258752960  0.0986476401740262   T   T   T
  0.4311830369166919  0.3358135357472121  0.1016121587992110   T   T   T
  0.5575089739566749  0.4058006928995875  0.1192315507635518   T   T   T
  0.4261477541740033  0.8412054830073080  0.0987819240814448   T   T   T
  0.8069119704241948  0.0885645650092984  0.0862108964685246   T   T   T
  0.6821403678773924  0.1693792570760353  0.0930216055654086   T   T   T
  0.8067085571631328  0.9225834983811246  0.0881449874253132   T   T   T
  0.6836807453026098  0.3336891209645979  0.1032162222960648   T   T   T
  0.8110977287139742  0.5889818592540902  0.1010781880816237   T   T   T
  0.6949684575771673  0.6792692080660253  0.1177196785889459   T   T   T
  0.8076891490481291  0.4211763750594917  0.0984487221326911   T   T   T
  0.6839825934271158  0.8403121164853847  0.1007736017762147   T   T   T
  0.4160438276961028  0.6824633390235039  0.1133368087846890   T   T   T
  0.5518655850262509  0.5934328646057448  0.1746717541833638   T   T   T
 
  0.00000000E+00  0.00000000E+00  0.00000000E+00
  0.00000000E+00  0.00000000E+00  0.00000000E+00
  0.00000000E+00  0.00000000E+00  0.00000000E+00
  0.00000000E+00  0.00000000E+00  0.00000000E+00
  0.00000000E+00  0.00000000E+00  0.00000000E+00
  0.00000000E+00  0.00000000E+00  0.00000000E+00
  0.00000000E+00  0.00000000E+00  0.00000000E+00
  0.00000000E+00  0.00000000E+00  0.00000000E+00
  0.00000000E+00  0.00000000E+00  0.00000000E+00
  0.00000000E+00  0.00000000E+00  0.00000000E+00
  0.00000000E+00  0.00000000E+00  0.00000000E+00
  0.00000000E+00  0.00000000E+00  0.00000000E+00
  0.00000000E+00  0.00000000E+00  0.00000000E+00
  0.00000000E+00  0.00000000E+00  0.00000000E+00
  0.00000000E+00  0.00000000E+00  0.00000000E+00
  0.00000000E+00  0.00000000E+00  0.00000000E+00
  0.00000000E+00  0.00000000E+00  0.00000000E+00
  0.00000000E+00  0.00000000E+00  0.00000000E+00
  0.00000000E+00  0.00000000E+00  0.00000000E+00
  0.00000000E+00  0.00000000E+00  0.00000000E+00
  0.00000000E+00  0.00000000E+00  0.00000000E+00
  0.00000000E+00  0.00000000E+00  0.00000000E+00
  0.00000000E+00  0.00000000E+00  0.00000000E+00
  0.00000000E+00  0.00000000E+00  0.00000000E+00
  0.00000000E+00  0.00000000E+00  0.00000000E+00
  0.00000000E+00  0.00000000E+00  0.00000000E+00
  0.00000000E+00  0.00000000E+00  0.00000000E+00
  0.00000000E+00  0.00000000E+00  0.00000000E+00
  0.00000000E+00  0.00000000E+00  0.00000000E+00
  0.00000000E+00  0.00000000E+00  0.00000000E+00
  0.00000000E+00  0.00000000E+00  0.00000000E+00
  0.00000000E+00  0.00000000E+00  0.00000000E+00
