Title                                   
   1.00000000000000     
     9.8694509999999998    0.0000000000000000    0.0000000000000000
     0.0000000000000000    8.5490480000000009    0.0000000000000000
     0.0000000000000000    0.0000000000000000   20.0000000000000000
    28     3     1
Selective dynamics
Direct
  0.0562432166999900  0.0918491451811462  0.0834140722617429   T   T   T
  0.9308313960087221  0.1745457145546657  0.0853846424141662   T   T   T
  0.0562329358910512  0.9243042593928510  0.0831526138577252   T   T   T
  0.9296115096679489  0.3410723978832279  0.0887093025424060   T   T   T
  0.0562350951603745  0.5890475364704266  0.0852729773086482   T   T   T
  0.9324335150116798  0.6733663219464705  0.0871608025647217   T   T   T
  0.0562243122302690  0.4228856789021331  0.0872480953802096   T   T   T
  0.9323027515953589  0.8402160590382576  0.0855084266030568   T   T   T
  0.3057159905110952  0.0894285731279128  0.0863242553381635   T   T   T
  0.1816462026109580  0.1745340300278992  0.0853570894539327   T   T   T
  0.3050952900796564  0.9236024957946000  0.0877498470294794   T   T   T
  0.1828347313102215  0.3410630535432910  0.0886726398998400   T   T   T
  0.3037048523816862  0.5927668995643101  0.0976620819072145   T   T   T
  0.1800402818443523  0.6733759944481824  0.0871077818761459   T   T   T
  0.3095767561849247  0.4246261183624279  0.0964939855715535   T   T   T
  0.1801545134467353  0.8402310889249227  0.0854792283666783   T   T   T
  0.5562417556492749  0.0842022531437470  0.0941722220319810   T   T   T
  0.4313395154232425  0.1692789058844921  0.0918056311444425   T   T   T
  0.5562366143628553  0.9169401721404254  0.0987600305035991   T   T   T
  0.4329982287039108  0.3337358874712980  0.0996762602656573   T   T   T
  0.4265539022667887  0.8391965561531236  0.0986701422254634   T   T   T
  0.8067648124663916  0.0894163421286324  0.0863591264211934   T   T   T
  0.6811532317551118  0.1692741061168435  0.0918305502835618   T   T   T
  0.8073804972039683  0.9235869101772213  0.0877817134693183   T   T   T
  0.6794753274993587  0.3337279364063235  0.0997116082176475   T   T   T
  0.8087988714083141  0.5927594260019320  0.0977716511579345   T   T   T
  0.8028873750743604  0.4246249413892569  0.0965744389017261   T   T   T
  0.6859285236453571  0.8391954711155282  0.0987130157715814   T   T   T
  0.4165879126731454  0.6818427166602321  0.1134222098961898   T   T   T
  0.5562255574282161  0.4032423532511841  0.1148718741125382   T   T   T
  0.6959544458236351  0.6818689203599032  0.1135096713807278   T   T   T
  0.5562290779810507  0.5904377344371415  0.1813470118407876   T   T   T
 
  0.00000000E+00  0.00000000E+00  0.00000000E+00
  0.00000000E+00  0.00000000E+00  0.00000000E+00
  0.00000000E+00  0.00000000E+00  0.00000000E+00
  0.00000000E+00  0.00000000E+00  0.00000000E+00
  0.00000000E+00  0.00000000E+00  0.00000000E+00
  0.00000000E+00  0.00000000E+00  0.00000000E+00
  0.00000000E+00  0.00000000E+00  0.00000000E+00
  0.00000000E+00  0.00000000E+00  0.00000000E+00
  0.00000000E+00  0.00000000E+00  0.00000000E+00
  0.00000000E+00  0.00000000E+00  0.00000000E+00
  0.00000000E+00  0.00000000E+00  0.00000000E+00
  0.00000000E+00  0.00000000E+00  0.00000000E+00
  0.00000000E+00  0.00000000E+00  0.00000000E+00
  0.00000000E+00  0.00000000E+00  0.00000000E+00
  0.00000000E+00  0.00000000E+00  0.00000000E+00
  0.00000000E+00  0.00000000E+00  0.00000000E+00
  0.00000000E+00  0.00000000E+00  0.00000000E+00
  0.00000000E+00  0.00000000E+00  0.00000000E+00
  0.00000000E+00  0.00000000E+00  0.00000000E+00
  0.00000000E+00  0.00000000E+00  0.00000000E+00
  0.00000000E+00  0.00000000E+00  0.00000000E+00
  0.00000000E+00  0.00000000E+00  0.00000000E+00
  0.00000000E+00  0.00000000E+00  0.00000000E+00
  0.00000000E+00  0.00000000E+00  0.00000000E+00
  0.00000000E+00  0.00000000E+00  0.00000000E+00
  0.00000000E+00  0.00000000E+00  0.00000000E+00
  0.00000000E+00  0.00000000E+00  0.00000000E+00
  0.00000000E+00  0.00000000E+00  0.00000000E+00
  0.00000000E+00  0.00000000E+00  0.00000000E+00
  0.00000000E+00  0.00000000E+00  0.00000000E+00
  0.00000000E+00  0.00000000E+00  0.00000000E+00
  0.00000000E+00  0.00000000E+00  0.00000000E+00
