Title                                   
   1.00000000000000     
     4.9440799999999996    0.0000000000000000    0.0000000000000000
     0.0000000000000000    8.5647549999999999    0.0000000000000000
     0.0000000000000000    0.0000000000000000   20.0000000000000000
    12     2     1
Selective dynamics
Direct
  0.0050827008842044  0.2888378511451178  0.0914901944572918   T   T   T
  0.2577355487243759  0.0402302206535847  0.0967629853799109   T   T   T
  0.0072632009189637  0.9604574442608377  0.0903377367278032   T   T   T
  0.7500822405060830  0.2079227472896857  0.0939346507197217   T   T   T
  0.5005115201019903  0.2970712574826325  0.1018069279279918   T   T   T
  0.7515233738290453  0.0396096837057438  0.0937076516634049   T   T   T
  0.7537269487082038  0.7116336613201799  0.0983881129257117   T   T   T
  0.7529898082227383  0.5408944127284669  0.0997569386028385   T   T   T
  0.5060010087813135  0.9524730950186492  0.1022162468709968   T   T   T
  0.5010181061230927  0.4634807875500276  0.1139241469472639   T   T   T
 -0.0002949210826122  0.4543056387316566  0.0917998059389238   T   T   T
 -0.0016585115431873  0.7941337936298829  0.0890121404673226   T   T   T
  0.5111531801202616  0.7878861500305511  0.1153614165662893   T   T   T
  0.2564046424141487  0.2078213224252705  0.0966908671054380   T   T   T
  0.1984611532913775  0.6249229340277164  0.1327901776990948   T   T   T
 
  0.00000000E+00  0.00000000E+00  0.00000000E+00
  0.00000000E+00  0.00000000E+00  0.00000000E+00
  0.00000000E+00  0.00000000E+00  0.00000000E+00
  0.00000000E+00  0.00000000E+00  0.00000000E+00
  0.00000000E+00  0.00000000E+00  0.00000000E+00
  0.00000000E+00  0.00000000E+00  0.00000000E+00
  0.00000000E+00  0.00000000E+00  0.00000000E+00
  0.00000000E+00  0.00000000E+00  0.00000000E+00
  0.00000000E+00  0.00000000E+00  0.00000000E+00
  0.00000000E+00  0.00000000E+00  0.00000000E+00
  0.00000000E+00  0.00000000E+00  0.00000000E+00
  0.00000000E+00  0.00000000E+00  0.00000000E+00
  0.00000000E+00  0.00000000E+00  0.00000000E+00
  0.00000000E+00  0.00000000E+00  0.00000000E+00
  0.00000000E+00  0.00000000E+00  0.00000000E+00
