Title                                   
   1.00000000000000     
     8.5490480000000009    0.0000000000000000    0.0000000000000000
     0.0000000000000000    8.5490480000000009    0.0000000000000000
     0.0000000000000000    0.0000000000000000   20.0000000000000000
    17     7     1
Selective dynamics
Direct
  0.9077523010088910  0.2054776829579135  0.0974120666069650   T   T   T
  0.9107746667244244  0.8007364117428949  0.0975202801036262   T   T   T
  0.1970767679783954  0.0831394520409891  0.0976412555377780   T   T   T
  0.0765627801016953  0.2007421691322850  0.0975344422286164   T   T   T
  0.1572780669308633  0.6515752102882097  0.0977714961671022   T   T   T
  0.0783480904313095  0.5006457808248316  0.0977914267911090   T   T   T
  0.1567873021621544  0.3499265508927324  0.0978137452415692   T   T   T
  0.0790257232893116  0.7991103144493489  0.0975653194744541   T   T   T
  0.3439343617118101  0.1655210395844658  0.0978686976593969   T   T   T
  0.4923544660027390  0.9173372337323773  0.0978002687674609   T   T   T
  0.3440406856881673  0.8374012879606831  0.0978160698627725   T   T   T
  0.7878288468307618  0.0869084020671796  0.0974232708515724   T   T   T
  0.6413259666315593  0.1683002318733046  0.0976904739963536   T   T   T
  0.7900680792394810  0.9184575585462759  0.0974809037766531   T   T   T
  0.8291984643456025  0.6512112665981844  0.0977560356430505   T   T   T
  0.8273564059970403  0.3531568736324841  0.0976518121007047   T   T   T
  0.6430414242338426  0.8374715019029680  0.0977630661436686   T   T   T
  0.4934289629582378  0.0899300230579924  0.0978618390351955   T   T   T
  0.9059079793739357  0.5022178947487678  0.0978050001516050   T   T   T
  0.3202305934648545  0.3261641610172623  0.0980728279720174   T   T   T
  0.3205834972487482  0.6767183984904558  0.0979598479876206   T   T   T
  0.6646958754881744  0.3307635170032362  0.0979158965683943   T   T   T
  0.6682566037683201  0.6740066046149285  0.0979607251525669   T   T   T
  0.1964374066680801  0.9154436661844301  0.0976643493195505   T   T   T
  0.4931166817215923  0.5024267666557983  0.0981638828601768   T   T   T
 
  0.00000000E+00  0.00000000E+00  0.00000000E+00
  0.00000000E+00  0.00000000E+00  0.00000000E+00
  0.00000000E+00  0.00000000E+00  0.00000000E+00
  0.00000000E+00  0.00000000E+00  0.00000000E+00
  0.00000000E+00  0.00000000E+00  0.00000000E+00
  0.00000000E+00  0.00000000E+00  0.00000000E+00
  0.00000000E+00  0.00000000E+00  0.00000000E+00
  0.00000000E+00  0.00000000E+00  0.00000000E+00
  0.00000000E+00  0.00000000E+00  0.00000000E+00
  0.00000000E+00  0.00000000E+00  0.00000000E+00
  0.00000000E+00  0.00000000E+00  0.00000000E+00
  0.00000000E+00  0.00000000E+00  0.00000000E+00
  0.00000000E+00  0.00000000E+00  0.00000000E+00
  0.00000000E+00  0.00000000E+00  0.00000000E+00
  0.00000000E+00  0.00000000E+00  0.00000000E+00
  0.00000000E+00  0.00000000E+00  0.00000000E+00
  0.00000000E+00  0.00000000E+00  0.00000000E+00
  0.00000000E+00  0.00000000E+00  0.00000000E+00
  0.00000000E+00  0.00000000E+00  0.00000000E+00
  0.00000000E+00  0.00000000E+00  0.00000000E+00
  0.00000000E+00  0.00000000E+00  0.00000000E+00
  0.00000000E+00  0.00000000E+00  0.00000000E+00
  0.00000000E+00  0.00000000E+00  0.00000000E+00
  0.00000000E+00  0.00000000E+00  0.00000000E+00
  0.00000000E+00  0.00000000E+00  0.00000000E+00
