Title                                   
   1.00000000000000     
     4.9440799999999996    0.0000000000000000    0.0000000000000000
     0.0000000000000000    8.5647549999999999    0.0000000000000000
     0.0000000000000000    0.0000000000000000   20.0000000000000000
    12     3     1
Selective dynamics
Direct
  0.2500000000000000  0.2124843278348372  0.0925774399602327   T   T   T
 -0.0050521389780800  0.2931192089388844  0.0937083166111640   T   T   T
  0.2500000000000000  0.0444439364990371  0.0910410977625793   T   T   T
  0.0037914265515992  0.7946808370945809  0.1008052976515093   T   T   T
  0.0000868991182983  0.9598116443417586  0.0913187089105008   T   T   T
  0.7500000000000000  0.2070621879297854  0.0881050831793468   T   T   T
  0.5050521389780800  0.2931192089388844  0.0937083166111640   T   T   T
  0.7500000000000000  0.0415877698429748  0.0873927447709727   T   T   T
  0.7500000000000000  0.7047377839779188  0.1031318497362247   T   T   T
  0.4962085734484007  0.7946808370945809  0.1008052976515093   T   T   T
  0.7500000000000000  0.5337395641789716  0.1025362362281224   T   T   T
  0.4999131008817017  0.9598116443417586  0.0913187089105008   T   T   T
  0.5129077505499473  0.4516092294299723  0.1027251842421416   T   T   T
 -0.0129077505499477  0.4516092294299723  0.1027251842421416   T   T   T
  0.2500000000000000  0.7238160920551746  0.1108633801504985   T   T   T
  0.2500000000000000  0.5336864980709075  0.1697491533813990   T   T   T
 
  0.00000000E+00  0.00000000E+00  0.00000000E+00
  0.00000000E+00  0.00000000E+00  0.00000000E+00
  0.00000000E+00  0.00000000E+00  0.00000000E+00
  0.00000000E+00  0.00000000E+00  0.00000000E+00
  0.00000000E+00  0.00000000E+00  0.00000000E+00
  0.00000000E+00  0.00000000E+00  0.00000000E+00
  0.00000000E+00  0.00000000E+00  0.00000000E+00
  0.00000000E+00  0.00000000E+00  0.00000000E+00
  0.00000000E+00  0.00000000E+00  0.00000000E+00
  0.00000000E+00  0.00000000E+00  0.00000000E+00
  0.00000000E+00  0.00000000E+00  0.00000000E+00
  0.00000000E+00  0.00000000E+00  0.00000000E+00
  0.00000000E+00  0.00000000E+00  0.00000000E+00
  0.00000000E+00  0.00000000E+00  0.00000000E+00
  0.00000000E+00  0.00000000E+00  0.00000000E+00
  0.00000000E+00  0.00000000E+00  0.00000000E+00
