Title                                   
   1.00000000000000     
     9.8694509999999998    0.0000000000000000    0.0000000000000000
     0.0000000000000000    8.5490480000000009    0.0000000000000000
     0.0000000000000000    0.0000000000000000   20.0000000000000000
    28     3     1
Selective dynamics
Direct
  0.0554446080870981  0.0920170427998417  0.0881890600088343   T   T   T
  0.9303546312623361  0.1729137974782899  0.0898814612538453   T   T   T
  0.0555365409583178  0.9249044648736787  0.0885065177710844   T   T   T
  0.9304248739647204  0.3402888796299077  0.0926208313564798   T   T   T
  0.0560402061649127  0.5908901802381660  0.0888914939321550   T   T   T
  0.9311691499676444  0.6728364856552638  0.0942396814087014   T   T   T
  0.0571857018635855  0.4236659692459106  0.0893698135890070   T   T   T
  0.9309673133058297  0.8393729153424018  0.0927207072207968   T   T   T
  0.3049162215623251  0.0900046311674915  0.0878687797628051   T   T   T
  0.1812437167341853  0.1747991713736390  0.0877673057665631   T   T   T
  0.1842249670788925  0.3427436717919240  0.0876147263773271   T   T   T
  0.3075290735273101  0.5964348364975962  0.0839921516784741   T   T   T
  0.1804642712673253  0.6758319271654827  0.0857910199767374   T   T   T
  0.3111562220519965  0.4276881331314522  0.0874832051428246   T   T   T
  0.1796968894489001  0.8425054544020203  0.0863973884669697   T   T   T
  0.5550252422876807  0.0849200052864685  0.0935178815573930   T   T   T
  0.4309562897120547  0.1705914671007011  0.0905318511108613   T   T   T
  0.5525146198971553  0.9193907418027727  0.0959435851872926   T   T   T
  0.4350858020580000  0.3377806224498564  0.0935570909689561   T   T   T
  0.4251605666627265  0.8378249946920318  0.0874241304193009   T   T   T
  0.8057423409399490  0.0873588769880031  0.0916979722963855   T   T   T
  0.6805708163196817  0.1687879632060453  0.0944751893383005   T   T   T
  0.8048832892432426  0.9209453413940263  0.0947223815640600   T   T   T
  0.6794677675441846  0.3342992596618587  0.1000187198756661   T   T   T
  0.8074426204673771  0.5895439004519479  0.1062027630089155   T   T   T
  0.6922486199759281  0.6784872520717520  0.1249719429204252   T   T   T
  0.8051445923149896  0.4214307673968213  0.1007614534947664   T   T   T
  0.6794528467163390  0.8371966632250674  0.1044763322498900   T   T   T
  0.4236773463405537  0.6830597509111940  0.0821438496357197   T   T   T
  0.5576131190975571  0.4114816728357845  0.1040115886855371   T   T   T
  0.3032534869941065  0.9262728106105547  0.0869508369038252   T   T   T
  0.5650452461831009  0.5739763491220571  0.1829332870701342   T   T   T
 
  0.00000000E+00  0.00000000E+00  0.00000000E+00
  0.00000000E+00  0.00000000E+00  0.00000000E+00
  0.00000000E+00  0.00000000E+00  0.00000000E+00
  0.00000000E+00  0.00000000E+00  0.00000000E+00
  0.00000000E+00  0.00000000E+00  0.00000000E+00
  0.00000000E+00  0.00000000E+00  0.00000000E+00
  0.00000000E+00  0.00000000E+00  0.00000000E+00
  0.00000000E+00  0.00000000E+00  0.00000000E+00
  0.00000000E+00  0.00000000E+00  0.00000000E+00
  0.00000000E+00  0.00000000E+00  0.00000000E+00
  0.00000000E+00  0.00000000E+00  0.00000000E+00
  0.00000000E+00  0.00000000E+00  0.00000000E+00
  0.00000000E+00  0.00000000E+00  0.00000000E+00
  0.00000000E+00  0.00000000E+00  0.00000000E+00
  0.00000000E+00  0.00000000E+00  0.00000000E+00
  0.00000000E+00  0.00000000E+00  0.00000000E+00
  0.00000000E+00  0.00000000E+00  0.00000000E+00
  0.00000000E+00  0.00000000E+00  0.00000000E+00
  0.00000000E+00  0.00000000E+00  0.00000000E+00
  0.00000000E+00  0.00000000E+00  0.00000000E+00
  0.00000000E+00  0.00000000E+00  0.00000000E+00
  0.00000000E+00  0.00000000E+00  0.00000000E+00
  0.00000000E+00  0.00000000E+00  0.00000000E+00
  0.00000000E+00  0.00000000E+00  0.00000000E+00
  0.00000000E+00  0.00000000E+00  0.00000000E+00
  0.00000000E+00  0.00000000E+00  0.00000000E+00
  0.00000000E+00  0.00000000E+00  0.00000000E+00
  0.00000000E+00  0.00000000E+00  0.00000000E+00
  0.00000000E+00  0.00000000E+00  0.00000000E+00
  0.00000000E+00  0.00000000E+00  0.00000000E+00
  0.00000000E+00  0.00000000E+00  0.00000000E+00
  0.00000000E+00  0.00000000E+00  0.00000000E+00
