Title                                   
   1.00000000000000     
     8.5490480000000009    0.0000000000000000    0.0000000000000000
     0.0000000000000000    8.5490480000000009    0.0000000000000000
     0.0000000000000000    0.0000000000000000   20.0000000000000000
    19     5     1
Selective dynamics
Direct
  0.9093637598859987  0.2058686552619953  0.0976117419559940   T   T   T
  0.9109834996340698  0.8017069180797914  0.0974379368166187   T   T   T
  0.1968422154981771  0.0845947806768923  0.0977588415745572   T   T   T
  0.0762712092327369  0.2013456299626278  0.0976904762293803   T   T   T
  0.1552938016016629  0.6516503279106578  0.0978241718522532   T   T   T
  0.0746753778174365  0.5018584775114864  0.0977890826296027   T   T   T
  0.1567916747498594  0.3562621912452289  0.0977494387838125   T   T   T
  0.0787677816184681  0.7999464881031885  0.0975917052232899   T   T   T
  0.4944392528192778  0.0856915101681312  0.0977537449508090   T   T   T
  0.3470447793027654  0.1661103596727087  0.0977961483415901   T   T   T
  0.4939812601999075  0.9133819850335664  0.0977415192551709   T   T   T
  0.3437426224760818  0.8326751834402658  0.0978895904741075   T   T   T
  0.7894655470182141  0.0870500245748219  0.0975140399479202   T   T   T
  0.6420166736388744  0.1674132098780210  0.0977701497367866   T   T   T
  0.7902702465648075  0.9189121252184363  0.0974270353233200   T   T   T
  0.8285066830334177  0.6520297458767339  0.0976629702950801   T   T   T
  0.8254726118371675  0.3548639855870296  0.0978134616340174   T   T   T
  0.6430040165503487  0.8343511966747232  0.0976699275339583   T   T   T
  0.3230334264969054  0.3335246255812959  0.0977719670570028   T   T   T
  0.9047304229426446  0.5034921393246493  0.0978478091894648   T   T   T
  0.3170712584975919  0.6743615144486195  0.0980320920867580   T   T   T
  0.6658122160564968  0.3309731519028168  0.0980196178268225   T   T   T
  0.6698449231616679  0.6724303201878193  0.0978406411135258   T   T   T
  0.1974966591583259  0.9154416712280878  0.0977482148491804   T   T   T
  0.4904900802070885  0.4988537824504250  0.0979526753189501   T   T   T
 
  0.00000000E+00  0.00000000E+00  0.00000000E+00
  0.00000000E+00  0.00000000E+00  0.00000000E+00
  0.00000000E+00  0.00000000E+00  0.00000000E+00
  0.00000000E+00  0.00000000E+00  0.00000000E+00
  0.00000000E+00  0.00000000E+00  0.00000000E+00
  0.00000000E+00  0.00000000E+00  0.00000000E+00
  0.00000000E+00  0.00000000E+00  0.00000000E+00
  0.00000000E+00  0.00000000E+00  0.00000000E+00
  0.00000000E+00  0.00000000E+00  0.00000000E+00
  0.00000000E+00  0.00000000E+00  0.00000000E+00
  0.00000000E+00  0.00000000E+00  0.00000000E+00
  0.00000000E+00  0.00000000E+00  0.00000000E+00
  0.00000000E+00  0.00000000E+00  0.00000000E+00
  0.00000000E+00  0.00000000E+00  0.00000000E+00
  0.00000000E+00  0.00000000E+00  0.00000000E+00
  0.00000000E+00  0.00000000E+00  0.00000000E+00
  0.00000000E+00  0.00000000E+00  0.00000000E+00
  0.00000000E+00  0.00000000E+00  0.00000000E+00
  0.00000000E+00  0.00000000E+00  0.00000000E+00
  0.00000000E+00  0.00000000E+00  0.00000000E+00
  0.00000000E+00  0.00000000E+00  0.00000000E+00
  0.00000000E+00  0.00000000E+00  0.00000000E+00
  0.00000000E+00  0.00000000E+00  0.00000000E+00
  0.00000000E+00  0.00000000E+00  0.00000000E+00
  0.00000000E+00  0.00000000E+00  0.00000000E+00
