Title                                   
   1.00000000000000     
     4.9440799999999996    0.0000000000000000    0.0000000000000000
     0.0000000000000000    8.5647549999999999    0.0000000000000000
     0.0000000000000000    0.0000000000000000   20.0000000000000000
    14     1
Selective dynamics
Direct
  0.2500000000000000  0.2069188242788283  0.0984816848424886   T   T   T
 -0.0003520050420173  0.2913734771026195  0.0985131387212725   T   T   T
  0.2500000000000000  0.0426427669290345  0.0985205827687001   T   T   T
 -0.0004033578351072  0.9582191610177447  0.0985561996713479   T   T   T
  0.7500000000000000  0.2079495206863898  0.0970580121848987   T   T   T
  0.5003520050420170  0.2913734771026195  0.0985131387212725   T   T   T
  0.7500000000000000  0.0417078949985270  0.0970621959332302   T   T   T
  0.7500000000000000  0.7109976768310050  0.0957495595728697   T   T   T
  0.7500000000000000  0.5384895522931832  0.0957250618782450   T   T   T
  0.5004033578351070  0.9582191610177447  0.0985561996713479   T   T   T
  0.5094469984738323  0.4546841918028422  0.1009940685519376   T   T   T
 -0.0094469984738322  0.4546841918028422  0.1009940685519376   T   T   T
 -0.0094944653012734  0.7948681394487970  0.1010769675935988   T   T   T
  0.5094944653012732  0.7948681394487970  0.1010769675935988   T   T   T
  0.2500000000000000  0.6246848252390275  0.1271021537432576   T   T   T
 
  0.00000000E+00  0.00000000E+00  0.00000000E+00
  0.00000000E+00  0.00000000E+00  0.00000000E+00
  0.00000000E+00  0.00000000E+00  0.00000000E+00
  0.00000000E+00  0.00000000E+00  0.00000000E+00
  0.00000000E+00  0.00000000E+00  0.00000000E+00
  0.00000000E+00  0.00000000E+00  0.00000000E+00
  0.00000000E+00  0.00000000E+00  0.00000000E+00
  0.00000000E+00  0.00000000E+00  0.00000000E+00
  0.00000000E+00  0.00000000E+00  0.00000000E+00
  0.00000000E+00  0.00000000E+00  0.00000000E+00
  0.00000000E+00  0.00000000E+00  0.00000000E+00
  0.00000000E+00  0.00000000E+00  0.00000000E+00
  0.00000000E+00  0.00000000E+00  0.00000000E+00
  0.00000000E+00  0.00000000E+00  0.00000000E+00
  0.00000000E+00  0.00000000E+00  0.00000000E+00
