Title                                   
   1.00000000000000     
     9.8694509999999998    0.0000000000000000    0.0000000000000000
     0.0000000000000000    8.5490480000000009    0.0000000000000000
     0.0000000000000000    0.0000000000000000   20.0000000000000000
    25     6     1
Selective dynamics
Direct
  0.0560422435567899  0.0915185840306532  0.0838616718504013   T   T   T
  0.9305516884111593  0.1748965517430610  0.0827727935234512   T   T   T
  0.0572949328529688  0.9235535772633586  0.0857943371739040   T   T   T
  0.9299877677531985  0.3420402486572788  0.0849462210053443   T   T   T
  0.0562036234551233  0.5921335611154979  0.0863866192312867   T   T   T
  0.0559485254710126  0.4246706867194338  0.0855828124037641   T   T   T
  0.9331291393854293  0.8397460221991725  0.0877877149216881   T   T   T
  0.3056257518609851  0.0888269382296819  0.0894250400903729   T   T   T
  0.1818598856623829  0.1740690362165224  0.0862739383570501   T   T   T
  0.1827255329394662  0.3418332877048029  0.0873654844491268   T   T   T
  0.3025553891797967  0.5912647946555500  0.0999532155490486   T   T   T
  0.1806542697745594  0.6746223198367791  0.0899178043342294   T   T   T
  0.3107692217059304  0.4230694759213169  0.0960427215535157   T   T   T
  0.1817157641558518  0.8427947743807276  0.0893202182640700   T   T   T
  0.5563119451373791  0.0843766957657064  0.0913556910983792   T   T   T
  0.5544946822756655  0.9171114809063559  0.0975135333597421   T   T   T
  0.4309965589133397  0.3303635714535991  0.1008734683143656   T   T   T
  0.4263170442229745  0.8410750891807059  0.1025282896064668   T   T   T
  0.8068103191610849  0.0886609956526126  0.0831934966246470   T   T   T
  0.6797508299628719  0.1693439474572101  0.0875573886131774   T   T   T
  0.8075843958148042  0.9227472313140669  0.0877685249249737   T   T   T
  0.6811431444719593  0.3340019663751670  0.0968406718128056   T   T   T
  0.8111484162403788  0.5935903365512988  0.0995027257328747   T   T   T
  0.8029343696398612  0.4265725728330434  0.0932492101506068   T   T   T
  0.6849232422315371  0.8414655947267744  0.0992552379130904   T   T   T
  0.4116801287019179  0.6861941673965081  0.1221953073885671   T   T   T
  0.5560031215152608  0.3946603282550015  0.1197582889257581   T   T   T
  0.7010886438140120  0.6843940880546627  0.1205108859416876   T   T   T
  0.3046823971274708  0.9256489525505728  0.0918286745313328   T   T   T
  0.4289402314396042  0.1659585985982152  0.0932704455281489   T   T   T
  0.9333664111583215  0.6737185949772123  0.0896085496021782   T   T   T
  0.5563993820069084  0.5853219292774499  0.1734340172239609   T   T   T
 
  0.00000000E+00  0.00000000E+00  0.00000000E+00
  0.00000000E+00  0.00000000E+00  0.00000000E+00
  0.00000000E+00  0.00000000E+00  0.00000000E+00
  0.00000000E+00  0.00000000E+00  0.00000000E+00
  0.00000000E+00  0.00000000E+00  0.00000000E+00
  0.00000000E+00  0.00000000E+00  0.00000000E+00
  0.00000000E+00  0.00000000E+00  0.00000000E+00
  0.00000000E+00  0.00000000E+00  0.00000000E+00
  0.00000000E+00  0.00000000E+00  0.00000000E+00
  0.00000000E+00  0.00000000E+00  0.00000000E+00
  0.00000000E+00  0.00000000E+00  0.00000000E+00
  0.00000000E+00  0.00000000E+00  0.00000000E+00
  0.00000000E+00  0.00000000E+00  0.00000000E+00
  0.00000000E+00  0.00000000E+00  0.00000000E+00
  0.00000000E+00  0.00000000E+00  0.00000000E+00
  0.00000000E+00  0.00000000E+00  0.00000000E+00
  0.00000000E+00  0.00000000E+00  0.00000000E+00
  0.00000000E+00  0.00000000E+00  0.00000000E+00
  0.00000000E+00  0.00000000E+00  0.00000000E+00
  0.00000000E+00  0.00000000E+00  0.00000000E+00
  0.00000000E+00  0.00000000E+00  0.00000000E+00
  0.00000000E+00  0.00000000E+00  0.00000000E+00
  0.00000000E+00  0.00000000E+00  0.00000000E+00
  0.00000000E+00  0.00000000E+00  0.00000000E+00
  0.00000000E+00  0.00000000E+00  0.00000000E+00
  0.00000000E+00  0.00000000E+00  0.00000000E+00
  0.00000000E+00  0.00000000E+00  0.00000000E+00
  0.00000000E+00  0.00000000E+00  0.00000000E+00
  0.00000000E+00  0.00000000E+00  0.00000000E+00
  0.00000000E+00  0.00000000E+00  0.00000000E+00
  0.00000000E+00  0.00000000E+00  0.00000000E+00
  0.00000000E+00  0.00000000E+00  0.00000000E+00
