Title                                   
   1.00000000000000     
     9.8694509999999998    0.0000000000000000    0.0000000000000000
     0.0000000000000000    8.5490480000000009    0.0000000000000000
     0.0000000000000000    0.0000000000000000   20.0000000000000000
    30     1     1
Selective dynamics
Direct
  0.0562413215217701  0.0895074147213133  0.0854280089404822   T   T   T
  0.9309147733592346  0.1725932642344324  0.0873604228168299   T   T   T
  0.0562348235894170  0.9231730958568987  0.0853465675944257   T   T   T
  0.9304974882172818  0.3404814513078885  0.0902013876895632   T   T   T
  0.0562303085527700  0.5891279942487224  0.0880225742999695   T   T   T
  0.9313784270219285  0.6727700574723345  0.0898503246832336   T   T   T
  0.0562403273589927  0.4232107069988724  0.0888268299630486   T   T   T
  0.9308501013698958  0.8394983456511423  0.0874880602837666   T   T   T
  0.3052568351154691  0.0893413876776887  0.0886284174268877   T   T   T
  0.1815667885144407  0.1725797000459385  0.0873623274535569   T   T   T
  0.3065096953292669  0.9232124247394172  0.0889000441202272   T   T   T
  0.1819835891777785  0.3404579683672229  0.0901809544525257   T   T   T
  0.3051765182483331  0.5908626397661381  0.0987256694455331   T   T   T
  0.1811044213802561  0.6727565602743719  0.0897608315143798   T   T   T
  0.3056697909184428  0.4224214842450879  0.0972696059906675   T   T   T
  0.1816277008132933  0.8394978688148385  0.0874277844162211   T   T   T
  0.5562618967364643  0.0874397318348893  0.0945113311494215   T   T   T
  0.4313790862233577  0.1699048096900304  0.0938505484068045   T   T   T
  0.4311363158457423  0.3361605664369000  0.1007430439048848   T   T   T
  0.4254732247382747  0.6796776611164348  0.1097912486751944   T   T   T
  0.5562333103320511  0.4108050731522797  0.1113593406997279   T   T   T
  0.4313381465466541  0.8408270580038986  0.0970361759679274   T   T   T
  0.8072413181080437  0.0893390663410535  0.0886409036047115   T   T   T
  0.6811416069409479  0.1699192793064667  0.0938583630663962   T   T   T
  0.8059659577182139  0.9231894515092071  0.0889586544450455   T   T   T
  0.6813608706013263  0.3361807497425268  0.1007725837616163   T   T   T
  0.8073181562659901  0.5908715251952332  0.0988652870691574   T   T   T
  0.6869997555168346  0.6796624734536008  0.1099268043130664   T   T   T
  0.8068235626805259  0.4224381711874927  0.0973357920189383   T   T   T
  0.6811345071564952  0.8407993370644373  0.0971127426299348   T   T   T
  0.5562473815315121  0.9230061031029692  0.0957387909714979   T   T   T
  0.5561009925690016  0.5885325784402807  0.1563935782243909   T   T   T
 
  0.00000000E+00  0.00000000E+00  0.00000000E+00
  0.00000000E+00  0.00000000E+00  0.00000000E+00
  0.00000000E+00  0.00000000E+00  0.00000000E+00
  0.00000000E+00  0.00000000E+00  0.00000000E+00
  0.00000000E+00  0.00000000E+00  0.00000000E+00
  0.00000000E+00  0.00000000E+00  0.00000000E+00
  0.00000000E+00  0.00000000E+00  0.00000000E+00
  0.00000000E+00  0.00000000E+00  0.00000000E+00
  0.00000000E+00  0.00000000E+00  0.00000000E+00
  0.00000000E+00  0.00000000E+00  0.00000000E+00
  0.00000000E+00  0.00000000E+00  0.00000000E+00
  0.00000000E+00  0.00000000E+00  0.00000000E+00
  0.00000000E+00  0.00000000E+00  0.00000000E+00
  0.00000000E+00  0.00000000E+00  0.00000000E+00
  0.00000000E+00  0.00000000E+00  0.00000000E+00
  0.00000000E+00  0.00000000E+00  0.00000000E+00
  0.00000000E+00  0.00000000E+00  0.00000000E+00
  0.00000000E+00  0.00000000E+00  0.00000000E+00
  0.00000000E+00  0.00000000E+00  0.00000000E+00
  0.00000000E+00  0.00000000E+00  0.00000000E+00
  0.00000000E+00  0.00000000E+00  0.00000000E+00
  0.00000000E+00  0.00000000E+00  0.00000000E+00
  0.00000000E+00  0.00000000E+00  0.00000000E+00
  0.00000000E+00  0.00000000E+00  0.00000000E+00
  0.00000000E+00  0.00000000E+00  0.00000000E+00
  0.00000000E+00  0.00000000E+00  0.00000000E+00
  0.00000000E+00  0.00000000E+00  0.00000000E+00
  0.00000000E+00  0.00000000E+00  0.00000000E+00
  0.00000000E+00  0.00000000E+00  0.00000000E+00
  0.00000000E+00  0.00000000E+00  0.00000000E+00
  0.00000000E+00  0.00000000E+00  0.00000000E+00
  0.00000000E+00  0.00000000E+00  0.00000000E+00
