Title                                   
   1.00000000000000     
     8.5490480000000009    0.0000000000000000    0.0000000000000000
     0.0000000000000000    8.5490480000000009    0.0000000000000000
     0.0000000000000000    0.0000000000000000   20.0000000000000000
    23     1     1
Selective dynamics
Direct
  0.9107882337597031  0.2076249456913395  0.0954136589779179   T   T   T
  0.9053320159466145  0.5034829032002412  0.0952891873473909   T   T   T
  0.9109226583645850  0.7989469498508232  0.0954322001232065   T   T   T
  0.1986155656994653  0.0833118924068113  0.0954409686100418   T   T   T
  0.0745371597136777  0.2073331333950444  0.0954100554131089   T   T   T
  0.1989053394806443  0.9195583514371478  0.0954523175424307   T   T   T
  0.1564768078185640  0.6478720670703112  0.0953563781911538   T   T   T
  0.0742738716364636  0.5032677438782367  0.0953071235560771   T   T   T
  0.1582790295329269  0.3580128811094970  0.0953323555572496   T   T   T
  0.0755898642863368  0.7971388970368244  0.0954411936272540   T   T   T
  0.4944652105457015  0.0830575949934503  0.0953491601044734   T   T   T
  0.3492428103258138  0.1670874511112575  0.0953619591606833   T   T   T
  0.4946983255560786  0.9141085365779353  0.0953424801037294   T   T   T
  0.3490333869414363  0.8329036542922813  0.0953700649894746   T   T   T
  0.7883538372995559  0.0843356273047176  0.0954292539905515   T   T   T
  0.6390688653357799  0.1652495850459071  0.0953371843983387   T   T   T
  0.7902032079953045  0.9196695976183510  0.0954345195997131   T   T   T
  0.8260090686302797  0.6507831079729486  0.0952866241650008   T   T   T
  0.8241383256062258  0.3577867734450092  0.0953196327245687   T   T   T
  0.6420005256108414  0.8347721205579941  0.0952955496126712   T   T   T
  0.3244899947908341  0.3332848196197707  0.0953026955934098   T   T   T
  0.3235697927029125  0.6681889895397344  0.0953294642347424   T   T   T
  0.6593912703833678  0.3323385429603394  0.0952813367075112   T   T   T
  0.6652205536574125  0.6740032240592732  0.0951559071015010   T   T   T
  0.4918062783794671  0.5006706098247666  0.0952337285677775   T   T   T
 
  0.00000000E+00  0.00000000E+00  0.00000000E+00
  0.00000000E+00  0.00000000E+00  0.00000000E+00
  0.00000000E+00  0.00000000E+00  0.00000000E+00
  0.00000000E+00  0.00000000E+00  0.00000000E+00
  0.00000000E+00  0.00000000E+00  0.00000000E+00
  0.00000000E+00  0.00000000E+00  0.00000000E+00
  0.00000000E+00  0.00000000E+00  0.00000000E+00
  0.00000000E+00  0.00000000E+00  0.00000000E+00
  0.00000000E+00  0.00000000E+00  0.00000000E+00
  0.00000000E+00  0.00000000E+00  0.00000000E+00
  0.00000000E+00  0.00000000E+00  0.00000000E+00
  0.00000000E+00  0.00000000E+00  0.00000000E+00
  0.00000000E+00  0.00000000E+00  0.00000000E+00
  0.00000000E+00  0.00000000E+00  0.00000000E+00
  0.00000000E+00  0.00000000E+00  0.00000000E+00
  0.00000000E+00  0.00000000E+00  0.00000000E+00
  0.00000000E+00  0.00000000E+00  0.00000000E+00
  0.00000000E+00  0.00000000E+00  0.00000000E+00
  0.00000000E+00  0.00000000E+00  0.00000000E+00
  0.00000000E+00  0.00000000E+00  0.00000000E+00
  0.00000000E+00  0.00000000E+00  0.00000000E+00
  0.00000000E+00  0.00000000E+00  0.00000000E+00
  0.00000000E+00  0.00000000E+00  0.00000000E+00
  0.00000000E+00  0.00000000E+00  0.00000000E+00
  0.00000000E+00  0.00000000E+00  0.00000000E+00
