Title                                   
   1.00000000000000     
     9.8694509999999998    0.0000000000000000    0.0000000000000000
     0.0000000000000000    8.5490480000000009    0.0000000000000000
     0.0000000000000000    0.0000000000000000   20.0000000000000000
    25     6     1
Selective dynamics
Direct
  0.0558277169470782  0.0910999599383538  0.0848537641204851   T   T   T
  0.9308282290218993  0.1748378157534453  0.0846359255588842   T   T   T
  0.0573458675716177  0.9232311942812254  0.0863416508233136   T   T   T
  0.9300088223320844  0.3416418002266133  0.0870380655210455   T   T   T
  0.0565681349017188  0.5913776748337789  0.0877146651376152   T   T   T
  0.0560503718692845  0.4241497201903501  0.0874469672702029   T   T   T
  0.9328001272229103  0.8399250672000556  0.0881831891188381   T   T   T
  0.3057587933687353  0.0889045065798376  0.0884888622096476   T   T   T
  0.1820276797838342  0.1736468650133860  0.0868575532010635   T   T   T
  0.1824279718061843  0.3412478056359231  0.0887859712882183   T   T   T
  0.3036760450213998  0.5914716632253322  0.0997409312904044   T   T   T
  0.1804856488052956  0.6742147839519848  0.0905762975878959   T   T   T
  0.3104154289100042  0.4230710288344203  0.0962437926700743   T   T   T
  0.1817124286905675  0.8422546759379689  0.0894500119342347   T   T   T
  0.5559428247930716  0.0851568885325524  0.0918562896307228   T   T   T
  0.5547587057508486  0.9180188803876284  0.0969004848053657   T   T   T
  0.4315412386208465  0.3311850516360376  0.0995058503242232   T   T   T
  0.4262385928369505  0.8400042608710616  0.1001564484756737   T   T   T
  0.8065619524949130  0.0889222781555813  0.0848561301941211   T   T   T
  0.6801462115744762  0.1699839970870712  0.0883979293509302   T   T   T
  0.8077869034512054  0.9228829166244248  0.0881219129792754   T   T   T
  0.6801794377336369  0.3351371174487388  0.0964773641886805   T   T   T
  0.8101599752602433  0.5940413535699657  0.0987921679715063   T   T   T
  0.8029617475883017  0.4263018221796119  0.0941465061836623   T   T   T
  0.6841054615048551  0.8403310591713586  0.0978060955333181   T   T   T
  0.4144466847368636  0.6855631310265717  0.1178679439046958   T   T   T
  0.5549355535992078  0.3984062862908663  0.1152176843437406   T   T   T
  0.6981157493555098  0.6829146922537255  0.1155749771544245   T   T   T
  0.3058112091921990  0.9251827014062178  0.0904872851637956   T   T   T
  0.4294123384214712  0.1669280215460072  0.0920976898630018   T   T   T
  0.9328136209151842  0.6730115157995210  0.0897493233599064   T   T   T
  0.5577875259176079  0.5851994644103853  0.1813052688410492   T   T   T
 
  0.00000000E+00  0.00000000E+00  0.00000000E+00
  0.00000000E+00  0.00000000E+00  0.00000000E+00
  0.00000000E+00  0.00000000E+00  0.00000000E+00
  0.00000000E+00  0.00000000E+00  0.00000000E+00
  0.00000000E+00  0.00000000E+00  0.00000000E+00
  0.00000000E+00  0.00000000E+00  0.00000000E+00
  0.00000000E+00  0.00000000E+00  0.00000000E+00
  0.00000000E+00  0.00000000E+00  0.00000000E+00
  0.00000000E+00  0.00000000E+00  0.00000000E+00
  0.00000000E+00  0.00000000E+00  0.00000000E+00
  0.00000000E+00  0.00000000E+00  0.00000000E+00
  0.00000000E+00  0.00000000E+00  0.00000000E+00
  0.00000000E+00  0.00000000E+00  0.00000000E+00
  0.00000000E+00  0.00000000E+00  0.00000000E+00
  0.00000000E+00  0.00000000E+00  0.00000000E+00
  0.00000000E+00  0.00000000E+00  0.00000000E+00
  0.00000000E+00  0.00000000E+00  0.00000000E+00
  0.00000000E+00  0.00000000E+00  0.00000000E+00
  0.00000000E+00  0.00000000E+00  0.00000000E+00
  0.00000000E+00  0.00000000E+00  0.00000000E+00
  0.00000000E+00  0.00000000E+00  0.00000000E+00
  0.00000000E+00  0.00000000E+00  0.00000000E+00
  0.00000000E+00  0.00000000E+00  0.00000000E+00
  0.00000000E+00  0.00000000E+00  0.00000000E+00
  0.00000000E+00  0.00000000E+00  0.00000000E+00
  0.00000000E+00  0.00000000E+00  0.00000000E+00
  0.00000000E+00  0.00000000E+00  0.00000000E+00
  0.00000000E+00  0.00000000E+00  0.00000000E+00
  0.00000000E+00  0.00000000E+00  0.00000000E+00
  0.00000000E+00  0.00000000E+00  0.00000000E+00
  0.00000000E+00  0.00000000E+00  0.00000000E+00
  0.00000000E+00  0.00000000E+00  0.00000000E+00
