Title                                   
   1.00000000000000     
     4.9440799999999996    0.0000000000000000    0.0000000000000000
     0.0000000000000000    8.5647549999999999    0.0000000000000000
     0.0000000000000000    0.0000000000000000   20.0000000000000000
    13     2     1
Selective dynamics
Direct
  0.2490870036575903  0.2091523799690891  0.0920734089929352   T   T   T
 -0.0057672886445616  0.2906137548595210  0.0931048596239635   T   T   T
  0.2510186464468749  0.0432762438487340  0.0875906393297441   T   T   T
  0.0065707488853698  0.7961494427835661  0.0989766709515455   T   T   T
  0.0016752442904941  0.9592018423814676  0.0869555563155441   T   T   T
  0.7483608162343883  0.2064973563901504  0.0861872759258184   T   T   T
  0.5020774600379180  0.2898249860148255  0.0965883816210672   T   T   T
  0.7514921948389263  0.0410804529283805  0.0833375683846362   T   T   T
  0.7562771408656462  0.7066175229858674  0.1038916471178257   T   T   T
  0.5024425094701133  0.7957092722136591  0.1002097019455880   T   T   T
  0.7510544341443817  0.5358788079011580  0.1068812018389757   T   T   T
  0.5025390550974052  0.9592143670087182  0.0881511031829990   T   T   T
  0.5120886377324464  0.4491403120157622  0.1150125568997146   T   T   T
 -0.0126273480652063  0.4486646566869054  0.1038749612004896   T   T   T
  0.2545344319023186  0.7270402029628814  0.1126150129064505   T   T   T
  0.2291763131058950  0.5419383990493152  0.1670614537627099   T   T   T
 
  0.00000000E+00  0.00000000E+00  0.00000000E+00
  0.00000000E+00  0.00000000E+00  0.00000000E+00
  0.00000000E+00  0.00000000E+00  0.00000000E+00
  0.00000000E+00  0.00000000E+00  0.00000000E+00
  0.00000000E+00  0.00000000E+00  0.00000000E+00
  0.00000000E+00  0.00000000E+00  0.00000000E+00
  0.00000000E+00  0.00000000E+00  0.00000000E+00
  0.00000000E+00  0.00000000E+00  0.00000000E+00
  0.00000000E+00  0.00000000E+00  0.00000000E+00
  0.00000000E+00  0.00000000E+00  0.00000000E+00
  0.00000000E+00  0.00000000E+00  0.00000000E+00
  0.00000000E+00  0.00000000E+00  0.00000000E+00
  0.00000000E+00  0.00000000E+00  0.00000000E+00
  0.00000000E+00  0.00000000E+00  0.00000000E+00
  0.00000000E+00  0.00000000E+00  0.00000000E+00
  0.00000000E+00  0.00000000E+00  0.00000000E+00
