Title                                   
   1.00000000000000     
     9.8694509999999998    0.0000000000000000    0.0000000000000000
     0.0000000000000000    8.5490480000000009    0.0000000000000000
     0.0000000000000000    0.0000000000000000   20.0000000000000000
    28     3     1
Selective dynamics
Direct
  0.0558445196524214  0.0916698547064050  0.0856417457882230   T   T   T
  0.9312033047081868  0.1729923783904828  0.0867670213723473   T   T   T
  0.0567339431069040  0.9244376449109351  0.0864538094093429   T   T   T
  0.9306208857348793  0.3402078273554642  0.0898406942465848   T   T   T
  0.0566255726715331  0.5901693178968539  0.0873512952422940   T   T   T
  0.9319830083367265  0.6727997319460409  0.0915223067126470   T   T   T
  0.0573001598982362  0.4230626250796367  0.0879800179097589   T   T   T
  0.9318315698376591  0.8393954568309390  0.0896398164955246   T   T   T
  0.3053514490866233  0.0891277722343461  0.0880413093302579   T   T   T
  0.1818709686277158  0.1738410523865810  0.0865354616934890   T   T   T
  0.1840493821798667  0.3413623906856420  0.0878070193374867   T   T   T
  0.3053847092870499  0.5938590470750170  0.0930144040244865   T   T   T
  0.1807582887505105  0.6751233544956257  0.0878193333112014   T   T   T
  0.3103635423498299  0.4261903594570093  0.0917023318504991   T   T   T
  0.1801811220240552  0.8417043632593395  0.0876291413295213   T   T   T
  0.5558536670025299  0.0852787541814067  0.0933464179149115   T   T   T
  0.4309147713551448  0.1694813431764902  0.0910244985055512   T   T   T
  0.5538084594641915  0.9202356849926518  0.0984158197473028   T   T   T
  0.4340308468698336  0.3352688700761092  0.0948603337685795   T   T   T
  0.4258305270684488  0.8404162397018630  0.0968339457398881   T   T   T
  0.8066216120407675  0.0881287790784579  0.0885062621500727   T   T   T
  0.6813124528587434  0.1686235952132867  0.0920406604311360   T   T   T
  0.8064956251689738  0.9221800943050701  0.0917471135942845   T   T   T
  0.6801974660825192  0.3341129166975920  0.0977898779897137   T   T   T
  0.8087472624090674  0.5897745018029631  0.1032054930448769   T   T   T
  0.6938490450338322  0.6798320920389864  0.1216047458145184   T   T   T
  0.8053977704475810  0.4218005650206579  0.0978351583697976   T   T   T
  0.6824310597014441  0.8392684322711528  0.1032208518897519   T   T   T
  0.4205504379769905  0.6832123845656398  0.1028037474208831   T   T   T
  0.5575775474581764  0.4079543963015422  0.1040543262501588   T   T   T
  0.3045562514723679  0.9252173116048088  0.0894311584921006   T   T   T
  0.5513617713371962  0.5835168622610140  0.1712088808228431   T   T   T
 
  0.00000000E+00  0.00000000E+00  0.00000000E+00
  0.00000000E+00  0.00000000E+00  0.00000000E+00
  0.00000000E+00  0.00000000E+00  0.00000000E+00
  0.00000000E+00  0.00000000E+00  0.00000000E+00
  0.00000000E+00  0.00000000E+00  0.00000000E+00
  0.00000000E+00  0.00000000E+00  0.00000000E+00
  0.00000000E+00  0.00000000E+00  0.00000000E+00
  0.00000000E+00  0.00000000E+00  0.00000000E+00
  0.00000000E+00  0.00000000E+00  0.00000000E+00
  0.00000000E+00  0.00000000E+00  0.00000000E+00
  0.00000000E+00  0.00000000E+00  0.00000000E+00
  0.00000000E+00  0.00000000E+00  0.00000000E+00
  0.00000000E+00  0.00000000E+00  0.00000000E+00
  0.00000000E+00  0.00000000E+00  0.00000000E+00
  0.00000000E+00  0.00000000E+00  0.00000000E+00
  0.00000000E+00  0.00000000E+00  0.00000000E+00
  0.00000000E+00  0.00000000E+00  0.00000000E+00
  0.00000000E+00  0.00000000E+00  0.00000000E+00
  0.00000000E+00  0.00000000E+00  0.00000000E+00
  0.00000000E+00  0.00000000E+00  0.00000000E+00
  0.00000000E+00  0.00000000E+00  0.00000000E+00
  0.00000000E+00  0.00000000E+00  0.00000000E+00
  0.00000000E+00  0.00000000E+00  0.00000000E+00
  0.00000000E+00  0.00000000E+00  0.00000000E+00
  0.00000000E+00  0.00000000E+00  0.00000000E+00
  0.00000000E+00  0.00000000E+00  0.00000000E+00
  0.00000000E+00  0.00000000E+00  0.00000000E+00
  0.00000000E+00  0.00000000E+00  0.00000000E+00
  0.00000000E+00  0.00000000E+00  0.00000000E+00
  0.00000000E+00  0.00000000E+00  0.00000000E+00
  0.00000000E+00  0.00000000E+00  0.00000000E+00
  0.00000000E+00  0.00000000E+00  0.00000000E+00
