Title                                   
   1.00000000000000     
     4.9440799999999996    0.0000000000000000    0.0000000000000000
     0.0000000000000000   17.1295089999999988    0.0000000000000000
     0.0000000000000000    0.0000000000000000   20.0000000000000000
    26     4     1
Selective dynamics
Direct
  0.0031916594923665  0.1060709512912741  0.2962829993176290   T   T   T
  0.2538247549589975  0.1486706840322538  0.2977150023562710   T   T   T
  0.2561821701098475  0.2336092895593857  0.2991846382204600   T   T   T
  0.0018858132737611  0.2729519592069558  0.2942341654442079   T   T   T
 -0.0059199944883673  0.6025576376122062  0.2962978526081521   T   T   T
  0.2472201579840001  0.7262797124299080  0.2975516972048119   T   T   T
  0.0001515747513989  0.8529652541475934  0.2961396203208342   T   T   T
  0.2492581867100054  0.8952310462629891  0.2965599304529225   T   T   T
  0.2506386203007792  0.9794548869166273  0.2966825001902050   T   T   T
 -0.0015038115258434  0.7682969133691765  0.2962735525880799   T   T   T
  0.5018442296756728  0.1056267306179213  0.2976208178788369   T   T   T
  0.7520129803833541  0.1473464756222245  0.2966376201532632   T   T   T
  0.7530005416669444  0.2313007551083318  0.2971545315955338   T   T   T
  0.5008467649859262  0.0214138827462593  0.2970370264527399   T   T   T
  0.7633168465775244  0.3938228313084842  0.3001001992745168   T   T   T
  0.7567821066956331  0.4805225347019509  0.3010474519642546   T   T   T
  0.5086578373027499  0.2754660217645357  0.3038094267733255   T   T   T
  0.4966824810878291  0.6002045938952075  0.3041203747316310   T   T   T
  0.7467542512311302  0.7276257127951783  0.2966000363301067   T   T   T
  0.4979204587924344  0.8530164212982818  0.2967392375387027   T   T   T
  0.7496701665476942  0.8948542047988478  0.2963138402725671   T   T   T
  0.7509653603476363  0.9793024212433992  0.2964290749277036   T   T   T
  0.4963676533597688  0.7685363214437829  0.2972222201327774   T   T   T
  0.7441369127802829  0.6442151101285428  0.2976670660775068   T   T   T
  0.0015198362037442  0.0216847274510703  0.2962846772288975   T   T   T
  0.5073890343964155  0.5179084958863303  0.3164279559348327   T   T   T
  0.9926299467900415  0.5235275088585019  0.2931315201432370   T   T   T
  0.5248566980041186  0.3561083748290537  0.3170634631840499   T   T   T
 -0.0064025681227873  0.3527304375008401  0.2861474758322586   T   T   T
  0.2465488653982086  0.6423347045497738  0.2997001679035051   T   T   T
  0.2195774643287347  0.4377053986231090  0.3308838569661308   T   T   T
 
  0.00000000E+00  0.00000000E+00  0.00000000E+00
  0.00000000E+00  0.00000000E+00  0.00000000E+00
  0.00000000E+00  0.00000000E+00  0.00000000E+00
  0.00000000E+00  0.00000000E+00  0.00000000E+00
  0.00000000E+00  0.00000000E+00  0.00000000E+00
  0.00000000E+00  0.00000000E+00  0.00000000E+00
  0.00000000E+00  0.00000000E+00  0.00000000E+00
  0.00000000E+00  0.00000000E+00  0.00000000E+00
  0.00000000E+00  0.00000000E+00  0.00000000E+00
  0.00000000E+00  0.00000000E+00  0.00000000E+00
  0.00000000E+00  0.00000000E+00  0.00000000E+00
  0.00000000E+00  0.00000000E+00  0.00000000E+00
  0.00000000E+00  0.00000000E+00  0.00000000E+00
  0.00000000E+00  0.00000000E+00  0.00000000E+00
  0.00000000E+00  0.00000000E+00  0.00000000E+00
  0.00000000E+00  0.00000000E+00  0.00000000E+00
  0.00000000E+00  0.00000000E+00  0.00000000E+00
  0.00000000E+00  0.00000000E+00  0.00000000E+00
  0.00000000E+00  0.00000000E+00  0.00000000E+00
  0.00000000E+00  0.00000000E+00  0.00000000E+00
  0.00000000E+00  0.00000000E+00  0.00000000E+00
  0.00000000E+00  0.00000000E+00  0.00000000E+00
  0.00000000E+00  0.00000000E+00  0.00000000E+00
  0.00000000E+00  0.00000000E+00  0.00000000E+00
  0.00000000E+00  0.00000000E+00  0.00000000E+00
  0.00000000E+00  0.00000000E+00  0.00000000E+00
  0.00000000E+00  0.00000000E+00  0.00000000E+00
  0.00000000E+00  0.00000000E+00  0.00000000E+00
  0.00000000E+00  0.00000000E+00  0.00000000E+00
  0.00000000E+00  0.00000000E+00  0.00000000E+00
  0.00000000E+00  0.00000000E+00  0.00000000E+00
