Title                                   
   1.00000000000000     
     9.8694509999999998    0.0000000000000000    0.0000000000000000
     0.0000000000000000    8.5490480000000009    0.0000000000000000
     0.0000000000000000    0.0000000000000000   20.0000000000000000
    26     5     1
Selective dynamics
Direct
  0.0562999715813814  0.0922789920666905  0.0837502908933950   T   T   T
  0.9309888941131601  0.1745065678774351  0.0852462954291148   T   T   T
  0.0575835936258080  0.9249858287643677  0.0833608637301138   T   T   T
  0.9296705035329880  0.3424860668902487  0.0887188218769340   T   T   T
  0.0572057181102951  0.5910898368860309  0.0853463739629827   T   T   T
  0.9327112586223090  0.6741291335228761  0.0876648592904175   T   T   T
  0.0568463474309565  0.4236389477456044  0.0872142466829933   T   T   T
  0.9329867644537688  0.8407594847916806  0.0855613876072162   T   T   T
  0.3062473941233462  0.0883669159255396  0.0884225704584127   T   T   T
  0.1831812922471902  0.1739121403321435  0.0864605970211459   T   T   T
  0.1837329536917540  0.3411774730396417  0.0892460101866666   T   T   T
  0.3045524956549610  0.5920994353592113  0.0993781509114538   T   T   T
  0.1817559371315799  0.6752437973765125  0.0875096139639017   T   T   T
  0.3100326059877223  0.4238219970847912  0.0981111892202120   T   T   T
  0.1811807045817611  0.8415405265125878  0.0858727577119453   T   T   T
  0.5561108582614690  0.0831796232543245  0.0946361216935902   T   T   T
  0.5546102150512465  0.9182488594144358  0.1005057402766794   T   T   T
  0.4325262458361092  0.3309724484672750  0.1028537782986010   T   T   T
  0.4255936993086075  0.8390910121961855  0.1024634062460055   T   T   T
  0.8061282205373531  0.0891688409766156  0.0857077195870030   T   T   T
  0.6795732681951273  0.1689652327199123  0.0910602969936807   T   T   T
  0.8074951218770615  0.9235117042426659  0.0875825527370793   T   T   T
  0.6795899453949971  0.3332097956524046  0.1003530999048651   T   T   T
  0.8086566628308918  0.5940911638288011  0.0987878198549899   T   T   T
  0.8023616582345531  0.4245044936210953  0.0970252541306212   T   T   T
  0.6853569879819125  0.8393513486419220  0.0994832183927700   T   T   T
  0.4140396198218330  0.6855941832887346  0.1183590188052080   T   T   T
  0.5545194248055221  0.3971096981872626  0.1183134681078396   T   T   T
  0.6959771950381906  0.6830230804523469  0.1149637563889629   T   T   T
  0.3059426150730480  0.9252528055790854  0.0888098286713924   T   T   T
  0.4294628593915815  0.1664168376352118  0.0936939805597460   T   T   T
  0.5567179674715199  0.5885177276663625  0.1692119104040764   T   T   T
 
  0.00000000E+00  0.00000000E+00  0.00000000E+00
  0.00000000E+00  0.00000000E+00  0.00000000E+00
  0.00000000E+00  0.00000000E+00  0.00000000E+00
  0.00000000E+00  0.00000000E+00  0.00000000E+00
  0.00000000E+00  0.00000000E+00  0.00000000E+00
  0.00000000E+00  0.00000000E+00  0.00000000E+00
  0.00000000E+00  0.00000000E+00  0.00000000E+00
  0.00000000E+00  0.00000000E+00  0.00000000E+00
  0.00000000E+00  0.00000000E+00  0.00000000E+00
  0.00000000E+00  0.00000000E+00  0.00000000E+00
  0.00000000E+00  0.00000000E+00  0.00000000E+00
  0.00000000E+00  0.00000000E+00  0.00000000E+00
  0.00000000E+00  0.00000000E+00  0.00000000E+00
  0.00000000E+00  0.00000000E+00  0.00000000E+00
  0.00000000E+00  0.00000000E+00  0.00000000E+00
  0.00000000E+00  0.00000000E+00  0.00000000E+00
  0.00000000E+00  0.00000000E+00  0.00000000E+00
  0.00000000E+00  0.00000000E+00  0.00000000E+00
  0.00000000E+00  0.00000000E+00  0.00000000E+00
  0.00000000E+00  0.00000000E+00  0.00000000E+00
  0.00000000E+00  0.00000000E+00  0.00000000E+00
  0.00000000E+00  0.00000000E+00  0.00000000E+00
  0.00000000E+00  0.00000000E+00  0.00000000E+00
  0.00000000E+00  0.00000000E+00  0.00000000E+00
  0.00000000E+00  0.00000000E+00  0.00000000E+00
  0.00000000E+00  0.00000000E+00  0.00000000E+00
  0.00000000E+00  0.00000000E+00  0.00000000E+00
  0.00000000E+00  0.00000000E+00  0.00000000E+00
  0.00000000E+00  0.00000000E+00  0.00000000E+00
  0.00000000E+00  0.00000000E+00  0.00000000E+00
  0.00000000E+00  0.00000000E+00  0.00000000E+00
  0.00000000E+00  0.00000000E+00  0.00000000E+00
