Title                                   
   1.00000000000000     
     4.9440799999999996    0.0000000000000000    0.0000000000000000
     0.0000000000000000   17.1295089999999988    0.0000000000000000
     0.0000000000000000    0.0000000000000000   20.0000000000000000
    27     3     1
Selective dynamics
Direct
  0.0021112136769672  0.1058623527750387  0.2958884652743012   T   T   T
  0.2510963494679569  0.1487026204709564  0.2967044179405894   T   T   T
  0.2518795616185365  0.2333689012270575  0.3003373495485364   T   T   T
  0.0019199880696763  0.2753517191880437  0.3056359090843835   T   T   T
 -0.0083686844643889  0.5992921764636893  0.3042877850984906   T   T   T
  0.2434119016295866  0.7267917246508555  0.2956344913457045   T   T   T
 -0.0026949196629920  0.8536077616192739  0.2944315839505245   T   T   T
  0.2480147358246161  0.8955577607800638  0.2941341740304354   T   T   T
  0.2496196075019474  0.9796773234407347  0.2943181717635808   T   T   T
 -0.0042991993482190  0.7695512216936027  0.2952652722333636   T   T   T
  0.5009047005374506  0.1063908724217580  0.2947331518722294   T   T   T
  0.7530466591007338  0.1478098810700083  0.2955029550235811   T   T   T
  0.7554907165200290  0.2317736647366568  0.2977361511427693   T   T   T
  0.4995169354381660  0.0221098614488524  0.2940870073126284   T   T   T
  0.7530944332367505  0.3940059429425952  0.3049391140754066   T   T   T
  0.7461737122836115  0.4785443865418539  0.3041931978523458   T   T   T
  0.5059139280646939  0.2728200458780894  0.2971848976905391   T   T   T
  0.4921241591004581  0.6023648871011112  0.2937971876234759   T   T   T
  0.7466385274002090  0.7271048345610505  0.2944747303021496   T   T   T
  0.4971276004702393  0.8531076436599313  0.2936766660906648   T   T   T
  0.7474846723659730  0.8955950832762880  0.2938864246750481   T   T   T
  0.7490755334754580  0.9798068199684122  0.2940622006722687   T   T   T
  0.4953871866201512  0.7688064260277887  0.2938096528616974   T   T   T
  0.7451550930451611  0.6429115784400837  0.2956757785262501   T   T   T
  0.2407895661331442  0.6425398444065701  0.2984740783568219   T   T   T
  0.0001673064634044  0.0217542772066491  0.2947212071507390   T   T   T
  0.5018775319948886  0.5200400976497549  0.2927564924731870   T   T   T
  0.9884142182469979  0.5185571022335040  0.3203477945785143   T   T   T
  0.5152980530392296  0.3531292213328549  0.2966763462981743   T   T   T
 -0.0079573870948341  0.3562151244571237  0.3190196755053072   T   T   T
  0.3015932992443995  0.4381908423297406  0.3386676696462448   T   T   T
 
  0.00000000E+00  0.00000000E+00  0.00000000E+00
  0.00000000E+00  0.00000000E+00  0.00000000E+00
  0.00000000E+00  0.00000000E+00  0.00000000E+00
  0.00000000E+00  0.00000000E+00  0.00000000E+00
  0.00000000E+00  0.00000000E+00  0.00000000E+00
  0.00000000E+00  0.00000000E+00  0.00000000E+00
  0.00000000E+00  0.00000000E+00  0.00000000E+00
  0.00000000E+00  0.00000000E+00  0.00000000E+00
  0.00000000E+00  0.00000000E+00  0.00000000E+00
  0.00000000E+00  0.00000000E+00  0.00000000E+00
  0.00000000E+00  0.00000000E+00  0.00000000E+00
  0.00000000E+00  0.00000000E+00  0.00000000E+00
  0.00000000E+00  0.00000000E+00  0.00000000E+00
  0.00000000E+00  0.00000000E+00  0.00000000E+00
  0.00000000E+00  0.00000000E+00  0.00000000E+00
  0.00000000E+00  0.00000000E+00  0.00000000E+00
  0.00000000E+00  0.00000000E+00  0.00000000E+00
  0.00000000E+00  0.00000000E+00  0.00000000E+00
  0.00000000E+00  0.00000000E+00  0.00000000E+00
  0.00000000E+00  0.00000000E+00  0.00000000E+00
  0.00000000E+00  0.00000000E+00  0.00000000E+00
  0.00000000E+00  0.00000000E+00  0.00000000E+00
  0.00000000E+00  0.00000000E+00  0.00000000E+00
  0.00000000E+00  0.00000000E+00  0.00000000E+00
  0.00000000E+00  0.00000000E+00  0.00000000E+00
  0.00000000E+00  0.00000000E+00  0.00000000E+00
  0.00000000E+00  0.00000000E+00  0.00000000E+00
  0.00000000E+00  0.00000000E+00  0.00000000E+00
  0.00000000E+00  0.00000000E+00  0.00000000E+00
  0.00000000E+00  0.00000000E+00  0.00000000E+00
  0.00000000E+00  0.00000000E+00  0.00000000E+00
