Title                                   
   1.00000000000000     
     9.8694509999999998    0.0000000000000000    0.0000000000000000
     0.0000000000000000    8.5490480000000009    0.0000000000000000
     0.0000000000000000    0.0000000000000000   20.0000000000000000
    25     6     1
Selective dynamics
Direct
  0.0562844949911699  0.0930348647130878  0.0916341008702605   T   T   T
  0.9299559941195176  0.1756195832720951  0.0919747995269921   T   T   T
  0.0563139258042092  0.9245041566570533  0.0918068713144231   T   T   T
  0.9293069628568984  0.3419123057592769  0.0925906080391173   T   T   T
  0.0562898827810914  0.5903570412583198  0.0912847064065801   T   T   T
  0.9316790062827333  0.6720570234272329  0.0925359146404115   T   T   T
  0.0562808134784177  0.4235710948644067  0.0920481796502531   T   T   T
  0.9313776755224630  0.8398502246276935  0.0925480363664479   T   T   T
  0.3057426283960280  0.0891198544167094  0.0914300105940647   T   T   T
  0.1826196531762331  0.1756100772238559  0.0915532366398929   T   T   T
  0.3064284543583113  0.9234630989963102  0.0923804842107974   T   T   T
  0.1832843679876030  0.3419202843732205  0.0920197914061873   T   T   T
  0.3079434563335007  0.5937878380923406  0.0946139521299407   T   T   T
  0.1809580297699731  0.6720313126482674  0.0921722403322001   T   T   T
  0.1812467362499575  0.8398197580940897  0.0921811096214342   T   T   T
  0.5562893544623362  0.0843694350336875  0.0939037340181225   T   T   T
  0.4316608046310541  0.1693955647014840  0.0931590691063119   T   T   T
  0.4358829134829451  0.3359421207922800  0.0953034343899155   T   T   T
  0.4283295436649764  0.8354429355801206  0.0952168008713206   T   T   T
  0.8068314886110782  0.0891742664658221  0.0920441601480784   T   T   T
  0.6808953733319593  0.1694596156138509  0.0936939661057618   T   T   T
  0.8062142440832295  0.9235429934652868  0.0929445417159125   T   T   T
  0.6765725568276653  0.3359910795901066  0.0960200476225492   T   T   T
  0.8046636505455226  0.5938134695714861  0.0960288223156763   T   T   T
  0.6842973559231227  0.8355965669041719  0.0962202445107610   T   T   T
  0.4249197064034924  0.6768376327429938  0.0992765990402051   T   T   T
  0.5561787219710804  0.4126137187391803  0.1002263542003936   T   T   T
  0.6882322268016114  0.6772571954645593  0.1019272795974814   T   T   T
  0.5563283190069820  0.9156723061217068  0.0941616769792603   T   T   T
  0.3114464830534091  0.4249653176866579  0.0926115772439438   T   T   T
  0.8010777327243092  0.4250183696207072  0.0938182951664664   T   T   T
  0.5541064423671261  0.5884948934819388  0.1763443552188533   T   T   T
 
  0.00000000E+00  0.00000000E+00  0.00000000E+00
  0.00000000E+00  0.00000000E+00  0.00000000E+00
  0.00000000E+00  0.00000000E+00  0.00000000E+00
  0.00000000E+00  0.00000000E+00  0.00000000E+00
  0.00000000E+00  0.00000000E+00  0.00000000E+00
  0.00000000E+00  0.00000000E+00  0.00000000E+00
  0.00000000E+00  0.00000000E+00  0.00000000E+00
  0.00000000E+00  0.00000000E+00  0.00000000E+00
  0.00000000E+00  0.00000000E+00  0.00000000E+00
  0.00000000E+00  0.00000000E+00  0.00000000E+00
  0.00000000E+00  0.00000000E+00  0.00000000E+00
  0.00000000E+00  0.00000000E+00  0.00000000E+00
  0.00000000E+00  0.00000000E+00  0.00000000E+00
  0.00000000E+00  0.00000000E+00  0.00000000E+00
  0.00000000E+00  0.00000000E+00  0.00000000E+00
  0.00000000E+00  0.00000000E+00  0.00000000E+00
  0.00000000E+00  0.00000000E+00  0.00000000E+00
  0.00000000E+00  0.00000000E+00  0.00000000E+00
  0.00000000E+00  0.00000000E+00  0.00000000E+00
  0.00000000E+00  0.00000000E+00  0.00000000E+00
  0.00000000E+00  0.00000000E+00  0.00000000E+00
  0.00000000E+00  0.00000000E+00  0.00000000E+00
  0.00000000E+00  0.00000000E+00  0.00000000E+00
  0.00000000E+00  0.00000000E+00  0.00000000E+00
  0.00000000E+00  0.00000000E+00  0.00000000E+00
  0.00000000E+00  0.00000000E+00  0.00000000E+00
  0.00000000E+00  0.00000000E+00  0.00000000E+00
  0.00000000E+00  0.00000000E+00  0.00000000E+00
  0.00000000E+00  0.00000000E+00  0.00000000E+00
  0.00000000E+00  0.00000000E+00  0.00000000E+00
  0.00000000E+00  0.00000000E+00  0.00000000E+00
  0.00000000E+00  0.00000000E+00  0.00000000E+00
