Title                                   
   1.00000000000000     
     8.5490480000000009    0.0000000000000000    0.0000000000000000
     0.0000000000000000    8.5490480000000009    0.0000000000000000
     0.0000000000000000    0.0000000000000000   20.0000000000000000
    20     4     1
Selective dynamics
Direct
  0.9084799830138813  0.2054531960942508  0.0954687377943797   T   T   T
  0.9070508051451284  0.5018092614766344  0.0953168685416772   T   T   T
  0.9085028918675331  0.7981370297682016  0.0954830806208793   T   T   T
  0.1966713459660599  0.0863003697586885  0.0954987567952895   T   T   T
  0.0775284094942848  0.2054325132638627  0.0954796542555614   T   T   T
  0.1966942876583084  0.9172504022256397  0.0955004934914547   T   T   T
  0.1585860457226133  0.6494343795651099  0.0953423328809576   T   T   T
  0.0790095482831466  0.5017839189611650  0.0953352768671225   T   T   T
  0.1585673570285410  0.3541130361250611  0.0953321953320555   T   T   T
  0.0775593941892435  0.7981109854943833  0.0954825856355946   T   T   T
  0.4929913679263981  0.0877714380302231  0.0953589394329323   T   T   T
  0.3453496481630448  0.1673542006095451  0.0953581301206285   T   T   T
  0.4929889181396815  0.9158294861805267  0.0953679124220340   T   T   T
  0.3453706283179355  0.8362120144551202  0.0953648708230997   T   T   T
  0.7893297463961382  0.0863284067049091  0.0954796873868235   T   T   T
  0.6406374076504886  0.1673818739294533  0.0953283491745921   T   T   T
  0.7893456911515563  0.9172748412520630  0.0954862885980897   T   T   T
  0.8274693002619973  0.6494644436821562  0.0953230517396351   T   T   T
  0.8274631098430493  0.3541490859967077  0.0953028558806341   T   T   T
  0.6406443376123290  0.8362369046124001  0.0953396967272845   T   T   T
  0.3203877865533725  0.3291309442794775  0.0951632281382401   T   T   T
  0.3204021548123064  0.6744209570701235  0.0951728231398159   T   T   T
  0.6656636558354669  0.3291566832058614  0.0951316673458041   T   T   T
  0.6656671068319461  0.6744497633552190  0.0951486918449409   T   T   T
  0.4930510721355416  0.5018038639032304  0.0951388250104510   T   T   T
 
  0.00000000E+00  0.00000000E+00  0.00000000E+00
  0.00000000E+00  0.00000000E+00  0.00000000E+00
  0.00000000E+00  0.00000000E+00  0.00000000E+00
  0.00000000E+00  0.00000000E+00  0.00000000E+00
  0.00000000E+00  0.00000000E+00  0.00000000E+00
  0.00000000E+00  0.00000000E+00  0.00000000E+00
  0.00000000E+00  0.00000000E+00  0.00000000E+00
  0.00000000E+00  0.00000000E+00  0.00000000E+00
  0.00000000E+00  0.00000000E+00  0.00000000E+00
  0.00000000E+00  0.00000000E+00  0.00000000E+00
  0.00000000E+00  0.00000000E+00  0.00000000E+00
  0.00000000E+00  0.00000000E+00  0.00000000E+00
  0.00000000E+00  0.00000000E+00  0.00000000E+00
  0.00000000E+00  0.00000000E+00  0.00000000E+00
  0.00000000E+00  0.00000000E+00  0.00000000E+00
  0.00000000E+00  0.00000000E+00  0.00000000E+00
  0.00000000E+00  0.00000000E+00  0.00000000E+00
  0.00000000E+00  0.00000000E+00  0.00000000E+00
  0.00000000E+00  0.00000000E+00  0.00000000E+00
  0.00000000E+00  0.00000000E+00  0.00000000E+00
  0.00000000E+00  0.00000000E+00  0.00000000E+00
  0.00000000E+00  0.00000000E+00  0.00000000E+00
  0.00000000E+00  0.00000000E+00  0.00000000E+00
  0.00000000E+00  0.00000000E+00  0.00000000E+00
  0.00000000E+00  0.00000000E+00  0.00000000E+00
