Title                                   
   1.00000000000000     
     4.9440799999999996    0.0000000000000000    0.0000000000000000
     0.0000000000000000   17.1295089999999988    0.0000000000000000
     0.0000000000000000    0.0000000000000000   20.0000000000000000
    31     1
Selective dynamics
Direct
 -0.0000047875266234  0.1040931273178671  0.2799996795660376   T   T   T
  0.2499067701301559  0.1455207365951973  0.2847536097797046   T   T   T
  0.2498978463589131  0.2277709741737486  0.2973193934808808   T   T   T
 -0.0014149682934819  0.3497557045542873  0.3216720913585380   T   T   T
 -0.0012941798772072  0.2682831109142770  0.3039040270672655   T   T   T
 -0.0038181524795187  0.6077636613899796  0.3156223492072303   T   T   T
  0.2499017409769983  0.7296765966262705  0.2932317714621083   T   T   T
  0.0003203415019863  0.8543435291838160  0.2783139522902266   T   T   T
  0.2499116123729737  0.8960908839137762  0.2758432544135186   T   T   T
  0.2499212655978642  0.9793062370924663  0.2740018806805060   T   T   T
  0.0005665819905087  0.7716254506211520  0.2865764357988660   T   T   T
  0.4998278904961220  0.1040925975459217  0.2799985693738605   T   T   T
  0.7499097903024380  0.1453092175812300  0.2840233738748562   T   T   T
  0.7499037367416995  0.2275962091849792  0.2956476660839167   T   T   T
  0.4999564305138160  0.0209393330266030  0.2747626376655079   T   T   T
  0.5012174828572059  0.3497550652742029  0.3216761740791607   T   T   T
  0.7498981004646010  0.3928178590407471  0.3250565194232494   T   T   T
  0.7498864637956860  0.4776979184681488  0.3281063967146153   T   T   T
  0.5010827160016791  0.2682813190182756  0.3039034372113549   T   T   T
  0.5035941428358610  0.6077630964782167  0.3156151236651181   T   T   T
  0.7498981369673923  0.7310743221119810  0.2915307370382666   T   T   T
  0.4994853619325100  0.8543437312095173  0.2783159196429802   T   T   T
  0.7499080443796015  0.8958155396505327  0.2756289221071556   T   T   T
  0.7499180370877162  0.9792296010831960  0.2738794473013207   T   T   T
  0.4992250486567065  0.7716254545816100  0.2865764761790334   T   T   T
  0.7498898649032255  0.6499862136670956  0.3058720457681328   T   T   T
  0.2498917998466916  0.6481679297598301  0.3082743741003801   T   T   T
 -0.0001129360878106  0.0209387007923855  0.2747633277663107   T   T   T
  0.5228392587269010  0.5280081666569419  0.3321005617946989   T   T   T
  0.9769149407683118  0.5280134357618006  0.3321156775023369   T   T   T
  0.2498995900459233  0.3827870933478902  0.3388558839101750   T   T   T
  0.2498950280111593  0.4800781833760490  0.3846232836926364   T   T   T
 
  0.00000000E+00  0.00000000E+00  0.00000000E+00
  0.00000000E+00  0.00000000E+00  0.00000000E+00
  0.00000000E+00  0.00000000E+00  0.00000000E+00
  0.00000000E+00  0.00000000E+00  0.00000000E+00
  0.00000000E+00  0.00000000E+00  0.00000000E+00
  0.00000000E+00  0.00000000E+00  0.00000000E+00
  0.00000000E+00  0.00000000E+00  0.00000000E+00
  0.00000000E+00  0.00000000E+00  0.00000000E+00
  0.00000000E+00  0.00000000E+00  0.00000000E+00
  0.00000000E+00  0.00000000E+00  0.00000000E+00
  0.00000000E+00  0.00000000E+00  0.00000000E+00
  0.00000000E+00  0.00000000E+00  0.00000000E+00
  0.00000000E+00  0.00000000E+00  0.00000000E+00
  0.00000000E+00  0.00000000E+00  0.00000000E+00
  0.00000000E+00  0.00000000E+00  0.00000000E+00
  0.00000000E+00  0.00000000E+00  0.00000000E+00
  0.00000000E+00  0.00000000E+00  0.00000000E+00
  0.00000000E+00  0.00000000E+00  0.00000000E+00
  0.00000000E+00  0.00000000E+00  0.00000000E+00
  0.00000000E+00  0.00000000E+00  0.00000000E+00
  0.00000000E+00  0.00000000E+00  0.00000000E+00
  0.00000000E+00  0.00000000E+00  0.00000000E+00
  0.00000000E+00  0.00000000E+00  0.00000000E+00
  0.00000000E+00  0.00000000E+00  0.00000000E+00
  0.00000000E+00  0.00000000E+00  0.00000000E+00
  0.00000000E+00  0.00000000E+00  0.00000000E+00
  0.00000000E+00  0.00000000E+00  0.00000000E+00
  0.00000000E+00  0.00000000E+00  0.00000000E+00
  0.00000000E+00  0.00000000E+00  0.00000000E+00
  0.00000000E+00  0.00000000E+00  0.00000000E+00
  0.00000000E+00  0.00000000E+00  0.00000000E+00
  0.00000000E+00  0.00000000E+00  0.00000000E+00
