Title                                   
   1.00000000000000     
     4.9440799999999996    0.0000000000000000    0.0000000000000000
     0.0000000000000000   17.1295089999999988    0.0000000000000000
     0.0000000000000000    0.0000000000000000   20.0000000000000000
    30     1
Selective dynamics
Direct
 -0.0007597106935937  0.1048092467035319  0.2938275326446901   T   T   T
  0.2491459931796688  0.1469309444118004  0.2944783573734867   T   T   T
  0.2487093955176356  0.2300266548407905  0.2980204551385957   T   T   T
  0.0016539037910440  0.2736902562373629  0.3022068702454489   T   T   T
  0.0015714508411912  0.6012590237346616  0.3023812652880133   T   T   T
  0.2491127961572258  0.7279793049354003  0.2946046992910493   T   T   T
 -0.0006597398466749  0.8536509501562511  0.2932238491581308   T   T   T
  0.2497701358304727  0.8956570091111031  0.2929815426469829   T   T   T
  0.2497550127075799  0.9792325862611844  0.2928848713863817   T   T   T
 -0.0007759689912935  0.7701018572559866  0.2939656038764755   T   T   T
  0.5000341791021614  0.1051370055969677  0.2931953764425125   T   T   T
  0.7501908835989010  0.1471977932093514  0.2940163368036595   T   T   T
  0.7507050273693618  0.2311436339735188  0.2968029258967329   T   T   T
  0.4998070773765081  0.0214092522825107  0.2927291550998675   T   T   T
  0.7468848227455425  0.3949168078050149  0.3086127194828361   T   T   T
  0.7468599785851554  0.4800163119105773  0.3086110209982085   T   T   T
  0.4976056752710393  0.2718337279163769  0.2981417939578935   T   T   T
  0.4975984624277490  0.6031312474112627  0.2983499312493470   T   T   T
  0.7501851412665890  0.7277282394480796  0.2941937953666749   T   T   T
  0.4998238924455030  0.8534784395484871  0.2928693059077848   T   T   T
  0.7494243884875489  0.8955783026125033  0.2929114630432048   T   T   T
  0.7493987446424444  0.9793062530286284  0.2928009417008128   T   T   T
  0.5000208508330247  0.7697712174642994  0.2933247730836462   T   T   T
  0.7506531873284240  0.6438197992346945  0.2970257254703987   T   T   T
  0.2486584346698886  0.6449037774970879  0.2982294478365137   T   T   T
 -0.0006787451639774  0.0212434307084363  0.2930657281168563   T   T   T
  0.5016406649761678  0.5206729581714776  0.3042620990550539   T   T   T
  0.9980369607049597  0.5185416523564580  0.3134474005271936   T   T   T
  0.5016271192786510  0.3542810870952594  0.3042504318783374   T   T   T
 -0.0019013411668841  0.3563853033328305  0.3134224126012924   T   T   T
  0.2759083267279871  0.4375079257481020  0.3462221684318681   T   T   T
 
  0.00000000E+00  0.00000000E+00  0.00000000E+00
  0.00000000E+00  0.00000000E+00  0.00000000E+00
  0.00000000E+00  0.00000000E+00  0.00000000E+00
  0.00000000E+00  0.00000000E+00  0.00000000E+00
  0.00000000E+00  0.00000000E+00  0.00000000E+00
  0.00000000E+00  0.00000000E+00  0.00000000E+00
  0.00000000E+00  0.00000000E+00  0.00000000E+00
  0.00000000E+00  0.00000000E+00  0.00000000E+00
  0.00000000E+00  0.00000000E+00  0.00000000E+00
  0.00000000E+00  0.00000000E+00  0.00000000E+00
  0.00000000E+00  0.00000000E+00  0.00000000E+00
  0.00000000E+00  0.00000000E+00  0.00000000E+00
  0.00000000E+00  0.00000000E+00  0.00000000E+00
  0.00000000E+00  0.00000000E+00  0.00000000E+00
  0.00000000E+00  0.00000000E+00  0.00000000E+00
  0.00000000E+00  0.00000000E+00  0.00000000E+00
  0.00000000E+00  0.00000000E+00  0.00000000E+00
  0.00000000E+00  0.00000000E+00  0.00000000E+00
  0.00000000E+00  0.00000000E+00  0.00000000E+00
  0.00000000E+00  0.00000000E+00  0.00000000E+00
  0.00000000E+00  0.00000000E+00  0.00000000E+00
  0.00000000E+00  0.00000000E+00  0.00000000E+00
  0.00000000E+00  0.00000000E+00  0.00000000E+00
  0.00000000E+00  0.00000000E+00  0.00000000E+00
  0.00000000E+00  0.00000000E+00  0.00000000E+00
  0.00000000E+00  0.00000000E+00  0.00000000E+00
  0.00000000E+00  0.00000000E+00  0.00000000E+00
  0.00000000E+00  0.00000000E+00  0.00000000E+00
  0.00000000E+00  0.00000000E+00  0.00000000E+00
  0.00000000E+00  0.00000000E+00  0.00000000E+00
  0.00000000E+00  0.00000000E+00  0.00000000E+00
