Title                                   
   1.00000000000000     
     4.9440799999999996    0.0000000000000000    0.0000000000000000
     0.0000000000000000    8.5647549999999999    0.0000000000000000
     0.0000000000000000    0.0000000000000000   20.0000000000000000
    13     1     1
Selective dynamics
Direct
  0.2473381581710072  0.2070402743431344  0.0966235956680032   T   T   T
 -0.0052702770488177  0.2934502396470826  0.1005387946762632   T   T   T
  0.2560451667874706  0.0396052767357186  0.0967582038295464   T   T   T
  0.0093795585186052  0.9538340988055415  0.0947915987096933   T   T   T
  0.7476535252286149  0.2093210164941449  0.0937657582653325   T   T   T
  0.4930115725336384  0.2925037122987152  0.0927856395368041   T   T   T
  0.7576153093839906  0.0403649554850462  0.0938257063831011   T   T   T
  0.7489492424933636  0.7144027607780681  0.1006737891442883   T   T   T
  0.7372204654139460  0.5396432553500708  0.1024044731019429   T   T   T
  0.5107506420499694  0.9566994049964123  0.0985561309499249   T   T   T
  0.4975652503859601  0.4605242854611659  0.0926276476371249   T   T   T
 -0.0169729272321207  0.4575479173972150  0.1141797376337885   T   T   T
 -0.0028669694426776  0.7859639877481026  0.0951834564640065   T   T   T
  0.5194136161893619  0.7980453592071812  0.1079673008250807   T   T   T
  0.2501676665676881  0.6227344552524019  0.1272981671751029   T   T   T
 
  0.00000000E+00  0.00000000E+00  0.00000000E+00
  0.00000000E+00  0.00000000E+00  0.00000000E+00
  0.00000000E+00  0.00000000E+00  0.00000000E+00
  0.00000000E+00  0.00000000E+00  0.00000000E+00
  0.00000000E+00  0.00000000E+00  0.00000000E+00
  0.00000000E+00  0.00000000E+00  0.00000000E+00
  0.00000000E+00  0.00000000E+00  0.00000000E+00
  0.00000000E+00  0.00000000E+00  0.00000000E+00
  0.00000000E+00  0.00000000E+00  0.00000000E+00
  0.00000000E+00  0.00000000E+00  0.00000000E+00
  0.00000000E+00  0.00000000E+00  0.00000000E+00
  0.00000000E+00  0.00000000E+00  0.00000000E+00
  0.00000000E+00  0.00000000E+00  0.00000000E+00
  0.00000000E+00  0.00000000E+00  0.00000000E+00
  0.00000000E+00  0.00000000E+00  0.00000000E+00
