Title                                   
   1.00000000000000     
     8.5490480000000009    0.0000000000000000    0.0000000000000000
     0.0000000000000000    8.5490480000000009    0.0000000000000000
     0.0000000000000000    0.0000000000000000   20.0000000000000000
    20     4     1
Selective dynamics
Direct
  0.9089924096359764  0.2061987153328166  0.0940241452615951   T   T   T
  0.9113321703324410  0.8008452717627439  0.0942087347970094   T   T   T
  0.1965917314943262  0.0838156175977427  0.0942083521185084   T   T   T
  0.0759279576145398  0.2019579541076388  0.0940163032691869   T   T   T
  0.1541823993552352  0.6494189989263358  0.0963735540319409   T   T   T
  0.0724256875563770  0.5011873649852143  0.0962620576472677   T   T   T
  0.1528940156590631  0.3538652844480484  0.0965606858708241   T   T   T
  0.0791610712899176  0.7988948960008975  0.0940261270932639   T   T   T
  0.4949181311413001  0.0865255905235058  0.0970020444397681   T   T   T
  0.3451355023370328  0.1644153301454882  0.0969169169229796   T   T   T
  0.4945612544290888  0.9178304245611634  0.0968873621568729   T   T   T
  0.3456088666421636  0.8363273573243104  0.0967707156952377   T   T   T
  0.7889908610357798  0.0873765482793428  0.0949225169675186   T   T   T
  0.6427697084681295  0.1677341786656354  0.0970559659918191   T   T   T
  0.7898228123054251  0.9188405187367961  0.0949589383577325   T   T   T
  0.8300945851546808  0.6522733955749513  0.0958685554811520   T   T   T
  0.8286078112994119  0.3539111654805973  0.0955275705413618   T   T   T
  0.6435395583873147  0.8368100128290259  0.0969969629070635   T   T   T
  0.3202512823662037  0.3310538393839921  0.1003694157316653   T   T   T
  0.3213703158995458  0.6728583003531438  0.0994411326862077   T   T   T
  0.9052051689369728  0.5027596748984918  0.0956611384959982   T   T   T
  0.6678379580678582  0.3320484169224661  0.0986300462959396   T   T   T
  0.6696633629111738  0.6732138069081898  0.0988379933449449   T   T   T
  0.1972813606011221  0.9161435124038103  0.0939991694071065   T   T   T
  0.4882460170789132  0.4984838238476715  0.1341785944870084   T   T   T
 
  0.00000000E+00  0.00000000E+00  0.00000000E+00
  0.00000000E+00  0.00000000E+00  0.00000000E+00
  0.00000000E+00  0.00000000E+00  0.00000000E+00
  0.00000000E+00  0.00000000E+00  0.00000000E+00
  0.00000000E+00  0.00000000E+00  0.00000000E+00
  0.00000000E+00  0.00000000E+00  0.00000000E+00
  0.00000000E+00  0.00000000E+00  0.00000000E+00
  0.00000000E+00  0.00000000E+00  0.00000000E+00
  0.00000000E+00  0.00000000E+00  0.00000000E+00
  0.00000000E+00  0.00000000E+00  0.00000000E+00
  0.00000000E+00  0.00000000E+00  0.00000000E+00
  0.00000000E+00  0.00000000E+00  0.00000000E+00
  0.00000000E+00  0.00000000E+00  0.00000000E+00
  0.00000000E+00  0.00000000E+00  0.00000000E+00
  0.00000000E+00  0.00000000E+00  0.00000000E+00
  0.00000000E+00  0.00000000E+00  0.00000000E+00
  0.00000000E+00  0.00000000E+00  0.00000000E+00
  0.00000000E+00  0.00000000E+00  0.00000000E+00
  0.00000000E+00  0.00000000E+00  0.00000000E+00
  0.00000000E+00  0.00000000E+00  0.00000000E+00
  0.00000000E+00  0.00000000E+00  0.00000000E+00
  0.00000000E+00  0.00000000E+00  0.00000000E+00
  0.00000000E+00  0.00000000E+00  0.00000000E+00
  0.00000000E+00  0.00000000E+00  0.00000000E+00
  0.00000000E+00  0.00000000E+00  0.00000000E+00
