Title                                   
   1.00000000000000     
     4.9440799999999996    0.0000000000000000    0.0000000000000000
     0.0000000000000000    8.5647549999999999    0.0000000000000000
     0.0000000000000000    0.0000000000000000   20.0000000000000000
    12     2     1
Selective dynamics
Direct
  0.2500000000000000  0.2053438090124957  0.1003536512710952   T   T   T
 -0.0009104873655771  0.2911250591445415  0.1004064217594854   T   T   T
  0.2500000000000000  0.0378015251186551  0.1003403267745805   T   T   T
 -0.0046464783287074  0.9559130186210438  0.1004046041436550   T   T   T
  0.7500000000000000  0.2081844035684916  0.1002639129512653   T   T   T
  0.5009104873655774  0.2911250591445415  0.1004064217594854   T   T   T
  0.7500000000000000  0.0417432691010672  0.1002586321163619   T   T   T
  0.7500000000000000  0.7192289056340102  0.1006222935742024   T   T   T
  0.7500000000000000  0.5396673123375891  0.1005931329133615   T   T   T
  0.5046464783287076  0.9559130186210438  0.1004046041436550   T   T   T
  0.5080864610751585  0.4567298047729245  0.1007073350414693   T   T   T
 -0.0080864610751589  0.4567298047729245  0.1007073350414693   T   T   T
 -0.0167712740428422  0.7969029706708080  0.1006416664840513   T   T   T
  0.5167712740428425  0.7969029706708080  0.1006416664840513   T   T   T
  0.2500000000000000  0.6183700688090581  0.1012279955418146   T   T   T
 
  0.00000000E+00  0.00000000E+00  0.00000000E+00
  0.00000000E+00  0.00000000E+00  0.00000000E+00
  0.00000000E+00  0.00000000E+00  0.00000000E+00
  0.00000000E+00  0.00000000E+00  0.00000000E+00
  0.00000000E+00  0.00000000E+00  0.00000000E+00
  0.00000000E+00  0.00000000E+00  0.00000000E+00
  0.00000000E+00  0.00000000E+00  0.00000000E+00
  0.00000000E+00  0.00000000E+00  0.00000000E+00
  0.00000000E+00  0.00000000E+00  0.00000000E+00
  0.00000000E+00  0.00000000E+00  0.00000000E+00
  0.00000000E+00  0.00000000E+00  0.00000000E+00
  0.00000000E+00  0.00000000E+00  0.00000000E+00
  0.00000000E+00  0.00000000E+00  0.00000000E+00
  0.00000000E+00  0.00000000E+00  0.00000000E+00
  0.00000000E+00  0.00000000E+00  0.00000000E+00
