Title                                   
   1.00000000000000     
     9.8694509999999998    0.0000000000000000    0.0000000000000000
     0.0000000000000000    8.5490480000000009    0.0000000000000000
     0.0000000000000000    0.0000000000000000   20.0000000000000000
    26     4     1
Selective dynamics
Direct
  0.0557990844157582  0.0905575598306671  0.0898833230754664   T   T   T
  0.9305410541518665  0.1731679770630689  0.0905244303619869   T   T   T
  0.0578831317559413  0.9237520929472302  0.0899570333138219   T   T   T
  0.9326752266007169  0.3406841965353617  0.0893301998812908   T   T   T
  0.0573176261586191  0.5900573830688216  0.0866500523093357   T   T   T
  0.9336455369027090  0.6748089317992002  0.0895691430083038   T   T   T
  0.0573792293784325  0.4232161029303605  0.0869140707294418   T   T   T
  0.9326490822122997  0.8409843115398059  0.0911764753051564   T   T   T
  0.3068668566778001  0.0880879065743406  0.0954215024311979   T   T   T
  0.1808444993886140  0.1714664966836795  0.0911894076300869   T   T   T
  0.1811848943513599  0.3386503379842258  0.0897898573009794   T   T   T
  0.3038747362927097  0.5888719754960681  0.0939680959759312   T   T   T
  0.1814169245739055  0.6735041889428903  0.0885937175317753   T   T   T
  0.3043735124748216  0.4216193183923001  0.0961322447670516   T   T   T
  0.1817748949610433  0.8399965650420704  0.0901844759693313   T   T   T
  0.5548678687800732  0.0896002459975643  0.1030394209120315   T   T   T
  0.4287617234795357  0.1744015300376173  0.1026590648677060   T   T   T
  0.5546694336499505  0.9184503171126924  0.1025091225855946   T   T   T
  0.4285799634110768  0.8335663150108250  0.0998131455732610   T   T   T
  0.8045110189293616  0.0902304944322756  0.0945638037773921   T   T   T
  0.6804038734916769  0.1768759160438589  0.1005033185518093   T   T   T
  0.8058970851462938  0.9224598408761647  0.0950755551440439   T   T   T
  0.6850316171981810  0.3439646310870852  0.1036933714013687   T   T   T
  0.8108673725875113  0.5934531005442525  0.0958942619758771   T   T   T
  0.8091934553174365  0.4246813553082683  0.0949702907672571   T   T   T
  0.6831689615327876  0.8334792771245511  0.1014176624540000   T   T   T
  0.4236742246539239  0.3386379771538880  0.1091579543296481   T   T   T
  0.6902666657419388  0.6718690658913308  0.1062156528269835   T   T   T
  0.4233077865126483  0.6737760850759661  0.1023972124532838   T   T   T
  0.3074563869575936  0.9223019901517603  0.0940195248236428   T   T   T
  0.5542512723134215  0.5037015133218213  0.1357516079649796   T   T   T
 
  0.00000000E+00  0.00000000E+00  0.00000000E+00
  0.00000000E+00  0.00000000E+00  0.00000000E+00
  0.00000000E+00  0.00000000E+00  0.00000000E+00
  0.00000000E+00  0.00000000E+00  0.00000000E+00
  0.00000000E+00  0.00000000E+00  0.00000000E+00
  0.00000000E+00  0.00000000E+00  0.00000000E+00
  0.00000000E+00  0.00000000E+00  0.00000000E+00
  0.00000000E+00  0.00000000E+00  0.00000000E+00
  0.00000000E+00  0.00000000E+00  0.00000000E+00
  0.00000000E+00  0.00000000E+00  0.00000000E+00
  0.00000000E+00  0.00000000E+00  0.00000000E+00
  0.00000000E+00  0.00000000E+00  0.00000000E+00
  0.00000000E+00  0.00000000E+00  0.00000000E+00
  0.00000000E+00  0.00000000E+00  0.00000000E+00
  0.00000000E+00  0.00000000E+00  0.00000000E+00
  0.00000000E+00  0.00000000E+00  0.00000000E+00
  0.00000000E+00  0.00000000E+00  0.00000000E+00
  0.00000000E+00  0.00000000E+00  0.00000000E+00
  0.00000000E+00  0.00000000E+00  0.00000000E+00
  0.00000000E+00  0.00000000E+00  0.00000000E+00
  0.00000000E+00  0.00000000E+00  0.00000000E+00
  0.00000000E+00  0.00000000E+00  0.00000000E+00
  0.00000000E+00  0.00000000E+00  0.00000000E+00
  0.00000000E+00  0.00000000E+00  0.00000000E+00
  0.00000000E+00  0.00000000E+00  0.00000000E+00
  0.00000000E+00  0.00000000E+00  0.00000000E+00
  0.00000000E+00  0.00000000E+00  0.00000000E+00
  0.00000000E+00  0.00000000E+00  0.00000000E+00
  0.00000000E+00  0.00000000E+00  0.00000000E+00
  0.00000000E+00  0.00000000E+00  0.00000000E+00
  0.00000000E+00  0.00000000E+00  0.00000000E+00
