Title                                   
   1.00000000000000     
     9.8694509999999998    0.0000000000000000    0.0000000000000000
     0.0000000000000000    8.5490480000000009    0.0000000000000000
     0.0000000000000000    0.0000000000000000   20.0000000000000000
    28     2     1
Selective dynamics
Direct
  0.0559238363959576  0.0891490192822420  0.0882278348735549   T   T   T
  0.9305716254976862  0.1719417981174088  0.0889800378558304   T   T   T
  0.0570783044255145  0.9238818312113991  0.0886658055637075   T   T   T
  0.9323385032673388  0.3390771611176770  0.0877415860948134   T   T   T
  0.0565770256087397  0.5903230594385874  0.0862058654718452   T   T   T
  0.9325219703169308  0.6734657215045406  0.0883805830742753   T   T   T
  0.0566272053466710  0.4228591730103422  0.0858729148355876   T   T   T
  0.9314329468374493  0.8401176699768195  0.0896662053348238   T   T   T
  0.3077428585627207  0.0886764986310831  0.0930583147892249   T   T   T
  0.1822983421158479  0.1709714692778882  0.0890078842273892   T   T   T
  0.1808260751025194  0.3384086867670526  0.0880449676014598   T   T   T
  0.3037371864368185  0.5905065128402127  0.0939846838075529   T   T   T
  0.1811839413887427  0.6745065940242027  0.0884965829324017   T   T   T
  0.3037565818477645  0.4209426282597438  0.0936939929574031   T   T   T
  0.1824665255305224  0.8413163070362529  0.0897764649984198   T   T   T
  0.4318345101589549  0.1758675965282453  0.0987845211210113   T   T   T
  0.5552379407870817  0.9239394264707302  0.1013376624716660   T   T   T
  0.4290709241237567  0.3418439939196977  0.1020506445084475   T   T   T
  0.4275814440211582  0.6702681028494488  0.1031158990370634   T   T   T
  0.4300979311395693  0.8367725793258631  0.0999063100277574   T   T   T
  0.8045061191883789  0.0894967471825102  0.0931298613319288   T   T   T
  0.6800105499845688  0.1773825778658011  0.0986024578538153   T   T   T
  0.8054994369577706  0.9219720044405538  0.0936349783355998   T   T   T
  0.6828442754647477  0.3436338135717814  0.1020599993838757   T   T   T
  0.8091329140890350  0.5904741574565155  0.0935806014727244   T   T   T
  0.6838928966709504  0.6676759528063736  0.1027789554883488   T   T   T
  0.8090942665638006  0.4210407476365142  0.0932212833655740   T   T   T
  0.6801004988326328  0.8353967123890503  0.0996377379125227   T   T   T
  0.5569193572291274  0.0898632321330850  0.1008353103379192   T   T   T
  0.3059696159359564  0.9225282351089250  0.0934309091717760   T   T   T
  0.5562593901712873  0.5065749898194715  0.1250541437617071   T   T   T
 
  0.00000000E+00  0.00000000E+00  0.00000000E+00
  0.00000000E+00  0.00000000E+00  0.00000000E+00
  0.00000000E+00  0.00000000E+00  0.00000000E+00
  0.00000000E+00  0.00000000E+00  0.00000000E+00
  0.00000000E+00  0.00000000E+00  0.00000000E+00
  0.00000000E+00  0.00000000E+00  0.00000000E+00
  0.00000000E+00  0.00000000E+00  0.00000000E+00
  0.00000000E+00  0.00000000E+00  0.00000000E+00
  0.00000000E+00  0.00000000E+00  0.00000000E+00
  0.00000000E+00  0.00000000E+00  0.00000000E+00
  0.00000000E+00  0.00000000E+00  0.00000000E+00
  0.00000000E+00  0.00000000E+00  0.00000000E+00
  0.00000000E+00  0.00000000E+00  0.00000000E+00
  0.00000000E+00  0.00000000E+00  0.00000000E+00
  0.00000000E+00  0.00000000E+00  0.00000000E+00
  0.00000000E+00  0.00000000E+00  0.00000000E+00
  0.00000000E+00  0.00000000E+00  0.00000000E+00
  0.00000000E+00  0.00000000E+00  0.00000000E+00
  0.00000000E+00  0.00000000E+00  0.00000000E+00
  0.00000000E+00  0.00000000E+00  0.00000000E+00
  0.00000000E+00  0.00000000E+00  0.00000000E+00
  0.00000000E+00  0.00000000E+00  0.00000000E+00
  0.00000000E+00  0.00000000E+00  0.00000000E+00
  0.00000000E+00  0.00000000E+00  0.00000000E+00
  0.00000000E+00  0.00000000E+00  0.00000000E+00
  0.00000000E+00  0.00000000E+00  0.00000000E+00
  0.00000000E+00  0.00000000E+00  0.00000000E+00
  0.00000000E+00  0.00000000E+00  0.00000000E+00
  0.00000000E+00  0.00000000E+00  0.00000000E+00
  0.00000000E+00  0.00000000E+00  0.00000000E+00
  0.00000000E+00  0.00000000E+00  0.00000000E+00
