Title                                   
   1.00000000000000     
     4.9440799999999996    0.0000000000000000    0.0000000000000000
     0.0000000000000000   17.1295089999999988    0.0000000000000000
     0.0000000000000000    0.0000000000000000   20.0000000000000000
    31     1
Selective dynamics
Direct
  0.0000059221211563  0.1041493811562855  0.2799961382969521   T   T   T
  0.2499141154842317  0.1455700240131478  0.2845863584731261   T   T   T
  0.2499186966481376  0.2278875408618472  0.2968241601645107   T   T   T
 -0.0012367417377228  0.3500272345841632  0.3208581039183057   T   T   T
 -0.0008873505241785  0.2685082645436803  0.3032641822555157   T   T   T
 -0.0032989154638705  0.6074785115298913  0.3146827552232090   T   T   T
  0.2498507947339433  0.7295341424387032  0.2930651929659611   T   T   T
  0.0002948592024730  0.8542131016727499  0.2783654902997182   T   T   T
  0.2498720621093390  0.8959884962000391  0.2760717696548335   T   T   T
  0.2499137070247701  0.9792508879818930  0.2743354362781360   T   T   T
  0.0005345619473787  0.7714281767309883  0.2863945681280879   T   T   T
  0.4998104694156046  0.1041458567020850  0.2799956195490281   T   T   T
  0.7499011041895051  0.1454754326417243  0.2838583918860388   T   T   T
  0.7499170569722227  0.2278740790244833  0.2950771988291929   T   T   T
  0.4999362119496247  0.0209159815019106  0.2750090499800723   T   T   T
  0.5011784357532783  0.3500241925259582  0.3208558953224546   T   T   T
  0.7499799489657925  0.3929882271925679  0.3238189925393327   T   T   T
  0.7499307145087425  0.4773099716637887  0.3266696138704984   T   T   T
  0.5007383645512682  0.2685058262534434  0.3032621896278069   T   T   T
  0.5030167544917821  0.6074590301177739  0.3146533599928119   T   T   T
  0.7498599137144101  0.7307884441086957  0.2909212587633700   T   T   T
  0.4994597155976923  0.8542158059514229  0.2783694086444798   T   T   T
  0.7498693707009300  0.8957213545645448  0.2757582629330724   T   T   T
  0.7499075270007217  0.9791905768312573  0.2741053126710419   T   T   T
  0.4992042120361577  0.7714281928352950  0.2863890402670886   T   T   T
  0.7498447146155418  0.6494222169760824  0.3046397388571400   T   T   T
  0.2498585804529483  0.6479939262068255  0.3077600172735886   T   T   T
 -0.0001101938868987  0.0209137412224579  0.2750071470732063   T   T   T
  0.5236304886087436  0.5274632578644803  0.3301646040343500   T   T   T
  0.9760660406533851  0.5275050764960257  0.3302780801642397   T   T   T
  0.2499853909129553  0.3836366014192554  0.3363500729942666   T   T   T
  0.2499564672499417  0.4815374461865252  0.4011775890685153   T   T   T
 
  0.00000000E+00  0.00000000E+00  0.00000000E+00
  0.00000000E+00  0.00000000E+00  0.00000000E+00
  0.00000000E+00  0.00000000E+00  0.00000000E+00
  0.00000000E+00  0.00000000E+00  0.00000000E+00
  0.00000000E+00  0.00000000E+00  0.00000000E+00
  0.00000000E+00  0.00000000E+00  0.00000000E+00
  0.00000000E+00  0.00000000E+00  0.00000000E+00
  0.00000000E+00  0.00000000E+00  0.00000000E+00
  0.00000000E+00  0.00000000E+00  0.00000000E+00
  0.00000000E+00  0.00000000E+00  0.00000000E+00
  0.00000000E+00  0.00000000E+00  0.00000000E+00
  0.00000000E+00  0.00000000E+00  0.00000000E+00
  0.00000000E+00  0.00000000E+00  0.00000000E+00
  0.00000000E+00  0.00000000E+00  0.00000000E+00
  0.00000000E+00  0.00000000E+00  0.00000000E+00
  0.00000000E+00  0.00000000E+00  0.00000000E+00
  0.00000000E+00  0.00000000E+00  0.00000000E+00
  0.00000000E+00  0.00000000E+00  0.00000000E+00
  0.00000000E+00  0.00000000E+00  0.00000000E+00
  0.00000000E+00  0.00000000E+00  0.00000000E+00
  0.00000000E+00  0.00000000E+00  0.00000000E+00
  0.00000000E+00  0.00000000E+00  0.00000000E+00
  0.00000000E+00  0.00000000E+00  0.00000000E+00
  0.00000000E+00  0.00000000E+00  0.00000000E+00
  0.00000000E+00  0.00000000E+00  0.00000000E+00
  0.00000000E+00  0.00000000E+00  0.00000000E+00
  0.00000000E+00  0.00000000E+00  0.00000000E+00
  0.00000000E+00  0.00000000E+00  0.00000000E+00
  0.00000000E+00  0.00000000E+00  0.00000000E+00
  0.00000000E+00  0.00000000E+00  0.00000000E+00
  0.00000000E+00  0.00000000E+00  0.00000000E+00
  0.00000000E+00  0.00000000E+00  0.00000000E+00
