Title                                   
   1.00000000000000     
     4.9440799999999996    0.0000000000000000    0.0000000000000000
     0.0000000000000000    8.5647549999999999    0.0000000000000000
     0.0000000000000000    0.0000000000000000   20.0000000000000000
    13     1     1
Selective dynamics
Direct
 -0.0000031229189892  0.2904491754934037  0.0978826216033100   T   T   T
  0.2500000000000000  0.0441737547335655  0.0997992300959108   T   T   T
 -0.0008757334191051  0.9604246766155078  0.1000602168152100   T   T   T
  0.7500000000000000  0.2069295592872085  0.0966414091192563   T   T   T
  0.5000031229189894  0.2904491754934037  0.0978826216033100   T   T   T
  0.7500000000000000  0.0424022079558412  0.0980874153231437   T   T   T
  0.7500000000000000  0.7116104516324615  0.0983950506772771   T   T   T
  0.7500000000000000  0.5357941714154166  0.0977194765638672   T   T   T
  0.5008757334191053  0.9604246766155078  0.1000602168152100   T   T   T
  0.5076601621231560  0.4529225951497318  0.1003783947206755   T   T   T
 -0.0076601621231559  0.4529225951497318  0.1003783947206755   T   T   T
 -0.0101239602753203  0.7958008568095637  0.1029740727485165   T   T   T
  0.5101239602753201  0.7958008568095637  0.1029740727485165   T   T   T
  0.2500000000000000  0.2062322850929685  0.0985179917960503   T   T   T
  0.2500000000000000  0.6253439617461259  0.1162288146490739   T   T   T
 
  0.00000000E+00  0.00000000E+00  0.00000000E+00
  0.00000000E+00  0.00000000E+00  0.00000000E+00
  0.00000000E+00  0.00000000E+00  0.00000000E+00
  0.00000000E+00  0.00000000E+00  0.00000000E+00
  0.00000000E+00  0.00000000E+00  0.00000000E+00
  0.00000000E+00  0.00000000E+00  0.00000000E+00
  0.00000000E+00  0.00000000E+00  0.00000000E+00
  0.00000000E+00  0.00000000E+00  0.00000000E+00
  0.00000000E+00  0.00000000E+00  0.00000000E+00
  0.00000000E+00  0.00000000E+00  0.00000000E+00
  0.00000000E+00  0.00000000E+00  0.00000000E+00
  0.00000000E+00  0.00000000E+00  0.00000000E+00
  0.00000000E+00  0.00000000E+00  0.00000000E+00
  0.00000000E+00  0.00000000E+00  0.00000000E+00
  0.00000000E+00  0.00000000E+00  0.00000000E+00
