Title                                   
   1.00000000000000     
     4.9440799999999996    0.0000000000000000    0.0000000000000000
     0.0000000000000000    8.5647549999999999    0.0000000000000000
     0.0000000000000000    0.0000000000000000   20.0000000000000000
    11     3     1
Selective dynamics
Direct
  0.2514572232464687  0.2090490370308186  0.0972848318370511   T   T   T
 -0.0005947829489100  0.2912814966048098  0.0933542778152864   T   T   T
  0.2531673188488892  0.0373437658101921  0.0966034227388443   T   T   T
  0.0005582910966638  0.9569713114671693  0.0920512633314680   T   T   T
  0.7481502951382266  0.2087349599520624  0.0940890707629220   T   T   T
  0.4999778130526126  0.2962623898288380  0.1013391979979704   T   T   T
  0.7497709316087002  0.0400775675573803  0.0935788718371481   T   T   T
  0.7591255989924368  0.7117147986099001  0.0970515969937995   T   T   T
  0.7572748155265678  0.5412921887362615  0.0991006140101615   T   T   T
  0.5038404789146095  0.9521398753729794  0.1000412821454356   T   T   T
  0.5084221648623204  0.4627666464822965  0.1128517014825801   T   T   T
 -0.0025506819661549  0.4547881987469888  0.0923091531661765   T   T   T
 -0.0047206406973448  0.7952771069781963  0.0882423461754631   T   T   T
  0.5157892475177440  0.7886949661098364  0.1119480739167401   T   T   T
  0.2103319268071702  0.6252866907122729  0.1381342957889567   T   T   T
 
  0.00000000E+00  0.00000000E+00  0.00000000E+00
  0.00000000E+00  0.00000000E+00  0.00000000E+00
  0.00000000E+00  0.00000000E+00  0.00000000E+00
  0.00000000E+00  0.00000000E+00  0.00000000E+00
  0.00000000E+00  0.00000000E+00  0.00000000E+00
  0.00000000E+00  0.00000000E+00  0.00000000E+00
  0.00000000E+00  0.00000000E+00  0.00000000E+00
  0.00000000E+00  0.00000000E+00  0.00000000E+00
  0.00000000E+00  0.00000000E+00  0.00000000E+00
  0.00000000E+00  0.00000000E+00  0.00000000E+00
  0.00000000E+00  0.00000000E+00  0.00000000E+00
  0.00000000E+00  0.00000000E+00  0.00000000E+00
  0.00000000E+00  0.00000000E+00  0.00000000E+00
  0.00000000E+00  0.00000000E+00  0.00000000E+00
  0.00000000E+00  0.00000000E+00  0.00000000E+00
