Title                                   
   1.00000000000000     
     9.8694509999999998    0.0000000000000000    0.0000000000000000
     0.0000000000000000    8.5490480000000009    0.0000000000000000
     0.0000000000000000    0.0000000000000000   20.0000000000000000
    26     4     1
Selective dynamics
Direct
  0.0555978764842619  0.0891084719409758  0.0878953430841912   T   T   T
  0.9311264856648055  0.1721022096361659  0.0882941078994490   T   T   T
  0.0569300082919892  0.9236068448190821  0.0882287725374154   T   T   T
  0.9348947201561467  0.3395805210582820  0.0867168714223844   T   T   T
  0.0565909364412077  0.5899487674752367  0.0847472502265764   T   T   T
  0.9343119135966274  0.6743090672377163  0.0872247038069440   T   T   T
  0.0574657056008490  0.4228324408369308  0.0845490498774913   T   T   T
  0.9325774749451462  0.8407821576386778  0.0890454602835570   T   T   T
  0.3062506661927874  0.0879578306139695  0.0950595265658059   T   T   T
  0.1811814116552888  0.1706869540214229  0.0898973790323489   T   T   T
  0.1796248898710843  0.3367483843069304  0.0888189516879916   T   T   T
  0.2998874927445917  0.5880839214881779  0.0974950748301159   T   T   T
  0.1792154787128729  0.6744038771491281  0.0892146689586197   T   T   T
  0.2996281762447927  0.4195605168732539  0.0967796312287767   T   T   T
  0.1818003095589581  0.8401201569119250  0.0902316952329435   T   T   T
  0.4298530081720196  0.1744116783892201  0.1010100189046649   T   T   T
  0.5554632511446403  0.9210643300006236  0.1022253423208927   T   T   T
  0.4187925719551002  0.6757004230337429  0.1067342258534957   T   T   T
  0.4281452973410734  0.8383358258539938  0.1025276484815748   T   T   T
  0.8053380193487494  0.0882370628836397  0.0927836931760075   T   T   T
  0.6816770506168681  0.1764030689185805  0.0985959619220840   T   T   T
  0.8065867910279718  0.9225714106780172  0.0934859243387888   T   T   T
  0.6914319691066957  0.3384280715974238  0.1009050447623117   T   T   T
  0.8134405514742390  0.5920037098249483  0.0930277860766947   T   T   T
  0.8133101845231602  0.4233273093345006  0.0926132268413323   T   T   T
  0.6815210400983811  0.8368479031012795  0.0997816387510052   T   T   T
  0.5556570062820597  0.0931497057034053  0.1016181339512162   T   T   T
  0.4198098804891571  0.3356719055982246  0.1047947291579230   T   T   T
  0.6933751797276925  0.6737029086774660  0.1019263689994415   T   T   T
  0.3051931389743747  0.9240634796584817  0.0951564522863259   T   T   T
  0.5564565135564102  0.5071240847386028  0.1095803175016644   T   T   T
 
  0.00000000E+00  0.00000000E+00  0.00000000E+00
  0.00000000E+00  0.00000000E+00  0.00000000E+00
  0.00000000E+00  0.00000000E+00  0.00000000E+00
  0.00000000E+00  0.00000000E+00  0.00000000E+00
  0.00000000E+00  0.00000000E+00  0.00000000E+00
  0.00000000E+00  0.00000000E+00  0.00000000E+00
  0.00000000E+00  0.00000000E+00  0.00000000E+00
  0.00000000E+00  0.00000000E+00  0.00000000E+00
  0.00000000E+00  0.00000000E+00  0.00000000E+00
  0.00000000E+00  0.00000000E+00  0.00000000E+00
  0.00000000E+00  0.00000000E+00  0.00000000E+00
  0.00000000E+00  0.00000000E+00  0.00000000E+00
  0.00000000E+00  0.00000000E+00  0.00000000E+00
  0.00000000E+00  0.00000000E+00  0.00000000E+00
  0.00000000E+00  0.00000000E+00  0.00000000E+00
  0.00000000E+00  0.00000000E+00  0.00000000E+00
  0.00000000E+00  0.00000000E+00  0.00000000E+00
  0.00000000E+00  0.00000000E+00  0.00000000E+00
  0.00000000E+00  0.00000000E+00  0.00000000E+00
  0.00000000E+00  0.00000000E+00  0.00000000E+00
  0.00000000E+00  0.00000000E+00  0.00000000E+00
  0.00000000E+00  0.00000000E+00  0.00000000E+00
  0.00000000E+00  0.00000000E+00  0.00000000E+00
  0.00000000E+00  0.00000000E+00  0.00000000E+00
  0.00000000E+00  0.00000000E+00  0.00000000E+00
  0.00000000E+00  0.00000000E+00  0.00000000E+00
  0.00000000E+00  0.00000000E+00  0.00000000E+00
  0.00000000E+00  0.00000000E+00  0.00000000E+00
  0.00000000E+00  0.00000000E+00  0.00000000E+00
  0.00000000E+00  0.00000000E+00  0.00000000E+00
  0.00000000E+00  0.00000000E+00  0.00000000E+00
