Title                                   
   1.00000000000000     
     9.8694509999999998    0.0000000000000000    0.0000000000000000
     0.0000000000000000    8.5490480000000009    0.0000000000000000
     0.0000000000000000    0.0000000000000000   20.0000000000000000
    26     4     1
Selective dynamics
Direct
  0.0556894360719668  0.0898699982940879  0.0862561741034419   T   T   T
  0.9307300548917244  0.1717196925829996  0.0884920354849933   T   T   T
  0.0569666570758284  0.9227915098829798  0.0861963187081259   T   T   T
  0.9336254661677481  0.3389441334090296  0.0880090311960448   T   T   T
  0.0576410207862281  0.5896762183239185  0.0827811849309484   T   T   T
  0.9332565408073131  0.6725659666550956  0.0874776234359178   T   T   T
  0.0579115973681394  0.4228727219196665  0.0829137587045930   T   T   T
  0.9310350432941318  0.8396252847661249  0.0880617171428828   T   T   T
  0.3080723142127198  0.0893174181677009  0.0902744015711184   T   T   T
  0.1818991009505662  0.1719787400878083  0.0861972636538934   T   T   T
  0.1819317153691786  0.3389339566121694  0.0840817135056590   T   T   T
  0.3046419363453107  0.5902428001507597  0.0897864990210727   T   T   T
  0.1817667225354628  0.6738095235930027  0.0839585109828106   T   T   T
  0.3052871082403968  0.4229573943994469  0.0895855040550665   T   T   T
  0.1811418399028115  0.8402734531290212  0.0863359312069404   T   T   T
  0.4297604066739624  0.1760652502324002  0.0972680487185391   T   T   T
  0.5527506163594303  0.9217849834704843  0.1008226171104161   T   T   T
  0.4282764590513545  0.8376162743490345  0.0984824692728303   T   T   T
  0.8033759435848880  0.0890599620127767  0.0926922202122121   T   T   T
  0.6799788892042931  0.1755227683997254  0.1007846413372922   T   T   T
  0.8045672600411210  0.9214542127611005  0.0927344488898894   T   T   T
  0.6874107174291129  0.3405700901462631  0.1116571383378698   T   T   T
  0.8118958918626816  0.5891005890477315  0.0967932766814406   T   T   T
  0.6866779055556882  0.6694615363009641  0.1087304125146683   T   T   T
  0.8124253578141015  0.4212020729013029  0.0977628328244351   T   T   T
  0.6793329685614645  0.8364952857524156  0.1006392147382003   T   T   T
  0.5545006272883385  0.0933767047426196  0.1006418952694051   T   T   T
  0.4255110099983160  0.3395620209206462  0.1019697979664304   T   T   T
  0.4225602287485058  0.6756663651466938  0.1050508959209199   T   T   T
  0.3065323678291870  0.9224344966771433  0.0900642127577383   T   T   T
  0.5559817959780452  0.5059235751648932  0.1444632097442521   T   T   T
 
  0.00000000E+00  0.00000000E+00  0.00000000E+00
  0.00000000E+00  0.00000000E+00  0.00000000E+00
  0.00000000E+00  0.00000000E+00  0.00000000E+00
  0.00000000E+00  0.00000000E+00  0.00000000E+00
  0.00000000E+00  0.00000000E+00  0.00000000E+00
  0.00000000E+00  0.00000000E+00  0.00000000E+00
  0.00000000E+00  0.00000000E+00  0.00000000E+00
  0.00000000E+00  0.00000000E+00  0.00000000E+00
  0.00000000E+00  0.00000000E+00  0.00000000E+00
  0.00000000E+00  0.00000000E+00  0.00000000E+00
  0.00000000E+00  0.00000000E+00  0.00000000E+00
  0.00000000E+00  0.00000000E+00  0.00000000E+00
  0.00000000E+00  0.00000000E+00  0.00000000E+00
  0.00000000E+00  0.00000000E+00  0.00000000E+00
  0.00000000E+00  0.00000000E+00  0.00000000E+00
  0.00000000E+00  0.00000000E+00  0.00000000E+00
  0.00000000E+00  0.00000000E+00  0.00000000E+00
  0.00000000E+00  0.00000000E+00  0.00000000E+00
  0.00000000E+00  0.00000000E+00  0.00000000E+00
  0.00000000E+00  0.00000000E+00  0.00000000E+00
  0.00000000E+00  0.00000000E+00  0.00000000E+00
  0.00000000E+00  0.00000000E+00  0.00000000E+00
  0.00000000E+00  0.00000000E+00  0.00000000E+00
  0.00000000E+00  0.00000000E+00  0.00000000E+00
  0.00000000E+00  0.00000000E+00  0.00000000E+00
  0.00000000E+00  0.00000000E+00  0.00000000E+00
  0.00000000E+00  0.00000000E+00  0.00000000E+00
  0.00000000E+00  0.00000000E+00  0.00000000E+00
  0.00000000E+00  0.00000000E+00  0.00000000E+00
  0.00000000E+00  0.00000000E+00  0.00000000E+00
  0.00000000E+00  0.00000000E+00  0.00000000E+00
