Title                                   
   1.00000000000000     
     8.5490480000000009    0.0000000000000000    0.0000000000000000
     0.0000000000000000    8.5490480000000009    0.0000000000000000
     0.0000000000000000    0.0000000000000000   20.0000000000000000
    24     1
Selective dynamics
Direct
  0.9117140247229223  0.2053767750921784  0.0954475296120160   T   T   T
  0.9091033552798055  0.5018096394580863  0.0953085069039222   T   T   T
  0.9117297871848835  0.7982001109232170  0.0954632669376928   T   T   T
  0.1966152028693873  0.0830834823009239  0.0954761654702005   T   T   T
  0.0743144321403440  0.2053619442224517  0.0954627791432299   T   T   T
  0.1966110952673283  0.9204711513751777  0.0954842940572864   T   T   T
  0.1572190633706599  0.6489929163563087  0.0953507914433911   T   T   T
  0.0769332651299387  0.5017993621161426  0.0953288812559509   T   T   T
  0.1571967078456549  0.3545793989305844  0.0953402459089207   T   T   T
  0.0743292054625672  0.7981885074836748  0.0954724181404153   T   T   T
  0.4929987519556293  0.0857025109803981  0.0953571066395313   T   T   T
  0.3458035762010319  0.1659783107781195  0.0953611303122995   T   T   T
  0.4930000468209557  0.9178772028739599  0.0953645384807425   T   T   T
  0.3458099084605689  0.8376099808457795  0.0953673768361701   T   T   T
  0.7894274624997721  0.0831023005031254  0.0954598884283249   T   T   T
  0.6402014856549897  0.1659936617659364  0.0953311288485626   T   T   T
  0.7894452721842387  0.9204883030610425  0.0954627025475275   T   T   T
  0.8288215474640943  0.6490097540215759  0.0953166834239225   T   T   T
  0.8288237233259104  0.3545932651674235  0.0953017657593021   T   T   T
  0.6402113760190959  0.8375955681673090  0.0953347105583270   T   T   T
  0.3231314026872705  0.3319024983779953  0.0952498996420297   T   T   T
  0.3231476244185524  0.6716880728795321  0.0952631732951919   T   T   T
  0.6628965958226375  0.3319076084395964  0.0952003591642195   T   T   T
  0.6629010165827313  0.6716899569284555  0.0952119642307979   T   T   T
  0.4930260706290229  0.5017877169510189  0.0949876929600031   T   T   T
 
  0.00000000E+00  0.00000000E+00  0.00000000E+00
  0.00000000E+00  0.00000000E+00  0.00000000E+00
  0.00000000E+00  0.00000000E+00  0.00000000E+00
  0.00000000E+00  0.00000000E+00  0.00000000E+00
  0.00000000E+00  0.00000000E+00  0.00000000E+00
  0.00000000E+00  0.00000000E+00  0.00000000E+00
  0.00000000E+00  0.00000000E+00  0.00000000E+00
  0.00000000E+00  0.00000000E+00  0.00000000E+00
  0.00000000E+00  0.00000000E+00  0.00000000E+00
  0.00000000E+00  0.00000000E+00  0.00000000E+00
  0.00000000E+00  0.00000000E+00  0.00000000E+00
  0.00000000E+00  0.00000000E+00  0.00000000E+00
  0.00000000E+00  0.00000000E+00  0.00000000E+00
  0.00000000E+00  0.00000000E+00  0.00000000E+00
  0.00000000E+00  0.00000000E+00  0.00000000E+00
  0.00000000E+00  0.00000000E+00  0.00000000E+00
  0.00000000E+00  0.00000000E+00  0.00000000E+00
  0.00000000E+00  0.00000000E+00  0.00000000E+00
  0.00000000E+00  0.00000000E+00  0.00000000E+00
  0.00000000E+00  0.00000000E+00  0.00000000E+00
  0.00000000E+00  0.00000000E+00  0.00000000E+00
  0.00000000E+00  0.00000000E+00  0.00000000E+00
  0.00000000E+00  0.00000000E+00  0.00000000E+00
  0.00000000E+00  0.00000000E+00  0.00000000E+00
  0.00000000E+00  0.00000000E+00  0.00000000E+00
