Title                                   
   1.00000000000000     
     9.8694509999999998    0.0000000000000000    0.0000000000000000
     0.0000000000000000    8.5490480000000009    0.0000000000000000
     0.0000000000000000    0.0000000000000000   20.0000000000000000
    28     3     1
Selective dynamics
Direct
  0.0560683308736434  0.0903882911770020  0.0804044468866540   T   T   T
  0.9313140118077650  0.1723938064050818  0.0806353748311006   T   T   T
  0.0570689754917410  0.9227753070479339  0.0808662563643790   T   T   T
  0.9312115709531096  0.3402850681100147  0.0830950322994380   T   T   T
  0.0569059936592463  0.5915000968038960  0.0832996239543316   T   T   T
  0.0568217530598088  0.4245428189548756  0.0837074934142272   T   T   T
  0.9322980270646659  0.8378948548091188  0.0824541578801773   T   T   T
  0.3055669029681318  0.0892222387344792  0.0885049871988531   T   T   T
  0.1824010890485685  0.1735736342321468  0.0845240699297707   T   T   T
  0.1828965617827486  0.3418172387106740  0.0883079438282705   T   T   T
  0.3003050252810912  0.5918320460388570  0.1074226891199722   T   T   T
  0.1807768809135141  0.6753111733104353  0.0889806837672315   T   T   T
  0.3055360201859762  0.4234206632104899  0.1020554975863513   T   T   T
  0.1819486441121712  0.8421357767037869  0.0856323728287742   T   T   T
  0.5553030035385625  0.0855957936444096  0.0950758840945299   T   T   T
  0.5537327212719577  0.9215463999568412  0.1054791767219287   T   T   T
  0.4316899890455347  0.3346671991046098  0.1053084080163444   T   T   T
  0.4234146308492805  0.8414479271016466  0.1121655545891227   T   T   T
  0.8064804030444149  0.0869398852969224  0.0834275605601892   T   T   T
  0.6806740062564933  0.1694768132889027  0.0890378085233418   T   T   T
  0.8061696898976179  0.9206636542568499  0.0865323744693069   T   T   T
  0.6828671763573642  0.3359618438646481  0.0966154619498248   T   T   T
  0.8120147766151672  0.5920194978954011  0.0978907471824571   T   T   T
  0.8082475766424270  0.4225221763234279  0.0918209564232715   T   T   T
  0.6830204881677554  0.8394335942301656  0.1030643615511006   T   T   T
  0.4070376605424765  0.6869379661575565  0.1326616444919927   T   T   T
  0.5580237694349000  0.4039474960988519  0.1139116728624850   T   T   T
  0.7011781411482587  0.6788263246859221  0.1184275129585106   T   T   T
  0.3053203319356985  0.9258480761343769  0.0902158814592348   T   T   T
  0.4291698739320368  0.1680884739888577  0.0944287546285839   T   T   T
  0.9339489491648886  0.6728988520444221  0.0834730735708932   T   T   T
  0.5602260249529896  0.5863310116773978  0.1662475360573674   T   T   T
 
  0.00000000E+00  0.00000000E+00  0.00000000E+00
  0.00000000E+00  0.00000000E+00  0.00000000E+00
  0.00000000E+00  0.00000000E+00  0.00000000E+00
  0.00000000E+00  0.00000000E+00  0.00000000E+00
  0.00000000E+00  0.00000000E+00  0.00000000E+00
  0.00000000E+00  0.00000000E+00  0.00000000E+00
  0.00000000E+00  0.00000000E+00  0.00000000E+00
  0.00000000E+00  0.00000000E+00  0.00000000E+00
  0.00000000E+00  0.00000000E+00  0.00000000E+00
  0.00000000E+00  0.00000000E+00  0.00000000E+00
  0.00000000E+00  0.00000000E+00  0.00000000E+00
  0.00000000E+00  0.00000000E+00  0.00000000E+00
  0.00000000E+00  0.00000000E+00  0.00000000E+00
  0.00000000E+00  0.00000000E+00  0.00000000E+00
  0.00000000E+00  0.00000000E+00  0.00000000E+00
  0.00000000E+00  0.00000000E+00  0.00000000E+00
  0.00000000E+00  0.00000000E+00  0.00000000E+00
  0.00000000E+00  0.00000000E+00  0.00000000E+00
  0.00000000E+00  0.00000000E+00  0.00000000E+00
  0.00000000E+00  0.00000000E+00  0.00000000E+00
  0.00000000E+00  0.00000000E+00  0.00000000E+00
  0.00000000E+00  0.00000000E+00  0.00000000E+00
  0.00000000E+00  0.00000000E+00  0.00000000E+00
  0.00000000E+00  0.00000000E+00  0.00000000E+00
  0.00000000E+00  0.00000000E+00  0.00000000E+00
  0.00000000E+00  0.00000000E+00  0.00000000E+00
  0.00000000E+00  0.00000000E+00  0.00000000E+00
  0.00000000E+00  0.00000000E+00  0.00000000E+00
  0.00000000E+00  0.00000000E+00  0.00000000E+00
  0.00000000E+00  0.00000000E+00  0.00000000E+00
  0.00000000E+00  0.00000000E+00  0.00000000E+00
  0.00000000E+00  0.00000000E+00  0.00000000E+00
