Title                                   
   1.00000000000000     
     9.8694509999999998    0.0000000000000000    0.0000000000000000
     0.0000000000000000    8.5490480000000009    0.0000000000000000
     0.0000000000000000    0.0000000000000000   20.0000000000000000
    30     1     1
Selective dynamics
Direct
  0.0564547938042482  0.0907734031924091  0.0811491282538957   T   T   T
  0.9312965188411940  0.1731029219609835  0.0833929160377263   T   T   T
  0.0554020105531538  0.9237205976522805  0.0817866722149345   T   T   T
  0.9314103497571956  0.3398589406726386  0.0865023970445451   T   T   T
  0.0568097423479499  0.5891121407698966  0.0844671526813376   T   T   T
  0.9324410144876996  0.6724948317385683  0.0877315912888589   T   T   T
  0.0569525714477780  0.4233003254855968  0.0848851968849046   T   T   T
  0.9313641472129551  0.8395583791019143  0.0850612414856212   T   T   T
  0.3057318881786986  0.0897681515528609  0.0856754237817949   T   T   T
  0.1818676083793776  0.1740314683015089  0.0832786279301589   T   T   T
  0.3043234242130886  0.9232117392613207  0.0879301429787707   T   T   T
  0.1831463152556344  0.3415323226533358  0.0865330440330631   T   T   T
  0.3033278128666294  0.5935144434012581  0.0992281672819062   T   T   T
  0.1805134061429509  0.6740086094742556  0.0871570635601636   T   T   T
  0.3076602838680097  0.4244131208357388  0.0968396302936143   T   T   T
  0.1797489826239750  0.8405135163354492  0.0850204836150435   T   T   T
  0.5556215649828965  0.0857412368029091  0.0937041602821443   T   T   T
  0.4306447417694274  0.1710902764637727  0.0918685215552786   T   T   T
  0.5552620947080655  0.9198620998044577  0.0993986095259455   T   T   T
  0.4310550300611764  0.3355925974755931  0.1012941889283864   T   T   T
  0.5572990847380165  0.4063405372806770  0.1195440675427676   T   T   T
  0.4258138933525519  0.8399108622743527  0.1004551031089528   T   T   T
  0.8069496037947284  0.0888084468954062  0.0860925339543399   T   T   T
  0.6818487141649215  0.1697490299645867  0.0925323221977387   T   T   T
  0.8064206336722539  0.9225875967326174  0.0881364405760474   T   T   T
  0.6832171881986993  0.3339024550360637  0.1023147532693729   T   T   T
  0.8107314040497052  0.5893022871118971  0.1001937477947819   T   T   T
  0.6940678764177142  0.6791602719668443  0.1177667544059454   T   T   T
  0.8073855848040916  0.4215746800449691  0.0973876079874479   T   T   T
  0.6835564923946549  0.8403150642239230  0.1004657378492307   T   T   T
  0.4160874906179478  0.6824716630178396  0.1169062792776802   T   T   T
  0.5552267322926164  0.5909219825140840  0.1709752923776347   T   T   T
 
  0.00000000E+00  0.00000000E+00  0.00000000E+00
  0.00000000E+00  0.00000000E+00  0.00000000E+00
  0.00000000E+00  0.00000000E+00  0.00000000E+00
  0.00000000E+00  0.00000000E+00  0.00000000E+00
  0.00000000E+00  0.00000000E+00  0.00000000E+00
  0.00000000E+00  0.00000000E+00  0.00000000E+00
  0.00000000E+00  0.00000000E+00  0.00000000E+00
  0.00000000E+00  0.00000000E+00  0.00000000E+00
  0.00000000E+00  0.00000000E+00  0.00000000E+00
  0.00000000E+00  0.00000000E+00  0.00000000E+00
  0.00000000E+00  0.00000000E+00  0.00000000E+00
  0.00000000E+00  0.00000000E+00  0.00000000E+00
  0.00000000E+00  0.00000000E+00  0.00000000E+00
  0.00000000E+00  0.00000000E+00  0.00000000E+00
  0.00000000E+00  0.00000000E+00  0.00000000E+00
  0.00000000E+00  0.00000000E+00  0.00000000E+00
  0.00000000E+00  0.00000000E+00  0.00000000E+00
  0.00000000E+00  0.00000000E+00  0.00000000E+00
  0.00000000E+00  0.00000000E+00  0.00000000E+00
  0.00000000E+00  0.00000000E+00  0.00000000E+00
  0.00000000E+00  0.00000000E+00  0.00000000E+00
  0.00000000E+00  0.00000000E+00  0.00000000E+00
  0.00000000E+00  0.00000000E+00  0.00000000E+00
  0.00000000E+00  0.00000000E+00  0.00000000E+00
  0.00000000E+00  0.00000000E+00  0.00000000E+00
  0.00000000E+00  0.00000000E+00  0.00000000E+00
  0.00000000E+00  0.00000000E+00  0.00000000E+00
  0.00000000E+00  0.00000000E+00  0.00000000E+00
  0.00000000E+00  0.00000000E+00  0.00000000E+00
  0.00000000E+00  0.00000000E+00  0.00000000E+00
  0.00000000E+00  0.00000000E+00  0.00000000E+00
  0.00000000E+00  0.00000000E+00  0.00000000E+00
