Title                                   
   1.00000000000000     
     8.5490480000000009    0.0000000000000000    0.0000000000000000
     0.0000000000000000    8.5490480000000009    0.0000000000000000
     0.0000000000000000    0.0000000000000000   20.0000000000000000
    19     5     1
Selective dynamics
Direct
  0.9070693070657218  0.2079627150034443  0.0975486916113644   T   T   T
  0.9116642166777147  0.8003137133089036  0.0976612779308976   T   T   T
  0.1970397928446308  0.0826258390421852  0.0977055986000691   T   T   T
  0.0758404869760059  0.2014574795168398  0.0976705878992533   T   T   T
  0.1608066378009463  0.6473346140200260  0.0977398635766161   T   T   T
  0.0780047002154977  0.5003200696272765  0.0977812463070775   T   T   T
  0.1590376743235845  0.3514242706830275  0.0978460409385124   T   T   T
  0.0806363853911540  0.7975565957376006  0.0976468158577502   T   T   T
  0.3441709655019730  0.1662283818790721  0.0978407592633377   T   T   T
  0.4931413852393012  0.9178564558260830  0.0977738481365065   T   T   T
  0.3476062426670759  0.8337616728866394  0.0977638637958985   T   T   T
  0.7855942865372910  0.0875020055582208  0.0975663992836966   T   T   T
  0.6358254422526562  0.1712141247023724  0.0976609001961357   T   T   T
  0.7896373477254135  0.9196813036538438  0.0976711370736542   T   T   T
  0.8281518042362667  0.6508836112137385  0.0977950273055226   T   T   T
  0.8243208184841376  0.3581397907815856  0.0976441980455505   T   T   T
  0.6413366283519186  0.8358772474175635  0.0978242909268875   T   T   T
  0.3286615583947509  0.6680571701195993  0.0977946922329375   T   T   T
  0.6558404786443002  0.3394570771644231  0.0976883871770618   T   T   T
  0.4924011700664531  0.0879476506572668  0.0977881049289003   T   T   T
  0.9074547902758283  0.5029625742829928  0.0977744418540900   T   T   T
  0.3234726181069303  0.3288229583620395  0.0980038506230673   T   T   T
  0.6655380880587672  0.6709406007519628  0.0979369634280185   T   T   T
  0.1975671489057726  0.9143195246176355  0.0976894713615266   T   T   T
  0.4945920252558941  0.5021425531856697  0.0978885416456479   T   T   T
 
  0.00000000E+00  0.00000000E+00  0.00000000E+00
  0.00000000E+00  0.00000000E+00  0.00000000E+00
  0.00000000E+00  0.00000000E+00  0.00000000E+00
  0.00000000E+00  0.00000000E+00  0.00000000E+00
  0.00000000E+00  0.00000000E+00  0.00000000E+00
  0.00000000E+00  0.00000000E+00  0.00000000E+00
  0.00000000E+00  0.00000000E+00  0.00000000E+00
  0.00000000E+00  0.00000000E+00  0.00000000E+00
  0.00000000E+00  0.00000000E+00  0.00000000E+00
  0.00000000E+00  0.00000000E+00  0.00000000E+00
  0.00000000E+00  0.00000000E+00  0.00000000E+00
  0.00000000E+00  0.00000000E+00  0.00000000E+00
  0.00000000E+00  0.00000000E+00  0.00000000E+00
  0.00000000E+00  0.00000000E+00  0.00000000E+00
  0.00000000E+00  0.00000000E+00  0.00000000E+00
  0.00000000E+00  0.00000000E+00  0.00000000E+00
  0.00000000E+00  0.00000000E+00  0.00000000E+00
  0.00000000E+00  0.00000000E+00  0.00000000E+00
  0.00000000E+00  0.00000000E+00  0.00000000E+00
  0.00000000E+00  0.00000000E+00  0.00000000E+00
  0.00000000E+00  0.00000000E+00  0.00000000E+00
  0.00000000E+00  0.00000000E+00  0.00000000E+00
  0.00000000E+00  0.00000000E+00  0.00000000E+00
  0.00000000E+00  0.00000000E+00  0.00000000E+00
  0.00000000E+00  0.00000000E+00  0.00000000E+00
