Title                                   
   1.00000000000000     
     4.9440799999999996    0.0000000000000000    0.0000000000000000
     0.0000000000000000    8.5647549999999999    0.0000000000000000
     0.0000000000000000    0.0000000000000000   20.0000000000000000
    13     2     1
Selective dynamics
Direct
 -0.0015203380863728  0.2871010375047339  0.0856299553657732   T   T   T
  0.2500000000000000  0.0433719936247019  0.0847106377543262   T   T   T
  0.0031602050339716  0.8022682952309558  0.1099141272091070   T   T   T
 -0.0002852835805585  0.9603291895609599  0.0878586445744621   T   T   T
  0.7500000000000000  0.2036455689886796  0.0768137427793314   T   T   T
  0.5015203380863725  0.2871010375047339  0.0856299553657732   T   T   T
  0.7500000000000000  0.0393763854517925  0.0790518701697412   T   T   T
  0.7500000000000000  0.7103739103700641  0.1140544282766484   T   T   T
  0.4968397949660285  0.8022682952309558  0.1099141272091070   T   T   T
  0.7500000000000000  0.5364409094782840  0.1108659073370025   T   T   T
  0.5002852835805588  0.9603291895609599  0.0878586445744621   T   T   T
  0.5072169302381305  0.4408380967187913  0.1075364066459333   T   T   T
 -0.0072169302381307  0.4408380967187913  0.1075364066459333   T   T   T
  0.2500000000000000  0.7442924088318417  0.1307669598923376   T   T   T
  0.2500000000000000  0.2048006857354979  0.0816962530930408   T   T   T
  0.2500000000000000  0.5366248994882574  0.1526739331070302   T   T   T
 
  0.00000000E+00  0.00000000E+00  0.00000000E+00
  0.00000000E+00  0.00000000E+00  0.00000000E+00
  0.00000000E+00  0.00000000E+00  0.00000000E+00
  0.00000000E+00  0.00000000E+00  0.00000000E+00
  0.00000000E+00  0.00000000E+00  0.00000000E+00
  0.00000000E+00  0.00000000E+00  0.00000000E+00
  0.00000000E+00  0.00000000E+00  0.00000000E+00
  0.00000000E+00  0.00000000E+00  0.00000000E+00
  0.00000000E+00  0.00000000E+00  0.00000000E+00
  0.00000000E+00  0.00000000E+00  0.00000000E+00
  0.00000000E+00  0.00000000E+00  0.00000000E+00
  0.00000000E+00  0.00000000E+00  0.00000000E+00
  0.00000000E+00  0.00000000E+00  0.00000000E+00
  0.00000000E+00  0.00000000E+00  0.00000000E+00
  0.00000000E+00  0.00000000E+00  0.00000000E+00
  0.00000000E+00  0.00000000E+00  0.00000000E+00
