Title                                   
   1.00000000000000     
     8.5490480000000009    0.0000000000000000    0.0000000000000000
     0.0000000000000000    8.5490480000000009    0.0000000000000000
     0.0000000000000000    0.0000000000000000   20.0000000000000000
    17     7     1
Selective dynamics
Direct
  0.9083211285489338  0.2048558985933847  0.0971011220108183   T   T   T
  0.9111531971536679  0.8012984683231055  0.0971060225586691   T   T   T
  0.1964678970233096  0.0826927539756500  0.0972892004350441   T   T   T
  0.0763201811726446  0.2001233475028588  0.0971937886205003   T   T   T
  0.1555923882332873  0.6523156161750880  0.0978417236511312   T   T   T
  0.0783586511980166  0.5006497015535462  0.0977720084611447   T   T   T
  0.1552883513633233  0.3492897817955808  0.0977323556450049   T   T   T
  0.0785563236546837  0.7999236696921900  0.0973045966736478   T   T   T
  0.3434307466713640  0.1636298899834056  0.0977863672396356   T   T   T
  0.4920513816890968  0.9172904506428302  0.0977823563253767   T   T   T
  0.3433696265966464  0.8393929238535719  0.0979315260320931   T   T   T
  0.7883349127758839  0.0864980418051916  0.0970714381084178   T   T   T
  0.6421457780003430  0.1668694234308079  0.0976408614908263   T   T   T
  0.7904937782853546  0.9186690621466260  0.0970638837562681   T   T   T
  0.8311595418831721  0.6518622961750409  0.0976488466186235   T   T   T
  0.8291672162233262  0.3525027571688110  0.0976248679963181   T   T   T
  0.6436535254144122  0.8388415490504335  0.0976341663902370   T   T   T
  0.4931998512815704  0.0900576215224306  0.0977643128121181   T   T   T
  0.9062057743059941  0.5022866155154931  0.0977051404095232   T   T   T
  0.3185391020718369  0.3238868917299620  0.0983045431207058   T   T   T
  0.3182155926198106  0.6792824168733350  0.0985066241261981   T   T   T
  0.6671262247302683  0.3285035801137644  0.0982108216491679   T   T   T
  0.6703860619338691  0.6756383633470781  0.0981852776776432   T   T   T
  0.1955130408951853  0.9159459059809526  0.0973823040732539   T   T   T
  0.4923617262739925  0.5024829730488607  0.1001208441176133   T   T   T
 
  0.00000000E+00  0.00000000E+00  0.00000000E+00
  0.00000000E+00  0.00000000E+00  0.00000000E+00
  0.00000000E+00  0.00000000E+00  0.00000000E+00
  0.00000000E+00  0.00000000E+00  0.00000000E+00
  0.00000000E+00  0.00000000E+00  0.00000000E+00
  0.00000000E+00  0.00000000E+00  0.00000000E+00
  0.00000000E+00  0.00000000E+00  0.00000000E+00
  0.00000000E+00  0.00000000E+00  0.00000000E+00
  0.00000000E+00  0.00000000E+00  0.00000000E+00
  0.00000000E+00  0.00000000E+00  0.00000000E+00
  0.00000000E+00  0.00000000E+00  0.00000000E+00
  0.00000000E+00  0.00000000E+00  0.00000000E+00
  0.00000000E+00  0.00000000E+00  0.00000000E+00
  0.00000000E+00  0.00000000E+00  0.00000000E+00
  0.00000000E+00  0.00000000E+00  0.00000000E+00
  0.00000000E+00  0.00000000E+00  0.00000000E+00
  0.00000000E+00  0.00000000E+00  0.00000000E+00
  0.00000000E+00  0.00000000E+00  0.00000000E+00
  0.00000000E+00  0.00000000E+00  0.00000000E+00
  0.00000000E+00  0.00000000E+00  0.00000000E+00
  0.00000000E+00  0.00000000E+00  0.00000000E+00
  0.00000000E+00  0.00000000E+00  0.00000000E+00
  0.00000000E+00  0.00000000E+00  0.00000000E+00
  0.00000000E+00  0.00000000E+00  0.00000000E+00
  0.00000000E+00  0.00000000E+00  0.00000000E+00
