Title                                   
   1.00000000000000     
     9.8694509999999998    0.0000000000000000    0.0000000000000000
     0.0000000000000000    8.5490480000000009    0.0000000000000000
     0.0000000000000000    0.0000000000000000   20.0000000000000000
    24     6     1
Selective dynamics
Direct
  0.0557961023819259  0.0896884605209914  0.0934848454374899   T   T   T
  0.9316124659268388  0.1718842767475792  0.0942155544030697   T   T   T
  0.0571098768609708  0.9230086009638968  0.0930322535505023   T   T   T
  0.9334003404046584  0.3393125314168475  0.0940086660099412   T   T   T
  0.0567278137945373  0.5893836064453395  0.0912757334302309   T   T   T
  0.9335284874445353  0.6726460651862805  0.0925888674197658   T   T   T
  0.0567593509479534  0.4229591999529889  0.0921757297625393   T   T   T
  0.9322705061488396  0.8398771215584300  0.0933374361983809   T   T   T
  0.3066300313795896  0.0878000058196140  0.0959098858607368   T   T   T
  0.1812774783669241  0.1711512200283439  0.0942003864980606   T   T   T
  0.1797889508483949  0.3383548254712899  0.0939281799079352   T   T   T
  0.3019294549805446  0.5906113117668665  0.0966932143274257   T   T   T
  0.1800954583325395  0.6739397874208500  0.0924995437854389   T   T   T
  0.3018486018230357  0.4210417674485377  0.0970683600438911   T   T   T
  0.1811258296850499  0.8405948008836353  0.0933806872677867   T   T   T
  0.4289558823385471  0.1761169262696281  0.0990525325713364   T   T   T
  0.5547712285918297  0.9200272335958780  0.1002725339220953   T   T   T
  0.4283988604516426  0.8373623567556455  0.0997486134667453   T   T   T
  0.8054179302821746  0.0891164592622359  0.0957771024318714   T   T   T
  0.6830328050204445  0.1775857598552815  0.0988390476120863   T   T   T
  0.8064831582384058  0.9223249141531347  0.0955906074122615   T   T   T
  0.8108918462870734  0.5907911129107070  0.0965171881631060   T   T   T
  0.8109826107986868  0.4207449086434912  0.0969361191384025   T   T   T
  0.6829940988221856  0.8356030496441356  0.0993759855650130   T   T   T
  0.5566438409953240  0.0951678912972496  0.0999136304756120   T   T   T
  0.4223969939629318  0.3363906566075688  0.1011274028370005   T   T   T
  0.4208316262517512  0.6759195377475081  0.1030898627242032   T   T   T
  0.6893886039295035  0.3376636736312403  0.1008515359263239   T   T   T
  0.6907549538652279  0.6736249592828205  0.1022704683747860   T   T   T
  0.3053881176314632  0.9231175496172018  0.0955636896367725   T   T   T
  0.5559026932064712  0.5070644290947798  0.1082393358392471   T   T   T
 
  0.00000000E+00  0.00000000E+00  0.00000000E+00
  0.00000000E+00  0.00000000E+00  0.00000000E+00
  0.00000000E+00  0.00000000E+00  0.00000000E+00
  0.00000000E+00  0.00000000E+00  0.00000000E+00
  0.00000000E+00  0.00000000E+00  0.00000000E+00
  0.00000000E+00  0.00000000E+00  0.00000000E+00
  0.00000000E+00  0.00000000E+00  0.00000000E+00
  0.00000000E+00  0.00000000E+00  0.00000000E+00
  0.00000000E+00  0.00000000E+00  0.00000000E+00
  0.00000000E+00  0.00000000E+00  0.00000000E+00
  0.00000000E+00  0.00000000E+00  0.00000000E+00
  0.00000000E+00  0.00000000E+00  0.00000000E+00
  0.00000000E+00  0.00000000E+00  0.00000000E+00
  0.00000000E+00  0.00000000E+00  0.00000000E+00
  0.00000000E+00  0.00000000E+00  0.00000000E+00
  0.00000000E+00  0.00000000E+00  0.00000000E+00
  0.00000000E+00  0.00000000E+00  0.00000000E+00
  0.00000000E+00  0.00000000E+00  0.00000000E+00
  0.00000000E+00  0.00000000E+00  0.00000000E+00
  0.00000000E+00  0.00000000E+00  0.00000000E+00
  0.00000000E+00  0.00000000E+00  0.00000000E+00
  0.00000000E+00  0.00000000E+00  0.00000000E+00
  0.00000000E+00  0.00000000E+00  0.00000000E+00
  0.00000000E+00  0.00000000E+00  0.00000000E+00
  0.00000000E+00  0.00000000E+00  0.00000000E+00
  0.00000000E+00  0.00000000E+00  0.00000000E+00
  0.00000000E+00  0.00000000E+00  0.00000000E+00
  0.00000000E+00  0.00000000E+00  0.00000000E+00
  0.00000000E+00  0.00000000E+00  0.00000000E+00
  0.00000000E+00  0.00000000E+00  0.00000000E+00
  0.00000000E+00  0.00000000E+00  0.00000000E+00
