Title                                   
   1.00000000000000     
     4.9440799999999996    0.0000000000000000    0.0000000000000000
     0.0000000000000000   17.1295089999999988    0.0000000000000000
     0.0000000000000000    0.0000000000000000   20.0000000000000000
    30     1     1
Selective dynamics
Direct
  0.0004321574619916  0.1047661093367619  0.2826892993430495   T   T   T
  0.2499618756451140  0.1466907606096801  0.2866605039155382   T   T   T
  0.2498619472260974  0.2296289526284207  0.2971906881683809   T   T   T
 -0.0000910417378345  0.3512731596634076  0.3208948002106051   T   T   T
 -0.0018234599357673  0.2705454075078937  0.3029706406517282   T   T   T
 -0.0039712156903167  0.6055953421843434  0.3117118531355731   T   T   T
  0.2499461358598118  0.7283224559577905  0.2914985933158299   T   T   T
  0.0003422010178761  0.8537619620855120  0.2796768654649331   T   T   T
  0.2500480808391720  0.8956688345931002  0.2780805553097949   T   T   T
  0.2500410231764895  0.9793283452090897  0.2773141338825585   T   T   T
  0.0004284037050461  0.7703380404172121  0.2859921467717239   T   T   T
  0.4995316375958601  0.1047668534139171  0.2826901868243569   T   T   T
  0.7499761011227154  0.1463437876367637  0.2858486650685491   T   T   T
  0.7498776049217586  0.2289795393122283  0.2952786601020184   T   T   T
  0.4998437363140298  0.0212541052193658  0.2781788500961243   T   T   T
  0.4996931327360442  0.3512629021877975  0.3209075017091105   T   T   T
  0.7497303761425778  0.4778005124605414  0.3226997125361284   T   T   T
  0.5015205824393496  0.2705325492537182  0.3029828217981381   T   T   T
  0.5036450920306639  0.6056184673533063  0.3117412325521320   T   T   T
  0.7499692080649807  0.7294039423735695  0.2898021335277638   T   T   T
  0.4997372938235669  0.8537633271813883  0.2796737992299959   T   T   T
  0.7500409598192266  0.8955682367263526  0.2778178803855205   T   T   T
  0.7500451078124756  0.9793583668683171  0.2771165646370266   T   T   T
  0.4995349341448069  0.7703378108289906  0.2859932005333559   T   T   T
  0.7498591590370931  0.6469465891659408  0.3016722585203735   T   T   T
  0.2498274688811278  0.6458587074229614  0.3056617584875769   T   T   T
  0.0002226865205309  0.0212551296520590  0.2781813882769357   T   T   T
  0.5157089781714189  0.5243079392818693  0.3302174004493886   T   T   T
  0.9838060520018322  0.5242890900999615  0.3301485425228892   T   T   T
  0.2497860095491493  0.3874819217311510  0.3386460584024119   T   T   T
  0.7497684025920867  0.3932571525601258  0.3247800635884958   T   T   T
  0.2495223687110310  0.4842446990764552  0.3878462405819424   T   T   T
 
  0.00000000E+00  0.00000000E+00  0.00000000E+00
  0.00000000E+00  0.00000000E+00  0.00000000E+00
  0.00000000E+00  0.00000000E+00  0.00000000E+00
  0.00000000E+00  0.00000000E+00  0.00000000E+00
  0.00000000E+00  0.00000000E+00  0.00000000E+00
  0.00000000E+00  0.00000000E+00  0.00000000E+00
  0.00000000E+00  0.00000000E+00  0.00000000E+00
  0.00000000E+00  0.00000000E+00  0.00000000E+00
  0.00000000E+00  0.00000000E+00  0.00000000E+00
  0.00000000E+00  0.00000000E+00  0.00000000E+00
  0.00000000E+00  0.00000000E+00  0.00000000E+00
  0.00000000E+00  0.00000000E+00  0.00000000E+00
  0.00000000E+00  0.00000000E+00  0.00000000E+00
  0.00000000E+00  0.00000000E+00  0.00000000E+00
  0.00000000E+00  0.00000000E+00  0.00000000E+00
  0.00000000E+00  0.00000000E+00  0.00000000E+00
  0.00000000E+00  0.00000000E+00  0.00000000E+00
  0.00000000E+00  0.00000000E+00  0.00000000E+00
  0.00000000E+00  0.00000000E+00  0.00000000E+00
  0.00000000E+00  0.00000000E+00  0.00000000E+00
  0.00000000E+00  0.00000000E+00  0.00000000E+00
  0.00000000E+00  0.00000000E+00  0.00000000E+00
  0.00000000E+00  0.00000000E+00  0.00000000E+00
  0.00000000E+00  0.00000000E+00  0.00000000E+00
  0.00000000E+00  0.00000000E+00  0.00000000E+00
  0.00000000E+00  0.00000000E+00  0.00000000E+00
  0.00000000E+00  0.00000000E+00  0.00000000E+00
  0.00000000E+00  0.00000000E+00  0.00000000E+00
  0.00000000E+00  0.00000000E+00  0.00000000E+00
  0.00000000E+00  0.00000000E+00  0.00000000E+00
  0.00000000E+00  0.00000000E+00  0.00000000E+00
  0.00000000E+00  0.00000000E+00  0.00000000E+00
