Title                                   
   1.00000000000000     
     9.8694509999999998    0.0000000000000000    0.0000000000000000
     0.0000000000000000    8.5490480000000009    0.0000000000000000
     0.0000000000000000    0.0000000000000000   20.0000000000000000
    26     4     1
Selective dynamics
Direct
  0.0558391935065273  0.0884196450804563  0.0892654766413004   T   T   T
  0.9314691844388434  0.1723490044476503  0.0930767573778891   T   T   T
  0.0578076487059781  0.9206970340765778  0.0896084603305088   T   T   T
  0.9331103304301026  0.3398016028410782  0.0956935649015163   T   T   T
  0.0569991593614025  0.5906350143372503  0.0916003491123429   T   T   T
  0.0567332538028129  0.4234209226219109  0.0912601381957693   T   T   T
  0.9326704742378198  0.8384503319158888  0.0939626740691071   T   T   T
  0.3077745304294398  0.0878773403867771  0.0860454338866243   T   T   T
  0.1810274964163096  0.1710020351340552  0.0868779795036535   T   T   T
  0.1802594767705155  0.3373392895777192  0.0872964756003050   T   T   T
  0.3071338390721698  0.5865849204868150  0.0843547354577531   T   T   T
  0.1812534020723150  0.6724842217359114  0.0877915863786548   T   T   T
  0.3056238685940603  0.4177978323393275  0.0846058333872989   T   T   T
  0.1835585941396404  0.8389926356360812  0.0870557317807519   T   T   T
  0.4302726238937598  0.1728673819585030  0.0878517684290419   T   T   T
  0.5560706244318094  0.9252838434588495  0.0961358399208731   T   T   T
  0.4300532438144089  0.6751902806069928  0.0851792215996777   T   T   T
  0.4320719407722872  0.8392995553809244  0.0880514326109713   T   T   T
  0.8057751504792861  0.0895265169040922  0.0948238146814462   T   T   T
  0.6814428477202417  0.1781668498572249  0.0996029645197317   T   T   T
  0.8070567645082697  0.9218970227882116  0.0958702576624042   T   T   T
  0.6854272731593561  0.3416342520950172  0.1099879743236428   T   T   T
  0.8106585646896370  0.5930175050327450  0.1064613731432180   T   T   T
  0.6875631661460585  0.6742044047928952  0.1141175134932516   T   T   T
  0.8109279760809091  0.4223721580111326  0.1048680514808155   T   T   T
  0.6807652462204968  0.8400295090102626  0.1022735856613988   T   T   T
  0.9336789120467661  0.6724418528238505  0.0961831957880295   T   T   T
  0.5564356933006029  0.0945339128868090  0.0942968270717248   T   T   T
  0.4271549028419131  0.3341518656220520  0.0856493328001566   T   T   T
  0.3064369288370973  0.9222799756909976  0.0851209345213750   T   T   T
  0.5300826890791793  0.5081262824619576  0.1459957156688136   T   T   T
 
  0.00000000E+00  0.00000000E+00  0.00000000E+00
  0.00000000E+00  0.00000000E+00  0.00000000E+00
  0.00000000E+00  0.00000000E+00  0.00000000E+00
  0.00000000E+00  0.00000000E+00  0.00000000E+00
  0.00000000E+00  0.00000000E+00  0.00000000E+00
  0.00000000E+00  0.00000000E+00  0.00000000E+00
  0.00000000E+00  0.00000000E+00  0.00000000E+00
  0.00000000E+00  0.00000000E+00  0.00000000E+00
  0.00000000E+00  0.00000000E+00  0.00000000E+00
  0.00000000E+00  0.00000000E+00  0.00000000E+00
  0.00000000E+00  0.00000000E+00  0.00000000E+00
  0.00000000E+00  0.00000000E+00  0.00000000E+00
  0.00000000E+00  0.00000000E+00  0.00000000E+00
  0.00000000E+00  0.00000000E+00  0.00000000E+00
  0.00000000E+00  0.00000000E+00  0.00000000E+00
  0.00000000E+00  0.00000000E+00  0.00000000E+00
  0.00000000E+00  0.00000000E+00  0.00000000E+00
  0.00000000E+00  0.00000000E+00  0.00000000E+00
  0.00000000E+00  0.00000000E+00  0.00000000E+00
  0.00000000E+00  0.00000000E+00  0.00000000E+00
  0.00000000E+00  0.00000000E+00  0.00000000E+00
  0.00000000E+00  0.00000000E+00  0.00000000E+00
  0.00000000E+00  0.00000000E+00  0.00000000E+00
  0.00000000E+00  0.00000000E+00  0.00000000E+00
  0.00000000E+00  0.00000000E+00  0.00000000E+00
  0.00000000E+00  0.00000000E+00  0.00000000E+00
  0.00000000E+00  0.00000000E+00  0.00000000E+00
  0.00000000E+00  0.00000000E+00  0.00000000E+00
  0.00000000E+00  0.00000000E+00  0.00000000E+00
  0.00000000E+00  0.00000000E+00  0.00000000E+00
  0.00000000E+00  0.00000000E+00  0.00000000E+00
