Title                                   
   1.00000000000000     
     4.9440799999999996    0.0000000000000000    0.0000000000000000
     0.0000000000000000   17.1295089999999988    0.0000000000000000
     0.0000000000000000    0.0000000000000000   20.0000000000000000
    26     4     1
Selective dynamics
Direct
  0.0032083465225094  0.1055117420967441  0.2964244015195524   T   T   T
  0.2523278973717669  0.1484174421086576  0.2970277373220765   T   T   T
  0.2538372468972389  0.2333397078390146  0.2999686063386373   T   T   T
  0.0035838619490654  0.2752147439059732  0.3044163912140400   T   T   T
 -0.0107419437981249  0.6001756649905799  0.3041768701314772   T   T   T
  0.2422897521686653  0.7262816613435460  0.2969207145241538   T   T   T
 -0.0022612857125022  0.8530831291492522  0.2962512391983313   T   T   T
  0.2476101023557530  0.8951161224085378  0.2959058790463318   T   T   T
  0.2498061413967129  0.9793325932576997  0.2956809888136290   T   T   T
 -0.0045756222091245  0.7687003432148096  0.2967522531059592   T   T   T
  0.5019279191466495  0.1060049315423737  0.2953435832401389   T   T   T
  0.7543642174844871  0.1473913625454529  0.2957619206604170   T   T   T
  0.7576186180204484  0.2313538780516986  0.2973829070772806   T   T   T
  0.4999497283982933  0.0216485041495234  0.2951818172053012   T   T   T
  0.7556036650261609  0.3946280793603392  0.3019981678835614   T   T   T
  0.7451955721714876  0.4799397307014422  0.3021680179217188   T   T   T
  0.5088614316965763  0.2726702202622095  0.2966404163581903   T   T   T
  0.4895533581537929  0.6028983894623902  0.2924428399775121   T   T   T
  0.7453574174141187  0.7273251551675127  0.2954422833478396   T   T   T
  0.4956443903589600  0.8525947942756475  0.2955100177103119   T   T   T
  0.7471871188612281  0.8948103011490589  0.2956279416210354   T   T   T
  0.7493135162522079  0.9791868020013640  0.2954158797639350   T   T   T
  0.4935069604904577  0.7680541432168309  0.2953996596040471   T   T   T
  0.7420613682993110  0.6440379651389870  0.2956026470628551   T   T   T
  0.0005795517621898  0.0212704659116960  0.2958567793404882   T   T   T
  0.4992838826049279  0.5211897224807089  0.2902479254818139   T   T   T
  0.9868931662380851  0.5208890521365527  0.3198182181976195   T   T   T
  0.5188879497777269  0.3527995894753945  0.2948565344974354   T   T   T
 -0.0068672831686860  0.3566269140687912  0.3163780852770137   T   T   T
  0.2380475594181511  0.6424254067960911  0.2983648649921659   T   T   T
  0.3019523946514662  0.4384234417911176  0.3360944115650819   T   T   T
 
  0.00000000E+00  0.00000000E+00  0.00000000E+00
  0.00000000E+00  0.00000000E+00  0.00000000E+00
  0.00000000E+00  0.00000000E+00  0.00000000E+00
  0.00000000E+00  0.00000000E+00  0.00000000E+00
  0.00000000E+00  0.00000000E+00  0.00000000E+00
  0.00000000E+00  0.00000000E+00  0.00000000E+00
  0.00000000E+00  0.00000000E+00  0.00000000E+00
  0.00000000E+00  0.00000000E+00  0.00000000E+00
  0.00000000E+00  0.00000000E+00  0.00000000E+00
  0.00000000E+00  0.00000000E+00  0.00000000E+00
  0.00000000E+00  0.00000000E+00  0.00000000E+00
  0.00000000E+00  0.00000000E+00  0.00000000E+00
  0.00000000E+00  0.00000000E+00  0.00000000E+00
  0.00000000E+00  0.00000000E+00  0.00000000E+00
  0.00000000E+00  0.00000000E+00  0.00000000E+00
  0.00000000E+00  0.00000000E+00  0.00000000E+00
  0.00000000E+00  0.00000000E+00  0.00000000E+00
  0.00000000E+00  0.00000000E+00  0.00000000E+00
  0.00000000E+00  0.00000000E+00  0.00000000E+00
  0.00000000E+00  0.00000000E+00  0.00000000E+00
  0.00000000E+00  0.00000000E+00  0.00000000E+00
  0.00000000E+00  0.00000000E+00  0.00000000E+00
  0.00000000E+00  0.00000000E+00  0.00000000E+00
  0.00000000E+00  0.00000000E+00  0.00000000E+00
  0.00000000E+00  0.00000000E+00  0.00000000E+00
  0.00000000E+00  0.00000000E+00  0.00000000E+00
  0.00000000E+00  0.00000000E+00  0.00000000E+00
  0.00000000E+00  0.00000000E+00  0.00000000E+00
  0.00000000E+00  0.00000000E+00  0.00000000E+00
  0.00000000E+00  0.00000000E+00  0.00000000E+00
  0.00000000E+00  0.00000000E+00  0.00000000E+00
