Title                                   
   1.00000000000000     
     9.8694509999999998    0.0000000000000000    0.0000000000000000
     0.0000000000000000    8.5490480000000009    0.0000000000000000
     0.0000000000000000    0.0000000000000000   20.0000000000000000
    28     3     1
Selective dynamics
Direct
  0.0561357087385379  0.0912459451428507  0.0837056130763306   T   T   T
  0.9306016016714532  0.1747098897680037  0.0863949270406469   T   T   T
  0.0572010538553439  0.9232990102042795  0.0837060867258972   T   T   T
  0.9293317173105361  0.3418030200636038  0.0900463352684874   T   T   T
  0.0556429418946371  0.5892024296501486  0.0868570830398347   T   T   T
  0.9324434010602840  0.6737413867941986  0.0894066618290721   T   T   T
  0.0560043567055416  0.4228863704792127  0.0887141007284499   T   T   T
  0.9324022167149554  0.8412607603557988  0.0868638634154953   T   T   T
  0.3053787642296120  0.0873493367330538  0.0849479074345652   T   T   T
  0.1818326821696315  0.1733239023624170  0.0851876039445932   T   T   T
  0.3078555840646133  0.9214310508088326  0.0864712852297555   T   T   T
  0.1810208183063819  0.3393959123091941  0.0895223060231138   T   T   T
  0.3041482258966312  0.5878702217818754  0.0984731621417469   T   T   T
  0.1811581102696504  0.6704625796026207  0.0874644601497365   T   T   T
  0.1823865597714074  0.8375938666685788  0.0852616930939486   T   T   T
  0.5556738396823002  0.0862761633532365  0.0934355415200173   T   T   T
  0.4295847468632649  0.1687009662288662  0.0908488091014829   T   T   T
  0.4283808653799114  0.3341078782087252  0.1002166454300663   T   T   T
  0.4299871350828737  0.8372872774749465  0.0979835030545754   T   T   T
  0.8067303922854719  0.0910319221453296  0.0871192428307071   T   T   T
  0.6805034160301775  0.1709854684243813  0.0929775632070400   T   T   T
  0.8070433608622537  0.9255856871294531  0.0880130259443209   T   T   T
  0.6782802464090857  0.3360898592354093  0.1020902723941642   T   T   T
  0.8088489038175022  0.5941788966111847  0.0999806239377310   T   T   T
  0.8029617598224167  0.4259220173736391  0.0982636126114278   T   T   T
  0.6847928162415807  0.8428270787891811  0.0977406196987161   T   T   T
  0.4218294476614569  0.6752746303768994  0.1158554487721468   T   T   T
  0.5503541115397147  0.4085300910600740  0.1171198896665555   T   T   T
  0.6947794030032852  0.6867347561127342  0.1164466837718800   T   T   T
  0.5572678644288437  0.9191156916548577  0.0968327862211195   T   T   T
  0.3047994043148288  0.4210212549932018  0.0973378576412785   T   T   T
  0.5642775439158209  0.5910006781032137  0.1803897850551134   T   T   T
 
  0.00000000E+00  0.00000000E+00  0.00000000E+00
  0.00000000E+00  0.00000000E+00  0.00000000E+00
  0.00000000E+00  0.00000000E+00  0.00000000E+00
  0.00000000E+00  0.00000000E+00  0.00000000E+00
  0.00000000E+00  0.00000000E+00  0.00000000E+00
  0.00000000E+00  0.00000000E+00  0.00000000E+00
  0.00000000E+00  0.00000000E+00  0.00000000E+00
  0.00000000E+00  0.00000000E+00  0.00000000E+00
  0.00000000E+00  0.00000000E+00  0.00000000E+00
  0.00000000E+00  0.00000000E+00  0.00000000E+00
  0.00000000E+00  0.00000000E+00  0.00000000E+00
  0.00000000E+00  0.00000000E+00  0.00000000E+00
  0.00000000E+00  0.00000000E+00  0.00000000E+00
  0.00000000E+00  0.00000000E+00  0.00000000E+00
  0.00000000E+00  0.00000000E+00  0.00000000E+00
  0.00000000E+00  0.00000000E+00  0.00000000E+00
  0.00000000E+00  0.00000000E+00  0.00000000E+00
  0.00000000E+00  0.00000000E+00  0.00000000E+00
  0.00000000E+00  0.00000000E+00  0.00000000E+00
  0.00000000E+00  0.00000000E+00  0.00000000E+00
  0.00000000E+00  0.00000000E+00  0.00000000E+00
  0.00000000E+00  0.00000000E+00  0.00000000E+00
  0.00000000E+00  0.00000000E+00  0.00000000E+00
  0.00000000E+00  0.00000000E+00  0.00000000E+00
  0.00000000E+00  0.00000000E+00  0.00000000E+00
  0.00000000E+00  0.00000000E+00  0.00000000E+00
  0.00000000E+00  0.00000000E+00  0.00000000E+00
  0.00000000E+00  0.00000000E+00  0.00000000E+00
  0.00000000E+00  0.00000000E+00  0.00000000E+00
  0.00000000E+00  0.00000000E+00  0.00000000E+00
  0.00000000E+00  0.00000000E+00  0.00000000E+00
  0.00000000E+00  0.00000000E+00  0.00000000E+00
