Title                                   
   1.00000000000000     
     9.8694509999999998    0.0000000000000000    0.0000000000000000
     0.0000000000000000    8.5490480000000009    0.0000000000000000
     0.0000000000000000    0.0000000000000000   20.0000000000000000
    30     1
Selective dynamics
Direct
  0.0562369479558034  0.0888037503276620  0.0863191542274154   T   T   T
  0.9309542658162787  0.1719468072742825  0.0880061932875340   T   T   T
  0.0562257820421908  0.9234394358833493  0.0863037461765842   T   T   T
  0.9321824507910939  0.3385206121838272  0.0873882485859859   T   T   T
  0.0562377895754181  0.5893208227335168  0.0853339502042135   T   T   T
  0.9321925806138712  0.6737511780423443  0.0873338074514036   T   T   T
  0.0562370124476877  0.4229535472628543  0.0853623824701336   T   T   T
  0.9309522468246395  0.8403156738589234  0.0879676813964386   T   T   T
  0.3068526398017859  0.0901308296083947  0.0929824615739019   T   T   T
  0.1815096308809470  0.1719505112202812  0.0881110456376873   T   T   T
  0.3068212860573131  0.9222160617256572  0.0929718227732120   T   T   T
  0.1802763476661949  0.3385148002767502  0.0874842322544659   T   T   T
  0.3033223910785917  0.5904919666715595  0.0933580859000507   T   T   T
  0.1802492103652037  0.6737984380763091  0.0874533355035030   T   T   T
  0.3033636412966174  0.4218334046150319  0.0933575111369266   T   T   T
  0.1814928664526873  0.8403497575592426  0.0880801347878895   T   T   T
  0.5562398645031993  0.0889873762521660  0.1012746351968063   T   T   T
  0.4315469071311845  0.1766073847315912  0.0993940241824483   T   T   T
  0.5562349906006540  0.9233196344040674  0.1012826275324947   T   T   T
  0.4264181268697238  0.3419000725340589  0.1031876520571929   T   T   T
  0.4263110612162879  0.6704954010892448  0.1032171012909337   T   T   T
  0.4315055592607867  0.8357644287702743  0.0994063623544665   T   T   T
  0.8056043158949712  0.0900890668305934  0.0928046198673813   T   T   T
  0.6809224189933110  0.1765703941701170  0.0992203186833018   T   T   T
  0.8056082271127841  0.9221742394126937  0.0927833405493081   T   T   T
  0.6860553436128471  0.3418475445921607  0.1029626965101432   T   T   T
  0.8090910558584189  0.5904405379514225  0.0931193412872135   T   T   T
  0.6861242570656064  0.6704580092888380  0.1029278483357140   T   T   T
  0.8090707426121713  0.4218113401781100  0.0931576017069737   T   T   T
  0.6809321959838004  0.8357206263673460  0.0991954761774176   T   T   T
  0.5563628436179406  0.5063513461073429  0.1392175609008993   T   T   T
 
  0.00000000E+00  0.00000000E+00  0.00000000E+00
  0.00000000E+00  0.00000000E+00  0.00000000E+00
  0.00000000E+00  0.00000000E+00  0.00000000E+00
  0.00000000E+00  0.00000000E+00  0.00000000E+00
  0.00000000E+00  0.00000000E+00  0.00000000E+00
  0.00000000E+00  0.00000000E+00  0.00000000E+00
  0.00000000E+00  0.00000000E+00  0.00000000E+00
  0.00000000E+00  0.00000000E+00  0.00000000E+00
  0.00000000E+00  0.00000000E+00  0.00000000E+00
  0.00000000E+00  0.00000000E+00  0.00000000E+00
  0.00000000E+00  0.00000000E+00  0.00000000E+00
  0.00000000E+00  0.00000000E+00  0.00000000E+00
  0.00000000E+00  0.00000000E+00  0.00000000E+00
  0.00000000E+00  0.00000000E+00  0.00000000E+00
  0.00000000E+00  0.00000000E+00  0.00000000E+00
  0.00000000E+00  0.00000000E+00  0.00000000E+00
  0.00000000E+00  0.00000000E+00  0.00000000E+00
  0.00000000E+00  0.00000000E+00  0.00000000E+00
  0.00000000E+00  0.00000000E+00  0.00000000E+00
  0.00000000E+00  0.00000000E+00  0.00000000E+00
  0.00000000E+00  0.00000000E+00  0.00000000E+00
  0.00000000E+00  0.00000000E+00  0.00000000E+00
  0.00000000E+00  0.00000000E+00  0.00000000E+00
  0.00000000E+00  0.00000000E+00  0.00000000E+00
  0.00000000E+00  0.00000000E+00  0.00000000E+00
  0.00000000E+00  0.00000000E+00  0.00000000E+00
  0.00000000E+00  0.00000000E+00  0.00000000E+00
  0.00000000E+00  0.00000000E+00  0.00000000E+00
  0.00000000E+00  0.00000000E+00  0.00000000E+00
  0.00000000E+00  0.00000000E+00  0.00000000E+00
  0.00000000E+00  0.00000000E+00  0.00000000E+00
