Title                                   
   1.00000000000000     
     9.8694509999999998    0.0000000000000000    0.0000000000000000
     0.0000000000000000    8.5490480000000009    0.0000000000000000
     0.0000000000000000    0.0000000000000000   20.0000000000000000
    27     4     1
Selective dynamics
Direct
  0.0558653082883099  0.0912280881998153  0.0845916378879167   T   T   T
  0.9306710537131999  0.1752995275488700  0.0860574955499352   T   T   T
  0.0578279080865334  0.9241528487902332  0.0846592117881828   T   T   T
  0.9291083713473600  0.3424179428862283  0.0878644019527098   T   T   T
  0.0569205665425798  0.5906550680594108  0.0845825914534576   T   T   T
  0.9325965097893468  0.6736216853537651  0.0879641013034353   T   T   T
  0.0558504176812385  0.4232368092186105  0.0859250250887421   T   T   T
  0.9330634760949061  0.8412262604122389  0.0875173368660702   T   T   T
  0.3056996646180397  0.0879697378548359  0.0881751057851210   T   T   T
  0.1818846695789764  0.1728221498507564  0.0859777184277650   T   T   T
  0.1813143189836971  0.3389197442199453  0.0872818117173071   T   T   T
  0.3052948809239834  0.5888117484337636  0.0968784106758761   T   T   T
  0.1823569325664629  0.6732998505708432  0.0863903158913953   T   T   T
  0.3081482992593580  0.4203546171402583  0.0949631462611412   T   T   T
  0.1826521531288932  0.8406600013549503  0.0858431991290171   T   T   T
  0.5560381153880212  0.0868017055252879  0.0959008733973016   T   T   T
  0.5557136235638345  0.9215009036149949  0.1009921691770954   T   T   T
  0.4294480559077465  0.3307791212418142  0.1002588366335119   T   T   T
  0.4279154867237426  0.8400579098388558  0.1016644505717478   T   T   T
  0.8059835462840231  0.0904535617732859  0.0879757539198103   T   T   T
  0.6798170181505855  0.1714960617338723  0.0927805519477892   T   T   T
  0.8081753259519242  0.9251261195929958  0.0905011218441903   T   T   T
  0.6790328609572583  0.3356846060488114  0.0996064804620071   T   T   T
  0.8088697557605449  0.5943233038824195  0.0976306387928668   T   T   T
  0.8011176659266257  0.4261853234845004  0.0953597342095422   T   T   T
  0.6847831852008617  0.8422684489895189  0.1012251015332491   T   T   T
  0.4204124681677398  0.6800478281766523  0.1131258890854933   T   T   T
  0.5514962448537927  0.3993160444100589  0.1171284621599285   T   T   T
  0.6948201410775230  0.6833814994421014  0.1147259974143948   T   T   T
  0.3066840191524565  0.9252485648218013  0.0887961286411693   T   T   T
  0.4291025250525993  0.1671829104463504  0.0934782408327406   T   T   T
  0.5609744312778434  0.5857160070821548  0.1798530595991054   T   T   T
 
  0.00000000E+00  0.00000000E+00  0.00000000E+00
  0.00000000E+00  0.00000000E+00  0.00000000E+00
  0.00000000E+00  0.00000000E+00  0.00000000E+00
  0.00000000E+00  0.00000000E+00  0.00000000E+00
  0.00000000E+00  0.00000000E+00  0.00000000E+00
  0.00000000E+00  0.00000000E+00  0.00000000E+00
  0.00000000E+00  0.00000000E+00  0.00000000E+00
  0.00000000E+00  0.00000000E+00  0.00000000E+00
  0.00000000E+00  0.00000000E+00  0.00000000E+00
  0.00000000E+00  0.00000000E+00  0.00000000E+00
  0.00000000E+00  0.00000000E+00  0.00000000E+00
  0.00000000E+00  0.00000000E+00  0.00000000E+00
  0.00000000E+00  0.00000000E+00  0.00000000E+00
  0.00000000E+00  0.00000000E+00  0.00000000E+00
  0.00000000E+00  0.00000000E+00  0.00000000E+00
  0.00000000E+00  0.00000000E+00  0.00000000E+00
  0.00000000E+00  0.00000000E+00  0.00000000E+00
  0.00000000E+00  0.00000000E+00  0.00000000E+00
  0.00000000E+00  0.00000000E+00  0.00000000E+00
  0.00000000E+00  0.00000000E+00  0.00000000E+00
  0.00000000E+00  0.00000000E+00  0.00000000E+00
  0.00000000E+00  0.00000000E+00  0.00000000E+00
  0.00000000E+00  0.00000000E+00  0.00000000E+00
  0.00000000E+00  0.00000000E+00  0.00000000E+00
  0.00000000E+00  0.00000000E+00  0.00000000E+00
  0.00000000E+00  0.00000000E+00  0.00000000E+00
  0.00000000E+00  0.00000000E+00  0.00000000E+00
  0.00000000E+00  0.00000000E+00  0.00000000E+00
  0.00000000E+00  0.00000000E+00  0.00000000E+00
  0.00000000E+00  0.00000000E+00  0.00000000E+00
  0.00000000E+00  0.00000000E+00  0.00000000E+00
  0.00000000E+00  0.00000000E+00  0.00000000E+00
