Title                                   
   1.00000000000000     
     9.8694509999999998    0.0000000000000000    0.0000000000000000
     0.0000000000000000    8.5490480000000009    0.0000000000000000
     0.0000000000000000    0.0000000000000000   20.0000000000000000
    26     4     1
Selective dynamics
Direct
  0.0551144740521396  0.0896379389993541  0.0854638872105557   T   T   T
  0.9300002665564768  0.1736007342459378  0.0858281984000745   T   T   T
  0.0573857851777357  0.9231828698342219  0.0858171967259242   T   T   T
  0.9320451222264740  0.3414935112429588  0.0860255740889003   T   T   T
  0.0569484824256058  0.5899524816269729  0.0856968553416386   T   T   T
  0.9329929132182004  0.6739825166694270  0.0872471290575974   T   T   T
  0.0568991017883244  0.4228360018924103  0.0854974798651322   T   T   T
  0.9324450834507686  0.8409630609905631  0.0873191432005866   T   T   T
  0.3060900504268382  0.0864602673606073  0.0923141948375957   T   T   T
  0.1811386902417746  0.1706945809584006  0.0883745480424695   T   T   T
  0.1808336480071035  0.3371759417399402  0.0889442180571714   T   T   T
  0.3060557793045752  0.5866864879037880  0.0965287465071430   T   T   T
  0.1820822765210605  0.6722801459249420  0.0884591114547884   T   T   T
  0.3042018782576086  0.4173835025167967  0.0973753334955518   T   T   T
  0.1827758576946479  0.8386052284303027  0.0878627808573913   T   T   T
  0.4287622157296053  0.1731224387048757  0.1000965614671767   T   T   T
  0.5556928283138978  0.9221066182855303  0.1008099263948425   T   T   T
  0.4263832994391097  0.6735703679793658  0.1059719383822135   T   T   T
  0.4298816166525126  0.8370017909457141  0.1002732380989432   T   T   T
  0.8039818040155250  0.0898677247907781  0.0890877048801443   T   T   T
  0.6797662465386947  0.1781796554137097  0.0951311326918840   T   T   T
  0.8064421748841887  0.9239226421376393  0.0905656992420328   T   T   T
  0.6829872513350906  0.3415867957627086  0.0977729821627457   T   T   T
  0.8088232703729509  0.5942524785274437  0.0928565136006448   T   T   T
  0.8071734245662116  0.4246810699255864  0.0910747577577791   T   T   T
  0.6822490130660053  0.8379538043353809  0.0984022916834763   T   T   T
  0.5550697780957716  0.0925146595720243  0.0998514771324071   T   T   T
  0.4232955273176194  0.3325156586916135  0.1076348804672365   T   T   T
  0.6886058714586789  0.6756234931729762  0.1030646214880919   T   T   T
  0.3060794050377873  0.9224895739323107  0.0913281246522081   T   T   T
  0.5609318638270179  0.5065509574857445  0.1482887527556873   T   T   T
 
  0.00000000E+00  0.00000000E+00  0.00000000E+00
  0.00000000E+00  0.00000000E+00  0.00000000E+00
  0.00000000E+00  0.00000000E+00  0.00000000E+00
  0.00000000E+00  0.00000000E+00  0.00000000E+00
  0.00000000E+00  0.00000000E+00  0.00000000E+00
  0.00000000E+00  0.00000000E+00  0.00000000E+00
  0.00000000E+00  0.00000000E+00  0.00000000E+00
  0.00000000E+00  0.00000000E+00  0.00000000E+00
  0.00000000E+00  0.00000000E+00  0.00000000E+00
  0.00000000E+00  0.00000000E+00  0.00000000E+00
  0.00000000E+00  0.00000000E+00  0.00000000E+00
  0.00000000E+00  0.00000000E+00  0.00000000E+00
  0.00000000E+00  0.00000000E+00  0.00000000E+00
  0.00000000E+00  0.00000000E+00  0.00000000E+00
  0.00000000E+00  0.00000000E+00  0.00000000E+00
  0.00000000E+00  0.00000000E+00  0.00000000E+00
  0.00000000E+00  0.00000000E+00  0.00000000E+00
  0.00000000E+00  0.00000000E+00  0.00000000E+00
  0.00000000E+00  0.00000000E+00  0.00000000E+00
  0.00000000E+00  0.00000000E+00  0.00000000E+00
  0.00000000E+00  0.00000000E+00  0.00000000E+00
  0.00000000E+00  0.00000000E+00  0.00000000E+00
  0.00000000E+00  0.00000000E+00  0.00000000E+00
  0.00000000E+00  0.00000000E+00  0.00000000E+00
  0.00000000E+00  0.00000000E+00  0.00000000E+00
  0.00000000E+00  0.00000000E+00  0.00000000E+00
  0.00000000E+00  0.00000000E+00  0.00000000E+00
  0.00000000E+00  0.00000000E+00  0.00000000E+00
  0.00000000E+00  0.00000000E+00  0.00000000E+00
  0.00000000E+00  0.00000000E+00  0.00000000E+00
  0.00000000E+00  0.00000000E+00  0.00000000E+00
