Title                                   
   1.00000000000000     
     4.9440799999999996    0.0000000000000000    0.0000000000000000
     0.0000000000000000   17.1295089999999988    0.0000000000000000
     0.0000000000000000    0.0000000000000000   20.0000000000000000
    29     1     1
Selective dynamics
Direct
  0.0015440586517533  0.1036652260359046  0.2873900556900732   T   T   T
  0.2518719653756413  0.1460074023463048  0.2906595615775011   T   T   T
  0.2530282227946398  0.2284124452485937  0.2989542648698173   T   T   T
  0.0019163918473189  0.2707019941042246  0.3041799476795926   T   T   T
 -0.0051165399032624  0.6059749115753026  0.3112823822503138   T   T   T
  0.2469780822310476  0.7278557608915253  0.2936474903973360   T   T   T
 -0.0004437952266675  0.8532387713317620  0.2846960937622413   T   T   T
  0.2488450554359498  0.8952537494824172  0.2833167664792318   T   T   T
  0.2500351033666231  0.9785806617513627  0.2827236848602637   T   T   T
 -0.0016662228684621  0.7698133318357466  0.2897602793449651   T   T   T
  0.5016121540151071  0.1037172699480030  0.2871187860950071   T   T   T
  0.7520166118040962  0.1450937223237894  0.2899619488473318   T   T   T
  0.7530263163018733  0.2281042959813496  0.2980154582114450   T   T   T
  0.5003438755072210  0.0204013283737822  0.2832900308219121   T   T   T
  0.7538539447753075  0.3961216630215256  0.3147392910369608   T   T   T
  0.7510649408278186  0.4840928549591155  0.3176954724665569   T   T   T
  0.5046644390013566  0.2704987466665874  0.3027688466896071   T   T   T
  0.4953245006680833  0.6039854207879763  0.3043313742318245   T   T   T
  0.7471263554165640  0.7289703280684360  0.2913470110270159   T   T   T
  0.4973438277881023  0.8531350567877207  0.2839939947858097   T   T   T
  0.7488006976492009  0.8947034663740584  0.2827915762668778   T   T   T
  0.7499783392495795  0.9784117977277745  0.2823665716016780   T   T   T
  0.4963947135468723  0.7696337146932891  0.2882900532302958   T   T   T
  0.7460646220952445  0.6469897989436445  0.2996728670550987   T   T   T
  0.0004451782481546  0.0203526215914924  0.2834866850762284   T   T   T
  0.5004338751732048  0.5224941224473967  0.3087347360301825   T   T   T
 -0.0058578140971575  0.5272056435108345  0.3306094381635190   T   T   T
  0.5103970213650104  0.3522103467793708  0.3120456537058889   T   T   T
 -0.0022956939672802  0.3520586026727754  0.3153810845867371   T   T   T
  0.2453393129555221  0.6470002866960542  0.3041477605027545   T   T   T
  0.2669374599715387  0.4366566570418742  0.3776608326558863   T   T   T
 
  0.00000000E+00  0.00000000E+00  0.00000000E+00
  0.00000000E+00  0.00000000E+00  0.00000000E+00
  0.00000000E+00  0.00000000E+00  0.00000000E+00
  0.00000000E+00  0.00000000E+00  0.00000000E+00
  0.00000000E+00  0.00000000E+00  0.00000000E+00
  0.00000000E+00  0.00000000E+00  0.00000000E+00
  0.00000000E+00  0.00000000E+00  0.00000000E+00
  0.00000000E+00  0.00000000E+00  0.00000000E+00
  0.00000000E+00  0.00000000E+00  0.00000000E+00
  0.00000000E+00  0.00000000E+00  0.00000000E+00
  0.00000000E+00  0.00000000E+00  0.00000000E+00
  0.00000000E+00  0.00000000E+00  0.00000000E+00
  0.00000000E+00  0.00000000E+00  0.00000000E+00
  0.00000000E+00  0.00000000E+00  0.00000000E+00
  0.00000000E+00  0.00000000E+00  0.00000000E+00
  0.00000000E+00  0.00000000E+00  0.00000000E+00
  0.00000000E+00  0.00000000E+00  0.00000000E+00
  0.00000000E+00  0.00000000E+00  0.00000000E+00
  0.00000000E+00  0.00000000E+00  0.00000000E+00
  0.00000000E+00  0.00000000E+00  0.00000000E+00
  0.00000000E+00  0.00000000E+00  0.00000000E+00
  0.00000000E+00  0.00000000E+00  0.00000000E+00
  0.00000000E+00  0.00000000E+00  0.00000000E+00
  0.00000000E+00  0.00000000E+00  0.00000000E+00
  0.00000000E+00  0.00000000E+00  0.00000000E+00
  0.00000000E+00  0.00000000E+00  0.00000000E+00
  0.00000000E+00  0.00000000E+00  0.00000000E+00
  0.00000000E+00  0.00000000E+00  0.00000000E+00
  0.00000000E+00  0.00000000E+00  0.00000000E+00
  0.00000000E+00  0.00000000E+00  0.00000000E+00
  0.00000000E+00  0.00000000E+00  0.00000000E+00
