Title                                   
   1.00000000000000     
     4.9440799999999996    0.0000000000000000    0.0000000000000000
     0.0000000000000000    8.5647549999999999    0.0000000000000000
     0.0000000000000000    0.0000000000000000   20.0000000000000000
    10     4     1
Selective dynamics
Direct
  0.2500000000000000  0.2120804100530079  0.1005643072869043   T   T   T
 -0.0021029864083605  0.2947944477023730  0.1004374014725008   T   T   T
  0.2500000000000000  0.0374864683873076  0.1005805820851054   T   T   T
 -0.0020852167472001  0.9547606948431578  0.1004798152275425   T   T   T
  0.7500000000000000  0.2082312473163487  0.1003410114913614   T   T   T
  0.5021029864083605  0.2947944477023730  0.1004374014725008   T   T   T
  0.7500000000000000  0.0413089765686983  0.1003629939064303   T   T   T
  0.7500000000000000  0.7149823481412014  0.0998888901706448   T   T   T
  0.7500000000000000  0.5345876211482560  0.0998496518855934   T   T   T
  0.5020852167472003  0.9547606948431578  0.1004798152275425   T   T   T
  0.5148641874745816  0.4570804574416604  0.1002078118603738   T   T   T
 -0.0148641874745814  0.4570804574416604  0.1002078118603738   T   T   T
 -0.0148751547489420  0.7924711184650730  0.1002568032088831   T   T   T
  0.5148751547489419  0.7924711184650730  0.1002568032088831   T   T   T
  0.2500000000000000  0.6247904914806540  0.1036288996353635   T   T   T
 
  0.00000000E+00  0.00000000E+00  0.00000000E+00
  0.00000000E+00  0.00000000E+00  0.00000000E+00
  0.00000000E+00  0.00000000E+00  0.00000000E+00
  0.00000000E+00  0.00000000E+00  0.00000000E+00
  0.00000000E+00  0.00000000E+00  0.00000000E+00
  0.00000000E+00  0.00000000E+00  0.00000000E+00
  0.00000000E+00  0.00000000E+00  0.00000000E+00
  0.00000000E+00  0.00000000E+00  0.00000000E+00
  0.00000000E+00  0.00000000E+00  0.00000000E+00
  0.00000000E+00  0.00000000E+00  0.00000000E+00
  0.00000000E+00  0.00000000E+00  0.00000000E+00
  0.00000000E+00  0.00000000E+00  0.00000000E+00
  0.00000000E+00  0.00000000E+00  0.00000000E+00
  0.00000000E+00  0.00000000E+00  0.00000000E+00
  0.00000000E+00  0.00000000E+00  0.00000000E+00
