Title                                   
   1.00000000000000     
     8.5490480000000009    0.0000000000000000    0.0000000000000000
     0.0000000000000000    8.5490480000000009    0.0000000000000000
     0.0000000000000000    0.0000000000000000   20.0000000000000000
    24     1
Selective dynamics
Direct
  0.9119742663018351  0.2050661738437726  0.1026499945871019   T   T   T
  0.9093080700649059  0.5017833076415089  0.0973455805666078   T   T   T
  0.9120372878696295  0.7985710875562044  0.1026130006431955   T   T   T
  0.1962599587808042  0.0827750627362850  0.1028322818298489   T   T   T
  0.0739838317210831  0.2050313285874359  0.1027276071022033   T   T   T
  0.1963043943962720  0.9207603799939675  0.1028587749972617   T   T   T
  0.1567162334977073  0.6493770992502632  0.0972323993040019   T   T   T
  0.0768343970775153  0.5017639737169723  0.0974369704393540   T   T   T
  0.1566501168779333  0.3541755794998923  0.0971943524584364   T   T   T
  0.0740516482709886  0.7985157094691857  0.1027794052429227   T   T   T
  0.4929576419075897  0.0855145116081205  0.0974537384562239   T   T   T
  0.3453898179773742  0.1654330915504593  0.0972857378021373   T   T   T
  0.4929744892166510  0.9180395356082777  0.0974190650712522   T   T   T
  0.3454456844788878  0.8381225883672346  0.0972681518597875   T   T   T
  0.7897013413909995  0.0828371822075179  0.1026370731242377   T   T   T
  0.6405450622929875  0.1654696180328981  0.0971232500363839   T   T   T
  0.7897351861209093  0.9208313813960743  0.1026205371548614   T   T   T
  0.8294611728658224  0.6494136116021311  0.0970027823857917   T   T   T
  0.8293760539338924  0.3542137718060120  0.0971012474018745   T   T   T
  0.6406226743547867  0.8381387362884736  0.0970367660069062   T   T   T
  0.3203826876759219  0.3291031906992427  0.0896448619739495   T   T   T
  0.3204584270953929  0.6744331173216609  0.0896834536300512   T   T   T
  0.6655975849815389  0.3291791944796496  0.0895582362964245   T   T   T
  0.6657269633710186  0.6744597826326176  0.0893790839756366   T   T   T
  0.4929170074775458  0.5017809841041561  0.0368206476535257   T   T   T
 
  0.00000000E+00  0.00000000E+00  0.00000000E+00
  0.00000000E+00  0.00000000E+00  0.00000000E+00
  0.00000000E+00  0.00000000E+00  0.00000000E+00
  0.00000000E+00  0.00000000E+00  0.00000000E+00
  0.00000000E+00  0.00000000E+00  0.00000000E+00
  0.00000000E+00  0.00000000E+00  0.00000000E+00
  0.00000000E+00  0.00000000E+00  0.00000000E+00
  0.00000000E+00  0.00000000E+00  0.00000000E+00
  0.00000000E+00  0.00000000E+00  0.00000000E+00
  0.00000000E+00  0.00000000E+00  0.00000000E+00
  0.00000000E+00  0.00000000E+00  0.00000000E+00
  0.00000000E+00  0.00000000E+00  0.00000000E+00
  0.00000000E+00  0.00000000E+00  0.00000000E+00
  0.00000000E+00  0.00000000E+00  0.00000000E+00
  0.00000000E+00  0.00000000E+00  0.00000000E+00
  0.00000000E+00  0.00000000E+00  0.00000000E+00
  0.00000000E+00  0.00000000E+00  0.00000000E+00
  0.00000000E+00  0.00000000E+00  0.00000000E+00
  0.00000000E+00  0.00000000E+00  0.00000000E+00
  0.00000000E+00  0.00000000E+00  0.00000000E+00
  0.00000000E+00  0.00000000E+00  0.00000000E+00
  0.00000000E+00  0.00000000E+00  0.00000000E+00
  0.00000000E+00  0.00000000E+00  0.00000000E+00
  0.00000000E+00  0.00000000E+00  0.00000000E+00
  0.00000000E+00  0.00000000E+00  0.00000000E+00
