Title                                   
   1.00000000000000     
     4.9440799999999996    0.0000000000000000    0.0000000000000000
     0.0000000000000000   17.1295089999999988    0.0000000000000000
     0.0000000000000000    0.0000000000000000   20.0000000000000000
    29     1     1
Selective dynamics
Direct
  0.0001766509268447  0.1031139934181432  0.2979471769716781   T   T   T
  0.2502725132129526  0.1452834964592223  0.2981541012784240   T   T   T
  0.2502122625040231  0.2278616546017221  0.2998833133546409   T   T   T
 -0.0014610870980321  0.2696766108364504  0.3028580891363558   T   T   T
 -0.0003661145205936  0.6057608861674728  0.3039244342224793   T   T   T
  0.2502711784112256  0.7285946870638378  0.2989880905289756   T   T   T
  0.0013664384055600  0.8539198774516439  0.2973567373731253   T   T   T
  0.2502444507177534  0.8957094366023057  0.2967530946628119   T   T   T
  0.2502889386706386  0.9786208421278971  0.2966296128364910   T   T   T
  0.0012654218700294  0.7707308548643222  0.2988447886278111   T   T   T
  0.5004312016060679  0.1031543520125991  0.2971087775339216   T   T   T
  0.7503487036710955  0.1443069230476329  0.2981650613101480   T   T   T
  0.7503235283121461  0.2272745625260157  0.2998674541787180   T   T   T
  0.5003412466251201  0.0201416032890685  0.2965328342894035   T   T   T
  0.7504617814673632  0.3945955773446006  0.3027463370226944   T   T   T
  0.7504537638500732  0.4828403658620559  0.3028723322825864   T   T   T
  0.5019933407008248  0.2697293455997914  0.2988461278507321   T   T   T
  0.5009951040628049  0.6057195633965322  0.2990323530095101   T   T   T
  0.7503604055200511  0.7304079794108050  0.2989322062683674   T   T   T
  0.4991412611256925  0.8539013284682410  0.2967577731256352   T   T   T
  0.7502469824663236  0.8951476254335883  0.2967360129552218   T   T   T
  0.7502694822223549  0.9784647207979656  0.2966169053672813   T   T   T
  0.4993716148556376  0.7706867507363042  0.2975278664772961   T   T   T
  0.7503957941173539  0.6483060085735994  0.3006653634665780   T   T   T
  0.0002411544494234  0.0201156737021084  0.2969983487938341   T   T   T
  0.5099919623750225  0.5250492375374802  0.2958827833498082   T   T   T
  0.9908216631608643  0.5252122007621947  0.3095578819691698   T   T   T
  0.5132553710863901  0.3512027200048322  0.2969646474214315   T   T   T
 -0.0124861346627129  0.3510247454367479  0.3078853665283460   T   T   T
  0.2502585717473020  0.6474469198942503  0.3006543617569489   T   T   T
  0.2505195481403997  0.4373414565705662  0.3033697660495273   T   T   T
 
  0.00000000E+00  0.00000000E+00  0.00000000E+00
  0.00000000E+00  0.00000000E+00  0.00000000E+00
  0.00000000E+00  0.00000000E+00  0.00000000E+00
  0.00000000E+00  0.00000000E+00  0.00000000E+00
  0.00000000E+00  0.00000000E+00  0.00000000E+00
  0.00000000E+00  0.00000000E+00  0.00000000E+00
  0.00000000E+00  0.00000000E+00  0.00000000E+00
  0.00000000E+00  0.00000000E+00  0.00000000E+00
  0.00000000E+00  0.00000000E+00  0.00000000E+00
  0.00000000E+00  0.00000000E+00  0.00000000E+00
  0.00000000E+00  0.00000000E+00  0.00000000E+00
  0.00000000E+00  0.00000000E+00  0.00000000E+00
  0.00000000E+00  0.00000000E+00  0.00000000E+00
  0.00000000E+00  0.00000000E+00  0.00000000E+00
  0.00000000E+00  0.00000000E+00  0.00000000E+00
  0.00000000E+00  0.00000000E+00  0.00000000E+00
  0.00000000E+00  0.00000000E+00  0.00000000E+00
  0.00000000E+00  0.00000000E+00  0.00000000E+00
  0.00000000E+00  0.00000000E+00  0.00000000E+00
  0.00000000E+00  0.00000000E+00  0.00000000E+00
  0.00000000E+00  0.00000000E+00  0.00000000E+00
  0.00000000E+00  0.00000000E+00  0.00000000E+00
  0.00000000E+00  0.00000000E+00  0.00000000E+00
  0.00000000E+00  0.00000000E+00  0.00000000E+00
  0.00000000E+00  0.00000000E+00  0.00000000E+00
  0.00000000E+00  0.00000000E+00  0.00000000E+00
  0.00000000E+00  0.00000000E+00  0.00000000E+00
  0.00000000E+00  0.00000000E+00  0.00000000E+00
  0.00000000E+00  0.00000000E+00  0.00000000E+00
  0.00000000E+00  0.00000000E+00  0.00000000E+00
  0.00000000E+00  0.00000000E+00  0.00000000E+00
