Title                                   
   1.00000000000000     
     4.9440799999999996    0.0000000000000000    0.0000000000000000
     0.0000000000000000    8.5647549999999999    0.0000000000000000
     0.0000000000000000    0.0000000000000000   20.0000000000000000
    13     2     1
Selective dynamics
Direct
  0.2516315067836223  0.2083880670856589  0.0901961076790235   T   T   T
 -0.0031345236416027  0.2884368153229773  0.0913669939519912   T   T   T
  0.2525196811957826  0.0427679896303493  0.0835275255942675   T   T   T
  0.0041050164880973  0.7969974242051940  0.0954892954417085   T   T   T
  0.0014083722070399  0.9593506935601864  0.0821263370641890   T   T   T
  0.7487189331755991  0.2074770852403683  0.0845128960078180   T   T   T
  0.5032529837841277  0.2896381855902097  0.0985888469823361   T   T   T
  0.7516000039871968  0.0416879225746624  0.0792659656222662   T   T   T
  0.7562875287920970  0.7057046194732330  0.1025454006489405   T   T   T
  0.5049895116906661  0.7955372178514751  0.0975897127471129   T   T   T
  0.7549919510046820  0.5356511161374897  0.1145327035206343   T   T   T
  0.5041070608569994  0.9585475041182883  0.0843201011420704   T   T   T
  0.5138651337768437  0.4443517665713433  0.1256788362827486   T   T   T
 -0.0081170068467056  0.4454245431875951  0.1053802529265375   T   T   T
  0.2537324645629711  0.7295718780121397  0.1123040591132003   T   T   T
  0.2100413821825843  0.5504671714388299  0.1750869652751633   T   T   T
 
  0.00000000E+00  0.00000000E+00  0.00000000E+00
  0.00000000E+00  0.00000000E+00  0.00000000E+00
  0.00000000E+00  0.00000000E+00  0.00000000E+00
  0.00000000E+00  0.00000000E+00  0.00000000E+00
  0.00000000E+00  0.00000000E+00  0.00000000E+00
  0.00000000E+00  0.00000000E+00  0.00000000E+00
  0.00000000E+00  0.00000000E+00  0.00000000E+00
  0.00000000E+00  0.00000000E+00  0.00000000E+00
  0.00000000E+00  0.00000000E+00  0.00000000E+00
  0.00000000E+00  0.00000000E+00  0.00000000E+00
  0.00000000E+00  0.00000000E+00  0.00000000E+00
  0.00000000E+00  0.00000000E+00  0.00000000E+00
  0.00000000E+00  0.00000000E+00  0.00000000E+00
  0.00000000E+00  0.00000000E+00  0.00000000E+00
  0.00000000E+00  0.00000000E+00  0.00000000E+00
  0.00000000E+00  0.00000000E+00  0.00000000E+00
