Title                                   
   1.00000000000000     
     8.5490480000000009    0.0000000000000000    0.0000000000000000
     0.0000000000000000    8.5490480000000009    0.0000000000000000
     0.0000000000000000    0.0000000000000000   20.0000000000000000
    23     1     1
Selective dynamics
Direct
  0.9109154041676869  0.2052888063251595  0.1015917437496549   T   T   T
  0.9063094082687247  0.5031487875298093  0.0974167033477856   T   T   T
  0.9115554986060114  0.8001931220205671  0.1009069882425268   T   T   T
  0.1959208103192980  0.0816664413344536  0.1011132342255984   T   T   T
  0.0728681371651763  0.2047015935361545  0.1011041265411285   T   T   T
  0.1965410649474177  0.9196901820810216  0.1016127272698604   T   T   T
  0.1551280703026951  0.6491966809966725  0.0971225413354276   T   T   T
  0.0746654343062666  0.5024938893508492  0.0967420615947398   T   T   T
  0.1551291375617418  0.3539902804002406  0.0959535087601145   T   T   T
  0.0749469249098245  0.7977910751323790  0.1010836826545598   T   T   T
  0.4936603415391321  0.0834327849612956  0.0967466377595318   T   T   T
  0.3451984890644580  0.1639115628644388  0.0959634113557715   T   T   T
  0.4943774132237465  0.9150470888276271  0.0974132326926560   T   T   T
  0.3466046254072542  0.8360260973476078  0.0978443650558780   T   T   T
  0.7889870809927154  0.0837123743549022  0.1010702489530902   T   T   T
  0.6403642688499794  0.1638884798718575  0.0971291418945279   T   T   T
  0.7914222987233309  0.9203084620199755  0.1008993097461018   T   T   T
  0.8286976393526633  0.6525748672180521  0.0973301957612635   T   T   T
  0.8272270416112371  0.3553760141271420  0.0978383298474338   T   T   T
  0.6438116309360756  0.8374468367201888  0.0973312683096427   T   T   T
  0.3193231525790784  0.3280804896618405  0.0885389706775127   T   T   T
  0.3210477819285918  0.6732449443853271  0.0924857129585660   T   T   T
  0.6644176595159872  0.3297982147470522  0.0925056746478681   T   T   T
  0.6692884024006571  0.6780078187234410  0.0935460565676949   T   T   T
  0.4970042833202438  0.5057731054619581  0.0424151260510426   T   T   T
 
  0.00000000E+00  0.00000000E+00  0.00000000E+00
  0.00000000E+00  0.00000000E+00  0.00000000E+00
  0.00000000E+00  0.00000000E+00  0.00000000E+00
  0.00000000E+00  0.00000000E+00  0.00000000E+00
  0.00000000E+00  0.00000000E+00  0.00000000E+00
  0.00000000E+00  0.00000000E+00  0.00000000E+00
  0.00000000E+00  0.00000000E+00  0.00000000E+00
  0.00000000E+00  0.00000000E+00  0.00000000E+00
  0.00000000E+00  0.00000000E+00  0.00000000E+00
  0.00000000E+00  0.00000000E+00  0.00000000E+00
  0.00000000E+00  0.00000000E+00  0.00000000E+00
  0.00000000E+00  0.00000000E+00  0.00000000E+00
  0.00000000E+00  0.00000000E+00  0.00000000E+00
  0.00000000E+00  0.00000000E+00  0.00000000E+00
  0.00000000E+00  0.00000000E+00  0.00000000E+00
  0.00000000E+00  0.00000000E+00  0.00000000E+00
  0.00000000E+00  0.00000000E+00  0.00000000E+00
  0.00000000E+00  0.00000000E+00  0.00000000E+00
  0.00000000E+00  0.00000000E+00  0.00000000E+00
  0.00000000E+00  0.00000000E+00  0.00000000E+00
  0.00000000E+00  0.00000000E+00  0.00000000E+00
  0.00000000E+00  0.00000000E+00  0.00000000E+00
  0.00000000E+00  0.00000000E+00  0.00000000E+00
  0.00000000E+00  0.00000000E+00  0.00000000E+00
  0.00000000E+00  0.00000000E+00  0.00000000E+00
