Title                                   
   1.00000000000000     
     8.5490480000000009    0.0000000000000000    0.0000000000000000
     0.0000000000000000    8.5490480000000009    0.0000000000000000
     0.0000000000000000    0.0000000000000000   20.0000000000000000
    20     4     1
Selective dynamics
Direct
  0.9095860700526350  0.2024879995062868  0.0944673065188720   T   T   T
  0.9065740308467604  0.5029065198663876  0.0964163230248362   T   T   T
  0.9095931171846363  0.8025742749030047  0.0937720275089507   T   T   T
  0.1959088989985402  0.0836953716501797  0.0938638713635833   T   T   T
  0.0759435195729374  0.2005974492435384  0.0938853642375139   T   T   T
  0.1554172053362214  0.6532109029962812  0.0969678954169563   T   T   T
  0.0763382612251393  0.5023751622019023  0.0967894544018753   T   T   T
  0.1575052478001568  0.3537507466761242  0.0962855487263970   T   T   T
  0.0771006913042014  0.8004561733374944  0.0942823902241847   T   T   T
  0.4937252123109248  0.0854076569413784  0.0967404050178361   T   T   T
  0.3457243507502235  0.1638027908739642  0.0962273182927113   T   T   T
  0.4923229594078573  0.9151849733688718  0.0961223935877257   T   T   T
  0.3414132934326770  0.8374375000945621  0.0966427999734925   T   T   T
  0.7895971570943784  0.0851360085127956  0.0946340085620516   T   T   T
  0.6426104949297037  0.1650467608743413  0.0972371508840571   T   T   T
  0.7893332619431499  0.9187539578138002  0.0938390776287267   T   T   T
  0.8293386343977305  0.6525431585403612  0.0951492795519659   T   T   T
  0.8287062332925943  0.3515144999064929  0.0969208051282042   T   T   T
  0.6415495572303527  0.8361391310978094  0.0950417958633922   T   T   T
  0.3217334019345950  0.3301250720112024  0.0982542749021575   T   T   T
  0.3163683037676794  0.6800064059036496  0.0997255636269521   T   T   T
  0.6685202620460705  0.3267949851404940  0.0998357159563296   T   T   T
  0.6682868179954355  0.6756966790813478  0.0957471585519190   T   T   T
  0.1956591905647375  0.9171569980471748  0.0940511155718100   T   T   T
  0.4965558265806544  0.5019888214105760  0.1408059554774722   T   T   T
 
  0.00000000E+00  0.00000000E+00  0.00000000E+00
  0.00000000E+00  0.00000000E+00  0.00000000E+00
  0.00000000E+00  0.00000000E+00  0.00000000E+00
  0.00000000E+00  0.00000000E+00  0.00000000E+00
  0.00000000E+00  0.00000000E+00  0.00000000E+00
  0.00000000E+00  0.00000000E+00  0.00000000E+00
  0.00000000E+00  0.00000000E+00  0.00000000E+00
  0.00000000E+00  0.00000000E+00  0.00000000E+00
  0.00000000E+00  0.00000000E+00  0.00000000E+00
  0.00000000E+00  0.00000000E+00  0.00000000E+00
  0.00000000E+00  0.00000000E+00  0.00000000E+00
  0.00000000E+00  0.00000000E+00  0.00000000E+00
  0.00000000E+00  0.00000000E+00  0.00000000E+00
  0.00000000E+00  0.00000000E+00  0.00000000E+00
  0.00000000E+00  0.00000000E+00  0.00000000E+00
  0.00000000E+00  0.00000000E+00  0.00000000E+00
  0.00000000E+00  0.00000000E+00  0.00000000E+00
  0.00000000E+00  0.00000000E+00  0.00000000E+00
  0.00000000E+00  0.00000000E+00  0.00000000E+00
  0.00000000E+00  0.00000000E+00  0.00000000E+00
  0.00000000E+00  0.00000000E+00  0.00000000E+00
  0.00000000E+00  0.00000000E+00  0.00000000E+00
  0.00000000E+00  0.00000000E+00  0.00000000E+00
  0.00000000E+00  0.00000000E+00  0.00000000E+00
  0.00000000E+00  0.00000000E+00  0.00000000E+00
