Title                                   
   1.00000000000000     
     8.5490480000000009    0.0000000000000000    0.0000000000000000
     0.0000000000000000    8.5490480000000009    0.0000000000000000
     0.0000000000000000    0.0000000000000000   20.0000000000000000
    22     2     1
Selective dynamics
Direct
  0.9102700126782964  0.2051920015831198  0.0954412840494589   T   T   T
  0.9020787883243145  0.5018129530126658  0.0952893118392485   T   T   T
  0.9102819250207891  0.7983912870588924  0.0954512641486786   T   T   T
  0.2006661430805666  0.0843586616062397  0.0954520656242903   T   T   T
  0.0759080105357089  0.2072174955142329  0.0954360492755024   T   T   T
  0.2006721110392829  0.9191988016636669  0.0954685116676599   T   T   T
  0.1565888931146468  0.6464626599091364  0.0953681440129501   T   T   T
  0.0716888552011662  0.5018007152768565  0.0953285562311034   T   T   T
  0.1565728907871324  0.3571180023088244  0.0953509771894872   T   T   T
  0.0759137553684960  0.7963396025375681  0.0954607669495135   T   T   T
  0.4955245079682290  0.0876432084069156  0.0953358844178128   T   T   T
  0.3505191309886126  0.1700239216250873  0.0953565620466544   T   T   T
  0.4955208316586548  0.9159371268850883  0.0953456024190869   T   T   T
  0.3505167917521397  0.8335562954116876  0.0953791009039478   T   T   T
  0.7895310986882352  0.0855701527008089  0.0954528809212197   T   T   T
  0.6430475952906322  0.1678073199157826  0.0953074526227141   T   T   T
  0.7895397730571427  0.9180177196061473  0.0954516010714559   T   T   T
  0.8225230702577259  0.6491072901240994  0.0952971384337095   T   T   T
  0.8225233539619805  0.3544997110072252  0.0952916690704850   T   T   T
  0.6430438465261852  0.8357730504859116  0.0953118051256323   T   T   T
  0.3252129425230201  0.3397431966839728  0.0952987508873440   T   T   T
  0.3252360969109260  0.6638472675660778  0.0953126445438230   T   T   T
  0.6631037687951811  0.3311989613914527  0.0951661000672439   T   T   T
  0.6631005995348270  0.6723824867703387  0.0951750440516473   T   T   T
  0.4858272069361005  0.5017901109482139  0.0951758324293082   T   T   T
 
  0.00000000E+00  0.00000000E+00  0.00000000E+00
  0.00000000E+00  0.00000000E+00  0.00000000E+00
  0.00000000E+00  0.00000000E+00  0.00000000E+00
  0.00000000E+00  0.00000000E+00  0.00000000E+00
  0.00000000E+00  0.00000000E+00  0.00000000E+00
  0.00000000E+00  0.00000000E+00  0.00000000E+00
  0.00000000E+00  0.00000000E+00  0.00000000E+00
  0.00000000E+00  0.00000000E+00  0.00000000E+00
  0.00000000E+00  0.00000000E+00  0.00000000E+00
  0.00000000E+00  0.00000000E+00  0.00000000E+00
  0.00000000E+00  0.00000000E+00  0.00000000E+00
  0.00000000E+00  0.00000000E+00  0.00000000E+00
  0.00000000E+00  0.00000000E+00  0.00000000E+00
  0.00000000E+00  0.00000000E+00  0.00000000E+00
  0.00000000E+00  0.00000000E+00  0.00000000E+00
  0.00000000E+00  0.00000000E+00  0.00000000E+00
  0.00000000E+00  0.00000000E+00  0.00000000E+00
  0.00000000E+00  0.00000000E+00  0.00000000E+00
  0.00000000E+00  0.00000000E+00  0.00000000E+00
  0.00000000E+00  0.00000000E+00  0.00000000E+00
  0.00000000E+00  0.00000000E+00  0.00000000E+00
  0.00000000E+00  0.00000000E+00  0.00000000E+00
  0.00000000E+00  0.00000000E+00  0.00000000E+00
  0.00000000E+00  0.00000000E+00  0.00000000E+00
  0.00000000E+00  0.00000000E+00  0.00000000E+00
