Title                                   
   1.00000000000000     
     4.9440799999999996    0.0000000000000000    0.0000000000000000
     0.0000000000000000   17.1295089999999988    0.0000000000000000
     0.0000000000000000    0.0000000000000000   20.0000000000000000
    31     1
Selective dynamics
Direct
  0.0001740872977411  0.1043426694037797  0.2786857100201435   T   T   T
  0.2498804731537129  0.1460762570973889  0.2832214298808845   T   T   T
  0.2498905974714386  0.2285211149968921  0.2953988012242215   T   T   T
 -0.0022039828530094  0.3501130586485228  0.3209054329824347   T   T   T
 -0.0016457581526495  0.2692418978477211  0.3021702250223752   T   T   T
 -0.0025698450706463  0.6076101787294322  0.3166188833784953   T   T   T
  0.2498728501658181  0.7294135424547485  0.2923838171444291   T   T   T
  0.0001171181122120  0.8538939302291563  0.2767573698552813   T   T   T
  0.2498738809208211  0.8956850937360611  0.2743920894008766   T   T   T
  0.2498922939892188  0.9791732433597172  0.2728974162427912   T   T   T
  0.0002320398179442  0.7709091580428797  0.2853989641819383   T   T   T
  0.4996085650956674  0.1043478983737736  0.2786834579123108   T   T   T
  0.7498990831818658  0.1457470023729231  0.2824788216728367   T   T   T
  0.7499046948037287  0.2281080780485613  0.2938051133916597   T   T   T
  0.4997559308142789  0.0210021310176235  0.2737280247187602   T   T   T
  0.5021020472070692  0.3501090109832351  0.3209060608718916   T   T   T
  0.7499502609635859  0.3940822071156713  0.3268854430003699   T   T   T
  0.7499364709012606  0.4796550202346582  0.3323380578136681   T   T   T
  0.5014547073133441  0.2692363603851425  0.3021708212358222   T   T   T
  0.5023311606226688  0.6076104079117309  0.3166082647610997   T   T   T
  0.7498823331025284  0.7300195574766176  0.2906993814675971   T   T   T
  0.4996252368396549  0.8538927038471187  0.2767588873249809   T   T   T
  0.7498718373752891  0.8955633488444465  0.2741477426431752   T   T   T
  0.7498968402102073  0.9791863668092218  0.2727577038549313   T   T   T
  0.4995187734441442  0.7709070712760204  0.2853985781812954   T   T   T
  0.7498879111816342  0.6482640590726105  0.3052518336167378   T   T   T
  0.2498730447069063  0.6479698224297289  0.3093358278230754   T   T   T
  0.0000414133276949  0.0209992473349582  0.2737255438879842   T   T   T
  0.5122705282767005  0.5273665878148429  0.3369536523021403   T   T   T
  0.9875813464094964  0.5273635339061878  0.3369552744180033   T   T   T
  0.2499555465403481  0.3846247143463745  0.3376083017548652   T   T   T
  0.2499615128293302  0.4775157258522435  0.3965380680128747   T   T   T
 
  0.00000000E+00  0.00000000E+00  0.00000000E+00
  0.00000000E+00  0.00000000E+00  0.00000000E+00
  0.00000000E+00  0.00000000E+00  0.00000000E+00
  0.00000000E+00  0.00000000E+00  0.00000000E+00
  0.00000000E+00  0.00000000E+00  0.00000000E+00
  0.00000000E+00  0.00000000E+00  0.00000000E+00
  0.00000000E+00  0.00000000E+00  0.00000000E+00
  0.00000000E+00  0.00000000E+00  0.00000000E+00
  0.00000000E+00  0.00000000E+00  0.00000000E+00
  0.00000000E+00  0.00000000E+00  0.00000000E+00
  0.00000000E+00  0.00000000E+00  0.00000000E+00
  0.00000000E+00  0.00000000E+00  0.00000000E+00
  0.00000000E+00  0.00000000E+00  0.00000000E+00
  0.00000000E+00  0.00000000E+00  0.00000000E+00
  0.00000000E+00  0.00000000E+00  0.00000000E+00
  0.00000000E+00  0.00000000E+00  0.00000000E+00
  0.00000000E+00  0.00000000E+00  0.00000000E+00
  0.00000000E+00  0.00000000E+00  0.00000000E+00
  0.00000000E+00  0.00000000E+00  0.00000000E+00
  0.00000000E+00  0.00000000E+00  0.00000000E+00
  0.00000000E+00  0.00000000E+00  0.00000000E+00
  0.00000000E+00  0.00000000E+00  0.00000000E+00
  0.00000000E+00  0.00000000E+00  0.00000000E+00
  0.00000000E+00  0.00000000E+00  0.00000000E+00
  0.00000000E+00  0.00000000E+00  0.00000000E+00
  0.00000000E+00  0.00000000E+00  0.00000000E+00
  0.00000000E+00  0.00000000E+00  0.00000000E+00
  0.00000000E+00  0.00000000E+00  0.00000000E+00
  0.00000000E+00  0.00000000E+00  0.00000000E+00
  0.00000000E+00  0.00000000E+00  0.00000000E+00
  0.00000000E+00  0.00000000E+00  0.00000000E+00
  0.00000000E+00  0.00000000E+00  0.00000000E+00
