Title                                   
   1.00000000000000     
     9.8694509999999998    0.0000000000000000    0.0000000000000000
     0.0000000000000000    8.5490480000000009    0.0000000000000000
     0.0000000000000000    0.0000000000000000   20.0000000000000000
    29     2     1
Selective dynamics
Direct
  0.0561477825920893  0.0908056397923083  0.0866073894203837   T   T   T
  0.9314934526406189  0.1725328512895489  0.0879957890296871   T   T   T
  0.0568421524400631  0.9240255286589275  0.0871809069283372   T   T   T
  0.9318213840278798  0.3397605553138691  0.0903485920872698   T   T   T
  0.0572102408613061  0.5899562464963362  0.0882036500258987   T   T   T
  0.9327053162519525  0.6725311477021966  0.0912732013460454   T   T   T
  0.0575160715216496  0.4229651771394922  0.0884793757201671   T   T   T
  0.9320173185623375  0.8391688811666872  0.0893564023278823   T   T   T
  0.3056667132671748  0.0884084053191233  0.0900465950376885   T   T   T
  0.1818330448727459  0.1731518534330347  0.0878730673068459   T   T   T
  0.1832042341565004  0.3407766026551848  0.0894644396064950   T   T   T
  0.3043854511796558  0.5924573465091796  0.0981929655106967   T   T   T
  0.1812542066776226  0.6749694889911320  0.0898717595379017   T   T   T
  0.3078064659973871  0.4254994134897208  0.0964142158307954   T   T   T
  0.1807018416937753  0.8412361308830529  0.0893138199870203   T   T   T
  0.5558325985388490  0.0864582443726555  0.0949199069960533   T   T   T
  0.4307022795961321  0.1700620969819691  0.0941992692334786   T   T   T
  0.5537450228089944  0.9200664066515580  0.0979768163304264   T   T   T
  0.4312700103570367  0.3362333453978388  0.1009886729598810   T   T   T
  0.5569808809247425  0.4096960184356598  0.1142045981781656   T   T   T
  0.4261213602748392  0.8405177879963781  0.0998925957122073   T   T   T
  0.8068427074334419  0.0880610436488715  0.0896285423880956   T   T   T
  0.6815852767985521  0.1694290808958953  0.0944763325141884   T   T   T
  0.8065598262857184  0.9222382346584467  0.0910331168442094   T   T   T
  0.6827213578758939  0.3349664195990121  0.1023902874105097   T   T   T
  0.8095564996536060  0.5889021053305240  0.1008698729216203   T   T   T
  0.6905064519840232  0.6769255661546720  0.1131789682547189   T   T   T
  0.8077471953965675  0.4212872305841726  0.0985632819794471   T   T   T
  0.6819384234876356  0.8387072184741367  0.0997987602963736   T   T   T
  0.4183249453643772  0.6829171280745938  0.1120468510101477   T   T   T
  0.3046693838614614  0.9246720941175702  0.0914696132691897   T   T   T
  0.5539291026153768  0.5908607097862386  0.1574153439982179   T   T   T
 
  0.00000000E+00  0.00000000E+00  0.00000000E+00
  0.00000000E+00  0.00000000E+00  0.00000000E+00
  0.00000000E+00  0.00000000E+00  0.00000000E+00
  0.00000000E+00  0.00000000E+00  0.00000000E+00
  0.00000000E+00  0.00000000E+00  0.00000000E+00
  0.00000000E+00  0.00000000E+00  0.00000000E+00
  0.00000000E+00  0.00000000E+00  0.00000000E+00
  0.00000000E+00  0.00000000E+00  0.00000000E+00
  0.00000000E+00  0.00000000E+00  0.00000000E+00
  0.00000000E+00  0.00000000E+00  0.00000000E+00
  0.00000000E+00  0.00000000E+00  0.00000000E+00
  0.00000000E+00  0.00000000E+00  0.00000000E+00
  0.00000000E+00  0.00000000E+00  0.00000000E+00
  0.00000000E+00  0.00000000E+00  0.00000000E+00
  0.00000000E+00  0.00000000E+00  0.00000000E+00
  0.00000000E+00  0.00000000E+00  0.00000000E+00
  0.00000000E+00  0.00000000E+00  0.00000000E+00
  0.00000000E+00  0.00000000E+00  0.00000000E+00
  0.00000000E+00  0.00000000E+00  0.00000000E+00
  0.00000000E+00  0.00000000E+00  0.00000000E+00
  0.00000000E+00  0.00000000E+00  0.00000000E+00
  0.00000000E+00  0.00000000E+00  0.00000000E+00
  0.00000000E+00  0.00000000E+00  0.00000000E+00
  0.00000000E+00  0.00000000E+00  0.00000000E+00
  0.00000000E+00  0.00000000E+00  0.00000000E+00
  0.00000000E+00  0.00000000E+00  0.00000000E+00
  0.00000000E+00  0.00000000E+00  0.00000000E+00
  0.00000000E+00  0.00000000E+00  0.00000000E+00
  0.00000000E+00  0.00000000E+00  0.00000000E+00
  0.00000000E+00  0.00000000E+00  0.00000000E+00
  0.00000000E+00  0.00000000E+00  0.00000000E+00
  0.00000000E+00  0.00000000E+00  0.00000000E+00
