Title                                   
   1.00000000000000     
     9.8694509999999998    0.0000000000000000    0.0000000000000000
     0.0000000000000000    8.5490480000000009    0.0000000000000000
     0.0000000000000000    0.0000000000000000   20.0000000000000000
    28     3     1
Selective dynamics
Direct
  0.0562603672836539  0.0913612810841379  0.0830088311004187   T   T   T
  0.9306203244907260  0.1743245892128737  0.0857057111651318   T   T   T
  0.0573489205375042  0.9237150460385500  0.0826447571384080   T   T   T
  0.9294717370314687  0.3418638129884316  0.0896550293333339   T   T   T
  0.0555661237919157  0.5895100782531156  0.0861603555475672   T   T   T
  0.9319458580153058  0.6738207327595023  0.0882241769246725   T   T   T
  0.0562725714758384  0.4233778287624737  0.0882293542210058   T   T   T
  0.9321037727909570  0.8410145950589778  0.0852798853771127   T   T   T
  0.3057401630458783  0.0878796482474369  0.0859491875724074   T   T   T
  0.1823197529325902  0.1739987073927701  0.0853090515870576   T   T   T
  0.3079218782175844  0.9221917058561597  0.0869052735711421   T   T   T
  0.1818161518978108  0.3400944985843806  0.0895416694623219   T   T   T
  0.3040188082963604  0.5884768800820969  0.0991906857703832   T   T   T
  0.1812951775913605  0.6711246275973459  0.0873443114015331   T   T   T
  0.1824128367911577  0.8381509951717386  0.0849107922285735   T   T   T
  0.5561234333312074  0.0857303740064051  0.0945711018193016   T   T   T
  0.4303396667099526  0.1692066450347392  0.0926064705669568   T   T   T
  0.4292479406113099  0.3345684497145329  0.1020254448397165   T   T   T
  0.4299936948742278  0.8380673213511504  0.0985305845867228   T   T   T
  0.8067464272671993  0.0900551539264925  0.0865401075358801   T   T   T
  0.6807735348910393  0.1701738080626583  0.0935780883795336   T   T   T
  0.8068568171736018  0.9245733188468370  0.0868991718686252   T   T   T
  0.6791761951261285  0.3348034662410569  0.1034449554913468   T   T   T
  0.8079992466160260  0.5942734174988951  0.0997600763234861   T   T   T
  0.8034590979874981  0.4253291428071947  0.0986389060285866   T   T   T
  0.6843987294038906  0.8405453598281712  0.0976862829471480   T   T   T
  0.4207022796408491  0.6775883025646846  0.1184552818603785   T   T   T
  0.5524385256501446  0.4071614898309607  0.1204892131157108   T   T   T
  0.6937991240616532  0.6855743649427974  0.1154997539516853   T   T   T
  0.5571483174301503  0.9188225703290851  0.0975575437893797   T   T   T
  0.3053114690559397  0.4218935289143109  0.0976290337949408   T   T   T
  0.5600100559790768  0.5909742590100387  0.1737039106995473   T   T   T
 
  0.00000000E+00  0.00000000E+00  0.00000000E+00
  0.00000000E+00  0.00000000E+00  0.00000000E+00
  0.00000000E+00  0.00000000E+00  0.00000000E+00
  0.00000000E+00  0.00000000E+00  0.00000000E+00
  0.00000000E+00  0.00000000E+00  0.00000000E+00
  0.00000000E+00  0.00000000E+00  0.00000000E+00
  0.00000000E+00  0.00000000E+00  0.00000000E+00
  0.00000000E+00  0.00000000E+00  0.00000000E+00
  0.00000000E+00  0.00000000E+00  0.00000000E+00
  0.00000000E+00  0.00000000E+00  0.00000000E+00
  0.00000000E+00  0.00000000E+00  0.00000000E+00
  0.00000000E+00  0.00000000E+00  0.00000000E+00
  0.00000000E+00  0.00000000E+00  0.00000000E+00
  0.00000000E+00  0.00000000E+00  0.00000000E+00
  0.00000000E+00  0.00000000E+00  0.00000000E+00
  0.00000000E+00  0.00000000E+00  0.00000000E+00
  0.00000000E+00  0.00000000E+00  0.00000000E+00
  0.00000000E+00  0.00000000E+00  0.00000000E+00
  0.00000000E+00  0.00000000E+00  0.00000000E+00
  0.00000000E+00  0.00000000E+00  0.00000000E+00
  0.00000000E+00  0.00000000E+00  0.00000000E+00
  0.00000000E+00  0.00000000E+00  0.00000000E+00
  0.00000000E+00  0.00000000E+00  0.00000000E+00
  0.00000000E+00  0.00000000E+00  0.00000000E+00
  0.00000000E+00  0.00000000E+00  0.00000000E+00
  0.00000000E+00  0.00000000E+00  0.00000000E+00
  0.00000000E+00  0.00000000E+00  0.00000000E+00
  0.00000000E+00  0.00000000E+00  0.00000000E+00
  0.00000000E+00  0.00000000E+00  0.00000000E+00
  0.00000000E+00  0.00000000E+00  0.00000000E+00
  0.00000000E+00  0.00000000E+00  0.00000000E+00
  0.00000000E+00  0.00000000E+00  0.00000000E+00
