Title                                   
   1.00000000000000     
     4.9440799999999996    0.0000000000000000    0.0000000000000000
     0.0000000000000000    8.5647549999999999    0.0000000000000000
     0.0000000000000000    0.0000000000000000   20.0000000000000000
    11     3     1
Selective dynamics
Direct
  0.0016113170777631  0.2926543179532458  0.0963044225709311   T   T   T
  0.2500000000000000  0.0381769759986019  0.0968791752735360   T   T   T
 -0.0023648110799362  0.9559369136286264  0.0966488862272170   T   T   T
  0.7500000000000000  0.2084893588534409  0.0933505045535965   T   T   T
  0.4983886829222369  0.2926543179532458  0.0963044225709311   T   T   T
  0.7500000000000000  0.0401322554471471  0.0934433153562230   T   T   T
  0.7500000000000000  0.7166489979419390  0.0999168839741620   T   T   T
  0.7500000000000000  0.5406136209014776  0.0989599059735732   T   T   T
  0.5023648110799361  0.9559369136286264  0.0966488862272170   T   T   T
  0.5021382510117063  0.4592124450597200  0.1032037343509831   T   T   T
 -0.0021382510117064  0.4592124450597200  0.1032037343509831   T   T   T
 -0.0118361739727387  0.7929798201684903  0.1015276649635209   T   T   T
  0.5118361739727388  0.7929798201684903  0.1015276649635209   T   T   T
  0.2500000000000000  0.2070128972796013  0.0965301294321868   T   T   T
  0.2500000000000000  0.6190398999576289  0.1335306692114217   T   T   T
 
  0.00000000E+00  0.00000000E+00  0.00000000E+00
  0.00000000E+00  0.00000000E+00  0.00000000E+00
  0.00000000E+00  0.00000000E+00  0.00000000E+00
  0.00000000E+00  0.00000000E+00  0.00000000E+00
  0.00000000E+00  0.00000000E+00  0.00000000E+00
  0.00000000E+00  0.00000000E+00  0.00000000E+00
  0.00000000E+00  0.00000000E+00  0.00000000E+00
  0.00000000E+00  0.00000000E+00  0.00000000E+00
  0.00000000E+00  0.00000000E+00  0.00000000E+00
  0.00000000E+00  0.00000000E+00  0.00000000E+00
  0.00000000E+00  0.00000000E+00  0.00000000E+00
  0.00000000E+00  0.00000000E+00  0.00000000E+00
  0.00000000E+00  0.00000000E+00  0.00000000E+00
  0.00000000E+00  0.00000000E+00  0.00000000E+00
  0.00000000E+00  0.00000000E+00  0.00000000E+00
