Title                                   
   1.00000000000000     
     4.9440799999999996    0.0000000000000000    0.0000000000000000
     0.0000000000000000    8.5647549999999999    0.0000000000000000
     0.0000000000000000    0.0000000000000000   20.0000000000000000
    14     1     1
Selective dynamics
Direct
  0.2500000000000000  0.2071809363294156  0.0844388799866783   T   T   T
 -0.0037051577254598  0.2876744141632837  0.0900026435641277   T   T   T
  0.2500000000000000  0.0425927609760206  0.0828775849552537   T   T   T
  0.0038596746182681  0.8005755237416888  0.1063154695781714   T   T   T
 -0.0000875528863069  0.9590308482837313  0.0858857600895107   T   T   T
  0.7500000000000000  0.2037540919873141  0.0811239317092819   T   T   T
  0.5037051577254594  0.2876744141632837  0.0900026435641277   T   T   T
  0.7500000000000000  0.0385457172986652  0.0790076114900040   T   T   T
  0.7500000000000000  0.7136163244639097  0.1120528683764557   T   T   T
  0.4961403253817321  0.8005755237416888  0.1063154695781714   T   T   T
  0.7500000000000000  0.5428040082723662  0.1113543904598735   T   T   T
  0.5000875528863074  0.9590308482837313  0.0858857600895107   T   T   T
  0.5185274559000028  0.4433522312152826  0.1102791475023665   T   T   T
 -0.0185274559000022  0.4433522312152826  0.1102791475023665   T   T   T
  0.2500000000000000  0.7375012167446249  0.1238599587749508   T   T   T
  0.2500000000000000  0.5327389091197094  0.1628307327791571   T   T   T
 
  0.00000000E+00  0.00000000E+00  0.00000000E+00
  0.00000000E+00  0.00000000E+00  0.00000000E+00
  0.00000000E+00  0.00000000E+00  0.00000000E+00
  0.00000000E+00  0.00000000E+00  0.00000000E+00
  0.00000000E+00  0.00000000E+00  0.00000000E+00
  0.00000000E+00  0.00000000E+00  0.00000000E+00
  0.00000000E+00  0.00000000E+00  0.00000000E+00
  0.00000000E+00  0.00000000E+00  0.00000000E+00
  0.00000000E+00  0.00000000E+00  0.00000000E+00
  0.00000000E+00  0.00000000E+00  0.00000000E+00
  0.00000000E+00  0.00000000E+00  0.00000000E+00
  0.00000000E+00  0.00000000E+00  0.00000000E+00
  0.00000000E+00  0.00000000E+00  0.00000000E+00
  0.00000000E+00  0.00000000E+00  0.00000000E+00
  0.00000000E+00  0.00000000E+00  0.00000000E+00
  0.00000000E+00  0.00000000E+00  0.00000000E+00
