Title                                   
   1.00000000000000     
     4.9440799999999996    0.0000000000000000    0.0000000000000000
     0.0000000000000000    8.5647549999999999    0.0000000000000000
     0.0000000000000000    0.0000000000000000   20.0000000000000000
    13     1     1
Selective dynamics
Direct
 -0.0004503535416905  0.2902359950821247  0.1003722646698353   T   T   T
  0.2500000000000000  0.0445297110908304  0.1004945125630180   T   T   T
 -0.0011328241987130  0.9603856203457055  0.1005496483619930   T   T   T
  0.7500000000000000  0.2065003402059981  0.1003008000344665   T   T   T
  0.5004503535416903  0.2902359950821247  0.1003722646698353   T   T   T
  0.7500000000000000  0.0424437091714073  0.1004197944507184   T   T   T
  0.7500000000000000  0.7128331149130085  0.1006820247698386   T   T   T
  0.7500000000000000  0.5348139471162860  0.1005913040243034   T   T   T
  0.5011328241987126  0.9603856203457055  0.1005496483619930   T   T   T
  0.5095510571577784  0.4521626399844529  0.1004809670832540   T   T   T
 -0.0095510571577783  0.4521626399844529  0.1004809670832540   T   T   T
 -0.0115196686641745  0.7966560348279157  0.1007101083339930   T   T   T
  0.5115196686641746  0.7966560348279157  0.1007101083339930   T   T   T
  0.2500000000000000  0.2061965808738083  0.1004795630717236   T   T   T
  0.2500000000000000  0.6254830161482650  0.1007860241877847   T   T   T
 
  0.00000000E+00  0.00000000E+00  0.00000000E+00
  0.00000000E+00  0.00000000E+00  0.00000000E+00
  0.00000000E+00  0.00000000E+00  0.00000000E+00
  0.00000000E+00  0.00000000E+00  0.00000000E+00
  0.00000000E+00  0.00000000E+00  0.00000000E+00
  0.00000000E+00  0.00000000E+00  0.00000000E+00
  0.00000000E+00  0.00000000E+00  0.00000000E+00
  0.00000000E+00  0.00000000E+00  0.00000000E+00
  0.00000000E+00  0.00000000E+00  0.00000000E+00
  0.00000000E+00  0.00000000E+00  0.00000000E+00
  0.00000000E+00  0.00000000E+00  0.00000000E+00
  0.00000000E+00  0.00000000E+00  0.00000000E+00
  0.00000000E+00  0.00000000E+00  0.00000000E+00
  0.00000000E+00  0.00000000E+00  0.00000000E+00
  0.00000000E+00  0.00000000E+00  0.00000000E+00
