Title                                   
   1.00000000000000     
     9.8694509999999998    0.0000000000000000    0.0000000000000000
     0.0000000000000000    8.5490480000000009    0.0000000000000000
     0.0000000000000000    0.0000000000000000   20.0000000000000000
    25     5     1
Selective dynamics
Direct
  0.0561596844269324  0.0891077791270968  0.0906930802913969   T   T   T
  0.9312989311979289  0.1720355841580083  0.0946279696067753   T   T   T
  0.0575923308137190  0.9214371056561930  0.0913228601190695   T   T   T
  0.9338825173637533  0.3393850961719262  0.0965700791636962   T   T   T
  0.0578781274157880  0.5905236531051604  0.0928991136873251   T   T   T
  0.0576314030218039  0.4238392138355940  0.0922270911823857   T   T   T
  0.9324113226553130  0.8385622224628032  0.0956551850479224   T   T   T
  0.3081132304578740  0.0883691259510433  0.0857430982818809   T   T   T
  0.1815939812036310  0.1722069823176828  0.0874594549000042   T   T   T
  0.1816888887214731  0.3389574571784655  0.0877202399096769   T   T   T
  0.3076742299721515  0.5899283221963666  0.0836684702714058   T   T   T
  0.1815174557349800  0.6735816814476121  0.0892246414615520   T   T   T
  0.3079046086568147  0.4202072027281641  0.0830073376895268   T   T   T
  0.1827929124584628  0.8394783027823274  0.0885597935655727   T   T   T
  0.4304866367229968  0.1714920411118540  0.0869076542744655   T   T   T
  0.5546536898927984  0.9220937732338748  0.0947894238588064   T   T   T
  0.4306445882611370  0.8403986944352884  0.0870030674989900   T   T   T
  0.8051186613381949  0.0894739756248834  0.0965937539097660   T   T   T
  0.6805239294167081  0.1783794839511899  0.1006871966424728   T   T   T
  0.8060511993987585  0.9206028573721717  0.0972445091846249   T   T   T
  0.6850002722045071  0.3438546237819537  0.1111882328332377   T   T   T
  0.8121059409381459  0.5912614809182892  0.1062308297107568   T   T   T
  0.6874179338494909  0.6697284214052370  0.1128981397259473   T   T   T
  0.8120778786935464  0.4222895193600216  0.1051024030105440   T   T   T
  0.6801962905612712  0.8360882621067863  0.1017725472237884   T   T   T
  0.9344298604043625  0.6725740332446628  0.0974967522020815   T   T   T
  0.5563190985684581  0.0934905056941489  0.0940446271420501   T   T   T
  0.4286485098367037  0.3335406908936457  0.0839422244155800   T   T   T
  0.4274587601887586  0.6787277138713604  0.0834940064599650   T   T   T
  0.3059057640016430  0.9217931409254461  0.0852522721391316   T   T   T
  0.5279563616219126  0.5074660529507488  0.1369389445896499   T   T   T
 
  0.00000000E+00  0.00000000E+00  0.00000000E+00
  0.00000000E+00  0.00000000E+00  0.00000000E+00
  0.00000000E+00  0.00000000E+00  0.00000000E+00
  0.00000000E+00  0.00000000E+00  0.00000000E+00
  0.00000000E+00  0.00000000E+00  0.00000000E+00
  0.00000000E+00  0.00000000E+00  0.00000000E+00
  0.00000000E+00  0.00000000E+00  0.00000000E+00
  0.00000000E+00  0.00000000E+00  0.00000000E+00
  0.00000000E+00  0.00000000E+00  0.00000000E+00
  0.00000000E+00  0.00000000E+00  0.00000000E+00
  0.00000000E+00  0.00000000E+00  0.00000000E+00
  0.00000000E+00  0.00000000E+00  0.00000000E+00
  0.00000000E+00  0.00000000E+00  0.00000000E+00
  0.00000000E+00  0.00000000E+00  0.00000000E+00
  0.00000000E+00  0.00000000E+00  0.00000000E+00
  0.00000000E+00  0.00000000E+00  0.00000000E+00
  0.00000000E+00  0.00000000E+00  0.00000000E+00
  0.00000000E+00  0.00000000E+00  0.00000000E+00
  0.00000000E+00  0.00000000E+00  0.00000000E+00
  0.00000000E+00  0.00000000E+00  0.00000000E+00
  0.00000000E+00  0.00000000E+00  0.00000000E+00
  0.00000000E+00  0.00000000E+00  0.00000000E+00
  0.00000000E+00  0.00000000E+00  0.00000000E+00
  0.00000000E+00  0.00000000E+00  0.00000000E+00
  0.00000000E+00  0.00000000E+00  0.00000000E+00
  0.00000000E+00  0.00000000E+00  0.00000000E+00
  0.00000000E+00  0.00000000E+00  0.00000000E+00
  0.00000000E+00  0.00000000E+00  0.00000000E+00
  0.00000000E+00  0.00000000E+00  0.00000000E+00
  0.00000000E+00  0.00000000E+00  0.00000000E+00
  0.00000000E+00  0.00000000E+00  0.00000000E+00
