Title                                   
   1.00000000000000     
     8.5490480000000009    0.0000000000000000    0.0000000000000000
     0.0000000000000000    8.5490480000000009    0.0000000000000000
     0.0000000000000000    0.0000000000000000   20.0000000000000000
    21     3     1
Selective dynamics
Direct
  0.9084047275674818  0.2042347600848504  0.0948510636670303   T   T   T
  0.9045615087368082  0.5027808308809208  0.0962140373470374   T   T   T
  0.9109361091215809  0.8025884020999642  0.0949267015456177   T   T   T
  0.1965470384956436  0.0834177874508632  0.0946668928305647   T   T   T
  0.0756539346572224  0.2017970061478667  0.0949287341774113   T   T   T
  0.1563156347270161  0.6489966776671199  0.0965552364761248   T   T   T
  0.0737418359044410  0.5013574956983803  0.0965652342866319   T   T   T
  0.1552109922695951  0.3540126800783295  0.0968875780455694   T   T   T
  0.0788055550480675  0.7990779663477733  0.0947557742723023   T   T   T
  0.4941910321826245  0.0867640502801006  0.0961567155839906   T   T   T
  0.3457677751620938  0.1642160163232418  0.0965559601465610   T   T   T
  0.4938259765258921  0.9174559959857993  0.0961512480515083   T   T   T
  0.3461423771355916  0.8365397937442054  0.0963705949191351   T   T   T
  0.7889598079639472  0.0864982130962202  0.0949273607006583   T   T   T
  0.6413499208183954  0.1663955714670277  0.0960545268763122   T   T   T
  0.7898344937406854  0.9195750269419021  0.0949672581240128   T   T   T
  0.8289040126348295  0.6528401393016161  0.0963618523063874   T   T   T
  0.8269509309343700  0.3531270277490788  0.0959473472413498   T   T   T
  0.6421369014040618  0.8380211349726692  0.0963038807223615   T   T   T
  0.3216682507837915  0.3312031597354450  0.0999064956956943   T   T   T
  0.3226433925560830  0.6726325743536451  0.0987803799148696   T   T   T
  0.6654877213867546  0.3290526404432944  0.0974493489649567   T   T   T
  0.6673529709148650  0.6761685357631985  0.0983185774698419   T   T   T
  0.1973712810441907  0.9166155816578710  0.0944299634373681   T   T   T
  0.4926478182839613  0.4994209317286367  0.1346722371966754   T   T   T
 
  0.00000000E+00  0.00000000E+00  0.00000000E+00
  0.00000000E+00  0.00000000E+00  0.00000000E+00
  0.00000000E+00  0.00000000E+00  0.00000000E+00
  0.00000000E+00  0.00000000E+00  0.00000000E+00
  0.00000000E+00  0.00000000E+00  0.00000000E+00
  0.00000000E+00  0.00000000E+00  0.00000000E+00
  0.00000000E+00  0.00000000E+00  0.00000000E+00
  0.00000000E+00  0.00000000E+00  0.00000000E+00
  0.00000000E+00  0.00000000E+00  0.00000000E+00
  0.00000000E+00  0.00000000E+00  0.00000000E+00
  0.00000000E+00  0.00000000E+00  0.00000000E+00
  0.00000000E+00  0.00000000E+00  0.00000000E+00
  0.00000000E+00  0.00000000E+00  0.00000000E+00
  0.00000000E+00  0.00000000E+00  0.00000000E+00
  0.00000000E+00  0.00000000E+00  0.00000000E+00
  0.00000000E+00  0.00000000E+00  0.00000000E+00
  0.00000000E+00  0.00000000E+00  0.00000000E+00
  0.00000000E+00  0.00000000E+00  0.00000000E+00
  0.00000000E+00  0.00000000E+00  0.00000000E+00
  0.00000000E+00  0.00000000E+00  0.00000000E+00
  0.00000000E+00  0.00000000E+00  0.00000000E+00
  0.00000000E+00  0.00000000E+00  0.00000000E+00
  0.00000000E+00  0.00000000E+00  0.00000000E+00
  0.00000000E+00  0.00000000E+00  0.00000000E+00
  0.00000000E+00  0.00000000E+00  0.00000000E+00
