Title                                   
   1.00000000000000     
     8.5490480000000009    0.0000000000000000    0.0000000000000000
     0.0000000000000000    8.5490480000000009    0.0000000000000000
     0.0000000000000000    0.0000000000000000   20.0000000000000000
    22     2     1
Selective dynamics
Direct
  0.9064779397351383  0.2082776438668170  0.0979119606281104   T   T   T
  0.9072262383676786  0.5031194143164691  0.0960098055503193   T   T   T
  0.9126351253007166  0.7999151208061881  0.0969924639762809   T   T   T
  0.1951570378275073  0.0823167400026133  0.0962988288441612   T   T   T
  0.0735219625331650  0.2039179196731267  0.0962798163148875   T   T   T
  0.1995428836873802  0.9152824990841212  0.0980036910611311   T   T   T
  0.1577427570803685  0.6448060379139471  0.1005889333739750   T   T   T
  0.0772368131930229  0.4995228217378106  0.0965829730397256   T   T   T
  0.1559775917154148  0.3508359624839316  0.0932239809087866   T   T   T
  0.0789072068813912  0.7955613385595680  0.0992036488876125   T   T   T
  0.4907126209617166  0.0859766464942767  0.0965497154417910   T   T   T
  0.3420647789931570  0.1647549578139690  0.0932147974460375   T   T   T
  0.4943435280003297  0.9159601917798043  0.0960618824252754   T   T   T
  0.3494564839850610  0.8333901213665946  0.0977972622580998   T   T   T
  0.7867314149041099  0.0876554073144765  0.0990986639405641   T   T   T
  0.6359752174728409  0.1665243790125998  0.1004545026962468   T   T   T
  0.7911719133366243  0.9213737344467793  0.0969668898597470   T   T   T
  0.8319715482398201  0.6531708784686797  0.0943885735332806   T   T   T
  0.8246187476177487  0.3582414639954684  0.0976707382713120   T   T   T
  0.6444189690855112  0.8406975810213436  0.0943814659852018   T   T   T
  0.3252070464545662  0.6647420915284539  0.1010210086562202   T   T   T
  0.6559400821845083  0.3339956498313876  0.1008599502440938   T   T   T
  0.3190386393298251  0.3277968616415394  0.0873646180592376   T   T   T
  0.6689526237861034  0.6776534021927396  0.0891342880304950   T   T   T
  0.5003828293262851  0.5093011346473076  0.0676445405673848   T   T   T
 
  0.00000000E+00  0.00000000E+00  0.00000000E+00
  0.00000000E+00  0.00000000E+00  0.00000000E+00
  0.00000000E+00  0.00000000E+00  0.00000000E+00
  0.00000000E+00  0.00000000E+00  0.00000000E+00
  0.00000000E+00  0.00000000E+00  0.00000000E+00
  0.00000000E+00  0.00000000E+00  0.00000000E+00
  0.00000000E+00  0.00000000E+00  0.00000000E+00
  0.00000000E+00  0.00000000E+00  0.00000000E+00
  0.00000000E+00  0.00000000E+00  0.00000000E+00
  0.00000000E+00  0.00000000E+00  0.00000000E+00
  0.00000000E+00  0.00000000E+00  0.00000000E+00
  0.00000000E+00  0.00000000E+00  0.00000000E+00
  0.00000000E+00  0.00000000E+00  0.00000000E+00
  0.00000000E+00  0.00000000E+00  0.00000000E+00
  0.00000000E+00  0.00000000E+00  0.00000000E+00
  0.00000000E+00  0.00000000E+00  0.00000000E+00
  0.00000000E+00  0.00000000E+00  0.00000000E+00
  0.00000000E+00  0.00000000E+00  0.00000000E+00
  0.00000000E+00  0.00000000E+00  0.00000000E+00
  0.00000000E+00  0.00000000E+00  0.00000000E+00
  0.00000000E+00  0.00000000E+00  0.00000000E+00
  0.00000000E+00  0.00000000E+00  0.00000000E+00
  0.00000000E+00  0.00000000E+00  0.00000000E+00
  0.00000000E+00  0.00000000E+00  0.00000000E+00
  0.00000000E+00  0.00000000E+00  0.00000000E+00
