Title                                   
   1.00000000000000     
     4.9440799999999996    0.0000000000000000    0.0000000000000000
     0.0000000000000000   17.1295089999999988    0.0000000000000000
     0.0000000000000000    0.0000000000000000   20.0000000000000000
    27     3     1
Selective dynamics
Direct
  0.0002233745137593  0.1054566864127079  0.2974648330518870   T   T   T
  0.2499016964043212  0.1480742715372249  0.2983234405781932   T   T   T
  0.2501138884702948  0.2323712075740713  0.3000786797004864   T   T   T
 -0.0043292020743667  0.2718890579238840  0.3003619796704863   T   T   T
 -0.0023264125961851  0.6019060863694798  0.3011393318621419   T   T   T
  0.2490683518355819  0.7275710622274875  0.2987938336622995   T   T   T
 -0.0001502989165262  0.8538863970726261  0.2969121552991745   T   T   T
  0.2497486444244621  0.8957624817178742  0.2967000728183502   T   T   T
  0.2495186108310723  0.9794745149319458  0.2965507682867905   T   T   T
  0.0000441546763607  0.7701427563441556  0.2979367128523394   T   T   T
  0.4986786463444929  0.1052307438443556  0.2975902813003902   T   T   T
  0.7490171222879612  0.1464164016567296  0.2980749947822349   T   T   T
  0.7485956758353023  0.2298617198554776  0.2996896666060889   T   T   T
  0.4990867725790451  0.0214503843646000  0.2967007463562626   T   T   T
  0.7557413159282187  0.3914844237274762  0.3027547527474700   T   T   T
  0.7555913613821226  0.4816163857419334  0.3029677785958289   T   T   T
  0.5032458385011184  0.2731394626403489  0.3012645711321238   T   T   T
  0.5015883027593095  0.6031076231428876  0.3016994968268286   T   T   T
  0.7504883900432273  0.7285157977659522  0.2986501213738216   T   T   T
  0.4995387515823096  0.8537045604668607  0.2969662293796017   T   T   T
  0.7495504730289644  0.8957327048959450  0.2966144617656368   T   T   T
  0.7495628731722884  0.9796788462217819  0.2964639385492340   T   T   T
  0.4994852967611207  0.7697743520662438  0.2980347586934682   T   T   T
  0.7495548494456908  0.6448083457212239  0.3003510131132953   T   T   T
  0.2497126007375905  0.6435639435117639  0.3005692630022713   T   T   T
  0.0000321229577495  0.0215915001641090  0.2966267605112547   T   T   T
  0.5122418455073334  0.5199546172718912  0.3038308288846376   T   T   T
  0.9900618027912794  0.5208672172592735  0.3022967416066749   T   T   T
  0.5180627022414259  0.3543405012642108  0.3036857951589624   T   T   T
 -0.0149510624129442  0.3518413151820139  0.3013702039044442   T   T   T
  0.2533085109576219  0.4381266311234603  0.3045957879272709   T   T   T
 
  0.00000000E+00  0.00000000E+00  0.00000000E+00
  0.00000000E+00  0.00000000E+00  0.00000000E+00
  0.00000000E+00  0.00000000E+00  0.00000000E+00
  0.00000000E+00  0.00000000E+00  0.00000000E+00
  0.00000000E+00  0.00000000E+00  0.00000000E+00
  0.00000000E+00  0.00000000E+00  0.00000000E+00
  0.00000000E+00  0.00000000E+00  0.00000000E+00
  0.00000000E+00  0.00000000E+00  0.00000000E+00
  0.00000000E+00  0.00000000E+00  0.00000000E+00
  0.00000000E+00  0.00000000E+00  0.00000000E+00
  0.00000000E+00  0.00000000E+00  0.00000000E+00
  0.00000000E+00  0.00000000E+00  0.00000000E+00
  0.00000000E+00  0.00000000E+00  0.00000000E+00
  0.00000000E+00  0.00000000E+00  0.00000000E+00
  0.00000000E+00  0.00000000E+00  0.00000000E+00
  0.00000000E+00  0.00000000E+00  0.00000000E+00
  0.00000000E+00  0.00000000E+00  0.00000000E+00
  0.00000000E+00  0.00000000E+00  0.00000000E+00
  0.00000000E+00  0.00000000E+00  0.00000000E+00
  0.00000000E+00  0.00000000E+00  0.00000000E+00
  0.00000000E+00  0.00000000E+00  0.00000000E+00
  0.00000000E+00  0.00000000E+00  0.00000000E+00
  0.00000000E+00  0.00000000E+00  0.00000000E+00
  0.00000000E+00  0.00000000E+00  0.00000000E+00
  0.00000000E+00  0.00000000E+00  0.00000000E+00
  0.00000000E+00  0.00000000E+00  0.00000000E+00
  0.00000000E+00  0.00000000E+00  0.00000000E+00
  0.00000000E+00  0.00000000E+00  0.00000000E+00
  0.00000000E+00  0.00000000E+00  0.00000000E+00
  0.00000000E+00  0.00000000E+00  0.00000000E+00
  0.00000000E+00  0.00000000E+00  0.00000000E+00
