Title                                   
   1.00000000000000     
     4.9440799999999996    0.0000000000000000    0.0000000000000000
     0.0000000000000000   17.1295089999999988    0.0000000000000000
     0.0000000000000000    0.0000000000000000   20.0000000000000000
    28     2     1
Selective dynamics
Direct
 -0.0017231921903032  0.1054992388973792  0.2981382041214105   T   T   T
  0.2473797328300618  0.1483983537518844  0.2988168008621223   T   T   T
  0.2471829671761734  0.2322706806149761  0.3002981790195671   T   T   T
 -0.0038850630916570  0.2748973145952236  0.3009730895656682   T   T   T
  0.0031707806493821  0.6017180109149279  0.3007805563474926   T   T   T
  0.2510592147645224  0.7260528014871358  0.2989898951605813   T   T   T
  0.0007650252654658  0.8527939192106216  0.2973715466904392   T   T   T
  0.2496772955526262  0.8952962636509768  0.2971071930470676   T   T   T
  0.2491504386656227  0.9792789831158718  0.2970393184310335   T   T   T
  0.0010195738203339  0.7685282047227175  0.2983281332217050   T   T   T
  0.4983710386274718  0.1057877638867702  0.2981364891878249   T   T   T
  0.7488572134287006  0.1476110386312699  0.2987663210662566   T   T   T
  0.7477261901096232  0.2317490290819139  0.3001826809626662   T   T   T
  0.4989505713084743  0.0216417699960580  0.2972418894984501   T   T   T
  0.7549364965992850  0.3940250827994824  0.3020749409496801   T   T   T
  0.7575822261343074  0.4805846860819019  0.3019730982450520   T   T   T
  0.4983818344982346  0.2742466808320889  0.3008919829940337   T   T   T
  0.5004051596719196  0.6007374156510383  0.3008345005098171   T   T   T
  0.7505033999301401  0.7272099580562145  0.2989486223593513   T   T   T
  0.4990306201318960  0.8528123951110756  0.2973668625991066   T   T   T
  0.7497175397240459  0.8948457085958946  0.2971456034370114   T   T   T
  0.7490969792562973  0.9791819359382486  0.2970644104727463   T   T   T
  0.5000988259613613  0.7686673157104563  0.2983304014415102   T   T   T
  0.7508042192366852  0.6439181896288210  0.3002140572355950   T   T   T
 -0.0010812925525545  0.0214431300480921  0.2972529525889069   T   T   T
  0.5031904119022739  0.5177514201604335  0.3018633557250867   T   T   T
  0.0052096942317236  0.5196656356047705  0.3017666970256633   T   T   T
  0.5061295192184320  0.3569938865737368  0.3018924197547752   T   T   T
 -0.0070133925638086  0.3556068305175704  0.3021154753178508   T   T   T
  0.2518121467329951  0.6441546276785083  0.3002409345921385   T   T   T
  0.2535008249702701  0.4379737284539355  0.3029133875693422   T   T   T
 
  0.00000000E+00  0.00000000E+00  0.00000000E+00
  0.00000000E+00  0.00000000E+00  0.00000000E+00
  0.00000000E+00  0.00000000E+00  0.00000000E+00
  0.00000000E+00  0.00000000E+00  0.00000000E+00
  0.00000000E+00  0.00000000E+00  0.00000000E+00
  0.00000000E+00  0.00000000E+00  0.00000000E+00
  0.00000000E+00  0.00000000E+00  0.00000000E+00
  0.00000000E+00  0.00000000E+00  0.00000000E+00
  0.00000000E+00  0.00000000E+00  0.00000000E+00
  0.00000000E+00  0.00000000E+00  0.00000000E+00
  0.00000000E+00  0.00000000E+00  0.00000000E+00
  0.00000000E+00  0.00000000E+00  0.00000000E+00
  0.00000000E+00  0.00000000E+00  0.00000000E+00
  0.00000000E+00  0.00000000E+00  0.00000000E+00
  0.00000000E+00  0.00000000E+00  0.00000000E+00
  0.00000000E+00  0.00000000E+00  0.00000000E+00
  0.00000000E+00  0.00000000E+00  0.00000000E+00
  0.00000000E+00  0.00000000E+00  0.00000000E+00
  0.00000000E+00  0.00000000E+00  0.00000000E+00
  0.00000000E+00  0.00000000E+00  0.00000000E+00
  0.00000000E+00  0.00000000E+00  0.00000000E+00
  0.00000000E+00  0.00000000E+00  0.00000000E+00
  0.00000000E+00  0.00000000E+00  0.00000000E+00
  0.00000000E+00  0.00000000E+00  0.00000000E+00
  0.00000000E+00  0.00000000E+00  0.00000000E+00
  0.00000000E+00  0.00000000E+00  0.00000000E+00
  0.00000000E+00  0.00000000E+00  0.00000000E+00
  0.00000000E+00  0.00000000E+00  0.00000000E+00
  0.00000000E+00  0.00000000E+00  0.00000000E+00
  0.00000000E+00  0.00000000E+00  0.00000000E+00
  0.00000000E+00  0.00000000E+00  0.00000000E+00
