Title                                   
   1.00000000000000     
     9.8694509999999998    0.0000000000000000    0.0000000000000000
     0.0000000000000000    8.5490480000000009    0.0000000000000000
     0.0000000000000000    0.0000000000000000   20.0000000000000000
    28     2     1
Selective dynamics
Direct
  0.0560550804611966  0.0889585392760827  0.0820049697613984   T   T   T
  0.9310708320922730  0.1718852325620458  0.0840551130242986   T   T   T
  0.0571546884448035  0.9241468742870107  0.0825143539209832   T   T   T
  0.9336197018918420  0.3388417738130274  0.0826763727727843   T   T   T
  0.0567566995776926  0.5905355289598864  0.0785485966660211   T   T   T
  0.9338979854774113  0.6739897529311821  0.0833837136279685   T   T   T
  0.0567010450802009  0.4228642527423936  0.0782605410902999   T   T   T
  0.9319861453705152  0.8402666083703265  0.0849422968070111   T   T   T
  0.3061589519461317  0.0878412717053527  0.0923004331350357   T   T   T
  0.1819416407028043  0.1708642814541360  0.0843245852792748   T   T   T
  0.1798525198872066  0.3381747960388427  0.0833096266037345   T   T   T
  0.2999887506431324  0.5912210102384686  0.0968357681251793   T   T   T
  0.1800471200017818  0.6750046550364431  0.0837813561711871   T   T   T
  0.2998925685998337  0.4201990127565818  0.0964034341228752   T   T   T
  0.1819308522067248  0.8413771084788760  0.0852958485420153   T   T   T
  0.4291677140782766  0.1731244856599692  0.1035925449252695   T   T   T
  0.5551151316516058  0.9238669948766007  0.1071873862160125   T   T   T
  0.4196981812788155  0.3353003825098614  0.1105224331633483   T   T   T
  0.4176638846283622  0.6763587795487712  0.1119899331699439   T   T   T
  0.4271385674387261  0.8394792063248118  0.1054604396933058   T   T   T
  0.8062104871613882  0.0887859220596920  0.0918600604138172   T   T   T
  0.6824436774220431  0.1746826736606721  0.1024568135442699   T   T   T
  0.8071513062357673  0.9227606069597878  0.0927175732169592   T   T   T
  0.6919249185521281  0.3373334823589276  0.1085916955456619   T   T   T
  0.8128498066624735  0.5912579955350281  0.0953246363785582   T   T   T
  0.6936279843263220  0.6739768586979495  0.1101622597873154   T   T   T
  0.8126162106868434  0.4203811419731968  0.0947179932694575   T   T   T
  0.6829454842865410  0.8381191558053190  0.1044974532405823   T   T   T
  0.5569683387216320  0.0893479532262928  0.1059522729278057   T   T   T
  0.3044783020429507  0.9234498767345667  0.0928003154480664   T   T   T
  0.5560804224425751  0.5064787854179167  0.1244941794095864   T   T   T
 
  0.00000000E+00  0.00000000E+00  0.00000000E+00
  0.00000000E+00  0.00000000E+00  0.00000000E+00
  0.00000000E+00  0.00000000E+00  0.00000000E+00
  0.00000000E+00  0.00000000E+00  0.00000000E+00
  0.00000000E+00  0.00000000E+00  0.00000000E+00
  0.00000000E+00  0.00000000E+00  0.00000000E+00
  0.00000000E+00  0.00000000E+00  0.00000000E+00
  0.00000000E+00  0.00000000E+00  0.00000000E+00
  0.00000000E+00  0.00000000E+00  0.00000000E+00
  0.00000000E+00  0.00000000E+00  0.00000000E+00
  0.00000000E+00  0.00000000E+00  0.00000000E+00
  0.00000000E+00  0.00000000E+00  0.00000000E+00
  0.00000000E+00  0.00000000E+00  0.00000000E+00
  0.00000000E+00  0.00000000E+00  0.00000000E+00
  0.00000000E+00  0.00000000E+00  0.00000000E+00
  0.00000000E+00  0.00000000E+00  0.00000000E+00
  0.00000000E+00  0.00000000E+00  0.00000000E+00
  0.00000000E+00  0.00000000E+00  0.00000000E+00
  0.00000000E+00  0.00000000E+00  0.00000000E+00
  0.00000000E+00  0.00000000E+00  0.00000000E+00
  0.00000000E+00  0.00000000E+00  0.00000000E+00
  0.00000000E+00  0.00000000E+00  0.00000000E+00
  0.00000000E+00  0.00000000E+00  0.00000000E+00
  0.00000000E+00  0.00000000E+00  0.00000000E+00
  0.00000000E+00  0.00000000E+00  0.00000000E+00
  0.00000000E+00  0.00000000E+00  0.00000000E+00
  0.00000000E+00  0.00000000E+00  0.00000000E+00
  0.00000000E+00  0.00000000E+00  0.00000000E+00
  0.00000000E+00  0.00000000E+00  0.00000000E+00
  0.00000000E+00  0.00000000E+00  0.00000000E+00
  0.00000000E+00  0.00000000E+00  0.00000000E+00
