Title                                   
   1.00000000000000     
     4.9440799999999996    0.0000000000000000    0.0000000000000000
     0.0000000000000000    8.5647549999999999    0.0000000000000000
     0.0000000000000000    0.0000000000000000   20.0000000000000000
    10     4     1
Selective dynamics
Direct
 -0.0041276970608513  0.2958166141905039  0.1004658448160751   T   T   T
  0.2492120736311819  0.0374352482814282  0.1005396355124046   T   T   T
 -0.0011603962448013  0.9548419046746232  0.1005375667380262   T   T   T
  0.7472139917899157  0.2075339732167292  0.1003797574544497   T   T   T
  0.4967901609589351  0.2951234932961495  0.1003810736211918   T   T   T
  0.7506297267466239  0.0405256569911508  0.1004582759662200   T   T   T
  0.7549062080605708  0.7148420128298335  0.1006914320223037   T   T   T
  0.7513830582349412  0.5393297602312195  0.1006252798100786   T   T   T
  0.5019013062617330  0.9542134570009818  0.1005802945428887   T   T   T
  0.5073414209706951  0.4589940784002996  0.1003624677606649   T   T   T
 -0.0088336122116930  0.4554707896319825  0.1007526105309656   T   T   T
 -0.0084306135734113  0.7923199626824760  0.1005936792109701   T   T   T
  0.5152981827776547  0.7914978486687360  0.1007935227650999   T   T   T
  0.2459761510390734  0.2106491816463795  0.1004319740279891   T   T   T
  0.2519000386194319  0.6230870182575100  0.1003865852206754   T   T   T
 
  0.00000000E+00  0.00000000E+00  0.00000000E+00
  0.00000000E+00  0.00000000E+00  0.00000000E+00
  0.00000000E+00  0.00000000E+00  0.00000000E+00
  0.00000000E+00  0.00000000E+00  0.00000000E+00
  0.00000000E+00  0.00000000E+00  0.00000000E+00
  0.00000000E+00  0.00000000E+00  0.00000000E+00
  0.00000000E+00  0.00000000E+00  0.00000000E+00
  0.00000000E+00  0.00000000E+00  0.00000000E+00
  0.00000000E+00  0.00000000E+00  0.00000000E+00
  0.00000000E+00  0.00000000E+00  0.00000000E+00
  0.00000000E+00  0.00000000E+00  0.00000000E+00
  0.00000000E+00  0.00000000E+00  0.00000000E+00
  0.00000000E+00  0.00000000E+00  0.00000000E+00
  0.00000000E+00  0.00000000E+00  0.00000000E+00
  0.00000000E+00  0.00000000E+00  0.00000000E+00
