Title                                   
   1.00000000000000     
     8.5490480000000009    0.0000000000000000    0.0000000000000000
     0.0000000000000000    8.5490480000000009    0.0000000000000000
     0.0000000000000000    0.0000000000000000   20.0000000000000000
    17     7     1
Selective dynamics
Direct
  0.9076845584371545  0.2055490848062395  0.0974531060631876   T   T   T
  0.9106234453636778  0.8007594432311133  0.0975172709868656   T   T   T
  0.1970824135374283  0.0832036726639334  0.0976010313407941   T   T   T
  0.0768793105790837  0.2009000926915869  0.0975142029535159   T   T   T
  0.1575798571082981  0.6518679721849023  0.0977415056087904   T   T   T
  0.0786492238315931  0.5005108458618788  0.0977483308213675   T   T   T
  0.1576249934024646  0.3495372526667706  0.0977201711140561   T   T   T
  0.0787971923292459  0.7992074922536864  0.0975431303763579   T   T   T
  0.3441627343438436  0.1655674997667152  0.0978470495095196   T   T   T
  0.4926474595747384  0.9174681719568275  0.0977416230931243   T   T   T
  0.3434138395940418  0.8373467089729905  0.0978192768793829   T   T   T
  0.7877358420446021  0.0869478949399352  0.0974754606154582   T   T   T
  0.6414611544089953  0.1689326734911659  0.0977575862257218   T   T   T
  0.7898649800609513  0.9182967224123647  0.0975029603325464   T   T   T
  0.8289400577594768  0.6513621833532002  0.0977608694207651   T   T   T
  0.8268629813568332  0.3529374752141822  0.0977188500312064   T   T   T
  0.6430421393238200  0.8367562605288164  0.0977067442573617   T   T   T
  0.4932803940442649  0.0895723393756239  0.0978223880320376   T   T   T
  0.9062671369459151  0.5021148802235849  0.0977939033818949   T   T   T
  0.3207849617053204  0.3254227684572266  0.0980220957801995   T   T   T
  0.3195545596806371  0.6783650546777195  0.0980563463902751   T   T   T
  0.6647875619704611  0.3305803196587042  0.0979559290633446   T   T   T
  0.6686789131664020  0.6735438362671965  0.0979319590017251   T   T   T
  0.1965788296178059  0.9156154900573542  0.0976265125542967   T   T   T
  0.4924274598129370  0.5024238642862804  0.0983266961661850   T   T   T
 
  0.00000000E+00  0.00000000E+00  0.00000000E+00
  0.00000000E+00  0.00000000E+00  0.00000000E+00
  0.00000000E+00  0.00000000E+00  0.00000000E+00
  0.00000000E+00  0.00000000E+00  0.00000000E+00
  0.00000000E+00  0.00000000E+00  0.00000000E+00
  0.00000000E+00  0.00000000E+00  0.00000000E+00
  0.00000000E+00  0.00000000E+00  0.00000000E+00
  0.00000000E+00  0.00000000E+00  0.00000000E+00
  0.00000000E+00  0.00000000E+00  0.00000000E+00
  0.00000000E+00  0.00000000E+00  0.00000000E+00
  0.00000000E+00  0.00000000E+00  0.00000000E+00
  0.00000000E+00  0.00000000E+00  0.00000000E+00
  0.00000000E+00  0.00000000E+00  0.00000000E+00
  0.00000000E+00  0.00000000E+00  0.00000000E+00
  0.00000000E+00  0.00000000E+00  0.00000000E+00
  0.00000000E+00  0.00000000E+00  0.00000000E+00
  0.00000000E+00  0.00000000E+00  0.00000000E+00
  0.00000000E+00  0.00000000E+00  0.00000000E+00
  0.00000000E+00  0.00000000E+00  0.00000000E+00
  0.00000000E+00  0.00000000E+00  0.00000000E+00
  0.00000000E+00  0.00000000E+00  0.00000000E+00
  0.00000000E+00  0.00000000E+00  0.00000000E+00
  0.00000000E+00  0.00000000E+00  0.00000000E+00
  0.00000000E+00  0.00000000E+00  0.00000000E+00
  0.00000000E+00  0.00000000E+00  0.00000000E+00
