Title                                   
   1.00000000000000     
     9.8694509999999998    0.0000000000000000    0.0000000000000000
     0.0000000000000000    8.5490480000000009    0.0000000000000000
     0.0000000000000000    0.0000000000000000   20.0000000000000000
    28     3     1
Selective dynamics
Direct
  0.0558621622106218  0.0905785100013624  0.0828427021231722   T   T   T
  0.9306222835473902  0.1746813815871174  0.0844589747960028   T   T   T
  0.0581317371540802  0.9235655843186127  0.0834069041701151   T   T   T
  0.9294476007698684  0.3420214646027371  0.0863933811541862   T   T   T
  0.0567549234135670  0.5899778581099069  0.0835123943668303   T   T   T
  0.9326865369804851  0.6736919196442579  0.0879533489593736   T   T   T
  0.0557200293726572  0.4227737914991992  0.0841650543292454   T   T   T
  0.9334963251931087  0.8408584957034737  0.0871113918047863   T   T   T
  0.3058419787295060  0.0874111448486427  0.0869864723534081   T   T   T
  0.1818845776799795  0.1717966054814742  0.0845249492709988   T   T   T
  0.1807892493842935  0.3382201059120872  0.0861612445462890   T   T   T
  0.3037418920668618  0.5869963216693447  0.0977267160158745   T   T   T
  0.1820074774698509  0.6726130819646918  0.0858633365375338   T   T   T
  0.3054932753071909  0.4193545677185233  0.0964682204566656   T   T   T
  0.1827380629535517  0.8397882139291920  0.0847858031185810   T   T   T
  0.5557107754324223  0.0870657729426288  0.0939644448650018   T   T   T
  0.5559872477189398  0.9205910929960910  0.0993387638491242   T   T   T
  0.4279126354421056  0.3300304072801753  0.1042383163679299   T   T   T
  0.4279412866984434  0.8395672146448115  0.1007313545459144   T   T   T
  0.8058409246803406  0.0905184028314995  0.0867516910948720   T   T   T
  0.6797706564022347  0.1725458538855470  0.0921522553067278   T   T   T
  0.8082636466477490  0.9250943988451135  0.0900631023878418   T   T   T
  0.6802907004808149  0.3372644920934122  0.1019217216738400   T   T   T
  0.8102964315709952  0.5936084708871432  0.0997970836779306   T   T   T
  0.8034725956607650  0.4257234940307223  0.0963290405507319   T   T   T
  0.6858015309486210  0.8427585228338278  0.1018129035657065   T   T   T
  0.4185298405922679  0.6788511371306569  0.1153239010689771   T   T   T
  0.5518763777271508  0.4029941240548729  0.1211934355209684   T   T   T
  0.6982076276506789  0.6846006096312350  0.1199007849860297   T   T   T
  0.3075375166919076  0.9237579693111853  0.0877956662556744   T   T   T
  0.4285693571956685  0.1669342481726319  0.0932353404441265   T   T   T
  0.5584117362258899  0.5940107414378257  0.1787642998355566   T   T   T
 
  0.00000000E+00  0.00000000E+00  0.00000000E+00
  0.00000000E+00  0.00000000E+00  0.00000000E+00
  0.00000000E+00  0.00000000E+00  0.00000000E+00
  0.00000000E+00  0.00000000E+00  0.00000000E+00
  0.00000000E+00  0.00000000E+00  0.00000000E+00
  0.00000000E+00  0.00000000E+00  0.00000000E+00
  0.00000000E+00  0.00000000E+00  0.00000000E+00
  0.00000000E+00  0.00000000E+00  0.00000000E+00
  0.00000000E+00  0.00000000E+00  0.00000000E+00
  0.00000000E+00  0.00000000E+00  0.00000000E+00
  0.00000000E+00  0.00000000E+00  0.00000000E+00
  0.00000000E+00  0.00000000E+00  0.00000000E+00
  0.00000000E+00  0.00000000E+00  0.00000000E+00
  0.00000000E+00  0.00000000E+00  0.00000000E+00
  0.00000000E+00  0.00000000E+00  0.00000000E+00
  0.00000000E+00  0.00000000E+00  0.00000000E+00
  0.00000000E+00  0.00000000E+00  0.00000000E+00
  0.00000000E+00  0.00000000E+00  0.00000000E+00
  0.00000000E+00  0.00000000E+00  0.00000000E+00
  0.00000000E+00  0.00000000E+00  0.00000000E+00
  0.00000000E+00  0.00000000E+00  0.00000000E+00
  0.00000000E+00  0.00000000E+00  0.00000000E+00
  0.00000000E+00  0.00000000E+00  0.00000000E+00
  0.00000000E+00  0.00000000E+00  0.00000000E+00
  0.00000000E+00  0.00000000E+00  0.00000000E+00
  0.00000000E+00  0.00000000E+00  0.00000000E+00
  0.00000000E+00  0.00000000E+00  0.00000000E+00
  0.00000000E+00  0.00000000E+00  0.00000000E+00
  0.00000000E+00  0.00000000E+00  0.00000000E+00
  0.00000000E+00  0.00000000E+00  0.00000000E+00
  0.00000000E+00  0.00000000E+00  0.00000000E+00
  0.00000000E+00  0.00000000E+00  0.00000000E+00
