Title                                   
   1.00000000000000     
     9.8694509999999998    0.0000000000000000    0.0000000000000000
     0.0000000000000000    8.5490480000000009    0.0000000000000000
     0.0000000000000000    0.0000000000000000   20.0000000000000000
    30     1     1
Selective dynamics
Direct
  0.0567912572748980  0.0907550546196305  0.0839825676921731   T   T   T
  0.9314898905374447  0.1703547020387170  0.0850644341184695   T   T   T
  0.0544209644533347  0.9241588524723184  0.0834125664774061   T   T   T
  0.9335775348142645  0.3372769141835270  0.0855782012518629   T   T   T
  0.0564739901908696  0.5891252641065383  0.0836101230954867   T   T   T
  0.9323243406426336  0.6714533983622697  0.0845887892110829   T   T   T
  0.0584278446100154  0.4230494062895611  0.0853868044338881   T   T   T
  0.9296951394068724  0.8380569015450362  0.0848882620247272   T   T   T
  0.3060234701272407  0.0939142499323826  0.0903093398138188   T   T   T
  0.1820111393915768  0.1761400986066834  0.0871666933334340   T   T   T
  0.3024037749770457  0.9273918724350244  0.0912528419666386   T   T   T
  0.1843092900723072  0.3436041340651007  0.0900740370642953   T   T   T
  0.3014655445766473  0.5980869176299161  0.1018550895231578   T   T   T
  0.1787182656885817  0.6758037869708113  0.0878148111002725   T   T   T
  0.3081954547122008  0.4288609488344939  0.0997070732277065   T   T   T
  0.1783011412233393  0.8426303444699293  0.0868374723363476   T   T   T
  0.5552788769711277  0.0861021465944261  0.0976110573692003   T   T   T
  0.4322083283498481  0.1748982247001362  0.0963510371302907   T   T   T
  0.5520594460852648  0.9188355309052154  0.1021173275356410   T   T   T
  0.4345162345532833  0.3437502148783905  0.1025539956925717   T   T   T
  0.5655787566783669  0.4107059254430001  0.1111075593737751   T   T   T
  0.4217514665241505  0.8418458620052618  0.1041560206367347   T   T   T
  0.8065148983794983  0.0852565895131476  0.0884818135989140   T   T   T
  0.6823847246248586  0.1670951444716137  0.0937145937886521   T   T   T
  0.8042637182855314  0.9183278275819010  0.0896393161587830   T   T   T
  0.6861603188032495  0.3332912663664903  0.0975081910467540   T   T   T
  0.8098806589257602  0.5853763118866305  0.0924152317303769   T   T   T
  0.6921819103082502  0.6682276015516028  0.1057999550014772   T   T   T
  0.8105687279627071  0.4180563172282912  0.0908886481140015   T   T   T
  0.6782871391448251  0.8332968071527660  0.0995168741877973   T   T   T
  0.4112038310230050  0.6866352366028057  0.1185494174008387   T   T   T
  0.5621709206810064  0.5878821465563889  0.1637348545634585   T   T   T
 
  0.00000000E+00  0.00000000E+00  0.00000000E+00
  0.00000000E+00  0.00000000E+00  0.00000000E+00
  0.00000000E+00  0.00000000E+00  0.00000000E+00
  0.00000000E+00  0.00000000E+00  0.00000000E+00
  0.00000000E+00  0.00000000E+00  0.00000000E+00
  0.00000000E+00  0.00000000E+00  0.00000000E+00
  0.00000000E+00  0.00000000E+00  0.00000000E+00
  0.00000000E+00  0.00000000E+00  0.00000000E+00
  0.00000000E+00  0.00000000E+00  0.00000000E+00
  0.00000000E+00  0.00000000E+00  0.00000000E+00
  0.00000000E+00  0.00000000E+00  0.00000000E+00
  0.00000000E+00  0.00000000E+00  0.00000000E+00
  0.00000000E+00  0.00000000E+00  0.00000000E+00
  0.00000000E+00  0.00000000E+00  0.00000000E+00
  0.00000000E+00  0.00000000E+00  0.00000000E+00
  0.00000000E+00  0.00000000E+00  0.00000000E+00
  0.00000000E+00  0.00000000E+00  0.00000000E+00
  0.00000000E+00  0.00000000E+00  0.00000000E+00
  0.00000000E+00  0.00000000E+00  0.00000000E+00
  0.00000000E+00  0.00000000E+00  0.00000000E+00
  0.00000000E+00  0.00000000E+00  0.00000000E+00
  0.00000000E+00  0.00000000E+00  0.00000000E+00
  0.00000000E+00  0.00000000E+00  0.00000000E+00
  0.00000000E+00  0.00000000E+00  0.00000000E+00
  0.00000000E+00  0.00000000E+00  0.00000000E+00
  0.00000000E+00  0.00000000E+00  0.00000000E+00
  0.00000000E+00  0.00000000E+00  0.00000000E+00
  0.00000000E+00  0.00000000E+00  0.00000000E+00
  0.00000000E+00  0.00000000E+00  0.00000000E+00
  0.00000000E+00  0.00000000E+00  0.00000000E+00
  0.00000000E+00  0.00000000E+00  0.00000000E+00
  0.00000000E+00  0.00000000E+00  0.00000000E+00
