Title                                   
   1.00000000000000     
     9.8694509999999998    0.0000000000000000    0.0000000000000000
     0.0000000000000000    8.5490480000000009    0.0000000000000000
     0.0000000000000000    0.0000000000000000   20.0000000000000000
    29     1     1
Selective dynamics
Direct
  0.0557818924589237  0.0883716871050082  0.0828210680537456   T   T   T
  0.9308792241269362  0.1724226010461653  0.0872235234736667   T   T   T
  0.0564946755571652  0.9225383559719611  0.0827828713423813   T   T   T
  0.9326954207887550  0.3391791630677094  0.0884717344151787   T   T   T
  0.0564538177161364  0.5892941421725341  0.0826703541189751   T   T   T
  0.9330819011491934  0.6739458971118517  0.0888844480396906   T   T   T
  0.0561828230997700  0.4228606745334494  0.0827279499381740   T   T   T
  0.9315153524879761  0.8404961746389140  0.0877408226481286   T   T   T
  0.3059611049400146  0.0892544869348042  0.0877969369229434   T   T   T
  0.1803732610160130  0.1707506953595490  0.0834820236817056   T   T   T
  0.3073227843712559  0.9217372607760551  0.0872889831416071   T   T   T
  0.1794104247212927  0.3376021563797252  0.0831690812370282   T   T   T
  0.3046568632485752  0.5881112204611094  0.0881105683918966   T   T   T
  0.1805674139627797  0.6717995909826300  0.0825786563575201   T   T   T
  0.3025164335054536  0.4181988128177594  0.0890203079854855   T   T   T
  0.1820018797814468  0.8390818262441435  0.0827853862823173   T   T   T
  0.5551808231291746  0.0923308060488416  0.1026346902688920   T   T   T
  0.4284971050765830  0.1765227128600272  0.0965653323161228   T   T   T
  0.5559553129561045  0.9242565168122229  0.1030257816603513   T   T   T
  0.4278527709582958  0.6696886809377606  0.0971586754183032   T   T   T
  0.4315376770143364  0.8363782350780531  0.0957068559670024   T   T   T
  0.8060282918610866  0.0908847927455300  0.0935817134212036   T   T   T
  0.6823183100447602  0.1775770424098000  0.1032738943925937   T   T   T
  0.8064726771362157  0.9235014858912319  0.0943205624295451   T   T   T
  0.6885730414553697  0.3419549631352655  0.1112695828131780   T   T   T
  0.8121005367336479  0.5923735252704676  0.1022391430313391   T   T   T
  0.6900855309578535  0.6737603220109568  0.1153803458081338   T   T   T
  0.8117309890880539  0.4221816986399679  0.1009687642877201   T   T   T
  0.6832456081990527  0.8386295414557159  0.1053442311728115   T   T   T
  0.4225934429924390  0.3385693089679288  0.0993040685974182   T   T   T
  0.5450676094653493  0.5066206221328724  0.1526366423849815   T   T   T
 
  0.00000000E+00  0.00000000E+00  0.00000000E+00
  0.00000000E+00  0.00000000E+00  0.00000000E+00
  0.00000000E+00  0.00000000E+00  0.00000000E+00
  0.00000000E+00  0.00000000E+00  0.00000000E+00
  0.00000000E+00  0.00000000E+00  0.00000000E+00
  0.00000000E+00  0.00000000E+00  0.00000000E+00
  0.00000000E+00  0.00000000E+00  0.00000000E+00
  0.00000000E+00  0.00000000E+00  0.00000000E+00
  0.00000000E+00  0.00000000E+00  0.00000000E+00
  0.00000000E+00  0.00000000E+00  0.00000000E+00
  0.00000000E+00  0.00000000E+00  0.00000000E+00
  0.00000000E+00  0.00000000E+00  0.00000000E+00
  0.00000000E+00  0.00000000E+00  0.00000000E+00
  0.00000000E+00  0.00000000E+00  0.00000000E+00
  0.00000000E+00  0.00000000E+00  0.00000000E+00
  0.00000000E+00  0.00000000E+00  0.00000000E+00
  0.00000000E+00  0.00000000E+00  0.00000000E+00
  0.00000000E+00  0.00000000E+00  0.00000000E+00
  0.00000000E+00  0.00000000E+00  0.00000000E+00
  0.00000000E+00  0.00000000E+00  0.00000000E+00
  0.00000000E+00  0.00000000E+00  0.00000000E+00
  0.00000000E+00  0.00000000E+00  0.00000000E+00
  0.00000000E+00  0.00000000E+00  0.00000000E+00
  0.00000000E+00  0.00000000E+00  0.00000000E+00
  0.00000000E+00  0.00000000E+00  0.00000000E+00
  0.00000000E+00  0.00000000E+00  0.00000000E+00
  0.00000000E+00  0.00000000E+00  0.00000000E+00
  0.00000000E+00  0.00000000E+00  0.00000000E+00
  0.00000000E+00  0.00000000E+00  0.00000000E+00
  0.00000000E+00  0.00000000E+00  0.00000000E+00
  0.00000000E+00  0.00000000E+00  0.00000000E+00
