Title                                   
   1.00000000000000     
     8.5490480000000009    0.0000000000000000    0.0000000000000000
     0.0000000000000000    8.5490480000000009    0.0000000000000000
     0.0000000000000000    0.0000000000000000   20.0000000000000000
    18     6     1
Selective dynamics
Direct
  0.9085399034361890  0.2051033205214241  0.0947718617433636   T   T   T
  0.9103373534954999  0.8006971226808396  0.0936634181726334   T   T   T
  0.1972065530614438  0.0839288291157157  0.0938559140596464   T   T   T
  0.0773639902955989  0.2012077297991192  0.0942458353909583   T   T   T
  0.1540784547656099  0.6527520298151295  0.0973367193058646   T   T   T
  0.0759535211765824  0.5011791072809659  0.0969344073367562   T   T   T
  0.1563609560952089  0.3528725994518646  0.0965286093237680   T   T   T
  0.0782179847447145  0.8001057891004220  0.0942473373874440   T   T   T
  0.3475638627806453  0.1642070840768758  0.0958183257208738   T   T   T
  0.4924816404275382  0.9160723237901057  0.0967528464416783   T   T   T
  0.3423884233193796  0.8395325823646512  0.0977313433628842   T   T   T
  0.7882974695358905  0.0863696442426970  0.0946463001007949   T   T   T
  0.6419366146075789  0.1653731877075290  0.0973182668227104   T   T   T
  0.7895847344340986  0.9176654056463140  0.0940133936201700   T   T   T
  0.8305532399892482  0.6513908378924735  0.0956753904037032   T   T   T
  0.8283025456134068  0.3520843000709708  0.0974035356821050   T   T   T
  0.6432811926581675  0.8367177801957205  0.0960924390476006   T   T   T
  0.3243777109565849  0.3281212074680322  0.0981470949518962   T   T   T
  0.4950011219645019  0.0860171077130215  0.0965056054842566   T   T   T
  0.9055137776891659  0.5020741590277193  0.0966655033173956   T   T   T
  0.3162732295943980  0.6797435672191225  0.1014373630005554   T   T   T
  0.6655009520520069  0.3277982336900540  0.1008963950144888   T   T   T
  0.6706343097586168  0.6738192052349078  0.0974811273677449   T   T   T
  0.1958713794310720  0.9168385131040963  0.0944760484548700   T   T   T
  0.4897910781168455  0.5031183327902485  0.1310599184858109   T   T   T
 
  0.00000000E+00  0.00000000E+00  0.00000000E+00
  0.00000000E+00  0.00000000E+00  0.00000000E+00
  0.00000000E+00  0.00000000E+00  0.00000000E+00
  0.00000000E+00  0.00000000E+00  0.00000000E+00
  0.00000000E+00  0.00000000E+00  0.00000000E+00
  0.00000000E+00  0.00000000E+00  0.00000000E+00
  0.00000000E+00  0.00000000E+00  0.00000000E+00
  0.00000000E+00  0.00000000E+00  0.00000000E+00
  0.00000000E+00  0.00000000E+00  0.00000000E+00
  0.00000000E+00  0.00000000E+00  0.00000000E+00
  0.00000000E+00  0.00000000E+00  0.00000000E+00
  0.00000000E+00  0.00000000E+00  0.00000000E+00
  0.00000000E+00  0.00000000E+00  0.00000000E+00
  0.00000000E+00  0.00000000E+00  0.00000000E+00
  0.00000000E+00  0.00000000E+00  0.00000000E+00
  0.00000000E+00  0.00000000E+00  0.00000000E+00
  0.00000000E+00  0.00000000E+00  0.00000000E+00
  0.00000000E+00  0.00000000E+00  0.00000000E+00
  0.00000000E+00  0.00000000E+00  0.00000000E+00
  0.00000000E+00  0.00000000E+00  0.00000000E+00
  0.00000000E+00  0.00000000E+00  0.00000000E+00
  0.00000000E+00  0.00000000E+00  0.00000000E+00
  0.00000000E+00  0.00000000E+00  0.00000000E+00
  0.00000000E+00  0.00000000E+00  0.00000000E+00
  0.00000000E+00  0.00000000E+00  0.00000000E+00
