Title                                   
   1.00000000000000     
     9.8694509999999998    0.0000000000000000    0.0000000000000000
     0.0000000000000000    8.5490480000000009    0.0000000000000000
     0.0000000000000000    0.0000000000000000   20.0000000000000000
    29     2     1
Selective dynamics
Direct
  0.0563688117100414  0.0905485687105108  0.0838809491142205   T   T   T
  0.9312807414657069  0.1738173241066564  0.0874967406919737   T   T   T
  0.0567821774197035  0.9229852228637906  0.0825082632968818   T   T   T
  0.9306587515431392  0.3402768532776581  0.0922827138094925   T   T   T
  0.0559520612531330  0.5895678176789222  0.0874510898884677   T   T   T
  0.9322868437996871  0.6727414236628195  0.0887437150977906   T   T   T
  0.0568800552939390  0.4229479198533660  0.0904041194969520   T   T   T
  0.9311357349572386  0.8401408231360152  0.0848565297897617   T   T   T
  0.3052945380447096  0.0879605284239609  0.0851316726207493   T   T   T
  0.1820543388579921  0.1739638097332732  0.0857865563199308   T   T   T
  0.3070311081566470  0.9225893213570056  0.0856204595756564   T   T   T
  0.1817981676472943  0.3399236777669468  0.0906448093096177   T   T   T
  0.3056493580182507  0.5894985882656868  0.0975338927487704   T   T   T
  0.1818416742487197  0.6709553120093343  0.0866492259424944   T   T   T
  0.1820789264991898  0.8378881426797012  0.0840344871210591   T   T   T
  0.5552121347358941  0.0876191937673159  0.0937788907560246   T   T   T
  0.4297555682215844  0.1697664367150172  0.0910170178182407   T   T   T
  0.4296419265195872  0.3350420023678803  0.1004210727759239   T   T   T
  0.4295288698057242  0.8385988295691016  0.0971635080731951   T   T   T
  0.8068762284052191  0.0902114828605865  0.0875160423544561   T   T   T
  0.6808108703979959  0.1702971251434037  0.0938144569956782   T   T   T
  0.8063683054711732  0.9252477070708116  0.0864447738432314   T   T   T
  0.6791640747589962  0.3351766265965939  0.1035994019557343   T   T   T
  0.8075056136860308  0.5917694532893021  0.1001142546637735   T   T   T
  0.8049912551627671  0.4232631931848809  0.1005954837705498   T   T   T
  0.6821908711764243  0.8426933099008116  0.0969643837311376   T   T   T
  0.4244164871682549  0.6769230288703121  0.1130426048627418   T   T   T
  0.5517495246407554  0.4092403376651046  0.1164136419579140   T   T   T
  0.6888567835394578  0.6831077796472730  0.1119130504522715   T   T   T
  0.5557672092640529  0.9222610569765041  0.0974020538172787   T   T   T
  0.3060269542657101  0.4220491808084182  0.0977247485140964   T   T   T
  0.5636830338649855  0.5911739220410371  0.1847243888339499   T   T   T
 
  0.00000000E+00  0.00000000E+00  0.00000000E+00
  0.00000000E+00  0.00000000E+00  0.00000000E+00
  0.00000000E+00  0.00000000E+00  0.00000000E+00
  0.00000000E+00  0.00000000E+00  0.00000000E+00
  0.00000000E+00  0.00000000E+00  0.00000000E+00
  0.00000000E+00  0.00000000E+00  0.00000000E+00
  0.00000000E+00  0.00000000E+00  0.00000000E+00
  0.00000000E+00  0.00000000E+00  0.00000000E+00
  0.00000000E+00  0.00000000E+00  0.00000000E+00
  0.00000000E+00  0.00000000E+00  0.00000000E+00
  0.00000000E+00  0.00000000E+00  0.00000000E+00
  0.00000000E+00  0.00000000E+00  0.00000000E+00
  0.00000000E+00  0.00000000E+00  0.00000000E+00
  0.00000000E+00  0.00000000E+00  0.00000000E+00
  0.00000000E+00  0.00000000E+00  0.00000000E+00
  0.00000000E+00  0.00000000E+00  0.00000000E+00
  0.00000000E+00  0.00000000E+00  0.00000000E+00
  0.00000000E+00  0.00000000E+00  0.00000000E+00
  0.00000000E+00  0.00000000E+00  0.00000000E+00
  0.00000000E+00  0.00000000E+00  0.00000000E+00
  0.00000000E+00  0.00000000E+00  0.00000000E+00
  0.00000000E+00  0.00000000E+00  0.00000000E+00
  0.00000000E+00  0.00000000E+00  0.00000000E+00
  0.00000000E+00  0.00000000E+00  0.00000000E+00
  0.00000000E+00  0.00000000E+00  0.00000000E+00
  0.00000000E+00  0.00000000E+00  0.00000000E+00
  0.00000000E+00  0.00000000E+00  0.00000000E+00
  0.00000000E+00  0.00000000E+00  0.00000000E+00
  0.00000000E+00  0.00000000E+00  0.00000000E+00
  0.00000000E+00  0.00000000E+00  0.00000000E+00
  0.00000000E+00  0.00000000E+00  0.00000000E+00
  0.00000000E+00  0.00000000E+00  0.00000000E+00
