Title                                   
   1.00000000000000     
     9.8694509999999998    0.0000000000000000    0.0000000000000000
     0.0000000000000000    8.5490480000000009    0.0000000000000000
     0.0000000000000000    0.0000000000000000   20.0000000000000000
    23     7     1
Selective dynamics
Direct
  0.0557039159060754  0.0891809649041994  0.0948133930917347   T   T   T
  0.9318434582566328  0.1713090819534225  0.0950239475578932   T   T   T
  0.0573102512388561  0.9213223305738598  0.0948812096870176   T   T   T
  0.9338307424282768  0.3384465060341539  0.0948472059214068   T   T   T
  0.0554315768971087  0.5905870611906053  0.0944223847485257   T   T   T
  0.0557357869242244  0.4238434968668600  0.0942156640228424   T   T   T
  0.9322283972659544  0.8387783386244382  0.0951148186674704   T   T   T
  0.3070849211505730  0.0886883990069399  0.0965540289587946   T   T   T
  0.1806656669034022  0.1709214912651184  0.0953091943217593   T   T   T
  0.1787831279670858  0.3384847258166211  0.0952042770902118   T   T   T
  0.2996405946513616  0.5902485380733372  0.0973337507045787   T   T   T
  0.1783513226721262  0.6743005566614004  0.0954146276304436   T   T   T
  0.3005499535032377  0.4206050995883974  0.0971890655391656   T   T   T
  0.1811383096532435  0.8414046783087381  0.0955409335779662   T   T   T
  0.4291582649499529  0.1767509757161580  0.0982381199355722   T   T   T
  0.5553000611924661  0.9191179816587234  0.0987199442869831   T   T   T
  0.4282057073474879  0.8357967219741674  0.0985505631935367   T   T   T
  0.8056624579307901  0.0886716292300866  0.0961949281943881   T   T   T
  0.6835545420759231  0.1779529766734193  0.0978787817040814   T   T   T
  0.8067897487804424  0.9209205478276030  0.0962871075808795   T   T   T
  0.8124297630704269  0.5917819929447793  0.0967767399748982   T   T   T
  0.8127982711345844  0.4207145881016006  0.0966191313754608   T   T   T
  0.6823308071886164  0.8362264961581503  0.0981466929325250   T   T   T
  0.9340411637265685  0.6728730904784900  0.0949129943371424   T   T   T
  0.5566978769076053  0.0964650356369978  0.0988446942991823   T   T   T
  0.4217163735478571  0.3386380486643850  0.0992305955507018   T   T   T
  0.4196490962751450  0.6749608775347461  0.0996158646738355   T   T   T
  0.6911215712263378  0.3394436950801547  0.0987476535736918   T   T   T
  0.6935092734786676  0.6724804881237517  0.0990845200462702   T   T   T
  0.3053135633649499  0.9226746879652259  0.0966377453490058   T   T   T
  0.5565594323840212  0.5072838973634693  0.1006144214720922   T   T   T
 
  0.00000000E+00  0.00000000E+00  0.00000000E+00
  0.00000000E+00  0.00000000E+00  0.00000000E+00
  0.00000000E+00  0.00000000E+00  0.00000000E+00
  0.00000000E+00  0.00000000E+00  0.00000000E+00
  0.00000000E+00  0.00000000E+00  0.00000000E+00
  0.00000000E+00  0.00000000E+00  0.00000000E+00
  0.00000000E+00  0.00000000E+00  0.00000000E+00
  0.00000000E+00  0.00000000E+00  0.00000000E+00
  0.00000000E+00  0.00000000E+00  0.00000000E+00
  0.00000000E+00  0.00000000E+00  0.00000000E+00
  0.00000000E+00  0.00000000E+00  0.00000000E+00
  0.00000000E+00  0.00000000E+00  0.00000000E+00
  0.00000000E+00  0.00000000E+00  0.00000000E+00
  0.00000000E+00  0.00000000E+00  0.00000000E+00
  0.00000000E+00  0.00000000E+00  0.00000000E+00
  0.00000000E+00  0.00000000E+00  0.00000000E+00
  0.00000000E+00  0.00000000E+00  0.00000000E+00
  0.00000000E+00  0.00000000E+00  0.00000000E+00
  0.00000000E+00  0.00000000E+00  0.00000000E+00
  0.00000000E+00  0.00000000E+00  0.00000000E+00
  0.00000000E+00  0.00000000E+00  0.00000000E+00
  0.00000000E+00  0.00000000E+00  0.00000000E+00
  0.00000000E+00  0.00000000E+00  0.00000000E+00
  0.00000000E+00  0.00000000E+00  0.00000000E+00
  0.00000000E+00  0.00000000E+00  0.00000000E+00
  0.00000000E+00  0.00000000E+00  0.00000000E+00
  0.00000000E+00  0.00000000E+00  0.00000000E+00
  0.00000000E+00  0.00000000E+00  0.00000000E+00
  0.00000000E+00  0.00000000E+00  0.00000000E+00
  0.00000000E+00  0.00000000E+00  0.00000000E+00
  0.00000000E+00  0.00000000E+00  0.00000000E+00
