Title                                   
   1.00000000000000     
     8.5490480000000009    0.0000000000000000    0.0000000000000000
     0.0000000000000000    8.5490480000000009    0.0000000000000000
     0.0000000000000000    0.0000000000000000   20.0000000000000000
    21     3     1
Selective dynamics
Direct
  0.9096596733623005  0.2057047918847961  0.0968723290045964   T   T   T
  0.9097293557299982  0.5020856765078747  0.0976920034374638   T   T   T
  0.9103954085723963  0.8006345470183469  0.0973713627324787   T   T   T
  0.1976522846858269  0.0836506493608024  0.0974889335130143   T   T   T
  0.0757324479548874  0.2033629604442873  0.0973364772309282   T   T   T
  0.1573560448125580  0.6505308957948611  0.0972865884192423   T   T   T
  0.0782567423842412  0.5018531379364485  0.0976388829257562   T   T   T
  0.1573274937386587  0.3522040405217844  0.0979138686221869   T   T   T
  0.0774540277078906  0.7985712057184218  0.0970394712209274   T   T   T
  0.4932934433128619  0.0863306562065359  0.0976899238776263   T   T   T
  0.3435216727062370  0.1641300191373167  0.0980339079686154   T   T   T
  0.4917257643169937  0.9176454316019881  0.0977722260787333   T   T   T
  0.3444993519363869  0.8384957994967341  0.0975005480965312   T   T   T
  0.7870285691482043  0.0848362510157097  0.0968333840014560   T   T   T
  0.6392714563752552  0.1652547427816676  0.0972519409895764   T   T   T
  0.7876003082569292  0.9191094248553822  0.0973270877063519   T   T   T
  0.8304694740052699  0.6516398017685685  0.0979889523049596   T   T   T
  0.8305839878531658  0.3548477652790266  0.0973129043483805   T   T   T
  0.6405720653430451  0.8368667082773431  0.0980167461619443   T   T   T
  0.3227399182587205  0.6741276588646747  0.0978206133800601   T   T   T
  0.6629904787835781  0.3333791172515612  0.0980823378696119   T   T   T
  0.3198384233737804  0.3279105214978233  0.0987277559312170   T   T   T
  0.6663471493327934  0.6735388627132415  0.0988454320924497   T   T   T
  0.1977737935717606  0.9184061507444607  0.0971528231630800   T   T   T
  0.4935926644762452  0.4996731833203560  0.1007084989227922   T   T   T
 
  0.00000000E+00  0.00000000E+00  0.00000000E+00
  0.00000000E+00  0.00000000E+00  0.00000000E+00
  0.00000000E+00  0.00000000E+00  0.00000000E+00
  0.00000000E+00  0.00000000E+00  0.00000000E+00
  0.00000000E+00  0.00000000E+00  0.00000000E+00
  0.00000000E+00  0.00000000E+00  0.00000000E+00
  0.00000000E+00  0.00000000E+00  0.00000000E+00
  0.00000000E+00  0.00000000E+00  0.00000000E+00
  0.00000000E+00  0.00000000E+00  0.00000000E+00
  0.00000000E+00  0.00000000E+00  0.00000000E+00
  0.00000000E+00  0.00000000E+00  0.00000000E+00
  0.00000000E+00  0.00000000E+00  0.00000000E+00
  0.00000000E+00  0.00000000E+00  0.00000000E+00
  0.00000000E+00  0.00000000E+00  0.00000000E+00
  0.00000000E+00  0.00000000E+00  0.00000000E+00
  0.00000000E+00  0.00000000E+00  0.00000000E+00
  0.00000000E+00  0.00000000E+00  0.00000000E+00
  0.00000000E+00  0.00000000E+00  0.00000000E+00
  0.00000000E+00  0.00000000E+00  0.00000000E+00
  0.00000000E+00  0.00000000E+00  0.00000000E+00
  0.00000000E+00  0.00000000E+00  0.00000000E+00
  0.00000000E+00  0.00000000E+00  0.00000000E+00
  0.00000000E+00  0.00000000E+00  0.00000000E+00
  0.00000000E+00  0.00000000E+00  0.00000000E+00
  0.00000000E+00  0.00000000E+00  0.00000000E+00
