Title                                   
   1.00000000000000     
     4.9440799999999996    0.0000000000000000    0.0000000000000000
     0.0000000000000000   17.1295089999999988    0.0000000000000000
     0.0000000000000000    0.0000000000000000   20.0000000000000000
    27     3     1
Selective dynamics
Direct
  0.0004605701432258  0.1058137395569263  0.2968502204554407   T   T   T
  0.2491394662075199  0.1486970789447142  0.2971238173565019   T   T   T
  0.2485985953626078  0.2333585303851672  0.2990385892456812   T   T   T
 -0.0022949489687264  0.2755303865178461  0.3023633181415849   T   T   T
 -0.0000583958355338  0.6000199151072670  0.3017582512174630   T   T   T
  0.2483316580815144  0.7266455538712304  0.2970953091673220   T   T   T
  0.0002474549801825  0.8531913275018331  0.2969544078323776   T   T   T
  0.2493826654663588  0.8954272029987352  0.2967659413275303   T   T   T
  0.2496122573617193  0.9795984151317046  0.2966153593040413   T   T   T
  0.0000663123223214  0.7689260076024899  0.2971530174283794   T   T   T
  0.4990398068483441  0.1061295590155426  0.2960228836796114   T   T   T
  0.7505050916555789  0.1478227119943123  0.2961767146535177   T   T   T
  0.7511994311251705  0.2315747624982206  0.2970276203672874   T   T   T
  0.4991601517511098  0.0218995903316197  0.2961957045646644   T   T   T
  0.7473188872061229  0.3935406988687344  0.3020097528467438   T   T   T
  0.7447047097533742  0.4785357680916670  0.3023699434867679   T   T   T
  0.5018183077914216  0.2737320874912193  0.2964953668190390   T   T   T
  0.4969091837583617  0.6022422863767227  0.2953125977650674   T   T   T
  0.7496900679578784  0.7271570526564229  0.2962697028345304   T   T   T
  0.4981070386349591  0.8529604203282197  0.2964368407476102   T   T   T
  0.7491258404867650  0.8951438978925358  0.2965889552656217   T   T   T
  0.7493438855692333  0.9794103427144207  0.2964384932846050   T   T   T
  0.4979658037323538  0.7685996200608214  0.2961902900014904   T   T   T
  0.7497986450464736  0.6440783685744362  0.2964620766409064   T   T   T
 -0.0000737155526734  0.0216595842978218  0.2966773689626607   T   T   T
  0.4971009928901188  0.5206425437929140  0.2950316989214825   T   T   T
  0.0003424782947365  0.5178865388531118  0.3122359239786535   T   T   T
  0.5095211853927697  0.3536481513552806  0.2941937810585351   T   T   T
 -0.0110306280855249  0.3559659289800871  0.3122482726222151   T   T   T
  0.2474226062954662  0.6439654910933070  0.2980735674038256   T   T   T
  0.2885515943267733  0.4375384371146626  0.3348842126187939   T   T   T
 
  0.00000000E+00  0.00000000E+00  0.00000000E+00
  0.00000000E+00  0.00000000E+00  0.00000000E+00
  0.00000000E+00  0.00000000E+00  0.00000000E+00
  0.00000000E+00  0.00000000E+00  0.00000000E+00
  0.00000000E+00  0.00000000E+00  0.00000000E+00
  0.00000000E+00  0.00000000E+00  0.00000000E+00
  0.00000000E+00  0.00000000E+00  0.00000000E+00
  0.00000000E+00  0.00000000E+00  0.00000000E+00
  0.00000000E+00  0.00000000E+00  0.00000000E+00
  0.00000000E+00  0.00000000E+00  0.00000000E+00
  0.00000000E+00  0.00000000E+00  0.00000000E+00
  0.00000000E+00  0.00000000E+00  0.00000000E+00
  0.00000000E+00  0.00000000E+00  0.00000000E+00
  0.00000000E+00  0.00000000E+00  0.00000000E+00
  0.00000000E+00  0.00000000E+00  0.00000000E+00
  0.00000000E+00  0.00000000E+00  0.00000000E+00
  0.00000000E+00  0.00000000E+00  0.00000000E+00
  0.00000000E+00  0.00000000E+00  0.00000000E+00
  0.00000000E+00  0.00000000E+00  0.00000000E+00
  0.00000000E+00  0.00000000E+00  0.00000000E+00
  0.00000000E+00  0.00000000E+00  0.00000000E+00
  0.00000000E+00  0.00000000E+00  0.00000000E+00
  0.00000000E+00  0.00000000E+00  0.00000000E+00
  0.00000000E+00  0.00000000E+00  0.00000000E+00
  0.00000000E+00  0.00000000E+00  0.00000000E+00
  0.00000000E+00  0.00000000E+00  0.00000000E+00
  0.00000000E+00  0.00000000E+00  0.00000000E+00
  0.00000000E+00  0.00000000E+00  0.00000000E+00
  0.00000000E+00  0.00000000E+00  0.00000000E+00
  0.00000000E+00  0.00000000E+00  0.00000000E+00
  0.00000000E+00  0.00000000E+00  0.00000000E+00
