Title                                   
   1.00000000000000     
     9.8694509999999998    0.0000000000000000    0.0000000000000000
     0.0000000000000000    8.5490480000000009    0.0000000000000000
     0.0000000000000000    0.0000000000000000   20.0000000000000000
    30     1
Selective dynamics
Direct
  0.0562267160564400  0.0888227327239383  0.0831588535147171   T   T   T
  0.9313083739579370  0.1722929753994749  0.0853110779553242   T   T   T
  0.0562277967018196  0.9229988803653175  0.0835130504293466   T   T   T
  0.9323130512591379  0.3388899486909709  0.0850845537065527   T   T   T
  0.0562490175983372  0.5892098207751821  0.0833917302644140   T   T   T
  0.9315795051608740  0.6733302694476035  0.0860251111282305   T   T   T
  0.0562264328768792  0.4229632429116730  0.0823953434970626   T   T   T
  0.9310758615966893  0.8398150876738969  0.0857911844349461   T   T   T
  0.3060248230519037  0.0898478953937691  0.0912641604198175   T   T   T
  0.1811254150338731  0.1722987004330983  0.0853803644671101   T   T   T
  0.3059516273416237  0.9228667285373027  0.0909613283324831   T   T   T
  0.1801357233671595  0.3389050761163838  0.0851734103015534   T   T   T
  0.3051081198078815  0.5904531615175126  0.0935622743978204   T   T   T
  0.1809047932940483  0.6733093546794687  0.0861047089083784   T   T   T
  0.3033836555275389  0.4206885953688779  0.0945278273423980   T   T   T
  0.1813740339943894  0.8398103223736920  0.0858676623121935   T   T   T
  0.5562294796489041  0.0894711135103335  0.1037553604138451   T   T   T
  0.4289406232865449  0.1753448820285803  0.1015530546010033   T   T   T
  0.5562279782458948  0.9254368251349769  0.1014047342136916   T   T   T
  0.4246929535272111  0.3395570281647170  0.1075834544583277   T   T   T
  0.4272953410310942  0.6746018199191252  0.1029587729105824   T   T   T
  0.4302741073747350  0.8382686106928317  0.0985769568108738   T   T   T
  0.8064149403299187  0.0898374158734663  0.0911548586552808   T   T   T
  0.6834963836578007  0.1753333992546911  0.1013975779495284   T   T   T
  0.8064776493610079  0.9228598712560918  0.0908411863622221   T   T   T
  0.6877318665021828  0.3395789001929540  0.1072850176188864   T   T   T
  0.8073552172340014  0.5904614530259205  0.0933518946752028   T   T   T
  0.6851249520656719  0.6745413245380136  0.1026591960928539   T   T   T
  0.8090453014090274  0.4207044882488948  0.0943024855908292   T   T   T
  0.6821450202922308  0.8382383923306199  0.0984323301042564   T   T   T
  0.5564682394072511  0.5001366834206336  0.1581954781303087   T   T   T
 
  0.00000000E+00  0.00000000E+00  0.00000000E+00
  0.00000000E+00  0.00000000E+00  0.00000000E+00
  0.00000000E+00  0.00000000E+00  0.00000000E+00
  0.00000000E+00  0.00000000E+00  0.00000000E+00
  0.00000000E+00  0.00000000E+00  0.00000000E+00
  0.00000000E+00  0.00000000E+00  0.00000000E+00
  0.00000000E+00  0.00000000E+00  0.00000000E+00
  0.00000000E+00  0.00000000E+00  0.00000000E+00
  0.00000000E+00  0.00000000E+00  0.00000000E+00
  0.00000000E+00  0.00000000E+00  0.00000000E+00
  0.00000000E+00  0.00000000E+00  0.00000000E+00
  0.00000000E+00  0.00000000E+00  0.00000000E+00
  0.00000000E+00  0.00000000E+00  0.00000000E+00
  0.00000000E+00  0.00000000E+00  0.00000000E+00
  0.00000000E+00  0.00000000E+00  0.00000000E+00
  0.00000000E+00  0.00000000E+00  0.00000000E+00
  0.00000000E+00  0.00000000E+00  0.00000000E+00
  0.00000000E+00  0.00000000E+00  0.00000000E+00
  0.00000000E+00  0.00000000E+00  0.00000000E+00
  0.00000000E+00  0.00000000E+00  0.00000000E+00
  0.00000000E+00  0.00000000E+00  0.00000000E+00
  0.00000000E+00  0.00000000E+00  0.00000000E+00
  0.00000000E+00  0.00000000E+00  0.00000000E+00
  0.00000000E+00  0.00000000E+00  0.00000000E+00
  0.00000000E+00  0.00000000E+00  0.00000000E+00
  0.00000000E+00  0.00000000E+00  0.00000000E+00
  0.00000000E+00  0.00000000E+00  0.00000000E+00
  0.00000000E+00  0.00000000E+00  0.00000000E+00
  0.00000000E+00  0.00000000E+00  0.00000000E+00
  0.00000000E+00  0.00000000E+00  0.00000000E+00
  0.00000000E+00  0.00000000E+00  0.00000000E+00
