Title                                   
   1.00000000000000     
     4.9440799999999996    0.0000000000000000    0.0000000000000000
     0.0000000000000000   17.1295089999999988    0.0000000000000000
     0.0000000000000000    0.0000000000000000   20.0000000000000000
    27     3     1
Selective dynamics
Direct
 -0.0009502873235409  0.1055092480590845  0.2988817066126459   T   T   T
  0.2476845247318918  0.1484263505915807  0.2996426506917155   T   T   T
  0.2471541277103285  0.2326081122593369  0.3007760573663468   T   T   T
 -0.0039725466370080  0.2754201783295498  0.2990166348310441   T   T   T
  0.0028125375485177  0.6014722776025523  0.2946417158715007   T   T   T
  0.2532836608947022  0.7259905912532628  0.2989363765229037   T   T   T
  0.0021365709325881  0.8525608834802580  0.2988438757958267   T   T   T
  0.2506457406643792  0.8950993562036574  0.2989893681874164   T   T   T
  0.2498722982975018  0.9793005794692309  0.2988355813378543   T   T   T
  0.0030251591202051  0.7679468541137059  0.2986162235652911   T   T   T
  0.4986979798831747  0.1058942316719526  0.2997097554636803   T   T   T
  0.7495401939851611  0.1476641828837854  0.2998230021524673   T   T   T
  0.7481097595821953  0.2318334785393957  0.3011119434646936   T   T   T
  0.4994469651289133  0.0215710641180466  0.2990837495046025   T   T   T
  0.7478054283769406  0.3952742100726048  0.3013402962797361   T   T   T
  0.7532539760704505  0.4815064693562730  0.2984848702542127   T   T   T
  0.4983344017595482  0.2738411398428713  0.3042429675155489   T   T   T
  0.5047761502454328  0.5998789045321015  0.3010446986353530   T   T   T
  0.7510264666186650  0.7272096066912664  0.2986104719658005   T   T   T
  0.4997516429618042  0.8529084984063626  0.2992669495706712   T   T   T
  0.7507179636902974  0.8946562190009493  0.2989553458081710   T   T   T
  0.7498571072920539  0.9790677464933459  0.2988285695611907   T   T   T
  0.5006793490922605  0.7683843116352534  0.2993177721460416   T   T   T
  0.7528215782051012  0.6437601783089101  0.2978552995604205   T   T   T
 -0.0002129939616040  0.0213673453536440  0.2986359148829837   T   T   T
 -0.0031734977036042  0.5199882554036794  0.2887718704850836   T   T   T
  0.5052296398783095  0.3564938697023436  0.3098461761746862   T   T   T
  0.5089643865764932  0.5199985511995815  0.3071612551296246   T   T   T
 -0.0098280327922932  0.3563780126821983  0.2950036131260338   T   T   T
  0.2545903165790165  0.6420186920242645  0.2985614823652509   T   T   T
  0.2479264325921205  0.4373126007189457  0.3022238051711540   T   T   T
 
  0.00000000E+00  0.00000000E+00  0.00000000E+00
  0.00000000E+00  0.00000000E+00  0.00000000E+00
  0.00000000E+00  0.00000000E+00  0.00000000E+00
  0.00000000E+00  0.00000000E+00  0.00000000E+00
  0.00000000E+00  0.00000000E+00  0.00000000E+00
  0.00000000E+00  0.00000000E+00  0.00000000E+00
  0.00000000E+00  0.00000000E+00  0.00000000E+00
  0.00000000E+00  0.00000000E+00  0.00000000E+00
  0.00000000E+00  0.00000000E+00  0.00000000E+00
  0.00000000E+00  0.00000000E+00  0.00000000E+00
  0.00000000E+00  0.00000000E+00  0.00000000E+00
  0.00000000E+00  0.00000000E+00  0.00000000E+00
  0.00000000E+00  0.00000000E+00  0.00000000E+00
  0.00000000E+00  0.00000000E+00  0.00000000E+00
  0.00000000E+00  0.00000000E+00  0.00000000E+00
  0.00000000E+00  0.00000000E+00  0.00000000E+00
  0.00000000E+00  0.00000000E+00  0.00000000E+00
  0.00000000E+00  0.00000000E+00  0.00000000E+00
  0.00000000E+00  0.00000000E+00  0.00000000E+00
  0.00000000E+00  0.00000000E+00  0.00000000E+00
  0.00000000E+00  0.00000000E+00  0.00000000E+00
  0.00000000E+00  0.00000000E+00  0.00000000E+00
  0.00000000E+00  0.00000000E+00  0.00000000E+00
  0.00000000E+00  0.00000000E+00  0.00000000E+00
  0.00000000E+00  0.00000000E+00  0.00000000E+00
  0.00000000E+00  0.00000000E+00  0.00000000E+00
  0.00000000E+00  0.00000000E+00  0.00000000E+00
  0.00000000E+00  0.00000000E+00  0.00000000E+00
  0.00000000E+00  0.00000000E+00  0.00000000E+00
  0.00000000E+00  0.00000000E+00  0.00000000E+00
  0.00000000E+00  0.00000000E+00  0.00000000E+00
