Title                                   
   1.00000000000000     
     9.8694509999999998    0.0000000000000000    0.0000000000000000
     0.0000000000000000    8.5490480000000009    0.0000000000000000
     0.0000000000000000    0.0000000000000000   20.0000000000000000
    31     1
Selective dynamics
Direct
  0.0562286304438934  0.0897314128885662  0.0833976237413834   T   T   T
  0.9312675825500839  0.1725463541426112  0.0852720705068291   T   T   T
  0.0562462627247265  0.9233098910421855  0.0832633753869796   T   T   T
  0.9313323835097777  0.3393850349015569  0.0869161377810827   T   T   T
  0.0562449132351886  0.5890979878922649  0.0831458096276148   T   T   T
  0.9327941040136141  0.6733297587297082  0.0861808540395207   T   T   T
  0.0562071088481944  0.4226793942440015  0.0847361580442078   T   T   T
  0.9315613183167637  0.8400191703966998  0.0858170412484598   T   T   T
  0.3060506623623024  0.0897780683671007  0.0887176934008639   T   T   T
  0.1811848790678422  0.1724714515244112  0.0852837384902904   T   T   T
  0.3056594772710428  0.9230118780519144  0.0903838970150185   T   T   T
  0.1810687289321501  0.3393104104869191  0.0869149362568897   T   T   T
  0.3019822367758751  0.5893734757834148  0.0974682727737970   T   T   T
  0.1797050628429311  0.6732716905738532  0.0861690578763556   T   T   T
  0.3041442384936989  0.4221197968585912  0.0944163151306385   T   T   T
  0.1809276240446507  0.8399474678732289  0.0858245622581270   T   T   T
  0.5562386285491817  0.0883349555729605  0.0960845428261091   T   T   T
  0.4310319589373454  0.1722187637177544  0.0938683324662193   T   T   T
  0.5562592085436093  0.9219003185774688  0.1009607924310773   T   T   T
  0.4298884723756826  0.3397869986130146  0.0984512870568112   T   T   T
  0.4159445331664658  0.6775245542552427  0.1134393193483662   T   T   T
  0.5561256780642212  0.4145079427264509  0.1067765736930621   T   T   T
  0.4295560505607127  0.8396048464022295  0.1016965998272607   T   T   T
  0.8064092985686575  0.0898939703522372  0.0887138644555334   T   T   T
  0.6814062813570977  0.1723232745730496  0.0938681946510449   T   T   T
  0.8068459871056118  0.9231291223305969  0.0903789846032778   T   T   T
  0.6824626882383065  0.3399102820211776  0.0984473071845680   T   T   T
  0.8105503126897092  0.5894748842511909  0.0975511170707212   T   T   T
  0.6967112073775509  0.6777590052577318  0.1136042257776800   T   T   T
  0.8082488998097062  0.4222220817611289  0.0944485371616807   T   T   T
  0.6830093096068809  0.8397203519384280  0.1017390496542349   T   T   T
  0.5563452716165322  0.5825514038923199  0.1817387282143288   T   T   T
 
  0.00000000E+00  0.00000000E+00  0.00000000E+00
  0.00000000E+00  0.00000000E+00  0.00000000E+00
  0.00000000E+00  0.00000000E+00  0.00000000E+00
  0.00000000E+00  0.00000000E+00  0.00000000E+00
  0.00000000E+00  0.00000000E+00  0.00000000E+00
  0.00000000E+00  0.00000000E+00  0.00000000E+00
  0.00000000E+00  0.00000000E+00  0.00000000E+00
  0.00000000E+00  0.00000000E+00  0.00000000E+00
  0.00000000E+00  0.00000000E+00  0.00000000E+00
  0.00000000E+00  0.00000000E+00  0.00000000E+00
  0.00000000E+00  0.00000000E+00  0.00000000E+00
  0.00000000E+00  0.00000000E+00  0.00000000E+00
  0.00000000E+00  0.00000000E+00  0.00000000E+00
  0.00000000E+00  0.00000000E+00  0.00000000E+00
  0.00000000E+00  0.00000000E+00  0.00000000E+00
  0.00000000E+00  0.00000000E+00  0.00000000E+00
  0.00000000E+00  0.00000000E+00  0.00000000E+00
  0.00000000E+00  0.00000000E+00  0.00000000E+00
  0.00000000E+00  0.00000000E+00  0.00000000E+00
  0.00000000E+00  0.00000000E+00  0.00000000E+00
  0.00000000E+00  0.00000000E+00  0.00000000E+00
  0.00000000E+00  0.00000000E+00  0.00000000E+00
  0.00000000E+00  0.00000000E+00  0.00000000E+00
  0.00000000E+00  0.00000000E+00  0.00000000E+00
  0.00000000E+00  0.00000000E+00  0.00000000E+00
  0.00000000E+00  0.00000000E+00  0.00000000E+00
  0.00000000E+00  0.00000000E+00  0.00000000E+00
  0.00000000E+00  0.00000000E+00  0.00000000E+00
  0.00000000E+00  0.00000000E+00  0.00000000E+00
  0.00000000E+00  0.00000000E+00  0.00000000E+00
  0.00000000E+00  0.00000000E+00  0.00000000E+00
  0.00000000E+00  0.00000000E+00  0.00000000E+00
