Title                                   
   1.00000000000000     
     9.8694509999999998    0.0000000000000000    0.0000000000000000
     0.0000000000000000    8.5490480000000009    0.0000000000000000
     0.0000000000000000    0.0000000000000000   20.0000000000000000
    26     4     1
Selective dynamics
Direct
  0.0550557634698553  0.0873563174022541  0.0859336747571920   T   T   T
  0.9312452285409282  0.1707498796498620  0.0876764408263003   T   T   T
  0.0565484482966871  0.9215413785255447  0.0869369601545317   T   T   T
  0.9353807563995005  0.3380998075907336  0.0871593705246791   T   T   T
  0.0562244145300628  0.5906931566039862  0.0847322470392927   T   T   T
  0.0569337650144590  0.4239653647429603  0.0831467456617117   T   T   T
  0.9319239639334418  0.8383275444806249  0.0894782586024781   T   T   T
  0.3051731631170737  0.0881073708965145  0.0927405145999908   T   T   T
  0.1805170692350783  0.1703666102763278  0.0871854230769956   T   T   T
  0.1790977049334707  0.3376209172415055  0.0858084529709602   T   T   T
  0.3004051423667232  0.5881152193052323  0.0946442493886121   T   T   T
  0.1788023102727279  0.6743908247799514  0.0876111871325484   T   T   T
  0.2998077687581266  0.4188014147459699  0.0938463252973039   T   T   T
  0.1818317070688804  0.8400412660790822  0.0886627495082654   T   T   T
  0.4283843903847360  0.1750320542650516  0.0996916032749655   T   T   T
  0.5542812349609194  0.9243919252759996  0.1028553784085215   T   T   T
  0.4192679559332411  0.6759592425754917  0.1048326906291437   T   T   T
  0.4282001261043736  0.8395495688392126  0.1013525853087484   T   T   T
  0.8058685498781352  0.0880546050649080  0.0932677469414252   T   T   T
  0.6824722091758515  0.1770800819445868  0.1004980429151703   T   T   T
  0.8064605768608311  0.9210948192147932  0.0944614533138085   T   T   T
  0.6938371059644519  0.3396479035652877  0.1055894321573538   T   T   T
  0.8152194559182353  0.5921505197444820  0.0976723193267662   T   T   T
  0.6940447990717092  0.6733265686596774  0.1063535052707840   T   T   T
  0.8166959922137669  0.4207419872266785  0.0966610506257462   T   T   T
  0.6800696530442857  0.8394476626647328  0.1021391320796223   T   T   T
  0.9350879224142579  0.6734418010168119  0.0891100031019043   T   T   T
  0.5547070230535275  0.0951587757304929  0.1019976049893746   T   T   T
  0.4180989938526748  0.3346468741217133  0.1033331217622560   T   T   T
  0.3042160295580020  0.9237335188953065  0.0931625189907315   T   T   T
  0.5572757756740029  0.5092400188742432  0.1124242113628638   T   T   T
 
  0.00000000E+00  0.00000000E+00  0.00000000E+00
  0.00000000E+00  0.00000000E+00  0.00000000E+00
  0.00000000E+00  0.00000000E+00  0.00000000E+00
  0.00000000E+00  0.00000000E+00  0.00000000E+00
  0.00000000E+00  0.00000000E+00  0.00000000E+00
  0.00000000E+00  0.00000000E+00  0.00000000E+00
  0.00000000E+00  0.00000000E+00  0.00000000E+00
  0.00000000E+00  0.00000000E+00  0.00000000E+00
  0.00000000E+00  0.00000000E+00  0.00000000E+00
  0.00000000E+00  0.00000000E+00  0.00000000E+00
  0.00000000E+00  0.00000000E+00  0.00000000E+00
  0.00000000E+00  0.00000000E+00  0.00000000E+00
  0.00000000E+00  0.00000000E+00  0.00000000E+00
  0.00000000E+00  0.00000000E+00  0.00000000E+00
  0.00000000E+00  0.00000000E+00  0.00000000E+00
  0.00000000E+00  0.00000000E+00  0.00000000E+00
  0.00000000E+00  0.00000000E+00  0.00000000E+00
  0.00000000E+00  0.00000000E+00  0.00000000E+00
  0.00000000E+00  0.00000000E+00  0.00000000E+00
  0.00000000E+00  0.00000000E+00  0.00000000E+00
  0.00000000E+00  0.00000000E+00  0.00000000E+00
  0.00000000E+00  0.00000000E+00  0.00000000E+00
  0.00000000E+00  0.00000000E+00  0.00000000E+00
  0.00000000E+00  0.00000000E+00  0.00000000E+00
  0.00000000E+00  0.00000000E+00  0.00000000E+00
  0.00000000E+00  0.00000000E+00  0.00000000E+00
  0.00000000E+00  0.00000000E+00  0.00000000E+00
  0.00000000E+00  0.00000000E+00  0.00000000E+00
  0.00000000E+00  0.00000000E+00  0.00000000E+00
  0.00000000E+00  0.00000000E+00  0.00000000E+00
  0.00000000E+00  0.00000000E+00  0.00000000E+00
