Title                                   
   1.00000000000000     
     9.8694509999999998    0.0000000000000000    0.0000000000000000
     0.0000000000000000    8.5490480000000009    0.0000000000000000
     0.0000000000000000    0.0000000000000000   20.0000000000000000
    29     2     1
Selective dynamics
Direct
  0.0564066674044380  0.0897980870207505  0.0851180079326251   T   T   T
  0.9316196690930401  0.1730665908641236  0.0868655586958988   T   T   T
  0.0574474333730517  0.9229163163398059  0.0850643275643519   T   T   T
  0.9314165926968430  0.3402471211021271  0.0892314788372698   T   T   T
  0.0570365436156576  0.5901905305792445  0.0864941832403104   T   T   T
  0.9324498754398157  0.6725475948225451  0.0899557244455083   T   T   T
  0.0567473851099200  0.4225783931134365  0.0871485536052998   T   T   T
  0.9324794895300732  0.8394350851660436  0.0883898580601574   T   T   T
  0.3061413416260712  0.0886313477162202  0.0879304981070137   T   T   T
  0.1822773460651471  0.1722210298973037  0.0865229901770557   T   T   T
  0.1818668228627142  0.3388341500590731  0.0881456167989020   T   T   T
  0.3055478218551616  0.5883154771613361  0.0958950841263760   T   T   T
  0.1819463878097700  0.6734709388380765  0.0869974406115505   T   T   T
  0.3065126346567438  0.4208913325385391  0.0955764687170101   T   T   T
  0.1822805480624780  0.8402281294597612  0.0857327925858391   T   T   T
  0.5561016936858143  0.0886604027314110  0.0935385315576431   T   T   T
  0.5548810364226697  0.9238687084123066  0.0991756129071970   T   T   T
  0.4305014737636369  0.3333878702443567  0.1014639217793866   T   T   T
  0.4284986714497190  0.8411498519618171  0.0993976650804587   T   T   T
  0.8065442091277653  0.0891541591004862  0.0886650701395480   T   T   T
  0.6804670119525325  0.1717548947423614  0.0925647250324705   T   T   T
  0.8071335042554517  0.9238311877966807  0.0912865802503577   T   T   T
  0.6820705913498643  0.3372298010597547  0.1011597118440326   T   T   T
  0.8089488744544578  0.5905694475742624  0.1010063802953680   T   T   T
  0.8064641362687007  0.4226047605049909  0.0979697128208580   T   T   T
  0.6828551135704841  0.8418772816066741  0.1020774429109903   T   T   T
  0.4219301911984157  0.6798651017540820  0.1088268351304864   T   T   T
  0.5544391501510255  0.4075657626979101  0.1143223203819550   T   T   T
  0.6909876692219615  0.6790625122173632  0.1159133648995172   T   T   T
  0.3063777864512932  0.9254688311053845  0.0878010466528128   T   T   T
  0.4290275814138614  0.1687622936195894  0.0920202085543165   T   T   T
  0.5502337460614265  0.5920610081921843  0.1734172862574494   T   T   T
 
  0.00000000E+00  0.00000000E+00  0.00000000E+00
  0.00000000E+00  0.00000000E+00  0.00000000E+00
  0.00000000E+00  0.00000000E+00  0.00000000E+00
  0.00000000E+00  0.00000000E+00  0.00000000E+00
  0.00000000E+00  0.00000000E+00  0.00000000E+00
  0.00000000E+00  0.00000000E+00  0.00000000E+00
  0.00000000E+00  0.00000000E+00  0.00000000E+00
  0.00000000E+00  0.00000000E+00  0.00000000E+00
  0.00000000E+00  0.00000000E+00  0.00000000E+00
  0.00000000E+00  0.00000000E+00  0.00000000E+00
  0.00000000E+00  0.00000000E+00  0.00000000E+00
  0.00000000E+00  0.00000000E+00  0.00000000E+00
  0.00000000E+00  0.00000000E+00  0.00000000E+00
  0.00000000E+00  0.00000000E+00  0.00000000E+00
  0.00000000E+00  0.00000000E+00  0.00000000E+00
  0.00000000E+00  0.00000000E+00  0.00000000E+00
  0.00000000E+00  0.00000000E+00  0.00000000E+00
  0.00000000E+00  0.00000000E+00  0.00000000E+00
  0.00000000E+00  0.00000000E+00  0.00000000E+00
  0.00000000E+00  0.00000000E+00  0.00000000E+00
  0.00000000E+00  0.00000000E+00  0.00000000E+00
  0.00000000E+00  0.00000000E+00  0.00000000E+00
  0.00000000E+00  0.00000000E+00  0.00000000E+00
  0.00000000E+00  0.00000000E+00  0.00000000E+00
  0.00000000E+00  0.00000000E+00  0.00000000E+00
  0.00000000E+00  0.00000000E+00  0.00000000E+00
  0.00000000E+00  0.00000000E+00  0.00000000E+00
  0.00000000E+00  0.00000000E+00  0.00000000E+00
  0.00000000E+00  0.00000000E+00  0.00000000E+00
  0.00000000E+00  0.00000000E+00  0.00000000E+00
  0.00000000E+00  0.00000000E+00  0.00000000E+00
  0.00000000E+00  0.00000000E+00  0.00000000E+00
