Title                                   
   1.00000000000000     
     9.8694509999999998    0.0000000000000000    0.0000000000000000
     0.0000000000000000    8.5490480000000009    0.0000000000000000
     0.0000000000000000    0.0000000000000000   20.0000000000000000
    29     2     1
Selective dynamics
Direct
  0.0563030670068006  0.0901092042751147  0.0834122551217112   T   T   T
  0.9313326285109382  0.1732329664261107  0.0845959552620665   T   T   T
  0.0573427130865167  0.9233077360237918  0.0839606959222719   T   T   T
  0.9311394911003400  0.3404322503104340  0.0872852156950486   T   T   T
  0.0571563852100306  0.5904888492694822  0.0859917186706907   T   T   T
  0.9322963610367657  0.6727762946975656  0.0885407287275274   T   T   T
  0.0569278417082301  0.4228669476574222  0.0861151647592839   T   T   T
  0.9321182861734852  0.8396784544998923  0.0866053367613887   T   T   T
  0.3059661408351602  0.0884068806061165  0.0878430688112821   T   T   T
  0.1823171759777996  0.1725934919479653  0.0853955210362207   T   T   T
  0.1821827535088803  0.3394236123866824  0.0877144505633486   T   T   T
  0.3052583003775086  0.5889603348686159  0.0999352279988200   T   T   T
  0.1825182451432130  0.6736258419676406  0.0884456617754992   T   T   T
  0.3066591104944504  0.4213520538548482  0.0974475764247583   T   T   T
  0.1822846139145222  0.8407115772905943  0.0865288209686375   T   T   T
  0.5555020998044178  0.0881028054151928  0.0931745834708796   T   T   T
  0.5543140180353126  0.9236828166692697  0.0995923586655663   T   T   T
  0.4304701383607044  0.3331042914753271  0.1031427420869124   T   T   T
  0.4275486671301220  0.8412550744933979  0.1027898802139827   T   T   T
  0.8060770392110892  0.0890481204940295  0.0862413708444546   T   T   T
  0.6802263213414509  0.1716641642929309  0.0908661338673965   T   T   T
  0.8065018691162044  0.9236641860904850  0.0890243351614254   T   T   T
  0.6816732064452686  0.3364369112302968  0.1004247525562230   T   T   T
  0.8083104156828761  0.5906992124884203  0.0993890398488168   T   T   T
  0.8061253777827970  0.4225714979715748  0.0963305082736918   T   T   T
  0.6822776855475408  0.8416378353267505  0.1006728461293082   T   T   T
  0.4205911836088148  0.6808129351729512  0.1168137193823401   T   T   T
  0.5553161254521557  0.4066167332620960  0.1172804490269255   T   T   T
  0.6901677263568076  0.6788396889877956  0.1150109477237263   T   T   T
  0.3062846455471354  0.9255924138344535  0.0894178616115063   T   T   T
  0.4291447522555892  0.1690842452718645  0.0928184330844951   T   T   T
  0.5573046142370778  0.5894665714408897  0.1728676395538097   T   T   T
 
  0.00000000E+00  0.00000000E+00  0.00000000E+00
  0.00000000E+00  0.00000000E+00  0.00000000E+00
  0.00000000E+00  0.00000000E+00  0.00000000E+00
  0.00000000E+00  0.00000000E+00  0.00000000E+00
  0.00000000E+00  0.00000000E+00  0.00000000E+00
  0.00000000E+00  0.00000000E+00  0.00000000E+00
  0.00000000E+00  0.00000000E+00  0.00000000E+00
  0.00000000E+00  0.00000000E+00  0.00000000E+00
  0.00000000E+00  0.00000000E+00  0.00000000E+00
  0.00000000E+00  0.00000000E+00  0.00000000E+00
  0.00000000E+00  0.00000000E+00  0.00000000E+00
  0.00000000E+00  0.00000000E+00  0.00000000E+00
  0.00000000E+00  0.00000000E+00  0.00000000E+00
  0.00000000E+00  0.00000000E+00  0.00000000E+00
  0.00000000E+00  0.00000000E+00  0.00000000E+00
  0.00000000E+00  0.00000000E+00  0.00000000E+00
  0.00000000E+00  0.00000000E+00  0.00000000E+00
  0.00000000E+00  0.00000000E+00  0.00000000E+00
  0.00000000E+00  0.00000000E+00  0.00000000E+00
  0.00000000E+00  0.00000000E+00  0.00000000E+00
  0.00000000E+00  0.00000000E+00  0.00000000E+00
  0.00000000E+00  0.00000000E+00  0.00000000E+00
  0.00000000E+00  0.00000000E+00  0.00000000E+00
  0.00000000E+00  0.00000000E+00  0.00000000E+00
  0.00000000E+00  0.00000000E+00  0.00000000E+00
  0.00000000E+00  0.00000000E+00  0.00000000E+00
  0.00000000E+00  0.00000000E+00  0.00000000E+00
  0.00000000E+00  0.00000000E+00  0.00000000E+00
  0.00000000E+00  0.00000000E+00  0.00000000E+00
  0.00000000E+00  0.00000000E+00  0.00000000E+00
  0.00000000E+00  0.00000000E+00  0.00000000E+00
  0.00000000E+00  0.00000000E+00  0.00000000E+00
