Title                                   
   1.00000000000000     
     9.8694509999999998    0.0000000000000000    0.0000000000000000
     0.0000000000000000    8.5490480000000009    0.0000000000000000
     0.0000000000000000    0.0000000000000000   20.0000000000000000
    30     1
Selective dynamics
Direct
  0.0562297805671791  0.0889829130915996  0.0907940927385107   T   T   T
  0.9309050447217500  0.1720954422568784  0.0914968440711851   T   T   T
  0.0562165699413990  0.9233722997940282  0.0908199156814132   T   T   T
  0.9317695360858430  0.3386710723032115  0.0913671143163142   T   T   T
  0.0562272328162442  0.5894655596178923  0.0908066726682387   T   T   T
  0.9317613109262555  0.6736223316907961  0.0914088628505378   T   T   T
  0.0562268032788624  0.4228315663701355  0.0907809284481390   T   T   T
  0.9308875669613572  0.8402285834736146  0.0915287405465825   T   T   T
  0.3071069821489744  0.0901827295419568  0.0936647078310918   T   T   T
  0.1815410171230203  0.1720899764229814  0.0917039816512856   T   T   T
  0.3070953310659168  0.9221555774203221  0.0936629992772889   T   T   T
  0.1806735518179960  0.3386684609264540  0.0915792895784757   T   T   T
  0.3049486350313238  0.5905434277060732  0.0939320663743288   T   T   T
  0.1806705011628237  0.6736537902620410  0.0916051456859749   T   T   T
  0.3049420987393542  0.4217484158408982  0.0939333983596430   T   T   T
  0.1815257449402594  0.8402475683516532  0.0917324144883935   T   T   T
  0.5561849330713187  0.0889826175956652  0.0966097792397299   T   T   T
  0.4319584555141913  0.1770118936587315  0.0961828647630037   T   T   T
  0.5561844487796579  0.9233033993758929  0.0965853497366330   T   T   T
  0.4299228570798887  0.3428105706054944  0.0986656336926293   T   T   T
  0.4299328869834294  0.6695068206089284  0.0986565877690880   T   T   T
  0.4319492403021544  0.8353013356820801  0.0961566555844070   T   T   T
  0.8053344028360604  0.0901525056607266  0.0933852186275781   T   T   T
  0.6804527330585427  0.1768744918806361  0.0959454041787903   T   T   T
  0.8053296828079666  0.9221607968575295  0.0933731505695776   T   T   T
  0.6825317972065472  0.3426218818279161  0.0983047519919305   T   T   T
  0.8074517801693925  0.5905518219718852  0.0935655003419802   T   T   T
  0.6825361314724711  0.6696759754249808  0.0983043893028527   T   T   T
  0.8074494329059970  0.4217083067347025  0.0935509929029941   T   T   T
  0.6804547647935525  0.8354154784700051  0.0959056504704556   T   T   T
  0.5567337456902799  0.5062373885743002  0.1249558962609877   T   T   T
 
  0.00000000E+00  0.00000000E+00  0.00000000E+00
  0.00000000E+00  0.00000000E+00  0.00000000E+00
  0.00000000E+00  0.00000000E+00  0.00000000E+00
  0.00000000E+00  0.00000000E+00  0.00000000E+00
  0.00000000E+00  0.00000000E+00  0.00000000E+00
  0.00000000E+00  0.00000000E+00  0.00000000E+00
  0.00000000E+00  0.00000000E+00  0.00000000E+00
  0.00000000E+00  0.00000000E+00  0.00000000E+00
  0.00000000E+00  0.00000000E+00  0.00000000E+00
  0.00000000E+00  0.00000000E+00  0.00000000E+00
  0.00000000E+00  0.00000000E+00  0.00000000E+00
  0.00000000E+00  0.00000000E+00  0.00000000E+00
  0.00000000E+00  0.00000000E+00  0.00000000E+00
  0.00000000E+00  0.00000000E+00  0.00000000E+00
  0.00000000E+00  0.00000000E+00  0.00000000E+00
  0.00000000E+00  0.00000000E+00  0.00000000E+00
  0.00000000E+00  0.00000000E+00  0.00000000E+00
  0.00000000E+00  0.00000000E+00  0.00000000E+00
  0.00000000E+00  0.00000000E+00  0.00000000E+00
  0.00000000E+00  0.00000000E+00  0.00000000E+00
  0.00000000E+00  0.00000000E+00  0.00000000E+00
  0.00000000E+00  0.00000000E+00  0.00000000E+00
  0.00000000E+00  0.00000000E+00  0.00000000E+00
  0.00000000E+00  0.00000000E+00  0.00000000E+00
  0.00000000E+00  0.00000000E+00  0.00000000E+00
  0.00000000E+00  0.00000000E+00  0.00000000E+00
  0.00000000E+00  0.00000000E+00  0.00000000E+00
  0.00000000E+00  0.00000000E+00  0.00000000E+00
  0.00000000E+00  0.00000000E+00  0.00000000E+00
  0.00000000E+00  0.00000000E+00  0.00000000E+00
  0.00000000E+00  0.00000000E+00  0.00000000E+00
