Title                                   
   1.00000000000000     
     9.8694509999999998    0.0000000000000000    0.0000000000000000
     0.0000000000000000    8.5490480000000009    0.0000000000000000
     0.0000000000000000    0.0000000000000000   20.0000000000000000
    29     2     1
Selective dynamics
Direct
  0.0564618781464203  0.0905118721924907  0.0838660446558481   T   T   T
  0.9313506583744993  0.1734002474733052  0.0878883342080130   T   T   T
  0.0568129507854970  0.9231178650763882  0.0822209469676960   T   T   T
  0.9306781764117146  0.3401344137724411  0.0929775313018929   T   T   T
  0.0559349645955201  0.5894854692432809  0.0875321998615893   T   T   T
  0.9320668054125850  0.6724843167958482  0.0890694019966294   T   T   T
  0.0571094051673720  0.4229672707374250  0.0907281322396925   T   T   T
  0.9311962883180265  0.8399010679923918  0.0849506553580609   T   T   T
  0.3055637553939206  0.0883300813286180  0.0849809156398591   T   T   T
  0.1822385497203279  0.1743596201709411  0.0858577088564181   T   T   T
  0.3070468422903060  0.9230992104361713  0.0849756355993621   T   T   T
  0.1821381835774419  0.3400533347914185  0.0908437238210085   T   T   T
  0.3060324647437141  0.5899734642149452  0.0970717511673937   T   T   T
  0.1816924936080998  0.6711913077558944  0.0861248037159588   T   T   T
  0.1821983945772958  0.8379631984458519  0.0833140425581302   T   T   T
  0.5554578202763772  0.0872856657975979  0.0936625376630974   T   T   T
  0.4302914261144409  0.1699992991268122  0.0910840274407543   T   T   T
  0.4310217760637081  0.3356483796802026  0.1010424164869549   T   T   T
  0.4295725422602619  0.8386307272204240  0.0965237989814463   T   T   T
  0.8070359164196954  0.0895389132083657  0.0879664516518231   T   T   T
  0.6809320068960296  0.1699243343192441  0.0942832502914613   T   T   T
  0.8063317793376634  0.9245864822066172  0.0867880280098295   T   T   T
  0.6791345931691707  0.3348693387777418  0.1044512349826547   T   T   T
  0.8071844188442659  0.5917505671840018  0.1009822481914733   T   T   T
  0.8054431842777389  0.4227779650541002  0.1015285543255600   T   T   T
  0.6822486218440831  0.8409922990457044  0.0974237582044561   T   T   T
  0.4244991842598036  0.6771885703332500  0.1113660438126750   T   T   T
  0.5526548388971568  0.4099688277293061  0.1166202948674706   T   T   T
  0.6880637243665555  0.6818103124316409  0.1119833988083751   T   T   T
  0.5556352465119065  0.9218098724921586  0.0966820853645857   T   T   T
  0.3064715726931806  0.4225658437815547  0.0976461971194970   T   T   T
  0.5591385366452273  0.5939258611838689  0.1832388458503495   T   T   T
 
  0.00000000E+00  0.00000000E+00  0.00000000E+00
  0.00000000E+00  0.00000000E+00  0.00000000E+00
  0.00000000E+00  0.00000000E+00  0.00000000E+00
  0.00000000E+00  0.00000000E+00  0.00000000E+00
  0.00000000E+00  0.00000000E+00  0.00000000E+00
  0.00000000E+00  0.00000000E+00  0.00000000E+00
  0.00000000E+00  0.00000000E+00  0.00000000E+00
  0.00000000E+00  0.00000000E+00  0.00000000E+00
  0.00000000E+00  0.00000000E+00  0.00000000E+00
  0.00000000E+00  0.00000000E+00  0.00000000E+00
  0.00000000E+00  0.00000000E+00  0.00000000E+00
  0.00000000E+00  0.00000000E+00  0.00000000E+00
  0.00000000E+00  0.00000000E+00  0.00000000E+00
  0.00000000E+00  0.00000000E+00  0.00000000E+00
  0.00000000E+00  0.00000000E+00  0.00000000E+00
  0.00000000E+00  0.00000000E+00  0.00000000E+00
  0.00000000E+00  0.00000000E+00  0.00000000E+00
  0.00000000E+00  0.00000000E+00  0.00000000E+00
  0.00000000E+00  0.00000000E+00  0.00000000E+00
  0.00000000E+00  0.00000000E+00  0.00000000E+00
  0.00000000E+00  0.00000000E+00  0.00000000E+00
  0.00000000E+00  0.00000000E+00  0.00000000E+00
  0.00000000E+00  0.00000000E+00  0.00000000E+00
  0.00000000E+00  0.00000000E+00  0.00000000E+00
  0.00000000E+00  0.00000000E+00  0.00000000E+00
  0.00000000E+00  0.00000000E+00  0.00000000E+00
  0.00000000E+00  0.00000000E+00  0.00000000E+00
  0.00000000E+00  0.00000000E+00  0.00000000E+00
  0.00000000E+00  0.00000000E+00  0.00000000E+00
  0.00000000E+00  0.00000000E+00  0.00000000E+00
  0.00000000E+00  0.00000000E+00  0.00000000E+00
  0.00000000E+00  0.00000000E+00  0.00000000E+00
