Title                                   
   1.00000000000000     
     8.5490480000000009    0.0000000000000000    0.0000000000000000
     0.0000000000000000    8.5490480000000009    0.0000000000000000
     0.0000000000000000    0.0000000000000000   20.0000000000000000
    22     2     1
Selective dynamics
Direct
  0.9100027507540522  0.2053200146880975  0.0954428556186263   T   T   T
  0.9024952115640569  0.5018199542755283  0.0952869682199702   T   T   T
  0.9100177141906157  0.7982705524914576  0.0954509367829005   T   T   T
  0.1999223891869264  0.0842916259423668  0.0954612853954747   T   T   T
  0.0757931813226789  0.2071125675005316  0.0954372260637095   T   T   T
  0.1999389832863023  0.9192530296014076  0.0954738576776208   T   T   T
  0.1556930796524409  0.6469413310687934  0.0953651661290423   T   T   T
  0.0720560743100069  0.5018023774159741  0.0953257217303938   T   T   T
  0.1556822381153838  0.3566459239066939  0.0953468347528612   T   T   T
  0.0758097935275069  0.7964417688299182  0.0954605676383175   T   T   T
  0.4955026293448077  0.0872352487729827  0.0953441604594047   T   T   T
  0.3498060458301808  0.1688263301584704  0.0953683462120682   T   T   T
  0.4955143088714261  0.9163496411370761  0.0953488288452183   T   T   T
  0.3498255781566142  0.8347358827358802  0.0953791262302947   T   T   T
  0.7895080706883639  0.0855521575657303  0.0954548235354191   T   T   T
  0.6429793100709414  0.1670285419053841  0.0953107891064645   T   T   T
  0.7895234537524738  0.9180444511447262  0.0954545183503547   T   T   T
  0.8238184482742082  0.6494359538232179  0.0952930205030784   T   T   T
  0.8238233769746375  0.3541672657167961  0.0952923244453666   T   T   T
  0.6429859788022475  0.8365679197545977  0.0953154314307254   T   T   T
  0.3243806590569229  0.3372823312834139  0.0952989039499431   T   T   T
  0.3243982616021591  0.6662996707782887  0.0953068523896654   T   T   T
  0.6638793350308300  0.3304518104621791  0.0951618559143978   T   T   T
  0.6638746147218881  0.6731340961512318  0.0951682192033110   T   T   T
  0.4881805129123204  0.5017795528892688  0.0951563794153493   T   T   T
 
  0.00000000E+00  0.00000000E+00  0.00000000E+00
  0.00000000E+00  0.00000000E+00  0.00000000E+00
  0.00000000E+00  0.00000000E+00  0.00000000E+00
  0.00000000E+00  0.00000000E+00  0.00000000E+00
  0.00000000E+00  0.00000000E+00  0.00000000E+00
  0.00000000E+00  0.00000000E+00  0.00000000E+00
  0.00000000E+00  0.00000000E+00  0.00000000E+00
  0.00000000E+00  0.00000000E+00  0.00000000E+00
  0.00000000E+00  0.00000000E+00  0.00000000E+00
  0.00000000E+00  0.00000000E+00  0.00000000E+00
  0.00000000E+00  0.00000000E+00  0.00000000E+00
  0.00000000E+00  0.00000000E+00  0.00000000E+00
  0.00000000E+00  0.00000000E+00  0.00000000E+00
  0.00000000E+00  0.00000000E+00  0.00000000E+00
  0.00000000E+00  0.00000000E+00  0.00000000E+00
  0.00000000E+00  0.00000000E+00  0.00000000E+00
  0.00000000E+00  0.00000000E+00  0.00000000E+00
  0.00000000E+00  0.00000000E+00  0.00000000E+00
  0.00000000E+00  0.00000000E+00  0.00000000E+00
  0.00000000E+00  0.00000000E+00  0.00000000E+00
  0.00000000E+00  0.00000000E+00  0.00000000E+00
  0.00000000E+00  0.00000000E+00  0.00000000E+00
  0.00000000E+00  0.00000000E+00  0.00000000E+00
  0.00000000E+00  0.00000000E+00  0.00000000E+00
  0.00000000E+00  0.00000000E+00  0.00000000E+00
