Title                                   
   1.00000000000000     
     4.9440799999999996    0.0000000000000000    0.0000000000000000
     0.0000000000000000    8.5647549999999999    0.0000000000000000
     0.0000000000000000    0.0000000000000000   20.0000000000000000
    11     4     1
Selective dynamics
Direct
 -0.0052476376322733  0.2935953325865707  0.0915962283030915   T   T   T
  0.2500000000000000  0.0445797897583714  0.0905411764148386   T   T   T
  0.0048931687691479  0.7948397126049701  0.1007031113288030   T   T   T
  0.0007183013124912  0.9610533248008333  0.0906475467197057   T   T   T
  0.7500000000000000  0.2057958277919528  0.0858097196862188   T   T   T
  0.5052476376322732  0.2935953325865707  0.0915962283030915   T   T   T
  0.7500000000000000  0.0412679708280438  0.0857299826424308   T   T   T
  0.7500000000000000  0.7037779344664806  0.1028277590574592   T   T   T
  0.4951068312308521  0.7948397126049701  0.1007031113288030   T   T   T
  0.7500000000000000  0.5316195982014268  0.1011518646669814   T   T   T
  0.4992816986875090  0.9610533248008333  0.0906475467197057   T   T   T
  0.5107166388404913  0.4493487311489626  0.1016316914048938   T   T   T
 -0.0107166388404911  0.4493487311489626  0.1016316914048938   T   T   T
  0.2500000000000000  0.7248739983893524  0.1114946757454149   T   T   T
  0.2500000000000000  0.2138829126463995  0.0905330331817350   T   T   T
  0.2500000000000000  0.5365277656352991  0.1752666330919427   T   T   T
 
  0.00000000E+00  0.00000000E+00  0.00000000E+00
  0.00000000E+00  0.00000000E+00  0.00000000E+00
  0.00000000E+00  0.00000000E+00  0.00000000E+00
  0.00000000E+00  0.00000000E+00  0.00000000E+00
  0.00000000E+00  0.00000000E+00  0.00000000E+00
  0.00000000E+00  0.00000000E+00  0.00000000E+00
  0.00000000E+00  0.00000000E+00  0.00000000E+00
  0.00000000E+00  0.00000000E+00  0.00000000E+00
  0.00000000E+00  0.00000000E+00  0.00000000E+00
  0.00000000E+00  0.00000000E+00  0.00000000E+00
  0.00000000E+00  0.00000000E+00  0.00000000E+00
  0.00000000E+00  0.00000000E+00  0.00000000E+00
  0.00000000E+00  0.00000000E+00  0.00000000E+00
  0.00000000E+00  0.00000000E+00  0.00000000E+00
  0.00000000E+00  0.00000000E+00  0.00000000E+00
  0.00000000E+00  0.00000000E+00  0.00000000E+00
