Title                                   
   1.00000000000000     
     9.8694509999999998    0.0000000000000000    0.0000000000000000
     0.0000000000000000    8.5490480000000009    0.0000000000000000
     0.0000000000000000    0.0000000000000000   20.0000000000000000
    27     3     1
Selective dynamics
Direct
  0.0553568987941599  0.0884400958529519  0.0881236228885421   T   T   T
  0.9308393628920056  0.1716669136323087  0.0890294363778465   T   T   T
  0.0568119102076114  0.9220098157621669  0.0886907754451538   T   T   T
  0.9322862672719675  0.3391880500572439  0.0897765506820507   T   T   T
  0.0559583836355312  0.5905653901715177  0.0897943622979634   T   T   T
  0.0561531239906513  0.4238553258579032  0.0889794596646948   T   T   T
  0.9314231492813767  0.8381304497917144  0.0900725118825310   T   T   T
  0.3074019601013828  0.0883621990557515  0.0905080318721650   T   T   T
  0.1820568252767013  0.1716562269366038  0.0888499204481589   T   T   T
  0.1807613274725472  0.3389231095611647  0.0895382690529435   T   T   T
  0.3041037925175502  0.5897603777966528  0.0936886404532208   T   T   T
  0.1804298106926214  0.6744759782413362  0.0906565011942364   T   T   T
  0.3047610361839186  0.4213452803588780  0.0931259198679002   T   T   T
  0.1826310237253415  0.8407820563223586  0.0897515941785415   T   T   T
  0.4326356257717006  0.1743356301821228  0.0948476244287468   T   T   T
  0.5558175175836209  0.9238672414379006  0.0977872940921026   T   T   T
  0.4299710747937414  0.3389998065691430  0.0985929169230529   T   T   T
  0.4281288665473146  0.6737821547011479  0.0997791900980483   T   T   T
  0.4307814266318183  0.8384408282381067  0.0964128256614104   T   T   T
  0.8050868049277545  0.0883407360221745  0.0911529781323754   T   T   T
  0.6802726785688465  0.1767586637194419  0.0961021219305356   T   T   T
  0.8059145104243796  0.9207748575302848  0.0918684400101376   T   T   T
  0.6828006083522319  0.3423664402630335  0.1013905769431945   T   T   T
  0.8093265944886751  0.5913263148763439  0.0958929434874512   T   T   T
  0.6849535076830796  0.6699755408609637  0.1029558759849962   T   T   T
  0.8098397136444820  0.4215605313938088  0.0949377634704072   T   T   T
  0.6795006759705314  0.8371767635405474  0.0975212254656940   T   T   T
  0.9327079430479097  0.6722235657169247  0.0907991179973820   T   T   T
  0.5571726375106203  0.0914487017040516  0.0968192621896550   T   T   T
  0.3055807248838073  0.9235511402215995  0.0907988127151405   T   T   T
  0.5516692171261206  0.5067848136238718  0.1427204341637483   T   T   T
 
  0.00000000E+00  0.00000000E+00  0.00000000E+00
  0.00000000E+00  0.00000000E+00  0.00000000E+00
  0.00000000E+00  0.00000000E+00  0.00000000E+00
  0.00000000E+00  0.00000000E+00  0.00000000E+00
  0.00000000E+00  0.00000000E+00  0.00000000E+00
  0.00000000E+00  0.00000000E+00  0.00000000E+00
  0.00000000E+00  0.00000000E+00  0.00000000E+00
  0.00000000E+00  0.00000000E+00  0.00000000E+00
  0.00000000E+00  0.00000000E+00  0.00000000E+00
  0.00000000E+00  0.00000000E+00  0.00000000E+00
  0.00000000E+00  0.00000000E+00  0.00000000E+00
  0.00000000E+00  0.00000000E+00  0.00000000E+00
  0.00000000E+00  0.00000000E+00  0.00000000E+00
  0.00000000E+00  0.00000000E+00  0.00000000E+00
  0.00000000E+00  0.00000000E+00  0.00000000E+00
  0.00000000E+00  0.00000000E+00  0.00000000E+00
  0.00000000E+00  0.00000000E+00  0.00000000E+00
  0.00000000E+00  0.00000000E+00  0.00000000E+00
  0.00000000E+00  0.00000000E+00  0.00000000E+00
  0.00000000E+00  0.00000000E+00  0.00000000E+00
  0.00000000E+00  0.00000000E+00  0.00000000E+00
  0.00000000E+00  0.00000000E+00  0.00000000E+00
  0.00000000E+00  0.00000000E+00  0.00000000E+00
  0.00000000E+00  0.00000000E+00  0.00000000E+00
  0.00000000E+00  0.00000000E+00  0.00000000E+00
  0.00000000E+00  0.00000000E+00  0.00000000E+00
  0.00000000E+00  0.00000000E+00  0.00000000E+00
  0.00000000E+00  0.00000000E+00  0.00000000E+00
  0.00000000E+00  0.00000000E+00  0.00000000E+00
  0.00000000E+00  0.00000000E+00  0.00000000E+00
  0.00000000E+00  0.00000000E+00  0.00000000E+00
