Title                                   
   1.00000000000000     
     4.9440799999999996    0.0000000000000000    0.0000000000000000
     0.0000000000000000   17.1295089999999988    0.0000000000000000
     0.0000000000000000    0.0000000000000000   20.0000000000000000
    28     2     1
Selective dynamics
Direct
  0.0011787002542566  0.1057466517121969  0.2911301330561434   T   T   T
  0.2503207005952636  0.1481108452613842  0.2931963904654358   T   T   T
  0.2503198059043096  0.2323315957887055  0.2986680893083780   T   T   T
 -0.0015833002160972  0.2731552830562724  0.3011735970936981   T   T   T
  0.0003483204672575  0.6022830786593470  0.3031694970158255   T   T   T
  0.2503817573012679  0.7278800931127660  0.2939091757271222   T   T   T
  0.0004513120405085  0.8538844293966237  0.2893490614617305   T   T   T
  0.2503011233152028  0.8959305951180609  0.2889203490929474   T   T   T
  0.2502919335568294  0.9797205312381678  0.2888449936611340   T   T   T
  0.0004810288604676  0.7700932703129935  0.2916020894713600   T   T   T
  0.4994670795145701  0.1057419946600424  0.2911201601244089   T   T   T
  0.7503046821128750  0.1473642999018848  0.2922744364216434   T   T   T
  0.7502797363921505  0.2306604493939961  0.2966839926425083   T   T   T
  0.4998449926851661  0.0218639622924731  0.2891746724230009   T   T   T
  0.7503204722730978  0.3916622757916276  0.3118027553702630   T   T   T
  0.7503105097216174  0.4776203134651276  0.3146410499735726   T   T   T
  0.5022040035059629  0.2731675959423894  0.3011404685604852   T   T   T
  0.5003188522193482  0.6022866743781480  0.3031420690828662   T   T   T
  0.7503253759252267  0.7281577899208197  0.2930029265178845   T   T   T
  0.5002043694682865  0.8538751033988710  0.2893406066468567   T   T   T
  0.7502887719662427  0.8959655416983853  0.2886816761434085   T   T   T
  0.7502388683393353  0.9799124010893456  0.2886323102546086   T   T   T
  0.5001880165479016  0.7701006611877672  0.2915905111656447   T   T   T
  0.7503564041569557  0.6445003647053149  0.2980553841300728   T   T   T
  0.2503417299385995  0.6446315844405750  0.3001034720673528   T   T   T
  0.0007274031832156  0.0218596900898533  0.2891768144904490   T   T   T
  0.5018949067655808  0.5200237553034390  0.3134532809733767   T   T   T
 -0.0011488343070412  0.5200248383059369  0.3135568165263626   T   T   T
  0.5091948541341758  0.3530135212693068  0.3094435744331772   T   T   T
 -0.0085374483403131  0.3529897170722986  0.3095699945166712   T   T   T
  0.2503908717177807  0.4367830920358783  0.3605096511815622   T   T   T
 
  0.00000000E+00  0.00000000E+00  0.00000000E+00
  0.00000000E+00  0.00000000E+00  0.00000000E+00
  0.00000000E+00  0.00000000E+00  0.00000000E+00
  0.00000000E+00  0.00000000E+00  0.00000000E+00
  0.00000000E+00  0.00000000E+00  0.00000000E+00
  0.00000000E+00  0.00000000E+00  0.00000000E+00
  0.00000000E+00  0.00000000E+00  0.00000000E+00
  0.00000000E+00  0.00000000E+00  0.00000000E+00
  0.00000000E+00  0.00000000E+00  0.00000000E+00
  0.00000000E+00  0.00000000E+00  0.00000000E+00
  0.00000000E+00  0.00000000E+00  0.00000000E+00
  0.00000000E+00  0.00000000E+00  0.00000000E+00
  0.00000000E+00  0.00000000E+00  0.00000000E+00
  0.00000000E+00  0.00000000E+00  0.00000000E+00
  0.00000000E+00  0.00000000E+00  0.00000000E+00
  0.00000000E+00  0.00000000E+00  0.00000000E+00
  0.00000000E+00  0.00000000E+00  0.00000000E+00
  0.00000000E+00  0.00000000E+00  0.00000000E+00
  0.00000000E+00  0.00000000E+00  0.00000000E+00
  0.00000000E+00  0.00000000E+00  0.00000000E+00
  0.00000000E+00  0.00000000E+00  0.00000000E+00
  0.00000000E+00  0.00000000E+00  0.00000000E+00
  0.00000000E+00  0.00000000E+00  0.00000000E+00
  0.00000000E+00  0.00000000E+00  0.00000000E+00
  0.00000000E+00  0.00000000E+00  0.00000000E+00
  0.00000000E+00  0.00000000E+00  0.00000000E+00
  0.00000000E+00  0.00000000E+00  0.00000000E+00
  0.00000000E+00  0.00000000E+00  0.00000000E+00
  0.00000000E+00  0.00000000E+00  0.00000000E+00
  0.00000000E+00  0.00000000E+00  0.00000000E+00
  0.00000000E+00  0.00000000E+00  0.00000000E+00
