Title                                   
   1.00000000000000     
     4.9440799999999996    0.0000000000000000    0.0000000000000000
     0.0000000000000000   17.1295089999999988    0.0000000000000000
     0.0000000000000000    0.0000000000000000   20.0000000000000000
    26     4     1
Selective dynamics
Direct
  0.0008827308351753  0.1057478655114278  0.2967540471455332   T   T   T
  0.2497620854918977  0.1487089731733350  0.2976336201653393   T   T   T
  0.2492671229379560  0.2333392661426231  0.3005926217115752   T   T   T
 -0.0036835202177555  0.2739823952442081  0.3046603807528606   T   T   T
 -0.0035271447928857  0.6009889156267675  0.3044399348170224   T   T   T
  0.2498462088894211  0.7262097313385453  0.2970004624675918   T   T   T
  0.0007231899787486  0.8532206766790887  0.2947456233309507   T   T   T
  0.2503343464776683  0.8954519940511287  0.2943724269696013   T   T   T
  0.2503247579884486  0.9794476349526201  0.2946014181321374   T   T   T
  0.0009637025014659  0.7691500143779960  0.2960721183138152   T   T   T
  0.4993673163159993  0.1059111713161941  0.2959437813517595   T   T   T
  0.7504154084531255  0.1473058182295137  0.2969354552103894   T   T   T
  0.7506068982263105  0.2309811507975767  0.2992250120828234   T   T   T
  0.4998203345758689  0.0217799077869846  0.2947423238021792   T   T   T
  0.7488973773843379  0.3929812484056825  0.3058742314271711   T   T   T
  0.7490268732218941  0.4819596040658956  0.3058690243403718   T   T   T
  0.5031950525869892  0.2735654760970559  0.2986170759567909   T   T   T
  0.5032950679002905  0.6013760041935657  0.2985029257163357   T   T   T
  0.7504780046479272  0.7275865906163225  0.2962533035473041   T   T   T
  0.4998071674425223  0.8531149978439956  0.2942755756698313   T   T   T
  0.7502446990138184  0.8953349783741419  0.2942271272369152   T   T   T
  0.7502447199351524  0.9795455715555599  0.2944665007858030   T   T   T
  0.4994068771694357  0.7689793892121989  0.2952274389662113   T   T   T
  0.7507429872801092  0.6439437413916143  0.2988295422287882   T   T   T
  0.2493871005750439  0.6416074146583868  0.3002777614630630   T   T   T
  0.0006919969395575  0.0216745394152095  0.2951714556734741   T   T   T
  0.5149567930372069  0.5208231093231407  0.2977337432520096   T   T   T
  0.9853830976524284  0.5202827709806017  0.3141284835921108   T   T   T
  0.5148822364248568  0.3541175530103129  0.2975593141108512   T   T   T
 -0.0148151286879955  0.3546699827928191  0.3142380584921037   T   T   T
  0.2590786398149837  0.4375535128354859  0.3160892112872390   T   T   T
 
  0.00000000E+00  0.00000000E+00  0.00000000E+00
  0.00000000E+00  0.00000000E+00  0.00000000E+00
  0.00000000E+00  0.00000000E+00  0.00000000E+00
  0.00000000E+00  0.00000000E+00  0.00000000E+00
  0.00000000E+00  0.00000000E+00  0.00000000E+00
  0.00000000E+00  0.00000000E+00  0.00000000E+00
  0.00000000E+00  0.00000000E+00  0.00000000E+00
  0.00000000E+00  0.00000000E+00  0.00000000E+00
  0.00000000E+00  0.00000000E+00  0.00000000E+00
  0.00000000E+00  0.00000000E+00  0.00000000E+00
  0.00000000E+00  0.00000000E+00  0.00000000E+00
  0.00000000E+00  0.00000000E+00  0.00000000E+00
  0.00000000E+00  0.00000000E+00  0.00000000E+00
  0.00000000E+00  0.00000000E+00  0.00000000E+00
  0.00000000E+00  0.00000000E+00  0.00000000E+00
  0.00000000E+00  0.00000000E+00  0.00000000E+00
  0.00000000E+00  0.00000000E+00  0.00000000E+00
  0.00000000E+00  0.00000000E+00  0.00000000E+00
  0.00000000E+00  0.00000000E+00  0.00000000E+00
  0.00000000E+00  0.00000000E+00  0.00000000E+00
  0.00000000E+00  0.00000000E+00  0.00000000E+00
  0.00000000E+00  0.00000000E+00  0.00000000E+00
  0.00000000E+00  0.00000000E+00  0.00000000E+00
  0.00000000E+00  0.00000000E+00  0.00000000E+00
  0.00000000E+00  0.00000000E+00  0.00000000E+00
  0.00000000E+00  0.00000000E+00  0.00000000E+00
  0.00000000E+00  0.00000000E+00  0.00000000E+00
  0.00000000E+00  0.00000000E+00  0.00000000E+00
  0.00000000E+00  0.00000000E+00  0.00000000E+00
  0.00000000E+00  0.00000000E+00  0.00000000E+00
  0.00000000E+00  0.00000000E+00  0.00000000E+00
