Title                                   
   1.00000000000000     
     9.8694509999999998    0.0000000000000000    0.0000000000000000
     0.0000000000000000    8.5490480000000009    0.0000000000000000
     0.0000000000000000    0.0000000000000000   20.0000000000000000
    27     3     1
Selective dynamics
Direct
  0.0561606993137357  0.0895922208413607  0.0894958007462931   T   T   T
  0.9313605896028283  0.1719768934064100  0.0912143161288851   T   T   T
  0.0575954108602696  0.9231985414592543  0.0896430130488291   T   T   T
  0.9337623446900464  0.3388219492033112  0.0922790803616537   T   T   T
  0.0578973777226488  0.5901457666490331  0.0903502694535571   T   T   T
  0.9336870857869622  0.6737038402474350  0.0922687191594011   T   T   T
  0.0580172611622464  0.4227927565561320  0.0902241230810686   T   T   T
  0.9317767093047860  0.8399581191482397  0.0912460387837717   T   T   T
  0.3066833708426064  0.0886119377099629  0.0908368883945591   T   T   T
  0.1811088981637501  0.1716486936475176  0.0895978926670577   T   T   T
  0.1815280939296745  0.3388395645668009  0.0898923176945490   T   T   T
  0.3055372729586548  0.5899701080132814  0.0917711161459650   T   T   T
  0.1817375246125941  0.6737312346729288  0.0901792899413691   T   T   T
  0.3060563770555653  0.4222566247272464  0.0917020948657337   T   T   T
  0.1814575603443029  0.8401460770718898  0.0899446121907587   T   T   T
  0.5545010847719853  0.0909862527644048  0.0965012930660621   T   T   T
  0.4294263350581959  0.1756034760006479  0.0940977067383579   T   T   T
  0.5533285111195760  0.9216685749991609  0.0964601234063935   T   T   T
  0.4287834196940931  0.8362251210246222  0.0943001852456841   T   T   T
  0.8052653672370564  0.0895544036433444  0.0930630838434384   T   T   T
  0.6807619519868150  0.1761717936514650  0.0973046016785862   T   T   T
  0.8053463501335140  0.9222331396753100  0.0930074650265958   T   T   T
  0.6853570411584011  0.3421425052958620  0.1022835022733389   T   T   T
  0.8103282672205578  0.5906815213884004  0.0970933805706206   T   T   T
  0.6852094208429319  0.6698304116877628  0.1015975242370633   T   T   T
  0.8103908731239783  0.4215844443930681  0.0973204575528956   T   T   T
  0.6801999316300179  0.8354297649514184  0.0970487083876406   T   T   T
  0.4267152111263483  0.3391139691766604  0.0960227514447841   T   T   T
  0.4256618495458115  0.6752768877148778  0.0963489896679732   T   T   T
  0.3069339888402368  0.9230923888293282  0.0908685846692383   T   T   T
  0.5505588201598246  0.5058860168828681  0.1370010695279235   T   T   T
 
  0.00000000E+00  0.00000000E+00  0.00000000E+00
  0.00000000E+00  0.00000000E+00  0.00000000E+00
  0.00000000E+00  0.00000000E+00  0.00000000E+00
  0.00000000E+00  0.00000000E+00  0.00000000E+00
  0.00000000E+00  0.00000000E+00  0.00000000E+00
  0.00000000E+00  0.00000000E+00  0.00000000E+00
  0.00000000E+00  0.00000000E+00  0.00000000E+00
  0.00000000E+00  0.00000000E+00  0.00000000E+00
  0.00000000E+00  0.00000000E+00  0.00000000E+00
  0.00000000E+00  0.00000000E+00  0.00000000E+00
  0.00000000E+00  0.00000000E+00  0.00000000E+00
  0.00000000E+00  0.00000000E+00  0.00000000E+00
  0.00000000E+00  0.00000000E+00  0.00000000E+00
  0.00000000E+00  0.00000000E+00  0.00000000E+00
  0.00000000E+00  0.00000000E+00  0.00000000E+00
  0.00000000E+00  0.00000000E+00  0.00000000E+00
  0.00000000E+00  0.00000000E+00  0.00000000E+00
  0.00000000E+00  0.00000000E+00  0.00000000E+00
  0.00000000E+00  0.00000000E+00  0.00000000E+00
  0.00000000E+00  0.00000000E+00  0.00000000E+00
  0.00000000E+00  0.00000000E+00  0.00000000E+00
  0.00000000E+00  0.00000000E+00  0.00000000E+00
  0.00000000E+00  0.00000000E+00  0.00000000E+00
  0.00000000E+00  0.00000000E+00  0.00000000E+00
  0.00000000E+00  0.00000000E+00  0.00000000E+00
  0.00000000E+00  0.00000000E+00  0.00000000E+00
  0.00000000E+00  0.00000000E+00  0.00000000E+00
  0.00000000E+00  0.00000000E+00  0.00000000E+00
  0.00000000E+00  0.00000000E+00  0.00000000E+00
  0.00000000E+00  0.00000000E+00  0.00000000E+00
  0.00000000E+00  0.00000000E+00  0.00000000E+00
