Title                                   
   1.00000000000000     
     8.5490480000000009    0.0000000000000000    0.0000000000000000
     0.0000000000000000    8.5490480000000009    0.0000000000000000
     0.0000000000000000    0.0000000000000000   20.0000000000000000
    23     1     1
Selective dynamics
Direct
  0.9094358721117702  0.2060575319485381  0.0988422801889186   T   T   T
  0.9064765366781851  0.5041274514416408  0.0969300957306166   T   T   T
  0.9109705459614181  0.7991603415537712  0.0978376081545783   T   T   T
  0.1965295881173096  0.0815028014959538  0.0980383755791933   T   T   T
  0.0726974939555091  0.2052866677042385  0.0980461353278129   T   T   T
  0.1973140260610078  0.9182355771519596  0.0988406398911824   T   T   T
  0.1565266018478655  0.6479200648665492  0.0977946477249669   T   T   T
  0.0751434767218904  0.5024089995245115  0.0967130339266187   T   T   T
  0.1549524145719396  0.3545038976915186  0.0954824453130410   T   T   T
  0.0763807585316913  0.7964626966517211  0.0986834524092073   T   T   T
  0.4935674082594785  0.0839123853266516  0.0967249471846489   T   T   T
  0.3457071064399535  0.1637885932820388  0.0954788130855930   T   T   T
  0.4953292504405533  0.9152566961479061  0.0969277022861539   T   T   T
  0.3489304544104583  0.8346575899833139  0.0979312292263668   T   T   T
  0.7876578282857580  0.0851282813516295  0.0986845257194818   T   T   T
  0.6390840953823077  0.1652876574771298  0.0978198832376506   T   T   T
  0.7904094207637121  0.9197129854514666  0.0978400593044551   T   T   T
  0.8289001860489665  0.6519849105318865  0.0958885550637143   T   T   T
  0.8259011976579032  0.3576949456248554  0.0979400540300967   T   T   T
  0.6432128946364778  0.8376801827053864  0.0958826973248026   T   T   T
  0.3210755720156226  0.3299048688034185  0.0909900242115225   T   T   T
  0.3253540916024843  0.6703001351512428  0.0970861061060588   T   T   T
  0.6615122719486467  0.3340920701648579  0.0971238684259147   T   T   T
  0.6666463228689229  0.6754128874461720  0.0927900946556187   T   T   T
  0.4956965846801607  0.5043097805216546  0.0573877258917629   T   T   T
 
  0.00000000E+00  0.00000000E+00  0.00000000E+00
  0.00000000E+00  0.00000000E+00  0.00000000E+00
  0.00000000E+00  0.00000000E+00  0.00000000E+00
  0.00000000E+00  0.00000000E+00  0.00000000E+00
  0.00000000E+00  0.00000000E+00  0.00000000E+00
  0.00000000E+00  0.00000000E+00  0.00000000E+00
  0.00000000E+00  0.00000000E+00  0.00000000E+00
  0.00000000E+00  0.00000000E+00  0.00000000E+00
  0.00000000E+00  0.00000000E+00  0.00000000E+00
  0.00000000E+00  0.00000000E+00  0.00000000E+00
  0.00000000E+00  0.00000000E+00  0.00000000E+00
  0.00000000E+00  0.00000000E+00  0.00000000E+00
  0.00000000E+00  0.00000000E+00  0.00000000E+00
  0.00000000E+00  0.00000000E+00  0.00000000E+00
  0.00000000E+00  0.00000000E+00  0.00000000E+00
  0.00000000E+00  0.00000000E+00  0.00000000E+00
  0.00000000E+00  0.00000000E+00  0.00000000E+00
  0.00000000E+00  0.00000000E+00  0.00000000E+00
  0.00000000E+00  0.00000000E+00  0.00000000E+00
  0.00000000E+00  0.00000000E+00  0.00000000E+00
  0.00000000E+00  0.00000000E+00  0.00000000E+00
  0.00000000E+00  0.00000000E+00  0.00000000E+00
  0.00000000E+00  0.00000000E+00  0.00000000E+00
  0.00000000E+00  0.00000000E+00  0.00000000E+00
  0.00000000E+00  0.00000000E+00  0.00000000E+00
