Title                                   
   1.00000000000000     
     8.5490480000000009    0.0000000000000000    0.0000000000000000
     0.0000000000000000    8.5490480000000009    0.0000000000000000
     0.0000000000000000    0.0000000000000000   20.0000000000000000
    20     4     1
Selective dynamics
Direct
  0.9094730489421184  0.2059158182655416  0.0954595366151946   T   T   T
  0.9067399206609125  0.5018156816330146  0.0953132847567906   T   T   T
  0.9094975289653923  0.7976784920891262  0.0954763548549474   T   T   T
  0.1970996492334112  0.0852975180324557  0.0954870311803727   T   T   T
  0.0765326939422342  0.2058884107695122  0.0954694954374165   T   T   T
  0.1971188709734214  0.9182295621716272  0.0954946463139655   T   T   T
  0.1593040925056861  0.6494352989128219  0.0953523004196933   T   T   T
  0.0793263526804301  0.5017813823344599  0.0953343593477692   T   T   T
  0.1592720351301519  0.3541104691205744  0.0953341214822542   T   T   T
  0.0765560259505258  0.7976395484394426  0.0954821395069336   T   T   T
  0.4929780085420452  0.0880392167418033  0.0953600595846741   T   T   T
  0.3453224025371330  0.1680362649661880  0.0953584327165085   T   T   T
  0.4929839458890719  0.9155679079952204  0.0953671690624733   T   T   T
  0.3453465776191586  0.8355204896683176  0.0953667256172019   T   T   T
  0.7888804715713394  0.0853523900161518  0.0954708511885561   T   T   T
  0.6406466639585923  0.1680857128775710  0.0953302197525170   T   T   T
  0.7889047658538295  0.9182771764247272  0.0954795565124013   T   T   T
  0.8267622214559563  0.6494724510489769  0.0953280805693675   T   T   T
  0.8267670510763325  0.3541446915162454  0.0953067166000562   T   T   T
  0.6406605410713913  0.8355498854937690  0.0953429187714142   T   T   T
  0.3214678888173472  0.3301697578966292  0.0951906149917949   T   T   T
  0.3215048063079970  0.6733703965545035  0.0952035410174741   T   T   T
  0.6645837744804390  0.3302085965742676  0.0951618939715985   T   T   T
  0.6645843655937149  0.6734041527943908  0.0951790236329692   T   T   T
  0.4930982962413685  0.5017987276626822  0.0950559260956403   T   T   T
 
  0.00000000E+00  0.00000000E+00  0.00000000E+00
  0.00000000E+00  0.00000000E+00  0.00000000E+00
  0.00000000E+00  0.00000000E+00  0.00000000E+00
  0.00000000E+00  0.00000000E+00  0.00000000E+00
  0.00000000E+00  0.00000000E+00  0.00000000E+00
  0.00000000E+00  0.00000000E+00  0.00000000E+00
  0.00000000E+00  0.00000000E+00  0.00000000E+00
  0.00000000E+00  0.00000000E+00  0.00000000E+00
  0.00000000E+00  0.00000000E+00  0.00000000E+00
  0.00000000E+00  0.00000000E+00  0.00000000E+00
  0.00000000E+00  0.00000000E+00  0.00000000E+00
  0.00000000E+00  0.00000000E+00  0.00000000E+00
  0.00000000E+00  0.00000000E+00  0.00000000E+00
  0.00000000E+00  0.00000000E+00  0.00000000E+00
  0.00000000E+00  0.00000000E+00  0.00000000E+00
  0.00000000E+00  0.00000000E+00  0.00000000E+00
  0.00000000E+00  0.00000000E+00  0.00000000E+00
  0.00000000E+00  0.00000000E+00  0.00000000E+00
  0.00000000E+00  0.00000000E+00  0.00000000E+00
  0.00000000E+00  0.00000000E+00  0.00000000E+00
  0.00000000E+00  0.00000000E+00  0.00000000E+00
  0.00000000E+00  0.00000000E+00  0.00000000E+00
  0.00000000E+00  0.00000000E+00  0.00000000E+00
  0.00000000E+00  0.00000000E+00  0.00000000E+00
  0.00000000E+00  0.00000000E+00  0.00000000E+00
