Title                                   
   1.00000000000000     
     9.8694509999999998    0.0000000000000000    0.0000000000000000
     0.0000000000000000    8.5490480000000009    0.0000000000000000
     0.0000000000000000    0.0000000000000000   20.0000000000000000
    28     3     1
Selective dynamics
Direct
  0.0557813547751382  0.0898588751431302  0.0840694532294921   T   T   T
  0.9313525739653211  0.1736923322721239  0.0853128630539221   T   T   T
  0.0574521944769085  0.9221370743232215  0.0843141756088936   T   T   T
  0.9303035428826089  0.3413485589113729  0.0881630674253598   T   T   T
  0.0561612089679910  0.5914510354335597  0.0862283418536999   T   T   T
  0.0553022080940502  0.4242924608100564  0.0866215970850577   T   T   T
  0.9329598244660622  0.8386154682244552  0.0863235956847308   T   T   T
  0.3059227512849216  0.0880068234854437  0.0884726768415287   T   T   T
  0.1817540846960642  0.1719530633076637  0.0861700123336032   T   T   T
  0.1810585509156883  0.3396463415647222  0.0882639859996665   T   T   T
  0.3033002955449389  0.5872488340841234  0.0987593158155431   T   T   T
  0.1807697763623768  0.6741171177098919  0.0884248703926151   T   T   T
  0.3047098719589543  0.4204611815184292  0.0970041997231790   T   T   T
  0.1827388953550253  0.8405805619005220  0.0868668413815863   T   T   T
  0.5559152273528304  0.0875517078681379  0.0936826443859878   T   T   T
  0.5555721642650026  0.9228711645536691  0.0999480856465294   T   T   T
  0.4297162613580299  0.3325942451545222  0.1025253593373922   T   T   T
  0.4287383279113325  0.8387687960510360  0.1027212031038877   T   T   T
  0.8067205782844614  0.0894537418239325  0.0870177686846267   T   T   T
  0.6805002239832119  0.1722262576955435  0.0922100905971742   T   T   T
  0.8075431039348695  0.9231106256739057  0.0888417642680606   T   T   T
  0.6817672017254550  0.3388030809002212  0.1012583679808764   T   T   T
  0.8107582768996412  0.5937175610321178  0.1024149858085340   T   T   T
  0.8067808282821657  0.4245209353289451  0.0975069651391989   T   T   T
  0.6840404159815984  0.8424954986231584  0.1019224148195537   T   T   T
  0.4181925403381087  0.6787259645780731  0.1142319333889587   T   T   T
  0.5529727149864097  0.4047868096440069  0.1155659107025547   T   T   T
  0.6979226318673657  0.6833697510253580  0.1197405574536932   T   T   T
  0.3061935555812376  0.9241269296201955  0.0898013865433134   T   T   T
  0.4287653599905511  0.1675918058889176  0.0922243326828198   T   T   T
  0.9330987651541779  0.6736371645762123  0.0880351748899931   T   T   T
  0.5548736883575086  0.5884842312733328  0.1610310581379832   T   T   T
 
  0.00000000E+00  0.00000000E+00  0.00000000E+00
  0.00000000E+00  0.00000000E+00  0.00000000E+00
  0.00000000E+00  0.00000000E+00  0.00000000E+00
  0.00000000E+00  0.00000000E+00  0.00000000E+00
  0.00000000E+00  0.00000000E+00  0.00000000E+00
  0.00000000E+00  0.00000000E+00  0.00000000E+00
  0.00000000E+00  0.00000000E+00  0.00000000E+00
  0.00000000E+00  0.00000000E+00  0.00000000E+00
  0.00000000E+00  0.00000000E+00  0.00000000E+00
  0.00000000E+00  0.00000000E+00  0.00000000E+00
  0.00000000E+00  0.00000000E+00  0.00000000E+00
  0.00000000E+00  0.00000000E+00  0.00000000E+00
  0.00000000E+00  0.00000000E+00  0.00000000E+00
  0.00000000E+00  0.00000000E+00  0.00000000E+00
  0.00000000E+00  0.00000000E+00  0.00000000E+00
  0.00000000E+00  0.00000000E+00  0.00000000E+00
  0.00000000E+00  0.00000000E+00  0.00000000E+00
  0.00000000E+00  0.00000000E+00  0.00000000E+00
  0.00000000E+00  0.00000000E+00  0.00000000E+00
  0.00000000E+00  0.00000000E+00  0.00000000E+00
  0.00000000E+00  0.00000000E+00  0.00000000E+00
  0.00000000E+00  0.00000000E+00  0.00000000E+00
  0.00000000E+00  0.00000000E+00  0.00000000E+00
  0.00000000E+00  0.00000000E+00  0.00000000E+00
  0.00000000E+00  0.00000000E+00  0.00000000E+00
  0.00000000E+00  0.00000000E+00  0.00000000E+00
  0.00000000E+00  0.00000000E+00  0.00000000E+00
  0.00000000E+00  0.00000000E+00  0.00000000E+00
  0.00000000E+00  0.00000000E+00  0.00000000E+00
  0.00000000E+00  0.00000000E+00  0.00000000E+00
  0.00000000E+00  0.00000000E+00  0.00000000E+00
  0.00000000E+00  0.00000000E+00  0.00000000E+00
