Title                                   
   1.00000000000000     
     4.9440799999999996    0.0000000000000000    0.0000000000000000
     0.0000000000000000   17.1295089999999988    0.0000000000000000
     0.0000000000000000    0.0000000000000000   20.0000000000000000
    29     2     1
Selective dynamics
Direct
  0.0026851850214215  0.1041839443792043  0.2839351559526959   T   T   T
  0.2532641221659754  0.1458306711661502  0.2878020979056840   T   T   T
  0.2550306870846911  0.2283787353313425  0.2978842563876586   T   T   T
  0.0087723461497298  0.3510681780044523  0.3171967632266185   T   T   T
  0.0044643154730021  0.2695139551952803  0.3030489449307426   T   T   T
 -0.0093517347477651  0.6052020357562979  0.3082382814325126   T   T   T
  0.2460077972555994  0.7286483002398731  0.2935566451047834   T   T   T
 -0.0012475300787768  0.8538677733535982  0.2818387519252276   T   T   T
  0.2488288139410244  0.8957726312125310  0.2803408768192009   T   T   T
  0.2505626928786107  0.9791159144527329  0.2791197900938471   T   T   T
 -0.0026687765003719  0.7706967466266453  0.2878486445848245   T   T   T
  0.5027302018897519  0.1041447259819576  0.2840514160561841   T   T   T
  0.7531355156137992  0.1458248710585701  0.2871885094489728   T   T   T
  0.7546790635803938  0.2284036397668221  0.2963846654735898   T   T   T
  0.5011299593810074  0.0209208276805906  0.2798048865353653   T   T   T
  0.5054173174478418  0.3511923922661536  0.3183235000547531   T   T   T
  0.7577617292279119  0.3960936700409518  0.3220224055270071   T   T   T
  0.7509883814010302  0.4824762796582716  0.3247854721997274   T   T   T
  0.5062757872434368  0.2695601869622205  0.3034538891399907   T   T   T
  0.4977508402247787  0.6059689456154124  0.3139966233138838   T   T   T
  0.7464142509983037  0.7297385558552847  0.2919704594493415   T   T   T
  0.4979816707379546  0.8538635937564809  0.2823741300657689   T   T   T
  0.7489009998016540  0.8955822817560247  0.2800859697904470   T   T   T
  0.7505511702677321  0.9790259908638929  0.2789082874049132   T   T   T
  0.4961436426822045  0.7708317077215712  0.2889046128415906   T   T   T
  0.7441697295930255  0.6474633901740504  0.3025003914740830   T   T   T
  0.2450664418693443  0.6461298568714469  0.3057459308341096   T   T   T
  0.0010160803409555  0.0209375792644698  0.2796847261536479   T   T   T
  0.5136530568600187  0.5265889977861041  0.3352356547419578   T   T   T
  0.9871973138830543  0.5252089421168425  0.3149050520731473   T   T   T
  0.2577373132152272  0.3860396190798570  0.3291153560970671   T   T   T
  0.2217746150974408  0.4802760600049072  0.3823128529606064   T   T   T
 
  0.00000000E+00  0.00000000E+00  0.00000000E+00
  0.00000000E+00  0.00000000E+00  0.00000000E+00
  0.00000000E+00  0.00000000E+00  0.00000000E+00
  0.00000000E+00  0.00000000E+00  0.00000000E+00
  0.00000000E+00  0.00000000E+00  0.00000000E+00
  0.00000000E+00  0.00000000E+00  0.00000000E+00
  0.00000000E+00  0.00000000E+00  0.00000000E+00
  0.00000000E+00  0.00000000E+00  0.00000000E+00
  0.00000000E+00  0.00000000E+00  0.00000000E+00
  0.00000000E+00  0.00000000E+00  0.00000000E+00
  0.00000000E+00  0.00000000E+00  0.00000000E+00
  0.00000000E+00  0.00000000E+00  0.00000000E+00
  0.00000000E+00  0.00000000E+00  0.00000000E+00
  0.00000000E+00  0.00000000E+00  0.00000000E+00
  0.00000000E+00  0.00000000E+00  0.00000000E+00
  0.00000000E+00  0.00000000E+00  0.00000000E+00
  0.00000000E+00  0.00000000E+00  0.00000000E+00
  0.00000000E+00  0.00000000E+00  0.00000000E+00
  0.00000000E+00  0.00000000E+00  0.00000000E+00
  0.00000000E+00  0.00000000E+00  0.00000000E+00
  0.00000000E+00  0.00000000E+00  0.00000000E+00
  0.00000000E+00  0.00000000E+00  0.00000000E+00
  0.00000000E+00  0.00000000E+00  0.00000000E+00
  0.00000000E+00  0.00000000E+00  0.00000000E+00
  0.00000000E+00  0.00000000E+00  0.00000000E+00
  0.00000000E+00  0.00000000E+00  0.00000000E+00
  0.00000000E+00  0.00000000E+00  0.00000000E+00
  0.00000000E+00  0.00000000E+00  0.00000000E+00
  0.00000000E+00  0.00000000E+00  0.00000000E+00
  0.00000000E+00  0.00000000E+00  0.00000000E+00
  0.00000000E+00  0.00000000E+00  0.00000000E+00
  0.00000000E+00  0.00000000E+00  0.00000000E+00
