Title                                   
   1.00000000000000     
     9.8694509999999998    0.0000000000000000    0.0000000000000000
     0.0000000000000000    8.5490480000000009    0.0000000000000000
     0.0000000000000000    0.0000000000000000   20.0000000000000000
    29     2     1
Selective dynamics
Direct
  0.0557036261384781  0.0912347456881606  0.0866175328141784   T   T   T
  0.9297050775014494  0.1726060816605132  0.0900821065875923   T   T   T
  0.0544643356699301  0.9245530171761654  0.0847314992572403   T   T   T
  0.9302210109115443  0.3405717474772353  0.0951487667206157   T   T   T
  0.0558312210508160  0.5900152400520133  0.0882451380052482   T   T   T
  0.9307471125845734  0.6726698197791630  0.0933074772331743   T   T   T
  0.0564635471738930  0.4242892916450074  0.0899648131796448   T   T   T
  0.9294490526293845  0.8393388757366473  0.0885702150598724   T   T   T
  0.3050654084508369  0.0915678165028918  0.0880443052312079   T   T   T
  0.1814694974541296  0.1751278773424186  0.0884797580174800   T   T   T
  0.3045190729073758  0.9253643731956597  0.0846926400027122   T   T   T
  0.1835430694232426  0.3439854876440717  0.0896114371451308   T   T   T
  0.3080134913545771  0.5969054735118494  0.0841371947295666   T   T   T
  0.1803464338020918  0.6745728743345015  0.0835314820091262   T   T   T
  0.3091008481951128  0.4275440168695972  0.0926006024852909   T   T   T
  0.1796411689101180  0.8415611948506808  0.0828842697548471   T   T   T
  0.5545900307246051  0.0846776515270564  0.0954444237305997   T   T   T
  0.4320275247888432  0.1712837668147118  0.0938216760210303   T   T   T
  0.4331747900259714  0.3390961182037752  0.1033910171266231   T   T   T
  0.5563947026107495  0.4057959033134249  0.1255168430050023   T   T   T
  0.4266035155635911  0.8359557077099375  0.0848738628791517   T   T   T
  0.8058795012055441  0.0879572985285827  0.0902417523950147   T   T   T
  0.6799247900612492  0.1678557366110767  0.0978032311980032   T   T   T
  0.8037784098749290  0.9208169208466980  0.0896711941524380   T   T   T
  0.6813776591936340  0.3327841062958896  0.1112093398900293   T   T   T
  0.8085222170185667  0.5908781422921356  0.1085881886899636   T   T   T
  0.6905590474318289  0.6811812045036998  0.1234207671877955   T   T   T
  0.8073551323056752  0.4211139471611259  0.1074695667795484   T   T   T
  0.6792279942937814  0.8369194869063645  0.1009492693915666   T   T   T
  0.4264665501305582  0.6809285944269944  0.0801019957769479   T   T   T
  0.5530590771555989  0.9180010605219310  0.0941864558305433   T   T   T
  0.5664140834573252  0.5830924208700065  0.1863361777128597   T   T   T
 
  0.00000000E+00  0.00000000E+00  0.00000000E+00
  0.00000000E+00  0.00000000E+00  0.00000000E+00
  0.00000000E+00  0.00000000E+00  0.00000000E+00
  0.00000000E+00  0.00000000E+00  0.00000000E+00
  0.00000000E+00  0.00000000E+00  0.00000000E+00
  0.00000000E+00  0.00000000E+00  0.00000000E+00
  0.00000000E+00  0.00000000E+00  0.00000000E+00
  0.00000000E+00  0.00000000E+00  0.00000000E+00
  0.00000000E+00  0.00000000E+00  0.00000000E+00
  0.00000000E+00  0.00000000E+00  0.00000000E+00
  0.00000000E+00  0.00000000E+00  0.00000000E+00
  0.00000000E+00  0.00000000E+00  0.00000000E+00
  0.00000000E+00  0.00000000E+00  0.00000000E+00
  0.00000000E+00  0.00000000E+00  0.00000000E+00
  0.00000000E+00  0.00000000E+00  0.00000000E+00
  0.00000000E+00  0.00000000E+00  0.00000000E+00
  0.00000000E+00  0.00000000E+00  0.00000000E+00
  0.00000000E+00  0.00000000E+00  0.00000000E+00
  0.00000000E+00  0.00000000E+00  0.00000000E+00
  0.00000000E+00  0.00000000E+00  0.00000000E+00
  0.00000000E+00  0.00000000E+00  0.00000000E+00
  0.00000000E+00  0.00000000E+00  0.00000000E+00
  0.00000000E+00  0.00000000E+00  0.00000000E+00
  0.00000000E+00  0.00000000E+00  0.00000000E+00
  0.00000000E+00  0.00000000E+00  0.00000000E+00
  0.00000000E+00  0.00000000E+00  0.00000000E+00
  0.00000000E+00  0.00000000E+00  0.00000000E+00
  0.00000000E+00  0.00000000E+00  0.00000000E+00
  0.00000000E+00  0.00000000E+00  0.00000000E+00
  0.00000000E+00  0.00000000E+00  0.00000000E+00
  0.00000000E+00  0.00000000E+00  0.00000000E+00
  0.00000000E+00  0.00000000E+00  0.00000000E+00
