Title                                   
   1.00000000000000     
     8.5490480000000009    0.0000000000000000    0.0000000000000000
     0.0000000000000000    8.5490480000000009    0.0000000000000000
     0.0000000000000000    0.0000000000000000   20.0000000000000000
    22     2     1
Selective dynamics
Direct
  0.9107889354190652  0.2063377053266907  0.0954351571610609   T   T   T
  0.9080304013084910  0.5016671198893714  0.0952974335510511   T   T   T
  0.9108081830291066  0.7985873888032785  0.0954538332746834   T   T   T
  0.1962491428157674  0.0840156570889621  0.0954677448956891   T   T   T
  0.0752444939488157  0.2049971795728605  0.0954434083525238   T   T   T
  0.1976036579445761  0.9195813320369920  0.0954828453723177   T   T   T
  0.1569419406675737  0.6486383206546469  0.0953889920138979   T   T   T
  0.0780115395488419  0.5019317502692620  0.0953209858436747   T   T   T
  0.1583239803990899  0.3527929776972915  0.0953121621368725   T   T   T
  0.0752510296670766  0.7972436935323919  0.0954691988650372   T   T   T
  0.4931224743757766  0.0867771877501970  0.0953448687037671   T   T   T
  0.3440277857699672  0.1671202593903873  0.0953330629414267   T   T   T
  0.4928608469043092  0.9168015745712301  0.0953514786429426   T   T   T
  0.3461808370627695  0.8378649405695153  0.0954023307025157   T   T   T
  0.7884456154307099  0.0840043802634296  0.0954571773858198   T   T   T
  0.6398237587490464  0.1657166851137377  0.0953641232301748   T   T   T
  0.7898092458833965  0.9195646553814388  0.0954539412565286   T   T   T
  0.8277157698858519  0.6507986954097184  0.0953050604212601   T   T   T
  0.8290861123739448  0.3549483475427696  0.0953190944310100   T   T   T
  0.6419851855774052  0.8364705125666086  0.0953174296315679   T   T   T
  0.3232723739628541  0.6715406374402617  0.0953468627190960   T   T   T
  0.6627517763773958  0.3320249855078208  0.0952697295445109   T   T   T
  0.3196248219016676  0.3283813847022223  0.0951824722962728   T   T   T
  0.6664376829338317  0.6752016921603909  0.0951631872745742   T   T   T
  0.4930144080626623  0.5017809367585376  0.0950224193517022   T   T   T
 
  0.00000000E+00  0.00000000E+00  0.00000000E+00
  0.00000000E+00  0.00000000E+00  0.00000000E+00
  0.00000000E+00  0.00000000E+00  0.00000000E+00
  0.00000000E+00  0.00000000E+00  0.00000000E+00
  0.00000000E+00  0.00000000E+00  0.00000000E+00
  0.00000000E+00  0.00000000E+00  0.00000000E+00
  0.00000000E+00  0.00000000E+00  0.00000000E+00
  0.00000000E+00  0.00000000E+00  0.00000000E+00
  0.00000000E+00  0.00000000E+00  0.00000000E+00
  0.00000000E+00  0.00000000E+00  0.00000000E+00
  0.00000000E+00  0.00000000E+00  0.00000000E+00
  0.00000000E+00  0.00000000E+00  0.00000000E+00
  0.00000000E+00  0.00000000E+00  0.00000000E+00
  0.00000000E+00  0.00000000E+00  0.00000000E+00
  0.00000000E+00  0.00000000E+00  0.00000000E+00
  0.00000000E+00  0.00000000E+00  0.00000000E+00
  0.00000000E+00  0.00000000E+00  0.00000000E+00
  0.00000000E+00  0.00000000E+00  0.00000000E+00
  0.00000000E+00  0.00000000E+00  0.00000000E+00
  0.00000000E+00  0.00000000E+00  0.00000000E+00
  0.00000000E+00  0.00000000E+00  0.00000000E+00
  0.00000000E+00  0.00000000E+00  0.00000000E+00
  0.00000000E+00  0.00000000E+00  0.00000000E+00
  0.00000000E+00  0.00000000E+00  0.00000000E+00
  0.00000000E+00  0.00000000E+00  0.00000000E+00
