Title                                   
   1.00000000000000     
     9.8694509999999998    0.0000000000000000    0.0000000000000000
     0.0000000000000000    8.5490480000000009    0.0000000000000000
     0.0000000000000000    0.0000000000000000   20.0000000000000000
    25     5     1
Selective dynamics
Direct
  0.0549939942683269  0.0903219884727153  0.0910382664985170   T   T   T
  0.9308831571672131  0.1722946440420513  0.0919504400307286   T   T   T
  0.0571002430655396  0.9243858899429481  0.0910590545305666   T   T   T
  0.9345924961428950  0.3401299859156572  0.0912508552742342   T   T   T
  0.0574467544923343  0.5896607318843303  0.0881490300705706   T   T   T
  0.9346284429246314  0.6745863469688931  0.0913934616472754   T   T   T
  0.0578817411319389  0.4234805283438884  0.0882513895641061   T   T   T
  0.9323269835559834  0.8411887418270195  0.0923243350830332   T   T   T
  0.3059194856979165  0.0881935016242944  0.0955355836402791   T   T   T
  0.1814725425218197  0.1713512174021314  0.0919325664785392   T   T   T
  0.1808392031795342  0.3385958064586415  0.0908990838891031   T   T   T
  0.3013688452076426  0.5909202359017468  0.0961156370254652   T   T   T
  0.1800834211378775  0.6743500378222406  0.0903281253196217   T   T   T
  0.3017713324107412  0.4206307825241618  0.0964009891987217   T   T   T
  0.1809131392173441  0.8414021601094964  0.0916337998321579   T   T   T
  0.4294582767071245  0.1751219312088999  0.1009888782069241   T   T   T
  0.5536715788987934  0.9181619920595411  0.1025923124062513   T   T   T
  0.4273954603467811  0.8364182488918005  0.1008945643788399   T   T   T
  0.8038432814737417  0.0890112908939642  0.0954953477141121   T   T   T
  0.6809654169729555  0.1754881957891181  0.1004777604977326   T   T   T
  0.8063897231458869  0.9215990075280764  0.0959892851600780   T   T   T
  0.6878374059885064  0.3419343532937648  0.1046731811496971   T   T   T
  0.8145371513469326  0.5922450213230264  0.0977907749555260   T   T   T
  0.8140628584017445  0.4231480623122029  0.0972638906932255   T   T   T
  0.6830744042338842  0.8333460850520803  0.1018928696736620   T   T   T
  0.5547188730284565  0.0915536429790513  0.1022370311927246   T   T   T
  0.4222587612664094  0.3361536241825215  0.1047842773056889   T   T   T
  0.6925241881390437  0.6718312476455843  0.1059925889592307   T   T   T
  0.4185197795207727  0.6763872571950837  0.1043630842720134   T   T   T
  0.3050953781524215  0.9235176965713553  0.0950682980815712   T   T   T
  0.5565606802548159  0.5034647438337251  0.1121982372698394   T   T   T
 
  0.00000000E+00  0.00000000E+00  0.00000000E+00
  0.00000000E+00  0.00000000E+00  0.00000000E+00
  0.00000000E+00  0.00000000E+00  0.00000000E+00
  0.00000000E+00  0.00000000E+00  0.00000000E+00
  0.00000000E+00  0.00000000E+00  0.00000000E+00
  0.00000000E+00  0.00000000E+00  0.00000000E+00
  0.00000000E+00  0.00000000E+00  0.00000000E+00
  0.00000000E+00  0.00000000E+00  0.00000000E+00
  0.00000000E+00  0.00000000E+00  0.00000000E+00
  0.00000000E+00  0.00000000E+00  0.00000000E+00
  0.00000000E+00  0.00000000E+00  0.00000000E+00
  0.00000000E+00  0.00000000E+00  0.00000000E+00
  0.00000000E+00  0.00000000E+00  0.00000000E+00
  0.00000000E+00  0.00000000E+00  0.00000000E+00
  0.00000000E+00  0.00000000E+00  0.00000000E+00
  0.00000000E+00  0.00000000E+00  0.00000000E+00
  0.00000000E+00  0.00000000E+00  0.00000000E+00
  0.00000000E+00  0.00000000E+00  0.00000000E+00
  0.00000000E+00  0.00000000E+00  0.00000000E+00
  0.00000000E+00  0.00000000E+00  0.00000000E+00
  0.00000000E+00  0.00000000E+00  0.00000000E+00
  0.00000000E+00  0.00000000E+00  0.00000000E+00
  0.00000000E+00  0.00000000E+00  0.00000000E+00
  0.00000000E+00  0.00000000E+00  0.00000000E+00
  0.00000000E+00  0.00000000E+00  0.00000000E+00
  0.00000000E+00  0.00000000E+00  0.00000000E+00
  0.00000000E+00  0.00000000E+00  0.00000000E+00
  0.00000000E+00  0.00000000E+00  0.00000000E+00
  0.00000000E+00  0.00000000E+00  0.00000000E+00
  0.00000000E+00  0.00000000E+00  0.00000000E+00
  0.00000000E+00  0.00000000E+00  0.00000000E+00
