Title                                   
   1.00000000000000     
     4.9440799999999996    0.0000000000000000    0.0000000000000000
     0.0000000000000000   17.1295089999999988    0.0000000000000000
     0.0000000000000000    0.0000000000000000   20.0000000000000000
    28     2     1
Selective dynamics
Direct
  0.0010093274604423  0.1062381776837980  0.2931369999834151   T   T   T
  0.2502713442262701  0.1487467899982459  0.2944782123942808   T   T   T
  0.2503797621974240  0.2332434158862072  0.2983349493017967   T   T   T
 -0.0009921735842902  0.2743278951418696  0.3006408720053004   T   T   T
  0.0014822766703080  0.6009846655498128  0.3015015322524476   T   T   T
  0.2502804689522220  0.7273763476466725  0.2948504655340770   T   T   T
  0.0001885414301992  0.8536777426233146  0.2924548598853635   T   T   T
  0.2501796013635911  0.8958594318899288  0.2921943548644473   T   T   T
  0.2501716576045787  0.9798721854252348  0.2919942290002900   T   T   T
  0.0001687123586023  0.7696468512655049  0.2937215752379430   T   T   T
  0.4994723388312670  0.1062438019196954  0.2931315848688111   T   T   T
  0.7502656112527772  0.1480125611990027  0.2940113426571184   T   T   T
  0.7503865058856982  0.2316806645198550  0.2975538380100596   T   T   T
  0.4997971402901512  0.0221413981367075  0.2920524868052658   T   T   T
  0.7503860723644518  0.3921405213975601  0.3093963514783863   T   T   T
  0.7503544364131389  0.4772316351352898  0.3121394983470165   T   T   T
  0.5017907670538844  0.2743116817199835  0.3005785536002135   T   T   T
  0.4993182318362175  0.6010320119337759  0.3014501874360050   T   T   T
  0.7502953619953214  0.7273794724549824  0.2947402606699528   T   T   T
  0.5001947342531232  0.8536714146943136  0.2924509788274697   T   T   T
  0.7501762922209790  0.8959211011380945  0.2920520559680568   T   T   T
  0.7501556438263203  0.9800389591274360  0.2918215654416905   T   T   T
  0.5003712709361726  0.7696328619030087  0.2937115239167922   T   T   T
  0.7503886877227626  0.6432700793933535  0.2983986714853530   T   T   T
  0.2503635252182363  0.6437972955780656  0.2984655543774989   T   T   T
  0.0005527541201502  0.0221368968821522  0.2920542113647701   T   T   T
  0.4985903183751901  0.5182418498825577  0.3102114359415053   T   T   T
  0.0022407188572370  0.5181806037776665  0.3103064538171647   T   T   T
  0.5088825044210128  0.3546817154890959  0.3070736630967047   T   T   T
 -0.0080969184760784  0.3546940855362878  0.3072734563731572   T   T   T
  0.2509814839226430  0.4369278850705200  0.3428782750575977   T   T   T
 
  0.00000000E+00  0.00000000E+00  0.00000000E+00
  0.00000000E+00  0.00000000E+00  0.00000000E+00
  0.00000000E+00  0.00000000E+00  0.00000000E+00
  0.00000000E+00  0.00000000E+00  0.00000000E+00
  0.00000000E+00  0.00000000E+00  0.00000000E+00
  0.00000000E+00  0.00000000E+00  0.00000000E+00
  0.00000000E+00  0.00000000E+00  0.00000000E+00
  0.00000000E+00  0.00000000E+00  0.00000000E+00
  0.00000000E+00  0.00000000E+00  0.00000000E+00
  0.00000000E+00  0.00000000E+00  0.00000000E+00
  0.00000000E+00  0.00000000E+00  0.00000000E+00
  0.00000000E+00  0.00000000E+00  0.00000000E+00
  0.00000000E+00  0.00000000E+00  0.00000000E+00
  0.00000000E+00  0.00000000E+00  0.00000000E+00
  0.00000000E+00  0.00000000E+00  0.00000000E+00
  0.00000000E+00  0.00000000E+00  0.00000000E+00
  0.00000000E+00  0.00000000E+00  0.00000000E+00
  0.00000000E+00  0.00000000E+00  0.00000000E+00
  0.00000000E+00  0.00000000E+00  0.00000000E+00
  0.00000000E+00  0.00000000E+00  0.00000000E+00
  0.00000000E+00  0.00000000E+00  0.00000000E+00
  0.00000000E+00  0.00000000E+00  0.00000000E+00
  0.00000000E+00  0.00000000E+00  0.00000000E+00
  0.00000000E+00  0.00000000E+00  0.00000000E+00
  0.00000000E+00  0.00000000E+00  0.00000000E+00
  0.00000000E+00  0.00000000E+00  0.00000000E+00
  0.00000000E+00  0.00000000E+00  0.00000000E+00
  0.00000000E+00  0.00000000E+00  0.00000000E+00
  0.00000000E+00  0.00000000E+00  0.00000000E+00
  0.00000000E+00  0.00000000E+00  0.00000000E+00
  0.00000000E+00  0.00000000E+00  0.00000000E+00
