Title                                   
   1.00000000000000     
     4.9440799999999996    0.0000000000000000    0.0000000000000000
     0.0000000000000000    8.5647549999999999    0.0000000000000000
     0.0000000000000000    0.0000000000000000   20.0000000000000000
    10     4     1
Selective dynamics
Direct
 -0.0073604170033618  0.2953272223703322  0.1039007587269697   T   T   T
  0.2474716690815240  0.0392909889087990  0.0995299909011525   T   T   T
 -0.0011090229040066  0.9558048243214178  0.1029592504376591   T   T   T
  0.7474957327947288  0.2077867494216510  0.0947391360134516   T   T   T
  0.4951244827343526  0.2901809878149076  0.0899465704845629   T   T   T
  0.7527700462828035  0.0409180296699435  0.0962423545179907   T   T   T
  0.7544354586583681  0.7151877079350693  0.0996759651858690   T   T   T
  0.7439578195441897  0.5376389830366467  0.1002945653536994   T   T   T
  0.5029721237759970  0.9587989831514100  0.0954155113942234   T   T   T
  0.5034202283700701  0.4543183985691274  0.0855578849801883   T   T   T
 -0.0146185510359060  0.4559413708701179  0.1170075664693683   T   T   T
 -0.0110698117714147  0.7906792194884107  0.1117302749664756   T   T   T
  0.5167326381154977  0.7962940060542355  0.0953661020820937   T   T   T
  0.2428139714637656  0.2095713304959242  0.0986106995396230   T   T   T
  0.2769636318933925  0.6239421978920107  0.1170033689466761   T   T   T
 
  0.00000000E+00  0.00000000E+00  0.00000000E+00
  0.00000000E+00  0.00000000E+00  0.00000000E+00
  0.00000000E+00  0.00000000E+00  0.00000000E+00
  0.00000000E+00  0.00000000E+00  0.00000000E+00
  0.00000000E+00  0.00000000E+00  0.00000000E+00
  0.00000000E+00  0.00000000E+00  0.00000000E+00
  0.00000000E+00  0.00000000E+00  0.00000000E+00
  0.00000000E+00  0.00000000E+00  0.00000000E+00
  0.00000000E+00  0.00000000E+00  0.00000000E+00
  0.00000000E+00  0.00000000E+00  0.00000000E+00
  0.00000000E+00  0.00000000E+00  0.00000000E+00
  0.00000000E+00  0.00000000E+00  0.00000000E+00
  0.00000000E+00  0.00000000E+00  0.00000000E+00
  0.00000000E+00  0.00000000E+00  0.00000000E+00
  0.00000000E+00  0.00000000E+00  0.00000000E+00
