Title                                   
   1.00000000000000     
     8.5490480000000009    0.0000000000000000    0.0000000000000000
     0.0000000000000000    8.5490480000000009    0.0000000000000000
     0.0000000000000000    0.0000000000000000   20.0000000000000000
    22     2     1
Selective dynamics
Direct
  0.9100480326040206  0.2049079342846243  0.0982672041586265   T   T   T
  0.9031813805920389  0.5017996255097676  0.0959399768038591   T   T   T
  0.9100339445819001  0.7986406582494573  0.0982543665517577   T   T   T
  0.1979790006676998  0.0837905921458939  0.0986097532131199   T   T   T
  0.0753556797176927  0.2066497595842971  0.0985112264271654   T   T   T
  0.1979773342899079  0.9197956929258191  0.0985923797059949   T   T   T
  0.1541026454550562  0.6484253705497387  0.0966849109941223   T   T   T
  0.0725161687429813  0.5018150329703953  0.0965528283369949   T   T   T
  0.1540964570826773  0.3551917881569576  0.0966999236259219   T   T   T
  0.0753565408187202  0.7969278315781474  0.0984977595210365   T   T   T
  0.4950433764770048  0.0865342638587480  0.0964809425792758   T   T   T
  0.3479142166983596  0.1663769495554976  0.0967702928704053   T   T   T
  0.4950445008894976  0.9170626737031862  0.0964566947320981   T   T   T
  0.3479115209564765  0.8372300225906113  0.0967291823166898   T   T   T
  0.7901027405338424  0.0849897216911270  0.0983450513032015   T   T   T
  0.6433494278791179  0.1653377783670721  0.0959661926235799   T   T   T
  0.7900973070451249  0.9185616041832948  0.0983313300388022   T   T   T
  0.8263795031643163  0.6508914541733355  0.0957393258383940   T   T   T
  0.8264140206204140  0.3526694933821262  0.0957439531722247   T   T   T
  0.6433275450319161  0.8382430223830771  0.0959446528001465   T   T   T
  0.3224539290293423  0.3324716955908202  0.0927758383490137   T   T   T
  0.3224555915473411  0.6711321248208137  0.0927298289098343   T   T   T
  0.6663142865253499  0.3272869955749929  0.0923967057257178   T   T   T
  0.6662749970486943  0.6762720904424504  0.0923720223852142   T   T   T
  0.4916818520005004  0.5017858237277615  0.0703126570167810   T   T   T
 
  0.00000000E+00  0.00000000E+00  0.00000000E+00
  0.00000000E+00  0.00000000E+00  0.00000000E+00
  0.00000000E+00  0.00000000E+00  0.00000000E+00
  0.00000000E+00  0.00000000E+00  0.00000000E+00
  0.00000000E+00  0.00000000E+00  0.00000000E+00
  0.00000000E+00  0.00000000E+00  0.00000000E+00
  0.00000000E+00  0.00000000E+00  0.00000000E+00
  0.00000000E+00  0.00000000E+00  0.00000000E+00
  0.00000000E+00  0.00000000E+00  0.00000000E+00
  0.00000000E+00  0.00000000E+00  0.00000000E+00
  0.00000000E+00  0.00000000E+00  0.00000000E+00
  0.00000000E+00  0.00000000E+00  0.00000000E+00
  0.00000000E+00  0.00000000E+00  0.00000000E+00
  0.00000000E+00  0.00000000E+00  0.00000000E+00
  0.00000000E+00  0.00000000E+00  0.00000000E+00
  0.00000000E+00  0.00000000E+00  0.00000000E+00
  0.00000000E+00  0.00000000E+00  0.00000000E+00
  0.00000000E+00  0.00000000E+00  0.00000000E+00
  0.00000000E+00  0.00000000E+00  0.00000000E+00
  0.00000000E+00  0.00000000E+00  0.00000000E+00
  0.00000000E+00  0.00000000E+00  0.00000000E+00
  0.00000000E+00  0.00000000E+00  0.00000000E+00
  0.00000000E+00  0.00000000E+00  0.00000000E+00
  0.00000000E+00  0.00000000E+00  0.00000000E+00
  0.00000000E+00  0.00000000E+00  0.00000000E+00
