Title                                   
   1.00000000000000     
     8.5490480000000009    0.0000000000000000    0.0000000000000000
     0.0000000000000000    8.5490480000000009    0.0000000000000000
     0.0000000000000000    0.0000000000000000   20.0000000000000000
    19     5     1
Selective dynamics
Direct
  0.9092238808614973  0.2053213007365400  0.0975132227033197   T   T   T
  0.9108953873555077  0.8000451720363089  0.0975774579463670   T   T   T
  0.2012039033912037  0.0836709412650538  0.0978285097948676   T   T   T
  0.0764942660186164  0.2044820745974598  0.0976794143891349   T   T   T
  0.1551988449386602  0.6493490722105884  0.0977837202517780   T   T   T
  0.0718930519275109  0.5012166948939625  0.0977445035418134   T   T   T
  0.1535230895673973  0.3554907071603040  0.0977615890217128   T   T   T
  0.0793297186460264  0.7989220492092075  0.0977473920400072   T   T   T
  0.3484142013740176  0.1663910069713079  0.0978930733199138   T   T   T
  0.4940209169961156  0.9176198883007622  0.0978025250554089   T   T   T
  0.3478377463075446  0.8352939612195449  0.0979115319131626   T   T   T
  0.7888824147498227  0.0855462924182911  0.0974555958952722   T   T   T
  0.6422769323015179  0.1662288703441946  0.0976695413191056   T   T   T
  0.7903460028087229  0.9181097932558846  0.0974937762806128   T   T   T
  0.8260591842696611  0.6513393048671237  0.0977281315262345   T   T   T
  0.8241773882455168  0.3531316338676436  0.0976787847842732   T   T   T
  0.6427322235466701  0.8375101061088650  0.0977181232323149   T   T   T
  0.3263130555588802  0.3371081782368108  0.0977978855943165   T   T   T
  0.3248817908401553  0.6678381165120597  0.0977984041500515   T   T   T
  0.4961382403706445  0.0877044392990752  0.0978420487934517   T   T   T
  0.9007912107584112  0.5019079198966788  0.0977485249662156   T   T   T
  0.6635238653640193  0.3290784463415869  0.0978264032974512   T   T   T
  0.6656823819100061  0.6742234992651527  0.0979196813987380   T   T   T
  0.1977548146168789  0.9170259902313783  0.0979235536141336   T   T   T
  0.4878174872749882  0.5002345407542348  0.0978616051703159   T   T   T
 
  0.00000000E+00  0.00000000E+00  0.00000000E+00
  0.00000000E+00  0.00000000E+00  0.00000000E+00
  0.00000000E+00  0.00000000E+00  0.00000000E+00
  0.00000000E+00  0.00000000E+00  0.00000000E+00
  0.00000000E+00  0.00000000E+00  0.00000000E+00
  0.00000000E+00  0.00000000E+00  0.00000000E+00
  0.00000000E+00  0.00000000E+00  0.00000000E+00
  0.00000000E+00  0.00000000E+00  0.00000000E+00
  0.00000000E+00  0.00000000E+00  0.00000000E+00
  0.00000000E+00  0.00000000E+00  0.00000000E+00
  0.00000000E+00  0.00000000E+00  0.00000000E+00
  0.00000000E+00  0.00000000E+00  0.00000000E+00
  0.00000000E+00  0.00000000E+00  0.00000000E+00
  0.00000000E+00  0.00000000E+00  0.00000000E+00
  0.00000000E+00  0.00000000E+00  0.00000000E+00
  0.00000000E+00  0.00000000E+00  0.00000000E+00
  0.00000000E+00  0.00000000E+00  0.00000000E+00
  0.00000000E+00  0.00000000E+00  0.00000000E+00
  0.00000000E+00  0.00000000E+00  0.00000000E+00
  0.00000000E+00  0.00000000E+00  0.00000000E+00
  0.00000000E+00  0.00000000E+00  0.00000000E+00
  0.00000000E+00  0.00000000E+00  0.00000000E+00
  0.00000000E+00  0.00000000E+00  0.00000000E+00
  0.00000000E+00  0.00000000E+00  0.00000000E+00
  0.00000000E+00  0.00000000E+00  0.00000000E+00
