Title                                   
   1.00000000000000     
     9.8694509999999998    0.0000000000000000    0.0000000000000000
     0.0000000000000000    8.5490480000000009    0.0000000000000000
     0.0000000000000000    0.0000000000000000   20.0000000000000000
    26     4     1
Selective dynamics
Direct
  0.0563621990245461  0.0894206261636556  0.0921506852038613   T   T   T
  0.9311389873103499  0.1720728470083086  0.0964489877678827   T   T   T
  0.0577970864355502  0.9231188166069954  0.0923824593729999   T   T   T
  0.9340389336925820  0.3392643647267841  0.0993261697829653   T   T   T
  0.0593030478503764  0.5897473979863941  0.0960304221920894   T   T   T
  0.9342739840283709  0.6728875971014964  0.0996253176669994   T   T   T
  0.0592209116818863  0.4227564852097200  0.0956774109086225   T   T   T
  0.9321315610731419  0.8398647424983559  0.0967903024645710   T   T   T
  0.3073925808497118  0.0876225186114803  0.0856826153399994   T   T   T
  0.1824991029334751  0.1721879363888882  0.0888451073179070   T   T   T
  0.1829444009455557  0.3388750171131049  0.0902505502099326   T   T   T
  0.3091177937477994  0.5907209291523621  0.0844621521327030   T   T   T
  0.1835046084692618  0.6731650258429817  0.0911689487205514   T   T   T
  0.3089149991490631  0.4206051213451311  0.0839366950126969   T   T   T
  0.1824645365479343  0.8392148674876163  0.0896044212806793   T   T   T
  0.4310502900538667  0.1725225188089103  0.0857677722898070   T   T   T
  0.5542327426236158  0.9224899832691603  0.0937039999875443   T   T   T
  0.4304991940952735  0.8404197227836722  0.0861301164746299   T   T   T
  0.8042286094118423  0.0896785336868378  0.0973448863077075   T   T   T
  0.6796675935957751  0.1791758515550773  0.1000418405180889   T   T   T
  0.8053909519221930  0.9219029391202033  0.0976783345768453   T   T   T
  0.6828100403167757  0.3441587822186346  0.1094272190753780   T   T   T
  0.8109613968080627  0.5902007807897757  0.1061365617901472   T   T   T
  0.6835960772404536  0.6678650077815935  0.1097287427562705   T   T   T
  0.8109298633598148  0.4214814911744156  0.1060487507483621   T   T   T
  0.6796934842951948  0.8345093864129548  0.1006419072951575   T   T   T
  0.5555641611363521  0.0927336717212879  0.0931203348622640   T   T   T
  0.4290967190185369  0.3325734490644400  0.0818857224588444   T   T   T
  0.4282219064383743  0.6798255967606875  0.0821765375978302   T   T   T
  0.3061415119511904  0.9228476171284062  0.0854766944906342   T   T   T
  0.5299457239930900  0.5069653744806745  0.1232733333960763   T   T   T
 
  0.00000000E+00  0.00000000E+00  0.00000000E+00
  0.00000000E+00  0.00000000E+00  0.00000000E+00
  0.00000000E+00  0.00000000E+00  0.00000000E+00
  0.00000000E+00  0.00000000E+00  0.00000000E+00
  0.00000000E+00  0.00000000E+00  0.00000000E+00
  0.00000000E+00  0.00000000E+00  0.00000000E+00
  0.00000000E+00  0.00000000E+00  0.00000000E+00
  0.00000000E+00  0.00000000E+00  0.00000000E+00
  0.00000000E+00  0.00000000E+00  0.00000000E+00
  0.00000000E+00  0.00000000E+00  0.00000000E+00
  0.00000000E+00  0.00000000E+00  0.00000000E+00
  0.00000000E+00  0.00000000E+00  0.00000000E+00
  0.00000000E+00  0.00000000E+00  0.00000000E+00
  0.00000000E+00  0.00000000E+00  0.00000000E+00
  0.00000000E+00  0.00000000E+00  0.00000000E+00
  0.00000000E+00  0.00000000E+00  0.00000000E+00
  0.00000000E+00  0.00000000E+00  0.00000000E+00
  0.00000000E+00  0.00000000E+00  0.00000000E+00
  0.00000000E+00  0.00000000E+00  0.00000000E+00
  0.00000000E+00  0.00000000E+00  0.00000000E+00
  0.00000000E+00  0.00000000E+00  0.00000000E+00
  0.00000000E+00  0.00000000E+00  0.00000000E+00
  0.00000000E+00  0.00000000E+00  0.00000000E+00
  0.00000000E+00  0.00000000E+00  0.00000000E+00
  0.00000000E+00  0.00000000E+00  0.00000000E+00
  0.00000000E+00  0.00000000E+00  0.00000000E+00
  0.00000000E+00  0.00000000E+00  0.00000000E+00
  0.00000000E+00  0.00000000E+00  0.00000000E+00
  0.00000000E+00  0.00000000E+00  0.00000000E+00
  0.00000000E+00  0.00000000E+00  0.00000000E+00
  0.00000000E+00  0.00000000E+00  0.00000000E+00
