Title                                   
   1.00000000000000     
     4.9440799999999996    0.0000000000000000    0.0000000000000000
     0.0000000000000000   17.1295089999999988    0.0000000000000000
     0.0000000000000000    0.0000000000000000   20.0000000000000000
    27     4     1
Selective dynamics
Direct
 -0.0004286503012576  0.1043634513666628  0.2972006221268497   T   T   T
  0.2494271876031540  0.1465478713344689  0.2992734901005369   T   T   T
  0.2481842916890863  0.2300605551628274  0.3040181295532023   T   T   T
  0.0017684383361139  0.3536486728031550  0.3123471222460187   T   T   T
 -0.0037551016727688  0.2719229651294582  0.3045692282533874   T   T   T
  0.0009226693328153  0.5986391272331717  0.2915327458355104   T   T   T
  0.2554837919628192  0.7253508951009818  0.2929971225392900   T   T   T
  0.0044881492115033  0.8523522969132006  0.2928253684975951   T   T   T
  0.2533916537940938  0.8946274123292216  0.2934913462145592   T   T   T
  0.2517535550473778  0.9784885488958285  0.2946407253619424   T   T   T
  0.0068233922853857  0.7684784972000489  0.2923403060335322   T   T   T
  0.4996484607676246  0.1042792783943810  0.2974507441956781   T   T   T
  0.7487972756003762  0.1466236543512278  0.2981560538076234   T   T   T
  0.7468858884593224  0.2299301979409168  0.3011434073659392   T   T   T
  0.5013439236559684  0.0205114090695889  0.2954080040941163   T   T   T
  0.4893262027959534  0.3551437619773134  0.3138662310757933   T   T   T
  0.7575526773731219  0.4810627403945887  0.3010587356416399   T   T   T
  0.4980610584931571  0.2724888380170529  0.3059110574776031   T   T   T
  0.5149515579613679  0.6020744495876501  0.2979157142438268   T   T   T
  0.7561612561981765  0.7272871375927259  0.2929142220832225   T   T   T
  0.5030337488177357  0.8523325571817021  0.2933890747118716   T   T   T
  0.7531634941814437  0.8943724368629604  0.2933957281889608   T   T   T
  0.7516758462567870  0.9782487854179162  0.2944620363170769   T   T   T
  0.5038470187355172  0.7682096415933067  0.2934295784579231   T   T   T
  0.7577073292596473  0.6443371683583419  0.2941432442041256   T   T   T
  0.2575073031978671  0.6397196837064829  0.2928435289186190   T   T   T
  0.0011121965146740  0.0206369006448967  0.2952145874268386   T   T   T
  0.5340333578811188  0.5225524216717888  0.3162068941599870   T   T   T
  0.9834645955594546  0.5161770827475444  0.2724757839142742   T   T   T
  0.2425331709847010  0.3924328174129543  0.3251919436613153   T   T   T
  0.7474997501203388  0.3978591745842132  0.3108271939136971   T   T   T
  0.1804575098973290  0.5077905690234155  0.3619250293773973   T   T   T
 
  0.00000000E+00  0.00000000E+00  0.00000000E+00
  0.00000000E+00  0.00000000E+00  0.00000000E+00
  0.00000000E+00  0.00000000E+00  0.00000000E+00
  0.00000000E+00  0.00000000E+00  0.00000000E+00
  0.00000000E+00  0.00000000E+00  0.00000000E+00
  0.00000000E+00  0.00000000E+00  0.00000000E+00
  0.00000000E+00  0.00000000E+00  0.00000000E+00
  0.00000000E+00  0.00000000E+00  0.00000000E+00
  0.00000000E+00  0.00000000E+00  0.00000000E+00
  0.00000000E+00  0.00000000E+00  0.00000000E+00
  0.00000000E+00  0.00000000E+00  0.00000000E+00
  0.00000000E+00  0.00000000E+00  0.00000000E+00
  0.00000000E+00  0.00000000E+00  0.00000000E+00
  0.00000000E+00  0.00000000E+00  0.00000000E+00
  0.00000000E+00  0.00000000E+00  0.00000000E+00
  0.00000000E+00  0.00000000E+00  0.00000000E+00
  0.00000000E+00  0.00000000E+00  0.00000000E+00
  0.00000000E+00  0.00000000E+00  0.00000000E+00
  0.00000000E+00  0.00000000E+00  0.00000000E+00
  0.00000000E+00  0.00000000E+00  0.00000000E+00
  0.00000000E+00  0.00000000E+00  0.00000000E+00
  0.00000000E+00  0.00000000E+00  0.00000000E+00
  0.00000000E+00  0.00000000E+00  0.00000000E+00
  0.00000000E+00  0.00000000E+00  0.00000000E+00
  0.00000000E+00  0.00000000E+00  0.00000000E+00
  0.00000000E+00  0.00000000E+00  0.00000000E+00
  0.00000000E+00  0.00000000E+00  0.00000000E+00
  0.00000000E+00  0.00000000E+00  0.00000000E+00
  0.00000000E+00  0.00000000E+00  0.00000000E+00
  0.00000000E+00  0.00000000E+00  0.00000000E+00
  0.00000000E+00  0.00000000E+00  0.00000000E+00
  0.00000000E+00  0.00000000E+00  0.00000000E+00
