Title                                   
   1.00000000000000     
     4.9440799999999996    0.0000000000000000    0.0000000000000000
     0.0000000000000000   17.1295089999999988    0.0000000000000000
     0.0000000000000000    0.0000000000000000   20.0000000000000000
    29     2     1
Selective dynamics
Direct
  0.0024954998784997  0.1044225733875844  0.2809127896689055   T   T   T
  0.2531151541830627  0.1461771005047738  0.2850936074167229   T   T   T
  0.2547238285261857  0.2285739418736028  0.2961955259664304   T   T   T
  0.0073631170623769  0.3502542472965356  0.3193002924259758   T   T   T
  0.0037063009612788  0.2697268232225463  0.3019396008301716   T   T   T
 -0.0091777855169154  0.6062632444677555  0.3126574093119632   T   T   T
  0.2458110584221133  0.7288268506585617  0.2925333215531745   T   T   T
 -0.0013213997531815  0.8539066270215661  0.2792579919136426   T   T   T
  0.2488089179874396  0.8957584035729848  0.2774689686896316   T   T   T
  0.2504132664654686  0.9792527864858662  0.2760882133244466   T   T   T
 -0.0026531360210219  0.7707050675649383  0.2862706679011911   T   T   T
  0.5025637918892017  0.1044090495784829  0.2810140379616766   T   T   T
  0.7530349576220509  0.1461026124281415  0.2842507412955959   T   T   T
  0.7544338260805648  0.2285742852054765  0.2941931244517486   T   T   T
  0.5009762230753911  0.0210892658115690  0.2766864637083795   T   T   T
  0.5056774658907994  0.3503443418589622  0.3202656606876792   T   T   T
  0.7574509136975044  0.3960883749840080  0.3256188719386258   T   T   T
  0.7497670100099818  0.4824343728859538  0.3299294439053466   T   T   T
  0.5064640419353662  0.2696878129780799  0.3023956852722448   T   T   T
  0.4977604538488751  0.6065441669690903  0.3147522081217406   T   T   T
  0.7466256904237326  0.7296398993345643  0.2905785422851404   T   T   T
  0.4979321538698988  0.8538012073515810  0.2794372731555791   T   T   T
  0.7488251262811016  0.8955823279494205  0.2770770468318319   T   T   T
  0.7503982183343791  0.9791414641380919  0.2757884056048625   T   T   T
  0.4961268122443842  0.7706367352878827  0.2866200656655105   T   T   T
  0.7444845127668223  0.6475427254066285  0.3028796598368134   T   T   T
  0.2449903867323591  0.6466141263476132  0.3074242901705738   T   T   T
  0.0008746922256304  0.0211074273688335  0.2766234184150209   T   T   T
  0.5091021777411705  0.5269466257142394  0.3350992948210436   T   T   T
  0.9863729003413821  0.5275629182805770  0.3285445074689783   T   T   T
  0.2567061972396888  0.3836116041122613  0.3346525507703383   T   T   T
  0.2329706255544140  0.4772219899518185  0.3910153186289661   T   T   T
 
  0.00000000E+00  0.00000000E+00  0.00000000E+00
  0.00000000E+00  0.00000000E+00  0.00000000E+00
  0.00000000E+00  0.00000000E+00  0.00000000E+00
  0.00000000E+00  0.00000000E+00  0.00000000E+00
  0.00000000E+00  0.00000000E+00  0.00000000E+00
  0.00000000E+00  0.00000000E+00  0.00000000E+00
  0.00000000E+00  0.00000000E+00  0.00000000E+00
  0.00000000E+00  0.00000000E+00  0.00000000E+00
  0.00000000E+00  0.00000000E+00  0.00000000E+00
  0.00000000E+00  0.00000000E+00  0.00000000E+00
  0.00000000E+00  0.00000000E+00  0.00000000E+00
  0.00000000E+00  0.00000000E+00  0.00000000E+00
  0.00000000E+00  0.00000000E+00  0.00000000E+00
  0.00000000E+00  0.00000000E+00  0.00000000E+00
  0.00000000E+00  0.00000000E+00  0.00000000E+00
  0.00000000E+00  0.00000000E+00  0.00000000E+00
  0.00000000E+00  0.00000000E+00  0.00000000E+00
  0.00000000E+00  0.00000000E+00  0.00000000E+00
  0.00000000E+00  0.00000000E+00  0.00000000E+00
  0.00000000E+00  0.00000000E+00  0.00000000E+00
  0.00000000E+00  0.00000000E+00  0.00000000E+00
  0.00000000E+00  0.00000000E+00  0.00000000E+00
  0.00000000E+00  0.00000000E+00  0.00000000E+00
  0.00000000E+00  0.00000000E+00  0.00000000E+00
  0.00000000E+00  0.00000000E+00  0.00000000E+00
  0.00000000E+00  0.00000000E+00  0.00000000E+00
  0.00000000E+00  0.00000000E+00  0.00000000E+00
  0.00000000E+00  0.00000000E+00  0.00000000E+00
  0.00000000E+00  0.00000000E+00  0.00000000E+00
  0.00000000E+00  0.00000000E+00  0.00000000E+00
  0.00000000E+00  0.00000000E+00  0.00000000E+00
  0.00000000E+00  0.00000000E+00  0.00000000E+00
