Title                                   
   1.00000000000000     
     4.9440799999999996    0.0000000000000000    0.0000000000000000
     0.0000000000000000   17.1295089999999988    0.0000000000000000
     0.0000000000000000    0.0000000000000000   20.0000000000000000
    29     2     1
Selective dynamics
Direct
  0.0024956845441576  0.1041615510386175  0.2834018326062607   T   T   T
  0.2530927478814224  0.1457774253294845  0.2867374355947853   T   T   T
  0.2550224983023661  0.2286489622545434  0.2958767603532526   T   T   T
  0.0098645274435597  0.3517990645182670  0.3152362871084523   T   T   T
  0.0049412465969436  0.2698121115728544  0.3008151711980825   T   T   T
 -0.0111934654750784  0.6048943240144640  0.3089827877248211   T   T   T
  0.2445540332207682  0.7282836922430528  0.2945391464726917   T   T   T
 -0.0022473356677373  0.8536349126346557  0.2828897325645847   T   T   T
  0.2479544244271056  0.8955649709661214  0.2812798951733578   T   T   T
  0.2500166292119878  0.9789544422058443  0.2796759715429643   T   T   T
 -0.0041945031595904  0.7704406593337851  0.2887994735536674   T   T   T
  0.5025815790397388  0.1041736604499968  0.2834793212574496   T   T   T
  0.7531310766147684  0.1458087682655320  0.2861372518081623   T   T   T
  0.7550703078199683  0.2287579753940446  0.2944619380937759   T   T   T
  0.5007558606907831  0.0207310643226148  0.2800589197911075   T   T   T
  0.5051478643074667  0.3515920545588073  0.3160406221716719   T   T   T
  0.7579186529760045  0.3958851135456707  0.3204599940641669   T   T   T
  0.7512771021375909  0.4821749599292123  0.3243703352331971   T   T   T
  0.5062720648183332  0.2697343465758836  0.3010216606669319   T   T   T
  0.4958481102241645  0.6058600839061034  0.3148814137631031   T   T   T
  0.7449437435401811  0.7295609076240233  0.2928248307796670   T   T   T
  0.4970053266642834  0.8536637844698706  0.2833497366430943   T   T   T
  0.7480022888639315  0.8952837743323815  0.2810324054415525   T   T   T
  0.7500748645193571  0.9788979872244751  0.2794883675070363   T   T   T
  0.4949294291306274  0.7705027809542068  0.2898251701452338   T   T   T
  0.7427317453759598  0.6470897285853860  0.3034684921810434   T   T   T
  0.2430518687541372  0.6460235489246463  0.3066235258607619   T   T   T
  0.0005187872604584  0.0207446528246845  0.2799449032935376   T   T   T
  0.5166360164940437  0.5267829401347316  0.3366788317627256   T   T   T
  0.9858117346652734  0.5252689657002144  0.3150750868060860   T   T   T
  0.2585022475698810  0.3861771222615870  0.3271825887320625   T   T   T
  0.2363058412071485  0.4818646639042294  0.3879251101046627   T   T   T
 
  0.00000000E+00  0.00000000E+00  0.00000000E+00
  0.00000000E+00  0.00000000E+00  0.00000000E+00
  0.00000000E+00  0.00000000E+00  0.00000000E+00
  0.00000000E+00  0.00000000E+00  0.00000000E+00
  0.00000000E+00  0.00000000E+00  0.00000000E+00
  0.00000000E+00  0.00000000E+00  0.00000000E+00
  0.00000000E+00  0.00000000E+00  0.00000000E+00
  0.00000000E+00  0.00000000E+00  0.00000000E+00
  0.00000000E+00  0.00000000E+00  0.00000000E+00
  0.00000000E+00  0.00000000E+00  0.00000000E+00
  0.00000000E+00  0.00000000E+00  0.00000000E+00
  0.00000000E+00  0.00000000E+00  0.00000000E+00
  0.00000000E+00  0.00000000E+00  0.00000000E+00
  0.00000000E+00  0.00000000E+00  0.00000000E+00
  0.00000000E+00  0.00000000E+00  0.00000000E+00
  0.00000000E+00  0.00000000E+00  0.00000000E+00
  0.00000000E+00  0.00000000E+00  0.00000000E+00
  0.00000000E+00  0.00000000E+00  0.00000000E+00
  0.00000000E+00  0.00000000E+00  0.00000000E+00
  0.00000000E+00  0.00000000E+00  0.00000000E+00
  0.00000000E+00  0.00000000E+00  0.00000000E+00
  0.00000000E+00  0.00000000E+00  0.00000000E+00
  0.00000000E+00  0.00000000E+00  0.00000000E+00
  0.00000000E+00  0.00000000E+00  0.00000000E+00
  0.00000000E+00  0.00000000E+00  0.00000000E+00
  0.00000000E+00  0.00000000E+00  0.00000000E+00
  0.00000000E+00  0.00000000E+00  0.00000000E+00
  0.00000000E+00  0.00000000E+00  0.00000000E+00
  0.00000000E+00  0.00000000E+00  0.00000000E+00
  0.00000000E+00  0.00000000E+00  0.00000000E+00
  0.00000000E+00  0.00000000E+00  0.00000000E+00
  0.00000000E+00  0.00000000E+00  0.00000000E+00
