Title                                   
   1.00000000000000     
     8.5490480000000009    0.0000000000000000    0.0000000000000000
     0.0000000000000000    8.5490480000000009    0.0000000000000000
     0.0000000000000000    0.0000000000000000   20.0000000000000000
    19     5     1
Selective dynamics
Direct
  0.9086467765399403  0.2077764894945008  0.0973551222092272   T   T   T
  0.9118137882235476  0.8004098066487938  0.0976027158414738   T   T   T
  0.1968514334836292  0.0825805415307364  0.0976632188137700   T   T   T
  0.0759724126188184  0.2016126840298761  0.0976239920385173   T   T   T
  0.1586868754183110  0.6490374752751652  0.0976847876659432   T   T   T
  0.0781598783144555  0.5010409957661928  0.0977866694717042   T   T   T
  0.1583939557122760  0.3514697518040015  0.0979265742907711   T   T   T
  0.0791790258736848  0.7988835768242717  0.0975413974230102   T   T   T
  0.3436648867343221  0.1655264038096861  0.0979083411457680   T   T   T
  0.4923298534716390  0.9177354808616776  0.0977738057454848   T   T   T
  0.3458058211501873  0.8359331316262437  0.0977010637407699   T   T   T
  0.7858480345860454  0.0856993823840571  0.0973696521338782   T   T   T
  0.6372686633082181  0.1680774667410913  0.0975514564966170   T   T   T
  0.7894832550330586  0.9197159968441923  0.0976015502802197   T   T   T
  0.8292265530701665  0.6514655793582368  0.0978312119209889   T   T   T
  0.8272404625641862  0.3562699095038928  0.0975194072883997   T   T   T
  0.6414479433732484  0.8364363592020282  0.0978741630774318   T   T   T
  0.3255883542976721  0.6708621284603354  0.0978582763609147   T   T   T
  0.6585872809557933  0.3364499901030448  0.0977369356918221   T   T   T
  0.4928777951160236  0.0876131475413562  0.0977852651191585   T   T   T
  0.9078510948865781  0.5026661356837850  0.0977534026677747   T   T   T
  0.3218104565349162  0.3276511553163131  0.0982000618593395   T   T   T
  0.6668687266800196  0.6728241177690416  0.0981080196104614   T   T   T
  0.1962249077992299  0.9161402101084059  0.0975694026414129   T   T   T
  0.4955837642540191  0.5009120833130887  0.0983785064651212   T   T   T
 
  0.00000000E+00  0.00000000E+00  0.00000000E+00
  0.00000000E+00  0.00000000E+00  0.00000000E+00
  0.00000000E+00  0.00000000E+00  0.00000000E+00
  0.00000000E+00  0.00000000E+00  0.00000000E+00
  0.00000000E+00  0.00000000E+00  0.00000000E+00
  0.00000000E+00  0.00000000E+00  0.00000000E+00
  0.00000000E+00  0.00000000E+00  0.00000000E+00
  0.00000000E+00  0.00000000E+00  0.00000000E+00
  0.00000000E+00  0.00000000E+00  0.00000000E+00
  0.00000000E+00  0.00000000E+00  0.00000000E+00
  0.00000000E+00  0.00000000E+00  0.00000000E+00
  0.00000000E+00  0.00000000E+00  0.00000000E+00
  0.00000000E+00  0.00000000E+00  0.00000000E+00
  0.00000000E+00  0.00000000E+00  0.00000000E+00
  0.00000000E+00  0.00000000E+00  0.00000000E+00
  0.00000000E+00  0.00000000E+00  0.00000000E+00
  0.00000000E+00  0.00000000E+00  0.00000000E+00
  0.00000000E+00  0.00000000E+00  0.00000000E+00
  0.00000000E+00  0.00000000E+00  0.00000000E+00
  0.00000000E+00  0.00000000E+00  0.00000000E+00
  0.00000000E+00  0.00000000E+00  0.00000000E+00
  0.00000000E+00  0.00000000E+00  0.00000000E+00
  0.00000000E+00  0.00000000E+00  0.00000000E+00
  0.00000000E+00  0.00000000E+00  0.00000000E+00
  0.00000000E+00  0.00000000E+00  0.00000000E+00
