Title                                   
   1.00000000000000     
     4.9440799999999996    0.0000000000000000    0.0000000000000000
     0.0000000000000000    8.5647549999999999    0.0000000000000000
     0.0000000000000000    0.0000000000000000   20.0000000000000000
    14     1     1
Selective dynamics
Direct
  0.2500000000000000  0.2067979955833848  0.0903012942712134   T   T   T
 -0.0026555154874425  0.2880729281350557  0.0943814647055021   T   T   T
  0.2500000000000000  0.0421496098990400  0.0854412751417555   T   T   T
  0.0017488311802809  0.7969356509239530  0.1001687213584090   T   T   T
 -0.0003190836275200  0.9588362602527161  0.0861618621223447   T   T   T
  0.7500000000000000  0.2056561500958085  0.0855046378491735   T   T   T
  0.5026555154874423  0.2880729281350557  0.0943814647055021   T   T   T
  0.7500000000000000  0.0401818585283043  0.0818059262720345   T   T   T
  0.7500000000000000  0.7098254170807589  0.1054129109832935   T   T   T
  0.4982511688197191  0.7969356509239530  0.1001687213584090   T   T   T
  0.7500000000000000  0.5397067363388677  0.1087942816363678   T   T   T
  0.5003190836275202  0.9588362602527161  0.0861618621223447   T   T   T
  0.5089200290724820  0.4484963051458959  0.1108019797874983   T   T   T
 -0.0089200290724819  0.4484963051458959  0.1108019797874983   T   T   T
  0.2500000000000000  0.7281936454249642  0.1143973924924656   T   T   T
  0.2500000000000000  0.5428062981336317  0.1678262254061955   T   T   T
 
  0.00000000E+00  0.00000000E+00  0.00000000E+00
  0.00000000E+00  0.00000000E+00  0.00000000E+00
  0.00000000E+00  0.00000000E+00  0.00000000E+00
  0.00000000E+00  0.00000000E+00  0.00000000E+00
  0.00000000E+00  0.00000000E+00  0.00000000E+00
  0.00000000E+00  0.00000000E+00  0.00000000E+00
  0.00000000E+00  0.00000000E+00  0.00000000E+00
  0.00000000E+00  0.00000000E+00  0.00000000E+00
  0.00000000E+00  0.00000000E+00  0.00000000E+00
  0.00000000E+00  0.00000000E+00  0.00000000E+00
  0.00000000E+00  0.00000000E+00  0.00000000E+00
  0.00000000E+00  0.00000000E+00  0.00000000E+00
  0.00000000E+00  0.00000000E+00  0.00000000E+00
  0.00000000E+00  0.00000000E+00  0.00000000E+00
  0.00000000E+00  0.00000000E+00  0.00000000E+00
  0.00000000E+00  0.00000000E+00  0.00000000E+00
