Title                                   
   1.00000000000000     
     4.9440799999999996    0.0000000000000000    0.0000000000000000
     0.0000000000000000   17.1295089999999988    0.0000000000000000
     0.0000000000000000    0.0000000000000000   20.0000000000000000
    28     2     1
Selective dynamics
Direct
 -0.0025318250927894  0.1049824114692166  0.2913000831801572   T   T   T
  0.2459895698561471  0.1474545594692671  0.2936427428131662   T   T   T
  0.2447918177003227  0.2310776923571638  0.2996617329708126   T   T   T
 -0.0064509537000074  0.2728837459400875  0.3021792936168778   T   T   T
  0.0063902391119363  0.6029189551302392  0.3003929596869171   T   T   T
  0.2535466742493352  0.7272995180578465  0.2934976843310526   T   T   T
  0.0023417105193628  0.8532325150114525  0.2894868328047032   T   T   T
  0.2507326974146879  0.8954231925075152  0.2892847329891957   T   T   T
  0.2490798484247898  0.9792818187702953  0.2892252745951474   T   T   T
  0.0040982480811957  0.7691876669320343  0.2912445338629904   T   T   T
  0.4967759334995243  0.1052385496611990  0.2914140132902827   T   T   T
  0.7472942419566769  0.1469670941197872  0.2924799562471480   T   T   T
  0.7454804163639622  0.2305242112267910  0.2971175487564914   T   T   T
  0.4983549251314831  0.0213633218862031  0.2894809238166421   T   T   T
  0.7511638328394924  0.3939925393615147  0.3128040789896553   T   T   T
  0.7582357612367878  0.4805209893567499  0.3131090732338137   T   T   T
  0.4954001096792032  0.2729299221933972  0.3023714237504377   T   T   T
  0.5042791032148003  0.6022096106291257  0.3022529958577367   T   T   T
  0.7532933465091101  0.7278995082544999  0.2921245637097432   T   T   T
  0.5001327985584932  0.8532293595591752  0.2896068454726254   T   T   T
  0.7507165201963150  0.8950610855297195  0.2889605385002331   T   T   T
  0.7490531107885018  0.9790728458306959  0.2889221284422281   T   T   T
  0.5017821456029147  0.7692679515949835  0.2914676210600226   T   T   T
  0.7547444057740605  0.6452488718965369  0.2961757580901729   T   T   T
 -0.0011818835188633  0.0211668815234250  0.2894216798979344   T   T   T
  0.5062946236908661  0.5214685954601401  0.3141192965668244   T   T   T
  0.0072055756366364  0.5216499960806616  0.3095681053037292   T   T   T
  0.5030139027534758  0.3547525945339762  0.3121068284632682   T   T   T
 -0.0080182927855333  0.3529940557355364  0.3111765676382494   T   T   T
  0.2546691545632562  0.6451064894794278  0.2986264013802863   T   T   T
  0.2433292417438585  0.4369354504413331  0.3618377806814055   T   T   T
 
  0.00000000E+00  0.00000000E+00  0.00000000E+00
  0.00000000E+00  0.00000000E+00  0.00000000E+00
  0.00000000E+00  0.00000000E+00  0.00000000E+00
  0.00000000E+00  0.00000000E+00  0.00000000E+00
  0.00000000E+00  0.00000000E+00  0.00000000E+00
  0.00000000E+00  0.00000000E+00  0.00000000E+00
  0.00000000E+00  0.00000000E+00  0.00000000E+00
  0.00000000E+00  0.00000000E+00  0.00000000E+00
  0.00000000E+00  0.00000000E+00  0.00000000E+00
  0.00000000E+00  0.00000000E+00  0.00000000E+00
  0.00000000E+00  0.00000000E+00  0.00000000E+00
  0.00000000E+00  0.00000000E+00  0.00000000E+00
  0.00000000E+00  0.00000000E+00  0.00000000E+00
  0.00000000E+00  0.00000000E+00  0.00000000E+00
  0.00000000E+00  0.00000000E+00  0.00000000E+00
  0.00000000E+00  0.00000000E+00  0.00000000E+00
  0.00000000E+00  0.00000000E+00  0.00000000E+00
  0.00000000E+00  0.00000000E+00  0.00000000E+00
  0.00000000E+00  0.00000000E+00  0.00000000E+00
  0.00000000E+00  0.00000000E+00  0.00000000E+00
  0.00000000E+00  0.00000000E+00  0.00000000E+00
  0.00000000E+00  0.00000000E+00  0.00000000E+00
  0.00000000E+00  0.00000000E+00  0.00000000E+00
  0.00000000E+00  0.00000000E+00  0.00000000E+00
  0.00000000E+00  0.00000000E+00  0.00000000E+00
  0.00000000E+00  0.00000000E+00  0.00000000E+00
  0.00000000E+00  0.00000000E+00  0.00000000E+00
  0.00000000E+00  0.00000000E+00  0.00000000E+00
  0.00000000E+00  0.00000000E+00  0.00000000E+00
  0.00000000E+00  0.00000000E+00  0.00000000E+00
  0.00000000E+00  0.00000000E+00  0.00000000E+00
