Title                                   
   1.00000000000000     
     4.9440799999999996    0.0000000000000000    0.0000000000000000
     0.0000000000000000    8.5647549999999999    0.0000000000000000
     0.0000000000000000    0.0000000000000000   20.0000000000000000
    11     3     1
Selective dynamics
Direct
  0.0040487274708118  0.2943573559559142  0.1034899118831543   T   T   T
  0.2482458505681086  0.0405480646668110  0.1001208125468876   T   T   T
 -0.0073132285527535  0.9547053556749849  0.0950587257178290   T   T   T
  0.7549462117241497  0.2076100428803206  0.1000212918515593   T   T   T
  0.5088034270959965  0.2951915846894160  0.0958583328218874   T   T   T
  0.7472090734007901  0.0407579641442883  0.1001492109198526   T   T   T
  0.7451347701706433  0.7141602500066867  0.0960990195662022   T   T   T
  0.7523157920484963  0.5335888366401514  0.0964469273681218   T   T   T
  0.4973244566589994  0.9570609944671302  0.1046184784766326   T   T   T
  0.5091367383418572  0.7905996844276159  0.1133643262696917   T   T   T
 -0.0073229278791002  0.4582589804008844  0.1124817678761894   T   T   T
  0.5160197747151163  0.4512479890937160  0.0855107643588762   T   T   T
 -0.0180446218616461  0.7956696630018218  0.0841608216985037   T   T   T
  0.2527343823946100  0.2103219807098594  0.1000111394100987   T   T   T
  0.2467615737039205  0.6276022532404009  0.1205884692345169   T   T   T
 
  0.00000000E+00  0.00000000E+00  0.00000000E+00
  0.00000000E+00  0.00000000E+00  0.00000000E+00
  0.00000000E+00  0.00000000E+00  0.00000000E+00
  0.00000000E+00  0.00000000E+00  0.00000000E+00
  0.00000000E+00  0.00000000E+00  0.00000000E+00
  0.00000000E+00  0.00000000E+00  0.00000000E+00
  0.00000000E+00  0.00000000E+00  0.00000000E+00
  0.00000000E+00  0.00000000E+00  0.00000000E+00
  0.00000000E+00  0.00000000E+00  0.00000000E+00
  0.00000000E+00  0.00000000E+00  0.00000000E+00
  0.00000000E+00  0.00000000E+00  0.00000000E+00
  0.00000000E+00  0.00000000E+00  0.00000000E+00
  0.00000000E+00  0.00000000E+00  0.00000000E+00
  0.00000000E+00  0.00000000E+00  0.00000000E+00
  0.00000000E+00  0.00000000E+00  0.00000000E+00
