Title                                   
   1.00000000000000     
     9.8694509999999998    0.0000000000000000    0.0000000000000000
     0.0000000000000000    8.5490480000000009    0.0000000000000000
     0.0000000000000000    0.0000000000000000   20.0000000000000000
    26     4     1
Selective dynamics
Direct
  0.0545786579379052  0.0895818713832639  0.0871332279067467   T   T   T
  0.9289054491200723  0.1746501074119637  0.0865695988787574   T   T   T
  0.0583492624162827  0.9235548116730599  0.0876200633961800   T   T   T
  0.9313545954146056  0.3424266679343899  0.0862035897409531   T   T   T
  0.0570772304654451  0.5900517051033256  0.0862602431297270   T   T   T
  0.9340177770462759  0.6760313268345631  0.0890875642395212   T   T   T
  0.0562345696087613  0.4231484508882729  0.0858818595881185   T   T   T
  0.9330671980063110  0.8429206930350257  0.0901034317083289   T   T   T
  0.3062440403996769  0.0850425557274583  0.0936937701247042   T   T   T
  0.1804062389625307  0.1683832722134750  0.0900469062488746   T   T   T
  0.1795849879866071  0.3357112353093303  0.0895694091689685   T   T   T
  0.3047917274212043  0.5837308627710521  0.0927228309686574   T   T   T
  0.1824314165284043  0.6713822285571809  0.0880314977979644   T   T   T
  0.3014115412309073  0.4147695176036043  0.0974855084614020   T   T   T
  0.1838336040838886  0.8384118076890125  0.0881841948672949   T   T   T
  0.4275701080454378  0.1730664335996245  0.1021161914441364   T   T   T
  0.5569523827249850  0.9212681483005676  0.1010099741805761   T   T   T
  0.4296270794104950  0.6638084467912899  0.0955998842652122   T   T   T
  0.4338844585688149  0.8327267390573547  0.0957002503697405   T   T   T
  0.8023197732506487  0.0935839001165902  0.0902965026980651   T   T   T
  0.6766696419337630  0.1817934972641402  0.0935049567890400   T   T   T
  0.8069041464744098  0.9254533824059381  0.0935658070851483   T   T   T
  0.6809925667849380  0.3498386407335511  0.0926244743010997   T   T   T
  0.8112044455736511  0.5968092546764701  0.0960085440788355   T   T   T
  0.8080461828279929  0.4280692160619698  0.0901299350878099   T   T   T
  0.6843847215993680  0.8382221766576006  0.1026804232102535   T   T   T
  0.5543255523732613  0.0931184366191009  0.1001008537376076   T   T   T
  0.4201661038077816  0.3328239031487291  0.1131168658358200   T   T   T
  0.6930805698308871  0.6761188905193908  0.1123736987772985   T   T   T
  0.3081215751677183  0.9189114159727140  0.0913985429829864   T   T   T
  0.5565973949969703  0.5054654039400158  0.1321443989302055   T   T   T
 
  0.00000000E+00  0.00000000E+00  0.00000000E+00
  0.00000000E+00  0.00000000E+00  0.00000000E+00
  0.00000000E+00  0.00000000E+00  0.00000000E+00
  0.00000000E+00  0.00000000E+00  0.00000000E+00
  0.00000000E+00  0.00000000E+00  0.00000000E+00
  0.00000000E+00  0.00000000E+00  0.00000000E+00
  0.00000000E+00  0.00000000E+00  0.00000000E+00
  0.00000000E+00  0.00000000E+00  0.00000000E+00
  0.00000000E+00  0.00000000E+00  0.00000000E+00
  0.00000000E+00  0.00000000E+00  0.00000000E+00
  0.00000000E+00  0.00000000E+00  0.00000000E+00
  0.00000000E+00  0.00000000E+00  0.00000000E+00
  0.00000000E+00  0.00000000E+00  0.00000000E+00
  0.00000000E+00  0.00000000E+00  0.00000000E+00
  0.00000000E+00  0.00000000E+00  0.00000000E+00
  0.00000000E+00  0.00000000E+00  0.00000000E+00
  0.00000000E+00  0.00000000E+00  0.00000000E+00
  0.00000000E+00  0.00000000E+00  0.00000000E+00
  0.00000000E+00  0.00000000E+00  0.00000000E+00
  0.00000000E+00  0.00000000E+00  0.00000000E+00
  0.00000000E+00  0.00000000E+00  0.00000000E+00
  0.00000000E+00  0.00000000E+00  0.00000000E+00
  0.00000000E+00  0.00000000E+00  0.00000000E+00
  0.00000000E+00  0.00000000E+00  0.00000000E+00
  0.00000000E+00  0.00000000E+00  0.00000000E+00
  0.00000000E+00  0.00000000E+00  0.00000000E+00
  0.00000000E+00  0.00000000E+00  0.00000000E+00
  0.00000000E+00  0.00000000E+00  0.00000000E+00
  0.00000000E+00  0.00000000E+00  0.00000000E+00
  0.00000000E+00  0.00000000E+00  0.00000000E+00
  0.00000000E+00  0.00000000E+00  0.00000000E+00
