Title                                   
   1.00000000000000     
     9.8694509999999998    0.0000000000000000    0.0000000000000000
     0.0000000000000000    8.5490480000000009    0.0000000000000000
     0.0000000000000000    0.0000000000000000   20.0000000000000000
    27     4     1
Selective dynamics
Direct
  0.0558192042267008  0.0919291695574316  0.0853740145694329   T   T   T
  0.9297178155853933  0.1747786268385264  0.0879925616490086   T   T   T
  0.0565362441780909  0.9233971620524905  0.0834181528074090   T   T   T
  0.9297977118807733  0.3416004533301389  0.0921363727188610   T   T   T
  0.0560465064305358  0.5899945847401613  0.0866163063366877   T   T   T
  0.9318850027871297  0.6722911523289101  0.0862766910766067   T   T   T
  0.0555024296391122  0.4225898651949946  0.0909395232144619   T   T   T
  0.9315703649311144  0.8398178037931150  0.0847211289391405   T   T   T
  0.3055180949093188  0.0882720960722910  0.0876893403347422   T   T   T
  0.1819185915726400  0.1734458550717797  0.0882159311431982   T   T   T
  0.3073295852917254  0.9226216522967968  0.0872847872793336   T   T   T
  0.1815234962496377  0.3398714257804687  0.0928985024781368   T   T   T
  0.3048502794215520  0.5889731793950025  0.0993982391596879   T   T   T
  0.1807887278029159  0.6709408472909939  0.0875885436748943   T   T   T
  0.1818824513397487  0.8386486894129307  0.0851144806362107   T   T   T
  0.5566993304293950  0.0866395162216421  0.0945182834865956   T   T   T
  0.4308727073992809  0.1695596817176134  0.0939269779871153   T   T   T
  0.4307172630944980  0.3349699737348993  0.1034162553150616   T   T   T
  0.4300627229516080  0.8383034237940281  0.0975003589927984   T   T   T
  0.8065438972790032  0.0896305130388845  0.0871842606895652   T   T   T
  0.6808450337852328  0.1713378536685655  0.0928684667938302   T   T   T
  0.8061992521481036  0.9242283611986473  0.0868829543784052   T   T   T
  0.6791272596565274  0.3368003324366216  0.1015630540567607   T   T   T
  0.8067708733702610  0.5927184525834742  0.0959649269498845   T   T   T
  0.6846525180693080  0.8389584733667557  0.0958180187623031   T   T   T
  0.4209887153924599  0.6777812272610013  0.1158055946053706   T   T   T
  0.5550545750214215  0.4097662317653689  0.1195531419726321   T   T   T
  0.6934717028492146  0.6803866995904198  0.1093109924363637   T   T   T
  0.5574189750680917  0.9183888515053530  0.0965495782098230   T   T   T
  0.3053255492565792  0.4211383866835075  0.1001921150623467   T   T   T
  0.8041003337404267  0.4251677406567041  0.0977374514465220   T   T   T
  0.5601017842422058  0.5952977176204834  0.1712179928368265   T   T   T
 
  0.00000000E+00  0.00000000E+00  0.00000000E+00
  0.00000000E+00  0.00000000E+00  0.00000000E+00
  0.00000000E+00  0.00000000E+00  0.00000000E+00
  0.00000000E+00  0.00000000E+00  0.00000000E+00
  0.00000000E+00  0.00000000E+00  0.00000000E+00
  0.00000000E+00  0.00000000E+00  0.00000000E+00
  0.00000000E+00  0.00000000E+00  0.00000000E+00
  0.00000000E+00  0.00000000E+00  0.00000000E+00
  0.00000000E+00  0.00000000E+00  0.00000000E+00
  0.00000000E+00  0.00000000E+00  0.00000000E+00
  0.00000000E+00  0.00000000E+00  0.00000000E+00
  0.00000000E+00  0.00000000E+00  0.00000000E+00
  0.00000000E+00  0.00000000E+00  0.00000000E+00
  0.00000000E+00  0.00000000E+00  0.00000000E+00
  0.00000000E+00  0.00000000E+00  0.00000000E+00
  0.00000000E+00  0.00000000E+00  0.00000000E+00
  0.00000000E+00  0.00000000E+00  0.00000000E+00
  0.00000000E+00  0.00000000E+00  0.00000000E+00
  0.00000000E+00  0.00000000E+00  0.00000000E+00
  0.00000000E+00  0.00000000E+00  0.00000000E+00
  0.00000000E+00  0.00000000E+00  0.00000000E+00
  0.00000000E+00  0.00000000E+00  0.00000000E+00
  0.00000000E+00  0.00000000E+00  0.00000000E+00
  0.00000000E+00  0.00000000E+00  0.00000000E+00
  0.00000000E+00  0.00000000E+00  0.00000000E+00
  0.00000000E+00  0.00000000E+00  0.00000000E+00
  0.00000000E+00  0.00000000E+00  0.00000000E+00
  0.00000000E+00  0.00000000E+00  0.00000000E+00
  0.00000000E+00  0.00000000E+00  0.00000000E+00
  0.00000000E+00  0.00000000E+00  0.00000000E+00
  0.00000000E+00  0.00000000E+00  0.00000000E+00
  0.00000000E+00  0.00000000E+00  0.00000000E+00
