Title                                   
   1.00000000000000     
     4.9440799999999996    0.0000000000000000    0.0000000000000000
     0.0000000000000000   17.1295089999999988    0.0000000000000000
     0.0000000000000000    0.0000000000000000   20.0000000000000000
    27     3     1
Selective dynamics
Direct
  0.0012302479306214  0.1055412407924803  0.2992885992154144   T   T   T
  0.2503563673336809  0.1483148687787000  0.2998514191401524   T   T   T
  0.2502499501133927  0.2330818085119495  0.3004315816090475   T   T   T
 -0.0030413080805482  0.2738621278703932  0.2989027941509479   T   T   T
 -0.0002798844430005  0.6019174614268137  0.3044944356109242   T   T   T
  0.2504412590516265  0.7263350616960053  0.2984806929139838   T   T   T
  0.0016533635631319  0.8530957217808883  0.2989061062170403   T   T   T
  0.2504528479343638  0.8953339117259436  0.2984495200147508   T   T   T
  0.2504919852533578  0.9793478233301157  0.2987639909481567   T   T   T
  0.0015577185725454  0.7688785307643161  0.2995004025429754   T   T   T
  0.4995052652757946  0.1055312254344549  0.2998113472325826   T   T   T
  0.7503225334290230  0.1469227197430567  0.2998213159341361   T   T   T
  0.7501697551872049  0.2306271209123349  0.3003602453213610   T   T   T
  0.5000162933839910  0.0213634140006075  0.2990922192467121   T   T   T
  0.7500575343758820  0.3923444826393339  0.3010554191909869   T   T   T
  0.7500989984199676  0.4795551345464640  0.3006182410829019   T   T   T
  0.5034162724130204  0.2738675389063416  0.3024341285326836   T   T   T
  0.5010419331021475  0.6018166238455899  0.2941606653880823   T   T   T
  0.7504291629948178  0.7279440350163592  0.2984161011191117   T   T   T
  0.4992260521800156  0.8530964854842095  0.2978292598040660   T   T   T
  0.7504366454071639  0.8949282662450518  0.2984614336881351   T   T   T
  0.7504744872649269  0.9792442107074605  0.2987797219903008   T   T   T
  0.4993349388040301  0.7688763629590132  0.2971853804525835   T   T   T
  0.7504254183458668  0.6450569494457852  0.2988996807194053   T   T   T
  0.0009166574239201  0.0213665316035505  0.2989152629374429   T   T   T
  0.5110119393564261  0.5208157961946083  0.2845111115766329   T   T   T
  0.9893982769376871  0.5212094969268888  0.3158743914556363   T   T   T
  0.5150547305890995  0.3539314299263948  0.3083563554132983   T   T   T
 -0.0150006315609159  0.3539581109596374  0.2938025907857302   T   T   T
  0.2504214652676292  0.6440708900767702  0.2988915654578332   T   T   T
  0.2501367241731324  0.4391066177484780  0.3007140203069364   T   T   T
 
  0.00000000E+00  0.00000000E+00  0.00000000E+00
  0.00000000E+00  0.00000000E+00  0.00000000E+00
  0.00000000E+00  0.00000000E+00  0.00000000E+00
  0.00000000E+00  0.00000000E+00  0.00000000E+00
  0.00000000E+00  0.00000000E+00  0.00000000E+00
  0.00000000E+00  0.00000000E+00  0.00000000E+00
  0.00000000E+00  0.00000000E+00  0.00000000E+00
  0.00000000E+00  0.00000000E+00  0.00000000E+00
  0.00000000E+00  0.00000000E+00  0.00000000E+00
  0.00000000E+00  0.00000000E+00  0.00000000E+00
  0.00000000E+00  0.00000000E+00  0.00000000E+00
  0.00000000E+00  0.00000000E+00  0.00000000E+00
  0.00000000E+00  0.00000000E+00  0.00000000E+00
  0.00000000E+00  0.00000000E+00  0.00000000E+00
  0.00000000E+00  0.00000000E+00  0.00000000E+00
  0.00000000E+00  0.00000000E+00  0.00000000E+00
  0.00000000E+00  0.00000000E+00  0.00000000E+00
  0.00000000E+00  0.00000000E+00  0.00000000E+00
  0.00000000E+00  0.00000000E+00  0.00000000E+00
  0.00000000E+00  0.00000000E+00  0.00000000E+00
  0.00000000E+00  0.00000000E+00  0.00000000E+00
  0.00000000E+00  0.00000000E+00  0.00000000E+00
  0.00000000E+00  0.00000000E+00  0.00000000E+00
  0.00000000E+00  0.00000000E+00  0.00000000E+00
  0.00000000E+00  0.00000000E+00  0.00000000E+00
  0.00000000E+00  0.00000000E+00  0.00000000E+00
  0.00000000E+00  0.00000000E+00  0.00000000E+00
  0.00000000E+00  0.00000000E+00  0.00000000E+00
  0.00000000E+00  0.00000000E+00  0.00000000E+00
  0.00000000E+00  0.00000000E+00  0.00000000E+00
  0.00000000E+00  0.00000000E+00  0.00000000E+00
