Title                                   
   1.00000000000000     
     8.5490480000000009    0.0000000000000000    0.0000000000000000
     0.0000000000000000    8.5490480000000009    0.0000000000000000
     0.0000000000000000    0.0000000000000000   20.0000000000000000
    22     2     1
Selective dynamics
Direct
  0.9105497581792875  0.2064556800319314  0.0938684472205813   T   T   T
  0.9126217843168768  0.8002905938334713  0.0938757558000207   T   T   T
  0.1969919919099725  0.0826020894163964  0.0943199383837608   T   T   T
  0.0744735478775699  0.2014527858960478  0.0940002878978043   T   T   T
  0.1564984975895940  0.6489904603209483  0.0957298306811949   T   T   T
  0.0756028437732986  0.5017387731144992  0.0957317816489406   T   T   T
  0.1558924492240342  0.3544080179493003  0.0962548454836277   T   T   T
  0.0780552706032579  0.7993528753605919  0.0937804920263242   T   T   T
  0.4936647869744147  0.0861087507636343  0.0966002434517752   T   T   T
  0.3440632965963084  0.1637991959889914  0.0965469094246310   T   T   T
  0.4931301334426403  0.9175700513242908  0.0965161622772084   T   T   T
  0.3453321734344839  0.8357670571258780  0.0962115473028067   T   T   T
  0.7876858817356415  0.0854441151432922  0.0947388233852861   T   T   T
  0.6392566178294885  0.1676059840830574  0.0969322131692364   T   T   T
  0.7889689651878719  0.9198923907783580  0.0947824651286592   T   T   T
  0.8313693583016268  0.6488234489602744  0.0958476344690450   T   T   T
  0.8292334225836542  0.3577723691849746  0.0956218847117857   T   T   T
  0.6397896097300625  0.8358599180681573  0.0971886856730494   T   T   T
  0.3207424734640373  0.3319856376366324  0.0993374923031315   T   T   T
  0.3223788082037770  0.6717206531363726  0.0981151907594608   T   T   T
  0.6646300290805610  0.3371879521501161  0.0995037584237476   T   T   T
  0.6656539103641059  0.6681705879426564  0.1000279191303255   T   T   T
  0.9105859270625449  0.5031137013059559  0.0954110704723702   T   T   T
  0.1971518574329633  0.9164280527150773  0.0939446917808963   T   T   T
  0.4910886051019120  0.5022488577691000  0.1388169289943107   T   T   T
 
  0.00000000E+00  0.00000000E+00  0.00000000E+00
  0.00000000E+00  0.00000000E+00  0.00000000E+00
  0.00000000E+00  0.00000000E+00  0.00000000E+00
  0.00000000E+00  0.00000000E+00  0.00000000E+00
  0.00000000E+00  0.00000000E+00  0.00000000E+00
  0.00000000E+00  0.00000000E+00  0.00000000E+00
  0.00000000E+00  0.00000000E+00  0.00000000E+00
  0.00000000E+00  0.00000000E+00  0.00000000E+00
  0.00000000E+00  0.00000000E+00  0.00000000E+00
  0.00000000E+00  0.00000000E+00  0.00000000E+00
  0.00000000E+00  0.00000000E+00  0.00000000E+00
  0.00000000E+00  0.00000000E+00  0.00000000E+00
  0.00000000E+00  0.00000000E+00  0.00000000E+00
  0.00000000E+00  0.00000000E+00  0.00000000E+00
  0.00000000E+00  0.00000000E+00  0.00000000E+00
  0.00000000E+00  0.00000000E+00  0.00000000E+00
  0.00000000E+00  0.00000000E+00  0.00000000E+00
  0.00000000E+00  0.00000000E+00  0.00000000E+00
  0.00000000E+00  0.00000000E+00  0.00000000E+00
  0.00000000E+00  0.00000000E+00  0.00000000E+00
  0.00000000E+00  0.00000000E+00  0.00000000E+00
  0.00000000E+00  0.00000000E+00  0.00000000E+00
  0.00000000E+00  0.00000000E+00  0.00000000E+00
  0.00000000E+00  0.00000000E+00  0.00000000E+00
  0.00000000E+00  0.00000000E+00  0.00000000E+00
