Title                                   
   1.00000000000000     
     9.8694509999999998    0.0000000000000000    0.0000000000000000
     0.0000000000000000    8.5490480000000009    0.0000000000000000
     0.0000000000000000    0.0000000000000000   20.0000000000000000
    28     3     1
Selective dynamics
Direct
  0.0555452597222207  0.0916928892795024  0.0843290716649945   T   T   T
  0.9302378557858753  0.1765174616495287  0.0885159346673109   T   T   T
  0.0581521631453625  0.9241358870582099  0.0828139953102504   T   T   T
  0.9278795207140378  0.3438543499046189  0.0931768849533278   T   T   T
  0.0554583198286316  0.5897367735451504  0.0847684919743918   T   T   T
  0.9331135846631248  0.6754117760124757  0.0885988016110291   T   T   T
  0.0549604569216195  0.4233089506715842  0.0882441878586130   T   T   T
  0.9335858733375021  0.8427653466425041  0.0856621835036414   T   T   T
  0.3054843783115120  0.0844437848294135  0.0875347939815068   T   T   T
  0.1816148015072691  0.1722269609502305  0.0856340295703951   T   T   T
  0.3092023911677964  0.9190477662061574  0.0884857918538307   T   T   T
  0.1794895428992649  0.3380351728282247  0.0875147591534993   T   T   T
  0.3042089676553332  0.5847282493757259  0.0922405222544375   T   T   T
  0.1811077953024677  0.6702403349143716  0.0840290654919382   T   T   T
  0.1835999618546612  0.8367626755353993  0.0839992706987504   T   T   T
  0.5562805738240538  0.0855013543411504  0.0978326238064297   T   T   T
  0.4295572609539821  0.1659310484799029  0.0928690562648815   T   T   T
  0.4261206525160235  0.3323748561675122  0.0973523293413343   T   T   T
  0.4331916293463954  0.8330060073635129  0.0989820015401179   T   T   T
  0.8063727431776273  0.0930477406566508  0.0901741681522970   T   T   T
  0.6796423990272010  0.1725153384851855  0.0980844647077473   T   T   T
  0.8088502066527448  0.9281031916662948  0.0888068947536935   T   T   T
  0.6760654881274610  0.3400550782259497  0.1063889924963920   T   T   T
  0.8104947574237917  0.5988265327193587  0.1052710842431537   T   T   T
  0.8026902770800682  0.4293181688749201  0.1039477432649487   T   T   T
  0.6893184010260294  0.8432374330058072  0.1035917898006704   T   T   T
  0.4224313969440198  0.6676550037168137  0.1077053215219286   T   T   T
  0.5442718440800797  0.4088733139502243  0.1139567022384106   T   T   T
  0.7029066402170423  0.6942647353442888  0.1249214858128870   T   T   T
  0.5598692019376678  0.9177878552516293  0.1020892075395328   T   T   T
  0.3029999483648654  0.4188304406975890  0.0909319834472286   T   T   T
  0.5549347064842747  0.5880095216501144  0.1572213665204458   T   T   T
 
  0.00000000E+00  0.00000000E+00  0.00000000E+00
  0.00000000E+00  0.00000000E+00  0.00000000E+00
  0.00000000E+00  0.00000000E+00  0.00000000E+00
  0.00000000E+00  0.00000000E+00  0.00000000E+00
  0.00000000E+00  0.00000000E+00  0.00000000E+00
  0.00000000E+00  0.00000000E+00  0.00000000E+00
  0.00000000E+00  0.00000000E+00  0.00000000E+00
  0.00000000E+00  0.00000000E+00  0.00000000E+00
  0.00000000E+00  0.00000000E+00  0.00000000E+00
  0.00000000E+00  0.00000000E+00  0.00000000E+00
  0.00000000E+00  0.00000000E+00  0.00000000E+00
  0.00000000E+00  0.00000000E+00  0.00000000E+00
  0.00000000E+00  0.00000000E+00  0.00000000E+00
  0.00000000E+00  0.00000000E+00  0.00000000E+00
  0.00000000E+00  0.00000000E+00  0.00000000E+00
  0.00000000E+00  0.00000000E+00  0.00000000E+00
  0.00000000E+00  0.00000000E+00  0.00000000E+00
  0.00000000E+00  0.00000000E+00  0.00000000E+00
  0.00000000E+00  0.00000000E+00  0.00000000E+00
  0.00000000E+00  0.00000000E+00  0.00000000E+00
  0.00000000E+00  0.00000000E+00  0.00000000E+00
  0.00000000E+00  0.00000000E+00  0.00000000E+00
  0.00000000E+00  0.00000000E+00  0.00000000E+00
  0.00000000E+00  0.00000000E+00  0.00000000E+00
  0.00000000E+00  0.00000000E+00  0.00000000E+00
  0.00000000E+00  0.00000000E+00  0.00000000E+00
  0.00000000E+00  0.00000000E+00  0.00000000E+00
  0.00000000E+00  0.00000000E+00  0.00000000E+00
  0.00000000E+00  0.00000000E+00  0.00000000E+00
  0.00000000E+00  0.00000000E+00  0.00000000E+00
  0.00000000E+00  0.00000000E+00  0.00000000E+00
  0.00000000E+00  0.00000000E+00  0.00000000E+00
