Title                                   
   1.00000000000000     
     4.9440799999999996    0.0000000000000000    0.0000000000000000
     0.0000000000000000   17.1295089999999988    0.0000000000000000
     0.0000000000000000    0.0000000000000000   20.0000000000000000
    29     2     1
Selective dynamics
Direct
  0.0001263035910936  0.1041599779796790  0.2803232201942443   T   T   T
  0.2498685946605299  0.1461131436390464  0.2825019083896705   T   T   T
  0.2498779607840836  0.2291375729458875  0.2895941465792384   T   T   T
  0.0047950206778451  0.3513424791759901  0.3069741020958152   T   T   T
 -0.0018697243402652  0.2702822112877145  0.2941668688640802   T   T   T
 -0.0037382010282540  0.6063783334377312  0.3193164905289750   T   T   T
  0.2499202453038377  0.7291786484412379  0.3010875507776661   T   T   T
  0.0001395493990118  0.8540535666554242  0.2868904363333192   T   T   T
  0.2499259986127899  0.8958532022281060  0.2840379757984339   T   T   T
  0.2499015275350683  0.9790181753396288  0.2800798939189625   T   T   T
  0.0001843709115191  0.7712193781861773  0.2949323383400274   T   T   T
  0.4996364537769888  0.1041595578549930  0.2803194399113544   T   T   T
  0.7498655709122767  0.1459874701329932  0.2821335751654813   T   T   T
  0.7498814028903577  0.2283581366415501  0.2886367208670693   T   T   T
  0.4999004868330492  0.0209044615006849  0.2791916824752104   T   T   T
  0.4950131106147483  0.3513331664503999  0.3069791456793218   T   T   T
  0.7499038801838521  0.4785754524653686  0.3213249261496139   T   T   T
  0.5016290864147986  0.2702762311408853  0.2941767165136343   T   T   T
  0.5035446313679373  0.6063692575630006  0.3193144209617353   T   T   T
  0.7499072334510303  0.7303264708425047  0.2990359652663820   T   T   T
  0.4996955537245518  0.8540507011534023  0.2868827222150293   T   T   T
  0.7499240748792482  0.8957254037507960  0.2836694846159390   T   T   T
  0.7499003565267254  0.9790032541696361  0.2798757791385729   T   T   T
  0.4996417206567043  0.7712180267763067  0.2949224582112997   T   T   T
  0.7498870859063287  0.6481531291512482  0.3102917683364895   T   T   T
  0.2499080245381138  0.6472561739750529  0.3146582893709851   T   T   T
 -0.0001287113039116  0.0209059858492371  0.2791990124586799   T   T   T
  0.5164321008932127  0.5247495204787310  0.3323354642525890   T   T   T
  0.9833360133102230  0.5247599646765877  0.3323471891083204   T   T   T
  0.2499153912276687  0.3876952179659839  0.3152416553353293   T   T   T
  0.7499112560078011  0.3947209078439567  0.3137228214364302   T   T   T
  0.2499866310810443  0.4772858203000520  0.3884008307100514   T   T   T
 
  0.00000000E+00  0.00000000E+00  0.00000000E+00
  0.00000000E+00  0.00000000E+00  0.00000000E+00
  0.00000000E+00  0.00000000E+00  0.00000000E+00
  0.00000000E+00  0.00000000E+00  0.00000000E+00
  0.00000000E+00  0.00000000E+00  0.00000000E+00
  0.00000000E+00  0.00000000E+00  0.00000000E+00
  0.00000000E+00  0.00000000E+00  0.00000000E+00
  0.00000000E+00  0.00000000E+00  0.00000000E+00
  0.00000000E+00  0.00000000E+00  0.00000000E+00
  0.00000000E+00  0.00000000E+00  0.00000000E+00
  0.00000000E+00  0.00000000E+00  0.00000000E+00
  0.00000000E+00  0.00000000E+00  0.00000000E+00
  0.00000000E+00  0.00000000E+00  0.00000000E+00
  0.00000000E+00  0.00000000E+00  0.00000000E+00
  0.00000000E+00  0.00000000E+00  0.00000000E+00
  0.00000000E+00  0.00000000E+00  0.00000000E+00
  0.00000000E+00  0.00000000E+00  0.00000000E+00
  0.00000000E+00  0.00000000E+00  0.00000000E+00
  0.00000000E+00  0.00000000E+00  0.00000000E+00
  0.00000000E+00  0.00000000E+00  0.00000000E+00
  0.00000000E+00  0.00000000E+00  0.00000000E+00
  0.00000000E+00  0.00000000E+00  0.00000000E+00
  0.00000000E+00  0.00000000E+00  0.00000000E+00
  0.00000000E+00  0.00000000E+00  0.00000000E+00
  0.00000000E+00  0.00000000E+00  0.00000000E+00
  0.00000000E+00  0.00000000E+00  0.00000000E+00
  0.00000000E+00  0.00000000E+00  0.00000000E+00
  0.00000000E+00  0.00000000E+00  0.00000000E+00
  0.00000000E+00  0.00000000E+00  0.00000000E+00
  0.00000000E+00  0.00000000E+00  0.00000000E+00
  0.00000000E+00  0.00000000E+00  0.00000000E+00
  0.00000000E+00  0.00000000E+00  0.00000000E+00
