Title                                   
   1.00000000000000     
     4.9440799999999996    0.0000000000000000    0.0000000000000000
     0.0000000000000000   17.1295089999999988    0.0000000000000000
     0.0000000000000000    0.0000000000000000   20.0000000000000000
    29     2     1
Selective dynamics
Direct
  0.0029602444620861  0.1042937402390523  0.2808484892491686   T   T   T
  0.2537397441416109  0.1459807257716037  0.2848300312434665   T   T   T
  0.2561700685213727  0.2284780362907393  0.2958856018889310   T   T   T
  0.0109794314418343  0.3503559014962132  0.3200395033585438   T   T   T
  0.0058658494135971  0.2695779826504850  0.3019017463191601   T   T   T
 -0.0129183199995122  0.6065021461116078  0.3138260281643279   T   T   T
  0.2437336531641200  0.7286797956590999  0.2934321592533859   T   T   T
 -0.0026289041788655  0.8537651687539262  0.2797170512340808   T   T   T
  0.2477469530528940  0.8956322891015833  0.2776380122131568   T   T   T
  0.2499264362874227  0.9791035325305230  0.2760621625423330   T   T   T
 -0.0047547530381508  0.7706472441930363  0.2871416766113645   T   T   T
  0.5030544495530660  0.1043262543403147  0.2808238188743268   T   T   T
  0.7537765937235560  0.1459288124545671  0.2840946280666880   T   T   T
  0.7562738999492740  0.2285819205449345  0.2940236567049415   T   T   T
  0.5007074258210233  0.0209339180908377  0.2766268030346271   T   T   T
  0.5075318779670440  0.3501160279955126  0.3203145110585206   T   T   T
  0.7600573865608891  0.3956335788560819  0.3258063775232570   T   T   T
  0.7501726569603931  0.4819125098214651  0.3300334687864632   T   T   T
  0.5080837459722147  0.2695045385647331  0.3020308947997730   T   T   T
  0.4945195813350028  0.6066415413217709  0.3158123311504328   T   T   T
  0.7442162876302632  0.7298389372524977  0.2918173006310745   T   T   T
  0.4966339090161893  0.8537371783335012  0.2798704838333682   T   T   T
  0.7477075369161085  0.8954141395721918  0.2774422923490797   T   T   T
  0.7498944758545548  0.9790480352205628  0.2758746196289436   T   T   T
  0.4941588040078009  0.7706033468339814  0.2874855114031433   T   T   T
  0.7412228115455149  0.6477940887679605  0.3046278127156692   T   T   T
  0.2419474718250584  0.6466121141329093  0.3080890903896183   T   T   T
  0.0005438434330728  0.0209142982686774  0.2766260587719422   T   T   T
  0.5102747434481220  0.5267014494874203  0.3361195005923276   T   T   T
  0.9822722184258555  0.5281855234698841  0.3295383609727579   T   T   T
  0.2607291482767341  0.3833457713113861  0.3352866571561994   T   T   T
  0.2422237285098585  0.4797604525609317  0.3788983594788793   T   T   T
 
  0.00000000E+00  0.00000000E+00  0.00000000E+00
  0.00000000E+00  0.00000000E+00  0.00000000E+00
  0.00000000E+00  0.00000000E+00  0.00000000E+00
  0.00000000E+00  0.00000000E+00  0.00000000E+00
  0.00000000E+00  0.00000000E+00  0.00000000E+00
  0.00000000E+00  0.00000000E+00  0.00000000E+00
  0.00000000E+00  0.00000000E+00  0.00000000E+00
  0.00000000E+00  0.00000000E+00  0.00000000E+00
  0.00000000E+00  0.00000000E+00  0.00000000E+00
  0.00000000E+00  0.00000000E+00  0.00000000E+00
  0.00000000E+00  0.00000000E+00  0.00000000E+00
  0.00000000E+00  0.00000000E+00  0.00000000E+00
  0.00000000E+00  0.00000000E+00  0.00000000E+00
  0.00000000E+00  0.00000000E+00  0.00000000E+00
  0.00000000E+00  0.00000000E+00  0.00000000E+00
  0.00000000E+00  0.00000000E+00  0.00000000E+00
  0.00000000E+00  0.00000000E+00  0.00000000E+00
  0.00000000E+00  0.00000000E+00  0.00000000E+00
  0.00000000E+00  0.00000000E+00  0.00000000E+00
  0.00000000E+00  0.00000000E+00  0.00000000E+00
  0.00000000E+00  0.00000000E+00  0.00000000E+00
  0.00000000E+00  0.00000000E+00  0.00000000E+00
  0.00000000E+00  0.00000000E+00  0.00000000E+00
  0.00000000E+00  0.00000000E+00  0.00000000E+00
  0.00000000E+00  0.00000000E+00  0.00000000E+00
  0.00000000E+00  0.00000000E+00  0.00000000E+00
  0.00000000E+00  0.00000000E+00  0.00000000E+00
  0.00000000E+00  0.00000000E+00  0.00000000E+00
  0.00000000E+00  0.00000000E+00  0.00000000E+00
  0.00000000E+00  0.00000000E+00  0.00000000E+00
  0.00000000E+00  0.00000000E+00  0.00000000E+00
  0.00000000E+00  0.00000000E+00  0.00000000E+00
