Title                                   
   1.00000000000000     
     9.8694509999999998    0.0000000000000000    0.0000000000000000
     0.0000000000000000    8.5490480000000009    0.0000000000000000
     0.0000000000000000    0.0000000000000000   20.0000000000000000
    30     1     1
Selective dynamics
Direct
  0.0562471353505600  0.0900999241371788  0.0800854156191023   T   T   T
  0.9309060099956171  0.1732261169293095  0.0827555761074714   T   T   T
  0.0562385574315932  0.9231379420145872  0.0805887391795912   T   T   T
  0.9302344803204033  0.3406277470670064  0.0870015530518915   T   T   T
  0.0562312333855561  0.5891888812756537  0.0847608265326190   T   T   T
  0.9316094985803705  0.6727087058672089  0.0875421663729005   T   T   T
  0.0562244032857430  0.4232795857121481  0.0854083371697291   T   T   T
  0.9310157003724238  0.8396075792181609  0.0839050345055445   T   T   T
  0.3054389731218513  0.0894044681688538  0.0848050127138992   T   T   T
  0.1815719391946199  0.1732207740989406  0.0827451687376724   T   T   T
  0.3066139398657216  0.9233382385511691  0.0860520072683956   T   T   T
  0.1822309321127580  0.3406171826048941  0.0869843514773941   T   T   T
  0.3031400702801871  0.5912659755516745  0.1008290700369737   T   T   T
  0.1808698523451407  0.6727164223539041  0.0875110130123621   T   T   T
  0.3061073277190394  0.4225275394442115  0.0981872870749416   T   T   T
  0.1814463983394980  0.8396113239074060  0.0838762054244528   T   T   T
  0.5562374491211584  0.0861699591285107  0.0938932463550774   T   T   T
  0.4308478671349024  0.1694185368985688  0.0926201230661388   T   T   T
  0.4304799288522065  0.3339072110858714  0.1033912722236620   T   T   T
  0.4202267593961724  0.6826382553078028  0.1185797140225919   T   T   T
  0.5562294695826820  0.4049283671287113  0.1210086947313283   T   T   T
  0.4298553808917461  0.8418770292051057  0.0988021511523292   T   T   T
  0.8070489734238255  0.0893962077397600  0.0848226248592909   T   T   T
  0.6816342722599713  0.1694343690645678  0.0926393709035382   T   T   T
  0.8058535359648138  0.9233479533525867  0.0860938506182160   T   T   T
  0.6820004789742943  0.3339168327193578  0.1034220753045668   T   T   T
  0.8093615880136424  0.5912661319640696  0.1008893525944790   T   T   T
  0.6923014899765488  0.6826538934206544  0.1186358581058948   T   T   T
  0.8063623638916433  0.4225304602234635  0.0982326116857835   T   T   T
  0.6826142610316822  0.8418796390895079  0.0988474995095405   T   T   T
  0.5562284399514185  0.9222402799720084  0.0975061104417119   T   T   T
  0.5562302898322143  0.5900624667971539  0.1732526801409443   T   T   T
 
  0.00000000E+00  0.00000000E+00  0.00000000E+00
  0.00000000E+00  0.00000000E+00  0.00000000E+00
  0.00000000E+00  0.00000000E+00  0.00000000E+00
  0.00000000E+00  0.00000000E+00  0.00000000E+00
  0.00000000E+00  0.00000000E+00  0.00000000E+00
  0.00000000E+00  0.00000000E+00  0.00000000E+00
  0.00000000E+00  0.00000000E+00  0.00000000E+00
  0.00000000E+00  0.00000000E+00  0.00000000E+00
  0.00000000E+00  0.00000000E+00  0.00000000E+00
  0.00000000E+00  0.00000000E+00  0.00000000E+00
  0.00000000E+00  0.00000000E+00  0.00000000E+00
  0.00000000E+00  0.00000000E+00  0.00000000E+00
  0.00000000E+00  0.00000000E+00  0.00000000E+00
  0.00000000E+00  0.00000000E+00  0.00000000E+00
  0.00000000E+00  0.00000000E+00  0.00000000E+00
  0.00000000E+00  0.00000000E+00  0.00000000E+00
  0.00000000E+00  0.00000000E+00  0.00000000E+00
  0.00000000E+00  0.00000000E+00  0.00000000E+00
  0.00000000E+00  0.00000000E+00  0.00000000E+00
  0.00000000E+00  0.00000000E+00  0.00000000E+00
  0.00000000E+00  0.00000000E+00  0.00000000E+00
  0.00000000E+00  0.00000000E+00  0.00000000E+00
  0.00000000E+00  0.00000000E+00  0.00000000E+00
  0.00000000E+00  0.00000000E+00  0.00000000E+00
  0.00000000E+00  0.00000000E+00  0.00000000E+00
  0.00000000E+00  0.00000000E+00  0.00000000E+00
  0.00000000E+00  0.00000000E+00  0.00000000E+00
  0.00000000E+00  0.00000000E+00  0.00000000E+00
  0.00000000E+00  0.00000000E+00  0.00000000E+00
  0.00000000E+00  0.00000000E+00  0.00000000E+00
  0.00000000E+00  0.00000000E+00  0.00000000E+00
  0.00000000E+00  0.00000000E+00  0.00000000E+00
