Title                                   
   1.00000000000000     
     4.9440799999999996    0.0000000000000000    0.0000000000000000
     0.0000000000000000   17.1295089999999988    0.0000000000000000
     0.0000000000000000    0.0000000000000000   20.0000000000000000
    30     1
Selective dynamics
Direct
  0.0002766160580054  0.1037618639339403  0.2967348385885671   T   T   T
  0.2503625562973060  0.1456115839178013  0.2973748335533010   T   T   T
  0.2502973839347000  0.2285328382681554  0.2997033976581250   T   T   T
 -0.0001680308853106  0.2702391416425480  0.3004068537263070   T   T   T
 -0.0001990441907977  0.6046863376234771  0.3011580482732445   T   T   T
  0.2503744691173434  0.7293245622359554  0.2980566933130424   T   T   T
  0.0003475004662085  0.8543378248397229  0.2968757650375031   T   T   T
  0.2504253898712496  0.8959283959652273  0.2967990440115805   T   T   T
  0.2504353860633609  0.9790279788326002  0.2966669785319429   T   T   T
  0.0002891067459862  0.7711719130147552  0.2972736968031815   T   T   T
  0.5004707028000968  0.1037634214109151  0.2967434278426356   T   T   T
  0.7503638567485843  0.1450285800447791  0.2969683106694399   T   T   T
  0.7503105152952799  0.2282035196641482  0.2987995458705825   T   T   T
  0.5004984242707001  0.0206005407554056  0.2966104600964252   T   T   T
  0.7502028577318451  0.3939999056830029  0.2961458785084620   T   T   T
  0.7501887708213050  0.4809337549660496  0.2963530412122500   T   T   T
  0.5007546530506400  0.2702309181939330  0.3004437106497048   T   T   T
  0.5007295330767577  0.6046907733471979  0.3011637472691414   T   T   T
  0.7503708685967260  0.7299053574813619  0.2976564710306314   T   T   T
  0.5004903829041656  0.8543411887844274  0.2968763688457132   T   T   T
  0.7504127330719215  0.8958411925501527  0.2968148010830404   T   T   T
  0.7504219736677927  0.9790988184187208  0.2966770677296264   T   T   T
  0.5004949742545486  0.7711743924093664  0.2972751516768225   T   T   T
  0.7502936781452446  0.6467265318484162  0.2996112576806202   T   T   T
  0.2502834122731183  0.6464013635854220  0.3004786512444001   T   T   T
  0.0003409657427638  0.0205979525791192  0.2966058770160073   T   T   T
  0.5111349755359228  0.5224599690152876  0.3035183950435480   T   T   T
  0.9892428245622205  0.5224676314493398  0.3035162522935107   T   T   T
  0.5111692671395434  0.3524403860721463  0.3031411667015190   T   T   T
 -0.0107214125863510  0.3524444523498599  0.3030746431328233   T   T   T
  0.2501117094191233  0.4373689091167617  0.3255356249062538   T   T   T
 
  0.00000000E+00  0.00000000E+00  0.00000000E+00
  0.00000000E+00  0.00000000E+00  0.00000000E+00
  0.00000000E+00  0.00000000E+00  0.00000000E+00
  0.00000000E+00  0.00000000E+00  0.00000000E+00
  0.00000000E+00  0.00000000E+00  0.00000000E+00
  0.00000000E+00  0.00000000E+00  0.00000000E+00
  0.00000000E+00  0.00000000E+00  0.00000000E+00
  0.00000000E+00  0.00000000E+00  0.00000000E+00
  0.00000000E+00  0.00000000E+00  0.00000000E+00
  0.00000000E+00  0.00000000E+00  0.00000000E+00
  0.00000000E+00  0.00000000E+00  0.00000000E+00
  0.00000000E+00  0.00000000E+00  0.00000000E+00
  0.00000000E+00  0.00000000E+00  0.00000000E+00
  0.00000000E+00  0.00000000E+00  0.00000000E+00
  0.00000000E+00  0.00000000E+00  0.00000000E+00
  0.00000000E+00  0.00000000E+00  0.00000000E+00
  0.00000000E+00  0.00000000E+00  0.00000000E+00
  0.00000000E+00  0.00000000E+00  0.00000000E+00
  0.00000000E+00  0.00000000E+00  0.00000000E+00
  0.00000000E+00  0.00000000E+00  0.00000000E+00
  0.00000000E+00  0.00000000E+00  0.00000000E+00
  0.00000000E+00  0.00000000E+00  0.00000000E+00
  0.00000000E+00  0.00000000E+00  0.00000000E+00
  0.00000000E+00  0.00000000E+00  0.00000000E+00
  0.00000000E+00  0.00000000E+00  0.00000000E+00
  0.00000000E+00  0.00000000E+00  0.00000000E+00
  0.00000000E+00  0.00000000E+00  0.00000000E+00
  0.00000000E+00  0.00000000E+00  0.00000000E+00
  0.00000000E+00  0.00000000E+00  0.00000000E+00
  0.00000000E+00  0.00000000E+00  0.00000000E+00
  0.00000000E+00  0.00000000E+00  0.00000000E+00
