Title                                   
   1.00000000000000     
     9.8694509999999998    0.0000000000000000    0.0000000000000000
     0.0000000000000000    8.5490480000000009    0.0000000000000000
     0.0000000000000000    0.0000000000000000   20.0000000000000000
    25     5     1
Selective dynamics
Direct
  0.0555839727463047  0.0903140856250588  0.0909139042169766   T   T   T
  0.9305309080003857  0.1728620712113957  0.0919615859584074   T   T   T
  0.0574661148254575  0.9237954094122721  0.0909926619751624   T   T   T
  0.9330048431419314  0.3405415906105335  0.0916081016962250   T   T   T
  0.0572623569001458  0.5896306381889624  0.0889066566880386   T   T   T
  0.9336128628090892  0.6738781173022392  0.0916994275710290   T   T   T
  0.0574519136905377  0.4230482186130230  0.0889591858423923   T   T   T
  0.9324472203314036  0.8406008487021253  0.0922542121769177   T   T   T
  0.3068201123071846  0.0878563443251016  0.0948009732596708   T   T   T
  0.1816824982943068  0.1719291354563083  0.0916507126283069   T   T   T
  0.1812209550275357  0.3387988804492269  0.0906073656685015   T   T   T
  0.3042105027957556  0.5900456023856281  0.0949526947157860   T   T   T
  0.1810505912950099  0.6733347656761821  0.0903037016174142   T   T   T
  0.3048546817913663  0.4208554116769954  0.0953140830320921   T   T   T
  0.1814302622196872  0.8399639164363462  0.0914559279598585   T   T   T
  0.4296603834371470  0.1743832810407564  0.1002955029918647   T   T   T
  0.5541066568210994  0.9192603025000712  0.1021797054695148   T   T   T
  0.4279584091908472  0.8364545342032680  0.1001160656857300   T   T   T
  0.8042805583579496  0.0888306178994773  0.0950990429684366   T   T   T
  0.6807589835194455  0.1759112201760840  0.1007211648154435   T   T   T
  0.8065656956479157  0.9222874671482882  0.0954506062340905   T   T   T
  0.6858410331555148  0.3395932916352055  0.1053970721436547   T   T   T
  0.8109523830443185  0.5930990270036304  0.0977468884050156   T   T   T
  0.8097650602119134  0.4230311620660820  0.0976268786425428   T   T   T
  0.6826366514029910  0.8349115718259152  0.1013983658739360   T   T   T
  0.5546486058521918  0.0914049700833725  0.1020929043675881   T   T   T
  0.4244627704625226  0.3349252246927774  0.1037591935298043   T   T   T
  0.6902288528029933  0.6740730458536185  0.1055729261380237   T   T   T
  0.4218264552018517  0.6774521524114756  0.1031630510503575   T   T   T
  0.3058767047515388  0.9228459180014994  0.0942944066899212   T   T   T
  0.5549359999636685  0.5049561773870929  0.1196700299873332   T   T   T
 
  0.00000000E+00  0.00000000E+00  0.00000000E+00
  0.00000000E+00  0.00000000E+00  0.00000000E+00
  0.00000000E+00  0.00000000E+00  0.00000000E+00
  0.00000000E+00  0.00000000E+00  0.00000000E+00
  0.00000000E+00  0.00000000E+00  0.00000000E+00
  0.00000000E+00  0.00000000E+00  0.00000000E+00
  0.00000000E+00  0.00000000E+00  0.00000000E+00
  0.00000000E+00  0.00000000E+00  0.00000000E+00
  0.00000000E+00  0.00000000E+00  0.00000000E+00
  0.00000000E+00  0.00000000E+00  0.00000000E+00
  0.00000000E+00  0.00000000E+00  0.00000000E+00
  0.00000000E+00  0.00000000E+00  0.00000000E+00
  0.00000000E+00  0.00000000E+00  0.00000000E+00
  0.00000000E+00  0.00000000E+00  0.00000000E+00
  0.00000000E+00  0.00000000E+00  0.00000000E+00
  0.00000000E+00  0.00000000E+00  0.00000000E+00
  0.00000000E+00  0.00000000E+00  0.00000000E+00
  0.00000000E+00  0.00000000E+00  0.00000000E+00
  0.00000000E+00  0.00000000E+00  0.00000000E+00
  0.00000000E+00  0.00000000E+00  0.00000000E+00
  0.00000000E+00  0.00000000E+00  0.00000000E+00
  0.00000000E+00  0.00000000E+00  0.00000000E+00
  0.00000000E+00  0.00000000E+00  0.00000000E+00
  0.00000000E+00  0.00000000E+00  0.00000000E+00
  0.00000000E+00  0.00000000E+00  0.00000000E+00
  0.00000000E+00  0.00000000E+00  0.00000000E+00
  0.00000000E+00  0.00000000E+00  0.00000000E+00
  0.00000000E+00  0.00000000E+00  0.00000000E+00
  0.00000000E+00  0.00000000E+00  0.00000000E+00
  0.00000000E+00  0.00000000E+00  0.00000000E+00
  0.00000000E+00  0.00000000E+00  0.00000000E+00
