Title                                   
   1.00000000000000     
     8.5490480000000009    0.0000000000000000    0.0000000000000000
     0.0000000000000000    8.5490480000000009    0.0000000000000000
     0.0000000000000000    0.0000000000000000   20.0000000000000000
    22     2     1
Selective dynamics
Direct
  0.9096152797828576  0.2082506165283175  0.0945744893678925   T   T   T
  0.9117871821627141  0.7988693267775886  0.0947094925533956   T   T   T
  0.1986406308802493  0.0834837633531797  0.0948920909148799   T   T   T
  0.0750712328833458  0.2041040568440270  0.0949996283615733   T   T   T
  0.1576215167368194  0.6484941488189653  0.0961692291969053   T   T   T
  0.0756901243627367  0.5013976833952617  0.0960865523237352   T   T   T
  0.1560888425652561  0.3553023488255503  0.0967477776550423   T   T   T
  0.0783387030945136  0.7976833040806054  0.0945595565392270   T   T   T
  0.4934185085159110  0.0861171103352502  0.0960822513401704   T   T   T
  0.3457335980962223  0.1652244217834576  0.0967158167583255   T   T   T
  0.4929034798143408  0.9175646893414697  0.0961407824745240   T   T   T
  0.3462686768081109  0.8351384808224882  0.0967872512772770   T   T   T
  0.7866594728345010  0.0863736457484400  0.0949814960317867   T   T   T
  0.6384691991509108  0.1687574908662927  0.0963002889401024   T   T   T
  0.7876282229659158  0.9192968333023149  0.0952126245899588   T   T   T
  0.8299363412951875  0.6475974736770898  0.0960097022330327   T   T   T
  0.8285326263364925  0.3586223670931582  0.0954511697721110   T   T   T
  0.6390015103488429  0.8350437486148213  0.0967776062775540   T   T   T
  0.3241568693237901  0.3346528476430384  0.1025316846846104   T   T   T
  0.3246415867379167  0.6693055537725607  0.1007486220731798   T   T   T
  0.6610649447765526  0.3386606883077181  0.1006930695426178   T   T   T
  0.6622482187917853  0.6662017889608516  0.1017715147381418   T   T   T
  0.9097350497205375  0.5028105879600631  0.0954680600616503   T   T   T
  0.1988550897748099  0.9168785868722651  0.0947430444528443   T   T   T
  0.4933050922396658  0.4989584362752309  0.1245511978394422   T   T   T
 
  0.00000000E+00  0.00000000E+00  0.00000000E+00
  0.00000000E+00  0.00000000E+00  0.00000000E+00
  0.00000000E+00  0.00000000E+00  0.00000000E+00
  0.00000000E+00  0.00000000E+00  0.00000000E+00
  0.00000000E+00  0.00000000E+00  0.00000000E+00
  0.00000000E+00  0.00000000E+00  0.00000000E+00
  0.00000000E+00  0.00000000E+00  0.00000000E+00
  0.00000000E+00  0.00000000E+00  0.00000000E+00
  0.00000000E+00  0.00000000E+00  0.00000000E+00
  0.00000000E+00  0.00000000E+00  0.00000000E+00
  0.00000000E+00  0.00000000E+00  0.00000000E+00
  0.00000000E+00  0.00000000E+00  0.00000000E+00
  0.00000000E+00  0.00000000E+00  0.00000000E+00
  0.00000000E+00  0.00000000E+00  0.00000000E+00
  0.00000000E+00  0.00000000E+00  0.00000000E+00
  0.00000000E+00  0.00000000E+00  0.00000000E+00
  0.00000000E+00  0.00000000E+00  0.00000000E+00
  0.00000000E+00  0.00000000E+00  0.00000000E+00
  0.00000000E+00  0.00000000E+00  0.00000000E+00
  0.00000000E+00  0.00000000E+00  0.00000000E+00
  0.00000000E+00  0.00000000E+00  0.00000000E+00
  0.00000000E+00  0.00000000E+00  0.00000000E+00
  0.00000000E+00  0.00000000E+00  0.00000000E+00
  0.00000000E+00  0.00000000E+00  0.00000000E+00
  0.00000000E+00  0.00000000E+00  0.00000000E+00
