Title                                   
   1.00000000000000     
     9.8694509999999998    0.0000000000000000    0.0000000000000000
     0.0000000000000000    8.5490480000000009    0.0000000000000000
     0.0000000000000000    0.0000000000000000   20.0000000000000000
    28     3     1
Selective dynamics
Direct
  0.0562378070681458  0.0912658629290847  0.0860368141803996   T   T   T
  0.9304058626599553  0.1740225642201236  0.0884502330409817   T   T   T
  0.0562227722186384  0.9230898663111012  0.0848645471017003   T   T   T
  0.9304089933330567  0.3404872787229923  0.0918682555681907   T   T   T
  0.0562379342530088  0.5901657280574418  0.0873015544077859   T   T   T
  0.9314299693740306  0.6715228956643525  0.0884639066389161   T   T   T
  0.0562631409195268  0.4231097400297791  0.0903718433032326   T   T   T
  0.9307478669047896  0.8391257520360023  0.0867314666295329   T   T   T
  0.3056491657446108  0.0890146172964581  0.0882532768653498   T   T   T
  0.1821033260675179  0.1740303439483288  0.0879879195895397   T   T   T
  0.3069784733025298  0.9236527108634263  0.0887486556056346   T   T   T
  0.1820933580239069  0.3404492785539616  0.0914277821575021   T   T   T
  0.3053707939570114  0.5898054210607485  0.0980415186152426   T   T   T
  0.1810513606662280  0.6715519123418378  0.0880267319228076   T   T   T
  0.1817238180797866  0.8391222775154636  0.0863190314388437   T   T   T
  0.5562727442218538  0.0877963693436209  0.0948016817937963   T   T   T
  0.4308167638901035  0.1711219584298355  0.0933370611989494   T   T   T
  0.4315407103283797  0.3364186598601256  0.1007353758639867   T   T   T
  0.4301869338663887  0.8401142607865324  0.0986558493323805   T   T   T
  0.8068890594167728  0.0889639490755022  0.0888226888407837   T   T   T
  0.6817553779019787  0.1711262305225432  0.0936989653320811   T   T   T
  0.8055138207413987  0.9236211894455884  0.0892482722688828   T   T   T
  0.6810078507624598  0.3364264347751729  0.1011130167318091   T   T   T
  0.8071499204213695  0.5898261742368122  0.0986246419303838   T   T   T
  0.6822470225910501  0.8400886794094001  0.0989497831052904   T   T   T
  0.4238982678132265  0.6771552279337548  0.1129346443725543   T   T   T
  0.5561996837880290  0.4130878355766080  0.1149373561428725   T   T   T
  0.6885098435153540  0.6771388037249060  0.1132892454240690   T   T   T
  0.5562307956432435  0.9216283510165313  0.0980935568579759   T   T   T
  0.3063069484519553  0.4224480140156995  0.0973184573187418   T   T   T
  0.8062377230077192  0.4224540074537877  0.0979372919994649   T   T   T
  0.5559508910659808  0.5904136048424796  0.1602835744203341   T   T   T
 
  0.00000000E+00  0.00000000E+00  0.00000000E+00
  0.00000000E+00  0.00000000E+00  0.00000000E+00
  0.00000000E+00  0.00000000E+00  0.00000000E+00
  0.00000000E+00  0.00000000E+00  0.00000000E+00
  0.00000000E+00  0.00000000E+00  0.00000000E+00
  0.00000000E+00  0.00000000E+00  0.00000000E+00
  0.00000000E+00  0.00000000E+00  0.00000000E+00
  0.00000000E+00  0.00000000E+00  0.00000000E+00
  0.00000000E+00  0.00000000E+00  0.00000000E+00
  0.00000000E+00  0.00000000E+00  0.00000000E+00
  0.00000000E+00  0.00000000E+00  0.00000000E+00
  0.00000000E+00  0.00000000E+00  0.00000000E+00
  0.00000000E+00  0.00000000E+00  0.00000000E+00
  0.00000000E+00  0.00000000E+00  0.00000000E+00
  0.00000000E+00  0.00000000E+00  0.00000000E+00
  0.00000000E+00  0.00000000E+00  0.00000000E+00
  0.00000000E+00  0.00000000E+00  0.00000000E+00
  0.00000000E+00  0.00000000E+00  0.00000000E+00
  0.00000000E+00  0.00000000E+00  0.00000000E+00
  0.00000000E+00  0.00000000E+00  0.00000000E+00
  0.00000000E+00  0.00000000E+00  0.00000000E+00
  0.00000000E+00  0.00000000E+00  0.00000000E+00
  0.00000000E+00  0.00000000E+00  0.00000000E+00
  0.00000000E+00  0.00000000E+00  0.00000000E+00
  0.00000000E+00  0.00000000E+00  0.00000000E+00
  0.00000000E+00  0.00000000E+00  0.00000000E+00
  0.00000000E+00  0.00000000E+00  0.00000000E+00
  0.00000000E+00  0.00000000E+00  0.00000000E+00
  0.00000000E+00  0.00000000E+00  0.00000000E+00
  0.00000000E+00  0.00000000E+00  0.00000000E+00
  0.00000000E+00  0.00000000E+00  0.00000000E+00
  0.00000000E+00  0.00000000E+00  0.00000000E+00
