Title                                   
   1.00000000000000     
     8.5490480000000009    0.0000000000000000    0.0000000000000000
     0.0000000000000000    8.5490480000000009    0.0000000000000000
     0.0000000000000000    0.0000000000000000   20.0000000000000000
    20     4     1
Selective dynamics
Direct
  0.9097052121361607  0.2055243819003912  0.0954642019302559   T   T   T
  0.9069334251582470  0.5018145520651910  0.0953109913742121   T   T   T
  0.9097193357365124  0.7980684825881744  0.0954735881446366   T   T   T
  0.1967461781249476  0.0850670431680582  0.0954909817779104   T   T   T
  0.0763180607180091  0.2054986928173695  0.0954739336757525   T   T   T
  0.1967657493935854  0.9184650059111434  0.0954981766525783   T   T   T
  0.1589662162335610  0.6501022461593603  0.0953389450923733   T   T   T
  0.0791389043788715  0.5017865472938843  0.0953306071137548   T   T   T
  0.1589412617257057  0.3534463575330678  0.0953277245747875   T   T   T
  0.0763368248756439  0.7980435737661672  0.0954817142392410   T   T   T
  0.4929854339825332  0.0878950670746185  0.0953555602223432   T   T   T
  0.3446884589914554  0.1677157853158206  0.0953512495217496   T   T   T
  0.4929900129151978  0.9157120992039272  0.0953625004192212   T   T   T
  0.3447148744521896  0.8358400321114980  0.0953621148272095   T   T   T
  0.7892558891706298  0.0851102258844680  0.0954779884152388   T   T   T
  0.6412933381474674  0.1677570471220975  0.0953210117845432   T   T   T
  0.7892729547952201  0.9185065522414864  0.0954831883896901   T   T   T
  0.8270927389670121  0.6501346794804014  0.0953184512748499   T   T   T
  0.8270947701440919  0.3534868597463359  0.0952996357437596   T   T   T
  0.6413009507666346  0.8358680277338404  0.0953353358004400   T   T   T
  0.3211932372465496  0.3299221601836607  0.0951971497363804   T   T   T
  0.3212227350892350  0.6736225620324876  0.0952101495944168   T   T   T
  0.6648505244385988  0.3299592859765799  0.0951701023510915   T   T   T
  0.6648491166623535  0.6736554742495707  0.0951855362014701   T   T   T
  0.4930357957495800  0.5017872584404129  0.0950841611420711   T   T   T
 
  0.00000000E+00  0.00000000E+00  0.00000000E+00
  0.00000000E+00  0.00000000E+00  0.00000000E+00
  0.00000000E+00  0.00000000E+00  0.00000000E+00
  0.00000000E+00  0.00000000E+00  0.00000000E+00
  0.00000000E+00  0.00000000E+00  0.00000000E+00
  0.00000000E+00  0.00000000E+00  0.00000000E+00
  0.00000000E+00  0.00000000E+00  0.00000000E+00
  0.00000000E+00  0.00000000E+00  0.00000000E+00
  0.00000000E+00  0.00000000E+00  0.00000000E+00
  0.00000000E+00  0.00000000E+00  0.00000000E+00
  0.00000000E+00  0.00000000E+00  0.00000000E+00
  0.00000000E+00  0.00000000E+00  0.00000000E+00
  0.00000000E+00  0.00000000E+00  0.00000000E+00
  0.00000000E+00  0.00000000E+00  0.00000000E+00
  0.00000000E+00  0.00000000E+00  0.00000000E+00
  0.00000000E+00  0.00000000E+00  0.00000000E+00
  0.00000000E+00  0.00000000E+00  0.00000000E+00
  0.00000000E+00  0.00000000E+00  0.00000000E+00
  0.00000000E+00  0.00000000E+00  0.00000000E+00
  0.00000000E+00  0.00000000E+00  0.00000000E+00
  0.00000000E+00  0.00000000E+00  0.00000000E+00
  0.00000000E+00  0.00000000E+00  0.00000000E+00
  0.00000000E+00  0.00000000E+00  0.00000000E+00
  0.00000000E+00  0.00000000E+00  0.00000000E+00
  0.00000000E+00  0.00000000E+00  0.00000000E+00
