Title                                   
   1.00000000000000     
     4.9440799999999996    0.0000000000000000    0.0000000000000000
     0.0000000000000000    8.5647549999999999    0.0000000000000000
     0.0000000000000000    0.0000000000000000   20.0000000000000000
    12     2     1
Selective dynamics
Direct
  0.0050078629269710  0.2897809034007764  0.0922896367952038   T   T   T
  0.2571077865161750  0.0401968253256930  0.0964724077351826   T   T   T
  0.0065088866134845  0.9594342889126789  0.0912426641047735   T   T   T
  0.7500206497554390  0.2072227396997986  0.0932057653564346   T   T   T
  0.5001635785613455  0.2960552547730828  0.1001788528809935   T   T   T
  0.7516226225695886  0.0403057693655241  0.0932189824171186   T   T   T
  0.7537711634360447  0.7116785132910586  0.0986966425047783   T   T   T
  0.7524087284761715  0.5404349236722864  0.1002154036956997   T   T   T
  0.5052818247793970  0.9533558271812530  0.1007760367773970   T   T   T
  0.5000126467885634  0.4615021442140109  0.1111891183904873   T   T   T
  0.0000409259959361  0.4544333128378067  0.0938583600993351   T   T   T
 -0.0023744307529817  0.7939399274750385  0.0902607630307744   T   T   T
  0.5100188126547232  0.7895267650693508  0.1122672944281811   T   T   T
  0.2554628004230269  0.2077094952116574  0.0962965370147725   T   T   T
  0.2049461412561162  0.6261043095699858  0.1378115347688715   T   T   T
 
  0.00000000E+00  0.00000000E+00  0.00000000E+00
  0.00000000E+00  0.00000000E+00  0.00000000E+00
  0.00000000E+00  0.00000000E+00  0.00000000E+00
  0.00000000E+00  0.00000000E+00  0.00000000E+00
  0.00000000E+00  0.00000000E+00  0.00000000E+00
  0.00000000E+00  0.00000000E+00  0.00000000E+00
  0.00000000E+00  0.00000000E+00  0.00000000E+00
  0.00000000E+00  0.00000000E+00  0.00000000E+00
  0.00000000E+00  0.00000000E+00  0.00000000E+00
  0.00000000E+00  0.00000000E+00  0.00000000E+00
  0.00000000E+00  0.00000000E+00  0.00000000E+00
  0.00000000E+00  0.00000000E+00  0.00000000E+00
  0.00000000E+00  0.00000000E+00  0.00000000E+00
  0.00000000E+00  0.00000000E+00  0.00000000E+00
  0.00000000E+00  0.00000000E+00  0.00000000E+00
