Title                                   
   1.00000000000000     
     4.9440799999999996    0.0000000000000000    0.0000000000000000
     0.0000000000000000   17.1295089999999988    0.0000000000000000
     0.0000000000000000    0.0000000000000000   20.0000000000000000
    28     3     1
Selective dynamics
Direct
 -0.0000736647973854  0.1042497626709609  0.2865301334916883   T   T   T
  0.2498853390040458  0.1459643894027856  0.2893861032244823   T   T   T
  0.2498762261551036  0.2291564387652366  0.2975545676462712   T   T   T
  0.0032184525363439  0.3526277987601140  0.3158013334330955   T   T   T
 -0.0009113576659918  0.2704002101991331  0.3019943174070474   T   T   T
 -0.0048414050708273  0.6037541484595351  0.3064054144895325   T   T   T
  0.2499355085467520  0.7273864050269392  0.2932033818618076   T   T   T
  0.0005157194959337  0.8534249078566792  0.2850369686494161   T   T   T
  0.2499371505702230  0.8954075500209510  0.2839720113354614   T   T   T
  0.2499234406593107  0.9789478781039507  0.2832312892000616   T   T   T
  0.0007755304215680  0.7699558533753694  0.2892189956641404   T   T   T
  0.4998542300745086  0.1042448955934665  0.2865361079745391   T   T   T
  0.7498782506139767  0.1460350145112429  0.2887545791301183   T   T   T
  0.7498459493753313  0.2290940920906578  0.2959875276237737   T   T   T
  0.4999897013837496  0.0207224542225419  0.2835974835612111   T   T   T
  0.4964884679697743  0.3526382743667640  0.3158156473036859   T   T   T
  0.7498647060568036  0.3975206883815171  0.3192293587096041   T   T   T
  0.7499493638171943  0.4838672949844913  0.3192435603375188   T   T   T
  0.5006172255097200  0.2704084661300427  0.3020040675280520   T   T   T
  0.5047944234121783  0.6037764836192457  0.3065560178120006   T   T   T
  0.7499392193376609  0.7290603510320323  0.2913401067762734   T   T   T
  0.4993505745388969  0.8534265678091829  0.2850511371585882   T   T   T
  0.7499377550316909  0.8951362021725221  0.2836749659980831   T   T   T
  0.7499202242319160  0.9787800172005908  0.2829666076837224   T   T   T
  0.4991053788611794  0.7699585866133489  0.2892432302501986   T   T   T
  0.7499826754001808  0.6462575085672624  0.2990634084971546   T   T   T
  0.2499679763225549  0.6441030642805942  0.3023982204335816   T   T   T
 -0.0001446002805451  0.0207189733993764  0.2835898030717453   T   T   T
  0.5136819005567141  0.5250778786902290  0.3189097764286050   T   T   T
  0.9864805783512908  0.5249799873908318  0.3183677701052219   T   T   T
  0.2498431976602685  0.3868041322361148  0.3277422931434544   T   T   T
  0.2492348619198843  0.4846647240662782  0.3901588140698141   T   T   T
 
  0.00000000E+00  0.00000000E+00  0.00000000E+00
  0.00000000E+00  0.00000000E+00  0.00000000E+00
  0.00000000E+00  0.00000000E+00  0.00000000E+00
  0.00000000E+00  0.00000000E+00  0.00000000E+00
  0.00000000E+00  0.00000000E+00  0.00000000E+00
  0.00000000E+00  0.00000000E+00  0.00000000E+00
  0.00000000E+00  0.00000000E+00  0.00000000E+00
  0.00000000E+00  0.00000000E+00  0.00000000E+00
  0.00000000E+00  0.00000000E+00  0.00000000E+00
  0.00000000E+00  0.00000000E+00  0.00000000E+00
  0.00000000E+00  0.00000000E+00  0.00000000E+00
  0.00000000E+00  0.00000000E+00  0.00000000E+00
  0.00000000E+00  0.00000000E+00  0.00000000E+00
  0.00000000E+00  0.00000000E+00  0.00000000E+00
  0.00000000E+00  0.00000000E+00  0.00000000E+00
  0.00000000E+00  0.00000000E+00  0.00000000E+00
  0.00000000E+00  0.00000000E+00  0.00000000E+00
  0.00000000E+00  0.00000000E+00  0.00000000E+00
  0.00000000E+00  0.00000000E+00  0.00000000E+00
  0.00000000E+00  0.00000000E+00  0.00000000E+00
  0.00000000E+00  0.00000000E+00  0.00000000E+00
  0.00000000E+00  0.00000000E+00  0.00000000E+00
  0.00000000E+00  0.00000000E+00  0.00000000E+00
  0.00000000E+00  0.00000000E+00  0.00000000E+00
  0.00000000E+00  0.00000000E+00  0.00000000E+00
  0.00000000E+00  0.00000000E+00  0.00000000E+00
  0.00000000E+00  0.00000000E+00  0.00000000E+00
  0.00000000E+00  0.00000000E+00  0.00000000E+00
  0.00000000E+00  0.00000000E+00  0.00000000E+00
  0.00000000E+00  0.00000000E+00  0.00000000E+00
  0.00000000E+00  0.00000000E+00  0.00000000E+00
  0.00000000E+00  0.00000000E+00  0.00000000E+00
