Title                                   
   1.00000000000000     
     4.9440799999999996    0.0000000000000000    0.0000000000000000
     0.0000000000000000    8.5647549999999999    0.0000000000000000
     0.0000000000000000    0.0000000000000000   20.0000000000000000
    14     1     1
Selective dynamics
Direct
 -0.0003731279467985  0.2884093439795883  0.0936017880781097   T   T   T
  0.2500000000000000  0.0434434755064144  0.0843074612543088   T   T   T
 -0.0007746993885117  0.7956727246787142  0.0967697996495858   T   T   T
 -0.0007618186437951  0.9601994018421940  0.0841964956695004   T   T   T
  0.7500000000000000  0.2066672043657960  0.0841559166930570   T   T   T
  0.5003731279467981  0.2884093439795883  0.0936017880781097   T   T   T
  0.7500000000000000  0.0418577814524094  0.0802157879371464   T   T   T
  0.7500000000000000  0.7087775352628406  0.1016777637823830   T   T   T
  0.5007746993885117  0.7956727246787142  0.0967697996495858   T   T   T
  0.7500000000000000  0.5394244056221429  0.1080576651926258   T   T   T
  0.5007618186437952  0.9601994018421940  0.0841964956695004   T   T   T
  0.5094237679006295  0.4470329594426941  0.1152520018732153   T   T   T
 -0.0094237679006292  0.4470329594426941  0.1152520018732153   T   T   T
  0.2500000000000000  0.7247052942123836  0.1138936642068810   T   T   T
  0.2500000000000000  0.2073580777643211  0.0896477197907344   T   T   T
  0.2500000000000000  0.5451373659273107  0.1709158506020507   T   T   T
 
  0.00000000E+00  0.00000000E+00  0.00000000E+00
  0.00000000E+00  0.00000000E+00  0.00000000E+00
  0.00000000E+00  0.00000000E+00  0.00000000E+00
  0.00000000E+00  0.00000000E+00  0.00000000E+00
  0.00000000E+00  0.00000000E+00  0.00000000E+00
  0.00000000E+00  0.00000000E+00  0.00000000E+00
  0.00000000E+00  0.00000000E+00  0.00000000E+00
  0.00000000E+00  0.00000000E+00  0.00000000E+00
  0.00000000E+00  0.00000000E+00  0.00000000E+00
  0.00000000E+00  0.00000000E+00  0.00000000E+00
  0.00000000E+00  0.00000000E+00  0.00000000E+00
  0.00000000E+00  0.00000000E+00  0.00000000E+00
  0.00000000E+00  0.00000000E+00  0.00000000E+00
  0.00000000E+00  0.00000000E+00  0.00000000E+00
  0.00000000E+00  0.00000000E+00  0.00000000E+00
  0.00000000E+00  0.00000000E+00  0.00000000E+00
