Title                                   
   1.00000000000000     
     9.8694509999999998    0.0000000000000000    0.0000000000000000
     0.0000000000000000    8.5490480000000009    0.0000000000000000
     0.0000000000000000    0.0000000000000000   20.0000000000000000
    29     2     1
Selective dynamics
Direct
  0.0564589305130453  0.0905208913922741  0.0827485184559052   T   T   T
  0.9311602652518801  0.1733376041845981  0.0863881934065918   T   T   T
  0.0567349589441089  0.9230457224320874  0.0816719789075607   T   T   T
  0.9305760380974233  0.3401485724158340  0.0913010545215739   T   T   T
  0.0561049491885744  0.5892726055947967  0.0867130832222159   T   T   T
  0.9320864089748816  0.6725976344986566  0.0888744879250795   T   T   T
  0.0569837331533900  0.4229896725679779  0.0893400394684364   T   T   T
  0.9311856920728625  0.8399200240789721  0.0846860902886611   T   T   T
  0.3057273507143140  0.0883987653517709  0.0848957547619901   T   T   T
  0.1823208517793791  0.1741730252688643  0.0849515799988825   T   T   T
  0.3071789339839329  0.9229288161199287  0.0853414930722049   T   T   T
  0.1822088770266538  0.3400618686197569  0.0897421095213825   T   T   T
  0.3055225050758896  0.5894990915984625  0.0974492454274252   T   T   T
  0.1818015715111298  0.6712193587513726  0.0860133568903168   T   T   T
  0.1821897231753379  0.8380396598915995  0.0833484067064793   T   T   T
  0.5553909450568959  0.0875056868294005  0.0941537819822699   T   T   T
  0.4302145771880280  0.1704619920830018  0.0914080811006231   T   T   T
  0.4300586533711535  0.3358202104605477  0.1012607902360023   T   T   T
  0.4297375605573885  0.8392974561689629  0.0974738268104652   T   T   T
  0.8068984664908826  0.0897273258641334  0.0871125408882620   T   T   T
  0.6809393055779677  0.1700837542744193  0.0942834016982403   T   T   T
  0.8059797424698052  0.9243375469740530  0.0866266786228524   T   T   T
  0.6797927546435827  0.3346576439538748  0.1047412400146952   T   T   T
  0.8082215238850009  0.5914808870655058  0.1016015615551330   T   T   T
  0.8055174062732959  0.4228264113259401  0.1008235357637387   T   T   T
  0.6822057366191423  0.8419271065237781  0.0983223028344318   T   T   T
  0.4227859334090076  0.6782516019246125  0.1142213439399711   T   T   T
  0.5526445065720380  0.4078867528404860  0.1192335696659469   T   T   T
  0.6906171183243490  0.6833728047517554  0.1159428577108583   T   T   T
  0.5554299308032203  0.9221838919072703  0.0974708237798574   T   T   T
  0.3061497126359159  0.4226628553016683  0.0972215080799334   T   T   T
  0.5588143366595283  0.5916087589836398  0.1803117627420291   T   T   T
 
  0.00000000E+00  0.00000000E+00  0.00000000E+00
  0.00000000E+00  0.00000000E+00  0.00000000E+00
  0.00000000E+00  0.00000000E+00  0.00000000E+00
  0.00000000E+00  0.00000000E+00  0.00000000E+00
  0.00000000E+00  0.00000000E+00  0.00000000E+00
  0.00000000E+00  0.00000000E+00  0.00000000E+00
  0.00000000E+00  0.00000000E+00  0.00000000E+00
  0.00000000E+00  0.00000000E+00  0.00000000E+00
  0.00000000E+00  0.00000000E+00  0.00000000E+00
  0.00000000E+00  0.00000000E+00  0.00000000E+00
  0.00000000E+00  0.00000000E+00  0.00000000E+00
  0.00000000E+00  0.00000000E+00  0.00000000E+00
  0.00000000E+00  0.00000000E+00  0.00000000E+00
  0.00000000E+00  0.00000000E+00  0.00000000E+00
  0.00000000E+00  0.00000000E+00  0.00000000E+00
  0.00000000E+00  0.00000000E+00  0.00000000E+00
  0.00000000E+00  0.00000000E+00  0.00000000E+00
  0.00000000E+00  0.00000000E+00  0.00000000E+00
  0.00000000E+00  0.00000000E+00  0.00000000E+00
  0.00000000E+00  0.00000000E+00  0.00000000E+00
  0.00000000E+00  0.00000000E+00  0.00000000E+00
  0.00000000E+00  0.00000000E+00  0.00000000E+00
  0.00000000E+00  0.00000000E+00  0.00000000E+00
  0.00000000E+00  0.00000000E+00  0.00000000E+00
  0.00000000E+00  0.00000000E+00  0.00000000E+00
  0.00000000E+00  0.00000000E+00  0.00000000E+00
  0.00000000E+00  0.00000000E+00  0.00000000E+00
  0.00000000E+00  0.00000000E+00  0.00000000E+00
  0.00000000E+00  0.00000000E+00  0.00000000E+00
  0.00000000E+00  0.00000000E+00  0.00000000E+00
  0.00000000E+00  0.00000000E+00  0.00000000E+00
  0.00000000E+00  0.00000000E+00  0.00000000E+00
