Title                                   
   1.00000000000000     
     9.8694509999999998    0.0000000000000000    0.0000000000000000
     0.0000000000000000    8.5490480000000009    0.0000000000000000
     0.0000000000000000    0.0000000000000000   20.0000000000000000
    30     1     1
Selective dynamics
Direct
  0.0558106774159345  0.0901521329150614  0.0835551897679039   T   T   T
  0.9313995102932835  0.1728551078033718  0.0851948200251285   T   T   T
  0.0570812617167164  0.9235360434847932  0.0837576453519091   T   T   T
  0.9311247639502295  0.3401282818506272  0.0880799217053608   T   T   T
  0.0568485704631786  0.5899000642062970  0.0852964603182376   T   T   T
  0.9324122070848012  0.6726160702157510  0.0877738088157220   T   T   T
  0.0568180729232832  0.4228350431149864  0.0860791592583505   T   T   T
  0.9320744950240900  0.8392830323329531  0.0858932546697935   T   T   T
  0.3053788668970500  0.0882356824222390  0.0881661942742490   T   T   T
  0.1813408873393416  0.1720316584539755  0.0854281648265970   T   T   T
  0.1821608223647646  0.3393662146128164  0.0876796314118561   T   T   T
  0.3041917827929039  0.5900606947587533  0.0987706213072106   T   T   T
  0.1817584041606086  0.6738538616207300  0.0876759443902263   T   T   T
  0.3058671120905269  0.4224191644607829  0.0965372715931273   T   T   T
  0.1817927248767452  0.8406564198060544  0.0864041631325799   T   T   T
  0.5562837181021800  0.0876771562896247  0.0936580920512148   T   T   T
  0.4303240633212801  0.1699056868029143  0.0931428853624868   T   T   T
  0.5548455159807753  0.9227005239683208  0.0982120128567584   T   T   T
  0.4303106962356024  0.3357214852084386  0.1012150772292546   T   T   T
  0.4202880032637211  0.6803978940063348  0.1144286194479469   T   T   T
  0.5560969485861778  0.4100127506959820  0.1144775150682754   T   T   T
  0.4270311105936003  0.8416560505387055  0.1011633653268008   T   T   T
  0.8066857671686332  0.0889300874327885  0.0869501773004853   T   T   T
  0.6817385452328023  0.1708302627660883  0.0922672726990265   T   T   T
  0.8067271266229668  0.9230027569269774  0.0884276422657473   T   T   T
  0.6816080078228409  0.3361472217708919  0.1010459130807670   T   T   T
  0.8087816959713041  0.5899857895777704  0.0985093589377142   T   T   T
  0.6904545635124598  0.6780032737530193  0.1121779182192368   T   T   T
  0.8071024258849099  0.4220757701881909  0.0969043165754173   T   T   T
  0.6823509186745184  0.8401854066594759  0.0990483381663518   T   T   T
  0.3050686448466846  0.9243189471019179  0.0895873521209803   T   T   T
  0.5578810887860932  0.5907654642533740  0.1681668924433178   T   T   T
 
  0.00000000E+00  0.00000000E+00  0.00000000E+00
  0.00000000E+00  0.00000000E+00  0.00000000E+00
  0.00000000E+00  0.00000000E+00  0.00000000E+00
  0.00000000E+00  0.00000000E+00  0.00000000E+00
  0.00000000E+00  0.00000000E+00  0.00000000E+00
  0.00000000E+00  0.00000000E+00  0.00000000E+00
  0.00000000E+00  0.00000000E+00  0.00000000E+00
  0.00000000E+00  0.00000000E+00  0.00000000E+00
  0.00000000E+00  0.00000000E+00  0.00000000E+00
  0.00000000E+00  0.00000000E+00  0.00000000E+00
  0.00000000E+00  0.00000000E+00  0.00000000E+00
  0.00000000E+00  0.00000000E+00  0.00000000E+00
  0.00000000E+00  0.00000000E+00  0.00000000E+00
  0.00000000E+00  0.00000000E+00  0.00000000E+00
  0.00000000E+00  0.00000000E+00  0.00000000E+00
  0.00000000E+00  0.00000000E+00  0.00000000E+00
  0.00000000E+00  0.00000000E+00  0.00000000E+00
  0.00000000E+00  0.00000000E+00  0.00000000E+00
  0.00000000E+00  0.00000000E+00  0.00000000E+00
  0.00000000E+00  0.00000000E+00  0.00000000E+00
  0.00000000E+00  0.00000000E+00  0.00000000E+00
  0.00000000E+00  0.00000000E+00  0.00000000E+00
  0.00000000E+00  0.00000000E+00  0.00000000E+00
  0.00000000E+00  0.00000000E+00  0.00000000E+00
  0.00000000E+00  0.00000000E+00  0.00000000E+00
  0.00000000E+00  0.00000000E+00  0.00000000E+00
  0.00000000E+00  0.00000000E+00  0.00000000E+00
  0.00000000E+00  0.00000000E+00  0.00000000E+00
  0.00000000E+00  0.00000000E+00  0.00000000E+00
  0.00000000E+00  0.00000000E+00  0.00000000E+00
  0.00000000E+00  0.00000000E+00  0.00000000E+00
  0.00000000E+00  0.00000000E+00  0.00000000E+00
