Title                                   
   1.00000000000000     
     9.8694509999999998    0.0000000000000000    0.0000000000000000
     0.0000000000000000    8.5490480000000009    0.0000000000000000
     0.0000000000000000    0.0000000000000000   20.0000000000000000
    25     6     1
Selective dynamics
Direct
  0.0562571135919451  0.0931024864194422  0.0900768168668994   T   T   T
  0.9299398950080352  0.1755896200221279  0.0914816605686360   T   T   T
  0.0562722062520876  0.9242481269605226  0.0888610416503823   T   T   T
  0.9294397909263511  0.3417869482666819  0.0940899177074472   T   T   T
  0.0562488636871151  0.5900761129152250  0.0901609764820494   T   T   T
  0.9316736976696793  0.6715933112601505  0.0906037560392902   T   T   T
  0.0562873746619399  0.4231699991919362  0.0930424671633692   T   T   T
  0.9313194386157544  0.8398000735267362  0.0896888862132427   T   T   T
  0.3056278464550768  0.0893982006981488  0.0897832867705971   T   T   T
  0.1825712809755557  0.1755148289715000  0.0910819993406407   T   T   T
  0.3062009200543757  0.9236389349717401  0.0896793750573264   T   T   T
  0.1830296797023665  0.3417147652078815  0.0934668268234364   T   T   T
  0.3074959726937507  0.5934857099893611  0.0950485471316401   T   T   T
  0.1808032840436513  0.6715934957441119  0.0899148910634275   T   T   T
  0.1812582505504931  0.8397821047702304  0.0891463941731275   T   T   T
  0.5562414560293608  0.0847753890594500  0.0947244454995417   T   T   T
  0.4316200567260915  0.1693192973344502  0.0930737329641276   T   T   T
  0.4355733352868186  0.3352351230878739  0.0976905722802952   T   T   T
  0.4279413651133089  0.8361349339955126  0.0946437483619383   T   T   T
  0.8068899468844699  0.0894676417465675  0.0902677985077360   T   T   T
  0.6809052078647231  0.1694056807660035  0.0934911414125459   T   T   T
  0.8063542714207311  0.9236783020353748  0.0901984238210738   T   T   T
  0.6769219425980364  0.3353383265511151  0.0984578309051563   T   T   T
  0.8051373593735526  0.5935371021100465  0.0964859857354721   T   T   T
  0.6846280967873649  0.8362479078887234  0.0953332503526937   T   T   T
  0.4233520832093014  0.6779193391147315  0.1024292275599919   T   T   T
  0.5560955223129881  0.4100754857148312  0.1079602124751293   T   T   T
  0.6895534098699427  0.6783119503865106  0.1045111435897935   T   T   T
  0.5562481860946873  0.9153299605844398  0.0951971110774085   T   T   T
  0.3116741367016238  0.4246566165118398  0.0956978288128965   T   T   T
  0.8008751457753797  0.4247525462104242  0.0970080700072763   T   T   T
  0.5552018630634475  0.5915656779863101  0.1723776335854279   T   T   T
 
  0.00000000E+00  0.00000000E+00  0.00000000E+00
  0.00000000E+00  0.00000000E+00  0.00000000E+00
  0.00000000E+00  0.00000000E+00  0.00000000E+00
  0.00000000E+00  0.00000000E+00  0.00000000E+00
  0.00000000E+00  0.00000000E+00  0.00000000E+00
  0.00000000E+00  0.00000000E+00  0.00000000E+00
  0.00000000E+00  0.00000000E+00  0.00000000E+00
  0.00000000E+00  0.00000000E+00  0.00000000E+00
  0.00000000E+00  0.00000000E+00  0.00000000E+00
  0.00000000E+00  0.00000000E+00  0.00000000E+00
  0.00000000E+00  0.00000000E+00  0.00000000E+00
  0.00000000E+00  0.00000000E+00  0.00000000E+00
  0.00000000E+00  0.00000000E+00  0.00000000E+00
  0.00000000E+00  0.00000000E+00  0.00000000E+00
  0.00000000E+00  0.00000000E+00  0.00000000E+00
  0.00000000E+00  0.00000000E+00  0.00000000E+00
  0.00000000E+00  0.00000000E+00  0.00000000E+00
  0.00000000E+00  0.00000000E+00  0.00000000E+00
  0.00000000E+00  0.00000000E+00  0.00000000E+00
  0.00000000E+00  0.00000000E+00  0.00000000E+00
  0.00000000E+00  0.00000000E+00  0.00000000E+00
  0.00000000E+00  0.00000000E+00  0.00000000E+00
  0.00000000E+00  0.00000000E+00  0.00000000E+00
  0.00000000E+00  0.00000000E+00  0.00000000E+00
  0.00000000E+00  0.00000000E+00  0.00000000E+00
  0.00000000E+00  0.00000000E+00  0.00000000E+00
  0.00000000E+00  0.00000000E+00  0.00000000E+00
  0.00000000E+00  0.00000000E+00  0.00000000E+00
  0.00000000E+00  0.00000000E+00  0.00000000E+00
  0.00000000E+00  0.00000000E+00  0.00000000E+00
  0.00000000E+00  0.00000000E+00  0.00000000E+00
  0.00000000E+00  0.00000000E+00  0.00000000E+00
