Title                                   
   1.00000000000000     
     9.8694509999999998    0.0000000000000000    0.0000000000000000
     0.0000000000000000    8.5490480000000009    0.0000000000000000
     0.0000000000000000    0.0000000000000000   20.0000000000000000
    27     4     1
Selective dynamics
Direct
  0.0556203099641494  0.0923212910994397  0.0901529848791278   T   T   T
  0.9297367141041737  0.1749548852823347  0.0914107925351137   T   T   T
  0.0553394105722411  0.9252876041605219  0.0896194948177091   T   T   T
  0.9283252920869484  0.3425633069673226  0.0938835643043245   T   T   T
  0.0557476621862024  0.5903024301422621  0.0912908220492031   T   T   T
  0.9308577488747063  0.6739135916013236  0.0939443416766415   T   T   T
  0.0558571287455693  0.4243478547672827  0.0918129410265983   T   T   T
  0.9307880959593008  0.8407642473595359  0.0919368038006300   T   T   T
  0.3048689399565291  0.0897220107337068  0.0904960272438148   T   T   T
  0.1814430363634168  0.1751785267442862  0.0907921416153822   T   T   T
  0.3051009030794243  0.9240875252650523  0.0891904318088968   T   T   T
  0.1835211336537698  0.3429147820775822  0.0913371352399541   T   T   T
  0.3080770648165774  0.5955828492266946  0.0883617551733970   T   T   T
  0.1805432392075919  0.6741746561146866  0.0890056675602060   T   T   T
  0.3106475827942144  0.4256806709462221  0.0923895148667986   T   T   T
  0.1801318027930837  0.8408453940320575  0.0886507097466835   T   T   T
  0.5554142874212418  0.0818654798933433  0.0935847929553653   T   T   T
  0.4318698802307303  0.1678384908333501  0.0933009650416629   T   T   T
  0.4352961816134691  0.3355194904866659  0.0982858186344114   T   T   T
  0.4267847182172346  0.8342566615534854  0.0883513198518882   T   T   T
  0.8062267160672346  0.0895196421982316  0.0910510771220762   T   T   T
  0.6793682201652593  0.1677805524592215  0.0943921825823225   T   T   T
  0.8056471891593532  0.9236169399731026  0.0921403125399795   T   T   T
  0.6763010378117164  0.3343564994502376  0.1012793882009818   T   T   T
  0.8050998867541967  0.5942572186846771  0.1005865624685751   T   T   T
  0.8017488337799081  0.4248884739638528  0.0992806606395507   T   T   T
  0.6831351537794952  0.8360598055059957  0.0976087527468647   T   T   T
  0.4265083610496470  0.6790120152971399  0.0857801555645249   T   T   T
  0.5555906098802863  0.4094114272718380  0.1092218397798939   T   T   T
  0.6870264159747707  0.6802543618737710  0.1078503383477832   T   T   T
  0.5556762185589578  0.9155049624101571  0.0920610546590631   T   T   T
  0.5713392243786070  0.5834623516246200  0.1866246505205919   T   T   T
 
  0.00000000E+00  0.00000000E+00  0.00000000E+00
  0.00000000E+00  0.00000000E+00  0.00000000E+00
  0.00000000E+00  0.00000000E+00  0.00000000E+00
  0.00000000E+00  0.00000000E+00  0.00000000E+00
  0.00000000E+00  0.00000000E+00  0.00000000E+00
  0.00000000E+00  0.00000000E+00  0.00000000E+00
  0.00000000E+00  0.00000000E+00  0.00000000E+00
  0.00000000E+00  0.00000000E+00  0.00000000E+00
  0.00000000E+00  0.00000000E+00  0.00000000E+00
  0.00000000E+00  0.00000000E+00  0.00000000E+00
  0.00000000E+00  0.00000000E+00  0.00000000E+00
  0.00000000E+00  0.00000000E+00  0.00000000E+00
  0.00000000E+00  0.00000000E+00  0.00000000E+00
  0.00000000E+00  0.00000000E+00  0.00000000E+00
  0.00000000E+00  0.00000000E+00  0.00000000E+00
  0.00000000E+00  0.00000000E+00  0.00000000E+00
  0.00000000E+00  0.00000000E+00  0.00000000E+00
  0.00000000E+00  0.00000000E+00  0.00000000E+00
  0.00000000E+00  0.00000000E+00  0.00000000E+00
  0.00000000E+00  0.00000000E+00  0.00000000E+00
  0.00000000E+00  0.00000000E+00  0.00000000E+00
  0.00000000E+00  0.00000000E+00  0.00000000E+00
  0.00000000E+00  0.00000000E+00  0.00000000E+00
  0.00000000E+00  0.00000000E+00  0.00000000E+00
  0.00000000E+00  0.00000000E+00  0.00000000E+00
  0.00000000E+00  0.00000000E+00  0.00000000E+00
  0.00000000E+00  0.00000000E+00  0.00000000E+00
  0.00000000E+00  0.00000000E+00  0.00000000E+00
  0.00000000E+00  0.00000000E+00  0.00000000E+00
  0.00000000E+00  0.00000000E+00  0.00000000E+00
  0.00000000E+00  0.00000000E+00  0.00000000E+00
  0.00000000E+00  0.00000000E+00  0.00000000E+00
