Title                                   
   1.00000000000000     
     4.9440799999999996    0.0000000000000000    0.0000000000000000
     0.0000000000000000    8.5647549999999999    0.0000000000000000
     0.0000000000000000    0.0000000000000000   20.0000000000000000
    12     2     1
Selective dynamics
Direct
 -0.0004773431508212  0.2919934622207971  0.1013887043257641   T   T   T
  0.2523168729971842  0.0400808076483848  0.1005255421332160   T   T   T
  0.0026632595259911  0.9576975759160088  0.1031403382636405   T   T   T
  0.7487361547165258  0.2064524857912211  0.1005793241935853   T   T   T
  0.4984562060152974  0.2916829902092073  0.0993908420924164   T   T   T
  0.7517923142251332  0.0404112902545207  0.1008441998219178   T   T   T
  0.7502125106113394  0.7162543660347144  0.1000746990670698   T   T   T
  0.7452547797510498  0.5397484977482061  0.0998611358751544   T   T   T
  0.5047308789484403  0.9556821636671590  0.0981296305232821   T   T   T
  0.5048225309641680  0.4555651507297520  0.0976079225428373   T   T   T
 -0.0129708356234227  0.4548326067090384  0.1025766963121288   T   T   T
 -0.0094658402272675  0.7923127361027549  0.1078403344635264   T   T   T
  0.5137450266664932  0.7951030614284147  0.0928366531540377   T   T   T
  0.2513853188819675  0.2071536861179032  0.1004827005294875   T   T   T
  0.2487981656979219  0.6267101194219213  0.1027012767019393   T   T   T
 
  0.00000000E+00  0.00000000E+00  0.00000000E+00
  0.00000000E+00  0.00000000E+00  0.00000000E+00
  0.00000000E+00  0.00000000E+00  0.00000000E+00
  0.00000000E+00  0.00000000E+00  0.00000000E+00
  0.00000000E+00  0.00000000E+00  0.00000000E+00
  0.00000000E+00  0.00000000E+00  0.00000000E+00
  0.00000000E+00  0.00000000E+00  0.00000000E+00
  0.00000000E+00  0.00000000E+00  0.00000000E+00
  0.00000000E+00  0.00000000E+00  0.00000000E+00
  0.00000000E+00  0.00000000E+00  0.00000000E+00
  0.00000000E+00  0.00000000E+00  0.00000000E+00
  0.00000000E+00  0.00000000E+00  0.00000000E+00
  0.00000000E+00  0.00000000E+00  0.00000000E+00
  0.00000000E+00  0.00000000E+00  0.00000000E+00
  0.00000000E+00  0.00000000E+00  0.00000000E+00
