Title                                   
   1.00000000000000     
     8.5490480000000009    0.0000000000000000    0.0000000000000000
     0.0000000000000000    8.5490480000000009    0.0000000000000000
     0.0000000000000000    0.0000000000000000   20.0000000000000000
    21     3     1
Selective dynamics
Direct
  0.9084643706471529  0.2070971363501559  0.0943112908626361   T   T   T
  0.9114606016931723  0.7999430678082468  0.0940537608257249   T   T   T
  0.1981239884305258  0.0828871324197364  0.0940385497082045   T   T   T
  0.0759828117628698  0.2020991218369321  0.0945569576004337   T   T   T
  0.1579122312083954  0.6488376355251646  0.0960119815897349   T   T   T
  0.0763600101201156  0.5001800820814264  0.0962651960037416   T   T   T
  0.1572791267196380  0.3536343233804618  0.0970785510010996   T   T   T
  0.0789582547157202  0.7983479671846028  0.0940282343434309   T   T   T
  0.3469683784385221  0.1647302155550549  0.0963119419279717   T   T   T
  0.4934277543948954  0.9197167159874429  0.0963285247766046   T   T   T
  0.3458789644455502  0.8370455500433537  0.0963837577264573   T   T   T
  0.7864937877095719  0.0861924707338790  0.0944791079112268   T   T   T
  0.6368928774917934  0.1682891391778872  0.0959913084832699   T   T   T
  0.7891423433591130  0.9195903512956785  0.0946216012389194   T   T   T
  0.8296140960636065  0.6484691414316518  0.0961184553800934   T   T   T
  0.8273745868274400  0.3571169043270353  0.0957451429788143   T   T   T
  0.6390618541094779  0.8373826004282237  0.0969880416357582   T   T   T
  0.3260448314091683  0.3311738871914134  0.1017423011854091   T   T   T
  0.3248217415142216  0.6719040532371031  0.0990322845251738   T   T   T
  0.6589341855122689  0.3364443559722539  0.0996559370986259   T   T   T
  0.6630585180186461  0.6684494158034222  0.1014027792951447   T   T   T
  0.4936869834408387  0.0859791503628430  0.0958198985786384   T   T   T
  0.9094102988697557  0.5018601773592305  0.0956843020654501   T   T   T
  0.1974317974912135  0.9161386925632916  0.0940503526567908   T   T   T
  0.4926276056063111  0.5012807119435141  0.1330047406006254   T   T   T
 
  0.00000000E+00  0.00000000E+00  0.00000000E+00
  0.00000000E+00  0.00000000E+00  0.00000000E+00
  0.00000000E+00  0.00000000E+00  0.00000000E+00
  0.00000000E+00  0.00000000E+00  0.00000000E+00
  0.00000000E+00  0.00000000E+00  0.00000000E+00
  0.00000000E+00  0.00000000E+00  0.00000000E+00
  0.00000000E+00  0.00000000E+00  0.00000000E+00
  0.00000000E+00  0.00000000E+00  0.00000000E+00
  0.00000000E+00  0.00000000E+00  0.00000000E+00
  0.00000000E+00  0.00000000E+00  0.00000000E+00
  0.00000000E+00  0.00000000E+00  0.00000000E+00
  0.00000000E+00  0.00000000E+00  0.00000000E+00
  0.00000000E+00  0.00000000E+00  0.00000000E+00
  0.00000000E+00  0.00000000E+00  0.00000000E+00
  0.00000000E+00  0.00000000E+00  0.00000000E+00
  0.00000000E+00  0.00000000E+00  0.00000000E+00
  0.00000000E+00  0.00000000E+00  0.00000000E+00
  0.00000000E+00  0.00000000E+00  0.00000000E+00
  0.00000000E+00  0.00000000E+00  0.00000000E+00
  0.00000000E+00  0.00000000E+00  0.00000000E+00
  0.00000000E+00  0.00000000E+00  0.00000000E+00
  0.00000000E+00  0.00000000E+00  0.00000000E+00
  0.00000000E+00  0.00000000E+00  0.00000000E+00
  0.00000000E+00  0.00000000E+00  0.00000000E+00
  0.00000000E+00  0.00000000E+00  0.00000000E+00
