Title                                   
   1.00000000000000     
     9.8694509999999998    0.0000000000000000    0.0000000000000000
     0.0000000000000000    8.5490480000000009    0.0000000000000000
     0.0000000000000000    0.0000000000000000   20.0000000000000000
    27     4     1
Selective dynamics
Direct
  0.0562337407839549  0.0917892250349831  0.0845745173615794   T   T   T
  0.9311307523646698  0.1747293685054120  0.0853417166679117   T   T   T
  0.0579315497938054  0.9243368717973153  0.0840833137361490   T   T   T
  0.9293982090395582  0.3423286280863190  0.0878895603846997   T   T   T
  0.0572935234848969  0.5908710490952497  0.0864207076449521   T   T   T
  0.9330515017573607  0.6739609037616396  0.0865909530374800   T   T   T
  0.0564955651388696  0.4233181927831959  0.0881558077737509   T   T   T
  0.9332856007942685  0.8405241548154442  0.0854014084062196   T   T   T
  0.3058920481207899  0.0881951306607039  0.0895974600248630   T   T   T
  0.1824774955696036  0.1733221842209229  0.0876174675696783   T   T   T
  0.1828186554069255  0.3400437361805512  0.0912444247943746   T   T   T
  0.3041425011718413  0.5900975789150521  0.1050795239564350   T   T   T
  0.1821659957350993  0.6741802878388978  0.0902773926745702   T   T   T
  0.3080808868780737  0.4217713929836549  0.1014505023307107   T   T   T
  0.1821550775430025  0.8411160855804559  0.0874391915717839   T   T   T
  0.5567842099261321  0.0841755219481790  0.0944992070159158   T   T   T
  0.5553726831434030  0.9205140771606420  0.1017851385348086   T   T   T
  0.4326074069719839  0.3314481463913307  0.1033040024804612   T   T   T
  0.4262967590298039  0.8409622329822509  0.1076849905300419   T   T   T
  0.8063380505648480  0.0893630421303100  0.0858873250590801   T   T   T
  0.6797927698338306  0.1693235133434768  0.0897822334671802   T   T   T
  0.8078883621077191  0.9241529872903277  0.0878754758210892   T   T   T
  0.6782451348430401  0.3348328874474900  0.0969629217082081   T   T   T
  0.8073827423831866  0.5945862926839928  0.0951064102965686   T   T   T
  0.8018683481514161  0.4250964332582546  0.0936297273433766   T   T   T
  0.6853684698206992  0.8395256958147452  0.0989087571313773   T   T   T
  0.4148324092485594  0.6848032025400255  0.1244702360858452   T   T   T
  0.5543406108060485  0.4001011007591621  0.1112152173047409   T   T   T
  0.6937726401497064  0.6815187738987669  0.1074233516330905   T   T   T
  0.3059451753676406  0.9255240939339878  0.0905540664810262   T   T   T
  0.4291156919792556  0.1665186575526829  0.0942522200890786   T   T   T
  0.5611344320900149  0.5872145506045804  0.1611697710829692   T   T   T
 
  0.00000000E+00  0.00000000E+00  0.00000000E+00
  0.00000000E+00  0.00000000E+00  0.00000000E+00
  0.00000000E+00  0.00000000E+00  0.00000000E+00
  0.00000000E+00  0.00000000E+00  0.00000000E+00
  0.00000000E+00  0.00000000E+00  0.00000000E+00
  0.00000000E+00  0.00000000E+00  0.00000000E+00
  0.00000000E+00  0.00000000E+00  0.00000000E+00
  0.00000000E+00  0.00000000E+00  0.00000000E+00
  0.00000000E+00  0.00000000E+00  0.00000000E+00
  0.00000000E+00  0.00000000E+00  0.00000000E+00
  0.00000000E+00  0.00000000E+00  0.00000000E+00
  0.00000000E+00  0.00000000E+00  0.00000000E+00
  0.00000000E+00  0.00000000E+00  0.00000000E+00
  0.00000000E+00  0.00000000E+00  0.00000000E+00
  0.00000000E+00  0.00000000E+00  0.00000000E+00
  0.00000000E+00  0.00000000E+00  0.00000000E+00
  0.00000000E+00  0.00000000E+00  0.00000000E+00
  0.00000000E+00  0.00000000E+00  0.00000000E+00
  0.00000000E+00  0.00000000E+00  0.00000000E+00
  0.00000000E+00  0.00000000E+00  0.00000000E+00
  0.00000000E+00  0.00000000E+00  0.00000000E+00
  0.00000000E+00  0.00000000E+00  0.00000000E+00
  0.00000000E+00  0.00000000E+00  0.00000000E+00
  0.00000000E+00  0.00000000E+00  0.00000000E+00
  0.00000000E+00  0.00000000E+00  0.00000000E+00
  0.00000000E+00  0.00000000E+00  0.00000000E+00
  0.00000000E+00  0.00000000E+00  0.00000000E+00
  0.00000000E+00  0.00000000E+00  0.00000000E+00
  0.00000000E+00  0.00000000E+00  0.00000000E+00
  0.00000000E+00  0.00000000E+00  0.00000000E+00
  0.00000000E+00  0.00000000E+00  0.00000000E+00
  0.00000000E+00  0.00000000E+00  0.00000000E+00
