Title                                   
   1.00000000000000     
     4.9440799999999996    0.0000000000000000    0.0000000000000000
     0.0000000000000000   17.1295089999999988    0.0000000000000000
     0.0000000000000000    0.0000000000000000   20.0000000000000000
    25     5     1
Selective dynamics
Direct
  0.0014262031187234  0.1057784707401947  0.2984990779060790   T   T   T
  0.2503070714088043  0.1487549179521864  0.2990993449461998   T   T   T
  0.2503413502650803  0.2339157207926681  0.3001874753186315   T   T   T
 -0.0031261945141819  0.2748928331692362  0.3004882371888098   T   T   T
 -0.0026739483903349  0.6001543397395184  0.3004069004136777   T   T   T
  0.2502769321383953  0.7261520584857872  0.2989896727909617   T   T   T
  0.0016816465406413  0.8527132753732766  0.2978065807802744   T   T   T
  0.2502125622435883  0.8950674341915494  0.2976162277536746   T   T   T
  0.2502050061999864  0.9793654262344088  0.2975723923688671   T   T   T
  0.0023806830877650  0.7682456447861080  0.2984810943347163   T   T   T
  0.4991769213119172  0.1057827343225788  0.2984979314706930   T   T   T
  0.7503130712887206  0.1476570692374380  0.2988751976512115   T   T   T
  0.7503504819301585  0.2309440356520790  0.2997583633401484   T   T   T
  0.4997177128069245  0.0215774407664590  0.2977487433496980   T   T   T
  0.7504471600708948  0.3950656697545081  0.3006183916224855   T   T   T
  0.7504326099783269  0.4812205751344991  0.3004717822572868   T   T   T
  0.5038616101063469  0.2748908149261943  0.3004966571701692   T   T   T
  0.5034309144639056  0.6001618419523057  0.3004178117968709   T   T   T
  0.7502950412651074  0.7272077909342590  0.2987465217155043   T   T   T
  0.4987460681255245  0.8527033255781560  0.2978057953960693   T   T   T
  0.7501917921472318  0.8948138157219674  0.2975626581155588   T   T   T
  0.7501975651622503  0.9790444651132293  0.2975143137413708   T   T   T
  0.4981504454294564  0.7682352358752099  0.2984836653684189   T   T   T
  0.7503684948328667  0.6449713692513068  0.2995779079857329   T   T   T
  0.0007143848734066  0.0215686582055592  0.2977495066358633   T   T   T
  0.5123112629661239  0.5218497540535458  0.3012661008804309   T   T   T
  0.9885400649727812  0.5218459085745712  0.3012511008903884   T   T   T
  0.5151596635479113  0.3548975388339280  0.3012708163573777   T   T   T
 -0.0142645608584694  0.3549024134361991  0.3012575424882709   T   T   T
  0.2503557639142135  0.6404368891783461  0.2999954171226212   T   T   T
  0.2504792195659354  0.4365245320327234  0.3065467708418885   T   T   T
 
  0.00000000E+00  0.00000000E+00  0.00000000E+00
  0.00000000E+00  0.00000000E+00  0.00000000E+00
  0.00000000E+00  0.00000000E+00  0.00000000E+00
  0.00000000E+00  0.00000000E+00  0.00000000E+00
  0.00000000E+00  0.00000000E+00  0.00000000E+00
  0.00000000E+00  0.00000000E+00  0.00000000E+00
  0.00000000E+00  0.00000000E+00  0.00000000E+00
  0.00000000E+00  0.00000000E+00  0.00000000E+00
  0.00000000E+00  0.00000000E+00  0.00000000E+00
  0.00000000E+00  0.00000000E+00  0.00000000E+00
  0.00000000E+00  0.00000000E+00  0.00000000E+00
  0.00000000E+00  0.00000000E+00  0.00000000E+00
  0.00000000E+00  0.00000000E+00  0.00000000E+00
  0.00000000E+00  0.00000000E+00  0.00000000E+00
  0.00000000E+00  0.00000000E+00  0.00000000E+00
  0.00000000E+00  0.00000000E+00  0.00000000E+00
  0.00000000E+00  0.00000000E+00  0.00000000E+00
  0.00000000E+00  0.00000000E+00  0.00000000E+00
  0.00000000E+00  0.00000000E+00  0.00000000E+00
  0.00000000E+00  0.00000000E+00  0.00000000E+00
  0.00000000E+00  0.00000000E+00  0.00000000E+00
  0.00000000E+00  0.00000000E+00  0.00000000E+00
  0.00000000E+00  0.00000000E+00  0.00000000E+00
  0.00000000E+00  0.00000000E+00  0.00000000E+00
  0.00000000E+00  0.00000000E+00  0.00000000E+00
  0.00000000E+00  0.00000000E+00  0.00000000E+00
  0.00000000E+00  0.00000000E+00  0.00000000E+00
  0.00000000E+00  0.00000000E+00  0.00000000E+00
  0.00000000E+00  0.00000000E+00  0.00000000E+00
  0.00000000E+00  0.00000000E+00  0.00000000E+00
  0.00000000E+00  0.00000000E+00  0.00000000E+00
