Title                                   
   1.00000000000000     
     4.9440799999999996    0.0000000000000000    0.0000000000000000
     0.0000000000000000    8.5647549999999999    0.0000000000000000
     0.0000000000000000    0.0000000000000000   20.0000000000000000
     9     5     1
Selective dynamics
Direct
 -0.0027906388418140  0.2949093403438771  0.0990971978463459   T   T   T
  0.2500000000000000  0.0394624034935030  0.0997960162612134   T   T   T
 -0.0021431679761982  0.9562064961479821  0.0994626683488502   T   T   T
  0.7500000000000000  0.2070338419531452  0.0974290240962831   T   T   T
  0.5027906388418141  0.2949093403438771  0.0990971978463459   T   T   T
  0.7500000000000000  0.0413307213699938  0.0976821863484599   T   T   T
  0.7500000000000000  0.7120302128620314  0.1004734030390470   T   T   T
  0.7500000000000000  0.5368047426828226  0.1005961995003078   T   T   T
  0.5021431679761980  0.9562064961479821  0.0994626683488502   T   T   T
  0.5110081318054800  0.4538363689189352  0.1015862131682331   T   T   T
 -0.0110081318054801  0.4538363689189352  0.1015862131682331   T   T   T
 -0.0116545228892108  0.7937776205716557  0.1018425397260642   T   T   T
  0.5116545228892108  0.7937776205716557  0.1018425397260642   T   T   T
  0.2500000000000000  0.2118888902824543  0.0995916280735968   T   T   T
  0.2500000000000000  0.6256705353911534  0.1084343045021085   T   T   T
 
  0.00000000E+00  0.00000000E+00  0.00000000E+00
  0.00000000E+00  0.00000000E+00  0.00000000E+00
  0.00000000E+00  0.00000000E+00  0.00000000E+00
  0.00000000E+00  0.00000000E+00  0.00000000E+00
  0.00000000E+00  0.00000000E+00  0.00000000E+00
  0.00000000E+00  0.00000000E+00  0.00000000E+00
  0.00000000E+00  0.00000000E+00  0.00000000E+00
  0.00000000E+00  0.00000000E+00  0.00000000E+00
  0.00000000E+00  0.00000000E+00  0.00000000E+00
  0.00000000E+00  0.00000000E+00  0.00000000E+00
  0.00000000E+00  0.00000000E+00  0.00000000E+00
  0.00000000E+00  0.00000000E+00  0.00000000E+00
  0.00000000E+00  0.00000000E+00  0.00000000E+00
  0.00000000E+00  0.00000000E+00  0.00000000E+00
  0.00000000E+00  0.00000000E+00  0.00000000E+00
