Title                                   
   1.00000000000000     
     9.8694509999999998    0.0000000000000000    0.0000000000000000
     0.0000000000000000    8.5490480000000009    0.0000000000000000
     0.0000000000000000    0.0000000000000000   20.0000000000000000
    26     4     1
Selective dynamics
Direct
  0.0558325118053687  0.0905363675393975  0.0882379570079300   T   T   T
  0.9309040759322458  0.1737483637253030  0.0917718437138969   T   T   T
  0.0581546906723104  0.9238079322106884  0.0890696013721395   T   T   T
  0.9325060401407093  0.3407642396934433  0.0900930915044860   T   T   T
  0.0565641645639391  0.5903154756724710  0.0841637318735901   T   T   T
  0.9338539934365894  0.6752340219838437  0.0899599912887743   T   T   T
  0.0559936540066744  0.4230859659517092  0.0831717598805514   T   T   T
  0.9324051781830681  0.8411883787486231  0.0912592733095095   T   T   T
  0.3059597034413057  0.0871136502677451  0.0925787835311586   T   T   T
  0.1803631079992322  0.1705639403414563  0.0867897056176033   T   T   T
  0.1792054106957281  0.3388270512913276  0.0840537624060184   T   T   T
  0.3029224765929545  0.5897111781327834  0.0916386352493012   T   T   T
  0.1805794313171307  0.6725120959709134  0.0865418528070148   T   T   T
  0.3030438587401194  0.4193170236426985  0.0897073437180166   T   T   T
  0.1811248776099654  0.8403802302304170  0.0896066326226345   T   T   T
  0.5547274935049678  0.0905337030317381  0.1063055381372057   T   T   T
  0.4275899105632097  0.1747224363079721  0.0997616981605714   T   T   T
  0.5542273150300918  0.9189491835044161  0.1044788939462530   T   T   T
  0.4280797456135955  0.8325259873997135  0.1012107885660239   T   T   T
  0.8059312679103137  0.0913542554215648  0.0988981768825273   T   T   T
  0.6825999456609696  0.1764320866561969  0.1093211339107747   T   T   T
  0.8073265283241688  0.9235813554525355  0.0974211802322359   T   T   T
  0.6922628947545797  0.3418136622056359  0.1192743468586076   T   T   T
  0.8110134989515598  0.5956997242629226  0.0997936029118630   T   T   T
  0.8106132527811366  0.4230346242888124  0.1029828568946533   T   T   T
  0.6846664525709272  0.8356182029286485  0.1034563306428185   T   T   T
  0.4195056275263898  0.3368525262319015  0.0987371433829007   T   T   T
  0.6933787485390417  0.6758441818352858  0.1060258167182409   T   T   T
  0.4204366654879277  0.6727413989172353  0.1038532908350041   T   T   T
  0.3062392055091196  0.9210653374564779  0.0939463160594043   T   T   T
  0.5551232721346721  0.5030004186961339  0.1268539199583265   T   T   T
 
  0.00000000E+00  0.00000000E+00  0.00000000E+00
  0.00000000E+00  0.00000000E+00  0.00000000E+00
  0.00000000E+00  0.00000000E+00  0.00000000E+00
  0.00000000E+00  0.00000000E+00  0.00000000E+00
  0.00000000E+00  0.00000000E+00  0.00000000E+00
  0.00000000E+00  0.00000000E+00  0.00000000E+00
  0.00000000E+00  0.00000000E+00  0.00000000E+00
  0.00000000E+00  0.00000000E+00  0.00000000E+00
  0.00000000E+00  0.00000000E+00  0.00000000E+00
  0.00000000E+00  0.00000000E+00  0.00000000E+00
  0.00000000E+00  0.00000000E+00  0.00000000E+00
  0.00000000E+00  0.00000000E+00  0.00000000E+00
  0.00000000E+00  0.00000000E+00  0.00000000E+00
  0.00000000E+00  0.00000000E+00  0.00000000E+00
  0.00000000E+00  0.00000000E+00  0.00000000E+00
  0.00000000E+00  0.00000000E+00  0.00000000E+00
  0.00000000E+00  0.00000000E+00  0.00000000E+00
  0.00000000E+00  0.00000000E+00  0.00000000E+00
  0.00000000E+00  0.00000000E+00  0.00000000E+00
  0.00000000E+00  0.00000000E+00  0.00000000E+00
  0.00000000E+00  0.00000000E+00  0.00000000E+00
  0.00000000E+00  0.00000000E+00  0.00000000E+00
  0.00000000E+00  0.00000000E+00  0.00000000E+00
  0.00000000E+00  0.00000000E+00  0.00000000E+00
  0.00000000E+00  0.00000000E+00  0.00000000E+00
  0.00000000E+00  0.00000000E+00  0.00000000E+00
  0.00000000E+00  0.00000000E+00  0.00000000E+00
  0.00000000E+00  0.00000000E+00  0.00000000E+00
  0.00000000E+00  0.00000000E+00  0.00000000E+00
  0.00000000E+00  0.00000000E+00  0.00000000E+00
  0.00000000E+00  0.00000000E+00  0.00000000E+00
