Title                                   
   1.00000000000000     
     4.9440799999999996    0.0000000000000000    0.0000000000000000
     0.0000000000000000   17.1295089999999988    0.0000000000000000
     0.0000000000000000    0.0000000000000000   20.0000000000000000
    29     1     1
Selective dynamics
Direct
 -0.0089959170016169  0.1055632396919118  0.2941794935529609   T   T   T
  0.2395379869661589  0.1478603624381796  0.2953980652562213   T   T   T
  0.2354693025815534  0.2315104107579035  0.2995122231729627   T   T   T
 -0.0175355632572135  0.2723564377831833  0.3041568692660714   T   T   T
  0.0170431215944753  0.6018131322987839  0.2973646627801418   T   T   T
  0.2592166114475006  0.7276601126027618  0.2954070518240382   T   T   T
  0.0030851175979957  0.8536104268230149  0.2924085315292116   T   T   T
  0.2516954437957161  0.8956620485432933  0.2924868166156906   T   T   T
  0.2469153323224036  0.9794841698456794  0.2924207284390284   T   T   T
  0.0076942888058994  0.7697221202578847  0.2933291001694400   T   T   T
  0.4907225928421216  0.1054935531105693  0.2933664762879341   T   T   T
  0.7392992922792785  0.1473480083425850  0.2944179594615530   T   T   T
  0.7334875093591243  0.2312385263276959  0.2975563540220455   T   T   T
  0.4953879018758429  0.0216134286118575  0.2923918794467091   T   T   T
  0.7494594108463166  0.3928298295592991  0.3082183171692155   T   T   T
  0.7662445770213230  0.4795857415678568  0.3100387941182566   T   T   T
  0.4827597346973567  0.2742719270158501  0.2983742139773224   T   T   T
  0.5150807298524553  0.6020039302597263  0.3058366352164398   T   T   T
  0.7596071703728849  0.7276411125408094  0.2946979508231397   T   T   T
  0.5033955405297681  0.8535654085109643  0.2929236328587966   T   T   T
  0.7518666436487712  0.8956861550676699  0.2922563956085419   T   T   T
  0.7470450822029322  0.9796444546208456  0.2921709653550061   T   T   T
  0.5081747984490314  0.7697225141454970  0.2945597500532685   T   T   T
  0.7640182537868467  0.6436009497416315  0.2979306674962908   T   T   T
  0.2640024295030374  0.6441776773007623  0.2995238433781311   T   T   T
 -0.0043710781157324  0.0216830672521247  0.2926756551097537   T   T   T
  0.5217833690006302  0.5206204745024517  0.3211152905797543   T   T   T
  0.0071895724078697  0.5181481016402188  0.2990993736829676   T   T   T
  0.5005810657324258  0.3579452613985823  0.3004788079202347   T   T   T
 -0.0219150633576133  0.3510335762815807  0.3161801835690011   T   T   T
  0.2520617422124597  0.4382458411588226  0.3345833112598233   T   T   T
 
  0.00000000E+00  0.00000000E+00  0.00000000E+00
  0.00000000E+00  0.00000000E+00  0.00000000E+00
  0.00000000E+00  0.00000000E+00  0.00000000E+00
  0.00000000E+00  0.00000000E+00  0.00000000E+00
  0.00000000E+00  0.00000000E+00  0.00000000E+00
  0.00000000E+00  0.00000000E+00  0.00000000E+00
  0.00000000E+00  0.00000000E+00  0.00000000E+00
  0.00000000E+00  0.00000000E+00  0.00000000E+00
  0.00000000E+00  0.00000000E+00  0.00000000E+00
  0.00000000E+00  0.00000000E+00  0.00000000E+00
  0.00000000E+00  0.00000000E+00  0.00000000E+00
  0.00000000E+00  0.00000000E+00  0.00000000E+00
  0.00000000E+00  0.00000000E+00  0.00000000E+00
  0.00000000E+00  0.00000000E+00  0.00000000E+00
  0.00000000E+00  0.00000000E+00  0.00000000E+00
  0.00000000E+00  0.00000000E+00  0.00000000E+00
  0.00000000E+00  0.00000000E+00  0.00000000E+00
  0.00000000E+00  0.00000000E+00  0.00000000E+00
  0.00000000E+00  0.00000000E+00  0.00000000E+00
  0.00000000E+00  0.00000000E+00  0.00000000E+00
  0.00000000E+00  0.00000000E+00  0.00000000E+00
  0.00000000E+00  0.00000000E+00  0.00000000E+00
  0.00000000E+00  0.00000000E+00  0.00000000E+00
  0.00000000E+00  0.00000000E+00  0.00000000E+00
  0.00000000E+00  0.00000000E+00  0.00000000E+00
  0.00000000E+00  0.00000000E+00  0.00000000E+00
  0.00000000E+00  0.00000000E+00  0.00000000E+00
  0.00000000E+00  0.00000000E+00  0.00000000E+00
  0.00000000E+00  0.00000000E+00  0.00000000E+00
  0.00000000E+00  0.00000000E+00  0.00000000E+00
  0.00000000E+00  0.00000000E+00  0.00000000E+00
