Title                                   
   1.00000000000000     
     4.9440799999999996    0.0000000000000000    0.0000000000000000
     0.0000000000000000    8.5647549999999999    0.0000000000000000
     0.0000000000000000    0.0000000000000000   20.0000000000000000
    12     2     1
Selective dynamics
Direct
  0.2500000000000000  0.2067970804464200  0.0951882236646519   T   T   T
  0.0022249685306766  0.2929504288605803  0.0961024506882372   T   T   T
  0.2500000000000000  0.0362935684699607  0.0947391079483534   T   T   T
 -0.0008795385432081  0.9540441888825568  0.0950502098856818   T   T   T
  0.7500000000000000  0.2087280352217537  0.0934055935589443   T   T   T
  0.4977750314693234  0.2929504288605803  0.0961024506882372   T   T   T
  0.7500000000000000  0.0398306348905899  0.0929720355790724   T   T   T
  0.7500000000000000  0.7144513156533788  0.0995082010143728   T   T   T
  0.7500000000000000  0.5435176541063093  0.1016075888924620   T   T   T
  0.5008795385432085  0.9540441888825568  0.0950502098856818   T   T   T
  0.5005500154376763  0.4607805925965988  0.1037509840832049   T   T   T
 -0.0005500154376760  0.4607805925965988  0.1037509840832049   T   T   T
 -0.0094686173792735  0.7910845595386031  0.0997805963124744   T   T   T
  0.5094686173792737  0.7910845595386031  0.0997805963124744   T   T   T
  0.2500000000000000  0.6243431714549124  0.1411907674029501   T   T   T
 
  0.00000000E+00  0.00000000E+00  0.00000000E+00
  0.00000000E+00  0.00000000E+00  0.00000000E+00
  0.00000000E+00  0.00000000E+00  0.00000000E+00
  0.00000000E+00  0.00000000E+00  0.00000000E+00
  0.00000000E+00  0.00000000E+00  0.00000000E+00
  0.00000000E+00  0.00000000E+00  0.00000000E+00
  0.00000000E+00  0.00000000E+00  0.00000000E+00
  0.00000000E+00  0.00000000E+00  0.00000000E+00
  0.00000000E+00  0.00000000E+00  0.00000000E+00
  0.00000000E+00  0.00000000E+00  0.00000000E+00
  0.00000000E+00  0.00000000E+00  0.00000000E+00
  0.00000000E+00  0.00000000E+00  0.00000000E+00
  0.00000000E+00  0.00000000E+00  0.00000000E+00
  0.00000000E+00  0.00000000E+00  0.00000000E+00
  0.00000000E+00  0.00000000E+00  0.00000000E+00
