Title                                   
   1.00000000000000     
     9.8694509999999998    0.0000000000000000    0.0000000000000000
     0.0000000000000000    8.5490480000000009    0.0000000000000000
     0.0000000000000000    0.0000000000000000   20.0000000000000000
    26     4     1
Selective dynamics
Direct
  0.0548063300682933  0.0896888760391727  0.0873006834124190   T   T   T
  0.9293587283745720  0.1742866418830211  0.0875696945713727   T   T   T
  0.0580427033862260  0.9232099635421975  0.0876599282379314   T   T   T
  0.9315855114975782  0.3419853366186946  0.0867017196940729   T   T   T
  0.0571144054755935  0.5900164517907459  0.0854051756250460   T   T   T
  0.9338897997584504  0.6753951916188150  0.0892210968332993   T   T   T
  0.0562918740730759  0.4231615892910984  0.0850486460546395   T   T   T
  0.9332070445256331  0.8423099154956351  0.0905784013354186   T   T   T
  0.3069168932286900  0.0857076178931253  0.0922072523997135   T   T   T
  0.1803515145015938  0.1693636549347059  0.0890376801160087   T   T   T
  0.1794248438427007  0.3358157477482517  0.0879292678469807   T   T   T
  0.3049888726311791  0.5840301290825493  0.0898578394864858   T   T   T
  0.1823579910654699  0.6719946557505801  0.0863207061821549   T   T   T
  0.3015104798766704  0.4163232527615063  0.0941393913960775   T   T   T
  0.1836438686413795  0.8383978692217763  0.0871401505143292   T   T   T
  0.4280086072379994  0.1719170228988978  0.1003668030966929   T   T   T
  0.5569427013511825  0.9214472413230455  0.1011683927426809   T   T   T
  0.4295638537097521  0.6675278349206261  0.0951427013671353   T   T   T
  0.4330650852611505  0.8349588293149867  0.0952057837718500   T   T   T
  0.8027898947137241  0.0923664550951945  0.0919077563249827   T   T   T
  0.6780062015348088  0.1803642223352674  0.0965516653146262   T   T   T
  0.8066753692507833  0.9247704197986543  0.0946109169923883   T   T   T
  0.6823407769856201  0.3475775924258147  0.0982190628655620   T   T   T
  0.8117465952908961  0.5951566193196133  0.0965293182147570   T   T   T
  0.8088107629650533  0.4276212748320494  0.0920249916123806   T   T   T
  0.6838019427829566  0.8382239626084610  0.1032636587668330   T   T   T
  0.5551197595670182  0.0926741335553520  0.1005746770750128   T   T   T
  0.4204255742650299  0.3327495081647180  0.1105154492243103   T   T   T
  0.6922348551435772  0.6751938820338380  0.1129712771828685   T   T   T
  0.3080447493158617  0.9202239716588966  0.0899525723007344   T   T   T
  0.5520674096774816  0.5064151360427337  0.1358423394412695   T   T   T
 
  0.00000000E+00  0.00000000E+00  0.00000000E+00
  0.00000000E+00  0.00000000E+00  0.00000000E+00
  0.00000000E+00  0.00000000E+00  0.00000000E+00
  0.00000000E+00  0.00000000E+00  0.00000000E+00
  0.00000000E+00  0.00000000E+00  0.00000000E+00
  0.00000000E+00  0.00000000E+00  0.00000000E+00
  0.00000000E+00  0.00000000E+00  0.00000000E+00
  0.00000000E+00  0.00000000E+00  0.00000000E+00
  0.00000000E+00  0.00000000E+00  0.00000000E+00
  0.00000000E+00  0.00000000E+00  0.00000000E+00
  0.00000000E+00  0.00000000E+00  0.00000000E+00
  0.00000000E+00  0.00000000E+00  0.00000000E+00
  0.00000000E+00  0.00000000E+00  0.00000000E+00
  0.00000000E+00  0.00000000E+00  0.00000000E+00
  0.00000000E+00  0.00000000E+00  0.00000000E+00
  0.00000000E+00  0.00000000E+00  0.00000000E+00
  0.00000000E+00  0.00000000E+00  0.00000000E+00
  0.00000000E+00  0.00000000E+00  0.00000000E+00
  0.00000000E+00  0.00000000E+00  0.00000000E+00
  0.00000000E+00  0.00000000E+00  0.00000000E+00
  0.00000000E+00  0.00000000E+00  0.00000000E+00
  0.00000000E+00  0.00000000E+00  0.00000000E+00
  0.00000000E+00  0.00000000E+00  0.00000000E+00
  0.00000000E+00  0.00000000E+00  0.00000000E+00
  0.00000000E+00  0.00000000E+00  0.00000000E+00
  0.00000000E+00  0.00000000E+00  0.00000000E+00
  0.00000000E+00  0.00000000E+00  0.00000000E+00
  0.00000000E+00  0.00000000E+00  0.00000000E+00
  0.00000000E+00  0.00000000E+00  0.00000000E+00
  0.00000000E+00  0.00000000E+00  0.00000000E+00
  0.00000000E+00  0.00000000E+00  0.00000000E+00
