Title                                   
   1.00000000000000     
     4.9440799999999996    0.0000000000000000    0.0000000000000000
     0.0000000000000000    8.5647549999999999    0.0000000000000000
     0.0000000000000000    0.0000000000000000   20.0000000000000000
    11     3     1
Selective dynamics
Direct
  0.0009141010422309  0.2919733512740568  0.1003995425811861   T   T   T
  0.2500000000000000  0.0372896724789335  0.1005295518513409   T   T   T
 -0.0014346181310288  0.9557593759234472  0.1005586308677206   T   T   T
  0.7500000000000000  0.2057042985786864  0.1003501518722255   T   T   T
  0.4990858989577688  0.2919733512740568  0.1003995425811861   T   T   T
  0.7500000000000000  0.0405591634397044  0.1003803404368442   T   T   T
  0.7500000000000000  0.7175601945740868  0.1008265536190783   T   T   T
  0.7500000000000000  0.5442289448015269  0.1007177277795238   T   T   T
  0.5014346181310286  0.9557593759234472  0.1005586308677206   T   T   T
  0.5100002922755497  0.4549387876505863  0.1004950533278074   T   T   T
 -0.0100002922755497  0.4549387876505863  0.1004950533278074   T   T   T
 -0.0129213784074879  0.7941328841964397  0.1007899475139188   T   T   T
  0.5129213784074880  0.7941328841964397  0.1007899475139188   T   T   T
  0.2500000000000000  0.2069390205390472  0.1003891648667671   T   T   T
  0.2500000000000000  0.6257909074989573  0.1003001609929578   T   T   T
 
  0.00000000E+00  0.00000000E+00  0.00000000E+00
  0.00000000E+00  0.00000000E+00  0.00000000E+00
  0.00000000E+00  0.00000000E+00  0.00000000E+00
  0.00000000E+00  0.00000000E+00  0.00000000E+00
  0.00000000E+00  0.00000000E+00  0.00000000E+00
  0.00000000E+00  0.00000000E+00  0.00000000E+00
  0.00000000E+00  0.00000000E+00  0.00000000E+00
  0.00000000E+00  0.00000000E+00  0.00000000E+00
  0.00000000E+00  0.00000000E+00  0.00000000E+00
  0.00000000E+00  0.00000000E+00  0.00000000E+00
  0.00000000E+00  0.00000000E+00  0.00000000E+00
  0.00000000E+00  0.00000000E+00  0.00000000E+00
  0.00000000E+00  0.00000000E+00  0.00000000E+00
  0.00000000E+00  0.00000000E+00  0.00000000E+00
  0.00000000E+00  0.00000000E+00  0.00000000E+00
