Title                                   
   1.00000000000000     
     4.9440799999999996    0.0000000000000000    0.0000000000000000
     0.0000000000000000   17.1295089999999988    0.0000000000000000
     0.0000000000000000    0.0000000000000000   20.0000000000000000
    27     3     1
Selective dynamics
Direct
 -0.0086689994526099  0.1052647108816716  0.2948032617944956   T   T   T
  0.2388448369280767  0.1479315814171316  0.2961067687055203   T   T   T
  0.2335311616676216  0.2319553048653637  0.3001699247637821   T   T   T
 -0.0186439378093747  0.2739974537060388  0.3043741563811600   T   T   T
  0.0175026427698292  0.6008128518038864  0.2991722438372010   T   T   T
  0.2611142375504387  0.7266194349705513  0.2953521211644524   T   T   T
  0.0054531017759387  0.8528324968436383  0.2930431868491425   T   T   T
  0.2528623722551144  0.8951932791906684  0.2930199125682761   T   T   T
  0.2477167629270284  0.9792750066686673  0.2931461244371745   T   T   T
  0.0105233118684143  0.7685218453057823  0.2938406298317144   T   T   T
  0.4908735024986848  0.1056059184315744  0.2939573809639339   T   T   T
  0.7402458507348866  0.1475203566654229  0.2946727909513630   T   T   T
  0.7345899288948016  0.2314398970615676  0.2972622202135748   T   T   T
  0.4959714956228786  0.0214756510988572  0.2930524647026379   T   T   T
  0.7388812936579505  0.3954550452854225  0.3070426925649293   T   T   T
  0.7585195644450023  0.4813694337554233  0.3061035052250601   T   T   T
  0.4826874142145830  0.2738120854517431  0.2982696082374615   T   T   T
  0.5178173140485882  0.6019870075014030  0.3006620934302255   T   T   T
  0.7605486437916479  0.7274449695240889  0.2937872405589738   T   T   T
  0.5031757675924385  0.8529557678363076  0.2929844587594425   T   T   T
  0.7526552722038136  0.8948012608516448  0.2927390982842301   T   T   T
  0.7476075494877820  0.9789917508416669  0.2928304980146101   T   T   T
  0.5081937423589484  0.7685039971872851  0.2938340498323358   T   T   T
  0.7665331883177883  0.6442434624522356  0.2960589036543626   T   T   T
 -0.0037880537064415  0.0212943290677893  0.2934484756943803   T   T   T
  0.0105644179302782  0.5183243152947593  0.3040067198384278   T   T   T
  0.4917743236079601  0.3569046535894874  0.2990647074115428   T   T   T
  0.5200529680323275  0.5236426054248581  0.3100862856474259   T   T   T
 -0.0244442642986293  0.3535260532502641  0.3175712050522904   T   T   T
  0.2658188338657798  0.6427450265610429  0.2986360904104782   T   T   T
  0.2614927562184561  0.4368944472137514  0.3459611802193467   T   T   T
 
  0.00000000E+00  0.00000000E+00  0.00000000E+00
  0.00000000E+00  0.00000000E+00  0.00000000E+00
  0.00000000E+00  0.00000000E+00  0.00000000E+00
  0.00000000E+00  0.00000000E+00  0.00000000E+00
  0.00000000E+00  0.00000000E+00  0.00000000E+00
  0.00000000E+00  0.00000000E+00  0.00000000E+00
  0.00000000E+00  0.00000000E+00  0.00000000E+00
  0.00000000E+00  0.00000000E+00  0.00000000E+00
  0.00000000E+00  0.00000000E+00  0.00000000E+00
  0.00000000E+00  0.00000000E+00  0.00000000E+00
  0.00000000E+00  0.00000000E+00  0.00000000E+00
  0.00000000E+00  0.00000000E+00  0.00000000E+00
  0.00000000E+00  0.00000000E+00  0.00000000E+00
  0.00000000E+00  0.00000000E+00  0.00000000E+00
  0.00000000E+00  0.00000000E+00  0.00000000E+00
  0.00000000E+00  0.00000000E+00  0.00000000E+00
  0.00000000E+00  0.00000000E+00  0.00000000E+00
  0.00000000E+00  0.00000000E+00  0.00000000E+00
  0.00000000E+00  0.00000000E+00  0.00000000E+00
  0.00000000E+00  0.00000000E+00  0.00000000E+00
  0.00000000E+00  0.00000000E+00  0.00000000E+00
  0.00000000E+00  0.00000000E+00  0.00000000E+00
  0.00000000E+00  0.00000000E+00  0.00000000E+00
  0.00000000E+00  0.00000000E+00  0.00000000E+00
  0.00000000E+00  0.00000000E+00  0.00000000E+00
  0.00000000E+00  0.00000000E+00  0.00000000E+00
  0.00000000E+00  0.00000000E+00  0.00000000E+00
  0.00000000E+00  0.00000000E+00  0.00000000E+00
  0.00000000E+00  0.00000000E+00  0.00000000E+00
  0.00000000E+00  0.00000000E+00  0.00000000E+00
  0.00000000E+00  0.00000000E+00  0.00000000E+00
