Title                                   
   1.00000000000000     
     9.8694509999999998    0.0000000000000000    0.0000000000000000
     0.0000000000000000    8.5490480000000009    0.0000000000000000
     0.0000000000000000    0.0000000000000000   20.0000000000000000
    29     2     1
Selective dynamics
Direct
  0.0562649063534925  0.0908146247528264  0.0871127474504032   T   T   T
  0.9314932472182195  0.1720431725663073  0.0886270872168091   T   T   T
  0.0567552817448875  0.9240544180346856  0.0870821738453371   T   T   T
  0.9320092635556968  0.3393821434302918  0.0905263209237151   T   T   T
  0.0570706130469589  0.5898993807132917  0.0872789574982434   T   T   T
  0.9325356376181911  0.6723720614230856  0.0905068184663908   T   T   T
  0.0577032172387012  0.4229088641004485  0.0883031999985530   T   T   T
  0.9317411700537537  0.8388581392811951  0.0892436707294808   T   T   T
  0.3058256464912117  0.0892112011511966  0.0906319876076041   T   T   T
  0.1818563632129882  0.1735815629452420  0.0885779542781988   T   T   T
  0.1833481214670280  0.3410644006463190  0.0899279372641136   T   T   T
  0.3041191176550163  0.5929142377202572  0.0970496866279701   T   T   T
  0.1807809206380086  0.6752297407583118  0.0884526629755450   T   T   T
  0.3078855966606329  0.4261489802122770  0.0967695271855393   T   T   T
  0.1804866450202844  0.8414634383392342  0.0884001639118501   T   T   T
  0.5556968943801545  0.0864986615979535  0.0959864040081828   T   T   T
  0.4309849027472590  0.1705489739877447  0.0951435908779450   T   T   T
  0.5532491878710827  0.9198062985329034  0.0982834744124415   T   T   T
  0.4320217895986548  0.3375806078143371  0.1021350724904974   T   T   T
  0.5582846854771949  0.4093494783629405  0.1147578387512733   T   T   T
  0.4257772199698481  0.8407102307799467  0.0990147290580811   T   T   T
  0.8067483142052810  0.0875256202980392  0.0905456674628080   T   T   T
  0.6816412751052353  0.1690332615218462  0.0955902413052960   T   T   T
  0.8063480987301560  0.9215602389021333  0.0916989703607293   T   T   T
  0.6832605803838727  0.3349077424162020  0.1027428546150785   T   T   T
  0.8094465406071697  0.5882112899766795  0.1001694319756198   T   T   T
  0.6913938429324741  0.6757136513474182  0.1129441332947820   T   T   T
  0.8082865622205861  0.4206445028550218  0.0982427664588023   T   T   T
  0.6815430263789554  0.8374010926469552  0.1004874794972658   T   T   T
  0.4174345581947445  0.6835271385678250  0.1095483150247707   T   T   T
  0.3044905350222962  0.9254631905331716  0.0909534431945469   T   T   T
  0.5531552381999700  0.5918176537838984  0.1569396912321711   T   T   T
 
  0.00000000E+00  0.00000000E+00  0.00000000E+00
  0.00000000E+00  0.00000000E+00  0.00000000E+00
  0.00000000E+00  0.00000000E+00  0.00000000E+00
  0.00000000E+00  0.00000000E+00  0.00000000E+00
  0.00000000E+00  0.00000000E+00  0.00000000E+00
  0.00000000E+00  0.00000000E+00  0.00000000E+00
  0.00000000E+00  0.00000000E+00  0.00000000E+00
  0.00000000E+00  0.00000000E+00  0.00000000E+00
  0.00000000E+00  0.00000000E+00  0.00000000E+00
  0.00000000E+00  0.00000000E+00  0.00000000E+00
  0.00000000E+00  0.00000000E+00  0.00000000E+00
  0.00000000E+00  0.00000000E+00  0.00000000E+00
  0.00000000E+00  0.00000000E+00  0.00000000E+00
  0.00000000E+00  0.00000000E+00  0.00000000E+00
  0.00000000E+00  0.00000000E+00  0.00000000E+00
  0.00000000E+00  0.00000000E+00  0.00000000E+00
  0.00000000E+00  0.00000000E+00  0.00000000E+00
  0.00000000E+00  0.00000000E+00  0.00000000E+00
  0.00000000E+00  0.00000000E+00  0.00000000E+00
  0.00000000E+00  0.00000000E+00  0.00000000E+00
  0.00000000E+00  0.00000000E+00  0.00000000E+00
  0.00000000E+00  0.00000000E+00  0.00000000E+00
  0.00000000E+00  0.00000000E+00  0.00000000E+00
  0.00000000E+00  0.00000000E+00  0.00000000E+00
  0.00000000E+00  0.00000000E+00  0.00000000E+00
  0.00000000E+00  0.00000000E+00  0.00000000E+00
  0.00000000E+00  0.00000000E+00  0.00000000E+00
  0.00000000E+00  0.00000000E+00  0.00000000E+00
  0.00000000E+00  0.00000000E+00  0.00000000E+00
  0.00000000E+00  0.00000000E+00  0.00000000E+00
  0.00000000E+00  0.00000000E+00  0.00000000E+00
  0.00000000E+00  0.00000000E+00  0.00000000E+00
