Title                                   
   1.00000000000000     
     9.8694509999999998    0.0000000000000000    0.0000000000000000
     0.0000000000000000    8.5490480000000009    0.0000000000000000
     0.0000000000000000    0.0000000000000000   20.0000000000000000
    27     3     1
Selective dynamics
Direct
  0.0562247713122800  0.0894407091676177  0.0865622308892770   T   T   T
  0.9315985746872382  0.1723558959582552  0.0868710806775502   T   T   T
  0.0571150079106428  0.9237361071994261  0.0869109764874598   T   T   T
  0.9352361420200920  0.3395611413736492  0.0846278758684426   T   T   T
  0.0564957005520497  0.5902976057699162  0.0819350661915517   T   T   T
  0.9341297335778431  0.6750622314044818  0.0848317118871347   T   T   T
  0.0575720067562544  0.4231545712398748  0.0819116425974008   T   T   T
  0.9326521982528178  0.8412508790360329  0.0874993599426719   T   T   T
  0.3055930449420100  0.0886895277670062  0.0963165267674853   T   T   T
  0.1803886238435510  0.1698561310339578  0.0893664146278447   T   T   T
  0.1792968881408598  0.3373564637999480  0.0879072948173102   T   T   T
  0.2980691322214170  0.5885335036670529  0.0980623471874382   T   T   T
  0.1786396695191095  0.6739368981599374  0.0880675403349927   T   T   T
  0.2983418444685957  0.4194636852173071  0.0977950765704960   T   T   T
  0.1817961847529725  0.8411553769863428  0.0895320344607829   T   T   T
  0.5559803619566509  0.0913861885568586  0.1035937765351487   T   T   T
  0.4287226525982323  0.1744167272130832  0.1036445113295746   T   T   T
  0.5556147586998067  0.9208332775486232  0.1033199856663252   T   T   T
  0.4175854437555921  0.6738808250036022  0.1081367924810646   T   T   T
  0.4277182383552267  0.8363397626499224  0.1034769324744885   T   T   T
  0.8065607234737285  0.0895526707429650  0.0928186586622904   T   T   T
  0.6830920660800894  0.1760064336000406  0.1001471619664835   T   T   T
  0.8065201702948932  0.9220322511120188  0.0931786960383987   T   T   T
  0.6936649259055319  0.3403087997252917  0.1022739767824630   T   T   T
  0.8139866142118797  0.5929516208064035  0.0920125602610615   T   T   T
  0.8140586186090333  0.4235392861499263  0.0917673642267153   T   T   T
  0.6826594370195448  0.8358414801407392  0.1001896554229663   T   T   T
  0.4175959745320198  0.3382711096305218  0.1079270001345490   T   T   T
  0.6945064846078456  0.6723894893263173  0.1025153709277416   T   T   T
  0.3051866161343086  0.9231570762034750  0.0958101785759009   T   T   T
  0.5565323908078861  0.5061172738094332  0.1119551992070235   T   T   T
 
  0.00000000E+00  0.00000000E+00  0.00000000E+00
  0.00000000E+00  0.00000000E+00  0.00000000E+00
  0.00000000E+00  0.00000000E+00  0.00000000E+00
  0.00000000E+00  0.00000000E+00  0.00000000E+00
  0.00000000E+00  0.00000000E+00  0.00000000E+00
  0.00000000E+00  0.00000000E+00  0.00000000E+00
  0.00000000E+00  0.00000000E+00  0.00000000E+00
  0.00000000E+00  0.00000000E+00  0.00000000E+00
  0.00000000E+00  0.00000000E+00  0.00000000E+00
  0.00000000E+00  0.00000000E+00  0.00000000E+00
  0.00000000E+00  0.00000000E+00  0.00000000E+00
  0.00000000E+00  0.00000000E+00  0.00000000E+00
  0.00000000E+00  0.00000000E+00  0.00000000E+00
  0.00000000E+00  0.00000000E+00  0.00000000E+00
  0.00000000E+00  0.00000000E+00  0.00000000E+00
  0.00000000E+00  0.00000000E+00  0.00000000E+00
  0.00000000E+00  0.00000000E+00  0.00000000E+00
  0.00000000E+00  0.00000000E+00  0.00000000E+00
  0.00000000E+00  0.00000000E+00  0.00000000E+00
  0.00000000E+00  0.00000000E+00  0.00000000E+00
  0.00000000E+00  0.00000000E+00  0.00000000E+00
  0.00000000E+00  0.00000000E+00  0.00000000E+00
  0.00000000E+00  0.00000000E+00  0.00000000E+00
  0.00000000E+00  0.00000000E+00  0.00000000E+00
  0.00000000E+00  0.00000000E+00  0.00000000E+00
  0.00000000E+00  0.00000000E+00  0.00000000E+00
  0.00000000E+00  0.00000000E+00  0.00000000E+00
  0.00000000E+00  0.00000000E+00  0.00000000E+00
  0.00000000E+00  0.00000000E+00  0.00000000E+00
  0.00000000E+00  0.00000000E+00  0.00000000E+00
  0.00000000E+00  0.00000000E+00  0.00000000E+00
