Title                                   
   1.00000000000000     
     9.8694509999999998    0.0000000000000000    0.0000000000000000
     0.0000000000000000    8.5490480000000009    0.0000000000000000
     0.0000000000000000    0.0000000000000000   20.0000000000000000
    25     5     1
Selective dynamics
Direct
  0.0550334619922247  0.0891805093636435  0.0883640713009207   T   T   T
  0.9298852790162531  0.1738789830471424  0.0874080568539704   T   T   T
  0.0575370912035622  0.9214310951113881  0.0887981265798988   T   T   T
  0.9320314580761984  0.3412647972107629  0.0871251320176463   T   T   T
  0.0560591575032756  0.5906827300297874  0.0887352601718977   T   T   T
  0.0558301147403159  0.4240598627919130  0.0881122797617877   T   T   T
  0.9325762960078775  0.8403136196811863  0.0900289300057193   T   T   T
  0.3067815938965546  0.0870483816862697  0.0937717319566170   T   T   T
  0.1800877750193753  0.1698834182767269  0.0911099909847771   T   T   T
  0.1798631716893461  0.3373805902294244  0.0914031329409448   T   T   T
  0.3040111193689110  0.5855782232057640  0.0957412380248241   T   T   T
  0.1804583323303128  0.6723820449855332  0.0907480251379257   T   T   T
  0.3026897463800074  0.4170944537514155  0.0986403524934838   T   T   T
  0.1831569586429774  0.8392924768766128  0.0901016308101295   T   T   T
  0.4288462970549486  0.1735100684461765  0.1002493238548330   T   T   T
  0.5567468114652122  0.9216378617839027  0.0987074860614674   T   T   T
  0.4273509630117716  0.6699701266575449  0.1002032854573661   T   T   T
  0.4308841155799837  0.8346563912871167  0.0974551269550698   T   T   T
  0.8040928139840873  0.0906370362784137  0.0898152601826527   T   T   T
  0.6794384155636309  0.1794904348326826  0.0926521620344759   T   T   T
  0.8069515479720974  0.9232051641835983  0.0920096642509615   T   T   T
  0.6827250506767646  0.3451314967933877  0.0919111941793301   T   T   T
  0.8104340082382954  0.5956741178357328  0.0935187749217291   T   T   T
  0.8084394686603940  0.4260792643405492  0.0892998285501418   T   T   T
  0.6823352174200764  0.8387959889880825  0.0980931975095818   T   T   T
  0.9328187011653468  0.6741349417185736  0.0894128283216220   T   T   T
  0.5552280560525666  0.0933871089368521  0.0981484788171034   T   T   T
  0.4231734955504569  0.3344260863668757  0.1100874952650007   T   T   T
  0.6918961556126461  0.6749916174242832  0.1041515843564281   T   T   T
  0.3065266092786396  0.9213689374931395  0.0922974244315382   T   T   T
  0.5592457168458923  0.5043071703855455  0.1328639258101891   T   T   T
 
  0.00000000E+00  0.00000000E+00  0.00000000E+00
  0.00000000E+00  0.00000000E+00  0.00000000E+00
  0.00000000E+00  0.00000000E+00  0.00000000E+00
  0.00000000E+00  0.00000000E+00  0.00000000E+00
  0.00000000E+00  0.00000000E+00  0.00000000E+00
  0.00000000E+00  0.00000000E+00  0.00000000E+00
  0.00000000E+00  0.00000000E+00  0.00000000E+00
  0.00000000E+00  0.00000000E+00  0.00000000E+00
  0.00000000E+00  0.00000000E+00  0.00000000E+00
  0.00000000E+00  0.00000000E+00  0.00000000E+00
  0.00000000E+00  0.00000000E+00  0.00000000E+00
  0.00000000E+00  0.00000000E+00  0.00000000E+00
  0.00000000E+00  0.00000000E+00  0.00000000E+00
  0.00000000E+00  0.00000000E+00  0.00000000E+00
  0.00000000E+00  0.00000000E+00  0.00000000E+00
  0.00000000E+00  0.00000000E+00  0.00000000E+00
  0.00000000E+00  0.00000000E+00  0.00000000E+00
  0.00000000E+00  0.00000000E+00  0.00000000E+00
  0.00000000E+00  0.00000000E+00  0.00000000E+00
  0.00000000E+00  0.00000000E+00  0.00000000E+00
  0.00000000E+00  0.00000000E+00  0.00000000E+00
  0.00000000E+00  0.00000000E+00  0.00000000E+00
  0.00000000E+00  0.00000000E+00  0.00000000E+00
  0.00000000E+00  0.00000000E+00  0.00000000E+00
  0.00000000E+00  0.00000000E+00  0.00000000E+00
  0.00000000E+00  0.00000000E+00  0.00000000E+00
  0.00000000E+00  0.00000000E+00  0.00000000E+00
  0.00000000E+00  0.00000000E+00  0.00000000E+00
  0.00000000E+00  0.00000000E+00  0.00000000E+00
  0.00000000E+00  0.00000000E+00  0.00000000E+00
  0.00000000E+00  0.00000000E+00  0.00000000E+00
