Title                                   
   1.00000000000000     
     9.8694509999999998    0.0000000000000000    0.0000000000000000
     0.0000000000000000    8.5490480000000009    0.0000000000000000
     0.0000000000000000    0.0000000000000000   20.0000000000000000
    28     3     1
Selective dynamics
Direct
  0.0558748885527028  0.0894566348896935  0.0848763522819859   T   T   T
  0.9314005389327445  0.1729739271330295  0.0852925204497482   T   T   T
  0.0570824255456232  0.9220975329192731  0.0858981631011378   T   T   T
  0.9310548729902720  0.3403500093655058  0.0872938074826908   T   T   T
  0.0561138991169698  0.5915719995986893  0.0880054676126377   T   T   T
  0.0560525894589014  0.4241545912585070  0.0871667093911258   T   T   T
  0.9323773606301896  0.8378842738495718  0.0879996173411362   T   T   T
  0.3057254502071676  0.0892095261678470  0.0894377472956200   T   T   T
  0.1820203643528449  0.1724787397983765  0.0869125282436529   T   T   T
  0.1814595998268218  0.3405188642909145  0.0888795691665502   T   T   T
  0.3037405062665223  0.5885623973849289  0.1011126134060629   T   T   T
  0.1809315395142257  0.6744326637529208  0.0912306844369734   T   T   T
  0.3059367970300106  0.4215642896023818  0.0978391296202022   T   T   T
  0.1824693671633452  0.8412329965040388  0.0890072222033224   T   T   T
  0.5557787919877398  0.0883811465172840  0.0929509837725501   T   T   T
  0.5545191241692289  0.9234491447629364  0.0987099299705251   T   T   T
  0.4303823332971088  0.3339854676460678  0.1021552410407974   T   T   T
  0.4280300088945144  0.8409008924974766  0.1031861470345071   T   T   T
  0.8068537030908413  0.0882974202979186  0.0870809250049383   T   T   T
  0.6806762558705378  0.1715124573896755  0.0910683092065569   T   T   T
  0.8068938294496915  0.9220360439920184  0.0898306189976472   T   T   T
  0.6827899033891648  0.3374516682237796  0.0989420114842477   T   T   T
  0.8094652781912106  0.5918167854443865  0.0997746709062521   T   T   T
  0.8074420469545912  0.4233060088315074  0.0952773305042731   T   T   T
  0.6818246668718160  0.8417813939679609  0.0998701888794174   T   T   T
  0.4210178592702199  0.6798894231474701  0.1158426180176401   T   T   T
  0.5557217703657309  0.4083035974019405  0.1135790962014303   T   T   T
  0.6911972165274908  0.6786969788228981  0.1134270804498687   T   T   T
  0.3054413664525200  0.9248923570171734  0.0912204957745638   T   T   T
  0.4291131226520408  0.1686744825009961  0.0932599538972286   T   T   T
  0.9327318224376167  0.6730705959159825  0.0897195517338731   T   T   T
  0.5575197005396022  0.5873116891068511  0.1588277150908527   T   T   T
 
  0.00000000E+00  0.00000000E+00  0.00000000E+00
  0.00000000E+00  0.00000000E+00  0.00000000E+00
  0.00000000E+00  0.00000000E+00  0.00000000E+00
  0.00000000E+00  0.00000000E+00  0.00000000E+00
  0.00000000E+00  0.00000000E+00  0.00000000E+00
  0.00000000E+00  0.00000000E+00  0.00000000E+00
  0.00000000E+00  0.00000000E+00  0.00000000E+00
  0.00000000E+00  0.00000000E+00  0.00000000E+00
  0.00000000E+00  0.00000000E+00  0.00000000E+00
  0.00000000E+00  0.00000000E+00  0.00000000E+00
  0.00000000E+00  0.00000000E+00  0.00000000E+00
  0.00000000E+00  0.00000000E+00  0.00000000E+00
  0.00000000E+00  0.00000000E+00  0.00000000E+00
  0.00000000E+00  0.00000000E+00  0.00000000E+00
  0.00000000E+00  0.00000000E+00  0.00000000E+00
  0.00000000E+00  0.00000000E+00  0.00000000E+00
  0.00000000E+00  0.00000000E+00  0.00000000E+00
  0.00000000E+00  0.00000000E+00  0.00000000E+00
  0.00000000E+00  0.00000000E+00  0.00000000E+00
  0.00000000E+00  0.00000000E+00  0.00000000E+00
  0.00000000E+00  0.00000000E+00  0.00000000E+00
  0.00000000E+00  0.00000000E+00  0.00000000E+00
  0.00000000E+00  0.00000000E+00  0.00000000E+00
  0.00000000E+00  0.00000000E+00  0.00000000E+00
  0.00000000E+00  0.00000000E+00  0.00000000E+00
  0.00000000E+00  0.00000000E+00  0.00000000E+00
  0.00000000E+00  0.00000000E+00  0.00000000E+00
  0.00000000E+00  0.00000000E+00  0.00000000E+00
  0.00000000E+00  0.00000000E+00  0.00000000E+00
  0.00000000E+00  0.00000000E+00  0.00000000E+00
  0.00000000E+00  0.00000000E+00  0.00000000E+00
  0.00000000E+00  0.00000000E+00  0.00000000E+00
