Title                                   
   1.00000000000000     
     9.8694509999999998    0.0000000000000000    0.0000000000000000
     0.0000000000000000    8.5490480000000009    0.0000000000000000
     0.0000000000000000    0.0000000000000000   20.0000000000000000
    25     5     1
Selective dynamics
Direct
  0.0554314939716813  0.0900679232059662  0.0959402418853639   T   T   T
  0.9299905211990489  0.1724644614254748  0.0962326745211443   T   T   T
  0.0571815436820304  0.9241509015929499  0.0959354932671701   T   T   T
  0.9328561111509127  0.3401247350593647  0.0960205675787878   T   T   T
  0.0572666054216009  0.5898884623441214  0.0954616138078520   T   T   T
  0.9333858025499996  0.6743046470621281  0.0959250836295951   T   T   T
  0.0576478131709397  0.4229800496863823  0.0955228016192650   T   T   T
  0.9319125093486734  0.8409714864229876  0.0961524519330516   T   T   T
  0.3076462048945228  0.0885383616914306  0.0967628929847909   T   T   T
  0.1820892577510460  0.1718632572252056  0.0960743168202589   T   T   T
  0.1819416772684441  0.3386209259080051  0.0958630960389376   T   T   T
  0.3048662811677345  0.5897974967762813  0.0967072350112021   T   T   T
  0.1812619533902637  0.6740303076046144  0.0958437779281095   T   T   T
  0.3056967997095050  0.4218030265746076  0.0966406897119668   T   T   T
  0.1817984340404550  0.8401793709592369  0.0961195116203625   T   T   T
  0.4314594086935057  0.1771019557798790  0.0974906642515570   T   T   T
  0.5540756381316808  0.9179608552024949  0.0978828670603743   T   T   T
  0.4292397470914579  0.8336810492003385  0.0976405958401388   T   T   T
  0.8030408373608450  0.0895094661460274  0.0968561840349389   T   T   T
  0.6786431883974432  0.1789813748829619  0.0975062122722299   T   T   T
  0.8049670263174161  0.9218066146379011  0.0968321332571051   T   T   T
  0.6826352717113824  0.3448007176418794  0.0976702928275042   T   T   T
  0.8104624555454912  0.5922460465209608  0.0968117046355922   T   T   T
  0.8095147943111325  0.4240038013849087  0.0967830853301369   T   T   T
  0.6807974338941498  0.8315249103989374  0.0976148203752442   T   T   T
  0.5545881282770977  0.0919961804069091  0.0978914987947996   T   T   T
  0.4286321485968158  0.3397438623016020  0.0977164168520291   T   T   T
  0.6870840865592404  0.6683716683082852  0.0978798727311560   T   T   T
  0.4245915249055442  0.6729052291392468  0.0979640693330099   T   T   T
  0.3065677173878345  0.9228370942531071  0.0968325534194125   T   T   T
  0.5558625841021133  0.5036187602558146  0.0983895806269495   T   T   T
 
  0.00000000E+00  0.00000000E+00  0.00000000E+00
  0.00000000E+00  0.00000000E+00  0.00000000E+00
  0.00000000E+00  0.00000000E+00  0.00000000E+00
  0.00000000E+00  0.00000000E+00  0.00000000E+00
  0.00000000E+00  0.00000000E+00  0.00000000E+00
  0.00000000E+00  0.00000000E+00  0.00000000E+00
  0.00000000E+00  0.00000000E+00  0.00000000E+00
  0.00000000E+00  0.00000000E+00  0.00000000E+00
  0.00000000E+00  0.00000000E+00  0.00000000E+00
  0.00000000E+00  0.00000000E+00  0.00000000E+00
  0.00000000E+00  0.00000000E+00  0.00000000E+00
  0.00000000E+00  0.00000000E+00  0.00000000E+00
  0.00000000E+00  0.00000000E+00  0.00000000E+00
  0.00000000E+00  0.00000000E+00  0.00000000E+00
  0.00000000E+00  0.00000000E+00  0.00000000E+00
  0.00000000E+00  0.00000000E+00  0.00000000E+00
  0.00000000E+00  0.00000000E+00  0.00000000E+00
  0.00000000E+00  0.00000000E+00  0.00000000E+00
  0.00000000E+00  0.00000000E+00  0.00000000E+00
  0.00000000E+00  0.00000000E+00  0.00000000E+00
  0.00000000E+00  0.00000000E+00  0.00000000E+00
  0.00000000E+00  0.00000000E+00  0.00000000E+00
  0.00000000E+00  0.00000000E+00  0.00000000E+00
  0.00000000E+00  0.00000000E+00  0.00000000E+00
  0.00000000E+00  0.00000000E+00  0.00000000E+00
  0.00000000E+00  0.00000000E+00  0.00000000E+00
  0.00000000E+00  0.00000000E+00  0.00000000E+00
  0.00000000E+00  0.00000000E+00  0.00000000E+00
  0.00000000E+00  0.00000000E+00  0.00000000E+00
  0.00000000E+00  0.00000000E+00  0.00000000E+00
  0.00000000E+00  0.00000000E+00  0.00000000E+00
