Title                                   
   1.00000000000000     
     9.8694509999999998    0.0000000000000000    0.0000000000000000
     0.0000000000000000    8.5490480000000009    0.0000000000000000
     0.0000000000000000    0.0000000000000000   20.0000000000000000
    25     6     1
Selective dynamics
Direct
  0.0559089031293625  0.0909359118801059  0.0882579869845442   T   T   T
  0.9314945264179793  0.1745717386034821  0.0892583590227208   T   T   T
  0.0575156331030985  0.9230154433722190  0.0883185084085161   T   T   T
  0.9305912135198835  0.3413416347555767  0.0912504201273869   T   T   T
  0.0566846597774167  0.5912133407739446  0.0895119338233182   T   T   T
  0.0562949473949775  0.4236385893225267  0.0903147275925825   T   T   T
  0.9327648761030093  0.8400497602508791  0.0908168074266433   T   T   T
  0.3062132495490277  0.0891009354385213  0.0891190917781163   T   T   T
  0.1823438335027981  0.1735749674726364  0.0891553150084755   T   T   T
  0.1823171321924747  0.3405618265313017  0.0906641135205725   T   T   T
  0.3049497617395399  0.5913550904528062  0.0946926395132543   T   T   T
  0.1799389615121824  0.6741237547898932  0.0894326860116244   T   T   T
  0.3107510634560654  0.4224393092428333  0.0945705029156673   T   T   T
  0.1816883333968222  0.8419568724203735  0.0883635445721289   T   T   T
  0.5562423544960267  0.0857505211780679  0.0938635375812503   T   T   T
  0.5554720256489815  0.9179942386471546  0.0964241021446648   T   T   T
  0.4323460561377246  0.3321390854281579  0.0981379021137452   T   T   T
  0.4267291065771796  0.8393846803564792  0.0948897938560794   T   T   T
  0.8068241878253574  0.0887711383889010  0.0898861899913252   T   T   T
  0.6806133026152723  0.1698273967444468  0.0923962488957906   T   T   T
  0.8086222937076782  0.9228501240908016  0.0920735055112075   T   T   T
  0.6800608877800008  0.3361561188023085  0.0983682636880782   T   T   T
  0.8094882827014703  0.5938306796586039  0.0996316708222323   T   T   T
  0.8034309206548325  0.4257921987650999  0.0969137101182758   T   T   T
  0.6839862630180421  0.8391467062385338  0.0991228439937726   T   T   T
  0.4192557217018503  0.6824766795221612  0.1026668702368579   T   T   T
  0.5545224658020780  0.4028510808498393  0.1104006589054058   T   T   T
  0.6956928384821784  0.6798475461586840  0.1120586120361090   T   T   T
  0.3062371130268852  0.9254931105441409  0.0886673502790007   T   T   T
  0.4302444294960923  0.1669316079897534  0.0923922178477366   T   T   T
  0.9325165390074419  0.6724141240469353  0.0913994277957558   T   T   T
  0.5478971165262789  0.5907097872828333  0.1726554574771773   T   T   T
 
  0.00000000E+00  0.00000000E+00  0.00000000E+00
  0.00000000E+00  0.00000000E+00  0.00000000E+00
  0.00000000E+00  0.00000000E+00  0.00000000E+00
  0.00000000E+00  0.00000000E+00  0.00000000E+00
  0.00000000E+00  0.00000000E+00  0.00000000E+00
  0.00000000E+00  0.00000000E+00  0.00000000E+00
  0.00000000E+00  0.00000000E+00  0.00000000E+00
  0.00000000E+00  0.00000000E+00  0.00000000E+00
  0.00000000E+00  0.00000000E+00  0.00000000E+00
  0.00000000E+00  0.00000000E+00  0.00000000E+00
  0.00000000E+00  0.00000000E+00  0.00000000E+00
  0.00000000E+00  0.00000000E+00  0.00000000E+00
  0.00000000E+00  0.00000000E+00  0.00000000E+00
  0.00000000E+00  0.00000000E+00  0.00000000E+00
  0.00000000E+00  0.00000000E+00  0.00000000E+00
  0.00000000E+00  0.00000000E+00  0.00000000E+00
  0.00000000E+00  0.00000000E+00  0.00000000E+00
  0.00000000E+00  0.00000000E+00  0.00000000E+00
  0.00000000E+00  0.00000000E+00  0.00000000E+00
  0.00000000E+00  0.00000000E+00  0.00000000E+00
  0.00000000E+00  0.00000000E+00  0.00000000E+00
  0.00000000E+00  0.00000000E+00  0.00000000E+00
  0.00000000E+00  0.00000000E+00  0.00000000E+00
  0.00000000E+00  0.00000000E+00  0.00000000E+00
  0.00000000E+00  0.00000000E+00  0.00000000E+00
  0.00000000E+00  0.00000000E+00  0.00000000E+00
  0.00000000E+00  0.00000000E+00  0.00000000E+00
  0.00000000E+00  0.00000000E+00  0.00000000E+00
  0.00000000E+00  0.00000000E+00  0.00000000E+00
  0.00000000E+00  0.00000000E+00  0.00000000E+00
  0.00000000E+00  0.00000000E+00  0.00000000E+00
  0.00000000E+00  0.00000000E+00  0.00000000E+00
