Title                                   
   1.00000000000000     
     4.9440799999999996    0.0000000000000000    0.0000000000000000
     0.0000000000000000    8.5647549999999999    0.0000000000000000
     0.0000000000000000    0.0000000000000000   20.0000000000000000
    13     1     1
Selective dynamics
Direct
  0.2483985973257252  0.2069804166455035  0.0962024491864066   T   T   T
 -0.0030988416530566  0.2934705714347668  0.0988561300866399   T   T   T
  0.2549829602699972  0.0395873581486083  0.0956500395614426   T   T   T
  0.0078964868357733  0.9536648314193968  0.0954667608229079   T   T   T
  0.7486793452244159  0.2091355412605509  0.0935074864649335   T   T   T
  0.4946883706635694  0.2928405630530576  0.0943837605308971   T   T   T
  0.7564765428067445  0.0402897139017580  0.0930571218941770   T   T   T
  0.7484731058026027  0.7135006733806475  0.0993000644603486   T   T   T
  0.7379959844974848  0.5414857705499703  0.1013314180052596   T   T   T
  0.5085364910520304  0.9561766295733923  0.0956358394399829   T   T   T
  0.4931804981908171  0.4603842463080074  0.0962230339520177   T   T   T
 -0.0121868664910684  0.4585316206873939  0.1104427560636172   T   T   T
 -0.0001053223031116  0.7864880514116848  0.0990202260354729   T   T   T
  0.5130394696908238  0.7962244311359483  0.1007885294064473   T   T   T
  0.2530431780872524  0.6229205810893156  0.1381143840894524   T   T   T
 
  0.00000000E+00  0.00000000E+00  0.00000000E+00
  0.00000000E+00  0.00000000E+00  0.00000000E+00
  0.00000000E+00  0.00000000E+00  0.00000000E+00
  0.00000000E+00  0.00000000E+00  0.00000000E+00
  0.00000000E+00  0.00000000E+00  0.00000000E+00
  0.00000000E+00  0.00000000E+00  0.00000000E+00
  0.00000000E+00  0.00000000E+00  0.00000000E+00
  0.00000000E+00  0.00000000E+00  0.00000000E+00
  0.00000000E+00  0.00000000E+00  0.00000000E+00
  0.00000000E+00  0.00000000E+00  0.00000000E+00
  0.00000000E+00  0.00000000E+00  0.00000000E+00
  0.00000000E+00  0.00000000E+00  0.00000000E+00
  0.00000000E+00  0.00000000E+00  0.00000000E+00
  0.00000000E+00  0.00000000E+00  0.00000000E+00
  0.00000000E+00  0.00000000E+00  0.00000000E+00
