Title                                   
   1.00000000000000     
     8.5490480000000009    0.0000000000000000    0.0000000000000000
     0.0000000000000000    8.5490480000000009    0.0000000000000000
     0.0000000000000000    0.0000000000000000   20.0000000000000000
    20     4     1
Selective dynamics
Direct
  0.9087520802131045  0.2060739251690287  0.0954602669951977   T   T   T
  0.9068747132491848  0.5018130610083297  0.0953128134378159   T   T   T
  0.9087701165230826  0.7975212480911741  0.0954748006436961   T   T   T
  0.1973003072804226  0.0860156148075527  0.0954866130144581   T   T   T
  0.0772617328369859  0.2060416728128353  0.0954747914629783   T   T   T
  0.1973303298039483  0.9175173200599545  0.0954962652488275   T   T   T
  0.1594519758815681  0.6494151322896724  0.0953392234213082   T   T   T
  0.0791893828629778  0.5017846893126932  0.0953322127041429   T   T   T
  0.1594260424365259  0.3541321718632319  0.0953288251215806   T   T   T
  0.0772927573911516  0.7974981317105185  0.0954810644500686   T   T   T
  0.4929923693643914  0.0879449716308609  0.0953559004096232   T   T   T
  0.3453750862885462  0.1681969467181843  0.0953533987013131   T   T   T
  0.4929932124900023  0.9156526564377164  0.0953638977143391   T   T   T
  0.3453944829018742  0.8353553441782293  0.0953618029619005   T   T   T
  0.7887032174097616  0.0860631202966078  0.0954763062612465   T   T   T
  0.6406154780285745  0.1682435851193225  0.0953241824956420   T   T   T
  0.7887183107991972  0.9175531358311070  0.0954814117689771   T   T   T
  0.8266009679320332  0.6494493362869045  0.0953173157467940   T   T   T
  0.8266007322150197  0.3541755664219754  0.0953009621962205   T   T   T
  0.6406275642034376  0.8353851322668457  0.0953374019277468   T   T   T
  0.3227133187400107  0.3314531985753835  0.0951899211699056   T   T   T
  0.3227450395627458  0.6720910256051541  0.0952023037378958   T   T   T
  0.6633144737034795  0.3314983904877799  0.0951615627964751   T   T   T
  0.6633199221030800  0.6721177966436949  0.0951766784085348   T   T   T
  0.4930483857788868  0.5017968263752552  0.0951150772032900   T   T   T
 
  0.00000000E+00  0.00000000E+00  0.00000000E+00
  0.00000000E+00  0.00000000E+00  0.00000000E+00
  0.00000000E+00  0.00000000E+00  0.00000000E+00
  0.00000000E+00  0.00000000E+00  0.00000000E+00
  0.00000000E+00  0.00000000E+00  0.00000000E+00
  0.00000000E+00  0.00000000E+00  0.00000000E+00
  0.00000000E+00  0.00000000E+00  0.00000000E+00
  0.00000000E+00  0.00000000E+00  0.00000000E+00
  0.00000000E+00  0.00000000E+00  0.00000000E+00
  0.00000000E+00  0.00000000E+00  0.00000000E+00
  0.00000000E+00  0.00000000E+00  0.00000000E+00
  0.00000000E+00  0.00000000E+00  0.00000000E+00
  0.00000000E+00  0.00000000E+00  0.00000000E+00
  0.00000000E+00  0.00000000E+00  0.00000000E+00
  0.00000000E+00  0.00000000E+00  0.00000000E+00
  0.00000000E+00  0.00000000E+00  0.00000000E+00
  0.00000000E+00  0.00000000E+00  0.00000000E+00
  0.00000000E+00  0.00000000E+00  0.00000000E+00
  0.00000000E+00  0.00000000E+00  0.00000000E+00
  0.00000000E+00  0.00000000E+00  0.00000000E+00
  0.00000000E+00  0.00000000E+00  0.00000000E+00
  0.00000000E+00  0.00000000E+00  0.00000000E+00
  0.00000000E+00  0.00000000E+00  0.00000000E+00
  0.00000000E+00  0.00000000E+00  0.00000000E+00
  0.00000000E+00  0.00000000E+00  0.00000000E+00
