Title                                   
   1.00000000000000     
     9.8694509999999998    0.0000000000000000    0.0000000000000000
     0.0000000000000000    8.5490480000000009    0.0000000000000000
     0.0000000000000000    0.0000000000000000   20.0000000000000000
    27     4     1
Selective dynamics
Direct
  0.0567518203527434  0.0912434619121303  0.0857391680325162   T   T   T
  0.9317590278865013  0.1754047224212288  0.0863445788659983   T   T   T
  0.0585010192834024  0.9233369727393970  0.0846580991553624   T   T   T
  0.9300586543047475  0.3434509193647016  0.0869086758312318   T   T   T
  0.0566183618178842  0.5921451664984942  0.0884427174121265   T   T   T
  0.0558644181591904  0.4252280800333371  0.0884795242177649   T   T   T
  0.9343940425361541  0.8405245137732935  0.0826122106927511   T   T   T
  0.3074169545965848  0.0875143637966012  0.0911063954394654   T   T   T
  0.1829703461587438  0.1725733364911325  0.0896385863699014   T   T   T
  0.1818709293081627  0.3399974955547429  0.0938411136612349   T   T   T
  0.3026727509200987  0.5876923090273696  0.1089099213521965   T   T   T
  0.1815273320676481  0.6742943087001066  0.0940028259562110   T   T   T
  0.3050442824547113  0.4202477057937962  0.1068920331654545   T   T   T
  0.1839281193043058  0.8406125724644536  0.0896385857552304   T   T   T
  0.5575881266503779  0.0861837566668402  0.0942002655253437   T   T   T
  0.5576869775864628  0.9187565810920194  0.0942267654078525   T   T   T
  0.4306960059675352  0.3310169746204721  0.1115339326772914   T   T   T
  0.4304410841819684  0.8376206513217717  0.1049211045704576   T   T   T
  0.8069319082299196  0.0905581860730295  0.0860238350486738   T   T   T
  0.6801886604892903  0.1732639284752893  0.0916991725904950   T   T   T
  0.8082798090054010  0.9241618349186530  0.0832351304791468   T   T   T
  0.6811624542714663  0.3411792115878274  0.1010287507042322   T   T   T
  0.8056814370287143  0.5978296569587741  0.0825914076804092   T   T   T
  0.8045979657329849  0.4279309598850716  0.0901769258129345   T   T   T
  0.6848256584468486  0.8373889583955650  0.0841186508582329   T   T   T
  0.4175532574834920  0.6818676604807407  0.1251783452709325   T   T   T
  0.5554627737284740  0.4034306519293019  0.1240744565046285   T   T   T
  0.6912684065461174  0.6779264420747447  0.0778018519752298   T   T   T
  0.3072083691923326  0.9230685258235336  0.0916088380809094   T   T   T
  0.4305990942919770  0.1665431234917332  0.0972601890912462   T   T   T
  0.9338618009003591  0.6753139793689256  0.0839618042591857   T   T   T
  0.5462271511154050  0.5819389882649225  0.1848191375553694   T   T   T
 
  0.00000000E+00  0.00000000E+00  0.00000000E+00
  0.00000000E+00  0.00000000E+00  0.00000000E+00
  0.00000000E+00  0.00000000E+00  0.00000000E+00
  0.00000000E+00  0.00000000E+00  0.00000000E+00
  0.00000000E+00  0.00000000E+00  0.00000000E+00
  0.00000000E+00  0.00000000E+00  0.00000000E+00
  0.00000000E+00  0.00000000E+00  0.00000000E+00
  0.00000000E+00  0.00000000E+00  0.00000000E+00
  0.00000000E+00  0.00000000E+00  0.00000000E+00
  0.00000000E+00  0.00000000E+00  0.00000000E+00
  0.00000000E+00  0.00000000E+00  0.00000000E+00
  0.00000000E+00  0.00000000E+00  0.00000000E+00
  0.00000000E+00  0.00000000E+00  0.00000000E+00
  0.00000000E+00  0.00000000E+00  0.00000000E+00
  0.00000000E+00  0.00000000E+00  0.00000000E+00
  0.00000000E+00  0.00000000E+00  0.00000000E+00
  0.00000000E+00  0.00000000E+00  0.00000000E+00
  0.00000000E+00  0.00000000E+00  0.00000000E+00
  0.00000000E+00  0.00000000E+00  0.00000000E+00
  0.00000000E+00  0.00000000E+00  0.00000000E+00
  0.00000000E+00  0.00000000E+00  0.00000000E+00
  0.00000000E+00  0.00000000E+00  0.00000000E+00
  0.00000000E+00  0.00000000E+00  0.00000000E+00
  0.00000000E+00  0.00000000E+00  0.00000000E+00
  0.00000000E+00  0.00000000E+00  0.00000000E+00
  0.00000000E+00  0.00000000E+00  0.00000000E+00
  0.00000000E+00  0.00000000E+00  0.00000000E+00
  0.00000000E+00  0.00000000E+00  0.00000000E+00
  0.00000000E+00  0.00000000E+00  0.00000000E+00
  0.00000000E+00  0.00000000E+00  0.00000000E+00
  0.00000000E+00  0.00000000E+00  0.00000000E+00
  0.00000000E+00  0.00000000E+00  0.00000000E+00
