Title                                   
   1.00000000000000     
     4.9440799999999996    0.0000000000000000    0.0000000000000000
     0.0000000000000000   17.1295089999999988    0.0000000000000000
     0.0000000000000000    0.0000000000000000   20.0000000000000000
    30     1     1
Selective dynamics
Direct
  0.0003668369255791  0.1047585966421692  0.2851908536131433   T   T   T
  0.2498464387841499  0.1467217912605915  0.2893417508288477   T   T   T
  0.2498162839427917  0.2295299525305181  0.3001897378655825   T   T   T
  0.0005152589630113  0.3511114836549930  0.3231779868267409   T   T   T
 -0.0022627759010260  0.2704120008194026  0.3058367579729447   T   T   T
 -0.0032717351155833  0.6045866967289271  0.3067558446099770   T   T   T
  0.2499697785682604  0.7282458328927205  0.2892138183680074   T   T   T
  0.0002449044175422  0.8538900062586224  0.2800436732514835   T   T   T
  0.2499306863879797  0.8958698554683457  0.2791513264740070   T   T   T
  0.2498905411609030  0.9794513268399585  0.2793045201935620   T   T   T
  0.0003951959039967  0.7703992748014556  0.2846657213131289   T   T   T
  0.4993426722478899  0.1047589020917382  0.2851914890286177   T   T   T
  0.7498407210938347  0.1463187695567062  0.2884550261282403   T   T   T
  0.7498052278908397  0.2286989503043770  0.2980411622787005   T   T   T
  0.4996435986689037  0.0213870532860047  0.2803877581166625   T   T   T
  0.4991594878819380  0.3511175337967976  0.3231728759285032   T   T   T
  0.7499250258690593  0.4779571582425270  0.3225701198468713   T   T   T
  0.5018878796022204  0.2704153692387642  0.3058298857581545   T   T   T
  0.5032065259979701  0.6045936783496831  0.3067581707515704   T   T   T
  0.7499720452770390  0.7291153617786763  0.2876208656330427   T   T   T
  0.4996355411145537  0.8538898250461884  0.2800399669691572   T   T   T
  0.7499261715405489  0.8957793840108327  0.2788383122108713   T   T   T
  0.7498925452128882  0.9794629023656868  0.2790426955704352   T   T   T
  0.4995365923877312  0.7703978230055855  0.2846615114032354   T   T   T
  0.7499736554942740  0.6463974766683688  0.2975386881497850   T   T   T
  0.2499677565822015  0.6455387820534613  0.3012809055614941   T   T   T
  0.0001257830509077  0.0213879830681768  0.2803854868533847   T   T   T
  0.5100720381603324  0.5232510069731907  0.3238442036544871   T   T   T
  0.9898057486031624  0.5232423777871069  0.3238438698084638   T   T   T
  0.2498414141307404  0.3879458191380492  0.3398894769731345   T   T   T
  0.7498620818845328  0.3937133668781436  0.3258443234835177   T   T   T
  0.2499590732708335  0.4882046584622233  0.3864562145741970   T   T   T
 
  0.00000000E+00  0.00000000E+00  0.00000000E+00
  0.00000000E+00  0.00000000E+00  0.00000000E+00
  0.00000000E+00  0.00000000E+00  0.00000000E+00
  0.00000000E+00  0.00000000E+00  0.00000000E+00
  0.00000000E+00  0.00000000E+00  0.00000000E+00
  0.00000000E+00  0.00000000E+00  0.00000000E+00
  0.00000000E+00  0.00000000E+00  0.00000000E+00
  0.00000000E+00  0.00000000E+00  0.00000000E+00
  0.00000000E+00  0.00000000E+00  0.00000000E+00
  0.00000000E+00  0.00000000E+00  0.00000000E+00
  0.00000000E+00  0.00000000E+00  0.00000000E+00
  0.00000000E+00  0.00000000E+00  0.00000000E+00
  0.00000000E+00  0.00000000E+00  0.00000000E+00
  0.00000000E+00  0.00000000E+00  0.00000000E+00
  0.00000000E+00  0.00000000E+00  0.00000000E+00
  0.00000000E+00  0.00000000E+00  0.00000000E+00
  0.00000000E+00  0.00000000E+00  0.00000000E+00
  0.00000000E+00  0.00000000E+00  0.00000000E+00
  0.00000000E+00  0.00000000E+00  0.00000000E+00
  0.00000000E+00  0.00000000E+00  0.00000000E+00
  0.00000000E+00  0.00000000E+00  0.00000000E+00
  0.00000000E+00  0.00000000E+00  0.00000000E+00
  0.00000000E+00  0.00000000E+00  0.00000000E+00
  0.00000000E+00  0.00000000E+00  0.00000000E+00
  0.00000000E+00  0.00000000E+00  0.00000000E+00
  0.00000000E+00  0.00000000E+00  0.00000000E+00
  0.00000000E+00  0.00000000E+00  0.00000000E+00
  0.00000000E+00  0.00000000E+00  0.00000000E+00
  0.00000000E+00  0.00000000E+00  0.00000000E+00
  0.00000000E+00  0.00000000E+00  0.00000000E+00
  0.00000000E+00  0.00000000E+00  0.00000000E+00
  0.00000000E+00  0.00000000E+00  0.00000000E+00
