Title                                   
   1.00000000000000     
     8.5490480000000009    0.0000000000000000    0.0000000000000000
     0.0000000000000000    8.5490480000000009    0.0000000000000000
     0.0000000000000000    0.0000000000000000   20.0000000000000000
    19     5     1
Selective dynamics
Direct
  0.9094784865514443  0.2061850943050541  0.0976663636858320   T   T   T
  0.9111735922316596  0.8007621141272087  0.0975510407976558   T   T   T
  0.1987985320073578  0.0842443641839447  0.0978109149839061   T   T   T
  0.0754649519600756  0.2038216435590899  0.0977521819210531   T   T   T
  0.1552141394458069  0.6515239233446936  0.0977735231083570   T   T   T
  0.0745235798734743  0.5016030436929827  0.0977426724270241   T   T   T
  0.1545634208005135  0.3557726674070197  0.0977783900465303   T   T   T
  0.0787703391326266  0.7994552690632593  0.0976970103454398   T   T   T
  0.4943797125462729  0.0850656764461736  0.0977378983598550   T   T   T
  0.3463239675984424  0.1642793558198105  0.0978122554473314   T   T   T
  0.4936049263292392  0.9132658338200013  0.0977199219048047   T   T   T
  0.3443343431070151  0.8331206569868748  0.0978878236371439   T   T   T
  0.7889908000535563  0.0866105804763899  0.0975946313938178   T   T   T
  0.6419051872200983  0.1665116676479775  0.0977205999453902   T   T   T
  0.7896884493054832  0.9188404015581285  0.0975432605810265   T   T   T
  0.8293037018772613  0.6519309812824161  0.0976343449543461   T   T   T
  0.8257412505344313  0.3550506217162906  0.0977554348505874   T   T   T
  0.6431484741342510  0.8349434572889829  0.0976517351621548   T   T   T
  0.3247695832205874  0.3357398160716131  0.0978175585976125   T   T   T
  0.9041254780257263  0.5033581921236020  0.0977496880042948   T   T   T
  0.3183492035947927  0.6733712343716604  0.0979273227659967   T   T   T
  0.6651703174438246  0.3320289086951083  0.0978437908697590   T   T   T
  0.6690658008811144  0.6725422445874376  0.0977552844539517   T   T   T
  0.1977462842091266  0.9159336896342541  0.0978694376727594   T   T   T
  0.4907774779158130  0.4988285617900458  0.0979119140833430   T   T   T
 
  0.00000000E+00  0.00000000E+00  0.00000000E+00
  0.00000000E+00  0.00000000E+00  0.00000000E+00
  0.00000000E+00  0.00000000E+00  0.00000000E+00
  0.00000000E+00  0.00000000E+00  0.00000000E+00
  0.00000000E+00  0.00000000E+00  0.00000000E+00
  0.00000000E+00  0.00000000E+00  0.00000000E+00
  0.00000000E+00  0.00000000E+00  0.00000000E+00
  0.00000000E+00  0.00000000E+00  0.00000000E+00
  0.00000000E+00  0.00000000E+00  0.00000000E+00
  0.00000000E+00  0.00000000E+00  0.00000000E+00
  0.00000000E+00  0.00000000E+00  0.00000000E+00
  0.00000000E+00  0.00000000E+00  0.00000000E+00
  0.00000000E+00  0.00000000E+00  0.00000000E+00
  0.00000000E+00  0.00000000E+00  0.00000000E+00
  0.00000000E+00  0.00000000E+00  0.00000000E+00
  0.00000000E+00  0.00000000E+00  0.00000000E+00
  0.00000000E+00  0.00000000E+00  0.00000000E+00
  0.00000000E+00  0.00000000E+00  0.00000000E+00
  0.00000000E+00  0.00000000E+00  0.00000000E+00
  0.00000000E+00  0.00000000E+00  0.00000000E+00
  0.00000000E+00  0.00000000E+00  0.00000000E+00
  0.00000000E+00  0.00000000E+00  0.00000000E+00
  0.00000000E+00  0.00000000E+00  0.00000000E+00
  0.00000000E+00  0.00000000E+00  0.00000000E+00
  0.00000000E+00  0.00000000E+00  0.00000000E+00
