Title                                   
   1.00000000000000     
     9.8694509999999998    0.0000000000000000    0.0000000000000000
     0.0000000000000000    8.5490480000000009    0.0000000000000000
     0.0000000000000000    0.0000000000000000   20.0000000000000000
    28     3     1
Selective dynamics
Direct
  0.0556525125767839  0.0893681093775041  0.0829214201897211   T   T   T
  0.9312658181736682  0.1739058740458932  0.0840979371038002   T   T   T
  0.0573646108498691  0.9222558382032094  0.0828495193374048   T   T   T
  0.9305914243833127  0.3411971269407631  0.0868524477009901   T   T   T
  0.0564583586211675  0.5910569256982067  0.0843370716779968   T   T   T
  0.0552801394036502  0.4242250185283709  0.0852046792745334   T   T   T
  0.9329869757880653  0.8387560461367295  0.0847394887341679   T   T   T
  0.3060645642188471  0.0876271382276617  0.0885847239076817   T   T   T
  0.1817152515532113  0.1717137212157034  0.0856799808632408   T   T   T
  0.1808570707179839  0.3389223883615959  0.0876482484156257   T   T   T
  0.3028597730162991  0.5867198574468423  0.0991804426615152   T   T   T
  0.1807262992170711  0.6742113430571308  0.0876680411092183   T   T   T
  0.3041676734920842  0.4202986844389053  0.0969105847038595   T   T   T
  0.1830898168344232  0.8400810222366508  0.0860372308489634   T   T   T
  0.5561938086089808  0.0881259770765405  0.0941645893925457   T   T   T
  0.5558198191972116  0.9228552544683156  0.1011250509241447   T   T   T
  0.4291183779229728  0.3330517643346573  0.1024389462404515   T   T   T
  0.4290551207238131  0.8389635238527257  0.1038918173645534   T   T   T
  0.8064661851981973  0.0897605740776803  0.0862277114923714   T   T   T
  0.6800907119989056  0.1725583276585030  0.0918092609012482   T   T   T
  0.8075757490185023  0.9234514166598202  0.0881893788818557   T   T   T
  0.6821360294100551  0.3403696274593958  0.1004825208997678   T   T   T
  0.8114513095413305  0.5938645761309651  0.1018341506496243   T   T   T
  0.8070167137168230  0.4251168175456367  0.0966479073339471   T   T   T
  0.6842254840725811  0.8427772034031464  0.1026730800819163   T   T   T
  0.4162577244530505  0.6789342898402738  0.1155429182191772   T   T   T
  0.5529725784984458  0.4049190223471694  0.1140550797831049   T   T   T
  0.7011918162396558  0.6846597040692511  0.1210621908518640   T   T   T
  0.3064706809812230  0.9239318420975896  0.0899769175246126   T   T   T
  0.4287823310715425  0.1676413871260497  0.0927120773541477   T   T   T
  0.9330302623970277  0.6739983972563806  0.0855895839588720   T   T   T
  0.5527040081032504  0.5849272006807351  0.1745400016170929   T   T   T
 
  0.00000000E+00  0.00000000E+00  0.00000000E+00
  0.00000000E+00  0.00000000E+00  0.00000000E+00
  0.00000000E+00  0.00000000E+00  0.00000000E+00
  0.00000000E+00  0.00000000E+00  0.00000000E+00
  0.00000000E+00  0.00000000E+00  0.00000000E+00
  0.00000000E+00  0.00000000E+00  0.00000000E+00
  0.00000000E+00  0.00000000E+00  0.00000000E+00
  0.00000000E+00  0.00000000E+00  0.00000000E+00
  0.00000000E+00  0.00000000E+00  0.00000000E+00
  0.00000000E+00  0.00000000E+00  0.00000000E+00
  0.00000000E+00  0.00000000E+00  0.00000000E+00
  0.00000000E+00  0.00000000E+00  0.00000000E+00
  0.00000000E+00  0.00000000E+00  0.00000000E+00
  0.00000000E+00  0.00000000E+00  0.00000000E+00
  0.00000000E+00  0.00000000E+00  0.00000000E+00
  0.00000000E+00  0.00000000E+00  0.00000000E+00
  0.00000000E+00  0.00000000E+00  0.00000000E+00
  0.00000000E+00  0.00000000E+00  0.00000000E+00
  0.00000000E+00  0.00000000E+00  0.00000000E+00
  0.00000000E+00  0.00000000E+00  0.00000000E+00
  0.00000000E+00  0.00000000E+00  0.00000000E+00
  0.00000000E+00  0.00000000E+00  0.00000000E+00
  0.00000000E+00  0.00000000E+00  0.00000000E+00
  0.00000000E+00  0.00000000E+00  0.00000000E+00
  0.00000000E+00  0.00000000E+00  0.00000000E+00
  0.00000000E+00  0.00000000E+00  0.00000000E+00
  0.00000000E+00  0.00000000E+00  0.00000000E+00
  0.00000000E+00  0.00000000E+00  0.00000000E+00
  0.00000000E+00  0.00000000E+00  0.00000000E+00
  0.00000000E+00  0.00000000E+00  0.00000000E+00
  0.00000000E+00  0.00000000E+00  0.00000000E+00
  0.00000000E+00  0.00000000E+00  0.00000000E+00
