Title                                   
   1.00000000000000     
     8.5490480000000009    0.0000000000000000    0.0000000000000000
     0.0000000000000000    8.5490480000000009    0.0000000000000000
     0.0000000000000000    0.0000000000000000   20.0000000000000000
    23     1     1
Selective dynamics
Direct
  0.9079848404637034  0.2080081675384779  0.0981630187232352   T   T   T
  0.9061351494538976  0.5045085091822502  0.0968486999671095   T   T   T
  0.9121840094979015  0.7999214371026623  0.0975767271762312   T   T   T
  0.1968997527381574  0.0823012402312686  0.0974742249116651   T   T   T
  0.0735095391535678  0.2056480869763428  0.0974796244566205   T   T   T
  0.1992780469957205  0.9167823211742804  0.0981455529260815   T   T   T
  0.1581215906356653  0.6460457474371057  0.0981248312758983   T   T   T
  0.0752935984552284  0.5017911558498520  0.0970661881931359   T   T   T
  0.1545047931952307  0.3544415610041716  0.0956449873377217   T   T   T
  0.0785260359045658  0.7962210793729316  0.0981886992593605   T   T   T
  0.4929838948266175  0.0840654254015891  0.0970557037415132   T   T   T
  0.3456549591755672  0.1632716383743665  0.0956507798509568   T   T   T
  0.4957351948322004  0.9148726025400287  0.0968402073844190   T   T   T
  0.3502639019213877  0.8341368977918407  0.0983125551446093   T   T   T
  0.7873922566338676  0.0872608279897193  0.0982002281126568   T   T   T
  0.6372060559679479  0.1669128745722497  0.0981128957781998   T   T   T
  0.7911873368942089  0.9209128356595776  0.0975719221028493   T   T   T
  0.8291831656530443  0.6529175950340450  0.0950379784646907   T   T   T
  0.8253470296722695  0.3590336991091477  0.0983066856680471   T   T   T
  0.6441704656193458  0.8379123837824107  0.0950104439640647   T   T   T
  0.3224822798638809  0.3312191393775210  0.0905412411304602   T   T   T
  0.3272476688664812  0.6671788934315865  0.0984527923355757   T   T   T
  0.6583582249547333  0.3360539940766569  0.0984106472337716   T   T   T
  0.6673424455672547  0.6760298391476058  0.0902089881219950   T   T   T
  0.4884197630575468  0.4973420478423242  0.0612793767391092   T   T   T
 
  0.00000000E+00  0.00000000E+00  0.00000000E+00
  0.00000000E+00  0.00000000E+00  0.00000000E+00
  0.00000000E+00  0.00000000E+00  0.00000000E+00
  0.00000000E+00  0.00000000E+00  0.00000000E+00
  0.00000000E+00  0.00000000E+00  0.00000000E+00
  0.00000000E+00  0.00000000E+00  0.00000000E+00
  0.00000000E+00  0.00000000E+00  0.00000000E+00
  0.00000000E+00  0.00000000E+00  0.00000000E+00
  0.00000000E+00  0.00000000E+00  0.00000000E+00
  0.00000000E+00  0.00000000E+00  0.00000000E+00
  0.00000000E+00  0.00000000E+00  0.00000000E+00
  0.00000000E+00  0.00000000E+00  0.00000000E+00
  0.00000000E+00  0.00000000E+00  0.00000000E+00
  0.00000000E+00  0.00000000E+00  0.00000000E+00
  0.00000000E+00  0.00000000E+00  0.00000000E+00
  0.00000000E+00  0.00000000E+00  0.00000000E+00
  0.00000000E+00  0.00000000E+00  0.00000000E+00
  0.00000000E+00  0.00000000E+00  0.00000000E+00
  0.00000000E+00  0.00000000E+00  0.00000000E+00
  0.00000000E+00  0.00000000E+00  0.00000000E+00
  0.00000000E+00  0.00000000E+00  0.00000000E+00
  0.00000000E+00  0.00000000E+00  0.00000000E+00
  0.00000000E+00  0.00000000E+00  0.00000000E+00
  0.00000000E+00  0.00000000E+00  0.00000000E+00
  0.00000000E+00  0.00000000E+00  0.00000000E+00
