Title                                   
   1.00000000000000     
     9.8694509999999998    0.0000000000000000    0.0000000000000000
     0.0000000000000000    8.5490480000000009    0.0000000000000000
     0.0000000000000000    0.0000000000000000   20.0000000000000000
    30     1     1
Selective dynamics
Direct
  0.0567341182323521  0.0905547448345716  0.0829992423891133   T   T   T
  0.9315098732346015  0.1724062638377828  0.0857502851642929   T   T   T
  0.0560944054166610  0.9234315265718211  0.0817657481229563   T   T   T
  0.9314054419973158  0.3391435873058211  0.0895761108236230   T   T   T
  0.0566042629116517  0.5888803532293720  0.0847389593417134   T   T   T
  0.9325218465308364  0.6720582488214565  0.0868909193573483   T   T   T
  0.0571442810721776  0.4227621656435518  0.0870114438075110   T   T   T
  0.9313708178689994  0.8388976332341306  0.0843820876972640   T   T   T
  0.3060466353074342  0.0903013669931348  0.0869188647025979   T   T   T
  0.1818184301690640  0.1740772199481111  0.0856490597590348   T   T   T
  0.3046329285598523  0.9241737706885217  0.0869011860405589   T   T   T
  0.1828085484353833  0.3415399733187976  0.0890047923004900   T   T   T
  0.3038210895848496  0.5933339353331284  0.0959648917347263   T   T   T
  0.1801728104223234  0.6734745967462183  0.0855488002164256   T   T   T
  0.3077261100329305  0.4248510103011862  0.0971149943532499   T   T   T
  0.1800622174209497  0.8405316604042068  0.0837437499241498   T   T   T
  0.5557414063870104  0.0858520506422159  0.0946369117115569   T   T   T
  0.4314267953028761  0.1709812223910651  0.0929527534606248   T   T   T
  0.5550450069005851  0.9188597056296639  0.0984477008432813   T   T   T
  0.4330920001823050  0.3369263896677178  0.1022833531024006   T   T   T
  0.5579282893019691  0.4098363663526967  0.1163447592173245   T   T   T
  0.4265156374284843  0.8394095382881547  0.0970302367012288   T   T   T
  0.8070770933928960  0.0882288784138744  0.0874918422413075   T   T   T
  0.6820272675609943  0.1691238338946239  0.0937896605988498   T   T   T
  0.8069970021097660  0.9219597973325885  0.0879211548124690   T   T   T
  0.6823980717669823  0.3342250047516551  0.1034136942489582   T   T   T
  0.8099333748831972  0.5893711345799929  0.0996126265579883   T   T   T
  0.6922154601768747  0.6764403088670898  0.1127511828426857   T   T   T
  0.8081448129080018  0.4205986686139240  0.0992584185694165   T   T   T
  0.6838434298169687  0.8376554130170206  0.0996019563234891   T   T   T
  0.4185392424143143  0.6805751773336906  0.1077601113004903   T   T   T
  0.5482402922693991  0.5997844530122209  0.1784175017329078   T   T   T
 
  0.00000000E+00  0.00000000E+00  0.00000000E+00
  0.00000000E+00  0.00000000E+00  0.00000000E+00
  0.00000000E+00  0.00000000E+00  0.00000000E+00
  0.00000000E+00  0.00000000E+00  0.00000000E+00
  0.00000000E+00  0.00000000E+00  0.00000000E+00
  0.00000000E+00  0.00000000E+00  0.00000000E+00
  0.00000000E+00  0.00000000E+00  0.00000000E+00
  0.00000000E+00  0.00000000E+00  0.00000000E+00
  0.00000000E+00  0.00000000E+00  0.00000000E+00
  0.00000000E+00  0.00000000E+00  0.00000000E+00
  0.00000000E+00  0.00000000E+00  0.00000000E+00
  0.00000000E+00  0.00000000E+00  0.00000000E+00
  0.00000000E+00  0.00000000E+00  0.00000000E+00
  0.00000000E+00  0.00000000E+00  0.00000000E+00
  0.00000000E+00  0.00000000E+00  0.00000000E+00
  0.00000000E+00  0.00000000E+00  0.00000000E+00
  0.00000000E+00  0.00000000E+00  0.00000000E+00
  0.00000000E+00  0.00000000E+00  0.00000000E+00
  0.00000000E+00  0.00000000E+00  0.00000000E+00
  0.00000000E+00  0.00000000E+00  0.00000000E+00
  0.00000000E+00  0.00000000E+00  0.00000000E+00
  0.00000000E+00  0.00000000E+00  0.00000000E+00
  0.00000000E+00  0.00000000E+00  0.00000000E+00
  0.00000000E+00  0.00000000E+00  0.00000000E+00
  0.00000000E+00  0.00000000E+00  0.00000000E+00
  0.00000000E+00  0.00000000E+00  0.00000000E+00
  0.00000000E+00  0.00000000E+00  0.00000000E+00
  0.00000000E+00  0.00000000E+00  0.00000000E+00
  0.00000000E+00  0.00000000E+00  0.00000000E+00
  0.00000000E+00  0.00000000E+00  0.00000000E+00
  0.00000000E+00  0.00000000E+00  0.00000000E+00
  0.00000000E+00  0.00000000E+00  0.00000000E+00
