Title                                   
   1.00000000000000     
     4.9440799999999996    0.0000000000000000    0.0000000000000000
     0.0000000000000000    8.5647549999999999    0.0000000000000000
     0.0000000000000000    0.0000000000000000   20.0000000000000000
    11     4     1
Selective dynamics
Direct
 -0.0051538159997674  0.2920070464761914  0.0917277199966289   T   T   T
  0.2500000000000000  0.0444762380805472  0.0891347686777200   T   T   T
  0.0037355431748746  0.7961908934751102  0.1016327042406887   T   T   T
  0.0004527616568369  0.9609961093908747  0.0891740102093825   T   T   T
  0.7500000000000000  0.2056482755140535  0.0844574191897668   T   T   T
  0.5051538159997673  0.2920070464761914  0.0917277199966289   T   T   T
  0.7500000000000000  0.0409138607190314  0.0831456577518026   T   T   T
  0.7500000000000000  0.7045257996073129  0.1038356612465677   T   T   T
  0.4962644568251254  0.7961908934751102  0.1016327042406887   T   T   T
  0.7500000000000000  0.5318358538043205  0.1042663127449366   T   T   T
  0.4995472383431632  0.9609961093908747  0.0891740102093825   T   T   T
  0.5128001920372485  0.4470377729413436  0.1057101317635198   T   T   T
 -0.0128001920372486  0.4470377729413436  0.1057101317635198   T   T   T
  0.2500000000000000  0.7290932227871356  0.1162811888751667   T   T   T
  0.2500000000000000  0.2130885644313231  0.0894283658519431   T   T   T
  0.2500000000000000  0.5379545404892362  0.1654734932416664   T   T   T
 
  0.00000000E+00  0.00000000E+00  0.00000000E+00
  0.00000000E+00  0.00000000E+00  0.00000000E+00
  0.00000000E+00  0.00000000E+00  0.00000000E+00
  0.00000000E+00  0.00000000E+00  0.00000000E+00
  0.00000000E+00  0.00000000E+00  0.00000000E+00
  0.00000000E+00  0.00000000E+00  0.00000000E+00
  0.00000000E+00  0.00000000E+00  0.00000000E+00
  0.00000000E+00  0.00000000E+00  0.00000000E+00
  0.00000000E+00  0.00000000E+00  0.00000000E+00
  0.00000000E+00  0.00000000E+00  0.00000000E+00
  0.00000000E+00  0.00000000E+00  0.00000000E+00
  0.00000000E+00  0.00000000E+00  0.00000000E+00
  0.00000000E+00  0.00000000E+00  0.00000000E+00
  0.00000000E+00  0.00000000E+00  0.00000000E+00
  0.00000000E+00  0.00000000E+00  0.00000000E+00
  0.00000000E+00  0.00000000E+00  0.00000000E+00
