Title                                   
   1.00000000000000     
     8.5490480000000009    0.0000000000000000    0.0000000000000000
     0.0000000000000000    8.5490480000000009    0.0000000000000000
     0.0000000000000000    0.0000000000000000   20.0000000000000000
    18     6     1
Selective dynamics
Direct
  0.9085426559341415  0.2058537640039167  0.0974423682342991   T   T   T
  0.9108373258434282  0.8007856584174599  0.0974778159964476   T   T   T
  0.1959664060635922  0.0838057286159197  0.0976964128416144   T   T   T
  0.0757685626482266  0.2013234995486250  0.0975614379113538   T   T   T
  0.1562239360795599  0.6517279848992278  0.0977881561027021   T   T   T
  0.0775945405164065  0.5007691878297924  0.0977770760217634   T   T   T
  0.1560921377497169  0.3508948130599526  0.0978107738393365   T   T   T
  0.0784130655428346  0.7991391495917706  0.0976009405230108   T   T   T
  0.4934135339941991  0.0881939171822589  0.0978521267946807   T   T   T
  0.3429375255229347  0.1658168907799590  0.0979479588493820   T   T   T
  0.4928671523311895  0.9162841696271220  0.0977705620720465   T   T   T
  0.3433149769372715  0.8356303395193077  0.0978359618441028   T   T   T
  0.7886690631019341  0.0872746059662920  0.0974637908634604   T   T   T
  0.6420736943813896  0.1685332940330275  0.0977785771549863   T   T   T
  0.7893610713343889  0.9186938079391347  0.0974526703410392   T   T   T
  0.8301551613966655  0.6513386562944357  0.0976419286468515   T   T   T
  0.8282698755227919  0.3540573335912061  0.0976722517950299   T   T   T
  0.6430514231418125  0.8359167060852692  0.0976740589157659   T   T   T
  0.9072551610420163  0.5023427526784839  0.0977490128501706   T   T   T
  0.3183008494381567  0.3276095390518562  0.0980924993912405   T   T   T
  0.3183505405368102  0.6767518791112812  0.0979698581798632   T   T   T
  0.6673683861995543  0.3323719422778224  0.0979639093406599   T   T   T
  0.6697203996542752  0.6724934371679477  0.0978357720843960   T   T   T
  0.1970608113708552  0.9158417755897681  0.0977051895848893   T   T   T
  0.4938037437158415  0.5013391671381617  0.0981438898208875   T   T   T
 
  0.00000000E+00  0.00000000E+00  0.00000000E+00
  0.00000000E+00  0.00000000E+00  0.00000000E+00
  0.00000000E+00  0.00000000E+00  0.00000000E+00
  0.00000000E+00  0.00000000E+00  0.00000000E+00
  0.00000000E+00  0.00000000E+00  0.00000000E+00
  0.00000000E+00  0.00000000E+00  0.00000000E+00
  0.00000000E+00  0.00000000E+00  0.00000000E+00
  0.00000000E+00  0.00000000E+00  0.00000000E+00
  0.00000000E+00  0.00000000E+00  0.00000000E+00
  0.00000000E+00  0.00000000E+00  0.00000000E+00
  0.00000000E+00  0.00000000E+00  0.00000000E+00
  0.00000000E+00  0.00000000E+00  0.00000000E+00
  0.00000000E+00  0.00000000E+00  0.00000000E+00
  0.00000000E+00  0.00000000E+00  0.00000000E+00
  0.00000000E+00  0.00000000E+00  0.00000000E+00
  0.00000000E+00  0.00000000E+00  0.00000000E+00
  0.00000000E+00  0.00000000E+00  0.00000000E+00
  0.00000000E+00  0.00000000E+00  0.00000000E+00
  0.00000000E+00  0.00000000E+00  0.00000000E+00
  0.00000000E+00  0.00000000E+00  0.00000000E+00
  0.00000000E+00  0.00000000E+00  0.00000000E+00
  0.00000000E+00  0.00000000E+00  0.00000000E+00
  0.00000000E+00  0.00000000E+00  0.00000000E+00
  0.00000000E+00  0.00000000E+00  0.00000000E+00
  0.00000000E+00  0.00000000E+00  0.00000000E+00
