Title                                   
   1.00000000000000     
     8.5490480000000009    0.0000000000000000    0.0000000000000000
     0.0000000000000000    8.5490480000000009    0.0000000000000000
     0.0000000000000000    0.0000000000000000   20.0000000000000000
    20     4     1
Selective dynamics
Direct
  0.9129381282950467  0.2010550382986576  0.0977397043234070   T   T   T
  0.9070222209786559  0.5035817715935519  0.0978084026628038   T   T   T
  0.9082106707723250  0.8011297413948479  0.0974386179858382   T   T   T
  0.1995121493130412  0.0837650319697198  0.0978588294771828   T   T   T
  0.0762142159720853  0.2029177336938053  0.0978226653326819   T   T   T
  0.1564164986054475  0.6548928368372694  0.0975874616723836   T   T   T
  0.0764044458967429  0.5047731948094908  0.0977192569345354   T   T   T
  0.1587017327176735  0.3564693202263546  0.0978628978774798   T   T   T
  0.0756104582388549  0.8012808270643187  0.0975355859723602   T   T   T
  0.4951291980131054  0.0856833062276311  0.0977922977045638   T   T   T
  0.3463909912883822  0.1630361485078072  0.0979220080194815   T   T   T
  0.4922186136162970  0.9150173431482157  0.0977190291815094   T   T   T
  0.3412320349029595  0.8370627295941496  0.0977393493996970   T   T   T
  0.7897555092727649  0.0827793463596380  0.0975694186272633   T   T   T
  0.6446845683254382  0.1651788888351245  0.0978308036194770   T   T   T
  0.7877790672093573  0.9171710555994692  0.0974356054858845   T   T   T
  0.8263691948535522  0.6511681446086848  0.0976676344869888   T   T   T
  0.8291556525503458  0.3522703702564674  0.0979085442824862   T   T   T
  0.6390743858379112  0.8332334797580775  0.0976353153976624   T   T   T
  0.3213815879732034  0.3334827037046945  0.0978748008193574   T   T   T
  0.3166663810172650  0.6814863522098030  0.0977026747228242   T   T   T
  0.6727931259025873  0.3280705817036277  0.0980915242810989   T   T   T
  0.6648216248617423  0.6729137268531179  0.0978001606333071   T   T   T
  0.1952448797003924  0.9186415134734318  0.0977556398611922   T   T   T
  0.4916846638848152  0.4977288132720641  0.0978867712385066   T   T   T
 
  0.00000000E+00  0.00000000E+00  0.00000000E+00
  0.00000000E+00  0.00000000E+00  0.00000000E+00
  0.00000000E+00  0.00000000E+00  0.00000000E+00
  0.00000000E+00  0.00000000E+00  0.00000000E+00
  0.00000000E+00  0.00000000E+00  0.00000000E+00
  0.00000000E+00  0.00000000E+00  0.00000000E+00
  0.00000000E+00  0.00000000E+00  0.00000000E+00
  0.00000000E+00  0.00000000E+00  0.00000000E+00
  0.00000000E+00  0.00000000E+00  0.00000000E+00
  0.00000000E+00  0.00000000E+00  0.00000000E+00
  0.00000000E+00  0.00000000E+00  0.00000000E+00
  0.00000000E+00  0.00000000E+00  0.00000000E+00
  0.00000000E+00  0.00000000E+00  0.00000000E+00
  0.00000000E+00  0.00000000E+00  0.00000000E+00
  0.00000000E+00  0.00000000E+00  0.00000000E+00
  0.00000000E+00  0.00000000E+00  0.00000000E+00
  0.00000000E+00  0.00000000E+00  0.00000000E+00
  0.00000000E+00  0.00000000E+00  0.00000000E+00
  0.00000000E+00  0.00000000E+00  0.00000000E+00
  0.00000000E+00  0.00000000E+00  0.00000000E+00
  0.00000000E+00  0.00000000E+00  0.00000000E+00
  0.00000000E+00  0.00000000E+00  0.00000000E+00
  0.00000000E+00  0.00000000E+00  0.00000000E+00
  0.00000000E+00  0.00000000E+00  0.00000000E+00
  0.00000000E+00  0.00000000E+00  0.00000000E+00
