Title                                   
   1.00000000000000     
     8.5490480000000009    0.0000000000000000    0.0000000000000000
     0.0000000000000000    8.5490480000000009    0.0000000000000000
     0.0000000000000000    0.0000000000000000   20.0000000000000000
    21     3     1
Selective dynamics
Direct
  0.9097645608306864  0.2057078890078211  0.0954449720439946   T   T   T
  0.9054653717943500  0.5028993413400396  0.0953024433354957   T   T   T
  0.9096889193677877  0.7987073676615591  0.0954685251136467   T   T   T
  0.1976042400222496  0.0843322486428113  0.0954781479832351   T   T   T
  0.0755666127120067  0.2063367148617628  0.0954557835952138   T   T   T
  0.1969801240848673  0.9185321457549618  0.0954780162633587   T   T   T
  0.1560012996624941  0.6510132145203475  0.0953383962486018   T   T   T
  0.0758208329769304  0.5026465434491768  0.0953261793893209   T   T   T
  0.1557375079210686  0.3554971667487912  0.0953735584268192   T   T   T
  0.0765693769912518  0.7979083361252278  0.0954651004662065   T   T   T
  0.4938342810453666  0.0846318325329342  0.0953580251044444   T   T   T
  0.3467134656878386  0.1645691523138459  0.0953962879682846   T   T   T
  0.4941072465953406  0.9142616547429587  0.0953499440817540   T   T   T
  0.3449672170997448  0.8360572954979215  0.0953538158529165   T   T   T
  0.7891099037544298  0.0853333058064481  0.0954618520871069   T   T   T
  0.6422087994039325  0.1647958034261855  0.0953193794559883   T   T   T
  0.7899357402001689  0.9184554089589041  0.0954719260089749   T   T   T
  0.8280631423763978  0.6515987382319075  0.0953262783463367   T   T   T
  0.8273132787399563  0.3537237689231867  0.0952904810695196   T   T   T
  0.6427965060797859  0.8368408807430557  0.0953319065977683   T   T   T
  0.3233715385499234  0.3321853968981028  0.0953262201826671   T   T   T
  0.3202899252102303  0.6738323198770855  0.0952071532528785   T   T   T
  0.6650826335969763  0.3290338895824628  0.0951643359582706   T   T   T
  0.6664621987461870  0.6752431770964796  0.0951916784897080   T   T   T
  0.4919572765500217  0.5006464072560350  0.0950245926774662   T   T   T
 
  0.00000000E+00  0.00000000E+00  0.00000000E+00
  0.00000000E+00  0.00000000E+00  0.00000000E+00
  0.00000000E+00  0.00000000E+00  0.00000000E+00
  0.00000000E+00  0.00000000E+00  0.00000000E+00
  0.00000000E+00  0.00000000E+00  0.00000000E+00
  0.00000000E+00  0.00000000E+00  0.00000000E+00
  0.00000000E+00  0.00000000E+00  0.00000000E+00
  0.00000000E+00  0.00000000E+00  0.00000000E+00
  0.00000000E+00  0.00000000E+00  0.00000000E+00
  0.00000000E+00  0.00000000E+00  0.00000000E+00
  0.00000000E+00  0.00000000E+00  0.00000000E+00
  0.00000000E+00  0.00000000E+00  0.00000000E+00
  0.00000000E+00  0.00000000E+00  0.00000000E+00
  0.00000000E+00  0.00000000E+00  0.00000000E+00
  0.00000000E+00  0.00000000E+00  0.00000000E+00
  0.00000000E+00  0.00000000E+00  0.00000000E+00
  0.00000000E+00  0.00000000E+00  0.00000000E+00
  0.00000000E+00  0.00000000E+00  0.00000000E+00
  0.00000000E+00  0.00000000E+00  0.00000000E+00
  0.00000000E+00  0.00000000E+00  0.00000000E+00
  0.00000000E+00  0.00000000E+00  0.00000000E+00
  0.00000000E+00  0.00000000E+00  0.00000000E+00
  0.00000000E+00  0.00000000E+00  0.00000000E+00
  0.00000000E+00  0.00000000E+00  0.00000000E+00
  0.00000000E+00  0.00000000E+00  0.00000000E+00
