Title                                   
   1.00000000000000     
     9.8694509999999998    0.0000000000000000    0.0000000000000000
     0.0000000000000000    8.5490480000000009    0.0000000000000000
     0.0000000000000000    0.0000000000000000   20.0000000000000000
    29     2     1
Selective dynamics
Direct
  0.0564083928036978  0.0902262136798779  0.0817491621647397   T   T   T
  0.9314717374099396  0.1731625707360153  0.0831996287570068   T   T   T
  0.0573802292920241  0.9236986880797404  0.0818817685852281   T   T   T
  0.9310542818825696  0.3405846834332193  0.0865869707514084   T   T   T
  0.0571508754611542  0.5906835779350140  0.0842241686560133   T   T   T
  0.9324920977402454  0.6732572233267712  0.0869940195687645   T   T   T
  0.0571752265053825  0.4231131057855509  0.0850142753405272   T   T   T
  0.9321793171586951  0.8397753996059655  0.0846179852622204   T   T   T
  0.3058487061946586  0.0884613801913627  0.0876669860644895   T   T   T
  0.1826260323382875  0.1726413870765811  0.0845608771256025   T   T   T
  0.1823615277826181  0.3399075252166397  0.0875246146402047   T   T   T
  0.3033857315134416  0.5889604493032092  0.1012883502717765   T   T   T
  0.1819189034391845  0.6742499092683594  0.0875606901563186   T   T   T
  0.3060581956176580  0.4215412625575350  0.0988784527013739   T   T   T
  0.1819720384294015  0.8410547457222937  0.0852934353983173   T   T   T
  0.5554057342207878  0.0870658101682072  0.0940362100997556   T   T   T
  0.5544242275103142  0.9238714031835031  0.1006536579944511   T   T   T
  0.4298326028473428  0.3321186107286379  0.1055134553726474   T   T   T
  0.4266709403902580  0.8422212910138845  0.1044119782358237   T   T   T
  0.8062168964209599  0.0891048368685518  0.0849808297992122   T   T   T
  0.6804304121495666  0.1708490850082483  0.0910987351892462   T   T   T
  0.8069611346177471  0.9237133072676449  0.0877226191604641   T   T   T
  0.6825787518919019  0.3348539273486713  0.1018217821646850   T   T   T
  0.8094302189629947  0.5908364980044805  0.0997620024132104   T   T   T
  0.8066798637693176  0.4218948031517643  0.0967961075516603   T   T   T
  0.6832315653700003  0.8425249686549217  0.1011462329280583   T   T   T
  0.4159557700527669  0.6833423830764557  0.1196265182290666   T   T   T
  0.5555699783287056  0.4010564366833668  0.1202694431294956   T   T   T
  0.6946833725783728  0.6816638071050567  0.1165799749306435   T   T   T
  0.3057605656400904  0.9260190300128112  0.0891543217807510   T   T   T
  0.4290018874252934  0.1680799480954365  0.0935149028578966   T   T   T
  0.5573217842546275  0.5897117317102245  0.1715448427189573   T   T   T
 
  0.00000000E+00  0.00000000E+00  0.00000000E+00
  0.00000000E+00  0.00000000E+00  0.00000000E+00
  0.00000000E+00  0.00000000E+00  0.00000000E+00
  0.00000000E+00  0.00000000E+00  0.00000000E+00
  0.00000000E+00  0.00000000E+00  0.00000000E+00
  0.00000000E+00  0.00000000E+00  0.00000000E+00
  0.00000000E+00  0.00000000E+00  0.00000000E+00
  0.00000000E+00  0.00000000E+00  0.00000000E+00
  0.00000000E+00  0.00000000E+00  0.00000000E+00
  0.00000000E+00  0.00000000E+00  0.00000000E+00
  0.00000000E+00  0.00000000E+00  0.00000000E+00
  0.00000000E+00  0.00000000E+00  0.00000000E+00
  0.00000000E+00  0.00000000E+00  0.00000000E+00
  0.00000000E+00  0.00000000E+00  0.00000000E+00
  0.00000000E+00  0.00000000E+00  0.00000000E+00
  0.00000000E+00  0.00000000E+00  0.00000000E+00
  0.00000000E+00  0.00000000E+00  0.00000000E+00
  0.00000000E+00  0.00000000E+00  0.00000000E+00
  0.00000000E+00  0.00000000E+00  0.00000000E+00
  0.00000000E+00  0.00000000E+00  0.00000000E+00
  0.00000000E+00  0.00000000E+00  0.00000000E+00
  0.00000000E+00  0.00000000E+00  0.00000000E+00
  0.00000000E+00  0.00000000E+00  0.00000000E+00
  0.00000000E+00  0.00000000E+00  0.00000000E+00
  0.00000000E+00  0.00000000E+00  0.00000000E+00
  0.00000000E+00  0.00000000E+00  0.00000000E+00
  0.00000000E+00  0.00000000E+00  0.00000000E+00
  0.00000000E+00  0.00000000E+00  0.00000000E+00
  0.00000000E+00  0.00000000E+00  0.00000000E+00
  0.00000000E+00  0.00000000E+00  0.00000000E+00
  0.00000000E+00  0.00000000E+00  0.00000000E+00
  0.00000000E+00  0.00000000E+00  0.00000000E+00
