Title                                   
   1.00000000000000     
     4.9440799999999996    0.0000000000000000    0.0000000000000000
     0.0000000000000000    8.5647549999999999    0.0000000000000000
     0.0000000000000000    0.0000000000000000   20.0000000000000000
    13     1     1
Selective dynamics
Direct
  0.0007674155015346  0.2924465118538861  0.0937583304676357   T   T   T
  0.2500000000000000  0.0437627672177029  0.0948190562029945   T   T   T
  0.0000806218437022  0.9585558372188310  0.0949341848029024   T   T   T
  0.7500000000000000  0.2072026917400089  0.0894684824216820   T   T   T
  0.4992325844984655  0.2924465118538861  0.0937583304676357   T   T   T
  0.7500000000000000  0.0415707975289860  0.0901776370395927   T   T   T
  0.7500000000000000  0.7113441624028929  0.1009722065224018   T   T   T
  0.7500000000000000  0.5360235856525074  0.1005608422922129   T   T   T
  0.4999193781562979  0.9585558372188310  0.0949341848029024   T   T   T
  0.5010782157526328  0.4555443306653257  0.1012115164933586   T   T   T
 -0.0010782157526328  0.4555443306653257  0.1012115164933586   T   T   T
 -0.0027016696430049  0.7931162342117546  0.1024240157356320   T   T   T
  0.5027016696430043  0.7931162342117546  0.1024240157356320   T   T   T
  0.2500000000000000  0.2073622221270244  0.0940062673658855   T   T   T
  0.2500000000000000  0.6250889454312857  0.1533194131561769   T   T   T
 
  0.00000000E+00  0.00000000E+00  0.00000000E+00
  0.00000000E+00  0.00000000E+00  0.00000000E+00
  0.00000000E+00  0.00000000E+00  0.00000000E+00
  0.00000000E+00  0.00000000E+00  0.00000000E+00
  0.00000000E+00  0.00000000E+00  0.00000000E+00
  0.00000000E+00  0.00000000E+00  0.00000000E+00
  0.00000000E+00  0.00000000E+00  0.00000000E+00
  0.00000000E+00  0.00000000E+00  0.00000000E+00
  0.00000000E+00  0.00000000E+00  0.00000000E+00
  0.00000000E+00  0.00000000E+00  0.00000000E+00
  0.00000000E+00  0.00000000E+00  0.00000000E+00
  0.00000000E+00  0.00000000E+00  0.00000000E+00
  0.00000000E+00  0.00000000E+00  0.00000000E+00
  0.00000000E+00  0.00000000E+00  0.00000000E+00
  0.00000000E+00  0.00000000E+00  0.00000000E+00
