Title                                   
   1.00000000000000     
     9.8694509999999998    0.0000000000000000    0.0000000000000000
     0.0000000000000000    8.5490480000000009    0.0000000000000000
     0.0000000000000000    0.0000000000000000   20.0000000000000000
    24     6     1
Selective dynamics
Direct
  0.0561155697502041  0.0902985352273188  0.0957028301370948   T   T   T
  0.9313097575366396  0.1721690129515522  0.0960164422956198   T   T   T
  0.0573851383194086  0.9221793051162351  0.0956854229620691   T   T   T
  0.9326703926032710  0.3393611783548405  0.0955946831122167   T   T   T
  0.0565364561839838  0.5894463706218879  0.0947727669563829   T   T   T
  0.9325995822890916  0.6723483872754035  0.0955533446944337   T   T   T
  0.0566957551484817  0.4227734215751298  0.0948150911907971   T   T   T
  0.9317569160381304  0.8396712701224724  0.0960032154176697   T   T   T
  0.3082558358781127  0.0885684788949027  0.0967260016081441   T   T   T
  0.1816379963861793  0.1715539075922617  0.0958332243515622   T   T   T
  0.1805747014134591  0.3384964819068445  0.0953528926250172   T   T   T
  0.3034050811703997  0.5897931653641180  0.0964895011678078   T   T   T
  0.1805813591089552  0.6734990098097574  0.0953014900921206   T   T   T
  0.3038371121743746  0.4219937072543874  0.0964892809020048   T   T   T
  0.1810157429919264  0.8400585507839463  0.0958125921989138   T   T   T
  0.4296376980676953  0.1760405920092246  0.0977779125490582   T   T   T
  0.5548635995124475  0.9198056129215086  0.0981909830555414   T   T   T
  0.4296058112062056  0.8367426019840311  0.0978687974612754   T   T   T
  0.8044102714571244  0.0896826837881788  0.0969730727703582   T   T   T
  0.6818568267753911  0.1780827215643466  0.0978562444678821   T   T   T
  0.8057632095926704  0.9217070301598699  0.0970043483743957   T   T   T
  0.8092056770015078  0.5898205817428712  0.0967624403504633   T   T   T
  0.8092180333429113  0.4214985302564961  0.0967217781141530   T   T   T
  0.6818701647795201  0.8349594940492183  0.0979779118606472   T   T   T
  0.5568324089926578  0.0959500206664628  0.0983149777619872   T   T   T
  0.4255262603105729  0.3384080147471238  0.0982064877623628   T   T   T
  0.4246524196677943  0.6749341391923550  0.0984016203796433   T   T   T
  0.6864145454499858  0.3395301036943777  0.0982252902059584   T   T   T
  0.6871718863829018  0.6719258202692352  0.0983963861169833   T   T   T
  0.3063419828915586  0.9218517120982409  0.0967328617425472   T   T   T
  0.5553878075764385  0.5077245580053997  0.0994051073149466   T   T   T
 
  0.00000000E+00  0.00000000E+00  0.00000000E+00
  0.00000000E+00  0.00000000E+00  0.00000000E+00
  0.00000000E+00  0.00000000E+00  0.00000000E+00
  0.00000000E+00  0.00000000E+00  0.00000000E+00
  0.00000000E+00  0.00000000E+00  0.00000000E+00
  0.00000000E+00  0.00000000E+00  0.00000000E+00
  0.00000000E+00  0.00000000E+00  0.00000000E+00
  0.00000000E+00  0.00000000E+00  0.00000000E+00
  0.00000000E+00  0.00000000E+00  0.00000000E+00
  0.00000000E+00  0.00000000E+00  0.00000000E+00
  0.00000000E+00  0.00000000E+00  0.00000000E+00
  0.00000000E+00  0.00000000E+00  0.00000000E+00
  0.00000000E+00  0.00000000E+00  0.00000000E+00
  0.00000000E+00  0.00000000E+00  0.00000000E+00
  0.00000000E+00  0.00000000E+00  0.00000000E+00
  0.00000000E+00  0.00000000E+00  0.00000000E+00
  0.00000000E+00  0.00000000E+00  0.00000000E+00
  0.00000000E+00  0.00000000E+00  0.00000000E+00
  0.00000000E+00  0.00000000E+00  0.00000000E+00
  0.00000000E+00  0.00000000E+00  0.00000000E+00
  0.00000000E+00  0.00000000E+00  0.00000000E+00
  0.00000000E+00  0.00000000E+00  0.00000000E+00
  0.00000000E+00  0.00000000E+00  0.00000000E+00
  0.00000000E+00  0.00000000E+00  0.00000000E+00
  0.00000000E+00  0.00000000E+00  0.00000000E+00
  0.00000000E+00  0.00000000E+00  0.00000000E+00
  0.00000000E+00  0.00000000E+00  0.00000000E+00
  0.00000000E+00  0.00000000E+00  0.00000000E+00
  0.00000000E+00  0.00000000E+00  0.00000000E+00
  0.00000000E+00  0.00000000E+00  0.00000000E+00
  0.00000000E+00  0.00000000E+00  0.00000000E+00
