Title                                   
   1.00000000000000     
     9.8694509999999998    0.0000000000000000    0.0000000000000000
     0.0000000000000000    8.5490480000000009    0.0000000000000000
     0.0000000000000000    0.0000000000000000   20.0000000000000000
    28     3     1
Selective dynamics
Direct
  0.0559447916312276  0.0905632015953056  0.0841502953207900   T   T   T
  0.9307895474414135  0.1742258289976423  0.0859787403474470   T   T   T
  0.0579347343920192  0.9234491482152305  0.0838075274704371   T   T   T
  0.9298244406236051  0.3416452279377709  0.0879461182315489   T   T   T
  0.0567296044403884  0.5899354862177164  0.0844182961430364   T   T   T
  0.9326023054092694  0.6734967378057279  0.0867214272532103   T   T   T
  0.0558604371783633  0.4225862445695745  0.0857669514665142   T   T   T
  0.9331581692167240  0.8404432355581353  0.0859880299127252   T   T   T
  0.3061034036575141  0.0876814847286917  0.0883597603933226   T   T   T
  0.1820305540604324  0.1718842351122008  0.0862267159561782   T   T   T
  0.1810700893203268  0.3383917824488749  0.0881250643797909   T   T   T
  0.3038829841597903  0.5873539231787543  0.0987849051302871   T   T   T
  0.1818411102170004  0.6727901952708414  0.0870894590549609   T   T   T
  0.3054755878960051  0.4199644587769660  0.0976452205329097   T   T   T
  0.1824014797225650  0.8398456863388116  0.0857033162283490   T   T   T
  0.5559212724748016  0.0869614915061287  0.0948237290367862   T   T   T
  0.5556939070450484  0.9204481883268967  0.0995523425906570   T   T   T
  0.4291262562718388  0.3317832601003162  0.1043545864909024   T   T   T
  0.4277801174889347  0.8388038783108288  0.1019143543298503   T   T   T
  0.8057311541382652  0.0899869391772040  0.0877402311874785   T   T   T
  0.6796603158062251  0.1720097481520378  0.0930445773590556   T   T   T
  0.8077635081688923  0.9244755946388057  0.0891031062521074   T   T   T
  0.6799582784537503  0.3378165424626275  0.1021816294519765   T   T   T
  0.8090313464695634  0.5934349021890633  0.0972121096900631   T   T   T
  0.8038485891820550  0.4252242156187925  0.0964529836891333   T   T   T
  0.6850232806082306  0.8407405814584946  0.0994028353376283   T   T   T
  0.4191289017487579  0.6787109519192492  0.1150320084867340   T   T   T
  0.5526246028417698  0.4060877348970476  0.1185597700975852   T   T   T
  0.6948332962079106  0.6815732974952469  0.1125421969041730   T   T   T
  0.3071103600214567  0.9240109643849530  0.0887063151853464   T   T   T
  0.4288541332228263  0.1672675639291179  0.0940312521250340   T   T   T
  0.5619004404830366  0.5966532686809476  0.1743091439639979   T   T   T
 
  0.00000000E+00  0.00000000E+00  0.00000000E+00
  0.00000000E+00  0.00000000E+00  0.00000000E+00
  0.00000000E+00  0.00000000E+00  0.00000000E+00
  0.00000000E+00  0.00000000E+00  0.00000000E+00
  0.00000000E+00  0.00000000E+00  0.00000000E+00
  0.00000000E+00  0.00000000E+00  0.00000000E+00
  0.00000000E+00  0.00000000E+00  0.00000000E+00
  0.00000000E+00  0.00000000E+00  0.00000000E+00
  0.00000000E+00  0.00000000E+00  0.00000000E+00
  0.00000000E+00  0.00000000E+00  0.00000000E+00
  0.00000000E+00  0.00000000E+00  0.00000000E+00
  0.00000000E+00  0.00000000E+00  0.00000000E+00
  0.00000000E+00  0.00000000E+00  0.00000000E+00
  0.00000000E+00  0.00000000E+00  0.00000000E+00
  0.00000000E+00  0.00000000E+00  0.00000000E+00
  0.00000000E+00  0.00000000E+00  0.00000000E+00
  0.00000000E+00  0.00000000E+00  0.00000000E+00
  0.00000000E+00  0.00000000E+00  0.00000000E+00
  0.00000000E+00  0.00000000E+00  0.00000000E+00
  0.00000000E+00  0.00000000E+00  0.00000000E+00
  0.00000000E+00  0.00000000E+00  0.00000000E+00
  0.00000000E+00  0.00000000E+00  0.00000000E+00
  0.00000000E+00  0.00000000E+00  0.00000000E+00
  0.00000000E+00  0.00000000E+00  0.00000000E+00
  0.00000000E+00  0.00000000E+00  0.00000000E+00
  0.00000000E+00  0.00000000E+00  0.00000000E+00
  0.00000000E+00  0.00000000E+00  0.00000000E+00
  0.00000000E+00  0.00000000E+00  0.00000000E+00
  0.00000000E+00  0.00000000E+00  0.00000000E+00
  0.00000000E+00  0.00000000E+00  0.00000000E+00
  0.00000000E+00  0.00000000E+00  0.00000000E+00
  0.00000000E+00  0.00000000E+00  0.00000000E+00
