Title                                   
   1.00000000000000     
     8.5490480000000009    0.0000000000000000    0.0000000000000000
     0.0000000000000000    8.5490480000000009    0.0000000000000000
     0.0000000000000000    0.0000000000000000   20.0000000000000000
    22     2     1
Selective dynamics
Direct
  0.9090645935918216  0.2062195855222075  0.0953715016778403   T   T   T
  0.9077078608400891  0.5049792200028324  0.0968730520911214   T   T   T
  0.9126759756936713  0.8031523904426907  0.0968197263791142   T   T   T
  0.1974259545462040  0.0810800371863054  0.0966611853262815   T   T   T
  0.0733266414952016  0.2021028780754356  0.0963831991883168   T   T   T
  0.1594436412605857  0.6488527108050185  0.0964551833274771   T   T   T
  0.0758464053334917  0.5024837268465802  0.0971868871743772   T   T   T
  0.1552179686348194  0.3536081711744216  0.0982707111366423   T   T   T
  0.0801234985041915  0.7982080745649887  0.0959690683808629   T   T   T
  0.4932362420064650  0.0842340961494907  0.0974950693930884   T   T   T
  0.3439376507381314  0.1610597397037288  0.0985998344201760   T   T   T
  0.4940623153032689  0.9159437039977686  0.0972068368552845   T   T   T
  0.3476227925495728  0.8351027432141984  0.0958632097871999   T   T   T
  0.7868877112337802  0.0865336353602861  0.0960687189374967   T   T   T
  0.6378784122883908  0.1673881822656164  0.0967662167210408   T   T   T
  0.7906326938894703  0.9214212216486012  0.0968653842395398   T   T   T
  0.8297268736978931  0.6547274319520678  0.0984927998219949   T   T   T
  0.8276219764425151  0.3580841879293050  0.0952415258165651   T   T   T
  0.6428035588038676  0.8361093352544685  0.0985671140473867   T   T   T
  0.3202704091149937  0.3299105301850138  0.1021616649779233   T   T   T
  0.3262499346106519  0.6718769606617497  0.0964670896468975   T   T   T
  0.6624337506404245  0.3362666663435210  0.0963439689346187   T   T   T
  0.6678914426364770  0.6762635106538319  0.1012880743535899   T   T   T
  0.1985599852069540  0.9161534117893232  0.0954729755276709   T   T   T
  0.4847637109370601  0.4930278482705611  0.1158140018374758   T   T   T
 
  0.00000000E+00  0.00000000E+00  0.00000000E+00
  0.00000000E+00  0.00000000E+00  0.00000000E+00
  0.00000000E+00  0.00000000E+00  0.00000000E+00
  0.00000000E+00  0.00000000E+00  0.00000000E+00
  0.00000000E+00  0.00000000E+00  0.00000000E+00
  0.00000000E+00  0.00000000E+00  0.00000000E+00
  0.00000000E+00  0.00000000E+00  0.00000000E+00
  0.00000000E+00  0.00000000E+00  0.00000000E+00
  0.00000000E+00  0.00000000E+00  0.00000000E+00
  0.00000000E+00  0.00000000E+00  0.00000000E+00
  0.00000000E+00  0.00000000E+00  0.00000000E+00
  0.00000000E+00  0.00000000E+00  0.00000000E+00
  0.00000000E+00  0.00000000E+00  0.00000000E+00
  0.00000000E+00  0.00000000E+00  0.00000000E+00
  0.00000000E+00  0.00000000E+00  0.00000000E+00
  0.00000000E+00  0.00000000E+00  0.00000000E+00
  0.00000000E+00  0.00000000E+00  0.00000000E+00
  0.00000000E+00  0.00000000E+00  0.00000000E+00
  0.00000000E+00  0.00000000E+00  0.00000000E+00
  0.00000000E+00  0.00000000E+00  0.00000000E+00
  0.00000000E+00  0.00000000E+00  0.00000000E+00
  0.00000000E+00  0.00000000E+00  0.00000000E+00
  0.00000000E+00  0.00000000E+00  0.00000000E+00
  0.00000000E+00  0.00000000E+00  0.00000000E+00
  0.00000000E+00  0.00000000E+00  0.00000000E+00
