Title                                   
   1.00000000000000     
     4.9440799999999996    0.0000000000000000    0.0000000000000000
     0.0000000000000000   17.1295089999999988    0.0000000000000000
     0.0000000000000000    0.0000000000000000   20.0000000000000000
    28     3     1
Selective dynamics
Direct
 -0.0001739337517083  0.1044075924408819  0.2819731781800039   T   T   T
  0.2498712156265839  0.1463543984095236  0.2854646876298280   T   T   T
  0.2498480542618644  0.2293427748722429  0.2948877496395864   T   T   T
  0.0003884699081091  0.3517499232172079  0.3165731095892813   T   T   T
 -0.0017741356159217  0.2707104600236425  0.2999019311781828   T   T   T
 -0.0039193533875940  0.6061907560880014  0.3137308735318693   T   T   T
  0.2498836673961859  0.7275458362795009  0.2910494389089342   T   T   T
  0.0002274416409981  0.8530946487442052  0.2792457880259461   T   T   T
  0.2498443738552936  0.8950836545776009  0.2778077270875038   T   T   T
  0.2498670878653196  0.9788636179634103  0.2772080061280316   T   T   T
  0.0005095867171138  0.7694577454164704  0.2855041195393774   T   T   T
  0.4999254217900491  0.1044064523330629  0.2819788060293508   T   T   T
  0.7498690742808867  0.1462194161064461  0.2847269907500779   T   T   T
  0.7498390869129444  0.2291975240087804  0.2928436065289715   T   T   T
  0.4999776643286015  0.0207909322181124  0.2779686952591162   T   T   T
  0.4994044852632113  0.3517564470069122  0.3165592505965534   T   T   T
  0.7499219006696601  0.3980458567245062  0.3228563063019654   T   T   T
  0.7499800063150112  0.4833916210528735  0.3311563589905938   T   T   T
  0.5014869665547158  0.2707167732035837  0.2998947636949854   T   T   T
  0.5037992252024449  0.6061857614886520  0.3136768666836384   T   T   T
  0.7498941940548665  0.7286565788829058  0.2895572527778871   T   T   T
  0.4994848768174884  0.8530915682469692  0.2792440926484019   T   T   T
  0.7498515979032070  0.8948805332789072  0.2775655666646356   T   T   T
  0.7498703222730478  0.9787425156370374  0.2769763890796019   T   T   T
  0.4992477990922132  0.7694559731661287  0.2854966564878335   T   T   T
  0.7499513076674976  0.6463234549424588  0.3031432263476289   T   T   T
  0.2499190832007833  0.6445710340841574  0.3060355387530679   T   T   T
 -0.0002419482102321  0.0207928340593479  0.2779664172909918   T   T   T
  0.5151840507591270  0.5280170383618791  0.3366121958087280   T   T   T
  0.9847181972371661  0.5280371668823427  0.3367794461362322   T   T   T
  0.2498954622474403  0.3849656391831770  0.3321909583672246   T   T   T
  0.2502717511236310  0.4775044710990646  0.3959890053639207   T   T   T
 
  0.00000000E+00  0.00000000E+00  0.00000000E+00
  0.00000000E+00  0.00000000E+00  0.00000000E+00
  0.00000000E+00  0.00000000E+00  0.00000000E+00
  0.00000000E+00  0.00000000E+00  0.00000000E+00
  0.00000000E+00  0.00000000E+00  0.00000000E+00
  0.00000000E+00  0.00000000E+00  0.00000000E+00
  0.00000000E+00  0.00000000E+00  0.00000000E+00
  0.00000000E+00  0.00000000E+00  0.00000000E+00
  0.00000000E+00  0.00000000E+00  0.00000000E+00
  0.00000000E+00  0.00000000E+00  0.00000000E+00
  0.00000000E+00  0.00000000E+00  0.00000000E+00
  0.00000000E+00  0.00000000E+00  0.00000000E+00
  0.00000000E+00  0.00000000E+00  0.00000000E+00
  0.00000000E+00  0.00000000E+00  0.00000000E+00
  0.00000000E+00  0.00000000E+00  0.00000000E+00
  0.00000000E+00  0.00000000E+00  0.00000000E+00
  0.00000000E+00  0.00000000E+00  0.00000000E+00
  0.00000000E+00  0.00000000E+00  0.00000000E+00
  0.00000000E+00  0.00000000E+00  0.00000000E+00
  0.00000000E+00  0.00000000E+00  0.00000000E+00
  0.00000000E+00  0.00000000E+00  0.00000000E+00
  0.00000000E+00  0.00000000E+00  0.00000000E+00
  0.00000000E+00  0.00000000E+00  0.00000000E+00
  0.00000000E+00  0.00000000E+00  0.00000000E+00
  0.00000000E+00  0.00000000E+00  0.00000000E+00
  0.00000000E+00  0.00000000E+00  0.00000000E+00
  0.00000000E+00  0.00000000E+00  0.00000000E+00
  0.00000000E+00  0.00000000E+00  0.00000000E+00
  0.00000000E+00  0.00000000E+00  0.00000000E+00
  0.00000000E+00  0.00000000E+00  0.00000000E+00
  0.00000000E+00  0.00000000E+00  0.00000000E+00
  0.00000000E+00  0.00000000E+00  0.00000000E+00
