Title                                   
   1.00000000000000     
     8.5490480000000009    0.0000000000000000    0.0000000000000000
     0.0000000000000000    8.5490480000000009    0.0000000000000000
     0.0000000000000000    0.0000000000000000   20.0000000000000000
    22     2     1
Selective dynamics
Direct
  0.9107522654878176  0.2047378652175805  0.0954471943387890   T   T   T
  0.9022592857288025  0.5017880930179878  0.0952949175041760   T   T   T
  0.9107522845372029  0.7987985120997931  0.0954653052126785   T   T   T
  0.1998825922109295  0.0842524552573762  0.0954824925499616   T   T   T
  0.0760668666164774  0.2068196605030830  0.0954574822291355   T   T   T
  0.1998793500693542  0.9193079741095904  0.0954921935132764   T   T   T
  0.1541373450203795  0.6477114092219007  0.0953733348893411   T   T   T
  0.0715888802961595  0.5017890294146303  0.0953353464025172   T   T   T
  0.1541300705418882  0.3558571332040827  0.0953674122353918   T   T   T
  0.0760675859031584  0.7967207226999358  0.0954690079391925   T   T   T
  0.4946794679761363  0.0870288595522035  0.0953692813016475   T   T   T
  0.3484603979671768  0.1665662720869954  0.0953992870142230   T   T   T
  0.4946772853989760  0.9165540532999504  0.0953667426798510   T   T   T
  0.3484510772815503  0.8370480310294224  0.0954068389273502   T   T   T
  0.7908420564673959  0.0848489089259284  0.0954691431570979   T   T   T
  0.6438053803772634  0.1659683358229841  0.0953221544781119   T   T   T
  0.7908426610097014  0.9187091157911884  0.0954781465573445   T   T   T
  0.8255970182063467  0.6510511106265072  0.0953049678724807   T   T   T
  0.8255990557184008  0.3525053115010899  0.0952867905369966   T   T   T
  0.6437995327156941  0.8376085856869059  0.0953254677882089   T   T   T
  0.3230299216029357  0.3369630279930961  0.0952734774887315   T   T   T
  0.3230377389658379  0.6666757437618290  0.0952847272734030   T   T   T
  0.6659978518828081  0.3270107332109078  0.0951435794206856   T   T   T
  0.6659894254603270  0.6765597365313852  0.0951559815418996   T   T   T
  0.4850866025572724  0.5019093194336585  0.0949337271474866   T   T   T
 
  0.00000000E+00  0.00000000E+00  0.00000000E+00
  0.00000000E+00  0.00000000E+00  0.00000000E+00
  0.00000000E+00  0.00000000E+00  0.00000000E+00
  0.00000000E+00  0.00000000E+00  0.00000000E+00
  0.00000000E+00  0.00000000E+00  0.00000000E+00
  0.00000000E+00  0.00000000E+00  0.00000000E+00
  0.00000000E+00  0.00000000E+00  0.00000000E+00
  0.00000000E+00  0.00000000E+00  0.00000000E+00
  0.00000000E+00  0.00000000E+00  0.00000000E+00
  0.00000000E+00  0.00000000E+00  0.00000000E+00
  0.00000000E+00  0.00000000E+00  0.00000000E+00
  0.00000000E+00  0.00000000E+00  0.00000000E+00
  0.00000000E+00  0.00000000E+00  0.00000000E+00
  0.00000000E+00  0.00000000E+00  0.00000000E+00
  0.00000000E+00  0.00000000E+00  0.00000000E+00
  0.00000000E+00  0.00000000E+00  0.00000000E+00
  0.00000000E+00  0.00000000E+00  0.00000000E+00
  0.00000000E+00  0.00000000E+00  0.00000000E+00
  0.00000000E+00  0.00000000E+00  0.00000000E+00
  0.00000000E+00  0.00000000E+00  0.00000000E+00
  0.00000000E+00  0.00000000E+00  0.00000000E+00
  0.00000000E+00  0.00000000E+00  0.00000000E+00
  0.00000000E+00  0.00000000E+00  0.00000000E+00
  0.00000000E+00  0.00000000E+00  0.00000000E+00
  0.00000000E+00  0.00000000E+00  0.00000000E+00
