Title                                   
   1.00000000000000     
     9.8694509999999998    0.0000000000000000    0.0000000000000000
     0.0000000000000000    8.5490480000000009    0.0000000000000000
     0.0000000000000000    0.0000000000000000   20.0000000000000000
    29     1     1
Selective dynamics
Direct
  0.0563745421738649  0.0893687286753660  0.0818103316590994   T   T   T
  0.9312487564606050  0.1721868269373854  0.0785555447925250   T   T   T
  0.0573908182200197  0.9237586504936608  0.0820574743495620   T   T   T
  0.9333206184350820  0.3392024088055309  0.0776652464237878   T   T   T
  0.0577894411029555  0.5900682868509374  0.0822970632315705   T   T   T
  0.9332845431467359  0.6733700996171500  0.0779727690244102   T   T   T
  0.0579256059185095  0.4231521918019525  0.0822713576960796   T   T   T
  0.9316870866915971  0.8398572126816012  0.0790060833128833   T   T   T
  0.3045766921471253  0.0884615752699522  0.0981765480289842   T   T   T
  0.1808701074908040  0.1717090608174518  0.0897551752945691   T   T   T
  0.1811951217456844  0.3390999632619315  0.0921946833853507   T   T   T
  0.3010028957813348  0.5921493985436702  0.1111183594457805   T   T   T
  0.1819158548542802  0.6738428020215914  0.0920024636351135   T   T   T
  0.3011254643813522  0.4200229095508363  0.1111578761012737   T   T   T
  0.1819080701818866  0.8409263296786380  0.0896733287527060   T   T   T
  0.5556940875289232  0.0883721189393619  0.1033097379251811   T   T   T
  0.4270511644228272  0.1725232370386691  0.1110176397663562   T   T   T
  0.5543185901876728  0.9240621296632960  0.1028952281861605   T   T   T
  0.4212753660873562  0.3347674284600398  0.1254318496652621   T   T   T
  0.4200946019911219  0.6790427305016138  0.1259530159165940   T   T   T
  0.4257574571462968  0.8388299048666399  0.1109284144232668   T   T   T
  0.8055996150224107  0.0889763291820815  0.0812827763279789   T   T   T
  0.6812188141767389  0.1750612841650975  0.0902187750319562   T   T   T
  0.8055165843872911  0.9223954670896786  0.0814712428851742   T   T   T
  0.6843524458169382  0.3396153445070002  0.0882934971777856   T   T   T
  0.8076559894431063  0.5916030117225680  0.0781956645503032   T   T   T
  0.6834799179793981  0.6718789430116212  0.0872875187265059   T   T   T
  0.8078946151079919  0.4206688311275494  0.0781112964883665   T   T   T
  0.6803052347878551  0.8361305904475372  0.0899362516292651   T   T   T
  0.3038628341595791  0.9234380695665392  0.0973408350068138   T   T   T
  0.5874420630226592  0.5063331347030694  0.1635769511593617   T   T   T
 
  0.00000000E+00  0.00000000E+00  0.00000000E+00
  0.00000000E+00  0.00000000E+00  0.00000000E+00
  0.00000000E+00  0.00000000E+00  0.00000000E+00
  0.00000000E+00  0.00000000E+00  0.00000000E+00
  0.00000000E+00  0.00000000E+00  0.00000000E+00
  0.00000000E+00  0.00000000E+00  0.00000000E+00
  0.00000000E+00  0.00000000E+00  0.00000000E+00
  0.00000000E+00  0.00000000E+00  0.00000000E+00
  0.00000000E+00  0.00000000E+00  0.00000000E+00
  0.00000000E+00  0.00000000E+00  0.00000000E+00
  0.00000000E+00  0.00000000E+00  0.00000000E+00
  0.00000000E+00  0.00000000E+00  0.00000000E+00
  0.00000000E+00  0.00000000E+00  0.00000000E+00
  0.00000000E+00  0.00000000E+00  0.00000000E+00
  0.00000000E+00  0.00000000E+00  0.00000000E+00
  0.00000000E+00  0.00000000E+00  0.00000000E+00
  0.00000000E+00  0.00000000E+00  0.00000000E+00
  0.00000000E+00  0.00000000E+00  0.00000000E+00
  0.00000000E+00  0.00000000E+00  0.00000000E+00
  0.00000000E+00  0.00000000E+00  0.00000000E+00
  0.00000000E+00  0.00000000E+00  0.00000000E+00
  0.00000000E+00  0.00000000E+00  0.00000000E+00
  0.00000000E+00  0.00000000E+00  0.00000000E+00
  0.00000000E+00  0.00000000E+00  0.00000000E+00
  0.00000000E+00  0.00000000E+00  0.00000000E+00
  0.00000000E+00  0.00000000E+00  0.00000000E+00
  0.00000000E+00  0.00000000E+00  0.00000000E+00
  0.00000000E+00  0.00000000E+00  0.00000000E+00
  0.00000000E+00  0.00000000E+00  0.00000000E+00
  0.00000000E+00  0.00000000E+00  0.00000000E+00
  0.00000000E+00  0.00000000E+00  0.00000000E+00
