Title                                   
   1.00000000000000     
     9.8694509999999998    0.0000000000000000    0.0000000000000000
     0.0000000000000000    8.5490480000000009    0.0000000000000000
     0.0000000000000000    0.0000000000000000   20.0000000000000000
    27     4     1
Selective dynamics
Direct
  0.0558602688502459  0.0914754566600839  0.0864724515490400   T   T   T
  0.9310070434229991  0.1754771356153532  0.0874365211375897   T   T   T
  0.0583446134891541  0.9240601354150779  0.0863516455225948   T   T   T
  0.9286102356714054  0.3432774658434595  0.0902594257854446   T   T   T
  0.0571644298267467  0.5908396288177916  0.0881692982682925   T   T   T
  0.9328197621475871  0.6744924003568807  0.0896228239860047   T   T   T
  0.0555905875299594  0.4233359500057051  0.0893709016305543   T   T   T
  0.9337938729595481  0.8410702826819261  0.0879190453820606   T   T   T
  0.3057234630062854  0.0869215067385757  0.0901075549683907   T   T   T
  0.1821220203965722  0.1721907594924298  0.0884090105300931   T   T   T
  0.1816956954539099  0.3388453814085972  0.0906768996106913   T   T   T
  0.3059980417088731  0.5872082664069089  0.1003191535358412   T   T   T
  0.1826435913831359  0.6734643533735479  0.0904384094683695   T   T   T
  0.3072103822134158  0.4199578218644170  0.0979871619597317   T   T   T
  0.1826672991548806  0.8401389713935465  0.0889085187656935   T   T   T
  0.5568645312338273  0.0852375653177829  0.0936277035934849   T   T   T
  0.5564678828422162  0.9216984740363420  0.0988407694856623   T   T   T
  0.4309909561431181  0.3297297416990340  0.1009365198807465   T   T   T
  0.4292817084003676  0.8395592998331116  0.1030969182365450   T   T   T
  0.8064210324795760  0.0907558579855429  0.0874647534512743   T   T   T
  0.6795995095418750  0.1709105757835492  0.0910247497152159   T   T   T
  0.8087832435567710  0.9256864332536003  0.0891025935700650   T   T   T
  0.6773258357203353  0.3361613055097213  0.0984940670905908   T   T   T
  0.8070223491601795  0.5958920302672622  0.0983747181728765   T   T   T
  0.8006521574226367  0.4265988117879613  0.0964468988537143   T   T   T
  0.6860831410763221  0.8422012254265010  0.0986393874810295   T   T   T
  0.4210014346548095  0.6799645755390420  0.1152623967051735   T   T   T
  0.5509456920595847  0.4005279494825683  0.1106488348777079   T   T   T
  0.6931902425980910  0.6855987370153087  0.1102842986712976   T   T   T
  0.3067040404913494  0.9242036403628342  0.0916157698733982   T   T   T
  0.4286912761226644  0.1658567782014824  0.0932520151414827   T   T   T
  0.5583626592815629  0.5869074824240545  0.1561137830993592   T   T   T
 
  0.00000000E+00  0.00000000E+00  0.00000000E+00
  0.00000000E+00  0.00000000E+00  0.00000000E+00
  0.00000000E+00  0.00000000E+00  0.00000000E+00
  0.00000000E+00  0.00000000E+00  0.00000000E+00
  0.00000000E+00  0.00000000E+00  0.00000000E+00
  0.00000000E+00  0.00000000E+00  0.00000000E+00
  0.00000000E+00  0.00000000E+00  0.00000000E+00
  0.00000000E+00  0.00000000E+00  0.00000000E+00
  0.00000000E+00  0.00000000E+00  0.00000000E+00
  0.00000000E+00  0.00000000E+00  0.00000000E+00
  0.00000000E+00  0.00000000E+00  0.00000000E+00
  0.00000000E+00  0.00000000E+00  0.00000000E+00
  0.00000000E+00  0.00000000E+00  0.00000000E+00
  0.00000000E+00  0.00000000E+00  0.00000000E+00
  0.00000000E+00  0.00000000E+00  0.00000000E+00
  0.00000000E+00  0.00000000E+00  0.00000000E+00
  0.00000000E+00  0.00000000E+00  0.00000000E+00
  0.00000000E+00  0.00000000E+00  0.00000000E+00
  0.00000000E+00  0.00000000E+00  0.00000000E+00
  0.00000000E+00  0.00000000E+00  0.00000000E+00
  0.00000000E+00  0.00000000E+00  0.00000000E+00
  0.00000000E+00  0.00000000E+00  0.00000000E+00
  0.00000000E+00  0.00000000E+00  0.00000000E+00
  0.00000000E+00  0.00000000E+00  0.00000000E+00
  0.00000000E+00  0.00000000E+00  0.00000000E+00
  0.00000000E+00  0.00000000E+00  0.00000000E+00
  0.00000000E+00  0.00000000E+00  0.00000000E+00
  0.00000000E+00  0.00000000E+00  0.00000000E+00
  0.00000000E+00  0.00000000E+00  0.00000000E+00
  0.00000000E+00  0.00000000E+00  0.00000000E+00
  0.00000000E+00  0.00000000E+00  0.00000000E+00
  0.00000000E+00  0.00000000E+00  0.00000000E+00
