Title                                   
   1.00000000000000     
     4.9440799999999996    0.0000000000000000    0.0000000000000000
     0.0000000000000000    8.5647549999999999    0.0000000000000000
     0.0000000000000000    0.0000000000000000   20.0000000000000000
    11     3     1
Selective dynamics
Direct
  0.0012982927004803  0.2925675834503633  0.0949954465570941   T   T   T
  0.2500000000000000  0.0378720277160558  0.0948995424869523   T   T   T
 -0.0014986754932637  0.9560465817494558  0.0951291564387600   T   T   T
  0.7500000000000000  0.2068901839891163  0.0914292407905985   T   T   T
  0.4987017072995198  0.2925675834503633  0.0949954465570941   T   T   T
  0.7500000000000000  0.0404831596649199  0.0923492300709187   T   T   T
  0.7500000000000000  0.7149143190560987  0.0995190680293309   T   T   T
  0.7500000000000000  0.5414409619712691  0.1013454676249000   T   T   T
  0.5014986754932639  0.9560465817494558  0.0951291564387600   T   T   T
  0.4994833772441569  0.4565888601584106  0.1020755961048564   T   T   T
  0.0005166227558430  0.4565888601584106  0.1020755961048564   T   T   T
 -0.0083334487689126  0.7933046508960793  0.0994169895561506   T   T   T
  0.5083334487689125  0.7933046508960793  0.0994169895561506   T   T   T
  0.2500000000000000  0.2069547721589919  0.0947582222317922   T   T   T
  0.2500000000000000  0.6261102229349321  0.1504448514517883   T   T   T
 
  0.00000000E+00  0.00000000E+00  0.00000000E+00
  0.00000000E+00  0.00000000E+00  0.00000000E+00
  0.00000000E+00  0.00000000E+00  0.00000000E+00
  0.00000000E+00  0.00000000E+00  0.00000000E+00
  0.00000000E+00  0.00000000E+00  0.00000000E+00
  0.00000000E+00  0.00000000E+00  0.00000000E+00
  0.00000000E+00  0.00000000E+00  0.00000000E+00
  0.00000000E+00  0.00000000E+00  0.00000000E+00
  0.00000000E+00  0.00000000E+00  0.00000000E+00
  0.00000000E+00  0.00000000E+00  0.00000000E+00
  0.00000000E+00  0.00000000E+00  0.00000000E+00
  0.00000000E+00  0.00000000E+00  0.00000000E+00
  0.00000000E+00  0.00000000E+00  0.00000000E+00
  0.00000000E+00  0.00000000E+00  0.00000000E+00
  0.00000000E+00  0.00000000E+00  0.00000000E+00
