Title                                   
   1.00000000000000     
     8.5490480000000009    0.0000000000000000    0.0000000000000000
     0.0000000000000000    8.5490480000000009    0.0000000000000000
     0.0000000000000000    0.0000000000000000   20.0000000000000000
    22     2     1
Selective dynamics
Direct
  0.9096411687213423  0.2065464875876076  0.0946007403836553   T   T   T
  0.9120687364020731  0.8003944661553533  0.0946174509328190   T   T   T
  0.1970989928151748  0.0832880037510438  0.0946645134786056   T   T   T
  0.0750276786941908  0.2016910307659555  0.0947133779070710   T   T   T
  0.1569076046724229  0.6485023535719623  0.0959530766546075   T   T   T
  0.0756528473436737  0.5014998590037593  0.0959005460360429   T   T   T
  0.1559767196691736  0.3545283294117611  0.0965466203339608   T   T   T
  0.0784223417171743  0.7990168290866940  0.0945205656025885   T   T   T
  0.4937721177295137  0.0864574630668941  0.0963916462130509   T   T   T
  0.3447835442771072  0.1642462149045698  0.0962858862003192   T   T   T
  0.4933962392179734  0.9175335434264950  0.0963762426761428   T   T   T
  0.3459127075418297  0.8357200127673887  0.0960997566321621   T   T   T
  0.7876717831704300  0.0865091415920953  0.0954124373566815   T   T   T
  0.6388359744969748  0.1685307958748568  0.0970321544563674   T   T   T
  0.7887691635834163  0.9194400419073698  0.0954589938786785   T   T   T
  0.8307312392663229  0.6480909812055963  0.0960596149569919   T   T   T
  0.8289385001109856  0.3583167304753865  0.0955918358141305   T   T   T
  0.6395961740134793  0.8356385945574105  0.0973846925929259   T   T   T
  0.3221441096133698  0.3327310166912476  0.0994065920483662   T   T   T
  0.3236122928422546  0.6709452380657661  0.0979640456555144   T   T   T
  0.6633586209519721  0.3388681999395075  0.0990163906628837   T   T   T
  0.6647296266008982  0.6666449034843622  0.1002486782446462   T   T   T
  0.9102904851093132  0.5029301809451606  0.0954432934932557   T   T   T
  0.1976803884672005  0.9159484818540521  0.0945205834425386   T   T   T
  0.4903929429717184  0.5007710999077102  0.1334952643459739   T   T   T
 
  0.00000000E+00  0.00000000E+00  0.00000000E+00
  0.00000000E+00  0.00000000E+00  0.00000000E+00
  0.00000000E+00  0.00000000E+00  0.00000000E+00
  0.00000000E+00  0.00000000E+00  0.00000000E+00
  0.00000000E+00  0.00000000E+00  0.00000000E+00
  0.00000000E+00  0.00000000E+00  0.00000000E+00
  0.00000000E+00  0.00000000E+00  0.00000000E+00
  0.00000000E+00  0.00000000E+00  0.00000000E+00
  0.00000000E+00  0.00000000E+00  0.00000000E+00
  0.00000000E+00  0.00000000E+00  0.00000000E+00
  0.00000000E+00  0.00000000E+00  0.00000000E+00
  0.00000000E+00  0.00000000E+00  0.00000000E+00
  0.00000000E+00  0.00000000E+00  0.00000000E+00
  0.00000000E+00  0.00000000E+00  0.00000000E+00
  0.00000000E+00  0.00000000E+00  0.00000000E+00
  0.00000000E+00  0.00000000E+00  0.00000000E+00
  0.00000000E+00  0.00000000E+00  0.00000000E+00
  0.00000000E+00  0.00000000E+00  0.00000000E+00
  0.00000000E+00  0.00000000E+00  0.00000000E+00
  0.00000000E+00  0.00000000E+00  0.00000000E+00
  0.00000000E+00  0.00000000E+00  0.00000000E+00
  0.00000000E+00  0.00000000E+00  0.00000000E+00
  0.00000000E+00  0.00000000E+00  0.00000000E+00
  0.00000000E+00  0.00000000E+00  0.00000000E+00
  0.00000000E+00  0.00000000E+00  0.00000000E+00
