Title                                   
   1.00000000000000     
     9.8694509999999998    0.0000000000000000    0.0000000000000000
     0.0000000000000000    8.5490480000000009    0.0000000000000000
     0.0000000000000000    0.0000000000000000   20.0000000000000000
    26     4     1
Selective dynamics
Direct
  0.0562486163650449  0.0893417643053227  0.0851428172948985   T   T   T
  0.9315191610488388  0.1716316063095863  0.0863636518767365   T   T   T
  0.0562561396164942  0.9229884398609688  0.0851428764310294   T   T   T
  0.9332556801649060  0.3388958799082152  0.0845961911864717   T   T   T
  0.0564039991240856  0.5888113189635228  0.0811666136287044   T   T   T
  0.9332535609318868  0.6734172481125373  0.0846229614192782   T   T   T
  0.0563846509604578  0.4235112948925255  0.0811485583783372   T   T   T
  0.9315267910835712  0.8406864426504439  0.0863798330998483   T   T   T
  0.3064945603013220  0.0905670873375438  0.0941194085306816   T   T   T
  0.1808961394975023  0.1716723683203088  0.0877065230976153   T   T   T
  0.3064926696893643  0.9217299654901095  0.0941230490277743   T   T   T
  0.1792992453593605  0.3389479371666995  0.0863217021230181   T   T   T
  0.2991017503222680  0.5905631587634397  0.0961297139851386   T   T   T
  0.1792863907895453  0.6733780552829841  0.0863341612962485   T   T   T
  0.2991016114965550  0.4217447324816724  0.0961296959821189   T   T   T
  0.1809068613748457  0.8406597611281005  0.0877002663747238   T   T   T
  0.5562515745655153  0.0933217808807723  0.1042667387896723   T   T   T
  0.4285917956519356  0.1778784705894108  0.1027270384955862   T   T   T
  0.5562562100950696  0.9189834839513590  0.1042758019833383   T   T   T
  0.4286101570395077  0.8344424480564563  0.1027218797186739   T   T   T
  0.8058138213788035  0.0905589577842687  0.0923639539756308   T   T   T
  0.6837532504273990  0.1779072388067201  0.1010776698863406   T   T   T
  0.8058137614950092  0.9217405769768579  0.0923652438761976   T   T   T
  0.8131379443812448  0.5905442996827049  0.0932191230102067   T   T   T
  0.8131324763688362  0.4217637877327207  0.0932055618074926   T   T   T
  0.6837589906746208  0.8344023601262950  0.1010797561752498   T   T   T
  0.4200787761366356  0.3419008512017667  0.1085511378496487   T   T   T
  0.4200912871491368  0.6704167944593206  0.1085448737252312   T   T   T
  0.6923560170189111  0.3420467709363033  0.1060529380359437   T   T   T
  0.6923595522694982  0.6702721956161177  0.1060573014961112   T   T   T
  0.5567025572218630  0.5061479222249302  0.1213279574421084   T   T   T
 
  0.00000000E+00  0.00000000E+00  0.00000000E+00
  0.00000000E+00  0.00000000E+00  0.00000000E+00
  0.00000000E+00  0.00000000E+00  0.00000000E+00
  0.00000000E+00  0.00000000E+00  0.00000000E+00
  0.00000000E+00  0.00000000E+00  0.00000000E+00
  0.00000000E+00  0.00000000E+00  0.00000000E+00
  0.00000000E+00  0.00000000E+00  0.00000000E+00
  0.00000000E+00  0.00000000E+00  0.00000000E+00
  0.00000000E+00  0.00000000E+00  0.00000000E+00
  0.00000000E+00  0.00000000E+00  0.00000000E+00
  0.00000000E+00  0.00000000E+00  0.00000000E+00
  0.00000000E+00  0.00000000E+00  0.00000000E+00
  0.00000000E+00  0.00000000E+00  0.00000000E+00
  0.00000000E+00  0.00000000E+00  0.00000000E+00
  0.00000000E+00  0.00000000E+00  0.00000000E+00
  0.00000000E+00  0.00000000E+00  0.00000000E+00
  0.00000000E+00  0.00000000E+00  0.00000000E+00
  0.00000000E+00  0.00000000E+00  0.00000000E+00
  0.00000000E+00  0.00000000E+00  0.00000000E+00
  0.00000000E+00  0.00000000E+00  0.00000000E+00
  0.00000000E+00  0.00000000E+00  0.00000000E+00
  0.00000000E+00  0.00000000E+00  0.00000000E+00
  0.00000000E+00  0.00000000E+00  0.00000000E+00
  0.00000000E+00  0.00000000E+00  0.00000000E+00
  0.00000000E+00  0.00000000E+00  0.00000000E+00
  0.00000000E+00  0.00000000E+00  0.00000000E+00
  0.00000000E+00  0.00000000E+00  0.00000000E+00
  0.00000000E+00  0.00000000E+00  0.00000000E+00
  0.00000000E+00  0.00000000E+00  0.00000000E+00
  0.00000000E+00  0.00000000E+00  0.00000000E+00
  0.00000000E+00  0.00000000E+00  0.00000000E+00
