Title                                   
   1.00000000000000     
     9.8694509999999998    0.0000000000000000    0.0000000000000000
     0.0000000000000000    8.5490480000000009    0.0000000000000000
     0.0000000000000000    0.0000000000000000   20.0000000000000000
    26     5     1
Selective dynamics
Direct
  0.0565165477777126  0.0925950317735678  0.0861370369086743   T   T   T
  0.9309079514485011  0.1751455274677743  0.0885495491516057   T   T   T
  0.0567558422209895  0.9242955229642124  0.0859122889088289   T   T   T
  0.9298094751303778  0.3418367119330272  0.0920740386038698   T   T   T
  0.0560020103644813  0.5897267567236287  0.0882638791164255   T   T   T
  0.9321875695517227  0.6734825896456512  0.0897366733740729   T   T   T
  0.0570004805641173  0.4233479076823726  0.0906649183146418   T   T   T
  0.9317667990208105  0.8411538029666207  0.0875560349976065   T   T   T
  0.3054951575455320  0.0885950978043784  0.0861481086557075   T   T   T
  0.1825591164098314  0.1753027714297452  0.0870782178659270   T   T   T
  0.3064616117170583  0.9230846130742628  0.0885759409147981   T   T   T
  0.1829772884295433  0.3413180226649997  0.0907283642766204   T   T   T
  0.3056111841208731  0.5921863919707617  0.0978504921068578   T   T   T
  0.1810907627065187  0.6715023117837763  0.0892616540387229   T   T   T
  0.1813073103334117  0.8391727784645560  0.0879546408228535   T   T   T
  0.5555563603062575  0.0843413491735579  0.0947170491816440   T   T   T
  0.4306167756078958  0.1687048920900195  0.0913299585813590   T   T   T
  0.4323809685732243  0.3335155871932212  0.0982164233720684   T   T   T
  0.4275882328728174  0.8373904540594056  0.0979733988035938   T   T   T
  0.8069689876294401  0.0906650777867604  0.0883767954472497   T   T   T
  0.6804555395483215  0.1685002238098112  0.0939991189010116   T   T   T
  0.8064718690270688  0.9249222026070139  0.0882138929158362   T   T   T
  0.6777790087068507  0.3334906550269482  0.1011956847988129   T   T   T
  0.8073540404346149  0.5942342008499989  0.0985723103271035   T   T   T
  0.8013554917792708  0.4251806219968802  0.0981112251047195   T   T   T
  0.6843426765753408  0.8401710306121252  0.0960966488385773   T   T   T
  0.4194088123923775  0.6798879883522160  0.1135532768827163   T   T   T
  0.5526567662113431  0.4042382146024035  0.1143471991911393   T   T   T
  0.6919380907444731  0.6840522124914427  0.1103388349837807   T   T   T
  0.5556783941184233  0.9160452354909844  0.0963588784536080   T   T   T
  0.3106784457594071  0.4245105509925945  0.0953616282627346   T   T   T
  0.5619594323713969  0.5876496645152824  0.1724208378968488   T   T   T
 
  0.00000000E+00  0.00000000E+00  0.00000000E+00
  0.00000000E+00  0.00000000E+00  0.00000000E+00
  0.00000000E+00  0.00000000E+00  0.00000000E+00
  0.00000000E+00  0.00000000E+00  0.00000000E+00
  0.00000000E+00  0.00000000E+00  0.00000000E+00
  0.00000000E+00  0.00000000E+00  0.00000000E+00
  0.00000000E+00  0.00000000E+00  0.00000000E+00
  0.00000000E+00  0.00000000E+00  0.00000000E+00
  0.00000000E+00  0.00000000E+00  0.00000000E+00
  0.00000000E+00  0.00000000E+00  0.00000000E+00
  0.00000000E+00  0.00000000E+00  0.00000000E+00
  0.00000000E+00  0.00000000E+00  0.00000000E+00
  0.00000000E+00  0.00000000E+00  0.00000000E+00
  0.00000000E+00  0.00000000E+00  0.00000000E+00
  0.00000000E+00  0.00000000E+00  0.00000000E+00
  0.00000000E+00  0.00000000E+00  0.00000000E+00
  0.00000000E+00  0.00000000E+00  0.00000000E+00
  0.00000000E+00  0.00000000E+00  0.00000000E+00
  0.00000000E+00  0.00000000E+00  0.00000000E+00
  0.00000000E+00  0.00000000E+00  0.00000000E+00
  0.00000000E+00  0.00000000E+00  0.00000000E+00
  0.00000000E+00  0.00000000E+00  0.00000000E+00
  0.00000000E+00  0.00000000E+00  0.00000000E+00
  0.00000000E+00  0.00000000E+00  0.00000000E+00
  0.00000000E+00  0.00000000E+00  0.00000000E+00
  0.00000000E+00  0.00000000E+00  0.00000000E+00
  0.00000000E+00  0.00000000E+00  0.00000000E+00
  0.00000000E+00  0.00000000E+00  0.00000000E+00
  0.00000000E+00  0.00000000E+00  0.00000000E+00
  0.00000000E+00  0.00000000E+00  0.00000000E+00
  0.00000000E+00  0.00000000E+00  0.00000000E+00
  0.00000000E+00  0.00000000E+00  0.00000000E+00
