Title                                   
   1.00000000000000     
     8.5490480000000009    0.0000000000000000    0.0000000000000000
     0.0000000000000000    8.5490480000000009    0.0000000000000000
     0.0000000000000000    0.0000000000000000   20.0000000000000000
    21     3     1
Selective dynamics
Direct
  0.9102923857883001  0.2057368138947986  0.0954633553354834   T   T   T
  0.9045496607077929  0.5032852010037014  0.0953025480752633   T   T   T
  0.9094067373355543  0.7992439922610112  0.0954792890774427   T   T   T
  0.1983336194111205  0.0848767237897920  0.0954873508088282   T   T   T
  0.0761181593253478  0.2070589827878585  0.0954650234174468   T   T   T
  0.1969977465145291  0.9190507621821036  0.0954879432767839   T   T   T
  0.1556543771363262  0.6512846463401933  0.0953295140913590   T   T   T
  0.0751991734238834  0.5038921348246217  0.0953213892333666   T   T   T
  0.1565301617028175  0.3580937418175805  0.0953586782587187   T   T   T
  0.0762715740839123  0.7990442484737502  0.0954779729938336   T   T   T
  0.4950880001966494  0.0840031775204337  0.0953647166299827   T   T   T
  0.3493198979217108  0.1653483173158912  0.0953878822760387   T   T   T
  0.4944812413204960  0.9133324518856981  0.0953590237184457   T   T   T
  0.3460981370641049  0.8344294129524843  0.0953489273357299   T   T   T
  0.7902595820099108  0.0850342984209141  0.0954743924572385   T   T   T
  0.6424922492394769  0.1644646353599696  0.0953127240638728   T   T   T
  0.7904524858535460  0.9181826418804317  0.0954800503257075   T   T   T
  0.8269377697381300  0.6513290069889885  0.0953066190987581   T   T   T
  0.8256825383837685  0.3548757445536452  0.0952944419049672   T   T   T
  0.6425210217288776  0.8356810851583130  0.0953183727040975   T   T   T
  0.3205554656792960  0.3293409563810968  0.0953074472908805   T   T   T
  0.3176775882459313  0.6747521176187414  0.0951524725570517   T   T   T
  0.6659985363177739  0.3264445962766426  0.0951080729887691   T   T   T
  0.6671955396645729  0.6759535532529370  0.0951471898852198   T   T   T
  0.4912983512061639  0.5000507570584152  0.0951696021946921   T   T   T
 
  0.00000000E+00  0.00000000E+00  0.00000000E+00
  0.00000000E+00  0.00000000E+00  0.00000000E+00
  0.00000000E+00  0.00000000E+00  0.00000000E+00
  0.00000000E+00  0.00000000E+00  0.00000000E+00
  0.00000000E+00  0.00000000E+00  0.00000000E+00
  0.00000000E+00  0.00000000E+00  0.00000000E+00
  0.00000000E+00  0.00000000E+00  0.00000000E+00
  0.00000000E+00  0.00000000E+00  0.00000000E+00
  0.00000000E+00  0.00000000E+00  0.00000000E+00
  0.00000000E+00  0.00000000E+00  0.00000000E+00
  0.00000000E+00  0.00000000E+00  0.00000000E+00
  0.00000000E+00  0.00000000E+00  0.00000000E+00
  0.00000000E+00  0.00000000E+00  0.00000000E+00
  0.00000000E+00  0.00000000E+00  0.00000000E+00
  0.00000000E+00  0.00000000E+00  0.00000000E+00
  0.00000000E+00  0.00000000E+00  0.00000000E+00
  0.00000000E+00  0.00000000E+00  0.00000000E+00
  0.00000000E+00  0.00000000E+00  0.00000000E+00
  0.00000000E+00  0.00000000E+00  0.00000000E+00
  0.00000000E+00  0.00000000E+00  0.00000000E+00
  0.00000000E+00  0.00000000E+00  0.00000000E+00
  0.00000000E+00  0.00000000E+00  0.00000000E+00
  0.00000000E+00  0.00000000E+00  0.00000000E+00
  0.00000000E+00  0.00000000E+00  0.00000000E+00
  0.00000000E+00  0.00000000E+00  0.00000000E+00
