Title                                   
   1.00000000000000     
     8.5490480000000009    0.0000000000000000    0.0000000000000000
     0.0000000000000000    8.5490480000000009    0.0000000000000000
     0.0000000000000000    0.0000000000000000   20.0000000000000000
    22     2     1
Selective dynamics
Direct
  0.9090605154413212  0.2052338213604678  0.0945603237006433   T   T   T
  0.9078038673901452  0.5050218016657771  0.0964649071072600   T   T   T
  0.9122171192567907  0.8027592292913915  0.0954395620073020   T   T   T
  0.1973082839963765  0.0810248014579635  0.0952307642819564   T   T   T
  0.0731424347164317  0.2010724189823329  0.0952219598877068   T   T   T
  0.1578301730943531  0.6486204037501634  0.0956564281126809   T   T   T
  0.0750945108152136  0.5025739385117385  0.0966893095642837   T   T   T
  0.1560323891536327  0.3539819628933201  0.0979806184292923   T   T   T
  0.0795567388076964  0.7982754157946590  0.0946646007776319   T   T   T
  0.4929994149015407  0.0838183246519534  0.0963894656973303   T   T   T
  0.3435254818350175  0.1609651232472876  0.0975986885330734   T   T   T
  0.4938584651992977  0.9153892473876942  0.0962547393552751   T   T   T
  0.3467030962031752  0.8345115929553429  0.0952885831106851   T   T   T
  0.7863864662944190  0.0857237008193187  0.0948071533418636   T   T   T
  0.6378688086393347  0.1655130293897967  0.0956187398545246   T   T   T
  0.7898466819040810  0.9205955314084177  0.0955698254123417   T   T   T
  0.8310842488038567  0.6539973284883788  0.0973721982791072   T   T   T
  0.8265735143286747  0.3577042843352878  0.0954559819209700   T   T   T
  0.6420005359222659  0.8371481918406232  0.0975351298678251   T   T   T
  0.3197627565869060  0.3303684599866854  0.1023976113634875   T   T   T
  0.3242066209088988  0.6712061055434400  0.0961880518359061   T   T   T
  0.6625828737740795  0.3348002534401774  0.0964952184744152   T   T   T
  0.6682486297418310  0.6757970351993652  0.1007723799712796   T   T   T
  0.1984307340391845  0.9152649154202358  0.0941884159068650   T   T   T
  0.4932876382454686  0.5034230821781942  0.1348643432062759   T   T   T
 
  0.00000000E+00  0.00000000E+00  0.00000000E+00
  0.00000000E+00  0.00000000E+00  0.00000000E+00
  0.00000000E+00  0.00000000E+00  0.00000000E+00
  0.00000000E+00  0.00000000E+00  0.00000000E+00
  0.00000000E+00  0.00000000E+00  0.00000000E+00
  0.00000000E+00  0.00000000E+00  0.00000000E+00
  0.00000000E+00  0.00000000E+00  0.00000000E+00
  0.00000000E+00  0.00000000E+00  0.00000000E+00
  0.00000000E+00  0.00000000E+00  0.00000000E+00
  0.00000000E+00  0.00000000E+00  0.00000000E+00
  0.00000000E+00  0.00000000E+00  0.00000000E+00
  0.00000000E+00  0.00000000E+00  0.00000000E+00
  0.00000000E+00  0.00000000E+00  0.00000000E+00
  0.00000000E+00  0.00000000E+00  0.00000000E+00
  0.00000000E+00  0.00000000E+00  0.00000000E+00
  0.00000000E+00  0.00000000E+00  0.00000000E+00
  0.00000000E+00  0.00000000E+00  0.00000000E+00
  0.00000000E+00  0.00000000E+00  0.00000000E+00
  0.00000000E+00  0.00000000E+00  0.00000000E+00
  0.00000000E+00  0.00000000E+00  0.00000000E+00
  0.00000000E+00  0.00000000E+00  0.00000000E+00
  0.00000000E+00  0.00000000E+00  0.00000000E+00
  0.00000000E+00  0.00000000E+00  0.00000000E+00
  0.00000000E+00  0.00000000E+00  0.00000000E+00
  0.00000000E+00  0.00000000E+00  0.00000000E+00
