Title                                   
   1.00000000000000     
     9.8694509999999998    0.0000000000000000    0.0000000000000000
     0.0000000000000000    8.5490480000000009    0.0000000000000000
     0.0000000000000000    0.0000000000000000   20.0000000000000000
    23     7     1
Selective dynamics
Direct
  0.0559764721906345  0.0901455220237422  0.0894597397893647   T   T   T
  0.9314665678651505  0.1724682634395061  0.0894792899503444   T   T   T
  0.0567429354710582  0.9207672363943284  0.0899348559595558   T   T   T
  0.9328513241178563  0.3390222042880903  0.0893037500398691   T   T   T
  0.0558956374746039  0.5904887404022012  0.0889606572262270   T   T   T
  0.0561207117629360  0.4239463309061950  0.0883710567919261   T   T   T
  0.9318660144402290  0.8384314136515850  0.0901401015178600   T   T   T
  0.3085056387066868  0.0893673994972591  0.0934312075530554   T   T   T
  0.1810107706894689  0.1718709904711939  0.0908535119103862   T   T   T
  0.1806563667434790  0.3396900062968437  0.0903839753760791   T   T   T
  0.3026056873464296  0.5901141739148624  0.0973769938421515   T   T   T
  0.1793796590403504  0.6734489756693692  0.0912468044086598   T   T   T
  0.3041768324644415  0.4223725475886888  0.0963334001171574   T   T   T
  0.1815505774487570  0.8413601733034097  0.0916733374112466   T   T   T
  0.4293911970171540  0.1745190651084808  0.0988601058274992   T   T   T
  0.5543156301896611  0.9198782722304353  0.0998603739441692   T   T   T
  0.4285765667419781  0.8387465892729874  0.1009620154240009   T   T   T
  0.8045645781673378  0.0888737219932951  0.0910830200050791   T   T   T
  0.6833282251665603  0.1758063713939552  0.0974914162053799   T   T   T
  0.8053784263156801  0.9202742508548166  0.0916492831431607   T   T   T
  0.8096301243619164  0.5896207561816581  0.0952608364288178   T   T   T
  0.8098379108614060  0.4221610471844979  0.0948255972770317   T   T   T
  0.6821115252498711  0.8368027099080828  0.0980390664848656   T   T   T
  0.9322911449983969  0.6716868688386703  0.0898954903144842   T   T   T
  0.5572257676933631  0.0951191402448486  0.0998526357665355   T   T   T
  0.4247338635952372  0.3378447696842845  0.1059320953960703   T   T   T
  0.4205298734591079  0.6770958023657557  0.1117232949470791   T   T   T
  0.6889842310321233  0.3375881457247422  0.1062491346612407   T   T   T
  0.6905876013143041  0.6726900731800640  0.1053477032608845   T   T   T
  0.3053356644705640  0.9221448278087000  0.0932709649497720   T   T   T
  0.5575084736032553  0.5065286101774468  0.1437132840701038   T   T   T
 
  0.00000000E+00  0.00000000E+00  0.00000000E+00
  0.00000000E+00  0.00000000E+00  0.00000000E+00
  0.00000000E+00  0.00000000E+00  0.00000000E+00
  0.00000000E+00  0.00000000E+00  0.00000000E+00
  0.00000000E+00  0.00000000E+00  0.00000000E+00
  0.00000000E+00  0.00000000E+00  0.00000000E+00
  0.00000000E+00  0.00000000E+00  0.00000000E+00
  0.00000000E+00  0.00000000E+00  0.00000000E+00
  0.00000000E+00  0.00000000E+00  0.00000000E+00
  0.00000000E+00  0.00000000E+00  0.00000000E+00
  0.00000000E+00  0.00000000E+00  0.00000000E+00
  0.00000000E+00  0.00000000E+00  0.00000000E+00
  0.00000000E+00  0.00000000E+00  0.00000000E+00
  0.00000000E+00  0.00000000E+00  0.00000000E+00
  0.00000000E+00  0.00000000E+00  0.00000000E+00
  0.00000000E+00  0.00000000E+00  0.00000000E+00
  0.00000000E+00  0.00000000E+00  0.00000000E+00
  0.00000000E+00  0.00000000E+00  0.00000000E+00
  0.00000000E+00  0.00000000E+00  0.00000000E+00
  0.00000000E+00  0.00000000E+00  0.00000000E+00
  0.00000000E+00  0.00000000E+00  0.00000000E+00
  0.00000000E+00  0.00000000E+00  0.00000000E+00
  0.00000000E+00  0.00000000E+00  0.00000000E+00
  0.00000000E+00  0.00000000E+00  0.00000000E+00
  0.00000000E+00  0.00000000E+00  0.00000000E+00
  0.00000000E+00  0.00000000E+00  0.00000000E+00
  0.00000000E+00  0.00000000E+00  0.00000000E+00
  0.00000000E+00  0.00000000E+00  0.00000000E+00
  0.00000000E+00  0.00000000E+00  0.00000000E+00
  0.00000000E+00  0.00000000E+00  0.00000000E+00
  0.00000000E+00  0.00000000E+00  0.00000000E+00
