Title                                   
   1.00000000000000     
     9.8694509999999998    0.0000000000000000    0.0000000000000000
     0.0000000000000000    8.5490480000000009    0.0000000000000000
     0.0000000000000000    0.0000000000000000   20.0000000000000000
    26     4     1
Selective dynamics
Direct
  0.0543681300356202  0.0876700092610628  0.0837379772598425   T   T   T
  0.9301141235253717  0.1720006104406587  0.0838697020519219   T   T   T
  0.0575317509765038  0.9213351492307016  0.0849987073659908   T   T   T
  0.9336372564235378  0.3394949657375556  0.0838767907888251   T   T   T
  0.0569991596248598  0.5905965613596589  0.0836803930554010   T   T   T
  0.0567989519780891  0.4243967183902059  0.0821574386285273   T   T   T
  0.9319722310078097  0.8389846285903094  0.0870343070816252   T   T   T
  0.3051093785783841  0.0872337969535766  0.0925016905262707   T   T   T
  0.1804375623646325  0.1695173688491310  0.0865187796017211   T   T   T
  0.1802958523847999  0.3374866497760870  0.0857455414132490   T   T   T
  0.3032222423641336  0.5863731174302886  0.0960486519392987   T   T   T
  0.1815114172450535  0.6726493625297002  0.0870430149951587   T   T   T
  0.3013175245992037  0.4168034004104738  0.0970965441402690   T   T   T
  0.1830642743078930  0.8394267072647453  0.0874358992898896   T   T   T
  0.4270785350062370  0.1754220871062645  0.1020776751428988   T   T   T
  0.5543869829213708  0.9244946020884955  0.1030731432528715   T   T   T
  0.4250109542996782  0.6701711477792868  0.1085438598665003   T   T   T
  0.4306219928151305  0.8376494056612059  0.1012454250972109   T   T   T
  0.8034465053461652  0.0904423754420862  0.0886995656812326   T   T   T
  0.6803039962788553  0.1798203455939965  0.0958548713785988   T   T   T
  0.8058573180479377  0.9214208704997148  0.0914149440232984   T   T   T
  0.6877032284196095  0.3455910428971919  0.1014811878562189   T   T   T
  0.8141711266476199  0.5934988499762995  0.0969186144283121   T   T   T
  0.6910354368712677  0.6719740798218742  0.1119231491391601   T   T   T
  0.8136879040594243  0.4237642205799562  0.0923750989041899   T   T   T
  0.6814184155517533  0.8387845086639560  0.1023399680207113   T   T   T
  0.9344528050917161  0.6740236359038014  0.0869735250901883   T   T   T
  0.5537867406186222  0.0951372678991248  0.1014774038674468   T   T   T
  0.4185739011367648  0.3331857581729782  0.1116369629163180   T   T   T
  0.3061994256906792  0.9214096371016111  0.0921789536049390   T   T   T
  0.5590198757812920  0.5101161185880206  0.1310052135919617   T   T   T
 
  0.00000000E+00  0.00000000E+00  0.00000000E+00
  0.00000000E+00  0.00000000E+00  0.00000000E+00
  0.00000000E+00  0.00000000E+00  0.00000000E+00
  0.00000000E+00  0.00000000E+00  0.00000000E+00
  0.00000000E+00  0.00000000E+00  0.00000000E+00
  0.00000000E+00  0.00000000E+00  0.00000000E+00
  0.00000000E+00  0.00000000E+00  0.00000000E+00
  0.00000000E+00  0.00000000E+00  0.00000000E+00
  0.00000000E+00  0.00000000E+00  0.00000000E+00
  0.00000000E+00  0.00000000E+00  0.00000000E+00
  0.00000000E+00  0.00000000E+00  0.00000000E+00
  0.00000000E+00  0.00000000E+00  0.00000000E+00
  0.00000000E+00  0.00000000E+00  0.00000000E+00
  0.00000000E+00  0.00000000E+00  0.00000000E+00
  0.00000000E+00  0.00000000E+00  0.00000000E+00
  0.00000000E+00  0.00000000E+00  0.00000000E+00
  0.00000000E+00  0.00000000E+00  0.00000000E+00
  0.00000000E+00  0.00000000E+00  0.00000000E+00
  0.00000000E+00  0.00000000E+00  0.00000000E+00
  0.00000000E+00  0.00000000E+00  0.00000000E+00
  0.00000000E+00  0.00000000E+00  0.00000000E+00
  0.00000000E+00  0.00000000E+00  0.00000000E+00
  0.00000000E+00  0.00000000E+00  0.00000000E+00
  0.00000000E+00  0.00000000E+00  0.00000000E+00
  0.00000000E+00  0.00000000E+00  0.00000000E+00
  0.00000000E+00  0.00000000E+00  0.00000000E+00
  0.00000000E+00  0.00000000E+00  0.00000000E+00
  0.00000000E+00  0.00000000E+00  0.00000000E+00
  0.00000000E+00  0.00000000E+00  0.00000000E+00
  0.00000000E+00  0.00000000E+00  0.00000000E+00
  0.00000000E+00  0.00000000E+00  0.00000000E+00
