Title                                   
   1.00000000000000     
     9.8694509999999998    0.0000000000000000    0.0000000000000000
     0.0000000000000000    8.5490480000000009    0.0000000000000000
     0.0000000000000000    0.0000000000000000   20.0000000000000000
    23     7     1
Selective dynamics
Direct
  0.0557340724060373  0.0893125548280818  0.0925193629583096   T   T   T
  0.9318128603838776  0.1713728321488623  0.0930534958267945   T   T   T
  0.0571745365833515  0.9211737534817183  0.0928809427065900   T   T   T
  0.9336153500546228  0.3386500241006982  0.0927536346210418   T   T   T
  0.0553711124729317  0.5905310257855387  0.0921321999493468   T   T   T
  0.0556865782997179  0.4241118296910105  0.0915899432362952   T   T   T
  0.9325784758309602  0.8387137092442691  0.0936023189126697   T   T   T
  0.3069685401806262  0.0887359201415614  0.0956642210463569   T   T   T
  0.1806365378399239  0.1705006391433219  0.0933699615814472   T   T   T
  0.1789371034864638  0.3389632295120821  0.0931596967775297   T   T   T
  0.2992950262838628  0.5902525417777881  0.0973507433473875   T   T   T
  0.1784111177428621  0.6744879352123671  0.0936910577656046   T   T   T
  0.2999477494470182  0.4209407031592687  0.0971537956574642   T   T   T
  0.1812786503224872  0.8416559398999427  0.0938940251015631   T   T   T
  0.4289030960745912  0.1761887374958273  0.0993298564045629   T   T   T
  0.5549107354047158  0.9194101536423206  0.1003324262704503   T   T   T
  0.4282750792515564  0.8368765062671731  0.0997837965089010   T   T   T
  0.8058511426589360  0.0886138565527175  0.0952976390724277   T   T   T
  0.6835463144809341  0.1771217677213497  0.0988284258773447   T   T   T
  0.8065854460814229  0.9210751799273117  0.0956048906971261   T   T   T
  0.8127039691961992  0.5915393421225204  0.0971277005401833   T   T   T
  0.8131303073422571  0.4210776001039025  0.0965595506842385   T   T   T
  0.6828441895922198  0.8367748416127528  0.0994737949161367   T   T   T
  0.9338025425831351  0.6728101079926557  0.0933982234869533   T   T   T
  0.5569316388778534  0.0959394269939782  0.1002827528240616   T   T   T
  0.4220438966877623  0.3386942494145506  0.1023366624870418   T   T   T
  0.4202567098489073  0.6738715035484776  0.1027991625212930   T   T   T
  0.6909747302641559  0.3392883180054160  0.1015526267112764   T   T   T
  0.6931232886835854  0.6726104655259432  0.1022781804034115   T   T   T
  0.3051988292739639  0.9225469680297911  0.0956283140739821   T   T   T
  0.5566063723630604  0.5070333369167987  0.1075355970322658   T   T   T
 
  0.00000000E+00  0.00000000E+00  0.00000000E+00
  0.00000000E+00  0.00000000E+00  0.00000000E+00
  0.00000000E+00  0.00000000E+00  0.00000000E+00
  0.00000000E+00  0.00000000E+00  0.00000000E+00
  0.00000000E+00  0.00000000E+00  0.00000000E+00
  0.00000000E+00  0.00000000E+00  0.00000000E+00
  0.00000000E+00  0.00000000E+00  0.00000000E+00
  0.00000000E+00  0.00000000E+00  0.00000000E+00
  0.00000000E+00  0.00000000E+00  0.00000000E+00
  0.00000000E+00  0.00000000E+00  0.00000000E+00
  0.00000000E+00  0.00000000E+00  0.00000000E+00
  0.00000000E+00  0.00000000E+00  0.00000000E+00
  0.00000000E+00  0.00000000E+00  0.00000000E+00
  0.00000000E+00  0.00000000E+00  0.00000000E+00
  0.00000000E+00  0.00000000E+00  0.00000000E+00
  0.00000000E+00  0.00000000E+00  0.00000000E+00
  0.00000000E+00  0.00000000E+00  0.00000000E+00
  0.00000000E+00  0.00000000E+00  0.00000000E+00
  0.00000000E+00  0.00000000E+00  0.00000000E+00
  0.00000000E+00  0.00000000E+00  0.00000000E+00
  0.00000000E+00  0.00000000E+00  0.00000000E+00
  0.00000000E+00  0.00000000E+00  0.00000000E+00
  0.00000000E+00  0.00000000E+00  0.00000000E+00
  0.00000000E+00  0.00000000E+00  0.00000000E+00
  0.00000000E+00  0.00000000E+00  0.00000000E+00
  0.00000000E+00  0.00000000E+00  0.00000000E+00
  0.00000000E+00  0.00000000E+00  0.00000000E+00
  0.00000000E+00  0.00000000E+00  0.00000000E+00
  0.00000000E+00  0.00000000E+00  0.00000000E+00
  0.00000000E+00  0.00000000E+00  0.00000000E+00
  0.00000000E+00  0.00000000E+00  0.00000000E+00
