Title                                   
   1.00000000000000     
     4.9440799999999996    0.0000000000000000    0.0000000000000000
     0.0000000000000000    8.5647549999999999    0.0000000000000000
     0.0000000000000000    0.0000000000000000   20.0000000000000000
    11     3     1
Selective dynamics
Direct
  0.0018714404859179  0.2921967850187017  0.0952185121361272   T   T   T
  0.2500000000000000  0.0382947020609690  0.0971815268982228   T   T   T
 -0.0020805487954440  0.9564826484286457  0.0971621197437577   T   T   T
  0.7500000000000000  0.2082088856723305  0.0923049836209888   T   T   T
  0.4981285595140820  0.2921967850187017  0.0952185121361272   T   T   T
  0.7500000000000000  0.0398709017421448  0.0931846410678808   T   T   T
  0.7500000000000000  0.7160382336844978  0.1010402264824431   T   T   T
  0.7500000000000000  0.5399917304361240  0.0985304569590835   T   T   T
  0.5020805487954438  0.9564826484286457  0.0971621197437577   T   T   T
  0.5030671513706519  0.4592364604061843  0.1030255758535061   T   T   T
 -0.0030671513706518  0.4592364604061843  0.1030255758535061   T   T   T
 -0.0126266177067915  0.7930926659151581  0.1037707281726899   T   T   T
  0.5126266177067916  0.7930926659151581  0.1037707281726899   T   T   T
  0.2500000000000000  0.2070235540880890  0.0958701834302100   T   T   T
  0.2500000000000000  0.6202358727784668  0.1315141097290126   T   T   T
 
  0.00000000E+00  0.00000000E+00  0.00000000E+00
  0.00000000E+00  0.00000000E+00  0.00000000E+00
  0.00000000E+00  0.00000000E+00  0.00000000E+00
  0.00000000E+00  0.00000000E+00  0.00000000E+00
  0.00000000E+00  0.00000000E+00  0.00000000E+00
  0.00000000E+00  0.00000000E+00  0.00000000E+00
  0.00000000E+00  0.00000000E+00  0.00000000E+00
  0.00000000E+00  0.00000000E+00  0.00000000E+00
  0.00000000E+00  0.00000000E+00  0.00000000E+00
  0.00000000E+00  0.00000000E+00  0.00000000E+00
  0.00000000E+00  0.00000000E+00  0.00000000E+00
  0.00000000E+00  0.00000000E+00  0.00000000E+00
  0.00000000E+00  0.00000000E+00  0.00000000E+00
  0.00000000E+00  0.00000000E+00  0.00000000E+00
  0.00000000E+00  0.00000000E+00  0.00000000E+00
