Title                                   
   1.00000000000000     
     4.9440799999999996    0.0000000000000000    0.0000000000000000
     0.0000000000000000    8.5647549999999999    0.0000000000000000
     0.0000000000000000    0.0000000000000000   20.0000000000000000
    11     3     1
Selective dynamics
Direct
  0.0011837016406687  0.2919178366913414  0.0969048919759388   T   T   T
  0.2500000000000000  0.0383508950848777  0.0965855107616752   T   T   T
 -0.0023238336931378  0.9567832127755703  0.0962866233965230   T   T   T
  0.7500000000000000  0.2079106857892556  0.0936573318950156   T   T   T
  0.4988162983593312  0.2919178366913414  0.0969048919759388   T   T   T
  0.7500000000000000  0.0406766854627501  0.0940754709729288   T   T   T
  0.7500000000000000  0.7169241872483727  0.0980828543440123   T   T   T
  0.7500000000000000  0.5420901938817591  0.0987021438684860   T   T   T
  0.5023238336931377  0.9567832127755703  0.0962866233965230   T   T   T
  0.5022849174270314  0.4574227105318013  0.1037566576999912   T   T   T
 -0.0022849174270313  0.4574227105318013  0.1037566576999912   T   T   T
 -0.0105473773598920  0.7939597993039145  0.0993581606136250   T   T   T
  0.5105473773598922  0.7939597993039145  0.0993581606136250   T   T   T
  0.2500000000000000  0.2073740645153182  0.0972798819830197   T   T   T
  0.2500000000000000  0.6181871694124139  0.1369841388027097   T   T   T
 
  0.00000000E+00  0.00000000E+00  0.00000000E+00
  0.00000000E+00  0.00000000E+00  0.00000000E+00
  0.00000000E+00  0.00000000E+00  0.00000000E+00
  0.00000000E+00  0.00000000E+00  0.00000000E+00
  0.00000000E+00  0.00000000E+00  0.00000000E+00
  0.00000000E+00  0.00000000E+00  0.00000000E+00
  0.00000000E+00  0.00000000E+00  0.00000000E+00
  0.00000000E+00  0.00000000E+00  0.00000000E+00
  0.00000000E+00  0.00000000E+00  0.00000000E+00
  0.00000000E+00  0.00000000E+00  0.00000000E+00
  0.00000000E+00  0.00000000E+00  0.00000000E+00
  0.00000000E+00  0.00000000E+00  0.00000000E+00
  0.00000000E+00  0.00000000E+00  0.00000000E+00
  0.00000000E+00  0.00000000E+00  0.00000000E+00
  0.00000000E+00  0.00000000E+00  0.00000000E+00
