Title                                   
   1.00000000000000     
     9.8694509999999998    0.0000000000000000    0.0000000000000000
     0.0000000000000000    8.5490480000000009    0.0000000000000000
     0.0000000000000000    0.0000000000000000   20.0000000000000000
    30     1
Selective dynamics
Direct
  0.0562267754323922  0.0888401192228071  0.0860317219984768   T   T   T
  0.9313383185988291  0.1718808628066631  0.0877895289841775   T   T   T
  0.0562323851152043  0.9234526573034738  0.0860542816325078   T   T   T
  0.9329736470869079  0.3384267802786956  0.0888696171224481   T   T   T
  0.0562452054659569  0.5895775452122965  0.0874824137404724   T   T   T
  0.9330074276358103  0.6739002464423421  0.0889253102474905   T   T   T
  0.0562275013792356  0.4227208468860920  0.0874618694861881   T   T   T
  0.9313432935583479  0.8404563265563716  0.0878467046735354   T   T   T
  0.3063686247924319  0.0898251034467016  0.0911762741517489   T   T   T
  0.1810989732538037  0.1718881847431249  0.0880526837668346   T   T   T
  0.3063561804587928  0.9225294906733749  0.0911929302801861   T   T   T
  0.1794692879655671  0.3384208915981524  0.0891296597315255   T   T   T
  0.3021897192142315  0.5910334505242610  0.0953228658321314   T   T   T
  0.1794741340840898  0.6738898952362384  0.0891570840472111   T   T   T
  0.3022112904998152  0.4212641220510761  0.0952903444833635   T   T   T
  0.1810993795810902  0.8404207458149373  0.0880737343448943   T   T   T
  0.5562155967707061  0.0892985673556419  0.0990424410552515   T   T   T
  0.4306320522004833  0.1755000983618742  0.0975815311539318   T   T   T
  0.5562213366319260  0.9230117899938011  0.0990768459863234   T   T   T
  0.4260298582983105  0.3410595576239463  0.1021837050947641   T   T   T
  0.4260116961521382  0.6712550128784707  0.1022521194485607   T   T   T
  0.4306276443714315  0.8368220351065009  0.0976226368704059   T   T   T
  0.8060601963122853  0.0897971549665535  0.0908103287717103   T   T   T
  0.6817865283888140  0.1755189809867942  0.0972642107379386   T   T   T
  0.8060676585174646  0.9225156710082508  0.0908513753884263   T   T   T
  0.6864032632218234  0.3410909463124737  0.1017681296968151   T   T   T
  0.8102573969654571  0.5910093189022049  0.0949097875736102   T   T   T
  0.6864334985919293  0.6712196758541595  0.1018678662513692   T   T   T
  0.8102188716139219  0.4212945629425894  0.0948537699956624   T   T   T
  0.6818012658554263  0.8368066602299127  0.0973372908593861   T   T   T
  0.5565059919853863  0.5061476986802296  0.1456859365926935   T   T   T
 
  0.00000000E+00  0.00000000E+00  0.00000000E+00
  0.00000000E+00  0.00000000E+00  0.00000000E+00
  0.00000000E+00  0.00000000E+00  0.00000000E+00
  0.00000000E+00  0.00000000E+00  0.00000000E+00
  0.00000000E+00  0.00000000E+00  0.00000000E+00
  0.00000000E+00  0.00000000E+00  0.00000000E+00
  0.00000000E+00  0.00000000E+00  0.00000000E+00
  0.00000000E+00  0.00000000E+00  0.00000000E+00
  0.00000000E+00  0.00000000E+00  0.00000000E+00
  0.00000000E+00  0.00000000E+00  0.00000000E+00
  0.00000000E+00  0.00000000E+00  0.00000000E+00
  0.00000000E+00  0.00000000E+00  0.00000000E+00
  0.00000000E+00  0.00000000E+00  0.00000000E+00
  0.00000000E+00  0.00000000E+00  0.00000000E+00
  0.00000000E+00  0.00000000E+00  0.00000000E+00
  0.00000000E+00  0.00000000E+00  0.00000000E+00
  0.00000000E+00  0.00000000E+00  0.00000000E+00
  0.00000000E+00  0.00000000E+00  0.00000000E+00
  0.00000000E+00  0.00000000E+00  0.00000000E+00
  0.00000000E+00  0.00000000E+00  0.00000000E+00
  0.00000000E+00  0.00000000E+00  0.00000000E+00
  0.00000000E+00  0.00000000E+00  0.00000000E+00
  0.00000000E+00  0.00000000E+00  0.00000000E+00
  0.00000000E+00  0.00000000E+00  0.00000000E+00
  0.00000000E+00  0.00000000E+00  0.00000000E+00
  0.00000000E+00  0.00000000E+00  0.00000000E+00
  0.00000000E+00  0.00000000E+00  0.00000000E+00
  0.00000000E+00  0.00000000E+00  0.00000000E+00
  0.00000000E+00  0.00000000E+00  0.00000000E+00
  0.00000000E+00  0.00000000E+00  0.00000000E+00
  0.00000000E+00  0.00000000E+00  0.00000000E+00
