Title                                   
   1.00000000000000     
     8.5490480000000009    0.0000000000000000    0.0000000000000000
     0.0000000000000000    8.5490480000000009    0.0000000000000000
     0.0000000000000000    0.0000000000000000   20.0000000000000000
    22     2     1
Selective dynamics
Direct
  0.9104821976265220  0.2078005622957637  0.0955058556633222   T   T   T
  0.9119597347856354  0.7985260868318319  0.0951963475175170   T   T   T
  0.1991008226310282  0.0833201840264548  0.0952952097214761   T   T   T
  0.0750054259162812  0.2046209872059163  0.0954164440271195   T   T   T
  0.1568939943342830  0.6495951874519218  0.0975291649936386   T   T   T
  0.0753984955258937  0.5016743455451680  0.0968596842651982   T   T   T
  0.1559246455426386  0.3553122912479520  0.0966784141587884   T   T   T
  0.0776282042805945  0.7984398743261745  0.0955854577613613   T   T   T
  0.4937580188111795  0.0858712026796364  0.0965392031945469   T   T   T
  0.3456911712782394  0.1652156973776033  0.0965576257788968   T   T   T
  0.4924973398837162  0.9173839520193496  0.0965956941521150   T   T   T
  0.3453282156112308  0.8353823612210258  0.0977267650964959   T   T   T
  0.7873262426739019  0.0851102938022996  0.0956498187138850   T   T   T
  0.6393446163218538  0.1677795378484245  0.0970841557387159   T   T   T
  0.7875831843876142  0.9193337368226419  0.0954094894418909   T   T   T
  0.8303232052874727  0.6478525667579949  0.0960961030550036   T   T   T
  0.8286567634998528  0.3574189976550372  0.0967063632365640   T   T   T
  0.6390175317621455  0.8351234331195413  0.0964657411079050   T   T   T
  0.3240764071657636  0.3345878939604187  0.1007573126139144   T   T   T
  0.3232407271036007  0.6699322831598248  0.1017424952281318   T   T   T
  0.6615751636831821  0.3369124815487033  0.1013304714550496   T   T   T
  0.6624289999408701  0.6668692389814382  0.0998696782343754   T   T   T
  0.9096567082854584  0.5024965144432677  0.0963697194563936   T   T   T
  0.1982485366421494  0.9179207427728121  0.0956028268358031   T   T   T
  0.4942656470188792  0.5003095468988029  0.1151349585518718   T   T   T
 
  0.00000000E+00  0.00000000E+00  0.00000000E+00
  0.00000000E+00  0.00000000E+00  0.00000000E+00
  0.00000000E+00  0.00000000E+00  0.00000000E+00
  0.00000000E+00  0.00000000E+00  0.00000000E+00
  0.00000000E+00  0.00000000E+00  0.00000000E+00
  0.00000000E+00  0.00000000E+00  0.00000000E+00
  0.00000000E+00  0.00000000E+00  0.00000000E+00
  0.00000000E+00  0.00000000E+00  0.00000000E+00
  0.00000000E+00  0.00000000E+00  0.00000000E+00
  0.00000000E+00  0.00000000E+00  0.00000000E+00
  0.00000000E+00  0.00000000E+00  0.00000000E+00
  0.00000000E+00  0.00000000E+00  0.00000000E+00
  0.00000000E+00  0.00000000E+00  0.00000000E+00
  0.00000000E+00  0.00000000E+00  0.00000000E+00
  0.00000000E+00  0.00000000E+00  0.00000000E+00
  0.00000000E+00  0.00000000E+00  0.00000000E+00
  0.00000000E+00  0.00000000E+00  0.00000000E+00
  0.00000000E+00  0.00000000E+00  0.00000000E+00
  0.00000000E+00  0.00000000E+00  0.00000000E+00
  0.00000000E+00  0.00000000E+00  0.00000000E+00
  0.00000000E+00  0.00000000E+00  0.00000000E+00
  0.00000000E+00  0.00000000E+00  0.00000000E+00
  0.00000000E+00  0.00000000E+00  0.00000000E+00
  0.00000000E+00  0.00000000E+00  0.00000000E+00
  0.00000000E+00  0.00000000E+00  0.00000000E+00
