Title                                   
   1.00000000000000     
     9.8694509999999998    0.0000000000000000    0.0000000000000000
     0.0000000000000000    8.5490480000000009    0.0000000000000000
     0.0000000000000000    0.0000000000000000   20.0000000000000000
    25     5     1
Selective dynamics
Direct
  0.0562322127534861  0.0903764769962716  0.0939344700466409   T   T   T
  0.9323971951618625  0.1723608329707134  0.0989766688589832   T   T   T
  0.0578656192284540  0.9223937318639700  0.0941833713501125   T   T   T
  0.9328444667988789  0.3401350845162906  0.0999427453783696   T   T   T
  0.0575044565978483  0.5899316013991461  0.0950476758510936   T   T   T
  0.9331490621991206  0.6725655988208347  0.0998408169360278   T   T   T
  0.0573598710934079  0.4229824749893443  0.0947651440675714   T   T   T
  0.9329335888549484  0.8395056983858789  0.0987338695404815   T   T   T
  0.3077479908816412  0.0887756611327741  0.0875351072436582   T   T   T
  0.1815197060167667  0.1721982164454388  0.0894284957984862   T   T   T
  0.1810138000728295  0.3385752217027027  0.0897875471703896   T   T   T
  0.3063074714411312  0.5903526589971442  0.0854643080761443   T   T   T
  0.1814594170467865  0.6739688713060085  0.0907349405281108   T   T   T
  0.3067589589260034  0.4216350250200839  0.0848863031155227   T   T   T
  0.1817112185253115  0.8392012200909862  0.0905439654425663   T   T   T
  0.5577558357713936  0.0929314397778759  0.0969039349236266   T   T   T
  0.4299742802353293  0.1734379618499459  0.0881574209743126   T   T   T
  0.5564375865684548  0.9200933835811820  0.0970182347397578   T   T   T
  0.4297264358197143  0.8378235709269939  0.0889870629129727   T   T   T
  0.8055334848481918  0.0898070208285687  0.1013656400453908   T   T   T
  0.6824589547110410  0.1778158705018749  0.1041459328393707   T   T   T
  0.8058359643381571  0.9221670624995540  0.1008437525779022   T   T   T
  0.8091683189531769  0.5902419108160130  0.1063561946473571   T   T   T
  0.8088309988461735  0.4221069452522896  0.1067323793829486   T   T   T
  0.6825209450091116  0.8335476354497298  0.1034212056240641   T   T   T
  0.4268944902116728  0.3359651708923981  0.0829776884118707   T   T   T
  0.4263033505435331  0.6790302639687160  0.0834717681969444   T   T   T
  0.6869735969363638  0.3411997245239639  0.1130996042085714   T   T   T
  0.6872713859676443  0.6715353660024664  0.1117961309435508   T   T   T
  0.3082023790221206  0.9227723111013842  0.0882103843539257   T   T   T
  0.5324429566194450  0.5054409873894513  0.1336722358133328   T   T   T
 
  0.00000000E+00  0.00000000E+00  0.00000000E+00
  0.00000000E+00  0.00000000E+00  0.00000000E+00
  0.00000000E+00  0.00000000E+00  0.00000000E+00
  0.00000000E+00  0.00000000E+00  0.00000000E+00
  0.00000000E+00  0.00000000E+00  0.00000000E+00
  0.00000000E+00  0.00000000E+00  0.00000000E+00
  0.00000000E+00  0.00000000E+00  0.00000000E+00
  0.00000000E+00  0.00000000E+00  0.00000000E+00
  0.00000000E+00  0.00000000E+00  0.00000000E+00
  0.00000000E+00  0.00000000E+00  0.00000000E+00
  0.00000000E+00  0.00000000E+00  0.00000000E+00
  0.00000000E+00  0.00000000E+00  0.00000000E+00
  0.00000000E+00  0.00000000E+00  0.00000000E+00
  0.00000000E+00  0.00000000E+00  0.00000000E+00
  0.00000000E+00  0.00000000E+00  0.00000000E+00
  0.00000000E+00  0.00000000E+00  0.00000000E+00
  0.00000000E+00  0.00000000E+00  0.00000000E+00
  0.00000000E+00  0.00000000E+00  0.00000000E+00
  0.00000000E+00  0.00000000E+00  0.00000000E+00
  0.00000000E+00  0.00000000E+00  0.00000000E+00
  0.00000000E+00  0.00000000E+00  0.00000000E+00
  0.00000000E+00  0.00000000E+00  0.00000000E+00
  0.00000000E+00  0.00000000E+00  0.00000000E+00
  0.00000000E+00  0.00000000E+00  0.00000000E+00
  0.00000000E+00  0.00000000E+00  0.00000000E+00
  0.00000000E+00  0.00000000E+00  0.00000000E+00
  0.00000000E+00  0.00000000E+00  0.00000000E+00
  0.00000000E+00  0.00000000E+00  0.00000000E+00
  0.00000000E+00  0.00000000E+00  0.00000000E+00
  0.00000000E+00  0.00000000E+00  0.00000000E+00
  0.00000000E+00  0.00000000E+00  0.00000000E+00
