Title                                   
   1.00000000000000     
     8.5490480000000009    0.0000000000000000    0.0000000000000000
     0.0000000000000000    8.5490480000000009    0.0000000000000000
     0.0000000000000000    0.0000000000000000   20.0000000000000000
    20     4     1
Selective dynamics
Direct
  0.9087361462404134  0.2059262915501890  0.0977508569631273   T   T   T
  0.9057455963816868  0.5037129151312788  0.0977482558092989   T   T   T
  0.9097889502700960  0.8016364689875846  0.0975513555663074   T   T   T
  0.1993367148492755  0.0839068048283755  0.0977639099109296   T   T   T
  0.0758759855218177  0.2046435784956983  0.0977498654071132   T   T   T
  0.1572639418754432  0.6516086405778588  0.0977208142787697   T   T   T
  0.0758351812672741  0.5028021696720111  0.0977094264509734   T   T   T
  0.1582334667364400  0.3561418386214515  0.0977338786050009   T   T   T
  0.0784589189072760  0.7987175869370351  0.0976471950124148   T   T   T
  0.4939816242155428  0.0842166904447240  0.0977266984999696   T   T   T
  0.3472506408163803  0.1636323314806933  0.0977444357777522   T   T   T
  0.4931294172006450  0.9141116584542313  0.0977122974922151   T   T   T
  0.3445806297243370  0.8339130624381654  0.0978236609706848   T   T   T
  0.7876588488349956  0.0863373024486127  0.0976784246587825   T   T   T
  0.6406790743285471  0.1664195416798523  0.0977849738870828   T   T   T
  0.7884386559923383  0.9189291893938311  0.0975711074460853   T   T   T
  0.8279954785725691  0.6523832344707355  0.0976811507472165   T   T   T
  0.8252448137980444  0.3551021427354583  0.0978533348241632   T   T   T
  0.6410767084236277  0.8344679433775244  0.0976796555131258   T   T   T
  0.3249250080447096  0.3335753481290539  0.0977491044204076   T   T   T
  0.3200584505350349  0.6747244394990610  0.0978644415581376   T   T   T
  0.6631628585403441  0.3306964519497858  0.0979575908241261   T   T   T
  0.6657687190085673  0.6733632662210308  0.0977931106768927   T   T   T
  0.1989001162187308  0.9160896557186172  0.0978036437813437   T   T   T
  0.4932860536958558  0.4977314467571605  0.0979058109180521   T   T   T
 
  0.00000000E+00  0.00000000E+00  0.00000000E+00
  0.00000000E+00  0.00000000E+00  0.00000000E+00
  0.00000000E+00  0.00000000E+00  0.00000000E+00
  0.00000000E+00  0.00000000E+00  0.00000000E+00
  0.00000000E+00  0.00000000E+00  0.00000000E+00
  0.00000000E+00  0.00000000E+00  0.00000000E+00
  0.00000000E+00  0.00000000E+00  0.00000000E+00
  0.00000000E+00  0.00000000E+00  0.00000000E+00
  0.00000000E+00  0.00000000E+00  0.00000000E+00
  0.00000000E+00  0.00000000E+00  0.00000000E+00
  0.00000000E+00  0.00000000E+00  0.00000000E+00
  0.00000000E+00  0.00000000E+00  0.00000000E+00
  0.00000000E+00  0.00000000E+00  0.00000000E+00
  0.00000000E+00  0.00000000E+00  0.00000000E+00
  0.00000000E+00  0.00000000E+00  0.00000000E+00
  0.00000000E+00  0.00000000E+00  0.00000000E+00
  0.00000000E+00  0.00000000E+00  0.00000000E+00
  0.00000000E+00  0.00000000E+00  0.00000000E+00
  0.00000000E+00  0.00000000E+00  0.00000000E+00
  0.00000000E+00  0.00000000E+00  0.00000000E+00
  0.00000000E+00  0.00000000E+00  0.00000000E+00
  0.00000000E+00  0.00000000E+00  0.00000000E+00
  0.00000000E+00  0.00000000E+00  0.00000000E+00
  0.00000000E+00  0.00000000E+00  0.00000000E+00
  0.00000000E+00  0.00000000E+00  0.00000000E+00
