Title                                   
   1.00000000000000     
     9.8694509999999998    0.0000000000000000    0.0000000000000000
     0.0000000000000000    8.5490480000000009    0.0000000000000000
     0.0000000000000000    0.0000000000000000   20.0000000000000000
    27     4     1
Selective dynamics
Direct
  0.0562174578796483  0.0926179078448108  0.0866867383446725   T   T   T
  0.9300178690634863  0.1753285585034694  0.0872887800554989   T   T   T
  0.0566998811593093  0.9239877275203839  0.0851690661657824   T   T   T
  0.9294995390939781  0.3418465914780744  0.0911949462299210   T   T   T
  0.0558921431688863  0.5906547610720942  0.0920660362311146   T   T   T
  0.9320813680386378  0.6724045563692064  0.0887279742527541   T   T   T
  0.0558412817290113  0.4233261529996255  0.0946446988286938   T   T   T
  0.9314395041354818  0.8396893443666228  0.0852423529287892   T   T   T
  0.3056385249822804  0.0892620152299426  0.0881189179782333   T   T   T
  0.1821440378953262  0.1751230659364119  0.0907359917444860   T   T   T
  0.3066167611354503  0.9237042965884921  0.0873707928873568   T   T   T
  0.1824567478986446  0.3411795750487698  0.0981908574604433   T   T   T
  0.3053484712427623  0.5921039867323120  0.1072629255922254   T   T   T
  0.1813798697579196  0.6715040970927970  0.0926869233550921   T   T   T
  0.1815511750132138  0.8392358238922799  0.0878409628839263   T   T   T
  0.5564928538763100  0.0853094222161682  0.0905990520423125   T   T   T
  0.4310446899888929  0.1702195429280747  0.0934676797141302   T   T   T
  0.4335185367910702  0.3337567341516002  0.1084930411818189   T   T   T
  0.4293218393068398  0.8387645861598994  0.0979792943952380   T   T   T
  0.8066970412575094  0.0887826706010102  0.0846538808979914   T   T   T
  0.6808506915215207  0.1698914075742216  0.0881907437482750   T   T   T
  0.8064372894864130  0.9239007041579348  0.0846930977399299   T   T   T
  0.6790183530752256  0.3348262768965144  0.0996616880616651   T   T   T
  0.8037069686164018  0.5939218337626108  0.0900094859699572   T   T   T
  0.6837603102828076  0.8351742218044855  0.0875984227714716   T   T   T
  0.4196962224062734  0.6848188302840402  0.1228188402658025   T   T   T
  0.5593859454136144  0.4031895991504005  0.1242995768645955   T   T   T
  0.6874503750267138  0.6768171072502048  0.0874030897419121   T   T   T
  0.5563909829685409  0.9181103458530717  0.0914881367464017   T   T   T
  0.3067875588093038  0.4222680526698757  0.1087170241428651   T   T   T
  0.8029647714419600  0.4241972215800905  0.0932091914589969   T   T   T
  0.5632899375365743  0.5943289822845069  0.1691647893176633   T   T   T
 
  0.00000000E+00  0.00000000E+00  0.00000000E+00
  0.00000000E+00  0.00000000E+00  0.00000000E+00
  0.00000000E+00  0.00000000E+00  0.00000000E+00
  0.00000000E+00  0.00000000E+00  0.00000000E+00
  0.00000000E+00  0.00000000E+00  0.00000000E+00
  0.00000000E+00  0.00000000E+00  0.00000000E+00
  0.00000000E+00  0.00000000E+00  0.00000000E+00
  0.00000000E+00  0.00000000E+00  0.00000000E+00
  0.00000000E+00  0.00000000E+00  0.00000000E+00
  0.00000000E+00  0.00000000E+00  0.00000000E+00
  0.00000000E+00  0.00000000E+00  0.00000000E+00
  0.00000000E+00  0.00000000E+00  0.00000000E+00
  0.00000000E+00  0.00000000E+00  0.00000000E+00
  0.00000000E+00  0.00000000E+00  0.00000000E+00
  0.00000000E+00  0.00000000E+00  0.00000000E+00
  0.00000000E+00  0.00000000E+00  0.00000000E+00
  0.00000000E+00  0.00000000E+00  0.00000000E+00
  0.00000000E+00  0.00000000E+00  0.00000000E+00
  0.00000000E+00  0.00000000E+00  0.00000000E+00
  0.00000000E+00  0.00000000E+00  0.00000000E+00
  0.00000000E+00  0.00000000E+00  0.00000000E+00
  0.00000000E+00  0.00000000E+00  0.00000000E+00
  0.00000000E+00  0.00000000E+00  0.00000000E+00
  0.00000000E+00  0.00000000E+00  0.00000000E+00
  0.00000000E+00  0.00000000E+00  0.00000000E+00
  0.00000000E+00  0.00000000E+00  0.00000000E+00
  0.00000000E+00  0.00000000E+00  0.00000000E+00
  0.00000000E+00  0.00000000E+00  0.00000000E+00
  0.00000000E+00  0.00000000E+00  0.00000000E+00
  0.00000000E+00  0.00000000E+00  0.00000000E+00
  0.00000000E+00  0.00000000E+00  0.00000000E+00
  0.00000000E+00  0.00000000E+00  0.00000000E+00
