Title                                   
   1.00000000000000     
     9.8694509999999998    0.0000000000000000    0.0000000000000000
     0.0000000000000000    8.5490480000000009    0.0000000000000000
     0.0000000000000000    0.0000000000000000   20.0000000000000000
    27     3     1
Selective dynamics
Direct
  0.0561347130303142  0.0896466011977927  0.0945679365982300   T   T   T
  0.9313259214072588  0.1733058867815565  0.0985837111841575   T   T   T
  0.0584684516424214  0.9231881728759651  0.0941297655616365   T   T   T
  0.9331644105274710  0.3409911805008022  0.1007117378396449   T   T   T
  0.0584626643174143  0.5904000774147741  0.0973109645014860   T   T   T
  0.9340364704772345  0.6748943925756125  0.1005137729791724   T   T   T
  0.0581355930058025  0.4230083720778267  0.0976755464472170   T   T   T
  0.9335271104113528  0.8412132772137616  0.0983715275097361   T   T   T
  0.3064734795166792  0.0868292620584283  0.0860918248631921   T   T   T
  0.1809702819503761  0.1706570179230167  0.0910433333455920   T   T   T
  0.1810601482629588  0.3370836274059596  0.0927671055214691   T   T   T
  0.3073138052967636  0.5870028232951530  0.0826239577403259   T   T   T
  0.1830072815250402  0.6727227864511880  0.0912536671657252   T   T   T
  0.3054264430918485  0.4178959944180031  0.0852178448218282   T   T   T
  0.1834481256282604  0.8389837886274002  0.0898968474520958   T   T   T
  0.5571794325324682  0.0904465923611699  0.0926624311132857   T   T   T
  0.4300278420121178  0.1712916156977350  0.0854123414912919   T   T   T
  0.5572279497272508  0.9215691990544814  0.0925835485447064   T   T   T
  0.4295826388468250  0.6746203344358578  0.0765823646557196   T   T   T
  0.4318734423328638  0.8375096003694638  0.0832553861621348   T   T   T
  0.8049591755091037  0.0912232582045700  0.0989144819538004   T   T   T
  0.6805236801212367  0.1799828442144528  0.0994535575210667   T   T   T
  0.8063033450212681  0.9228633279978519  0.0990550205029329   T   T   T
  0.6829439713795787  0.3474848131599134  0.1054021914869659   T   T   T
  0.8100047123122339  0.5941703312983194  0.1055665192476127   T   T   T
  0.8091471408884414  0.4255135576042552  0.1048167518398629   T   T   T
  0.6827119795115001  0.8336493043106453  0.1003288623585838   T   T   T
  0.4260695874831016  0.3334038676242256  0.0825630810748128   T   T   T
  0.6865864008537244  0.6708353593185618  0.1082455994038599   T   T   T
  0.3074437553260090  0.9228073298927284  0.0852453455703955   T   T   T
  0.5295950460510855  0.5056804036385560  0.1201179735414940   T   T   T
 
  0.00000000E+00  0.00000000E+00  0.00000000E+00
  0.00000000E+00  0.00000000E+00  0.00000000E+00
  0.00000000E+00  0.00000000E+00  0.00000000E+00
  0.00000000E+00  0.00000000E+00  0.00000000E+00
  0.00000000E+00  0.00000000E+00  0.00000000E+00
  0.00000000E+00  0.00000000E+00  0.00000000E+00
  0.00000000E+00  0.00000000E+00  0.00000000E+00
  0.00000000E+00  0.00000000E+00  0.00000000E+00
  0.00000000E+00  0.00000000E+00  0.00000000E+00
  0.00000000E+00  0.00000000E+00  0.00000000E+00
  0.00000000E+00  0.00000000E+00  0.00000000E+00
  0.00000000E+00  0.00000000E+00  0.00000000E+00
  0.00000000E+00  0.00000000E+00  0.00000000E+00
  0.00000000E+00  0.00000000E+00  0.00000000E+00
  0.00000000E+00  0.00000000E+00  0.00000000E+00
  0.00000000E+00  0.00000000E+00  0.00000000E+00
  0.00000000E+00  0.00000000E+00  0.00000000E+00
  0.00000000E+00  0.00000000E+00  0.00000000E+00
  0.00000000E+00  0.00000000E+00  0.00000000E+00
  0.00000000E+00  0.00000000E+00  0.00000000E+00
  0.00000000E+00  0.00000000E+00  0.00000000E+00
  0.00000000E+00  0.00000000E+00  0.00000000E+00
  0.00000000E+00  0.00000000E+00  0.00000000E+00
  0.00000000E+00  0.00000000E+00  0.00000000E+00
  0.00000000E+00  0.00000000E+00  0.00000000E+00
  0.00000000E+00  0.00000000E+00  0.00000000E+00
  0.00000000E+00  0.00000000E+00  0.00000000E+00
  0.00000000E+00  0.00000000E+00  0.00000000E+00
  0.00000000E+00  0.00000000E+00  0.00000000E+00
  0.00000000E+00  0.00000000E+00  0.00000000E+00
  0.00000000E+00  0.00000000E+00  0.00000000E+00
