Title                                   
   1.00000000000000     
     8.5490480000000009    0.0000000000000000    0.0000000000000000
     0.0000000000000000    8.5490480000000009    0.0000000000000000
     0.0000000000000000    0.0000000000000000   20.0000000000000000
    21     3     1
Selective dynamics
Direct
  0.9100068014922077  0.2062290589801840  0.0976020085444821   T   T   T
  0.9122777734845123  0.8001139871020416  0.0976764716736666   T   T   T
  0.1981718060736222  0.0824183383051921  0.0978201101638568   T   T   T
  0.0755396851285805  0.2021172700181225  0.0977553185090904   T   T   T
  0.1576143691278015  0.6496273854263127  0.0978202817462556   T   T   T
  0.0764608493285949  0.5002806383463488  0.0978020385538629   T   T   T
  0.1573870151874201  0.3536411425573581  0.0977949052382986   T   T   T
  0.0778238601709273  0.7996338446714724  0.0977929162581034   T   T   T
  0.3465074262134749  0.1650749183139781  0.0978501853681734   T   T   T
  0.4930712869635074  0.9193575644574585  0.0977946306869395   T   T   T
  0.3449685707267423  0.8371871759180205  0.0978608444159808   T   T   T
  0.7875083744713091  0.0845691908164964  0.0975999022383611   T   T   T
  0.6377281759930296  0.1677283102243968  0.0976511622813083   T   T   T
  0.7894323680358104  0.9201915370987283  0.0976753899859124   T   T   T
  0.8295259976463946  0.6488615277468125  0.0976820021314835   T   T   T
  0.8276343359315670  0.3560215972824788  0.0976028381549168   T   T   T
  0.6392222833796937  0.8372631339424550  0.0977095788261371   T   T   T
  0.3253376903059688  0.3310647101199663  0.0978243896092306   T   T   T
  0.3230293629933962  0.6728950927348890  0.0978653906315480   T   T   T
  0.6602388669972566  0.3345466873862927  0.0975810848406193   T   T   T
  0.6638763839483888  0.6694962697791795  0.0976763995339213   T   T   T
  0.4940872718536994  0.0860242471167531  0.0978468067960217   T   T   T
  0.9091463394470232  0.5013370521778954  0.0977298027636969   T   T   T
  0.1963738070766784  0.9175811688196307  0.0978902214688796   T   T   T
  0.4924412980223787  0.5015281506575429  0.0978003195792334   T   T   T
 
  0.00000000E+00  0.00000000E+00  0.00000000E+00
  0.00000000E+00  0.00000000E+00  0.00000000E+00
  0.00000000E+00  0.00000000E+00  0.00000000E+00
  0.00000000E+00  0.00000000E+00  0.00000000E+00
  0.00000000E+00  0.00000000E+00  0.00000000E+00
  0.00000000E+00  0.00000000E+00  0.00000000E+00
  0.00000000E+00  0.00000000E+00  0.00000000E+00
  0.00000000E+00  0.00000000E+00  0.00000000E+00
  0.00000000E+00  0.00000000E+00  0.00000000E+00
  0.00000000E+00  0.00000000E+00  0.00000000E+00
  0.00000000E+00  0.00000000E+00  0.00000000E+00
  0.00000000E+00  0.00000000E+00  0.00000000E+00
  0.00000000E+00  0.00000000E+00  0.00000000E+00
  0.00000000E+00  0.00000000E+00  0.00000000E+00
  0.00000000E+00  0.00000000E+00  0.00000000E+00
  0.00000000E+00  0.00000000E+00  0.00000000E+00
  0.00000000E+00  0.00000000E+00  0.00000000E+00
  0.00000000E+00  0.00000000E+00  0.00000000E+00
  0.00000000E+00  0.00000000E+00  0.00000000E+00
  0.00000000E+00  0.00000000E+00  0.00000000E+00
  0.00000000E+00  0.00000000E+00  0.00000000E+00
  0.00000000E+00  0.00000000E+00  0.00000000E+00
  0.00000000E+00  0.00000000E+00  0.00000000E+00
  0.00000000E+00  0.00000000E+00  0.00000000E+00
  0.00000000E+00  0.00000000E+00  0.00000000E+00
