Title                                   
   1.00000000000000     
     9.8694509999999998    0.0000000000000000    0.0000000000000000
     0.0000000000000000    8.5490480000000009    0.0000000000000000
     0.0000000000000000    0.0000000000000000   20.0000000000000000
    30     1
Selective dynamics
Direct
  0.0562257785188383  0.0888617513763677  0.0881663782456917   T   T   T
  0.9309920602263944  0.1718857377300033  0.0895795836666862   T   T   T
  0.0562117507425988  0.9234750746184777  0.0881639995584223   T   T   T
  0.9324440038160747  0.3383240932075189  0.0904408352109672   T   T   T
  0.0562594238555635  0.5895804648530170  0.0896616256644284   T   T   T
  0.9324336009026076  0.6739683721234753  0.0904516575601594   T   T   T
  0.0562346446257991  0.4227079216229578  0.0896523817486049   T   T   T
  0.9309854507123544  0.8404272516459256  0.0895867468999823   T   T   T
  0.3073360467587276  0.0901788319082680  0.0916022163393597   T   T   T
  0.1814980364220980  0.1718998487537834  0.0894733658442485   T   T   T
  0.3073276949353960  0.9221182122212959  0.0915853224808498   T   T   T
  0.1800399304748217  0.3383488632287971  0.0903618962363965   T   T   T
  0.3033671173202700  0.5902384312724951  0.0941013609845819   T   T   T
  0.1800719967205201  0.6739760981298846  0.0903575584214461   T   T   T
  0.3033397062890568  0.4220517541838620  0.0941117570226965   T   T   T
  0.1814732132215224  0.8404396951191375  0.0894477642102656   T   T   T
  0.5562635078415400  0.0896338690256331  0.0973165857735600   T   T   T
  0.4321560015321493  0.1768924667297607  0.0960505248735045   T   T   T
  0.5562436619186817  0.9226575777852611  0.0973102153737914   T   T   T
  0.4283932609650046  0.3435403442250204  0.1001670354779778   T   T   T
  0.4284150958616594  0.6687684144434036  0.1001377775554834   T   T   T
  0.4321600115294059  0.8354327706103494  0.0960164781911863   T   T   T
  0.8051767202068075  0.0902140744825132  0.0918492834173178   T   T   T
  0.6803405097304188  0.1769718730077207  0.0963088171048904   T   T   T
  0.8051529322700235  0.9221178584321448  0.0918463377704762   T   T   T
  0.6840959254520513  0.3436797392789536  0.1005222510602694   T   T   T
  0.8091766837693425  0.5902416991719467  0.0943599189990395   T   T   T
  0.6840667247129502  0.6686449733069670  0.1005260265064720   T   T   T
  0.8092036463072612  0.4220695532116763  0.0943547314330322   T   T   T
  0.6803258476024482  0.8353660828713013  0.0963148163811007   T   T   T
  0.5557240147576193  0.5061613014220930  0.1411397499871525   T   T   T
 
  0.00000000E+00  0.00000000E+00  0.00000000E+00
  0.00000000E+00  0.00000000E+00  0.00000000E+00
  0.00000000E+00  0.00000000E+00  0.00000000E+00
  0.00000000E+00  0.00000000E+00  0.00000000E+00
  0.00000000E+00  0.00000000E+00  0.00000000E+00
  0.00000000E+00  0.00000000E+00  0.00000000E+00
  0.00000000E+00  0.00000000E+00  0.00000000E+00
  0.00000000E+00  0.00000000E+00  0.00000000E+00
  0.00000000E+00  0.00000000E+00  0.00000000E+00
  0.00000000E+00  0.00000000E+00  0.00000000E+00
  0.00000000E+00  0.00000000E+00  0.00000000E+00
  0.00000000E+00  0.00000000E+00  0.00000000E+00
  0.00000000E+00  0.00000000E+00  0.00000000E+00
  0.00000000E+00  0.00000000E+00  0.00000000E+00
  0.00000000E+00  0.00000000E+00  0.00000000E+00
  0.00000000E+00  0.00000000E+00  0.00000000E+00
  0.00000000E+00  0.00000000E+00  0.00000000E+00
  0.00000000E+00  0.00000000E+00  0.00000000E+00
  0.00000000E+00  0.00000000E+00  0.00000000E+00
  0.00000000E+00  0.00000000E+00  0.00000000E+00
  0.00000000E+00  0.00000000E+00  0.00000000E+00
  0.00000000E+00  0.00000000E+00  0.00000000E+00
  0.00000000E+00  0.00000000E+00  0.00000000E+00
  0.00000000E+00  0.00000000E+00  0.00000000E+00
  0.00000000E+00  0.00000000E+00  0.00000000E+00
  0.00000000E+00  0.00000000E+00  0.00000000E+00
  0.00000000E+00  0.00000000E+00  0.00000000E+00
  0.00000000E+00  0.00000000E+00  0.00000000E+00
  0.00000000E+00  0.00000000E+00  0.00000000E+00
  0.00000000E+00  0.00000000E+00  0.00000000E+00
  0.00000000E+00  0.00000000E+00  0.00000000E+00
