Title                                   
   1.00000000000000     
     4.9440799999999996    0.0000000000000000    0.0000000000000000
     0.0000000000000000   17.1295089999999988    0.0000000000000000
     0.0000000000000000    0.0000000000000000   20.0000000000000000
    30     1     1
Selective dynamics
Direct
  0.0003624700068142  0.1048612261506213  0.2825579356510484   T   T   T
  0.2499257245977255  0.1468093095367444  0.2866096443139989   T   T   T
  0.2499073858621851  0.2297050028523834  0.2976574864136388   T   T   T
  0.0002467809250625  0.3506693932791208  0.3226479206431518   T   T   T
 -0.0022081265134989  0.2704841345887061  0.3036283849174925   T   T   T
 -0.0037218641860419  0.6052227081220773  0.3097618820084353   T   T   T
  0.2498913423616656  0.7282800961337772  0.2901458001221464   T   T   T
  0.0002195023566244  0.8538348549969539  0.2792129995937721   T   T   T
  0.2498938641108754  0.8957811908354792  0.2778601711868286   T   T   T
  0.2499017107119313  0.9794381075545422  0.2772732355463927   T   T   T
  0.0003837883243880  0.7703572216977908  0.2848441652473682   T   T   T
  0.4994706573486766  0.1048617746476208  0.2825620683700128   T   T   T
  0.7499314036132735  0.1464711868154121  0.2857371364576072   T   T   T
  0.7499107327469189  0.2288579699821585  0.2953570924421519   T   T   T
  0.4997279834493541  0.0213810129403381  0.2781244646378220   T   T   T
  0.4995548158328952  0.3506747294089723  0.3226494718862455   T   T   T
  0.7499039037501389  0.4776691755922131  0.3248804823715284   T   T   T
  0.5020308499394073  0.2704862446206573  0.3036298708618620   T   T   T
  0.5035309183295889  0.6052256617839588  0.3097821446259883   T   T   T
  0.7498789604040131  0.7292225564664981  0.2882671945768882   T   T   T
  0.4995571167925666  0.8538352922108022  0.2792108316513984   T   T   T
  0.7498989567230457  0.8956889031173254  0.2775899483565352   T   T   T
  0.7499072277785231  0.9794388094170754  0.2770823163902782   T   T   T
  0.4994094350943061  0.7703581846794111  0.2848432417840594   T   T   T
  0.7498964800604234  0.6467002342167233  0.2994937822056114   T   T   T
  0.2498954780154486  0.6458016383642996  0.3039242097126715   T   T   T
  0.0000966719097995  0.0213807893832274  0.2781215716990492   T   T   T
  0.5138642911853697  0.5242670356324587  0.3288251333711776   T   T   T
  0.9859626522617474  0.5242603316427932  0.3287740446401213   T   T   T
  0.2498886525629940  0.3863162352620063  0.3405256504899966   T   T   T
  0.7498961481960307  0.3934382307107172  0.3263878591062714   T   T   T
  0.2498070854477537  0.4867717573571247  0.3945968587183999   T   T   T
 
  0.00000000E+00  0.00000000E+00  0.00000000E+00
  0.00000000E+00  0.00000000E+00  0.00000000E+00
  0.00000000E+00  0.00000000E+00  0.00000000E+00
  0.00000000E+00  0.00000000E+00  0.00000000E+00
  0.00000000E+00  0.00000000E+00  0.00000000E+00
  0.00000000E+00  0.00000000E+00  0.00000000E+00
  0.00000000E+00  0.00000000E+00  0.00000000E+00
  0.00000000E+00  0.00000000E+00  0.00000000E+00
  0.00000000E+00  0.00000000E+00  0.00000000E+00
  0.00000000E+00  0.00000000E+00  0.00000000E+00
  0.00000000E+00  0.00000000E+00  0.00000000E+00
  0.00000000E+00  0.00000000E+00  0.00000000E+00
  0.00000000E+00  0.00000000E+00  0.00000000E+00
  0.00000000E+00  0.00000000E+00  0.00000000E+00
  0.00000000E+00  0.00000000E+00  0.00000000E+00
  0.00000000E+00  0.00000000E+00  0.00000000E+00
  0.00000000E+00  0.00000000E+00  0.00000000E+00
  0.00000000E+00  0.00000000E+00  0.00000000E+00
  0.00000000E+00  0.00000000E+00  0.00000000E+00
  0.00000000E+00  0.00000000E+00  0.00000000E+00
  0.00000000E+00  0.00000000E+00  0.00000000E+00
  0.00000000E+00  0.00000000E+00  0.00000000E+00
  0.00000000E+00  0.00000000E+00  0.00000000E+00
  0.00000000E+00  0.00000000E+00  0.00000000E+00
  0.00000000E+00  0.00000000E+00  0.00000000E+00
  0.00000000E+00  0.00000000E+00  0.00000000E+00
  0.00000000E+00  0.00000000E+00  0.00000000E+00
  0.00000000E+00  0.00000000E+00  0.00000000E+00
  0.00000000E+00  0.00000000E+00  0.00000000E+00
  0.00000000E+00  0.00000000E+00  0.00000000E+00
  0.00000000E+00  0.00000000E+00  0.00000000E+00
  0.00000000E+00  0.00000000E+00  0.00000000E+00
