Title                                   
   1.00000000000000     
     4.9440799999999996    0.0000000000000000    0.0000000000000000
     0.0000000000000000    8.5647549999999999    0.0000000000000000
     0.0000000000000000    0.0000000000000000   20.0000000000000000
    10     4     1
Selective dynamics
Direct
  0.2500000000000000  0.2110898136260758  0.1003517752156750   T   T   T
 -0.0013600778931240  0.2951582304218712  0.1004772180576100   T   T   T
  0.2500000000000000  0.0384665087216066  0.1003837927051184   T   T   T
 -0.0013525692630854  0.9543985152213001  0.1005090268734203   T   T   T
  0.7500000000000000  0.2082569814538776  0.1005040581626713   T   T   T
  0.5013600778931243  0.2951582304218712  0.1004772180576100   T   T   T
  0.7500000000000000  0.0413399766781658  0.1005304003597487   T   T   T
  0.7500000000000000  0.7119127441402089  0.1007327762820035   T   T   T
  0.7500000000000000  0.5376867955523298  0.1007155369233185   T   T   T
  0.5013525692630852  0.9543985152213001  0.1005090268734203   T   T   T
  0.5151206423786048  0.4561596882269062  0.1005760804032457   T   T   T
 -0.0151206423786051  0.4561596882269062  0.1005760804032457   T   T   T
 -0.0150691757352542  0.7933871812316368  0.1005835511955808   T   T   T
  0.5150691757352539  0.7933871812316368  0.1005835511955808   T   T   T
  0.2500000000000000  0.6247209496243092  0.1004699072917541   T   T   T
 
  0.00000000E+00  0.00000000E+00  0.00000000E+00
  0.00000000E+00  0.00000000E+00  0.00000000E+00
  0.00000000E+00  0.00000000E+00  0.00000000E+00
  0.00000000E+00  0.00000000E+00  0.00000000E+00
  0.00000000E+00  0.00000000E+00  0.00000000E+00
  0.00000000E+00  0.00000000E+00  0.00000000E+00
  0.00000000E+00  0.00000000E+00  0.00000000E+00
  0.00000000E+00  0.00000000E+00  0.00000000E+00
  0.00000000E+00  0.00000000E+00  0.00000000E+00
  0.00000000E+00  0.00000000E+00  0.00000000E+00
  0.00000000E+00  0.00000000E+00  0.00000000E+00
  0.00000000E+00  0.00000000E+00  0.00000000E+00
  0.00000000E+00  0.00000000E+00  0.00000000E+00
  0.00000000E+00  0.00000000E+00  0.00000000E+00
  0.00000000E+00  0.00000000E+00  0.00000000E+00
