Title                                   
   1.00000000000000     
     8.5490480000000009    0.0000000000000000    0.0000000000000000
     0.0000000000000000    8.5490480000000009    0.0000000000000000
     0.0000000000000000    0.0000000000000000   20.0000000000000000
    19     5     1
Selective dynamics
Direct
  0.9085085125009443  0.2050709690400291  0.0975085266556983   T   T   T
  0.9101733955481076  0.8000791201280238  0.0976103211449543   T   T   T
  0.1975312214559027  0.0839711194900196  0.0976761740975528   T   T   T
  0.0770138777634847  0.2018465174262886  0.0976444051018712   T   T   T
  0.1573962010576904  0.6496715340037702  0.0977140429438247   T   T   T
  0.0771138106328796  0.5008384746586784  0.0977847493874894   T   T   T
  0.1572912813955996  0.3518163841758735  0.0978729837909308   T   T   T
  0.0790038864333580  0.7995589828225317  0.0975983774574909   T   T   T
  0.3449094064206808  0.1648820875028641  0.0978760672536078   T   T   T
  0.4926617292306313  0.9187785463290793  0.0977779074715123   T   T   T
  0.3452913357893491  0.8370584462759905  0.0977498619339858   T   T   T
  0.7886242206856755  0.0863070950560129  0.0975315433698433   T   T   T
  0.6385135334176694  0.1685514453680224  0.0976748758636708   T   T   T
  0.7893582011027340  0.9185404476086094  0.0976211706277741   T   T   T
  0.8295413337492618  0.6502766133440663  0.0977908317001205   T   T   T
  0.8269291772908965  0.3558007813032616  0.0976386357839167   T   T   T
  0.6410772598471812  0.8376982003410266  0.0978192325225198   T   T   T
  0.3224752065665402  0.6741772032079750  0.0977452726383210   T   T   T
  0.6619202600447750  0.3330638292725931  0.0977032694657468   T   T   T
  0.4934296636794440  0.0869383877828978  0.0978457603141153   T   T   T
  0.9082202132939005  0.5019824644533502  0.0977901472963508   T   T   T
  0.3215816007620404  0.3266059176190598  0.0981455494573270   T   T   T
  0.6679442206233920  0.6730060839409252  0.0980289539073099   T   T   T
  0.1956584993366279  0.9158835258647772  0.0976496873492315   T   T   T
  0.4932439513712200  0.5023858229842869  0.0979066524648144   T   T   T
 
  0.00000000E+00  0.00000000E+00  0.00000000E+00
  0.00000000E+00  0.00000000E+00  0.00000000E+00
  0.00000000E+00  0.00000000E+00  0.00000000E+00
  0.00000000E+00  0.00000000E+00  0.00000000E+00
  0.00000000E+00  0.00000000E+00  0.00000000E+00
  0.00000000E+00  0.00000000E+00  0.00000000E+00
  0.00000000E+00  0.00000000E+00  0.00000000E+00
  0.00000000E+00  0.00000000E+00  0.00000000E+00
  0.00000000E+00  0.00000000E+00  0.00000000E+00
  0.00000000E+00  0.00000000E+00  0.00000000E+00
  0.00000000E+00  0.00000000E+00  0.00000000E+00
  0.00000000E+00  0.00000000E+00  0.00000000E+00
  0.00000000E+00  0.00000000E+00  0.00000000E+00
  0.00000000E+00  0.00000000E+00  0.00000000E+00
  0.00000000E+00  0.00000000E+00  0.00000000E+00
  0.00000000E+00  0.00000000E+00  0.00000000E+00
  0.00000000E+00  0.00000000E+00  0.00000000E+00
  0.00000000E+00  0.00000000E+00  0.00000000E+00
  0.00000000E+00  0.00000000E+00  0.00000000E+00
  0.00000000E+00  0.00000000E+00  0.00000000E+00
  0.00000000E+00  0.00000000E+00  0.00000000E+00
  0.00000000E+00  0.00000000E+00  0.00000000E+00
  0.00000000E+00  0.00000000E+00  0.00000000E+00
  0.00000000E+00  0.00000000E+00  0.00000000E+00
  0.00000000E+00  0.00000000E+00  0.00000000E+00
