Title                                   
   1.00000000000000     
     9.8694509999999998    0.0000000000000000    0.0000000000000000
     0.0000000000000000    8.5490480000000009    0.0000000000000000
     0.0000000000000000    0.0000000000000000   20.0000000000000000
    27     3     1
Selective dynamics
Direct
  0.0547130926173090  0.0896783164363183  0.0853945102598348   T   T   T
  0.9297907656987504  0.1743880940575752  0.0855619751606513   T   T   T
  0.0582494972002200  0.9233192176441409  0.0858850103986118   T   T   T
  0.9316009147859602  0.3419599658506228  0.0849826674648327   T   T   T
  0.0573256784462463  0.5902701931366384  0.0836489142901844   T   T   T
  0.9341877551254244  0.6760675340412444  0.0865434162152682   T   T   T
  0.0563795923853805  0.4230182338731009  0.0834743686575931   T   T   T
  0.9333182625035424  0.8423564867670527  0.0877012615722975   T   T   T
  0.3053187188716020  0.0853438305114822  0.0936553242495787   T   T   T
  0.1797147619823743  0.1689987402461156  0.0881639240890275   T   T   T
  0.1792621267622366  0.3357936518852568  0.0872460930451381   T   T   T
  0.3043971213240336  0.5842058210900147  0.0928605663493649   T   T   T
  0.1822812254594660  0.6719239864676176  0.0863577225944782   T   T   T
  0.3014335481575686  0.4163210453256831  0.0959673074037730   T   T   T
  0.1833934935650972  0.8385284416803396  0.0872051419900346   T   T   T
  0.5549577403866496  0.0910441973394041  0.1021338615095370   T   T   T
  0.4265165964647573  0.1723176030351293  0.1027663163458141   T   T   T
  0.5566399020046280  0.9213744528910341  0.1023806586624702   T   T   T
  0.4279392737614447  0.6668087277926740  0.1004622858475826   T   T   T
  0.4319913284259808  0.8330549617495157  0.0989447230644343   T   T   T
  0.8038018483057080  0.0929521438847676  0.0903265481398835   T   T   T
  0.6787492603187197  0.1797851764324659  0.0968921882427316   T   T   T
  0.8066735643097487  0.9253012531487596  0.0920294678875875   T   T   T
  0.6831599747620514  0.3480297790974918  0.0980664665174684   T   T   T
  0.8113945168378918  0.5961950142784713  0.0942715262157896   T   T   T
  0.8082592125839682  0.4277216130430587  0.0909107214097252   T   T   T
  0.6848425941533914  0.8377954861140067  0.1012853250995975   T   T   T
  0.4186519249322386  0.3338911919355207  0.1111100020006855   T   T   T
  0.6933427982966246  0.6763884895223486  0.1091916280727875   T   T   T
  0.3078765431066116  0.9203357599737879  0.0920847969961528   T   T   T
  0.5569713664643762  0.5057055907483883  0.1434602802471179   T   T   T
 
  0.00000000E+00  0.00000000E+00  0.00000000E+00
  0.00000000E+00  0.00000000E+00  0.00000000E+00
  0.00000000E+00  0.00000000E+00  0.00000000E+00
  0.00000000E+00  0.00000000E+00  0.00000000E+00
  0.00000000E+00  0.00000000E+00  0.00000000E+00
  0.00000000E+00  0.00000000E+00  0.00000000E+00
  0.00000000E+00  0.00000000E+00  0.00000000E+00
  0.00000000E+00  0.00000000E+00  0.00000000E+00
  0.00000000E+00  0.00000000E+00  0.00000000E+00
  0.00000000E+00  0.00000000E+00  0.00000000E+00
  0.00000000E+00  0.00000000E+00  0.00000000E+00
  0.00000000E+00  0.00000000E+00  0.00000000E+00
  0.00000000E+00  0.00000000E+00  0.00000000E+00
  0.00000000E+00  0.00000000E+00  0.00000000E+00
  0.00000000E+00  0.00000000E+00  0.00000000E+00
  0.00000000E+00  0.00000000E+00  0.00000000E+00
  0.00000000E+00  0.00000000E+00  0.00000000E+00
  0.00000000E+00  0.00000000E+00  0.00000000E+00
  0.00000000E+00  0.00000000E+00  0.00000000E+00
  0.00000000E+00  0.00000000E+00  0.00000000E+00
  0.00000000E+00  0.00000000E+00  0.00000000E+00
  0.00000000E+00  0.00000000E+00  0.00000000E+00
  0.00000000E+00  0.00000000E+00  0.00000000E+00
  0.00000000E+00  0.00000000E+00  0.00000000E+00
  0.00000000E+00  0.00000000E+00  0.00000000E+00
  0.00000000E+00  0.00000000E+00  0.00000000E+00
  0.00000000E+00  0.00000000E+00  0.00000000E+00
  0.00000000E+00  0.00000000E+00  0.00000000E+00
  0.00000000E+00  0.00000000E+00  0.00000000E+00
  0.00000000E+00  0.00000000E+00  0.00000000E+00
  0.00000000E+00  0.00000000E+00  0.00000000E+00
