Title                                   
   1.00000000000000     
     9.8694509999999998    0.0000000000000000    0.0000000000000000
     0.0000000000000000    8.5490480000000009    0.0000000000000000
     0.0000000000000000    0.0000000000000000   20.0000000000000000
    26     5     1
Selective dynamics
Direct
  0.0556408134049024  0.0907169283068192  0.0870185789632145   T   T   T
  0.9309484127353665  0.1752212909161656  0.0869843497503204   T   T   T
  0.0576602185339546  0.9228770529568122  0.0875518770379245   T   T   T
  0.9293436454665179  0.3421475273348960  0.0885502681050347   T   T   T
  0.0565852926242432  0.5915683215527424  0.0889553772746485   T   T   T
  0.0553205632179422  0.4241615305397242  0.0893619680338929   T   T   T
  0.9332705253314475  0.8401270636794823  0.0881779065314396   T   T   T
  0.3058286973167707  0.0880498184918089  0.0907390404701005   T   T   T
  0.1817018417594521  0.1726814042989080  0.0888582823874918   T   T   T
  0.1811727587850548  0.3398011413190673  0.0909858086866302   T   T   T
  0.3039976428607657  0.5886261564005303  0.1031640627277553   T   T   T
  0.1809780788599821  0.6738635386568079  0.0925624114678951   T   T   T
  0.3075695422454632  0.4208768548885038  0.0979268972916000   T   T   T
  0.1829140040701774  0.8413510980401979  0.0909689575418665   T   T   T
  0.5565920111515723  0.0864561987018976  0.0938244663289152   T   T   T
  0.5560000379436398  0.9205478290202436  0.0998459761516947   T   T   T
  0.4314851495776332  0.3328328191509507  0.0979937458559375   T   T   T
  0.4280425864100195  0.8400944130553063  0.1062254747115454   T   T   T
  0.8063411951733050  0.0894962697690286  0.0875345257237106   T   T   T
  0.6799285541404302  0.1707444126474150  0.0903009253299322   T   T   T
  0.8084152962612172  0.9237315668408606  0.0892959546809287   T   T   T
  0.6781927715443516  0.3381309616631892  0.0938530208355599   T   T   T
  0.8084268100248168  0.5961502888549153  0.0946661876865243   T   T   T
  0.8022416934216627  0.4271250029188300  0.0920341770537724   T   T   T
  0.6843562628204788  0.8406290743528888  0.0977124876717175   T   T   T
  0.4184787817760843  0.6810323656106189  0.1204430362222189   T   T   T
  0.5523690512753986  0.4067461663392838  0.1017906089712993   T   T   T
  0.6940363505903830  0.6810945877879359  0.1055949561982550   T   T   T
  0.3059106122012123  0.9249975085643608  0.0930677072734788   T   T   T
  0.4297001286948261  0.1664320831691479  0.0935706384536934   T   T   T
  0.9329289152826117  0.6736301726477463  0.0889235924651765   T   T   T
  0.5632607544983235  0.5783045515229160  0.1671917321158411   T   T   T
 
  0.00000000E+00  0.00000000E+00  0.00000000E+00
  0.00000000E+00  0.00000000E+00  0.00000000E+00
  0.00000000E+00  0.00000000E+00  0.00000000E+00
  0.00000000E+00  0.00000000E+00  0.00000000E+00
  0.00000000E+00  0.00000000E+00  0.00000000E+00
  0.00000000E+00  0.00000000E+00  0.00000000E+00
  0.00000000E+00  0.00000000E+00  0.00000000E+00
  0.00000000E+00  0.00000000E+00  0.00000000E+00
  0.00000000E+00  0.00000000E+00  0.00000000E+00
  0.00000000E+00  0.00000000E+00  0.00000000E+00
  0.00000000E+00  0.00000000E+00  0.00000000E+00
  0.00000000E+00  0.00000000E+00  0.00000000E+00
  0.00000000E+00  0.00000000E+00  0.00000000E+00
  0.00000000E+00  0.00000000E+00  0.00000000E+00
  0.00000000E+00  0.00000000E+00  0.00000000E+00
  0.00000000E+00  0.00000000E+00  0.00000000E+00
  0.00000000E+00  0.00000000E+00  0.00000000E+00
  0.00000000E+00  0.00000000E+00  0.00000000E+00
  0.00000000E+00  0.00000000E+00  0.00000000E+00
  0.00000000E+00  0.00000000E+00  0.00000000E+00
  0.00000000E+00  0.00000000E+00  0.00000000E+00
  0.00000000E+00  0.00000000E+00  0.00000000E+00
  0.00000000E+00  0.00000000E+00  0.00000000E+00
  0.00000000E+00  0.00000000E+00  0.00000000E+00
  0.00000000E+00  0.00000000E+00  0.00000000E+00
  0.00000000E+00  0.00000000E+00  0.00000000E+00
  0.00000000E+00  0.00000000E+00  0.00000000E+00
  0.00000000E+00  0.00000000E+00  0.00000000E+00
  0.00000000E+00  0.00000000E+00  0.00000000E+00
  0.00000000E+00  0.00000000E+00  0.00000000E+00
  0.00000000E+00  0.00000000E+00  0.00000000E+00
  0.00000000E+00  0.00000000E+00  0.00000000E+00
