Title                                   
   1.00000000000000     
     8.5490480000000009    0.0000000000000000    0.0000000000000000
     0.0000000000000000    8.5490480000000009    0.0000000000000000
     0.0000000000000000    0.0000000000000000   20.0000000000000000
    20     4     1
Selective dynamics
Direct
  0.9092465677980235  0.2045162620110312  0.0948614216550128   T   T   T
  0.9114865478649562  0.8021445642025816  0.0948815434968643   T   T   T
  0.1947007843270995  0.0830669608437534  0.0948562588479126   T   T   T
  0.0751039961234019  0.2001406109679721  0.0948983811582251   T   T   T
  0.1545526827381531  0.6498217823991903  0.0969230431688880   T   T   T
  0.0731721340582423  0.5011509947253016  0.0968477559595970   T   T   T
  0.1537308522071754  0.3534039761832444  0.0970100252698453   T   T   T
  0.0783564871051771  0.8003470579709164  0.0948593576890728   T   T   T
  0.4946811485535458  0.0875352605295665  0.0969663644389327   T   T   T
  0.3443717734476160  0.1650758504120664  0.0968946778656381   T   T   T
  0.4943599479158778  0.9169923545824142  0.0969101506869725   T   T   T
  0.3448670856671314  0.8353952784667517  0.0969097272120853   T   T   T
  0.7892190119439479  0.0870511573285851  0.0954635717866248   T   T   T
  0.6429355264169451  0.1679147687822019  0.0969762060447630   T   T   T
  0.7900943347173504  0.9190103291861611  0.0954492763211147   T   T   T
  0.8296271556565170  0.6524039039217719  0.0962080155733601   T   T   T
  0.8279342579191505  0.3533212106955225  0.0960685393729456   T   T   T
  0.6435440995839035  0.8367497828287109  0.0969590360437976   T   T   T
  0.3197069667749364  0.3307585418887901  0.0994101788320153   T   T   T
  0.3205405135862655  0.6731579174804173  0.0990520741809074   T   T   T
  0.9049544199752863  0.5028007793056042  0.0961768598279326   T   T   T
  0.6692242329518658  0.3318027426887518  0.0981588412961905   T   T   T
  0.6709121957880737  0.6732497160125966  0.0983536065745245   T   T   T
  0.1951094290827055  0.9166123899731689  0.0946292118104262   T   T   T
  0.4929798477966449  0.5003658066129485  0.1279808748863243   T   T   T
 
  0.00000000E+00  0.00000000E+00  0.00000000E+00
  0.00000000E+00  0.00000000E+00  0.00000000E+00
  0.00000000E+00  0.00000000E+00  0.00000000E+00
  0.00000000E+00  0.00000000E+00  0.00000000E+00
  0.00000000E+00  0.00000000E+00  0.00000000E+00
  0.00000000E+00  0.00000000E+00  0.00000000E+00
  0.00000000E+00  0.00000000E+00  0.00000000E+00
  0.00000000E+00  0.00000000E+00  0.00000000E+00
  0.00000000E+00  0.00000000E+00  0.00000000E+00
  0.00000000E+00  0.00000000E+00  0.00000000E+00
  0.00000000E+00  0.00000000E+00  0.00000000E+00
  0.00000000E+00  0.00000000E+00  0.00000000E+00
  0.00000000E+00  0.00000000E+00  0.00000000E+00
  0.00000000E+00  0.00000000E+00  0.00000000E+00
  0.00000000E+00  0.00000000E+00  0.00000000E+00
  0.00000000E+00  0.00000000E+00  0.00000000E+00
  0.00000000E+00  0.00000000E+00  0.00000000E+00
  0.00000000E+00  0.00000000E+00  0.00000000E+00
  0.00000000E+00  0.00000000E+00  0.00000000E+00
  0.00000000E+00  0.00000000E+00  0.00000000E+00
  0.00000000E+00  0.00000000E+00  0.00000000E+00
  0.00000000E+00  0.00000000E+00  0.00000000E+00
  0.00000000E+00  0.00000000E+00  0.00000000E+00
  0.00000000E+00  0.00000000E+00  0.00000000E+00
  0.00000000E+00  0.00000000E+00  0.00000000E+00
