Title                                   
   1.00000000000000     
     8.5490480000000009    0.0000000000000000    0.0000000000000000
     0.0000000000000000    8.5490480000000009    0.0000000000000000
     0.0000000000000000    0.0000000000000000   20.0000000000000000
    21     3     1
Selective dynamics
Direct
  0.9060048864374995  0.2062282812257834  0.0941905073525215   T   T   T
  0.9091562831628877  0.5042385984154865  0.0966724824065208   T   T   T
  0.9132881729190979  0.8036693994586072  0.0960541046332973   T   T   T
  0.1945970578823845  0.0813088348591435  0.0958306664213675   T   T   T
  0.0731222232520989  0.2001843926902120  0.0957451070560818   T   T   T
  0.1600703494527097  0.6472996558929515  0.0948809682709773   T   T   T
  0.0779701079549313  0.5001132795842772  0.0967622129853522   T   T   T
  0.1549378596715374  0.3490465293193247  0.0984468914461859   T   T   T
  0.0805980447092702  0.7977856855926652  0.0946362276512137   T   T   T
  0.4915393074857156  0.0868065330071658  0.0964591366276002   T   T   T
  0.3405047565963679  0.1619518200128937  0.0984684573289521   T   T   T
  0.4936857886754904  0.9172399320838732  0.0966960455323159   T   T   T
  0.3476360351242087  0.8353943752294110  0.0943605607738575   T   T   T
  0.7866086316109578  0.0881849893477401  0.0941487547939681   T   T   T
  0.6360359717767208  0.1684067381051843  0.0940345999179947   T   T   T
  0.7906542360866380  0.9218953622024764  0.0958832927816277   T   T   T
  0.8328019839700834  0.6542077100065511  0.0987180396758644   T   T   T
  0.8266058791999876  0.3580119762809147  0.0941870926570988   T   T   T
  0.6435384276709216  0.8393264016155383  0.0985855374748686   T   T   T
  0.3255245570491104  0.6713051309658034  0.0933117377519615   T   T   T
  0.6605351702117945  0.3358913785470071  0.0927040728434961   T   T   T
  0.3162795424857910  0.3244031700049445  0.1027800679819291   T   T   T
  0.6703988932224125  0.6772985120627288  0.1031349705336657   T   T   T
  0.1986161323921637  0.9146837109491280  0.0940854220132961   T   T   T
  0.4947017009992046  0.4999076025402012  0.1329280430879654   T   T   T
 
  0.00000000E+00  0.00000000E+00  0.00000000E+00
  0.00000000E+00  0.00000000E+00  0.00000000E+00
  0.00000000E+00  0.00000000E+00  0.00000000E+00
  0.00000000E+00  0.00000000E+00  0.00000000E+00
  0.00000000E+00  0.00000000E+00  0.00000000E+00
  0.00000000E+00  0.00000000E+00  0.00000000E+00
  0.00000000E+00  0.00000000E+00  0.00000000E+00
  0.00000000E+00  0.00000000E+00  0.00000000E+00
  0.00000000E+00  0.00000000E+00  0.00000000E+00
  0.00000000E+00  0.00000000E+00  0.00000000E+00
  0.00000000E+00  0.00000000E+00  0.00000000E+00
  0.00000000E+00  0.00000000E+00  0.00000000E+00
  0.00000000E+00  0.00000000E+00  0.00000000E+00
  0.00000000E+00  0.00000000E+00  0.00000000E+00
  0.00000000E+00  0.00000000E+00  0.00000000E+00
  0.00000000E+00  0.00000000E+00  0.00000000E+00
  0.00000000E+00  0.00000000E+00  0.00000000E+00
  0.00000000E+00  0.00000000E+00  0.00000000E+00
  0.00000000E+00  0.00000000E+00  0.00000000E+00
  0.00000000E+00  0.00000000E+00  0.00000000E+00
  0.00000000E+00  0.00000000E+00  0.00000000E+00
  0.00000000E+00  0.00000000E+00  0.00000000E+00
  0.00000000E+00  0.00000000E+00  0.00000000E+00
  0.00000000E+00  0.00000000E+00  0.00000000E+00
  0.00000000E+00  0.00000000E+00  0.00000000E+00
