Title                                   
   1.00000000000000     
     4.9440799999999996    0.0000000000000000    0.0000000000000000
     0.0000000000000000   17.1295089999999988    0.0000000000000000
     0.0000000000000000    0.0000000000000000   20.0000000000000000
    29     2     1
Selective dynamics
Direct
 -0.0000382950595391  0.1045954236934295  0.2912122490805245   T   T   T
  0.2499204866868003  0.1462787412863128  0.2953718080025873   T   T   T
  0.2498900391826110  0.2286602838459635  0.3057092149207539   T   T   T
  0.0042127049076339  0.3506413311956291  0.3248136666130036   T   T   T
 -0.0009364180157240  0.2703140941519102  0.3099925976554143   T   T   T
 -0.0038330454736173  0.6033356586725073  0.2968144107361149   T   T   T
  0.2498918729448396  0.7283280637911834  0.2883051361136172   T   T   T
  0.0002910210643704  0.8541646638165922  0.2838950414536038   T   T   T
  0.2499161484636054  0.8960932457921007  0.2839137270872684   T   T   T
  0.2499264175146801  0.9795736839474709  0.2851104427270656   T   T   T
  0.0005118572062562  0.7706506381183373  0.2857689627529555   T   T   T
  0.4998820995527389  0.1045989110993774  0.2912048989249915   T   T   T
  0.7499145778376863  0.1464994306344635  0.2940445001643458   T   T   T
  0.7499038351343605  0.2289377874114474  0.3021750187310287   T   T   T
  0.4999750937569634  0.0213927956400214  0.2863777372841740   T   T   T
  0.4955499703367149  0.3506405071452883  0.3248091267042586   T   T   T
  0.7498980155653886  0.4772204139296494  0.3102142528281383   T   T   T
  0.5007269385202435  0.2703126659518579  0.3099856950183561   T   T   T
  0.5036059126213831  0.6033425163225371  0.2968015270402933   T   T   T
  0.7498970024493622  0.7293139826676723  0.2866943380891266   T   T   T
  0.4995395586236276  0.8541675574554327  0.2838901551795131   T   T   T
  0.7499250729923311  0.8959608422681582  0.2835175673973133   T   T   T
  0.7499345644811687  0.9794591598941458  0.2847255632596061   T   T   T
  0.4992815762644343  0.7706547173337966  0.2857643872574918   T   T   T
  0.7498927176093398  0.6463131394264172  0.2912365407094016   T   T   T
  0.2498802963866079  0.6447229967871718  0.2945382779135378   T   T   T
 -0.0001263884000314  0.0213950450360704  0.2863816907579289   T   T   T
  0.5107744300849347  0.5209250231989524  0.3079875192879576   T   T   T
  0.9889866592315395  0.5209302260035248  0.3080335759639831   T   T   T
  0.2498724289507662  0.3867104372914013  0.3408814111454994   T   T   T
  0.7498834192649757  0.3945332126685747  0.3247232644137953   T   T   T
  0.2498724293135559  0.4978838035225955  0.3776706947863012   T   T   T
 
  0.00000000E+00  0.00000000E+00  0.00000000E+00
  0.00000000E+00  0.00000000E+00  0.00000000E+00
  0.00000000E+00  0.00000000E+00  0.00000000E+00
  0.00000000E+00  0.00000000E+00  0.00000000E+00
  0.00000000E+00  0.00000000E+00  0.00000000E+00
  0.00000000E+00  0.00000000E+00  0.00000000E+00
  0.00000000E+00  0.00000000E+00  0.00000000E+00
  0.00000000E+00  0.00000000E+00  0.00000000E+00
  0.00000000E+00  0.00000000E+00  0.00000000E+00
  0.00000000E+00  0.00000000E+00  0.00000000E+00
  0.00000000E+00  0.00000000E+00  0.00000000E+00
  0.00000000E+00  0.00000000E+00  0.00000000E+00
  0.00000000E+00  0.00000000E+00  0.00000000E+00
  0.00000000E+00  0.00000000E+00  0.00000000E+00
  0.00000000E+00  0.00000000E+00  0.00000000E+00
  0.00000000E+00  0.00000000E+00  0.00000000E+00
  0.00000000E+00  0.00000000E+00  0.00000000E+00
  0.00000000E+00  0.00000000E+00  0.00000000E+00
  0.00000000E+00  0.00000000E+00  0.00000000E+00
  0.00000000E+00  0.00000000E+00  0.00000000E+00
  0.00000000E+00  0.00000000E+00  0.00000000E+00
  0.00000000E+00  0.00000000E+00  0.00000000E+00
  0.00000000E+00  0.00000000E+00  0.00000000E+00
  0.00000000E+00  0.00000000E+00  0.00000000E+00
  0.00000000E+00  0.00000000E+00  0.00000000E+00
  0.00000000E+00  0.00000000E+00  0.00000000E+00
  0.00000000E+00  0.00000000E+00  0.00000000E+00
  0.00000000E+00  0.00000000E+00  0.00000000E+00
  0.00000000E+00  0.00000000E+00  0.00000000E+00
  0.00000000E+00  0.00000000E+00  0.00000000E+00
  0.00000000E+00  0.00000000E+00  0.00000000E+00
  0.00000000E+00  0.00000000E+00  0.00000000E+00
