Title                                   
   1.00000000000000     
     4.9440799999999996    0.0000000000000000    0.0000000000000000
     0.0000000000000000   17.1295089999999988    0.0000000000000000
     0.0000000000000000    0.0000000000000000   20.0000000000000000
    26     4     1
Selective dynamics
Direct
  0.0010100705491571  0.1073688940592280  0.2978858929051794   T   T   T
  0.2504069168341855  0.1503224289581128  0.2985276271042894   T   T   T
  0.2503367314132254  0.2354493225898772  0.2999788221324079   T   T   T
 -0.0007099362396474  0.2771542705532273  0.3006630232811896   T   T   T
 -0.0007307865736528  0.5977508275905280  0.3011757233055675   T   T   T
  0.2503138425376946  0.7245992000833901  0.2992192653814065   T   T   T
  0.0006955951250496  0.8523788332755884  0.2974067553603887   T   T   T
  0.2503821740150475  0.8950946183985524  0.2970433607915521   T   T   T
  0.2504024970492206  0.9798506584210598  0.2968040125201530   T   T   T
  0.0009571415333741  0.7675694935526678  0.2985101935006316   T   T   T
  0.4997900099219645  0.1073637924824551  0.2978971157838878   T   T   T
  0.7503925870772988  0.1497071000955948  0.2985318828172588   T   T   T
  0.7503419941484873  0.2341906554292235  0.2999352135440270   T   T   T
  0.5000643501954137  0.0225758078117935  0.2969999019427693   T   T   T
  0.7502393612777974  0.3949011674371146  0.3023088916196636   T   T   T
  0.7502199957823960  0.4799992832253491  0.3024740872908835   T   T   T
  0.5013477957201512  0.2771461320218069  0.3007325188699741   T   T   T
  0.5013612157759888  0.5977593690691950  0.3011624679528742   T   T   T
  0.7503068652280409  0.7252349937529168  0.2992010602483361   T   T   T
  0.5000172265210079  0.8523817966156539  0.2974031221352221   T   T   T
  0.7503477905906293  0.8950328489630366  0.2970485868178011   T   T   T
  0.7503607930682334  0.9799142474333687  0.2968089759210711   T   T   T
  0.4996895744299104  0.7675781196571564  0.2985069064067299   T   T   T
  0.7503355419157793  0.6407404275142146  0.3004793804035671   T   T   T
  0.2503229620330979  0.6394617135913694  0.3005513594094760   T   T   T
  0.0007114290592794  0.0225691761126600  0.2969976341758320   T   T   T
  0.5084552842239128  0.5164163157702180  0.3022002954244010   T   T   T
  0.9919915927377629  0.5164235557949305  0.3022161704204112   T   T   T
  0.5084541216535416  0.3584801108993552  0.3020342382735371   T   T   T
 -0.0079926835857908  0.3584717529059813  0.3018886145104927   T   T   T
  0.2501849459814434  0.4374550859343699  0.3024668997489700   T   T   T
 
  0.00000000E+00  0.00000000E+00  0.00000000E+00
  0.00000000E+00  0.00000000E+00  0.00000000E+00
  0.00000000E+00  0.00000000E+00  0.00000000E+00
  0.00000000E+00  0.00000000E+00  0.00000000E+00
  0.00000000E+00  0.00000000E+00  0.00000000E+00
  0.00000000E+00  0.00000000E+00  0.00000000E+00
  0.00000000E+00  0.00000000E+00  0.00000000E+00
  0.00000000E+00  0.00000000E+00  0.00000000E+00
  0.00000000E+00  0.00000000E+00  0.00000000E+00
  0.00000000E+00  0.00000000E+00  0.00000000E+00
  0.00000000E+00  0.00000000E+00  0.00000000E+00
  0.00000000E+00  0.00000000E+00  0.00000000E+00
  0.00000000E+00  0.00000000E+00  0.00000000E+00
  0.00000000E+00  0.00000000E+00  0.00000000E+00
  0.00000000E+00  0.00000000E+00  0.00000000E+00
  0.00000000E+00  0.00000000E+00  0.00000000E+00
  0.00000000E+00  0.00000000E+00  0.00000000E+00
  0.00000000E+00  0.00000000E+00  0.00000000E+00
  0.00000000E+00  0.00000000E+00  0.00000000E+00
  0.00000000E+00  0.00000000E+00  0.00000000E+00
  0.00000000E+00  0.00000000E+00  0.00000000E+00
  0.00000000E+00  0.00000000E+00  0.00000000E+00
  0.00000000E+00  0.00000000E+00  0.00000000E+00
  0.00000000E+00  0.00000000E+00  0.00000000E+00
  0.00000000E+00  0.00000000E+00  0.00000000E+00
  0.00000000E+00  0.00000000E+00  0.00000000E+00
  0.00000000E+00  0.00000000E+00  0.00000000E+00
  0.00000000E+00  0.00000000E+00  0.00000000E+00
  0.00000000E+00  0.00000000E+00  0.00000000E+00
  0.00000000E+00  0.00000000E+00  0.00000000E+00
  0.00000000E+00  0.00000000E+00  0.00000000E+00
