Title                                   
   1.00000000000000     
     8.5490480000000009    0.0000000000000000    0.0000000000000000
     0.0000000000000000    8.5490480000000009    0.0000000000000000
     0.0000000000000000    0.0000000000000000   20.0000000000000000
    24     1
Selective dynamics
Direct
  0.9115084988007043  0.2056862019197440  0.0993308566813150   T   T   T
  0.9092075174738199  0.5018013616656314  0.0972554048805718   T   T   T
  0.9115469712840779  0.7978754110092220  0.0993228584035094   T   T   T
  0.1969401850825534  0.0833019627602146  0.0993302045734592   T   T   T
  0.0745207340132044  0.2056971022756175  0.0993258546437992   T   T   T
  0.1969377212866438  0.9202762239600479  0.0993574533576505   T   T   T
  0.1573150312308000  0.6481696798627716  0.0970082102930189   T   T   T
  0.0767944617201863  0.5017978212293068  0.0972471014340906   T   T   T
  0.1572977267117384  0.3554261527286465  0.0969978254620741   T   T   T
  0.0745457517541042  0.7978855249773971  0.0993341895670794   T   T   T
  0.4930024782877673  0.0855971757780056  0.0972978854389822   T   T   T
  0.3466410650701224  0.1661021814684061  0.0970273023272022   T   T   T
  0.4930015182333258  0.9179899464038135  0.0972907873858214   T   T   T
  0.3466537434122881  0.8374939332661426  0.0970260292170879   T   T   T
  0.7891344616519667  0.0832795447177897  0.0993448183935439   T   T   T
  0.6393810777233107  0.1660851713566279  0.0970240973535590   T   T   T
  0.7891523715796469  0.9202707821334369  0.0993534623770042   T   T   T
  0.8287172047367058  0.6481819698083729  0.0969844427381767   T   T   T
  0.8286837219401255  0.3554105231843672  0.0969913378094660   T   T   T
  0.6393828167525353  0.8374998439978184  0.0970164860650643   T   T   T
  0.3230047058971336  0.3317894060693877  0.0934649751336124   T   T   T
  0.3230202969186619  0.6717920263797624  0.0934699347394320   T   T   T
  0.6629896805630163  0.3317657198607958  0.0934681312225308   T   T   T
  0.6630266630531720  0.6718149135226005  0.0934332719733379   T   T   T
  0.4930055948223814  0.5017994196640856  0.0500020785285887   T   T   T
 
  0.00000000E+00  0.00000000E+00  0.00000000E+00
  0.00000000E+00  0.00000000E+00  0.00000000E+00
  0.00000000E+00  0.00000000E+00  0.00000000E+00
  0.00000000E+00  0.00000000E+00  0.00000000E+00
  0.00000000E+00  0.00000000E+00  0.00000000E+00
  0.00000000E+00  0.00000000E+00  0.00000000E+00
  0.00000000E+00  0.00000000E+00  0.00000000E+00
  0.00000000E+00  0.00000000E+00  0.00000000E+00
  0.00000000E+00  0.00000000E+00  0.00000000E+00
  0.00000000E+00  0.00000000E+00  0.00000000E+00
  0.00000000E+00  0.00000000E+00  0.00000000E+00
  0.00000000E+00  0.00000000E+00  0.00000000E+00
  0.00000000E+00  0.00000000E+00  0.00000000E+00
  0.00000000E+00  0.00000000E+00  0.00000000E+00
  0.00000000E+00  0.00000000E+00  0.00000000E+00
  0.00000000E+00  0.00000000E+00  0.00000000E+00
  0.00000000E+00  0.00000000E+00  0.00000000E+00
  0.00000000E+00  0.00000000E+00  0.00000000E+00
  0.00000000E+00  0.00000000E+00  0.00000000E+00
  0.00000000E+00  0.00000000E+00  0.00000000E+00
  0.00000000E+00  0.00000000E+00  0.00000000E+00
  0.00000000E+00  0.00000000E+00  0.00000000E+00
  0.00000000E+00  0.00000000E+00  0.00000000E+00
  0.00000000E+00  0.00000000E+00  0.00000000E+00
  0.00000000E+00  0.00000000E+00  0.00000000E+00
