Title                                   
   1.00000000000000     
     9.8694509999999998    0.0000000000000000    0.0000000000000000
     0.0000000000000000    8.5490480000000009    0.0000000000000000
     0.0000000000000000    0.0000000000000000   20.0000000000000000
    27     4     1
Selective dynamics
Direct
  0.0559174640762553  0.0910545887903204  0.0836458363489047   T   T   T
  0.9306882155840014  0.1752641910238414  0.0855001668904599   T   T   T
  0.0580323677278317  0.9240115561734342  0.0836099802158138   T   T   T
  0.9289147405538309  0.3424815783329931  0.0873736632011686   T   T   T
  0.0569047925673185  0.5904829196782780  0.0834539095390136   T   T   T
  0.9324796761167025  0.6735215185329273  0.0871207112003010   T   T   T
  0.0558592263472451  0.4232201562464006  0.0850156342488816   T   T   T
  0.9331540795420876  0.8410935301708772  0.0866524550703654   T   T   T
  0.3058376851894223  0.0878977374623559  0.0876576427433631   T   T   T
  0.1820305035457129  0.1726729116524215  0.0851271379978258   T   T   T
  0.1815209578931110  0.3387971852166720  0.0865375149324806   T   T   T
  0.3051563608033722  0.5883471048383820  0.0965631056340394   T   T   T
  0.1824624721863731  0.6730540683673636  0.0853217249563298   T   T   T
  0.3082196693420179  0.4200231134009103  0.0950400404691732   T   T   T
  0.1828711635809142  0.8404570411491472  0.0848164552072774   T   T   T
  0.5560508622872501  0.0865345884081287  0.0961995701372799   T   T   T
  0.5558410180562917  0.9210538160671818  0.1012082802159085   T   T   T
  0.4297213611847134  0.3304532978424004  0.1016590606714516   T   T   T
  0.4279440503748129  0.8397912024019072  0.1017738111395069   T   T   T
  0.8060173627834851  0.0906305210712955  0.0876407342399819   T   T   T
  0.6797958644983400  0.1716886383273379  0.0930916079826830   T   T   T
  0.8083287910832609  0.9251897999057059  0.0900350278097150   T   T   T
  0.6786594009218384  0.3358318180224819  0.1007625772914682   T   T   T
  0.8087903354087781  0.5944487371857688  0.0978649603843616   T   T   T
  0.8010049903947446  0.4262487360474231  0.0956896443509382   T   T   T
  0.6852858341742916  0.8420556511961526  0.1014982274980247   T   T   T
  0.4191343745590282  0.6799387388455358  0.1137955705640130   T   T   T
  0.5514670455531393  0.3980837309204446  0.1198163695580535   T   T   T
  0.6960160488183561  0.6840228151665187  0.1158640573223690   T   T   T
  0.3070449705373778  0.9249755071230078  0.0882190751519997   T   T   T
  0.4292574008265250  0.1670564748721116  0.0938728547396805   T   T   T
  0.5592299134815757  0.5898627255602741  0.1832475922871833   T   T   T
 
  0.00000000E+00  0.00000000E+00  0.00000000E+00
  0.00000000E+00  0.00000000E+00  0.00000000E+00
  0.00000000E+00  0.00000000E+00  0.00000000E+00
  0.00000000E+00  0.00000000E+00  0.00000000E+00
  0.00000000E+00  0.00000000E+00  0.00000000E+00
  0.00000000E+00  0.00000000E+00  0.00000000E+00
  0.00000000E+00  0.00000000E+00  0.00000000E+00
  0.00000000E+00  0.00000000E+00  0.00000000E+00
  0.00000000E+00  0.00000000E+00  0.00000000E+00
  0.00000000E+00  0.00000000E+00  0.00000000E+00
  0.00000000E+00  0.00000000E+00  0.00000000E+00
  0.00000000E+00  0.00000000E+00  0.00000000E+00
  0.00000000E+00  0.00000000E+00  0.00000000E+00
  0.00000000E+00  0.00000000E+00  0.00000000E+00
  0.00000000E+00  0.00000000E+00  0.00000000E+00
  0.00000000E+00  0.00000000E+00  0.00000000E+00
  0.00000000E+00  0.00000000E+00  0.00000000E+00
  0.00000000E+00  0.00000000E+00  0.00000000E+00
  0.00000000E+00  0.00000000E+00  0.00000000E+00
  0.00000000E+00  0.00000000E+00  0.00000000E+00
  0.00000000E+00  0.00000000E+00  0.00000000E+00
  0.00000000E+00  0.00000000E+00  0.00000000E+00
  0.00000000E+00  0.00000000E+00  0.00000000E+00
  0.00000000E+00  0.00000000E+00  0.00000000E+00
  0.00000000E+00  0.00000000E+00  0.00000000E+00
  0.00000000E+00  0.00000000E+00  0.00000000E+00
  0.00000000E+00  0.00000000E+00  0.00000000E+00
  0.00000000E+00  0.00000000E+00  0.00000000E+00
  0.00000000E+00  0.00000000E+00  0.00000000E+00
  0.00000000E+00  0.00000000E+00  0.00000000E+00
  0.00000000E+00  0.00000000E+00  0.00000000E+00
  0.00000000E+00  0.00000000E+00  0.00000000E+00
