Title                                   
   1.00000000000000     
     9.8694509999999998    0.0000000000000000    0.0000000000000000
     0.0000000000000000    8.5490480000000009    0.0000000000000000
     0.0000000000000000    0.0000000000000000   20.0000000000000000
    27     3     1
Selective dynamics
Direct
  0.0557119461037301  0.0887005086105841  0.0812900840272573   T   T   T
  0.9306222783391945  0.1720568161861971  0.0815330808051451   T   T   T
  0.0567798158209410  0.9225497549590674  0.0821541306949105   T   T   T
  0.9324028461422241  0.3397217878655443  0.0809983600511061   T   T   T
  0.0563295961166610  0.5908718644760250  0.0822937890515875   T   T   T
  0.0566550266756326  0.4247295197642186  0.0807458267985383   T   T   T
  0.9312035912112796  0.8382245435539794  0.0830971851526707   T   T   T
  0.3066562557776308  0.0889290012897274  0.0912833910263001   T   T   T
  0.1820912418807482  0.1717572156265049  0.0849714136435513   T   T   T
  0.1812916138548879  0.3402102631905157  0.0861272802936753   T   T   T
  0.3025554413201681  0.5912471507756506  0.1013904610418808   T   T   T
  0.1806883048299642  0.6743922977371467  0.0879510532353631   T   T   T
  0.3030751889828509  0.4200450776754349  0.1003498439238958   T   T   T
  0.1827718539803335  0.8412131252098118  0.0866969319160388   T   T   T
  0.4306294369628930  0.1734030459063897  0.1026040445553871   T   T   T
  0.5552912337144218  0.9231398774782584  0.1033142701367805   T   T   T
  0.4247277768677297  0.3359273288164464  0.1141199854003898   T   T   T
  0.4216139831702289  0.6763433272959680  0.1168533526292076   T   T   T
  0.4279093644754222  0.8390840728074695  0.1058247599964784   T   T   T
  0.8054323801773327  0.0883772969999953  0.0867412634840193   T   T   T
  0.6814069186889129  0.1757926611077114  0.0963008216885965   T   T   T
  0.8060803542700344  0.9205793468754769  0.0876223317260039   T   T   T
  0.6861799073826536  0.3401825004138466  0.1016721996346334   T   T   T
  0.8088034357884385  0.5924379637922285  0.0907901671207203   T   T   T
  0.6878434986133942  0.6709478589185360  0.1024360706949094   T   T   T
  0.8099258035555160  0.4204865273242937  0.0892518313202370   T   T   T
  0.6799668629861318  0.8378391880287666  0.0980770840112951   T   T   T
  0.9331569702059237  0.6726057019866255  0.0825464374836447   T   T   T
  0.5566299240731339  0.0909306268509138  0.1017859437568686   T   T   T
  0.3044502989024281  0.9229585488008017  0.0920320716099375   T   T   T
  0.5642518491291588  0.5051901996758815  0.1581095330889976   T   T   T
 
  0.00000000E+00  0.00000000E+00  0.00000000E+00
  0.00000000E+00  0.00000000E+00  0.00000000E+00
  0.00000000E+00  0.00000000E+00  0.00000000E+00
  0.00000000E+00  0.00000000E+00  0.00000000E+00
  0.00000000E+00  0.00000000E+00  0.00000000E+00
  0.00000000E+00  0.00000000E+00  0.00000000E+00
  0.00000000E+00  0.00000000E+00  0.00000000E+00
  0.00000000E+00  0.00000000E+00  0.00000000E+00
  0.00000000E+00  0.00000000E+00  0.00000000E+00
  0.00000000E+00  0.00000000E+00  0.00000000E+00
  0.00000000E+00  0.00000000E+00  0.00000000E+00
  0.00000000E+00  0.00000000E+00  0.00000000E+00
  0.00000000E+00  0.00000000E+00  0.00000000E+00
  0.00000000E+00  0.00000000E+00  0.00000000E+00
  0.00000000E+00  0.00000000E+00  0.00000000E+00
  0.00000000E+00  0.00000000E+00  0.00000000E+00
  0.00000000E+00  0.00000000E+00  0.00000000E+00
  0.00000000E+00  0.00000000E+00  0.00000000E+00
  0.00000000E+00  0.00000000E+00  0.00000000E+00
  0.00000000E+00  0.00000000E+00  0.00000000E+00
  0.00000000E+00  0.00000000E+00  0.00000000E+00
  0.00000000E+00  0.00000000E+00  0.00000000E+00
  0.00000000E+00  0.00000000E+00  0.00000000E+00
  0.00000000E+00  0.00000000E+00  0.00000000E+00
  0.00000000E+00  0.00000000E+00  0.00000000E+00
  0.00000000E+00  0.00000000E+00  0.00000000E+00
  0.00000000E+00  0.00000000E+00  0.00000000E+00
  0.00000000E+00  0.00000000E+00  0.00000000E+00
  0.00000000E+00  0.00000000E+00  0.00000000E+00
  0.00000000E+00  0.00000000E+00  0.00000000E+00
  0.00000000E+00  0.00000000E+00  0.00000000E+00
