Title                                   
   1.00000000000000     
     4.9440799999999996    0.0000000000000000    0.0000000000000000
     0.0000000000000000    8.5647549999999999    0.0000000000000000
     0.0000000000000000    0.0000000000000000   20.0000000000000000
    14     1     1
Selective dynamics
Direct
 -0.0003433326167501  0.2898077903274905  0.0919271898143863   T   T   T
  0.2500000000000000  0.0434979369120483  0.0875235440712098   T   T   T
 -0.0001961032124814  0.7952676236228902  0.1002135857792778   T   T   T
 -0.0000985407793888  0.9609071833880583  0.0878418076044618   T   T   T
  0.7500000000000000  0.2072282084028545  0.0830367803579472   T   T   T
  0.5003433326167503  0.2898077903274905  0.0919271898143863   T   T   T
  0.7500000000000000  0.0419799819052096  0.0826840852171910   T   T   T
  0.7500000000000000  0.7091487396227368  0.1033862862452170   T   T   T
  0.5001961032124813  0.7952676236228902  0.1002135857792778   T   T   T
  0.7500000000000000  0.5395062069137906  0.1054733608790423   T   T   T
  0.5000985407793889  0.9609071833880583  0.0878418076044618   T   T   T
  0.5103054603249837  0.4479534016510977  0.1096541533802827   T   T   T
 -0.0103054603249839  0.4479534016510977  0.1096541533802827   T   T   T
  0.2500000000000000  0.7248628564766691  0.1140162889887675   T   T   T
  0.2500000000000000  0.2068012736025375  0.0893030947185350   T   T   T
  0.2500000000000000  0.5391027981850797  0.1678150863652827   T   T   T
 
  0.00000000E+00  0.00000000E+00  0.00000000E+00
  0.00000000E+00  0.00000000E+00  0.00000000E+00
  0.00000000E+00  0.00000000E+00  0.00000000E+00
  0.00000000E+00  0.00000000E+00  0.00000000E+00
  0.00000000E+00  0.00000000E+00  0.00000000E+00
  0.00000000E+00  0.00000000E+00  0.00000000E+00
  0.00000000E+00  0.00000000E+00  0.00000000E+00
  0.00000000E+00  0.00000000E+00  0.00000000E+00
  0.00000000E+00  0.00000000E+00  0.00000000E+00
  0.00000000E+00  0.00000000E+00  0.00000000E+00
  0.00000000E+00  0.00000000E+00  0.00000000E+00
  0.00000000E+00  0.00000000E+00  0.00000000E+00
  0.00000000E+00  0.00000000E+00  0.00000000E+00
  0.00000000E+00  0.00000000E+00  0.00000000E+00
  0.00000000E+00  0.00000000E+00  0.00000000E+00
  0.00000000E+00  0.00000000E+00  0.00000000E+00
