Title                                   
   1.00000000000000     
     4.9440799999999996    0.0000000000000000    0.0000000000000000
     0.0000000000000000   17.1295089999999988    0.0000000000000000
     0.0000000000000000    0.0000000000000000   20.0000000000000000
    30     1
Selective dynamics
Direct
 -0.0008625776599525  0.1044011975911355  0.2948087345979505   T   T   T
  0.2489163919821569  0.1467464649696629  0.2953630812017757   T   T   T
  0.2482345867859848  0.2296201995149826  0.2981791335463492   T   T   T
  0.0004166104601647  0.2737430723437735  0.3012210870185609   T   T   T
  0.0004095603225632  0.6012073533012755  0.3017940428437373   T   T   T
  0.2488962299198871  0.7281829691502754  0.2957653210717900   T   T   T
 -0.0006771493334051  0.8538332305135631  0.2941580727005921   T   T   T
  0.2498647816374310  0.8958084415267156  0.2938990427721087   T   T   T
  0.2498605979448221  0.9791175828220402  0.2938921622662665   T   T   T
 -0.0008663069495605  0.7705317102352279  0.2950634050082266   T   T   T
  0.5001183730999603  0.1048151317902478  0.2944428109930977   T   T   T
  0.7503066654788467  0.1466457685550505  0.2951347762264311   T   T   T
  0.7509252567294016  0.2303606496913480  0.2973991558023016   T   T   T
  0.4999475285664089  0.0212959651787199  0.2939173924557802   T   T   T
  0.7447196670584604  0.3945840856188053  0.3071071223368075   T   T   T
  0.7446996744283211  0.4803281526720016  0.3073569848100824   T   T   T
  0.4988018602605100  0.2710703212799754  0.2987845531519702   T   T   T
  0.4987792610797958  0.6038699548504359  0.2994173441602468   T   T   T
  0.7502843451726047  0.7282943204817680  0.2955311109082479   T   T   T
  0.4999504614683719  0.8536344170257554  0.2939860750076926   T   T   T
  0.7494127580209720  0.8956890009001464  0.2938925983233042   T   T   T
  0.7494054021261694  0.9792382294020024  0.2938706054467806   T   T   T
  0.5000828194015695  0.7701168567270801  0.2947179719734847   T   T   T
  0.7509081136018193  0.6445899954940116  0.2979887544263254   T   T   T
  0.2482431115361550  0.6453244120655061  0.2987583156231312   T   T   T
 -0.0006847408670808  0.0210994976278456  0.2940948813885212   T   T   T
  0.5009068832829660  0.5219969943317454  0.3044703191320963   T   T   T
 -0.0016649322781318  0.5180886765669522  0.3094398044184392   T   T   T
  0.5009656250810344  0.3529384214749967  0.3040120753100670   T   T   T
 -0.0016717118727485  0.3568088243055338  0.3090779432875848   T   T   T
  0.2813778535145049  0.4373601019914187  0.3375153217902025   T   T   T
 
  0.00000000E+00  0.00000000E+00  0.00000000E+00
  0.00000000E+00  0.00000000E+00  0.00000000E+00
  0.00000000E+00  0.00000000E+00  0.00000000E+00
  0.00000000E+00  0.00000000E+00  0.00000000E+00
  0.00000000E+00  0.00000000E+00  0.00000000E+00
  0.00000000E+00  0.00000000E+00  0.00000000E+00
  0.00000000E+00  0.00000000E+00  0.00000000E+00
  0.00000000E+00  0.00000000E+00  0.00000000E+00
  0.00000000E+00  0.00000000E+00  0.00000000E+00
  0.00000000E+00  0.00000000E+00  0.00000000E+00
  0.00000000E+00  0.00000000E+00  0.00000000E+00
  0.00000000E+00  0.00000000E+00  0.00000000E+00
  0.00000000E+00  0.00000000E+00  0.00000000E+00
  0.00000000E+00  0.00000000E+00  0.00000000E+00
  0.00000000E+00  0.00000000E+00  0.00000000E+00
  0.00000000E+00  0.00000000E+00  0.00000000E+00
  0.00000000E+00  0.00000000E+00  0.00000000E+00
  0.00000000E+00  0.00000000E+00  0.00000000E+00
  0.00000000E+00  0.00000000E+00  0.00000000E+00
  0.00000000E+00  0.00000000E+00  0.00000000E+00
  0.00000000E+00  0.00000000E+00  0.00000000E+00
  0.00000000E+00  0.00000000E+00  0.00000000E+00
  0.00000000E+00  0.00000000E+00  0.00000000E+00
  0.00000000E+00  0.00000000E+00  0.00000000E+00
  0.00000000E+00  0.00000000E+00  0.00000000E+00
  0.00000000E+00  0.00000000E+00  0.00000000E+00
  0.00000000E+00  0.00000000E+00  0.00000000E+00
  0.00000000E+00  0.00000000E+00  0.00000000E+00
  0.00000000E+00  0.00000000E+00  0.00000000E+00
  0.00000000E+00  0.00000000E+00  0.00000000E+00
  0.00000000E+00  0.00000000E+00  0.00000000E+00
