Title                                   
   1.00000000000000     
     8.5490480000000009    0.0000000000000000    0.0000000000000000
     0.0000000000000000    8.5490480000000009    0.0000000000000000
     0.0000000000000000    0.0000000000000000   20.0000000000000000
    23     1     1
Selective dynamics
Direct
  0.9107661175012047  0.2050403268649631  0.0975959385168222   T   T   T
  0.9097439684917001  0.5028679508646888  0.0976766072195155   T   T   T
  0.9127180887662408  0.8013815515031943  0.0975794398961877   T   T   T
  0.1974013639295523  0.0820497088689963  0.0977532377148571   T   T   T
  0.0743418823595740  0.2023918025328559  0.0976833111488641   T   T   T
  0.1587147765146159  0.6495785252545102  0.0977136215283163   T   T   T
  0.0774933645385298  0.5017625683389464  0.0977226479269373   T   T   T
  0.1579453957142608  0.3543729462472134  0.0977976882587950   T   T   T
  0.0776511813758805  0.7994653459211490  0.0976350168760735   T   T   T
  0.4922489722290990  0.0854024198802247  0.0978124567823202   T   T   T
  0.3446566409014695  0.1638251762456828  0.0978817725857424   T   T   T
  0.4914840310098768  0.9179590206585352  0.0977527845297938   T   T   T
  0.3450840854077610  0.8362999783907894  0.0977832415146591   T   T   T
  0.7882687570233947  0.0837118810178978  0.0975972704661467   T   T   T
  0.6384879219380699  0.1667009638533778  0.0977664741320664   T   T   T
  0.7891026789937107  0.9211217234537008  0.0975892036110090   T   T   T
  0.8309643221572889  0.6507027885759439  0.0976649624188763   T   T   T
  0.8285933852168097  0.3553557393075097  0.0976871396788894   T   T   T
  0.6386487302614321  0.8365621695428449  0.0976919652756258   T   T   T
  0.3224364919316964  0.3318156938336691  0.0979535446014181   T   T   T
  0.3230191400723407  0.6723183776415127  0.0978366908974640   T   T   T
  0.6626234673107424  0.3321816099345609  0.0978468555554565   T   T   T
  0.6635216756598306  0.6723629092177424  0.0977691397103907   T   T   T
  0.1972433894140369  0.9179517285838551  0.0977373156641592   T   T   T
  0.4922521712808677  0.5016070934656414  0.0981766734895938   T   T   T
 
  0.00000000E+00  0.00000000E+00  0.00000000E+00
  0.00000000E+00  0.00000000E+00  0.00000000E+00
  0.00000000E+00  0.00000000E+00  0.00000000E+00
  0.00000000E+00  0.00000000E+00  0.00000000E+00
  0.00000000E+00  0.00000000E+00  0.00000000E+00
  0.00000000E+00  0.00000000E+00  0.00000000E+00
  0.00000000E+00  0.00000000E+00  0.00000000E+00
  0.00000000E+00  0.00000000E+00  0.00000000E+00
  0.00000000E+00  0.00000000E+00  0.00000000E+00
  0.00000000E+00  0.00000000E+00  0.00000000E+00
  0.00000000E+00  0.00000000E+00  0.00000000E+00
  0.00000000E+00  0.00000000E+00  0.00000000E+00
  0.00000000E+00  0.00000000E+00  0.00000000E+00
  0.00000000E+00  0.00000000E+00  0.00000000E+00
  0.00000000E+00  0.00000000E+00  0.00000000E+00
  0.00000000E+00  0.00000000E+00  0.00000000E+00
  0.00000000E+00  0.00000000E+00  0.00000000E+00
  0.00000000E+00  0.00000000E+00  0.00000000E+00
  0.00000000E+00  0.00000000E+00  0.00000000E+00
  0.00000000E+00  0.00000000E+00  0.00000000E+00
  0.00000000E+00  0.00000000E+00  0.00000000E+00
  0.00000000E+00  0.00000000E+00  0.00000000E+00
  0.00000000E+00  0.00000000E+00  0.00000000E+00
  0.00000000E+00  0.00000000E+00  0.00000000E+00
  0.00000000E+00  0.00000000E+00  0.00000000E+00
