Title                                   
   1.00000000000000     
     9.8694509999999998    0.0000000000000000    0.0000000000000000
     0.0000000000000000    8.5490480000000009    0.0000000000000000
     0.0000000000000000    0.0000000000000000   20.0000000000000000
    30     1     1
Selective dynamics
Direct
  0.0562306385631290  0.0895735602472777  0.0842913300776319   T   T   T
  0.9310923534039689  0.1729817247128914  0.0868726332530026   T   T   T
  0.0562337178439627  0.9228271435605604  0.0833082135397854   T   T   T
  0.9303061380136203  0.3402990216180822  0.0910521803619604   T   T   T
  0.0562342582278593  0.5892260957431291  0.0883384450449377   T   T   T
  0.9305485029843537  0.6725146266092854  0.0887970005270768   T   T   T
  0.0562237774211066  0.4231069974601807  0.0895718697801462   T   T   T
  0.9305563483340804  0.8391815566474816  0.0851396684384728   T   T   T
  0.3053655676263095  0.0894999100177251  0.0864350619643611   T   T   T
  0.1813583940211856  0.1729656808603480  0.0868847812893197   T   T   T
  0.3065360175186941  0.9237534971792403  0.0856767019877817   T   T   T
  0.1821329073797602  0.3402843826178389  0.0910389764361966   T   T   T
  0.3075201318393160  0.5903556677685164  0.0974880689814313   T   T   T
  0.1819289418188805  0.6724959893776085  0.0887759450063984   T   T   T
  0.3067182490949285  0.4220689770472498  0.0988247110257972   T   T   T
  0.1819008501376907  0.8391753837465921  0.0851399014193080   T   T   T
  0.5562297266710735  0.0874610434806649  0.0925545826626877   T   T   T
  0.4311418988163945  0.1695527298587114  0.0928938545878982   T   T   T
  0.4312244091163472  0.3344151953312511  0.1044637004002967   T   T   T
  0.4276907994741059  0.6813002836465042  0.1045525541114568   T   T   T
  0.5562062563532617  0.4021512721738687  0.1206827722008891   T   T   T
  0.4318014849312928  0.8415226145813840  0.0931830773092569   T   T   T
  0.8070857017101356  0.0895113035309079  0.0863879744005732   T   T   T
  0.6813158611346511  0.1695761027941314  0.0928627263504230   T   T   T
  0.8059178238332090  0.9237850790694994  0.0856385085610526   T   T   T
  0.6812067439396594  0.3344300208493992  0.1044628708810260   T   T   T
  0.8049671647143046  0.5903896577837666  0.0975504804948798   T   T   T
  0.6848612460950773  0.6814326696009468  0.1047001767900377   T   T   T
  0.8057196247131361  0.4220991194556565  0.0988614950519335   T   T   T
  0.6806598389707497  0.8415853371555715  0.0932070015657656   T   T   T
  0.5562308288284379  0.9238931830814384  0.0916590085852741   T   T   T
  0.5564927964693240  0.5968301723922993  0.1843787269129760   T   T   T
 
  0.00000000E+00  0.00000000E+00  0.00000000E+00
  0.00000000E+00  0.00000000E+00  0.00000000E+00
  0.00000000E+00  0.00000000E+00  0.00000000E+00
  0.00000000E+00  0.00000000E+00  0.00000000E+00
  0.00000000E+00  0.00000000E+00  0.00000000E+00
  0.00000000E+00  0.00000000E+00  0.00000000E+00
  0.00000000E+00  0.00000000E+00  0.00000000E+00
  0.00000000E+00  0.00000000E+00  0.00000000E+00
  0.00000000E+00  0.00000000E+00  0.00000000E+00
  0.00000000E+00  0.00000000E+00  0.00000000E+00
  0.00000000E+00  0.00000000E+00  0.00000000E+00
  0.00000000E+00  0.00000000E+00  0.00000000E+00
  0.00000000E+00  0.00000000E+00  0.00000000E+00
  0.00000000E+00  0.00000000E+00  0.00000000E+00
  0.00000000E+00  0.00000000E+00  0.00000000E+00
  0.00000000E+00  0.00000000E+00  0.00000000E+00
  0.00000000E+00  0.00000000E+00  0.00000000E+00
  0.00000000E+00  0.00000000E+00  0.00000000E+00
  0.00000000E+00  0.00000000E+00  0.00000000E+00
  0.00000000E+00  0.00000000E+00  0.00000000E+00
  0.00000000E+00  0.00000000E+00  0.00000000E+00
  0.00000000E+00  0.00000000E+00  0.00000000E+00
  0.00000000E+00  0.00000000E+00  0.00000000E+00
  0.00000000E+00  0.00000000E+00  0.00000000E+00
  0.00000000E+00  0.00000000E+00  0.00000000E+00
  0.00000000E+00  0.00000000E+00  0.00000000E+00
  0.00000000E+00  0.00000000E+00  0.00000000E+00
  0.00000000E+00  0.00000000E+00  0.00000000E+00
  0.00000000E+00  0.00000000E+00  0.00000000E+00
  0.00000000E+00  0.00000000E+00  0.00000000E+00
  0.00000000E+00  0.00000000E+00  0.00000000E+00
  0.00000000E+00  0.00000000E+00  0.00000000E+00
