Title                                   
   1.00000000000000     
     4.9440799999999996    0.0000000000000000    0.0000000000000000
     0.0000000000000000   17.1295089999999988    0.0000000000000000
     0.0000000000000000    0.0000000000000000   20.0000000000000000
    29     2     1
Selective dynamics
Direct
  0.0000378571835044  0.1046541086942897  0.2837152007714878   T   T   T
  0.2498865784249352  0.1463483018274599  0.2877510463593320   T   T   T
  0.2498782430936579  0.2288092530737551  0.2986204905678839   T   T   T
  0.0029525338175426  0.3500432599012497  0.3205313130003572   T   T   T
 -0.0011685476629945  0.2700555708092778  0.3038469825309179   T   T   T
 -0.0040675918461554  0.6059906363109453  0.3102837114469979   T   T   T
  0.2499191059491122  0.7288450517814701  0.2921798482785655   T   T   T
  0.0002079814642390  0.8542070530580924  0.2811169550397031   T   T   T
  0.2499230459554322  0.8961352078199392  0.2796912334608789   T   T   T
  0.2499139072942586  0.9795624720568717  0.2788289259514367   T   T   T
  0.0002650510014867  0.7709716768984201  0.2869704869932970   T   T   T
  0.4997714320282582  0.1046548186067969  0.2837150838393516   T   T   T
  0.7498903849449565  0.1465726356959853  0.2867108474991969   T   T   T
  0.7498795165904013  0.2287467165954085  0.2957131089291980   T   T   T
  0.4999953004168864  0.0214444403286983  0.2794830461702441   T   T   T
  0.4968196326955863  0.3500402225486586  0.3205282878968469   T   T   T
  0.7498695195440515  0.4781956825019423  0.3187349267272946   T   T   T
  0.5008992182388449  0.2700553332921071  0.3038409946675137   T   T   T
  0.5038617359129893  0.6060012654386185  0.3102844302507909   T   T   T
  0.7499370376495813  0.7300454298673212  0.2903238057227872   T   T   T
  0.4996344130419753  0.8542044853100190  0.2811186840458121   T   T   T
  0.7499077034306735  0.8959911792063566  0.2793060428489957   T   T   T
  0.7499040321598810  0.9794586814062471  0.2785084635996470   T   T   T
  0.4995910265165976  0.7709673184040620  0.2869717157191228   T   T   T
  0.7499082236746266  0.6476005971235663  0.3011201283407705   T   T   T
  0.2498945628266003  0.6464345455684183  0.3051149647367995   T   T   T
 -0.0001897570457128  0.0214428656222800  0.2794812122728950   T   T   T
  0.5165403556175603  0.5244356033410562  0.3266782129184425   T   T   T
  0.9832450733731769  0.5244187844649000  0.3266659329077435   T   T   T
  0.2498954563844349  0.3846265880905190  0.3362763424637884   T   T   T
  0.7498747517901969  0.3934720330030847  0.3243568381398829   T   T   T
  0.2499452155334214  0.4841191813521739  0.3840957359019722   T   T   T
 
  0.00000000E+00  0.00000000E+00  0.00000000E+00
  0.00000000E+00  0.00000000E+00  0.00000000E+00
  0.00000000E+00  0.00000000E+00  0.00000000E+00
  0.00000000E+00  0.00000000E+00  0.00000000E+00
  0.00000000E+00  0.00000000E+00  0.00000000E+00
  0.00000000E+00  0.00000000E+00  0.00000000E+00
  0.00000000E+00  0.00000000E+00  0.00000000E+00
  0.00000000E+00  0.00000000E+00  0.00000000E+00
  0.00000000E+00  0.00000000E+00  0.00000000E+00
  0.00000000E+00  0.00000000E+00  0.00000000E+00
  0.00000000E+00  0.00000000E+00  0.00000000E+00
  0.00000000E+00  0.00000000E+00  0.00000000E+00
  0.00000000E+00  0.00000000E+00  0.00000000E+00
  0.00000000E+00  0.00000000E+00  0.00000000E+00
  0.00000000E+00  0.00000000E+00  0.00000000E+00
  0.00000000E+00  0.00000000E+00  0.00000000E+00
  0.00000000E+00  0.00000000E+00  0.00000000E+00
  0.00000000E+00  0.00000000E+00  0.00000000E+00
  0.00000000E+00  0.00000000E+00  0.00000000E+00
  0.00000000E+00  0.00000000E+00  0.00000000E+00
  0.00000000E+00  0.00000000E+00  0.00000000E+00
  0.00000000E+00  0.00000000E+00  0.00000000E+00
  0.00000000E+00  0.00000000E+00  0.00000000E+00
  0.00000000E+00  0.00000000E+00  0.00000000E+00
  0.00000000E+00  0.00000000E+00  0.00000000E+00
  0.00000000E+00  0.00000000E+00  0.00000000E+00
  0.00000000E+00  0.00000000E+00  0.00000000E+00
  0.00000000E+00  0.00000000E+00  0.00000000E+00
  0.00000000E+00  0.00000000E+00  0.00000000E+00
  0.00000000E+00  0.00000000E+00  0.00000000E+00
  0.00000000E+00  0.00000000E+00  0.00000000E+00
  0.00000000E+00  0.00000000E+00  0.00000000E+00
