Title                                   
   1.00000000000000     
     9.8694509999999998    0.0000000000000000    0.0000000000000000
     0.0000000000000000    8.5490480000000009    0.0000000000000000
     0.0000000000000000    0.0000000000000000   20.0000000000000000
    26     5     1
Selective dynamics
Direct
  0.0555493022185953  0.0908552009698038  0.0827083542296116   T   T   T
  0.9304093656615946  0.1751185164909434  0.0820180411575753   T   T   T
  0.0574978302919937  0.9230919414593218  0.0846447513363819   T   T   T
  0.9290060745077580  0.3420171813068410  0.0843860515141429   T   T   T
  0.0563736589009543  0.5916032015521066  0.0864558767753822   T   T   T
  0.0554310962138321  0.4244332486874097  0.0855511430971903   T   T   T
  0.9330654061197832  0.8397024929974309  0.0864666108476061   T   T   T
  0.3052857544895584  0.0888160002332084  0.0883574081488205   T   T   T
  0.1815589264017860  0.1730274937335590  0.0852556212851379   T   T   T
  0.1814627414332073  0.3405028699491759  0.0876432201160443   T   T   T
  0.3024495103492846  0.5888304059150586  0.1037052386408385   T   T   T
  0.1808885218962564  0.6739100744268318  0.0911562314949874   T   T   T
  0.3079277254006484  0.4212176913861343  0.0980520146871624   T   T   T
  0.1826547327681481  0.8419252296963082  0.0891156577118520   T   T   T
  0.5561769273981224  0.0859979647155443  0.0920677402210525   T   T   T
  0.5552467972698361  0.9206448962990169  0.0992889322607802   T   T   T
  0.4302930976321189  0.3307205181751492  0.1018738521172581   T   T   T
  0.4266428697367017  0.8423527017903432  0.1062415533948486   T   T   T
  0.8062543374200675  0.0889505008804284  0.0829743761961500   T   T   T
  0.6799378678697835  0.1707285184457444  0.0876074668498199   T   T   T
  0.8077053558489474  0.9231234347422320  0.0870895720967979   T   T   T
  0.6801396097150744  0.3349829858269678  0.0962693346516187   T   T   T
  0.8103602015087417  0.5944844603987302  0.0977590793009456   T   T   T
  0.8022854428470699  0.4268735293491001  0.0923651890523749   T   T   T
  0.6842115474899052  0.8420680721099582  0.0990725683730328   T   T   T
  0.4157212084531384  0.6828902301949289  0.1245768069837562   T   T   T
  0.5544847998637557  0.3966593686297804  0.1184224494369573   T   T   T
  0.6992910350066850  0.6846181525321763  0.1173214161074204   T   T   T
  0.3058482422267890  0.9254443511208384  0.0920465696267136   T   T   T
  0.4293199909543428  0.1672225212598690  0.0930172063615596   T   T   T
  0.9329208213898140  0.6736218233336393  0.0884512652170055   T   T   T
  0.5632382007157120  0.5838104213914230  0.1737134007091908   T   T   T
 
  0.00000000E+00  0.00000000E+00  0.00000000E+00
  0.00000000E+00  0.00000000E+00  0.00000000E+00
  0.00000000E+00  0.00000000E+00  0.00000000E+00
  0.00000000E+00  0.00000000E+00  0.00000000E+00
  0.00000000E+00  0.00000000E+00  0.00000000E+00
  0.00000000E+00  0.00000000E+00  0.00000000E+00
  0.00000000E+00  0.00000000E+00  0.00000000E+00
  0.00000000E+00  0.00000000E+00  0.00000000E+00
  0.00000000E+00  0.00000000E+00  0.00000000E+00
  0.00000000E+00  0.00000000E+00  0.00000000E+00
  0.00000000E+00  0.00000000E+00  0.00000000E+00
  0.00000000E+00  0.00000000E+00  0.00000000E+00
  0.00000000E+00  0.00000000E+00  0.00000000E+00
  0.00000000E+00  0.00000000E+00  0.00000000E+00
  0.00000000E+00  0.00000000E+00  0.00000000E+00
  0.00000000E+00  0.00000000E+00  0.00000000E+00
  0.00000000E+00  0.00000000E+00  0.00000000E+00
  0.00000000E+00  0.00000000E+00  0.00000000E+00
  0.00000000E+00  0.00000000E+00  0.00000000E+00
  0.00000000E+00  0.00000000E+00  0.00000000E+00
  0.00000000E+00  0.00000000E+00  0.00000000E+00
  0.00000000E+00  0.00000000E+00  0.00000000E+00
  0.00000000E+00  0.00000000E+00  0.00000000E+00
  0.00000000E+00  0.00000000E+00  0.00000000E+00
  0.00000000E+00  0.00000000E+00  0.00000000E+00
  0.00000000E+00  0.00000000E+00  0.00000000E+00
  0.00000000E+00  0.00000000E+00  0.00000000E+00
  0.00000000E+00  0.00000000E+00  0.00000000E+00
  0.00000000E+00  0.00000000E+00  0.00000000E+00
  0.00000000E+00  0.00000000E+00  0.00000000E+00
  0.00000000E+00  0.00000000E+00  0.00000000E+00
  0.00000000E+00  0.00000000E+00  0.00000000E+00
