Title                                   
   1.00000000000000     
     8.5490480000000009    0.0000000000000000    0.0000000000000000
     0.0000000000000000    8.5490480000000009    0.0000000000000000
     0.0000000000000000    0.0000000000000000   20.0000000000000000
    24     1
Selective dynamics
Direct
  0.9110351040712411  0.2062162852336820  0.0954478017140152   T   T   T
  0.9091796244321388  0.5018059579108396  0.0953094605273870   T   T   T
  0.9110635467467051  0.7973623322576604  0.0954634047047523   T   T   T
  0.1974574223957558  0.0837424386230436  0.0954771430395245   T   T   T
  0.0749859003597621  0.2061969947021312  0.0954580838981077   T   T   T
  0.1974708566777945  0.9197958788619162  0.0954854749652483   T   T   T
  0.1563784661457686  0.6487489356582763  0.0953521980547068   T   T   T
  0.0768677670269057  0.5017936996503108  0.0953299310498304   T   T   T
  0.1563535095447900  0.3548143275302548  0.0953411237149914   T   T   T
  0.0750059548089970  0.7973431200334858  0.0954721917270698   T   T   T
  0.4929918957748459  0.0856328598640832  0.0953577220395156   T   T   T
  0.3460474058022723  0.1651312650968271  0.0953624219544908   T   T   T
  0.4929974188800429  0.9179550648436196  0.0953649923438361   T   T   T
  0.3460649600904450  0.8384501869298726  0.0953699464068433   T   T   T
  0.7885747160857011  0.0837729684733883  0.0954619415575544   T   T   T
  0.6399493566072376  0.1651392891596316  0.0953339946317886   T   T   T
  0.7885970349475165  0.9198236629242122  0.0954721754011410   T   T   T
  0.8296660007971202  0.6487720229894480  0.0953216618132209   T   T   T
  0.8296757760263486  0.3548311353553942  0.0953029897587691   T   T   T
  0.6399643114612054  0.8384692930428760  0.0953444069124125   T   T   T
  0.3236076452587242  0.3323698464142270  0.0952275559185796   T   T   T
  0.3236303051451928  0.6712133565732543  0.0952476560909560   T   T   T
  0.6624240385023843  0.3323768465917432  0.0951896504280788   T   T   T
  0.6624132575986879  0.6712393249285228  0.0952034175605590   T   T   T
  0.4930097248124094  0.5017929063513117  0.0950076537865988   T   T   T
 
  0.00000000E+00  0.00000000E+00  0.00000000E+00
  0.00000000E+00  0.00000000E+00  0.00000000E+00
  0.00000000E+00  0.00000000E+00  0.00000000E+00
  0.00000000E+00  0.00000000E+00  0.00000000E+00
  0.00000000E+00  0.00000000E+00  0.00000000E+00
  0.00000000E+00  0.00000000E+00  0.00000000E+00
  0.00000000E+00  0.00000000E+00  0.00000000E+00
  0.00000000E+00  0.00000000E+00  0.00000000E+00
  0.00000000E+00  0.00000000E+00  0.00000000E+00
  0.00000000E+00  0.00000000E+00  0.00000000E+00
  0.00000000E+00  0.00000000E+00  0.00000000E+00
  0.00000000E+00  0.00000000E+00  0.00000000E+00
  0.00000000E+00  0.00000000E+00  0.00000000E+00
  0.00000000E+00  0.00000000E+00  0.00000000E+00
  0.00000000E+00  0.00000000E+00  0.00000000E+00
  0.00000000E+00  0.00000000E+00  0.00000000E+00
  0.00000000E+00  0.00000000E+00  0.00000000E+00
  0.00000000E+00  0.00000000E+00  0.00000000E+00
  0.00000000E+00  0.00000000E+00  0.00000000E+00
  0.00000000E+00  0.00000000E+00  0.00000000E+00
  0.00000000E+00  0.00000000E+00  0.00000000E+00
  0.00000000E+00  0.00000000E+00  0.00000000E+00
  0.00000000E+00  0.00000000E+00  0.00000000E+00
  0.00000000E+00  0.00000000E+00  0.00000000E+00
  0.00000000E+00  0.00000000E+00  0.00000000E+00
