Title                                   
   1.00000000000000     
     9.8694509999999998    0.0000000000000000    0.0000000000000000
     0.0000000000000000    8.5490480000000009    0.0000000000000000
     0.0000000000000000    0.0000000000000000   20.0000000000000000
    28     3     1
Selective dynamics
Direct
  0.0565726069394646  0.0912450058899885  0.0830362849187693   T   T   T
  0.9312497128188958  0.1738170722438116  0.0853803578762059   T   T   T
  0.0558629312380088  0.9240326038967770  0.0830894744634789   T   T   T
  0.9306676223434964  0.3402260850343850  0.0899741101920661   T   T   T
  0.0567589065904957  0.5896206424099271  0.0875454563063158   T   T   T
  0.9314383564702330  0.6723276340685059  0.0890262843284713   T   T   T
  0.0571386588221373  0.4233832381533750  0.0887854260276338   T   T   T
  0.9303784121947112  0.8393190856154271  0.0853426519449820   T   T   T
  0.3055314255620893  0.0904584827299442  0.0857007403521866   T   T   T
  0.1820781717605323  0.1752846013425608  0.0851727865640286   T   T   T
  0.3055455263218945  0.9250479243514169  0.0867649574956691   T   T   T
  0.1840299814753118  0.3423090419315807  0.0890886390286012   T   T   T
  0.3062768348381051  0.5947155107130044  0.0980446280105735   T   T   T
  0.1813398836325530  0.6735839396274632  0.0887237538270673   T   T   T
  0.3115291372069988  0.4258581805399162  0.0964020396759610   T   T   T
  0.1806749715332645  0.8407884351058335  0.0858868423934372   T   T   T
  0.5557953738636985  0.0847468078787268  0.0941274500123032   T   T   T
  0.4316682041862733  0.1695533785905983  0.0919687820896825   T   T   T
  0.4342404665732070  0.3337435700113831  0.1001324657591083   T   T   T
  0.4280994734696954  0.8414426645020276  0.0968748339746006   T   T   T
  0.8072285591218511  0.0891492716860777  0.0857623144791815   T   T   T
  0.6813964860060799  0.1673686057740104  0.0925776881297948   T   T   T
  0.8053465836333138  0.9233575766911859  0.0862022615883986   T   T   T
  0.6807006194519470  0.3317812277279427  0.1016895719728799   T   T   T
  0.8071184578753964  0.5910177591651004  0.1001785943930718   T   T   T
  0.6886892843165399  0.6814022412972979  0.1134383759991388   T   T   T
  0.8042538936943390  0.4219649196680783  0.0985307868792625   T   T   T
  0.6820488105324877  0.8399318062628652  0.0971983533556346   T   T   T
  0.4217004648942188  0.6858565856018122  0.1123724838216592   T   T   T
  0.5578113810884696  0.4021679336711280  0.1166608483577923   T   T   T
  0.5544335406065258  0.9198353301733955  0.0966714199136029   T   T   T
  0.5520342609377703  0.5849088376444632  0.1733243358684753   T   T   T
 
  0.00000000E+00  0.00000000E+00  0.00000000E+00
  0.00000000E+00  0.00000000E+00  0.00000000E+00
  0.00000000E+00  0.00000000E+00  0.00000000E+00
  0.00000000E+00  0.00000000E+00  0.00000000E+00
  0.00000000E+00  0.00000000E+00  0.00000000E+00
  0.00000000E+00  0.00000000E+00  0.00000000E+00
  0.00000000E+00  0.00000000E+00  0.00000000E+00
  0.00000000E+00  0.00000000E+00  0.00000000E+00
  0.00000000E+00  0.00000000E+00  0.00000000E+00
  0.00000000E+00  0.00000000E+00  0.00000000E+00
  0.00000000E+00  0.00000000E+00  0.00000000E+00
  0.00000000E+00  0.00000000E+00  0.00000000E+00
  0.00000000E+00  0.00000000E+00  0.00000000E+00
  0.00000000E+00  0.00000000E+00  0.00000000E+00
  0.00000000E+00  0.00000000E+00  0.00000000E+00
  0.00000000E+00  0.00000000E+00  0.00000000E+00
  0.00000000E+00  0.00000000E+00  0.00000000E+00
  0.00000000E+00  0.00000000E+00  0.00000000E+00
  0.00000000E+00  0.00000000E+00  0.00000000E+00
  0.00000000E+00  0.00000000E+00  0.00000000E+00
  0.00000000E+00  0.00000000E+00  0.00000000E+00
  0.00000000E+00  0.00000000E+00  0.00000000E+00
  0.00000000E+00  0.00000000E+00  0.00000000E+00
  0.00000000E+00  0.00000000E+00  0.00000000E+00
  0.00000000E+00  0.00000000E+00  0.00000000E+00
  0.00000000E+00  0.00000000E+00  0.00000000E+00
  0.00000000E+00  0.00000000E+00  0.00000000E+00
  0.00000000E+00  0.00000000E+00  0.00000000E+00
  0.00000000E+00  0.00000000E+00  0.00000000E+00
  0.00000000E+00  0.00000000E+00  0.00000000E+00
  0.00000000E+00  0.00000000E+00  0.00000000E+00
  0.00000000E+00  0.00000000E+00  0.00000000E+00
