Title                                   
   1.00000000000000     
     9.8694509999999998    0.0000000000000000    0.0000000000000000
     0.0000000000000000    8.5490480000000009    0.0000000000000000
     0.0000000000000000    0.0000000000000000   20.0000000000000000
    27     4     1
Selective dynamics
Direct
  0.0561965378726313  0.0920249020964279  0.0870193515135999   T   T   T
  0.9307542974324305  0.1744843883323436  0.0889644480461731   T   T   T
  0.0563572174259628  0.9243084358257044  0.0864436254997320   T   T   T
  0.9294428646354010  0.3416047749286026  0.0927367630021229   T   T   T
  0.0562015008369845  0.5895890034408615  0.0893765495525325   T   T   T
  0.9318333845848894  0.6735699019125729  0.0911292711321312   T   T   T
  0.0562091790443857  0.4230481569683857  0.0909233908319445   T   T   T
  0.9317904361133765  0.8402538848731119  0.0887260601151249   T   T   T
  0.3054055295992072  0.0896179199437645  0.0882452232112271   T   T   T
  0.1817488406949371  0.1744215479670861  0.0886951280284123   T   T   T
  0.3062070888565096  0.9240490536957725  0.0883503374683525   T   T   T
  0.1831037181627933  0.3415510393838132  0.0916581716781331   T   T   T
  0.3060383686636088  0.5930420871912004  0.0955357807306505   T   T   T
  0.1806580063852711  0.6734349046736816  0.0891719994113680   T   T   T
  0.3099367790596829  0.4244049924070776  0.0970044715712049   T   T   T
  0.1807884649198023  0.8402683869445916  0.0873992014313769   T   T   T
  0.5564031036422241  0.0835273214993949  0.0946529718848232   T   T   T
  0.4321273487348969  0.1678661399473452  0.0934346659421113   T   T   T
  0.4339496003821708  0.3333068682724027  0.1009645937605531   T   T   T
  0.4282185488972305  0.8385621248853101  0.0944428056742281   T   T   T
  0.8070063907534226  0.0897111530156145  0.0884701650287509   T   T   T
  0.6804328844906647  0.1680745254785855  0.0936470789978881   T   T   T
  0.8065032009461867  0.9240265698796630  0.0893273473122916   T   T   T
  0.6786342683195759  0.3337642156228560  0.1020016683953038   T   T   T
  0.8068837383107077  0.5932396328529967  0.0999609052232309   T   T   T
  0.8027671288963698  0.4245551993277198  0.0996397426869880   T   T   T
  0.6847254139081613  0.8384622002102524  0.0967936925130769   T   T   T
  0.4234470859251928  0.6806239348592962  0.1025431610357923   T   T   T
  0.5561794556985403  0.4034615821146073  0.1151694390735976   T   T   T
  0.6915444955546513  0.6824533569721060  0.1106080683661833   T   T   T
  0.5564461917020370  0.9167267844428536  0.0950788148772356   T   T   T
  0.5516979295501000  0.5922110100340005  0.1675601060038754   T   T   T
 
  0.00000000E+00  0.00000000E+00  0.00000000E+00
  0.00000000E+00  0.00000000E+00  0.00000000E+00
  0.00000000E+00  0.00000000E+00  0.00000000E+00
  0.00000000E+00  0.00000000E+00  0.00000000E+00
  0.00000000E+00  0.00000000E+00  0.00000000E+00
  0.00000000E+00  0.00000000E+00  0.00000000E+00
  0.00000000E+00  0.00000000E+00  0.00000000E+00
  0.00000000E+00  0.00000000E+00  0.00000000E+00
  0.00000000E+00  0.00000000E+00  0.00000000E+00
  0.00000000E+00  0.00000000E+00  0.00000000E+00
  0.00000000E+00  0.00000000E+00  0.00000000E+00
  0.00000000E+00  0.00000000E+00  0.00000000E+00
  0.00000000E+00  0.00000000E+00  0.00000000E+00
  0.00000000E+00  0.00000000E+00  0.00000000E+00
  0.00000000E+00  0.00000000E+00  0.00000000E+00
  0.00000000E+00  0.00000000E+00  0.00000000E+00
  0.00000000E+00  0.00000000E+00  0.00000000E+00
  0.00000000E+00  0.00000000E+00  0.00000000E+00
  0.00000000E+00  0.00000000E+00  0.00000000E+00
  0.00000000E+00  0.00000000E+00  0.00000000E+00
  0.00000000E+00  0.00000000E+00  0.00000000E+00
  0.00000000E+00  0.00000000E+00  0.00000000E+00
  0.00000000E+00  0.00000000E+00  0.00000000E+00
  0.00000000E+00  0.00000000E+00  0.00000000E+00
  0.00000000E+00  0.00000000E+00  0.00000000E+00
  0.00000000E+00  0.00000000E+00  0.00000000E+00
  0.00000000E+00  0.00000000E+00  0.00000000E+00
  0.00000000E+00  0.00000000E+00  0.00000000E+00
  0.00000000E+00  0.00000000E+00  0.00000000E+00
  0.00000000E+00  0.00000000E+00  0.00000000E+00
  0.00000000E+00  0.00000000E+00  0.00000000E+00
  0.00000000E+00  0.00000000E+00  0.00000000E+00
