Title                                   
   1.00000000000000     
     4.9440799999999996    0.0000000000000000    0.0000000000000000
     0.0000000000000000    8.5647549999999999    0.0000000000000000
     0.0000000000000000    0.0000000000000000   20.0000000000000000
    14     1     1
Selective dynamics
Direct
  0.2500000000000000  0.2064394659806191  0.0941586753969555   T   T   T
 -0.0012669342555192  0.2883728704584331  0.0988498843716648   T   T   T
  0.2500000000000000  0.0427222559544910  0.0885523961003152   T   T   T
  0.0012352902998840  0.7949337548307491  0.0962748053798556   T   T   T
 -0.0002119040222516  0.9591694272356877  0.0880767601688880   T   T   T
  0.7500000000000000  0.2062164730864266  0.0917085027818969   T   T   T
  0.5012669342555193  0.2883728704584331  0.0988498843716648   T   T   T
  0.7500000000000000  0.0406179278665365  0.0863756901149246   T   T   T
  0.7500000000000000  0.7095640569673012  0.1013678047345483   T   T   T
  0.4987647097001157  0.7949337548307491  0.0962748053798556   T   T   T
  0.7500000000000000  0.5407181295266371  0.1088627585221886   T   T   T
  0.5002119040222518  0.9591694272356877  0.0880767601688880   T   T   T
  0.5130495748234621  0.4493238436726389  0.1133180557029347   T   T   T
 -0.0130495748234625  0.4493238436726389  0.1133180557029347   T   T   T
  0.2500000000000000  0.7219045422785573  0.1042054133487531   T   T   T
  0.2500000000000000  0.5482173559444126  0.1542417477537393   T   T   T
 
  0.00000000E+00  0.00000000E+00  0.00000000E+00
  0.00000000E+00  0.00000000E+00  0.00000000E+00
  0.00000000E+00  0.00000000E+00  0.00000000E+00
  0.00000000E+00  0.00000000E+00  0.00000000E+00
  0.00000000E+00  0.00000000E+00  0.00000000E+00
  0.00000000E+00  0.00000000E+00  0.00000000E+00
  0.00000000E+00  0.00000000E+00  0.00000000E+00
  0.00000000E+00  0.00000000E+00  0.00000000E+00
  0.00000000E+00  0.00000000E+00  0.00000000E+00
  0.00000000E+00  0.00000000E+00  0.00000000E+00
  0.00000000E+00  0.00000000E+00  0.00000000E+00
  0.00000000E+00  0.00000000E+00  0.00000000E+00
  0.00000000E+00  0.00000000E+00  0.00000000E+00
  0.00000000E+00  0.00000000E+00  0.00000000E+00
  0.00000000E+00  0.00000000E+00  0.00000000E+00
  0.00000000E+00  0.00000000E+00  0.00000000E+00
