Title                                   
   1.00000000000000     
     9.8694509999999998    0.0000000000000000    0.0000000000000000
     0.0000000000000000    8.5490480000000009    0.0000000000000000
     0.0000000000000000    0.0000000000000000   20.0000000000000000
    25     6     1
Selective dynamics
Direct
  0.0562737666579088  0.0932617379037065  0.0899407354176506   T   T   T
  0.9300318710184506  0.1758377793903390  0.0914828464700447   T   T   T
  0.0562962134672176  0.9244963864126636  0.0889631622190997   T   T   T
  0.9294161641142830  0.3419067359457579  0.0940572187197311   T   T   T
  0.0562338794004219  0.5900345478822268  0.0903911714574506   T   T   T
  0.9320798296157953  0.6717005506880327  0.0910850492402499   T   T   T
  0.0562682667509816  0.4231848328347754  0.0930969758817927   T   T   T
  0.9315497933241799  0.8398728599178471  0.0900605170865754   T   T   T
  0.3054111804337591  0.0892934470970943  0.0897876132765244   T   T   T
  0.1825083286280232  0.1757625395924047  0.0908552072693651   T   T   T
  0.3058939199901267  0.9238557933807733  0.0899473748110990   T   T   T
  0.1830637048095831  0.3417982391206766  0.0932229070868577   T   T   T
  0.3071385249931899  0.5940335311933529  0.0952603035002217   T   T   T
  0.1804065348390061  0.6716817731795969  0.0902240111491846   T   T   T
  0.1810874902867756  0.8398376808617506  0.0893387709252995   T   T   T
  0.5563055494024591  0.0844502677056674  0.0947837467394653   T   T   T
  0.4314943589385503  0.1686108738667393  0.0932175900200812   T   T   T
  0.4357925136146517  0.3346169620923226  0.0979579319820677   T   T   T
  0.4273684198465204  0.8359851326369064  0.0949863335091831   T   T   T
  0.8071599626542983  0.0893625675247601  0.0907060054540923   T   T   T
  0.6811119686946904  0.1687617087875758  0.0940878722802481   T   T   T
  0.8067883997363569  0.9239303739406052  0.0908773104268313   T   T   T
  0.6766775240604721  0.3347333694112802  0.0989940940217495   T   T   T
  0.8055710483251989  0.5941539216550621  0.0974650732537854   T   T   T
  0.6853450016624743  0.8362172631369851  0.0965157398247634   T   T   T
  0.4222960357811022  0.6784911347914160  0.1014593353793426   T   T   T
  0.5560482583473834  0.4083495574895590  0.1064929312897774   T   T   T
  0.6910127218292851  0.6791918796139603  0.1049507230219964   T   T   T
  0.5563901958761198  0.9152988909370641  0.0949299351023430   T   T   T
  0.3117701205545806  0.4247187419240889  0.0951527715365655   T   T   T
  0.8007738551885711  0.4249115656934947  0.0970327940867599   T   T   T
  0.5540735971575886  0.5919033533915162  0.1683509475598178   T   T   T
 
  0.00000000E+00  0.00000000E+00  0.00000000E+00
  0.00000000E+00  0.00000000E+00  0.00000000E+00
  0.00000000E+00  0.00000000E+00  0.00000000E+00
  0.00000000E+00  0.00000000E+00  0.00000000E+00
  0.00000000E+00  0.00000000E+00  0.00000000E+00
  0.00000000E+00  0.00000000E+00  0.00000000E+00
  0.00000000E+00  0.00000000E+00  0.00000000E+00
  0.00000000E+00  0.00000000E+00  0.00000000E+00
  0.00000000E+00  0.00000000E+00  0.00000000E+00
  0.00000000E+00  0.00000000E+00  0.00000000E+00
  0.00000000E+00  0.00000000E+00  0.00000000E+00
  0.00000000E+00  0.00000000E+00  0.00000000E+00
  0.00000000E+00  0.00000000E+00  0.00000000E+00
  0.00000000E+00  0.00000000E+00  0.00000000E+00
  0.00000000E+00  0.00000000E+00  0.00000000E+00
  0.00000000E+00  0.00000000E+00  0.00000000E+00
  0.00000000E+00  0.00000000E+00  0.00000000E+00
  0.00000000E+00  0.00000000E+00  0.00000000E+00
  0.00000000E+00  0.00000000E+00  0.00000000E+00
  0.00000000E+00  0.00000000E+00  0.00000000E+00
  0.00000000E+00  0.00000000E+00  0.00000000E+00
  0.00000000E+00  0.00000000E+00  0.00000000E+00
  0.00000000E+00  0.00000000E+00  0.00000000E+00
  0.00000000E+00  0.00000000E+00  0.00000000E+00
  0.00000000E+00  0.00000000E+00  0.00000000E+00
  0.00000000E+00  0.00000000E+00  0.00000000E+00
  0.00000000E+00  0.00000000E+00  0.00000000E+00
  0.00000000E+00  0.00000000E+00  0.00000000E+00
  0.00000000E+00  0.00000000E+00  0.00000000E+00
  0.00000000E+00  0.00000000E+00  0.00000000E+00
  0.00000000E+00  0.00000000E+00  0.00000000E+00
  0.00000000E+00  0.00000000E+00  0.00000000E+00
