Title                                   
   1.00000000000000     
     9.8694509999999998    0.0000000000000000    0.0000000000000000
     0.0000000000000000    8.5490480000000009    0.0000000000000000
     0.0000000000000000    0.0000000000000000   20.0000000000000000
    26     5     1
Selective dynamics
Direct
  0.0555802693029414  0.0911717118496608  0.0827013142474276   T   T   T
  0.9305751414493205  0.1749802657016283  0.0824412545623965   T   T   T
  0.0573285026698265  0.9233869851833151  0.0840502253470009   T   T   T
  0.9289196500274935  0.3423329452397005  0.0850908955558894   T   T   T
  0.0561971685804077  0.5921459905924130  0.0863842115100635   T   T   T
  0.0554120336615713  0.4249040317260718  0.0859030801961739   T   T   T
  0.9333110126914946  0.8396542412726800  0.0859738085963069   T   T   T
  0.3052944224988726  0.0890615718313698  0.0883580715289329   T   T   T
  0.1818481842627726  0.1731948442587194  0.0853785868209414   T   T   T
  0.1817014288840353  0.3411093290263618  0.0882177916184403   T   T   T
  0.3022046104520338  0.5891740560156435  0.1042152606107800   T   T   T
  0.1807426704227841  0.6746661864762777  0.0908766331202243   T   T   T
  0.3074763524379496  0.4218339206507899  0.0991272063827087   T   T   T
  0.1827217063301048  0.8420953945332390  0.0883229482970497   T   T   T
  0.5565187553032855  0.0851080135042736  0.0917756222562868   T   T   T
  0.5550907352686997  0.9200687097324598  0.0994653542194719   T   T   T
  0.4309460413172892  0.3310509519677696  0.1025788187246241   T   T   T
  0.4265822403275637  0.8420250435090137  0.1068378613468432   T   T   T
  0.8065576129035850  0.0886035340665551  0.0832486055757271   T   T   T
  0.6797483456114994  0.1699319233641773  0.0877180057276469   T   T   T
  0.8077830633500395  0.9228919569653357  0.0868550689362616   T   T   T
  0.6802047564913655  0.3344324279757450  0.0966360187537723   T   T   T
  0.8099926632542896  0.5946994396010377  0.0981207961464277   T   T   T
  0.8025284099793790  0.4262928432214009  0.0933148202340678   T   T   T
  0.6843434308521573  0.8414975703879390  0.0988790126956309   T   T   T
  0.4157413515863640  0.6825514131633015  0.1251593292564139   T   T   T
  0.5545495808593797  0.3969788840529135  0.1176519851763550   T   T   T
  0.6989847195468313  0.6845172359333430  0.1168234334758724   T   T   T
  0.3053514020555619  0.9252279264554563  0.0915513591006972   T   T   T
  0.4292210449046199  0.1667308983513818  0.0929399986805550   T   T   T
  0.9329701288180068  0.6741356730983895  0.0880053931451824   T   T   T
  0.5632115638984808  0.5837900802916379  0.1710722281538441   T   T   T
 
  0.00000000E+00  0.00000000E+00  0.00000000E+00
  0.00000000E+00  0.00000000E+00  0.00000000E+00
  0.00000000E+00  0.00000000E+00  0.00000000E+00
  0.00000000E+00  0.00000000E+00  0.00000000E+00
  0.00000000E+00  0.00000000E+00  0.00000000E+00
  0.00000000E+00  0.00000000E+00  0.00000000E+00
  0.00000000E+00  0.00000000E+00  0.00000000E+00
  0.00000000E+00  0.00000000E+00  0.00000000E+00
  0.00000000E+00  0.00000000E+00  0.00000000E+00
  0.00000000E+00  0.00000000E+00  0.00000000E+00
  0.00000000E+00  0.00000000E+00  0.00000000E+00
  0.00000000E+00  0.00000000E+00  0.00000000E+00
  0.00000000E+00  0.00000000E+00  0.00000000E+00
  0.00000000E+00  0.00000000E+00  0.00000000E+00
  0.00000000E+00  0.00000000E+00  0.00000000E+00
  0.00000000E+00  0.00000000E+00  0.00000000E+00
  0.00000000E+00  0.00000000E+00  0.00000000E+00
  0.00000000E+00  0.00000000E+00  0.00000000E+00
  0.00000000E+00  0.00000000E+00  0.00000000E+00
  0.00000000E+00  0.00000000E+00  0.00000000E+00
  0.00000000E+00  0.00000000E+00  0.00000000E+00
  0.00000000E+00  0.00000000E+00  0.00000000E+00
  0.00000000E+00  0.00000000E+00  0.00000000E+00
  0.00000000E+00  0.00000000E+00  0.00000000E+00
  0.00000000E+00  0.00000000E+00  0.00000000E+00
  0.00000000E+00  0.00000000E+00  0.00000000E+00
  0.00000000E+00  0.00000000E+00  0.00000000E+00
  0.00000000E+00  0.00000000E+00  0.00000000E+00
  0.00000000E+00  0.00000000E+00  0.00000000E+00
  0.00000000E+00  0.00000000E+00  0.00000000E+00
  0.00000000E+00  0.00000000E+00  0.00000000E+00
  0.00000000E+00  0.00000000E+00  0.00000000E+00
