Title                                   
   1.00000000000000     
     4.9440799999999996    0.0000000000000000    0.0000000000000000
     0.0000000000000000    8.5647549999999999    0.0000000000000000
     0.0000000000000000    0.0000000000000000   20.0000000000000000
    12     2     1
Selective dynamics
Direct
  0.2515273305885152  0.2093715962457108  0.0967310106108740   T   T   T
 -0.0020519529709646  0.2914660691707609  0.0940648421346414   T   T   T
  0.2562089768095530  0.0396140150164719  0.0957877485887374   T   T   T
  0.0062526979236970  0.9580743064567018  0.0903557597959365   T   T   T
  0.7469361359212342  0.2088708815328184  0.0940663337204797   T   T   T
  0.4978600115805613  0.2963822965414608  0.1005503273750473   T   T   T
  0.7518952770593794  0.0399718510792366  0.0928071674674341   T   T   T
  0.7597927826031770  0.7100967158845063  0.0992855073795505   T   T   T
  0.7524885103791282  0.5388582915681127  0.1011416641984272   T   T   T
  0.5060818885003351  0.9524174935258970  0.1000283077073763   T   T   T
  0.5039803780100182  0.4630663149661220  0.1104521383687131   T   T   T
 -0.0004580569515974  0.7927090519929886  0.0879401339967121   T   T   T
 -0.0069394571700365  0.4543911289113812  0.0953325130489999   T   T   T
  0.5139018585672745  0.7886498798488131  0.1137216810530252   T   T   T
  0.2125236191497246  0.6277411072590198  0.1357148645540485   T   T   T
 
  0.00000000E+00  0.00000000E+00  0.00000000E+00
  0.00000000E+00  0.00000000E+00  0.00000000E+00
  0.00000000E+00  0.00000000E+00  0.00000000E+00
  0.00000000E+00  0.00000000E+00  0.00000000E+00
  0.00000000E+00  0.00000000E+00  0.00000000E+00
  0.00000000E+00  0.00000000E+00  0.00000000E+00
  0.00000000E+00  0.00000000E+00  0.00000000E+00
  0.00000000E+00  0.00000000E+00  0.00000000E+00
  0.00000000E+00  0.00000000E+00  0.00000000E+00
  0.00000000E+00  0.00000000E+00  0.00000000E+00
  0.00000000E+00  0.00000000E+00  0.00000000E+00
  0.00000000E+00  0.00000000E+00  0.00000000E+00
  0.00000000E+00  0.00000000E+00  0.00000000E+00
  0.00000000E+00  0.00000000E+00  0.00000000E+00
  0.00000000E+00  0.00000000E+00  0.00000000E+00
