Title                                   
   1.00000000000000     
     9.8694509999999998    0.0000000000000000    0.0000000000000000
     0.0000000000000000    8.5490480000000009    0.0000000000000000
     0.0000000000000000    0.0000000000000000   20.0000000000000000
    28     2     1
Selective dynamics
Direct
  0.0560239280847400  0.0893370656397190  0.0803600251099021   T   T   T
  0.9309172493125175  0.1720819891724280  0.0827575935840081   T   T   T
  0.0571558600510161  0.9240434178809430  0.0810988333311874   T   T   T
  0.9327996270647544  0.3390028203546182  0.0823840344242779   T   T   T
  0.0565775958629311  0.5902072766768112  0.0788379298233955   T   T   T
  0.9329498800919941  0.6738024441860456  0.0836739573563644   T   T   T
  0.0566510139723071  0.4233310207839893  0.0782454663455733   T   T   T
  0.9316534379874125  0.8405782524975143  0.0841940095550893   T   T   T
  0.3066176767677330  0.0879713400001588  0.0906284178784052   T   T   T
  0.1818234776758703  0.1708766593043715  0.0826974948973616   T   T   T
  0.1801105624294335  0.3383023661895948  0.0826770280224047   T   T   T
  0.2996008227581388  0.5905594824999114  0.0968053269404891   T   T   T
  0.1807021180347665  0.6743144687516828  0.0839933931981984   T   T   T
  0.3000761274250251  0.4203753823986959  0.0961631293511706   T   T   T
  0.1821038641030006  0.8419585333922771  0.0844321719825794   T   T   T
  0.4287139734689759  0.1742226117552707  0.1028300221553928   T   T   T
  0.5557495458195172  0.9249550129762065  0.1076999265598894   T   T   T
  0.4217716330114181  0.3371496662115208  0.1110308029222234   T   T   T
  0.4203826059390225  0.6744755025558659  0.1125373431422574   T   T   T
  0.4268302117551280  0.8378795323638732  0.1052313266589354   T   T   T
  0.8057246860852252  0.0892672131208590  0.0908111654016828   T   T   T
  0.6833497554980379  0.1757500011486653  0.1024469569680462   T   T   T
  0.8069588345398875  0.9226132438997949  0.0920668049603952   T   T   T
  0.6901477726525651  0.3392866153135859  0.1108054247235926   T   T   T
  0.8128742139018366  0.5910578680450560  0.0963916911340350   T   T   T
  0.6911283825690162  0.6718408408067250  0.1125277451671696   T   T   T
  0.8126567130994509  0.4207619415162089  0.0956275591218232   T   T   T
  0.6833637173275166  0.8373906077306451  0.1050462798040959   T   T   T
  0.5569628708147450  0.0879217989978709  0.1064368332664611   T   T   T
  0.3047182326045619  0.9233574416133457  0.0915230512595118   T   T   T
  0.5560386092914572  0.5062025822157651  0.1290032549541079   T   T   T
 
  0.00000000E+00  0.00000000E+00  0.00000000E+00
  0.00000000E+00  0.00000000E+00  0.00000000E+00
  0.00000000E+00  0.00000000E+00  0.00000000E+00
  0.00000000E+00  0.00000000E+00  0.00000000E+00
  0.00000000E+00  0.00000000E+00  0.00000000E+00
  0.00000000E+00  0.00000000E+00  0.00000000E+00
  0.00000000E+00  0.00000000E+00  0.00000000E+00
  0.00000000E+00  0.00000000E+00  0.00000000E+00
  0.00000000E+00  0.00000000E+00  0.00000000E+00
  0.00000000E+00  0.00000000E+00  0.00000000E+00
  0.00000000E+00  0.00000000E+00  0.00000000E+00
  0.00000000E+00  0.00000000E+00  0.00000000E+00
  0.00000000E+00  0.00000000E+00  0.00000000E+00
  0.00000000E+00  0.00000000E+00  0.00000000E+00
  0.00000000E+00  0.00000000E+00  0.00000000E+00
  0.00000000E+00  0.00000000E+00  0.00000000E+00
  0.00000000E+00  0.00000000E+00  0.00000000E+00
  0.00000000E+00  0.00000000E+00  0.00000000E+00
  0.00000000E+00  0.00000000E+00  0.00000000E+00
  0.00000000E+00  0.00000000E+00  0.00000000E+00
  0.00000000E+00  0.00000000E+00  0.00000000E+00
  0.00000000E+00  0.00000000E+00  0.00000000E+00
  0.00000000E+00  0.00000000E+00  0.00000000E+00
  0.00000000E+00  0.00000000E+00  0.00000000E+00
  0.00000000E+00  0.00000000E+00  0.00000000E+00
  0.00000000E+00  0.00000000E+00  0.00000000E+00
  0.00000000E+00  0.00000000E+00  0.00000000E+00
  0.00000000E+00  0.00000000E+00  0.00000000E+00
  0.00000000E+00  0.00000000E+00  0.00000000E+00
  0.00000000E+00  0.00000000E+00  0.00000000E+00
  0.00000000E+00  0.00000000E+00  0.00000000E+00
