Title                                   
   1.00000000000000     
     4.9440799999999996    0.0000000000000000    0.0000000000000000
     0.0000000000000000   17.1295089999999988    0.0000000000000000
     0.0000000000000000    0.0000000000000000   20.0000000000000000
    29     2     1
Selective dynamics
Direct
  0.0000033989154963  0.1054664519516503  0.2782979840826704   T   T   T
  0.2498535945904727  0.1472739018079212  0.2840722879052495   T   T   T
  0.2498870191648447  0.2285532767478302  0.2997463334363904   T   T   T
  0.0032463085281224  0.3460675859932146  0.3337658184409684   T   T   T
 -0.0023367854424574  0.2692940281805231  0.3078595292594271   T   T   T
 -0.0034366424495577  0.6070156492993176  0.3104721863668915   T   T   T
  0.2499351230325423  0.7294953011678548  0.2886820803797531   T   T   T
  0.0001114313441513  0.8547962891822468  0.2755403705255942   T   T   T
  0.2498297619718616  0.8969091808825567  0.2733868123520325   T   T   T
  0.2498348770417264  0.9802226065820632  0.2719253520459606   T   T   T
  0.0000701441202589  0.7718149246118331  0.2829068982982437   T   T   T
  0.4997058322092111  0.1054660584450230  0.2782931783902705   T   T   T
  0.7498746083642567  0.1472182355916701  0.2825619503295908   T   T   T
  0.7498707935187818  0.2287867494535929  0.2959423561831647   T   T   T
  0.4998232111042338  0.0223511083461907  0.2726700594688981   T   T   T
  0.4965933799818489  0.3460683979653301  0.3337648113738154   T   T   T
  0.7499797417472753  0.4801023607332288  0.3330532373477529   T   T   T
  0.5021177468773578  0.2693011226847663  0.3078575442603496   T   T   T
  0.5033357555600095  0.6070166423924730  0.3105028487577837   T   T   T
  0.7499126739768808  0.7307444309348002  0.2875888810695899   T   T   T
  0.4996436525906924  0.8547942016395255  0.2755458490439603   T   T   T
  0.7498511897100495  0.8967286620880166  0.2731345443605656   T   T   T
  0.7498284243486799  0.9802763761009547  0.2715940362673828   T   T   T
  0.4997552698506717  0.7718190118167834  0.2829079614777504   T   T   T
  0.7499806410908749  0.6486461777851432  0.3004850882358804   T   T   T
  0.2499586960299170  0.6479304286008639  0.3028771658683167   T   T   T
 -0.0001787868423155  0.0223515495109410  0.2726726837633719   T   T   T
  0.5110967608155080  0.5279618703095251  0.3313813651582511   T   T   T
  0.9888919809753769  0.5279509102568708  0.3313359704972683   T   T   T
  0.2499145243564964  0.3748046504370767  0.3558723730374475   T   T   T
  0.7499484265916854  0.3921349410577010  0.3402525389682611   T   T   T
  0.2499202463250533  0.4791879174425036  0.3756149030470966   T   T   T
 
  0.00000000E+00  0.00000000E+00  0.00000000E+00
  0.00000000E+00  0.00000000E+00  0.00000000E+00
  0.00000000E+00  0.00000000E+00  0.00000000E+00
  0.00000000E+00  0.00000000E+00  0.00000000E+00
  0.00000000E+00  0.00000000E+00  0.00000000E+00
  0.00000000E+00  0.00000000E+00  0.00000000E+00
  0.00000000E+00  0.00000000E+00  0.00000000E+00
  0.00000000E+00  0.00000000E+00  0.00000000E+00
  0.00000000E+00  0.00000000E+00  0.00000000E+00
  0.00000000E+00  0.00000000E+00  0.00000000E+00
  0.00000000E+00  0.00000000E+00  0.00000000E+00
  0.00000000E+00  0.00000000E+00  0.00000000E+00
  0.00000000E+00  0.00000000E+00  0.00000000E+00
  0.00000000E+00  0.00000000E+00  0.00000000E+00
  0.00000000E+00  0.00000000E+00  0.00000000E+00
  0.00000000E+00  0.00000000E+00  0.00000000E+00
  0.00000000E+00  0.00000000E+00  0.00000000E+00
  0.00000000E+00  0.00000000E+00  0.00000000E+00
  0.00000000E+00  0.00000000E+00  0.00000000E+00
  0.00000000E+00  0.00000000E+00  0.00000000E+00
  0.00000000E+00  0.00000000E+00  0.00000000E+00
  0.00000000E+00  0.00000000E+00  0.00000000E+00
  0.00000000E+00  0.00000000E+00  0.00000000E+00
  0.00000000E+00  0.00000000E+00  0.00000000E+00
  0.00000000E+00  0.00000000E+00  0.00000000E+00
  0.00000000E+00  0.00000000E+00  0.00000000E+00
  0.00000000E+00  0.00000000E+00  0.00000000E+00
  0.00000000E+00  0.00000000E+00  0.00000000E+00
  0.00000000E+00  0.00000000E+00  0.00000000E+00
  0.00000000E+00  0.00000000E+00  0.00000000E+00
  0.00000000E+00  0.00000000E+00  0.00000000E+00
  0.00000000E+00  0.00000000E+00  0.00000000E+00
