Title                                   
   1.00000000000000     
     4.9440799999999996    0.0000000000000000    0.0000000000000000
     0.0000000000000000   17.1295089999999988    0.0000000000000000
     0.0000000000000000    0.0000000000000000   20.0000000000000000
    27     4     1
Selective dynamics
Direct
  0.0043483037409458  0.1042870359838768  0.2936139304291966   T   T   T
  0.2537958246112730  0.1464592396239609  0.2935026690628906   T   T   T
  0.2533791011668656  0.2305267920484350  0.2935071436259256   T   T   T
  0.0122184913204271  0.3554180780416782  0.2943178731076414   T   T   T
  0.0013740903260949  0.2719663989330506  0.2939062174192055   T   T   T
 -0.0008340965131074  0.6009745075278670  0.3078037558360061   T   T   T
  0.2547665973301894  0.7255242449170740  0.2994849037018104   T   T   T
  0.0053762326432004  0.8526570790446271  0.2963371823243086   T   T   T
  0.2545284869190553  0.8948286177341311  0.2952612575192501   T   T   T
  0.2543951777372930  0.9785121492181339  0.2941559655060377   T   T   T
  0.0060000337645935  0.7688677190500443  0.2986158734918071   T   T   T
  0.5034692851959681  0.1042280578182735  0.2935092892572782   T   T   T
  0.7536898107859705  0.1462843756971845  0.2936643847829500   T   T   T
  0.7532047667914610  0.2295231836416069  0.2938937096924079   T   T   T
  0.5041345071933734  0.0205513915445843  0.2937726304445533   T   T   T
  0.4934676963171409  0.3556284297682624  0.2937548845292910   T   T   T
  0.7516286940530972  0.4849504970488321  0.3016504111581321   T   T   T
  0.5049051477487639  0.2721396113819284  0.2936434476865745   T   T   T
  0.5102206700154543  0.6005547994347981  0.2982493675365278   T   T   T
  0.7552621885599702  0.7277988321571387  0.2985772985287134   T   T   T
  0.5038543658725761  0.8525200155591622  0.2956124008782425   T   T   T
  0.7544929991507201  0.8945769449413096  0.2952238306896495   T   T   T
  0.7543961591039966  0.9783611155480573  0.2941770898080162   T   T   T
  0.5037611020639641  0.7687523743229302  0.2971849414406214   T   T   T
  0.7550844033082377  0.6445881795845720  0.3008584340844095   T   T   T
  0.2544300723947535  0.6411927608209834  0.3024752212315868   T   T   T
  0.0044421073063344  0.0205409355207932  0.2939267131425641   T   T   T
  0.5235628326754750  0.5220776731338098  0.2880382268740176   T   T   T
  0.9836609989414350  0.5216521524853621  0.3217947714727571   T   T   T
  0.2526128698445375  0.3921579979704599  0.2931846960786396   T   T   T
  0.7536800203785035  0.3996228204762267  0.2958819555467926   T   T   T
  0.1235140592514404  0.4908269890208376  0.4229845231121457   T   T   T
 
  0.00000000E+00  0.00000000E+00  0.00000000E+00
  0.00000000E+00  0.00000000E+00  0.00000000E+00
  0.00000000E+00  0.00000000E+00  0.00000000E+00
  0.00000000E+00  0.00000000E+00  0.00000000E+00
  0.00000000E+00  0.00000000E+00  0.00000000E+00
  0.00000000E+00  0.00000000E+00  0.00000000E+00
  0.00000000E+00  0.00000000E+00  0.00000000E+00
  0.00000000E+00  0.00000000E+00  0.00000000E+00
  0.00000000E+00  0.00000000E+00  0.00000000E+00
  0.00000000E+00  0.00000000E+00  0.00000000E+00
  0.00000000E+00  0.00000000E+00  0.00000000E+00
  0.00000000E+00  0.00000000E+00  0.00000000E+00
  0.00000000E+00  0.00000000E+00  0.00000000E+00
  0.00000000E+00  0.00000000E+00  0.00000000E+00
  0.00000000E+00  0.00000000E+00  0.00000000E+00
  0.00000000E+00  0.00000000E+00  0.00000000E+00
  0.00000000E+00  0.00000000E+00  0.00000000E+00
  0.00000000E+00  0.00000000E+00  0.00000000E+00
  0.00000000E+00  0.00000000E+00  0.00000000E+00
  0.00000000E+00  0.00000000E+00  0.00000000E+00
  0.00000000E+00  0.00000000E+00  0.00000000E+00
  0.00000000E+00  0.00000000E+00  0.00000000E+00
  0.00000000E+00  0.00000000E+00  0.00000000E+00
  0.00000000E+00  0.00000000E+00  0.00000000E+00
  0.00000000E+00  0.00000000E+00  0.00000000E+00
  0.00000000E+00  0.00000000E+00  0.00000000E+00
  0.00000000E+00  0.00000000E+00  0.00000000E+00
  0.00000000E+00  0.00000000E+00  0.00000000E+00
  0.00000000E+00  0.00000000E+00  0.00000000E+00
  0.00000000E+00  0.00000000E+00  0.00000000E+00
  0.00000000E+00  0.00000000E+00  0.00000000E+00
  0.00000000E+00  0.00000000E+00  0.00000000E+00
