Title                                   
   1.00000000000000     
     4.9440799999999996    0.0000000000000000    0.0000000000000000
     0.0000000000000000    8.5647549999999999    0.0000000000000000
     0.0000000000000000    0.0000000000000000   20.0000000000000000
    12     3     1
Selective dynamics
Direct
 -0.0053395623759015  0.2943520888011217  0.0863291053967142   T   T   T
  0.2494811009856616  0.0457469354085458  0.0885755169088093   T   T   T
  0.0049779159930425  0.7965263184502074  0.0992136949923491   T   T   T
  0.0003680677160093  0.9617382504260995  0.0873304514291245   T   T   T
  0.7487801045241194  0.2064365919109253  0.0837767480870782   T   T   T
  0.5047213476835017  0.2913725879064424  0.0965309179157459   T   T   T
  0.7495862334582306  0.0417942359729138  0.0836637364818766   T   T   T
  0.7529872167440282  0.7061152209313977  0.1039067758485712   T   T   T
  0.4961060905025499  0.7949708293530402  0.1017178104141728   T   T   T
  0.7574124356301082  0.5308229707660542  0.1056652040359417   T   T   T
  0.4993546556050775  0.9611319496664604  0.0898556089088415   T   T   T
  0.5215211828212253  0.4426049136464147  0.1213047970895618   T   T   T
 -0.0089746501363493  0.4499961322400191  0.0877507941364447   T   T   T
  0.2482483663211993  0.7269079563411018  0.1126299310140530   T   T   T
  0.2488361463469087  0.2106401420278709  0.0903722792394838   T   T   T
  0.2319333481805881  0.5388428761513865  0.1738886281012411   T   T   T
 
  0.00000000E+00  0.00000000E+00  0.00000000E+00
  0.00000000E+00  0.00000000E+00  0.00000000E+00
  0.00000000E+00  0.00000000E+00  0.00000000E+00
  0.00000000E+00  0.00000000E+00  0.00000000E+00
  0.00000000E+00  0.00000000E+00  0.00000000E+00
  0.00000000E+00  0.00000000E+00  0.00000000E+00
  0.00000000E+00  0.00000000E+00  0.00000000E+00
  0.00000000E+00  0.00000000E+00  0.00000000E+00
  0.00000000E+00  0.00000000E+00  0.00000000E+00
  0.00000000E+00  0.00000000E+00  0.00000000E+00
  0.00000000E+00  0.00000000E+00  0.00000000E+00
  0.00000000E+00  0.00000000E+00  0.00000000E+00
  0.00000000E+00  0.00000000E+00  0.00000000E+00
  0.00000000E+00  0.00000000E+00  0.00000000E+00
  0.00000000E+00  0.00000000E+00  0.00000000E+00
  0.00000000E+00  0.00000000E+00  0.00000000E+00
