Title                                   
   1.00000000000000     
     4.9440799999999996    0.0000000000000000    0.0000000000000000
     0.0000000000000000    8.5647549999999999    0.0000000000000000
     0.0000000000000000    0.0000000000000000   20.0000000000000000
    10     4     1
Selective dynamics
Direct
  0.2500000000000000  0.2107613562024724  0.0979148612961703   T   T   T
  0.9977549927949351  0.2936307014337214  0.0972614531800180   T   T   T
  0.2500000000000000  0.0389442244379797  0.0979067419512056   T   T   T
  0.9978219196487431  0.9559036060223192  0.0973014659105379   T   T   T
  0.7500000000000000  0.2083559182464245  0.0931668695770348   T   T   T
  0.5022450072050649  0.2936307014337214  0.0972614531800180   T   T   T
  0.7500000000000000  0.0411110199194237  0.0931933739532977   T   T   T
  0.7500000000000000  0.7108384052099819  0.0990542511215406   T   T   T
  0.7500000000000000  0.5389069626409035  0.0989623613410783   T   T   T
  0.5021780803512569  0.9559036060223192  0.0973014659105379   T   T   T
  0.5123057891333062  0.4552361373896558  0.1036980156686686   T   T   T
  0.9876942108666938  0.4552361373896558  0.1036980156686686   T   T   T
  0.9879887443264237  0.7942679116032105  0.1037316691620151   T   T   T
  0.5120112556735763  0.7942679116032105  0.1037316691620151   T   T   T
  0.2500000000000000  0.6246864004450027  0.1237963329172038   T   T   T
 
  0.00000000E+00  0.00000000E+00  0.00000000E+00
  0.00000000E+00  0.00000000E+00  0.00000000E+00
  0.00000000E+00  0.00000000E+00  0.00000000E+00
  0.00000000E+00  0.00000000E+00  0.00000000E+00
  0.00000000E+00  0.00000000E+00  0.00000000E+00
  0.00000000E+00  0.00000000E+00  0.00000000E+00
  0.00000000E+00  0.00000000E+00  0.00000000E+00
  0.00000000E+00  0.00000000E+00  0.00000000E+00
  0.00000000E+00  0.00000000E+00  0.00000000E+00
  0.00000000E+00  0.00000000E+00  0.00000000E+00
  0.00000000E+00  0.00000000E+00  0.00000000E+00
  0.00000000E+00  0.00000000E+00  0.00000000E+00
  0.00000000E+00  0.00000000E+00  0.00000000E+00
  0.00000000E+00  0.00000000E+00  0.00000000E+00
  0.00000000E+00  0.00000000E+00  0.00000000E+00
