Title                                   
   1.00000000000000     
     9.8694509999999998    0.0000000000000000    0.0000000000000000
     0.0000000000000000    8.5490480000000009    0.0000000000000000
     0.0000000000000000    0.0000000000000000   20.0000000000000000
    29     1     1
Selective dynamics
Direct
  0.0553158655368854  0.0884146073309176  0.0904829686637765   T   T   T
  0.9304102854467361  0.1726430613586422  0.0868190316205424   T   T   T
  0.0559208968902379  0.9221948717330603  0.0911338011498804   T   T   T
  0.9325819780316283  0.3389441606736827  0.0881183701017953   T   T   T
  0.0561594555517959  0.5894895352595236  0.0934080569515709   T   T   T
  0.9323454758286376  0.6740510382520519  0.0908200468726036   T   T   T
  0.0559119854995937  0.4225832875093539  0.0926173284777896   T   T   T
  0.9306670543341823  0.8402355075567046  0.0887818182859287   T   T   T
  0.3056197933963671  0.0895085965257827  0.0978221944682695   T   T   T
  0.1795408718543566  0.1706986288386869  0.0950760767351208   T   T   T
  0.3070251128969990  0.9208848655367423  0.0975834077955041   T   T   T
  0.1792840422498123  0.3373230327454362  0.0963097809820674   T   T   T
  0.3043996856082707  0.5872497412912029  0.1029266166420842   T   T   T
  0.1806189445715361  0.6717977730832325  0.0968646273243009   T   T   T
  0.3022309031692411  0.4188675268522953  0.1033840378904487   T   T   T
  0.1811989453492430  0.8388732037121046  0.0954499445382236   T   T   T
  0.5532807990038371  0.0931405400591760  0.0949301610052996   T   T   T
  0.4281678062430676  0.1790009487147575  0.1014944463284219   T   T   T
  0.5539438127555866  0.9248629326364133  0.0949079673323545   T   T   T
  0.4306113432534429  0.6656712343864889  0.1071327887625451   T   T   T
  0.4316809430861824  0.8339851791633275  0.1004742029846061   T   T   T
  0.8044876034208736  0.0909639065823194  0.0848049978206895   T   T   T
  0.6786417096956974  0.1759898558077605  0.0860334355902086   T   T   T
  0.8047029700591690  0.9239821351798102  0.0858850121902755   T   T   T
  0.6835865763350920  0.3412393748360812  0.0837319115794704   T   T   T
  0.8075089256778955  0.5916710970625570  0.0878790798024354   T   T   T
  0.6827365776640877  0.6754242392903861  0.0889896876624633   T   T   T
  0.8082205053000689  0.4224590498647635  0.0847401292902677   T   T   T
  0.6791824518166619  0.8415211010700987  0.0877246125425826   T   T   T
  0.4238702790318715  0.3415046942478380  0.1094766126960441   T   T   T
  0.5832814004409527  0.5056992728388136  0.1351618459124701   T   T   T
 
  0.00000000E+00  0.00000000E+00  0.00000000E+00
  0.00000000E+00  0.00000000E+00  0.00000000E+00
  0.00000000E+00  0.00000000E+00  0.00000000E+00
  0.00000000E+00  0.00000000E+00  0.00000000E+00
  0.00000000E+00  0.00000000E+00  0.00000000E+00
  0.00000000E+00  0.00000000E+00  0.00000000E+00
  0.00000000E+00  0.00000000E+00  0.00000000E+00
  0.00000000E+00  0.00000000E+00  0.00000000E+00
  0.00000000E+00  0.00000000E+00  0.00000000E+00
  0.00000000E+00  0.00000000E+00  0.00000000E+00
  0.00000000E+00  0.00000000E+00  0.00000000E+00
  0.00000000E+00  0.00000000E+00  0.00000000E+00
  0.00000000E+00  0.00000000E+00  0.00000000E+00
  0.00000000E+00  0.00000000E+00  0.00000000E+00
  0.00000000E+00  0.00000000E+00  0.00000000E+00
  0.00000000E+00  0.00000000E+00  0.00000000E+00
  0.00000000E+00  0.00000000E+00  0.00000000E+00
  0.00000000E+00  0.00000000E+00  0.00000000E+00
  0.00000000E+00  0.00000000E+00  0.00000000E+00
  0.00000000E+00  0.00000000E+00  0.00000000E+00
  0.00000000E+00  0.00000000E+00  0.00000000E+00
  0.00000000E+00  0.00000000E+00  0.00000000E+00
  0.00000000E+00  0.00000000E+00  0.00000000E+00
  0.00000000E+00  0.00000000E+00  0.00000000E+00
  0.00000000E+00  0.00000000E+00  0.00000000E+00
  0.00000000E+00  0.00000000E+00  0.00000000E+00
  0.00000000E+00  0.00000000E+00  0.00000000E+00
  0.00000000E+00  0.00000000E+00  0.00000000E+00
  0.00000000E+00  0.00000000E+00  0.00000000E+00
  0.00000000E+00  0.00000000E+00  0.00000000E+00
  0.00000000E+00  0.00000000E+00  0.00000000E+00
