Title                                   
   1.00000000000000     
     9.8694509999999998    0.0000000000000000    0.0000000000000000
     0.0000000000000000    8.5490480000000009    0.0000000000000000
     0.0000000000000000    0.0000000000000000   20.0000000000000000
    30     1
Selective dynamics
Direct
  0.0563061288188438  0.0889706701770371  0.0800855395210490   T   T   T
  0.9315031050010344  0.1717388976580923  0.0830786233431334   T   T   T
  0.0562946696447629  0.9233791690770619  0.0800972429400028   T   T   T
  0.9333734105211424  0.3380635813825341  0.0821321976666811   T   T   T
  0.0563318453113434  0.5898479356636360  0.0779176798249570   T   T   T
  0.9333646857619570  0.6742418096415372  0.0821376664915438   T   T   T
  0.0563330366343279  0.4224791656716326  0.0778932539002364   T   T   T
  0.9314778163353871  0.8405854592802678  0.0830937349168249   T   T   T
  0.3052046075134434  0.0894845706375514  0.0930989605702516   T   T   T
  0.1810204197168825  0.1717608783523253  0.0837351939656410   T   T   T
  0.3051837730049358  0.9228283045165639  0.0931331420836424   T   T   T
  0.1791764714741426  0.3381010901704400  0.0828957833543064   T   T   T
  0.2995540947920211  0.5913680057526305  0.0963717405472804   T   T   T
  0.1791718495724166  0.6742216837092158  0.0829341622105248   T   T   T
  0.2995581552169248  0.4209291494281222  0.0963305435467832   T   T   T
  0.1809901778354963  0.8405648242573064  0.0837867872949025   T   T   T
  0.5562576264682243  0.0889298775484561  0.1081088675464937   T   T   T
  0.4279540371538670  0.1743705234305949  0.1053622113470536   T   T   T
  0.5562463846681381  0.9233594684099201  0.1081249756298908   T   T   T
  0.4177093703811805  0.3374408378544206  0.1115748288837586   T   T   T
  0.4176778595980241  0.6748522759194118  0.1116401502734900   T   T   T
  0.4279310307909346  0.8379433592299762  0.1054213640208456   T   T   T
  0.8071938081016109  0.0894890703558521  0.0921687619189532   T   T   T
  0.6844657200457298  0.1743788045581646  0.1045118089516156   T   T   T
  0.8071721929198364  0.9228328704580497  0.0921666993392316   T   T   T
  0.6946273661559847  0.3375441148203720  0.1102024773867245   T   T   T
  0.8127492980569175  0.5913509065312805  0.0949235405892287   T   T   T
  0.6946526704672874  0.6747860265717612  0.1101921429863432   T   T   T
  0.8127503151218832  0.4209263012397456  0.0949417742193314   T   T   T
  0.6844634272523790  0.8379358611596467  0.1045168123546406   T   T   T
  0.5564396456629489  0.5061695065364044  0.1283863323746792   T   T   T
 
  0.00000000E+00  0.00000000E+00  0.00000000E+00
  0.00000000E+00  0.00000000E+00  0.00000000E+00
  0.00000000E+00  0.00000000E+00  0.00000000E+00
  0.00000000E+00  0.00000000E+00  0.00000000E+00
  0.00000000E+00  0.00000000E+00  0.00000000E+00
  0.00000000E+00  0.00000000E+00  0.00000000E+00
  0.00000000E+00  0.00000000E+00  0.00000000E+00
  0.00000000E+00  0.00000000E+00  0.00000000E+00
  0.00000000E+00  0.00000000E+00  0.00000000E+00
  0.00000000E+00  0.00000000E+00  0.00000000E+00
  0.00000000E+00  0.00000000E+00  0.00000000E+00
  0.00000000E+00  0.00000000E+00  0.00000000E+00
  0.00000000E+00  0.00000000E+00  0.00000000E+00
  0.00000000E+00  0.00000000E+00  0.00000000E+00
  0.00000000E+00  0.00000000E+00  0.00000000E+00
  0.00000000E+00  0.00000000E+00  0.00000000E+00
  0.00000000E+00  0.00000000E+00  0.00000000E+00
  0.00000000E+00  0.00000000E+00  0.00000000E+00
  0.00000000E+00  0.00000000E+00  0.00000000E+00
  0.00000000E+00  0.00000000E+00  0.00000000E+00
  0.00000000E+00  0.00000000E+00  0.00000000E+00
  0.00000000E+00  0.00000000E+00  0.00000000E+00
  0.00000000E+00  0.00000000E+00  0.00000000E+00
  0.00000000E+00  0.00000000E+00  0.00000000E+00
  0.00000000E+00  0.00000000E+00  0.00000000E+00
  0.00000000E+00  0.00000000E+00  0.00000000E+00
  0.00000000E+00  0.00000000E+00  0.00000000E+00
  0.00000000E+00  0.00000000E+00  0.00000000E+00
  0.00000000E+00  0.00000000E+00  0.00000000E+00
  0.00000000E+00  0.00000000E+00  0.00000000E+00
  0.00000000E+00  0.00000000E+00  0.00000000E+00
