Title                                   
   1.00000000000000     
     4.9440799999999996    0.0000000000000000    0.0000000000000000
     0.0000000000000000    8.5647549999999999    0.0000000000000000
     0.0000000000000000    0.0000000000000000   20.0000000000000000
    11     3     1
Selective dynamics
Direct
  0.0027250968205006  0.2948632078571206  0.0969497002591047   T   T   T
  0.2459636756374036  0.0401312268519680  0.0954669404761522   T   T   T
 -0.0056811068137493  0.9557026696797019  0.0983188156421877   T   T   T
  0.7527631275112810  0.2072825885106726  0.0920400027998867   T   T   T
  0.5030410229606090  0.2935903599528007  0.0943206841475792   T   T   T
  0.7472833749388282  0.0408495129773637  0.0922186995051612   T   T   T
  0.7424079586905836  0.7102401879189963  0.0991666616185231   T   T   T
  0.7513155772740205  0.5369126448360264  0.1005523230814073   T   T   T
  0.4952597893355586  0.9576229624530377  0.0925449947092542   T   T   T
  0.4996240368914197  0.7911645285933863  0.0921001841835588   T   T   T
 -0.0004047237436731  0.4578520898965853  0.1052590053633353   T   T   T
  0.5061199338727222  0.4532070575025996  0.0979220151555157   T   T   T
 -0.0125453740092359  0.7926341028766393  0.1091649394860838   T   T   T
  0.2516153195552443  0.2107086480621247  0.0952857735697887   T   T   T
  0.2705122910784859  0.6289192120309786  0.1466692600024647   T   T   T
 
  0.00000000E+00  0.00000000E+00  0.00000000E+00
  0.00000000E+00  0.00000000E+00  0.00000000E+00
  0.00000000E+00  0.00000000E+00  0.00000000E+00
  0.00000000E+00  0.00000000E+00  0.00000000E+00
  0.00000000E+00  0.00000000E+00  0.00000000E+00
  0.00000000E+00  0.00000000E+00  0.00000000E+00
  0.00000000E+00  0.00000000E+00  0.00000000E+00
  0.00000000E+00  0.00000000E+00  0.00000000E+00
  0.00000000E+00  0.00000000E+00  0.00000000E+00
  0.00000000E+00  0.00000000E+00  0.00000000E+00
  0.00000000E+00  0.00000000E+00  0.00000000E+00
  0.00000000E+00  0.00000000E+00  0.00000000E+00
  0.00000000E+00  0.00000000E+00  0.00000000E+00
  0.00000000E+00  0.00000000E+00  0.00000000E+00
  0.00000000E+00  0.00000000E+00  0.00000000E+00
