Title                                   
   1.00000000000000     
     4.9440799999999996    0.0000000000000000    0.0000000000000000
     0.0000000000000000   17.1295089999999988    0.0000000000000000
     0.0000000000000000    0.0000000000000000   20.0000000000000000
    30     1     1
Selective dynamics
Direct
  0.0004228936649548  0.1045612298137294  0.2884546987876071   T   T   T
  0.2500053488670333  0.1463848487660875  0.2930202292568345   T   T   T
  0.2499890380379400  0.2292318552994474  0.3039571491769477   T   T   T
  0.0008304146246176  0.3510130213864504  0.3252493932800753   T   T   T
 -0.0021778240363486  0.2701121793829509  0.3090749970586925   T   T   T
 -0.0035969619995701  0.6040176419361604  0.3023252109376650   T   T   T
  0.2498178075665438  0.7282485852772168  0.2872757644225918   T   T   T
  0.0001513335293908  0.8539161657954720  0.2795627554752625   T   T   T
  0.2498966263116491  0.8958683776765117  0.2792120171282221   T   T   T
  0.2499598283003606  0.9794644470265252  0.2807369954585848   T   T   T
  0.0003308254195574  0.7704076691214994  0.2832287229519663   T   T   T
  0.4996020581179598  0.1045630757708185  0.2884495221021270   T   T   T
  0.7500098568025554  0.1461252432608657  0.2920265583607604   T   T   T
  0.7499956626455452  0.2283425373790273  0.3014131485579609   T   T   T
  0.4998405818029358  0.0213134997817243  0.2825119440317297   T   T   T
  0.4991102849955283  0.3509994519591693  0.3252491576041885   T   T   T
  0.7498311597135164  0.4773198733424351  0.3194552002637665   T   T   T
  0.5021124919163172  0.2701068039413989  0.3090738245819680   T   T   T
  0.5030904022260825  0.6040016513480784  0.3023081849472402   T   T   T
  0.7498144005336991  0.7290001638040091  0.2856724763698223   T   T   T
  0.4995953562679618  0.8539203384701066  0.2795443677002017   T   T   T
  0.7499072959169133  0.8958206316349759  0.2788926211461467   T   T   T
  0.7499682053714574  0.9793979350516185  0.2804437411197429   T   T   T
  0.4993580828508346  0.7704103051511617  0.2832061173304877   T   T   T
  0.7497544937222875  0.6463106822589898  0.2940188349668916   T   T   T
  0.2497670061866422  0.6452094665159464  0.2977681107396402   T   T   T
  0.0001128070709044  0.0213134278502072  0.2825254777048302   T   T   T
  0.5106813485638344  0.5224811197499756  0.3178809885672866   T   T   T
  0.9888906672702722  0.5225110541568286  0.3179154227231705   T   T   T
  0.2499745881845182  0.3882081177964195  0.3405057444534983   T   T   T
  0.7499341637844348  0.3939436200383336  0.3262253451199900   T   T   T
  0.2498427557696770  0.4940259792558474  0.3853802776740518   T   T   T
 
  0.00000000E+00  0.00000000E+00  0.00000000E+00
  0.00000000E+00  0.00000000E+00  0.00000000E+00
  0.00000000E+00  0.00000000E+00  0.00000000E+00
  0.00000000E+00  0.00000000E+00  0.00000000E+00
  0.00000000E+00  0.00000000E+00  0.00000000E+00
  0.00000000E+00  0.00000000E+00  0.00000000E+00
  0.00000000E+00  0.00000000E+00  0.00000000E+00
  0.00000000E+00  0.00000000E+00  0.00000000E+00
  0.00000000E+00  0.00000000E+00  0.00000000E+00
  0.00000000E+00  0.00000000E+00  0.00000000E+00
  0.00000000E+00  0.00000000E+00  0.00000000E+00
  0.00000000E+00  0.00000000E+00  0.00000000E+00
  0.00000000E+00  0.00000000E+00  0.00000000E+00
  0.00000000E+00  0.00000000E+00  0.00000000E+00
  0.00000000E+00  0.00000000E+00  0.00000000E+00
  0.00000000E+00  0.00000000E+00  0.00000000E+00
  0.00000000E+00  0.00000000E+00  0.00000000E+00
  0.00000000E+00  0.00000000E+00  0.00000000E+00
  0.00000000E+00  0.00000000E+00  0.00000000E+00
  0.00000000E+00  0.00000000E+00  0.00000000E+00
  0.00000000E+00  0.00000000E+00  0.00000000E+00
  0.00000000E+00  0.00000000E+00  0.00000000E+00
  0.00000000E+00  0.00000000E+00  0.00000000E+00
  0.00000000E+00  0.00000000E+00  0.00000000E+00
  0.00000000E+00  0.00000000E+00  0.00000000E+00
  0.00000000E+00  0.00000000E+00  0.00000000E+00
  0.00000000E+00  0.00000000E+00  0.00000000E+00
  0.00000000E+00  0.00000000E+00  0.00000000E+00
  0.00000000E+00  0.00000000E+00  0.00000000E+00
  0.00000000E+00  0.00000000E+00  0.00000000E+00
  0.00000000E+00  0.00000000E+00  0.00000000E+00
  0.00000000E+00  0.00000000E+00  0.00000000E+00
