Title                                   
   1.00000000000000     
     4.9440799999999996    0.0000000000000000    0.0000000000000000
     0.0000000000000000    8.5647549999999999    0.0000000000000000
     0.0000000000000000    0.0000000000000000   20.0000000000000000
    12     2     1
Selective dynamics
Direct
  0.2479735145155519  0.2094292015648101  0.0956792801429812   T   T   T
 -0.0051764530194894  0.2944411349843398  0.0963990252566032   T   T   T
  0.2520405430102774  0.0401742711203584  0.0957327387547079   T   T   T
  0.0037336108362263  0.9561252267344094  0.0946887609062226   T   T   T
  0.7473240210175451  0.2085557370855911  0.0922988982750197   T   T   T
  0.4963011111261833  0.2934428482011573  0.0945607389785976   T   T   T
  0.7527017954541706  0.0410046925734782  0.0923382866304161   T   T   T
  0.7546711038846174  0.7115944832577988  0.1005010182444603   T   T   T
  0.7451916052672288  0.5380307216719412  0.1004188471159373   T   T   T
  0.5051586902239866  0.9551501597523926  0.0964418498020605   T   T   T
  0.5004920409438806  0.4591170236971805  0.0980936842016507   T   T   T
 -0.0005052083767829  0.7904429946119313  0.0983429611944699   T   T   T
 -0.0110950814058685  0.4561941995513745  0.1033467638626556   T   T   T
  0.5110099033092816  0.7934072291639486  0.1033751995550682   T   T   T
  0.2501788032131916  0.6245710760292907  0.1457619470791526   T   T   T
 
  0.00000000E+00  0.00000000E+00  0.00000000E+00
  0.00000000E+00  0.00000000E+00  0.00000000E+00
  0.00000000E+00  0.00000000E+00  0.00000000E+00
  0.00000000E+00  0.00000000E+00  0.00000000E+00
  0.00000000E+00  0.00000000E+00  0.00000000E+00
  0.00000000E+00  0.00000000E+00  0.00000000E+00
  0.00000000E+00  0.00000000E+00  0.00000000E+00
  0.00000000E+00  0.00000000E+00  0.00000000E+00
  0.00000000E+00  0.00000000E+00  0.00000000E+00
  0.00000000E+00  0.00000000E+00  0.00000000E+00
  0.00000000E+00  0.00000000E+00  0.00000000E+00
  0.00000000E+00  0.00000000E+00  0.00000000E+00
  0.00000000E+00  0.00000000E+00  0.00000000E+00
  0.00000000E+00  0.00000000E+00  0.00000000E+00
  0.00000000E+00  0.00000000E+00  0.00000000E+00
