Title                                   
   1.00000000000000     
     8.5490480000000009    0.0000000000000000    0.0000000000000000
     0.0000000000000000    8.5490480000000009    0.0000000000000000
     0.0000000000000000    0.0000000000000000   20.0000000000000000
    21     3     1
Selective dynamics
Direct
  0.9096626043864602  0.2068052266413530  0.0975025098105349   T   T   T
  0.9091544460912713  0.5022537343673539  0.0977065051954413   T   T   T
  0.9117763226938290  0.8011160531853743  0.0976586556552463   T   T   T
  0.1971622169188143  0.0831748958827422  0.0977221618823956   T   T   T
  0.0755228424730250  0.2028240087878606  0.0976683907699787   T   T   T
  0.1594152700320555  0.6488599035952047  0.0977644312411879   T   T   T
  0.0784602138065833  0.5016022767358789  0.0977898447138741   T   T   T
  0.1593436682159993  0.3528166564863680  0.0979023712305789   T   T   T
  0.0782521750316388  0.7986449812089867  0.0976727703592515   T   T   T
  0.4923667860940640  0.0863881994954266  0.0977752756635982   T   T   T
  0.3430882203293509  0.1655326296408576  0.0978858024210391   T   T   T
  0.4913771321204056  0.9168593198122831  0.0977124445013906   T   T   T
  0.3453471057056392  0.8358424587669283  0.0976626991921044   T   T   T
  0.7867331747091280  0.0846138851983350  0.0975389497455285   T   T   T
  0.6374555278587266  0.1666862793878696  0.0977320725311742   T   T   T
  0.7886112962666564  0.9204158228205541  0.0976403143998358   T   T   T
  0.8295718339311409  0.6519375141011430  0.0977426949899399   T   T   T
  0.8289582773138702  0.3555596567954371  0.0976372791132389   T   T   T
  0.6400179115112180  0.8356647414709779  0.0977864343432800   T   T   T
  0.3240680670803918  0.6710898744488334  0.0977670601436561   T   T   T
  0.6604266573572243  0.3338969586162808  0.0977722563665691   T   T   T
  0.3198171926259619  0.3286788827629527  0.0981222153652715   T   T   T
  0.6664708799621322  0.6750219139597651  0.0978991168357531   T   T   T
  0.1977279877296718  0.9173494364164383  0.0976519523620663   T   T   T
  0.4946241897547288  0.5011546894148077  0.0979907911670449   T   T   T
 
  0.00000000E+00  0.00000000E+00  0.00000000E+00
  0.00000000E+00  0.00000000E+00  0.00000000E+00
  0.00000000E+00  0.00000000E+00  0.00000000E+00
  0.00000000E+00  0.00000000E+00  0.00000000E+00
  0.00000000E+00  0.00000000E+00  0.00000000E+00
  0.00000000E+00  0.00000000E+00  0.00000000E+00
  0.00000000E+00  0.00000000E+00  0.00000000E+00
  0.00000000E+00  0.00000000E+00  0.00000000E+00
  0.00000000E+00  0.00000000E+00  0.00000000E+00
  0.00000000E+00  0.00000000E+00  0.00000000E+00
  0.00000000E+00  0.00000000E+00  0.00000000E+00
  0.00000000E+00  0.00000000E+00  0.00000000E+00
  0.00000000E+00  0.00000000E+00  0.00000000E+00
  0.00000000E+00  0.00000000E+00  0.00000000E+00
  0.00000000E+00  0.00000000E+00  0.00000000E+00
  0.00000000E+00  0.00000000E+00  0.00000000E+00
  0.00000000E+00  0.00000000E+00  0.00000000E+00
  0.00000000E+00  0.00000000E+00  0.00000000E+00
  0.00000000E+00  0.00000000E+00  0.00000000E+00
  0.00000000E+00  0.00000000E+00  0.00000000E+00
  0.00000000E+00  0.00000000E+00  0.00000000E+00
  0.00000000E+00  0.00000000E+00  0.00000000E+00
  0.00000000E+00  0.00000000E+00  0.00000000E+00
  0.00000000E+00  0.00000000E+00  0.00000000E+00
  0.00000000E+00  0.00000000E+00  0.00000000E+00
