Title                                   
   1.00000000000000     
     9.8694509999999998    0.0000000000000000    0.0000000000000000
     0.0000000000000000    8.5490480000000009    0.0000000000000000
     0.0000000000000000    0.0000000000000000   20.0000000000000000
    25     5     1
Selective dynamics
Direct
  0.0558327471023525  0.0897958675732356  0.0881429848510540   T   T   T
  0.9318609609415562  0.1718562710129527  0.0897308966521288   T   T   T
  0.0571929554286214  0.9230146126795402  0.0885661493011681   T   T   T
  0.9335288757477070  0.3393411644806203  0.0881549395099899   T   T   T
  0.0568715203892177  0.5898757847647411  0.0838805280887842   T   T   T
  0.9337700596029842  0.6732816296238238  0.0881600157501326   T   T   T
  0.0568601473003958  0.4231489526182822  0.0837667057408574   T   T   T
  0.9324742270648887  0.8401225498141976  0.0898383792504483   T   T   T
  0.3060445686643564  0.0880926454525703  0.0949812439324658   T   T   T
  0.1807776776499481  0.1711153447725405  0.0890216495415511   T   T   T
  0.1797756202958914  0.3382695254864230  0.0871622110025121   T   T   T
  0.3006525906860751  0.5898623417769234  0.0956526279990059   T   T   T
  0.1803326896053499  0.6743345156532241  0.0875538218363334   T   T   T
  0.3008924933504111  0.4221120228642699  0.0954866713340732   T   T   T
  0.1813387289737821  0.8406402027330784  0.0897309799099999   T   T   T
  0.5564666622437063  0.0929887257560788  0.1050896399266575   T   T   T
  0.4278812968461131  0.1744855351695669  0.1034441740242173   T   T   T
  0.5550331973037794  0.9197378986898218  0.1047660352862857   T   T   T
  0.4275007666012463  0.8370660994518834  0.1035735123060365   T   T   T
  0.8060486937442335  0.0896260983491723  0.0950212366677693   T   T   T
  0.6836170461568581  0.1763048508141461  0.1032594987874203   T   T   T
  0.8060270953225019  0.9224514521466650  0.0948307016000982   T   T   T
  0.8123478031918286  0.5905018874057875  0.0962124753186994   T   T   T
  0.8123399627103191  0.4217956194272427  0.0964109763172804   T   T   T
  0.6834397327589339  0.8355356518736172  0.1026978965024651   T   T   T
  0.4189421154726463  0.3372041690971181  0.1089804443403893   T   T   T
  0.4182977109531200  0.6763468064191024  0.1099335232965731   T   T   T
  0.6925140995944158  0.3393867083569559  0.1089155263405867   T   T   T
  0.6927435542097951  0.6731411355442535  0.1081532525148039   T   T   T
  0.3062145489941172  0.9232155972123468  0.0949718924131071   T   T   T
  0.5555158510928475  0.5062233329798177  0.1248744096571635   T   T   T
 
  0.00000000E+00  0.00000000E+00  0.00000000E+00
  0.00000000E+00  0.00000000E+00  0.00000000E+00
  0.00000000E+00  0.00000000E+00  0.00000000E+00
  0.00000000E+00  0.00000000E+00  0.00000000E+00
  0.00000000E+00  0.00000000E+00  0.00000000E+00
  0.00000000E+00  0.00000000E+00  0.00000000E+00
  0.00000000E+00  0.00000000E+00  0.00000000E+00
  0.00000000E+00  0.00000000E+00  0.00000000E+00
  0.00000000E+00  0.00000000E+00  0.00000000E+00
  0.00000000E+00  0.00000000E+00  0.00000000E+00
  0.00000000E+00  0.00000000E+00  0.00000000E+00
  0.00000000E+00  0.00000000E+00  0.00000000E+00
  0.00000000E+00  0.00000000E+00  0.00000000E+00
  0.00000000E+00  0.00000000E+00  0.00000000E+00
  0.00000000E+00  0.00000000E+00  0.00000000E+00
  0.00000000E+00  0.00000000E+00  0.00000000E+00
  0.00000000E+00  0.00000000E+00  0.00000000E+00
  0.00000000E+00  0.00000000E+00  0.00000000E+00
  0.00000000E+00  0.00000000E+00  0.00000000E+00
  0.00000000E+00  0.00000000E+00  0.00000000E+00
  0.00000000E+00  0.00000000E+00  0.00000000E+00
  0.00000000E+00  0.00000000E+00  0.00000000E+00
  0.00000000E+00  0.00000000E+00  0.00000000E+00
  0.00000000E+00  0.00000000E+00  0.00000000E+00
  0.00000000E+00  0.00000000E+00  0.00000000E+00
  0.00000000E+00  0.00000000E+00  0.00000000E+00
  0.00000000E+00  0.00000000E+00  0.00000000E+00
  0.00000000E+00  0.00000000E+00  0.00000000E+00
  0.00000000E+00  0.00000000E+00  0.00000000E+00
  0.00000000E+00  0.00000000E+00  0.00000000E+00
  0.00000000E+00  0.00000000E+00  0.00000000E+00
