Title                                   
   1.00000000000000     
     8.5490480000000009    0.0000000000000000    0.0000000000000000
     0.0000000000000000    8.5490480000000009    0.0000000000000000
     0.0000000000000000    0.0000000000000000   20.0000000000000000
    22     2     1
Selective dynamics
Direct
  0.9079262218364123  0.2070154482911709  0.0985367041158916   T   T   T
  0.9080509062895531  0.5030829840195947  0.0962751925074573   T   T   T
  0.9121240857801922  0.7995387705943766  0.0966976819093327   T   T   T
  0.1952668256860488  0.0826888277430556  0.0966900976988297   T   T   T
  0.0739051929656177  0.2040247069033229  0.0966527166545946   T   T   T
  0.1982594671968305  0.9167449809840630  0.0986313444110130   T   T   T
  0.1589399995418326  0.6461088910688823  0.0991135391069328   T   T   T
  0.0780163366466285  0.5004649410872130  0.0962911090854323   T   T   T
  0.1553702571965206  0.3512336316853873  0.0940737126740689   T   T   T
  0.0780818951831513  0.7965553906002806  0.0986301347193944   T   T   T
  0.4916716264400465  0.0867733404059685  0.0963184117367510   T   T   T
  0.3424652785223074  0.1641400303813176  0.0940983677648119   T   T   T
  0.4943179349113010  0.9168009790528633  0.0963287086451510   T   T   T
  0.3486838406526749  0.8358729111735114  0.0991206261785035   T   T   T
  0.7877545064521914  0.0868457068217245  0.0985569898367088   T   T   T
  0.6372870631323662  0.1677276325144560  0.0990596634777729   T   T   T
  0.7907820201756007  0.9208667128345229  0.0966806379276082   T   T   T
  0.8307064743707485  0.6523236981290520  0.0941052844512973   T   T   T
  0.8270818296178486  0.3574417085939822  0.0990277099387497   T   T   T
  0.6435697072517976  0.8394657288667440  0.0941201857889937   T   T   T
  0.3257556113008465  0.6690502552393828  0.1012437625627160   T   T   T
  0.6602352606599721  0.3345369848861965  0.1011569238280517   T   T   T
  0.3181440978698706  0.3268938869854895  0.0895418108366298   T   T   T
  0.6679537022596537  0.6766911896450677  0.0895858150942399   T   T   T
  0.4930618580599799  0.5019006614923885  0.0631678690490452   T   T   T
 
  0.00000000E+00  0.00000000E+00  0.00000000E+00
  0.00000000E+00  0.00000000E+00  0.00000000E+00
  0.00000000E+00  0.00000000E+00  0.00000000E+00
  0.00000000E+00  0.00000000E+00  0.00000000E+00
  0.00000000E+00  0.00000000E+00  0.00000000E+00
  0.00000000E+00  0.00000000E+00  0.00000000E+00
  0.00000000E+00  0.00000000E+00  0.00000000E+00
  0.00000000E+00  0.00000000E+00  0.00000000E+00
  0.00000000E+00  0.00000000E+00  0.00000000E+00
  0.00000000E+00  0.00000000E+00  0.00000000E+00
  0.00000000E+00  0.00000000E+00  0.00000000E+00
  0.00000000E+00  0.00000000E+00  0.00000000E+00
  0.00000000E+00  0.00000000E+00  0.00000000E+00
  0.00000000E+00  0.00000000E+00  0.00000000E+00
  0.00000000E+00  0.00000000E+00  0.00000000E+00
  0.00000000E+00  0.00000000E+00  0.00000000E+00
  0.00000000E+00  0.00000000E+00  0.00000000E+00
  0.00000000E+00  0.00000000E+00  0.00000000E+00
  0.00000000E+00  0.00000000E+00  0.00000000E+00
  0.00000000E+00  0.00000000E+00  0.00000000E+00
  0.00000000E+00  0.00000000E+00  0.00000000E+00
  0.00000000E+00  0.00000000E+00  0.00000000E+00
  0.00000000E+00  0.00000000E+00  0.00000000E+00
  0.00000000E+00  0.00000000E+00  0.00000000E+00
  0.00000000E+00  0.00000000E+00  0.00000000E+00
