Title                                   
   1.00000000000000     
     9.8694509999999998    0.0000000000000000    0.0000000000000000
     0.0000000000000000    8.5490480000000009    0.0000000000000000
     0.0000000000000000    0.0000000000000000   20.0000000000000000
    26     5     1
Selective dynamics
Direct
  0.0563023168082242  0.0919338186290259  0.0853829341453263   T   T   T
  0.9310117240029421  0.1746961125512558  0.0865962521428530   T   T   T
  0.0576536318596006  0.9245536830148076  0.0853832182181156   T   T   T
  0.9299999013666633  0.3418613572556428  0.0888172536210019   T   T   T
  0.0572048220533601  0.5905516708578429  0.0857857240374933   T   T   T
  0.9327394341438889  0.6733239025174973  0.0885870863705725   T   T   T
  0.0567155871777049  0.4231240847203148  0.0871566782916032   T   T   T
  0.9329546765049591  0.8406926410058593  0.0875848885128490   T   T   T
  0.3062386980042253  0.0886657051545954  0.0886681116692835   T   T   T
  0.1827357643808814  0.1739012757394009  0.0869964539081503   T   T   T
  0.1831471051247059  0.3405106291434311  0.0884942121407209   T   T   T
  0.3051567936737823  0.5915107835251946  0.0970607472066940   T   T   T
  0.1818244742071388  0.6740964476501181  0.0875304899769235   T   T   T
  0.3106109370871405  0.4232660912336033  0.0955164713124050   T   T   T
  0.1815592799365558  0.8413975274841899  0.0870259771744503   T   T   T
  0.5559671946830251  0.0849960898981049  0.0951273285315291   T   T   T
  0.5544849069430509  0.9182423588896585  0.0995111816261624   T   T   T
  0.4320412678661305  0.3311705719691586  0.1011000314847953   T   T   T
  0.4262853823898528  0.8394331625859890  0.1005525508817097   T   T   T
  0.8061834475468593  0.0895598573713222  0.0876132575077817   T   T   T
  0.6798678454970557  0.1696242702294966  0.0922726195167381   T   T   T
  0.8076920895325500  0.9238972003090634  0.0898046870314353   T   T   T
  0.6797198773318628  0.3342904451228224  0.1000158187731784   T   T   T
  0.8087506726122640  0.5934712566850332  0.0984234237129898   T   T   T
  0.8020561584033742  0.4246451584246558  0.0962246802337813   T   T   T
  0.6848866044426899  0.8396528413590548  0.1000190100462325   T   T   T
  0.4158807425849471  0.6841786387741895  0.1140408809071180   T   T   T
  0.5541316097630679  0.3990344549644256  0.1168634342058417   T   T   T
  0.6944898442031882  0.6814095082341954  0.1132012373492691   T   T   T
  0.3061876624171123  0.9252980512374809  0.0894116941281388   T   T   T
  0.4296297183168551  0.1674972991215553  0.0937638451773933   T   T   T
  0.5555288291343482  0.5897591043410157  0.1711428201574793   T   T   T
 
  0.00000000E+00  0.00000000E+00  0.00000000E+00
  0.00000000E+00  0.00000000E+00  0.00000000E+00
  0.00000000E+00  0.00000000E+00  0.00000000E+00
  0.00000000E+00  0.00000000E+00  0.00000000E+00
  0.00000000E+00  0.00000000E+00  0.00000000E+00
  0.00000000E+00  0.00000000E+00  0.00000000E+00
  0.00000000E+00  0.00000000E+00  0.00000000E+00
  0.00000000E+00  0.00000000E+00  0.00000000E+00
  0.00000000E+00  0.00000000E+00  0.00000000E+00
  0.00000000E+00  0.00000000E+00  0.00000000E+00
  0.00000000E+00  0.00000000E+00  0.00000000E+00
  0.00000000E+00  0.00000000E+00  0.00000000E+00
  0.00000000E+00  0.00000000E+00  0.00000000E+00
  0.00000000E+00  0.00000000E+00  0.00000000E+00
  0.00000000E+00  0.00000000E+00  0.00000000E+00
  0.00000000E+00  0.00000000E+00  0.00000000E+00
  0.00000000E+00  0.00000000E+00  0.00000000E+00
  0.00000000E+00  0.00000000E+00  0.00000000E+00
  0.00000000E+00  0.00000000E+00  0.00000000E+00
  0.00000000E+00  0.00000000E+00  0.00000000E+00
  0.00000000E+00  0.00000000E+00  0.00000000E+00
  0.00000000E+00  0.00000000E+00  0.00000000E+00
  0.00000000E+00  0.00000000E+00  0.00000000E+00
  0.00000000E+00  0.00000000E+00  0.00000000E+00
  0.00000000E+00  0.00000000E+00  0.00000000E+00
  0.00000000E+00  0.00000000E+00  0.00000000E+00
  0.00000000E+00  0.00000000E+00  0.00000000E+00
  0.00000000E+00  0.00000000E+00  0.00000000E+00
  0.00000000E+00  0.00000000E+00  0.00000000E+00
  0.00000000E+00  0.00000000E+00  0.00000000E+00
  0.00000000E+00  0.00000000E+00  0.00000000E+00
  0.00000000E+00  0.00000000E+00  0.00000000E+00
