Title                                   
   1.00000000000000     
     4.9440799999999996    0.0000000000000000    0.0000000000000000
     0.0000000000000000   17.1295089999999988    0.0000000000000000
     0.0000000000000000    0.0000000000000000   20.0000000000000000
    29     1     1
Selective dynamics
Direct
  0.0002049503737866  0.1041005448598997  0.2963705735636393   T   T   T
  0.2503524361078932  0.1462228665900343  0.2967505512390725   T   T   T
  0.2502656049787130  0.2294158898996224  0.2986154239427279   T   T   T
  0.0000131854252708  0.2717388187082581  0.2999085174549184   T   T   T
  0.0012380337839571  0.6036072029861392  0.2992915674259596   T   T   T
  0.2503468260952822  0.7277298590697494  0.2977634173325150   T   T   T
  0.0014047313611854  0.8534359605897509  0.2971965842951894   T   T   T
  0.2504255413508519  0.8953953092456060  0.2970975836309014   T   T   T
  0.2504296819972752  0.9788751980649210  0.2966880991626547   T   T   T
  0.0010966636391202  0.7696922610778238  0.2973865444179427   T   T   T
  0.5005943560874918  0.1041076501338043  0.2963745788745685   T   T   T
  0.7503904847989363  0.1457925367754506  0.2966151503728462   T   T   T
  0.7503176732017689  0.2293838119837238  0.2984029296299985   T   T   T
  0.5005329456141275  0.0205729979332933  0.2964642668858158   T   T   T
  0.7501691716637039  0.3956692051835377  0.3017514722232413   T   T   T
  0.7501835293869669  0.4821908733593795  0.3016300252624324   T   T   T
  0.5005223655877595  0.2717168232746751  0.2999407377765897   T   T   T
  0.4992963043267190  0.6036238956010169  0.2993241092491686   T   T   T
  0.7503820601288903  0.7288804564624995  0.2972276370501634   T   T   T
  0.4994352695451681  0.8534322790058064  0.2971903709852082   T   T   T
  0.7504262667544287  0.8949368227271606  0.2969918136500236   T   T   T
  0.7504427265649792  0.9786352173686447  0.2966116880485479   T   T   T
  0.4996727969586996  0.7696855715397142  0.2973837329711422   T   T   T
  0.7503089804792940  0.6460324186733226  0.2978176617462174   T   T   T
  0.0003207778795761  0.0205698110280977  0.2964639257612479   T   T   T
  0.5008527981433830  0.5219662820509372  0.3023161296927097   T   T   T
 -0.0004646788538445  0.5219393943993177  0.3022349369059498   T   T   T
  0.5045670306202317  0.3543007826882100  0.3035372989869424   T   T   T
 -0.0042040087334693  0.3543259380055999  0.3034676748222214   T   T   T
  0.2502581608137696  0.6459067019270496  0.2987523574497457   T   T   T
  0.2502243339180841  0.4374586187869506  0.3274926391896506   T   T   T
 
  0.00000000E+00  0.00000000E+00  0.00000000E+00
  0.00000000E+00  0.00000000E+00  0.00000000E+00
  0.00000000E+00  0.00000000E+00  0.00000000E+00
  0.00000000E+00  0.00000000E+00  0.00000000E+00
  0.00000000E+00  0.00000000E+00  0.00000000E+00
  0.00000000E+00  0.00000000E+00  0.00000000E+00
  0.00000000E+00  0.00000000E+00  0.00000000E+00
  0.00000000E+00  0.00000000E+00  0.00000000E+00
  0.00000000E+00  0.00000000E+00  0.00000000E+00
  0.00000000E+00  0.00000000E+00  0.00000000E+00
  0.00000000E+00  0.00000000E+00  0.00000000E+00
  0.00000000E+00  0.00000000E+00  0.00000000E+00
  0.00000000E+00  0.00000000E+00  0.00000000E+00
  0.00000000E+00  0.00000000E+00  0.00000000E+00
  0.00000000E+00  0.00000000E+00  0.00000000E+00
  0.00000000E+00  0.00000000E+00  0.00000000E+00
  0.00000000E+00  0.00000000E+00  0.00000000E+00
  0.00000000E+00  0.00000000E+00  0.00000000E+00
  0.00000000E+00  0.00000000E+00  0.00000000E+00
  0.00000000E+00  0.00000000E+00  0.00000000E+00
  0.00000000E+00  0.00000000E+00  0.00000000E+00
  0.00000000E+00  0.00000000E+00  0.00000000E+00
  0.00000000E+00  0.00000000E+00  0.00000000E+00
  0.00000000E+00  0.00000000E+00  0.00000000E+00
  0.00000000E+00  0.00000000E+00  0.00000000E+00
  0.00000000E+00  0.00000000E+00  0.00000000E+00
  0.00000000E+00  0.00000000E+00  0.00000000E+00
  0.00000000E+00  0.00000000E+00  0.00000000E+00
  0.00000000E+00  0.00000000E+00  0.00000000E+00
  0.00000000E+00  0.00000000E+00  0.00000000E+00
  0.00000000E+00  0.00000000E+00  0.00000000E+00
