Title                                   
   1.00000000000000     
     9.8694509999999998    0.0000000000000000    0.0000000000000000
     0.0000000000000000    8.5490480000000009    0.0000000000000000
     0.0000000000000000    0.0000000000000000   20.0000000000000000
    26     4     1
Selective dynamics
Direct
  0.0552291483460338  0.0888701658297890  0.0875179422362310   T   T   T
  0.9305961305447922  0.1714146384827461  0.0903670360893043   T   T   T
  0.0568640113123209  0.9234901101003240  0.0880010933985533   T   T   T
  0.9350420399551022  0.3382387327959824  0.0901929384535543   T   T   T
  0.0580602595435684  0.5894940504925217  0.0849649184105941   T   T   T
  0.9354371087030322  0.6737992908274195  0.0907728108728700   T   T   T
  0.0580117518308355  0.4227242513194733  0.0846502227903897   T   T   T
  0.9315859399388278  0.8402706529147488  0.0910268230443882   T   T   T
  0.3052701810869767  0.0871100081272809  0.0914559662235160   T   T   T
  0.1812341318182852  0.1717435328982060  0.0870866522661225   T   T   T
  0.1808194090971343  0.3382591039045602  0.0851755410676446   T   T   T
  0.3038130637555668  0.5901197274372656  0.0908194124327130   T   T   T
  0.1811555768944907  0.6737991678214247  0.0856155177397831   T   T   T
  0.3038112149701064  0.4212298332518094  0.0903156727974464   T   T   T
  0.1809234571299470  0.8396398527933736  0.0878879872976815   T   T   T
  0.4282662896933487  0.1740072403169817  0.0975473833346024   T   T   T
  0.5518960047598470  0.9219158029618858  0.1021653045606841   T   T   T
  0.4274255593567488  0.8390807143757535  0.0987647059050832   T   T   T
  0.8043223465275094  0.0889290762038025  0.0953686151493706   T   T   T
  0.6797442118265334  0.1767524987373987  0.1018875111054629   T   T   T
  0.8056804468112567  0.9226362829360765  0.0959529242077390   T   T   T
  0.6914577504955396  0.3390718811669024  0.1072581816280174   T   T   T
  0.8150165985210183  0.5900349889826932  0.0997463364073058   T   T   T
  0.6930540246241426  0.6734628582165660  0.1080758157463075   T   T   T
  0.8149011284164632  0.4215304131791708  0.0993919891889859   T   T   T
  0.6800721965329868  0.8369442459779086  0.1030476425603489   T   T   T
  0.5529850912991128  0.0932083856123493  0.1016092068509437   T   T   T
  0.4210807960837853  0.3325245008516753  0.0992012301411710   T   T   T
  0.4193630001515088  0.6794703865587769  0.1011458236134514   T   T   T
  0.3044957190242821  0.9236036424712820  0.0918667505824575   T   T   T
  0.5555204109489136  0.5074989624538577  0.1120850438973250   T   T   T
 
  0.00000000E+00  0.00000000E+00  0.00000000E+00
  0.00000000E+00  0.00000000E+00  0.00000000E+00
  0.00000000E+00  0.00000000E+00  0.00000000E+00
  0.00000000E+00  0.00000000E+00  0.00000000E+00
  0.00000000E+00  0.00000000E+00  0.00000000E+00
  0.00000000E+00  0.00000000E+00  0.00000000E+00
  0.00000000E+00  0.00000000E+00  0.00000000E+00
  0.00000000E+00  0.00000000E+00  0.00000000E+00
  0.00000000E+00  0.00000000E+00  0.00000000E+00
  0.00000000E+00  0.00000000E+00  0.00000000E+00
  0.00000000E+00  0.00000000E+00  0.00000000E+00
  0.00000000E+00  0.00000000E+00  0.00000000E+00
  0.00000000E+00  0.00000000E+00  0.00000000E+00
  0.00000000E+00  0.00000000E+00  0.00000000E+00
  0.00000000E+00  0.00000000E+00  0.00000000E+00
  0.00000000E+00  0.00000000E+00  0.00000000E+00
  0.00000000E+00  0.00000000E+00  0.00000000E+00
  0.00000000E+00  0.00000000E+00  0.00000000E+00
  0.00000000E+00  0.00000000E+00  0.00000000E+00
  0.00000000E+00  0.00000000E+00  0.00000000E+00
  0.00000000E+00  0.00000000E+00  0.00000000E+00
  0.00000000E+00  0.00000000E+00  0.00000000E+00
  0.00000000E+00  0.00000000E+00  0.00000000E+00
  0.00000000E+00  0.00000000E+00  0.00000000E+00
  0.00000000E+00  0.00000000E+00  0.00000000E+00
  0.00000000E+00  0.00000000E+00  0.00000000E+00
  0.00000000E+00  0.00000000E+00  0.00000000E+00
  0.00000000E+00  0.00000000E+00  0.00000000E+00
  0.00000000E+00  0.00000000E+00  0.00000000E+00
  0.00000000E+00  0.00000000E+00  0.00000000E+00
  0.00000000E+00  0.00000000E+00  0.00000000E+00
