Title                                   
   1.00000000000000     
     9.8694509999999998    0.0000000000000000    0.0000000000000000
     0.0000000000000000    8.5490480000000009    0.0000000000000000
     0.0000000000000000    0.0000000000000000   20.0000000000000000
    26     4     1
Selective dynamics
Direct
  0.0562346278753422  0.0894625703622093  0.0939283882243651   T   T   T
  0.9318753466138184  0.1721245652630699  0.0941370526896003   T   T   T
  0.0562286453152957  0.9228764614188539  0.0939244260903238   T   T   T
  0.9332545370351333  0.3395298410284226  0.0940363729049505   T   T   T
  0.0562278919393850  0.5890458283214760  0.0936921223436234   T   T   T
  0.9332569491178250  0.6728019754236413  0.0940283332226160   T   T   T
  0.0562199732636231  0.4233129596352260  0.0936936152324749   T   T   T
  0.9318755673274638  0.8402108889752952  0.0941296588922079   T   T   T
  0.3058176705476067  0.0901204045883808  0.0948498486094119   T   T   T
  0.1805852971203784  0.1721350789832481  0.0941970355995704   T   T   T
  0.3058140207332112  0.9221974672515846  0.0948535826597116   T   T   T
  0.1791835725695684  0.3395394847584648  0.0941111525155858   T   T   T
  0.3024457815151512  0.5918093239644883  0.0949175006351523   T   T   T
  0.1792043292336115  0.6727992711407476  0.0941254628186130   T   T   T
  0.3024653896234912  0.4204544852208295  0.0948942152362096   T   T   T
  0.1805705843564440  0.8402121067777225  0.0942052436592516   T   T   T
  0.5562205408009784  0.0927680155675826  0.0958722858497502   T   T   T
  0.4291625559089495  0.1769582300554033  0.0955851485404074   T   T   T
  0.5562092226841187  0.9195038676560107  0.0958689670951066   T   T   T
  0.4291332864083141  0.8353259548579038  0.0955907667956596   T   T   T
  0.8066454533715522  0.0901109613851922  0.0947962202448074   T   T   T
  0.6833042181884084  0.1769532065018291  0.0955493775302825   T   T   T
  0.8066287986987418  0.9221929117479092  0.0947886717939162   T   T   T
  0.8100229208588857  0.5918329750393518  0.0947796938818778   T   T   T
  0.8099954681998467  0.4204806827619442  0.0947949009779880   T   T   T
  0.6832984749822021  0.8353394972225345  0.0955244340845164   T   T   T
  0.4224248803277228  0.3388453332013791  0.0957793014128949   T   T   T
  0.4224054477888483  0.6734521340204487  0.0958103215599732   T   T   T
  0.6900802651702399  0.3388391610410679  0.0957187549710247   T   T   T
  0.6900906198230917  0.6734670688037783  0.0956962244935803   T   T   T
  0.5562536626007576  0.5061722870240029  0.0970859194345877   T   T   T
 
  0.00000000E+00  0.00000000E+00  0.00000000E+00
  0.00000000E+00  0.00000000E+00  0.00000000E+00
  0.00000000E+00  0.00000000E+00  0.00000000E+00
  0.00000000E+00  0.00000000E+00  0.00000000E+00
  0.00000000E+00  0.00000000E+00  0.00000000E+00
  0.00000000E+00  0.00000000E+00  0.00000000E+00
  0.00000000E+00  0.00000000E+00  0.00000000E+00
  0.00000000E+00  0.00000000E+00  0.00000000E+00
  0.00000000E+00  0.00000000E+00  0.00000000E+00
  0.00000000E+00  0.00000000E+00  0.00000000E+00
  0.00000000E+00  0.00000000E+00  0.00000000E+00
  0.00000000E+00  0.00000000E+00  0.00000000E+00
  0.00000000E+00  0.00000000E+00  0.00000000E+00
  0.00000000E+00  0.00000000E+00  0.00000000E+00
  0.00000000E+00  0.00000000E+00  0.00000000E+00
  0.00000000E+00  0.00000000E+00  0.00000000E+00
  0.00000000E+00  0.00000000E+00  0.00000000E+00
  0.00000000E+00  0.00000000E+00  0.00000000E+00
  0.00000000E+00  0.00000000E+00  0.00000000E+00
  0.00000000E+00  0.00000000E+00  0.00000000E+00
  0.00000000E+00  0.00000000E+00  0.00000000E+00
  0.00000000E+00  0.00000000E+00  0.00000000E+00
  0.00000000E+00  0.00000000E+00  0.00000000E+00
  0.00000000E+00  0.00000000E+00  0.00000000E+00
  0.00000000E+00  0.00000000E+00  0.00000000E+00
  0.00000000E+00  0.00000000E+00  0.00000000E+00
  0.00000000E+00  0.00000000E+00  0.00000000E+00
  0.00000000E+00  0.00000000E+00  0.00000000E+00
  0.00000000E+00  0.00000000E+00  0.00000000E+00
  0.00000000E+00  0.00000000E+00  0.00000000E+00
  0.00000000E+00  0.00000000E+00  0.00000000E+00
