Title                                   
   1.00000000000000     
     9.8694509999999998    0.0000000000000000    0.0000000000000000
     0.0000000000000000    8.5490480000000009    0.0000000000000000
     0.0000000000000000    0.0000000000000000   20.0000000000000000
    30     1     1
Selective dynamics
Direct
  0.0562412252933160  0.0900340018072533  0.0804594889909721   T   T   T
  0.9310319155835185  0.1733637472770937  0.0827162096794009   T   T   T
  0.0562346116460203  0.9229390339979398  0.0814381260593001   T   T   T
  0.9302699664271641  0.3405172021398838  0.0862897278185939   T   T   T
  0.0562337279449210  0.5892538044608426  0.0849890126477428   T   T   T
  0.9312371637870533  0.6725656804426654  0.0878313555816770   T   T   T
  0.0562292213521991  0.4233391886349488  0.0849397303444399   T   T   T
  0.9309052598748003  0.8395943210129434  0.0847030945084633   T   T   T
  0.3054941193070780  0.0894508963228095  0.0851660729876840   T   T   T
  0.1814447264939778  0.1733698157816890  0.0826884598885684   T   T   T
  0.3067694012507412  0.9234682025435631  0.0869498350495200   T   T   T
  0.1821915347484021  0.3405077548341441  0.0862579598582991   T   T   T
  0.3039554113260582  0.5910261344865099  0.1001516393412530   T   T   T
  0.1812370180119279  0.6725647383091612  0.0877911273469088   T   T   T
  0.3065280821635349  0.4226215697231384  0.0971741242770501   T   T   T
  0.1815669322969481  0.8396079411359788  0.0846828898812333   T   T   T
  0.5562329968603910  0.0859276923028595  0.0938247367018136   T   T   T
  0.4306236153191455  0.1698475932061357  0.0923013809512739   T   T   T
  0.4306462275918196  0.3343259894962818  0.1022792278848389   T   T   T
  0.4216845846377871  0.6816121898614910  0.1186577886265912   T   T   T
  0.5562285094650727  0.4064855126404123  0.1203902465375413   T   T   T
  0.4301444585650911  0.8419458470748070  0.0992576756308177   T   T   T
  0.8069890279723676  0.0894258545704596  0.0852102879520208   T   T   T
  0.6818722166341341  0.1698305497708621  0.0923455957416457   T   T   T
  0.8057045346804375  0.9234502479209135  0.0869897577197917   T   T   T
  0.6818419516518789  0.3343101369827049  0.1023286116702944   T   T   T
  0.8085382705396043  0.5910362300910607  0.1002264094747178   T   T   T
  0.6908376118639484  0.6816257463095046  0.1187252918846112   T   T   T
  0.8059497912493133  0.4226293222888017  0.0972405598693421   T   T   T
  0.6823302989155505  0.8419380241390202  0.0992939630170791   T   T   T
  0.5562338521850961  0.9226709748043816  0.0982858798822145   T   T   T
  0.5562107343607067  0.5889600556297500  0.1740887321943339   T   T   T
 
  0.00000000E+00  0.00000000E+00  0.00000000E+00
  0.00000000E+00  0.00000000E+00  0.00000000E+00
  0.00000000E+00  0.00000000E+00  0.00000000E+00
  0.00000000E+00  0.00000000E+00  0.00000000E+00
  0.00000000E+00  0.00000000E+00  0.00000000E+00
  0.00000000E+00  0.00000000E+00  0.00000000E+00
  0.00000000E+00  0.00000000E+00  0.00000000E+00
  0.00000000E+00  0.00000000E+00  0.00000000E+00
  0.00000000E+00  0.00000000E+00  0.00000000E+00
  0.00000000E+00  0.00000000E+00  0.00000000E+00
  0.00000000E+00  0.00000000E+00  0.00000000E+00
  0.00000000E+00  0.00000000E+00  0.00000000E+00
  0.00000000E+00  0.00000000E+00  0.00000000E+00
  0.00000000E+00  0.00000000E+00  0.00000000E+00
  0.00000000E+00  0.00000000E+00  0.00000000E+00
  0.00000000E+00  0.00000000E+00  0.00000000E+00
  0.00000000E+00  0.00000000E+00  0.00000000E+00
  0.00000000E+00  0.00000000E+00  0.00000000E+00
  0.00000000E+00  0.00000000E+00  0.00000000E+00
  0.00000000E+00  0.00000000E+00  0.00000000E+00
  0.00000000E+00  0.00000000E+00  0.00000000E+00
  0.00000000E+00  0.00000000E+00  0.00000000E+00
  0.00000000E+00  0.00000000E+00  0.00000000E+00
  0.00000000E+00  0.00000000E+00  0.00000000E+00
  0.00000000E+00  0.00000000E+00  0.00000000E+00
  0.00000000E+00  0.00000000E+00  0.00000000E+00
  0.00000000E+00  0.00000000E+00  0.00000000E+00
  0.00000000E+00  0.00000000E+00  0.00000000E+00
  0.00000000E+00  0.00000000E+00  0.00000000E+00
  0.00000000E+00  0.00000000E+00  0.00000000E+00
  0.00000000E+00  0.00000000E+00  0.00000000E+00
  0.00000000E+00  0.00000000E+00  0.00000000E+00
