Title                                   
   1.00000000000000     
     4.9440799999999996    0.0000000000000000    0.0000000000000000
     0.0000000000000000   17.1295089999999988    0.0000000000000000
     0.0000000000000000    0.0000000000000000   20.0000000000000000
    25     5     1
Selective dynamics
Direct
  0.0010648049472991  0.1057771575040730  0.2980186152285672   T   T   T
  0.2503127670568601  0.1486713196924650  0.2985993294663100   T   T   T
  0.2503066674395882  0.2334913356236243  0.3000029018015624   T   T   T
 -0.0021613248821513  0.2747460963356715  0.3007474507485416   T   T   T
 -0.0015383480565067  0.6003516539642648  0.3009378530573223   T   T   T
  0.2503070065962080  0.7261240964829287  0.2988288947780796   T   T   T
  0.0016011137804906  0.8525890838713277  0.2973607195654372   T   T   T
  0.2503399098881826  0.8949896883318242  0.2970405462570970   T   T   T
  0.2503416846803435  0.9793356961970811  0.2969274248295053   T   T   T
  0.0022389074473528  0.7681209510804007  0.2982641621992538   T   T   T
  0.4995843043981236  0.1057758681421170  0.2980230754458130   T   T   T
  0.7503165979103376  0.1478202915286822  0.2985974173512363   T   T   T
  0.7503288937528920  0.2312660339703638  0.2999793168102139   T   T   T
  0.4999757071755971  0.0215655039012247  0.2972050619258747   T   T   T
  0.7503228713357991  0.3959863402038997  0.3025219170613485   T   T   T
  0.7503251015562679  0.4804660126090725  0.3027582565638687   T   T   T
  0.5028060493135760  0.2747462144191782  0.3007623786619085   T   T   T
  0.5022076250460544  0.6003528175537687  0.3009505418595347   T   T   T
  0.7503113121723128  0.7268198330270971  0.2988539027552962   T   T   T
  0.4990444855958325  0.8525936528416780  0.2973629060778308   T   T   T
  0.7503252944516304  0.8947624178865844  0.2971030751259300   T   T   T
  0.7503300434121248  0.9790045402204964  0.2970153264834172   T   T   T
  0.4984038345832777  0.7681231679409063  0.2982689696255358   T   T   T
  0.7503233071053004  0.6445791337337444  0.3001726692842241   T   T   T
  0.0006824770686100  0.0215663264465068  0.2972015949846576   T   T   T
  0.5126419817952947  0.5222311813739878  0.3023717660908624   T   T   T
  0.9880044352797936  0.5222254359442835  0.3023431099610902   T   T   T
  0.5153993588829693  0.3544648203169612  0.3022029915434883   T   T   T
 -0.0147638614118542  0.3544594107994239  0.3021761056921474   T   T   T
  0.2502996998263050  0.6408780687356298  0.3000755661611904   T   T   T
  0.2503242918520908  0.4374578493207273  0.3023861526028063   T   T   T
 
  0.00000000E+00  0.00000000E+00  0.00000000E+00
  0.00000000E+00  0.00000000E+00  0.00000000E+00
  0.00000000E+00  0.00000000E+00  0.00000000E+00
  0.00000000E+00  0.00000000E+00  0.00000000E+00
  0.00000000E+00  0.00000000E+00  0.00000000E+00
  0.00000000E+00  0.00000000E+00  0.00000000E+00
  0.00000000E+00  0.00000000E+00  0.00000000E+00
  0.00000000E+00  0.00000000E+00  0.00000000E+00
  0.00000000E+00  0.00000000E+00  0.00000000E+00
  0.00000000E+00  0.00000000E+00  0.00000000E+00
  0.00000000E+00  0.00000000E+00  0.00000000E+00
  0.00000000E+00  0.00000000E+00  0.00000000E+00
  0.00000000E+00  0.00000000E+00  0.00000000E+00
  0.00000000E+00  0.00000000E+00  0.00000000E+00
  0.00000000E+00  0.00000000E+00  0.00000000E+00
  0.00000000E+00  0.00000000E+00  0.00000000E+00
  0.00000000E+00  0.00000000E+00  0.00000000E+00
  0.00000000E+00  0.00000000E+00  0.00000000E+00
  0.00000000E+00  0.00000000E+00  0.00000000E+00
  0.00000000E+00  0.00000000E+00  0.00000000E+00
  0.00000000E+00  0.00000000E+00  0.00000000E+00
  0.00000000E+00  0.00000000E+00  0.00000000E+00
  0.00000000E+00  0.00000000E+00  0.00000000E+00
  0.00000000E+00  0.00000000E+00  0.00000000E+00
  0.00000000E+00  0.00000000E+00  0.00000000E+00
  0.00000000E+00  0.00000000E+00  0.00000000E+00
  0.00000000E+00  0.00000000E+00  0.00000000E+00
  0.00000000E+00  0.00000000E+00  0.00000000E+00
  0.00000000E+00  0.00000000E+00  0.00000000E+00
  0.00000000E+00  0.00000000E+00  0.00000000E+00
  0.00000000E+00  0.00000000E+00  0.00000000E+00
