Title                                   
   1.00000000000000     
     4.9440799999999996    0.0000000000000000    0.0000000000000000
     0.0000000000000000    8.5647549999999999    0.0000000000000000
     0.0000000000000000    0.0000000000000000   20.0000000000000000
    12     2     1
Selective dynamics
Direct
  0.0049731433862490  0.2904449487965686  0.0923480620385818   T   T   T
  0.2573514903073402  0.0402005554081522  0.0960894786181167   T   T   T
  0.0075417870920832  0.9586848401406355  0.0917559009201857   T   T   T
  0.7509187942903898  0.2074420267576623  0.0927123357310436   T   T   T
  0.5000605511845930  0.2956227226364927  0.0991737518730070   T   T   T
  0.7529607696853269  0.0402399998638485  0.0928843975122217   T   T   T
  0.7525123234877480  0.7119400172901224  0.0992781626703759   T   T   T
  0.7504506734884878  0.5404616874975531  0.1005215661921202   T   T   T
  0.5062734207308184  0.9537729437102799  0.1001735881089203   T   T   T
  0.4981965974853044  0.4605421611807237  0.1096586128861737   T   T   T
 -0.0006081036658952  0.4552121021133941  0.0947684409874104   T   T   T
 -0.0022860760042971  0.7927187965860858  0.0915825486275149   T   T   T
  0.5099730854973207  0.7910298802224258  0.1115781537275554   T   T   T
  0.2554217695190098  0.2075822392881258  0.0955850380406550   T   T   T
  0.2062597735155212  0.6257860785079317  0.1398699620661209   T   T   T
 
  0.00000000E+00  0.00000000E+00  0.00000000E+00
  0.00000000E+00  0.00000000E+00  0.00000000E+00
  0.00000000E+00  0.00000000E+00  0.00000000E+00
  0.00000000E+00  0.00000000E+00  0.00000000E+00
  0.00000000E+00  0.00000000E+00  0.00000000E+00
  0.00000000E+00  0.00000000E+00  0.00000000E+00
  0.00000000E+00  0.00000000E+00  0.00000000E+00
  0.00000000E+00  0.00000000E+00  0.00000000E+00
  0.00000000E+00  0.00000000E+00  0.00000000E+00
  0.00000000E+00  0.00000000E+00  0.00000000E+00
  0.00000000E+00  0.00000000E+00  0.00000000E+00
  0.00000000E+00  0.00000000E+00  0.00000000E+00
  0.00000000E+00  0.00000000E+00  0.00000000E+00
  0.00000000E+00  0.00000000E+00  0.00000000E+00
  0.00000000E+00  0.00000000E+00  0.00000000E+00
