Title                                   
   1.00000000000000     
     8.5490480000000009    0.0000000000000000    0.0000000000000000
     0.0000000000000000    8.5490480000000009    0.0000000000000000
     0.0000000000000000    0.0000000000000000   20.0000000000000000
    19     5     1
Selective dynamics
Direct
  0.9074266675251121  0.2074192526378834  0.0975647720938728   T   T   T
  0.9109767362860340  0.8000593819393708  0.0976715312372889   T   T   T
  0.1974774162462450  0.0831206506961451  0.0977189282851629   T   T   T
  0.0762931283210049  0.2022452623762724  0.0976837629505002   T   T   T
  0.1594135670586288  0.6486178020319154  0.0977753842248216   T   T   T
  0.0776301006054711  0.5005939306431753  0.0977960450387695   T   T   T
  0.1584341754285487  0.3512860342508127  0.0978431136930239   T   T   T
  0.0798315835564150  0.7982187627633496  0.0976799286034815   T   T   T
  0.3442488462630190  0.1657323704784312  0.0978331197471151   T   T   T
  0.4930831431276860  0.9182913290591789  0.0977862544139009   T   T   T
  0.3464073034602810  0.8348479896459569  0.0977684757953873   T   T   T
  0.7862644618998408  0.0872167980532642  0.0975852615397387   T   T   T
  0.6369085050951421  0.1702212651236205  0.0976378220777182   T   T   T
  0.7889890397045778  0.9192705158740817  0.0976776428195107   T   T   T
  0.8286428103767932  0.6509315881652332  0.0977691441147971   T   T   T
  0.8252798079019956  0.3571444705011410  0.0976061309563211   T   T   T
  0.6414155910965906  0.8365162894468405  0.0978084073996708   T   T   T
  0.3268961689889696  0.6699267517113325  0.0977881897898760   T   T   T
  0.6568760620866128  0.3382212092761214  0.0976438632239840   T   T   T
  0.4930435832481967  0.0871303483432191  0.0978176836005240   T   T   T
  0.9081399246921792  0.5024776297377496  0.0977779484236145   T   T   T
  0.3237090826422657  0.3281776515883737  0.0979772868937044   T   T   T
  0.6660046883694437  0.6707343345417457  0.0978870948158638   T   T   T
  0.1969804229123011  0.9152076872261347  0.0977242635939055   T   T   T
  0.4950391831066312  0.5011806938886645  0.0978829446674265   T   T   T
 
  0.00000000E+00  0.00000000E+00  0.00000000E+00
  0.00000000E+00  0.00000000E+00  0.00000000E+00
  0.00000000E+00  0.00000000E+00  0.00000000E+00
  0.00000000E+00  0.00000000E+00  0.00000000E+00
  0.00000000E+00  0.00000000E+00  0.00000000E+00
  0.00000000E+00  0.00000000E+00  0.00000000E+00
  0.00000000E+00  0.00000000E+00  0.00000000E+00
  0.00000000E+00  0.00000000E+00  0.00000000E+00
  0.00000000E+00  0.00000000E+00  0.00000000E+00
  0.00000000E+00  0.00000000E+00  0.00000000E+00
  0.00000000E+00  0.00000000E+00  0.00000000E+00
  0.00000000E+00  0.00000000E+00  0.00000000E+00
  0.00000000E+00  0.00000000E+00  0.00000000E+00
  0.00000000E+00  0.00000000E+00  0.00000000E+00
  0.00000000E+00  0.00000000E+00  0.00000000E+00
  0.00000000E+00  0.00000000E+00  0.00000000E+00
  0.00000000E+00  0.00000000E+00  0.00000000E+00
  0.00000000E+00  0.00000000E+00  0.00000000E+00
  0.00000000E+00  0.00000000E+00  0.00000000E+00
  0.00000000E+00  0.00000000E+00  0.00000000E+00
  0.00000000E+00  0.00000000E+00  0.00000000E+00
  0.00000000E+00  0.00000000E+00  0.00000000E+00
  0.00000000E+00  0.00000000E+00  0.00000000E+00
  0.00000000E+00  0.00000000E+00  0.00000000E+00
  0.00000000E+00  0.00000000E+00  0.00000000E+00
