Title                                   
   1.00000000000000     
     8.5490480000000009    0.0000000000000000    0.0000000000000000
     0.0000000000000000    8.5490480000000009    0.0000000000000000
     0.0000000000000000    0.0000000000000000   20.0000000000000000
    21     3     1
Selective dynamics
Direct
  0.9107155445925903  0.2063327288193042  0.0975325494917428   T   T   T
  0.9125383583789406  0.7994270707222809  0.0976092568484083   T   T   T
  0.1989568145147764  0.0816094083628175  0.0977880634870195   T   T   T
  0.0746807837495186  0.2026993720124486  0.0976667006172434   T   T   T
  0.1578225928009998  0.6496772740451850  0.0979240388921836   T   T   T
  0.0763494190316723  0.5007626014477812  0.0977688518274489   T   T   T
  0.1568185618817049  0.3539429372978132  0.0977822408378310   T   T   T
  0.0776215592372144  0.7994452731254955  0.0977545479885253   T   T   T
  0.3461024901472900  0.1647989203346170  0.0978528477692606   T   T   T
  0.4930188308571314  0.9191824283296663  0.0977650787092000   T   T   T
  0.3453656829090228  0.8368496237089130  0.0979631463184149   T   T   T
  0.7870116251452531  0.0836892563933413  0.0975275354935307   T   T   T
  0.6379406274402476  0.1671549477368067  0.0976083953582911   T   T   T
  0.7888029619236616  0.9204385641076095  0.0975500537930405   T   T   T
  0.8295853089695722  0.6491596927295133  0.0976690751781234   T   T   T
  0.8276537664704798  0.3561645503687685  0.0975498997713756   T   T   T
  0.6389242477745242  0.8375157591957998  0.0976758524963801   T   T   T
  0.3241637362639927  0.3315794897915785  0.0979112983115055   T   T   T
  0.3235439382712196  0.6722991271707183  0.0980881180958173   T   T   T
  0.6610196245465764  0.3345258325480057  0.0976255309887878   T   T   T
  0.6631968844143473  0.6698976576645393  0.0977737249635533   T   T   T
  0.4942954635335721  0.0863468942781884  0.0977897983000713   T   T   T
  0.9090043907024089  0.5017986166415084  0.0976824199140136   T   T   T
  0.1964638670641660  0.9180532396059935  0.0978616576849375   T   T   T
  0.4938149193791022  0.5014387335613125  0.0979843168632742   T   T   T
 
  0.00000000E+00  0.00000000E+00  0.00000000E+00
  0.00000000E+00  0.00000000E+00  0.00000000E+00
  0.00000000E+00  0.00000000E+00  0.00000000E+00
  0.00000000E+00  0.00000000E+00  0.00000000E+00
  0.00000000E+00  0.00000000E+00  0.00000000E+00
  0.00000000E+00  0.00000000E+00  0.00000000E+00
  0.00000000E+00  0.00000000E+00  0.00000000E+00
  0.00000000E+00  0.00000000E+00  0.00000000E+00
  0.00000000E+00  0.00000000E+00  0.00000000E+00
  0.00000000E+00  0.00000000E+00  0.00000000E+00
  0.00000000E+00  0.00000000E+00  0.00000000E+00
  0.00000000E+00  0.00000000E+00  0.00000000E+00
  0.00000000E+00  0.00000000E+00  0.00000000E+00
  0.00000000E+00  0.00000000E+00  0.00000000E+00
  0.00000000E+00  0.00000000E+00  0.00000000E+00
  0.00000000E+00  0.00000000E+00  0.00000000E+00
  0.00000000E+00  0.00000000E+00  0.00000000E+00
  0.00000000E+00  0.00000000E+00  0.00000000E+00
  0.00000000E+00  0.00000000E+00  0.00000000E+00
  0.00000000E+00  0.00000000E+00  0.00000000E+00
  0.00000000E+00  0.00000000E+00  0.00000000E+00
  0.00000000E+00  0.00000000E+00  0.00000000E+00
  0.00000000E+00  0.00000000E+00  0.00000000E+00
  0.00000000E+00  0.00000000E+00  0.00000000E+00
  0.00000000E+00  0.00000000E+00  0.00000000E+00
