Title                                   
   1.00000000000000     
     4.9440799999999996    0.0000000000000000    0.0000000000000000
     0.0000000000000000    8.5647549999999999    0.0000000000000000
     0.0000000000000000    0.0000000000000000   20.0000000000000000
    14     1     1
Selective dynamics
Direct
  0.2500000000000000  0.2091780620448884  0.1006410597765789   T   T   T
  0.9966833713865646  0.2892800125713039  0.1066744858707636   T   T   T
  0.2500000000000000  0.0453211308770912  0.0865933252067510   T   T   T
  0.0072364652133519  0.7944832413030934  0.0824200136823355   T   T   T
  0.0004593808441062  0.9615932118700248  0.0827628571133344   T   T   T
  0.7500000000000000  0.2070196951976579  0.0956661960678185   T   T   T
  0.5033166286134354  0.2892800125713039  0.1066744858707636   T   T   T
  0.7500000000000000  0.0431879784779664  0.0852508406699616   T   T   T
  0.7500000000000000  0.7091876499502832  0.0901931706732256   T   T   T
  0.4927635347866481  0.7944832413030934  0.0824200136823355   T   T   T
  0.7500000000000000  0.5471771056477579  0.1085132085203296   T   T   T
  0.4995406191558939  0.9615932118700248  0.0827628571133344   T   T   T
  0.5211068873782286  0.4499965467300553  0.1236459128572456   T   T   T
  0.9788931126217714  0.4499965467300553  0.1236459128572456   T   T   T
  0.2500000000000000  0.7180005455478481  0.0808096245677012   T   T   T
  0.2500000000000000  0.5302218073075242  0.1838380354702761   T   T   T
 
  0.00000000E+00  0.00000000E+00  0.00000000E+00
  0.00000000E+00  0.00000000E+00  0.00000000E+00
  0.00000000E+00  0.00000000E+00  0.00000000E+00
  0.00000000E+00  0.00000000E+00  0.00000000E+00
  0.00000000E+00  0.00000000E+00  0.00000000E+00
  0.00000000E+00  0.00000000E+00  0.00000000E+00
  0.00000000E+00  0.00000000E+00  0.00000000E+00
  0.00000000E+00  0.00000000E+00  0.00000000E+00
  0.00000000E+00  0.00000000E+00  0.00000000E+00
  0.00000000E+00  0.00000000E+00  0.00000000E+00
  0.00000000E+00  0.00000000E+00  0.00000000E+00
  0.00000000E+00  0.00000000E+00  0.00000000E+00
  0.00000000E+00  0.00000000E+00  0.00000000E+00
  0.00000000E+00  0.00000000E+00  0.00000000E+00
  0.00000000E+00  0.00000000E+00  0.00000000E+00
  0.00000000E+00  0.00000000E+00  0.00000000E+00
