Title                                   
   1.00000000000000     
     9.8694509999999998    0.0000000000000000    0.0000000000000000
     0.0000000000000000    8.5490480000000009    0.0000000000000000
     0.0000000000000000    0.0000000000000000   20.0000000000000000
    29     1     1
Selective dynamics
Direct
  0.0553320315293489  0.0882652611504491  0.0805114782563699   T   T   T
  0.9310621612533897  0.1715152875374515  0.0835337196790366   T   T   T
  0.0563432808854210  0.9224151782487793  0.0808087411459299   T   T   T
  0.9341032586620669  0.3384352811261118  0.0821085117776174   T   T   T
  0.0567041190101834  0.5894023687326593  0.0772682174615287   T   T   T
  0.9340775731199131  0.6744947138421633  0.0830864233329946   T   T   T
  0.0568585886578017  0.4227953043852930  0.0769258305451737   T   T   T
  0.9313916141476922  0.8408336421888435  0.0843375964711463   T   T   T
  0.3047261913373105  0.0898412858302640  0.0923413472383799   T   T   T
  0.1801376794975391  0.1709294365385274  0.0834525756533174   T   T   T
  0.3062769207554208  0.9220061188830806  0.0921722388547130   T   T   T
  0.1792386384393375  0.3369775273429901  0.0817989375619010   T   T   T
  0.3005289599873783  0.5887204280156796  0.0941931356161597   T   T   T
  0.1802808246634692  0.6724149278763657  0.0821197651262520   T   T   T
  0.2993687985394737  0.4179702807619212  0.0951178869902674   T   T   T
  0.1815452693816199  0.8395155344038008  0.0833702950888699   T   T   T
  0.5550371801345657  0.0927308555551732  0.1079563863974678   T   T   T
  0.4252834004927754  0.1775144286336547  0.1046316307006526   T   T   T
  0.5555797721900624  0.9244038095748138  0.1082618145294265   T   T   T
  0.4208910973801585  0.6707067931512842  0.1090921294458670   T   T   T
  0.4287783834131869  0.8373188358793242  0.1036264097744677   T   T   T
  0.8055532291410646  0.0901445643614567  0.0928447303907644   T   T   T
  0.6832743712943469  0.1774871340927605  0.1041751900638993   T   T   T
  0.8063265441014904  0.9224568345005280  0.0936715740801868   T   T   T
  0.6940376038894377  0.3430793723608861  0.1109299420275983   T   T   T
  0.8153097107584723  0.5915538947804122  0.0969122247362319   T   T   T
  0.6935047878778885  0.6708815699514794  0.1139676626907351   T   T   T
  0.8155721037240400  0.4224724286415415  0.0954437632023400   T   T   T
  0.6836972368048193  0.8368933180508993  0.1065111844919108   T   T   T
  0.4149655718783619  0.3377274024613251  0.1108273562855390   T   T   T
  0.5573480970519724  0.5089711811400938  0.1289663003832964   T   T   T
 
  0.00000000E+00  0.00000000E+00  0.00000000E+00
  0.00000000E+00  0.00000000E+00  0.00000000E+00
  0.00000000E+00  0.00000000E+00  0.00000000E+00
  0.00000000E+00  0.00000000E+00  0.00000000E+00
  0.00000000E+00  0.00000000E+00  0.00000000E+00
  0.00000000E+00  0.00000000E+00  0.00000000E+00
  0.00000000E+00  0.00000000E+00  0.00000000E+00
  0.00000000E+00  0.00000000E+00  0.00000000E+00
  0.00000000E+00  0.00000000E+00  0.00000000E+00
  0.00000000E+00  0.00000000E+00  0.00000000E+00
  0.00000000E+00  0.00000000E+00  0.00000000E+00
  0.00000000E+00  0.00000000E+00  0.00000000E+00
  0.00000000E+00  0.00000000E+00  0.00000000E+00
  0.00000000E+00  0.00000000E+00  0.00000000E+00
  0.00000000E+00  0.00000000E+00  0.00000000E+00
  0.00000000E+00  0.00000000E+00  0.00000000E+00
  0.00000000E+00  0.00000000E+00  0.00000000E+00
  0.00000000E+00  0.00000000E+00  0.00000000E+00
  0.00000000E+00  0.00000000E+00  0.00000000E+00
  0.00000000E+00  0.00000000E+00  0.00000000E+00
  0.00000000E+00  0.00000000E+00  0.00000000E+00
  0.00000000E+00  0.00000000E+00  0.00000000E+00
  0.00000000E+00  0.00000000E+00  0.00000000E+00
  0.00000000E+00  0.00000000E+00  0.00000000E+00
  0.00000000E+00  0.00000000E+00  0.00000000E+00
  0.00000000E+00  0.00000000E+00  0.00000000E+00
  0.00000000E+00  0.00000000E+00  0.00000000E+00
  0.00000000E+00  0.00000000E+00  0.00000000E+00
  0.00000000E+00  0.00000000E+00  0.00000000E+00
  0.00000000E+00  0.00000000E+00  0.00000000E+00
  0.00000000E+00  0.00000000E+00  0.00000000E+00
