Title                                   
   1.00000000000000     
     8.5490480000000009    0.0000000000000000    0.0000000000000000
     0.0000000000000000    8.5490480000000009    0.0000000000000000
     0.0000000000000000    0.0000000000000000   20.0000000000000000
    22     2     1
Selective dynamics
Direct
  0.9107646980614897  0.2055743006601460  0.0978796108439676   T   T   T
  0.9063365988846791  0.5045401933642152  0.0979059213964941   T   T   T
  0.9120766988294212  0.8029084201422915  0.0977371266508029   T   T   T
  0.1983777945163565  0.0813698883492001  0.0980858400973260   T   T   T
  0.0739380432365307  0.2031008678454267  0.0980718753569163   T   T   T
  0.1563092581123070  0.6500347990011097  0.0979040371192741   T   T   T
  0.0747070659242162  0.5034380717356808  0.0979470129155724   T   T   T
  0.1568337697222785  0.3561894404637057  0.0981041647713882   T   T   T
  0.0784942318459093  0.8000146987892782  0.0978567085705813   T   T   T
  0.4937242382146639  0.0825246912493555  0.0979198136140174   T   T   T
  0.3456222783376189  0.1620601907210973  0.0980737945924447   T   T   T
  0.4933244877213404  0.9148111125485251  0.0979588259552033   T   T   T
  0.3469233183577176  0.8333221422878423  0.0980584684037869   T   T   T
  0.7885322233770112  0.0845160573274102  0.0977352527288350   T   T   T
  0.6393058130731980  0.1638215977303661  0.0978277857862545   T   T   T
  0.7907801402890934  0.9208325213282689  0.0977305067348090   T   T   T
  0.8297855151983295  0.6545816206598876  0.0978733390328503   T   T   T
  0.8263044538727754  0.3576435650798215  0.0979100187508176   T   T   T
  0.6420960137102318  0.8363373253675707  0.0979157936395687   T   T   T
  0.3193041371006129  0.3295556859876355  0.0980933275169543   T   T   T
  0.3203691261204856  0.6722483363715153  0.0980057532194570   T   T   T
  0.6632710435673629  0.3295566927577224  0.0979082526115416   T   T   T
  0.6690235387313704  0.6782291380558760  0.0980687156280730   T   T   T
  0.1972362347226361  0.9170973684770217  0.0980882469166864   T   T   T
  0.4919712784723564  0.5004812736990444  0.0980448071463598   T   T   T
 
  0.00000000E+00  0.00000000E+00  0.00000000E+00
  0.00000000E+00  0.00000000E+00  0.00000000E+00
  0.00000000E+00  0.00000000E+00  0.00000000E+00
  0.00000000E+00  0.00000000E+00  0.00000000E+00
  0.00000000E+00  0.00000000E+00  0.00000000E+00
  0.00000000E+00  0.00000000E+00  0.00000000E+00
  0.00000000E+00  0.00000000E+00  0.00000000E+00
  0.00000000E+00  0.00000000E+00  0.00000000E+00
  0.00000000E+00  0.00000000E+00  0.00000000E+00
  0.00000000E+00  0.00000000E+00  0.00000000E+00
  0.00000000E+00  0.00000000E+00  0.00000000E+00
  0.00000000E+00  0.00000000E+00  0.00000000E+00
  0.00000000E+00  0.00000000E+00  0.00000000E+00
  0.00000000E+00  0.00000000E+00  0.00000000E+00
  0.00000000E+00  0.00000000E+00  0.00000000E+00
  0.00000000E+00  0.00000000E+00  0.00000000E+00
  0.00000000E+00  0.00000000E+00  0.00000000E+00
  0.00000000E+00  0.00000000E+00  0.00000000E+00
  0.00000000E+00  0.00000000E+00  0.00000000E+00
  0.00000000E+00  0.00000000E+00  0.00000000E+00
  0.00000000E+00  0.00000000E+00  0.00000000E+00
  0.00000000E+00  0.00000000E+00  0.00000000E+00
  0.00000000E+00  0.00000000E+00  0.00000000E+00
  0.00000000E+00  0.00000000E+00  0.00000000E+00
  0.00000000E+00  0.00000000E+00  0.00000000E+00
