Title                                   
   1.00000000000000     
     9.8694509999999998    0.0000000000000000    0.0000000000000000
     0.0000000000000000    8.5490480000000009    0.0000000000000000
     0.0000000000000000    0.0000000000000000   20.0000000000000000
    30     1
Selective dynamics
Direct
  0.0562540060221088  0.0890664313908474  0.0915238831236693   T   T   T
  0.9311717782577162  0.1719510865493853  0.0921685177940301   T   T   T
  0.0562456845233737  0.9232442212694885  0.0915348914641184   T   T   T
  0.9324065295149546  0.3384191911436416  0.0951230959689728   T   T   T
  0.0562301153835241  0.5898539907885929  0.0963260418674230   T   T   T
  0.9324110367347899  0.6738645265617275  0.0951317719283489   T   T   T
  0.0562300536839438  0.4224393444119839  0.0963145521398832   T   T   T
  0.9311620049302903  0.8403424812497579  0.0921771582536189   T   T   T
  0.3069686809529537  0.0900362622994767  0.0900754829034671   T   T   T
  0.1813316979748471  0.1719729240957088  0.0921460477471455   T   T   T
  0.3069582504189228  0.9223009294788314  0.0900783035251429   T   T   T
  0.1800560501232115  0.3384318826511803  0.0951529155208166   T   T   T
  0.3040603953951990  0.5905778733913778  0.0958331867596451   T   T   T
  0.1800371747579048  0.6738810616101100  0.0951753569838099   T   T   T
  0.3040646642091155  0.4216809902874005  0.0958284061419687   T   T   T
  0.1813152116350267  0.8403505119802031  0.0921699625522388   T   T   T
  0.5562569766916242  0.0894960952265574  0.0913567423544471   T   T   T
  0.4319839641055218  0.1758560661795557  0.0915136243633284   T   T   T
  0.5562489402321343  0.9227801488016455  0.0913426599268146   T   T   T
  0.4294112009785880  0.3421210262965456  0.0961854292388489   T   T   T
  0.4293607715761139  0.6702589813563610  0.0961632747625335   T   T   T
  0.4319445895233714  0.8364563036448909  0.0914970379392518   T   T   T
  0.8055305522838896  0.0900210999476061  0.0901512619731202   T   T   T
  0.6805194121882127  0.1758894268909231  0.0916043098261421   T   T   T
  0.8055196724091537  0.9222678652046935  0.0901451344600376   T   T   T
  0.6830617506913289  0.3421660773720065  0.0962994721255696   T   T   T
  0.8083908988285746  0.5905828504610604  0.0958169801185733   T   T   T
  0.6830833880088232  0.6701923186988730  0.0962450838871597   T   T   T
  0.8083986572876692  0.4216998773812490  0.0958428747656710   T   T   T
  0.6805289552659156  0.8364020202059567  0.0915688314142456   T   T   T
  0.5559919354112042  0.5062711331723738  0.1384727081699985   T   T   T
 
  0.00000000E+00  0.00000000E+00  0.00000000E+00
  0.00000000E+00  0.00000000E+00  0.00000000E+00
  0.00000000E+00  0.00000000E+00  0.00000000E+00
  0.00000000E+00  0.00000000E+00  0.00000000E+00
  0.00000000E+00  0.00000000E+00  0.00000000E+00
  0.00000000E+00  0.00000000E+00  0.00000000E+00
  0.00000000E+00  0.00000000E+00  0.00000000E+00
  0.00000000E+00  0.00000000E+00  0.00000000E+00
  0.00000000E+00  0.00000000E+00  0.00000000E+00
  0.00000000E+00  0.00000000E+00  0.00000000E+00
  0.00000000E+00  0.00000000E+00  0.00000000E+00
  0.00000000E+00  0.00000000E+00  0.00000000E+00
  0.00000000E+00  0.00000000E+00  0.00000000E+00
  0.00000000E+00  0.00000000E+00  0.00000000E+00
  0.00000000E+00  0.00000000E+00  0.00000000E+00
  0.00000000E+00  0.00000000E+00  0.00000000E+00
  0.00000000E+00  0.00000000E+00  0.00000000E+00
  0.00000000E+00  0.00000000E+00  0.00000000E+00
  0.00000000E+00  0.00000000E+00  0.00000000E+00
  0.00000000E+00  0.00000000E+00  0.00000000E+00
  0.00000000E+00  0.00000000E+00  0.00000000E+00
  0.00000000E+00  0.00000000E+00  0.00000000E+00
  0.00000000E+00  0.00000000E+00  0.00000000E+00
  0.00000000E+00  0.00000000E+00  0.00000000E+00
  0.00000000E+00  0.00000000E+00  0.00000000E+00
  0.00000000E+00  0.00000000E+00  0.00000000E+00
  0.00000000E+00  0.00000000E+00  0.00000000E+00
  0.00000000E+00  0.00000000E+00  0.00000000E+00
  0.00000000E+00  0.00000000E+00  0.00000000E+00
  0.00000000E+00  0.00000000E+00  0.00000000E+00
  0.00000000E+00  0.00000000E+00  0.00000000E+00
