Title                                   
   1.00000000000000     
     4.9440799999999996    0.0000000000000000    0.0000000000000000
     0.0000000000000000    8.5647549999999999    0.0000000000000000
     0.0000000000000000    0.0000000000000000   20.0000000000000000
    12     2     1
Selective dynamics
Direct
  0.2500000000000000  0.2061632388810872  0.0981454034061614   T   T   T
 -0.0000322087708300  0.2922673486956300  0.0983171188322475   T   T   T
  0.2500000000000000  0.0369336998541951  0.0978542368800044   T   T   T
 -0.0030310047507918  0.9547363652728870  0.0975727902866849   T   T   T
  0.7500000000000000  0.2083297857150586  0.0963331727348603   T   T   T
  0.5000322087708300  0.2922673486956300  0.0983171188322475   T   T   T
  0.7500000000000000  0.0403642208744240  0.0957799465799429   T   T   T
  0.7500000000000000  0.7174741273122318  0.0992424730325003   T   T   T
  0.7500000000000000  0.5410004894026664  0.0989870537607113   T   T   T
  0.5030310047507921  0.9547363652728870  0.0975727902866849   T   T   T
  0.5035711658371271  0.4593148334259125  0.1020133630601701   T   T   T
 -0.0035711658371273  0.4593148334259125  0.1020133630601701   T   T   T
 -0.0125506018787719  0.7932740264670011  0.1001415458940354   T   T   T
  0.5125506018787720  0.7932740264670011  0.1001415458940354   T   T   T
  0.2500000000000000  0.6222302902374778  0.1255480774595471   T   T   T
 
  0.00000000E+00  0.00000000E+00  0.00000000E+00
  0.00000000E+00  0.00000000E+00  0.00000000E+00
  0.00000000E+00  0.00000000E+00  0.00000000E+00
  0.00000000E+00  0.00000000E+00  0.00000000E+00
  0.00000000E+00  0.00000000E+00  0.00000000E+00
  0.00000000E+00  0.00000000E+00  0.00000000E+00
  0.00000000E+00  0.00000000E+00  0.00000000E+00
  0.00000000E+00  0.00000000E+00  0.00000000E+00
  0.00000000E+00  0.00000000E+00  0.00000000E+00
  0.00000000E+00  0.00000000E+00  0.00000000E+00
  0.00000000E+00  0.00000000E+00  0.00000000E+00
  0.00000000E+00  0.00000000E+00  0.00000000E+00
  0.00000000E+00  0.00000000E+00  0.00000000E+00
  0.00000000E+00  0.00000000E+00  0.00000000E+00
  0.00000000E+00  0.00000000E+00  0.00000000E+00
