Title                                   
   1.00000000000000     
     9.8694509999999998    0.0000000000000000    0.0000000000000000
     0.0000000000000000    8.5490480000000009    0.0000000000000000
     0.0000000000000000    0.0000000000000000   20.0000000000000000
    27     3     1
Selective dynamics
Direct
  0.0555923646000483  0.0883428965032821  0.0906309300623510   T   T   T
  0.9309202115642574  0.1717842195052927  0.0913855791750241   T   T   T
  0.0571094779189168  0.9227278370573875  0.0908475749520096   T   T   T
  0.9339318973699369  0.3390502097894089  0.0907807225457969   T   T   T
  0.0572980994292419  0.5897271062583821  0.0891817167972561   T   T   T
  0.9334024697848331  0.6732963335386628  0.0910956543627128   T   T   T
  0.0574603507358015  0.4229681992389258  0.0888480441008175   T   T   T
  0.9316583624818618  0.8399797537086434  0.0917207561859413   T   T   T
  0.3057637070812489  0.0877832573026005  0.0939481049507378   T   T   T
  0.1811912911005651  0.1699276607684612  0.0912210396402841   T   T   T
  0.1804328837181317  0.3377499692928729  0.0904392583663999   T   T   T
  0.3048280671104731  0.5879999436879910  0.0946535846440027   T   T   T
  0.1818434176606679  0.6724625665020780  0.0908708543707796   T   T   T
  0.3025888026101519  0.4182141192067786  0.0944288696267113   T   T   T
  0.1824181224783752  0.8399347736663619  0.0916449487308700   T   T   T
  0.4294890641330177  0.1760694143452591  0.0976408853524439   T   T   T
  0.5539774909367754  0.9254603807544818  0.0990389242925321   T   T   T
  0.4277427978295545  0.6729027788117802  0.1000907136213679   T   T   T
  0.4298820591221962  0.8390046368119725  0.0981845484161390   T   T   T
  0.8048550669704915  0.0893082055364621  0.0941438635034824   T   T   T
  0.6812227354303539  0.1779145714204028  0.0978912520314547   T   T   T
  0.8059418297594731  0.9223968974819113  0.0944558017558502   T   T   T
  0.6864210907972416  0.3414768402858067  0.1005949096571618   T   T   T
  0.8108371133428955  0.5908105815174632  0.0952105219220949   T   T   T
  0.6844828618489769  0.6710431106634526  0.1003641590086082   T   T   T
  0.8120116510635070  0.4213973106069152  0.0951776773792401   T   T   T
  0.6795838780697783  0.8385838292767344  0.0983442885698990   T   T   T
  0.5544544914428070  0.0944206690541334  0.0988977131583502   T   T   T
  0.4236289040310741  0.3359745891270554  0.0995966481828511   T   T   T
  0.3052817539828613  0.9226827340692190  0.0941514472093802   T   T   T
  0.5568826855944993  0.5094796042098412  0.1054840074274978   T   T   T
 
  0.00000000E+00  0.00000000E+00  0.00000000E+00
  0.00000000E+00  0.00000000E+00  0.00000000E+00
  0.00000000E+00  0.00000000E+00  0.00000000E+00
  0.00000000E+00  0.00000000E+00  0.00000000E+00
  0.00000000E+00  0.00000000E+00  0.00000000E+00
  0.00000000E+00  0.00000000E+00  0.00000000E+00
  0.00000000E+00  0.00000000E+00  0.00000000E+00
  0.00000000E+00  0.00000000E+00  0.00000000E+00
  0.00000000E+00  0.00000000E+00  0.00000000E+00
  0.00000000E+00  0.00000000E+00  0.00000000E+00
  0.00000000E+00  0.00000000E+00  0.00000000E+00
  0.00000000E+00  0.00000000E+00  0.00000000E+00
  0.00000000E+00  0.00000000E+00  0.00000000E+00
  0.00000000E+00  0.00000000E+00  0.00000000E+00
  0.00000000E+00  0.00000000E+00  0.00000000E+00
  0.00000000E+00  0.00000000E+00  0.00000000E+00
  0.00000000E+00  0.00000000E+00  0.00000000E+00
  0.00000000E+00  0.00000000E+00  0.00000000E+00
  0.00000000E+00  0.00000000E+00  0.00000000E+00
  0.00000000E+00  0.00000000E+00  0.00000000E+00
  0.00000000E+00  0.00000000E+00  0.00000000E+00
  0.00000000E+00  0.00000000E+00  0.00000000E+00
  0.00000000E+00  0.00000000E+00  0.00000000E+00
  0.00000000E+00  0.00000000E+00  0.00000000E+00
  0.00000000E+00  0.00000000E+00  0.00000000E+00
  0.00000000E+00  0.00000000E+00  0.00000000E+00
  0.00000000E+00  0.00000000E+00  0.00000000E+00
  0.00000000E+00  0.00000000E+00  0.00000000E+00
  0.00000000E+00  0.00000000E+00  0.00000000E+00
  0.00000000E+00  0.00000000E+00  0.00000000E+00
  0.00000000E+00  0.00000000E+00  0.00000000E+00
