Title                                   
   1.00000000000000     
     9.8694509999999998    0.0000000000000000    0.0000000000000000
     0.0000000000000000    8.5490480000000009    0.0000000000000000
     0.0000000000000000    0.0000000000000000   20.0000000000000000
    27     3     1
Selective dynamics
Direct
  0.0563448367692347  0.0903165860134630  0.0943040970423736   T   T   T
  0.9304921358724085  0.1729770807430449  0.0949725669877021   T   T   T
  0.0563914953334066  0.9239961741466305  0.0941291017215415   T   T   T
  0.9329821666434532  0.3398385365308172  0.0939553871286094   T   T   T
  0.0567175228448726  0.5896159952962990  0.0937263501790975   T   T   T
  0.9335254183649334  0.6750311431201781  0.0938872436227490   T   T   T
  0.0569631882335483  0.4233164452175562  0.0941675434318596   T   T   T
  0.9316609610682115  0.8415208393054053  0.0937160687218298   T   T   T
  0.3069189722295624  0.0904198433167876  0.0945322433180644   T   T   T
  0.1809229679716243  0.1721402048665610  0.0941326383519604   T   T   T
  0.3066681642495102  0.9217140657927849  0.0954838202372470   T   T   T
  0.1808371185647458  0.3396045061487085  0.0947557663637171   T   T   T
  0.3033151765979423  0.5906376455011970  0.0953167818954233   T   T   T
  0.1796781276751787  0.6731154706985140  0.0938743156112965   T   T   T
  0.3044182301347168  0.4215621788024149  0.0936780753096349   T   T   T
  0.1808138978949118  0.8405716477919674  0.0947078583549709   T   T   T
  0.5545463742859296  0.0895460824075191  0.0954344792342150   T   T   T
  0.4307288432544472  0.1772846399384656  0.0931360648988446   T   T   T
  0.5551941753090905  0.9169421247023084  0.0956760650748413   T   T   T
  0.4294546635464092  0.8319051421844325  0.0969885073917309   T   T   T
  0.8047788319152209  0.0906898424119383  0.0961143010084147   T   T   T
  0.6796390041486322  0.1771682504761692  0.0978652169354950   T   T   T
  0.8053293958506526  0.9218285720663384  0.0945937689093779   T   T   T
  0.6867746885291256  0.3430160223185932  0.1016097174693264   T   T   T
  0.8110012446602015  0.5933163405615111  0.0937004878757578   T   T   T
  0.8096348496516547  0.4246323852180420  0.0952309732732413   T   T   T
  0.6821937112009547  0.8325699773467279  0.0942312745489786   T   T   T
  0.4263881424443620  0.3417337820282053  0.0881494850661895   T   T   T
  0.6893996668493451  0.6697625605711900  0.0913520423341045   T   T   T
  0.4236192150498459  0.6697229115773929  0.1003463831532745   T   T   T
  0.5558018128558785  0.5043780028988480  0.0971963745481721   T   T   T
 
  0.00000000E+00  0.00000000E+00  0.00000000E+00
  0.00000000E+00  0.00000000E+00  0.00000000E+00
  0.00000000E+00  0.00000000E+00  0.00000000E+00
  0.00000000E+00  0.00000000E+00  0.00000000E+00
  0.00000000E+00  0.00000000E+00  0.00000000E+00
  0.00000000E+00  0.00000000E+00  0.00000000E+00
  0.00000000E+00  0.00000000E+00  0.00000000E+00
  0.00000000E+00  0.00000000E+00  0.00000000E+00
  0.00000000E+00  0.00000000E+00  0.00000000E+00
  0.00000000E+00  0.00000000E+00  0.00000000E+00
  0.00000000E+00  0.00000000E+00  0.00000000E+00
  0.00000000E+00  0.00000000E+00  0.00000000E+00
  0.00000000E+00  0.00000000E+00  0.00000000E+00
  0.00000000E+00  0.00000000E+00  0.00000000E+00
  0.00000000E+00  0.00000000E+00  0.00000000E+00
  0.00000000E+00  0.00000000E+00  0.00000000E+00
  0.00000000E+00  0.00000000E+00  0.00000000E+00
  0.00000000E+00  0.00000000E+00  0.00000000E+00
  0.00000000E+00  0.00000000E+00  0.00000000E+00
  0.00000000E+00  0.00000000E+00  0.00000000E+00
  0.00000000E+00  0.00000000E+00  0.00000000E+00
  0.00000000E+00  0.00000000E+00  0.00000000E+00
  0.00000000E+00  0.00000000E+00  0.00000000E+00
  0.00000000E+00  0.00000000E+00  0.00000000E+00
  0.00000000E+00  0.00000000E+00  0.00000000E+00
  0.00000000E+00  0.00000000E+00  0.00000000E+00
  0.00000000E+00  0.00000000E+00  0.00000000E+00
  0.00000000E+00  0.00000000E+00  0.00000000E+00
  0.00000000E+00  0.00000000E+00  0.00000000E+00
  0.00000000E+00  0.00000000E+00  0.00000000E+00
  0.00000000E+00  0.00000000E+00  0.00000000E+00
