Title                                   
   1.00000000000000     
     8.5490480000000009    0.0000000000000000    0.0000000000000000
     0.0000000000000000    8.5490480000000009    0.0000000000000000
     0.0000000000000000    0.0000000000000000   20.0000000000000000
    23     1     1
Selective dynamics
Direct
  0.9096351663440063  0.2061291534543336  0.0949946945739144   T   T   T
  0.9101890474872274  0.5028321099842344  0.0961669713379460   T   T   T
  0.9114223936121028  0.8000194483016838  0.0950243143751352   T   T   T
  0.1987786370329012  0.0829550243671899  0.0950677032808807   T   T   T
  0.0746806434919845  0.2037719877347277  0.0948972197024749   T   T   T
  0.1594940304891438  0.6489761143957187  0.0970660503116669   T   T   T
  0.0777690156710605  0.5017728892444762  0.0963519480658727   T   T   T
  0.1562759629501949  0.3544901399540442  0.0965574287701143   T   T   T
  0.0778263800477294  0.7975214276450598  0.0951048883791503   T   T   T
  0.4928251365107927  0.0864320450578447  0.0965956959744717   T   T   T
  0.3452871502126574  0.1638025427888148  0.0969193533921258   T   T   T
  0.4919883030152474  0.9188323009277946  0.0962483868800172   T   T   T
  0.3457849549481964  0.8376813425448322  0.0970167107533296   T   T   T
  0.7862295070136665  0.0853171547373675  0.0953902623334182   T   T   T
  0.6383159480414734  0.1671210027865835  0.0972215388698582   T   T   T
  0.7867481852196901  0.9200973281665393  0.0950882042459496   T   T   T
  0.8297640153346155  0.6493263162119232  0.0969355282437575   T   T   T
  0.8301132946409544  0.3562575567021526  0.0962039183602475   T   T   T
  0.6383010692230493  0.8372083202431829  0.0966315833955959   T   T   T
  0.3227324099081995  0.3332008377905727  0.1015251589296612   T   T   T
  0.3256229985552579  0.6718971926705168  0.1011974810995703   T   T   T
  0.6628553535692182  0.3361654159419630  0.1011974699234445   T   T   T
  0.6612162571955781  0.6692858593901296  0.1016401518533524   T   T   T
  0.1991056277826779  0.9179290149261494  0.0951141348009240   T   T   T
  0.4924505117023602  0.4957674740321713  0.1175482021471010   T   T   T
 
  0.00000000E+00  0.00000000E+00  0.00000000E+00
  0.00000000E+00  0.00000000E+00  0.00000000E+00
  0.00000000E+00  0.00000000E+00  0.00000000E+00
  0.00000000E+00  0.00000000E+00  0.00000000E+00
  0.00000000E+00  0.00000000E+00  0.00000000E+00
  0.00000000E+00  0.00000000E+00  0.00000000E+00
  0.00000000E+00  0.00000000E+00  0.00000000E+00
  0.00000000E+00  0.00000000E+00  0.00000000E+00
  0.00000000E+00  0.00000000E+00  0.00000000E+00
  0.00000000E+00  0.00000000E+00  0.00000000E+00
  0.00000000E+00  0.00000000E+00  0.00000000E+00
  0.00000000E+00  0.00000000E+00  0.00000000E+00
  0.00000000E+00  0.00000000E+00  0.00000000E+00
  0.00000000E+00  0.00000000E+00  0.00000000E+00
  0.00000000E+00  0.00000000E+00  0.00000000E+00
  0.00000000E+00  0.00000000E+00  0.00000000E+00
  0.00000000E+00  0.00000000E+00  0.00000000E+00
  0.00000000E+00  0.00000000E+00  0.00000000E+00
  0.00000000E+00  0.00000000E+00  0.00000000E+00
  0.00000000E+00  0.00000000E+00  0.00000000E+00
  0.00000000E+00  0.00000000E+00  0.00000000E+00
  0.00000000E+00  0.00000000E+00  0.00000000E+00
  0.00000000E+00  0.00000000E+00  0.00000000E+00
  0.00000000E+00  0.00000000E+00  0.00000000E+00
  0.00000000E+00  0.00000000E+00  0.00000000E+00
