Title                                   
   1.00000000000000     
     4.9440799999999996    0.0000000000000000    0.0000000000000000
     0.0000000000000000   17.1295089999999988    0.0000000000000000
     0.0000000000000000    0.0000000000000000   20.0000000000000000
    28     3     1
Selective dynamics
Direct
  0.0009441975077461  0.1047977647110310  0.2837254067304228   T   T   T
  0.2509728119244151  0.1468963073559874  0.2868382789492907   T   T   T
  0.2516789391291333  0.2299967377001856  0.2957191005549479   T   T   T
  0.0058110729203247  0.3514119418528039  0.3165968223730189   T   T   T
 -0.0005565532829049  0.2713114018897412  0.2999823789481194   T   T   T
 -0.0051685317309918  0.6031835318724902  0.3067095841806459   T   T   T
  0.2489654825410843  0.7273888595335437  0.2932175871406975   T   T   T
  0.0001489714043789  0.8533739688606490  0.2830897815181044   T   T   T
  0.2498364990564169  0.8955036005580168  0.2820123969931740   T   T   T
  0.2502066555633481  0.9791792366408224  0.2808352979121180   T   T   T
 -0.0000502040412242  0.7698124722669449  0.2878812983356164   T   T   T
  0.5005387130695695  0.1047629971938050  0.2839174621330318   T   T   T
  0.7507540747804030  0.1467339689973399  0.2859119138949109   T   T   T
  0.7510525083075346  0.2294402845063276  0.2931577945156896   T   T   T
  0.5003424360139843  0.0211586057230834  0.2811454243119205   T   T   T
  0.4976536836082284  0.3519263243729195  0.3178859163143773   T   T   T
  0.7521862458322094  0.4824707508326364  0.3244354105299667   T   T   T
  0.5036525056428344  0.2713391657178336  0.3008938371975295   T   T   T
  0.5035401401778549  0.6052741732929452  0.3149713361557371   T   T   T
  0.7493941049624429  0.7287373229078251  0.2915548396162756   T   T   T
  0.4993571175492861  0.8534620233218205  0.2836870105156575   T   T   T
  0.7499184306973027  0.8953498381695909  0.2817165463128457   T   T   T
  0.7502913268905330  0.9790991157667236  0.2805610274083110   T   T   T
  0.4987209160757723  0.7698853440997994  0.2891667311247004   T   T   T
  0.7483248294902805  0.6460244264999034  0.3016352414296278   T   T   T
  0.2494799612039035  0.6443847322329789  0.3052722016386666   T   T   T
  0.0003836785874281  0.0212472677019491  0.2809840827852105   T   T   T
  0.5195071838777884  0.5269052826901420  0.3414305280823899   T   T   T
  0.9870011525275931  0.5225892060342774  0.3123529058644206   T   T   T
  0.2511902223313318  0.3852781812225832  0.3327691367024443   T   T   T
  0.7533418514296861  0.3965961524999031  0.3222590663094827   T   T   T
  0.2274025759523126  0.4830300129733886  0.3802486535206008   T   T   T
 
  0.00000000E+00  0.00000000E+00  0.00000000E+00
  0.00000000E+00  0.00000000E+00  0.00000000E+00
  0.00000000E+00  0.00000000E+00  0.00000000E+00
  0.00000000E+00  0.00000000E+00  0.00000000E+00
  0.00000000E+00  0.00000000E+00  0.00000000E+00
  0.00000000E+00  0.00000000E+00  0.00000000E+00
  0.00000000E+00  0.00000000E+00  0.00000000E+00
  0.00000000E+00  0.00000000E+00  0.00000000E+00
  0.00000000E+00  0.00000000E+00  0.00000000E+00
  0.00000000E+00  0.00000000E+00  0.00000000E+00
  0.00000000E+00  0.00000000E+00  0.00000000E+00
  0.00000000E+00  0.00000000E+00  0.00000000E+00
  0.00000000E+00  0.00000000E+00  0.00000000E+00
  0.00000000E+00  0.00000000E+00  0.00000000E+00
  0.00000000E+00  0.00000000E+00  0.00000000E+00
  0.00000000E+00  0.00000000E+00  0.00000000E+00
  0.00000000E+00  0.00000000E+00  0.00000000E+00
  0.00000000E+00  0.00000000E+00  0.00000000E+00
  0.00000000E+00  0.00000000E+00  0.00000000E+00
  0.00000000E+00  0.00000000E+00  0.00000000E+00
  0.00000000E+00  0.00000000E+00  0.00000000E+00
  0.00000000E+00  0.00000000E+00  0.00000000E+00
  0.00000000E+00  0.00000000E+00  0.00000000E+00
  0.00000000E+00  0.00000000E+00  0.00000000E+00
  0.00000000E+00  0.00000000E+00  0.00000000E+00
  0.00000000E+00  0.00000000E+00  0.00000000E+00
  0.00000000E+00  0.00000000E+00  0.00000000E+00
  0.00000000E+00  0.00000000E+00  0.00000000E+00
  0.00000000E+00  0.00000000E+00  0.00000000E+00
  0.00000000E+00  0.00000000E+00  0.00000000E+00
  0.00000000E+00  0.00000000E+00  0.00000000E+00
  0.00000000E+00  0.00000000E+00  0.00000000E+00
