Title                                   
   1.00000000000000     
     4.9440799999999996    0.0000000000000000    0.0000000000000000
     0.0000000000000000    8.5647549999999999    0.0000000000000000
     0.0000000000000000    0.0000000000000000   20.0000000000000000
    10     4     1
Selective dynamics
Direct
  0.2500000000000000  0.2111769880619334  0.1003320809851813   T   T   T
 -0.0020108112585931  0.2944199369873139  0.1003585220128244   T   T   T
  0.2500000000000000  0.0383261381434115  0.1003577596974519   T   T   T
 -0.0020462623557222  0.9551168632133253  0.1003777581011231   T   T   T
  0.7500000000000000  0.2081655964602462  0.1001264571175422   T   T   T
  0.5020108112585929  0.2944199369873139  0.1003585220128244   T   T   T
  0.7500000000000000  0.0414669429570347  0.1001247324416814   T   T   T
  0.7500000000000000  0.7131786114614596  0.1006975326209610   T   T   T
  0.7500000000000000  0.5363831674122541  0.1006821322127651   T   T   T
  0.5020462623557225  0.9551168632133253  0.1003777581011231   T   T   T
  0.5121816770027167  0.4566213113318383  0.1006908478120580   T   T   T
 -0.0121816770027164  0.4566213113318383  0.1006908478120580   T   T   T
 -0.0122177986526442  0.7929444712778065  0.1007141755119348   T   T   T
  0.5122177986526439  0.7929444712778065  0.1007141755119348   T   T   T
  0.2500000000000000  0.6247783898830938  0.1013766980485398   T   T   T
 
  0.00000000E+00  0.00000000E+00  0.00000000E+00
  0.00000000E+00  0.00000000E+00  0.00000000E+00
  0.00000000E+00  0.00000000E+00  0.00000000E+00
  0.00000000E+00  0.00000000E+00  0.00000000E+00
  0.00000000E+00  0.00000000E+00  0.00000000E+00
  0.00000000E+00  0.00000000E+00  0.00000000E+00
  0.00000000E+00  0.00000000E+00  0.00000000E+00
  0.00000000E+00  0.00000000E+00  0.00000000E+00
  0.00000000E+00  0.00000000E+00  0.00000000E+00
  0.00000000E+00  0.00000000E+00  0.00000000E+00
  0.00000000E+00  0.00000000E+00  0.00000000E+00
  0.00000000E+00  0.00000000E+00  0.00000000E+00
  0.00000000E+00  0.00000000E+00  0.00000000E+00
  0.00000000E+00  0.00000000E+00  0.00000000E+00
  0.00000000E+00  0.00000000E+00  0.00000000E+00
