Title                                   
   1.00000000000000     
     9.8694509999999998    0.0000000000000000    0.0000000000000000
     0.0000000000000000    8.5490480000000009    0.0000000000000000
     0.0000000000000000    0.0000000000000000   20.0000000000000000
    26     4     1
Selective dynamics
Direct
  0.0562058870206478  0.0893756680234435  0.0950006149139255   T   T   T
  0.9311450239007117  0.1718075421426663  0.0949338730312591   T   T   T
  0.0562034698671851  0.9229603107623361  0.0950400541785508   T   T   T
  0.9324550335630971  0.3392101086546583  0.0947024127877243   T   T   T
  0.0562465426610752  0.5892445919199933  0.0947107622723727   T   T   T
  0.9324322177708011  0.6730993569957201  0.0947285184272309   T   T   T
  0.0562515696361326  0.4230616875430100  0.0946897363233874   T   T   T
  0.9311421477029999  0.8405105436967568  0.0949671280873103   T   T   T
  0.3076496009797559  0.0910455041639239  0.0951140318442749   T   T   T
  0.1812857078472285  0.1718018099935821  0.0949739779676333   T   T   T
  0.3076490058222778  0.9212113690841377  0.0951308122564289   T   T   T
  0.1800472904911631  0.3392009470199435  0.0948028924588674   T   T   T
  0.3033643295723216  0.5906659743582954  0.0947592060515696   T   T   T
  0.1800451846893999  0.6730998372671332  0.0948523807033737   T   T   T
  0.3033675603865303  0.4215977028485589  0.0947261401955386   T   T   T
  0.1812824326728259  0.8405040875418831  0.0950432992145607   T   T   T
  0.5562101288093341  0.0938267153746030  0.0951145696326827   T   T   T
  0.4310386389542648  0.1805773305653423  0.0950309846940483   T   T   T
  0.5562087517851203  0.9184986654974773  0.0951227538421666   T   T   T
  0.4310517058407370  0.8317309480817036  0.0950204434645371   T   T   T
  0.8047868673985273  0.0910503397162150  0.0950814550594363   T   T   T
  0.6814001280357567  0.1805675030506557  0.0949662555406808   T   T   T
  0.8047682161618368  0.9212174169584854  0.0950978461680646   T   T   T
  0.8091206023091156  0.5906765349239042  0.0945587509403426   T   T   T
  0.8091354076322105  0.4216023461681295  0.0945538918197827   T   T   T
  0.6813744364838510  0.8317344725321189  0.0949606809420327   T   T   T
  0.4258229974851466  0.3449208811285693  0.0947262695643607   T   T   T
  0.4258194723453965  0.6674141408102484  0.0947460970707770   T   T   T
  0.6866876035863174  0.3449121798427646  0.0946066396324735   T   T   T
  0.6866710824147779  0.6674209357513123  0.0945838808545666   T   T   T
  0.5562669561734613  0.5063275475824266  0.0946186400600807   T   T   T
 
  0.00000000E+00  0.00000000E+00  0.00000000E+00
  0.00000000E+00  0.00000000E+00  0.00000000E+00
  0.00000000E+00  0.00000000E+00  0.00000000E+00
  0.00000000E+00  0.00000000E+00  0.00000000E+00
  0.00000000E+00  0.00000000E+00  0.00000000E+00
  0.00000000E+00  0.00000000E+00  0.00000000E+00
  0.00000000E+00  0.00000000E+00  0.00000000E+00
  0.00000000E+00  0.00000000E+00  0.00000000E+00
  0.00000000E+00  0.00000000E+00  0.00000000E+00
  0.00000000E+00  0.00000000E+00  0.00000000E+00
  0.00000000E+00  0.00000000E+00  0.00000000E+00
  0.00000000E+00  0.00000000E+00  0.00000000E+00
  0.00000000E+00  0.00000000E+00  0.00000000E+00
  0.00000000E+00  0.00000000E+00  0.00000000E+00
  0.00000000E+00  0.00000000E+00  0.00000000E+00
  0.00000000E+00  0.00000000E+00  0.00000000E+00
  0.00000000E+00  0.00000000E+00  0.00000000E+00
  0.00000000E+00  0.00000000E+00  0.00000000E+00
  0.00000000E+00  0.00000000E+00  0.00000000E+00
  0.00000000E+00  0.00000000E+00  0.00000000E+00
  0.00000000E+00  0.00000000E+00  0.00000000E+00
  0.00000000E+00  0.00000000E+00  0.00000000E+00
  0.00000000E+00  0.00000000E+00  0.00000000E+00
  0.00000000E+00  0.00000000E+00  0.00000000E+00
  0.00000000E+00  0.00000000E+00  0.00000000E+00
  0.00000000E+00  0.00000000E+00  0.00000000E+00
  0.00000000E+00  0.00000000E+00  0.00000000E+00
  0.00000000E+00  0.00000000E+00  0.00000000E+00
  0.00000000E+00  0.00000000E+00  0.00000000E+00
  0.00000000E+00  0.00000000E+00  0.00000000E+00
  0.00000000E+00  0.00000000E+00  0.00000000E+00
