Title                                   
   1.00000000000000     
     9.8694509999999998    0.0000000000000000    0.0000000000000000
     0.0000000000000000    8.5490480000000009    0.0000000000000000
     0.0000000000000000    0.0000000000000000   20.0000000000000000
    26     4     1
Selective dynamics
Direct
  0.0554796382571653  0.0892651287278716  0.0882798002336399   T   T   T
  0.9305116687460676  0.1717830637323192  0.0903656255577284   T   T   T
  0.0571823097962687  0.9233092079888466  0.0885450165257301   T   T   T
  0.9336769911699430  0.3389010716840356  0.0899860231570366   T   T   T
  0.0580223096672461  0.5895109014009141  0.0857922844363283   T   T   T
  0.9341379247708804  0.6732933621765730  0.0901825210643102   T   T   T
  0.0579123648201364  0.4228709320324978  0.0856136096579763   T   T   T
  0.9315495580474087  0.8400603449647734  0.0906275797358469   T   T   T
  0.3064797062067845  0.0878231174948379  0.0918085224933287   T   T   T
  0.1816891905996987  0.1716855524317366  0.0881491439204267   T   T   T
  0.1814254028699560  0.3388154516606990  0.0864382304130623   T   T   T
  0.3050845004729519  0.5900176446020927  0.0909638387719553   T   T   T
  0.1819999584573116  0.6732369010069214  0.0866834357788478   T   T   T
  0.3050006010798381  0.4214784958765396  0.0907251118801598   T   T   T
  0.1815369313580173  0.8398988923271102  0.0886478494783761   T   T   T
  0.4294406547460796  0.1753917304913037  0.0972395946855659   T   T   T
  0.5525597892648303  0.9220125739337800  0.1010295862131925   T   T   T
  0.4286086650152465  0.8377060052242209  0.0981026503924113   T   T   T
  0.8039351347630362  0.0892384233950076  0.0945401087917198   T   T   T
  0.6800706729521099  0.1773177601054255  0.1007529933461367   T   T   T
  0.8054456839079354  0.9222689249475510  0.0948496900073042   T   T   T
  0.6865303516383887  0.3414539554699176  0.1064836893128850   T   T   T
  0.8123929559330673  0.5904671894083975  0.0980628601356050   T   T   T
  0.6876291310687995  0.6707617501214523  0.1065750244546164   T   T   T
  0.8123229080391509  0.4213380044380229  0.0980348080628145   T   T   T
  0.6802749015545502  0.8363447463443261  0.1014613958665465   T   T   T
  0.5535251975003651  0.0932111822244743  0.1007007484568084   T   T   T
  0.4248021925172537  0.3356787300062299  0.0992942209042722   T   T   T
  0.4237680751271937  0.6760859485513788  0.1005632978051002   T   T   T
  0.3057446379649844  0.9227350453399821  0.0920728610718594   T   T   T
  0.5543949916873533  0.5069129618907654  0.1183928773884566   T   T   T
 
  0.00000000E+00  0.00000000E+00  0.00000000E+00
  0.00000000E+00  0.00000000E+00  0.00000000E+00
  0.00000000E+00  0.00000000E+00  0.00000000E+00
  0.00000000E+00  0.00000000E+00  0.00000000E+00
  0.00000000E+00  0.00000000E+00  0.00000000E+00
  0.00000000E+00  0.00000000E+00  0.00000000E+00
  0.00000000E+00  0.00000000E+00  0.00000000E+00
  0.00000000E+00  0.00000000E+00  0.00000000E+00
  0.00000000E+00  0.00000000E+00  0.00000000E+00
  0.00000000E+00  0.00000000E+00  0.00000000E+00
  0.00000000E+00  0.00000000E+00  0.00000000E+00
  0.00000000E+00  0.00000000E+00  0.00000000E+00
  0.00000000E+00  0.00000000E+00  0.00000000E+00
  0.00000000E+00  0.00000000E+00  0.00000000E+00
  0.00000000E+00  0.00000000E+00  0.00000000E+00
  0.00000000E+00  0.00000000E+00  0.00000000E+00
  0.00000000E+00  0.00000000E+00  0.00000000E+00
  0.00000000E+00  0.00000000E+00  0.00000000E+00
  0.00000000E+00  0.00000000E+00  0.00000000E+00
  0.00000000E+00  0.00000000E+00  0.00000000E+00
  0.00000000E+00  0.00000000E+00  0.00000000E+00
  0.00000000E+00  0.00000000E+00  0.00000000E+00
  0.00000000E+00  0.00000000E+00  0.00000000E+00
  0.00000000E+00  0.00000000E+00  0.00000000E+00
  0.00000000E+00  0.00000000E+00  0.00000000E+00
  0.00000000E+00  0.00000000E+00  0.00000000E+00
  0.00000000E+00  0.00000000E+00  0.00000000E+00
  0.00000000E+00  0.00000000E+00  0.00000000E+00
  0.00000000E+00  0.00000000E+00  0.00000000E+00
  0.00000000E+00  0.00000000E+00  0.00000000E+00
  0.00000000E+00  0.00000000E+00  0.00000000E+00
