Title                                   
   1.00000000000000     
     9.8694509999999998    0.0000000000000000    0.0000000000000000
     0.0000000000000000    8.5490480000000009    0.0000000000000000
     0.0000000000000000    0.0000000000000000   20.0000000000000000
    28     2     1
Selective dynamics
Direct
  0.0547027706600071  0.0889278647591442  0.0839192509596490   T   T   T
  0.9297494620765657  0.1730660527475740  0.0843526860345384   T   T   T
  0.0575115100999345  0.9226404481868964  0.0850047515090018   T   T   T
  0.9326953130753699  0.3399870632000320  0.0818834783545929   T   T   T
  0.0579367365885631  0.5900834381293137  0.0794225967771327   T   T   T
  0.9344189861552867  0.6750755096733775  0.0845727363310678   T   T   T
  0.0571621318552578  0.4227590770760017  0.0787259572708553   T   T   T
  0.9324096760868779  0.8416609308747465  0.0873137049406625   T   T   T
  0.3052631100895332  0.0865360776357978  0.0934951911008965   T   T   T
  0.1796058792377794  0.1685078564081320  0.0858440439758812   T   T   T
  0.1798180308943054  0.3357324753200805  0.0830717654181342   T   T   T
  0.3038424649346803  0.5848179992396189  0.0911500992612153   T   T   T
  0.1827796700271859  0.6719479687977324  0.0829846436134817   T   T   T
  0.3010366356757877  0.4166976906054410  0.0936465918698843   T   T   T
  0.1835147889814558  0.8390260826237224  0.0858022108572055   T   T   T
  0.5540304491539292  0.0929958410905818  0.1052389734679040   T   T   T
  0.4254578266858150  0.1754169479925036  0.1041408074981498   T   T   T
  0.5552373067391286  0.9241244782601257  0.1059093725524822   T   T   T
  0.4269446995197314  0.6642516714668615  0.1040675112650778   T   T   T
  0.4313267227465732  0.8332506326301351  0.1016303464311147   T   T   T
  0.8033492611645960  0.0931357658120479  0.0920302269912786   T   T   T
  0.6787598599136824  0.1812812914545333  0.0999190791096370   T   T   T
  0.8049930226015842  0.9244159303042169  0.0941071224698711   T   T   T
  0.6859538976277800  0.3503053408921304  0.1022664909148423   T   T   T
  0.8138153312155089  0.5930820654197003  0.0943648923630621   T   T   T
  0.6915909628443623  0.6702092845116534  0.1146173161293486   T   T   T
  0.8116746985372183  0.4256154214324150  0.0904266000326810   T   T   T
  0.6825588907682482  0.8382772272346918  0.1049382065423900   T   T   T
  0.4172378482974861  0.3374449349206698  0.1116613574312586   T   T   T
  0.3077441103726100  0.9196623368146650  0.0927127258389627   T   T   T
  0.5600129453731723  0.5099392944854763  0.1417442626877883   T   T   T
 
  0.00000000E+00  0.00000000E+00  0.00000000E+00
  0.00000000E+00  0.00000000E+00  0.00000000E+00
  0.00000000E+00  0.00000000E+00  0.00000000E+00
  0.00000000E+00  0.00000000E+00  0.00000000E+00
  0.00000000E+00  0.00000000E+00  0.00000000E+00
  0.00000000E+00  0.00000000E+00  0.00000000E+00
  0.00000000E+00  0.00000000E+00  0.00000000E+00
  0.00000000E+00  0.00000000E+00  0.00000000E+00
  0.00000000E+00  0.00000000E+00  0.00000000E+00
  0.00000000E+00  0.00000000E+00  0.00000000E+00
  0.00000000E+00  0.00000000E+00  0.00000000E+00
  0.00000000E+00  0.00000000E+00  0.00000000E+00
  0.00000000E+00  0.00000000E+00  0.00000000E+00
  0.00000000E+00  0.00000000E+00  0.00000000E+00
  0.00000000E+00  0.00000000E+00  0.00000000E+00
  0.00000000E+00  0.00000000E+00  0.00000000E+00
  0.00000000E+00  0.00000000E+00  0.00000000E+00
  0.00000000E+00  0.00000000E+00  0.00000000E+00
  0.00000000E+00  0.00000000E+00  0.00000000E+00
  0.00000000E+00  0.00000000E+00  0.00000000E+00
  0.00000000E+00  0.00000000E+00  0.00000000E+00
  0.00000000E+00  0.00000000E+00  0.00000000E+00
  0.00000000E+00  0.00000000E+00  0.00000000E+00
  0.00000000E+00  0.00000000E+00  0.00000000E+00
  0.00000000E+00  0.00000000E+00  0.00000000E+00
  0.00000000E+00  0.00000000E+00  0.00000000E+00
  0.00000000E+00  0.00000000E+00  0.00000000E+00
  0.00000000E+00  0.00000000E+00  0.00000000E+00
  0.00000000E+00  0.00000000E+00  0.00000000E+00
  0.00000000E+00  0.00000000E+00  0.00000000E+00
  0.00000000E+00  0.00000000E+00  0.00000000E+00
