Title                                   
   1.00000000000000     
     8.5490480000000009    0.0000000000000000    0.0000000000000000
     0.0000000000000000    8.5490480000000009    0.0000000000000000
     0.0000000000000000    0.0000000000000000   20.0000000000000000
    22     2     1
Selective dynamics
Direct
  0.9096017454071591  0.2068682809748585  0.0979042835114615   T   T   T
  0.9063545260295672  0.5040048853067114  0.0979038159407129   T   T   T
  0.9116686479351249  0.8021166401737380  0.0978295202034054   T   T   T
  0.1991360261435493  0.0823070854060435  0.0980953253014406   T   T   T
  0.0743810801489339  0.2045305435992955  0.0980525785441549   T   T   T
  0.1580519081474965  0.6493049298399425  0.0979025388018067   T   T   T
  0.0752384551823256  0.5027323850877861  0.0979299471447319   T   T   T
  0.1576032469317870  0.3561979683945589  0.0980507273352451   T   T   T
  0.0791099374872189  0.7985797764636107  0.0979370162809381   T   T   T
  0.4935650856294430  0.0829987554096177  0.0979514570523261   T   T   T
  0.3462591602288715  0.1633665836145637  0.0980556225005092   T   T   T
  0.4932042701166269  0.9147587914291755  0.0979441890018006   T   T   T
  0.3474737935333576  0.8328683969826959  0.0980084664191145   T   T   T
  0.7872582030763023  0.0855927507367154  0.0978202888979492   T   T   T
  0.6382282187514379  0.1656891927906880  0.0978781622771026   T   T   T
  0.7897171334783404  0.9203610841678049  0.0978149586214680   T   T   T
  0.8286727524374603  0.6534933256073073  0.0978952628723365   T   T   T
  0.8251936790960860  0.3579978198494348  0.0979072115511518   T   T   T
  0.6417967038758832  0.8351200766926685  0.0979230390378324   T   T   T
  0.3241937363377885  0.3333840316367834  0.0980219496716365   T   T   T
  0.3242673694698323  0.6688092897069920  0.0979190142216183   T   T   T
  0.6585472241185968  0.3340155492791385  0.0978808756285143   T   T   T
  0.6664709562520448  0.6749113648131103  0.0980193272706608   T   T   T
  0.1987242117776287  0.9169848627700309  0.0981250666407765   T   T   T
  0.4906939284071311  0.4977956292667429  0.0979343552712885   T   T   T
 
  0.00000000E+00  0.00000000E+00  0.00000000E+00
  0.00000000E+00  0.00000000E+00  0.00000000E+00
  0.00000000E+00  0.00000000E+00  0.00000000E+00
  0.00000000E+00  0.00000000E+00  0.00000000E+00
  0.00000000E+00  0.00000000E+00  0.00000000E+00
  0.00000000E+00  0.00000000E+00  0.00000000E+00
  0.00000000E+00  0.00000000E+00  0.00000000E+00
  0.00000000E+00  0.00000000E+00  0.00000000E+00
  0.00000000E+00  0.00000000E+00  0.00000000E+00
  0.00000000E+00  0.00000000E+00  0.00000000E+00
  0.00000000E+00  0.00000000E+00  0.00000000E+00
  0.00000000E+00  0.00000000E+00  0.00000000E+00
  0.00000000E+00  0.00000000E+00  0.00000000E+00
  0.00000000E+00  0.00000000E+00  0.00000000E+00
  0.00000000E+00  0.00000000E+00  0.00000000E+00
  0.00000000E+00  0.00000000E+00  0.00000000E+00
  0.00000000E+00  0.00000000E+00  0.00000000E+00
  0.00000000E+00  0.00000000E+00  0.00000000E+00
  0.00000000E+00  0.00000000E+00  0.00000000E+00
  0.00000000E+00  0.00000000E+00  0.00000000E+00
  0.00000000E+00  0.00000000E+00  0.00000000E+00
  0.00000000E+00  0.00000000E+00  0.00000000E+00
  0.00000000E+00  0.00000000E+00  0.00000000E+00
  0.00000000E+00  0.00000000E+00  0.00000000E+00
  0.00000000E+00  0.00000000E+00  0.00000000E+00
