Title                                   
   1.00000000000000     
     4.9440799999999996    0.0000000000000000    0.0000000000000000
     0.0000000000000000   17.1295089999999988    0.0000000000000000
     0.0000000000000000    0.0000000000000000   20.0000000000000000
    30     1     1
Selective dynamics
Direct
  0.0003300697560871  0.1047889664553632  0.2872874280038465   T   T   T
  0.2498864065962197  0.1467243856064749  0.2900433609839514   T   T   T
  0.2499057464505718  0.2299852860829869  0.2978635418043360   T   T   T
 -0.0006050008359117  0.3529330724433262  0.3152188091584802   T   T   T
 -0.0011113601720414  0.2711066395130629  0.3020118550202807   T   T   T
 -0.0024127878575936  0.6039196890874663  0.3065264695657967   T   T   T
  0.2498916855630297  0.7280719782330610  0.2931529288542403   T   T   T
  0.0002574969021308  0.8538895056944190  0.2854550410150149   T   T   T
  0.2499058716052519  0.8959717858411024  0.2846057706543619   T   T   T
  0.2498873540616914  0.9793885036024519  0.2841100617615411   T   T   T
  0.0002841146962226  0.7705765798730949  0.2892383517766059   T   T   T
  0.4994698452160441  0.1047833069544245  0.2872881119182957   T   T   T
  0.7498814619635655  0.1466471765456044  0.2894110176459808   T   T   T
  0.7499159893746533  0.2293059173007317  0.2961605804742004   T   T   T
  0.4997570539466942  0.0213891979767027  0.2844716431586152   T   T   T
  0.5004047900953166  0.3529335406044046  0.3152182999091504   T   T   T
  0.7499056156114988  0.4771689624686478  0.3169909078923325   T   T   T
  0.5008967080463163  0.2711026385853054  0.3020104725444969   T   T   T
  0.5022215600169992  0.6039166508674911  0.3065109067845341   T   T   T
  0.7498845256218050  0.7292138353585922  0.2913517366102163   T   T   T
  0.4995332877097872  0.8538961756684742  0.2854524922667867   T   T   T
  0.7499244738093555  0.8958284894830216  0.2842743898211719   T   T   T
  0.7498969000663636  0.9793467234768670  0.2838271229832969   T   T   T
  0.4995212645946053  0.7705806096149026  0.2892351279942744   T   T   T
  0.7499108409639539  0.6463875403025053  0.2993240453887612   T   T   T
  0.2499106686455476  0.6455683281086262  0.3023874670344697   T   T   T
  0.0000206941159976  0.0213951895198372  0.2844705900100526   T   T   T
  0.5174256449093905  0.5225511047197769  0.3181911002545283   T   T   T
  0.9823655012838916  0.5225569589878915  0.3182262650399467   T   T   T
  0.2498959717394803  0.3901311263897018  0.3282096265129623   T   T   T
  0.7499022755689643  0.3938571866533661  0.3174032010616477   T   T   T
  0.2499583299341177  0.4826339479803066  0.3866362760957756   T   T   T
 
  0.00000000E+00  0.00000000E+00  0.00000000E+00
  0.00000000E+00  0.00000000E+00  0.00000000E+00
  0.00000000E+00  0.00000000E+00  0.00000000E+00
  0.00000000E+00  0.00000000E+00  0.00000000E+00
  0.00000000E+00  0.00000000E+00  0.00000000E+00
  0.00000000E+00  0.00000000E+00  0.00000000E+00
  0.00000000E+00  0.00000000E+00  0.00000000E+00
  0.00000000E+00  0.00000000E+00  0.00000000E+00
  0.00000000E+00  0.00000000E+00  0.00000000E+00
  0.00000000E+00  0.00000000E+00  0.00000000E+00
  0.00000000E+00  0.00000000E+00  0.00000000E+00
  0.00000000E+00  0.00000000E+00  0.00000000E+00
  0.00000000E+00  0.00000000E+00  0.00000000E+00
  0.00000000E+00  0.00000000E+00  0.00000000E+00
  0.00000000E+00  0.00000000E+00  0.00000000E+00
  0.00000000E+00  0.00000000E+00  0.00000000E+00
  0.00000000E+00  0.00000000E+00  0.00000000E+00
  0.00000000E+00  0.00000000E+00  0.00000000E+00
  0.00000000E+00  0.00000000E+00  0.00000000E+00
  0.00000000E+00  0.00000000E+00  0.00000000E+00
  0.00000000E+00  0.00000000E+00  0.00000000E+00
  0.00000000E+00  0.00000000E+00  0.00000000E+00
  0.00000000E+00  0.00000000E+00  0.00000000E+00
  0.00000000E+00  0.00000000E+00  0.00000000E+00
  0.00000000E+00  0.00000000E+00  0.00000000E+00
  0.00000000E+00  0.00000000E+00  0.00000000E+00
  0.00000000E+00  0.00000000E+00  0.00000000E+00
  0.00000000E+00  0.00000000E+00  0.00000000E+00
  0.00000000E+00  0.00000000E+00  0.00000000E+00
  0.00000000E+00  0.00000000E+00  0.00000000E+00
  0.00000000E+00  0.00000000E+00  0.00000000E+00
  0.00000000E+00  0.00000000E+00  0.00000000E+00
