Title                                   
   1.00000000000000     
     8.5490480000000009    0.0000000000000000    0.0000000000000000
     0.0000000000000000    8.5490480000000009    0.0000000000000000
     0.0000000000000000    0.0000000000000000   20.0000000000000000
    20     4     1
Selective dynamics
Direct
  0.9086004466786128  0.2055352715301953  0.0936622844277509   T   T   T
  0.9121826234317180  0.8023307066126188  0.0944904805114840   T   T   T
  0.1965703457992563  0.0812182435265842  0.0943513646423099   T   T   T
  0.0740829463055860  0.2002388166929764  0.0945048096147017   T   T   T
  0.1562524344498687  0.6500890235788915  0.0958787761371705   T   T   T
  0.0748151396093757  0.5010244249545717  0.0971927425942131   T   T   T
  0.1555056198035607  0.3523064501935574  0.0984104542932528   T   T   T
  0.0792355023910569  0.7995608343342698  0.0938438042166257   T   T   T
  0.3448970349033407  0.1622791001516234  0.0979053575127555   T   T   T
  0.4945390139451334  0.9170558921066091  0.0969379750995903   T   T   T
  0.3451287355548631  0.8358734415348468  0.0957436083229236   T   T   T
  0.7868753045681939  0.0859698736560092  0.0941491038142673   T   T   T
  0.6387637332969226  0.1662051499578878  0.0963518128323446   T   T   T
  0.7911150826786818  0.9198299513653462  0.0950181016044449   T   T   T
  0.8307383695412333  0.6532836063601263  0.0969787208538038   T   T   T
  0.8253659941967548  0.3563468052167353  0.0957262795859467   T   T   T
  0.6439433188030707  0.8375218202836074  0.0978033037174889   T   T   T
  0.3222362745524410  0.3277326462793336  0.1031798090350284   T   T   T
  0.3223300801786979  0.6738376241577095  0.0969064931047636   T   T   T
  0.6611358296720949  0.3341509302270521  0.0984707223227387   T   T   T
  0.4942948040100776  0.0835613961039395  0.0971121335198461   T   T   T
  0.9070399470610905  0.5039629213157204  0.0965530464210555   T   T   T
  0.6711610847394970  0.6746158664488542  0.1005757282303992   T   T   T
  0.1957485906861774  0.9159974734967944  0.0934198166975746   T   T   T
  0.4928537431426872  0.5042617299141529  0.1335382708875021   T   T   T
 
  0.00000000E+00  0.00000000E+00  0.00000000E+00
  0.00000000E+00  0.00000000E+00  0.00000000E+00
  0.00000000E+00  0.00000000E+00  0.00000000E+00
  0.00000000E+00  0.00000000E+00  0.00000000E+00
  0.00000000E+00  0.00000000E+00  0.00000000E+00
  0.00000000E+00  0.00000000E+00  0.00000000E+00
  0.00000000E+00  0.00000000E+00  0.00000000E+00
  0.00000000E+00  0.00000000E+00  0.00000000E+00
  0.00000000E+00  0.00000000E+00  0.00000000E+00
  0.00000000E+00  0.00000000E+00  0.00000000E+00
  0.00000000E+00  0.00000000E+00  0.00000000E+00
  0.00000000E+00  0.00000000E+00  0.00000000E+00
  0.00000000E+00  0.00000000E+00  0.00000000E+00
  0.00000000E+00  0.00000000E+00  0.00000000E+00
  0.00000000E+00  0.00000000E+00  0.00000000E+00
  0.00000000E+00  0.00000000E+00  0.00000000E+00
  0.00000000E+00  0.00000000E+00  0.00000000E+00
  0.00000000E+00  0.00000000E+00  0.00000000E+00
  0.00000000E+00  0.00000000E+00  0.00000000E+00
  0.00000000E+00  0.00000000E+00  0.00000000E+00
  0.00000000E+00  0.00000000E+00  0.00000000E+00
  0.00000000E+00  0.00000000E+00  0.00000000E+00
  0.00000000E+00  0.00000000E+00  0.00000000E+00
  0.00000000E+00  0.00000000E+00  0.00000000E+00
  0.00000000E+00  0.00000000E+00  0.00000000E+00
