Title                                   
   1.00000000000000     
     9.8694509999999998    0.0000000000000000    0.0000000000000000
     0.0000000000000000    8.5490480000000009    0.0000000000000000
     0.0000000000000000    0.0000000000000000   20.0000000000000000
    28     3     1
Selective dynamics
Direct
  0.0562512102647253  0.0918680690264056  0.0839391671722194   T   T   T
  0.9308665318677906  0.1745962651253392  0.0860502864830377   T   T   T
  0.0562289907190245  0.9243328066169908  0.0834807503384942   T   T   T
  0.9296308086964721  0.3411466659932609  0.0893387217001410   T   T   T
  0.0562298972458350  0.5891935834036034  0.0859434657776082   T   T   T
  0.9324527849838591  0.6734962362585626  0.0877216595961781   T   T   T
  0.0562208440275680  0.4229782515345638  0.0879365315591544   T   T   T
  0.9323358712446190  0.8402699329643569  0.0859285584344370   T   T   T
  0.3057637276342119  0.0893892489672066  0.0871318847817883   T   T   T
  0.1816062619613711  0.1745866342306996  0.0859877469601583   T   T   T
  0.3050158982612264  0.9236372017563731  0.0884036164176455   T   T   T
  0.1828300252146615  0.3411269597850447  0.0892780957001000   T   T   T
  0.3038540881398819  0.5928718359053387  0.0979024683137277   T   T   T
  0.1799930159032614  0.6734976725847518  0.0876204423840872   T   T   T
  0.3094610622783432  0.4246565623562009  0.0966411075380127   T   T   T
  0.1801398955746294  0.8402628790678913  0.0858295601193851   T   T   T
  0.5562502016931822  0.0840514804465708  0.0947032099974724   T   T   T
  0.4313821910122787  0.1691485042337406  0.0924804059916844   T   T   T
  0.5562337106939538  0.9169190547800525  0.0990623254142073   T   T   T
  0.4331763220503124  0.3338961897720626  0.0998441908247720   T   T   T
  0.4265084913604949  0.8389222392493881  0.0991168230187628   T   T   T
  0.8067449200819498  0.0893893721908754  0.0872316317255342   T   T   T
  0.6811293145492096  0.1691623423746961  0.0925453360432609   T   T   T
  0.8074606657967752  0.9236540020558079  0.0885480332766658   T   T   T
  0.6793140029274846  0.3339000400616962  0.0999115908417330   T   T   T
  0.8086509563976049  0.5928827270311195  0.0980639144200803   T   T   T
  0.8030041873778333  0.4246622685685752  0.0967545160419245   T   T   T
  0.6859752947375928  0.8389432756487234  0.0992429936413332   T   T   T
  0.4172577205358121  0.6812916817634590  0.1124558731093966   T   T   T
  0.5562214200992187  0.4042859948812147  0.1134358513891864   T   T   T
  0.6952791422130341  0.6813281648631321  0.1126229884389746   T   T   T
  0.5561695444557895  0.5898978565023051  0.1705212525488715   T   T   T
 
  0.00000000E+00  0.00000000E+00  0.00000000E+00
  0.00000000E+00  0.00000000E+00  0.00000000E+00
  0.00000000E+00  0.00000000E+00  0.00000000E+00
  0.00000000E+00  0.00000000E+00  0.00000000E+00
  0.00000000E+00  0.00000000E+00  0.00000000E+00
  0.00000000E+00  0.00000000E+00  0.00000000E+00
  0.00000000E+00  0.00000000E+00  0.00000000E+00
  0.00000000E+00  0.00000000E+00  0.00000000E+00
  0.00000000E+00  0.00000000E+00  0.00000000E+00
  0.00000000E+00  0.00000000E+00  0.00000000E+00
  0.00000000E+00  0.00000000E+00  0.00000000E+00
  0.00000000E+00  0.00000000E+00  0.00000000E+00
  0.00000000E+00  0.00000000E+00  0.00000000E+00
  0.00000000E+00  0.00000000E+00  0.00000000E+00
  0.00000000E+00  0.00000000E+00  0.00000000E+00
  0.00000000E+00  0.00000000E+00  0.00000000E+00
  0.00000000E+00  0.00000000E+00  0.00000000E+00
  0.00000000E+00  0.00000000E+00  0.00000000E+00
  0.00000000E+00  0.00000000E+00  0.00000000E+00
  0.00000000E+00  0.00000000E+00  0.00000000E+00
  0.00000000E+00  0.00000000E+00  0.00000000E+00
  0.00000000E+00  0.00000000E+00  0.00000000E+00
  0.00000000E+00  0.00000000E+00  0.00000000E+00
  0.00000000E+00  0.00000000E+00  0.00000000E+00
  0.00000000E+00  0.00000000E+00  0.00000000E+00
  0.00000000E+00  0.00000000E+00  0.00000000E+00
  0.00000000E+00  0.00000000E+00  0.00000000E+00
  0.00000000E+00  0.00000000E+00  0.00000000E+00
  0.00000000E+00  0.00000000E+00  0.00000000E+00
  0.00000000E+00  0.00000000E+00  0.00000000E+00
  0.00000000E+00  0.00000000E+00  0.00000000E+00
  0.00000000E+00  0.00000000E+00  0.00000000E+00
