Title                                   
   1.00000000000000     
     9.8694509999999998    0.0000000000000000    0.0000000000000000
     0.0000000000000000    8.5490480000000009    0.0000000000000000
     0.0000000000000000    0.0000000000000000   20.0000000000000000
    31     1
Selective dynamics
Direct
  0.0562364365615184  0.0897505664974644  0.0841180361269104   T   T   T
  0.9312583181096443  0.1728237298746026  0.0858370954241823   T   T   T
  0.0562310366960843  0.9229241636498342  0.0846516427894953   T   T   T
  0.9308215833424188  0.3399148165040990  0.0880766323518806   T   T   T
  0.0562392594069205  0.5891282628825439  0.0867174729923230   T   T   T
  0.9318682361187826  0.6728193084529457  0.0891800725440310   T   T   T
  0.0562264673211869  0.4231920509203158  0.0867321718509344   T   T   T
  0.9315905957584203  0.8396440064365719  0.0873717990441058   T   T   T
  0.3054396043829959  0.0894739400864996  0.0883615640457265   T   T   T
  0.1812117296019450  0.1728415091564511  0.0858135936749105   T   T   T
  0.3053135586005504  0.9231418307035762  0.0902619956964948   T   T   T
  0.1816438595649743  0.3399374064068956  0.0880443350384267   T   T   T
  0.3037269345363656  0.5898299945537060  0.0985298055382653   T   T   T
  0.1806180065974010  0.6728281240810413  0.0891195617566762   T   T   T
  0.3054152912068674  0.4221493052049148  0.0964096842285814   T   T   T
  0.1808820138090970  0.8396495497976646  0.0873250386670827   T   T   T
  0.5562380073184060  0.0879251953720435  0.0942521783844214   T   T   T
  0.4305241145411143  0.1713792808248127  0.0931889425857308   T   T   T
  0.5562342143759097  0.9230255595785432  0.0989058449278074   T   T   T
  0.4302903230374574  0.3363535306199421  0.1003712373796139   T   T   T
  0.4226316178049968  0.6778997624648954  0.1119358944581529   T   T   T
  0.5562285136440904  0.4114707913681496  0.1132876788289257   T   T   T
  0.4291859671079598  0.8410452747767230  0.1000402888512448   T   T   T
  0.8070310801790662  0.0894596130713213  0.0884000540306275   T   T   T
  0.6819608124454288  0.1713820277066778  0.0932245040235394   T   T   T
  0.8071604636516002  0.9231236614909850  0.0903104818866528   T   T   T
  0.6821940518052196  0.3363531869918130  0.1004193473014824   T   T   T
  0.8087859540565949  0.5898098034593352  0.0986354697977101   T   T   T
  0.6898990142524022  0.6778851481976371  0.1120246557116824   T   T   T
  0.8070685218336986  0.4221287571801438  0.0964862037832751   T   T   T
  0.6832882134334276  0.8410043300926990  0.1000931726488215   T   T   T
  0.5561951988974617  0.5899515115951618  0.1575485436303191   T   T   T
 
  0.00000000E+00  0.00000000E+00  0.00000000E+00
  0.00000000E+00  0.00000000E+00  0.00000000E+00
  0.00000000E+00  0.00000000E+00  0.00000000E+00
  0.00000000E+00  0.00000000E+00  0.00000000E+00
  0.00000000E+00  0.00000000E+00  0.00000000E+00
  0.00000000E+00  0.00000000E+00  0.00000000E+00
  0.00000000E+00  0.00000000E+00  0.00000000E+00
  0.00000000E+00  0.00000000E+00  0.00000000E+00
  0.00000000E+00  0.00000000E+00  0.00000000E+00
  0.00000000E+00  0.00000000E+00  0.00000000E+00
  0.00000000E+00  0.00000000E+00  0.00000000E+00
  0.00000000E+00  0.00000000E+00  0.00000000E+00
  0.00000000E+00  0.00000000E+00  0.00000000E+00
  0.00000000E+00  0.00000000E+00  0.00000000E+00
  0.00000000E+00  0.00000000E+00  0.00000000E+00
  0.00000000E+00  0.00000000E+00  0.00000000E+00
  0.00000000E+00  0.00000000E+00  0.00000000E+00
  0.00000000E+00  0.00000000E+00  0.00000000E+00
  0.00000000E+00  0.00000000E+00  0.00000000E+00
  0.00000000E+00  0.00000000E+00  0.00000000E+00
  0.00000000E+00  0.00000000E+00  0.00000000E+00
  0.00000000E+00  0.00000000E+00  0.00000000E+00
  0.00000000E+00  0.00000000E+00  0.00000000E+00
  0.00000000E+00  0.00000000E+00  0.00000000E+00
  0.00000000E+00  0.00000000E+00  0.00000000E+00
  0.00000000E+00  0.00000000E+00  0.00000000E+00
  0.00000000E+00  0.00000000E+00  0.00000000E+00
  0.00000000E+00  0.00000000E+00  0.00000000E+00
  0.00000000E+00  0.00000000E+00  0.00000000E+00
  0.00000000E+00  0.00000000E+00  0.00000000E+00
  0.00000000E+00  0.00000000E+00  0.00000000E+00
  0.00000000E+00  0.00000000E+00  0.00000000E+00
