Title                                   
   1.00000000000000     
     8.5490480000000009    0.0000000000000000    0.0000000000000000
     0.0000000000000000    8.5490480000000009    0.0000000000000000
     0.0000000000000000    0.0000000000000000   20.0000000000000000
    18     6     1
Selective dynamics
Direct
  0.9080554353514274  0.2056420131590539  0.0975517206478820   T   T   T
  0.9106516268677766  0.8005892066016993  0.0974606422959977   T   T   T
  0.1974613668452917  0.0836606794978624  0.0976500223534402   T   T   T
  0.0765771821632587  0.2012703502275630  0.0975708531027947   T   T   T
  0.1564709003327942  0.6519564085438018  0.0978480891237398   T   T   T
  0.0759007217531769  0.5004602399806402  0.0977461583340092   T   T   T
  0.1565511561619010  0.3531543112726546  0.0976291747009542   T   T   T
  0.0789130671551409  0.7991269412783877  0.0976899077542394   T   T   T
  0.3471758896413828  0.1658815592610469  0.0977264086339324   T   T   T
  0.4933576575773482  0.9162780979950128  0.0978307375639765   T   T   T
  0.3431317540108522  0.8367558533285386  0.0979839198577922   T   T   T
  0.7877372714035120  0.0863808013530761  0.0975211522609416   T   T   T
  0.6409210752857619  0.1667993095959574  0.0977742638471338   T   T   T
  0.7899769187006281  0.9184074864880694  0.0974461695897895   T   T   T
  0.8286857122916238  0.6517041797297712  0.0976373172644664   T   T   T
  0.8260424193735383  0.3526593161709562  0.0977583204694326   T   T   T
  0.6429490489319618  0.8365729357851592  0.0976393026338437   T   T   T
  0.3258778216080700  0.3314611323955461  0.0977282532661329   T   T   T
  0.4944278500070843  0.0863290873821310  0.0978462102630599   T   T   T
  0.9044457767178501  0.5025448871995880  0.0977821074136560   T   T   T
  0.3193106812889390  0.6768184211103654  0.0981133438327739   T   T   T
  0.6631197827232941  0.3296331904391337  0.0979374477586274   T   T   T
  0.6684073410324577  0.6735515483255441  0.0977605368339502   T   T   T
  0.1967565735774613  0.9161891498260738  0.0978640715984396   T   T   T
  0.4925069691974600  0.5009628930523882  0.0982088685989667   T   T   T
 
  0.00000000E+00  0.00000000E+00  0.00000000E+00
  0.00000000E+00  0.00000000E+00  0.00000000E+00
  0.00000000E+00  0.00000000E+00  0.00000000E+00
  0.00000000E+00  0.00000000E+00  0.00000000E+00
  0.00000000E+00  0.00000000E+00  0.00000000E+00
  0.00000000E+00  0.00000000E+00  0.00000000E+00
  0.00000000E+00  0.00000000E+00  0.00000000E+00
  0.00000000E+00  0.00000000E+00  0.00000000E+00
  0.00000000E+00  0.00000000E+00  0.00000000E+00
  0.00000000E+00  0.00000000E+00  0.00000000E+00
  0.00000000E+00  0.00000000E+00  0.00000000E+00
  0.00000000E+00  0.00000000E+00  0.00000000E+00
  0.00000000E+00  0.00000000E+00  0.00000000E+00
  0.00000000E+00  0.00000000E+00  0.00000000E+00
  0.00000000E+00  0.00000000E+00  0.00000000E+00
  0.00000000E+00  0.00000000E+00  0.00000000E+00
  0.00000000E+00  0.00000000E+00  0.00000000E+00
  0.00000000E+00  0.00000000E+00  0.00000000E+00
  0.00000000E+00  0.00000000E+00  0.00000000E+00
  0.00000000E+00  0.00000000E+00  0.00000000E+00
  0.00000000E+00  0.00000000E+00  0.00000000E+00
  0.00000000E+00  0.00000000E+00  0.00000000E+00
  0.00000000E+00  0.00000000E+00  0.00000000E+00
  0.00000000E+00  0.00000000E+00  0.00000000E+00
  0.00000000E+00  0.00000000E+00  0.00000000E+00
