Title                                   
   1.00000000000000     
     9.8694509999999998    0.0000000000000000    0.0000000000000000
     0.0000000000000000    8.5490480000000009    0.0000000000000000
     0.0000000000000000    0.0000000000000000   20.0000000000000000
    28     2     1
Selective dynamics
Direct
  0.0557951517641380  0.0893054657604992  0.0839300829336501   T   T   T
  0.9307496848873451  0.1717313224469984  0.0831657767640552   T   T   T
  0.0558018504779299  0.9229951939577538  0.0839241081710940   T   T   T
  0.9342466196285009  0.3382765412284482  0.0806041633669635   T   T   T
  0.0581102102820811  0.5892860595489388  0.0794836829778669   T   T   T
  0.9342584707351386  0.6740148396470210  0.0806122406655106   T   T   T
  0.0580986595842923  0.4230183297914137  0.0794943272842945   T   T   T
  0.9307566704284217  0.8405639000961701  0.0831662796686298   T   T   T
  0.3059276600314785  0.0905844052844445  0.0962253053124780   T   T   T
  0.1807252771364083  0.1719231775506289  0.0881910738413822   T   T   T
  0.3059442583876539  0.9217193153839220  0.0962215513364851   T   T   T
  0.1810062262169463  0.3390962304825182  0.0864643246399113   T   T   T
  0.3020724073023917  0.5907646897392715  0.0983056513290775   T   T   T
  0.1810246957762571  0.6732110334272009  0.0864573269574428   T   T   T
  0.3020592315436949  0.4215445775845363  0.0983109575537492   T   T   T
  0.1807394034106229  0.8403921698992701  0.0881839610199933   T   T   T
  0.5543873315217029  0.0914491793405489  0.1057607499595776   T   T   T
  0.4276252979441234  0.1788426907966167  0.1058275786236823   T   T   T
  0.5543944545697849  0.9208524121157674  0.1057684030301283   T   T   T
  0.4276384184041465  0.8334898023444226  0.1058497874444813   T   T   T
  0.8039479316453473  0.0903179614593150  0.0893485385562367   T   T   T
  0.6806379317408003  0.1764573184822823  0.0992966408933448   T   T   T
  0.8039436041156508  0.9219455103326460  0.0893564001755783   T   T   T
  0.6893910526426534  0.3449574930715303  0.1044526428829354   T   T   T
  0.8134102922704735  0.5899111841082880  0.0879868005627044   T   T   T
  0.6894309774858440  0.6673974413747823  0.1044897491885508   T   T   T
  0.8133965473403477  0.4223786860428239  0.0879663205842204   T   T   T
  0.6806527126434303  0.8358577965003554  0.0993286967971323   T   T   T
  0.4207381415683244  0.3420783393991024  0.1123450937017944   T   T   T
  0.4207552603094096  0.6702693012123626  0.1123458495083849   T   T   T
  0.5654685682046702  0.5062426315901331  0.1381009342687052   T   T   T
 
  0.00000000E+00  0.00000000E+00  0.00000000E+00
  0.00000000E+00  0.00000000E+00  0.00000000E+00
  0.00000000E+00  0.00000000E+00  0.00000000E+00
  0.00000000E+00  0.00000000E+00  0.00000000E+00
  0.00000000E+00  0.00000000E+00  0.00000000E+00
  0.00000000E+00  0.00000000E+00  0.00000000E+00
  0.00000000E+00  0.00000000E+00  0.00000000E+00
  0.00000000E+00  0.00000000E+00  0.00000000E+00
  0.00000000E+00  0.00000000E+00  0.00000000E+00
  0.00000000E+00  0.00000000E+00  0.00000000E+00
  0.00000000E+00  0.00000000E+00  0.00000000E+00
  0.00000000E+00  0.00000000E+00  0.00000000E+00
  0.00000000E+00  0.00000000E+00  0.00000000E+00
  0.00000000E+00  0.00000000E+00  0.00000000E+00
  0.00000000E+00  0.00000000E+00  0.00000000E+00
  0.00000000E+00  0.00000000E+00  0.00000000E+00
  0.00000000E+00  0.00000000E+00  0.00000000E+00
  0.00000000E+00  0.00000000E+00  0.00000000E+00
  0.00000000E+00  0.00000000E+00  0.00000000E+00
  0.00000000E+00  0.00000000E+00  0.00000000E+00
  0.00000000E+00  0.00000000E+00  0.00000000E+00
  0.00000000E+00  0.00000000E+00  0.00000000E+00
  0.00000000E+00  0.00000000E+00  0.00000000E+00
  0.00000000E+00  0.00000000E+00  0.00000000E+00
  0.00000000E+00  0.00000000E+00  0.00000000E+00
  0.00000000E+00  0.00000000E+00  0.00000000E+00
  0.00000000E+00  0.00000000E+00  0.00000000E+00
  0.00000000E+00  0.00000000E+00  0.00000000E+00
  0.00000000E+00  0.00000000E+00  0.00000000E+00
  0.00000000E+00  0.00000000E+00  0.00000000E+00
  0.00000000E+00  0.00000000E+00  0.00000000E+00
