Title                                   
   1.00000000000000     
     4.9440799999999996    0.0000000000000000    0.0000000000000000
     0.0000000000000000    8.5647549999999999    0.0000000000000000
     0.0000000000000000    0.0000000000000000   20.0000000000000000
    13     1     1
Selective dynamics
Direct
  0.2499188263895782  0.2062197637614244  0.0992167768353811   T   T   T
 -0.0022899652859041  0.2919566959208407  0.1006693601886305   T   T   T
  0.2538764224499370  0.0401784433653894  0.0987301893855542   T   T   T
  0.0036588054974096  0.9570452113364186  0.0962702480601666   T   T   T
  0.7494294693224458  0.2078639889133053  0.0977895724914378   T   T   T
  0.4987523284581846  0.2904904970978264  0.0981172193539977   T   T   T
  0.7541926222461467  0.0411827785022022  0.0970280858423452   T   T   T
  0.7475438149329586  0.7148054973540134  0.0986626722701206   T   T   T
  0.7433928369240356  0.5394855071538426  0.0987610035664800   T   T   T
  0.5074583546320328  0.9564481602419506  0.1003942505343157   T   T   T
  0.5054598021486743  0.4552895022098490  0.0988378715165470   T   T   T
 -0.0146171875370175  0.4567000373076036  0.1062258243770473   T   T   T
 -0.0101691027024037  0.7930338696907899  0.0951328038123896   T   T   T
  0.5174252578685355  0.7975702143176939  0.1063034864698411   T   T   T
  0.2459677146553861  0.6234108328268518  0.1158406352957491   T   T   T
 
  0.00000000E+00  0.00000000E+00  0.00000000E+00
  0.00000000E+00  0.00000000E+00  0.00000000E+00
  0.00000000E+00  0.00000000E+00  0.00000000E+00
  0.00000000E+00  0.00000000E+00  0.00000000E+00
  0.00000000E+00  0.00000000E+00  0.00000000E+00
  0.00000000E+00  0.00000000E+00  0.00000000E+00
  0.00000000E+00  0.00000000E+00  0.00000000E+00
  0.00000000E+00  0.00000000E+00  0.00000000E+00
  0.00000000E+00  0.00000000E+00  0.00000000E+00
  0.00000000E+00  0.00000000E+00  0.00000000E+00
  0.00000000E+00  0.00000000E+00  0.00000000E+00
  0.00000000E+00  0.00000000E+00  0.00000000E+00
  0.00000000E+00  0.00000000E+00  0.00000000E+00
  0.00000000E+00  0.00000000E+00  0.00000000E+00
  0.00000000E+00  0.00000000E+00  0.00000000E+00
