Title                                   
   1.00000000000000     
     9.8694509999999998    0.0000000000000000    0.0000000000000000
     0.0000000000000000    8.5490480000000009    0.0000000000000000
     0.0000000000000000    0.0000000000000000   20.0000000000000000
    28     2     1
Selective dynamics
Direct
  0.0559152980026155  0.0891118791731832  0.0831103603374288   T   T   T
  0.9311534197722684  0.1720539252534954  0.0861013701977059   T   T   T
  0.0559218416254289  0.9232314500418265  0.0831250943968557   T   T   T
  0.9336196576419692  0.3385093401934218  0.0859476201410072   T   T   T
  0.0570741243430301  0.5892813908696444  0.0816123907521447   T   T   T
  0.9336249752256178  0.6738447392412759  0.0859942944375000   T   T   T
  0.0570715582333794  0.4230695925208536  0.0815965396139877   T   T   T
  0.9311561695029917  0.8402990836726457  0.0861333169787736   T   T   T
  0.3055316356676561  0.0898829832608156  0.0912360322503988   T   T   T
  0.1808478351398191  0.1721159168130316  0.0851012039644863   T   T   T
  0.3055314821992133  0.9223920802273676  0.0912399763901902   T   T   T
  0.1806801746069995  0.3393249637446049  0.0843703825591283   T   T   T
  0.3039893303572165  0.5920072866000627  0.0929385666991146   T   T   T
  0.1806978783669540  0.6729974728723890  0.0843796399003352   T   T   T
  0.3039760550214027  0.4202712797198241  0.0929422404762116   T   T   T
  0.1808478570145147  0.8402105598307482  0.0851114160755705   T   T   T
  0.5548098131855184  0.0904732509101125  0.1051898474823298   T   T   T
  0.4274515372105254  0.1774031076833874  0.1007460589158631   T   T   T
  0.5548103715631884  0.9217931757549700  0.1051939565155439   T   T   T
  0.4274639091295881  0.8348721325252043  0.1007416755474273   T   T   T
  0.8059032369259299  0.0897424364448242  0.0931426378657759   T   T   T
  0.6828313252654593  0.1761207190053100  0.1036355185502545   T   T   T
  0.8058980167742118  0.9225810057326396  0.0931637725439053   T   T   T
  0.6900027672754356  0.3411576283305534  0.1106599941033883   T   T   T
  0.8126292218797392  0.5910727382602515  0.0976319390313954   T   T   T
  0.6899916284455430  0.6711685005574348  0.1106753841132897   T   T   T
  0.8126327267150317  0.4212548636716795  0.0976124147027148   T   T   T
  0.6828288487777945  0.8361902027362927  0.1036576041919506   T   T   T
  0.4216407871613342  0.3383413108545309  0.1040391005727995   T   T   T
  0.4216594046225186  0.6739336527330352  0.1040161759661386   T   T   T
  0.5549421123471140  0.5061663307645975  0.1299184747264251   T   T   T
 
  0.00000000E+00  0.00000000E+00  0.00000000E+00
  0.00000000E+00  0.00000000E+00  0.00000000E+00
  0.00000000E+00  0.00000000E+00  0.00000000E+00
  0.00000000E+00  0.00000000E+00  0.00000000E+00
  0.00000000E+00  0.00000000E+00  0.00000000E+00
  0.00000000E+00  0.00000000E+00  0.00000000E+00
  0.00000000E+00  0.00000000E+00  0.00000000E+00
  0.00000000E+00  0.00000000E+00  0.00000000E+00
  0.00000000E+00  0.00000000E+00  0.00000000E+00
  0.00000000E+00  0.00000000E+00  0.00000000E+00
  0.00000000E+00  0.00000000E+00  0.00000000E+00
  0.00000000E+00  0.00000000E+00  0.00000000E+00
  0.00000000E+00  0.00000000E+00  0.00000000E+00
  0.00000000E+00  0.00000000E+00  0.00000000E+00
  0.00000000E+00  0.00000000E+00  0.00000000E+00
  0.00000000E+00  0.00000000E+00  0.00000000E+00
  0.00000000E+00  0.00000000E+00  0.00000000E+00
  0.00000000E+00  0.00000000E+00  0.00000000E+00
  0.00000000E+00  0.00000000E+00  0.00000000E+00
  0.00000000E+00  0.00000000E+00  0.00000000E+00
  0.00000000E+00  0.00000000E+00  0.00000000E+00
  0.00000000E+00  0.00000000E+00  0.00000000E+00
  0.00000000E+00  0.00000000E+00  0.00000000E+00
  0.00000000E+00  0.00000000E+00  0.00000000E+00
  0.00000000E+00  0.00000000E+00  0.00000000E+00
  0.00000000E+00  0.00000000E+00  0.00000000E+00
  0.00000000E+00  0.00000000E+00  0.00000000E+00
  0.00000000E+00  0.00000000E+00  0.00000000E+00
  0.00000000E+00  0.00000000E+00  0.00000000E+00
  0.00000000E+00  0.00000000E+00  0.00000000E+00
  0.00000000E+00  0.00000000E+00  0.00000000E+00
