Title                                   
   1.00000000000000     
     9.8694509999999998    0.0000000000000000    0.0000000000000000
     0.0000000000000000    8.5490480000000009    0.0000000000000000
     0.0000000000000000    0.0000000000000000   20.0000000000000000
    24     6     1
Selective dynamics
Direct
  0.0551131267535997  0.0899717677180364  0.0910140175298337   T   T   T
  0.9306787057343994  0.1737978339676100  0.0949233286325119   T   T   T
  0.0575221898870975  0.9218955134033548  0.0917795969979467   T   T   T
  0.9326982674181150  0.3410124298373489  0.0955468121741643   T   T   T
  0.0557732078699150  0.5907544909172759  0.0891711969835108   T   T   T
  0.0553951729475272  0.4238626463746717  0.0883434372873497   T   T   T
  0.9325231609771042  0.8402585761809612  0.0943033745730897   T   T   T
  0.3066355381384769  0.0865905507047049  0.0911660466371282   T   T   T
  0.1802891724024908  0.1710674260852625  0.0881027069072887   T   T   T
  0.1789811472454161  0.3384380084030340  0.0854010861066705   T   T   T
  0.3032838581222766  0.5883461471017091  0.0886199030601665   T   T   T
  0.1797114157873017  0.6727444840807408  0.0881855444771565   T   T   T
  0.3040802942832740  0.4186279935436740  0.0852548542858797   T   T   T
  0.1816888647607007  0.8393962221425020  0.0911002322552931   T   T   T
  0.4282530864206470  0.1741507376819417  0.0936592960878040   T   T   T
  0.5547468031963565  0.9190688441628451  0.1020030755801824   T   T   T
  0.4286018559641370  0.8334116788053346  0.0987224124123218   T   T   T
  0.8047952172828253  0.0907289161588110  0.0986944569209950   T   T   T
  0.6814299299998939  0.1781605113148604  0.1071628161102339   T   T   T
  0.8074729092407502  0.9235191213018192  0.0978205986752325   T   T   T
  0.6892909330709435  0.3409071457266592  0.1190582464052794   T   T   T
  0.8118555455579608  0.5960682323079918  0.1043686307233879   T   T   T
  0.8111772304420364  0.4236438116496642  0.1075658638945031   T   T   T
  0.6834575817424731  0.8380811403332826  0.1029697207463764   T   T   T
  0.9338790030399697  0.6738753819709024  0.0948124727140962   T   T   T
  0.5543591957449127  0.0931467613902000  0.1022342802522508   T   T   T
  0.4220607730292509  0.3333285404448172  0.0879789923013572   T   T   T
  0.6955257625682719  0.6775327711639348  0.1083349750993150   T   T   T
  0.4215205215175316  0.6733554296293113  0.0990450545560625   T   T   T
  0.3058760915519498  0.9205911145266830  0.0931949878551389   T   T   T
  0.5544584373024050  0.5045407709700689  0.1204269817575093   T   T   T
 
  0.00000000E+00  0.00000000E+00  0.00000000E+00
  0.00000000E+00  0.00000000E+00  0.00000000E+00
  0.00000000E+00  0.00000000E+00  0.00000000E+00
  0.00000000E+00  0.00000000E+00  0.00000000E+00
  0.00000000E+00  0.00000000E+00  0.00000000E+00
  0.00000000E+00  0.00000000E+00  0.00000000E+00
  0.00000000E+00  0.00000000E+00  0.00000000E+00
  0.00000000E+00  0.00000000E+00  0.00000000E+00
  0.00000000E+00  0.00000000E+00  0.00000000E+00
  0.00000000E+00  0.00000000E+00  0.00000000E+00
  0.00000000E+00  0.00000000E+00  0.00000000E+00
  0.00000000E+00  0.00000000E+00  0.00000000E+00
  0.00000000E+00  0.00000000E+00  0.00000000E+00
  0.00000000E+00  0.00000000E+00  0.00000000E+00
  0.00000000E+00  0.00000000E+00  0.00000000E+00
  0.00000000E+00  0.00000000E+00  0.00000000E+00
  0.00000000E+00  0.00000000E+00  0.00000000E+00
  0.00000000E+00  0.00000000E+00  0.00000000E+00
  0.00000000E+00  0.00000000E+00  0.00000000E+00
  0.00000000E+00  0.00000000E+00  0.00000000E+00
  0.00000000E+00  0.00000000E+00  0.00000000E+00
  0.00000000E+00  0.00000000E+00  0.00000000E+00
  0.00000000E+00  0.00000000E+00  0.00000000E+00
  0.00000000E+00  0.00000000E+00  0.00000000E+00
  0.00000000E+00  0.00000000E+00  0.00000000E+00
  0.00000000E+00  0.00000000E+00  0.00000000E+00
  0.00000000E+00  0.00000000E+00  0.00000000E+00
  0.00000000E+00  0.00000000E+00  0.00000000E+00
  0.00000000E+00  0.00000000E+00  0.00000000E+00
  0.00000000E+00  0.00000000E+00  0.00000000E+00
  0.00000000E+00  0.00000000E+00  0.00000000E+00
