Title                                   
   1.00000000000000     
     9.8694509999999998    0.0000000000000000    0.0000000000000000
     0.0000000000000000    8.5490480000000009    0.0000000000000000
     0.0000000000000000    0.0000000000000000   20.0000000000000000
    24     6     1
Selective dynamics
Direct
  0.0558063481896173  0.0898104456366404  0.0959273379791868   T   T   T
  0.9309065212623752  0.1717769477275235  0.0961852576348322   T   T   T
  0.0571471120897117  0.9228270842394994  0.0959516492590578   T   T   T
  0.9322063253208799  0.3393898199647067  0.0961476737975755   T   T   T
  0.0566462660782883  0.5895784821073071  0.0957392669828662   T   T   T
  0.9322796326610271  0.6725486450927116  0.0961095471629910   T   T   T
  0.0567463459544906  0.4227489687184702  0.0957604711732484   T   T   T
  0.9315208856682170  0.8398062440600150  0.0961659667986003   T   T   T
  0.3083814194757353  0.0889835247113967  0.0966545916679296   T   T   T
  0.1820552304452040  0.1712499049825053  0.0961099015160500   T   T   T
  0.1810562498041652  0.3385325352259335  0.0960509212686909   T   T   T
  0.3043047775231125  0.5900206060383828  0.0967873503900816   T   T   T
  0.1811060232317145  0.6738579196069102  0.0960336536425042   T   T   T
  0.3042567456572199  0.4217292567851589  0.0967764132221870   T   T   T
  0.1816555933661636  0.8404413408899687  0.0961479627792124   T   T   T
  0.4306970459513466  0.1794001468717281  0.0974252230025129   T   T   T
  0.5548486133468643  0.9192352576226076  0.0977863452529762   T   T   T
  0.4303578561499466  0.8341159147861592  0.0974989606113373   T   T   T
  0.8036350067946781  0.0899992628407638  0.0967436959416876   T   T   T
  0.6811411740181653  0.1808676806280217  0.0974484308738668   T   T   T
  0.8047363914473000  0.9212878138085618  0.0967559432177211   T   T   T
  0.8084899557066971  0.5900020027462423  0.0969212049295362   T   T   T
  0.8087149687968667  0.4213068172352767  0.0969014917849077   T   T   T
  0.6812053579083760  0.8321034822004106  0.0975319231989698   T   T   T
  0.5566299269978082  0.0960131077744217  0.0978593334444309   T   T   T
  0.4274389725378441  0.3420358941530066  0.0976590734262356   T   T   T
  0.4261287082624834  0.6706097773918108  0.0977276834726327   T   T   T
  0.6844544581886352  0.3433020621252170  0.0976523220631784   T   T   T
  0.6855031689293172  0.6678895213231686  0.0977744259208369   T   T   T
  0.3070523504595425  0.9222093561952752  0.0966510285702053   T   T   T
  0.5560265677762055  0.5071951765101960  0.0980799490140087   T   T   T
 
  0.00000000E+00  0.00000000E+00  0.00000000E+00
  0.00000000E+00  0.00000000E+00  0.00000000E+00
  0.00000000E+00  0.00000000E+00  0.00000000E+00
  0.00000000E+00  0.00000000E+00  0.00000000E+00
  0.00000000E+00  0.00000000E+00  0.00000000E+00
  0.00000000E+00  0.00000000E+00  0.00000000E+00
  0.00000000E+00  0.00000000E+00  0.00000000E+00
  0.00000000E+00  0.00000000E+00  0.00000000E+00
  0.00000000E+00  0.00000000E+00  0.00000000E+00
  0.00000000E+00  0.00000000E+00  0.00000000E+00
  0.00000000E+00  0.00000000E+00  0.00000000E+00
  0.00000000E+00  0.00000000E+00  0.00000000E+00
  0.00000000E+00  0.00000000E+00  0.00000000E+00
  0.00000000E+00  0.00000000E+00  0.00000000E+00
  0.00000000E+00  0.00000000E+00  0.00000000E+00
  0.00000000E+00  0.00000000E+00  0.00000000E+00
  0.00000000E+00  0.00000000E+00  0.00000000E+00
  0.00000000E+00  0.00000000E+00  0.00000000E+00
  0.00000000E+00  0.00000000E+00  0.00000000E+00
  0.00000000E+00  0.00000000E+00  0.00000000E+00
  0.00000000E+00  0.00000000E+00  0.00000000E+00
  0.00000000E+00  0.00000000E+00  0.00000000E+00
  0.00000000E+00  0.00000000E+00  0.00000000E+00
  0.00000000E+00  0.00000000E+00  0.00000000E+00
  0.00000000E+00  0.00000000E+00  0.00000000E+00
  0.00000000E+00  0.00000000E+00  0.00000000E+00
  0.00000000E+00  0.00000000E+00  0.00000000E+00
  0.00000000E+00  0.00000000E+00  0.00000000E+00
  0.00000000E+00  0.00000000E+00  0.00000000E+00
  0.00000000E+00  0.00000000E+00  0.00000000E+00
  0.00000000E+00  0.00000000E+00  0.00000000E+00
