Title                                   
   1.00000000000000     
     8.5490480000000009    0.0000000000000000    0.0000000000000000
     0.0000000000000000    8.5490480000000009    0.0000000000000000
     0.0000000000000000    0.0000000000000000   20.0000000000000000
    21     3     1
Selective dynamics
Direct
  0.9106698794617446  0.2068233740434084  0.0978187375073504   T   T   T
  0.9126442044101153  0.8019911816997288  0.0977065477127930   T   T   T
  0.1979890484846819  0.0825815429670602  0.0980415180508415   T   T   T
  0.0740447465068599  0.2023259994774894  0.0980659772991830   T   T   T
  0.1545344114343643  0.6496641003687103  0.0980217438275612   T   T   T
  0.0726968881423528  0.5035729294440262  0.0980960407252955   T   T   T
  0.1548823877143373  0.3566393457232481  0.0981843239943626   T   T   T
  0.0787578166850751  0.8002747005321473  0.0978828694324785   T   T   T
  0.4947795762850444  0.0832426129162325  0.0978480207491157   T   T   T
  0.3452132065606747  0.1632108572399368  0.0980532521001152   T   T   T
  0.4946118341405998  0.9137279090869125  0.0978761101737114   T   T   T
  0.3465689154130239  0.8323234173478591  0.0980529177366395   T   T   T
  0.7881527390067500  0.0854673443758195  0.0976229217241877   T   T   T
  0.6399697811693182  0.1646180614724648  0.0977313148605212   T   T   T
  0.7905950185421071  0.9197672622848614  0.0976367276849111   T   T   T
  0.8306189273659660  0.6527142275431753  0.0979215994306764   T   T   T
  0.8260971786951564  0.3587723215217509  0.0979346850608034   T   T   T
  0.6432124229975026  0.8352596819001363  0.0978157843564042   T   T   T
  0.3181176599594182  0.3313568223498879  0.0981615900843147   T   T   T
  0.3192477329104524  0.6708323156726481  0.0981104510355647   T   T   T
  0.6646836333304487  0.3332100096992022  0.0978792957961726   T   T   T
  0.9068463710569241  0.5055637366500387  0.0980554677962522   T   T   T
  0.6713836077703543  0.6739901460464597  0.0980230087515546   T   T   T
  0.1976852972134941  0.9161606096977888  0.0980335790062046   T   T   T
  0.4914087147432259  0.5006994899390201  0.0981305151029677   T   T   T
 
  0.00000000E+00  0.00000000E+00  0.00000000E+00
  0.00000000E+00  0.00000000E+00  0.00000000E+00
  0.00000000E+00  0.00000000E+00  0.00000000E+00
  0.00000000E+00  0.00000000E+00  0.00000000E+00
  0.00000000E+00  0.00000000E+00  0.00000000E+00
  0.00000000E+00  0.00000000E+00  0.00000000E+00
  0.00000000E+00  0.00000000E+00  0.00000000E+00
  0.00000000E+00  0.00000000E+00  0.00000000E+00
  0.00000000E+00  0.00000000E+00  0.00000000E+00
  0.00000000E+00  0.00000000E+00  0.00000000E+00
  0.00000000E+00  0.00000000E+00  0.00000000E+00
  0.00000000E+00  0.00000000E+00  0.00000000E+00
  0.00000000E+00  0.00000000E+00  0.00000000E+00
  0.00000000E+00  0.00000000E+00  0.00000000E+00
  0.00000000E+00  0.00000000E+00  0.00000000E+00
  0.00000000E+00  0.00000000E+00  0.00000000E+00
  0.00000000E+00  0.00000000E+00  0.00000000E+00
  0.00000000E+00  0.00000000E+00  0.00000000E+00
  0.00000000E+00  0.00000000E+00  0.00000000E+00
  0.00000000E+00  0.00000000E+00  0.00000000E+00
  0.00000000E+00  0.00000000E+00  0.00000000E+00
  0.00000000E+00  0.00000000E+00  0.00000000E+00
  0.00000000E+00  0.00000000E+00  0.00000000E+00
  0.00000000E+00  0.00000000E+00  0.00000000E+00
  0.00000000E+00  0.00000000E+00  0.00000000E+00
