Title                                   
   1.00000000000000     
     9.8694509999999998    0.0000000000000000    0.0000000000000000
     0.0000000000000000    8.5490480000000009    0.0000000000000000
     0.0000000000000000    0.0000000000000000   20.0000000000000000
    27     3     1
Selective dynamics
Direct
  0.0560951250507989  0.0901168900375507  0.0940331243626673   T   T   T
  0.9306800535284435  0.1727550617214692  0.0943382442561103   T   T   T
  0.0562955373040844  0.9240861245924550  0.0939774705484565   T   T   T
  0.9330545607997047  0.3396401030119525  0.0943792363875143   T   T   T
  0.0567211218553705  0.5896092572891068  0.0941622543330812   T   T   T
  0.9335302533712376  0.6750679305525440  0.0942868771932613   T   T   T
  0.0570361102740709  0.4231440666133315  0.0941905223875177   T   T   T
  0.9317857069308612  0.8414146635050254  0.0942598312033376   T   T   T
  0.3068506796810198  0.0907376103595528  0.0949103180862012   T   T   T
  0.1808626457738411  0.1721588803096903  0.0942875885917611   T   T   T
  0.3066303835794785  0.9217565750867166  0.0949165698199205   T   T   T
  0.1807103440422132  0.3393890362069000  0.0943078768577249   T   T   T
  0.3036976872386918  0.5914146392201981  0.0947955757585801   T   T   T
  0.1798119365814474  0.6733955098810432  0.0942774156605983   T   T   T
  0.3046425327085170  0.4210362612427944  0.0947793949034337   T   T   T
  0.1809299166122525  0.8407257565792747  0.0942402700159277   T   T   T
  0.5553163754969169  0.0892072292297198  0.0957944075816516   T   T   T
  0.4301651504451853  0.1785065178928825  0.0954542111629264   T   T   T
  0.5555062332856997  0.9175613068736880  0.0957823303746822   T   T   T
  0.4290889356123646  0.8314037293637420  0.0954844018915336   T   T   T
  0.8046119081058939  0.0907436952952811  0.0950195509111141   T   T   T
  0.6802841198508246  0.1779652334455877  0.0956352805668819   T   T   T
  0.8052204388874148  0.9215867670049163  0.0949439317355398   T   T   T
  0.6847563609650766  0.3456932030958651  0.0955725152405955   T   T   T
  0.8107927072655386  0.5931665337362366  0.0948218455072631   T   T   T
  0.8099534273712279  0.4238502369122538  0.0948915315153059   T   T   T
  0.6826362501260148  0.8313955962693870  0.0954894872327861   T   T   T
  0.4266373257905768  0.3428437863229540  0.0953433595338681   T   T   T
  0.6887320489195803  0.6681145464451493  0.0954008143119539   T   T   T
  0.4241192551100821  0.6695847792109592  0.0953776008206528   T   T   T
  0.5559798674355798  0.5028034726917854  0.0958111612471924   T   T   T
 
  0.00000000E+00  0.00000000E+00  0.00000000E+00
  0.00000000E+00  0.00000000E+00  0.00000000E+00
  0.00000000E+00  0.00000000E+00  0.00000000E+00
  0.00000000E+00  0.00000000E+00  0.00000000E+00
  0.00000000E+00  0.00000000E+00  0.00000000E+00
  0.00000000E+00  0.00000000E+00  0.00000000E+00
  0.00000000E+00  0.00000000E+00  0.00000000E+00
  0.00000000E+00  0.00000000E+00  0.00000000E+00
  0.00000000E+00  0.00000000E+00  0.00000000E+00
  0.00000000E+00  0.00000000E+00  0.00000000E+00
  0.00000000E+00  0.00000000E+00  0.00000000E+00
  0.00000000E+00  0.00000000E+00  0.00000000E+00
  0.00000000E+00  0.00000000E+00  0.00000000E+00
  0.00000000E+00  0.00000000E+00  0.00000000E+00
  0.00000000E+00  0.00000000E+00  0.00000000E+00
  0.00000000E+00  0.00000000E+00  0.00000000E+00
  0.00000000E+00  0.00000000E+00  0.00000000E+00
  0.00000000E+00  0.00000000E+00  0.00000000E+00
  0.00000000E+00  0.00000000E+00  0.00000000E+00
  0.00000000E+00  0.00000000E+00  0.00000000E+00
  0.00000000E+00  0.00000000E+00  0.00000000E+00
  0.00000000E+00  0.00000000E+00  0.00000000E+00
  0.00000000E+00  0.00000000E+00  0.00000000E+00
  0.00000000E+00  0.00000000E+00  0.00000000E+00
  0.00000000E+00  0.00000000E+00  0.00000000E+00
  0.00000000E+00  0.00000000E+00  0.00000000E+00
  0.00000000E+00  0.00000000E+00  0.00000000E+00
  0.00000000E+00  0.00000000E+00  0.00000000E+00
  0.00000000E+00  0.00000000E+00  0.00000000E+00
  0.00000000E+00  0.00000000E+00  0.00000000E+00
  0.00000000E+00  0.00000000E+00  0.00000000E+00
