Title                                   
   1.00000000000000     
     9.8694509999999998    0.0000000000000000    0.0000000000000000
     0.0000000000000000    8.5490480000000009    0.0000000000000000
     0.0000000000000000    0.0000000000000000   20.0000000000000000
    28     3     1
Selective dynamics
Direct
  0.0563309312065113  0.0910434578596148  0.0851546318122633   T   T   T
  0.9304324235661914  0.1729131380242794  0.0874311623627989   T   T   T
  0.0554912486549256  0.9240729606158070  0.0850516748966487   T   T   T
  0.9299233849737163  0.3401554537948185  0.0918382472503736   T   T   T
  0.0562506169631442  0.5893790319471890  0.0881629730429669   T   T   T
  0.9311214348482023  0.6725153957077562  0.0918073001857346   T   T   T
  0.0568350267332085  0.4233908319605272  0.0895088605016278   T   T   T
  0.9305458322475443  0.8392135149854159  0.0882731941704312   T   T   T
  0.3054295220145293  0.0905178832726727  0.0869295292068929   T   T   T
  0.1819403239040811  0.1748562397885332  0.0865248247788959   T   T   T
  0.3053710160279068  0.9247995540038523  0.0868196547731224   T   T   T
  0.1841891666001193  0.3426046189726887  0.0888998451237481   T   T   T
  0.3075747807719157  0.5951758629660965  0.0915146770752679   T   T   T
  0.1810863597534606  0.6738602885403144  0.0869325840589042   T   T   T
  0.3111256557252424  0.4260071853230925  0.0924612828802992   T   T   T
  0.1804603829191473  0.8406857705546752  0.0855737177678850   T   T   T
  0.5554346354432101  0.0841386365408049  0.0943424905910778   T   T   T
  0.4321551637223625  0.1694266360323269  0.0915094373622657   T   T   T
  0.4358293087968239  0.3355456029753268  0.0964970236408488   T   T   T
  0.4278721801549475  0.8392101316000822  0.0929732707557834   T   T   T
  0.8067848576933672  0.0880110520817390  0.0882462634499154   T   T   T
  0.6805636321750959  0.1674480712376758  0.0937067594370683   T   T   T
  0.8049256051945328  0.9216352905629988  0.0892546721318193   T   T   T
  0.6793086765108985  0.3331111977807073  0.1010750654691621   T   T   T
  0.8075628630158762  0.5907471237787386  0.1044569476544567   T   T   T
  0.6907350655915813  0.6816971241544297  0.1218025565278162   T   T   T
  0.8047167437623950  0.4219375778110073  0.1006719097965403   T   T   T
  0.6814851704053553  0.8382610110528901  0.1001729698673346   T   T   T
  0.4260140987116427  0.6820379831110398  0.0977094495782506   T   T   T
  0.5573980666318281  0.4076075837606851  0.1088058076413193   T   T   T
  0.5540569885868445  0.9196136137070540  0.0968911333990767   T   T   T
  0.5506878366933972  0.5886261754951699  0.1746750828094384   T   T   T
 
  0.00000000E+00  0.00000000E+00  0.00000000E+00
  0.00000000E+00  0.00000000E+00  0.00000000E+00
  0.00000000E+00  0.00000000E+00  0.00000000E+00
  0.00000000E+00  0.00000000E+00  0.00000000E+00
  0.00000000E+00  0.00000000E+00  0.00000000E+00
  0.00000000E+00  0.00000000E+00  0.00000000E+00
  0.00000000E+00  0.00000000E+00  0.00000000E+00
  0.00000000E+00  0.00000000E+00  0.00000000E+00
  0.00000000E+00  0.00000000E+00  0.00000000E+00
  0.00000000E+00  0.00000000E+00  0.00000000E+00
  0.00000000E+00  0.00000000E+00  0.00000000E+00
  0.00000000E+00  0.00000000E+00  0.00000000E+00
  0.00000000E+00  0.00000000E+00  0.00000000E+00
  0.00000000E+00  0.00000000E+00  0.00000000E+00
  0.00000000E+00  0.00000000E+00  0.00000000E+00
  0.00000000E+00  0.00000000E+00  0.00000000E+00
  0.00000000E+00  0.00000000E+00  0.00000000E+00
  0.00000000E+00  0.00000000E+00  0.00000000E+00
  0.00000000E+00  0.00000000E+00  0.00000000E+00
  0.00000000E+00  0.00000000E+00  0.00000000E+00
  0.00000000E+00  0.00000000E+00  0.00000000E+00
  0.00000000E+00  0.00000000E+00  0.00000000E+00
  0.00000000E+00  0.00000000E+00  0.00000000E+00
  0.00000000E+00  0.00000000E+00  0.00000000E+00
  0.00000000E+00  0.00000000E+00  0.00000000E+00
  0.00000000E+00  0.00000000E+00  0.00000000E+00
  0.00000000E+00  0.00000000E+00  0.00000000E+00
  0.00000000E+00  0.00000000E+00  0.00000000E+00
  0.00000000E+00  0.00000000E+00  0.00000000E+00
  0.00000000E+00  0.00000000E+00  0.00000000E+00
  0.00000000E+00  0.00000000E+00  0.00000000E+00
  0.00000000E+00  0.00000000E+00  0.00000000E+00
