Title                                   
   1.00000000000000     
     4.9440799999999996    0.0000000000000000    0.0000000000000000
     0.0000000000000000    8.5647549999999999    0.0000000000000000
     0.0000000000000000    0.0000000000000000   20.0000000000000000
    13     2     1
Selective dynamics
Direct
  0.2376335388059139  0.2132087708315825  0.0974597871711424   T   T   T
 -0.0173621169465980  0.2955749961565722  0.0949608220324083   T   T   T
  0.2421311451759606  0.0464105692664177  0.0902132057223785   T   T   T
  0.0060623958910636  0.7929384055460325  0.0870284720590620   T   T   T
 -0.0057531772460740  0.9615062938889897  0.0870075180685842   T   T   T
  0.7373319277073366  0.2089803507051364  0.0935880095757623   T   T   T
  0.4903811912367951  0.2936453119273137  0.1043845691805256   T   T   T
  0.7423108679945507  0.0433245286264983  0.0885764804566554   T   T   T
  0.7497209109309089  0.7078314820749296  0.0909084234578946   T   T   T
  0.4911582136769397  0.7938647575413800  0.0883118697006432   T   T   T
  0.7493292487906776  0.5383051417002096  0.1003999956872313   T   T   T
  0.4931054480343613  0.9619706700969940  0.0887761458988467   T   T   T
  0.5196431769082251  0.4521142543820558  0.1249075006257013   T   T   T
 -0.0252102602318056  0.4526305947224478  0.0899832927685435   T   T   T
  0.2506998770379936  0.7175015323279984  0.0864906619974280   T   T   T
  0.3388176122337511  0.5201923402054419  0.2095152455972004   T   T   T
 
  0.00000000E+00  0.00000000E+00  0.00000000E+00
  0.00000000E+00  0.00000000E+00  0.00000000E+00
  0.00000000E+00  0.00000000E+00  0.00000000E+00
  0.00000000E+00  0.00000000E+00  0.00000000E+00
  0.00000000E+00  0.00000000E+00  0.00000000E+00
  0.00000000E+00  0.00000000E+00  0.00000000E+00
  0.00000000E+00  0.00000000E+00  0.00000000E+00
  0.00000000E+00  0.00000000E+00  0.00000000E+00
  0.00000000E+00  0.00000000E+00  0.00000000E+00
  0.00000000E+00  0.00000000E+00  0.00000000E+00
  0.00000000E+00  0.00000000E+00  0.00000000E+00
  0.00000000E+00  0.00000000E+00  0.00000000E+00
  0.00000000E+00  0.00000000E+00  0.00000000E+00
  0.00000000E+00  0.00000000E+00  0.00000000E+00
  0.00000000E+00  0.00000000E+00  0.00000000E+00
  0.00000000E+00  0.00000000E+00  0.00000000E+00
