Title                                   
   1.00000000000000     
     9.8694509999999998    0.0000000000000000    0.0000000000000000
     0.0000000000000000    8.5490480000000009    0.0000000000000000
     0.0000000000000000    0.0000000000000000   20.0000000000000000
    27     4     1
Selective dynamics
Direct
  0.0558359507280012  0.0917895177109614  0.0853934090092859   T   T   T
  0.9302743204655558  0.1757085853476720  0.0876670498642681   T   T   T
  0.0568635429331336  0.9237405589315781  0.0847856741582590   T   T   T
  0.9287068851320235  0.3423205644099037  0.0906376194687103   T   T   T
  0.0559583323601856  0.5898111280797201  0.0871967446962746   T   T   T
  0.9321371836753162  0.6739050570312074  0.0875935044776508   T   T   T
  0.0560493791029924  0.4233670995759895  0.0897728344641498   T   T   T
  0.9317990906976111  0.8415061751133743  0.0857132122660003   T   T   T
  0.3048196697602206  0.0877104923788122  0.0871170516302149   T   T   T
  0.1815934927522237  0.1739715989827116  0.0870334789175646   T   T   T
  0.3071160076080105  0.9220823889567177  0.0893750929345412   T   T   T
  0.1812363239833174  0.3399545955539827  0.0907440949439176   T   T   T
  0.3057065991093249  0.5891958964377583  0.1001109835489181   T   T   T
  0.1816174465450565  0.6704281630784599  0.0892138017340138   T   T   T
  0.1822658732303989  0.8381356863414132  0.0874983823237172   T   T   T
  0.5554099875180248  0.0862301311647362  0.0959943562548514   T   T   T
  0.4296392031859605  0.1686513423838741  0.0921418506531243   T   T   T
  0.4293111245154970  0.3332048587611402  0.0978203461464717   T   T   T
  0.4295882704884394  0.8374113276290304  0.1010568954363151   T   T   T
  0.8064032191636368  0.0917042864839713  0.0880061152204789   T   T   T
  0.6799023735002717  0.1704528767698015  0.0941266984863878   T   T   T
  0.8065547386611998  0.9262177056396570  0.0869522121071818   T   T   T
  0.6764789270587402  0.3351810979718509  0.0994476413105163   T   T   T
  0.8069761015827973  0.5952387214843500  0.0953568856525921   T   T   T
  0.7999446921077413  0.4266674988584395  0.0956871168926307   T   T   T
  0.6837730520929622  0.8431503520380313  0.0951184563366494   T   T   T
  0.4232476392700634  0.6765874747551455  0.1174656541992620   T   T   T
  0.5496106532060711  0.4062881185236661  0.1128629007109912   T   T   T
  0.6905267129446661  0.6858926630752559  0.1072553446407911   T   T   T
  0.5568503761441850  0.9199180511008660  0.0992454898666233   T   T   T
  0.3077413637682593  0.4215558274646975  0.0970658394803737   T   T   T
  0.5757004667081161  0.5822661579652284  0.1802182621672893   T   T   T
 
  0.00000000E+00  0.00000000E+00  0.00000000E+00
  0.00000000E+00  0.00000000E+00  0.00000000E+00
  0.00000000E+00  0.00000000E+00  0.00000000E+00
  0.00000000E+00  0.00000000E+00  0.00000000E+00
  0.00000000E+00  0.00000000E+00  0.00000000E+00
  0.00000000E+00  0.00000000E+00  0.00000000E+00
  0.00000000E+00  0.00000000E+00  0.00000000E+00
  0.00000000E+00  0.00000000E+00  0.00000000E+00
  0.00000000E+00  0.00000000E+00  0.00000000E+00
  0.00000000E+00  0.00000000E+00  0.00000000E+00
  0.00000000E+00  0.00000000E+00  0.00000000E+00
  0.00000000E+00  0.00000000E+00  0.00000000E+00
  0.00000000E+00  0.00000000E+00  0.00000000E+00
  0.00000000E+00  0.00000000E+00  0.00000000E+00
  0.00000000E+00  0.00000000E+00  0.00000000E+00
  0.00000000E+00  0.00000000E+00  0.00000000E+00
  0.00000000E+00  0.00000000E+00  0.00000000E+00
  0.00000000E+00  0.00000000E+00  0.00000000E+00
  0.00000000E+00  0.00000000E+00  0.00000000E+00
  0.00000000E+00  0.00000000E+00  0.00000000E+00
  0.00000000E+00  0.00000000E+00  0.00000000E+00
  0.00000000E+00  0.00000000E+00  0.00000000E+00
  0.00000000E+00  0.00000000E+00  0.00000000E+00
  0.00000000E+00  0.00000000E+00  0.00000000E+00
  0.00000000E+00  0.00000000E+00  0.00000000E+00
  0.00000000E+00  0.00000000E+00  0.00000000E+00
  0.00000000E+00  0.00000000E+00  0.00000000E+00
  0.00000000E+00  0.00000000E+00  0.00000000E+00
  0.00000000E+00  0.00000000E+00  0.00000000E+00
  0.00000000E+00  0.00000000E+00  0.00000000E+00
  0.00000000E+00  0.00000000E+00  0.00000000E+00
  0.00000000E+00  0.00000000E+00  0.00000000E+00
