Title                                   
   1.00000000000000     
     8.5490480000000009    0.0000000000000000    0.0000000000000000
     0.0000000000000000    8.5490480000000009    0.0000000000000000
     0.0000000000000000    0.0000000000000000   20.0000000000000000
    21     3     1
Selective dynamics
Direct
  0.9100980004112901  0.2071755657403746  0.0954954446064962   T   T   T
  0.9112343903117698  0.7983201187697868  0.0953275896361033   T   T   T
  0.1997081595977678  0.0827669399884138  0.0953564566521813   T   T   T
  0.0758734581053032  0.2039212666964319  0.0953635712352875   T   T   T
  0.1575908960606437  0.6500524873358805  0.0979294596164779   T   T   T
  0.0764317256349104  0.5010521276775253  0.0971354921758831   T   T   T
  0.1572711038801754  0.3545730439190009  0.0966627316775106   T   T   T
  0.0778726804709990  0.7990748832238189  0.0958930427876003   T   T   T
  0.3470279119039559  0.1651356127222701  0.0964963932463093   T   T   T
  0.4927707073269150  0.9192490373236794  0.0970618808922047   T   T   T
  0.3452381540509349  0.8368162193210986  0.0980822860719302   T   T   T
  0.7866091478561986  0.0842707040623301  0.0955406447943673   T   T   T
  0.6379266369360328  0.1671092865226985  0.0971410673602441   T   T   T
  0.7878569761997183  0.9194350685724194  0.0952510742982779   T   T   T
  0.8293094033509336  0.6483561922122766  0.0964384812548887   T   T   T
  0.8278937289642153  0.3561377998537574  0.0970453006273286   T   T   T
  0.6382763489744995  0.8371225019704974  0.0964690537853169   T   T   T
  0.3265195436246645  0.3329455295547851  0.0998633995393487   T   T   T
  0.3245639797243052  0.6718692027873360  0.1013875796307285   T   T   T
  0.6595314683807151  0.3355634751322664  0.1015904230657872   T   T   T
  0.6612958243755606  0.6679552704343361  0.0996669229191035   T   T   T
  0.4944892282897732  0.0861089391214004  0.0968001209832755   T   T   T
  0.9090219886900037  0.5014686693308021  0.0967668558574456   T   T   T
  0.1964943948397812  0.9178787688432468  0.0958358293484141   T   T   T
  0.4945061420389201  0.5004312888835735  0.1131038979374691   T   T   T
 
  0.00000000E+00  0.00000000E+00  0.00000000E+00
  0.00000000E+00  0.00000000E+00  0.00000000E+00
  0.00000000E+00  0.00000000E+00  0.00000000E+00
  0.00000000E+00  0.00000000E+00  0.00000000E+00
  0.00000000E+00  0.00000000E+00  0.00000000E+00
  0.00000000E+00  0.00000000E+00  0.00000000E+00
  0.00000000E+00  0.00000000E+00  0.00000000E+00
  0.00000000E+00  0.00000000E+00  0.00000000E+00
  0.00000000E+00  0.00000000E+00  0.00000000E+00
  0.00000000E+00  0.00000000E+00  0.00000000E+00
  0.00000000E+00  0.00000000E+00  0.00000000E+00
  0.00000000E+00  0.00000000E+00  0.00000000E+00
  0.00000000E+00  0.00000000E+00  0.00000000E+00
  0.00000000E+00  0.00000000E+00  0.00000000E+00
  0.00000000E+00  0.00000000E+00  0.00000000E+00
  0.00000000E+00  0.00000000E+00  0.00000000E+00
  0.00000000E+00  0.00000000E+00  0.00000000E+00
  0.00000000E+00  0.00000000E+00  0.00000000E+00
  0.00000000E+00  0.00000000E+00  0.00000000E+00
  0.00000000E+00  0.00000000E+00  0.00000000E+00
  0.00000000E+00  0.00000000E+00  0.00000000E+00
  0.00000000E+00  0.00000000E+00  0.00000000E+00
  0.00000000E+00  0.00000000E+00  0.00000000E+00
  0.00000000E+00  0.00000000E+00  0.00000000E+00
  0.00000000E+00  0.00000000E+00  0.00000000E+00
