Title                                   
   1.00000000000000     
     9.8694509999999998    0.0000000000000000    0.0000000000000000
     0.0000000000000000    8.5490480000000009    0.0000000000000000
     0.0000000000000000    0.0000000000000000   20.0000000000000000
    28     3     1
Selective dynamics
Direct
  0.0560373858659700  0.0922814959593800  0.0888647418666860   T   T   T
  0.9305186763880225  0.1746874436355781  0.0910531215974766   T   T   T
  0.0557484061646987  0.9253464107769870  0.0879976974136963   T   T   T
  0.9291640237257967  0.3421881199668286  0.0941995371043030   T   T   T
  0.0559717970407113  0.5898266790129727  0.0902248829392200   T   T   T
  0.9319278903184579  0.6738864997354974  0.0927905169430637   T   T   T
  0.0562419642339585  0.4240107051812172  0.0912527005064756   T   T   T
  0.9319968445840690  0.8407576256506369  0.0908198566715382   T   T   T
  0.3054408060419715  0.0898322533885574  0.0880996692517681   T   T   T
  0.1817912502063898  0.1748639338788137  0.0890857045158692   T   T   T
  0.3044245588795947  0.9233057345853699  0.0872104063498969   T   T   T
  0.1837145287627993  0.3423459154194062  0.0902327537556382   T   T   T
  0.3068676334043288  0.5952680678059606  0.0888280200359638   T   T   T
  0.1798763073956689  0.6742934081720667  0.0880913718214148   T   T   T
  0.3100083783253848  0.4251502141968682  0.0917378265957194   T   T   T
  0.1798201327756290  0.8409136054806958  0.0869545028408547   T   T   T
  0.5561957537726906  0.0827760679812499  0.0924763436205276   T   T   T
  0.4317992997345558  0.1693049187767259  0.0909785845196629   T   T   T
  0.5558853578737866  0.9156849584739825  0.0928976279719127   T   T   T
  0.4350604450491521  0.3356941965452950  0.0966264419098811   T   T   T
  0.4268173305849818  0.8348281546072698  0.0888991341798055   T   T   T
  0.8067790271817242  0.0895984058218491  0.0909742313252996   T   T   T
  0.6806396083825801  0.1691799256049394  0.0938994853998503   T   T   T
  0.8074123246489194  0.9230899855458600  0.0918371107656800   T   T   T
  0.6775425673289345  0.3348989835264257  0.1014328197012536   T   T   T
  0.8066898508609579  0.5940212715210664  0.1015518649605277   T   T   T
  0.8032202211247346  0.4243860638341556  0.1008177182143920   T   T   T
  0.6846025808130287  0.8360435484631512  0.0979708998607209   T   T   T
  0.4246316392785054  0.6766359951222930  0.0880084921212856   T   T   T
  0.5560583142189666  0.4079848571155241  0.1085068399546334   T   T   T
  0.6916879555399805  0.6793712153986889  0.1098115259904402   T   T   T
  0.5550661394930564  0.5877893388147002  0.1815425692945769   T   T   T
 
  0.00000000E+00  0.00000000E+00  0.00000000E+00
  0.00000000E+00  0.00000000E+00  0.00000000E+00
  0.00000000E+00  0.00000000E+00  0.00000000E+00
  0.00000000E+00  0.00000000E+00  0.00000000E+00
  0.00000000E+00  0.00000000E+00  0.00000000E+00
  0.00000000E+00  0.00000000E+00  0.00000000E+00
  0.00000000E+00  0.00000000E+00  0.00000000E+00
  0.00000000E+00  0.00000000E+00  0.00000000E+00
  0.00000000E+00  0.00000000E+00  0.00000000E+00
  0.00000000E+00  0.00000000E+00  0.00000000E+00
  0.00000000E+00  0.00000000E+00  0.00000000E+00
  0.00000000E+00  0.00000000E+00  0.00000000E+00
  0.00000000E+00  0.00000000E+00  0.00000000E+00
  0.00000000E+00  0.00000000E+00  0.00000000E+00
  0.00000000E+00  0.00000000E+00  0.00000000E+00
  0.00000000E+00  0.00000000E+00  0.00000000E+00
  0.00000000E+00  0.00000000E+00  0.00000000E+00
  0.00000000E+00  0.00000000E+00  0.00000000E+00
  0.00000000E+00  0.00000000E+00  0.00000000E+00
  0.00000000E+00  0.00000000E+00  0.00000000E+00
  0.00000000E+00  0.00000000E+00  0.00000000E+00
  0.00000000E+00  0.00000000E+00  0.00000000E+00
  0.00000000E+00  0.00000000E+00  0.00000000E+00
  0.00000000E+00  0.00000000E+00  0.00000000E+00
  0.00000000E+00  0.00000000E+00  0.00000000E+00
  0.00000000E+00  0.00000000E+00  0.00000000E+00
  0.00000000E+00  0.00000000E+00  0.00000000E+00
  0.00000000E+00  0.00000000E+00  0.00000000E+00
  0.00000000E+00  0.00000000E+00  0.00000000E+00
  0.00000000E+00  0.00000000E+00  0.00000000E+00
  0.00000000E+00  0.00000000E+00  0.00000000E+00
  0.00000000E+00  0.00000000E+00  0.00000000E+00
