Title                                   
   1.00000000000000     
     4.9440799999999996    0.0000000000000000    0.0000000000000000
     0.0000000000000000   17.1295089999999988    0.0000000000000000
     0.0000000000000000    0.0000000000000000   20.0000000000000000
    30     1     1
Selective dynamics
Direct
 -0.0001915750084945  0.1041988316053667  0.2784060492641715   T   T   T
  0.2499130260111598  0.1457048498854002  0.2832318538976733   T   T   T
  0.2499019583101163  0.2277872730787360  0.2961422140667178   T   T   T
  0.0011314729787400  0.3488573230853629  0.3227262777648126   T   T   T
 -0.0012702767368787  0.2685432212378308  0.3032514441462072   T   T   T
 -0.0028390728717232  0.6083458567739201  0.3176489642500476   T   T   T
  0.2499035077527837  0.7296205724888500  0.2923884111964611   T   T   T
  0.0001304394298930  0.8540593323713065  0.2765426970307753   T   T   T
  0.2498974896270257  0.8958215908921150  0.2738968822448155   T   T   T
  0.2498991544203821  0.9791973317945186  0.2720340061742038   T   T   T
  0.0002491843731973  0.7712167243916244  0.2854812930190814   T   T   T
  0.5000173992510581  0.1041960565896932  0.2784022798111980   T   T   T
  0.7499103261961567  0.1456047407586623  0.2826800264758075   T   T   T
  0.7498970678384294  0.2278803453336180  0.2946355333460620   T   T   T
  0.5000217083095034  0.0209640057060691  0.2728756102708860   T   T   T
  0.4986684662335442  0.3488589951124337  0.3227325177993376   T   T   T
  0.7499063942544911  0.3935694355239862  0.3298404815714432   T   T   T
  0.7499212385819373  0.4799484095804234  0.3355145291789413   T   T   T
  0.5010600613206639  0.2685441579197042  0.3032540523011859   T   T   T
  0.5026562634009837  0.6083252528361801  0.3176323018770997   T   T   T
  0.7498983181822380  0.7305348486370705  0.2911606483472788   T   T   T
  0.4996719433334723  0.8540638335070150  0.2765527187483149   T   T   T
  0.7499000444523397  0.8956237641952242  0.2737173110499475   T   T   T
  0.7499079101896501  0.9791724938816782  0.2718856691205763   T   T   T
  0.4995493514943437  0.7712223849390945  0.2854871640414390   T   T   T
  0.7499038076043343  0.6491188682119294  0.3066365287191682   T   T   T
  0.2499159583172968  0.6484044498563064  0.3092815214097567   T   T   T
 -0.0002072423105410  0.0209664823213583  0.2728777432406543   T   T   T
  0.5125146427327594  0.5286755445691478  0.3380077227535408   T   T   T
  0.9872793682430029  0.5286912894176630  0.3379918757084002   T   T   T
  0.2498942222396310  0.3823610894029190  0.3370667589827802   T   T   T
  0.2498104418485115  0.4784716440947832  0.3825819121911664   T   T   T
 
  0.00000000E+00  0.00000000E+00  0.00000000E+00
  0.00000000E+00  0.00000000E+00  0.00000000E+00
  0.00000000E+00  0.00000000E+00  0.00000000E+00
  0.00000000E+00  0.00000000E+00  0.00000000E+00
  0.00000000E+00  0.00000000E+00  0.00000000E+00
  0.00000000E+00  0.00000000E+00  0.00000000E+00
  0.00000000E+00  0.00000000E+00  0.00000000E+00
  0.00000000E+00  0.00000000E+00  0.00000000E+00
  0.00000000E+00  0.00000000E+00  0.00000000E+00
  0.00000000E+00  0.00000000E+00  0.00000000E+00
  0.00000000E+00  0.00000000E+00  0.00000000E+00
  0.00000000E+00  0.00000000E+00  0.00000000E+00
  0.00000000E+00  0.00000000E+00  0.00000000E+00
  0.00000000E+00  0.00000000E+00  0.00000000E+00
  0.00000000E+00  0.00000000E+00  0.00000000E+00
  0.00000000E+00  0.00000000E+00  0.00000000E+00
  0.00000000E+00  0.00000000E+00  0.00000000E+00
  0.00000000E+00  0.00000000E+00  0.00000000E+00
  0.00000000E+00  0.00000000E+00  0.00000000E+00
  0.00000000E+00  0.00000000E+00  0.00000000E+00
  0.00000000E+00  0.00000000E+00  0.00000000E+00
  0.00000000E+00  0.00000000E+00  0.00000000E+00
  0.00000000E+00  0.00000000E+00  0.00000000E+00
  0.00000000E+00  0.00000000E+00  0.00000000E+00
  0.00000000E+00  0.00000000E+00  0.00000000E+00
  0.00000000E+00  0.00000000E+00  0.00000000E+00
  0.00000000E+00  0.00000000E+00  0.00000000E+00
  0.00000000E+00  0.00000000E+00  0.00000000E+00
  0.00000000E+00  0.00000000E+00  0.00000000E+00
  0.00000000E+00  0.00000000E+00  0.00000000E+00
  0.00000000E+00  0.00000000E+00  0.00000000E+00
  0.00000000E+00  0.00000000E+00  0.00000000E+00
