Title                                   
   1.00000000000000     
     9.8694509999999998    0.0000000000000000    0.0000000000000000
     0.0000000000000000    8.5490480000000009    0.0000000000000000
     0.0000000000000000    0.0000000000000000   20.0000000000000000
    27     4     1
Selective dynamics
Direct
  0.0558638307608954  0.0919445837481062  0.0859607960130176   T   T   T
  0.9298696708953365  0.1757383712021354  0.0883200368688398   T   T   T
  0.0571227578516857  0.9236106785316758  0.0842269617306848   T   T   T
  0.9293833533500891  0.3422457019974703  0.0917734237621592   T   T   T
  0.0563173638982285  0.5899125773481421  0.0864904564030797   T   T   T
  0.9325626873140229  0.6726832921656705  0.0864087855530990   T   T   T
  0.0552199250369119  0.4229236736129917  0.0903380435983450   T   T   T
  0.9320821823262412  0.8403942100461244  0.0851978845823917   T   T   T
  0.3054863177445279  0.0874881107043597  0.0889969475452773   T   T   T
  0.1818214440885865  0.1732912123901832  0.0886257996494614   T   T   T
  0.3078205755746634  0.9218546775803934  0.0890447311068653   T   T   T
  0.1809589937840424  0.3394011862174708  0.0922390393350715   T   T   T
  0.3044377538286729  0.5878852699006639  0.0991502386670958   T   T   T
  0.1809900711338311  0.6704667513783719  0.0879008542648580   T   T   T
  0.1825472851632066  0.8383007164258367  0.0862318021704554   T   T   T
  0.5567994435849796  0.0866631211847383  0.0957554085563338   T   T   T
  0.4302929711009500  0.1689517102615896  0.0948611333005889   T   T   T
  0.4295952118745806  0.3342774328832782  0.1032684894367398   T   T   T
  0.4311218471598688  0.8373237576416305  0.0992462948632889   T   T   T
  0.8067393554593690  0.0907800150913202  0.0879825056929027   T   T   T
  0.6808827433318230  0.1721146365417862  0.0939098953517377   T   T   T
  0.8071157492532688  0.9256624065545885  0.0875318349470628   T   T   T
  0.6786790025163144  0.3381839154119133  0.1021769791520221   T   T   T
  0.8073666728489451  0.5943317844131644  0.0954474374522070   T   T   T
  0.6859876756121198  0.8395338139518931  0.0960226185891508   T   T   T
  0.4213659521536173  0.6747088007888242  0.1148738688281153   T   T   T
  0.5527548249520311  0.4106884036197750  0.1185674515764025   T   T   T
  0.6940663053842848  0.6814550608729241  0.1072849933561200   T   T   T
  0.5580064823746357  0.9181349954259063  0.0977981587293151   T   T   T
  0.3050052044944642  0.4205777171906606  0.0989766931406147   T   T   T
  0.8032625285448094  0.4262262314513567  0.0973870154309442   T   T   T
  0.5581128166030028  0.5924911834650578  0.1636784203457688   T   T   T
 
  0.00000000E+00  0.00000000E+00  0.00000000E+00
  0.00000000E+00  0.00000000E+00  0.00000000E+00
  0.00000000E+00  0.00000000E+00  0.00000000E+00
  0.00000000E+00  0.00000000E+00  0.00000000E+00
  0.00000000E+00  0.00000000E+00  0.00000000E+00
  0.00000000E+00  0.00000000E+00  0.00000000E+00
  0.00000000E+00  0.00000000E+00  0.00000000E+00
  0.00000000E+00  0.00000000E+00  0.00000000E+00
  0.00000000E+00  0.00000000E+00  0.00000000E+00
  0.00000000E+00  0.00000000E+00  0.00000000E+00
  0.00000000E+00  0.00000000E+00  0.00000000E+00
  0.00000000E+00  0.00000000E+00  0.00000000E+00
  0.00000000E+00  0.00000000E+00  0.00000000E+00
  0.00000000E+00  0.00000000E+00  0.00000000E+00
  0.00000000E+00  0.00000000E+00  0.00000000E+00
  0.00000000E+00  0.00000000E+00  0.00000000E+00
  0.00000000E+00  0.00000000E+00  0.00000000E+00
  0.00000000E+00  0.00000000E+00  0.00000000E+00
  0.00000000E+00  0.00000000E+00  0.00000000E+00
  0.00000000E+00  0.00000000E+00  0.00000000E+00
  0.00000000E+00  0.00000000E+00  0.00000000E+00
  0.00000000E+00  0.00000000E+00  0.00000000E+00
  0.00000000E+00  0.00000000E+00  0.00000000E+00
  0.00000000E+00  0.00000000E+00  0.00000000E+00
  0.00000000E+00  0.00000000E+00  0.00000000E+00
  0.00000000E+00  0.00000000E+00  0.00000000E+00
  0.00000000E+00  0.00000000E+00  0.00000000E+00
  0.00000000E+00  0.00000000E+00  0.00000000E+00
  0.00000000E+00  0.00000000E+00  0.00000000E+00
  0.00000000E+00  0.00000000E+00  0.00000000E+00
  0.00000000E+00  0.00000000E+00  0.00000000E+00
  0.00000000E+00  0.00000000E+00  0.00000000E+00
