Title                                   
   1.00000000000000     
     4.9440799999999996    0.0000000000000000    0.0000000000000000
     0.0000000000000000    8.5647549999999999    0.0000000000000000
     0.0000000000000000    0.0000000000000000   20.0000000000000000
    11     3     1
Selective dynamics
Direct
  0.2504813962715232  0.2089022593709265  0.0986598871121510   T   T   T
 -0.0036158817564923  0.2900292922457036  0.0940541432625613   T   T   T
  0.2527006964584382  0.0372559319324200  0.0975951847912649   T   T   T
 -0.0006490089631590  0.9584375736219154  0.0915277217776759   T   T   T
  0.7447975319143525  0.2089365623133470  0.0961243265668329   T   T   T
  0.4981354455189269  0.2964277441052299  0.1036098604397979   T   T   T
  0.7483865352068406  0.0400938052087698  0.0947871433383931   T   T   T
  0.7625567447388948  0.7138065390351066  0.0973994511154360   T   T   T
  0.7602062466266052  0.5396457132482165  0.0998014014458434   T   T   T
  0.5044207926499997  0.9514242897386529  0.1018289588463391   T   T   T
  0.5093373365329955  0.4652120296875873  0.1159387944621079   T   T   T
 -0.0080928116351955  0.4519304062240060  0.0902199028099803   T   T   T
 -0.0071326930255182  0.7972059127765470  0.0846902169891354   T   T   T
  0.5213828186934901  0.7883477612348844  0.1143463602456684   T   T   T
  0.2170848507682966  0.6240251792566898  0.1273966467968158   T   T   T
 
  0.00000000E+00  0.00000000E+00  0.00000000E+00
  0.00000000E+00  0.00000000E+00  0.00000000E+00
  0.00000000E+00  0.00000000E+00  0.00000000E+00
  0.00000000E+00  0.00000000E+00  0.00000000E+00
  0.00000000E+00  0.00000000E+00  0.00000000E+00
  0.00000000E+00  0.00000000E+00  0.00000000E+00
  0.00000000E+00  0.00000000E+00  0.00000000E+00
  0.00000000E+00  0.00000000E+00  0.00000000E+00
  0.00000000E+00  0.00000000E+00  0.00000000E+00
  0.00000000E+00  0.00000000E+00  0.00000000E+00
  0.00000000E+00  0.00000000E+00  0.00000000E+00
  0.00000000E+00  0.00000000E+00  0.00000000E+00
  0.00000000E+00  0.00000000E+00  0.00000000E+00
  0.00000000E+00  0.00000000E+00  0.00000000E+00
  0.00000000E+00  0.00000000E+00  0.00000000E+00
