Title                                   
   1.00000000000000     
     9.8694509999999998    0.0000000000000000    0.0000000000000000
     0.0000000000000000    8.5490480000000009    0.0000000000000000
     0.0000000000000000    0.0000000000000000   20.0000000000000000
    24     6     1
Selective dynamics
Direct
  0.0555160434356153  0.0900554235395513  0.0950651959432813   T   T   T
  0.9306739568404176  0.1731484692540588  0.0955887046575306   T   T   T
  0.0575081719994640  0.9219116037951072  0.0951149291277022   T   T   T
  0.9332550439984492  0.3402368205723071  0.0957056593588967   T   T   T
  0.0561679509766192  0.5908189428791327  0.0947426948505695   T   T   T
  0.0563866051772135  0.4238637055529240  0.0946700867657690   T   T   T
  0.9324175801467209  0.8399483170976965  0.0955681894428394   T   T   T
  0.3070884325193092  0.0879023257179104  0.0963010039285752   T   T   T
  0.1806394348075409  0.1714689407949121  0.0951967932068866   T   T   T
  0.1801454185422049  0.3388329196694345  0.0948736738764325   T   T   T
  0.3031728605956186  0.5891085279320510  0.0960750162094886   T   T   T
  0.1796520415854575  0.6732764739121405  0.0950072295778014   T   T   T
  0.3044520401236515  0.4202335252517539  0.0956526306477717   T   T   T
  0.1816109717078240  0.8400690475449379  0.0953405584671123   T   T   T
  0.4292370164936074  0.1746085146845030  0.0972330304723386   T   T   T
  0.5548227084754794  0.9184250824000888  0.0984357326858512   T   T   T
  0.4283620181901215  0.8336211603214623  0.0979687424004988   T   T   T
  0.8046136973128091  0.0895659827340635  0.0966351945020743   T   T   T
  0.6805022670651611  0.1778015270167715  0.0986894782734670   T   T   T
  0.8068053907321292  0.9220630889694514  0.0966444095463965   T   T   T
  0.6866140817986243  0.3423057303314539  0.1009431352083621   T   T   T
  0.8113092680566178  0.5946484039065684  0.0977452312150085   T   T   T
  0.8105229774248602  0.4243280685872025  0.0981807617662367   T   T   T
  0.6821131085606689  0.8359609244935795  0.0981859967441414   T   T   T
  0.9337174433279707  0.6738937427604889  0.0956061307151333   T   T   T
  0.5546675543260451  0.0923207412834324  0.0984357410448558   T   T   T
  0.4240390141268593  0.3359025064871420  0.0964253789720311   T   T   T
  0.6927322033031413  0.6736705696856591  0.0990747449974768   T   T   T
  0.4223388040512173  0.6746248051243041  0.0986417370144485   T   T   T
  0.3057815071694947  0.9213502605716841  0.0962239720597588   T   T   T
  0.5562693871290939  0.5049088471282389  0.1009932163213000   T   T   T
 
  0.00000000E+00  0.00000000E+00  0.00000000E+00
  0.00000000E+00  0.00000000E+00  0.00000000E+00
  0.00000000E+00  0.00000000E+00  0.00000000E+00
  0.00000000E+00  0.00000000E+00  0.00000000E+00
  0.00000000E+00  0.00000000E+00  0.00000000E+00
  0.00000000E+00  0.00000000E+00  0.00000000E+00
  0.00000000E+00  0.00000000E+00  0.00000000E+00
  0.00000000E+00  0.00000000E+00  0.00000000E+00
  0.00000000E+00  0.00000000E+00  0.00000000E+00
  0.00000000E+00  0.00000000E+00  0.00000000E+00
  0.00000000E+00  0.00000000E+00  0.00000000E+00
  0.00000000E+00  0.00000000E+00  0.00000000E+00
  0.00000000E+00  0.00000000E+00  0.00000000E+00
  0.00000000E+00  0.00000000E+00  0.00000000E+00
  0.00000000E+00  0.00000000E+00  0.00000000E+00
  0.00000000E+00  0.00000000E+00  0.00000000E+00
  0.00000000E+00  0.00000000E+00  0.00000000E+00
  0.00000000E+00  0.00000000E+00  0.00000000E+00
  0.00000000E+00  0.00000000E+00  0.00000000E+00
  0.00000000E+00  0.00000000E+00  0.00000000E+00
  0.00000000E+00  0.00000000E+00  0.00000000E+00
  0.00000000E+00  0.00000000E+00  0.00000000E+00
  0.00000000E+00  0.00000000E+00  0.00000000E+00
  0.00000000E+00  0.00000000E+00  0.00000000E+00
  0.00000000E+00  0.00000000E+00  0.00000000E+00
  0.00000000E+00  0.00000000E+00  0.00000000E+00
  0.00000000E+00  0.00000000E+00  0.00000000E+00
  0.00000000E+00  0.00000000E+00  0.00000000E+00
  0.00000000E+00  0.00000000E+00  0.00000000E+00
  0.00000000E+00  0.00000000E+00  0.00000000E+00
  0.00000000E+00  0.00000000E+00  0.00000000E+00
