Title                                   
   1.00000000000000     
     9.8694509999999998    0.0000000000000000    0.0000000000000000
     0.0000000000000000    8.5490480000000009    0.0000000000000000
     0.0000000000000000    0.0000000000000000   20.0000000000000000
    29     1     1
Selective dynamics
Direct
  0.0564475201631701  0.0892893233603196  0.0827825568590155   T   T   T
  0.9320056590777966  0.1701690303152752  0.0853851138562413   T   T   T
  0.0563921319115019  0.9238183847981983  0.0830510064125465   T   T   T
  0.9340225425632505  0.3373608122064018  0.0836436037735842   T   T   T
  0.0563889432176300  0.5900303531938169  0.0791164828232258   T   T   T
  0.9320750168881652  0.6724525918305160  0.0825279018076170   T   T   T
  0.0574085490584923  0.4231201550650472  0.0790931947767244   T   T   T
  0.9304186394432316  0.8388543143459430  0.0842043771572138   T   T   T
  0.3076131018526977  0.0918717505589334  0.0923221559360916   T   T   T
  0.1826433623866364  0.1720802809743895  0.0842467992625337   T   T   T
  0.1815819725171698  0.3395848899350873  0.0827834935269920   T   T   T
  0.2995870516737356  0.5939088511504734  0.0959803778205569   T   T   T
  0.1800443538123026  0.6763550685688222  0.0839672681936348   T   T   T
  0.3019479464638736  0.4252907227181992  0.0923504742974784   T   T   T
  0.1813614347314807  0.8431819583118906  0.0859682912037775   T   T   T
  0.5576640264417225  0.0895289180090312  0.1058752888003294   T   T   T
  0.4324720795363487  0.1783243471394886  0.1013443476694102   T   T   T
  0.5535514072920876  0.9229130729256886  0.1053663469127590   T   T   T
  0.4261134359456573  0.3472210723043953  0.1037544400319129   T   T   T
  0.4183037430160681  0.6744168683332017  0.1162167794708565   T   T   T
  0.4256727503749357  0.8382189654491086  0.1059889133202113   T   T   T
  0.8061966317545540  0.0874877469021140  0.0928629084206962   T   T   T
  0.6846737001512642  0.1744004428584429  0.1047883502298505   T   T   T
  0.8041790841510931  0.9190989454249348  0.0914985334100195   T   T   T
  0.6930432403490988  0.3397387005407009  0.1150385834106507   T   T   T
  0.8110292269022654  0.5868913820648901  0.0912855584586301   T   T   T
  0.6857351766020854  0.6639787315967427  0.1020390780523817   T   T   T
  0.8135704938371427  0.4186760943326841  0.0949449238874258   T   T   T
  0.6781724257416714  0.8319827927101564  0.0997927190951294   T   T   T
  0.3053221375780267  0.9248139140344286  0.0934326574709981   T   T   T
  0.5574972145648450  0.5058145180406982  0.1393124736515321   T   T   T
 
  0.00000000E+00  0.00000000E+00  0.00000000E+00
  0.00000000E+00  0.00000000E+00  0.00000000E+00
  0.00000000E+00  0.00000000E+00  0.00000000E+00
  0.00000000E+00  0.00000000E+00  0.00000000E+00
  0.00000000E+00  0.00000000E+00  0.00000000E+00
  0.00000000E+00  0.00000000E+00  0.00000000E+00
  0.00000000E+00  0.00000000E+00  0.00000000E+00
  0.00000000E+00  0.00000000E+00  0.00000000E+00
  0.00000000E+00  0.00000000E+00  0.00000000E+00
  0.00000000E+00  0.00000000E+00  0.00000000E+00
  0.00000000E+00  0.00000000E+00  0.00000000E+00
  0.00000000E+00  0.00000000E+00  0.00000000E+00
  0.00000000E+00  0.00000000E+00  0.00000000E+00
  0.00000000E+00  0.00000000E+00  0.00000000E+00
  0.00000000E+00  0.00000000E+00  0.00000000E+00
  0.00000000E+00  0.00000000E+00  0.00000000E+00
  0.00000000E+00  0.00000000E+00  0.00000000E+00
  0.00000000E+00  0.00000000E+00  0.00000000E+00
  0.00000000E+00  0.00000000E+00  0.00000000E+00
  0.00000000E+00  0.00000000E+00  0.00000000E+00
  0.00000000E+00  0.00000000E+00  0.00000000E+00
  0.00000000E+00  0.00000000E+00  0.00000000E+00
  0.00000000E+00  0.00000000E+00  0.00000000E+00
  0.00000000E+00  0.00000000E+00  0.00000000E+00
  0.00000000E+00  0.00000000E+00  0.00000000E+00
  0.00000000E+00  0.00000000E+00  0.00000000E+00
  0.00000000E+00  0.00000000E+00  0.00000000E+00
  0.00000000E+00  0.00000000E+00  0.00000000E+00
  0.00000000E+00  0.00000000E+00  0.00000000E+00
  0.00000000E+00  0.00000000E+00  0.00000000E+00
  0.00000000E+00  0.00000000E+00  0.00000000E+00
