Title                                   
   1.00000000000000     
     9.8694509999999998    0.0000000000000000    0.0000000000000000
     0.0000000000000000    8.5490480000000009    0.0000000000000000
     0.0000000000000000    0.0000000000000000   20.0000000000000000
    31     1
Selective dynamics
Direct
  0.0562440109566120  0.0899241130457030  0.0807041258872375   T   T   T
  0.9312947355858400  0.1730714228326217  0.0828321258672299   T   T   T
  0.0562323265871439  0.9228415545297954  0.0814759091482194   T   T   T
  0.9308819592627052  0.3396878220089220  0.0861695878369444   T   T   T
  0.0562342512755029  0.5888491356153892  0.0845204613899261   T   T   T
  0.9322007472924668  0.6725844025499035  0.0875217106106431   T   T   T
  0.0562192046460971  0.4226312890094225  0.0847026283732085   T   T   T
  0.9316824827532337  0.8395384014861831  0.0850046817233742   T   T   T
  0.3055596453396986  0.0895282367396011  0.0854842987638301   T   T   T
  0.1811812393027823  0.1730869435853235  0.0827867299731551   T   T   T
  0.3054074878590171  0.9234459698625187  0.0880896723118679   T   T   T
  0.1815748743264894  0.3397018058402593  0.0861053699752706   T   T   T
  0.3022636468452002  0.5897928550826205  0.0998335135060616   T   T   T
  0.1802705624762384  0.6725765486975634  0.0874217945092153   T   T   T
  0.3055165183828403  0.4221988338015357  0.0967995621843135   T   T   T
  0.1807935636730596  0.8395387151940998  0.0849315475479018   T   T   T
  0.5562491856806504  0.0879991981985554  0.0930524156821473   T   T   T
  0.4304429033785507  0.1711998461906276  0.0916444561662770   T   T   T
  0.5562480022241789  0.9226254834196898  0.0990819496957344   T   T   T
  0.4296594022721594  0.3353999720255346  0.1014711222556383   T   T   T
  0.4182821916092365  0.6804940554341113  0.1176006706396062   T   T   T
  0.5562137294943768  0.4066496554150162  0.1186982366224376   T   T   T
  0.4283923407560633  0.8422539762215316  0.1009135165473436   T   T   T
  0.8069268836519317  0.0894886451306706  0.0855555128975703   T   T   T
  0.6820732927464171  0.1712001257462525  0.0917092508799936   T   T   T
  0.8070594902108924  0.9234243833521366  0.0881760895075446   T   T   T
  0.6828277126623102  0.3353930798152188  0.1015545502283458   T   T   T
  0.8102685466336670  0.5897873451745383  0.1000257172567609   T   T   T
  0.6942792052498736  0.6805114989343449  0.1178036564388510   T   T   T
  0.8069764803002889  0.4221903956655289  0.0969312337546686   T   T   T
  0.6840856261194423  0.8422102578671264  0.1010231017654210   T   T   T
  0.5560967504450398  0.5904200315276635  0.1760498000532950   T   T   T
 
  0.00000000E+00  0.00000000E+00  0.00000000E+00
  0.00000000E+00  0.00000000E+00  0.00000000E+00
  0.00000000E+00  0.00000000E+00  0.00000000E+00
  0.00000000E+00  0.00000000E+00  0.00000000E+00
  0.00000000E+00  0.00000000E+00  0.00000000E+00
  0.00000000E+00  0.00000000E+00  0.00000000E+00
  0.00000000E+00  0.00000000E+00  0.00000000E+00
  0.00000000E+00  0.00000000E+00  0.00000000E+00
  0.00000000E+00  0.00000000E+00  0.00000000E+00
  0.00000000E+00  0.00000000E+00  0.00000000E+00
  0.00000000E+00  0.00000000E+00  0.00000000E+00
  0.00000000E+00  0.00000000E+00  0.00000000E+00
  0.00000000E+00  0.00000000E+00  0.00000000E+00
  0.00000000E+00  0.00000000E+00  0.00000000E+00
  0.00000000E+00  0.00000000E+00  0.00000000E+00
  0.00000000E+00  0.00000000E+00  0.00000000E+00
  0.00000000E+00  0.00000000E+00  0.00000000E+00
  0.00000000E+00  0.00000000E+00  0.00000000E+00
  0.00000000E+00  0.00000000E+00  0.00000000E+00
  0.00000000E+00  0.00000000E+00  0.00000000E+00
  0.00000000E+00  0.00000000E+00  0.00000000E+00
  0.00000000E+00  0.00000000E+00  0.00000000E+00
  0.00000000E+00  0.00000000E+00  0.00000000E+00
  0.00000000E+00  0.00000000E+00  0.00000000E+00
  0.00000000E+00  0.00000000E+00  0.00000000E+00
  0.00000000E+00  0.00000000E+00  0.00000000E+00
  0.00000000E+00  0.00000000E+00  0.00000000E+00
  0.00000000E+00  0.00000000E+00  0.00000000E+00
  0.00000000E+00  0.00000000E+00  0.00000000E+00
  0.00000000E+00  0.00000000E+00  0.00000000E+00
  0.00000000E+00  0.00000000E+00  0.00000000E+00
  0.00000000E+00  0.00000000E+00  0.00000000E+00
