Title                                   
   1.00000000000000     
     9.8694509999999998    0.0000000000000000    0.0000000000000000
     0.0000000000000000    8.5490480000000009    0.0000000000000000
     0.0000000000000000    0.0000000000000000   20.0000000000000000
    28     2     1
Selective dynamics
Direct
  0.0548869277158889  0.0890765285613452  0.0841317649971076   T   T   T
  0.9296366652476333  0.1734845760981075  0.0852909922409804   T   T   T
  0.0575538196906861  0.9232402610461052  0.0841138586386095   T   T   T
  0.9322216716867961  0.3409443875838904  0.0844891069249070   T   T   T
  0.0564775807437343  0.5893857558058990  0.0816016736458115   T   T   T
  0.9341337170577201  0.6762531469118737  0.0858966182041336   T   T   T
  0.0559903404303471  0.4229287283270665  0.0816129701932180   T   T   T
  0.9329678976520730  0.8424614303777342  0.0873050912357263   T   T   T
  0.3053211639360305  0.0882991418246096  0.0939515099204168   T   T   T
  0.1794683106138225  0.1698683968508726  0.0873673129615928   T   T   T
  0.3083910014969500  0.9196856169960907  0.0917764250226144   T   T   T
  0.1783310506560181  0.3360825699100246  0.0859841499810133   T   T   T
  0.3015599473147078  0.5853360449542210  0.0921871785760206   T   T   T
  0.1802431172407344  0.6713755617592991  0.0845491737320191   T   T   T
  0.2993973336706708  0.4161597212526166  0.0962946430878744   T   T   T
  0.1827978268688928  0.8388445542739299  0.0853297324217161   T   T   T
  0.5550713351046953  0.0912307637040026  0.1049547414019759   T   T   T
  0.4260067934065515  0.1762672042747595  0.1048686871112941   T   T   T
  0.5573544070521332  0.9210606611260821  0.1049644062458168   T   T   T
  0.4252788210814668  0.6645412504773673  0.1004624689374343   T   T   T
  0.4330878378728646  0.8328677703700692  0.0989013527882925   T   T   T
  0.8040514398980907  0.0926364237635436  0.0917018771268273   T   T   T
  0.6793307898143398  0.1794242587953650  0.0988182325734729   T   T   T
  0.8071311712678182  0.9240351137775648  0.0938670644072733   T   T   T
  0.6871864507002223  0.3477774186581046  0.1003578201510228   T   T   T
  0.8130948088940007  0.5961473577735132  0.0961879692814136   T   T   T
  0.8109185278049871  0.4269674459067387  0.0920750075382716   T   T   T
  0.6864502118380270  0.8360323589069670  0.1048013222133915   T   T   T
  0.4166975934907681  0.3377377428223781  0.1128316282217009   T   T   T
  0.6958104960668315  0.6745598437982318  0.1127593154271041   T   T   T
  0.5562859436845053  0.5061629633116377  0.1315309047909884   T   T   T
 
  0.00000000E+00  0.00000000E+00  0.00000000E+00
  0.00000000E+00  0.00000000E+00  0.00000000E+00
  0.00000000E+00  0.00000000E+00  0.00000000E+00
  0.00000000E+00  0.00000000E+00  0.00000000E+00
  0.00000000E+00  0.00000000E+00  0.00000000E+00
  0.00000000E+00  0.00000000E+00  0.00000000E+00
  0.00000000E+00  0.00000000E+00  0.00000000E+00
  0.00000000E+00  0.00000000E+00  0.00000000E+00
  0.00000000E+00  0.00000000E+00  0.00000000E+00
  0.00000000E+00  0.00000000E+00  0.00000000E+00
  0.00000000E+00  0.00000000E+00  0.00000000E+00
  0.00000000E+00  0.00000000E+00  0.00000000E+00
  0.00000000E+00  0.00000000E+00  0.00000000E+00
  0.00000000E+00  0.00000000E+00  0.00000000E+00
  0.00000000E+00  0.00000000E+00  0.00000000E+00
  0.00000000E+00  0.00000000E+00  0.00000000E+00
  0.00000000E+00  0.00000000E+00  0.00000000E+00
  0.00000000E+00  0.00000000E+00  0.00000000E+00
  0.00000000E+00  0.00000000E+00  0.00000000E+00
  0.00000000E+00  0.00000000E+00  0.00000000E+00
  0.00000000E+00  0.00000000E+00  0.00000000E+00
  0.00000000E+00  0.00000000E+00  0.00000000E+00
  0.00000000E+00  0.00000000E+00  0.00000000E+00
  0.00000000E+00  0.00000000E+00  0.00000000E+00
  0.00000000E+00  0.00000000E+00  0.00000000E+00
  0.00000000E+00  0.00000000E+00  0.00000000E+00
  0.00000000E+00  0.00000000E+00  0.00000000E+00
  0.00000000E+00  0.00000000E+00  0.00000000E+00
  0.00000000E+00  0.00000000E+00  0.00000000E+00
  0.00000000E+00  0.00000000E+00  0.00000000E+00
  0.00000000E+00  0.00000000E+00  0.00000000E+00
