Title                                   
   1.00000000000000     
     9.8694509999999998    0.0000000000000000    0.0000000000000000
     0.0000000000000000    8.5490480000000009    0.0000000000000000
     0.0000000000000000    0.0000000000000000   20.0000000000000000
    27     3     1
Selective dynamics
Direct
  0.0555760360764630  0.0888924428371819  0.0787707899757899   T   T   T
  0.9304148340233123  0.1721171388732162  0.0802900346098403   T   T   T
  0.0566960880381401  0.9226141397989263  0.0799156612772906   T   T   T
  0.9318301257227180  0.3399414523841125  0.0802504945482465   T   T   T
  0.0560450351632502  0.5910251282615075  0.0797135140325207   T   T   T
  0.0562616647655958  0.4248832386340238  0.0778240768777654   T   T   T
  0.9310986646432788  0.8382195215163085  0.0824029431153862   T   T   T
  0.3068650805851519  0.0889149534495430  0.0885923030090791   T   T   T
  0.1822142976995605  0.1717015472809624  0.0816334186786940   T   T   T
  0.1813231667303291  0.3403366179721365  0.0821662729152461   T   T   T
  0.3025575166241478  0.5912742689655921  0.0976635006059183   T   T   T
  0.1806530349902709  0.6745018675152312  0.0844262887481782   T   T   T
  0.3032654296230859  0.4201327915124191  0.0962867413573891   T   T   T
  0.1828134368558342  0.8414184810409173  0.0837528863730597   T   T   T
  0.4305635687214892  0.1733680564135539  0.1011155112713049   T   T   T
  0.5553477593681717  0.9230232858698361  0.1049136842926125   T   T   T
  0.4240317348176414  0.3360429587502577  0.1121127066119832   T   T   T
  0.4203043900735022  0.6762723122638442  0.1154348338890124   T   T   T
  0.4275169140541876  0.8391673562947048  0.1051316907193670   T   T   T
  0.8055090908172475  0.0883121142333860  0.0869872664800952   T   T   T
  0.6822583697321941  0.1753210793039381  0.0989529871326336   T   T   T
  0.8061622367235748  0.9205092734110294  0.0883051760842974   T   T   T
  0.6884934688470354  0.3387029853199043  0.1084356810966064   T   T   T
  0.8097222412177452  0.5924780486204990  0.0948429864506411   T   T   T
  0.6904412943473529  0.6720355065632648  0.1095100771337277   T   T   T
  0.8105906287043992  0.4203210132892453  0.0928901911398723   T   T   T
  0.6808766818577039  0.8381586392983866  0.1013384648843709   T   T   T
  0.9328025448456211  0.6725945232133762  0.0822772451158423   T   T   T
  0.5567517376707869  0.0908339380624131  0.1027640672413550   T   T   T
  0.3046185528465797  0.9230446328130890  0.0895769530485402   T   T   T
  0.5595293738136318  0.5047156862372135  0.1726865512833607   T   T   T
 
  0.00000000E+00  0.00000000E+00  0.00000000E+00
  0.00000000E+00  0.00000000E+00  0.00000000E+00
  0.00000000E+00  0.00000000E+00  0.00000000E+00
  0.00000000E+00  0.00000000E+00  0.00000000E+00
  0.00000000E+00  0.00000000E+00  0.00000000E+00
  0.00000000E+00  0.00000000E+00  0.00000000E+00
  0.00000000E+00  0.00000000E+00  0.00000000E+00
  0.00000000E+00  0.00000000E+00  0.00000000E+00
  0.00000000E+00  0.00000000E+00  0.00000000E+00
  0.00000000E+00  0.00000000E+00  0.00000000E+00
  0.00000000E+00  0.00000000E+00  0.00000000E+00
  0.00000000E+00  0.00000000E+00  0.00000000E+00
  0.00000000E+00  0.00000000E+00  0.00000000E+00
  0.00000000E+00  0.00000000E+00  0.00000000E+00
  0.00000000E+00  0.00000000E+00  0.00000000E+00
  0.00000000E+00  0.00000000E+00  0.00000000E+00
  0.00000000E+00  0.00000000E+00  0.00000000E+00
  0.00000000E+00  0.00000000E+00  0.00000000E+00
  0.00000000E+00  0.00000000E+00  0.00000000E+00
  0.00000000E+00  0.00000000E+00  0.00000000E+00
  0.00000000E+00  0.00000000E+00  0.00000000E+00
  0.00000000E+00  0.00000000E+00  0.00000000E+00
  0.00000000E+00  0.00000000E+00  0.00000000E+00
  0.00000000E+00  0.00000000E+00  0.00000000E+00
  0.00000000E+00  0.00000000E+00  0.00000000E+00
  0.00000000E+00  0.00000000E+00  0.00000000E+00
  0.00000000E+00  0.00000000E+00  0.00000000E+00
  0.00000000E+00  0.00000000E+00  0.00000000E+00
  0.00000000E+00  0.00000000E+00  0.00000000E+00
  0.00000000E+00  0.00000000E+00  0.00000000E+00
  0.00000000E+00  0.00000000E+00  0.00000000E+00
