Title                                   
   1.00000000000000     
     9.8694509999999998    0.0000000000000000    0.0000000000000000
     0.0000000000000000    8.5490480000000009    0.0000000000000000
     0.0000000000000000    0.0000000000000000   20.0000000000000000
    25     5     1
Selective dynamics
Direct
  0.0544679677931263  0.0892225807305790  0.0873989970553120   T   T   T
  0.9291383542763525  0.1743092935632818  0.0852324388990907   T   T   T
  0.0580217725671156  0.9214266499719637  0.0878448397394422   T   T   T
  0.9315688987995984  0.3412214675667558  0.0846384490168618   T   T   T
  0.0564520539167373  0.5905186923132484  0.0862313097327354   T   T   T
  0.0555013195488305  0.4238684969485705  0.0857547281607023   T   T   T
  0.9329924693319727  0.8407578645012087  0.0885872527314197   T   T   T
  0.3067917708336231  0.0868836837640644  0.0953925558697218   T   T   T
  0.1794043632260484  0.1689983312509625  0.0911861891847067   T   T   T
  0.1791293798716980  0.3363797010554125  0.0903011724077071   T   T   T
  0.3023825418344319  0.5836203280915114  0.0955767733913225   T   T   T
  0.1807210795187153  0.6719119644089314  0.0889206632924420   T   T   T
  0.3006245504161005  0.4164978494688366  0.0992290115165876   T   T   T
  0.1836518720451846  0.8391321414919927  0.0894506987154795   T   T   T
  0.4276642016584796  0.1739874316176369  0.1031668325064002   T   T   T
  0.5562719320554562  0.9210255771916349  0.1006249192829792   T   T   T
  0.4270227873858775  0.6646216622398773  0.1038677331004079   T   T   T
  0.4321457876448017  0.8333786242189131  0.0999850001953577   T   T   T
  0.8025974363873219  0.0919665569082051  0.0877697972716831   T   T   T
  0.6775433769835869  0.1793098830457482  0.0909912068611162   T   T   T
  0.8066209337512464  0.9236298468733998  0.0907463043425050   T   T   T
  0.6810391641286991  0.3472464867509119  0.0900167731296039   T   T   T
  0.8125021057840763  0.5960655398848985  0.0922121242958121   T   T   T
  0.8085138223967243  0.4276191307417663  0.0868207321887836   T   T   T
  0.6834322486448620  0.8400015220425674  0.0991142432458898   T   T   T
  0.9336815975059055  0.6748332134356444  0.0874450098242087   T   T   T
  0.5545527673535058  0.0936735410940266  0.0993527549970517   T   T   T
  0.4209324231186835  0.3359200401883823  0.1152775936402857   T   T   T
  0.6951739224589130  0.6767189488035016  0.1084682193712917   T   T   T
  0.3076613050673991  0.9196742174570768  0.0934178939027227   T   T   T
  0.5649307936949287  0.5064537323785171  0.1359427821304037   T   T   T
 
  0.00000000E+00  0.00000000E+00  0.00000000E+00
  0.00000000E+00  0.00000000E+00  0.00000000E+00
  0.00000000E+00  0.00000000E+00  0.00000000E+00
  0.00000000E+00  0.00000000E+00  0.00000000E+00
  0.00000000E+00  0.00000000E+00  0.00000000E+00
  0.00000000E+00  0.00000000E+00  0.00000000E+00
  0.00000000E+00  0.00000000E+00  0.00000000E+00
  0.00000000E+00  0.00000000E+00  0.00000000E+00
  0.00000000E+00  0.00000000E+00  0.00000000E+00
  0.00000000E+00  0.00000000E+00  0.00000000E+00
  0.00000000E+00  0.00000000E+00  0.00000000E+00
  0.00000000E+00  0.00000000E+00  0.00000000E+00
  0.00000000E+00  0.00000000E+00  0.00000000E+00
  0.00000000E+00  0.00000000E+00  0.00000000E+00
  0.00000000E+00  0.00000000E+00  0.00000000E+00
  0.00000000E+00  0.00000000E+00  0.00000000E+00
  0.00000000E+00  0.00000000E+00  0.00000000E+00
  0.00000000E+00  0.00000000E+00  0.00000000E+00
  0.00000000E+00  0.00000000E+00  0.00000000E+00
  0.00000000E+00  0.00000000E+00  0.00000000E+00
  0.00000000E+00  0.00000000E+00  0.00000000E+00
  0.00000000E+00  0.00000000E+00  0.00000000E+00
  0.00000000E+00  0.00000000E+00  0.00000000E+00
  0.00000000E+00  0.00000000E+00  0.00000000E+00
  0.00000000E+00  0.00000000E+00  0.00000000E+00
  0.00000000E+00  0.00000000E+00  0.00000000E+00
  0.00000000E+00  0.00000000E+00  0.00000000E+00
  0.00000000E+00  0.00000000E+00  0.00000000E+00
  0.00000000E+00  0.00000000E+00  0.00000000E+00
  0.00000000E+00  0.00000000E+00  0.00000000E+00
  0.00000000E+00  0.00000000E+00  0.00000000E+00
