Title                                   
   1.00000000000000     
     4.9440799999999996    0.0000000000000000    0.0000000000000000
     0.0000000000000000    8.5647549999999999    0.0000000000000000
     0.0000000000000000    0.0000000000000000   20.0000000000000000
    11     4     1
Selective dynamics
Direct
 -0.0037292602929562  0.2912903989932732  0.0915027005825401   T   T   T
  0.2500000000000000  0.0445083738926522  0.0889028136502679   T   T   T
  0.0023585429948341  0.7951278731307204  0.0995869730017197   T   T   T
  0.0005212334918564  0.9604629202700794  0.0889508151047270   T   T   T
  0.7500000000000000  0.2058816059308365  0.0865740079087249   T   T   T
  0.5037292602929564  0.2912903989932732  0.0915027005825401   T   T   T
  0.7500000000000000  0.0407695240895139  0.0842574141605443   T   T   T
  0.7500000000000000  0.7046876831312152  0.1025264515820869   T   T   T
  0.4976414570051659  0.7951278731307204  0.0995869730017197   T   T   T
  0.7500000000000000  0.5324982410489475  0.1045939635298825   T   T   T
  0.4994787665081437  0.9604629202700794  0.0889508151047270   T   T   T
  0.5101238211122957  0.4495161716217589  0.1036975128715564   T   T   T
 -0.0101238211122957  0.4495161716217589  0.1036975128715564   T   T   T
  0.2500000000000000  0.7268989709537493  0.1144830592340616   T   T   T
  0.2500000000000000  0.2126731665054823  0.0890193283365141   T   T   T
  0.2500000000000000  0.5392877064159399  0.1746789584768410   T   T   T
 
  0.00000000E+00  0.00000000E+00  0.00000000E+00
  0.00000000E+00  0.00000000E+00  0.00000000E+00
  0.00000000E+00  0.00000000E+00  0.00000000E+00
  0.00000000E+00  0.00000000E+00  0.00000000E+00
  0.00000000E+00  0.00000000E+00  0.00000000E+00
  0.00000000E+00  0.00000000E+00  0.00000000E+00
  0.00000000E+00  0.00000000E+00  0.00000000E+00
  0.00000000E+00  0.00000000E+00  0.00000000E+00
  0.00000000E+00  0.00000000E+00  0.00000000E+00
  0.00000000E+00  0.00000000E+00  0.00000000E+00
  0.00000000E+00  0.00000000E+00  0.00000000E+00
  0.00000000E+00  0.00000000E+00  0.00000000E+00
  0.00000000E+00  0.00000000E+00  0.00000000E+00
  0.00000000E+00  0.00000000E+00  0.00000000E+00
  0.00000000E+00  0.00000000E+00  0.00000000E+00
  0.00000000E+00  0.00000000E+00  0.00000000E+00
