Title                                   
   1.00000000000000     
     4.9440799999999996    0.0000000000000000    0.0000000000000000
     0.0000000000000000    8.5647549999999999    0.0000000000000000
     0.0000000000000000    0.0000000000000000   20.0000000000000000
    14     1
Selective dynamics
Direct
  0.2500000000000000  0.2071616560940250  0.0953543055728337   T   T   T
  0.0002357777102463  0.2932760912216266  0.0962511186978356   T   T   T
  0.2500000000000000  0.0424049448300475  0.0953807404178802   T   T   T
  0.0002473734685620  0.9562797668502395  0.0963132591447975   T   T   T
  0.7500000000000000  0.2087695733057763  0.0943898852532126   T   T   T
  0.4997642222897536  0.2932760912216266  0.0962511186978356   T   T   T
  0.7500000000000000  0.0407882397861099  0.0944304730653793   T   T   T
  0.7500000000000000  0.7106754261174045  0.1016733206448913   T   T   T
  0.7500000000000000  0.5389037685356833  0.1016413586941774   T   T   T
  0.4997526265314379  0.9562797668502395  0.0963132591447975   T   T   T
  0.5009666435989921  0.4584388119628703  0.1009490391729199   T   T   T
 -0.0009666435989921  0.4584388119628703  0.1009490391729199   T   T   T
 -0.0009775190126723  0.7911366693367905  0.1010146886523230   T   T   T
  0.5009775190126725  0.7911366693367905  0.1010146886523230   T   T   T
  0.2500000000000000  0.6247147125879017  0.1360537050158768   T   T   T
 
  0.00000000E+00  0.00000000E+00  0.00000000E+00
  0.00000000E+00  0.00000000E+00  0.00000000E+00
  0.00000000E+00  0.00000000E+00  0.00000000E+00
  0.00000000E+00  0.00000000E+00  0.00000000E+00
  0.00000000E+00  0.00000000E+00  0.00000000E+00
  0.00000000E+00  0.00000000E+00  0.00000000E+00
  0.00000000E+00  0.00000000E+00  0.00000000E+00
  0.00000000E+00  0.00000000E+00  0.00000000E+00
  0.00000000E+00  0.00000000E+00  0.00000000E+00
  0.00000000E+00  0.00000000E+00  0.00000000E+00
  0.00000000E+00  0.00000000E+00  0.00000000E+00
  0.00000000E+00  0.00000000E+00  0.00000000E+00
  0.00000000E+00  0.00000000E+00  0.00000000E+00
  0.00000000E+00  0.00000000E+00  0.00000000E+00
  0.00000000E+00  0.00000000E+00  0.00000000E+00
