Title                                   
   1.00000000000000     
     4.9440799999999996    0.0000000000000000    0.0000000000000000
     0.0000000000000000    8.5647549999999999    0.0000000000000000
     0.0000000000000000    0.0000000000000000   20.0000000000000000
    12     2     1
Selective dynamics
Direct
  0.2477997870268786  0.2092372656407125  0.0946376537537238   T   T   T
 -0.0052411231204497  0.2944162192132876  0.0954735572444189   T   T   T
  0.2522238636072207  0.0403166966477659  0.0946592520041270   T   T   T
  0.0037766136677037  0.9563230965459155  0.0940764746902039   T   T   T
  0.7472819520040854  0.2085114994510287  0.0910164250782843   T   T   T
  0.4962357492952945  0.2932439713478777  0.0939787955519952   T   T   T
  0.7527369756441322  0.0410320013448354  0.0910376600646317   T   T   T
  0.7545260771190494  0.7114145781150963  0.1017735621744086   T   T   T
  0.7453874200481932  0.5381538117429303  0.1017353441665895   T   T   T
  0.5052333292894893  0.9551609500519888  0.0954451132119537   T   T   T
  0.5002481734222084  0.4581509672732472  0.0996000024286947   T   T   T
 -0.0003163161865345  0.7914158463168932  0.0997717413706254   T   T   T
 -0.0102431959355841  0.4556931333380975  0.1029212673158042   T   T   T
  0.5101735501081900  0.7938806376657438  0.1028534188867600   T   T   T
  0.2501771440101235  0.6247303253045816  0.1489997320577824   T   T   T
 
  0.00000000E+00  0.00000000E+00  0.00000000E+00
  0.00000000E+00  0.00000000E+00  0.00000000E+00
  0.00000000E+00  0.00000000E+00  0.00000000E+00
  0.00000000E+00  0.00000000E+00  0.00000000E+00
  0.00000000E+00  0.00000000E+00  0.00000000E+00
  0.00000000E+00  0.00000000E+00  0.00000000E+00
  0.00000000E+00  0.00000000E+00  0.00000000E+00
  0.00000000E+00  0.00000000E+00  0.00000000E+00
  0.00000000E+00  0.00000000E+00  0.00000000E+00
  0.00000000E+00  0.00000000E+00  0.00000000E+00
  0.00000000E+00  0.00000000E+00  0.00000000E+00
  0.00000000E+00  0.00000000E+00  0.00000000E+00
  0.00000000E+00  0.00000000E+00  0.00000000E+00
  0.00000000E+00  0.00000000E+00  0.00000000E+00
  0.00000000E+00  0.00000000E+00  0.00000000E+00
