Title                                   
   1.00000000000000     
     4.9440799999999996    0.0000000000000000    0.0000000000000000
     0.0000000000000000    8.5647549999999999    0.0000000000000000
     0.0000000000000000    0.0000000000000000   20.0000000000000000
    13     2     1
Selective dynamics
Direct
 -0.0011806317634911  0.2882286455880094  0.0917104473795613   T   T   T
  0.2500000000000000  0.0425406727739238  0.0830423768536021   T   T   T
  0.0013528766971310  0.7972968723454336  0.0979001897897079   T   T   T
 -0.0004664920551842  0.9602489086998867  0.0831614656544082   T   T   T
  0.7500000000000000  0.2063805056613932  0.0808734825797652   T   T   T
  0.5011806317634907  0.2882286455880094  0.0917104473795613   T   T   T
  0.7500000000000000  0.0411045027162326  0.0774365041831557   T   T   T
  0.7500000000000000  0.7077089212840099  0.1048091059797602   T   T   T
  0.4986471233028688  0.7972968723454336  0.0979001897897079   T   T   T
  0.7500000000000000  0.5370380212342085  0.1138999003384670   T   T   T
  0.5004664920551841  0.9602489086998867  0.0831614656544082   T   T   T
  0.5053641432936409  0.4430802317833776  0.1149611914925255   T   T   T
 -0.0053641432936410  0.4430802317833776  0.1149611914925255   T   T   T
  0.2500000000000000  0.7310108843764128  0.1131423590105554   T   T   T
  0.2500000000000000  0.2068499188072066  0.0863739875048489   T   T   T
  0.2500000000000000  0.5496572563131978  0.1774676949174492   T   T   T
 
  0.00000000E+00  0.00000000E+00  0.00000000E+00
  0.00000000E+00  0.00000000E+00  0.00000000E+00
  0.00000000E+00  0.00000000E+00  0.00000000E+00
  0.00000000E+00  0.00000000E+00  0.00000000E+00
  0.00000000E+00  0.00000000E+00  0.00000000E+00
  0.00000000E+00  0.00000000E+00  0.00000000E+00
  0.00000000E+00  0.00000000E+00  0.00000000E+00
  0.00000000E+00  0.00000000E+00  0.00000000E+00
  0.00000000E+00  0.00000000E+00  0.00000000E+00
  0.00000000E+00  0.00000000E+00  0.00000000E+00
  0.00000000E+00  0.00000000E+00  0.00000000E+00
  0.00000000E+00  0.00000000E+00  0.00000000E+00
  0.00000000E+00  0.00000000E+00  0.00000000E+00
  0.00000000E+00  0.00000000E+00  0.00000000E+00
  0.00000000E+00  0.00000000E+00  0.00000000E+00
  0.00000000E+00  0.00000000E+00  0.00000000E+00
