Title                                   
   1.00000000000000     
     4.9440799999999996    0.0000000000000000    0.0000000000000000
     0.0000000000000000   17.1295089999999988    0.0000000000000000
     0.0000000000000000    0.0000000000000000   20.0000000000000000
    28     3     1
Selective dynamics
Direct
 -0.0001503776414610  0.1043995578882486  0.2867394668680338   T   T   T
  0.2498500474665029  0.1461509266401259  0.2897090975297902   T   T   T
  0.2498766018402272  0.2293336362006610  0.2979340913111427   T   T   T
  0.0036250204277014  0.3529141421001415  0.3166335432665193   T   T   T
 -0.0009953942776342  0.2706458987312800  0.3023509820053872   T   T   T
 -0.0054927503152121  0.6033967520122587  0.3061487155014888   T   T   T
  0.2499170331719582  0.7271754373928199  0.2930862531217840   T   T   T
  0.0005072155773581  0.8533668291274586  0.2845973558100968   T   T   T
  0.2498747551863840  0.8954238934393476  0.2836473257218365   T   T   T
  0.2498388459261124  0.9789914382496916  0.2830420955386993   T   T   T
  0.0009019787760675  0.7698487597828373  0.2886875562156006   T   T   T
  0.4998239826675364  0.1043978523479914  0.2867389538257257   T   T   T
  0.7498473528587601  0.1461529008004326  0.2890047928677631   T   T   T
  0.7498774611073467  0.2293732744266785  0.2963193907578622   T   T   T
  0.4998830984724436  0.0208136060407628  0.2835606091894260   T   T   T
  0.4962182825835590  0.3529142173326513  0.3166326492870077   T   T   T
  0.7499419898719930  0.3978717589321287  0.3203416334324672   T   T   T
  0.7499749592826429  0.4851186351078930  0.3184139300485873   T   T   T
  0.5007813798209835  0.2706456139569872  0.3023522630930746   T   T   T
  0.5054247928771036  0.6033952143342046  0.3061491491600506   T   T   T
  0.7499144246661724  0.7288843914568507  0.2905076085721685   T   T   T
  0.4992245673911781  0.8533638627373950  0.2845926130357683   T   T   T
  0.7498642720758222  0.8951111959510039  0.2832746662582340   T   T   T
  0.7498419428025169  0.9788647604317334  0.2828180910534093   T   T   T
  0.4989065472195126  0.7698465593263892  0.2886821670895223   T   T   T
  0.7499535368646888  0.6461635492717882  0.2976854199867286   T   T   T
  0.2499542964979326  0.6439327593832656  0.3030096932528706   T   T   T
 -0.0001993262398805  0.0208141021139011  0.2835608531928185   T   T   T
  0.5132875020788876  0.5250010327087186  0.3182731603418955   T   T   T
  0.9866586385129605  0.5250016624464581  0.3182708713423277   T   T   T
  0.2499283741497076  0.3871808407515889  0.3285601862689760   T   T   T
  0.2499619483001329  0.4820559385762961  0.3912398150528894   T   T   T
 
  0.00000000E+00  0.00000000E+00  0.00000000E+00
  0.00000000E+00  0.00000000E+00  0.00000000E+00
  0.00000000E+00  0.00000000E+00  0.00000000E+00
  0.00000000E+00  0.00000000E+00  0.00000000E+00
  0.00000000E+00  0.00000000E+00  0.00000000E+00
  0.00000000E+00  0.00000000E+00  0.00000000E+00
  0.00000000E+00  0.00000000E+00  0.00000000E+00
  0.00000000E+00  0.00000000E+00  0.00000000E+00
  0.00000000E+00  0.00000000E+00  0.00000000E+00
  0.00000000E+00  0.00000000E+00  0.00000000E+00
  0.00000000E+00  0.00000000E+00  0.00000000E+00
  0.00000000E+00  0.00000000E+00  0.00000000E+00
  0.00000000E+00  0.00000000E+00  0.00000000E+00
  0.00000000E+00  0.00000000E+00  0.00000000E+00
  0.00000000E+00  0.00000000E+00  0.00000000E+00
  0.00000000E+00  0.00000000E+00  0.00000000E+00
  0.00000000E+00  0.00000000E+00  0.00000000E+00
  0.00000000E+00  0.00000000E+00  0.00000000E+00
  0.00000000E+00  0.00000000E+00  0.00000000E+00
  0.00000000E+00  0.00000000E+00  0.00000000E+00
  0.00000000E+00  0.00000000E+00  0.00000000E+00
  0.00000000E+00  0.00000000E+00  0.00000000E+00
  0.00000000E+00  0.00000000E+00  0.00000000E+00
  0.00000000E+00  0.00000000E+00  0.00000000E+00
  0.00000000E+00  0.00000000E+00  0.00000000E+00
  0.00000000E+00  0.00000000E+00  0.00000000E+00
  0.00000000E+00  0.00000000E+00  0.00000000E+00
  0.00000000E+00  0.00000000E+00  0.00000000E+00
  0.00000000E+00  0.00000000E+00  0.00000000E+00
  0.00000000E+00  0.00000000E+00  0.00000000E+00
  0.00000000E+00  0.00000000E+00  0.00000000E+00
  0.00000000E+00  0.00000000E+00  0.00000000E+00
