Title                                   
   1.00000000000000     
     4.9440799999999996    0.0000000000000000    0.0000000000000000
     0.0000000000000000    8.5647549999999999    0.0000000000000000
     0.0000000000000000    0.0000000000000000   20.0000000000000000
    10     4     1
Selective dynamics
Direct
 -0.0041942123658219  0.2941430436585933  0.1024126645909465   T   T   T
  0.2481865495563139  0.0387835705477740  0.1010356925769672   T   T   T
 -0.0043121540235724  0.9575503829519446  0.1047365360766095   T   T   T
  0.7468020750106438  0.2079884375473958  0.0986136919803075   T   T   T
  0.4985481952548736  0.2922981704135590  0.0956229507651758   T   T   T
  0.7488915069350831  0.0409614531802976  0.0999898724465044   T   T   T
  0.7551035404833926  0.7171875667366788  0.1015901509370200   T   T   T
  0.7539586640337145  0.5352010127176954  0.1000561359759710   T   T   T
  0.5025438975826839  0.9556676279232384  0.0974690067161055   T   T   T
  0.5086219519205363  0.4578512881003102  0.0921534458770163   T   T   T
 -0.0084943514108207  0.4532482107302124  0.1074543743503693   T   T   T
 -0.0148619117425778  0.7960215145033522  0.1116226745230687   T   T   T
  0.5170260650577714  0.7934719235119649  0.0923925391950033   T   T   T
  0.2478511200774868  0.2090540598916397  0.0999147620608684   T   T   T
  0.2543290636302922  0.6222527375853464  0.1029155019280698   T   T   T
 
  0.00000000E+00  0.00000000E+00  0.00000000E+00
  0.00000000E+00  0.00000000E+00  0.00000000E+00
  0.00000000E+00  0.00000000E+00  0.00000000E+00
  0.00000000E+00  0.00000000E+00  0.00000000E+00
  0.00000000E+00  0.00000000E+00  0.00000000E+00
  0.00000000E+00  0.00000000E+00  0.00000000E+00
  0.00000000E+00  0.00000000E+00  0.00000000E+00
  0.00000000E+00  0.00000000E+00  0.00000000E+00
  0.00000000E+00  0.00000000E+00  0.00000000E+00
  0.00000000E+00  0.00000000E+00  0.00000000E+00
  0.00000000E+00  0.00000000E+00  0.00000000E+00
  0.00000000E+00  0.00000000E+00  0.00000000E+00
  0.00000000E+00  0.00000000E+00  0.00000000E+00
  0.00000000E+00  0.00000000E+00  0.00000000E+00
  0.00000000E+00  0.00000000E+00  0.00000000E+00
