Title                                   
   1.00000000000000     
     9.8694509999999998    0.0000000000000000    0.0000000000000000
     0.0000000000000000    8.5490480000000009    0.0000000000000000
     0.0000000000000000    0.0000000000000000   20.0000000000000000
    25     5     1
Selective dynamics
Direct
  0.0557311216050131  0.0895637198487234  0.0938164630369565   T   T   T
  0.9321808798949563  0.1716410075344056  0.0944420301874252   T   T   T
  0.0572802033445099  0.9232247524628303  0.0939867021394224   T   T   T
  0.9343095541633037  0.3389209191595490  0.0936956317031258   T   T   T
  0.0567334456131555  0.5900940397446309  0.0920772081719826   T   T   T
  0.9343970974810927  0.6739036733650134  0.0937216823414110   T   T   T
  0.0566444994362196  0.4230479096571986  0.0920172851092053   T   T   T
  0.9324905662536385  0.8403133796341712  0.0945454631568420   T   T   T
  0.3062048737837593  0.0883684093014463  0.0967813255570455   T   T   T
  0.1807645301697709  0.1709544896254110  0.0942782268377419   T   T   T
  0.1788121315112084  0.3378050002037193  0.0935354368919349   T   T   T
  0.2999770484288142  0.5899993034286812  0.0966446968462641   T   T   T
  0.1791525488069999  0.6749458472141759  0.0936257404964854   T   T   T
  0.3001479795522378  0.4218654188155621  0.0966901193266813   T   T   T
  0.1809489420565956  0.8406875762223197  0.0944793949387012   T   T   T
  0.5563961999727853  0.0932973796632744  0.1002729161641167   T   T   T
  0.4286847739453624  0.1766244544457933  0.0995715134880065   T   T   T
  0.5551051150051016  0.9191192872804591  0.1001752976264179   T   T   T
  0.4285587759530856  0.8347565651513099  0.0994254637240758   T   T   T
  0.8058388102438218  0.0896568210092391  0.0967643144965036   T   T   T
  0.6828115354684761  0.1780118032709395  0.0994130507511351   T   T   T
  0.8060333299910769  0.9225728892897948  0.0967526004071759   T   T   T
  0.8126197270301102  0.5907806003000969  0.0966792168460137   T   T   T
  0.8125092706173446  0.4216294509188154  0.0967282107656938   T   T   T
  0.6827853736975956  0.8336617848661049  0.0993438491489489   T   T   T
  0.4195044800201006  0.3388641876355259  0.1006598868522864   T   T   T
  0.4190626416442510  0.6745362018747363  0.1005926580847202   T   T   T
  0.6922399424716348  0.3405739343082322  0.1004661404691502   T   T   T
  0.6926033970123112  0.6721147649729480  0.1003682945947893   T   T   T
  0.3065493863524278  0.9230201611473072  0.0967295718431681   T   T   T
  0.5560578184732404  0.5063192676475823  0.1026846079966305   T   T   T
 
  0.00000000E+00  0.00000000E+00  0.00000000E+00
  0.00000000E+00  0.00000000E+00  0.00000000E+00
  0.00000000E+00  0.00000000E+00  0.00000000E+00
  0.00000000E+00  0.00000000E+00  0.00000000E+00
  0.00000000E+00  0.00000000E+00  0.00000000E+00
  0.00000000E+00  0.00000000E+00  0.00000000E+00
  0.00000000E+00  0.00000000E+00  0.00000000E+00
  0.00000000E+00  0.00000000E+00  0.00000000E+00
  0.00000000E+00  0.00000000E+00  0.00000000E+00
  0.00000000E+00  0.00000000E+00  0.00000000E+00
  0.00000000E+00  0.00000000E+00  0.00000000E+00
  0.00000000E+00  0.00000000E+00  0.00000000E+00
  0.00000000E+00  0.00000000E+00  0.00000000E+00
  0.00000000E+00  0.00000000E+00  0.00000000E+00
  0.00000000E+00  0.00000000E+00  0.00000000E+00
  0.00000000E+00  0.00000000E+00  0.00000000E+00
  0.00000000E+00  0.00000000E+00  0.00000000E+00
  0.00000000E+00  0.00000000E+00  0.00000000E+00
  0.00000000E+00  0.00000000E+00  0.00000000E+00
  0.00000000E+00  0.00000000E+00  0.00000000E+00
  0.00000000E+00  0.00000000E+00  0.00000000E+00
  0.00000000E+00  0.00000000E+00  0.00000000E+00
  0.00000000E+00  0.00000000E+00  0.00000000E+00
  0.00000000E+00  0.00000000E+00  0.00000000E+00
  0.00000000E+00  0.00000000E+00  0.00000000E+00
  0.00000000E+00  0.00000000E+00  0.00000000E+00
  0.00000000E+00  0.00000000E+00  0.00000000E+00
  0.00000000E+00  0.00000000E+00  0.00000000E+00
  0.00000000E+00  0.00000000E+00  0.00000000E+00
  0.00000000E+00  0.00000000E+00  0.00000000E+00
  0.00000000E+00  0.00000000E+00  0.00000000E+00
