Title                                   
   1.00000000000000     
     9.8694509999999998    0.0000000000000000    0.0000000000000000
     0.0000000000000000    8.5490480000000009    0.0000000000000000
     0.0000000000000000    0.0000000000000000   20.0000000000000000
    27     4     1
Selective dynamics
Direct
  0.0552817135404882  0.0896461732597937  0.0839030980705323   T   T   T
  0.9306553624646273  0.1747409602163652  0.0845466082941212   T   T   T
  0.0576122118647455  0.9222211484544514  0.0846249730405732   T   T   T
  0.9299983675212283  0.3413402368573234  0.0865705269096557   T   T   T
  0.0564422827561023  0.5906038719662924  0.0862180996848494   T   T   T
  0.0552755020206363  0.4235008294717166  0.0862843704066054   T   T   T
  0.9328979026070585  0.8395588757767372  0.0867144343681239   T   T   T
  0.3054405770069267  0.0877727884557735  0.0878342413045817   T   T   T
  0.1813006972943928  0.1718427432332525  0.0860358138051026   T   T   T
  0.1802333839971896  0.3387931483993208  0.0884096393250311   T   T   T
  0.3028969455296136  0.5875321355657940  0.1008026865790602   T   T   T
  0.1804373769549183  0.6732046907154620  0.0894335685428000   T   T   T
  0.3054294005166442  0.4196334677406436  0.0981780275657723   T   T   T
  0.1826143040089917  0.8404396301929460  0.0872548940955491   T   T   T
  0.5557645593576853  0.0875675755642328  0.0918782793636998   T   T   T
  0.5558855728450895  0.9202296770201859  0.0976349935720312   T   T   T
  0.4284870934904069  0.3314027740548042  0.1029319682855492   T   T   T
  0.4275983692470301  0.8396617362791063  0.1016599785184166   T   T   T
  0.8058638527708554  0.0897017582830978  0.0855355871982046   T   T   T
  0.6799658181867558  0.1719806211910321  0.0896557542588299   T   T   T
  0.8081445251558194  0.9236727927856258  0.0880987295927380   T   T   T
  0.6803970330842423  0.3387309227336135  0.0993397938829532   T   T   T
  0.8107582046368511  0.5946276607614397  0.0976093035172158   T   T   T
  0.8044603595931673  0.4269000941360732  0.0947690061735003   T   T   T
  0.6846109278622478  0.8417054499639631  0.0986131341922049   T   T   T
  0.4184247618618862  0.6800215312594028  0.1163225082220514   T   T   T
  0.5530182542133908  0.4043444864445516  0.1166961506128533   T   T   T
  0.6992875294082743  0.6835269428751746  0.1152461576453425   T   T   T
  0.3066713094818588  0.9244488727053535  0.0891136960105447   T   T   T
  0.4287672146381207  0.1668181881300062  0.0921211412670708   T   T   T
  0.9324083099745786  0.6731590270556038  0.0876288835766336   T   T   T
  0.5626092761081819  0.5909151884508624  0.1840089521178180   T   T   T
 
  0.00000000E+00  0.00000000E+00  0.00000000E+00
  0.00000000E+00  0.00000000E+00  0.00000000E+00
  0.00000000E+00  0.00000000E+00  0.00000000E+00
  0.00000000E+00  0.00000000E+00  0.00000000E+00
  0.00000000E+00  0.00000000E+00  0.00000000E+00
  0.00000000E+00  0.00000000E+00  0.00000000E+00
  0.00000000E+00  0.00000000E+00  0.00000000E+00
  0.00000000E+00  0.00000000E+00  0.00000000E+00
  0.00000000E+00  0.00000000E+00  0.00000000E+00
  0.00000000E+00  0.00000000E+00  0.00000000E+00
  0.00000000E+00  0.00000000E+00  0.00000000E+00
  0.00000000E+00  0.00000000E+00  0.00000000E+00
  0.00000000E+00  0.00000000E+00  0.00000000E+00
  0.00000000E+00  0.00000000E+00  0.00000000E+00
  0.00000000E+00  0.00000000E+00  0.00000000E+00
  0.00000000E+00  0.00000000E+00  0.00000000E+00
  0.00000000E+00  0.00000000E+00  0.00000000E+00
  0.00000000E+00  0.00000000E+00  0.00000000E+00
  0.00000000E+00  0.00000000E+00  0.00000000E+00
  0.00000000E+00  0.00000000E+00  0.00000000E+00
  0.00000000E+00  0.00000000E+00  0.00000000E+00
  0.00000000E+00  0.00000000E+00  0.00000000E+00
  0.00000000E+00  0.00000000E+00  0.00000000E+00
  0.00000000E+00  0.00000000E+00  0.00000000E+00
  0.00000000E+00  0.00000000E+00  0.00000000E+00
  0.00000000E+00  0.00000000E+00  0.00000000E+00
  0.00000000E+00  0.00000000E+00  0.00000000E+00
  0.00000000E+00  0.00000000E+00  0.00000000E+00
  0.00000000E+00  0.00000000E+00  0.00000000E+00
  0.00000000E+00  0.00000000E+00  0.00000000E+00
  0.00000000E+00  0.00000000E+00  0.00000000E+00
  0.00000000E+00  0.00000000E+00  0.00000000E+00
