Title                                   
   1.00000000000000     
     8.5490480000000009    0.0000000000000000    0.0000000000000000
     0.0000000000000000    8.5490480000000009    0.0000000000000000
     0.0000000000000000    0.0000000000000000   20.0000000000000000
    17     7     1
Selective dynamics
Direct
  0.9077128752167207  0.2056940001929947  0.0974187476021987   T   T   T
  0.9107478935750914  0.8005562194571327  0.0975411568591996   T   T   T
  0.1971122736134370  0.0832254252714967  0.0976568532733069   T   T   T
  0.0766482087280886  0.2007832157555129  0.0975569574629087   T   T   T
  0.1571755504195095  0.6512341919090734  0.0977549684993955   T   T   T
  0.0783863882608314  0.5006316805934109  0.0977809349200249   T   T   T
  0.1565906536397864  0.3502152767464615  0.0978018372086998   T   T   T
  0.0792061877785405  0.7989108038187835  0.0975808367311688   T   T   T
  0.3441294884918574  0.1653986059723938  0.0978761214025197   T   T   T
  0.4921704187644176  0.9172640333170045  0.0977926897195965   T   T   T
  0.3444661227802971  0.8376052972644176  0.0978170719752309   T   T   T
  0.7876547091738277  0.0869563731611935  0.0974241136088436   T   T   T
  0.6411330053726153  0.1680116898128111  0.0977013805027517   T   T   T
  0.7900129135992910  0.9184071553969754  0.0974994982123800   T   T   T
  0.8293367870253687  0.6510485974544976  0.0977750861708952   T   T   T
  0.8276390196021715  0.3533681003989086  0.0976686557298197   T   T   T
  0.6428557947190356  0.8377755395618355  0.0977623313373052   T   T   T
  0.4932305320046573  0.0900916312944765  0.0978512653278833   T   T   T
  0.9057615275960708  0.5022925645040629  0.0977929381113527   T   T   T
  0.3205734100869616  0.3267569051240544  0.0980525476157416   T   T   T
  0.3214133260067819  0.6757974335450762  0.0979627128942377   T   T   T
  0.6641900364617973  0.3311398443468529  0.0979024484371384   T   T   T
  0.6676404190952521  0.6738120579494672  0.0979634669538324   T   T   T
  0.1964664608181253  0.9152611770957433  0.0976691241713222   T   T   T
  0.4931579971694589  0.5025521800553630  0.0981012552722265   T   T   T
 
  0.00000000E+00  0.00000000E+00  0.00000000E+00
  0.00000000E+00  0.00000000E+00  0.00000000E+00
  0.00000000E+00  0.00000000E+00  0.00000000E+00
  0.00000000E+00  0.00000000E+00  0.00000000E+00
  0.00000000E+00  0.00000000E+00  0.00000000E+00
  0.00000000E+00  0.00000000E+00  0.00000000E+00
  0.00000000E+00  0.00000000E+00  0.00000000E+00
  0.00000000E+00  0.00000000E+00  0.00000000E+00
  0.00000000E+00  0.00000000E+00  0.00000000E+00
  0.00000000E+00  0.00000000E+00  0.00000000E+00
  0.00000000E+00  0.00000000E+00  0.00000000E+00
  0.00000000E+00  0.00000000E+00  0.00000000E+00
  0.00000000E+00  0.00000000E+00  0.00000000E+00
  0.00000000E+00  0.00000000E+00  0.00000000E+00
  0.00000000E+00  0.00000000E+00  0.00000000E+00
  0.00000000E+00  0.00000000E+00  0.00000000E+00
  0.00000000E+00  0.00000000E+00  0.00000000E+00
  0.00000000E+00  0.00000000E+00  0.00000000E+00
  0.00000000E+00  0.00000000E+00  0.00000000E+00
  0.00000000E+00  0.00000000E+00  0.00000000E+00
  0.00000000E+00  0.00000000E+00  0.00000000E+00
  0.00000000E+00  0.00000000E+00  0.00000000E+00
  0.00000000E+00  0.00000000E+00  0.00000000E+00
  0.00000000E+00  0.00000000E+00  0.00000000E+00
  0.00000000E+00  0.00000000E+00  0.00000000E+00
