Title                                   
   1.00000000000000     
     9.8694509999999998    0.0000000000000000    0.0000000000000000
     0.0000000000000000    8.5490480000000009    0.0000000000000000
     0.0000000000000000    0.0000000000000000   20.0000000000000000
    28     2     1
Selective dynamics
Direct
  0.0549385067174115  0.0887449721113697  0.0853692529032613   T   T   T
  0.9302974625411526  0.1727398742045188  0.0861333004118444   T   T   T
  0.0577108189538911  0.9225144687669552  0.0862496272664486   T   T   T
  0.9329487101040992  0.3397697212879909  0.0850044108554563   T   T   T
  0.0576445195637169  0.5901253208660611  0.0826602160448530   T   T   T
  0.9340889198371075  0.6748385169107238  0.0869639703364330   T   T   T
  0.0570419278214390  0.4226892308287485  0.0820343056938308   T   T   T
  0.9321487065889473  0.8413118575286602  0.0883543514842208   T   T   T
  0.3055151146442672  0.0865745649665994  0.0924757836467310   T   T   T
  0.1798909271670831  0.1689673636394617  0.0867368941735011   T   T   T
  0.1796868025549819  0.3360555843905060  0.0848900217979935   T   T   T
  0.3039707328276219  0.5852550322653975  0.0918552336788383   T   T   T
  0.1823729620051914  0.6721644111250038  0.0853552988334274   T   T   T
  0.3016077011181902  0.4176705864851670  0.0929297507978777   T   T   T
  0.1829117953529576  0.8391108083791884  0.0871368612286148   T   T   T
  0.5542385548590362  0.0929613459725442  0.1015520699659444   T   T   T
  0.4268801603837232  0.1747047904810430  0.1006402694636440   T   T   T
  0.5550432102250091  0.9241062524828226  0.1026061093323981   T   T   T
  0.4273975266902432  0.6673153892240700  0.1034474035118201   T   T   T
  0.4311237877473405  0.8351165733564635  0.0998930210100695   T   T   T
  0.8038867153649668  0.0921512413223920  0.0916694058709554   T   T   T
  0.6793244517133933  0.1796045754453186  0.0982349901677572   T   T   T
  0.8053184216186782  0.9241610805400837  0.0933075322729291   T   T   T
  0.6859207703911209  0.3474554925455636  0.1019697040337276   T   T   T
  0.8127228819814794  0.5925378153793009  0.0955466105309059   T   T   T
  0.6895828457310081  0.6720150358813265  0.1116456829407532   T   T   T
  0.8114923551766000  0.4248577610634633  0.0926908783402893   T   T   T
  0.6815316403598043  0.8387665780622816  0.1023441665880666   T   T   T
  0.4197987920241815  0.3370607737384144  0.1067489324412478   T   T   T
  0.3077340936891284  0.9208238325496276  0.0920794120019088   T   T   T
  0.5583631842462420  0.5087041481989529  0.1424395323742994   T   T   T
 
  0.00000000E+00  0.00000000E+00  0.00000000E+00
  0.00000000E+00  0.00000000E+00  0.00000000E+00
  0.00000000E+00  0.00000000E+00  0.00000000E+00
  0.00000000E+00  0.00000000E+00  0.00000000E+00
  0.00000000E+00  0.00000000E+00  0.00000000E+00
  0.00000000E+00  0.00000000E+00  0.00000000E+00
  0.00000000E+00  0.00000000E+00  0.00000000E+00
  0.00000000E+00  0.00000000E+00  0.00000000E+00
  0.00000000E+00  0.00000000E+00  0.00000000E+00
  0.00000000E+00  0.00000000E+00  0.00000000E+00
  0.00000000E+00  0.00000000E+00  0.00000000E+00
  0.00000000E+00  0.00000000E+00  0.00000000E+00
  0.00000000E+00  0.00000000E+00  0.00000000E+00
  0.00000000E+00  0.00000000E+00  0.00000000E+00
  0.00000000E+00  0.00000000E+00  0.00000000E+00
  0.00000000E+00  0.00000000E+00  0.00000000E+00
  0.00000000E+00  0.00000000E+00  0.00000000E+00
  0.00000000E+00  0.00000000E+00  0.00000000E+00
  0.00000000E+00  0.00000000E+00  0.00000000E+00
  0.00000000E+00  0.00000000E+00  0.00000000E+00
  0.00000000E+00  0.00000000E+00  0.00000000E+00
  0.00000000E+00  0.00000000E+00  0.00000000E+00
  0.00000000E+00  0.00000000E+00  0.00000000E+00
  0.00000000E+00  0.00000000E+00  0.00000000E+00
  0.00000000E+00  0.00000000E+00  0.00000000E+00
  0.00000000E+00  0.00000000E+00  0.00000000E+00
  0.00000000E+00  0.00000000E+00  0.00000000E+00
  0.00000000E+00  0.00000000E+00  0.00000000E+00
  0.00000000E+00  0.00000000E+00  0.00000000E+00
  0.00000000E+00  0.00000000E+00  0.00000000E+00
  0.00000000E+00  0.00000000E+00  0.00000000E+00
