Title                                   
   1.00000000000000     
     4.9440799999999996    0.0000000000000000    0.0000000000000000
     0.0000000000000000    8.5647549999999999    0.0000000000000000
     0.0000000000000000    0.0000000000000000   20.0000000000000000
     9     5     1
Selective dynamics
Direct
 -0.0016211801746528  0.2960543039250339  0.1004544178699747   T   T   T
  0.2500000000000000  0.0379372388919171  0.1005479646483889   T   T   T
 -0.0010733024149630  0.9551744054554617  0.1005388202744648   T   T   T
  0.7500000000000000  0.2066696050652893  0.1004247350579467   T   T   T
  0.5016211801746530  0.2960543039250339  0.1004544178699747   T   T   T
  0.7500000000000000  0.0412003651058417  0.1005000088642380   T   T   T
  0.7500000000000000  0.7108756493701968  0.1006160382435674   T   T   T
  0.7500000000000000  0.5381114114097163  0.1005189340670760   T   T   T
  0.5010733024149632  0.9551744054554617  0.1005388202744648   T   T   T
  0.5121456515697861  0.4537635649640605  0.1005291658440713   T   T   T
 -0.0121456515697863  0.4537635649640605  0.1005291658440713   T   T   T
 -0.0137100985391394  0.7938707885465139  0.1006229804049895   T   T   T
  0.5137100985391392  0.7938707885465139  0.1006229804049895   T   T   T
  0.2500000000000000  0.2136462527293925  0.1004851799346516   T   T   T
  0.2500000000000000  0.6255143516455086  0.1005963703971343   T   T   T
 
  0.00000000E+00  0.00000000E+00  0.00000000E+00
  0.00000000E+00  0.00000000E+00  0.00000000E+00
  0.00000000E+00  0.00000000E+00  0.00000000E+00
  0.00000000E+00  0.00000000E+00  0.00000000E+00
  0.00000000E+00  0.00000000E+00  0.00000000E+00
  0.00000000E+00  0.00000000E+00  0.00000000E+00
  0.00000000E+00  0.00000000E+00  0.00000000E+00
  0.00000000E+00  0.00000000E+00  0.00000000E+00
  0.00000000E+00  0.00000000E+00  0.00000000E+00
  0.00000000E+00  0.00000000E+00  0.00000000E+00
  0.00000000E+00  0.00000000E+00  0.00000000E+00
  0.00000000E+00  0.00000000E+00  0.00000000E+00
  0.00000000E+00  0.00000000E+00  0.00000000E+00
  0.00000000E+00  0.00000000E+00  0.00000000E+00
  0.00000000E+00  0.00000000E+00  0.00000000E+00
