Title                                   
   1.00000000000000     
     4.9440799999999996    0.0000000000000000    0.0000000000000000
     0.0000000000000000   17.1295089999999988    0.0000000000000000
     0.0000000000000000    0.0000000000000000   20.0000000000000000
    28     2     1
Selective dynamics
Direct
  0.0008715683818409  0.1056029210141688  0.2976189349120378   T   T   T
  0.2501840046641099  0.1482992910774684  0.2984316127940244   T   T   T
  0.2503301669271364  0.2325635396923020  0.3002281290441599   T   T   T
 -0.0026876930709023  0.2731957446556678  0.3011056423443673   T   T   T
 -0.0001376232685968  0.6021077426586430  0.3013012998759612   T   T   T
  0.2503339952620082  0.7278562616820011  0.2989201697010710   T   T   T
  0.0001918530702758  0.8539082822542579  0.2969717897239977   T   T   T
  0.2502515799728851  0.8958729482918087  0.2965794357037982   T   T   T
  0.2501690954435176  0.9796257676428928  0.2963386655496275   T   T   T
  0.0001754564101770  0.7700921207536565  0.2981266021645921   T   T   T
  0.4994972531389086  0.1056132384227081  0.2975717018061189   T   T   T
  0.7502254257692154  0.1468385768199775  0.2982725860002757   T   T   T
  0.7503823350726985  0.2304441477407157  0.2999504655075457   T   T   T
  0.4997435005144751  0.0217390800064674  0.2965572412922393   T   T   T
  0.7503535381833876  0.3910665783340434  0.3029303793915403   T   T   T
  0.7503201771433436  0.4781403004825782  0.3030955520081777   T   T   T
  0.5034482690590529  0.2731673461805174  0.3009241830868709   T   T   T
  0.5010342740235570  0.6021421206681135  0.3013321770862693   T   T   T
  0.7503787835177486  0.7282931569953777  0.2988684086854159   T   T   T
  0.5003405564734164  0.8539060284314081  0.2970097252195597   T   T   T
  0.7502820498231358  0.8959231839005996  0.2966213641084142   T   T   T
  0.7502104099852241  0.9798879836255476  0.2963832272002871   T   T   T
  0.5005109325412187  0.7700775859217374  0.2981779155667392   T   T   T
  0.7504568948188395  0.6443552891541440  0.3004829553415500   T   T   T
  0.2504149748048702  0.6442855323992714  0.3005329423891201   T   T   T
  0.0006317547118372  0.0217407568170979  0.2965808002570055   T   T   T
  0.5035699239633145  0.5190151797311535  0.3025569492283159   T   T   T
 -0.0028390045577160  0.5189514902580141  0.3026584473215816   T   T   T
  0.5129088209167647  0.3536340726369573  0.3024552405630530   T   T   T
 -0.0121730571611541  0.3536824290656225  0.3029046626702862   T   T   T
  0.2506267834654128  0.4393133026850781  0.3035707934559488   T   T   T
 
  0.00000000E+00  0.00000000E+00  0.00000000E+00
  0.00000000E+00  0.00000000E+00  0.00000000E+00
  0.00000000E+00  0.00000000E+00  0.00000000E+00
  0.00000000E+00  0.00000000E+00  0.00000000E+00
  0.00000000E+00  0.00000000E+00  0.00000000E+00
  0.00000000E+00  0.00000000E+00  0.00000000E+00
  0.00000000E+00  0.00000000E+00  0.00000000E+00
  0.00000000E+00  0.00000000E+00  0.00000000E+00
  0.00000000E+00  0.00000000E+00  0.00000000E+00
  0.00000000E+00  0.00000000E+00  0.00000000E+00
  0.00000000E+00  0.00000000E+00  0.00000000E+00
  0.00000000E+00  0.00000000E+00  0.00000000E+00
  0.00000000E+00  0.00000000E+00  0.00000000E+00
  0.00000000E+00  0.00000000E+00  0.00000000E+00
  0.00000000E+00  0.00000000E+00  0.00000000E+00
  0.00000000E+00  0.00000000E+00  0.00000000E+00
  0.00000000E+00  0.00000000E+00  0.00000000E+00
  0.00000000E+00  0.00000000E+00  0.00000000E+00
  0.00000000E+00  0.00000000E+00  0.00000000E+00
  0.00000000E+00  0.00000000E+00  0.00000000E+00
  0.00000000E+00  0.00000000E+00  0.00000000E+00
  0.00000000E+00  0.00000000E+00  0.00000000E+00
  0.00000000E+00  0.00000000E+00  0.00000000E+00
  0.00000000E+00  0.00000000E+00  0.00000000E+00
  0.00000000E+00  0.00000000E+00  0.00000000E+00
  0.00000000E+00  0.00000000E+00  0.00000000E+00
  0.00000000E+00  0.00000000E+00  0.00000000E+00
  0.00000000E+00  0.00000000E+00  0.00000000E+00
  0.00000000E+00  0.00000000E+00  0.00000000E+00
  0.00000000E+00  0.00000000E+00  0.00000000E+00
  0.00000000E+00  0.00000000E+00  0.00000000E+00
