Title                                   
   1.00000000000000     
     9.8694509999999998    0.0000000000000000    0.0000000000000000
     0.0000000000000000    8.5490480000000009    0.0000000000000000
     0.0000000000000000    0.0000000000000000   20.0000000000000000
    27     4     1
Selective dynamics
Direct
  0.0542852751237486  0.0917937097323390  0.0902174505231054   T   T   T
  0.9290630826915484  0.1736262981166248  0.0906945827141483   T   T   T
  0.0554748054191355  0.9245200478402205  0.0912237553350564   T   T   T
  0.9274606725470294  0.3417747680248988  0.0918547604309714   T   T   T
  0.0548017874746163  0.5897175305853938  0.0900192746524278   T   T   T
  0.9304303168272802  0.6728648077899633  0.0936614505862980   T   T   T
  0.0553252128694632  0.4230348497366750  0.0901301602573396   T   T   T
  0.9312693500507513  0.8392568833510072  0.0935851750669055   T   T   T
  0.3040909539594107  0.0873642397385424  0.0901482974997497   T   T   T
  0.1805383580577071  0.1731224810999833  0.0893108288538285   T   T   T
  0.1829909277600188  0.3413111988966773  0.0885264795298509   T   T   T
  0.3065017742277548  0.5937259053661182  0.0885271127675618   T   T   T
  0.1796770004746803  0.6739800581141863  0.0891709167165833   T   T   T
  0.3096698725964862  0.4244852300950251  0.0875718751549509   T   T   T
  0.1795312548317663  0.8407309724426816  0.0903888665047946   T   T   T
  0.5548408037730016  0.0811690719518258  0.0929441660475392   T   T   T
  0.4303038241123165  0.1664056338200315  0.0901738448389159   T   T   T
  0.5538366436184109  0.9147475665373811  0.0968693145280700   T   T   T
  0.4356532920901943  0.3346221562555188  0.0885729313918034   T   T   T
  0.4249932052106675  0.8328594298012293  0.0931508545743536   T   T   T
  0.8048357697012354  0.0874373734747606  0.0919628270481701   T   T   T
  0.6790582505471348  0.1673852639805753  0.0926455921442515   T   T   T
  0.8056394607418862  0.9211399104036702  0.0944139096523147   T   T   T
  0.6738312624958293  0.3348583913969777  0.0929077967619086   T   T   T
  0.8040977477461051  0.5927317565282522  0.1010097271170226   T   T   T
  0.8008086050060451  0.4240444841999890  0.0957372367062264   T   T   T
  0.6825538229393410  0.8337654700424251  0.1017900310804664   T   T   T
  0.4219054773105903  0.6791067490348499  0.0911048387296214   T   T   T
  0.5549057135182146  0.4112022449120299  0.0901520387908776   T   T   T
  0.6884564331584082  0.6763144948913461  0.1139674313252845   T   T   T
  0.3027747768143566  0.9232432390881140  0.0909776902268976   T   T   T
  0.6000332663048723  0.6179037827506856  0.2122637824427207   T   T   T
 
  0.00000000E+00  0.00000000E+00  0.00000000E+00
  0.00000000E+00  0.00000000E+00  0.00000000E+00
  0.00000000E+00  0.00000000E+00  0.00000000E+00
  0.00000000E+00  0.00000000E+00  0.00000000E+00
  0.00000000E+00  0.00000000E+00  0.00000000E+00
  0.00000000E+00  0.00000000E+00  0.00000000E+00
  0.00000000E+00  0.00000000E+00  0.00000000E+00
  0.00000000E+00  0.00000000E+00  0.00000000E+00
  0.00000000E+00  0.00000000E+00  0.00000000E+00
  0.00000000E+00  0.00000000E+00  0.00000000E+00
  0.00000000E+00  0.00000000E+00  0.00000000E+00
  0.00000000E+00  0.00000000E+00  0.00000000E+00
  0.00000000E+00  0.00000000E+00  0.00000000E+00
  0.00000000E+00  0.00000000E+00  0.00000000E+00
  0.00000000E+00  0.00000000E+00  0.00000000E+00
  0.00000000E+00  0.00000000E+00  0.00000000E+00
  0.00000000E+00  0.00000000E+00  0.00000000E+00
  0.00000000E+00  0.00000000E+00  0.00000000E+00
  0.00000000E+00  0.00000000E+00  0.00000000E+00
  0.00000000E+00  0.00000000E+00  0.00000000E+00
  0.00000000E+00  0.00000000E+00  0.00000000E+00
  0.00000000E+00  0.00000000E+00  0.00000000E+00
  0.00000000E+00  0.00000000E+00  0.00000000E+00
  0.00000000E+00  0.00000000E+00  0.00000000E+00
  0.00000000E+00  0.00000000E+00  0.00000000E+00
  0.00000000E+00  0.00000000E+00  0.00000000E+00
  0.00000000E+00  0.00000000E+00  0.00000000E+00
  0.00000000E+00  0.00000000E+00  0.00000000E+00
  0.00000000E+00  0.00000000E+00  0.00000000E+00
  0.00000000E+00  0.00000000E+00  0.00000000E+00
  0.00000000E+00  0.00000000E+00  0.00000000E+00
  0.00000000E+00  0.00000000E+00  0.00000000E+00
