Title                                   
   1.00000000000000     
     4.9440799999999996    0.0000000000000000    0.0000000000000000
     0.0000000000000000    8.5647549999999999    0.0000000000000000
     0.0000000000000000    0.0000000000000000   20.0000000000000000
    15     1
Selective dynamics
Direct
  0.2500000000000000  0.2069907689584990  0.0892575196917915   T   T   T
 -0.0024854863828086  0.2888428307925413  0.0927520533782405   T   T   T
  0.2500000000000000  0.0418664359008199  0.0848455764744341   T   T   T
 -0.0011479047647985  0.7967480505658774  0.1003929358671579   T   T   T
 -0.0011947792323149  0.9592156089962018  0.0859807759421057   T   T   T
  0.7500000000000000  0.2065507939366590  0.0832942295059079   T   T   T
  0.5024854863828084  0.2888428307925413  0.0927520533782405   T   T   T
  0.7500000000000000  0.0414042421795451  0.0811058473372668   T   T   T
  0.7500000000000000  0.7103551151132377  0.1050005557507638   T   T   T
  0.5011479047647984  0.7967480505658774  0.1003929358671579   T   T   T
  0.7500000000000000  0.5411720360714093  0.1085478152393625   T   T   T
  0.5011947792323146  0.9592156089962018  0.0859807759421057   T   T   T
  0.5095888611851777  0.4491365370123562  0.1096052299779538   T   T   T
 -0.0095888611851773  0.4491365370123562  0.1096052299779538   T   T   T
  0.2500000000000000  0.7254616543291845  0.1146690031953993   T   T   T
  0.2500000000000000  0.5383128987766913  0.1783294624741656   T   T   T
 
  0.00000000E+00  0.00000000E+00  0.00000000E+00
  0.00000000E+00  0.00000000E+00  0.00000000E+00
  0.00000000E+00  0.00000000E+00  0.00000000E+00
  0.00000000E+00  0.00000000E+00  0.00000000E+00
  0.00000000E+00  0.00000000E+00  0.00000000E+00
  0.00000000E+00  0.00000000E+00  0.00000000E+00
  0.00000000E+00  0.00000000E+00  0.00000000E+00
  0.00000000E+00  0.00000000E+00  0.00000000E+00
  0.00000000E+00  0.00000000E+00  0.00000000E+00
  0.00000000E+00  0.00000000E+00  0.00000000E+00
  0.00000000E+00  0.00000000E+00  0.00000000E+00
  0.00000000E+00  0.00000000E+00  0.00000000E+00
  0.00000000E+00  0.00000000E+00  0.00000000E+00
  0.00000000E+00  0.00000000E+00  0.00000000E+00
  0.00000000E+00  0.00000000E+00  0.00000000E+00
  0.00000000E+00  0.00000000E+00  0.00000000E+00
