Title                                   
   1.00000000000000     
     9.8694509999999998    0.0000000000000000    0.0000000000000000
     0.0000000000000000    8.5490480000000009    0.0000000000000000
     0.0000000000000000    0.0000000000000000   20.0000000000000000
    27     3     1
Selective dynamics
Direct
  0.0557838743656092  0.0885661855751038  0.0915574188086111   T   T   T
  0.9309923940914483  0.1724177004089541  0.0966468087382865   T   T   T
  0.0579244047833823  0.9225049320929675  0.0922632186582189   T   T   T
  0.9340465593278577  0.3399437066583844  0.0991986912705417   T   T   T
  0.0591295592097966  0.5900451851203813  0.0956766614145188   T   T   T
  0.9344287081560883  0.6737197729908203  0.1014050160250310   T   T   T
  0.0586262588146887  0.4227200613082647  0.0948517409378209   T   T   T
  0.9325890360797150  0.8407853010888534  0.0986658029390875   T   T   T
  0.3070602238143650  0.0862514187429934  0.0837303782436700   T   T   T
  0.1815937523390393  0.1703950879952894  0.0872728406132730   T   T   T
  0.1813127454605604  0.3364577532729528  0.0884845583425206   T   T   T
  0.3092739926570300  0.5870864013902353  0.0805667330335534   T   T   T
  0.1837998679467517  0.6724996224050818  0.0894975128783691   T   T   T
  0.3058428526590582  0.4165142965598074  0.0808077084448223   T   T   T
  0.1836112069806400  0.8382974681664345  0.0879468095587556   T   T   T
  0.4303780541674014  0.1702259251772423  0.0841103550438628   T   T   T
  0.5564353526376100  0.9252417275954514  0.0944315673930690   T   T   T
  0.4322139508998292  0.6766077762670478  0.0789807705000769   T   T   T
  0.4335573999326603  0.8424884062047220  0.0827622732218939   T   T   T
  0.8037290094557030  0.0912584345975289  0.0990454498189501   T   T   T
  0.6789823489129984  0.1818322596234985  0.1013952363203173   T   T   T
  0.8053112419460827  0.9229629915035440  0.1004876542073691   T   T   T
  0.6832902881769757  0.3490136645919443  0.1108714732935698   T   T   T
  0.8119795248652349  0.5912322885829754  0.1098842413443182   T   T   T
  0.6825800905763931  0.6672105437030393  0.1170119905378907   T   T   T
  0.8122912376578875  0.4239660759498484  0.1071929764201300   T   T   T
  0.6795450261614659  0.8362232539269767  0.1045745015186603   T   T   T
  0.5566574782896001  0.0940996560224329  0.0934098882572365   T   T   T
  0.4265732503874228  0.3304060600094266  0.0800337675612980   T   T   T
  0.3069065155840792  0.9221002817466142  0.0825878109302771   T   T   T
  0.5266887936626380  0.5078007607212008  0.1256131437240468   T   T   T
 
  0.00000000E+00  0.00000000E+00  0.00000000E+00
  0.00000000E+00  0.00000000E+00  0.00000000E+00
  0.00000000E+00  0.00000000E+00  0.00000000E+00
  0.00000000E+00  0.00000000E+00  0.00000000E+00
  0.00000000E+00  0.00000000E+00  0.00000000E+00
  0.00000000E+00  0.00000000E+00  0.00000000E+00
  0.00000000E+00  0.00000000E+00  0.00000000E+00
  0.00000000E+00  0.00000000E+00  0.00000000E+00
  0.00000000E+00  0.00000000E+00  0.00000000E+00
  0.00000000E+00  0.00000000E+00  0.00000000E+00
  0.00000000E+00  0.00000000E+00  0.00000000E+00
  0.00000000E+00  0.00000000E+00  0.00000000E+00
  0.00000000E+00  0.00000000E+00  0.00000000E+00
  0.00000000E+00  0.00000000E+00  0.00000000E+00
  0.00000000E+00  0.00000000E+00  0.00000000E+00
  0.00000000E+00  0.00000000E+00  0.00000000E+00
  0.00000000E+00  0.00000000E+00  0.00000000E+00
  0.00000000E+00  0.00000000E+00  0.00000000E+00
  0.00000000E+00  0.00000000E+00  0.00000000E+00
  0.00000000E+00  0.00000000E+00  0.00000000E+00
  0.00000000E+00  0.00000000E+00  0.00000000E+00
  0.00000000E+00  0.00000000E+00  0.00000000E+00
  0.00000000E+00  0.00000000E+00  0.00000000E+00
  0.00000000E+00  0.00000000E+00  0.00000000E+00
  0.00000000E+00  0.00000000E+00  0.00000000E+00
  0.00000000E+00  0.00000000E+00  0.00000000E+00
  0.00000000E+00  0.00000000E+00  0.00000000E+00
  0.00000000E+00  0.00000000E+00  0.00000000E+00
  0.00000000E+00  0.00000000E+00  0.00000000E+00
  0.00000000E+00  0.00000000E+00  0.00000000E+00
  0.00000000E+00  0.00000000E+00  0.00000000E+00
