Title                                   
   1.00000000000000     
     4.9440799999999996    0.0000000000000000    0.0000000000000000
     0.0000000000000000    8.5647549999999999    0.0000000000000000
     0.0000000000000000    0.0000000000000000   20.0000000000000000
    14     1     1
Selective dynamics
Direct
  0.2500000000000000  0.2063036401955525  0.0878101479406467   T   T   T
 -0.0029426796992287  0.2890441007524731  0.0906974687132844   T   T   T
  0.2500000000000000  0.0424154165538765  0.0850914813107745   T   T   T
  0.0023455508224052  0.7977886807107307  0.1016421293315510   T   T   T
 -0.0006240402865748  0.9588011224829185  0.0863404631684352   T   T   T
  0.7500000000000000  0.2054342817192812  0.0820838444440447   T   T   T
  0.5029426796992290  0.2890441007524731  0.0906974687132844   T   T   T
  0.7500000000000000  0.0399217211763355  0.0807656078721065   T   T   T
  0.7500000000000000  0.7105480439829235  0.1073720554106187   T   T   T
  0.4976544491775947  0.7977886807107307  0.1016421293315510   T   T   T
  0.7500000000000000  0.5386315166768022  0.1066391904907800   T   T   T
  0.5006240402865747  0.9588011224829185  0.0863404631684352   T   T   T
  0.5086796047158394  0.4489603763948490  0.1063736700096827   T   T   T
 -0.0086796047158393  0.4489603763948490  0.1063736700096827   T   T   T
  0.2500000000000000  0.7291430186183498  0.1155313808852899   T   T   T
  0.2500000000000000  0.5384138003949376  0.1871108291998400   T   T   T
 
  0.00000000E+00  0.00000000E+00  0.00000000E+00
  0.00000000E+00  0.00000000E+00  0.00000000E+00
  0.00000000E+00  0.00000000E+00  0.00000000E+00
  0.00000000E+00  0.00000000E+00  0.00000000E+00
  0.00000000E+00  0.00000000E+00  0.00000000E+00
  0.00000000E+00  0.00000000E+00  0.00000000E+00
  0.00000000E+00  0.00000000E+00  0.00000000E+00
  0.00000000E+00  0.00000000E+00  0.00000000E+00
  0.00000000E+00  0.00000000E+00  0.00000000E+00
  0.00000000E+00  0.00000000E+00  0.00000000E+00
  0.00000000E+00  0.00000000E+00  0.00000000E+00
  0.00000000E+00  0.00000000E+00  0.00000000E+00
  0.00000000E+00  0.00000000E+00  0.00000000E+00
  0.00000000E+00  0.00000000E+00  0.00000000E+00
  0.00000000E+00  0.00000000E+00  0.00000000E+00
  0.00000000E+00  0.00000000E+00  0.00000000E+00
