Title                                   
   1.00000000000000     
     9.8694509999999998    0.0000000000000000    0.0000000000000000
     0.0000000000000000    8.5490480000000009    0.0000000000000000
     0.0000000000000000    0.0000000000000000   20.0000000000000000
    26     5     1
Selective dynamics
Direct
  0.0561514673870137  0.0926536837524796  0.0870063585606389   T   T   T
  0.9299667130179839  0.1759106174988437  0.0882268877737756   T   T   T
  0.0568335737019795  0.9244594061319764  0.0857020640308869   T   T   T
  0.9289637118344847  0.3422110121140564  0.0885592004814309   T   T   T
  0.0568990441301819  0.5904003653174446  0.0854406419970320   T   T   T
  0.9325511398664282  0.6724281391557611  0.0852495054353219   T   T   T
  0.0559294570554781  0.4235670097656192  0.0891865253217480   T   T   T
  0.9317011647218048  0.8400475079373874  0.0860513488249098   T   T   T
  0.3056437435129017  0.0884133485186678  0.0917011953226967   T   T   T
  0.1824047497960916  0.1748500771086682  0.0899050034533822   T   T   T
  0.3070560942672851  0.9227392401117674  0.0922284491851984   T   T   T
  0.1828182420317775  0.3408759391319385  0.0930660719886310   T   T   T
  0.3054489931313535  0.5924439834504438  0.1045356016661214   T   T   T
  0.1818879212466966  0.6717208564083916  0.0890428060840187   T   T   T
  0.1819128159551420  0.8394760411799985  0.0882240018649227   T   T   T
  0.5569724506862958  0.0844770383890965  0.0982305813949424   T   T   T
  0.4310396063047134  0.1688366977973572  0.0964395076239454   T   T   T
  0.4349902418942204  0.3352358120712907  0.0982292680572533   T   T   T
  0.4278753590626029  0.8376266794865179  0.1070061349111671   T   T   T
  0.8071155950967196  0.0893224206412960  0.0904472359486131   T   T   T
  0.6809906991927667  0.1693538248166261  0.0940298932193617   T   T   T
  0.8068028957476366  0.9243031158414664  0.0902676980417128   T   T   T
  0.6753238819065632  0.3359596325028910  0.0928027285449218   T   T   T
  0.8049642069930795  0.5951746580798118  0.0899699639442429   T   T   T
  0.6850597193853964  0.8365381766319463  0.0975393216728682   T   T   T
  0.4165939813779979  0.6807466812996745  0.1279421932150421   T   T   T
  0.5552189573019775  0.4114814199902693  0.0970841107287210   T   T   T
  0.6902706665751585  0.6786090023267791  0.0989354682850677   T   T   T
  0.5571130123562147  0.9181827164874571  0.1034974356489687   T   T   T
  0.3089616701086870  0.4232551157650756  0.1004465945005614   T   T   T
  0.8004057707790810  0.4257192347777359  0.0889526514943625   T   T   T
  0.5637714535742948  0.5832265455112672  0.1697285507775491   T   T   T
 
  0.00000000E+00  0.00000000E+00  0.00000000E+00
  0.00000000E+00  0.00000000E+00  0.00000000E+00
  0.00000000E+00  0.00000000E+00  0.00000000E+00
  0.00000000E+00  0.00000000E+00  0.00000000E+00
  0.00000000E+00  0.00000000E+00  0.00000000E+00
  0.00000000E+00  0.00000000E+00  0.00000000E+00
  0.00000000E+00  0.00000000E+00  0.00000000E+00
  0.00000000E+00  0.00000000E+00  0.00000000E+00
  0.00000000E+00  0.00000000E+00  0.00000000E+00
  0.00000000E+00  0.00000000E+00  0.00000000E+00
  0.00000000E+00  0.00000000E+00  0.00000000E+00
  0.00000000E+00  0.00000000E+00  0.00000000E+00
  0.00000000E+00  0.00000000E+00  0.00000000E+00
  0.00000000E+00  0.00000000E+00  0.00000000E+00
  0.00000000E+00  0.00000000E+00  0.00000000E+00
  0.00000000E+00  0.00000000E+00  0.00000000E+00
  0.00000000E+00  0.00000000E+00  0.00000000E+00
  0.00000000E+00  0.00000000E+00  0.00000000E+00
  0.00000000E+00  0.00000000E+00  0.00000000E+00
  0.00000000E+00  0.00000000E+00  0.00000000E+00
  0.00000000E+00  0.00000000E+00  0.00000000E+00
  0.00000000E+00  0.00000000E+00  0.00000000E+00
  0.00000000E+00  0.00000000E+00  0.00000000E+00
  0.00000000E+00  0.00000000E+00  0.00000000E+00
  0.00000000E+00  0.00000000E+00  0.00000000E+00
  0.00000000E+00  0.00000000E+00  0.00000000E+00
  0.00000000E+00  0.00000000E+00  0.00000000E+00
  0.00000000E+00  0.00000000E+00  0.00000000E+00
  0.00000000E+00  0.00000000E+00  0.00000000E+00
  0.00000000E+00  0.00000000E+00  0.00000000E+00
  0.00000000E+00  0.00000000E+00  0.00000000E+00
  0.00000000E+00  0.00000000E+00  0.00000000E+00
