Title                                   
   1.00000000000000     
     9.8694509999999998    0.0000000000000000    0.0000000000000000
     0.0000000000000000    8.5490480000000009    0.0000000000000000
     0.0000000000000000    0.0000000000000000   20.0000000000000000
    27     3     1
Selective dynamics
Direct
  0.0553793304323695  0.0897608635397919  0.0861175855329833   T   T   T
  0.9303455899654726  0.1735372016069014  0.0858692671758648   T   T   T
  0.0578382229616500  0.9234362209017430  0.0864516167509908   T   T   T
  0.9325040386576879  0.3412151763129361  0.0849025321264712   T   T   T
  0.0569193907488458  0.5901894208832263  0.0836905689613655   T   T   T
  0.9334447543005825  0.6751962395988099  0.0859031900587128   T   T   T
  0.0569233090847761  0.4232229267730253  0.0836960963558001   T   T   T
  0.9328727347261252  0.8414718059125983  0.0874551986029157   T   T   T
  0.3054815525389912  0.0875287446265859  0.0953357150413627   T   T   T
  0.1801083917555623  0.1697650552915594  0.0893795358338824   T   T   T
  0.1800351063982521  0.3371007312896436  0.0883817565939486   T   T   T
  0.3032847167825321  0.5867298240785251  0.0954207202550554   T   T   T
  0.1813773070075892  0.6724093681863401  0.0875725257338300   T   T   T
  0.3019755587174311  0.4173918948521354  0.0974890818875909   T   T   T
  0.1829185109791685  0.8397780208274610  0.0885521809271698   T   T   T
  0.5555645411819724  0.0909482386816998  0.1023740136057952   T   T   T
  0.4275221016365932  0.1744462545757692  0.1035545839275875   T   T   T
  0.5558509660090394  0.9214812055138539  0.1024721851444197   T   T   T
  0.4252488384501933  0.6697893991551086  0.1042263872400849   T   T   T
  0.4300715749686853  0.8345352982272302  0.1007716120732209   T   T   T
  0.8047685806549374  0.0911766134609089  0.0905100769886097   T   T   T
  0.6805734261775553  0.1780068269495343  0.0970606893915013   T   T   T
  0.8064250895909171  0.9232649227110101  0.0919516839874971   T   T   T
  0.6855546901723464  0.3447516589289557  0.0988867788502983   T   T   T
  0.8105934099524508  0.5950004176264603  0.0927458650072488   T   T   T
  0.8090482052590245  0.4253640642800709  0.0904604424012820   T   T   T
  0.6838213643547975  0.8356058413202659  0.1002107191356879   T   T   T
  0.4209459978966525  0.3369728046606619  0.1099078345526002   T   T   T
  0.6910227572944831  0.6734452723234231  0.1048779099725723   T   T   T
  0.3066923625335310  0.9216333440212902  0.0938564938239972   T   T   T
  0.5580225788097888  0.5057193428824996  0.1308801520596868   T   T   T
 
  0.00000000E+00  0.00000000E+00  0.00000000E+00
  0.00000000E+00  0.00000000E+00  0.00000000E+00
  0.00000000E+00  0.00000000E+00  0.00000000E+00
  0.00000000E+00  0.00000000E+00  0.00000000E+00
  0.00000000E+00  0.00000000E+00  0.00000000E+00
  0.00000000E+00  0.00000000E+00  0.00000000E+00
  0.00000000E+00  0.00000000E+00  0.00000000E+00
  0.00000000E+00  0.00000000E+00  0.00000000E+00
  0.00000000E+00  0.00000000E+00  0.00000000E+00
  0.00000000E+00  0.00000000E+00  0.00000000E+00
  0.00000000E+00  0.00000000E+00  0.00000000E+00
  0.00000000E+00  0.00000000E+00  0.00000000E+00
  0.00000000E+00  0.00000000E+00  0.00000000E+00
  0.00000000E+00  0.00000000E+00  0.00000000E+00
  0.00000000E+00  0.00000000E+00  0.00000000E+00
  0.00000000E+00  0.00000000E+00  0.00000000E+00
  0.00000000E+00  0.00000000E+00  0.00000000E+00
  0.00000000E+00  0.00000000E+00  0.00000000E+00
  0.00000000E+00  0.00000000E+00  0.00000000E+00
  0.00000000E+00  0.00000000E+00  0.00000000E+00
  0.00000000E+00  0.00000000E+00  0.00000000E+00
  0.00000000E+00  0.00000000E+00  0.00000000E+00
  0.00000000E+00  0.00000000E+00  0.00000000E+00
  0.00000000E+00  0.00000000E+00  0.00000000E+00
  0.00000000E+00  0.00000000E+00  0.00000000E+00
  0.00000000E+00  0.00000000E+00  0.00000000E+00
  0.00000000E+00  0.00000000E+00  0.00000000E+00
  0.00000000E+00  0.00000000E+00  0.00000000E+00
  0.00000000E+00  0.00000000E+00  0.00000000E+00
  0.00000000E+00  0.00000000E+00  0.00000000E+00
  0.00000000E+00  0.00000000E+00  0.00000000E+00
