Title                                   
   1.00000000000000     
     9.8694509999999998    0.0000000000000000    0.0000000000000000
     0.0000000000000000    8.5490480000000009    0.0000000000000000
     0.0000000000000000    0.0000000000000000   20.0000000000000000
    27     3     1
Selective dynamics
Direct
  0.0558395188242473  0.0896642891394083  0.0927768047085165   T   T   T
  0.9310763378394201  0.1726339708549911  0.0926651423581424   T   T   T
  0.0573306866804627  0.9235765348803211  0.0928830410326057   T   T   T
  0.9335014672393014  0.3402524861373749  0.0919006952286727   T   T   T
  0.0565605723975929  0.5900178520700438  0.0914983940575961   T   T   T
  0.9333050129064570  0.6747113082759816  0.0919047499399660   T   T   T
  0.0571241531994770  0.4233974772535350  0.0915240882260785   T   T   T
  0.9325723399769060  0.8410218040220890  0.0927666215322867   T   T   T
  0.3059716566911679  0.0889791245438054  0.0956038312099677   T   T   T
  0.1804029153184638  0.1701511058702272  0.0936274672321827   T   T   T
  0.1801121229264536  0.3376381128358154  0.0932284870937009   T   T   T
  0.3022892455934522  0.5879836005542417  0.0961356009849474   T   T   T
  0.1804715691755591  0.6732719003038466  0.0932748319453422   T   T   T
  0.3017922871708972  0.4190633560565388  0.0959989618470420   T   T   T
  0.1823221613181127  0.8408624010832337  0.0936998226845639   T   T   T
  0.5561706634977053  0.0909127194761199  0.0973683855910358   T   T   T
  0.4295450972028986  0.1756370473779235  0.0976252975280567   T   T   T
  0.5555797222205631  0.9215007696699822  0.0972627595263907   T   T   T
  0.4252458007721166  0.6721153125024526  0.0990431094844015   T   T   T
  0.4291905246037971  0.8359133214691715  0.0976236147963540   T   T   T
  0.8056406189715113  0.0899355463170613  0.0942127942778542   T   T   T
  0.6817507892441079  0.1772517745805985  0.0960627270540015   T   T   T
  0.8060130428254536  0.9216183260465026  0.0942088223715152   T   T   T
  0.6862575133675832  0.3434233884169514  0.0961608390557948   T   T   T
  0.8111833252138004  0.5931398756799089  0.0932976200685758   T   T   T
  0.8109364514590978  0.4243004924617222  0.0932937704945343   T   T   T
  0.6819446922838497  0.8339534171366532  0.0959250024580595   T   T   T
  0.4242310549283893  0.3394836169400020  0.0986886250821353   T   T   T
  0.6879661282041964  0.6700507903673417  0.0959093189829887   T   T   T
  0.3058961382623018  0.9230459202095441  0.0955006810438629   T   T   T
  0.5549113896846570  0.5053673574666369  0.0992930921028623   T   T   T
 
  0.00000000E+00  0.00000000E+00  0.00000000E+00
  0.00000000E+00  0.00000000E+00  0.00000000E+00
  0.00000000E+00  0.00000000E+00  0.00000000E+00
  0.00000000E+00  0.00000000E+00  0.00000000E+00
  0.00000000E+00  0.00000000E+00  0.00000000E+00
  0.00000000E+00  0.00000000E+00  0.00000000E+00
  0.00000000E+00  0.00000000E+00  0.00000000E+00
  0.00000000E+00  0.00000000E+00  0.00000000E+00
  0.00000000E+00  0.00000000E+00  0.00000000E+00
  0.00000000E+00  0.00000000E+00  0.00000000E+00
  0.00000000E+00  0.00000000E+00  0.00000000E+00
  0.00000000E+00  0.00000000E+00  0.00000000E+00
  0.00000000E+00  0.00000000E+00  0.00000000E+00
  0.00000000E+00  0.00000000E+00  0.00000000E+00
  0.00000000E+00  0.00000000E+00  0.00000000E+00
  0.00000000E+00  0.00000000E+00  0.00000000E+00
  0.00000000E+00  0.00000000E+00  0.00000000E+00
  0.00000000E+00  0.00000000E+00  0.00000000E+00
  0.00000000E+00  0.00000000E+00  0.00000000E+00
  0.00000000E+00  0.00000000E+00  0.00000000E+00
  0.00000000E+00  0.00000000E+00  0.00000000E+00
  0.00000000E+00  0.00000000E+00  0.00000000E+00
  0.00000000E+00  0.00000000E+00  0.00000000E+00
  0.00000000E+00  0.00000000E+00  0.00000000E+00
  0.00000000E+00  0.00000000E+00  0.00000000E+00
  0.00000000E+00  0.00000000E+00  0.00000000E+00
  0.00000000E+00  0.00000000E+00  0.00000000E+00
  0.00000000E+00  0.00000000E+00  0.00000000E+00
  0.00000000E+00  0.00000000E+00  0.00000000E+00
  0.00000000E+00  0.00000000E+00  0.00000000E+00
  0.00000000E+00  0.00000000E+00  0.00000000E+00
