Title                                   
   1.00000000000000     
     9.8694509999999998    0.0000000000000000    0.0000000000000000
     0.0000000000000000    8.5490480000000009    0.0000000000000000
     0.0000000000000000    0.0000000000000000   20.0000000000000000
    27     3     1
Selective dynamics
Direct
  0.0555633544493506  0.0893847884757649  0.0852888538190215   T   T   T
  0.9314011437633318  0.1714352876339397  0.0885939551155285   T   T   T
  0.0571217113837989  0.9233991012477470  0.0857836333095930   T   T   T
  0.9352484344198627  0.3382445943413373  0.0877072943153004   T   T   T
  0.0576421764397032  0.5900667330592352  0.0812837632234164   T   T   T
  0.9353619179860740  0.6746137548776771  0.0878568713228368   T   T   T
  0.0576540202481310  0.4228531576039790  0.0811202196467316   T   T   T
  0.9318903119480458  0.8407123733924600  0.0888162714218393   T   T   T
  0.3047876100749772  0.0880367467715715  0.0914361886176335   T   T   T
  0.1802630854792962  0.1705782115190807  0.0852816282522598   T   T   T
  0.1800104873553714  0.3384523552249951  0.0831330434601873   T   T   T
  0.3014767158837394  0.5910673198432741  0.0908479199546384   T   T   T
  0.1804516112980401  0.6738012711731426  0.0836190839461688   T   T   T
  0.3018123345475114  0.4204621163663053  0.0907747141627816   T   T   T
  0.1807643045566318  0.8412089520145003  0.0862249468443071   T   T   T
  0.5543459192619856  0.0911065013379900  0.1047940756532845   T   T   T
  0.4265671609670876  0.1752152776023484  0.1001074530923560   T   T   T
  0.5531705771795008  0.9217125487271299  0.1045741143825138   T   T   T
  0.4261240395130776  0.8362554573269688  0.1001637908810569   T   T   T
  0.8057797284544169  0.0899460359861456  0.0961428627595016   T   T   T
  0.6823113447604638  0.1769057248259682  0.1047929128103012   T   T   T
  0.8059853253057853  0.9221521672096723  0.0960689059366728   T   T   T
  0.6922608005424732  0.3434136597869524  0.1101044771033235   T   T   T
  0.8167866472923884  0.5911297774024412  0.0995276964757062   T   T   T
  0.6925384537622612  0.6694349375418666  0.1104010192132068   T   T   T
  0.8168238365214089  0.4216700383334607  0.0993955469389596   T   T   T
  0.6820908165888232  0.8350109620869717  0.1046644491854135   T   T   T
  0.4179257314690315  0.3361681969152533  0.1024723092522625   T   T   T
  0.4174128676338096  0.6772175596471401  0.1027376036841334   T   T   T
  0.3049571067775303  0.9229518714726931  0.0916554936495147   T   T   T
  0.5566054241361066  0.5062675202519933  0.1155939015695973   T   T   T
 
  0.00000000E+00  0.00000000E+00  0.00000000E+00
  0.00000000E+00  0.00000000E+00  0.00000000E+00
  0.00000000E+00  0.00000000E+00  0.00000000E+00
  0.00000000E+00  0.00000000E+00  0.00000000E+00
  0.00000000E+00  0.00000000E+00  0.00000000E+00
  0.00000000E+00  0.00000000E+00  0.00000000E+00
  0.00000000E+00  0.00000000E+00  0.00000000E+00
  0.00000000E+00  0.00000000E+00  0.00000000E+00
  0.00000000E+00  0.00000000E+00  0.00000000E+00
  0.00000000E+00  0.00000000E+00  0.00000000E+00
  0.00000000E+00  0.00000000E+00  0.00000000E+00
  0.00000000E+00  0.00000000E+00  0.00000000E+00
  0.00000000E+00  0.00000000E+00  0.00000000E+00
  0.00000000E+00  0.00000000E+00  0.00000000E+00
  0.00000000E+00  0.00000000E+00  0.00000000E+00
  0.00000000E+00  0.00000000E+00  0.00000000E+00
  0.00000000E+00  0.00000000E+00  0.00000000E+00
  0.00000000E+00  0.00000000E+00  0.00000000E+00
  0.00000000E+00  0.00000000E+00  0.00000000E+00
  0.00000000E+00  0.00000000E+00  0.00000000E+00
  0.00000000E+00  0.00000000E+00  0.00000000E+00
  0.00000000E+00  0.00000000E+00  0.00000000E+00
  0.00000000E+00  0.00000000E+00  0.00000000E+00
  0.00000000E+00  0.00000000E+00  0.00000000E+00
  0.00000000E+00  0.00000000E+00  0.00000000E+00
  0.00000000E+00  0.00000000E+00  0.00000000E+00
  0.00000000E+00  0.00000000E+00  0.00000000E+00
  0.00000000E+00  0.00000000E+00  0.00000000E+00
  0.00000000E+00  0.00000000E+00  0.00000000E+00
  0.00000000E+00  0.00000000E+00  0.00000000E+00
  0.00000000E+00  0.00000000E+00  0.00000000E+00
