Title                                   
   1.00000000000000     
     8.5490480000000009    0.0000000000000000    0.0000000000000000
     0.0000000000000000    8.5490480000000009    0.0000000000000000
     0.0000000000000000    0.0000000000000000   20.0000000000000000
    22     2     1
Selective dynamics
Direct
  0.9109455303785767  0.2035258119499910  0.0954595285597505   T   T   T
  0.9033404456365244  0.5017990980560857  0.0952782629924030   T   T   T
  0.9109322856884856  0.8000415607964035  0.0954719701924773   T   T   T
  0.1968439729985767  0.0823584934543596  0.0954874442946456   T   T   T
  0.0738989573674815  0.2054802208023615  0.0954744109281074   T   T   T
  0.1968335141289219  0.9212172114582199  0.0954909707348039   T   T   T
  0.1521309729263442  0.6491010762719003  0.0953597939731433   T   T   T
  0.0719504853879777  0.5017932236299280  0.0953288914678872   T   T   T
  0.1521231829281323  0.3544809841935382  0.0953657545945191   T   T   T
  0.0738919112646922  0.7980892218312382  0.0954773230195095   T   T   T
  0.4967148963216526  0.0863245173148159  0.0953627618682862   T   T   T
  0.3483836068057885  0.1648495128461148  0.0953802343028782   T   T   T
  0.4967045313880725  0.9172628597989360  0.0953642248921339   T   T   T
  0.3483688700724492  0.8387452283825744  0.0953885523401979   T   T   T
  0.7914282515307872  0.0840837148720560  0.0954705429250661   T   T   T
  0.6448330560977297  0.1643384450292240  0.0953022794194390   T   T   T
  0.7914186979070698  0.9194905987321773  0.0954808557279679   T   T   T
  0.8272899745611736  0.6512621071019582  0.0952941112582232   T   T   T
  0.8272867857335795  0.3523181268502684  0.0952686598434972   T   T   T
  0.6448210737048279  0.8392473926730309  0.0953204079510559   T   T   T
  0.3157836490813831  0.3252275171988632  0.0952842159834599   T   T   T
  0.3157863214168620  0.6783612735009675  0.0952807070210808   T   T   T
  0.6705540607826996  0.3244020429749953  0.0951074042917094   T   T   T
  0.6705581830557636  0.6791755217393187  0.0951327301139164   T   T   T
  0.4925887828344407  0.5018142385406870  0.0950729613038187   T   T   T
 
  0.00000000E+00  0.00000000E+00  0.00000000E+00
  0.00000000E+00  0.00000000E+00  0.00000000E+00
  0.00000000E+00  0.00000000E+00  0.00000000E+00
  0.00000000E+00  0.00000000E+00  0.00000000E+00
  0.00000000E+00  0.00000000E+00  0.00000000E+00
  0.00000000E+00  0.00000000E+00  0.00000000E+00
  0.00000000E+00  0.00000000E+00  0.00000000E+00
  0.00000000E+00  0.00000000E+00  0.00000000E+00
  0.00000000E+00  0.00000000E+00  0.00000000E+00
  0.00000000E+00  0.00000000E+00  0.00000000E+00
  0.00000000E+00  0.00000000E+00  0.00000000E+00
  0.00000000E+00  0.00000000E+00  0.00000000E+00
  0.00000000E+00  0.00000000E+00  0.00000000E+00
  0.00000000E+00  0.00000000E+00  0.00000000E+00
  0.00000000E+00  0.00000000E+00  0.00000000E+00
  0.00000000E+00  0.00000000E+00  0.00000000E+00
  0.00000000E+00  0.00000000E+00  0.00000000E+00
  0.00000000E+00  0.00000000E+00  0.00000000E+00
  0.00000000E+00  0.00000000E+00  0.00000000E+00
  0.00000000E+00  0.00000000E+00  0.00000000E+00
  0.00000000E+00  0.00000000E+00  0.00000000E+00
  0.00000000E+00  0.00000000E+00  0.00000000E+00
  0.00000000E+00  0.00000000E+00  0.00000000E+00
  0.00000000E+00  0.00000000E+00  0.00000000E+00
  0.00000000E+00  0.00000000E+00  0.00000000E+00
