Title                                   
   1.00000000000000     
     4.9440799999999996    0.0000000000000000    0.0000000000000000
     0.0000000000000000   17.1295089999999988    0.0000000000000000
     0.0000000000000000    0.0000000000000000   20.0000000000000000
    28     2     1
Selective dynamics
Direct
  0.0011731882701748  0.1059653743423147  0.2977928535148180   T   T   T
  0.2503272549014977  0.1486003422051425  0.2984816386377237   T   T   T
  0.2502922341668702  0.2331825802637162  0.3000169501229191   T   T   T
 -0.0018574919429479  0.2741310469057172  0.3007832165450952   T   T   T
  0.0019080598195470  0.6011616873733642  0.3012221737432586   T   T   T
  0.2503562566920342  0.7274227727487088  0.2991116262243437   T   T   T
  0.0003347678397711  0.8536316971622281  0.2972828978541630   T   T   T
  0.2503799239776918  0.8957946140663728  0.2968971041271716   T   T   T
  0.2503600216682748  0.9796298259307378  0.2966758508882723   T   T   T
  0.0000330110712200  0.7697653695558775  0.2984104222502807   T   T   T
  0.4995102782738714  0.1059695279502051  0.2977932372299905   T   T   T
  0.7503449102330124  0.1475181687505110  0.2984425960820667   T   T   T
  0.7502856259144393  0.2312476662011756  0.2999444543398274   T   T   T
  0.4998970558466531  0.0219242885330402  0.2968780184478419   T   T   T
  0.7502483833399091  0.3914836247500841  0.3026524668874205   T   T   T
  0.7502635688659762  0.4774294482143012  0.3028331252704865   T   T   T
  0.5024105998839585  0.2741306584896235  0.3007763280318914   T   T   T
  0.4987211567958271  0.6011598463897747  0.3012141542374653   T   T   T
  0.7503593992896498  0.7275866269435256  0.2991151859580061   T   T   T
  0.5004281024293660  0.8536296629941567  0.2972822865660232   T   T   T
  0.7503688649219061  0.8958147785570132  0.2969253265469355   T   T   T
  0.7503616629836598  0.9799104487631788  0.2967048308138271   T   T   T
  0.5006989533645275  0.7697623385898625  0.2984110434915033   T   T   T
  0.7503301150149166  0.6433407783013033  0.3005430225865006   T   T   T
  0.2503347949668719  0.6443232545995572  0.3005168591325404   T   T   T
  0.0008307790037081  0.0219232990451178  0.2968792536270549   T   T   T
  0.5045896630887269  0.5186798780318888  0.3023280104445187   T   T   T
  0.9959455664868521  0.5186824278024527  0.3023482125788318   T   T   T
  0.5125697891213625  0.3545802356313800  0.3022114601996269   T   T   T
 -0.0120678604432876  0.3545819348688697  0.3022280151350241   T   T   T
  0.2502683641539613  0.4383777960387942  0.3023573784845231   T   T   T
 
  0.00000000E+00  0.00000000E+00  0.00000000E+00
  0.00000000E+00  0.00000000E+00  0.00000000E+00
  0.00000000E+00  0.00000000E+00  0.00000000E+00
  0.00000000E+00  0.00000000E+00  0.00000000E+00
  0.00000000E+00  0.00000000E+00  0.00000000E+00
  0.00000000E+00  0.00000000E+00  0.00000000E+00
  0.00000000E+00  0.00000000E+00  0.00000000E+00
  0.00000000E+00  0.00000000E+00  0.00000000E+00
  0.00000000E+00  0.00000000E+00  0.00000000E+00
  0.00000000E+00  0.00000000E+00  0.00000000E+00
  0.00000000E+00  0.00000000E+00  0.00000000E+00
  0.00000000E+00  0.00000000E+00  0.00000000E+00
  0.00000000E+00  0.00000000E+00  0.00000000E+00
  0.00000000E+00  0.00000000E+00  0.00000000E+00
  0.00000000E+00  0.00000000E+00  0.00000000E+00
  0.00000000E+00  0.00000000E+00  0.00000000E+00
  0.00000000E+00  0.00000000E+00  0.00000000E+00
  0.00000000E+00  0.00000000E+00  0.00000000E+00
  0.00000000E+00  0.00000000E+00  0.00000000E+00
  0.00000000E+00  0.00000000E+00  0.00000000E+00
  0.00000000E+00  0.00000000E+00  0.00000000E+00
  0.00000000E+00  0.00000000E+00  0.00000000E+00
  0.00000000E+00  0.00000000E+00  0.00000000E+00
  0.00000000E+00  0.00000000E+00  0.00000000E+00
  0.00000000E+00  0.00000000E+00  0.00000000E+00
  0.00000000E+00  0.00000000E+00  0.00000000E+00
  0.00000000E+00  0.00000000E+00  0.00000000E+00
  0.00000000E+00  0.00000000E+00  0.00000000E+00
  0.00000000E+00  0.00000000E+00  0.00000000E+00
  0.00000000E+00  0.00000000E+00  0.00000000E+00
  0.00000000E+00  0.00000000E+00  0.00000000E+00
