Title                                   
   1.00000000000000     
     9.8694509999999998    0.0000000000000000    0.0000000000000000
     0.0000000000000000    8.5490480000000009    0.0000000000000000
     0.0000000000000000    0.0000000000000000   20.0000000000000000
    29     2     1
Selective dynamics
Direct
  0.0568019778708120  0.0907376486422408  0.0845343157722454   T   T   T
  0.9315802983931072  0.1727936412583840  0.0872419666695675   T   T   T
  0.0558412447961058  0.9234947724501419  0.0844757978505328   T   T   T
  0.9317454138886884  0.3397618607211772  0.0916148774576659   T   T   T
  0.0565527060973125  0.5893362062585041  0.0888009566907178   T   T   T
  0.9314909885504359  0.6720875228931754  0.0916688368713469   T   T   T
  0.0574159493707042  0.4231296316630285  0.0898515032337437   T   T   T
  0.9308009293713267  0.8387929747738189  0.0878879195844723   T   T   T
  0.3059491616714348  0.0905001683349940  0.0861786451739244   T   T   T
  0.1821798782171456  0.1748368688696946  0.0863237201639032   T   T   T
  0.3057895990904422  0.9250170654622530  0.0861130175059508   T   T   T
  0.1835654566990052  0.3421036145630011  0.0901654364592923   T   T   T
  0.3054200886330981  0.5943994509005550  0.0977645890449421   T   T   T
  0.1806365274651212  0.6739362595922116  0.0888259823534923   T   T   T
  0.3094207396192060  0.4258822751938913  0.0973890767613765   T   T   T
  0.1806574620891627  0.8405049095529545  0.0858907669566705   T   T   T
  0.5561916692578542  0.0855824362973497  0.0940115616307769   T   T   T
  0.4318076260807334  0.1699457458321103  0.0922404683709793   T   T   T
  0.4336521370109153  0.3358321141635873  0.1015688956449561   T   T   T
  0.5588262018541217  0.4073897299251900  0.1165456378752780   T   T   T
  0.4281425795284567  0.8415010290726636  0.0956050008013015   T   T   T
  0.8075782558531710  0.0876880098931614  0.0880253542664223   T   T   T
  0.6821966839819557  0.1675087591463217  0.0939879056335308   T   T   T
  0.8054366731093444  0.9221340303531187  0.0889174569535906   T   T   T
  0.6831933283051997  0.3327001990236617  0.1037587389148165   T   T   T
  0.8081615583425846  0.5900808880336527  0.1035889490914744   T   T   T
  0.6884768763616080  0.6793152844460827  0.1174577077648603   T   T   T
  0.8074049320983223  0.4214857167266357  0.1010856076564016   T   T   T
  0.6819561747940297  0.8382637449851623  0.0997690299180462   T   T   T
  0.4213536184834006  0.6854090754800506  0.1103714554318158   T   T   T
  0.5548330594253178  0.9193931758773588  0.0967220004638723   T   T   T
  0.5445792036898824  0.5887011896138555  0.1752918210320784   T   T   T
 
  0.00000000E+00  0.00000000E+00  0.00000000E+00
  0.00000000E+00  0.00000000E+00  0.00000000E+00
  0.00000000E+00  0.00000000E+00  0.00000000E+00
  0.00000000E+00  0.00000000E+00  0.00000000E+00
  0.00000000E+00  0.00000000E+00  0.00000000E+00
  0.00000000E+00  0.00000000E+00  0.00000000E+00
  0.00000000E+00  0.00000000E+00  0.00000000E+00
  0.00000000E+00  0.00000000E+00  0.00000000E+00
  0.00000000E+00  0.00000000E+00  0.00000000E+00
  0.00000000E+00  0.00000000E+00  0.00000000E+00
  0.00000000E+00  0.00000000E+00  0.00000000E+00
  0.00000000E+00  0.00000000E+00  0.00000000E+00
  0.00000000E+00  0.00000000E+00  0.00000000E+00
  0.00000000E+00  0.00000000E+00  0.00000000E+00
  0.00000000E+00  0.00000000E+00  0.00000000E+00
  0.00000000E+00  0.00000000E+00  0.00000000E+00
  0.00000000E+00  0.00000000E+00  0.00000000E+00
  0.00000000E+00  0.00000000E+00  0.00000000E+00
  0.00000000E+00  0.00000000E+00  0.00000000E+00
  0.00000000E+00  0.00000000E+00  0.00000000E+00
  0.00000000E+00  0.00000000E+00  0.00000000E+00
  0.00000000E+00  0.00000000E+00  0.00000000E+00
  0.00000000E+00  0.00000000E+00  0.00000000E+00
  0.00000000E+00  0.00000000E+00  0.00000000E+00
  0.00000000E+00  0.00000000E+00  0.00000000E+00
  0.00000000E+00  0.00000000E+00  0.00000000E+00
  0.00000000E+00  0.00000000E+00  0.00000000E+00
  0.00000000E+00  0.00000000E+00  0.00000000E+00
  0.00000000E+00  0.00000000E+00  0.00000000E+00
  0.00000000E+00  0.00000000E+00  0.00000000E+00
  0.00000000E+00  0.00000000E+00  0.00000000E+00
  0.00000000E+00  0.00000000E+00  0.00000000E+00
