Title                                   
   1.00000000000000     
     8.5490480000000009    0.0000000000000000    0.0000000000000000
     0.0000000000000000    8.5490480000000009    0.0000000000000000
     0.0000000000000000    0.0000000000000000   20.0000000000000000
    22     2     1
Selective dynamics
Direct
  0.9098243038712719  0.2052282780717138  0.0975326878807214   T   T   T
  0.9038959966337534  0.5018141102481392  0.0963740179443220   T   T   T
  0.9098404922400342  0.7983541473755692  0.0975483935417710   T   T   T
  0.1982182009704445  0.0850299721490217  0.0987769438001869   T   T   T
  0.0771599693974023  0.2061663910534352  0.0979727813655967   T   T   T
  0.1982200063931492  0.9184913742572101  0.0987790822199392   T   T   T
  0.1552060098537184  0.6479220100095164  0.0967816973904929   T   T   T
  0.0738081240516041  0.5017996758709103  0.0966866792562309   T   T   T
  0.1551852741766283  0.3556253563908434  0.0967818338028445   T   T   T
  0.0771635000343278  0.7973673891502487  0.0979855782319907   T   T   T
  0.4956491002246884  0.0866743309999558  0.0968277438232202   T   T   T
  0.3481577572947743  0.1646588692197565  0.0980076422730430   T   T   T
  0.4956728244404703  0.9169231246986158  0.0968149683238411   T   T   T
  0.3481746100272901  0.8389235935256718  0.0980013740157780   T   T   T
  0.7904723447330994  0.0857521882381304  0.0971139022199079   T   T   T
  0.6429562947502543  0.1667725869187148  0.0954651237537867   T   T   T
  0.7904740234141183  0.9178547403259573  0.0971147186137921   T   T   T
  0.8268919207607341  0.6504397305349520  0.0960949866493461   T   T   T
  0.8268902907764524  0.3531784782002336  0.0960820320159600   T   T   T
  0.6429714723985693  0.8368384196011810  0.0954475132412470   T   T   T
  0.3251334606958164  0.3321352107461065  0.0945960334994691   T   T   T
  0.3251643957470961  0.6714587916213101  0.0945739904935396   T   T   T
  0.6652656595785250  0.3299244688762721  0.0931489114113309   T   T   T
  0.6652698343465472  0.6736647120291602  0.0931390206058608   T   T   T
  0.4777461331892224  0.5017920498873870  0.0660573436257591   T   T   T
 
  0.00000000E+00  0.00000000E+00  0.00000000E+00
  0.00000000E+00  0.00000000E+00  0.00000000E+00
  0.00000000E+00  0.00000000E+00  0.00000000E+00
  0.00000000E+00  0.00000000E+00  0.00000000E+00
  0.00000000E+00  0.00000000E+00  0.00000000E+00
  0.00000000E+00  0.00000000E+00  0.00000000E+00
  0.00000000E+00  0.00000000E+00  0.00000000E+00
  0.00000000E+00  0.00000000E+00  0.00000000E+00
  0.00000000E+00  0.00000000E+00  0.00000000E+00
  0.00000000E+00  0.00000000E+00  0.00000000E+00
  0.00000000E+00  0.00000000E+00  0.00000000E+00
  0.00000000E+00  0.00000000E+00  0.00000000E+00
  0.00000000E+00  0.00000000E+00  0.00000000E+00
  0.00000000E+00  0.00000000E+00  0.00000000E+00
  0.00000000E+00  0.00000000E+00  0.00000000E+00
  0.00000000E+00  0.00000000E+00  0.00000000E+00
  0.00000000E+00  0.00000000E+00  0.00000000E+00
  0.00000000E+00  0.00000000E+00  0.00000000E+00
  0.00000000E+00  0.00000000E+00  0.00000000E+00
  0.00000000E+00  0.00000000E+00  0.00000000E+00
  0.00000000E+00  0.00000000E+00  0.00000000E+00
  0.00000000E+00  0.00000000E+00  0.00000000E+00
  0.00000000E+00  0.00000000E+00  0.00000000E+00
  0.00000000E+00  0.00000000E+00  0.00000000E+00
  0.00000000E+00  0.00000000E+00  0.00000000E+00
