Title                                   
   1.00000000000000     
     9.8694509999999998    0.0000000000000000    0.0000000000000000
     0.0000000000000000    8.5490480000000009    0.0000000000000000
     0.0000000000000000    0.0000000000000000   20.0000000000000000
    29     2     1
Selective dynamics
Direct
  0.0567234374501651  0.0908041237068312  0.0824685914319521   T   T   T
  0.9312001832048579  0.1729812208509081  0.0856130951353477   T   T   T
  0.0556973217054075  0.9235520135786389  0.0824903845038201   T   T   T
  0.9313103738323023  0.3399010121796918  0.0903170775871349   T   T   T
  0.0565856613720132  0.5892716015728685  0.0870873573187456   T   T   T
  0.9317010375104731  0.6722879715135636  0.0901025157288756   T   T   T
  0.0571493617646777  0.4231097888518941  0.0882028108170474   T   T   T
  0.9307695981143318  0.8388498886717344  0.0860587042169130   T   T   T
  0.3060548449535245  0.0900189270990824  0.0850696210529018   T   T   T
  0.1821876798942510  0.1746305544091842  0.0845771524301979   T   T   T
  0.3059325642387856  0.9245523094677890  0.0852740846237376   T   T   T
  0.1835052968878437  0.3420685604155996  0.0887963419432830   T   T   T
  0.3049521569286308  0.5944653628493843  0.0985325412200999   T   T   T
  0.1807198427412862  0.6739629693454717  0.0877549384558877   T   T   T
  0.3089796400240554  0.4258004043965863  0.0977291295688946   T   T   T
  0.1806202780457958  0.8403317338454513  0.0845200280829532   T   T   T
  0.5559312476989907  0.0854508631337168  0.0947747280656430   T   T   T
  0.4316294710675004  0.1700392329675902  0.0924039441122905   T   T   T
  0.4328147561398251  0.3352508672277029  0.1027490111102581   T   T   T
  0.5578164237268913  0.4057851022298165  0.1203818137915313   T   T   T
  0.4278663470094142  0.8405239818478198  0.0964752090834557   T   T   T
  0.8072354438829630  0.0879538542422418  0.0870673242706968   T   T   T
  0.6818644166121929  0.1678011498718950  0.0945132166161784   T   T   T
  0.8051088394384819  0.9222404948040273  0.0876899090005506   T   T   T
  0.6828518235721174  0.3327744297841523  0.1052590150330723   T   T   T
  0.8089640243652764  0.5903856021902496  0.1035766731378309   T   T   T
  0.6906613781672214  0.6805047971356781  0.1195624340289139   T   T   T
  0.8071446087500002  0.4218166530976689  0.1013221794328474   T   T   T
  0.6823006250481500  0.8385706879521688  0.0998268646272030   T   T   T
  0.4197549864889248  0.6857498915746294  0.1134466104728336   T   T   T
  0.5545982837867747  0.9194941738627466  0.0977426303197293   T   T   T
  0.5490070455768795  0.5893157753232050  0.1822890627792183   T   T   T
 
  0.00000000E+00  0.00000000E+00  0.00000000E+00
  0.00000000E+00  0.00000000E+00  0.00000000E+00
  0.00000000E+00  0.00000000E+00  0.00000000E+00
  0.00000000E+00  0.00000000E+00  0.00000000E+00
  0.00000000E+00  0.00000000E+00  0.00000000E+00
  0.00000000E+00  0.00000000E+00  0.00000000E+00
  0.00000000E+00  0.00000000E+00  0.00000000E+00
  0.00000000E+00  0.00000000E+00  0.00000000E+00
  0.00000000E+00  0.00000000E+00  0.00000000E+00
  0.00000000E+00  0.00000000E+00  0.00000000E+00
  0.00000000E+00  0.00000000E+00  0.00000000E+00
  0.00000000E+00  0.00000000E+00  0.00000000E+00
  0.00000000E+00  0.00000000E+00  0.00000000E+00
  0.00000000E+00  0.00000000E+00  0.00000000E+00
  0.00000000E+00  0.00000000E+00  0.00000000E+00
  0.00000000E+00  0.00000000E+00  0.00000000E+00
  0.00000000E+00  0.00000000E+00  0.00000000E+00
  0.00000000E+00  0.00000000E+00  0.00000000E+00
  0.00000000E+00  0.00000000E+00  0.00000000E+00
  0.00000000E+00  0.00000000E+00  0.00000000E+00
  0.00000000E+00  0.00000000E+00  0.00000000E+00
  0.00000000E+00  0.00000000E+00  0.00000000E+00
  0.00000000E+00  0.00000000E+00  0.00000000E+00
  0.00000000E+00  0.00000000E+00  0.00000000E+00
  0.00000000E+00  0.00000000E+00  0.00000000E+00
  0.00000000E+00  0.00000000E+00  0.00000000E+00
  0.00000000E+00  0.00000000E+00  0.00000000E+00
  0.00000000E+00  0.00000000E+00  0.00000000E+00
  0.00000000E+00  0.00000000E+00  0.00000000E+00
  0.00000000E+00  0.00000000E+00  0.00000000E+00
  0.00000000E+00  0.00000000E+00  0.00000000E+00
  0.00000000E+00  0.00000000E+00  0.00000000E+00
