Title                                   
   1.00000000000000     
     4.9440799999999996    0.0000000000000000    0.0000000000000000
     0.0000000000000000   17.1295089999999988    0.0000000000000000
     0.0000000000000000    0.0000000000000000   20.0000000000000000
    30     1     1
Selective dynamics
Direct
  0.0003453439245237  0.1048726809764819  0.2815577838931457   T   T   T
  0.2498958211667977  0.1467994747761855  0.2858330068162712   T   T   T
  0.2498947241378095  0.2295342615372124  0.2973401546668093   T   T   T
 -0.0004103688594215  0.3500960127724910  0.3232171373213192   T   T   T
 -0.0025210968663859  0.2703032126206138  0.3034204793152810   T   T   T
 -0.0039974374024945  0.6057817988912848  0.3108426721353549   T   T   T
  0.2499065060787780  0.7285541580604661  0.2903275056029084   T   T   T
  0.0002277589000427  0.8539888055098187  0.2786135217193618   T   T   T
  0.2498963523406113  0.8959034807694484  0.2770652019449660   T   T   T
  0.2498961603912433  0.9795272682632216  0.2762005931867333   T   T   T
  0.0004244297280001  0.7705459983177325  0.2847843595880193   T   T   T
  0.4994468602494041  0.1048686020558264  0.2815605614011947   T   T   T
  0.7498949387723286  0.1464077546443093  0.2847856150174473   T   T   T
  0.7498894326259756  0.2287219630748137  0.2946358835111450   T   T   T
  0.4996951711257002  0.0214350808639171  0.2769959541644784   T   T   T
  0.5002127809790334  0.3500942411344112  0.3232109455876564   T   T   T
  0.7499201771729944  0.4773941880890450  0.3265725471757567   T   T   T
  0.5023076929556680  0.2703012739998167  0.3034172200175483   T   T   T
  0.5038117451354402  0.6057861366979529  0.3108379470496504   T   T   T
  0.7498854061955654  0.7295043555394380  0.2885112795259349   T   T   T
  0.4995470995483993  0.8539868002167066  0.2786127459464315   T   T   T
  0.7498945683269898  0.8957966621445717  0.2767611415395992   T   T   T
  0.7498964837494856  0.9795078570805176  0.2759663636108296   T   T   T
  0.4993859433896892  0.7705494616683223  0.2847819398238633   T   T   T
  0.7499041291701394  0.6471086441194585  0.3003010948851927   T   T   T
  0.2499077153531354  0.6460413609281850  0.3046582671977489   T   T   T
  0.0001058943328051  0.0214364340022837  0.2769934980310758   T   T   T
  0.5140646126571026  0.5247584134578727  0.3307615783726939   T   T   T
  0.9857827603440097  0.5247570932014286  0.3307831381729692   T   T   T
  0.2498990343885955  0.3853277671560099  0.3421759065986427   T   T   T
  0.7498878581393128  0.3934083999884142  0.3266361902628940   T   T   T
  0.2499245018487251  0.4854513574417361  0.3944027659170292   T   T   T
 
  0.00000000E+00  0.00000000E+00  0.00000000E+00
  0.00000000E+00  0.00000000E+00  0.00000000E+00
  0.00000000E+00  0.00000000E+00  0.00000000E+00
  0.00000000E+00  0.00000000E+00  0.00000000E+00
  0.00000000E+00  0.00000000E+00  0.00000000E+00
  0.00000000E+00  0.00000000E+00  0.00000000E+00
  0.00000000E+00  0.00000000E+00  0.00000000E+00
  0.00000000E+00  0.00000000E+00  0.00000000E+00
  0.00000000E+00  0.00000000E+00  0.00000000E+00
  0.00000000E+00  0.00000000E+00  0.00000000E+00
  0.00000000E+00  0.00000000E+00  0.00000000E+00
  0.00000000E+00  0.00000000E+00  0.00000000E+00
  0.00000000E+00  0.00000000E+00  0.00000000E+00
  0.00000000E+00  0.00000000E+00  0.00000000E+00
  0.00000000E+00  0.00000000E+00  0.00000000E+00
  0.00000000E+00  0.00000000E+00  0.00000000E+00
  0.00000000E+00  0.00000000E+00  0.00000000E+00
  0.00000000E+00  0.00000000E+00  0.00000000E+00
  0.00000000E+00  0.00000000E+00  0.00000000E+00
  0.00000000E+00  0.00000000E+00  0.00000000E+00
  0.00000000E+00  0.00000000E+00  0.00000000E+00
  0.00000000E+00  0.00000000E+00  0.00000000E+00
  0.00000000E+00  0.00000000E+00  0.00000000E+00
  0.00000000E+00  0.00000000E+00  0.00000000E+00
  0.00000000E+00  0.00000000E+00  0.00000000E+00
  0.00000000E+00  0.00000000E+00  0.00000000E+00
  0.00000000E+00  0.00000000E+00  0.00000000E+00
  0.00000000E+00  0.00000000E+00  0.00000000E+00
  0.00000000E+00  0.00000000E+00  0.00000000E+00
  0.00000000E+00  0.00000000E+00  0.00000000E+00
  0.00000000E+00  0.00000000E+00  0.00000000E+00
  0.00000000E+00  0.00000000E+00  0.00000000E+00
