Title                                   
   1.00000000000000     
     4.9440799999999996    0.0000000000000000    0.0000000000000000
     0.0000000000000000   17.1295089999999988    0.0000000000000000
     0.0000000000000000    0.0000000000000000   20.0000000000000000
    28     3     1
Selective dynamics
Direct
  0.0019217247175880  0.1046571249345688  0.2860268383693708   T   T   T
  0.2519875445123678  0.1467327277579341  0.2883157940431952   T   T   T
  0.2530063120204059  0.2300731727751933  0.2948833502890392   T   T   T
  0.0085245138309811  0.3530105881093194  0.3103553590198663   T   T   T
  0.0017641873066875  0.2715158629952981  0.2982140601738190   T   T   T
 -0.0080827222205796  0.6030329109144598  0.3063931730534986   T   T   T
  0.2468870982336833  0.7273205259615565  0.2955516457098875   T   T   T
 -0.0009462045035639  0.8533740646221826  0.2864063118429769   T   T   T
  0.2490646010552588  0.8954686285687316  0.2853476022609588   T   T   T
  0.2502429230586630  0.9790704023677447  0.2840653832143555   T   T   T
 -0.0020515183266512  0.7698124438301228  0.2907629050080564   T   T   T
  0.5014071825632537  0.1046242080730880  0.2861426416147682   T   T   T
  0.7520536018112632  0.1466396598583951  0.2875979251006356   T   T   T
  0.7531032290609939  0.2294641586441253  0.2929370245786297   T   T   T
  0.5005941788510729  0.0211234063563782  0.2841844428324675   T   T   T
  0.5001080013774231  0.3529427269305986  0.3112656401844033   T   T   T
  0.7497758393449849  0.4818190806698611  0.3179930335032324   T   T   T
  0.5049685397446531  0.2715660006535214  0.2986233398919780   T   T   T
  0.4999355074748864  0.6044342374126527  0.3133695431807030   T   T   T
  0.7474548468841643  0.7287108507665156  0.2938369507934129   T   T   T
  0.4983267407777976  0.8533348951539852  0.2869300700069560   T   T   T
  0.7490810487417006  0.8952861885725368  0.2850844390063221   T   T   T
  0.7502809645603639  0.9790006193019559  0.2838499791536648   T   T   T
  0.4971429551395722  0.7698634690065503  0.2918997990119932   T   T   T
  0.7461504672669725  0.6456802163923351  0.3022678449712358   T   T   T
  0.2461863173186623  0.6443260086451332  0.3057122858308109   T   T   T
  0.0006194735226006  0.0211077873889779  0.2840611237695067   T   T   T
  0.5175899749732209  0.5248351144938227  0.3357531054181065   T   T   T
  0.9866218831706229  0.5220169088530843  0.3089546387410181   T   T   T
  0.2546783622711310  0.3886282002269912  0.3223937060437427   T   T   T
  0.7546172295503043  0.3968285729832784  0.3146549716312195   T   T   T
  0.2338081959095199  0.4822502367790926  0.3887300717501199   T   T   T
 
  0.00000000E+00  0.00000000E+00  0.00000000E+00
  0.00000000E+00  0.00000000E+00  0.00000000E+00
  0.00000000E+00  0.00000000E+00  0.00000000E+00
  0.00000000E+00  0.00000000E+00  0.00000000E+00
  0.00000000E+00  0.00000000E+00  0.00000000E+00
  0.00000000E+00  0.00000000E+00  0.00000000E+00
  0.00000000E+00  0.00000000E+00  0.00000000E+00
  0.00000000E+00  0.00000000E+00  0.00000000E+00
  0.00000000E+00  0.00000000E+00  0.00000000E+00
  0.00000000E+00  0.00000000E+00  0.00000000E+00
  0.00000000E+00  0.00000000E+00  0.00000000E+00
  0.00000000E+00  0.00000000E+00  0.00000000E+00
  0.00000000E+00  0.00000000E+00  0.00000000E+00
  0.00000000E+00  0.00000000E+00  0.00000000E+00
  0.00000000E+00  0.00000000E+00  0.00000000E+00
  0.00000000E+00  0.00000000E+00  0.00000000E+00
  0.00000000E+00  0.00000000E+00  0.00000000E+00
  0.00000000E+00  0.00000000E+00  0.00000000E+00
  0.00000000E+00  0.00000000E+00  0.00000000E+00
  0.00000000E+00  0.00000000E+00  0.00000000E+00
  0.00000000E+00  0.00000000E+00  0.00000000E+00
  0.00000000E+00  0.00000000E+00  0.00000000E+00
  0.00000000E+00  0.00000000E+00  0.00000000E+00
  0.00000000E+00  0.00000000E+00  0.00000000E+00
  0.00000000E+00  0.00000000E+00  0.00000000E+00
  0.00000000E+00  0.00000000E+00  0.00000000E+00
  0.00000000E+00  0.00000000E+00  0.00000000E+00
  0.00000000E+00  0.00000000E+00  0.00000000E+00
  0.00000000E+00  0.00000000E+00  0.00000000E+00
  0.00000000E+00  0.00000000E+00  0.00000000E+00
  0.00000000E+00  0.00000000E+00  0.00000000E+00
  0.00000000E+00  0.00000000E+00  0.00000000E+00
