Title                                   
   1.00000000000000     
     9.8694509999999998    0.0000000000000000    0.0000000000000000
     0.0000000000000000    8.5490480000000009    0.0000000000000000
     0.0000000000000000    0.0000000000000000   20.0000000000000000
    27     4     1
Selective dynamics
Direct
  0.0562520661866885  0.0920115473842962  0.0902094303370735   T   T   T
  0.9307603721293696  0.1747966255933009  0.0910792582684134   T   T   T
  0.0562758659324400  0.9245195891884167  0.0901181115617807   T   T   T
  0.9293896866244057  0.3419562743142625  0.0929683908497075   T   T   T
  0.0562596321054424  0.5899475407833980  0.0914365183032061   T   T   T
  0.9316595755758751  0.6737606389961960  0.0925784977213963   T   T   T
  0.0562732486020626  0.4235981990650743  0.0922429001997205   T   T   T
  0.9317651425118487  0.8404154565213345  0.0913187081130726   T   T   T
  0.3054973768835046  0.0894534557256339  0.0905100014840868   T   T   T
  0.1817774880882844  0.1747571794269516  0.0908390655066832   T   T   T
  0.3061367070574728  0.9240801056308727  0.0909279850400453   T   T   T
  0.1831518711190351  0.3419140638220022  0.0924832900878398   T   T   T
  0.3069218163221088  0.5939086416032143  0.0956711789179992   T   T   T
  0.1808899044408944  0.6737653668256924  0.0918331010493702   T   T   T
  0.3103423502386868  0.4250468575749841  0.0951571557466845   T   T   T
  0.1807817957197343  0.8403927968456286  0.0907646623821835   T   T   T
  0.5563201999533443  0.0834698471914331  0.0932779084964271   T   T   T
  0.4321349281471445  0.1680957816150359  0.0926229146408299   T   T   T
  0.4347228110617745  0.3345486966084064  0.0959144309097477   T   T   T
  0.4283334634823694  0.8373852614754389  0.0948702666342241   T   T   T
  0.8070969875147730  0.0894835099652316  0.0907823464431651   T   T   T
  0.6804827121152270  0.1681265881951492  0.0929918515861297   T   T   T
  0.8064932600632190  0.9241040819348122  0.0914166933017718   T   T   T
  0.6778560892313852  0.3345604263435646  0.0965607838703128   T   T   T
  0.8057068028240050  0.5939130760397371  0.0971668083686808   T   T   T
  0.8022607442860845  0.4250719553364791  0.0962027868132500   T   T   T
  0.6842616807703580  0.8374484661871064  0.0957878224597304   T   T   T
  0.4258037800866288  0.6799790502671875  0.1012746238889849   T   T   T
  0.5562416510838002  0.4107299212586857  0.1013707814265921   T   T   T
  0.6871012335479638  0.6802808501495546  0.1034361522235490   T   T   T
  0.5563673509726774  0.9167573144614086  0.0945015859707481   T   T   T
  0.5543204053213998  0.5819668336695125  0.1773589873966096   T   T   T
 
  0.00000000E+00  0.00000000E+00  0.00000000E+00
  0.00000000E+00  0.00000000E+00  0.00000000E+00
  0.00000000E+00  0.00000000E+00  0.00000000E+00
  0.00000000E+00  0.00000000E+00  0.00000000E+00
  0.00000000E+00  0.00000000E+00  0.00000000E+00
  0.00000000E+00  0.00000000E+00  0.00000000E+00
  0.00000000E+00  0.00000000E+00  0.00000000E+00
  0.00000000E+00  0.00000000E+00  0.00000000E+00
  0.00000000E+00  0.00000000E+00  0.00000000E+00
  0.00000000E+00  0.00000000E+00  0.00000000E+00
  0.00000000E+00  0.00000000E+00  0.00000000E+00
  0.00000000E+00  0.00000000E+00  0.00000000E+00
  0.00000000E+00  0.00000000E+00  0.00000000E+00
  0.00000000E+00  0.00000000E+00  0.00000000E+00
  0.00000000E+00  0.00000000E+00  0.00000000E+00
  0.00000000E+00  0.00000000E+00  0.00000000E+00
  0.00000000E+00  0.00000000E+00  0.00000000E+00
  0.00000000E+00  0.00000000E+00  0.00000000E+00
  0.00000000E+00  0.00000000E+00  0.00000000E+00
  0.00000000E+00  0.00000000E+00  0.00000000E+00
  0.00000000E+00  0.00000000E+00  0.00000000E+00
  0.00000000E+00  0.00000000E+00  0.00000000E+00
  0.00000000E+00  0.00000000E+00  0.00000000E+00
  0.00000000E+00  0.00000000E+00  0.00000000E+00
  0.00000000E+00  0.00000000E+00  0.00000000E+00
  0.00000000E+00  0.00000000E+00  0.00000000E+00
  0.00000000E+00  0.00000000E+00  0.00000000E+00
  0.00000000E+00  0.00000000E+00  0.00000000E+00
  0.00000000E+00  0.00000000E+00  0.00000000E+00
  0.00000000E+00  0.00000000E+00  0.00000000E+00
  0.00000000E+00  0.00000000E+00  0.00000000E+00
  0.00000000E+00  0.00000000E+00  0.00000000E+00
