Title                                   
   1.00000000000000     
     9.8694509999999998    0.0000000000000000    0.0000000000000000
     0.0000000000000000    8.5490480000000009    0.0000000000000000
     0.0000000000000000    0.0000000000000000   20.0000000000000000
    28     2     1
Selective dynamics
Direct
  0.0557337927920086  0.0894134110559514  0.0882328559739983   T   T   T
  0.9302477062225653  0.1736514235141860  0.0883975807933745   T   T   T
  0.0566978134869269  0.9229304107467885  0.0881570334722994   T   T   T
  0.9318422175215287  0.3408544279821623  0.0873261099422731   T   T   T
  0.0565773077699624  0.5893225601823073  0.0857164071467103   T   T   T
  0.9330860339210684  0.6749532927796277  0.0881452281072823   T   T   T
  0.0558512812390839  0.4229874211431761  0.0857853628141715   T   T   T
  0.9322319409891018  0.8417556553152757  0.0894873671627908   T   T   T
  0.3061571814983967  0.0887302630321964  0.0938765655285545   T   T   T
  0.1801738803809506  0.1705417361264697  0.0900654551832401   T   T   T
  0.3075723107033607  0.9206140844382273  0.0926422018433703   T   T   T
  0.1793922065252460  0.3373805292715578  0.0886885376972129   T   T   T
  0.3041850536726265  0.5863326825590707  0.0919732572652636   T   T   T
  0.1805726450653647  0.6715067369034384  0.0876572549788774   T   T   T
  0.3015390928092093  0.4181553136754269  0.0940723975851649   T   T   T
  0.1821554753130080  0.8387120814638774  0.0887251394063470   T   T   T
  0.5552856804611227  0.0915610572551530  0.1001043859994936   T   T   T
  0.4291405777040700  0.1747299486065234  0.0999665328583262   T   T   T
  0.5570096651790376  0.9207744018847657  0.1000551189276401   T   T   T
  0.4287861042319021  0.6671879496778557  0.0988965122987549   T   T   T
  0.4322159187760600  0.8342819043923099  0.0975865406712928   T   T   T
  0.8048723876991103  0.0916470289658305  0.0920098271141802   T   T   T
  0.6801587708137551  0.1777928904008719  0.0968856174126298   T   T   T
  0.8062841879242235  0.9236352832117196  0.0931294847826992   T   T   T
  0.6834838532945304  0.3447336340451574  0.0976580265681153   T   T   T
  0.8107636630903333  0.5942383041915452  0.0931039270488089   T   T   T
  0.8080520803398135  0.4259491884748324  0.0910544424836183   T   T   T
  0.6832326999905672  0.8378194762317868  0.0991830300082931   T   T   T
  0.4230407839125843  0.3391507803519196  0.1053052776343835   T   T   T
  0.6893099870956592  0.6735213783551223  0.1040121662587926   T   T   T
  0.5574826995768322  0.5060097437648801  0.1430653550320815   T   T   T
 
  0.00000000E+00  0.00000000E+00  0.00000000E+00
  0.00000000E+00  0.00000000E+00  0.00000000E+00
  0.00000000E+00  0.00000000E+00  0.00000000E+00
  0.00000000E+00  0.00000000E+00  0.00000000E+00
  0.00000000E+00  0.00000000E+00  0.00000000E+00
  0.00000000E+00  0.00000000E+00  0.00000000E+00
  0.00000000E+00  0.00000000E+00  0.00000000E+00
  0.00000000E+00  0.00000000E+00  0.00000000E+00
  0.00000000E+00  0.00000000E+00  0.00000000E+00
  0.00000000E+00  0.00000000E+00  0.00000000E+00
  0.00000000E+00  0.00000000E+00  0.00000000E+00
  0.00000000E+00  0.00000000E+00  0.00000000E+00
  0.00000000E+00  0.00000000E+00  0.00000000E+00
  0.00000000E+00  0.00000000E+00  0.00000000E+00
  0.00000000E+00  0.00000000E+00  0.00000000E+00
  0.00000000E+00  0.00000000E+00  0.00000000E+00
  0.00000000E+00  0.00000000E+00  0.00000000E+00
  0.00000000E+00  0.00000000E+00  0.00000000E+00
  0.00000000E+00  0.00000000E+00  0.00000000E+00
  0.00000000E+00  0.00000000E+00  0.00000000E+00
  0.00000000E+00  0.00000000E+00  0.00000000E+00
  0.00000000E+00  0.00000000E+00  0.00000000E+00
  0.00000000E+00  0.00000000E+00  0.00000000E+00
  0.00000000E+00  0.00000000E+00  0.00000000E+00
  0.00000000E+00  0.00000000E+00  0.00000000E+00
  0.00000000E+00  0.00000000E+00  0.00000000E+00
  0.00000000E+00  0.00000000E+00  0.00000000E+00
  0.00000000E+00  0.00000000E+00  0.00000000E+00
  0.00000000E+00  0.00000000E+00  0.00000000E+00
  0.00000000E+00  0.00000000E+00  0.00000000E+00
  0.00000000E+00  0.00000000E+00  0.00000000E+00
