Title                                   
   1.00000000000000     
     4.9440799999999996    0.0000000000000000    0.0000000000000000
     0.0000000000000000   17.1295089999999988    0.0000000000000000
     0.0000000000000000    0.0000000000000000   20.0000000000000000
    27     3     1
Selective dynamics
Direct
 -0.0050590029613644  0.1052681090378590  0.2963940371461690   T   T   T
  0.2432579890669381  0.1479727329771359  0.2972042144379168   T   T   T
  0.2404527918327063  0.2320180188315688  0.2993741139799520   T   T   T
 -0.0121003947400387  0.2740137678767101  0.2997825005768794   T   T   T
  0.0118583179093059  0.6016871641908768  0.2948714520393042   T   T   T
  0.2590328666329916  0.7264685872209401  0.2975965444973356   T   T   T
  0.0047228003231864  0.8526060947433575  0.2966619267577913   T   T   T
  0.2523454256776393  0.8951221311605040  0.2969253984735742   T   T   T
  0.2489189115335851  0.9791744738690346  0.2966902234794687   T   T   T
  0.0083959521365596  0.7681919254667259  0.2965628067779025   T   T   T
  0.4943998801571566  0.1054228644413620  0.2965748653588081   T   T   T
  0.7439641711225808  0.1472942263899847  0.2964281417997881   T   T   T
  0.7397525117677892  0.2312867629822826  0.2978008302688200   T   T   T
  0.4977557076265825  0.0212648308640325  0.2965418973523350   T   T   T
  0.7452706789998442  0.3951821290882645  0.3022466483587681   T   T   T
  0.7593038168342066  0.4815836518026539  0.3018779825890516   T   T   T
  0.4899623152560988  0.2741643455476518  0.3005756277167345   T   T   T
  0.5136110755581283  0.6006945538427193  0.3030604773819998   T   T   T
  0.7565544481983596  0.7273780548279175  0.2963630500301667   T   T   T
  0.5022139670027826  0.8529963493257656  0.2971562707847545   T   T   T
  0.7524508605200457  0.8946577354974354  0.2967422214803289   T   T   T
  0.7490404983558140  0.9789270264416383  0.2965414041090150   T   T   T
  0.5053820639272545  0.7686508751667507  0.2974312320272350   T   T   T
  0.7611674765384308  0.6442917305726041  0.2966888296862073   T   T   T
 -0.0018824626280129  0.0212471397074226  0.2964069042283852   T   T   T
  0.0032277181555520  0.5202132506292275  0.2907566170647615   T   T   T
  0.4978998513491404  0.3572981757119265  0.3057874238061303   T   T   T
  0.5174014725519536  0.5218697316313674  0.3142814840175222   T   T   T
 -0.0160548685732062  0.3542348621638584  0.3028720278420824   T   T   T
  0.2642284103468928  0.6425157806317908  0.2989465864095706   T   T   T
  0.2325317495210986  0.4376449173586290  0.3279162595211924   T   T   T
 
  0.00000000E+00  0.00000000E+00  0.00000000E+00
  0.00000000E+00  0.00000000E+00  0.00000000E+00
  0.00000000E+00  0.00000000E+00  0.00000000E+00
  0.00000000E+00  0.00000000E+00  0.00000000E+00
  0.00000000E+00  0.00000000E+00  0.00000000E+00
  0.00000000E+00  0.00000000E+00  0.00000000E+00
  0.00000000E+00  0.00000000E+00  0.00000000E+00
  0.00000000E+00  0.00000000E+00  0.00000000E+00
  0.00000000E+00  0.00000000E+00  0.00000000E+00
  0.00000000E+00  0.00000000E+00  0.00000000E+00
  0.00000000E+00  0.00000000E+00  0.00000000E+00
  0.00000000E+00  0.00000000E+00  0.00000000E+00
  0.00000000E+00  0.00000000E+00  0.00000000E+00
  0.00000000E+00  0.00000000E+00  0.00000000E+00
  0.00000000E+00  0.00000000E+00  0.00000000E+00
  0.00000000E+00  0.00000000E+00  0.00000000E+00
  0.00000000E+00  0.00000000E+00  0.00000000E+00
  0.00000000E+00  0.00000000E+00  0.00000000E+00
  0.00000000E+00  0.00000000E+00  0.00000000E+00
  0.00000000E+00  0.00000000E+00  0.00000000E+00
  0.00000000E+00  0.00000000E+00  0.00000000E+00
  0.00000000E+00  0.00000000E+00  0.00000000E+00
  0.00000000E+00  0.00000000E+00  0.00000000E+00
  0.00000000E+00  0.00000000E+00  0.00000000E+00
  0.00000000E+00  0.00000000E+00  0.00000000E+00
  0.00000000E+00  0.00000000E+00  0.00000000E+00
  0.00000000E+00  0.00000000E+00  0.00000000E+00
  0.00000000E+00  0.00000000E+00  0.00000000E+00
  0.00000000E+00  0.00000000E+00  0.00000000E+00
  0.00000000E+00  0.00000000E+00  0.00000000E+00
  0.00000000E+00  0.00000000E+00  0.00000000E+00
