Title                                   
   1.00000000000000     
     9.8694509999999998    0.0000000000000000    0.0000000000000000
     0.0000000000000000    8.5490480000000009    0.0000000000000000
     0.0000000000000000    0.0000000000000000   20.0000000000000000
    28     3     1
Selective dynamics
Direct
  0.0559701056833964  0.0895730487654426  0.0833495230051349   T   T   T
  0.9315239035276844  0.1733453213670449  0.0844620736687369   T   T   T
  0.0569547527455265  0.9223481134070618  0.0836327411556557   T   T   T
  0.9310067987596536  0.3406625564513667  0.0873427477888708   T   T   T
  0.0561115606989676  0.5911848268575549  0.0867907457643652   T   T   T
  0.0558221460352279  0.4244304937778257  0.0868031745461626   T   T   T
  0.9324973898054992  0.8382670643268343  0.0861081847585509   T   T   T
  0.3061057877611114  0.0887115055288530  0.0877849089794628   T   T   T
  0.1819945442842228  0.1726460134424783  0.0858807456219823   T   T   T
  0.1816728713532805  0.3398533557640094  0.0889230997189196   T   T   T
  0.3032042093998575  0.5879996012949159  0.1012175268166545   T   T   T
  0.1806045899775396  0.6746628403022340  0.0897668795436552   T   T   T
  0.3054588723441510  0.4213074124268216  0.0988775481195633   T   T   T
  0.1825925443323992  0.8405977451736969  0.0867095052247023   T   T   T
  0.5560366155049992  0.0880568033487645  0.0929719568533497   T   T   T
  0.5549758339006622  0.9234455810769527  0.0993168779917706   T   T   T
  0.4305260047338083  0.3330936834869076  0.1034549681986046   T   T   T
  0.4277143892966254  0.8407553526891504  0.1029403641229350   T   T   T
  0.8069092503566597  0.0885848615733763  0.0861791333454402   T   T   T
  0.6805987640625181  0.1712487518359631  0.0908804384778780   T   T   T
  0.8071795835821310  0.9224682378326353  0.0887067968212274   T   T   T
  0.6829633063806488  0.3373274632238381  0.0999810922674042   T   T   T
  0.8096763005468302  0.5922377496580489  0.1005034896112503   T   T   T
  0.8072721864689831  0.4232122585868224  0.0962149844005167   T   T   T
  0.6823261060736610  0.8422491863484005  0.1004397408276149   T   T   T
  0.4176905020624492  0.6819636556148473  0.1165262055355087   T   T   T
  0.5554959957663186  0.4038979393500669  0.1158610377401985   T   T   T
  0.6947414872120327  0.6809675140817831  0.1154238828996377   T   T   T
  0.3055984625894300  0.9250078508053453  0.0889986823615565   T   T   T
  0.4291252015047780  0.1681451137708613  0.0923282354021100   T   T   T
  0.9326410603353981  0.6736928005316709  0.0878748754255644   T   T   T
  0.5566478729135541  0.5883012972984268  0.1694228330050314   T   T   T
 
  0.00000000E+00  0.00000000E+00  0.00000000E+00
  0.00000000E+00  0.00000000E+00  0.00000000E+00
  0.00000000E+00  0.00000000E+00  0.00000000E+00
  0.00000000E+00  0.00000000E+00  0.00000000E+00
  0.00000000E+00  0.00000000E+00  0.00000000E+00
  0.00000000E+00  0.00000000E+00  0.00000000E+00
  0.00000000E+00  0.00000000E+00  0.00000000E+00
  0.00000000E+00  0.00000000E+00  0.00000000E+00
  0.00000000E+00  0.00000000E+00  0.00000000E+00
  0.00000000E+00  0.00000000E+00  0.00000000E+00
  0.00000000E+00  0.00000000E+00  0.00000000E+00
  0.00000000E+00  0.00000000E+00  0.00000000E+00
  0.00000000E+00  0.00000000E+00  0.00000000E+00
  0.00000000E+00  0.00000000E+00  0.00000000E+00
  0.00000000E+00  0.00000000E+00  0.00000000E+00
  0.00000000E+00  0.00000000E+00  0.00000000E+00
  0.00000000E+00  0.00000000E+00  0.00000000E+00
  0.00000000E+00  0.00000000E+00  0.00000000E+00
  0.00000000E+00  0.00000000E+00  0.00000000E+00
  0.00000000E+00  0.00000000E+00  0.00000000E+00
  0.00000000E+00  0.00000000E+00  0.00000000E+00
  0.00000000E+00  0.00000000E+00  0.00000000E+00
  0.00000000E+00  0.00000000E+00  0.00000000E+00
  0.00000000E+00  0.00000000E+00  0.00000000E+00
  0.00000000E+00  0.00000000E+00  0.00000000E+00
  0.00000000E+00  0.00000000E+00  0.00000000E+00
  0.00000000E+00  0.00000000E+00  0.00000000E+00
  0.00000000E+00  0.00000000E+00  0.00000000E+00
  0.00000000E+00  0.00000000E+00  0.00000000E+00
  0.00000000E+00  0.00000000E+00  0.00000000E+00
  0.00000000E+00  0.00000000E+00  0.00000000E+00
  0.00000000E+00  0.00000000E+00  0.00000000E+00
