Title                                   
   1.00000000000000     
     8.5490480000000009    0.0000000000000000    0.0000000000000000
     0.0000000000000000    8.5490480000000009    0.0000000000000000
     0.0000000000000000    0.0000000000000000   20.0000000000000000
    22     2     1
Selective dynamics
Direct
  0.9090117224219965  0.2053817217949439  0.0982504012577457   T   T   T
  0.9035528436350079  0.5018053613839436  0.0966343788528853   T   T   T
  0.9090108948798472  0.7982048163794225  0.0982634524235283   T   T   T
  0.1962725057307813  0.0837616610772225  0.0983640002689214   T   T   T
  0.0754083734761485  0.2067917603362853  0.0981781973098793   T   T   T
  0.1962697321607275  0.9198203387078510  0.0983685400080255   T   T   T
  0.1542537228336519  0.6488222756989943  0.0963444755095398   T   T   T
  0.0735540441859511  0.5018258492932031  0.0963255403274502   T   T   T
  0.1542579045670053  0.3548009057352117  0.0963271582861303   T   T   T
  0.0753971904312559  0.7967993231308187  0.0981869519372600   T   T   T
  0.4953110462842237  0.0861242348499646  0.0968015268117584   T   T   T
  0.3478717907664306  0.1665873741813584  0.0964265412813553   T   T   T
  0.4953220242060185  0.9174486451268306  0.0968043748500539   T   T   T
  0.3478635085919460  0.8369936143735626  0.0964465670199464   T   T   T
  0.7897535980782195  0.0854398292078740  0.0985135488818553   T   T   T
  0.6424294399155664  0.1654165429361255  0.0971294555327891   T   T   T
  0.7897569359052573  0.9181435986825036  0.0985134630083330   T   T   T
  0.8268596944929596  0.6506631604396284  0.0967729936637492   T   T   T
  0.8268633497807033  0.3529341247139327  0.0967415903696896   T   T   T
  0.6424360199304534  0.8381633988862429  0.0971327479988576   T   T   T
  0.3238085506739577  0.3308574227268535  0.0931918719891456   T   T   T
  0.3238078286159933  0.6727145195751606  0.0932244860518582   T   T   T
  0.6647331910276050  0.3284972436666003  0.0948542422454480   T   T   T
  0.6647330775880284  0.6750524471972577  0.0948899772565946   T   T   T
  0.4968730098202556  0.5017398298982216  0.0610185168571776   T   T   T
 
  0.00000000E+00  0.00000000E+00  0.00000000E+00
  0.00000000E+00  0.00000000E+00  0.00000000E+00
  0.00000000E+00  0.00000000E+00  0.00000000E+00
  0.00000000E+00  0.00000000E+00  0.00000000E+00
  0.00000000E+00  0.00000000E+00  0.00000000E+00
  0.00000000E+00  0.00000000E+00  0.00000000E+00
  0.00000000E+00  0.00000000E+00  0.00000000E+00
  0.00000000E+00  0.00000000E+00  0.00000000E+00
  0.00000000E+00  0.00000000E+00  0.00000000E+00
  0.00000000E+00  0.00000000E+00  0.00000000E+00
  0.00000000E+00  0.00000000E+00  0.00000000E+00
  0.00000000E+00  0.00000000E+00  0.00000000E+00
  0.00000000E+00  0.00000000E+00  0.00000000E+00
  0.00000000E+00  0.00000000E+00  0.00000000E+00
  0.00000000E+00  0.00000000E+00  0.00000000E+00
  0.00000000E+00  0.00000000E+00  0.00000000E+00
  0.00000000E+00  0.00000000E+00  0.00000000E+00
  0.00000000E+00  0.00000000E+00  0.00000000E+00
  0.00000000E+00  0.00000000E+00  0.00000000E+00
  0.00000000E+00  0.00000000E+00  0.00000000E+00
  0.00000000E+00  0.00000000E+00  0.00000000E+00
  0.00000000E+00  0.00000000E+00  0.00000000E+00
  0.00000000E+00  0.00000000E+00  0.00000000E+00
  0.00000000E+00  0.00000000E+00  0.00000000E+00
  0.00000000E+00  0.00000000E+00  0.00000000E+00
