Title                                   
   1.00000000000000     
     4.9440799999999996    0.0000000000000000    0.0000000000000000
     0.0000000000000000   17.1295089999999988    0.0000000000000000
     0.0000000000000000    0.0000000000000000   20.0000000000000000
    29     2     1
Selective dynamics
Direct
  0.0033084128159847  0.1035520698138873  0.2937950900243277   T   T   T
  0.2540869074534931  0.1449477200209640  0.2969638371057848   T   T   T
  0.2550776547814445  0.2278323856573283  0.3041564374211328   T   T   T
  0.0084743755572607  0.3513900414258702  0.3138981041579209   T   T   T
  0.0047077064543330  0.2689315559430423  0.3064365772704540   T   T   T
 -0.0053180419360422  0.6017320124542974  0.2941178643078121   T   T   T
  0.2500586261424279  0.7279575510407045  0.2938809464682553   T   T   T
  0.0022104791238619  0.8535486516566952  0.2896561029642291   T   T   T
  0.2520408744588702  0.8952626701651285  0.2893080178053593   T   T   T
  0.2527159601810121  0.9786777494399566  0.2894714088381066   T   T   T
  0.0021518405810916  0.7702505802534002  0.2916172284589635   T   T   T
  0.5037170879549482  0.1034190081382484  0.2939861367731724   T   T   T
  0.7533877279404336  0.1452223760911907  0.2960921435441913   T   T   T
  0.7539318540034466  0.2282262532899418  0.3021467226459736   T   T   T
  0.5030394502753334  0.0201929501912779  0.2903909508936265   T   T   T
  0.5022302575732249  0.3529046591972613  0.3161031368572554   T   T   T
  0.7579526295638022  0.3958339409560271  0.3127013834754823   T   T   T
  0.7552419161042604  0.4807721867819469  0.3041875574147465   T   T   T
  0.5047512977519250  0.2698920894780663  0.3075101489632599   T   T   T
  0.5040261795310657  0.6049285108107366  0.3035178772173996   T   T   T
  0.7513214453759980  0.7290641185619469  0.2938183460306287   T   T   T
  0.5010945037021062  0.8534233418487497  0.2903298350383132   T   T   T
  0.7517516518870911  0.8950566915355425  0.2893068047535139   T   T   T
  0.7526124594647371  0.9784006735690589  0.2893690446854161   T   T   T
  0.4997338386843528  0.7699670856014373  0.2930940946424302   T   T   T
  0.7498496221869363  0.6466380918799496  0.2973962186236098   T   T   T
  0.2503187278938703  0.6433682944714373  0.2963809630079358   T   T   T
  0.0027398504510131  0.0202579710708845  0.2902218232667057   T   T   T
  0.5268909021005810  0.5240182983684571  0.3228098256161745   T   T   T
  0.9841981325783660  0.5201074858267331  0.2747469729905085   T   T   T
  0.2538436861893849  0.3895500480030157  0.3254175168858540   T   T   T
  0.1546749831733877  0.5032239364568096  0.3697358818514074   T   T   T
 
  0.00000000E+00  0.00000000E+00  0.00000000E+00
  0.00000000E+00  0.00000000E+00  0.00000000E+00
  0.00000000E+00  0.00000000E+00  0.00000000E+00
  0.00000000E+00  0.00000000E+00  0.00000000E+00
  0.00000000E+00  0.00000000E+00  0.00000000E+00
  0.00000000E+00  0.00000000E+00  0.00000000E+00
  0.00000000E+00  0.00000000E+00  0.00000000E+00
  0.00000000E+00  0.00000000E+00  0.00000000E+00
  0.00000000E+00  0.00000000E+00  0.00000000E+00
  0.00000000E+00  0.00000000E+00  0.00000000E+00
  0.00000000E+00  0.00000000E+00  0.00000000E+00
  0.00000000E+00  0.00000000E+00  0.00000000E+00
  0.00000000E+00  0.00000000E+00  0.00000000E+00
  0.00000000E+00  0.00000000E+00  0.00000000E+00
  0.00000000E+00  0.00000000E+00  0.00000000E+00
  0.00000000E+00  0.00000000E+00  0.00000000E+00
  0.00000000E+00  0.00000000E+00  0.00000000E+00
  0.00000000E+00  0.00000000E+00  0.00000000E+00
  0.00000000E+00  0.00000000E+00  0.00000000E+00
  0.00000000E+00  0.00000000E+00  0.00000000E+00
  0.00000000E+00  0.00000000E+00  0.00000000E+00
  0.00000000E+00  0.00000000E+00  0.00000000E+00
  0.00000000E+00  0.00000000E+00  0.00000000E+00
  0.00000000E+00  0.00000000E+00  0.00000000E+00
  0.00000000E+00  0.00000000E+00  0.00000000E+00
  0.00000000E+00  0.00000000E+00  0.00000000E+00
  0.00000000E+00  0.00000000E+00  0.00000000E+00
  0.00000000E+00  0.00000000E+00  0.00000000E+00
  0.00000000E+00  0.00000000E+00  0.00000000E+00
  0.00000000E+00  0.00000000E+00  0.00000000E+00
  0.00000000E+00  0.00000000E+00  0.00000000E+00
  0.00000000E+00  0.00000000E+00  0.00000000E+00
