Title                                   
   1.00000000000000     
     4.9440799999999996    0.0000000000000000    0.0000000000000000
     0.0000000000000000    8.5647549999999999    0.0000000000000000
     0.0000000000000000    0.0000000000000000   20.0000000000000000
    13     1     1
Selective dynamics
Direct
  0.2521178300791917  0.2065923667825737  0.0972705251400347   T   T   T
 -0.0002768628267400  0.2914005830515840  0.0957939321398170   T   T   T
  0.2583480191954698  0.0394783774913667  0.0969641212223091   T   T   T
  0.0100616626159615  0.9550570560860701  0.0929561605026373   T   T   T
  0.7493649191169173  0.2089855111792516  0.0946398916684617   T   T   T
  0.4973403146026476  0.2955131101051582  0.0985522301367695   T   T   T
  0.7567304356646506  0.0394467171731571  0.0938611014457737   T   T   T
  0.7511676589745109  0.7132672012700120  0.0987606313355995   T   T   T
  0.7433821542629993  0.5415028981109435  0.0988855730590217   T   T   T
  0.5104442010701653  0.9533375813589973  0.0996795385276805   T   T   T
  0.4959443014989578  0.4637806969604181  0.1029509534213505   T   T   T
 -0.0102897331610412  0.4572596988984303  0.1013697290533452   T   T   T
 -0.0000456521031238  0.7884202495055963  0.0923169152063611   T   T   T
  0.5159550801585736  0.7932641803730661  0.1091828900893497   T   T   T
  0.2197556708508594  0.6243747716533776  0.1347958070514922   T   T   T
 
  0.00000000E+00  0.00000000E+00  0.00000000E+00
  0.00000000E+00  0.00000000E+00  0.00000000E+00
  0.00000000E+00  0.00000000E+00  0.00000000E+00
  0.00000000E+00  0.00000000E+00  0.00000000E+00
  0.00000000E+00  0.00000000E+00  0.00000000E+00
  0.00000000E+00  0.00000000E+00  0.00000000E+00
  0.00000000E+00  0.00000000E+00  0.00000000E+00
  0.00000000E+00  0.00000000E+00  0.00000000E+00
  0.00000000E+00  0.00000000E+00  0.00000000E+00
  0.00000000E+00  0.00000000E+00  0.00000000E+00
  0.00000000E+00  0.00000000E+00  0.00000000E+00
  0.00000000E+00  0.00000000E+00  0.00000000E+00
  0.00000000E+00  0.00000000E+00  0.00000000E+00
  0.00000000E+00  0.00000000E+00  0.00000000E+00
  0.00000000E+00  0.00000000E+00  0.00000000E+00
