Title                                   
   1.00000000000000     
     9.8694509999999998    0.0000000000000000    0.0000000000000000
     0.0000000000000000    8.5490480000000009    0.0000000000000000
     0.0000000000000000    0.0000000000000000   20.0000000000000000
    25     5     1
Selective dynamics
Direct
  0.0551019328362629  0.0889820231319683  0.0847898067993739   T   T   T
  0.9304186409788182  0.1712170863915226  0.0853178177118496   T   T   T
  0.0569624965229405  0.9215226266321840  0.0859129327394043   T   T   T
  0.9342171275127574  0.3384897076037086  0.0847099120126165   T   T   T
  0.0574104429104313  0.5906412482431903  0.0834945816667396   T   T   T
  0.0575929443052219  0.4239422347380211  0.0822254445819686   T   T   T
  0.9310966933809349  0.8384366802082974  0.0867924040734587   T   T   T
  0.3064569008994511  0.0891856567849095  0.0919726211734015   T   T   T
  0.1809668056634543  0.1714629832978831  0.0865275684657380   T   T   T
  0.1814551298165619  0.3399413430079856  0.0851259679921685   T   T   T
  0.3035218375776690  0.5906001127488311  0.0949753994717206   T   T   T
  0.1808457394526975  0.6736202967368138  0.0869836320297309   T   T   T
  0.3045016831313567  0.4214859760505509  0.0935851261193662   T   T   T
  0.1813777495469375  0.8409776891446472  0.0886173164640723   T   T   T
  0.4288180682221864  0.1762655250424885  0.0992978994625554   T   T   T
  0.5525994283107551  0.9213546602217764  0.1021706224354321   T   T   T
  0.4274529313009593  0.8369913329623596  0.1019064235057170   T   T   T
  0.8032966062083208  0.0892782780777396  0.0901099766682190   T   T   T
  0.6809294156785101  0.1774970482768903  0.0986449410804727   T   T   T
  0.8044276048595380  0.9195754379397496  0.0906854969879159   T   T   T
  0.6891326856551470  0.3443010355406199  0.1076747256694333   T   T   T
  0.8143259368231779  0.5911278368848273  0.0956357718752900   T   T   T
  0.6896025850455849  0.6681249249166226  0.1079675902273794   T   T   T
  0.8147220148201302  0.4218929449805071  0.0942849927704298   T   T   T
  0.6796199038061288  0.8358768204738583  0.0997778363278757   T   T   T
  0.9342384751732382  0.6730084299557941  0.0865755103157553   T   T   T
  0.5537317604765418  0.0938968657704052  0.1014005860694403   T   T   T
  0.4229935775646740  0.3373737702835942  0.1053182509958824   T   T   T
  0.4197200165647634  0.6759522836936080  0.1101365668105758   T   T   T
  0.3052550713453477  0.9225434280023547  0.0929191872654971   T   T   T
  0.5603427936095166  0.5053087122562961  0.1354280902305673   T   T   T
 
  0.00000000E+00  0.00000000E+00  0.00000000E+00
  0.00000000E+00  0.00000000E+00  0.00000000E+00
  0.00000000E+00  0.00000000E+00  0.00000000E+00
  0.00000000E+00  0.00000000E+00  0.00000000E+00
  0.00000000E+00  0.00000000E+00  0.00000000E+00
  0.00000000E+00  0.00000000E+00  0.00000000E+00
  0.00000000E+00  0.00000000E+00  0.00000000E+00
  0.00000000E+00  0.00000000E+00  0.00000000E+00
  0.00000000E+00  0.00000000E+00  0.00000000E+00
  0.00000000E+00  0.00000000E+00  0.00000000E+00
  0.00000000E+00  0.00000000E+00  0.00000000E+00
  0.00000000E+00  0.00000000E+00  0.00000000E+00
  0.00000000E+00  0.00000000E+00  0.00000000E+00
  0.00000000E+00  0.00000000E+00  0.00000000E+00
  0.00000000E+00  0.00000000E+00  0.00000000E+00
  0.00000000E+00  0.00000000E+00  0.00000000E+00
  0.00000000E+00  0.00000000E+00  0.00000000E+00
  0.00000000E+00  0.00000000E+00  0.00000000E+00
  0.00000000E+00  0.00000000E+00  0.00000000E+00
  0.00000000E+00  0.00000000E+00  0.00000000E+00
  0.00000000E+00  0.00000000E+00  0.00000000E+00
  0.00000000E+00  0.00000000E+00  0.00000000E+00
  0.00000000E+00  0.00000000E+00  0.00000000E+00
  0.00000000E+00  0.00000000E+00  0.00000000E+00
  0.00000000E+00  0.00000000E+00  0.00000000E+00
  0.00000000E+00  0.00000000E+00  0.00000000E+00
  0.00000000E+00  0.00000000E+00  0.00000000E+00
  0.00000000E+00  0.00000000E+00  0.00000000E+00
  0.00000000E+00  0.00000000E+00  0.00000000E+00
  0.00000000E+00  0.00000000E+00  0.00000000E+00
  0.00000000E+00  0.00000000E+00  0.00000000E+00
