Title                                   
   1.00000000000000     
     4.9440799999999996    0.0000000000000000    0.0000000000000000
     0.0000000000000000    8.5647549999999999    0.0000000000000000
     0.0000000000000000    0.0000000000000000   20.0000000000000000
    12     3     1
Selective dynamics
Direct
 -0.0082631967411117  0.2900340802344835  0.0917666343068717   T   T   T
  0.2498378250435287  0.0442256861547295  0.0880881486331744   T   T   T
  0.0086511331037488  0.7970323867285458  0.1005702152123989   T   T   T
  0.0017569418065302  0.9612576049548460  0.0874174302374874   T   T   T
  0.7457812543183669  0.2061748448762550  0.0839480190484249   T   T   T
  0.4979395936325595  0.2904907602378587  0.0941431846117877   T   T   T
  0.7506111601034201  0.0416002133600261  0.0820719214004156   T   T   T
  0.7573409928875816  0.7072491323042046  0.1045413770459258   T   T   T
  0.5021897884417472  0.7972030280797456  0.1013190689104772   T   T   T
  0.7525251924765555  0.5352583276320396  0.1084092966365386   T   T   T
  0.5011943399532605  0.9614003710277356  0.0884635674025750   T   T   T
  0.5108625107197416  0.4464140012135780  0.1152517700773337   T   T   T
 -0.0119651932227939  0.4443439692829312  0.1051782932699373   T   T   T
  0.2562845514286305  0.7296202053424586  0.1144954131022948   T   T   T
  0.2458287894419504  0.2094123636857566  0.0896905921869694   T   T   T
  0.2394243166062839  0.5382830248848053  0.1571570679173969   T   T   T
 
  0.00000000E+00  0.00000000E+00  0.00000000E+00
  0.00000000E+00  0.00000000E+00  0.00000000E+00
  0.00000000E+00  0.00000000E+00  0.00000000E+00
  0.00000000E+00  0.00000000E+00  0.00000000E+00
  0.00000000E+00  0.00000000E+00  0.00000000E+00
  0.00000000E+00  0.00000000E+00  0.00000000E+00
  0.00000000E+00  0.00000000E+00  0.00000000E+00
  0.00000000E+00  0.00000000E+00  0.00000000E+00
  0.00000000E+00  0.00000000E+00  0.00000000E+00
  0.00000000E+00  0.00000000E+00  0.00000000E+00
  0.00000000E+00  0.00000000E+00  0.00000000E+00
  0.00000000E+00  0.00000000E+00  0.00000000E+00
  0.00000000E+00  0.00000000E+00  0.00000000E+00
  0.00000000E+00  0.00000000E+00  0.00000000E+00
  0.00000000E+00  0.00000000E+00  0.00000000E+00
  0.00000000E+00  0.00000000E+00  0.00000000E+00
