Title                                   
   1.00000000000000     
     4.9440799999999996    0.0000000000000000    0.0000000000000000
     0.0000000000000000    8.5647549999999999    0.0000000000000000
     0.0000000000000000    0.0000000000000000   20.0000000000000000
    14     1
Selective dynamics
Direct
  0.2500000000000000  0.2073622268374013  0.0954202999452045   T   T   T
  0.0015346532283654  0.2940069576957705  0.0958847811633449   T   T   T
  0.2500000000000000  0.0421958167497739  0.0954425349670005   T   T   T
  0.0015364574557299  0.9555613289846023  0.0959420748184420   T   T   T
  0.7500000000000000  0.2093670515014757  0.0937027871305861   T   T   T
  0.4984653467716346  0.2940069576957705  0.0958847811633449   T   T   T
  0.7500000000000000  0.0401899655012096  0.0937427077536783   T   T   T
  0.7500000000000000  0.7098024433711395  0.1001976031285045   T   T   T
  0.7500000000000000  0.5397797733870082  0.1001469314644988   T   T   T
  0.4984635425442703  0.9555613289846023  0.0959420748184420   T   T   T
  0.5013475291423939  0.4599554108064808  0.1011609613428556   T   T   T
 -0.0013475291423937  0.4599554108064808  0.1011609613428556   T   T   T
 -0.0013642931827117  0.7896273375587572  0.1012467376745014   T   T   T
  0.5013642931827117  0.7896273375587572  0.1012467376745014   T   T   T
  0.2500000000000000  0.6246816525607722  0.1408580256122428   T   T   T
 
  0.00000000E+00  0.00000000E+00  0.00000000E+00
  0.00000000E+00  0.00000000E+00  0.00000000E+00
  0.00000000E+00  0.00000000E+00  0.00000000E+00
  0.00000000E+00  0.00000000E+00  0.00000000E+00
  0.00000000E+00  0.00000000E+00  0.00000000E+00
  0.00000000E+00  0.00000000E+00  0.00000000E+00
  0.00000000E+00  0.00000000E+00  0.00000000E+00
  0.00000000E+00  0.00000000E+00  0.00000000E+00
  0.00000000E+00  0.00000000E+00  0.00000000E+00
  0.00000000E+00  0.00000000E+00  0.00000000E+00
  0.00000000E+00  0.00000000E+00  0.00000000E+00
  0.00000000E+00  0.00000000E+00  0.00000000E+00
  0.00000000E+00  0.00000000E+00  0.00000000E+00
  0.00000000E+00  0.00000000E+00  0.00000000E+00
  0.00000000E+00  0.00000000E+00  0.00000000E+00
