Title                                   
   1.00000000000000     
     9.8694509999999998    0.0000000000000000    0.0000000000000000
     0.0000000000000000    8.5490480000000009    0.0000000000000000
     0.0000000000000000    0.0000000000000000   20.0000000000000000
    26     5     1
Selective dynamics
Direct
  0.0558078432127055  0.0906799516797214  0.0858642918161247   T   T   T
  0.9310678625122011  0.1747805137141720  0.0854313416207339   T   T   T
  0.0574574094240464  0.9229504839949969  0.0867561583668615   T   T   T
  0.9290994209623885  0.3421939561511282  0.0870934355817896   T   T   T
  0.0565917694801002  0.5914650399671334  0.0889788017529787   T   T   T
  0.0554588889894959  0.4244001244542965  0.0886804527053949   T   T   T
  0.9336584215703720  0.8396091587080352  0.0875059062923014   T   T   T
  0.3060203945699564  0.0877787864037800  0.0905726043995859   T   T   T
  0.1821707950325068  0.1724347506155315  0.0881135884645423   T   T   T
  0.1818509845174041  0.3399832909517172  0.0907431300702097   T   T   T
  0.3042052283736461  0.5882703725951428  0.1049196093796106   T   T   T
  0.1815785919740257  0.6743566860392745  0.0932234508476813   T   T   T
  0.3074796708628282  0.4210698356438745  0.0989277726281916   T   T   T
  0.1832532508785724  0.8410366016462134  0.0907375455633161   T   T   T
  0.5570101612180014  0.0854961767005098  0.0940285430860950   T   T   T
  0.5561610547121316  0.9205994337248304  0.1006564226730953   T   T   T
  0.4326091076852153  0.3325112203866998  0.0983526700746805   T   T   T
  0.4277863622258166  0.8398437325238886  0.1073536083164775   T   T   T
  0.8065932926906674  0.0891172030975027  0.0859953176327837   T   T   T
  0.6799168840874377  0.1708735949128218  0.0891576383468234   T   T   T
  0.8078188555404558  0.9231775495377517  0.0883824585021850   T   T   T
  0.6783152699868025  0.3375957112465460  0.0926049388658738   T   T   T
  0.8073262003749856  0.5959912659483385  0.0928670935260652   T   T   T
  0.8024262236216342  0.4262486325818874  0.0902467453763223   T   T   T
  0.6842373910177791  0.8402740093852922  0.0972701457960108   T   T   T
  0.4174219631771483  0.6817035979603858  0.1254663569287768   T   T   T
  0.5527694793057751  0.4071786471738824  0.1023278735138747   T   T   T
  0.6931295682910030  0.6799761233503674  0.1034066041868456   T   T   T
  0.3061477039149428  0.9238805632009882  0.0930789706549012   T   T   T
  0.4297612254590914  0.1667728507629876  0.0941473693990016   T   T   T
  0.9331443280668251  0.6739457551508671  0.0887034850701051   T   T   T
  0.5613633962640437  0.5840503797894366  0.1740806685607763   T   T   T
 
  0.00000000E+00  0.00000000E+00  0.00000000E+00
  0.00000000E+00  0.00000000E+00  0.00000000E+00
  0.00000000E+00  0.00000000E+00  0.00000000E+00
  0.00000000E+00  0.00000000E+00  0.00000000E+00
  0.00000000E+00  0.00000000E+00  0.00000000E+00
  0.00000000E+00  0.00000000E+00  0.00000000E+00
  0.00000000E+00  0.00000000E+00  0.00000000E+00
  0.00000000E+00  0.00000000E+00  0.00000000E+00
  0.00000000E+00  0.00000000E+00  0.00000000E+00
  0.00000000E+00  0.00000000E+00  0.00000000E+00
  0.00000000E+00  0.00000000E+00  0.00000000E+00
  0.00000000E+00  0.00000000E+00  0.00000000E+00
  0.00000000E+00  0.00000000E+00  0.00000000E+00
  0.00000000E+00  0.00000000E+00  0.00000000E+00
  0.00000000E+00  0.00000000E+00  0.00000000E+00
  0.00000000E+00  0.00000000E+00  0.00000000E+00
  0.00000000E+00  0.00000000E+00  0.00000000E+00
  0.00000000E+00  0.00000000E+00  0.00000000E+00
  0.00000000E+00  0.00000000E+00  0.00000000E+00
  0.00000000E+00  0.00000000E+00  0.00000000E+00
  0.00000000E+00  0.00000000E+00  0.00000000E+00
  0.00000000E+00  0.00000000E+00  0.00000000E+00
  0.00000000E+00  0.00000000E+00  0.00000000E+00
  0.00000000E+00  0.00000000E+00  0.00000000E+00
  0.00000000E+00  0.00000000E+00  0.00000000E+00
  0.00000000E+00  0.00000000E+00  0.00000000E+00
  0.00000000E+00  0.00000000E+00  0.00000000E+00
  0.00000000E+00  0.00000000E+00  0.00000000E+00
  0.00000000E+00  0.00000000E+00  0.00000000E+00
  0.00000000E+00  0.00000000E+00  0.00000000E+00
  0.00000000E+00  0.00000000E+00  0.00000000E+00
  0.00000000E+00  0.00000000E+00  0.00000000E+00
