Title                                   
   1.00000000000000     
     4.9440799999999996    0.0000000000000000    0.0000000000000000
     0.0000000000000000   17.1295089999999988    0.0000000000000000
     0.0000000000000000    0.0000000000000000   20.0000000000000000
    28     2     1
Selective dynamics
Direct
 -0.0092380572359178  0.1056065392254024  0.2959058429063084   T   T   T
  0.2384381082224062  0.1481847856785284  0.2966771356453412   T   T   T
  0.2334035517908581  0.2320922191819235  0.2995556889290180   T   T   T
 -0.0192367005120535  0.2739494707022122  0.3038703696373122   T   T   T
  0.0193425501967477  0.6008059754321218  0.2970911104781134   T   T   T
  0.2621603079990117  0.7267262053832988  0.2968979989572707   T   T   T
  0.0048669428422032  0.8531968764550503  0.2946784593070237   T   T   T
  0.2529287485471038  0.8954854729507951  0.2948699486196937   T   T   T
  0.2476107130749621  0.9794360854931687  0.2948144578320213   T   T   T
  0.0102899837453426  0.7690958270637912  0.2951451051384202   T   T   T
  0.4902751284441935  0.1057909994251108  0.2949731033009770   T   T   T
  0.7391911223692382  0.1476164720425492  0.2955249892254304   T   T   T
  0.7331402896323168  0.2316821126859299  0.2974824769181180   T   T   T
  0.4956993079642208  0.0217078243722346  0.2945731349314263   T   T   T
  0.7416427583177335  0.3940776104512445  0.3053681293040508   T   T   T
  0.7591678263811570  0.4808413439920993  0.3054299759956208   T   T   T
  0.4813603273460046  0.2741425690279715  0.2969681765103315   T   T   T
  0.5199924656639648  0.6009880671110065  0.3041351666793678   T   T   T
  0.7613969371704802  0.7272626839335848  0.2957229430269770   T   T   T
  0.5045097310404630  0.8532912626384218  0.2951160665476749   T   T   T
  0.7530105257113413  0.8953892075634621  0.2945526902072063   T   T   T
  0.7475446243542045  0.9795243012212151  0.2945166752521456   T   T   T
  0.5098678827226550  0.7692917404371769  0.2960948527857838   T   T   T
  0.7675382586492976  0.6432282999390264  0.2976845405145502   T   T   T
  0.2672894189425418  0.6428337642408430  0.2997835963699148   T   T   T
 -0.0039463784143831  0.0216249736611868  0.2949807266412308   T   T   T
  0.0044511348820089  0.5175742687139073  0.2966204280400534   T   T   T
  0.4961601386253561  0.3574116240080137  0.2966712728333056   T   T   T
  0.5269789797093710  0.5216903260246071  0.3150825088744373   T   T   T
 -0.0260827244315891  0.3532390109629335  0.3148372339468802   T   T   T
  0.2502530962487617  0.4375540799811791  0.3294351946439464   T   T   T
 
  0.00000000E+00  0.00000000E+00  0.00000000E+00
  0.00000000E+00  0.00000000E+00  0.00000000E+00
  0.00000000E+00  0.00000000E+00  0.00000000E+00
  0.00000000E+00  0.00000000E+00  0.00000000E+00
  0.00000000E+00  0.00000000E+00  0.00000000E+00
  0.00000000E+00  0.00000000E+00  0.00000000E+00
  0.00000000E+00  0.00000000E+00  0.00000000E+00
  0.00000000E+00  0.00000000E+00  0.00000000E+00
  0.00000000E+00  0.00000000E+00  0.00000000E+00
  0.00000000E+00  0.00000000E+00  0.00000000E+00
  0.00000000E+00  0.00000000E+00  0.00000000E+00
  0.00000000E+00  0.00000000E+00  0.00000000E+00
  0.00000000E+00  0.00000000E+00  0.00000000E+00
  0.00000000E+00  0.00000000E+00  0.00000000E+00
  0.00000000E+00  0.00000000E+00  0.00000000E+00
  0.00000000E+00  0.00000000E+00  0.00000000E+00
  0.00000000E+00  0.00000000E+00  0.00000000E+00
  0.00000000E+00  0.00000000E+00  0.00000000E+00
  0.00000000E+00  0.00000000E+00  0.00000000E+00
  0.00000000E+00  0.00000000E+00  0.00000000E+00
  0.00000000E+00  0.00000000E+00  0.00000000E+00
  0.00000000E+00  0.00000000E+00  0.00000000E+00
  0.00000000E+00  0.00000000E+00  0.00000000E+00
  0.00000000E+00  0.00000000E+00  0.00000000E+00
  0.00000000E+00  0.00000000E+00  0.00000000E+00
  0.00000000E+00  0.00000000E+00  0.00000000E+00
  0.00000000E+00  0.00000000E+00  0.00000000E+00
  0.00000000E+00  0.00000000E+00  0.00000000E+00
  0.00000000E+00  0.00000000E+00  0.00000000E+00
  0.00000000E+00  0.00000000E+00  0.00000000E+00
  0.00000000E+00  0.00000000E+00  0.00000000E+00
