Title                                   
   1.00000000000000     
     4.9440799999999996    0.0000000000000000    0.0000000000000000
     0.0000000000000000    8.5647549999999999    0.0000000000000000
     0.0000000000000000    0.0000000000000000   20.0000000000000000
    12     2     1
Selective dynamics
Direct
  0.2472384688267705  0.2094456082217411  0.0957213545224250   T   T   T
 -0.0055136581584537  0.2943920279903213  0.0965712008734331   T   T   T
  0.2527619447965868  0.0401297193846491  0.0957536008451658   T   T   T
  0.0050534938506401  0.9555100245653770  0.0950723528049585   T   T   T
  0.7470659776639202  0.2091996964590327  0.0929622344851533   T   T   T
  0.4949690996699185  0.2940213428215395  0.0950007815631398   T   T   T
  0.7529654456560489  0.0403572150783585  0.0929854620356585   T   T   T
  0.7559299549080868  0.7104531594852912  0.1000182696092195   T   T   T
  0.7439492691553975  0.5391254693813392  0.0999704738990011   T   T   T
  0.5055022210191318  0.9552013567890111  0.0965937319897357   T   T   T
  0.4974455473053191  0.4601306465154840  0.0981422600866047   T   T   T
  0.0025362232401912  0.7894049307437049  0.0982847396699621   T   T   T
 -0.0112706695699282  0.4570367925995126  0.1039886000921441   T   T   T
  0.5111664739074665  0.7925649478612645  0.1040016961431919   T   T   T
  0.2502002077289039  0.6247080621033753  0.1429132413802104   T   T   T
 
  0.00000000E+00  0.00000000E+00  0.00000000E+00
  0.00000000E+00  0.00000000E+00  0.00000000E+00
  0.00000000E+00  0.00000000E+00  0.00000000E+00
  0.00000000E+00  0.00000000E+00  0.00000000E+00
  0.00000000E+00  0.00000000E+00  0.00000000E+00
  0.00000000E+00  0.00000000E+00  0.00000000E+00
  0.00000000E+00  0.00000000E+00  0.00000000E+00
  0.00000000E+00  0.00000000E+00  0.00000000E+00
  0.00000000E+00  0.00000000E+00  0.00000000E+00
  0.00000000E+00  0.00000000E+00  0.00000000E+00
  0.00000000E+00  0.00000000E+00  0.00000000E+00
  0.00000000E+00  0.00000000E+00  0.00000000E+00
  0.00000000E+00  0.00000000E+00  0.00000000E+00
  0.00000000E+00  0.00000000E+00  0.00000000E+00
  0.00000000E+00  0.00000000E+00  0.00000000E+00
