Title                                   
   1.00000000000000     
     4.9440799999999996    0.0000000000000000    0.0000000000000000
     0.0000000000000000    8.5647549999999999    0.0000000000000000
     0.0000000000000000    0.0000000000000000   20.0000000000000000
    12     2     1
Selective dynamics
Direct
  0.0003498079808899  0.2931073765311589  0.0941632450233955   T   T   T
  0.2525043786187255  0.0407080539634865  0.0942755002460125   T   T   T
  0.0032185318922749  0.9572804575708329  0.0942769197517850   T   T   T
  0.7489499118151133  0.2066856231417084  0.0898198379939791   T   T   T
  0.4975867278142320  0.2918877022553845  0.0935470327287208   T   T   T
  0.7516781855573184  0.0408208066461907  0.0904120359443162   T   T   T
  0.7494185353180801  0.7131905452564301  0.1019487913191692   T   T   T
  0.7444622586673814  0.5390888909133639  0.1020672131690470   T   T   T
  0.5035882270360156  0.9565896191574329  0.0950145520460930   T   T   T
  0.4961362676345150  0.4555715349454646  0.1015456179440995   T   T   T
 -0.0035746578432052  0.4562909313851554  0.1023170796892375   T   T   T
 -0.0034639883112768  0.7920575474819731  0.1010425846765357   T   T   T
  0.5057668447708016  0.7950149133088278  0.1026473485543897   T   T   T
  0.2509316839704955  0.2072002536249592  0.0934589638057971   T   T   T
  0.2524472850786387  0.6261867438176343  0.1514432771074255   T   T   T
 
  0.00000000E+00  0.00000000E+00  0.00000000E+00
  0.00000000E+00  0.00000000E+00  0.00000000E+00
  0.00000000E+00  0.00000000E+00  0.00000000E+00
  0.00000000E+00  0.00000000E+00  0.00000000E+00
  0.00000000E+00  0.00000000E+00  0.00000000E+00
  0.00000000E+00  0.00000000E+00  0.00000000E+00
  0.00000000E+00  0.00000000E+00  0.00000000E+00
  0.00000000E+00  0.00000000E+00  0.00000000E+00
  0.00000000E+00  0.00000000E+00  0.00000000E+00
  0.00000000E+00  0.00000000E+00  0.00000000E+00
  0.00000000E+00  0.00000000E+00  0.00000000E+00
  0.00000000E+00  0.00000000E+00  0.00000000E+00
  0.00000000E+00  0.00000000E+00  0.00000000E+00
  0.00000000E+00  0.00000000E+00  0.00000000E+00
  0.00000000E+00  0.00000000E+00  0.00000000E+00
