Title                                   
   1.00000000000000     
     9.8694509999999998    0.0000000000000000    0.0000000000000000
     0.0000000000000000    8.5490480000000009    0.0000000000000000
     0.0000000000000000    0.0000000000000000   20.0000000000000000
    29     2     1
Selective dynamics
Direct
  0.0564765627946197  0.0902872186175534  0.0843961688241258   T   T   T
  0.9311843236273083  0.1728317529165727  0.0878812759212913   T   T   T
  0.0567934824380133  0.9232278615165014  0.0834601644900115   T   T   T
  0.9307254326256662  0.3399612077953125  0.0923877912097864   T   T   T
  0.0560581152267380  0.5893162377483153  0.0877127455062490   T   T   T
  0.9322029285299611  0.6726374042204640  0.0902154924389359   T   T   T
  0.0571675410052995  0.4228700915571192  0.0902328628446845   T   T   T
  0.9312533760069084  0.8398912232041600  0.0864677788580188   T   T   T
  0.3058922228310881  0.0887388658973312  0.0857109763227428   T   T   T
  0.1823543545528979  0.1742701991746136  0.0860567485090664   T   T   T
  0.3071742602960191  0.9232873633430182  0.0862311895426191   T   T   T
  0.1819736202812143  0.3398878416059934  0.0904230931385402   T   T   T
  0.3057409960174582  0.5890661042944892  0.0966960362972248   T   T   T
  0.1816965148548420  0.6717072951988066  0.0868287788859528   T   T   T
  0.1822947885421275  0.8382196489977893  0.0846304936301900   T   T   T
  0.5555659379234041  0.0878871361431036  0.0943822034588775   T   T   T
  0.4307969621486727  0.1707392902717943  0.0915599658523794   T   T   T
  0.4303648945431369  0.3369483697681798  0.1002358710947657   T   T   T
  0.4304308807527053  0.8397035692779323  0.0967037571381194   T   T   T
  0.8069690069944397  0.0891436403083788  0.0885549194236625   T   T   T
  0.6808848217048991  0.1701326683297348  0.0948526144856531   T   T   T
  0.8062158371472469  0.9238702086849959  0.0881562809486184   T   T   T
  0.6802422160096104  0.3351884064714442  0.1041952234499613   T   T   T
  0.8079371456917217  0.5910089256069819  0.1020259555653725   T   T   T
  0.8062152159155906  0.4225708858735554  0.1011229405944234   T   T   T
  0.6813260246520856  0.8412448519721658  0.0982887113230712   T   T   T
  0.4229521029525239  0.6781650750882503  0.1114772542077239   T   T   T
  0.5532732422187859  0.4084337939094132  0.1163724910179672   T   T   T
  0.6903106229973852  0.6825797997911700  0.1144416130477739   T   T   T
  0.5556114524621415  0.9224742770115298  0.0967853671776704   T   T   T
  0.3059981903131538  0.4227219912460090  0.0964238947619261   T   T   T
  0.5555559259423408  0.5912327941573232  0.1707643400326110   T   T   T
 
  0.00000000E+00  0.00000000E+00  0.00000000E+00
  0.00000000E+00  0.00000000E+00  0.00000000E+00
  0.00000000E+00  0.00000000E+00  0.00000000E+00
  0.00000000E+00  0.00000000E+00  0.00000000E+00
  0.00000000E+00  0.00000000E+00  0.00000000E+00
  0.00000000E+00  0.00000000E+00  0.00000000E+00
  0.00000000E+00  0.00000000E+00  0.00000000E+00
  0.00000000E+00  0.00000000E+00  0.00000000E+00
  0.00000000E+00  0.00000000E+00  0.00000000E+00
  0.00000000E+00  0.00000000E+00  0.00000000E+00
  0.00000000E+00  0.00000000E+00  0.00000000E+00
  0.00000000E+00  0.00000000E+00  0.00000000E+00
  0.00000000E+00  0.00000000E+00  0.00000000E+00
  0.00000000E+00  0.00000000E+00  0.00000000E+00
  0.00000000E+00  0.00000000E+00  0.00000000E+00
  0.00000000E+00  0.00000000E+00  0.00000000E+00
  0.00000000E+00  0.00000000E+00  0.00000000E+00
  0.00000000E+00  0.00000000E+00  0.00000000E+00
  0.00000000E+00  0.00000000E+00  0.00000000E+00
  0.00000000E+00  0.00000000E+00  0.00000000E+00
  0.00000000E+00  0.00000000E+00  0.00000000E+00
  0.00000000E+00  0.00000000E+00  0.00000000E+00
  0.00000000E+00  0.00000000E+00  0.00000000E+00
  0.00000000E+00  0.00000000E+00  0.00000000E+00
  0.00000000E+00  0.00000000E+00  0.00000000E+00
  0.00000000E+00  0.00000000E+00  0.00000000E+00
  0.00000000E+00  0.00000000E+00  0.00000000E+00
  0.00000000E+00  0.00000000E+00  0.00000000E+00
  0.00000000E+00  0.00000000E+00  0.00000000E+00
  0.00000000E+00  0.00000000E+00  0.00000000E+00
  0.00000000E+00  0.00000000E+00  0.00000000E+00
  0.00000000E+00  0.00000000E+00  0.00000000E+00
