Title                                   
   1.00000000000000     
     9.8694509999999998    0.0000000000000000    0.0000000000000000
     0.0000000000000000    8.5490480000000009    0.0000000000000000
     0.0000000000000000    0.0000000000000000   20.0000000000000000
    27     3     1
Selective dynamics
Direct
  0.0563360378927797  0.0902226762739188  0.0936352383503975   T   T   T
  0.9310549269832030  0.1728759989093623  0.0940681227016990   T   T   T
  0.0563290373079033  0.9241475790298234  0.0935777933226526   T   T   T
  0.9345304321661589  0.3396037858465830  0.0939401573070510   T   T   T
  0.0567281306736069  0.5895789417424715  0.0932194871815602   T   T   T
  0.9348543802810890  0.6753843751816834  0.0937242623346187   T   T   T
  0.0570298619126557  0.4235363821459348  0.0933122738269761   T   T   T
  0.9320859758549594  0.8417707452726171  0.0938613671905986   T   T   T
  0.3055200474870752  0.0897055009440864  0.0947622873335753   T   T   T
  0.1802501933374962  0.1721211527185291  0.0939178618765512   T   T   T
  0.3052414948513565  0.9224719499671268  0.0948594952911052   T   T   T
  0.1795112582128515  0.3395507861956489  0.0937990917307405   T   T   T
  0.3008818546508647  0.5910057002329030  0.0949442911989541   T   T   T
  0.1784273627741959  0.6733043539065012  0.0938129713590525   T   T   T
  0.3017336318949445  0.4214736372419907  0.0947583578108617   T   T   T
  0.1801130605993625  0.8406790867401756  0.0939945322754610   T   T   T
  0.5542759659823778  0.0892395837397663  0.0959158280618734   T   T   T
  0.4295483611322877  0.1745129071662188  0.0955554963138879   T   T   T
  0.5550673621023235  0.9172028591401877  0.0959702401210197   T   T   T
  0.4282008303294480  0.8345003924916203  0.0958396333414824   T   T   T
  0.8059154441765018  0.0902441722075026  0.0949036141360751   T   T   T
  0.6805731921997863  0.1750312421233926  0.0959427194710289   T   T   T
  0.8063820990988287  0.9224185272969169  0.0947589496070543   T   T   T
  0.6920644828695538  0.3387795320553137  0.0966156304527889   T   T   T
  0.8137991963986021  0.5936468941180179  0.0949588028165310   T   T   T
  0.8126538569120567  0.4245330290260406  0.0951332815484680   T   T   T
  0.6830250617278046  0.8348199278428223  0.0957229114285480   T   T   T
  0.4214120288527464  0.3370951714467402  0.0956064980041714   T   T   T
  0.6938864654378515  0.6735971953666823  0.0961235037725901   T   T   T
  0.4191655402233507  0.6744679492710192  0.0964030393578851   T   T   T
  0.5565374256759872  0.5033529643584153  0.0973272604747819   T   T   T
 
  0.00000000E+00  0.00000000E+00  0.00000000E+00
  0.00000000E+00  0.00000000E+00  0.00000000E+00
  0.00000000E+00  0.00000000E+00  0.00000000E+00
  0.00000000E+00  0.00000000E+00  0.00000000E+00
  0.00000000E+00  0.00000000E+00  0.00000000E+00
  0.00000000E+00  0.00000000E+00  0.00000000E+00
  0.00000000E+00  0.00000000E+00  0.00000000E+00
  0.00000000E+00  0.00000000E+00  0.00000000E+00
  0.00000000E+00  0.00000000E+00  0.00000000E+00
  0.00000000E+00  0.00000000E+00  0.00000000E+00
  0.00000000E+00  0.00000000E+00  0.00000000E+00
  0.00000000E+00  0.00000000E+00  0.00000000E+00
  0.00000000E+00  0.00000000E+00  0.00000000E+00
  0.00000000E+00  0.00000000E+00  0.00000000E+00
  0.00000000E+00  0.00000000E+00  0.00000000E+00
  0.00000000E+00  0.00000000E+00  0.00000000E+00
  0.00000000E+00  0.00000000E+00  0.00000000E+00
  0.00000000E+00  0.00000000E+00  0.00000000E+00
  0.00000000E+00  0.00000000E+00  0.00000000E+00
  0.00000000E+00  0.00000000E+00  0.00000000E+00
  0.00000000E+00  0.00000000E+00  0.00000000E+00
  0.00000000E+00  0.00000000E+00  0.00000000E+00
  0.00000000E+00  0.00000000E+00  0.00000000E+00
  0.00000000E+00  0.00000000E+00  0.00000000E+00
  0.00000000E+00  0.00000000E+00  0.00000000E+00
  0.00000000E+00  0.00000000E+00  0.00000000E+00
  0.00000000E+00  0.00000000E+00  0.00000000E+00
  0.00000000E+00  0.00000000E+00  0.00000000E+00
  0.00000000E+00  0.00000000E+00  0.00000000E+00
  0.00000000E+00  0.00000000E+00  0.00000000E+00
  0.00000000E+00  0.00000000E+00  0.00000000E+00
