Title                                   
   1.00000000000000     
     9.8694509999999998    0.0000000000000000    0.0000000000000000
     0.0000000000000000    8.5490480000000009    0.0000000000000000
     0.0000000000000000    0.0000000000000000   20.0000000000000000
    26     4     1
Selective dynamics
Direct
  0.0549198540734667  0.0871364721904034  0.0944621334043972   T   T   T
  0.9308102359034014  0.1710892471206686  0.0944721178631480   T   T   T
  0.0568104890723006  0.9215048078549687  0.0944850846467069   T   T   T
  0.9338705405579950  0.3386331752161363  0.0943442810259414   T   T   T
  0.0562702225682124  0.5904670293335160  0.0942527745005028   T   T   T
  0.0568970737635879  0.4243127724567266  0.0942007016704071   T   T   T
  0.9314551457820888  0.8383096762333400  0.0944051088900470   T   T   T
  0.3060436675696701  0.0887121553418968  0.0948096738521869   T   T   T
  0.1812529441151264  0.1697520792508517  0.0945317119034880   T   T   T
  0.1803964951546310  0.3381627137630002  0.0944784825666531   T   T   T
  0.3040302738770823  0.5879404179472103  0.0952650511384516   T   T   T
  0.1806325954441440  0.6735568541723050  0.0946494264380034   T   T   T
  0.3028030148743293  0.4182726649080933  0.0951139602407840   T   T   T
  0.1827953760019418  0.8398679841032335  0.0946288631366171   T   T   T
  0.4304015429665979  0.1783712294419169  0.0951334995985327   T   T   T
  0.5544696928457049  0.9245599367284943  0.0953322224759904   T   T   T
  0.4284747725028837  0.6693155536707883  0.0957180000497170   T   T   T
  0.4304467711465072  0.8367641042996700  0.0953796329879346   T   T   T
  0.8045526873420847  0.0892515935175772  0.0946872068969173   T   T   T
  0.6810275909363036  0.1807876316169099  0.0950509456546970   T   T   T
  0.8053848867638091  0.9204923842834993  0.0946634818328334   T   T   T
  0.6855429106345251  0.3463420264905649  0.0953274842387002   T   T   T
  0.8110725239774991  0.5921137519014031  0.0947687846324518   T   T   T
  0.6849290792543090  0.6672883366284846  0.0953459597958363   T   T   T
  0.8132507236482883  0.4214791292203710  0.0947823830582870   T   T   T
  0.6785769828592040  0.8367528503602448  0.0951409370379813   T   T   T
  0.9336377256360887  0.6733461380492635  0.0942444333732830   T   T   T
  0.5546187094228928  0.0959229491773831  0.0950972533764461   T   T   T
  0.4251117953872875  0.3390011503299594  0.0954666751423012   T   T   T
  0.3059201519106874  0.9219088429406838  0.0948702466081864   T   T   T
  0.5567285240073655  0.5094593414504551  0.0958564819626178   T   T   T
 
  0.00000000E+00  0.00000000E+00  0.00000000E+00
  0.00000000E+00  0.00000000E+00  0.00000000E+00
  0.00000000E+00  0.00000000E+00  0.00000000E+00
  0.00000000E+00  0.00000000E+00  0.00000000E+00
  0.00000000E+00  0.00000000E+00  0.00000000E+00
  0.00000000E+00  0.00000000E+00  0.00000000E+00
  0.00000000E+00  0.00000000E+00  0.00000000E+00
  0.00000000E+00  0.00000000E+00  0.00000000E+00
  0.00000000E+00  0.00000000E+00  0.00000000E+00
  0.00000000E+00  0.00000000E+00  0.00000000E+00
  0.00000000E+00  0.00000000E+00  0.00000000E+00
  0.00000000E+00  0.00000000E+00  0.00000000E+00
  0.00000000E+00  0.00000000E+00  0.00000000E+00
  0.00000000E+00  0.00000000E+00  0.00000000E+00
  0.00000000E+00  0.00000000E+00  0.00000000E+00
  0.00000000E+00  0.00000000E+00  0.00000000E+00
  0.00000000E+00  0.00000000E+00  0.00000000E+00
  0.00000000E+00  0.00000000E+00  0.00000000E+00
  0.00000000E+00  0.00000000E+00  0.00000000E+00
  0.00000000E+00  0.00000000E+00  0.00000000E+00
  0.00000000E+00  0.00000000E+00  0.00000000E+00
  0.00000000E+00  0.00000000E+00  0.00000000E+00
  0.00000000E+00  0.00000000E+00  0.00000000E+00
  0.00000000E+00  0.00000000E+00  0.00000000E+00
  0.00000000E+00  0.00000000E+00  0.00000000E+00
  0.00000000E+00  0.00000000E+00  0.00000000E+00
  0.00000000E+00  0.00000000E+00  0.00000000E+00
  0.00000000E+00  0.00000000E+00  0.00000000E+00
  0.00000000E+00  0.00000000E+00  0.00000000E+00
  0.00000000E+00  0.00000000E+00  0.00000000E+00
  0.00000000E+00  0.00000000E+00  0.00000000E+00
