Title                                   
   1.00000000000000     
     9.8694509999999998    0.0000000000000000    0.0000000000000000
     0.0000000000000000    8.5490480000000009    0.0000000000000000
     0.0000000000000000    0.0000000000000000   20.0000000000000000
    28     3     1
Selective dynamics
Direct
  0.0560710803188004  0.0912196997930139  0.0849580971067458   T   T   T
  0.9306479416037005  0.1748581784979054  0.0874890228614479   T   T   T
  0.0572212289662189  0.9232976104427455  0.0842690886864278   T   T   T
  0.9293194568614636  0.3419482566650396  0.0909752052853084   T   T   T
  0.0555848449315274  0.5893953916599157  0.0872827128152201   T   T   T
  0.9323213292415767  0.6737000355281315  0.0887695201967262   T   T   T
  0.0561161520794337  0.4229801669023495  0.0895791275120920   T   T   T
  0.9322066215521456  0.8412146003936543  0.0862336121672427   T   T   T
  0.3050711136240542  0.0872802960022421  0.0867372543440106   T   T   T
  0.1817211533051331  0.1734634648996820  0.0868424130169741   T   T   T
  0.3076053786981663  0.9215493075273634  0.0879041164800554   T   T   T
  0.1807940804804804  0.3395334417616937  0.0906742343158295   T   T   T
  0.3046796454938192  0.5881386415583549  0.0990568843947964   T   T   T
  0.1813019447701984  0.6703974261228715  0.0881927480899013   T   T   T
  0.1823952410923078  0.8375386462458017  0.0862273185217951   T   T   T
  0.5556137181664846  0.0865284469447939  0.0941445662865926   T   T   T
  0.4295841671222563  0.1684038682952916  0.0920029106404254   T   T   T
  0.4284427401867449  0.3342750947441642  0.1005667221057296   T   T   T
  0.4301019908054828  0.8368885492284854  0.0984479040043040   T   T   T
  0.8066638246622452  0.0910949449889768  0.0878174115644165   T   T   T
  0.6804916516705919  0.1709205060805913  0.0936792718654643   T   T   T
  0.8071190433190044  0.9257632935231019  0.0875461113282415   T   T   T
  0.6779030572814032  0.3364805791808647  0.1021120134218913   T   T   T
  0.8076908636095482  0.5946264777534969  0.0985607102287512   T   T   T
  0.8028937038210319  0.4260047117821246  0.0983130598969633   T   T   T
  0.6845502367554309  0.8422425555249206  0.0967903096146505   T   T   T
  0.4232142204497423  0.6749702106102474  0.1144034305072129   T   T   T
  0.5503672774285119  0.4095548433675929  0.1151466108983002   T   T   T
  0.6926732380322088  0.6857826796784879  0.1116345325702138   T   T   T
  0.5572961498997633  0.9188846202835984  0.0969595356620812   T   T   T
  0.3051935882533284  0.4210954544392451  0.0976579637833086   T   T   T
  0.5667823155171997  0.5902139995732540  0.1747005798268956   T   T   T
 
  0.00000000E+00  0.00000000E+00  0.00000000E+00
  0.00000000E+00  0.00000000E+00  0.00000000E+00
  0.00000000E+00  0.00000000E+00  0.00000000E+00
  0.00000000E+00  0.00000000E+00  0.00000000E+00
  0.00000000E+00  0.00000000E+00  0.00000000E+00
  0.00000000E+00  0.00000000E+00  0.00000000E+00
  0.00000000E+00  0.00000000E+00  0.00000000E+00
  0.00000000E+00  0.00000000E+00  0.00000000E+00
  0.00000000E+00  0.00000000E+00  0.00000000E+00
  0.00000000E+00  0.00000000E+00  0.00000000E+00
  0.00000000E+00  0.00000000E+00  0.00000000E+00
  0.00000000E+00  0.00000000E+00  0.00000000E+00
  0.00000000E+00  0.00000000E+00  0.00000000E+00
  0.00000000E+00  0.00000000E+00  0.00000000E+00
  0.00000000E+00  0.00000000E+00  0.00000000E+00
  0.00000000E+00  0.00000000E+00  0.00000000E+00
  0.00000000E+00  0.00000000E+00  0.00000000E+00
  0.00000000E+00  0.00000000E+00  0.00000000E+00
  0.00000000E+00  0.00000000E+00  0.00000000E+00
  0.00000000E+00  0.00000000E+00  0.00000000E+00
  0.00000000E+00  0.00000000E+00  0.00000000E+00
  0.00000000E+00  0.00000000E+00  0.00000000E+00
  0.00000000E+00  0.00000000E+00  0.00000000E+00
  0.00000000E+00  0.00000000E+00  0.00000000E+00
  0.00000000E+00  0.00000000E+00  0.00000000E+00
  0.00000000E+00  0.00000000E+00  0.00000000E+00
  0.00000000E+00  0.00000000E+00  0.00000000E+00
  0.00000000E+00  0.00000000E+00  0.00000000E+00
  0.00000000E+00  0.00000000E+00  0.00000000E+00
  0.00000000E+00  0.00000000E+00  0.00000000E+00
  0.00000000E+00  0.00000000E+00  0.00000000E+00
  0.00000000E+00  0.00000000E+00  0.00000000E+00
