Title                                   
   1.00000000000000     
     9.8694509999999998    0.0000000000000000    0.0000000000000000
     0.0000000000000000    8.5490480000000009    0.0000000000000000
     0.0000000000000000    0.0000000000000000   20.0000000000000000
    30     1     1
Selective dynamics
Direct
  0.0565708137641038  0.0908046374835376  0.0834061753930498   T   T   T
  0.9313746600772026  0.1719134559479268  0.0857013639021915   T   T   T
  0.0552707060025975  0.9238443122142672  0.0826749283035052   T   T   T
  0.9321588113055631  0.3386588052433207  0.0881704879903021   T   T   T
  0.0563431610151018  0.5891769808747157  0.0843924901522335   T   T   T
  0.9323934748291414  0.6720617099211873  0.0870570458228881   T   T   T
  0.0573871085042480  0.4230539305036206  0.0861825544294770   T   T   T
  0.9306709806777916  0.8387821453070354  0.0855888509476715   T   T   T
  0.3058902726484392  0.0918268631318515  0.0878422337019530   T   T   T
  0.1816542431151464  0.1750183081081220  0.0858523700283217   T   T   T
  0.3037449377608875  0.9254831176862637  0.0881591425901518   T   T   T
  0.1831507855027046  0.3424131180000760  0.0887634080439925   T   T   T
  0.3027176306718460  0.5952038277688254  0.0973238487348229   T   T   T
  0.1794232499242314  0.6745987315348241  0.0859914235320073   T   T   T
  0.3076565847868878  0.4265122080797481  0.0971575837109077   T   T   T
  0.1792655653154945  0.8414747604699487  0.0846797784826015   T   T   T
  0.5554187760218009  0.0860423631409532  0.0959188935700566   T   T   T
  0.4314931520406337  0.1726428085154575  0.0940373558068249   T   T   T
  0.5537817529799479  0.9190861093262602  0.0999740967957248   T   T   T
  0.4329990621405256  0.3396990095693079  0.1018954080329355   T   T   T
  0.5606836920992407  0.4100303918586574  0.1143291736867986   T   T   T
  0.4245984072245554  0.8404055738807654  0.0993226124923504   T   T   T
  0.8067532999061452  0.0872551859454724  0.0884715110609722   T   T   T
  0.6821518129893205  0.1684316984086991  0.0942650405306986   T   T   T
  0.8058197358505500  0.9207518609345129  0.0896904672007703   T   T   T
  0.6841709369405680  0.3338946173720000  0.1015847932719245   T   T   T
  0.8102843911152818  0.5879113249271817  0.0984115870688949   T   T   T
  0.6929551709965219  0.6738296829275796  0.1125244928521704   T   T   T
  0.8089404874969272  0.4199438478637965  0.0967853618341524   T   T   T
  0.6816679090445313  0.8367186337441695  0.1007862524749472   T   T   T
  0.4156293946991390  0.6827056579083087  0.1111466625210965   T   T   T
  0.5566180325529303  0.5900703214016172  0.1675876050336393   T   T   T
 
  0.00000000E+00  0.00000000E+00  0.00000000E+00
  0.00000000E+00  0.00000000E+00  0.00000000E+00
  0.00000000E+00  0.00000000E+00  0.00000000E+00
  0.00000000E+00  0.00000000E+00  0.00000000E+00
  0.00000000E+00  0.00000000E+00  0.00000000E+00
  0.00000000E+00  0.00000000E+00  0.00000000E+00
  0.00000000E+00  0.00000000E+00  0.00000000E+00
  0.00000000E+00  0.00000000E+00  0.00000000E+00
  0.00000000E+00  0.00000000E+00  0.00000000E+00
  0.00000000E+00  0.00000000E+00  0.00000000E+00
  0.00000000E+00  0.00000000E+00  0.00000000E+00
  0.00000000E+00  0.00000000E+00  0.00000000E+00
  0.00000000E+00  0.00000000E+00  0.00000000E+00
  0.00000000E+00  0.00000000E+00  0.00000000E+00
  0.00000000E+00  0.00000000E+00  0.00000000E+00
  0.00000000E+00  0.00000000E+00  0.00000000E+00
  0.00000000E+00  0.00000000E+00  0.00000000E+00
  0.00000000E+00  0.00000000E+00  0.00000000E+00
  0.00000000E+00  0.00000000E+00  0.00000000E+00
  0.00000000E+00  0.00000000E+00  0.00000000E+00
  0.00000000E+00  0.00000000E+00  0.00000000E+00
  0.00000000E+00  0.00000000E+00  0.00000000E+00
  0.00000000E+00  0.00000000E+00  0.00000000E+00
  0.00000000E+00  0.00000000E+00  0.00000000E+00
  0.00000000E+00  0.00000000E+00  0.00000000E+00
  0.00000000E+00  0.00000000E+00  0.00000000E+00
  0.00000000E+00  0.00000000E+00  0.00000000E+00
  0.00000000E+00  0.00000000E+00  0.00000000E+00
  0.00000000E+00  0.00000000E+00  0.00000000E+00
  0.00000000E+00  0.00000000E+00  0.00000000E+00
  0.00000000E+00  0.00000000E+00  0.00000000E+00
  0.00000000E+00  0.00000000E+00  0.00000000E+00
