Title                                   
   1.00000000000000     
     4.9440799999999996    0.0000000000000000    0.0000000000000000
     0.0000000000000000   17.1295089999999988    0.0000000000000000
     0.0000000000000000    0.0000000000000000   20.0000000000000000
    28     2     1
Selective dynamics
Direct
 -0.0035220852173509  0.1052332628500326  0.2910120205369411   T   T   T
  0.2443872527228944  0.1477379447770390  0.2932605153175660   T   T   T
  0.2420030630035259  0.2314468035223658  0.2995325995929920   T   T   T
 -0.0092178055983774  0.2735567445316598  0.3031435111811686   T   T   T
  0.0081005325010448  0.6020666350880159  0.3018040096164032   T   T   T
  0.2563139170734172  0.7272140241976369  0.2935832129196438   T   T   T
  0.0024835067012729  0.8532745023079857  0.2889636755605802   T   T   T
  0.2514408405953800  0.8955258313804183  0.2885653338751176   T   T   T
  0.2490293095215335  0.9793931925008510  0.2885100694008094   T   T   T
  0.0050600674397253  0.7693174299115592  0.2911640239169443   T   T   T
  0.4956295627733251  0.1056054512515981  0.2908734040078602   T   T   T
  0.7462022991621424  0.1472854227452131  0.2922234182334116   T   T   T
  0.7433410417272255  0.2308350877499335  0.2971911403850173   T   T   T
  0.4980157627181309  0.0216399427123401  0.2888370939871931   T   T   T
  0.7445907811609381  0.3943897924793109  0.3135408591050724   T   T   T
  0.7560659193902713  0.4805263106931301  0.3135369468272429   T   T   T
  0.4925063626900406  0.2728448478038120  0.3016198338087266   T   T   T
  0.5097989113343907  0.6013973286066517  0.3033002753121126   T   T   T
  0.7545030867615518  0.7276490616734289  0.2925491849017864   T   T   T
  0.5020219076351938  0.8535271945224469  0.2889741402977464   T   T   T
  0.7515215065373229  0.8954708728993163  0.2883330038579070   T   T   T
  0.7490739044437132  0.9794666917147532  0.2882796238193641   T   T   T
  0.5042502375980751  0.7697204901684402  0.2912554871602304   T   T   T
  0.7572584322084815  0.6440880961928838  0.2974212643193367   T   T   T
  0.2585177355852317  0.6435095589408215  0.2997747970105831   T   T   T
 -0.0014343359304065  0.0214262296197593  0.2888962825400815   T   T   T
  0.0026143578657689  0.5201083883938967  0.3103633016932992   T   T   T
  0.4982169630843090  0.3547898504839813  0.3102075269663873   T   T   T
  0.5126814095956613  0.5214609957463969  0.3138976928534375   T   T   T
 -0.0119756162276243  0.3534379956925386  0.3139872403587629   T   T   T
  0.2505281711431909  0.4373960188417791  0.3604585106362278   T   T   T
 
  0.00000000E+00  0.00000000E+00  0.00000000E+00
  0.00000000E+00  0.00000000E+00  0.00000000E+00
  0.00000000E+00  0.00000000E+00  0.00000000E+00
  0.00000000E+00  0.00000000E+00  0.00000000E+00
  0.00000000E+00  0.00000000E+00  0.00000000E+00
  0.00000000E+00  0.00000000E+00  0.00000000E+00
  0.00000000E+00  0.00000000E+00  0.00000000E+00
  0.00000000E+00  0.00000000E+00  0.00000000E+00
  0.00000000E+00  0.00000000E+00  0.00000000E+00
  0.00000000E+00  0.00000000E+00  0.00000000E+00
  0.00000000E+00  0.00000000E+00  0.00000000E+00
  0.00000000E+00  0.00000000E+00  0.00000000E+00
  0.00000000E+00  0.00000000E+00  0.00000000E+00
  0.00000000E+00  0.00000000E+00  0.00000000E+00
  0.00000000E+00  0.00000000E+00  0.00000000E+00
  0.00000000E+00  0.00000000E+00  0.00000000E+00
  0.00000000E+00  0.00000000E+00  0.00000000E+00
  0.00000000E+00  0.00000000E+00  0.00000000E+00
  0.00000000E+00  0.00000000E+00  0.00000000E+00
  0.00000000E+00  0.00000000E+00  0.00000000E+00
  0.00000000E+00  0.00000000E+00  0.00000000E+00
  0.00000000E+00  0.00000000E+00  0.00000000E+00
  0.00000000E+00  0.00000000E+00  0.00000000E+00
  0.00000000E+00  0.00000000E+00  0.00000000E+00
  0.00000000E+00  0.00000000E+00  0.00000000E+00
  0.00000000E+00  0.00000000E+00  0.00000000E+00
  0.00000000E+00  0.00000000E+00  0.00000000E+00
  0.00000000E+00  0.00000000E+00  0.00000000E+00
  0.00000000E+00  0.00000000E+00  0.00000000E+00
  0.00000000E+00  0.00000000E+00  0.00000000E+00
  0.00000000E+00  0.00000000E+00  0.00000000E+00
