Title                                   
   1.00000000000000     
     4.9440799999999996    0.0000000000000000    0.0000000000000000
     0.0000000000000000   17.1295089999999988    0.0000000000000000
     0.0000000000000000    0.0000000000000000   20.0000000000000000
    26     4     1
Selective dynamics
Direct
  0.0048364524278827  0.1055647062656064  0.2966811835075104   T   T   T
  0.2543344468493124  0.1484408808483697  0.2973041825733065   T   T   T
  0.2564102817569895  0.2332381162945706  0.2998884797667030   T   T   T
  0.0060061117167140  0.2744834939469374  0.3026990674635863   T   T   T
 -0.0118336496075096  0.6006908240929523  0.3058435337566177   T   T   T
  0.2421950359382026  0.7258998202443486  0.2973650333415441   T   T   T
 -0.0015902409228772  0.8529018708963810  0.2971574451060551   T   T   T
  0.2481413220647360  0.8951202104795876  0.2966968365795313   T   T   T
  0.2508063745809269  0.9792336492419098  0.2964377218958882   T   T   T
 -0.0042463217266217  0.7686635810510716  0.2977275498320148   T   T   T
  0.5034375246447024  0.1058357166086121  0.2960142620851563   T   T   T
  0.7556266919123187  0.1474443706588905  0.2962745164952240   T   T   T
  0.7588313601014228  0.2312960388387554  0.2978873061329330   T   T   T
  0.5011441223775095  0.0216072282369834  0.2959655774873048   T   T   T
  0.7587651722680659  0.3938490054745688  0.3022052972537961   T   T   T
  0.7426437146009394  0.4807840998868428  0.3044176587859685   T   T   T
  0.5107688586800763  0.2731689267107992  0.2984641760577584   T   T   T
  0.4905333234537219  0.6027304569430436  0.2912805464920568   T   T   T
  0.7452490904173654  0.7272368349805387  0.2959295772803453   T   T   T
  0.4959233941007151  0.8523949180118915  0.2961294735567789   T   T   T
  0.7478887933375302  0.8947499656175446  0.2964332743822782   T   T   T
  0.7505035493825388  0.9790577154559663  0.2962174128499812   T   T   T
  0.4930805213619006  0.7680639317195828  0.2956581405335257   T   T   T
  0.7412773316561911  0.6443362498560347  0.2958698066930103   T   T   T
  0.0018177296345008  0.0213362514441388  0.2964389488038711   T   T   T
  0.5015024053864956  0.5211648416693124  0.2878731086699267   T   T   T
  0.9827843448124560  0.5218079418940412  0.3216958133950859   T   T   T
  0.5229352609651835  0.3534116241499192  0.3010357740053973   T   T   T
 -0.0062587226398423  0.3562955529012299  0.3107380698141566   T   T   T
  0.2372555944880521  0.6425190454895284  0.2987126700281458   T   T   T
  0.2792371259804024  0.4380141300900374  0.3220175553744944   T   T   T
 
  0.00000000E+00  0.00000000E+00  0.00000000E+00
  0.00000000E+00  0.00000000E+00  0.00000000E+00
  0.00000000E+00  0.00000000E+00  0.00000000E+00
  0.00000000E+00  0.00000000E+00  0.00000000E+00
  0.00000000E+00  0.00000000E+00  0.00000000E+00
  0.00000000E+00  0.00000000E+00  0.00000000E+00
  0.00000000E+00  0.00000000E+00  0.00000000E+00
  0.00000000E+00  0.00000000E+00  0.00000000E+00
  0.00000000E+00  0.00000000E+00  0.00000000E+00
  0.00000000E+00  0.00000000E+00  0.00000000E+00
  0.00000000E+00  0.00000000E+00  0.00000000E+00
  0.00000000E+00  0.00000000E+00  0.00000000E+00
  0.00000000E+00  0.00000000E+00  0.00000000E+00
  0.00000000E+00  0.00000000E+00  0.00000000E+00
  0.00000000E+00  0.00000000E+00  0.00000000E+00
  0.00000000E+00  0.00000000E+00  0.00000000E+00
  0.00000000E+00  0.00000000E+00  0.00000000E+00
  0.00000000E+00  0.00000000E+00  0.00000000E+00
  0.00000000E+00  0.00000000E+00  0.00000000E+00
  0.00000000E+00  0.00000000E+00  0.00000000E+00
  0.00000000E+00  0.00000000E+00  0.00000000E+00
  0.00000000E+00  0.00000000E+00  0.00000000E+00
  0.00000000E+00  0.00000000E+00  0.00000000E+00
  0.00000000E+00  0.00000000E+00  0.00000000E+00
  0.00000000E+00  0.00000000E+00  0.00000000E+00
  0.00000000E+00  0.00000000E+00  0.00000000E+00
  0.00000000E+00  0.00000000E+00  0.00000000E+00
  0.00000000E+00  0.00000000E+00  0.00000000E+00
  0.00000000E+00  0.00000000E+00  0.00000000E+00
  0.00000000E+00  0.00000000E+00  0.00000000E+00
  0.00000000E+00  0.00000000E+00  0.00000000E+00
