Title                                   
   1.00000000000000     
     9.8694509999999998    0.0000000000000000    0.0000000000000000
     0.0000000000000000    8.5490480000000009    0.0000000000000000
     0.0000000000000000    0.0000000000000000   20.0000000000000000
    28     3     1
Selective dynamics
Direct
  0.0562344493844337  0.0916019331216896  0.0851453395303839   T   T   T
  0.9309387522205780  0.1744427641006183  0.0873290229707464   T   T   T
  0.0562422284483207  0.9242438901127183  0.0841210027138661   T   T   T
  0.9298713070944583  0.3407926008165442  0.0898941113423956   T   T   T
  0.0562316191410380  0.5890429179491681  0.0857829300192067   T   T   T
  0.9325644052371459  0.6732275212022523  0.0870493575767635   T   T   T
  0.0562309820537459  0.4226440958051985  0.0881400261448407   T   T   T
  0.9322757126483699  0.8401122589386751  0.0859597127407554   T   T   T
  0.3058009058418518  0.0893490539248373  0.0887406817153068   T   T   T
  0.1815408331240538  0.1744251460664518  0.0872813988994011   T   T   T
  0.3048413747462377  0.9237604918051189  0.0890000965010290   T   T   T
  0.1825939250435130  0.3407704274856811  0.0898517732997969   T   T   T
  0.3041421366631031  0.5925236665590038  0.0959902380677985   T   T   T
  0.1798911216649368  0.6732301945024438  0.0870004853821544   T   T   T
  0.3095072295561209  0.4243452430179399  0.0962208665271155   T   T   T
  0.1802039179756364  0.8401140755741282  0.0858898883534261   T   T   T
  0.5562359704846108  0.0843567323567286  0.0964538025953894   T   T   T
  0.4314069113945530  0.1693296729006502  0.0941767792814948   T   T   T
  0.5562350909064308  0.9167683510668100  0.0993858376384133   T   T   T
  0.4331868994040097  0.3345052131717909  0.1000135679344780   T   T   T
  0.4267240529861144  0.8382260607080968  0.0981967604141899   T   T   T
  0.8066995503941894  0.0893439489396860  0.0888387187264208   T   T   T
  0.6810860429127646  0.1693143900326013  0.0942425571234867   T   T   T
  0.8076488756699914  0.9237721067547304  0.0891254897120588   T   T   T
  0.6793012228359150  0.3344871271352082  0.1000694441540552   T   T   T
  0.8083525507233672  0.5925101473901531  0.0960895856556680   T   T   T
  0.8029632526639527  0.4243432489090401  0.0963023585088291   T   T   T
  0.6857661966702803  0.8382364146059226  0.0983309690003159   T   T   T
  0.4187534593853981  0.6798353495881474  0.1077763431927633   T   T   T
  0.5562295235537039  0.4066850086890857  0.1119370890955902   T   T   T
  0.6938114370199828  0.6798541682315572  0.1079657640440134   T   T   T
  0.5561270621511968  0.5940517785373323  0.1733730011378811   T   T   T
 
  0.00000000E+00  0.00000000E+00  0.00000000E+00
  0.00000000E+00  0.00000000E+00  0.00000000E+00
  0.00000000E+00  0.00000000E+00  0.00000000E+00
  0.00000000E+00  0.00000000E+00  0.00000000E+00
  0.00000000E+00  0.00000000E+00  0.00000000E+00
  0.00000000E+00  0.00000000E+00  0.00000000E+00
  0.00000000E+00  0.00000000E+00  0.00000000E+00
  0.00000000E+00  0.00000000E+00  0.00000000E+00
  0.00000000E+00  0.00000000E+00  0.00000000E+00
  0.00000000E+00  0.00000000E+00  0.00000000E+00
  0.00000000E+00  0.00000000E+00  0.00000000E+00
  0.00000000E+00  0.00000000E+00  0.00000000E+00
  0.00000000E+00  0.00000000E+00  0.00000000E+00
  0.00000000E+00  0.00000000E+00  0.00000000E+00
  0.00000000E+00  0.00000000E+00  0.00000000E+00
  0.00000000E+00  0.00000000E+00  0.00000000E+00
  0.00000000E+00  0.00000000E+00  0.00000000E+00
  0.00000000E+00  0.00000000E+00  0.00000000E+00
  0.00000000E+00  0.00000000E+00  0.00000000E+00
  0.00000000E+00  0.00000000E+00  0.00000000E+00
  0.00000000E+00  0.00000000E+00  0.00000000E+00
  0.00000000E+00  0.00000000E+00  0.00000000E+00
  0.00000000E+00  0.00000000E+00  0.00000000E+00
  0.00000000E+00  0.00000000E+00  0.00000000E+00
  0.00000000E+00  0.00000000E+00  0.00000000E+00
  0.00000000E+00  0.00000000E+00  0.00000000E+00
  0.00000000E+00  0.00000000E+00  0.00000000E+00
  0.00000000E+00  0.00000000E+00  0.00000000E+00
  0.00000000E+00  0.00000000E+00  0.00000000E+00
  0.00000000E+00  0.00000000E+00  0.00000000E+00
  0.00000000E+00  0.00000000E+00  0.00000000E+00
  0.00000000E+00  0.00000000E+00  0.00000000E+00
