Title                                   
   1.00000000000000     
     9.8694509999999998    0.0000000000000000    0.0000000000000000
     0.0000000000000000    8.5490480000000009    0.0000000000000000
     0.0000000000000000    0.0000000000000000   20.0000000000000000
    30     1     1
Selective dynamics
Direct
  0.0557304496483780  0.0904238806985607  0.0815903153231450   T   T   T
  0.9312794675222518  0.1728933883242872  0.0837544614754644   T   T   T
  0.0570699730408789  0.9237192605456348  0.0810766795647571   T   T   T
  0.9308513174648413  0.3403287336236617  0.0878830164501698   T   T   T
  0.0568379869220810  0.5900073590633643  0.0840081288636175   T   T   T
  0.9324066831146384  0.6726061202248277  0.0858842849234373   T   T   T
  0.0569107564379532  0.4231265008345255  0.0858548455246359   T   T   T
  0.9319296214766380  0.8392808807894718  0.0832721000684766   T   T   T
  0.3052233301196791  0.0884171020437722  0.0864895386954942   T   T   T
  0.1814139186002284  0.1723677481798478  0.0843214560898044   T   T   T
  0.1825065551472104  0.3399283859187918  0.0879678870401054   T   T   T
  0.3039456861173283  0.5912388402150901  0.1000169976138157   T   T   T
  0.1819702445556615  0.6740050389034680  0.0861738391863975   T   T   T
  0.3059521610140737  0.4226993437556317  0.0981404235444632   T   T   T
  0.1817963245203513  0.8408305898459302  0.0839087683935119   T   T   T
  0.5561062518880391  0.0868279704935596  0.0926485703755253   T   T   T
  0.4302602316388234  0.1697600025709899  0.0921526408875135   T   T   T
  0.5547350124208864  0.9221854151738332  0.0984958721608980   T   T   T
  0.4310649142096182  0.3352332133623204  0.1023866345537674   T   T   T
  0.4190431331026824  0.6815985676828882  0.1172550262476029   T   T   T
  0.5562578095089366  0.4096473743341618  0.1163560952798828   T   T   T
  0.4262251328344984  0.8410266678424752  0.1018142110084844   T   T   T
  0.8065199615902425  0.0887240936497904  0.0849796101861593   T   T   T
  0.6815667787825797  0.1706645629500353  0.0908138894725521   T   T   T
  0.8065425334292873  0.9226809831615389  0.0861591828100025   T   T   T
  0.6807772411368187  0.3354879853942386  0.1014563926678103   T   T   T
  0.8088463804314666  0.5907447468995326  0.0987322454657173   T   T   T
  0.6909447849334515  0.6779277521746975  0.1135268039039043   T   T   T
  0.8072194255178752  0.4220024368874242  0.0975735034130391   T   T   T
  0.6827479052474720  0.8390046510101928  0.0989150863423051   T   T   T
  0.3049755624267625  0.9243488130500795  0.0872669792811546   T   T   T
  0.5599814651983723  0.5905075903953868  0.1847995131864194   T   T   T
 
  0.00000000E+00  0.00000000E+00  0.00000000E+00
  0.00000000E+00  0.00000000E+00  0.00000000E+00
  0.00000000E+00  0.00000000E+00  0.00000000E+00
  0.00000000E+00  0.00000000E+00  0.00000000E+00
  0.00000000E+00  0.00000000E+00  0.00000000E+00
  0.00000000E+00  0.00000000E+00  0.00000000E+00
  0.00000000E+00  0.00000000E+00  0.00000000E+00
  0.00000000E+00  0.00000000E+00  0.00000000E+00
  0.00000000E+00  0.00000000E+00  0.00000000E+00
  0.00000000E+00  0.00000000E+00  0.00000000E+00
  0.00000000E+00  0.00000000E+00  0.00000000E+00
  0.00000000E+00  0.00000000E+00  0.00000000E+00
  0.00000000E+00  0.00000000E+00  0.00000000E+00
  0.00000000E+00  0.00000000E+00  0.00000000E+00
  0.00000000E+00  0.00000000E+00  0.00000000E+00
  0.00000000E+00  0.00000000E+00  0.00000000E+00
  0.00000000E+00  0.00000000E+00  0.00000000E+00
  0.00000000E+00  0.00000000E+00  0.00000000E+00
  0.00000000E+00  0.00000000E+00  0.00000000E+00
  0.00000000E+00  0.00000000E+00  0.00000000E+00
  0.00000000E+00  0.00000000E+00  0.00000000E+00
  0.00000000E+00  0.00000000E+00  0.00000000E+00
  0.00000000E+00  0.00000000E+00  0.00000000E+00
  0.00000000E+00  0.00000000E+00  0.00000000E+00
  0.00000000E+00  0.00000000E+00  0.00000000E+00
  0.00000000E+00  0.00000000E+00  0.00000000E+00
  0.00000000E+00  0.00000000E+00  0.00000000E+00
  0.00000000E+00  0.00000000E+00  0.00000000E+00
  0.00000000E+00  0.00000000E+00  0.00000000E+00
  0.00000000E+00  0.00000000E+00  0.00000000E+00
  0.00000000E+00  0.00000000E+00  0.00000000E+00
  0.00000000E+00  0.00000000E+00  0.00000000E+00
