Title                                   
   1.00000000000000     
     9.8694509999999998    0.0000000000000000    0.0000000000000000
     0.0000000000000000    8.5490480000000009    0.0000000000000000
     0.0000000000000000    0.0000000000000000   20.0000000000000000
    26     4     1
Selective dynamics
Direct
  0.0549197734261922  0.0902781524025824  0.0911590538096772   T   T   T
  0.9294218306540442  0.1741354716839075  0.0870230068154805   T   T   T
  0.0573084208155894  0.9227151838424947  0.0914329865073960   T   T   T
  0.9311803160858252  0.3412107300093328  0.0878659596271482   T   T   T
  0.0558970446944797  0.5901256271885806  0.0931217531672126   T   T   T
  0.9325529026152413  0.6741865238853934  0.0901790071613781   T   T   T
  0.0555717561890308  0.4226574584367471  0.0927854690380787   T   T   T
  0.9319697311162735  0.8406090036995338  0.0891581632187747   T   T   T
  0.3067354014766951  0.0875765067353309  0.0981574027309651   T   T   T
  0.1798645666047414  0.1704104915295434  0.0962134154583960   T   T   T
  0.1798465329876121  0.3373041568697051  0.0974433285070518   T   T   T
  0.3041662049339045  0.5860911784677654  0.1042512496067100   T   T   T
  0.1812973457807695  0.6720626615103608  0.0966734433498571   T   T   T
  0.3027845397136180  0.4183704882125145  0.1052158736088772   T   T   T
  0.1818916621071264  0.8391890452843428  0.0949727297391875   T   T   T
  0.4286882929371144  0.1745781420385302  0.1017686824619373   T   T   T
  0.5543782339474763  0.9224284258634159  0.0947499922879059   T   T   T
  0.4282834649269858  0.6697103258887681  0.1109297830648610   T   T   T
  0.4305216819866813  0.8350105974303395  0.1017705233744381   T   T   T
  0.8032630569660222  0.0900966788974179  0.0847852304978173   T   T   T
  0.6773940524411629  0.1747681955074557  0.0840339538241897   T   T   T
  0.8059855751273057  0.9242221007127365  0.0863620826646537   T   T   T
  0.6798980728109767  0.3385917234011215  0.0794873023857407   T   T   T
  0.8071975429304523  0.5941985574741043  0.0855894852319883   T   T   T
  0.8048534414385119  0.4244331239479164  0.0824049163013455   T   T   T
  0.6804179529260574  0.8416829729675034  0.0879781896862861   T   T   T
  0.5537695265951105  0.0922696609786212  0.0936159927107798   T   T   T
  0.4253910044726292  0.3365607614518941  0.1133476053110331   T   T   T
  0.6854832834542874  0.6789019481461983  0.0872587596758551   T   T   T
  0.3064207888346316  0.9212919666038042  0.0968332345533973   T   T   T
  0.5857809990034534  0.5052071389320635  0.1343964236216141   T   T   T
 
  0.00000000E+00  0.00000000E+00  0.00000000E+00
  0.00000000E+00  0.00000000E+00  0.00000000E+00
  0.00000000E+00  0.00000000E+00  0.00000000E+00
  0.00000000E+00  0.00000000E+00  0.00000000E+00
  0.00000000E+00  0.00000000E+00  0.00000000E+00
  0.00000000E+00  0.00000000E+00  0.00000000E+00
  0.00000000E+00  0.00000000E+00  0.00000000E+00
  0.00000000E+00  0.00000000E+00  0.00000000E+00
  0.00000000E+00  0.00000000E+00  0.00000000E+00
  0.00000000E+00  0.00000000E+00  0.00000000E+00
  0.00000000E+00  0.00000000E+00  0.00000000E+00
  0.00000000E+00  0.00000000E+00  0.00000000E+00
  0.00000000E+00  0.00000000E+00  0.00000000E+00
  0.00000000E+00  0.00000000E+00  0.00000000E+00
  0.00000000E+00  0.00000000E+00  0.00000000E+00
  0.00000000E+00  0.00000000E+00  0.00000000E+00
  0.00000000E+00  0.00000000E+00  0.00000000E+00
  0.00000000E+00  0.00000000E+00  0.00000000E+00
  0.00000000E+00  0.00000000E+00  0.00000000E+00
  0.00000000E+00  0.00000000E+00  0.00000000E+00
  0.00000000E+00  0.00000000E+00  0.00000000E+00
  0.00000000E+00  0.00000000E+00  0.00000000E+00
  0.00000000E+00  0.00000000E+00  0.00000000E+00
  0.00000000E+00  0.00000000E+00  0.00000000E+00
  0.00000000E+00  0.00000000E+00  0.00000000E+00
  0.00000000E+00  0.00000000E+00  0.00000000E+00
  0.00000000E+00  0.00000000E+00  0.00000000E+00
  0.00000000E+00  0.00000000E+00  0.00000000E+00
  0.00000000E+00  0.00000000E+00  0.00000000E+00
  0.00000000E+00  0.00000000E+00  0.00000000E+00
  0.00000000E+00  0.00000000E+00  0.00000000E+00
