Title                                   
   1.00000000000000     
     9.8694509999999998    0.0000000000000000    0.0000000000000000
     0.0000000000000000    8.5490480000000009    0.0000000000000000
     0.0000000000000000    0.0000000000000000   20.0000000000000000
    29     1     1
Selective dynamics
Direct
  0.0545824005768192  0.0883454280451063  0.0826336378942452   T   T   T
  0.9294393842741094  0.1734011295291901  0.0846405992429782   T   T   T
  0.0567590730217139  0.9226484684045482  0.0831738164215614   T   T   T
  0.9322460957339052  0.3401456187484749  0.0833909559236380   T   T   T
  0.0572890828596067  0.5892320189159241  0.0802537157528319   T   T   T
  0.9344773794687081  0.6757889513940495  0.0859506276404949   T   T   T
  0.0563459003808103  0.4230037927019711  0.0798191292090861   T   T   T
  0.9320613626118082  0.8425134988159754  0.0872749631231878   T   T   T
  0.3045524593094038  0.0868923099087172  0.0924414715689872   T   T   T
  0.1793679116164829  0.1691938664064380  0.0852977691103609   T   T   T
  0.3081067857382321  0.9184465518942171  0.0912895232207076   T   T   T
  0.1788653180392430  0.3356490675057104  0.0836309107142433   T   T   T
  0.3037838386216219  0.5845295190921563  0.0907487231815344   T   T   T
  0.1818415141257183  0.6706819114595044  0.0830151271309437   T   T   T
  0.3005946824081549  0.4151085079215739  0.0942650588551167   T   T   T
  0.1829243396624798  0.8377378736090414  0.0841716944497436   T   T   T
  0.5535630743703893  0.0923713913220001  0.1055395721828070   T   T   T
  0.4244725705294189  0.1755526481373996  0.1038048696516574   T   T   T
  0.5569887212311122  0.9240281631990646  0.1063585021263082   T   T   T
  0.4277396520790651  0.6638505399203478  0.1000296817197185   T   T   T
  0.4333921770774870  0.8325791995973062  0.0997168531567939   T   T   T
  0.8036450496201191  0.0937852345550517  0.0926935712013758   T   T   T
  0.6781935441285302  0.1818722502030092  0.1003087361665488   T   T   T
  0.8061317400161691  0.9252901978423657  0.0949902798219293   T   T   T
  0.6867318731190155  0.3497402938535644  0.1020332029927845   T   T   T
  0.8145724272367848  0.5944241188951305  0.0976925295493169   T   T   T
  0.6934021132143831  0.6729943065547602  0.1175634247188673   T   T   T
  0.8121372754757142  0.4266432742920762  0.0927469570180408   T   T   T
  0.6845822031200861  0.8389477804671523  0.1072151446972729   T   T   T
  0.4160990619868615  0.3353388170391375  0.1111893617297427   T   T   T
  0.5582459883460578  0.5101382697690477  0.1370845898272163   T   T   T
 
  0.00000000E+00  0.00000000E+00  0.00000000E+00
  0.00000000E+00  0.00000000E+00  0.00000000E+00
  0.00000000E+00  0.00000000E+00  0.00000000E+00
  0.00000000E+00  0.00000000E+00  0.00000000E+00
  0.00000000E+00  0.00000000E+00  0.00000000E+00
  0.00000000E+00  0.00000000E+00  0.00000000E+00
  0.00000000E+00  0.00000000E+00  0.00000000E+00
  0.00000000E+00  0.00000000E+00  0.00000000E+00
  0.00000000E+00  0.00000000E+00  0.00000000E+00
  0.00000000E+00  0.00000000E+00  0.00000000E+00
  0.00000000E+00  0.00000000E+00  0.00000000E+00
  0.00000000E+00  0.00000000E+00  0.00000000E+00
  0.00000000E+00  0.00000000E+00  0.00000000E+00
  0.00000000E+00  0.00000000E+00  0.00000000E+00
  0.00000000E+00  0.00000000E+00  0.00000000E+00
  0.00000000E+00  0.00000000E+00  0.00000000E+00
  0.00000000E+00  0.00000000E+00  0.00000000E+00
  0.00000000E+00  0.00000000E+00  0.00000000E+00
  0.00000000E+00  0.00000000E+00  0.00000000E+00
  0.00000000E+00  0.00000000E+00  0.00000000E+00
  0.00000000E+00  0.00000000E+00  0.00000000E+00
  0.00000000E+00  0.00000000E+00  0.00000000E+00
  0.00000000E+00  0.00000000E+00  0.00000000E+00
  0.00000000E+00  0.00000000E+00  0.00000000E+00
  0.00000000E+00  0.00000000E+00  0.00000000E+00
  0.00000000E+00  0.00000000E+00  0.00000000E+00
  0.00000000E+00  0.00000000E+00  0.00000000E+00
  0.00000000E+00  0.00000000E+00  0.00000000E+00
  0.00000000E+00  0.00000000E+00  0.00000000E+00
  0.00000000E+00  0.00000000E+00  0.00000000E+00
  0.00000000E+00  0.00000000E+00  0.00000000E+00
