Title                                   
   1.00000000000000     
     9.8694509999999998    0.0000000000000000    0.0000000000000000
     0.0000000000000000    8.5490480000000009    0.0000000000000000
     0.0000000000000000    0.0000000000000000   20.0000000000000000
    29     2     1
Selective dynamics
Direct
  0.0562984054723919  0.0900601064927292  0.0815634803052875   T   T   T
  0.9309709056785267  0.1736234492027801  0.0822443131374571   T   T   T
  0.0574443616608627  0.9235244277741169  0.0831304349670410   T   T   T
  0.9308098433845062  0.3405376379323261  0.0839359693597708   T   T   T
  0.0574391555596888  0.5899391747791771  0.0828167255262371   T   T   T
  0.9324672750642262  0.6726438552180103  0.0873953040894927   T   T   T
  0.0569337982957985  0.4229255679564768  0.0821673523264354   T   T   T
  0.9323262913850885  0.8401512017710679  0.0861670417666031   T   T   T
  0.3057066298941987  0.0884981583305153  0.0871774058673437   T   T   T
  0.1823096905835452  0.1721775778042061  0.0832712618873359   T   T   T
  0.1823129935925834  0.3391613920864686  0.0841898839893583   T   T   T
  0.3040439410926050  0.5882833208112873  0.0995990755751564   T   T   T
  0.1828802314639433  0.6729674605293738  0.0867668396126948   T   T   T
  0.3067713868190827  0.4207778094344991  0.0956785165026438   T   T   T
  0.1825967366192531  0.8407543044193565  0.0862095258413807   T   T   T
  0.5550656314317696  0.0884793661982592  0.0933540550818585   T   T   T
  0.5541348598275263  0.9233544719203398  0.1002750192946711   T   T   T
  0.4292100444139011  0.3315254695196884  0.1037073828178108   T   T   T
  0.4265486484532839  0.8428627264781308  0.1041398645207900   T   T   T
  0.8060659117772399  0.0897561081850542  0.0852323829744984   T   T   T
  0.6803400504375325  0.1724942637576074  0.0909505836717206   T   T   T
  0.8066000058763636  0.9240931296621090  0.0892132312127813   T   T   T
  0.6824360502745206  0.3359924462114419  0.1012502759951366   T   T   T
  0.8104144861799517  0.5905292721260120  0.0998501554566300   T   T   T
  0.8060544661605725  0.4230473837819827  0.0951654403274184   T   T   T
  0.6827763650530680  0.8430464686440174  0.1023462707110254   T   T   T
  0.4164101436523682  0.6813982959781294  0.1225098458756872   T   T   T
  0.5553248446167381  0.4027258673820716  0.1233536094782000   T   T   T
  0.6941428483944106  0.6805993976494099  0.1204152390454889   T   T   T
  0.3068493098029743  0.9248560871426300  0.0904755162356265   T   T   T
  0.4292954054250987  0.1696548464978138  0.0933540111405609   T   T   T
  0.5566582816563848  0.5898049543229117  0.1777689854058735   T   T   T
 
  0.00000000E+00  0.00000000E+00  0.00000000E+00
  0.00000000E+00  0.00000000E+00  0.00000000E+00
  0.00000000E+00  0.00000000E+00  0.00000000E+00
  0.00000000E+00  0.00000000E+00  0.00000000E+00
  0.00000000E+00  0.00000000E+00  0.00000000E+00
  0.00000000E+00  0.00000000E+00  0.00000000E+00
  0.00000000E+00  0.00000000E+00  0.00000000E+00
  0.00000000E+00  0.00000000E+00  0.00000000E+00
  0.00000000E+00  0.00000000E+00  0.00000000E+00
  0.00000000E+00  0.00000000E+00  0.00000000E+00
  0.00000000E+00  0.00000000E+00  0.00000000E+00
  0.00000000E+00  0.00000000E+00  0.00000000E+00
  0.00000000E+00  0.00000000E+00  0.00000000E+00
  0.00000000E+00  0.00000000E+00  0.00000000E+00
  0.00000000E+00  0.00000000E+00  0.00000000E+00
  0.00000000E+00  0.00000000E+00  0.00000000E+00
  0.00000000E+00  0.00000000E+00  0.00000000E+00
  0.00000000E+00  0.00000000E+00  0.00000000E+00
  0.00000000E+00  0.00000000E+00  0.00000000E+00
  0.00000000E+00  0.00000000E+00  0.00000000E+00
  0.00000000E+00  0.00000000E+00  0.00000000E+00
  0.00000000E+00  0.00000000E+00  0.00000000E+00
  0.00000000E+00  0.00000000E+00  0.00000000E+00
  0.00000000E+00  0.00000000E+00  0.00000000E+00
  0.00000000E+00  0.00000000E+00  0.00000000E+00
  0.00000000E+00  0.00000000E+00  0.00000000E+00
  0.00000000E+00  0.00000000E+00  0.00000000E+00
  0.00000000E+00  0.00000000E+00  0.00000000E+00
  0.00000000E+00  0.00000000E+00  0.00000000E+00
  0.00000000E+00  0.00000000E+00  0.00000000E+00
  0.00000000E+00  0.00000000E+00  0.00000000E+00
  0.00000000E+00  0.00000000E+00  0.00000000E+00
