Title                                   
   1.00000000000000     
     9.8694509999999998    0.0000000000000000    0.0000000000000000
     0.0000000000000000    8.5490480000000009    0.0000000000000000
     0.0000000000000000    0.0000000000000000   20.0000000000000000
    28     3     1
Selective dynamics
Direct
  0.0560156239099490  0.0910167732972433  0.0842023214386787   T   T   T
  0.9310889306753890  0.1751434584401192  0.0864533892434856   T   T   T
  0.0584093396004162  0.9240199304841450  0.0835494761538885   T   T   T
  0.9297393345788364  0.3427676911100433  0.0886767229639019   T   T   T
  0.0569139396251654  0.5905873782312331  0.0842032385705862   T   T   T
  0.9331631193351692  0.6745890917284445  0.0866795568570279   T   T   T
  0.0558297618416428  0.4231176174258259  0.0857961112722136   T   T   T
  0.9337667606878068  0.8412752812353501  0.0858151436934278   T   T   T
  0.3063896897401669  0.0866270392135981  0.0886915339714120   T   T   T
  0.1822983264949722  0.1716563245516446  0.0861135364565249   T   T   T
  0.1808832535957743  0.3382528120682736  0.0877427853699853   T   T   T
  0.3036365616944814  0.5866823393475258  0.0980859527914974   T   T   T
  0.1818127378844514  0.6732110563726134  0.0865610808598707   T   T   T
  0.3049603212899106  0.4195300462751518  0.0968979742023371   T   T   T
  0.1828954093323877  0.8398860805257352  0.0853540420164887   T   T   T
  0.5565674848578375  0.0864556000024746  0.0957897509358825   T   T   T
  0.5567737158797260  0.9204404679715186  0.1006644190029525   T   T   T
  0.4282279028522332  0.3308477228832182  0.1042471779005244   T   T   T
  0.4292589725639920  0.8375621836625942  0.1024781899641480   T   T   T
  0.8059501219476686  0.0910998208301477  0.0883044630536502   T   T   T
  0.6796735296439999  0.1728409468209323  0.0938344794866535   T   T   T
  0.8084831437198812  0.9256736950353076  0.0892563750544965   T   T   T
  0.6799534742568775  0.3394350934741380  0.1027782385904222   T   T   T
  0.8092786158004012  0.5955241395753070  0.0983390503974109   T   T   T
  0.8040537289785364  0.4265789842020375  0.0975296973744287   T   T   T
  0.6867359354464447  0.8409093095231598  0.1004804411517132   T   T   T
  0.4187015733865758  0.6768145976748147  0.1140069923410730   T   T   T
  0.5511123929533155  0.4052373485689972  0.1181868516596211   T   T   T
  0.6964704510125198  0.6833362380908103  0.1132981400231223   T   T   T
  0.3074933558362091  0.9232296979320120  0.0889389007248964   T   T   T
  0.4287610704176787  0.1662742852766186  0.0944895544299142   T   T   T
  0.5543404201595904  0.5896229481689650  0.1682294120477805   T   T   T
 
  0.00000000E+00  0.00000000E+00  0.00000000E+00
  0.00000000E+00  0.00000000E+00  0.00000000E+00
  0.00000000E+00  0.00000000E+00  0.00000000E+00
  0.00000000E+00  0.00000000E+00  0.00000000E+00
  0.00000000E+00  0.00000000E+00  0.00000000E+00
  0.00000000E+00  0.00000000E+00  0.00000000E+00
  0.00000000E+00  0.00000000E+00  0.00000000E+00
  0.00000000E+00  0.00000000E+00  0.00000000E+00
  0.00000000E+00  0.00000000E+00  0.00000000E+00
  0.00000000E+00  0.00000000E+00  0.00000000E+00
  0.00000000E+00  0.00000000E+00  0.00000000E+00
  0.00000000E+00  0.00000000E+00  0.00000000E+00
  0.00000000E+00  0.00000000E+00  0.00000000E+00
  0.00000000E+00  0.00000000E+00  0.00000000E+00
  0.00000000E+00  0.00000000E+00  0.00000000E+00
  0.00000000E+00  0.00000000E+00  0.00000000E+00
  0.00000000E+00  0.00000000E+00  0.00000000E+00
  0.00000000E+00  0.00000000E+00  0.00000000E+00
  0.00000000E+00  0.00000000E+00  0.00000000E+00
  0.00000000E+00  0.00000000E+00  0.00000000E+00
  0.00000000E+00  0.00000000E+00  0.00000000E+00
  0.00000000E+00  0.00000000E+00  0.00000000E+00
  0.00000000E+00  0.00000000E+00  0.00000000E+00
  0.00000000E+00  0.00000000E+00  0.00000000E+00
  0.00000000E+00  0.00000000E+00  0.00000000E+00
  0.00000000E+00  0.00000000E+00  0.00000000E+00
  0.00000000E+00  0.00000000E+00  0.00000000E+00
  0.00000000E+00  0.00000000E+00  0.00000000E+00
  0.00000000E+00  0.00000000E+00  0.00000000E+00
  0.00000000E+00  0.00000000E+00  0.00000000E+00
  0.00000000E+00  0.00000000E+00  0.00000000E+00
  0.00000000E+00  0.00000000E+00  0.00000000E+00
