Title                                   
   1.00000000000000     
     4.9440799999999996    0.0000000000000000    0.0000000000000000
     0.0000000000000000   17.1295089999999988    0.0000000000000000
     0.0000000000000000    0.0000000000000000   20.0000000000000000
    30     1
Selective dynamics
Direct
 -0.0009176938011338  0.1042998188369911  0.2908566019378280   T   T   T
  0.2493505061330608  0.1464071284120155  0.2933086491479660   T   T   T
  0.2491293605199239  0.2290213035506335  0.3008176225452658   T   T   T
 -0.0021143159490889  0.2705382401456826  0.3067151901715937   T   T   T
 -0.0021364087799330  0.6043824127128400  0.3069558261473500   T   T   T
  0.2492466902191333  0.7285142695164050  0.2935733031090771   T   T   T
 -0.0008496021946293  0.8539212523765541  0.2878123130082573   T   T   T
  0.2492900331585165  0.8958442984848428  0.2869025455819323   T   T   T
  0.2492902938510471  0.9790997765834368  0.2868437914799412   T   T   T
 -0.0009996375896337  0.7706293606922826  0.2910706847603133   T   T   T
  0.4994827283011367  0.1043537067867960  0.2898453195560236   T   T   T
  0.7492326071396848  0.1459394592945099  0.2920564242163081   T   T   T
  0.7490899889567028  0.2291934512325471  0.2979812080270448   T   T   T
  0.4993734803171200  0.0210325219547617  0.2871569935793397   T   T   T
  0.7526266677570823  0.3935973019309817  0.3127689585850504   T   T   T
  0.7526789292520497  0.4813314017951182  0.3128516134401075   T   T   T
  0.4994644751311742  0.2716637097310322  0.3008436026757065   T   T   T
  0.4994283266432186  0.6032710065461818  0.3011148742253444   T   T   T
  0.7491226330840570  0.7289947080782855  0.2922918543308830   T   T   T
  0.4993563993777981  0.8539023756180151  0.2872962821214897   T   T   T
  0.7492446257719952  0.8957059725552349  0.2866464360944028   T   T   T
  0.7492473560817153  0.9792376652962683  0.2865786259265998   T   T   T
  0.4993755993993155  0.7705701595053382  0.2900509681377313   T   T   T
  0.7490625501762688  0.6457290970640643  0.2982093426814372   T   T   T
  0.2490875813710302  0.6459132524615772  0.3011039603185512   T   T   T
 -0.0008518153325220  0.0210187675325996  0.2876758165186288   T   T   T
  0.5065641549724010  0.5205269006501344  0.3049820864691609   T   T   T
  0.9958452854182555  0.5231901034534649  0.3212465767295582   T   T   T
  0.5065393624777651  0.3544083370533668  0.3047812090062073   T   T   T
 -0.0042182134066943  0.3517153789599084  0.3210973488680826   T   T   T
  0.2709650515431833  0.4373888611881252  0.3636239706027680   T   T   T
 
  0.00000000E+00  0.00000000E+00  0.00000000E+00
  0.00000000E+00  0.00000000E+00  0.00000000E+00
  0.00000000E+00  0.00000000E+00  0.00000000E+00
  0.00000000E+00  0.00000000E+00  0.00000000E+00
  0.00000000E+00  0.00000000E+00  0.00000000E+00
  0.00000000E+00  0.00000000E+00  0.00000000E+00
  0.00000000E+00  0.00000000E+00  0.00000000E+00
  0.00000000E+00  0.00000000E+00  0.00000000E+00
  0.00000000E+00  0.00000000E+00  0.00000000E+00
  0.00000000E+00  0.00000000E+00  0.00000000E+00
  0.00000000E+00  0.00000000E+00  0.00000000E+00
  0.00000000E+00  0.00000000E+00  0.00000000E+00
  0.00000000E+00  0.00000000E+00  0.00000000E+00
  0.00000000E+00  0.00000000E+00  0.00000000E+00
  0.00000000E+00  0.00000000E+00  0.00000000E+00
  0.00000000E+00  0.00000000E+00  0.00000000E+00
  0.00000000E+00  0.00000000E+00  0.00000000E+00
  0.00000000E+00  0.00000000E+00  0.00000000E+00
  0.00000000E+00  0.00000000E+00  0.00000000E+00
  0.00000000E+00  0.00000000E+00  0.00000000E+00
  0.00000000E+00  0.00000000E+00  0.00000000E+00
  0.00000000E+00  0.00000000E+00  0.00000000E+00
  0.00000000E+00  0.00000000E+00  0.00000000E+00
  0.00000000E+00  0.00000000E+00  0.00000000E+00
  0.00000000E+00  0.00000000E+00  0.00000000E+00
  0.00000000E+00  0.00000000E+00  0.00000000E+00
  0.00000000E+00  0.00000000E+00  0.00000000E+00
  0.00000000E+00  0.00000000E+00  0.00000000E+00
  0.00000000E+00  0.00000000E+00  0.00000000E+00
  0.00000000E+00  0.00000000E+00  0.00000000E+00
  0.00000000E+00  0.00000000E+00  0.00000000E+00
