Title                                   
   1.00000000000000     
     8.5490480000000009    0.0000000000000000    0.0000000000000000
     0.0000000000000000    8.5490480000000009    0.0000000000000000
     0.0000000000000000    0.0000000000000000   20.0000000000000000
    22     2     1
Selective dynamics
Direct
  0.9116746351711126  0.2059943234813763  0.0926573215494900   T   T   T
  0.9140505693222870  0.8007586265992407  0.0929371433331709   T   T   T
  0.1963938404817858  0.0817770562068188  0.0937887138266647   T   T   T
  0.0738083766594163  0.2007601036229374  0.0930252305388831   T   T   T
  0.1564965429860305  0.6497517222163069  0.0961748674449723   T   T   T
  0.0754383361569076  0.5015847559106751  0.0963487041005152   T   T   T
  0.1552486218230329  0.3536230233415371  0.0966083028845507   T   T   T
  0.0776607373029388  0.8004146060135660  0.0929937088626959   T   T   T
  0.4931654489850643  0.0860802421939348  0.0967809862391626   T   T   T
  0.3427959253023741  0.1632865483838830  0.0971503431878812   T   T   T
  0.4926309093261138  0.9176221837193128  0.0966600601022986   T   T   T
  0.3442324708054781  0.8360228874256530  0.0966640485274131   T   T   T
  0.7883117965214046  0.0841798955908576  0.0933087375915263   T   T   T
  0.6394515616893380  0.1672980967114886  0.0965933265268471   T   T   T
  0.7894642700676734  0.9212106102709956  0.0933822638236165   T   T   T
  0.8325270350876294  0.6503838675154934  0.0960481972407838   T   T   T
  0.8300463571933272  0.3562708451042787  0.0955742780169554   T   T   T
  0.6403531383244787  0.8363976941532059  0.0968457964765544   T   T   T
  0.3181208876146736  0.3302205344004632  0.1013999985843653   T   T   T
  0.3202172163521477  0.6730677784138922  0.0997131504250198   T   T   T
  0.6667626432107809  0.3340097452265616  0.1007432984355073   T   T   T
  0.6681459177770699  0.6713961216302931  0.1013283994768801   T   T   T
  0.9110197717731424  0.5031274420277330  0.0958458623581849   T   T   T
  0.1964315511710408  0.9174365082957413  0.0932981437405217   T   T   T
  0.4909634388947374  0.5021147815437608  0.1378341167055193   T   T   T
 
  0.00000000E+00  0.00000000E+00  0.00000000E+00
  0.00000000E+00  0.00000000E+00  0.00000000E+00
  0.00000000E+00  0.00000000E+00  0.00000000E+00
  0.00000000E+00  0.00000000E+00  0.00000000E+00
  0.00000000E+00  0.00000000E+00  0.00000000E+00
  0.00000000E+00  0.00000000E+00  0.00000000E+00
  0.00000000E+00  0.00000000E+00  0.00000000E+00
  0.00000000E+00  0.00000000E+00  0.00000000E+00
  0.00000000E+00  0.00000000E+00  0.00000000E+00
  0.00000000E+00  0.00000000E+00  0.00000000E+00
  0.00000000E+00  0.00000000E+00  0.00000000E+00
  0.00000000E+00  0.00000000E+00  0.00000000E+00
  0.00000000E+00  0.00000000E+00  0.00000000E+00
  0.00000000E+00  0.00000000E+00  0.00000000E+00
  0.00000000E+00  0.00000000E+00  0.00000000E+00
  0.00000000E+00  0.00000000E+00  0.00000000E+00
  0.00000000E+00  0.00000000E+00  0.00000000E+00
  0.00000000E+00  0.00000000E+00  0.00000000E+00
  0.00000000E+00  0.00000000E+00  0.00000000E+00
  0.00000000E+00  0.00000000E+00  0.00000000E+00
  0.00000000E+00  0.00000000E+00  0.00000000E+00
  0.00000000E+00  0.00000000E+00  0.00000000E+00
  0.00000000E+00  0.00000000E+00  0.00000000E+00
  0.00000000E+00  0.00000000E+00  0.00000000E+00
  0.00000000E+00  0.00000000E+00  0.00000000E+00
