Title                                   
   1.00000000000000     
     9.8694509999999998    0.0000000000000000    0.0000000000000000
     0.0000000000000000    8.5490480000000009    0.0000000000000000
     0.0000000000000000    0.0000000000000000   20.0000000000000000
    28     3     1
Selective dynamics
Direct
  0.0568534972158315  0.0919709683932472  0.0848555125047609   T   T   T
  0.9315889513482360  0.1749001631326325  0.0851181583607238   T   T   T
  0.0586965271743982  0.9250094692660642  0.0829172339186524   T   T   T
  0.9303079970885838  0.3431160799988743  0.0871425030343038   T   T   T
  0.0578126689559094  0.5916590826771582  0.0872502183925420   T   T   T
  0.9333154287961903  0.6748215880505537  0.0825677475976082   T   T   T
  0.0573969156733184  0.4242538591841856  0.0891318926864582   T   T   T
  0.9335920544058351  0.8410862240632537  0.0806815792836079   T   T   T
  0.3066410488985776  0.0885425120531534  0.0906300969540029   T   T   T
  0.1832053907088797  0.1737614901387897  0.0899240149042902   T   T   T
  0.1829188107681394  0.3407605540365303  0.0951495895797940   T   T   T
  0.3043716429764391  0.5899971201173563  0.1098902411908374   T   T   T
  0.1830733332464416  0.6745006428518494  0.0924604200433483   T   T   T
  0.3064758033208755  0.4213832776035290  0.1090661792460687   T   T   T
  0.1827274457756861  0.8412247347291715  0.0879507579155524   T   T   T
  0.5564060713576676  0.0851346691043161  0.0920567919200472   T   T   T
  0.5560817144922404  0.9197890449678401  0.0930290661908488   T   T   T
  0.4316948440727851  0.3304487708918574  0.1133706608069719   T   T   T
  0.4286091763771074  0.8402600674356501  0.1042991608156311   T   T   T
  0.8063404336983789  0.0898917600264534  0.0832907019875912   T   T   T
  0.6802258132732741  0.1716236458322276  0.0889696479787751   T   T   T
  0.8077972763267538  0.9241962924481446  0.0811172497888852   T   T   T
  0.6811202048322352  0.3367839994809430  0.1007372653505113   T   T   T
  0.8049422202935287  0.5960063036645266  0.0846439162482709   T   T   T
  0.8040033243451138  0.4260990571878252  0.0905496648899183   T   T   T
  0.6845031454871627  0.8356014658858217  0.0846009393322250   T   T   T
  0.4162552134755228  0.6872066121698350  0.1256850401346096   T   T   T
  0.5582154555466106  0.3968395014179685  0.1263780272008474   T   T   T
  0.6872451531988034  0.6774742927813936  0.0836715156316108   T   T   T
  0.3067254100373460  0.9256908425040311  0.0902879471317718   T   T   T
  0.4302616344022653  0.1671211267297190  0.0961046760935604   T   T   T
  0.5502343924298686  0.5830907811750998  0.1921465828853893   T   T   T
 
  0.00000000E+00  0.00000000E+00  0.00000000E+00
  0.00000000E+00  0.00000000E+00  0.00000000E+00
  0.00000000E+00  0.00000000E+00  0.00000000E+00
  0.00000000E+00  0.00000000E+00  0.00000000E+00
  0.00000000E+00  0.00000000E+00  0.00000000E+00
  0.00000000E+00  0.00000000E+00  0.00000000E+00
  0.00000000E+00  0.00000000E+00  0.00000000E+00
  0.00000000E+00  0.00000000E+00  0.00000000E+00
  0.00000000E+00  0.00000000E+00  0.00000000E+00
  0.00000000E+00  0.00000000E+00  0.00000000E+00
  0.00000000E+00  0.00000000E+00  0.00000000E+00
  0.00000000E+00  0.00000000E+00  0.00000000E+00
  0.00000000E+00  0.00000000E+00  0.00000000E+00
  0.00000000E+00  0.00000000E+00  0.00000000E+00
  0.00000000E+00  0.00000000E+00  0.00000000E+00
  0.00000000E+00  0.00000000E+00  0.00000000E+00
  0.00000000E+00  0.00000000E+00  0.00000000E+00
  0.00000000E+00  0.00000000E+00  0.00000000E+00
  0.00000000E+00  0.00000000E+00  0.00000000E+00
  0.00000000E+00  0.00000000E+00  0.00000000E+00
  0.00000000E+00  0.00000000E+00  0.00000000E+00
  0.00000000E+00  0.00000000E+00  0.00000000E+00
  0.00000000E+00  0.00000000E+00  0.00000000E+00
  0.00000000E+00  0.00000000E+00  0.00000000E+00
  0.00000000E+00  0.00000000E+00  0.00000000E+00
  0.00000000E+00  0.00000000E+00  0.00000000E+00
  0.00000000E+00  0.00000000E+00  0.00000000E+00
  0.00000000E+00  0.00000000E+00  0.00000000E+00
  0.00000000E+00  0.00000000E+00  0.00000000E+00
  0.00000000E+00  0.00000000E+00  0.00000000E+00
  0.00000000E+00  0.00000000E+00  0.00000000E+00
  0.00000000E+00  0.00000000E+00  0.00000000E+00
