Title                                   
   1.00000000000000     
     9.8694509999999998    0.0000000000000000    0.0000000000000000
     0.0000000000000000    8.5490480000000009    0.0000000000000000
     0.0000000000000000    0.0000000000000000   20.0000000000000000
    27     4     1
Selective dynamics
Direct
  0.0560429313919801  0.0920407628784610  0.0836119635139190   T   T   T
  0.9304096327756712  0.1748199317725889  0.0865356749034536   T   T   T
  0.0572877516890850  0.9242223640403933  0.0827412683442960   T   T   T
  0.9285575753433408  0.3422695020215691  0.0909088766677719   T   T   T
  0.0556883794896858  0.5898194952715533  0.0864164661915602   T   T   T
  0.9320528118694308  0.6739094409138531  0.0879232231821379   T   T   T
  0.0564684494997907  0.4235799875374077  0.0896383376854323   T   T   T
  0.9320115658140051  0.8415010150766058  0.0850198280399586   T   T   T
  0.3054885024667340  0.0884187259868900  0.0854759017688856   T   T   T
  0.1822751947748952  0.1745708400712077  0.0858162413639711   T   T   T
  0.3076765377908341  0.9225324038063845  0.0868910315502015   T   T   T
  0.1824621890957190  0.3403144178113859  0.0908169705826287   T   T   T
  0.3049125285110526  0.5902044175169928  0.0993372372704458   T   T   T
  0.1818109485955651  0.6713353383560839  0.0873825426132921   T   T   T
  0.1821542868742926  0.8388034163623510  0.0848297581818995   T   T   T
  0.5559718307184458  0.0844204446535341  0.0950023187078980   T   T   T
  0.4310816281636046  0.1682894078391283  0.0915906132743888   T   T   T
  0.4320887526751004  0.3334175910937773  0.0999738679956616   T   T   T
  0.4289876479884016  0.8383105062992477  0.0991979663118646   T   T   T
  0.8066738950355919  0.0903756124315163  0.0867987280467963   T   T   T
  0.6802299166901441  0.1696877962757565  0.0935188988278550   T   T   T
  0.8069272780277633  0.9248442218956854  0.0867361025786564   T   T   T
  0.6769441744888723  0.3335618357658728  0.1020180158536836   T   T   T
  0.8074695644559223  0.5952051036179871  0.0993808052791342   T   T   T
  0.8013541134572518  0.4260520712058672  0.0987328609911944   T   T   T
  0.6844358925626353  0.8406735917293808  0.0976161288405700   T   T   T
  0.4204601332450210  0.6790366178901251  0.1197142682480016   T   T   T
  0.5516960723033669  0.4027174680210835  0.1178769430238841   T   T   T
  0.6939685657497423  0.6865338308948423  0.1153695948347670   T   T   T
  0.5573044527089607  0.9191939530310526  0.0986266247751054   T   T   T
  0.3078439202410081  0.4219946272889475  0.0980197184643124   T   T   T
  0.5609018755060913  0.5875892606424673  0.1721562220863888   T   T   T
 
  0.00000000E+00  0.00000000E+00  0.00000000E+00
  0.00000000E+00  0.00000000E+00  0.00000000E+00
  0.00000000E+00  0.00000000E+00  0.00000000E+00
  0.00000000E+00  0.00000000E+00  0.00000000E+00
  0.00000000E+00  0.00000000E+00  0.00000000E+00
  0.00000000E+00  0.00000000E+00  0.00000000E+00
  0.00000000E+00  0.00000000E+00  0.00000000E+00
  0.00000000E+00  0.00000000E+00  0.00000000E+00
  0.00000000E+00  0.00000000E+00  0.00000000E+00
  0.00000000E+00  0.00000000E+00  0.00000000E+00
  0.00000000E+00  0.00000000E+00  0.00000000E+00
  0.00000000E+00  0.00000000E+00  0.00000000E+00
  0.00000000E+00  0.00000000E+00  0.00000000E+00
  0.00000000E+00  0.00000000E+00  0.00000000E+00
  0.00000000E+00  0.00000000E+00  0.00000000E+00
  0.00000000E+00  0.00000000E+00  0.00000000E+00
  0.00000000E+00  0.00000000E+00  0.00000000E+00
  0.00000000E+00  0.00000000E+00  0.00000000E+00
  0.00000000E+00  0.00000000E+00  0.00000000E+00
  0.00000000E+00  0.00000000E+00  0.00000000E+00
  0.00000000E+00  0.00000000E+00  0.00000000E+00
  0.00000000E+00  0.00000000E+00  0.00000000E+00
  0.00000000E+00  0.00000000E+00  0.00000000E+00
  0.00000000E+00  0.00000000E+00  0.00000000E+00
  0.00000000E+00  0.00000000E+00  0.00000000E+00
  0.00000000E+00  0.00000000E+00  0.00000000E+00
  0.00000000E+00  0.00000000E+00  0.00000000E+00
  0.00000000E+00  0.00000000E+00  0.00000000E+00
  0.00000000E+00  0.00000000E+00  0.00000000E+00
  0.00000000E+00  0.00000000E+00  0.00000000E+00
  0.00000000E+00  0.00000000E+00  0.00000000E+00
  0.00000000E+00  0.00000000E+00  0.00000000E+00
