Title                                   
   1.00000000000000     
     9.8694509999999998    0.0000000000000000    0.0000000000000000
     0.0000000000000000    8.5490480000000009    0.0000000000000000
     0.0000000000000000    0.0000000000000000   20.0000000000000000
    28     3     1
Selective dynamics
Direct
  0.0562367191428016  0.0908164870744555  0.0841409448204853   T   T   T
  0.9305245705728190  0.1738219366436627  0.0873081099432501   T   T   T
  0.0562337519232252  0.9229331707399722  0.0824688410300722   T   T   T
  0.9309007517469159  0.3397012350637983  0.0922593913258684   T   T   T
  0.0562008636420650  0.5895805849766190  0.0863337705639417   T   T   T
  0.9316349229834621  0.6711820196296320  0.0872465510312453   T   T   T
  0.0562324286799671  0.4224024618357020  0.0906687960275495   T   T   T
  0.9306696502442537  0.8387466695887708  0.0847470299254343   T   T   T
  0.3055914524328535  0.0890846661586792  0.0861742416672595   T   T   T
  0.1820341405263589  0.1737903839444459  0.0867296287061581   T   T   T
  0.3067845533559163  0.9237750632831034  0.0864130809435166   T   T   T
  0.1816048312660916  0.3396643254025990  0.0916909353658797   T   T   T
  0.3048474383623297  0.5893572031056914  0.0982189105024038   T   T   T
  0.1808183339522207  0.6711688050078002  0.0866181026872034   T   T   T
  0.1818408427044552  0.8387219705131196  0.0841806257857796   T   T   T
  0.5562704650089367  0.0885265979572956  0.0947488356643121   T   T   T
  0.4307899282227803  0.1710052796474098  0.0927188541972590   T   T   T
  0.4308378994261358  0.3359001862419589  0.1020077356370570   T   T   T
  0.4299937704256853  0.8412450185750610  0.0977133899327895   T   T   T
  0.8070148376625698  0.0890975116050156  0.0870093753288979   T   T   T
  0.6818106117922571  0.1710207294718949  0.0933425666302155   T   T   T
  0.8057863321832444  0.9238020269910657  0.0872072898340542   T   T   T
  0.6816698676488052  0.3359081262604153  0.1026038416895229   T   T   T
  0.8077431031327471  0.5894234840676137  0.0992125143741861   T   T   T
  0.6825442349075725  0.8412999237358056  0.0984370238927559   T   T   T
  0.4199513914726732  0.6804223223319740  0.1144350903400819   T   T   T
  0.5560827463424505  0.4076277731509104  0.1187453948227269   T   T   T
  0.6925892666667388  0.6805204870811911  0.1153361692200915   T   T   T
  0.5562580055914164  0.9226456586578290  0.0975597876278712   T   T   T
  0.3063169975693821  0.4219703683185742  0.0981784334776612   T   T   T
  0.8062439489905450  0.4219936870868495  0.0991076740406937   T   T   T
  0.5555803414203304  0.5930898358510867  0.1721120629637925   T   T   T
 
  0.00000000E+00  0.00000000E+00  0.00000000E+00
  0.00000000E+00  0.00000000E+00  0.00000000E+00
  0.00000000E+00  0.00000000E+00  0.00000000E+00
  0.00000000E+00  0.00000000E+00  0.00000000E+00
  0.00000000E+00  0.00000000E+00  0.00000000E+00
  0.00000000E+00  0.00000000E+00  0.00000000E+00
  0.00000000E+00  0.00000000E+00  0.00000000E+00
  0.00000000E+00  0.00000000E+00  0.00000000E+00
  0.00000000E+00  0.00000000E+00  0.00000000E+00
  0.00000000E+00  0.00000000E+00  0.00000000E+00
  0.00000000E+00  0.00000000E+00  0.00000000E+00
  0.00000000E+00  0.00000000E+00  0.00000000E+00
  0.00000000E+00  0.00000000E+00  0.00000000E+00
  0.00000000E+00  0.00000000E+00  0.00000000E+00
  0.00000000E+00  0.00000000E+00  0.00000000E+00
  0.00000000E+00  0.00000000E+00  0.00000000E+00
  0.00000000E+00  0.00000000E+00  0.00000000E+00
  0.00000000E+00  0.00000000E+00  0.00000000E+00
  0.00000000E+00  0.00000000E+00  0.00000000E+00
  0.00000000E+00  0.00000000E+00  0.00000000E+00
  0.00000000E+00  0.00000000E+00  0.00000000E+00
  0.00000000E+00  0.00000000E+00  0.00000000E+00
  0.00000000E+00  0.00000000E+00  0.00000000E+00
  0.00000000E+00  0.00000000E+00  0.00000000E+00
  0.00000000E+00  0.00000000E+00  0.00000000E+00
  0.00000000E+00  0.00000000E+00  0.00000000E+00
  0.00000000E+00  0.00000000E+00  0.00000000E+00
  0.00000000E+00  0.00000000E+00  0.00000000E+00
  0.00000000E+00  0.00000000E+00  0.00000000E+00
  0.00000000E+00  0.00000000E+00  0.00000000E+00
  0.00000000E+00  0.00000000E+00  0.00000000E+00
  0.00000000E+00  0.00000000E+00  0.00000000E+00
