Title                                   
   1.00000000000000     
     8.5490480000000009    0.0000000000000000    0.0000000000000000
     0.0000000000000000    8.5490480000000009    0.0000000000000000
     0.0000000000000000    0.0000000000000000   20.0000000000000000
    24     1
Selective dynamics
Direct
  0.9110195966781020  0.2062235306899973  0.0954426819136944   T   T   T
  0.9089636295832836  0.5018045469370404  0.0953033740604705   T   T   T
  0.9110500069001942  0.7973591236130856  0.0954539817134316   T   T   T
  0.1974742783692041  0.0837685210325670  0.0954698890196933   T   T   T
  0.0750052572219212  0.2062050739061845  0.0954520105490215   T   T   T
  0.1974790234682235  0.9197869814048937  0.0954796521966095   T   T   T
  0.1585487777731819  0.6478189161139621  0.0953534502257621   T   T   T
  0.0770755102848074  0.5017994913728402  0.0953261466014465   T   T   T
  0.1585343345508421  0.3557590534720707  0.0953331613099634   T   T   T
  0.0750274187082186  0.7973480133566516  0.0954679623733668   T   T   T
  0.4930055693826065  0.0858429450275945  0.0953556367208278   T   T   T
  0.3469917182003792  0.1673199158780104  0.0953572666265971   T   T   T
  0.4930065760459401  0.9177372597320613  0.0953605307351977   T   T   T
  0.3469963470457366  0.8362466229686083  0.0953675798074868   T   T   T
  0.7885808547943064  0.0837884262110883  0.0954554167997892   T   T   T
  0.6390235341242477  0.1673366933572535  0.0953299956085595   T   T   T
  0.7886055440047379  0.9198030560885494  0.0954611956137654   T   T   T
  0.8274864260117719  0.6478329880022289  0.0953110263508497   T   T   T
  0.8274713046366092  0.3557771130597916  0.0953030378606853   T   T   T
  0.6390467467400706  0.8362674130034533  0.0953292970675279   T   T   T
  0.3255788003456487  0.3343514509930073  0.0952415931900348   T   T   T
  0.3255952500020367  0.6692070228146368  0.0952577289074958   T   T   T
  0.6604220280810990  0.3343614529255791  0.0952044288879519   T   T   T
  0.6604365490832325  0.6692383770915389  0.0952102661796897   T   T   T
  0.4929869179635916  0.5018060109473184  0.0950776896800597   T   T   T
 
  0.00000000E+00  0.00000000E+00  0.00000000E+00
  0.00000000E+00  0.00000000E+00  0.00000000E+00
  0.00000000E+00  0.00000000E+00  0.00000000E+00
  0.00000000E+00  0.00000000E+00  0.00000000E+00
  0.00000000E+00  0.00000000E+00  0.00000000E+00
  0.00000000E+00  0.00000000E+00  0.00000000E+00
  0.00000000E+00  0.00000000E+00  0.00000000E+00
  0.00000000E+00  0.00000000E+00  0.00000000E+00
  0.00000000E+00  0.00000000E+00  0.00000000E+00
  0.00000000E+00  0.00000000E+00  0.00000000E+00
  0.00000000E+00  0.00000000E+00  0.00000000E+00
  0.00000000E+00  0.00000000E+00  0.00000000E+00
  0.00000000E+00  0.00000000E+00  0.00000000E+00
  0.00000000E+00  0.00000000E+00  0.00000000E+00
  0.00000000E+00  0.00000000E+00  0.00000000E+00
  0.00000000E+00  0.00000000E+00  0.00000000E+00
  0.00000000E+00  0.00000000E+00  0.00000000E+00
  0.00000000E+00  0.00000000E+00  0.00000000E+00
  0.00000000E+00  0.00000000E+00  0.00000000E+00
  0.00000000E+00  0.00000000E+00  0.00000000E+00
  0.00000000E+00  0.00000000E+00  0.00000000E+00
  0.00000000E+00  0.00000000E+00  0.00000000E+00
  0.00000000E+00  0.00000000E+00  0.00000000E+00
  0.00000000E+00  0.00000000E+00  0.00000000E+00
  0.00000000E+00  0.00000000E+00  0.00000000E+00
