Title                                   
   1.00000000000000     
     9.8694509999999998    0.0000000000000000    0.0000000000000000
     0.0000000000000000    8.5490480000000009    0.0000000000000000
     0.0000000000000000    0.0000000000000000   20.0000000000000000
    29     1     1
Selective dynamics
Direct
  0.0560135146188826  0.0888352046429249  0.0898182893748320   T   T   T
  0.9315066911369239  0.1718506902677707  0.0904777733925337   T   T   T
  0.0571811946064250  0.9241957759933145  0.0900758784575851   T   T   T
  0.9336220541007842  0.3384183947271910  0.0895559597950411   T   T   T
  0.0566909310170444  0.5899823738084080  0.0881816433081359   T   T   T
  0.9336736124353587  0.6743568331746577  0.0897379149883386   T   T   T
  0.0568225773504190  0.4231905128496683  0.0880839605058672   T   T   T
  0.9319823214021771  0.8404138500165123  0.0907590989194449   T   T   T
  0.3059758267222907  0.0886888401531961  0.0953091523310896   T   T   T
  0.1810555290121826  0.1706262600738122  0.0911880961693223   T   T   T
  0.1796646512778460  0.3376721089172898  0.0906347119948540   T   T   T
  0.3009590288510360  0.5905007261648570  0.0959272578358994   T   T   T
  0.1802171691720536  0.6750821364841941  0.0908015591723065   T   T   T
  0.3011019697182051  0.4212733630632155  0.0959210016254837   T   T   T
  0.1820657771988758  0.8416533335647287  0.0915456676461151   T   T   T
  0.5563604367563875  0.0888864192589092  0.1004972449405538   T   T   T
  0.4297516158540528  0.1759236434490916  0.0999382249463374   T   T   T
  0.5552109742342952  0.9237777485595646  0.1002845362928997   T   T   T
  0.4251213173807906  0.3416054482847323  0.1016189782429398   T   T   T
  0.4244500769694268  0.6710825993804121  0.1015152756399538   T   T   T
  0.4288237046351273  0.8352425303097674  0.0996514352190528   T   T   T
  0.8062466736546328  0.0898658581415714  0.0941841292663847   T   T   T
  0.6820820289249607  0.1776806760462225  0.0983883163087400   T   T   T
  0.8062853263329400  0.9220968855177410  0.0942429743346190   T   T   T
  0.6868879394478670  0.3432065028067094  0.0989756446078750   T   T   T
  0.8117352196796617  0.5907300566513800  0.0935549663083754   T   T   T
  0.6868211838456628  0.6690451890358586  0.0989994741242678   T   T   T
  0.8118392057791826  0.4219556821186790  0.0934828005942586   T   T   T
  0.6815512984442754  0.8341000384348717  0.0982974233367395   T   T   T
  0.3054587872793297  0.9226866802703689  0.0951950552137248   T   T   T
  0.5559763621609026  0.5062486378323989  0.1041205551064559   T   T   T
 
  0.00000000E+00  0.00000000E+00  0.00000000E+00
  0.00000000E+00  0.00000000E+00  0.00000000E+00
  0.00000000E+00  0.00000000E+00  0.00000000E+00
  0.00000000E+00  0.00000000E+00  0.00000000E+00
  0.00000000E+00  0.00000000E+00  0.00000000E+00
  0.00000000E+00  0.00000000E+00  0.00000000E+00
  0.00000000E+00  0.00000000E+00  0.00000000E+00
  0.00000000E+00  0.00000000E+00  0.00000000E+00
  0.00000000E+00  0.00000000E+00  0.00000000E+00
  0.00000000E+00  0.00000000E+00  0.00000000E+00
  0.00000000E+00  0.00000000E+00  0.00000000E+00
  0.00000000E+00  0.00000000E+00  0.00000000E+00
  0.00000000E+00  0.00000000E+00  0.00000000E+00
  0.00000000E+00  0.00000000E+00  0.00000000E+00
  0.00000000E+00  0.00000000E+00  0.00000000E+00
  0.00000000E+00  0.00000000E+00  0.00000000E+00
  0.00000000E+00  0.00000000E+00  0.00000000E+00
  0.00000000E+00  0.00000000E+00  0.00000000E+00
  0.00000000E+00  0.00000000E+00  0.00000000E+00
  0.00000000E+00  0.00000000E+00  0.00000000E+00
  0.00000000E+00  0.00000000E+00  0.00000000E+00
  0.00000000E+00  0.00000000E+00  0.00000000E+00
  0.00000000E+00  0.00000000E+00  0.00000000E+00
  0.00000000E+00  0.00000000E+00  0.00000000E+00
  0.00000000E+00  0.00000000E+00  0.00000000E+00
  0.00000000E+00  0.00000000E+00  0.00000000E+00
  0.00000000E+00  0.00000000E+00  0.00000000E+00
  0.00000000E+00  0.00000000E+00  0.00000000E+00
  0.00000000E+00  0.00000000E+00  0.00000000E+00
  0.00000000E+00  0.00000000E+00  0.00000000E+00
  0.00000000E+00  0.00000000E+00  0.00000000E+00
