Title                                   
   1.00000000000000     
     4.9440799999999996    0.0000000000000000    0.0000000000000000
     0.0000000000000000   17.1295089999999988    0.0000000000000000
     0.0000000000000000    0.0000000000000000   20.0000000000000000
    27     4     1
Selective dynamics
Direct
  0.0001835493684350  0.1040708077811790  0.3001788329208116   T   T   T
  0.2503183769897386  0.1463507924808119  0.3019155709218669   T   T   T
  0.2497499841574712  0.2297323272249810  0.3056401063761710   T   T   T
  0.0011355624839096  0.3534871821105332  0.3115582645955024   T   T   T
 -0.0019683925880560  0.2714551396940288  0.3057515971171048   T   T   T
 -0.0035000670867989  0.5997414724456253  0.2824099341969890   T   T   T
  0.2533172840211496  0.7253617597903379  0.2936788445649025   T   T   T
  0.0029509148999199  0.8520047500767615  0.2964986902923100   T   T   T
  0.2521304119678492  0.8943490321072978  0.2974164763777246   T   T   T
  0.2514068547653455  0.9781500073953955  0.2984902241956796   T   T   T
  0.0044935207767030  0.7681993477896215  0.2943426310201139   T   T   T
  0.5002993605561923  0.1039502240498033  0.3003342492578642   T   T   T
  0.7495640936665354  0.1462358401740403  0.3005265180786117   T   T   T
  0.7484332359236678  0.2297329020491616  0.3024436269410585   T   T   T
  0.5011900816884990  0.0202188783833302  0.2989897910890911   T   T   T
  0.4952462777339683  0.3553968754670857  0.3116183405848438   T   T   T
  0.7744129517852812  0.4827809570393503  0.3086289290145765   T   T   T
  0.4996420186037314  0.2723941238405161  0.3063107452406049   T   T   T
  0.5108566512553876  0.5999428773609152  0.2917169967731488   T   T   T
  0.7530804177045669  0.7268092052303077  0.2942089180609892   T   T   T
  0.5015788951414792  0.8520881353500672  0.2971194389615498   T   T   T
  0.7519171556340999  0.8940839502306830  0.2974096286462602   T   T   T
  0.7513854513737499  0.9779662809103564  0.2982820977287631   T   T   T
  0.5015294171825112  0.7680652604167671  0.2957805108891522   T   T   T
  0.7543956610701377  0.6440266731740677  0.2920551643722056   T   T   T
  0.2540531180164401  0.6399485415230126  0.2884243490853600   T   T   T
  0.0011018200683160  0.0203593669337880  0.2988066633171974   T   T   T
  0.5235529719734596  0.5193004615799860  0.2979502714229407   T   T   T
  0.9871215918220035  0.5175700764038307  0.2654058955610205   T   T   T
  0.2446355440024952  0.3935345203001850  0.3240447768663646   T   T   T
  0.7504808099325713  0.3961044993075750  0.3072006107225695   T   T   T
  0.1821274751092464  0.5151387313785928  0.3574263048066036   T   T   T
 
  0.00000000E+00  0.00000000E+00  0.00000000E+00
  0.00000000E+00  0.00000000E+00  0.00000000E+00
  0.00000000E+00  0.00000000E+00  0.00000000E+00
  0.00000000E+00  0.00000000E+00  0.00000000E+00
  0.00000000E+00  0.00000000E+00  0.00000000E+00
  0.00000000E+00  0.00000000E+00  0.00000000E+00
  0.00000000E+00  0.00000000E+00  0.00000000E+00
  0.00000000E+00  0.00000000E+00  0.00000000E+00
  0.00000000E+00  0.00000000E+00  0.00000000E+00
  0.00000000E+00  0.00000000E+00  0.00000000E+00
  0.00000000E+00  0.00000000E+00  0.00000000E+00
  0.00000000E+00  0.00000000E+00  0.00000000E+00
  0.00000000E+00  0.00000000E+00  0.00000000E+00
  0.00000000E+00  0.00000000E+00  0.00000000E+00
  0.00000000E+00  0.00000000E+00  0.00000000E+00
  0.00000000E+00  0.00000000E+00  0.00000000E+00
  0.00000000E+00  0.00000000E+00  0.00000000E+00
  0.00000000E+00  0.00000000E+00  0.00000000E+00
  0.00000000E+00  0.00000000E+00  0.00000000E+00
  0.00000000E+00  0.00000000E+00  0.00000000E+00
  0.00000000E+00  0.00000000E+00  0.00000000E+00
  0.00000000E+00  0.00000000E+00  0.00000000E+00
  0.00000000E+00  0.00000000E+00  0.00000000E+00
  0.00000000E+00  0.00000000E+00  0.00000000E+00
  0.00000000E+00  0.00000000E+00  0.00000000E+00
  0.00000000E+00  0.00000000E+00  0.00000000E+00
  0.00000000E+00  0.00000000E+00  0.00000000E+00
  0.00000000E+00  0.00000000E+00  0.00000000E+00
  0.00000000E+00  0.00000000E+00  0.00000000E+00
  0.00000000E+00  0.00000000E+00  0.00000000E+00
  0.00000000E+00  0.00000000E+00  0.00000000E+00
  0.00000000E+00  0.00000000E+00  0.00000000E+00
