Title                                   
   1.00000000000000     
     8.5490480000000009    0.0000000000000000    0.0000000000000000
     0.0000000000000000    8.5490480000000009    0.0000000000000000
     0.0000000000000000    0.0000000000000000   20.0000000000000000
    22     2     1
Selective dynamics
Direct
  0.9076201312282771  0.2080723639752207  0.0986517576059894   T   T   T
  0.9080251270539330  0.5035462891450786  0.0961482953348360   T   T   T
  0.9129676937584680  0.7997179190122843  0.0965655326413483   T   T   T
  0.1950840079986289  0.0818946661112176  0.0966282147621147   T   T   T
  0.0730897362397260  0.2038475913767751  0.0965861573078733   T   T   T
  0.1993472219731516  0.9164312844802159  0.0988072426968632   T   T   T
  0.1594545684828984  0.6450949989096534  0.0993476820902719   T   T   T
  0.0780563869219178  0.5000381037284147  0.0962275619767578   T   T   T
  0.1557701065597527  0.3508085712669083  0.0935530261713922   T   T   T
  0.0784173197755243  0.7955178047964502  0.0987999912547637   T   T   T
  0.4912130821754399  0.0867897199405117  0.0961411523894656   T   T   T
  0.3420270626092138  0.1645923800267968  0.0935417192695675   T   T   T
  0.4947759691598239  0.9167700659996111  0.0961720251253792   T   T   T
  0.3497477920451316  0.8353821592241086  0.0993312678626898   T   T   T
  0.7866870171696858  0.0871587912810572  0.0986170081560969   T   T   T
  0.6362651561554136  0.1681989042660567  0.0990980122787970   T   T   T
  0.7909710271674827  0.9216856049961496  0.0965019363368583   T   T   T
  0.8302740336754117  0.6527508640481154  0.0934832868272208   T   T   T
  0.8265978860486619  0.3584936638582891  0.0991230934218349   T   T   T
  0.6440162492757194  0.8389953481864642  0.0934459035593004   T   T   T
  0.3263840540717195  0.6684442313220400  0.1010393919050729   T   T   T
  0.6596389300927815  0.3351582771670329  0.1007449788123134   T   T   T
  0.3175713349491711  0.3263512130667970  0.0879455933744344   T   T   T
  0.6685048576386117  0.6772105813510101  0.0878619097952708   T   T   T
  0.4929052477734480  0.5018386024637540  0.0693422590434655   T   T   T
 
  0.00000000E+00  0.00000000E+00  0.00000000E+00
  0.00000000E+00  0.00000000E+00  0.00000000E+00
  0.00000000E+00  0.00000000E+00  0.00000000E+00
  0.00000000E+00  0.00000000E+00  0.00000000E+00
  0.00000000E+00  0.00000000E+00  0.00000000E+00
  0.00000000E+00  0.00000000E+00  0.00000000E+00
  0.00000000E+00  0.00000000E+00  0.00000000E+00
  0.00000000E+00  0.00000000E+00  0.00000000E+00
  0.00000000E+00  0.00000000E+00  0.00000000E+00
  0.00000000E+00  0.00000000E+00  0.00000000E+00
  0.00000000E+00  0.00000000E+00  0.00000000E+00
  0.00000000E+00  0.00000000E+00  0.00000000E+00
  0.00000000E+00  0.00000000E+00  0.00000000E+00
  0.00000000E+00  0.00000000E+00  0.00000000E+00
  0.00000000E+00  0.00000000E+00  0.00000000E+00
  0.00000000E+00  0.00000000E+00  0.00000000E+00
  0.00000000E+00  0.00000000E+00  0.00000000E+00
  0.00000000E+00  0.00000000E+00  0.00000000E+00
  0.00000000E+00  0.00000000E+00  0.00000000E+00
  0.00000000E+00  0.00000000E+00  0.00000000E+00
  0.00000000E+00  0.00000000E+00  0.00000000E+00
  0.00000000E+00  0.00000000E+00  0.00000000E+00
  0.00000000E+00  0.00000000E+00  0.00000000E+00
  0.00000000E+00  0.00000000E+00  0.00000000E+00
  0.00000000E+00  0.00000000E+00  0.00000000E+00
