Title                                   
   1.00000000000000     
     9.8694509999999998    0.0000000000000000    0.0000000000000000
     0.0000000000000000    8.5490480000000009    0.0000000000000000
     0.0000000000000000    0.0000000000000000   20.0000000000000000
    26     5     1
Selective dynamics
Direct
  0.0558905088270923  0.0920889969238242  0.0885941684310678   T   T   T
  0.9297763901951034  0.1757967868785851  0.0894207632470632   T   T   T
  0.0567814995440117  0.9235749340231538  0.0878048061588031   T   T   T
  0.9288156979727462  0.3420114323208113  0.0905924061095088   T   T   T
  0.0563105232438398  0.5900765268970446  0.0879917465900232   T   T   T
  0.9317424869020982  0.6721789277158544  0.0877469581626511   T   T   T
  0.0554343802920523  0.4230342520952146  0.0908666046616381   T   T   T
  0.9316614643837755  0.8400391637977321  0.0880599074715686   T   T   T
  0.3053178054495505  0.0884012533642751  0.0910397140746953   T   T   T
  0.1819229199308098  0.1740786567481167  0.0904843843513243   T   T   T
  0.3072435527963991  0.9226641585826714  0.0919873665537481   T   T   T
  0.1817673330233301  0.3400514644686835  0.0930833898565035   T   T   T
  0.3065062554445198  0.5896436293055098  0.1008142640057811   T   T   T
  0.1814496786456095  0.6705668173331895  0.0905511346844365   T   T   T
  0.1823347238107367  0.8386988594047466  0.0898588417020494   T   T   T
  0.5566766531700360  0.0861576531528297  0.0958121850220456   T   T   T
  0.4308237228089049  0.1690555227055228  0.0946183298544159   T   T   T
  0.4335611812029575  0.3348180736579853  0.0980584069292260   T   T   T
  0.4304777218102308  0.8383707087377628  0.1017471632724440   T   T   T
  0.8068424198747021  0.0900172911252629  0.0899636875824125   T   T   T
  0.6807896132954617  0.1708095978817188  0.0929685172920292   T   T   T
  0.8068032800308825  0.9247865906959150  0.0904169577685276   T   T   T
  0.6758122770891393  0.3366785693242322  0.0943853175768719   T   T   T
  0.8046133777831367  0.5949277385065826  0.0918706172733722   T   T   T
  0.6848094318425317  0.8385150803535130  0.0966659191675759   T   T   T
  0.4228646333229794  0.6776209768248362  0.1175542956080774   T   T   T
  0.5541858400692063  0.4124599131987004  0.1015144564529063   T   T   T
  0.6882332265668482  0.6793056743574762  0.1001822802041621   T   T   T
  0.5575363924941320  0.9193632839748155  0.0989296240476496   T   T   T
  0.3088465394455308  0.4218497174538315  0.0980303475883183   T   T   T
  0.7998149423162806  0.4259754293863308  0.0918540308976462   T   T   T
  0.5639925264153711  0.5866283188032742  0.1722064074014737   T   T   T
 
  0.00000000E+00  0.00000000E+00  0.00000000E+00
  0.00000000E+00  0.00000000E+00  0.00000000E+00
  0.00000000E+00  0.00000000E+00  0.00000000E+00
  0.00000000E+00  0.00000000E+00  0.00000000E+00
  0.00000000E+00  0.00000000E+00  0.00000000E+00
  0.00000000E+00  0.00000000E+00  0.00000000E+00
  0.00000000E+00  0.00000000E+00  0.00000000E+00
  0.00000000E+00  0.00000000E+00  0.00000000E+00
  0.00000000E+00  0.00000000E+00  0.00000000E+00
  0.00000000E+00  0.00000000E+00  0.00000000E+00
  0.00000000E+00  0.00000000E+00  0.00000000E+00
  0.00000000E+00  0.00000000E+00  0.00000000E+00
  0.00000000E+00  0.00000000E+00  0.00000000E+00
  0.00000000E+00  0.00000000E+00  0.00000000E+00
  0.00000000E+00  0.00000000E+00  0.00000000E+00
  0.00000000E+00  0.00000000E+00  0.00000000E+00
  0.00000000E+00  0.00000000E+00  0.00000000E+00
  0.00000000E+00  0.00000000E+00  0.00000000E+00
  0.00000000E+00  0.00000000E+00  0.00000000E+00
  0.00000000E+00  0.00000000E+00  0.00000000E+00
  0.00000000E+00  0.00000000E+00  0.00000000E+00
  0.00000000E+00  0.00000000E+00  0.00000000E+00
  0.00000000E+00  0.00000000E+00  0.00000000E+00
  0.00000000E+00  0.00000000E+00  0.00000000E+00
  0.00000000E+00  0.00000000E+00  0.00000000E+00
  0.00000000E+00  0.00000000E+00  0.00000000E+00
  0.00000000E+00  0.00000000E+00  0.00000000E+00
  0.00000000E+00  0.00000000E+00  0.00000000E+00
  0.00000000E+00  0.00000000E+00  0.00000000E+00
  0.00000000E+00  0.00000000E+00  0.00000000E+00
  0.00000000E+00  0.00000000E+00  0.00000000E+00
  0.00000000E+00  0.00000000E+00  0.00000000E+00
