Title                                   
   1.00000000000000     
     4.9440799999999996    0.0000000000000000    0.0000000000000000
     0.0000000000000000   17.1295089999999988    0.0000000000000000
     0.0000000000000000    0.0000000000000000   20.0000000000000000
    30     1     1
Selective dynamics
Direct
  0.0014232923144924  0.1044624678978205  0.2870607289909629   T   T   T
  0.2508691817435694  0.1462589119223305  0.2920209554480900   T   T   T
  0.2503159603749255  0.2289316147499858  0.3039034156443914   T   T   T
  0.0016446880614935  0.3503984282193804  0.3275850999215193   T   T   T
 -0.0017082582465104  0.2697349020126644  0.3094984369566942   T   T   T
  0.0003067636271556  0.6024112969076315  0.2979309153379837   T   T   T
  0.2529826848929518  0.7276468577013017  0.2866396979058697   T   T   T
  0.0028498727134515  0.8535132557803494  0.2780170820976102   T   T   T
  0.2522375624801434  0.8956581171431119  0.2779624709197274   T   T   T
  0.2517885025642409  0.9791652796185121  0.2792346365891392   T   T   T
  0.0033355009462612  0.7699898662390726  0.2814496699501151   T   T   T
  0.5004743341022118  0.1043801100568128  0.2871526875532691   T   T   T
  0.7506159885138117  0.1460418290710356  0.2908722721531007   T   T   T
  0.7498796001390631  0.2283890065709175  0.3014829623264352   T   T   T
  0.5014270440194480  0.0211121576295860  0.2809588448076359   T   T   T
  0.4969844338264899  0.3508831469173049  0.3283731830598939   T   T   T
  0.7501848422775382  0.4789207497321770  0.3181548763383641   T   T   T
  0.5015746183798248  0.2700195859486267  0.3099880408857584   T   T   T
  0.5085979814657045  0.6042301437992139  0.3046078736778963   T   T   T
  0.7527557858419855  0.7286676551868498  0.2838742364642685   T   T   T
  0.5019871687565635  0.8535961364539113  0.2785134701300648   T   T   T
  0.7522939997797923  0.8955046533756251  0.2774406662717009   T   T   T
  0.7518604227978479  0.9791806691532595  0.2788374247295572   T   T   T
  0.5021971616859126  0.7701519999380334  0.2824553914292632   T   T   T
  0.7530942698987979  0.6458610783265152  0.2921621116369542   T   T   T
  0.2541056859628529  0.6448734679285130  0.2976750594164955   T   T   T
  0.0018531337231149  0.0211644773474136  0.2808510727555542   T   T   T
  0.5160653713277117  0.5243952078942945  0.3270047455084794   T   T   T
  0.9911921675433206  0.5195218240892779  0.3055701444941682   T   T   T
  0.2486031790275736  0.3874056801541849  0.3453246905622086   T   T   T
  0.7499309276892631  0.3931908600841613  0.3298904809506570   T   T   T
  0.1950991317690027  0.5028895621501175  0.4000716550861236   T   T   T
 
  0.00000000E+00  0.00000000E+00  0.00000000E+00
  0.00000000E+00  0.00000000E+00  0.00000000E+00
  0.00000000E+00  0.00000000E+00  0.00000000E+00
  0.00000000E+00  0.00000000E+00  0.00000000E+00
  0.00000000E+00  0.00000000E+00  0.00000000E+00
  0.00000000E+00  0.00000000E+00  0.00000000E+00
  0.00000000E+00  0.00000000E+00  0.00000000E+00
  0.00000000E+00  0.00000000E+00  0.00000000E+00
  0.00000000E+00  0.00000000E+00  0.00000000E+00
  0.00000000E+00  0.00000000E+00  0.00000000E+00
  0.00000000E+00  0.00000000E+00  0.00000000E+00
  0.00000000E+00  0.00000000E+00  0.00000000E+00
  0.00000000E+00  0.00000000E+00  0.00000000E+00
  0.00000000E+00  0.00000000E+00  0.00000000E+00
  0.00000000E+00  0.00000000E+00  0.00000000E+00
  0.00000000E+00  0.00000000E+00  0.00000000E+00
  0.00000000E+00  0.00000000E+00  0.00000000E+00
  0.00000000E+00  0.00000000E+00  0.00000000E+00
  0.00000000E+00  0.00000000E+00  0.00000000E+00
  0.00000000E+00  0.00000000E+00  0.00000000E+00
  0.00000000E+00  0.00000000E+00  0.00000000E+00
  0.00000000E+00  0.00000000E+00  0.00000000E+00
  0.00000000E+00  0.00000000E+00  0.00000000E+00
  0.00000000E+00  0.00000000E+00  0.00000000E+00
  0.00000000E+00  0.00000000E+00  0.00000000E+00
  0.00000000E+00  0.00000000E+00  0.00000000E+00
  0.00000000E+00  0.00000000E+00  0.00000000E+00
  0.00000000E+00  0.00000000E+00  0.00000000E+00
  0.00000000E+00  0.00000000E+00  0.00000000E+00
  0.00000000E+00  0.00000000E+00  0.00000000E+00
  0.00000000E+00  0.00000000E+00  0.00000000E+00
  0.00000000E+00  0.00000000E+00  0.00000000E+00
