Title                                   
   1.00000000000000     
     9.8694509999999998    0.0000000000000000    0.0000000000000000
     0.0000000000000000    8.5490480000000009    0.0000000000000000
     0.0000000000000000    0.0000000000000000   20.0000000000000000
    27     4     1
Selective dynamics
Direct
  0.0558362936043378  0.0918698944307094  0.0857171540503716   T   T   T
  0.9297793914978629  0.1751735283499861  0.0884132639459445   T   T   T
  0.0566296404396109  0.9233495272475361  0.0838265765953458   T   T   T
  0.9295838499631095  0.3416307927204988  0.0922715052317194   T   T   T
  0.0559310831069159  0.5895704916789510  0.0868127864551258   T   T   T
  0.9318710238903708  0.6720137105341086  0.0870676792924655   T   T   T
  0.0554375203955920  0.4227356151258398  0.0909802527597674   T   T   T
  0.9317032779020443  0.8398089646606438  0.0856378309669618   T   T   T
  0.3053369328283377  0.0882836250133507  0.0874880932502883   T   T   T
  0.1817891693997526  0.1736470892725186  0.0882431625960102   T   T   T
  0.3072037186695936  0.9225257504658405  0.0869485202605117   T   T   T
  0.1812402439743674  0.3397364744042342  0.0926237769396700   T   T   T
  0.3045908446010075  0.5890305533192067  0.0989376145933207   T   T   T
  0.1805260086393019  0.6704226174658524  0.0873909330102484   T   T   T
  0.1820545390625679  0.8383663184342182  0.0849706087358725   T   T   T
  0.5565721048387470  0.0867191170906691  0.0943995244086117   T   T   T
  0.4304267014211252  0.1691234558395067  0.0934548842391898   T   T   T
  0.4308548781666916  0.3346809276432441  0.1027550255962116   T   T   T
  0.4297758664663324  0.8378550928242433  0.0971346701580906   T   T   T
  0.8067495533277137  0.0898163250501909  0.0878874914567346   T   T   T
  0.6812229329717211  0.1713080564528807  0.0930314128485035   T   T   T
  0.8066682844401381  0.9245539820143254  0.0878742509131882   T   T   T
  0.6787673266122634  0.3367321356958850  0.1015272664997945   T   T   T
  0.8071568015333642  0.5931441710625995  0.0967810952118328   T   T   T
  0.6850866205552134  0.8392902274031675  0.0967149613229731   T   T   T
  0.4219507518111258  0.6765526678994475  0.1131192221186899   T   T   T
  0.5543933906502808  0.4107846353159329  0.1172367339495131   T   T   T
  0.6934935383520531  0.6806731829539667  0.1101303151340652   T   T   T
  0.5574949724478617  0.9180100972708843  0.0965194766655691   T   T   T
  0.3057286840940930  0.4211437343776678  0.0995221955085867   T   T   T
  0.8034070627765303  0.4254058509025968  0.0979098716784371   T   T   T
  0.5603759915599797  0.5962873870792985  0.1723468436064007   T   T   T
 
  0.00000000E+00  0.00000000E+00  0.00000000E+00
  0.00000000E+00  0.00000000E+00  0.00000000E+00
  0.00000000E+00  0.00000000E+00  0.00000000E+00
  0.00000000E+00  0.00000000E+00  0.00000000E+00
  0.00000000E+00  0.00000000E+00  0.00000000E+00
  0.00000000E+00  0.00000000E+00  0.00000000E+00
  0.00000000E+00  0.00000000E+00  0.00000000E+00
  0.00000000E+00  0.00000000E+00  0.00000000E+00
  0.00000000E+00  0.00000000E+00  0.00000000E+00
  0.00000000E+00  0.00000000E+00  0.00000000E+00
  0.00000000E+00  0.00000000E+00  0.00000000E+00
  0.00000000E+00  0.00000000E+00  0.00000000E+00
  0.00000000E+00  0.00000000E+00  0.00000000E+00
  0.00000000E+00  0.00000000E+00  0.00000000E+00
  0.00000000E+00  0.00000000E+00  0.00000000E+00
  0.00000000E+00  0.00000000E+00  0.00000000E+00
  0.00000000E+00  0.00000000E+00  0.00000000E+00
  0.00000000E+00  0.00000000E+00  0.00000000E+00
  0.00000000E+00  0.00000000E+00  0.00000000E+00
  0.00000000E+00  0.00000000E+00  0.00000000E+00
  0.00000000E+00  0.00000000E+00  0.00000000E+00
  0.00000000E+00  0.00000000E+00  0.00000000E+00
  0.00000000E+00  0.00000000E+00  0.00000000E+00
  0.00000000E+00  0.00000000E+00  0.00000000E+00
  0.00000000E+00  0.00000000E+00  0.00000000E+00
  0.00000000E+00  0.00000000E+00  0.00000000E+00
  0.00000000E+00  0.00000000E+00  0.00000000E+00
  0.00000000E+00  0.00000000E+00  0.00000000E+00
  0.00000000E+00  0.00000000E+00  0.00000000E+00
  0.00000000E+00  0.00000000E+00  0.00000000E+00
  0.00000000E+00  0.00000000E+00  0.00000000E+00
  0.00000000E+00  0.00000000E+00  0.00000000E+00
