Title                                   
   1.00000000000000     
     9.8694509999999998    0.0000000000000000    0.0000000000000000
     0.0000000000000000    8.5490480000000009    0.0000000000000000
     0.0000000000000000    0.0000000000000000   20.0000000000000000
    25     5     1
Selective dynamics
Direct
  0.0549358515954219  0.0887657883486255  0.0845990951092306   T   T   T
  0.9306541723814112  0.1721908539550971  0.0839956513407386   T   T   T
  0.0574045495304620  0.9220064772727163  0.0857963025063622   T   T   T
  0.9338134159509570  0.3400655229081603  0.0831713658066861   T   T   T
  0.0555751891759347  0.5906536575728657  0.0840400015667612   T   T   T
  0.0565494291944857  0.4244677146842112  0.0825923400614435   T   T   T
  0.9325423644149136  0.8398963182091616  0.0875674609797424   T   T   T
  0.3061419443031720  0.0887275870848972  0.0940097509371348   T   T   T
  0.1806650765356494  0.1697938405723724  0.0879273195850129   T   T   T
  0.1798195658871515  0.3375442060566193  0.0876597410526357   T   T   T
  0.2988370628887516  0.5874215520910299  0.0979719148676029   T   T   T
  0.1791320779826763  0.6738866373383339  0.0884274944927631   T   T   T
  0.2988620215755010  0.4183446548168676  0.0988196354277028   T   T   T
  0.1826490180310437  0.8410006588815745  0.0884032162293836   T   T   T
  0.4290040140802134  0.1761812766085790  0.1029253436151842   T   T   T
  0.5559927302637395  0.9209496820548978  0.1031508320017603   T   T   T
  0.4212129443718680  0.6710777893816303  0.1095226991702657   T   T   T
  0.4285753475555874  0.8368871376452224  0.1024763738857005   T   T   T
  0.8044409112286883  0.0888524006624980  0.0890732480572348   T   T   T
  0.6816823738265521  0.1772878535479910  0.0957592811555370   T   T   T
  0.8067440044328329  0.9211465547347173  0.0918729767025583   T   T   T
  0.6892303827447942  0.3425416951681328  0.1001679418822298   T   T   T
  0.8136873647922463  0.5942191859401905  0.0944038885238852   T   T   T
  0.8132954815407110  0.4239542719538600  0.0903133332614890   T   T   T
  0.6826828029961961  0.8369595797849744  0.1013921581892269   T   T   T
  0.9334901349542944  0.6739626130400503  0.0865915953607775   T   T   T
  0.5555717774921657  0.0937047001694377  0.1018129439702995   T   T   T
  0.4202467807993679  0.3374003134360816  0.1120002826504756   T   T   T
  0.6956108941181235  0.6723060022805720  0.1084124273913880   T   T   T
  0.3064801321110430  0.9228089200045716  0.0933413814243298   T   T   T
  0.5576051832440490  0.5058695537940874  0.1227670027944913   T   T   T
 
  0.00000000E+00  0.00000000E+00  0.00000000E+00
  0.00000000E+00  0.00000000E+00  0.00000000E+00
  0.00000000E+00  0.00000000E+00  0.00000000E+00
  0.00000000E+00  0.00000000E+00  0.00000000E+00
  0.00000000E+00  0.00000000E+00  0.00000000E+00
  0.00000000E+00  0.00000000E+00  0.00000000E+00
  0.00000000E+00  0.00000000E+00  0.00000000E+00
  0.00000000E+00  0.00000000E+00  0.00000000E+00
  0.00000000E+00  0.00000000E+00  0.00000000E+00
  0.00000000E+00  0.00000000E+00  0.00000000E+00
  0.00000000E+00  0.00000000E+00  0.00000000E+00
  0.00000000E+00  0.00000000E+00  0.00000000E+00
  0.00000000E+00  0.00000000E+00  0.00000000E+00
  0.00000000E+00  0.00000000E+00  0.00000000E+00
  0.00000000E+00  0.00000000E+00  0.00000000E+00
  0.00000000E+00  0.00000000E+00  0.00000000E+00
  0.00000000E+00  0.00000000E+00  0.00000000E+00
  0.00000000E+00  0.00000000E+00  0.00000000E+00
  0.00000000E+00  0.00000000E+00  0.00000000E+00
  0.00000000E+00  0.00000000E+00  0.00000000E+00
  0.00000000E+00  0.00000000E+00  0.00000000E+00
  0.00000000E+00  0.00000000E+00  0.00000000E+00
  0.00000000E+00  0.00000000E+00  0.00000000E+00
  0.00000000E+00  0.00000000E+00  0.00000000E+00
  0.00000000E+00  0.00000000E+00  0.00000000E+00
  0.00000000E+00  0.00000000E+00  0.00000000E+00
  0.00000000E+00  0.00000000E+00  0.00000000E+00
  0.00000000E+00  0.00000000E+00  0.00000000E+00
  0.00000000E+00  0.00000000E+00  0.00000000E+00
  0.00000000E+00  0.00000000E+00  0.00000000E+00
  0.00000000E+00  0.00000000E+00  0.00000000E+00
