Title                                   
   1.00000000000000     
     4.9440799999999996    0.0000000000000000    0.0000000000000000
     0.0000000000000000    8.5647549999999999    0.0000000000000000
     0.0000000000000000    0.0000000000000000   20.0000000000000000
    13     1     1
Selective dynamics
Direct
  0.2515654885381002  0.2056627662029482  0.1003361383024386   T   T   T
 -0.0003648934324219  0.2919934893287086  0.1032417370757233   T   T   T
  0.2521524967261786  0.0405546206058500  0.1010688446706062   T   T   T
 -0.0003141585731749  0.9571850407794710  0.1056112911317921   T   T   T
  0.7511095493138966  0.2076624280265505  0.1003435350996689   T   T   T
  0.5024796447204700  0.2902491453016917  0.0963285345625626   T   T   T
  0.7525620565179084  0.0415892294273210  0.1015410631077524   T   T   T
  0.7466597311607798  0.7166755885900062  0.1005539905575857   T   T   T
  0.7446474175291271  0.5383755000760988  0.0984532013690962   T   T   T
  0.5059522058897719  0.9568089584794363  0.0977215076818257   T   T   T
  0.5096512060802644  0.4531669788026815  0.0915671393236692   T   T   T
 -0.0155104696789584  0.4561659860128545  0.1061087684155429   T   T   T
 -0.0152219450884603  0.7948190522497826  0.1121137793639744   T   T   T
  0.5167939031020772  0.7983433499093449  0.0911679594539415   T   T   T
  0.2478377671944418  0.6224288662072575  0.1018225098838239   T   T   T
 
  0.00000000E+00  0.00000000E+00  0.00000000E+00
  0.00000000E+00  0.00000000E+00  0.00000000E+00
  0.00000000E+00  0.00000000E+00  0.00000000E+00
  0.00000000E+00  0.00000000E+00  0.00000000E+00
  0.00000000E+00  0.00000000E+00  0.00000000E+00
  0.00000000E+00  0.00000000E+00  0.00000000E+00
  0.00000000E+00  0.00000000E+00  0.00000000E+00
  0.00000000E+00  0.00000000E+00  0.00000000E+00
  0.00000000E+00  0.00000000E+00  0.00000000E+00
  0.00000000E+00  0.00000000E+00  0.00000000E+00
  0.00000000E+00  0.00000000E+00  0.00000000E+00
  0.00000000E+00  0.00000000E+00  0.00000000E+00
  0.00000000E+00  0.00000000E+00  0.00000000E+00
  0.00000000E+00  0.00000000E+00  0.00000000E+00
  0.00000000E+00  0.00000000E+00  0.00000000E+00
