Title                                   
   1.00000000000000     
     4.9440799999999996    0.0000000000000000    0.0000000000000000
     0.0000000000000000   17.1295089999999988    0.0000000000000000
     0.0000000000000000    0.0000000000000000   20.0000000000000000
    27     4     1
Selective dynamics
Direct
  0.0001807883700150  0.1048271600285934  0.2912186977067881   T   T   T
  0.2498952316310353  0.1470145315639332  0.2928011800436293   T   T   T
  0.2498870754362673  0.2307120764354767  0.2973422751453773   T   T   T
  0.0050952537379105  0.3543448911195765  0.3088183362910900   T   T   T
 -0.0018437078621805  0.2723381417196932  0.2993647197774249   T   T   T
 -0.0047295026542700  0.6020858004678510  0.3023900219674031   T   T   T
  0.2498948665359502  0.7265499563203732  0.2948589765046503   T   T   T
  0.0004168859695262  0.8531777208022185  0.2909024935557860   T   T   T
  0.2499002347838471  0.8953338454959439  0.2903799340991823   T   T   T
  0.2499051795059635  0.9790947176377864  0.2899490013206555   T   T   T
  0.0006023525531651  0.7693727510828123  0.2929130587013594   T   T   T
  0.4996094548123449  0.1048284048342858  0.2912148556223624   T   T   T
  0.7498987470290254  0.1469235024382324  0.2919589545285579   T   T   T
  0.7498901675409418  0.2299710122459169  0.2951158418127341   T   T   T
  0.4998771901786760  0.0211263133546733  0.2899774266867293   T   T   T
  0.4946994832024423  0.3543436009130047  0.3088138248252409   T   T   T
  0.7499223361671649  0.4832775895953776  0.3097762144941572   T   T   T
  0.5016361426490086  0.2723365906632222  0.2993623268537463   T   T   T
  0.5045404647384900  0.6020866216791537  0.3023905303178114   T   T   T
  0.7498951072671769  0.7282665064025785  0.2939491501436317   T   T   T
  0.4993764101499621  0.8531785559625089  0.2909041159729385   T   T   T
  0.7498940680997317  0.8951291125071297  0.2901809958855566   T   T   T
  0.7499031285170469  0.9789509089941145  0.2897047903963983   T   T   T
  0.4991935098181050  0.7693742128542161  0.2929164883438219   T   T   T
  0.7498998693770151  0.6448044024699943  0.2982773566857850   T   T   T
  0.2499007930164038  0.6424416922778762  0.2996632555337925   T   T   T
 -0.0000940936129286  0.0211273136511267  0.2899815053427153   T   T   T
  0.5114141621455864  0.5216154391752964  0.3103378944474071   T   T   T
  0.9884001425366621  0.5216114495154504  0.3103382261177249   T   T   T
  0.2499030122751299  0.3898813631076597  0.3201538486562384   T   T   T
  0.7499064233434874  0.3990154028904890  0.3098172100373276   T   T   T
  0.2499518227413042  0.4834094117934261  0.3867914921819292   T   T   T
 
  0.00000000E+00  0.00000000E+00  0.00000000E+00
  0.00000000E+00  0.00000000E+00  0.00000000E+00
  0.00000000E+00  0.00000000E+00  0.00000000E+00
  0.00000000E+00  0.00000000E+00  0.00000000E+00
  0.00000000E+00  0.00000000E+00  0.00000000E+00
  0.00000000E+00  0.00000000E+00  0.00000000E+00
  0.00000000E+00  0.00000000E+00  0.00000000E+00
  0.00000000E+00  0.00000000E+00  0.00000000E+00
  0.00000000E+00  0.00000000E+00  0.00000000E+00
  0.00000000E+00  0.00000000E+00  0.00000000E+00
  0.00000000E+00  0.00000000E+00  0.00000000E+00
  0.00000000E+00  0.00000000E+00  0.00000000E+00
  0.00000000E+00  0.00000000E+00  0.00000000E+00
  0.00000000E+00  0.00000000E+00  0.00000000E+00
  0.00000000E+00  0.00000000E+00  0.00000000E+00
  0.00000000E+00  0.00000000E+00  0.00000000E+00
  0.00000000E+00  0.00000000E+00  0.00000000E+00
  0.00000000E+00  0.00000000E+00  0.00000000E+00
  0.00000000E+00  0.00000000E+00  0.00000000E+00
  0.00000000E+00  0.00000000E+00  0.00000000E+00
  0.00000000E+00  0.00000000E+00  0.00000000E+00
  0.00000000E+00  0.00000000E+00  0.00000000E+00
  0.00000000E+00  0.00000000E+00  0.00000000E+00
  0.00000000E+00  0.00000000E+00  0.00000000E+00
  0.00000000E+00  0.00000000E+00  0.00000000E+00
  0.00000000E+00  0.00000000E+00  0.00000000E+00
  0.00000000E+00  0.00000000E+00  0.00000000E+00
  0.00000000E+00  0.00000000E+00  0.00000000E+00
  0.00000000E+00  0.00000000E+00  0.00000000E+00
  0.00000000E+00  0.00000000E+00  0.00000000E+00
  0.00000000E+00  0.00000000E+00  0.00000000E+00
  0.00000000E+00  0.00000000E+00  0.00000000E+00
