Title                                   
   1.00000000000000     
     4.9440799999999996    0.0000000000000000    0.0000000000000000
     0.0000000000000000    8.5647549999999999    0.0000000000000000
     0.0000000000000000    0.0000000000000000   20.0000000000000000
    11     3     1
Selective dynamics
Direct
  0.2425007394039405  0.2090207910338978  0.0972438311104260   T   T   T
 -0.0067117836538623  0.2967031675810323  0.1008734675973058   T   T   T
  0.2451361630888910  0.0374975800622772  0.0976552448367046   T   T   T
 -0.0041158180161641  0.9521692848724631  0.1011924374458351   T   T   T
  0.7475912442706151  0.2092176401480389  0.0936100624736189   T   T   T
  0.4938426190623608  0.2914081850128983  0.0914892584914448   T   T   T
  0.7497453405346561  0.0401297326939259  0.0942403414733144   T   T   T
  0.7498514124336003  0.7122003926229602  0.0982410321540765   T   T   T
  0.7461843838658643  0.5415491041992316  0.0976113255701061   T   T   T
  0.4996881071342806  0.9569552763286798  0.0932225349080490   T   T   T
  0.5019647990680737  0.4570133297642492  0.0886727032157323   T   T   T
 -0.0106632024198155  0.4605814565000946  0.1130504919672264   T   T   T
 -0.0115348838011831  0.7899758659602480  0.1120189594997339   T   T   T
  0.5091655392016112  0.7943216136214473  0.0907828015036984   T   T   T
  0.2973553398271319  0.6229375795985572  0.1380755077527312   T   T   T
 
  0.00000000E+00  0.00000000E+00  0.00000000E+00
  0.00000000E+00  0.00000000E+00  0.00000000E+00
  0.00000000E+00  0.00000000E+00  0.00000000E+00
  0.00000000E+00  0.00000000E+00  0.00000000E+00
  0.00000000E+00  0.00000000E+00  0.00000000E+00
  0.00000000E+00  0.00000000E+00  0.00000000E+00
  0.00000000E+00  0.00000000E+00  0.00000000E+00
  0.00000000E+00  0.00000000E+00  0.00000000E+00
  0.00000000E+00  0.00000000E+00  0.00000000E+00
  0.00000000E+00  0.00000000E+00  0.00000000E+00
  0.00000000E+00  0.00000000E+00  0.00000000E+00
  0.00000000E+00  0.00000000E+00  0.00000000E+00
  0.00000000E+00  0.00000000E+00  0.00000000E+00
  0.00000000E+00  0.00000000E+00  0.00000000E+00
  0.00000000E+00  0.00000000E+00  0.00000000E+00
