Title                                   
   1.00000000000000     
     4.9440799999999996    0.0000000000000000    0.0000000000000000
     0.0000000000000000    8.5647549999999999    0.0000000000000000
     0.0000000000000000    0.0000000000000000   20.0000000000000000
    14     1
Selective dynamics
Direct
  0.2500000000000000  0.2075422574660519  0.0968563884239916   T   T   T
  0.0011956437314318  0.2933002843839798  0.0969894605952234   T   T   T
  0.2500000000000000  0.0420203797580232  0.0968748187747658   T   T   T
  0.0012072111416343  0.9562631665987285  0.0970131232967603   T   T   T
  0.7500000000000000  0.2091659949342939  0.0948307019013334   T   T   T
  0.4988043562685681  0.2933002843839798  0.0969894605952234   T   T   T
  0.7500000000000000  0.0403945677428315  0.0948592450979261   T   T   T
  0.7500000000000000  0.7105263826665403  0.0972548593573433   T   T   T
  0.7500000000000000  0.5390229037272409  0.0972431851885413   T   T   T
  0.4987927888583657  0.9562631665987285  0.0970131232967603   T   T   T
  0.5059935999982539  0.4590646873156375  0.1018266772712799   T   T   T
 -0.0059935999982540  0.4590646873156375  0.1018266772712799   T   T   T
 -0.0059855169931978  0.7904911633469764  0.1018342152800502   T   T   T
  0.5059855169931976  0.7904911633469764  0.1018342152800502   T   T   T
  0.2500000000000000  0.6247699104143762  0.1347338483694741   T   T   T
 
  0.00000000E+00  0.00000000E+00  0.00000000E+00
  0.00000000E+00  0.00000000E+00  0.00000000E+00
  0.00000000E+00  0.00000000E+00  0.00000000E+00
  0.00000000E+00  0.00000000E+00  0.00000000E+00
  0.00000000E+00  0.00000000E+00  0.00000000E+00
  0.00000000E+00  0.00000000E+00  0.00000000E+00
  0.00000000E+00  0.00000000E+00  0.00000000E+00
  0.00000000E+00  0.00000000E+00  0.00000000E+00
  0.00000000E+00  0.00000000E+00  0.00000000E+00
  0.00000000E+00  0.00000000E+00  0.00000000E+00
  0.00000000E+00  0.00000000E+00  0.00000000E+00
  0.00000000E+00  0.00000000E+00  0.00000000E+00
  0.00000000E+00  0.00000000E+00  0.00000000E+00
  0.00000000E+00  0.00000000E+00  0.00000000E+00
  0.00000000E+00  0.00000000E+00  0.00000000E+00
