Title                                   
   1.00000000000000     
     9.8694509999999998    0.0000000000000000    0.0000000000000000
     0.0000000000000000    8.5490480000000009    0.0000000000000000
     0.0000000000000000    0.0000000000000000   20.0000000000000000
    25     5     1
Selective dynamics
Direct
  0.0558514668969579  0.0899892360983010  0.0942064108898733   T   T   T
  0.9320327678318043  0.1716919691282670  0.0946813630430598   T   T   T
  0.0574770479346077  0.9226664439675371  0.0943794265164184   T   T   T
  0.9343562179976367  0.3388396793209531  0.0936971178344534   T   T   T
  0.0566650974287327  0.5899444432671475  0.0921320247983021   T   T   T
  0.9345558926012740  0.6738376213094518  0.0938120858793234   T   T   T
  0.0566687197032996  0.4228860273116710  0.0920678180995914   T   T   T
  0.9325207200298246  0.8402922701842876  0.0948072357025773   T   T   T
  0.3067886417264218  0.0889615490613019  0.0967638471853735   T   T   T
  0.1807061030635423  0.1708986781108800  0.0944836670618178   T   T   T
  0.1785291858894165  0.3376277413739477  0.0934936199754417   T   T   T
  0.2991273661197152  0.5891340099121205  0.0962798584502860   T   T   T
  0.1789303728358471  0.6747323130519446  0.0935720489942372   T   T   T
  0.2996325559426526  0.4228374484071684  0.0963822487298749   T   T   T
  0.1808619500292194  0.8404777126995518  0.0946451629259170   T   T   T
  0.5563599680350588  0.0941085047018016  0.1000837967847398   T   T   T
  0.4290421647021901  0.1753924435045926  0.0993826626573801   T   T   T
  0.5550183332069223  0.9187872874645912  0.0999524990181568   T   T   T
  0.4288893445732042  0.8358287388408462  0.0991787742031569   T   T   T
  0.8055354927199401  0.0898899481652241  0.0968941909924131   T   T   T
  0.6821100317348759  0.1769976192857203  0.0993949228728020   T   T   T
  0.8058342650479873  0.9223741159205023  0.0968759530884324   T   T   T
  0.8133966405736391  0.5898741283429164  0.0966101192949380   T   T   T
  0.8131761751696183  0.4225721899393361  0.0966343140407826   T   T   T
  0.6821617622125694  0.8347997051795760  0.0992805002594044   T   T   T
  0.4188013147464313  0.3386893918972291  0.1006262400264524   T   T   T
  0.4186260699460396  0.6753439584890819  0.1004338188804601   T   T   T
  0.6930859214204298  0.3401080003855589  0.1006278745086397   T   T   T
  0.6932503047395067  0.6728756457744439  0.1004561837054644   T   T   T
  0.3071300267666378  0.9220879739482341  0.0966473981567479   T   T   T
  0.5560140783739962  0.5063282049558123  0.1024818154235399   T   T   T
 
  0.00000000E+00  0.00000000E+00  0.00000000E+00
  0.00000000E+00  0.00000000E+00  0.00000000E+00
  0.00000000E+00  0.00000000E+00  0.00000000E+00
  0.00000000E+00  0.00000000E+00  0.00000000E+00
  0.00000000E+00  0.00000000E+00  0.00000000E+00
  0.00000000E+00  0.00000000E+00  0.00000000E+00
  0.00000000E+00  0.00000000E+00  0.00000000E+00
  0.00000000E+00  0.00000000E+00  0.00000000E+00
  0.00000000E+00  0.00000000E+00  0.00000000E+00
  0.00000000E+00  0.00000000E+00  0.00000000E+00
  0.00000000E+00  0.00000000E+00  0.00000000E+00
  0.00000000E+00  0.00000000E+00  0.00000000E+00
  0.00000000E+00  0.00000000E+00  0.00000000E+00
  0.00000000E+00  0.00000000E+00  0.00000000E+00
  0.00000000E+00  0.00000000E+00  0.00000000E+00
  0.00000000E+00  0.00000000E+00  0.00000000E+00
  0.00000000E+00  0.00000000E+00  0.00000000E+00
  0.00000000E+00  0.00000000E+00  0.00000000E+00
  0.00000000E+00  0.00000000E+00  0.00000000E+00
  0.00000000E+00  0.00000000E+00  0.00000000E+00
  0.00000000E+00  0.00000000E+00  0.00000000E+00
  0.00000000E+00  0.00000000E+00  0.00000000E+00
  0.00000000E+00  0.00000000E+00  0.00000000E+00
  0.00000000E+00  0.00000000E+00  0.00000000E+00
  0.00000000E+00  0.00000000E+00  0.00000000E+00
  0.00000000E+00  0.00000000E+00  0.00000000E+00
  0.00000000E+00  0.00000000E+00  0.00000000E+00
  0.00000000E+00  0.00000000E+00  0.00000000E+00
  0.00000000E+00  0.00000000E+00  0.00000000E+00
  0.00000000E+00  0.00000000E+00  0.00000000E+00
  0.00000000E+00  0.00000000E+00  0.00000000E+00
