Title                                   
   1.00000000000000     
     8.5490480000000009    0.0000000000000000    0.0000000000000000
     0.0000000000000000    8.5490480000000009    0.0000000000000000
     0.0000000000000000    0.0000000000000000   20.0000000000000000
    23     1     1
Selective dynamics
Direct
  0.9108380254593641  0.2051776344051969  0.0976395164559806   T   T   T
  0.9098321887107214  0.5027927819177516  0.0976680860881976   T   T   T
  0.9128719156091910  0.8011833157619310  0.0976527117742841   T   T   T
  0.1975415672364842  0.0817383872119751  0.0977977305895291   T   T   T
  0.0741770393971385  0.2027093899448718  0.0977443185966486   T   T   T
  0.1583940322382547  0.6493267756220995  0.0977726558383581   T   T   T
  0.0773208213720678  0.5016894925080043  0.0977584697863204   T   T   T
  0.1574286943587839  0.3544473907442475  0.0978258143275773   T   T   T
  0.0774388775991978  0.7991977781544000  0.0977862037623308   T   T   T
  0.4922402859473203  0.0853078163739284  0.0977937307371190   T   T   T
  0.3448378742672077  0.1635239015549173  0.0978382700411228   T   T   T
  0.4915066502711884  0.9181067637315955  0.0977304712954191   T   T   T
  0.3452961500895370  0.8367975410057156  0.0977181976882270   T   T   T
  0.7880228997785391  0.0835787350620344  0.0976741377234341   T   T   T
  0.6383311168128647  0.1662551780401388  0.0978017218669227   T   T   T
  0.7888072965144940  0.9212183314867735  0.0976640467350309   T   T   T
  0.8312150926951424  0.6505161356217003  0.0976383065086782   T   T   T
  0.8289015740000346  0.3554952944246833  0.0976832955786064   T   T   T
  0.6385796606768924  0.8372066450411031  0.0977206538165999   T   T   T
  0.3208917514274747  0.3305172448842933  0.0978871012225216   T   T   T
  0.3217639151534121  0.6732757592195865  0.0977283756432637   T   T   T
  0.6635705944530402  0.3310469554551773  0.0978193946373942   T   T   T
  0.6646286578359923  0.6737089449589888  0.0977156132527298   T   T   T
  0.1974713020324412  0.9182267962186539  0.0978371862223510   T   T   T
  0.4935040160632021  0.5017450106502387  0.0978089898113334   T   T   T
 
  0.00000000E+00  0.00000000E+00  0.00000000E+00
  0.00000000E+00  0.00000000E+00  0.00000000E+00
  0.00000000E+00  0.00000000E+00  0.00000000E+00
  0.00000000E+00  0.00000000E+00  0.00000000E+00
  0.00000000E+00  0.00000000E+00  0.00000000E+00
  0.00000000E+00  0.00000000E+00  0.00000000E+00
  0.00000000E+00  0.00000000E+00  0.00000000E+00
  0.00000000E+00  0.00000000E+00  0.00000000E+00
  0.00000000E+00  0.00000000E+00  0.00000000E+00
  0.00000000E+00  0.00000000E+00  0.00000000E+00
  0.00000000E+00  0.00000000E+00  0.00000000E+00
  0.00000000E+00  0.00000000E+00  0.00000000E+00
  0.00000000E+00  0.00000000E+00  0.00000000E+00
  0.00000000E+00  0.00000000E+00  0.00000000E+00
  0.00000000E+00  0.00000000E+00  0.00000000E+00
  0.00000000E+00  0.00000000E+00  0.00000000E+00
  0.00000000E+00  0.00000000E+00  0.00000000E+00
  0.00000000E+00  0.00000000E+00  0.00000000E+00
  0.00000000E+00  0.00000000E+00  0.00000000E+00
  0.00000000E+00  0.00000000E+00  0.00000000E+00
  0.00000000E+00  0.00000000E+00  0.00000000E+00
  0.00000000E+00  0.00000000E+00  0.00000000E+00
  0.00000000E+00  0.00000000E+00  0.00000000E+00
  0.00000000E+00  0.00000000E+00  0.00000000E+00
  0.00000000E+00  0.00000000E+00  0.00000000E+00
