Title                                   
   1.00000000000000     
     9.8694509999999998    0.0000000000000000    0.0000000000000000
     0.0000000000000000    8.5490480000000009    0.0000000000000000
     0.0000000000000000    0.0000000000000000   20.0000000000000000
    27     3     1
Selective dynamics
Direct
  0.0557255077224032  0.0883225955134959  0.0906769494923304   T   T   T
  0.9312042390548051  0.1716780462064477  0.0933829805308813   T   T   T
  0.0571815821325343  0.9221204419519753  0.0911169619673372   T   T   T
  0.9326511166330558  0.3393321512803798  0.0948464991102915   T   T   T
  0.0566947035199243  0.5906100421271238  0.0930078967156141   T   T   T
  0.0568040509481022  0.4240343944096482  0.0923451392103381   T   T   T
  0.9317929952607864  0.8383040732461216  0.0941948616580828   T   T   T
  0.3078014554753000  0.0882242532972937  0.0877112909751365   T   T   T
  0.1825224958555104  0.1718886155754174  0.0888837603438633   T   T   T
  0.1812730023987062  0.3390353087542069  0.0897441042448638   T   T   T
  0.3058221024007455  0.5901322745111862  0.0876619331757358   T   T   T
  0.1810364989245598  0.6745266769003756  0.0908611212019530   T   T   T
  0.3063627313207181  0.4208483838635894  0.0873395498660122   T   T   T
  0.1831942659820455  0.8404375198013642  0.0898408554368482   T   T   T
  0.4337590259847298  0.1725315122037841  0.0887615503530419   T   T   T
  0.5567555501052668  0.9237972082747666  0.0960055287309391   T   T   T
  0.4311794645356532  0.3367048056485347  0.0882118149669163   T   T   T
  0.4293435940046509  0.6758456694904329  0.0883939476567092   T   T   T
  0.4316227523196752  0.8399654766916942  0.0900345891207686   T   T   T
  0.8052180475303859  0.0889701965734510  0.0952327078565991   T   T   T
  0.6806400541072767  0.1783139571788177  0.0987495311250299   T   T   T
  0.8061409683780237  0.9203825188936402  0.0959113601486669   T   T   T
  0.6823153018976212  0.3447135110170927  0.1062523965956440   T   T   T
  0.8100517940337941  0.5914231479005193  0.1021246157756262   T   T   T
  0.6843884234428301  0.6677116686690794  0.1079386313697339   T   T   T
  0.8104798551145617  0.4215960801192568  0.1012197977509330   T   T   T
  0.6797495940067502  0.8355915369095063  0.1002579686353022   T   T   T
  0.9330161172989397  0.6722678587545371  0.0955530625261436   T   T   T
  0.5581074783969113  0.0911391741093187  0.0947972246100412   T   T   T
  0.3060180157202225  0.9236792645238761  0.0881994663727293   T   T   T
  0.5342822154935142  0.5067466356030864  0.1317069024759141   T   T   T
 
  0.00000000E+00  0.00000000E+00  0.00000000E+00
  0.00000000E+00  0.00000000E+00  0.00000000E+00
  0.00000000E+00  0.00000000E+00  0.00000000E+00
  0.00000000E+00  0.00000000E+00  0.00000000E+00
  0.00000000E+00  0.00000000E+00  0.00000000E+00
  0.00000000E+00  0.00000000E+00  0.00000000E+00
  0.00000000E+00  0.00000000E+00  0.00000000E+00
  0.00000000E+00  0.00000000E+00  0.00000000E+00
  0.00000000E+00  0.00000000E+00  0.00000000E+00
  0.00000000E+00  0.00000000E+00  0.00000000E+00
  0.00000000E+00  0.00000000E+00  0.00000000E+00
  0.00000000E+00  0.00000000E+00  0.00000000E+00
  0.00000000E+00  0.00000000E+00  0.00000000E+00
  0.00000000E+00  0.00000000E+00  0.00000000E+00
  0.00000000E+00  0.00000000E+00  0.00000000E+00
  0.00000000E+00  0.00000000E+00  0.00000000E+00
  0.00000000E+00  0.00000000E+00  0.00000000E+00
  0.00000000E+00  0.00000000E+00  0.00000000E+00
  0.00000000E+00  0.00000000E+00  0.00000000E+00
  0.00000000E+00  0.00000000E+00  0.00000000E+00
  0.00000000E+00  0.00000000E+00  0.00000000E+00
  0.00000000E+00  0.00000000E+00  0.00000000E+00
  0.00000000E+00  0.00000000E+00  0.00000000E+00
  0.00000000E+00  0.00000000E+00  0.00000000E+00
  0.00000000E+00  0.00000000E+00  0.00000000E+00
  0.00000000E+00  0.00000000E+00  0.00000000E+00
  0.00000000E+00  0.00000000E+00  0.00000000E+00
  0.00000000E+00  0.00000000E+00  0.00000000E+00
  0.00000000E+00  0.00000000E+00  0.00000000E+00
  0.00000000E+00  0.00000000E+00  0.00000000E+00
  0.00000000E+00  0.00000000E+00  0.00000000E+00
