Title                                   
   1.00000000000000     
     9.8694509999999998    0.0000000000000000    0.0000000000000000
     0.0000000000000000    8.5490480000000009    0.0000000000000000
     0.0000000000000000    0.0000000000000000   20.0000000000000000
    28     3     1
Selective dynamics
Direct
  0.0562491694749703  0.0906734143581464  0.0856417528195587   T   T   T
  0.9304965314903465  0.1735860864451160  0.0885149467792302   T   T   T
  0.0562323850222472  0.9227385422034708  0.0840216215115912   T   T   T
  0.9309757084375356  0.3396418292731503  0.0928131129071253   T   T   T
  0.0562293136024802  0.5896875693137182  0.0874475393942351   T   T   T
  0.9315669470815000  0.6711310462257511  0.0881635542323853   T   T   T
  0.0562577673075607  0.4222155848033967  0.0913371922909346   T   T   T
  0.9306095059006515  0.8386750358636064  0.0859894555235358   T   T   T
  0.3056713189478553  0.0890082154825752  0.0873208788827351   T   T   T
  0.1820434483796443  0.1736164342429156  0.0878953669906414   T   T   T
  0.3068620946656820  0.9236320631582349  0.0873674744349853   T   T   T
  0.1815846292905593  0.3396407936063744  0.0921814411178192   T   T   T
  0.3056852170019199  0.5892052548031609  0.0975979675895383   T   T   T
  0.1809025575388802  0.6711343357653307  0.0874559076286928   T   T   T
  0.1818750356019723  0.8386868605440001  0.0853763859851406   T   T   T
  0.5562923876474909  0.0889683516149678  0.0945354949282461   T   T   T
  0.4310155567806116  0.1713321802222850  0.0927834874659713   T   T   T
  0.4312436104792398  0.3370181492345684  0.1008326043056021   T   T   T
  0.4306082742091721  0.8406731997060012  0.0971937073273917   T   T   T
  0.8069037408149590  0.0889706108657109  0.0881703098060200   T   T   T
  0.6815886080879544  0.1713436809459140  0.0933603897332562   T   T   T
  0.8056627832976361  0.9236119874976023  0.0881581973777161   T   T   T
  0.6813262132123361  0.3370339138011461  0.1014050573382161   T   T   T
  0.8068961027317368  0.5892403375151395  0.0986658597839223   T   T   T
  0.6819051776474058  0.8406341985738148  0.0978236228022432   T   T   T
  0.4221359189420005  0.6789773320034905  0.1116302959590564   T   T   T
  0.5561460038548424  0.4107368365331633  0.1151958654837310   T   T   T
  0.6903831415090650  0.6790473520541406  0.1125539063665534   T   T   T
  0.5562702105306337  0.9226919363761945  0.0970464516399015   T   T   T
  0.3064109603547849  0.4220608345847468  0.0978905592494751   T   T   T
  0.8061801892222252  0.4220390787632877  0.0988758129531293   T   T   T
  0.5554284909341065  0.5925929536188794  0.1704287793914357   T   T   T
 
  0.00000000E+00  0.00000000E+00  0.00000000E+00
  0.00000000E+00  0.00000000E+00  0.00000000E+00
  0.00000000E+00  0.00000000E+00  0.00000000E+00
  0.00000000E+00  0.00000000E+00  0.00000000E+00
  0.00000000E+00  0.00000000E+00  0.00000000E+00
  0.00000000E+00  0.00000000E+00  0.00000000E+00
  0.00000000E+00  0.00000000E+00  0.00000000E+00
  0.00000000E+00  0.00000000E+00  0.00000000E+00
  0.00000000E+00  0.00000000E+00  0.00000000E+00
  0.00000000E+00  0.00000000E+00  0.00000000E+00
  0.00000000E+00  0.00000000E+00  0.00000000E+00
  0.00000000E+00  0.00000000E+00  0.00000000E+00
  0.00000000E+00  0.00000000E+00  0.00000000E+00
  0.00000000E+00  0.00000000E+00  0.00000000E+00
  0.00000000E+00  0.00000000E+00  0.00000000E+00
  0.00000000E+00  0.00000000E+00  0.00000000E+00
  0.00000000E+00  0.00000000E+00  0.00000000E+00
  0.00000000E+00  0.00000000E+00  0.00000000E+00
  0.00000000E+00  0.00000000E+00  0.00000000E+00
  0.00000000E+00  0.00000000E+00  0.00000000E+00
  0.00000000E+00  0.00000000E+00  0.00000000E+00
  0.00000000E+00  0.00000000E+00  0.00000000E+00
  0.00000000E+00  0.00000000E+00  0.00000000E+00
  0.00000000E+00  0.00000000E+00  0.00000000E+00
  0.00000000E+00  0.00000000E+00  0.00000000E+00
  0.00000000E+00  0.00000000E+00  0.00000000E+00
  0.00000000E+00  0.00000000E+00  0.00000000E+00
  0.00000000E+00  0.00000000E+00  0.00000000E+00
  0.00000000E+00  0.00000000E+00  0.00000000E+00
  0.00000000E+00  0.00000000E+00  0.00000000E+00
  0.00000000E+00  0.00000000E+00  0.00000000E+00
  0.00000000E+00  0.00000000E+00  0.00000000E+00
