Title                                   
   1.00000000000000     
     4.9440799999999996    0.0000000000000000    0.0000000000000000
     0.0000000000000000   17.1295089999999988    0.0000000000000000
     0.0000000000000000    0.0000000000000000   20.0000000000000000
    27     3     1
Selective dynamics
Direct
  0.0027447760670030  0.1053465597738880  0.2966914297384726   T   T   T
  0.2513052980708563  0.1483588752952999  0.2971743937413015   T   T   T
  0.2513689075473679  0.2329627659172518  0.2997924807274990   T   T   T
  0.0008772771803266  0.2749109639474692  0.3040621276047992   T   T   T
 -0.0041549648394494  0.6008564629936611  0.3046747564584329   T   T   T
  0.2462588087893403  0.7265897427491261  0.2970808730586922   T   T   T
 -0.0001518679403415  0.8532302311832166  0.2965705000911679   T   T   T
  0.2494280991823801  0.8954146665372115  0.2961101081392025   T   T   T
  0.2507018478788600  0.9793593801782638  0.2960308480102726   T   T   T
 -0.0015856360024579  0.7691781100976669  0.2973755902278702   T   T   T
  0.5014297253007254  0.1058943955385887  0.2956007214514386   T   T   T
  0.7536712787559422  0.1471615774445023  0.2960150528406367   T   T   T
  0.7558171160582638  0.2309680049695212  0.2976008300289300   T   T   T
  0.5005266241748629  0.0217099490289021  0.2955493741700871   T   T   T
  0.7483857751297976  0.3928443419139473  0.3025611166076425   T   T   T
  0.7403547005651337  0.4792361453814180  0.3043300325725903   T   T   T
  0.5063907244146199  0.2722380023447651  0.2967478153012734   T   T   T
  0.4939874852293645  0.6036344476950323  0.2926720890290976   T   T   T
  0.7481954897763535  0.7276209212463919  0.2960414915243210   T   T   T
  0.4977416095598726  0.8528856847158320  0.2956118532901917   T   T   T
  0.7489912181100419  0.8950614969735331  0.2958480652481323   T   T   T
  0.7502743236253399  0.9792725504994179  0.2957569649236040   T   T   T
  0.4967109072486524  0.7687034639502155  0.2954338215625189   T   T   T
  0.7474438462876191  0.6445569788937958  0.2962836274428383   T   T   T
  0.0012401445905682  0.0213186350280097  0.2962227436867044   T   T   T
  0.4990540206290399  0.5218173973502084  0.2907223711655240   T   T   T
 -0.0075599769301891  0.5188954889224843  0.3208136579668334   T   T   T
  0.5172323604185126  0.3518197472661135  0.2938954578678300   T   T   T
 -0.0137053135071035  0.3561284631414415  0.3165862587990102   T   T   T
  0.2438302767183801  0.6442952462232286  0.2982995594605079   T   T   T
  0.2832021179103190  0.4390713027995956  0.3269039872625288   T   T   T
 
  0.00000000E+00  0.00000000E+00  0.00000000E+00
  0.00000000E+00  0.00000000E+00  0.00000000E+00
  0.00000000E+00  0.00000000E+00  0.00000000E+00
  0.00000000E+00  0.00000000E+00  0.00000000E+00
  0.00000000E+00  0.00000000E+00  0.00000000E+00
  0.00000000E+00  0.00000000E+00  0.00000000E+00
  0.00000000E+00  0.00000000E+00  0.00000000E+00
  0.00000000E+00  0.00000000E+00  0.00000000E+00
  0.00000000E+00  0.00000000E+00  0.00000000E+00
  0.00000000E+00  0.00000000E+00  0.00000000E+00
  0.00000000E+00  0.00000000E+00  0.00000000E+00
  0.00000000E+00  0.00000000E+00  0.00000000E+00
  0.00000000E+00  0.00000000E+00  0.00000000E+00
  0.00000000E+00  0.00000000E+00  0.00000000E+00
  0.00000000E+00  0.00000000E+00  0.00000000E+00
  0.00000000E+00  0.00000000E+00  0.00000000E+00
  0.00000000E+00  0.00000000E+00  0.00000000E+00
  0.00000000E+00  0.00000000E+00  0.00000000E+00
  0.00000000E+00  0.00000000E+00  0.00000000E+00
  0.00000000E+00  0.00000000E+00  0.00000000E+00
  0.00000000E+00  0.00000000E+00  0.00000000E+00
  0.00000000E+00  0.00000000E+00  0.00000000E+00
  0.00000000E+00  0.00000000E+00  0.00000000E+00
  0.00000000E+00  0.00000000E+00  0.00000000E+00
  0.00000000E+00  0.00000000E+00  0.00000000E+00
  0.00000000E+00  0.00000000E+00  0.00000000E+00
  0.00000000E+00  0.00000000E+00  0.00000000E+00
  0.00000000E+00  0.00000000E+00  0.00000000E+00
  0.00000000E+00  0.00000000E+00  0.00000000E+00
  0.00000000E+00  0.00000000E+00  0.00000000E+00
  0.00000000E+00  0.00000000E+00  0.00000000E+00
