Title                                   
   1.00000000000000     
     4.9440799999999996    0.0000000000000000    0.0000000000000000
     0.0000000000000000   17.1295089999999988    0.0000000000000000
     0.0000000000000000    0.0000000000000000   20.0000000000000000
    28     3     1
Selective dynamics
Direct
  0.0010960743071872  0.1049351665412689  0.2861838217098171   T   T   T
  0.2511665680549175  0.1468597698583466  0.2892994193482212   T   T   T
  0.2517765989412560  0.2298493600589074  0.2977826185753046   T   T   T
  0.0048506412504129  0.3515520249742412  0.3165563178262635   T   T   T
  0.0003841084987952  0.2712904079401053  0.3014951876617238   T   T   T
 -0.0051522040824930  0.6030449114560826  0.3026084118839982   T   T   T
  0.2491094484999422  0.7275512950990985  0.2924077917661363   T   T   T
  0.0004940964039294  0.8537309272388920  0.2841519091012676   T   T   T
  0.2502019962423973  0.8957681870485249  0.2834676597541206   T   T   T
  0.2506037662443714  0.9794201736313147  0.2829750948553739   T   T   T
  0.0002671605347426  0.7700642929179441  0.2879025750013072   T   T   T
  0.5008213240533741  0.1048711443131070  0.2863066464229700   T   T   T
  0.7509381021594149  0.1469953482475118  0.2880469792802154   T   T   T
  0.7510346640516679  0.2297361065887492  0.2945041205211247   T   T   T
  0.5007507322526393  0.0213948502910944  0.2834577144065508   T   T   T
  0.4993835738373646  0.3523566730880186  0.3177109406398264   T   T   T
  0.7514356393884692  0.4812862911106572  0.3201487811283737   T   T   T
  0.5026130419875597  0.2716185803114228  0.3020294885930099   T   T   T
  0.5039082615227857  0.6047878241284674  0.3106581056789943   T   T   T
  0.7500513852242509  0.7289714882439513  0.2908563015734177   T   T   T
  0.4997107716376081  0.8536449830619511  0.2847230053403612   T   T   T
  0.7502422255273331  0.8955985084751718  0.2832239454771403   T   T   T
  0.7506337771536127  0.9793020352377183  0.2826753898274081   T   T   T
  0.4992250623561982  0.7700141201405137  0.2891368151776995   T   T   T
  0.7494569151800878  0.6458400757889683  0.2992776031360304   T   T   T
  0.2494357620343301  0.6441007147975648  0.3022290379990547   T   T   T
  0.0006332265827714  0.0214293632032529  0.2833433660972930   T   T   T
  0.5190103103935588  0.5251252840923183  0.3349219750327297   T   T   T
  0.9882219911229799  0.5211956157824135  0.3061575023706916   T   T   T
  0.2514820435944879  0.3860637374211527  0.3352294669191282   T   T   T
  0.7527670154946419  0.3960173996435590  0.3199696473948514   T   T   T
  0.2202689195494145  0.4841343392677039  0.3831273594995466   T   T   T
 
  0.00000000E+00  0.00000000E+00  0.00000000E+00
  0.00000000E+00  0.00000000E+00  0.00000000E+00
  0.00000000E+00  0.00000000E+00  0.00000000E+00
  0.00000000E+00  0.00000000E+00  0.00000000E+00
  0.00000000E+00  0.00000000E+00  0.00000000E+00
  0.00000000E+00  0.00000000E+00  0.00000000E+00
  0.00000000E+00  0.00000000E+00  0.00000000E+00
  0.00000000E+00  0.00000000E+00  0.00000000E+00
  0.00000000E+00  0.00000000E+00  0.00000000E+00
  0.00000000E+00  0.00000000E+00  0.00000000E+00
  0.00000000E+00  0.00000000E+00  0.00000000E+00
  0.00000000E+00  0.00000000E+00  0.00000000E+00
  0.00000000E+00  0.00000000E+00  0.00000000E+00
  0.00000000E+00  0.00000000E+00  0.00000000E+00
  0.00000000E+00  0.00000000E+00  0.00000000E+00
  0.00000000E+00  0.00000000E+00  0.00000000E+00
  0.00000000E+00  0.00000000E+00  0.00000000E+00
  0.00000000E+00  0.00000000E+00  0.00000000E+00
  0.00000000E+00  0.00000000E+00  0.00000000E+00
  0.00000000E+00  0.00000000E+00  0.00000000E+00
  0.00000000E+00  0.00000000E+00  0.00000000E+00
  0.00000000E+00  0.00000000E+00  0.00000000E+00
  0.00000000E+00  0.00000000E+00  0.00000000E+00
  0.00000000E+00  0.00000000E+00  0.00000000E+00
  0.00000000E+00  0.00000000E+00  0.00000000E+00
  0.00000000E+00  0.00000000E+00  0.00000000E+00
  0.00000000E+00  0.00000000E+00  0.00000000E+00
  0.00000000E+00  0.00000000E+00  0.00000000E+00
  0.00000000E+00  0.00000000E+00  0.00000000E+00
  0.00000000E+00  0.00000000E+00  0.00000000E+00
  0.00000000E+00  0.00000000E+00  0.00000000E+00
  0.00000000E+00  0.00000000E+00  0.00000000E+00
