Title                                   
   1.00000000000000     
     9.8694509999999998    0.0000000000000000    0.0000000000000000
     0.0000000000000000    8.5490480000000009    0.0000000000000000
     0.0000000000000000    0.0000000000000000   20.0000000000000000
    28     2     1
Selective dynamics
Direct
  0.0548215465629731  0.0891315845449731  0.0854265887635180   T   T   T
  0.9295832717677911  0.1741982677017611  0.0862931286527457   T   T   T
  0.0575808850301260  0.9232541729589641  0.0854268982053275   T   T   T
  0.9316649155176627  0.3414382156427035  0.0857393782620572   T   T   T
  0.0566695756062289  0.5895100395385687  0.0836496462716069   T   T   T
  0.9341401944506442  0.6765651067011373  0.0871326871484157   T   T   T
  0.0558034084155012  0.4228274852353061  0.0836772346856684   T   T   T
  0.9329825788842993  0.8428115184200082  0.0882805959324320   T   T   T
  0.3052059339517508  0.0871375006172177  0.0940092640279857   T   T   T
  0.1794420276237898  0.1695428853660077  0.0883750654794285   T   T   T
  0.3085008054981197  0.9187222996207164  0.0919135810555357   T   T   T
  0.1783130325170247  0.3357665315145370  0.0872742264366706   T   T   T
  0.3033129759772972  0.5846346991364706  0.0920561998186717   T   T   T
  0.1807797626090759  0.6709367453111539  0.0858474825906086   T   T   T
  0.3008146588190533  0.4151570080781732  0.0960706987877891   T   T   T
  0.1828123604353358  0.8381932095792802  0.0863935759284429   T   T   T
  0.5549074464441833  0.0909119231230791  0.1036336713785238   T   T   T
  0.4259387018159246  0.1751743976830444  0.1037973026656952   T   T   T
  0.5575794867311515  0.9213833240439292  0.1036480091597812   T   T   T
  0.4269175282806207  0.6641058743027237  0.0984663062601056   T   T   T
  0.4337999079641952  0.8320046534104975  0.0979578984698647   T   T   T
  0.8039284296714859  0.0936141818279185  0.0917563706923268   T   T   T
  0.6786592281357376  0.1802723584694375  0.0977967061061448   T   T   T
  0.8072259150568174  0.9252028218076198  0.0938518415059377   T   T   T
  0.6855937896918549  0.3481570771715415  0.0982480638161409   T   T   T
  0.8116463548481511  0.5971535085596957  0.0958496868173645   T   T   T
  0.8091355135922687  0.4276948329543584  0.0918299868547859   T   T   T
  0.6865400610173608  0.8371111308369727  0.1036622254717225   T   T   T
  0.4178127481833671  0.3358628624496391  0.1107602353929056   T   T   T
  0.6946832848830244  0.6764081704270550  0.1105873148544101   T   T   T
  0.5563386700171929  0.5059906129655204  0.1315531285074277   T   T   T
 
  0.00000000E+00  0.00000000E+00  0.00000000E+00
  0.00000000E+00  0.00000000E+00  0.00000000E+00
  0.00000000E+00  0.00000000E+00  0.00000000E+00
  0.00000000E+00  0.00000000E+00  0.00000000E+00
  0.00000000E+00  0.00000000E+00  0.00000000E+00
  0.00000000E+00  0.00000000E+00  0.00000000E+00
  0.00000000E+00  0.00000000E+00  0.00000000E+00
  0.00000000E+00  0.00000000E+00  0.00000000E+00
  0.00000000E+00  0.00000000E+00  0.00000000E+00
  0.00000000E+00  0.00000000E+00  0.00000000E+00
  0.00000000E+00  0.00000000E+00  0.00000000E+00
  0.00000000E+00  0.00000000E+00  0.00000000E+00
  0.00000000E+00  0.00000000E+00  0.00000000E+00
  0.00000000E+00  0.00000000E+00  0.00000000E+00
  0.00000000E+00  0.00000000E+00  0.00000000E+00
  0.00000000E+00  0.00000000E+00  0.00000000E+00
  0.00000000E+00  0.00000000E+00  0.00000000E+00
  0.00000000E+00  0.00000000E+00  0.00000000E+00
  0.00000000E+00  0.00000000E+00  0.00000000E+00
  0.00000000E+00  0.00000000E+00  0.00000000E+00
  0.00000000E+00  0.00000000E+00  0.00000000E+00
  0.00000000E+00  0.00000000E+00  0.00000000E+00
  0.00000000E+00  0.00000000E+00  0.00000000E+00
  0.00000000E+00  0.00000000E+00  0.00000000E+00
  0.00000000E+00  0.00000000E+00  0.00000000E+00
  0.00000000E+00  0.00000000E+00  0.00000000E+00
  0.00000000E+00  0.00000000E+00  0.00000000E+00
  0.00000000E+00  0.00000000E+00  0.00000000E+00
  0.00000000E+00  0.00000000E+00  0.00000000E+00
  0.00000000E+00  0.00000000E+00  0.00000000E+00
  0.00000000E+00  0.00000000E+00  0.00000000E+00
