Title                                   
   1.00000000000000     
     4.9440799999999996    0.0000000000000000    0.0000000000000000
     0.0000000000000000   17.1295089999999988    0.0000000000000000
     0.0000000000000000    0.0000000000000000   20.0000000000000000
    28     3     1
Selective dynamics
Direct
  0.0037205563816125  0.1044366563930144  0.2910591227166416   T   T   T
  0.2540536020897238  0.1463248490112471  0.2942280622805294   T   T   T
  0.2546104855248593  0.2294804436000422  0.3021881838015280   T   T   T
  0.0106532532616374  0.3519413184489980  0.3173010036174074   T   T   T
  0.0033899649333516  0.2709649940398645  0.3047767842118456   T   T   T
 -0.0055680311902717  0.5999541521818871  0.2945108096105989   T   T   T
  0.2501656686893372  0.7266236081666103  0.2909052516865279   T   T   T
  0.0025219650918286  0.8531163374485378  0.2869859335134725   T   T   T
  0.2523104269003763  0.8951419220907160  0.2869652816890304   T   T   T
  0.2529906865488037  0.9789101813251315  0.2873940383303862   T   T   T
  0.0022636114062173  0.7693597725615831  0.2886159975482337   T   T   T
  0.5036024258407661  0.1043463330175082  0.2912960527496599   T   T   T
  0.7535711673051472  0.1465330714030041  0.2930182225417840   T   T   T
  0.7538616390733511  0.2293513972959253  0.2990665618396932   T   T   T
  0.5032426093282638  0.0208088383948168  0.2881650151934333   T   T   T
  0.4987313594752143  0.3528108810102411  0.3198372664705841   T   T   T
  0.7520341004621679  0.4811640968218392  0.3084723036883634   T   T   T
  0.5055156503573701  0.2714722251985604  0.3062526689286565   T   T   T
  0.5049502547507090  0.6028816903637131  0.3015294667499271   T   T   T
  0.7515892217761978  0.7280785006219644  0.2904357250551286   T   T   T
  0.5013530732216315  0.8529952890255610  0.2876329497672644   T   T   T
  0.7520942059927119  0.8949571633569483  0.2868597897104798   T   T   T
  0.7528771725489815  0.9786679486633726  0.2871601797350428   T   T   T
  0.5000538854861232  0.7691037574770015  0.2897900101848326   T   T   T
  0.7502501076697168  0.6449974974448683  0.2947346456744605   T   T   T
  0.2503588076214130  0.6417598793971472  0.2951701002744044   T   T   T
  0.0030861812311341  0.0208741244157114  0.2879763863247237   T   T   T
  0.5226905148221714  0.5233576921650682  0.3251950479079291   T   T   T
  0.9848597283421381  0.5168589407646283  0.2846946574399924   T   T   T
  0.2530137187483726  0.3886047139094854  0.3329948990954237   T   T   T
  0.7569006411219279  0.3964290181254763  0.3196175907687868   T   T   T
  0.1610743451870206  0.5062437058595217  0.3877349908931806   T   T   T
 
  0.00000000E+00  0.00000000E+00  0.00000000E+00
  0.00000000E+00  0.00000000E+00  0.00000000E+00
  0.00000000E+00  0.00000000E+00  0.00000000E+00
  0.00000000E+00  0.00000000E+00  0.00000000E+00
  0.00000000E+00  0.00000000E+00  0.00000000E+00
  0.00000000E+00  0.00000000E+00  0.00000000E+00
  0.00000000E+00  0.00000000E+00  0.00000000E+00
  0.00000000E+00  0.00000000E+00  0.00000000E+00
  0.00000000E+00  0.00000000E+00  0.00000000E+00
  0.00000000E+00  0.00000000E+00  0.00000000E+00
  0.00000000E+00  0.00000000E+00  0.00000000E+00
  0.00000000E+00  0.00000000E+00  0.00000000E+00
  0.00000000E+00  0.00000000E+00  0.00000000E+00
  0.00000000E+00  0.00000000E+00  0.00000000E+00
  0.00000000E+00  0.00000000E+00  0.00000000E+00
  0.00000000E+00  0.00000000E+00  0.00000000E+00
  0.00000000E+00  0.00000000E+00  0.00000000E+00
  0.00000000E+00  0.00000000E+00  0.00000000E+00
  0.00000000E+00  0.00000000E+00  0.00000000E+00
  0.00000000E+00  0.00000000E+00  0.00000000E+00
  0.00000000E+00  0.00000000E+00  0.00000000E+00
  0.00000000E+00  0.00000000E+00  0.00000000E+00
  0.00000000E+00  0.00000000E+00  0.00000000E+00
  0.00000000E+00  0.00000000E+00  0.00000000E+00
  0.00000000E+00  0.00000000E+00  0.00000000E+00
  0.00000000E+00  0.00000000E+00  0.00000000E+00
  0.00000000E+00  0.00000000E+00  0.00000000E+00
  0.00000000E+00  0.00000000E+00  0.00000000E+00
  0.00000000E+00  0.00000000E+00  0.00000000E+00
  0.00000000E+00  0.00000000E+00  0.00000000E+00
  0.00000000E+00  0.00000000E+00  0.00000000E+00
  0.00000000E+00  0.00000000E+00  0.00000000E+00
