Title                                   
   1.00000000000000     
     9.8694509999999998    0.0000000000000000    0.0000000000000000
     0.0000000000000000    8.5490480000000009    0.0000000000000000
     0.0000000000000000    0.0000000000000000   20.0000000000000000
    26     4     1
Selective dynamics
Direct
  0.0563515075722666  0.0895083806429200  0.0909093480150397   T   T   T
  0.9312696760943545  0.1721860702126294  0.0950433222288659   T   T   T
  0.0577917435097104  0.9229340629975099  0.0912005743327482   T   T   T
  0.9336245309236079  0.3393081713582706  0.0981265214981649   T   T   T
  0.0588142500402894  0.5897386851508264  0.0945765352209577   T   T   T
  0.9338520404046132  0.6726886614255518  0.0984840569622751   T   T   T
  0.0586249569816294  0.4227133867172008  0.0941051567919265   T   T   T
  0.9321017360199856  0.8396723635358556  0.0954938441768353   T   T   T
  0.3079057907893982  0.0881422411242474  0.0860262954452757   T   T   T
  0.1824941949941545  0.1723439009925220  0.0880493966374943   T   T   T
  0.1825142864137080  0.3388078170114063  0.0889825900590532   T   T   T
  0.3087410737614587  0.5903265624134253  0.0846965107090988   T   T   T
  0.1829572913814121  0.6732872064175613  0.0900100561516116   T   T   T
  0.3086400292284908  0.4209903156209827  0.0843153659539869   T   T   T
  0.1822638567723800  0.8391228968692640  0.0887445842157935   T   T   T
  0.4307637478827824  0.1736241919881822  0.0869838893203349   T   T   T
  0.5539789000989882  0.9224720951986149  0.0945324135376078   T   T   T
  0.4303421898684244  0.8390199376506661  0.0871571854315832   T   T   T
  0.8044978669175706  0.0894131868898271  0.0961058803553993   T   T   T
  0.6799089184046130  0.1776375072682919  0.1000605435770043   T   T   T
  0.8058013182903564  0.9222418665728359  0.0965405117786213   T   T   T
  0.6830487394596275  0.3415421984942782  0.1099864242557521   T   T   T
  0.8102325027924392  0.5903243630422979  0.1056571576206524   T   T   T
  0.6840946155181333  0.6702175981813744  0.1097714140744159   T   T   T
  0.8100001391448816  0.4210469081150910  0.1057273776728079   T   T   T
  0.6800527288321725  0.8358172529744395  0.1007020209953538   T   T   T
  0.5553485629739568  0.0925062317111396  0.0937766276378435   T   T   T
  0.4293297224027676  0.3346685547747861  0.0838282141991353   T   T   T
  0.4283621368472282  0.6782907970837411  0.0834461357510550   T   T   T
  0.3064692571416561  0.9225734847228952  0.0854740216757629   T   T   T
  0.5329566885369563  0.5077081028413708  0.1324510237175911   T   T   T
 
  0.00000000E+00  0.00000000E+00  0.00000000E+00
  0.00000000E+00  0.00000000E+00  0.00000000E+00
  0.00000000E+00  0.00000000E+00  0.00000000E+00
  0.00000000E+00  0.00000000E+00  0.00000000E+00
  0.00000000E+00  0.00000000E+00  0.00000000E+00
  0.00000000E+00  0.00000000E+00  0.00000000E+00
  0.00000000E+00  0.00000000E+00  0.00000000E+00
  0.00000000E+00  0.00000000E+00  0.00000000E+00
  0.00000000E+00  0.00000000E+00  0.00000000E+00
  0.00000000E+00  0.00000000E+00  0.00000000E+00
  0.00000000E+00  0.00000000E+00  0.00000000E+00
  0.00000000E+00  0.00000000E+00  0.00000000E+00
  0.00000000E+00  0.00000000E+00  0.00000000E+00
  0.00000000E+00  0.00000000E+00  0.00000000E+00
  0.00000000E+00  0.00000000E+00  0.00000000E+00
  0.00000000E+00  0.00000000E+00  0.00000000E+00
  0.00000000E+00  0.00000000E+00  0.00000000E+00
  0.00000000E+00  0.00000000E+00  0.00000000E+00
  0.00000000E+00  0.00000000E+00  0.00000000E+00
  0.00000000E+00  0.00000000E+00  0.00000000E+00
  0.00000000E+00  0.00000000E+00  0.00000000E+00
  0.00000000E+00  0.00000000E+00  0.00000000E+00
  0.00000000E+00  0.00000000E+00  0.00000000E+00
  0.00000000E+00  0.00000000E+00  0.00000000E+00
  0.00000000E+00  0.00000000E+00  0.00000000E+00
  0.00000000E+00  0.00000000E+00  0.00000000E+00
  0.00000000E+00  0.00000000E+00  0.00000000E+00
  0.00000000E+00  0.00000000E+00  0.00000000E+00
  0.00000000E+00  0.00000000E+00  0.00000000E+00
  0.00000000E+00  0.00000000E+00  0.00000000E+00
  0.00000000E+00  0.00000000E+00  0.00000000E+00
