Title                                   
   1.00000000000000     
     9.8694509999999998    0.0000000000000000    0.0000000000000000
     0.0000000000000000    8.5490480000000009    0.0000000000000000
     0.0000000000000000    0.0000000000000000   20.0000000000000000
    29     2     1
Selective dynamics
Direct
  0.0566695374910135  0.0906911581300808  0.0829117928718614   T   T   T
  0.9313763335575412  0.1731612220876527  0.0856719884360942   T   T   T
  0.0558456343185222  0.9234523799912986  0.0833166092366670   T   T   T
  0.9312273550062569  0.3400052701484341  0.0903680565310106   T   T   T
  0.0566501947205644  0.5892902812517018  0.0880350673933633   T   T   T
  0.9315497411477626  0.6722609747804380  0.0905592254510040   T   T   T
  0.0570619726765406  0.4231474163565204  0.0886633735950443   T   T   T
  0.9307864064422673  0.8389226817690409  0.0864554151455390   T   T   T
  0.3057911520045575  0.0898800655550436  0.0849764556320830   T   T   T
  0.1821027665903563  0.1745865185721433  0.0847487254710642   T   T   T
  0.3059704497608088  0.9242590805179072  0.0858774187839956   T   T   T
  0.1833217915281624  0.3419554606759951  0.0889768059932260   T   T   T
  0.3053133700664609  0.5939494412537075  0.0991299208057915   T   T   T
  0.1810415775546954  0.6737492665384558  0.0890134167016610   T   T   T
  0.3091508354725632  0.4254645086110182  0.0977677741001968   T   T   T
  0.1806438134407586  0.8402117863880016  0.0857290362497350   T   T   T
  0.5560336703953125  0.0856325858823128  0.0940992535741477   T   T   T
  0.4313125286113395  0.1697413192651231  0.0919067419657480   T   T   T
  0.4323308254084134  0.3342870455197421  0.1025260993365968   T   T   T
  0.5573746930487576  0.4043594617923572  0.1205763193841951   T   T   T
  0.4282148545877846  0.8412973681343434  0.0963058828832398   T   T   T
  0.8074296656521905  0.0882437514652174  0.0867081589113034   T   T   T
  0.6820313044197109  0.1679574143302751  0.0938079826906836   T   T   T
  0.8054148045901849  0.9227344114630528  0.0873405133900703   T   T   T
  0.6828856338315648  0.3323373951202393  0.1048756838002789   T   T   T
  0.8082533406733206  0.5904458016886659  0.1029406297640473   T   T   T
  0.6892974362383555  0.6814109459283121  0.1178439600770538   T   T   T
  0.8066260998450534  0.4218703736993531  0.1008743217049739   T   T   T
  0.6820877697091032  0.8396889544613259  0.0985731876526049   T   T   T
  0.4207554806703318  0.6861254900544060  0.1147850178024539   T   T   T
  0.5549848810035345  0.9203194689603794  0.0970187773685564   T   T   T
  0.5501030795362157  0.5888066996074421  0.1812913872957549   T   T   T
 
  0.00000000E+00  0.00000000E+00  0.00000000E+00
  0.00000000E+00  0.00000000E+00  0.00000000E+00
  0.00000000E+00  0.00000000E+00  0.00000000E+00
  0.00000000E+00  0.00000000E+00  0.00000000E+00
  0.00000000E+00  0.00000000E+00  0.00000000E+00
  0.00000000E+00  0.00000000E+00  0.00000000E+00
  0.00000000E+00  0.00000000E+00  0.00000000E+00
  0.00000000E+00  0.00000000E+00  0.00000000E+00
  0.00000000E+00  0.00000000E+00  0.00000000E+00
  0.00000000E+00  0.00000000E+00  0.00000000E+00
  0.00000000E+00  0.00000000E+00  0.00000000E+00
  0.00000000E+00  0.00000000E+00  0.00000000E+00
  0.00000000E+00  0.00000000E+00  0.00000000E+00
  0.00000000E+00  0.00000000E+00  0.00000000E+00
  0.00000000E+00  0.00000000E+00  0.00000000E+00
  0.00000000E+00  0.00000000E+00  0.00000000E+00
  0.00000000E+00  0.00000000E+00  0.00000000E+00
  0.00000000E+00  0.00000000E+00  0.00000000E+00
  0.00000000E+00  0.00000000E+00  0.00000000E+00
  0.00000000E+00  0.00000000E+00  0.00000000E+00
  0.00000000E+00  0.00000000E+00  0.00000000E+00
  0.00000000E+00  0.00000000E+00  0.00000000E+00
  0.00000000E+00  0.00000000E+00  0.00000000E+00
  0.00000000E+00  0.00000000E+00  0.00000000E+00
  0.00000000E+00  0.00000000E+00  0.00000000E+00
  0.00000000E+00  0.00000000E+00  0.00000000E+00
  0.00000000E+00  0.00000000E+00  0.00000000E+00
  0.00000000E+00  0.00000000E+00  0.00000000E+00
  0.00000000E+00  0.00000000E+00  0.00000000E+00
  0.00000000E+00  0.00000000E+00  0.00000000E+00
  0.00000000E+00  0.00000000E+00  0.00000000E+00
  0.00000000E+00  0.00000000E+00  0.00000000E+00
