Title                                   
   1.00000000000000     
     9.8694509999999998    0.0000000000000000    0.0000000000000000
     0.0000000000000000    8.5490480000000009    0.0000000000000000
     0.0000000000000000    0.0000000000000000   20.0000000000000000
    25     5     1
Selective dynamics
Direct
  0.0557848893718762  0.0894813858452281  0.0928447311478000   T   T   T
  0.9319584193078474  0.1716054619224617  0.0936482246000347   T   T   T
  0.0574665669114623  0.9232814765165441  0.0930305742741181   T   T   T
  0.9336480174954723  0.3391648497127294  0.0933885559585679   T   T   T
  0.0566598129952954  0.5897575492754348  0.0918571264630670   T   T   T
  0.9338568317073824  0.6734441445965076  0.0934382104155776   T   T   T
  0.0567022646013850  0.4231688237180089  0.0918305801976873   T   T   T
  0.9323318460237811  0.8402490992963768  0.0937763608666990   T   T   T
  0.3058624610660493  0.0887547370185637  0.0963824558525823   T   T   T
  0.1806903664408443  0.1705158521007907  0.0937263089482241   T   T   T
  0.1792201976928576  0.3384958048614690  0.0934509237892411   T   T   T
  0.3007021867419687  0.5909225578656911  0.0970753694683295   T   T   T
  0.1797507761380885  0.6739368637522543  0.0935385721543596   T   T   T
  0.3010634614489558  0.4210026443627836  0.0971088050526966   T   T   T
  0.1811950557086211  0.8412992501334744  0.0939403584125238   T   T   T
  0.5563414188165129  0.0930144076321433  0.1006595429619666   T   T   T
  0.4287301613887476  0.1768820913555567  0.0998523735191671   T   T   T
  0.5551781073549088  0.9198172990702749  0.1004992649533580   T   T   T
  0.4279579672505873  0.8348901012621891  0.0996751760086838   T   T   T
  0.8061027950948710  0.0900580543335442  0.0961953113953801   T   T   T
  0.6834931162572572  0.1782513713128105  0.0996228915173501   T   T   T
  0.8063316331053150  0.9218284654208000  0.0961926950706476   T   T   T
  0.8117131036764129  0.5915435228084740  0.0969408277679328   T   T   T
  0.8116927006059554  0.4207489145898394  0.0969702963232299   T   T   T
  0.6829537259523184  0.8335718960577071  0.0994854710769506   T   T   T
  0.4208213029586508  0.3394174955497413  0.1014750026092522   T   T   T
  0.4203688787597880  0.6743910053417087  0.1014462058863217   T   T   T
  0.6910562512625753  0.3410381323551528  0.1011401969532641   T   T   T
  0.6913221193755751  0.6713506205879486  0.1010598216946828   T   T   T
  0.3061471502942061  0.9224948511269547  0.0962927182273923   T   T   T
  0.5560324141944313  0.5064962702168353  0.1044200464329692   T   T   T
 
  0.00000000E+00  0.00000000E+00  0.00000000E+00
  0.00000000E+00  0.00000000E+00  0.00000000E+00
  0.00000000E+00  0.00000000E+00  0.00000000E+00
  0.00000000E+00  0.00000000E+00  0.00000000E+00
  0.00000000E+00  0.00000000E+00  0.00000000E+00
  0.00000000E+00  0.00000000E+00  0.00000000E+00
  0.00000000E+00  0.00000000E+00  0.00000000E+00
  0.00000000E+00  0.00000000E+00  0.00000000E+00
  0.00000000E+00  0.00000000E+00  0.00000000E+00
  0.00000000E+00  0.00000000E+00  0.00000000E+00
  0.00000000E+00  0.00000000E+00  0.00000000E+00
  0.00000000E+00  0.00000000E+00  0.00000000E+00
  0.00000000E+00  0.00000000E+00  0.00000000E+00
  0.00000000E+00  0.00000000E+00  0.00000000E+00
  0.00000000E+00  0.00000000E+00  0.00000000E+00
  0.00000000E+00  0.00000000E+00  0.00000000E+00
  0.00000000E+00  0.00000000E+00  0.00000000E+00
  0.00000000E+00  0.00000000E+00  0.00000000E+00
  0.00000000E+00  0.00000000E+00  0.00000000E+00
  0.00000000E+00  0.00000000E+00  0.00000000E+00
  0.00000000E+00  0.00000000E+00  0.00000000E+00
  0.00000000E+00  0.00000000E+00  0.00000000E+00
  0.00000000E+00  0.00000000E+00  0.00000000E+00
  0.00000000E+00  0.00000000E+00  0.00000000E+00
  0.00000000E+00  0.00000000E+00  0.00000000E+00
  0.00000000E+00  0.00000000E+00  0.00000000E+00
  0.00000000E+00  0.00000000E+00  0.00000000E+00
  0.00000000E+00  0.00000000E+00  0.00000000E+00
  0.00000000E+00  0.00000000E+00  0.00000000E+00
  0.00000000E+00  0.00000000E+00  0.00000000E+00
  0.00000000E+00  0.00000000E+00  0.00000000E+00
