Title                                   
   1.00000000000000     
     8.5490480000000009    0.0000000000000000    0.0000000000000000
     0.0000000000000000    8.5490480000000009    0.0000000000000000
     0.0000000000000000    0.0000000000000000   20.0000000000000000
    20     4     1
Selective dynamics
Direct
  0.9074054509514693  0.2068583893711770  0.0944450638003817   T   T   T
  0.9118492664864087  0.8014299728464193  0.0953681414273161   T   T   T
  0.1970565533784081  0.0825258880439756  0.0950205773069824   T   T   T
  0.0754629439398724  0.2016032735629284  0.0954429119360550   T   T   T
  0.1572635335631026  0.6493888076641225  0.0961209628972139   T   T   T
  0.0750556730512988  0.5006439221109396  0.0971532935325236   T   T   T
  0.1546104650219620  0.3524022980393412  0.0984667207503984   T   T   T
  0.0803243062473367  0.7988063099120141  0.0947951101202996   T   T   T
  0.3458231575030462  0.1617824139926888  0.0976607677226482   T   T   T
  0.4947886462622106  0.9179532332569798  0.0970925227788580   T   T   T
  0.3459447303719818  0.8372363398533765  0.0955810063081325   T   T   T
  0.7870999141140812  0.0877063132781768  0.0949791891136589   T   T   T
  0.6374817526249825  0.1678974912284974  0.0966179942516123   T   T   T
  0.7903888675135496  0.9199925723407385  0.0958712476536385   T   T   T
  0.8308776375842269  0.6529257335671723  0.0975322178628042   T   T   T
  0.8265656086214930  0.3571545198473846  0.0953193499737588   T   T   T
  0.6436009425105708  0.8378834209627644  0.0984216074805883   T   T   T
  0.3241836664388979  0.3276654721409423  0.1026543633344389   T   T   T
  0.3245916959234829  0.6738016948990394  0.0961554914080820   T   T   T
  0.6595619208669419  0.3359364919479199  0.0974274720905606   T   T   T
  0.4943015376246070  0.0838285502118791  0.0968941926748145   T   T   T
  0.9075229892647944  0.5036246135314998  0.0963888803326128   T   T   T
  0.6697331232358954  0.6733277876994465  0.1015427092346640   T   T   T
  0.1969256816147652  0.9155705620930121  0.0943008702701480   T   T   T
  0.4869919352846069  0.4968439275975768  0.1274523357377915   T   T   T
 
  0.00000000E+00  0.00000000E+00  0.00000000E+00
  0.00000000E+00  0.00000000E+00  0.00000000E+00
  0.00000000E+00  0.00000000E+00  0.00000000E+00
  0.00000000E+00  0.00000000E+00  0.00000000E+00
  0.00000000E+00  0.00000000E+00  0.00000000E+00
  0.00000000E+00  0.00000000E+00  0.00000000E+00
  0.00000000E+00  0.00000000E+00  0.00000000E+00
  0.00000000E+00  0.00000000E+00  0.00000000E+00
  0.00000000E+00  0.00000000E+00  0.00000000E+00
  0.00000000E+00  0.00000000E+00  0.00000000E+00
  0.00000000E+00  0.00000000E+00  0.00000000E+00
  0.00000000E+00  0.00000000E+00  0.00000000E+00
  0.00000000E+00  0.00000000E+00  0.00000000E+00
  0.00000000E+00  0.00000000E+00  0.00000000E+00
  0.00000000E+00  0.00000000E+00  0.00000000E+00
  0.00000000E+00  0.00000000E+00  0.00000000E+00
  0.00000000E+00  0.00000000E+00  0.00000000E+00
  0.00000000E+00  0.00000000E+00  0.00000000E+00
  0.00000000E+00  0.00000000E+00  0.00000000E+00
  0.00000000E+00  0.00000000E+00  0.00000000E+00
  0.00000000E+00  0.00000000E+00  0.00000000E+00
  0.00000000E+00  0.00000000E+00  0.00000000E+00
  0.00000000E+00  0.00000000E+00  0.00000000E+00
  0.00000000E+00  0.00000000E+00  0.00000000E+00
  0.00000000E+00  0.00000000E+00  0.00000000E+00
