Title                                   
   1.00000000000000     
     9.8694509999999998    0.0000000000000000    0.0000000000000000
     0.0000000000000000    8.5490480000000009    0.0000000000000000
     0.0000000000000000    0.0000000000000000   20.0000000000000000
    30     1
Selective dynamics
Direct
  0.0562737654996308  0.0888095268092296  0.0893230129382414   T   T   T
  0.9311757411576164  0.1719442411424615  0.0905418393473315   T   T   T
  0.0562533683740461  0.9234922177335179  0.0893203903301251   T   T   T
  0.9325193959790316  0.3384765379945039  0.0910233375410632   T   T   T
  0.0562953126684171  0.5894571436164493  0.0900122000651817   T   T   T
  0.9325253841662343  0.6738217682084272  0.0910491518800070   T   T   T
  0.0562801004300472  0.4228471089451470  0.0900087932714988   T   T   T
  0.9311608473259949  0.8403689137211516  0.0905630213872319   T   T   T
  0.3068227137766377  0.0899995533768606  0.0918447105515347   T   T   T
  0.1813750923777536  0.1719710651633961  0.0902085514015119   T   T   T
  0.3068266236836735  0.9222778766157017  0.0917787014485329   T   T   T
  0.1800260783879300  0.3384977203440220  0.0907381020582281   T   T   T
  0.3035754070162219  0.5907080989205219  0.0939654843029169   T   T   T
  0.1800462460302150  0.6738121805493026  0.0906886324944805   T   T   T
  0.3035448057988981  0.4215783485359428  0.0940363706027507   T   T   T
  0.1813703669983528  0.8403289127535956  0.0901563844285413   T   T   T
  0.5563575372127253  0.0891988978751144  0.0968446439794276   T   T   T
  0.4314158699308423  0.1765274609356088  0.0955580124938106   T   T   T
  0.5563628039357605  0.9230918599462596  0.0967888071136230   T   T   T
  0.4280793416491144  0.3423139740154318  0.0990735219903671   T   T   T
  0.4281068636090857  0.6699997475545910  0.0988988134570113   T   T   T
  0.4314392174596680  0.8357675602773086  0.0954201442149212   T   T   T
  0.8056828085305696  0.0900893749376603  0.0925101036356086   T   T   T
  0.6811606963603052  0.1769625863222005  0.0964143138786111   T   T   T
  0.8056748427792622  0.9222401434793476  0.0925235703584506   T   T   T
  0.6844803034759960  0.3428952352556215  0.1004458671570147   T   T   T
  0.8091661716156875  0.5906701826620991  0.0949712934113092   T   T   T
  0.6844800440527793  0.6694667807019172  0.1004189494340077   T   T   T
  0.8091681595997281  0.4216550677176852  0.0949724567620362   T   T   T
  0.6811662294378431  0.8353735638316609  0.0963740845860397   T   T   T
  0.5543228606799416  0.5062313500572738  0.1344917334786252   T   T   T
 
  0.00000000E+00  0.00000000E+00  0.00000000E+00
  0.00000000E+00  0.00000000E+00  0.00000000E+00
  0.00000000E+00  0.00000000E+00  0.00000000E+00
  0.00000000E+00  0.00000000E+00  0.00000000E+00
  0.00000000E+00  0.00000000E+00  0.00000000E+00
  0.00000000E+00  0.00000000E+00  0.00000000E+00
  0.00000000E+00  0.00000000E+00  0.00000000E+00
  0.00000000E+00  0.00000000E+00  0.00000000E+00
  0.00000000E+00  0.00000000E+00  0.00000000E+00
  0.00000000E+00  0.00000000E+00  0.00000000E+00
  0.00000000E+00  0.00000000E+00  0.00000000E+00
  0.00000000E+00  0.00000000E+00  0.00000000E+00
  0.00000000E+00  0.00000000E+00  0.00000000E+00
  0.00000000E+00  0.00000000E+00  0.00000000E+00
  0.00000000E+00  0.00000000E+00  0.00000000E+00
  0.00000000E+00  0.00000000E+00  0.00000000E+00
  0.00000000E+00  0.00000000E+00  0.00000000E+00
  0.00000000E+00  0.00000000E+00  0.00000000E+00
  0.00000000E+00  0.00000000E+00  0.00000000E+00
  0.00000000E+00  0.00000000E+00  0.00000000E+00
  0.00000000E+00  0.00000000E+00  0.00000000E+00
  0.00000000E+00  0.00000000E+00  0.00000000E+00
  0.00000000E+00  0.00000000E+00  0.00000000E+00
  0.00000000E+00  0.00000000E+00  0.00000000E+00
  0.00000000E+00  0.00000000E+00  0.00000000E+00
  0.00000000E+00  0.00000000E+00  0.00000000E+00
  0.00000000E+00  0.00000000E+00  0.00000000E+00
  0.00000000E+00  0.00000000E+00  0.00000000E+00
  0.00000000E+00  0.00000000E+00  0.00000000E+00
  0.00000000E+00  0.00000000E+00  0.00000000E+00
  0.00000000E+00  0.00000000E+00  0.00000000E+00
