Title                                   
   1.00000000000000     
     4.9440799999999996    0.0000000000000000    0.0000000000000000
     0.0000000000000000    8.5647549999999999    0.0000000000000000
     0.0000000000000000    0.0000000000000000   20.0000000000000000
    12     2     1
Selective dynamics
Direct
  0.0019454330827653  0.2926577797110666  0.0947011773345901   T   T   T
  0.2539527334094129  0.0402594465730714  0.0957111835436303   T   T   T
  0.0045990024947328  0.9573364372866431  0.0940805674425633   T   T   T
  0.7495118833936755  0.2071103016677091  0.0926763104012519   T   T   T
  0.4981034464574716  0.2928516671492895  0.0967103435895615   T   T   T
  0.7520526650471776  0.0404220207628270  0.0929917365546035   T   T   T
  0.7515150484258611  0.7118841869878507  0.0993801802846595   T   T   T
  0.7457479916016766  0.5398298038245664  0.1005962259133804   T   T   T
  0.5040060533862465  0.9561405229829761  0.0976768188507297   T   T   T
  0.4954656772778233  0.4576491372341571  0.1040376471417163   T   T   T
 -0.0023466693968385  0.4570904876373185  0.0992911412479558   T   T   T
 -0.0020709300841848  0.7908733981230155  0.0957529077223849   T   T   T
  0.5071352589941851  0.7929095506246877  0.1056356790153677   T   T   T
  0.2520237358988154  0.2076192236757882  0.0952638831098851   T   T   T
  0.2383586700111798  0.6270470357590355  0.1434741978477233   T   T   T
 
  0.00000000E+00  0.00000000E+00  0.00000000E+00
  0.00000000E+00  0.00000000E+00  0.00000000E+00
  0.00000000E+00  0.00000000E+00  0.00000000E+00
  0.00000000E+00  0.00000000E+00  0.00000000E+00
  0.00000000E+00  0.00000000E+00  0.00000000E+00
  0.00000000E+00  0.00000000E+00  0.00000000E+00
  0.00000000E+00  0.00000000E+00  0.00000000E+00
  0.00000000E+00  0.00000000E+00  0.00000000E+00
  0.00000000E+00  0.00000000E+00  0.00000000E+00
  0.00000000E+00  0.00000000E+00  0.00000000E+00
  0.00000000E+00  0.00000000E+00  0.00000000E+00
  0.00000000E+00  0.00000000E+00  0.00000000E+00
  0.00000000E+00  0.00000000E+00  0.00000000E+00
  0.00000000E+00  0.00000000E+00  0.00000000E+00
  0.00000000E+00  0.00000000E+00  0.00000000E+00
