Title                                   
   1.00000000000000     
     4.9440799999999996    0.0000000000000000    0.0000000000000000
     0.0000000000000000    8.5647549999999999    0.0000000000000000
     0.0000000000000000    0.0000000000000000   20.0000000000000000
    12     2     1
Selective dynamics
Direct
  0.2500000000000000  0.2064950718325613  0.0975378331996026   T   T   T
  0.0004337022485418  0.2918013633641282  0.0980277720260970   T   T   T
  0.2500000000000000  0.0371914240814596  0.0958062996466671   T   T   T
 -0.0025574618807487  0.9550439261296081  0.0951005261419637   T   T   T
  0.7500000000000000  0.2085364038274195  0.0943060789177610   T   T   T
  0.4995662977514581  0.2918013633641282  0.0980277720260970   T   T   T
  0.7500000000000000  0.0408197782594896  0.0928314449869143   T   T   T
  0.7500000000000000  0.7172593804296779  0.0979631220562197   T   T   T
  0.7500000000000000  0.5439874964308364  0.0994111806957206   T   T   T
  0.5025574618807487  0.9550439261296081  0.0951005261419637   T   T   T
  0.5045836597138168  0.4587043290087098  0.1050905557280372   T   T   T
 -0.0045836597138169  0.4587043290087098  0.1050905557280372   T   T   T
 -0.0113088997389742  0.7942418031717310  0.0983622351898572   T   T   T
  0.5113088997389738  0.7942418031717310  0.0983622351898572   T   T   T
  0.2500000000000000  0.6178086017902049  0.1369618623252079   T   T   T
 
  0.00000000E+00  0.00000000E+00  0.00000000E+00
  0.00000000E+00  0.00000000E+00  0.00000000E+00
  0.00000000E+00  0.00000000E+00  0.00000000E+00
  0.00000000E+00  0.00000000E+00  0.00000000E+00
  0.00000000E+00  0.00000000E+00  0.00000000E+00
  0.00000000E+00  0.00000000E+00  0.00000000E+00
  0.00000000E+00  0.00000000E+00  0.00000000E+00
  0.00000000E+00  0.00000000E+00  0.00000000E+00
  0.00000000E+00  0.00000000E+00  0.00000000E+00
  0.00000000E+00  0.00000000E+00  0.00000000E+00
  0.00000000E+00  0.00000000E+00  0.00000000E+00
  0.00000000E+00  0.00000000E+00  0.00000000E+00
  0.00000000E+00  0.00000000E+00  0.00000000E+00
  0.00000000E+00  0.00000000E+00  0.00000000E+00
  0.00000000E+00  0.00000000E+00  0.00000000E+00
