Title                                   
   1.00000000000000     
     9.8694509999999998    0.0000000000000000    0.0000000000000000
     0.0000000000000000    8.5490480000000009    0.0000000000000000
     0.0000000000000000    0.0000000000000000   20.0000000000000000
    28     2     1
Selective dynamics
Direct
  0.0548002229748445  0.0886201774786251  0.0833120639025732   T   T   T
  0.9301476061256583  0.1727391522403083  0.0842259896842987   T   T   T
  0.0577500751103806  0.9227303766691591  0.0844263647849149   T   T   T
  0.9331390973602720  0.3397450876612558  0.0832689664531724   T   T   T
  0.0578727102818048  0.5900607002763760  0.0811339496716397   T   T   T
  0.9343891023916044  0.6751875734808803  0.0855663717591763   T   T   T
  0.0572842044140888  0.4228282816488341  0.0804349779953452   T   T   T
  0.9323977491285173  0.8414762389909188  0.0868731566072254   T   T   T
  0.3044674584188679  0.0861871905835562  0.0929527385686194   T   T   T
  0.1796560900363984  0.1687115955785670  0.0857119952531201   T   T   T
  0.1798480255058375  0.3359795866964784  0.0842411656319554   T   T   T
  0.3041249630759477  0.5856213880057001  0.0931590445650267   T   T   T
  0.1827749223398472  0.6717739244230229  0.0845823595526636   T   T   T
  0.3015470657495375  0.4159784892715036  0.0952932691769707   T   T   T
  0.1832382812019550  0.8392521735599435  0.0860258400932755   T   T   T
  0.5542531558963132  0.0925034885090775  0.1046500949679904   T   T   T
  0.4249514618248246  0.1748314220611175  0.1038391278273843   T   T   T
  0.5550236935732672  0.9249413088560062  0.1053220040947008   T   T   T
  0.4259664255600298  0.6683720276081508  0.1045754044818768   T   T   T
  0.4303967695011993  0.8352630018266879  0.1011618052068897   T   T   T
  0.8040713930175145  0.0922318871414868  0.0909887131473225   T   T   T
  0.6798145366659257  0.1803621616759709  0.0991456979365893   T   T   T
  0.8057079971777794  0.9240713729176121  0.0930588445429049   T   T   T
  0.6876628172806277  0.3474715845802077  0.1023601564162729   T   T   T
  0.8134359987573300  0.5933109833409095  0.0957488751062939   T   T   T
  0.6911823863543444  0.6718316961893734  0.1134369033103713   T   T   T
  0.8121347314871911  0.4249799043217717  0.0920881132291595   T   T   T
  0.6829458750900034  0.8378465716063822  0.1044136772956963   T   T   T
  0.4167388688557427  0.3343662527528560  0.1111891950023163   T   T   T
  0.3069202055286532  0.9206257118815891  0.0921919031406567   T   T   T
  0.5584911093137097  0.5109736881656900  0.1355862305936455   T   T   T
 
  0.00000000E+00  0.00000000E+00  0.00000000E+00
  0.00000000E+00  0.00000000E+00  0.00000000E+00
  0.00000000E+00  0.00000000E+00  0.00000000E+00
  0.00000000E+00  0.00000000E+00  0.00000000E+00
  0.00000000E+00  0.00000000E+00  0.00000000E+00
  0.00000000E+00  0.00000000E+00  0.00000000E+00
  0.00000000E+00  0.00000000E+00  0.00000000E+00
  0.00000000E+00  0.00000000E+00  0.00000000E+00
  0.00000000E+00  0.00000000E+00  0.00000000E+00
  0.00000000E+00  0.00000000E+00  0.00000000E+00
  0.00000000E+00  0.00000000E+00  0.00000000E+00
  0.00000000E+00  0.00000000E+00  0.00000000E+00
  0.00000000E+00  0.00000000E+00  0.00000000E+00
  0.00000000E+00  0.00000000E+00  0.00000000E+00
  0.00000000E+00  0.00000000E+00  0.00000000E+00
  0.00000000E+00  0.00000000E+00  0.00000000E+00
  0.00000000E+00  0.00000000E+00  0.00000000E+00
  0.00000000E+00  0.00000000E+00  0.00000000E+00
  0.00000000E+00  0.00000000E+00  0.00000000E+00
  0.00000000E+00  0.00000000E+00  0.00000000E+00
  0.00000000E+00  0.00000000E+00  0.00000000E+00
  0.00000000E+00  0.00000000E+00  0.00000000E+00
  0.00000000E+00  0.00000000E+00  0.00000000E+00
  0.00000000E+00  0.00000000E+00  0.00000000E+00
  0.00000000E+00  0.00000000E+00  0.00000000E+00
  0.00000000E+00  0.00000000E+00  0.00000000E+00
  0.00000000E+00  0.00000000E+00  0.00000000E+00
  0.00000000E+00  0.00000000E+00  0.00000000E+00
  0.00000000E+00  0.00000000E+00  0.00000000E+00
  0.00000000E+00  0.00000000E+00  0.00000000E+00
  0.00000000E+00  0.00000000E+00  0.00000000E+00
