Title                                   
   1.00000000000000     
     9.8694509999999998    0.0000000000000000    0.0000000000000000
     0.0000000000000000    8.5490480000000009    0.0000000000000000
     0.0000000000000000    0.0000000000000000   20.0000000000000000
    24     6     1
Selective dynamics
Direct
  0.0556554396090740  0.0901003384672980  0.0957962702707164   T   T   T
  0.9303273300924058  0.1725801495746120  0.0958684356879168   T   T   T
  0.0573069052161925  0.9220181207334152  0.0959498891304593   T   T   T
  0.9329785383091403  0.3397911793145080  0.0954506079278174   T   T   T
  0.0560119884619605  0.5909079568868074  0.0951256718213161   T   T   T
  0.0566159869657092  0.4237870197292162  0.0949615784642523   T   T   T
  0.9318322296837572  0.8398080704128741  0.0960887411865410   T   T   T
  0.3082557889698821  0.0894380909177310  0.0969175110392757   T   T   T
  0.1811957871001540  0.1717350812993324  0.0959043855141390   T   T   T
  0.1812862054534831  0.3391926791933929  0.0955731566706636   T   T   T
  0.3033973516165903  0.5893213123720659  0.0967579843311079   T   T   T
  0.1797841534871198  0.6737620642440800  0.0957819202024138   T   T   T
  0.3054890506162972  0.4216390179554262  0.0967149877772493   T   T   T
  0.1818432503421374  0.8407189046357622  0.0961379094589385   T   T   T
  0.4310459971447509  0.1767086224033550  0.0978497547554881   T   T   T
  0.5547703331350436  0.9178565485799137  0.0981157619973437   T   T   T
  0.4287602130510958  0.8328920930004632  0.0979176645142756   T   T   T
  0.8036073048152808  0.0894589434238170  0.0968973920655536   T   T   T
  0.6795244474466622  0.1788846467418095  0.0977195491589354   T   T   T
  0.8054439872800120  0.9207027806939042  0.0969954234230085   T   T   T
  0.6836579972497229  0.3454505265921962  0.0977224376924185   T   T   T
  0.8109683942344669  0.5930122296222634  0.0965522417955803   T   T   T
  0.8103119990622834  0.4243144087212866  0.0963681241773154   T   T   T
  0.6805921128034783  0.8332408845415246  0.0978422653815099   T   T   T
  0.9329578458352145  0.6737016182159137  0.0955643605062923   T   T   T
  0.5548818169091878  0.0924779927610417  0.0982288757490661   T   T   T
  0.4285149512020007  0.3405968584337477  0.0981445183303952   T   T   T
  0.6894374417055408  0.6684168784947790  0.0980301708164695   T   T   T
  0.4239384676796325  0.6728332977780873  0.0982702609871515   T   T   T
  0.3065416492222617  0.9218224633525028  0.0969839247309115   T   T   T
  0.5562000352994709  0.5037042209068854  0.0987332244355137   T   T   T
 
  0.00000000E+00  0.00000000E+00  0.00000000E+00
  0.00000000E+00  0.00000000E+00  0.00000000E+00
  0.00000000E+00  0.00000000E+00  0.00000000E+00
  0.00000000E+00  0.00000000E+00  0.00000000E+00
  0.00000000E+00  0.00000000E+00  0.00000000E+00
  0.00000000E+00  0.00000000E+00  0.00000000E+00
  0.00000000E+00  0.00000000E+00  0.00000000E+00
  0.00000000E+00  0.00000000E+00  0.00000000E+00
  0.00000000E+00  0.00000000E+00  0.00000000E+00
  0.00000000E+00  0.00000000E+00  0.00000000E+00
  0.00000000E+00  0.00000000E+00  0.00000000E+00
  0.00000000E+00  0.00000000E+00  0.00000000E+00
  0.00000000E+00  0.00000000E+00  0.00000000E+00
  0.00000000E+00  0.00000000E+00  0.00000000E+00
  0.00000000E+00  0.00000000E+00  0.00000000E+00
  0.00000000E+00  0.00000000E+00  0.00000000E+00
  0.00000000E+00  0.00000000E+00  0.00000000E+00
  0.00000000E+00  0.00000000E+00  0.00000000E+00
  0.00000000E+00  0.00000000E+00  0.00000000E+00
  0.00000000E+00  0.00000000E+00  0.00000000E+00
  0.00000000E+00  0.00000000E+00  0.00000000E+00
  0.00000000E+00  0.00000000E+00  0.00000000E+00
  0.00000000E+00  0.00000000E+00  0.00000000E+00
  0.00000000E+00  0.00000000E+00  0.00000000E+00
  0.00000000E+00  0.00000000E+00  0.00000000E+00
  0.00000000E+00  0.00000000E+00  0.00000000E+00
  0.00000000E+00  0.00000000E+00  0.00000000E+00
  0.00000000E+00  0.00000000E+00  0.00000000E+00
  0.00000000E+00  0.00000000E+00  0.00000000E+00
  0.00000000E+00  0.00000000E+00  0.00000000E+00
  0.00000000E+00  0.00000000E+00  0.00000000E+00
