Title                                   
   1.00000000000000     
     9.8694509999999998    0.0000000000000000    0.0000000000000000
     0.0000000000000000    8.5490480000000009    0.0000000000000000
     0.0000000000000000    0.0000000000000000   20.0000000000000000
    27     4     1
Selective dynamics
Direct
  0.0557277392225059  0.0927737461028156  0.0836465812572225   T   T   T
  0.9309238282525167  0.1743968325417134  0.0853792332853208   T   T   T
  0.0573034550406385  0.9253708893722553  0.0835775244532046   T   T   T
  0.9296244325787194  0.3421648050594520  0.0891848906337823   T   T   T
  0.0568054798442203  0.5903533830483864  0.0852865089650633   T   T   T
  0.9326799791194593  0.6740301998579284  0.0877425073688819   T   T   T
  0.0569262289562207  0.4234905084441961  0.0872585947024866   T   T   T
  0.9329978673190356  0.8406042576434212  0.0857587354478762   T   T   T
  0.3054687764118578  0.0882022404273963  0.0882308498648666   T   T   T
  0.1822695345267509  0.1738325484829494  0.0861054516731394   T   T   T
  0.1839969719132145  0.3411612683164605  0.0889859008640549   T   T   T
  0.3035279182041704  0.5930142700236644  0.0993336269580838   T   T   T
  0.1809258740249010  0.6752958651726830  0.0875509293491724   T   T   T
  0.3097871739811063  0.4253931421816581  0.0976389025577253   T   T   T
  0.1806413712168610  0.8415313710651877  0.0863256927056216   T   T   T
  0.5564368679211519  0.0828143372231244  0.0945777490712653   T   T   T
  0.4310239553817251  0.1674676303884649  0.0935692935059665   T   T   T
  0.5550198599172281  0.9166020013037691  0.0994817451762581   T   T   T
  0.4328398065640219  0.3322345782557123  0.1015934647704456   T   T   T
  0.4250306020345450  0.8394980769981554  0.1014783918847583   T   T   T
  0.8064736828090554  0.0890072562327331  0.0860592584017093   T   T   T
  0.6807039409376537  0.1683692951453089  0.0917616658724328   T   T   T
  0.8073540940855406  0.9231268103155013  0.0878214733178974   T   T   T
  0.6791167192162927  0.3331011473009230  0.1007616708154490   T   T   T
  0.8091479038157735  0.5933070499897835  0.0994626205544795   T   T   T
  0.8035285065640448  0.4245220988494581  0.0977749055841992   T   T   T
  0.6855859642322251  0.8379940023746500  0.0995648268717069   T   T   T
  0.4132869509406212  0.6854401037601656  0.1181086848132637   T   T   T
  0.5564485373109518  0.4008574205962401  0.1168787179221740   T   T   T
  0.6969634038540099  0.6822083954937936  0.1161938980827551   T   T   T
  0.3049937900507478  0.9240870620698377  0.0892713608933787   T   T   T
  0.5560777837522403  0.5879934059622122  0.1693093423753745   T   T   T
 
  0.00000000E+00  0.00000000E+00  0.00000000E+00
  0.00000000E+00  0.00000000E+00  0.00000000E+00
  0.00000000E+00  0.00000000E+00  0.00000000E+00
  0.00000000E+00  0.00000000E+00  0.00000000E+00
  0.00000000E+00  0.00000000E+00  0.00000000E+00
  0.00000000E+00  0.00000000E+00  0.00000000E+00
  0.00000000E+00  0.00000000E+00  0.00000000E+00
  0.00000000E+00  0.00000000E+00  0.00000000E+00
  0.00000000E+00  0.00000000E+00  0.00000000E+00
  0.00000000E+00  0.00000000E+00  0.00000000E+00
  0.00000000E+00  0.00000000E+00  0.00000000E+00
  0.00000000E+00  0.00000000E+00  0.00000000E+00
  0.00000000E+00  0.00000000E+00  0.00000000E+00
  0.00000000E+00  0.00000000E+00  0.00000000E+00
  0.00000000E+00  0.00000000E+00  0.00000000E+00
  0.00000000E+00  0.00000000E+00  0.00000000E+00
  0.00000000E+00  0.00000000E+00  0.00000000E+00
  0.00000000E+00  0.00000000E+00  0.00000000E+00
  0.00000000E+00  0.00000000E+00  0.00000000E+00
  0.00000000E+00  0.00000000E+00  0.00000000E+00
  0.00000000E+00  0.00000000E+00  0.00000000E+00
  0.00000000E+00  0.00000000E+00  0.00000000E+00
  0.00000000E+00  0.00000000E+00  0.00000000E+00
  0.00000000E+00  0.00000000E+00  0.00000000E+00
  0.00000000E+00  0.00000000E+00  0.00000000E+00
  0.00000000E+00  0.00000000E+00  0.00000000E+00
  0.00000000E+00  0.00000000E+00  0.00000000E+00
  0.00000000E+00  0.00000000E+00  0.00000000E+00
  0.00000000E+00  0.00000000E+00  0.00000000E+00
  0.00000000E+00  0.00000000E+00  0.00000000E+00
  0.00000000E+00  0.00000000E+00  0.00000000E+00
  0.00000000E+00  0.00000000E+00  0.00000000E+00
