Title                                   
   1.00000000000000     
     4.9440799999999996    0.0000000000000000    0.0000000000000000
     0.0000000000000000    8.5647549999999999    0.0000000000000000
     0.0000000000000000    0.0000000000000000   20.0000000000000000
    13     1     1
Selective dynamics
Direct
  0.0010681761486273  0.2929517783496565  0.0954235291260791   T   T   T
  0.2500000000000000  0.0433706523051218  0.0956336562766770   T   T   T
  0.0005385880371279  0.9579676505239179  0.0961434650017870   T   T   T
  0.7500000000000000  0.2075815622923244  0.0926213660438113   T   T   T
  0.4989318238513729  0.2929517783496565  0.0954235291260791   T   T   T
  0.7500000000000000  0.0410741846832143  0.0931097817512964   T   T   T
  0.7500000000000000  0.7109106026622044  0.1011563515280338   T   T   T
  0.7500000000000000  0.5364783386929428  0.1008897843985377   T   T   T
  0.4994614119628721  0.9579676505239179  0.0961434650017870   T   T   T
  0.4995109486094156  0.4571424357159233  0.1008436525725792   T   T   T
  0.0004890513905845  0.4571424357159233  0.1008436525725792   T   T   T
 -0.0006998019264312  0.7913785251969832  0.1016451614723936   T   T   T
  0.5006998019264310  0.7913785251969832  0.1016451614723936   T   T   T
  0.2500000000000000  0.2078026326663769  0.0950727099407953   T   T   T
  0.2500000000000000  0.6255822471248561  0.1413847337151739   T   T   T
 
  0.00000000E+00  0.00000000E+00  0.00000000E+00
  0.00000000E+00  0.00000000E+00  0.00000000E+00
  0.00000000E+00  0.00000000E+00  0.00000000E+00
  0.00000000E+00  0.00000000E+00  0.00000000E+00
  0.00000000E+00  0.00000000E+00  0.00000000E+00
  0.00000000E+00  0.00000000E+00  0.00000000E+00
  0.00000000E+00  0.00000000E+00  0.00000000E+00
  0.00000000E+00  0.00000000E+00  0.00000000E+00
  0.00000000E+00  0.00000000E+00  0.00000000E+00
  0.00000000E+00  0.00000000E+00  0.00000000E+00
  0.00000000E+00  0.00000000E+00  0.00000000E+00
  0.00000000E+00  0.00000000E+00  0.00000000E+00
  0.00000000E+00  0.00000000E+00  0.00000000E+00
  0.00000000E+00  0.00000000E+00  0.00000000E+00
  0.00000000E+00  0.00000000E+00  0.00000000E+00
