Title                                   
   1.00000000000000     
     8.5490480000000009    0.0000000000000000    0.0000000000000000
     0.0000000000000000    8.5490480000000009    0.0000000000000000
     0.0000000000000000    0.0000000000000000   20.0000000000000000
    21     3     1
Selective dynamics
Direct
  0.9084075181936778  0.2073308278060040  0.0950425913897860   T   T   T
  0.9126983266390953  0.8021399320296158  0.0958639638697055   T   T   T
  0.1967296089657814  0.0825501856851840  0.0960592127878942   T   T   T
  0.0738633123884005  0.2019161416892546  0.0960290601080936   T   T   T
  0.1565182125446944  0.6486260699236542  0.0958088715240533   T   T   T
  0.0738920205132095  0.5020436437570827  0.0968354612134797   T   T   T
  0.1539390876885239  0.3540594636652443  0.0983101148217301   T   T   T
  0.0798723981254705  0.7987977643067338  0.0951044149012610   T   T   T
  0.4940709863585521  0.0842584517107366  0.0971015885876200   T   T   T
  0.3443184061434709  0.1628372377690972  0.0982447874503522   T   T   T
  0.4950980243735002  0.9147165607828101  0.0971526444974974   T   T   T
  0.3470293934393404  0.8332650868261519  0.0957679258492506   T   T   T
  0.7873492130295867  0.0879615691332071  0.0955720124925196   T   T   T
  0.6387315728142640  0.1678399635186578  0.0962531058754434   T   T   T
  0.7904252709240046  0.9200691175153695  0.0964311742884272   T   T   T
  0.8308622818457277  0.6525782900434817  0.0976603639115128   T   T   T
  0.8262426786915262  0.3592914770483491  0.0952401715094203   T   T   T
  0.6440973742476336  0.8356422316068672  0.0985061799290348   T   T   T
  0.3208645229346168  0.3315476940388313  0.1025398975504636   T   T   T
  0.3235592340321278  0.6698462744074013  0.0960944865449614   T   T   T
  0.6619134697276466  0.3384151489126032  0.0964337416207330   T   T   T
  0.9073460446623510  0.5052713570516714  0.0963808515225263   T   T   T
  0.6706918234342950  0.6717703381000593  0.1014087904675078   T   T   T
  0.1982398544071282  0.9154145621452894  0.0948913522604013   T   T   T
  0.4886513638753665  0.4966006105266559  0.1239722350263075   T   T   T
 
  0.00000000E+00  0.00000000E+00  0.00000000E+00
  0.00000000E+00  0.00000000E+00  0.00000000E+00
  0.00000000E+00  0.00000000E+00  0.00000000E+00
  0.00000000E+00  0.00000000E+00  0.00000000E+00
  0.00000000E+00  0.00000000E+00  0.00000000E+00
  0.00000000E+00  0.00000000E+00  0.00000000E+00
  0.00000000E+00  0.00000000E+00  0.00000000E+00
  0.00000000E+00  0.00000000E+00  0.00000000E+00
  0.00000000E+00  0.00000000E+00  0.00000000E+00
  0.00000000E+00  0.00000000E+00  0.00000000E+00
  0.00000000E+00  0.00000000E+00  0.00000000E+00
  0.00000000E+00  0.00000000E+00  0.00000000E+00
  0.00000000E+00  0.00000000E+00  0.00000000E+00
  0.00000000E+00  0.00000000E+00  0.00000000E+00
  0.00000000E+00  0.00000000E+00  0.00000000E+00
  0.00000000E+00  0.00000000E+00  0.00000000E+00
  0.00000000E+00  0.00000000E+00  0.00000000E+00
  0.00000000E+00  0.00000000E+00  0.00000000E+00
  0.00000000E+00  0.00000000E+00  0.00000000E+00
  0.00000000E+00  0.00000000E+00  0.00000000E+00
  0.00000000E+00  0.00000000E+00  0.00000000E+00
  0.00000000E+00  0.00000000E+00  0.00000000E+00
  0.00000000E+00  0.00000000E+00  0.00000000E+00
  0.00000000E+00  0.00000000E+00  0.00000000E+00
  0.00000000E+00  0.00000000E+00  0.00000000E+00
