Title                                   
   1.00000000000000     
     4.9440799999999996    0.0000000000000000    0.0000000000000000
     0.0000000000000000   17.1295089999999988    0.0000000000000000
     0.0000000000000000    0.0000000000000000   20.0000000000000000
    29     2     1
Selective dynamics
Direct
 -0.0000073029959764  0.1047010541490888  0.2814828320381187   T   T   T
  0.2498754816144390  0.1465150552654871  0.2857132441947537   T   T   T
  0.2498710390865740  0.2287018088875671  0.2975816919998984   T   T   T
  0.0033996363339878  0.3488945374547784  0.3234119904558579   T   T   T
 -0.0018750412697253  0.2697178427994324  0.3038303833576679   T   T   T
 -0.0035328942648154  0.6064404946623001  0.3118233596333351   T   T   T
  0.2498920143084904  0.7291426966552774  0.2923221972661446   T   T   T
  0.0001506860987205  0.8543441514630881  0.2801762081067807   T   T   T
  0.2499009934701641  0.8963145778528429  0.2782558196657809   T   T   T
  0.2498904893372019  0.9795986680569319  0.2768120822174419   T   T   T
  0.0001109101700271  0.7713358786895277  0.2869084907563495   T   T   T
  0.4997538350842333  0.1047037589990827  0.2814783516757031   T   T   T
  0.7498712913469017  0.1464938929529875  0.2846788738223706   T   T   T
  0.7498794889378012  0.2284967420658282  0.2948234732654023   T   T   T
  0.4999547859710036  0.0215601266786648  0.2772993607399967   T   T   T
  0.4964064424481416  0.3488925918366305  0.3234042252396402   T   T   T
  0.7499407160306796  0.4792076556113040  0.3261081188096637   T   T   T
  0.5016430057669422  0.2697184734723569  0.3038235164365205   T   T   T
  0.5033857625877134  0.6064338799743727  0.3118109032763979   T   T   T
  0.7498935180567040  0.7303617525025160  0.2910522772067977   T   T   T
  0.4996408739160173  0.8543389677295052  0.2801705809987543   T   T   T
  0.7498834097857529  0.8961428342843418  0.2779799093332769   T   T   T
  0.7498835784315276  0.9795723632240153  0.2764908603646037   T   T   T
  0.4996604033607510  0.7713298470370548  0.2869010153707272   T   T   T
  0.7499202782812771  0.6481098637271733  0.3027412885009234   T   T   T
  0.2499246166409167  0.6472279379618647  0.3055090851686659   T   T   T
 -0.0001770698007084  0.0215614868305189  0.2773022280814051   T   T   T
  0.5116423042312930  0.5256698191603201  0.3287445222515535   T   T   T
  0.9882245459551333  0.5256735469828760  0.3287702502745070   T   T   T
  0.2499130672133447  0.3821101533559549  0.3399681847907947   T   T   T
  0.7499101425712591  0.3932527854281375  0.3289724965676883   T   T   T
  0.2499919912942344  0.4819857542481644  0.3762171781324294   T   T   T
 
  0.00000000E+00  0.00000000E+00  0.00000000E+00
  0.00000000E+00  0.00000000E+00  0.00000000E+00
  0.00000000E+00  0.00000000E+00  0.00000000E+00
  0.00000000E+00  0.00000000E+00  0.00000000E+00
  0.00000000E+00  0.00000000E+00  0.00000000E+00
  0.00000000E+00  0.00000000E+00  0.00000000E+00
  0.00000000E+00  0.00000000E+00  0.00000000E+00
  0.00000000E+00  0.00000000E+00  0.00000000E+00
  0.00000000E+00  0.00000000E+00  0.00000000E+00
  0.00000000E+00  0.00000000E+00  0.00000000E+00
  0.00000000E+00  0.00000000E+00  0.00000000E+00
  0.00000000E+00  0.00000000E+00  0.00000000E+00
  0.00000000E+00  0.00000000E+00  0.00000000E+00
  0.00000000E+00  0.00000000E+00  0.00000000E+00
  0.00000000E+00  0.00000000E+00  0.00000000E+00
  0.00000000E+00  0.00000000E+00  0.00000000E+00
  0.00000000E+00  0.00000000E+00  0.00000000E+00
  0.00000000E+00  0.00000000E+00  0.00000000E+00
  0.00000000E+00  0.00000000E+00  0.00000000E+00
  0.00000000E+00  0.00000000E+00  0.00000000E+00
  0.00000000E+00  0.00000000E+00  0.00000000E+00
  0.00000000E+00  0.00000000E+00  0.00000000E+00
  0.00000000E+00  0.00000000E+00  0.00000000E+00
  0.00000000E+00  0.00000000E+00  0.00000000E+00
  0.00000000E+00  0.00000000E+00  0.00000000E+00
  0.00000000E+00  0.00000000E+00  0.00000000E+00
  0.00000000E+00  0.00000000E+00  0.00000000E+00
  0.00000000E+00  0.00000000E+00  0.00000000E+00
  0.00000000E+00  0.00000000E+00  0.00000000E+00
  0.00000000E+00  0.00000000E+00  0.00000000E+00
  0.00000000E+00  0.00000000E+00  0.00000000E+00
  0.00000000E+00  0.00000000E+00  0.00000000E+00
