Title                                   
   1.00000000000000     
     4.9440799999999996    0.0000000000000000    0.0000000000000000
     0.0000000000000000    8.5647549999999999    0.0000000000000000
     0.0000000000000000    0.0000000000000000   20.0000000000000000
    12     3     1
Selective dynamics
Direct
 -0.0035098093382297  0.2896595486783475  0.0905204929572273   T   T   T
  0.2505147414969693  0.0440932104082798  0.0860607988049849   T   T   T
  0.0043741967235311  0.7970662556087915  0.0963385336313052   T   T   T
  0.0011992956773413  0.9606869847452598  0.0841121895423735   T   T   T
  0.7473672210391011  0.2071573546755434  0.0830658927055324   T   T   T
  0.5007027200988816  0.2898434872643909  0.0947644386578079   T   T   T
  0.7506573689895728  0.0417988266010304  0.0792541179842658   T   T   T
  0.7555540722813860  0.7060294178573253  0.1012242999577722   T   T   T
  0.5025321353084892  0.7958827294838147  0.0976711774801255   T   T   T
  0.7527050746878836  0.5355581445192258  0.1100515902742924   T   T   T
  0.5014327471735300  0.9604779250264327  0.0855579232369337   T   T   T
  0.5127105129592789  0.4450260708782327  0.1210624157623330   T   T   T
 -0.0103136287644331  0.4438053105884227  0.1085984081695736   T   T   T
  0.2532309846180811  0.7289965852030799  0.1141207800148709   T   T   T
  0.2486695290840099  0.2088345310449211  0.0893935045712766   T   T   T
  0.2321728379646065  0.5450836174169021  0.1707154362493346   T   T   T
 
  0.00000000E+00  0.00000000E+00  0.00000000E+00
  0.00000000E+00  0.00000000E+00  0.00000000E+00
  0.00000000E+00  0.00000000E+00  0.00000000E+00
  0.00000000E+00  0.00000000E+00  0.00000000E+00
  0.00000000E+00  0.00000000E+00  0.00000000E+00
  0.00000000E+00  0.00000000E+00  0.00000000E+00
  0.00000000E+00  0.00000000E+00  0.00000000E+00
  0.00000000E+00  0.00000000E+00  0.00000000E+00
  0.00000000E+00  0.00000000E+00  0.00000000E+00
  0.00000000E+00  0.00000000E+00  0.00000000E+00
  0.00000000E+00  0.00000000E+00  0.00000000E+00
  0.00000000E+00  0.00000000E+00  0.00000000E+00
  0.00000000E+00  0.00000000E+00  0.00000000E+00
  0.00000000E+00  0.00000000E+00  0.00000000E+00
  0.00000000E+00  0.00000000E+00  0.00000000E+00
  0.00000000E+00  0.00000000E+00  0.00000000E+00
