Title                                   
   1.00000000000000     
     9.8694509999999998    0.0000000000000000    0.0000000000000000
     0.0000000000000000    8.5490480000000009    0.0000000000000000
     0.0000000000000000    0.0000000000000000   20.0000000000000000
    23     7     1
Selective dynamics
Direct
  0.0559081852322974  0.0897781878101475  0.0957801249685534   T   T   T
  0.9316250483868660  0.1723854104204684  0.0957851861120966   T   T   T
  0.0572038443565946  0.9208236106746690  0.0958647389761257   T   T   T
  0.9329607459875451  0.3388098969844887  0.0953714018137236   T   T   T
  0.0557328110989937  0.5905063414397815  0.0950871540235338   T   T   T
  0.0558415440343461  0.4237555382528053  0.0949499917646784   T   T   T
  0.9317687842978393  0.8386374646754516  0.0958985078817028   T   T   T
  0.3082360385357173  0.0890460425888634  0.0970379371641575   T   T   T
  0.1812050267314343  0.1714814271018279  0.0960591489660687   T   T   T
  0.1802640448089352  0.3390044667992431  0.0956621806170953   T   T   T
  0.3026088482435529  0.5895708076787369  0.0969175065917505   T   T   T
  0.1791833056963488  0.6735512267869149  0.0958571117467500   T   T   T
  0.3037574691104095  0.4216131214549920  0.0968598752353520   T   T   T
  0.1813377879279144  0.8407675381129335  0.0962410502650844   T   T   T
  0.4295658574955933  0.1753772514450546  0.0978761067396540   T   T   T
  0.5552195863489046  0.9194094150744306  0.0980731799425573   T   T   T
  0.4293438810932552  0.8364036898563173  0.0980639666023626   T   T   T
  0.8049194263162801  0.0891326042784501  0.0966314751551372   T   T   T
  0.6823728595016563  0.1781163750430741  0.0975247972080378   T   T   T
  0.8061786237908060  0.9210821744150582  0.0966976917620656   T   T   T
  0.8099715774486164  0.5903013727237276  0.0964266021530972   T   T   T
  0.8100623889771271  0.4224288453584688  0.0963299693698290   T   T   T
  0.6816205881290756  0.8355511172253388  0.0976509558889277   T   T   T
  0.9326180161991654  0.6726641150433301  0.0954490971405245   T   T   T
  0.5571032183074477  0.0959625118268638  0.0982000103343830   T   T   T
  0.4255389875183035  0.3387345121051304  0.0983295699379516   T   T   T
  0.4237996443222625  0.6749385449470076  0.0984715947865138   T   T   T
  0.6869906290748481  0.3406431983023549  0.0977708514126837   T   T   T
  0.6896934606548496  0.6715393777478696  0.0979177113385395   T   T   T
  0.3055300762905674  0.9217449705710827  0.0972120763791687   T   T   T
  0.5549736940824486  0.5071138432551135  0.0989674277219517   T   T   T
 
  0.00000000E+00  0.00000000E+00  0.00000000E+00
  0.00000000E+00  0.00000000E+00  0.00000000E+00
  0.00000000E+00  0.00000000E+00  0.00000000E+00
  0.00000000E+00  0.00000000E+00  0.00000000E+00
  0.00000000E+00  0.00000000E+00  0.00000000E+00
  0.00000000E+00  0.00000000E+00  0.00000000E+00
  0.00000000E+00  0.00000000E+00  0.00000000E+00
  0.00000000E+00  0.00000000E+00  0.00000000E+00
  0.00000000E+00  0.00000000E+00  0.00000000E+00
  0.00000000E+00  0.00000000E+00  0.00000000E+00
  0.00000000E+00  0.00000000E+00  0.00000000E+00
  0.00000000E+00  0.00000000E+00  0.00000000E+00
  0.00000000E+00  0.00000000E+00  0.00000000E+00
  0.00000000E+00  0.00000000E+00  0.00000000E+00
  0.00000000E+00  0.00000000E+00  0.00000000E+00
  0.00000000E+00  0.00000000E+00  0.00000000E+00
  0.00000000E+00  0.00000000E+00  0.00000000E+00
  0.00000000E+00  0.00000000E+00  0.00000000E+00
  0.00000000E+00  0.00000000E+00  0.00000000E+00
  0.00000000E+00  0.00000000E+00  0.00000000E+00
  0.00000000E+00  0.00000000E+00  0.00000000E+00
  0.00000000E+00  0.00000000E+00  0.00000000E+00
  0.00000000E+00  0.00000000E+00  0.00000000E+00
  0.00000000E+00  0.00000000E+00  0.00000000E+00
  0.00000000E+00  0.00000000E+00  0.00000000E+00
  0.00000000E+00  0.00000000E+00  0.00000000E+00
  0.00000000E+00  0.00000000E+00  0.00000000E+00
  0.00000000E+00  0.00000000E+00  0.00000000E+00
  0.00000000E+00  0.00000000E+00  0.00000000E+00
  0.00000000E+00  0.00000000E+00  0.00000000E+00
  0.00000000E+00  0.00000000E+00  0.00000000E+00
