Title                                   
   1.00000000000000     
     9.8694509999999998    0.0000000000000000    0.0000000000000000
     0.0000000000000000    8.5490480000000009    0.0000000000000000
     0.0000000000000000    0.0000000000000000   20.0000000000000000
    29     1     1
Selective dynamics
Direct
  0.0558697835677335  0.0891954021097316  0.0858592468535387   T   T   T
  0.9311152006636617  0.1719847837452555  0.0873545457296914   T   T   T
  0.0571927045932384  0.9239358923802573  0.0863369124328862   T   T   T
  0.9326704393454737  0.3389087789673033  0.0859999519548645   T   T   T
  0.0566799923455443  0.5901657402789567  0.0832548354735250   T   T   T
  0.9328251824470859  0.6739269541828317  0.0863197155943279   T   T   T
  0.0567795494440938  0.4231260417719744  0.0830095855368541   T   T   T
  0.9315971415313321  0.8402010668867003  0.0878223007766194   T   T   T
  0.3063490983435566  0.0887992544272503  0.0933371445224576   T   T   T
  0.1814313810362947  0.1709174951978781  0.0871494778964789   T   T   T
  0.1805929115236269  0.3381848792059088  0.0859201703701889   T   T   T
  0.3025666577676823  0.5905515793115754  0.0938806675472827   T   T   T
  0.1811113499812852  0.6747963592035793  0.0863532101778527   T   T   T
  0.3027068929012164  0.4215364544428803  0.0936850323206160   T   T   T
  0.1823104864724749  0.8414584080730804  0.0879585611778897   T   T   T
  0.5563736025390081  0.0891227393798395  0.1038097073102181   T   T   T
  0.4299257912434513  0.1751952386155962  0.1015254429636020   T   T   T
  0.5551265629858272  0.9233266901206656  0.1036332486852292   T   T   T
  0.4260755187870409  0.3415827756895577  0.1046475031037148   T   T   T
  0.4253078603366282  0.6713767409948241  0.1048917497885991   T   T   T
  0.4289664597055559  0.8360755340021908  0.1015631358949401   T   T   T
  0.8057249937331737  0.0898113802600556  0.0932908347445958   T   T   T
  0.6818486569878138  0.1767854951555905  0.1010436092627300   T   T   T
  0.8057923381364384  0.9220651173653795  0.0933848700001745   T   T   T
  0.6858472669103900  0.3431333344955138  0.1041083947250838   T   T   T
  0.8102874429884479  0.5905744904956813  0.0934504228272177   T   T   T
  0.6859991190426720  0.6691065283997254  0.1040754334285990   T   T   T
  0.8103536830682359  0.4219497380280333  0.0933284591897552   T   T   T
  0.6812443763034932  0.8348053190141179  0.1009537826840489   T   T   T
  0.3059662190694202  0.9228463200434467  0.0933985681465647   T   T   T
  0.5564963361981052  0.5054284677546380  0.1296184788798803   T   T   T
 
  0.00000000E+00  0.00000000E+00  0.00000000E+00
  0.00000000E+00  0.00000000E+00  0.00000000E+00
  0.00000000E+00  0.00000000E+00  0.00000000E+00
  0.00000000E+00  0.00000000E+00  0.00000000E+00
  0.00000000E+00  0.00000000E+00  0.00000000E+00
  0.00000000E+00  0.00000000E+00  0.00000000E+00
  0.00000000E+00  0.00000000E+00  0.00000000E+00
  0.00000000E+00  0.00000000E+00  0.00000000E+00
  0.00000000E+00  0.00000000E+00  0.00000000E+00
  0.00000000E+00  0.00000000E+00  0.00000000E+00
  0.00000000E+00  0.00000000E+00  0.00000000E+00
  0.00000000E+00  0.00000000E+00  0.00000000E+00
  0.00000000E+00  0.00000000E+00  0.00000000E+00
  0.00000000E+00  0.00000000E+00  0.00000000E+00
  0.00000000E+00  0.00000000E+00  0.00000000E+00
  0.00000000E+00  0.00000000E+00  0.00000000E+00
  0.00000000E+00  0.00000000E+00  0.00000000E+00
  0.00000000E+00  0.00000000E+00  0.00000000E+00
  0.00000000E+00  0.00000000E+00  0.00000000E+00
  0.00000000E+00  0.00000000E+00  0.00000000E+00
  0.00000000E+00  0.00000000E+00  0.00000000E+00
  0.00000000E+00  0.00000000E+00  0.00000000E+00
  0.00000000E+00  0.00000000E+00  0.00000000E+00
  0.00000000E+00  0.00000000E+00  0.00000000E+00
  0.00000000E+00  0.00000000E+00  0.00000000E+00
  0.00000000E+00  0.00000000E+00  0.00000000E+00
  0.00000000E+00  0.00000000E+00  0.00000000E+00
  0.00000000E+00  0.00000000E+00  0.00000000E+00
  0.00000000E+00  0.00000000E+00  0.00000000E+00
  0.00000000E+00  0.00000000E+00  0.00000000E+00
  0.00000000E+00  0.00000000E+00  0.00000000E+00
