Title                                   
   1.00000000000000     
     9.8694509999999998    0.0000000000000000    0.0000000000000000
     0.0000000000000000    8.5490480000000009    0.0000000000000000
     0.0000000000000000    0.0000000000000000   20.0000000000000000
    30     1     1
Selective dynamics
Direct
  0.0558022266102612  0.0903606723372429  0.0808649395715408   T   T   T
  0.9311364673617823  0.1732748135672830  0.0824429101642750   T   T   T
  0.0569963088545964  0.9237922437415225  0.0819310672016536   T   T   T
  0.9309148369242308  0.3405142251590605  0.0857931445021650   T   T   T
  0.0569867046614065  0.5899342047688412  0.0839266855183099   T   T   T
  0.9326014654057512  0.6727984306366468  0.0874157132389523   T   T   T
  0.0569056144793024  0.4232320897536307  0.0840145135327806   T   T   T
  0.9322524177905845  0.8395982976688825  0.0848097604188186   T   T   T
  0.3051217186950302  0.0881104033220451  0.0865236000580595   T   T   T
  0.1813849796020656  0.1721222298178991  0.0831323204033790   T   T   T
  0.1825252650719300  0.3396086876392352  0.0856944377993855   T   T   T
  0.3029337497816615  0.5900750379154828  0.1001806473932068   T   T   T
  0.1818699141173465  0.6739897493495927  0.0872860120437920   T   T   T
  0.3060165582482497  0.4222809770746517  0.0966319146023880   T   T   T
  0.1818197026353240  0.8408764138408745  0.0855890735573748   T   T   T
  0.5562047450673502  0.0870825601459339  0.0922159339924695   T   T   T
  0.4302590739738936  0.1695534902451760  0.0921032195616702   T   T   T
  0.5548316035039037  0.9222284244912836  0.0982994119633120   T   T   T
  0.4296463292876547  0.3340252039620209  0.1021250578632222   T   T   T
  0.4166748560569205  0.6821589389518562  0.1202481429001848   T   T   T
  0.5561882009281054  0.4051108753328429  0.1199262745706173   T   T   T
  0.4261601687253870  0.8429773344659491  0.1026111627752821   T   T   T
  0.8067602966091407  0.0890993730663175  0.0846522211119676   T   T   T
  0.6817290132252151  0.1707356411355363  0.0908763030576196   T   T   T
  0.8068066153576815  0.9231297878450921  0.0873387044618781   T   T   T
  0.6823686794449469  0.3346642882721226  0.1018988569649912   T   T   T
  0.8104256110643706  0.5901171950520689  0.1002272666001985   T   T   T
  0.6941547175232724  0.6807041518309843  0.1181893569223482   T   T   T
  0.8070428660462181  0.4223181109183525  0.0969615584219315   T   T   T
  0.6831860640199718  0.8413674685108385  0.1001270813510991   T   T   T
  0.3049202315396744  0.9242523523404719  0.0892198440046673   T   T   T
  0.5570119973867762  0.5901523268402707  0.1724178634704940   T   T   T
 
  0.00000000E+00  0.00000000E+00  0.00000000E+00
  0.00000000E+00  0.00000000E+00  0.00000000E+00
  0.00000000E+00  0.00000000E+00  0.00000000E+00
  0.00000000E+00  0.00000000E+00  0.00000000E+00
  0.00000000E+00  0.00000000E+00  0.00000000E+00
  0.00000000E+00  0.00000000E+00  0.00000000E+00
  0.00000000E+00  0.00000000E+00  0.00000000E+00
  0.00000000E+00  0.00000000E+00  0.00000000E+00
  0.00000000E+00  0.00000000E+00  0.00000000E+00
  0.00000000E+00  0.00000000E+00  0.00000000E+00
  0.00000000E+00  0.00000000E+00  0.00000000E+00
  0.00000000E+00  0.00000000E+00  0.00000000E+00
  0.00000000E+00  0.00000000E+00  0.00000000E+00
  0.00000000E+00  0.00000000E+00  0.00000000E+00
  0.00000000E+00  0.00000000E+00  0.00000000E+00
  0.00000000E+00  0.00000000E+00  0.00000000E+00
  0.00000000E+00  0.00000000E+00  0.00000000E+00
  0.00000000E+00  0.00000000E+00  0.00000000E+00
  0.00000000E+00  0.00000000E+00  0.00000000E+00
  0.00000000E+00  0.00000000E+00  0.00000000E+00
  0.00000000E+00  0.00000000E+00  0.00000000E+00
  0.00000000E+00  0.00000000E+00  0.00000000E+00
  0.00000000E+00  0.00000000E+00  0.00000000E+00
  0.00000000E+00  0.00000000E+00  0.00000000E+00
  0.00000000E+00  0.00000000E+00  0.00000000E+00
  0.00000000E+00  0.00000000E+00  0.00000000E+00
  0.00000000E+00  0.00000000E+00  0.00000000E+00
  0.00000000E+00  0.00000000E+00  0.00000000E+00
  0.00000000E+00  0.00000000E+00  0.00000000E+00
  0.00000000E+00  0.00000000E+00  0.00000000E+00
  0.00000000E+00  0.00000000E+00  0.00000000E+00
  0.00000000E+00  0.00000000E+00  0.00000000E+00
