Title                                   
   1.00000000000000     
     4.9440799999999996    0.0000000000000000    0.0000000000000000
     0.0000000000000000    8.5647549999999999    0.0000000000000000
     0.0000000000000000    0.0000000000000000   20.0000000000000000
    12     2     1
Selective dynamics
Direct
  0.2493824770456965  0.2087875201194372  0.1004028878827640   T   T   T
 -0.0038001536071488  0.2941686442730853  0.1005209452265977   T   T   T
  0.2506382406394951  0.0407785806535438  0.1004035542201132   T   T   T
  0.0012288385146581  0.9582647249139103  0.1003181604226937   T   T   T
  0.7485262458101686  0.2079747252310039  0.1003798234094233   T   T   T
  0.4987980471531894  0.2913155932899186  0.1003872578523702   T   T   T
  0.7514811281944939  0.0415965906126675  0.1003706513342238   T   T   T
  0.7523260738874263  0.7127364995445982  0.1006454316399334   T   T   T
  0.7476803750473571  0.5368334892178439  0.1006590014327474   T   T   T
  0.5037879334658198  0.9553681766080465  0.1005711352162881   T   T   T
  0.5120702752429243  0.4546132575214550  0.1005078360482904   T   T   T
 -0.0120525507337798  0.7949535063838233  0.1003191906711914   T   T   T
 -0.0147542923068779  0.4542194141426645  0.1008135727407153   T   T   T
  0.5147017570413686  0.7953008657147373  0.1009511154733363   T   T   T
  0.2499856046052081  0.6247694117732653  0.1007294364293152   T   T   T
 
  0.00000000E+00  0.00000000E+00  0.00000000E+00
  0.00000000E+00  0.00000000E+00  0.00000000E+00
  0.00000000E+00  0.00000000E+00  0.00000000E+00
  0.00000000E+00  0.00000000E+00  0.00000000E+00
  0.00000000E+00  0.00000000E+00  0.00000000E+00
  0.00000000E+00  0.00000000E+00  0.00000000E+00
  0.00000000E+00  0.00000000E+00  0.00000000E+00
  0.00000000E+00  0.00000000E+00  0.00000000E+00
  0.00000000E+00  0.00000000E+00  0.00000000E+00
  0.00000000E+00  0.00000000E+00  0.00000000E+00
  0.00000000E+00  0.00000000E+00  0.00000000E+00
  0.00000000E+00  0.00000000E+00  0.00000000E+00
  0.00000000E+00  0.00000000E+00  0.00000000E+00
  0.00000000E+00  0.00000000E+00  0.00000000E+00
  0.00000000E+00  0.00000000E+00  0.00000000E+00
