Title                                   
   1.00000000000000     
     9.8694509999999998    0.0000000000000000    0.0000000000000000
     0.0000000000000000    8.5490480000000009    0.0000000000000000
     0.0000000000000000    0.0000000000000000   20.0000000000000000
    28     3     1
Selective dynamics
Direct
  0.0561745262422925  0.0916943824425093  0.0824531195018913   T   T   T
  0.9311067014106351  0.1751332670241229  0.0838455879022082   T   T   T
  0.0583685430283051  0.9245964198665684  0.0811234608652358   T   T   T
  0.9295828951915239  0.3429239431528304  0.0873818915675629   T   T   T
  0.0574712617971836  0.5907722572900793  0.0842589402536539   T   T   T
  0.9336619805710875  0.6745782126343876  0.0835503177817932   T   T   T
  0.0566226199367567  0.4235756288366447  0.0865517406977027   T   T   T
  0.9335188235140983  0.8411149445305269  0.0815729353833241   T   T   T
  0.3059444444679318  0.0869968335981042  0.0889847937826195   T   T   T
  0.1825432032466293  0.1727075104004218  0.0867106170744835   T   T   T
  0.1820811893553123  0.3395632074850065  0.0908482869404734   T   T   T
  0.3025524377638366  0.5885907937081940  0.1057308357255160   T   T   T
  0.1823722922086944  0.6736246163997079  0.0887154112755265   T   T   T
  0.3053304428919359  0.4203470208895198  0.1041476201668387   T   T   T
  0.1824917297609623  0.8404883893247044  0.0853825661915943   T   T   T
  0.5557581019339207  0.0846322163552161  0.0940068785579800   T   T   T
  0.5560996690595996  0.9197930645708516  0.0991156809756356   T   T   T
  0.4298505721134210  0.3294861175885760  0.1103307459736634   T   T   T
  0.4270903999274826  0.8384502945116441  0.1056008757851550   T   T   T
  0.8058132719850689  0.0905809955521414  0.0838364901895666   T   T   T
  0.6797187441587162  0.1716106368826647  0.0905780561751677   T   T   T
  0.8080577588728329  0.9252854076204762  0.0839489729591531   T   T   T
  0.6794661592472556  0.3363389211189618  0.1028394416752252   T   T   T
  0.8084209311800097  0.5957315335927162  0.0946439075147403   T   T   T
  0.8040486980431051  0.4259302797112773  0.0957293700784306   T   T   T
  0.6865734311729700  0.8393517048816403  0.0957612752880246   T   T   T
  0.4138036536281702  0.6831443882632026  0.1240504998906955   T   T   T
  0.5540984906746079  0.3983325743759074  0.1247125014162716   T   T   T
  0.6958150997480181  0.6829505642064494  0.1066604201490517   T   T   T
  0.3066355009108974  0.9245296722850262  0.0892457530537987   T   T   T
  0.4290005506772236  0.1658404295720871  0.0952239282832533   T   T   T
  0.5595648752795190  0.5915497713278370  0.1681320769237793   T   T   T
 
  0.00000000E+00  0.00000000E+00  0.00000000E+00
  0.00000000E+00  0.00000000E+00  0.00000000E+00
  0.00000000E+00  0.00000000E+00  0.00000000E+00
  0.00000000E+00  0.00000000E+00  0.00000000E+00
  0.00000000E+00  0.00000000E+00  0.00000000E+00
  0.00000000E+00  0.00000000E+00  0.00000000E+00
  0.00000000E+00  0.00000000E+00  0.00000000E+00
  0.00000000E+00  0.00000000E+00  0.00000000E+00
  0.00000000E+00  0.00000000E+00  0.00000000E+00
  0.00000000E+00  0.00000000E+00  0.00000000E+00
  0.00000000E+00  0.00000000E+00  0.00000000E+00
  0.00000000E+00  0.00000000E+00  0.00000000E+00
  0.00000000E+00  0.00000000E+00  0.00000000E+00
  0.00000000E+00  0.00000000E+00  0.00000000E+00
  0.00000000E+00  0.00000000E+00  0.00000000E+00
  0.00000000E+00  0.00000000E+00  0.00000000E+00
  0.00000000E+00  0.00000000E+00  0.00000000E+00
  0.00000000E+00  0.00000000E+00  0.00000000E+00
  0.00000000E+00  0.00000000E+00  0.00000000E+00
  0.00000000E+00  0.00000000E+00  0.00000000E+00
  0.00000000E+00  0.00000000E+00  0.00000000E+00
  0.00000000E+00  0.00000000E+00  0.00000000E+00
  0.00000000E+00  0.00000000E+00  0.00000000E+00
  0.00000000E+00  0.00000000E+00  0.00000000E+00
  0.00000000E+00  0.00000000E+00  0.00000000E+00
  0.00000000E+00  0.00000000E+00  0.00000000E+00
  0.00000000E+00  0.00000000E+00  0.00000000E+00
  0.00000000E+00  0.00000000E+00  0.00000000E+00
  0.00000000E+00  0.00000000E+00  0.00000000E+00
  0.00000000E+00  0.00000000E+00  0.00000000E+00
  0.00000000E+00  0.00000000E+00  0.00000000E+00
  0.00000000E+00  0.00000000E+00  0.00000000E+00
