Title                                   
   1.00000000000000     
     8.5490480000000009    0.0000000000000000    0.0000000000000000
     0.0000000000000000    8.5490480000000009    0.0000000000000000
     0.0000000000000000    0.0000000000000000   20.0000000000000000
    18     6     1
Selective dynamics
Direct
  0.9079661115480232  0.2061741416056692  0.0974469714215282   T   T   T
  0.9106071988817031  0.8005852445835353  0.0974909425989908   T   T   T
  0.1961572371456005  0.0841961417459410  0.0976767958109967   T   T   T
  0.0759457642912988  0.2015667121098707  0.0975241068682540   T   T   T
  0.1573693491271942  0.6508442257135041  0.0977389569037624   T   T   T
  0.0775337416814992  0.5006954261048207  0.0977420430385409   T   T   T
  0.1571832809228259  0.3514782598659767  0.0977786216872754   T   T   T
  0.0787987878281807  0.7985088592455140  0.0975876254659819   T   T   T
  0.4934047669163804  0.0881062036749174  0.0978788201228294   T   T   T
  0.3434193312235986  0.1669368797868633  0.0979352405707280   T   T   T
  0.4930909923544287  0.9164450154591052  0.0977737772074961   T   T   T
  0.3438781674117701  0.8344557845409160  0.0977882452203950   T   T   T
  0.7883310988198222  0.0878242630422040  0.0974958150821613   T   T   T
  0.6412079527764349  0.1699050490169234  0.0978333502352045   T   T   T
  0.7891740323410286  0.9184422043001849  0.0974871022068457   T   T   T
  0.8290868030172769  0.6506122306481323  0.0976617726797130   T   T   T
  0.8269409221166719  0.3549238243971644  0.0977234775879334   T   T   T
  0.6425603637028576  0.8349297066776402  0.0977031195820068   T   T   T
  0.9073904443985861  0.5023369595499073  0.0977543064586292   T   T   T
  0.3188848322951842  0.3279386425024357  0.0981032572588974   T   T   T
  0.3192702396989253  0.6760553109507835  0.0979051056293833   T   T   T
  0.6665681131373967  0.3331888488972412  0.0980733526520973   T   T   T
  0.6692180806181698  0.6717555754163366  0.0978747680368412   T   T   T
  0.1976196506495957  0.9151415074489920  0.0976922268889141   T   T   T
  0.4938047370955393  0.5017429827154197  0.0980351987845740   T   T   T
 
  0.00000000E+00  0.00000000E+00  0.00000000E+00
  0.00000000E+00  0.00000000E+00  0.00000000E+00
  0.00000000E+00  0.00000000E+00  0.00000000E+00
  0.00000000E+00  0.00000000E+00  0.00000000E+00
  0.00000000E+00  0.00000000E+00  0.00000000E+00
  0.00000000E+00  0.00000000E+00  0.00000000E+00
  0.00000000E+00  0.00000000E+00  0.00000000E+00
  0.00000000E+00  0.00000000E+00  0.00000000E+00
  0.00000000E+00  0.00000000E+00  0.00000000E+00
  0.00000000E+00  0.00000000E+00  0.00000000E+00
  0.00000000E+00  0.00000000E+00  0.00000000E+00
  0.00000000E+00  0.00000000E+00  0.00000000E+00
  0.00000000E+00  0.00000000E+00  0.00000000E+00
  0.00000000E+00  0.00000000E+00  0.00000000E+00
  0.00000000E+00  0.00000000E+00  0.00000000E+00
  0.00000000E+00  0.00000000E+00  0.00000000E+00
  0.00000000E+00  0.00000000E+00  0.00000000E+00
  0.00000000E+00  0.00000000E+00  0.00000000E+00
  0.00000000E+00  0.00000000E+00  0.00000000E+00
  0.00000000E+00  0.00000000E+00  0.00000000E+00
  0.00000000E+00  0.00000000E+00  0.00000000E+00
  0.00000000E+00  0.00000000E+00  0.00000000E+00
  0.00000000E+00  0.00000000E+00  0.00000000E+00
  0.00000000E+00  0.00000000E+00  0.00000000E+00
  0.00000000E+00  0.00000000E+00  0.00000000E+00
