Title                                   
   1.00000000000000     
     4.9440799999999996    0.0000000000000000    0.0000000000000000
     0.0000000000000000    8.5647549999999999    0.0000000000000000
     0.0000000000000000    0.0000000000000000   20.0000000000000000
    12     3     1
Selective dynamics
Direct
 -0.0044085266032108  0.2925297563046163  0.0886632064455726   T   T   T
  0.2512611393173405  0.0448376873462436  0.0888296128816398   T   T   T
  0.0073221095356916  0.7965148820936192  0.0977078193383898   T   T   T
  0.0020115399595374  0.9619675057101637  0.0875777949072688   T   T   T
  0.7492144550035585  0.2068543322332737  0.0855613381974918   T   T   T
  0.5034981081129841  0.2913800884672943  0.0977238916325075   T   T   T
  0.7511113181286991  0.0419838761141980  0.0843873961485283   T   T   T
  0.7554688028566920  0.7063411006972492  0.1031349881299314   T   T   T
  0.4997523268575132  0.7953556859435446  0.1003360567004175   T   T   T
  0.7565128618770006  0.5329969805235439  0.1071519298178529   T   T   T
  0.5017423364080860  0.9613263661984796  0.0897929840774343   T   T   T
  0.5203325368606545  0.4439584796305994  0.1229894540940454   T   T   T
 -0.0072169130329307  0.4497110109260753  0.0905355099235190   T   T   T
  0.2524873642649738  0.7258968947446839  0.1091392457159878   T   T   T
  0.2501010448813973  0.2107547629077515  0.0912241136480115   T   T   T
  0.2108094955720120  0.5375905901586646  0.1677566583414112   T   T   T
 
  0.00000000E+00  0.00000000E+00  0.00000000E+00
  0.00000000E+00  0.00000000E+00  0.00000000E+00
  0.00000000E+00  0.00000000E+00  0.00000000E+00
  0.00000000E+00  0.00000000E+00  0.00000000E+00
  0.00000000E+00  0.00000000E+00  0.00000000E+00
  0.00000000E+00  0.00000000E+00  0.00000000E+00
  0.00000000E+00  0.00000000E+00  0.00000000E+00
  0.00000000E+00  0.00000000E+00  0.00000000E+00
  0.00000000E+00  0.00000000E+00  0.00000000E+00
  0.00000000E+00  0.00000000E+00  0.00000000E+00
  0.00000000E+00  0.00000000E+00  0.00000000E+00
  0.00000000E+00  0.00000000E+00  0.00000000E+00
  0.00000000E+00  0.00000000E+00  0.00000000E+00
  0.00000000E+00  0.00000000E+00  0.00000000E+00
  0.00000000E+00  0.00000000E+00  0.00000000E+00
  0.00000000E+00  0.00000000E+00  0.00000000E+00
