Title                                   
   1.00000000000000     
     9.8694509999999998    0.0000000000000000    0.0000000000000000
     0.0000000000000000    8.5490480000000009    0.0000000000000000
     0.0000000000000000    0.0000000000000000   20.0000000000000000
    27     4     1
Selective dynamics
Direct
  0.0563816204810824  0.0906687274823204  0.0869856627586153   T   T   T
  0.9309811098762346  0.1741680047824608  0.0866158586216381   T   T   T
  0.0581859747733833  0.9237395862491006  0.0887964426713209   T   T   T
  0.9285904373436740  0.3421052644056368  0.0873800236436432   T   T   T
  0.0577069198431277  0.5900969125449983  0.0894786899102262   T   T   T
  0.9326360846649747  0.6734076760403298  0.0902478928358406   T   T   T
  0.0564663308143855  0.4225748702547747  0.0891234950766012   T   T   T
  0.9334260067415860  0.8397751152530635  0.0901237487621149   T   T   T
  0.3066945756494037  0.0862621506999249  0.0908607053438111   T   T   T
  0.1832905130556519  0.1717882063313875  0.0876519319758558   T   T   T
  0.1832193275001419  0.3392992999881027  0.0896550870804391   T   T   T
  0.3077061890555564  0.5873461201962690  0.1044064055246608   T   T   T
  0.1838351887555706  0.6731667540316917  0.0935631805356178   T   T   T
  0.3092026805320188  0.4207629712985725  0.0954302630421999   T   T   T
  0.1828769218778655  0.8399883258637373  0.0919598772767588   T   T   T
  0.5565990634280163  0.0834584006005482  0.0942212849649185   T   T   T
  0.5561623208313581  0.9203691219624927  0.1031422048034247   T   T   T
  0.4353605673481641  0.3328863337089056  0.0897611166590426   T   T   T
  0.4279815522281680  0.8386992930405401  0.1092618936154078   T   T   T
  0.8060888145394169  0.0888770420133801  0.0884703079497005   T   T   T
  0.6797008513378493  0.1697433447052527  0.0888265551355366   T   T   T
  0.8076997113123695  0.9232841699929788  0.0914458263468439   T   T   T
  0.6752702568742531  0.3362072882645115  0.0856152174634954   T   T   T
  0.8044990331291617  0.5941418453785411  0.0938664717511269   T   T   T
  0.8005056165867975  0.4250293705171527  0.0882361870507836   T   T   T
  0.6848260513226558  0.8380312185555723  0.1000232023476068   T   T   T
  0.4185941952262128  0.6809266044114782  0.1275281868651398   T   T   T
  0.5516808660441889  0.4079415725020680  0.0834003686142030   T   T   T
  0.6885354308772447  0.6785595952367763  0.1049600377024217   T   T   T
  0.3070465163903227  0.9231398478055718  0.0938213856922196   T   T   T
  0.4302601021138234  0.1652969021151818  0.0928227309931806   T   T   T
  0.5576281694453463  0.6085040637666815  0.1879927569856202   T   T   T
 
  0.00000000E+00  0.00000000E+00  0.00000000E+00
  0.00000000E+00  0.00000000E+00  0.00000000E+00
  0.00000000E+00  0.00000000E+00  0.00000000E+00
  0.00000000E+00  0.00000000E+00  0.00000000E+00
  0.00000000E+00  0.00000000E+00  0.00000000E+00
  0.00000000E+00  0.00000000E+00  0.00000000E+00
  0.00000000E+00  0.00000000E+00  0.00000000E+00
  0.00000000E+00  0.00000000E+00  0.00000000E+00
  0.00000000E+00  0.00000000E+00  0.00000000E+00
  0.00000000E+00  0.00000000E+00  0.00000000E+00
  0.00000000E+00  0.00000000E+00  0.00000000E+00
  0.00000000E+00  0.00000000E+00  0.00000000E+00
  0.00000000E+00  0.00000000E+00  0.00000000E+00
  0.00000000E+00  0.00000000E+00  0.00000000E+00
  0.00000000E+00  0.00000000E+00  0.00000000E+00
  0.00000000E+00  0.00000000E+00  0.00000000E+00
  0.00000000E+00  0.00000000E+00  0.00000000E+00
  0.00000000E+00  0.00000000E+00  0.00000000E+00
  0.00000000E+00  0.00000000E+00  0.00000000E+00
  0.00000000E+00  0.00000000E+00  0.00000000E+00
  0.00000000E+00  0.00000000E+00  0.00000000E+00
  0.00000000E+00  0.00000000E+00  0.00000000E+00
  0.00000000E+00  0.00000000E+00  0.00000000E+00
  0.00000000E+00  0.00000000E+00  0.00000000E+00
  0.00000000E+00  0.00000000E+00  0.00000000E+00
  0.00000000E+00  0.00000000E+00  0.00000000E+00
  0.00000000E+00  0.00000000E+00  0.00000000E+00
  0.00000000E+00  0.00000000E+00  0.00000000E+00
  0.00000000E+00  0.00000000E+00  0.00000000E+00
  0.00000000E+00  0.00000000E+00  0.00000000E+00
  0.00000000E+00  0.00000000E+00  0.00000000E+00
  0.00000000E+00  0.00000000E+00  0.00000000E+00
