Title                                   
   1.00000000000000     
     8.5490480000000009    0.0000000000000000    0.0000000000000000
     0.0000000000000000    8.5490480000000009    0.0000000000000000
     0.0000000000000000    0.0000000000000000   20.0000000000000000
    19     5     1
Selective dynamics
Direct
  0.9071077038225793  0.2056849153961859  0.0930441943391033   T   T   T
  0.9128595558304228  0.8028254907338598  0.0936995884607501   T   T   T
  0.1947558892165342  0.0811840027193288  0.0938634259832756   T   T   T
  0.0743995906140485  0.1994907778510853  0.0944410848384621   T   T   T
  0.1578826500257521  0.6494391943151409  0.0946149371956285   T   T   T
  0.0771917719335191  0.4997023489956168  0.0966872429669968   T   T   T
  0.1551297715552359  0.3478546749955149  0.0981928955721422   T   T   T
  0.0800887862832066  0.7994207345706705  0.0925985050892075   T   T   T
  0.3411430736552444  0.1619376450922470  0.0972305209322809   T   T   T
  0.4939995338428750  0.9189417961459363  0.0966733157264684   T   T   T
  0.3456021514692719  0.8366381987722197  0.0946277422006458   T   T   T
  0.7880701037403082  0.0877175542534788  0.0929097285637811   T   T   T
  0.6381099940285762  0.1695292386603588  0.0951187448958585   T   T   T
  0.7917634175605671  0.9211415866747832  0.0943229921998664   T   T   T
  0.8322727400770227  0.6541448245750815  0.0972694194746439   T   T   T
  0.8261970176703836  0.3561989971419101  0.0952860838555979   T   T   T
  0.6448708768403970  0.8396797230579836  0.0982119998802391   T   T   T
  0.3233453219498313  0.6741926879700361  0.0951385784604338   T   T   T
  0.6604963894067041  0.3347536990029905  0.0965304633381061   T   T   T
  0.4924963011331132  0.0863062489362406  0.0964290854431803   T   T   T
  0.9090347731414700  0.5030427484728063  0.0965188213144452   T   T   T
  0.3182576336961569  0.3214745362664982  0.1017288163931946   T   T   T
  0.6728003830318924  0.6761451041836004  0.1020850080774802   T   T   T
  0.1956564670064250  0.9150085145727744  0.0923622628645484   T   T   T
  0.4918801024684492  0.5023347566436650  0.1441195419336434   T   T   T
 
  0.00000000E+00  0.00000000E+00  0.00000000E+00
  0.00000000E+00  0.00000000E+00  0.00000000E+00
  0.00000000E+00  0.00000000E+00  0.00000000E+00
  0.00000000E+00  0.00000000E+00  0.00000000E+00
  0.00000000E+00  0.00000000E+00  0.00000000E+00
  0.00000000E+00  0.00000000E+00  0.00000000E+00
  0.00000000E+00  0.00000000E+00  0.00000000E+00
  0.00000000E+00  0.00000000E+00  0.00000000E+00
  0.00000000E+00  0.00000000E+00  0.00000000E+00
  0.00000000E+00  0.00000000E+00  0.00000000E+00
  0.00000000E+00  0.00000000E+00  0.00000000E+00
  0.00000000E+00  0.00000000E+00  0.00000000E+00
  0.00000000E+00  0.00000000E+00  0.00000000E+00
  0.00000000E+00  0.00000000E+00  0.00000000E+00
  0.00000000E+00  0.00000000E+00  0.00000000E+00
  0.00000000E+00  0.00000000E+00  0.00000000E+00
  0.00000000E+00  0.00000000E+00  0.00000000E+00
  0.00000000E+00  0.00000000E+00  0.00000000E+00
  0.00000000E+00  0.00000000E+00  0.00000000E+00
  0.00000000E+00  0.00000000E+00  0.00000000E+00
  0.00000000E+00  0.00000000E+00  0.00000000E+00
  0.00000000E+00  0.00000000E+00  0.00000000E+00
  0.00000000E+00  0.00000000E+00  0.00000000E+00
  0.00000000E+00  0.00000000E+00  0.00000000E+00
  0.00000000E+00  0.00000000E+00  0.00000000E+00
