Title                                   
   1.00000000000000     
     9.8694509999999998    0.0000000000000000    0.0000000000000000
     0.0000000000000000    8.5490480000000009    0.0000000000000000
     0.0000000000000000    0.0000000000000000   20.0000000000000000
    26     5     1
Selective dynamics
Direct
  0.0576101234256632  0.0902366710023713  0.0863623533882870   T   T   T
  0.9323942752541635  0.1742468837284015  0.0859670554383426   T   T   T
  0.0593174536758517  0.9221075449299113  0.0870955772840731   T   T   T
  0.9294866633754763  0.3424991440650230  0.0858937672031938   T   T   T
  0.0579020943372262  0.5906033287217983  0.0896982968520763   T   T   T
  0.0563942729540462  0.4236893695686110  0.0890379496642874   T   T   T
  0.9353619340236384  0.8386926468006523  0.0870026788672485   T   T   T
  0.3085686948145227  0.0857726486259779  0.0905933751557348   T   T   T
  0.1842467040907542  0.1715744831795524  0.0884845078635645   T   T   T
  0.1838877240236500  0.3391795839462999  0.0915983619605125   T   T   T
  0.3066191270504381  0.5865865297596010  0.1081416140620567   T   T   T
  0.1834055727173835  0.6729873363628578  0.0950409651915950   T   T   T
  0.3093907280697051  0.4204381482256042  0.0997192436721099   T   T   T
  0.1850577296977129  0.8393224776629091  0.0913345929589877   T   T   T
  0.5586067189565218  0.0837412742999972  0.0944132758111704   T   T   T
  0.5583290195987287  0.9180769056121151  0.1010718686602379   T   T   T
  0.4370252148262704  0.3330934305753782  0.0942472105230887   T   T   T
  0.4307424968233866  0.8370576204533456  0.1098164857672067   T   T   T
  0.8082161651162746  0.0885879698726536  0.0876663314414737   T   T   T
  0.6809503606927281  0.1700942828879567  0.0889435486070171   T   T   T
  0.8095644334779257  0.9224365710148654  0.0886660998311710   T   T   T
  0.6765676565940514  0.3382440673267877  0.0864360650246351   T   T   T
  0.8046382297424578  0.5966819088400088  0.0864032839826540   T   T   T
  0.8023238459036504  0.4259402662830779  0.0850373136615700   T   T   T
  0.6861144496557907  0.8363775867897242  0.0933481151210086   T   T   T
  0.4171845113007764  0.6821523654887592  0.1303870561246049   T   T   T
  0.5524220830197736  0.4081744543456815  0.0886121544713569   T   T   T
  0.6912864453289254  0.6778681976697080  0.0893962882971186   T   T   T
  0.3082090578413405  0.9211367792556053  0.0922436195042944   T   T   T
  0.4315558023198490  0.1642729968365575  0.0938406756576741   T   T   T
  0.9346428804557511  0.6733470648512356  0.0872244801492652   T   T   T
  0.5216165308355722  0.6150254610169708  0.2119507878023986   T   T   T
 
  0.00000000E+00  0.00000000E+00  0.00000000E+00
  0.00000000E+00  0.00000000E+00  0.00000000E+00
  0.00000000E+00  0.00000000E+00  0.00000000E+00
  0.00000000E+00  0.00000000E+00  0.00000000E+00
  0.00000000E+00  0.00000000E+00  0.00000000E+00
  0.00000000E+00  0.00000000E+00  0.00000000E+00
  0.00000000E+00  0.00000000E+00  0.00000000E+00
  0.00000000E+00  0.00000000E+00  0.00000000E+00
  0.00000000E+00  0.00000000E+00  0.00000000E+00
  0.00000000E+00  0.00000000E+00  0.00000000E+00
  0.00000000E+00  0.00000000E+00  0.00000000E+00
  0.00000000E+00  0.00000000E+00  0.00000000E+00
  0.00000000E+00  0.00000000E+00  0.00000000E+00
  0.00000000E+00  0.00000000E+00  0.00000000E+00
  0.00000000E+00  0.00000000E+00  0.00000000E+00
  0.00000000E+00  0.00000000E+00  0.00000000E+00
  0.00000000E+00  0.00000000E+00  0.00000000E+00
  0.00000000E+00  0.00000000E+00  0.00000000E+00
  0.00000000E+00  0.00000000E+00  0.00000000E+00
  0.00000000E+00  0.00000000E+00  0.00000000E+00
  0.00000000E+00  0.00000000E+00  0.00000000E+00
  0.00000000E+00  0.00000000E+00  0.00000000E+00
  0.00000000E+00  0.00000000E+00  0.00000000E+00
  0.00000000E+00  0.00000000E+00  0.00000000E+00
  0.00000000E+00  0.00000000E+00  0.00000000E+00
  0.00000000E+00  0.00000000E+00  0.00000000E+00
  0.00000000E+00  0.00000000E+00  0.00000000E+00
  0.00000000E+00  0.00000000E+00  0.00000000E+00
  0.00000000E+00  0.00000000E+00  0.00000000E+00
  0.00000000E+00  0.00000000E+00  0.00000000E+00
  0.00000000E+00  0.00000000E+00  0.00000000E+00
  0.00000000E+00  0.00000000E+00  0.00000000E+00
