Title                                   
   1.00000000000000     
     9.8694509999999998    0.0000000000000000    0.0000000000000000
     0.0000000000000000    8.5490480000000009    0.0000000000000000
     0.0000000000000000    0.0000000000000000   20.0000000000000000
    27     4     1
Selective dynamics
Direct
  0.0555490986272257  0.0904292363615664  0.0821099901189630   T   T   T
  0.9306286200362004  0.1747296798044596  0.0822813228442168   T   T   T
  0.0573764392712182  0.9229963070252686  0.0833042245264511   T   T   T
  0.9298122814660081  0.3420363827562783  0.0846543814492241   T   T   T
  0.0559526383830507  0.5913383937981493  0.0853856056028827   T   T   T
  0.0555110139490380  0.4247156681045082  0.0847125763764520   T   T   T
  0.9332465391741470  0.8393970512294150  0.0853843391315225   T   T   T
  0.3055557898806878  0.0880756364501548  0.0884236262098016   T   T   T
  0.1817786399038870  0.1726357861703571  0.0850948770893855   T   T   T
  0.1812973964208475  0.3400307914821897  0.0875937359222311   T   T   T
  0.3019613090495477  0.5879641249625170  0.1033032426110357   T   T   T
  0.1807638288321388  0.6740336416076613  0.0901134277239265   T   T   T
  0.3057881019324341  0.4203669307811693  0.0996431484990262   T   T   T
  0.1827832121967820  0.8409754146805877  0.0873807635830032   T   T   T
  0.5561524390118803  0.0862550198484564  0.0923080994647203   T   T   T
  0.5557100979031979  0.9196305347082565  0.0989717785142450   T   T   T
  0.4292557223234661  0.3307158587892267  0.1057201462782373   T   T   T
  0.4270612946391505  0.8404223840239150  0.1048666241615211   T   T   T
  0.8062667273462737  0.0889929803767660  0.0838214062253731   T   T   T
  0.6798618558257241  0.1715349255130277  0.0889295165576393   T   T   T
  0.8075922266275229  0.9230474493853250  0.0871785843157389   T   T   T
  0.6814198543939342  0.3370591466861394  0.0990711149863189   T   T   T
  0.8096279989597566  0.5946314591193385  0.0983718760650074   T   T   T
  0.8050347782149238  0.4261938695826420  0.0940315823957248   T   T   T
  0.6847553062288535  0.8411022766716281  0.0991339192972226   T   T   T
  0.4165684411911296  0.6808787352440229  0.1224016081235560   T   T   T
  0.5557253422262791  0.4028122175208809  0.1207786297035916   T   T   T
  0.6991001242471331  0.6827363768363751  0.1165261348183109   T   T   T
  0.3058918730744619  0.9242609400146355  0.0906626837981744   T   T   T
  0.4290090256041894  0.1666536641310413  0.0941650745942693   T   T   T
  0.9326443140193227  0.6743654081691498  0.0868451883422174   T   T   T
  0.5599566690395933  0.5892277081648924  0.1725057706700261   T   T   T
 
  0.00000000E+00  0.00000000E+00  0.00000000E+00
  0.00000000E+00  0.00000000E+00  0.00000000E+00
  0.00000000E+00  0.00000000E+00  0.00000000E+00
  0.00000000E+00  0.00000000E+00  0.00000000E+00
  0.00000000E+00  0.00000000E+00  0.00000000E+00
  0.00000000E+00  0.00000000E+00  0.00000000E+00
  0.00000000E+00  0.00000000E+00  0.00000000E+00
  0.00000000E+00  0.00000000E+00  0.00000000E+00
  0.00000000E+00  0.00000000E+00  0.00000000E+00
  0.00000000E+00  0.00000000E+00  0.00000000E+00
  0.00000000E+00  0.00000000E+00  0.00000000E+00
  0.00000000E+00  0.00000000E+00  0.00000000E+00
  0.00000000E+00  0.00000000E+00  0.00000000E+00
  0.00000000E+00  0.00000000E+00  0.00000000E+00
  0.00000000E+00  0.00000000E+00  0.00000000E+00
  0.00000000E+00  0.00000000E+00  0.00000000E+00
  0.00000000E+00  0.00000000E+00  0.00000000E+00
  0.00000000E+00  0.00000000E+00  0.00000000E+00
  0.00000000E+00  0.00000000E+00  0.00000000E+00
  0.00000000E+00  0.00000000E+00  0.00000000E+00
  0.00000000E+00  0.00000000E+00  0.00000000E+00
  0.00000000E+00  0.00000000E+00  0.00000000E+00
  0.00000000E+00  0.00000000E+00  0.00000000E+00
  0.00000000E+00  0.00000000E+00  0.00000000E+00
  0.00000000E+00  0.00000000E+00  0.00000000E+00
  0.00000000E+00  0.00000000E+00  0.00000000E+00
  0.00000000E+00  0.00000000E+00  0.00000000E+00
  0.00000000E+00  0.00000000E+00  0.00000000E+00
  0.00000000E+00  0.00000000E+00  0.00000000E+00
  0.00000000E+00  0.00000000E+00  0.00000000E+00
  0.00000000E+00  0.00000000E+00  0.00000000E+00
  0.00000000E+00  0.00000000E+00  0.00000000E+00
