Title                                   
   1.00000000000000     
     9.8694509999999998    0.0000000000000000    0.0000000000000000
     0.0000000000000000    8.5490480000000009    0.0000000000000000
     0.0000000000000000    0.0000000000000000   20.0000000000000000
    26     4     1
Selective dynamics
Direct
  0.0557199021561687  0.0898581767688250  0.0869241589108946   T   T   T
  0.9308695069272749  0.1713432853937159  0.0890384431800692   T   T   T
  0.0565798342437188  0.9228277440944985  0.0866664296152940   T   T   T
  0.9338701321200885  0.3386375708747639  0.0888329903668658   T   T   T
  0.0576236243335442  0.5897844595205834  0.0840277173866068   T   T   T
  0.9329172354682385  0.6722307353767428  0.0879480971030342   T   T   T
  0.0582257050134263  0.4229201856351283  0.0842984064066344   T   T   T
  0.9306513805409264  0.8391519740312536  0.0882400027547297   T   T   T
  0.3077345515498781  0.0900591808480664  0.0909157782177481   T   T   T
  0.1820923779625805  0.1726076051156910  0.0870740014048919   T   T   T
  0.1825418724302850  0.3396910566448391  0.0852549504914016   T   T   T
  0.3055144414599029  0.5914856688583116  0.0902033111382987   T   T   T
  0.1816631788869568  0.6740667450606065  0.0848110670009733   T   T   T
  0.3066501434580023  0.4234408226242013  0.0897148669704927   T   T   T
  0.1808145788989734  0.8406462790251713  0.0869362802728698   T   T   T
  0.4304457274145146  0.1767096402684207  0.0968161082400186   T   T   T
  0.5521876596176470  0.9219678031576247  0.0998218260432120   T   T   T
  0.4275646323980559  0.8384581272733225  0.0979889689374678   T   T   T
  0.8035494915184107  0.0882896248126217  0.0925986307859009   T   T   T
  0.6803639962215994  0.1747886528600392  0.1006586177860778   T   T   T
  0.8042426312662658  0.9206879081537027  0.0923930851708100   T   T   T
  0.6881854963616006  0.3387081478218683  0.1123425444225112   T   T   T
  0.8108952572194256  0.5883667217262639  0.0961689191392981   T   T   T
  0.6853396571401176  0.6684391923610873  0.1057393723009331   T   T   T
  0.8120964146222005  0.4202554336432107  0.0980058175543400   T   T   T
  0.6783772900911575  0.8355854065731070  0.0992314677466222   T   T   T
  0.5544369021949447  0.0931958642852725  0.1001046152249780   T   T   T
  0.4276190915859699  0.3399405689087159  0.0990444051314768   T   T   T
  0.4223378909396829  0.6780111290840728  0.1038907250727992   T   T   T
  0.3056249073672961  0.9237067937468121  0.0904452851200964   T   T   T
  0.5563994885911615  0.5050124954514653  0.1448281101027015   T   T   T
 
  0.00000000E+00  0.00000000E+00  0.00000000E+00
  0.00000000E+00  0.00000000E+00  0.00000000E+00
  0.00000000E+00  0.00000000E+00  0.00000000E+00
  0.00000000E+00  0.00000000E+00  0.00000000E+00
  0.00000000E+00  0.00000000E+00  0.00000000E+00
  0.00000000E+00  0.00000000E+00  0.00000000E+00
  0.00000000E+00  0.00000000E+00  0.00000000E+00
  0.00000000E+00  0.00000000E+00  0.00000000E+00
  0.00000000E+00  0.00000000E+00  0.00000000E+00
  0.00000000E+00  0.00000000E+00  0.00000000E+00
  0.00000000E+00  0.00000000E+00  0.00000000E+00
  0.00000000E+00  0.00000000E+00  0.00000000E+00
  0.00000000E+00  0.00000000E+00  0.00000000E+00
  0.00000000E+00  0.00000000E+00  0.00000000E+00
  0.00000000E+00  0.00000000E+00  0.00000000E+00
  0.00000000E+00  0.00000000E+00  0.00000000E+00
  0.00000000E+00  0.00000000E+00  0.00000000E+00
  0.00000000E+00  0.00000000E+00  0.00000000E+00
  0.00000000E+00  0.00000000E+00  0.00000000E+00
  0.00000000E+00  0.00000000E+00  0.00000000E+00
  0.00000000E+00  0.00000000E+00  0.00000000E+00
  0.00000000E+00  0.00000000E+00  0.00000000E+00
  0.00000000E+00  0.00000000E+00  0.00000000E+00
  0.00000000E+00  0.00000000E+00  0.00000000E+00
  0.00000000E+00  0.00000000E+00  0.00000000E+00
  0.00000000E+00  0.00000000E+00  0.00000000E+00
  0.00000000E+00  0.00000000E+00  0.00000000E+00
  0.00000000E+00  0.00000000E+00  0.00000000E+00
  0.00000000E+00  0.00000000E+00  0.00000000E+00
  0.00000000E+00  0.00000000E+00  0.00000000E+00
  0.00000000E+00  0.00000000E+00  0.00000000E+00
