Title                                   
   1.00000000000000     
     8.5490480000000009    0.0000000000000000    0.0000000000000000
     0.0000000000000000    8.5490480000000009    0.0000000000000000
     0.0000000000000000    0.0000000000000000   20.0000000000000000
    20     4     1
Selective dynamics
Direct
  0.9071242874283818  0.2073619812754529  0.0942537355124125   T   T   T
  0.9123084964156837  0.8019481938046445  0.0951730647628052   T   T   T
  0.1969965127979682  0.0822470525543050  0.0946819531744723   T   T   T
  0.0751413325528628  0.2017043605375523  0.0950961518617273   T   T   T
  0.1577630652876635  0.6492424856363095  0.0962262414324591   T   T   T
  0.0751035069538362  0.5007101895058003  0.0969930877785553   T   T   T
  0.1544283429875282  0.3523368069515432  0.0980963868644373   T   T   T
  0.0807139617129640  0.7987976901573548  0.0948034912539422   T   T   T
  0.3456619361345575  0.1611260563281713  0.0972879937348215   T   T   T
  0.4952254646283143  0.9177630676850780  0.0970276031687308   T   T   T
  0.3465306652401577  0.8370825990297353  0.0954432888271811   T   T   T
  0.7868951230750171  0.0881410496787695  0.0950457877385037   T   T   T
  0.6373693536571505  0.1682295290891374  0.0971146917523196   T   T   T
  0.7908275808830103  0.9203056124651338  0.0957299457437089   T   T   T
  0.8308435963770721  0.6533607575939244  0.0973913563760489   T   T   T
  0.8261553173191818  0.3578787244443860  0.0950540155009155   T   T   T
  0.6441712272366495  0.8376347167440545  0.0983943203396538   T   T   T
  0.3239253450570977  0.3267863136640161  0.1024087322656793   T   T   T
  0.3252175081200548  0.6738504061086114  0.0961395568498689   T   T   T
  0.6592410297549547  0.3366137061959671  0.0979242177449396   T   T   T
  0.4944051212290528  0.0836033270940992  0.0969253025576885   T   T   T
  0.9075996296963710  0.5039919738465143  0.0961822041781216   T   T   T
  0.6703625039191506  0.6735319081708006  0.1015470890900622   T   T   T
  0.1971413891184982  0.9154080637435938  0.0941858624059292   T   T   T
  0.4842597024168133  0.4951334276950589  0.1295789190849983   T   T   T
 
  0.00000000E+00  0.00000000E+00  0.00000000E+00
  0.00000000E+00  0.00000000E+00  0.00000000E+00
  0.00000000E+00  0.00000000E+00  0.00000000E+00
  0.00000000E+00  0.00000000E+00  0.00000000E+00
  0.00000000E+00  0.00000000E+00  0.00000000E+00
  0.00000000E+00  0.00000000E+00  0.00000000E+00
  0.00000000E+00  0.00000000E+00  0.00000000E+00
  0.00000000E+00  0.00000000E+00  0.00000000E+00
  0.00000000E+00  0.00000000E+00  0.00000000E+00
  0.00000000E+00  0.00000000E+00  0.00000000E+00
  0.00000000E+00  0.00000000E+00  0.00000000E+00
  0.00000000E+00  0.00000000E+00  0.00000000E+00
  0.00000000E+00  0.00000000E+00  0.00000000E+00
  0.00000000E+00  0.00000000E+00  0.00000000E+00
  0.00000000E+00  0.00000000E+00  0.00000000E+00
  0.00000000E+00  0.00000000E+00  0.00000000E+00
  0.00000000E+00  0.00000000E+00  0.00000000E+00
  0.00000000E+00  0.00000000E+00  0.00000000E+00
  0.00000000E+00  0.00000000E+00  0.00000000E+00
  0.00000000E+00  0.00000000E+00  0.00000000E+00
  0.00000000E+00  0.00000000E+00  0.00000000E+00
  0.00000000E+00  0.00000000E+00  0.00000000E+00
  0.00000000E+00  0.00000000E+00  0.00000000E+00
  0.00000000E+00  0.00000000E+00  0.00000000E+00
  0.00000000E+00  0.00000000E+00  0.00000000E+00
