Title                                   
   1.00000000000000     
     9.8694509999999998    0.0000000000000000    0.0000000000000000
     0.0000000000000000    8.5490480000000009    0.0000000000000000
     0.0000000000000000    0.0000000000000000   20.0000000000000000
    31     1
Selective dynamics
Direct
  0.0562514470023858  0.0900186021705221  0.0816373353785090   T   T   T
  0.9312110593485874  0.1728828852883449  0.0843641530910264   T   T   T
  0.0562382413213479  0.9231541193796947  0.0811479523040009   T   T   T
  0.9306005912012900  0.3399569961373530  0.0883027126533145   T   T   T
  0.0562281335653197  0.5890080096804057  0.0842140775574016   T   T   T
  0.9319582001400355  0.6727302823229236  0.0863716116217022   T   T   T
  0.0562288327867760  0.4230199575650700  0.0863023108302724   T   T   T
  0.9315637522210197  0.8396602340448825  0.0839713610540094   T   T   T
  0.3056436541918270  0.0893977180381255  0.0861983935208613   T   T   T
  0.1812716762637126  0.1728959328429252  0.0843425109505572   T   T   T
  0.3054850913729961  0.9229921586415950  0.0874418538423337   T   T   T
  0.1818691749269135  0.3399770576893727  0.0882603015647460   T   T   T
  0.3034180135036262  0.5910412303728239  0.0989760697622877   T   T   T
  0.1805134687388618  0.6727143827984207  0.0862992533806090   T   T   T
  0.3052612113335229  0.4222048154395595  0.0974732976173962   T   T   T
  0.1809078856069584  0.8396480045040793  0.0839190240157565   T   T   T
  0.5562426391573199  0.0871389198194610  0.0938290202291936   T   T   T
  0.4305214194263886  0.1712776741809616  0.0919745827530149   T   T   T
  0.5562425821912216  0.9224657693033042  0.0995889858342207   T   T   T
  0.4312626635187762  0.3364070257078430  0.1008099412561320   T   T   T
  0.4210944918638252  0.6781913012161862  0.1138999240327107   T   T   T
  0.5562314031403791  0.4112377250177790  0.1145779062421995   T   T   T
  0.4283302982442677  0.8398045592566274  0.1000542665354949   T   T   T
  0.8068338727956909  0.0893891678149102  0.0862269507561493   T   T   T
  0.6819714638536329  0.1712851593865252  0.0920059915748237   T   T   T
  0.8069871762908799  0.9229840793032429  0.0874986003075561   T   T   T
  0.6812372321035259  0.3364121933053238  0.1008650398369889   T   T   T
  0.8090932253803992  0.5910455374511867  0.0991248524112926   T   T   T
  0.6914633390522062  0.6782128432181260  0.1140720869127071   T   T   T
  0.8072346578567799  0.4221974688529406  0.0975697345897707   T   T   T
  0.6841567535159236  0.8397796125856135  0.1001414037852873   T   T   T
  0.5560853480836082  0.5911145766638781  0.1842134937977081   T   T   T
 
  0.00000000E+00  0.00000000E+00  0.00000000E+00
  0.00000000E+00  0.00000000E+00  0.00000000E+00
  0.00000000E+00  0.00000000E+00  0.00000000E+00
  0.00000000E+00  0.00000000E+00  0.00000000E+00
  0.00000000E+00  0.00000000E+00  0.00000000E+00
  0.00000000E+00  0.00000000E+00  0.00000000E+00
  0.00000000E+00  0.00000000E+00  0.00000000E+00
  0.00000000E+00  0.00000000E+00  0.00000000E+00
  0.00000000E+00  0.00000000E+00  0.00000000E+00
  0.00000000E+00  0.00000000E+00  0.00000000E+00
  0.00000000E+00  0.00000000E+00  0.00000000E+00
  0.00000000E+00  0.00000000E+00  0.00000000E+00
  0.00000000E+00  0.00000000E+00  0.00000000E+00
  0.00000000E+00  0.00000000E+00  0.00000000E+00
  0.00000000E+00  0.00000000E+00  0.00000000E+00
  0.00000000E+00  0.00000000E+00  0.00000000E+00
  0.00000000E+00  0.00000000E+00  0.00000000E+00
  0.00000000E+00  0.00000000E+00  0.00000000E+00
  0.00000000E+00  0.00000000E+00  0.00000000E+00
  0.00000000E+00  0.00000000E+00  0.00000000E+00
  0.00000000E+00  0.00000000E+00  0.00000000E+00
  0.00000000E+00  0.00000000E+00  0.00000000E+00
  0.00000000E+00  0.00000000E+00  0.00000000E+00
  0.00000000E+00  0.00000000E+00  0.00000000E+00
  0.00000000E+00  0.00000000E+00  0.00000000E+00
  0.00000000E+00  0.00000000E+00  0.00000000E+00
  0.00000000E+00  0.00000000E+00  0.00000000E+00
  0.00000000E+00  0.00000000E+00  0.00000000E+00
  0.00000000E+00  0.00000000E+00  0.00000000E+00
  0.00000000E+00  0.00000000E+00  0.00000000E+00
  0.00000000E+00  0.00000000E+00  0.00000000E+00
  0.00000000E+00  0.00000000E+00  0.00000000E+00
