Title                                   
   1.00000000000000     
     9.8694509999999998    0.0000000000000000    0.0000000000000000
     0.0000000000000000    8.5490480000000009    0.0000000000000000
     0.0000000000000000    0.0000000000000000   20.0000000000000000
    26     5     1
Selective dynamics
Direct
  0.0556204942318749  0.0911430427177296  0.0832233178861109   T   T   T
  0.9307305039185619  0.1750423813095470  0.0835160283510912   T   T   T
  0.0573289904477946  0.9233830631220554  0.0840770655194737   T   T   T
  0.9288716578686321  0.3424088156684556  0.0863684625756533   T   T   T
  0.0560191542861706  0.5919760921351752  0.0867577102052623   T   T   T
  0.0553340065405099  0.4248212936645948  0.0866993877435213   T   T   T
  0.9333866945952237  0.8397811083894203  0.0860597775004843   T   T   T
  0.3054982850154849  0.0887644230888729  0.0881152667528862   T   T   T
  0.1819046251946874  0.1730538779859500  0.0856780160575853   T   T   T
  0.1817870127936800  0.3407255510975295  0.0887264188122940   T   T   T
  0.3028615175454086  0.5888706269811390  0.1031196452044715   T   T   T
  0.1808716615860592  0.6745725257032394  0.0905003219329264   T   T   T
  0.3074953857628836  0.4213908226852164  0.0990594471443038   T   T   T
  0.1829897186983030  0.8418239280134698  0.0877785737553621   T   T   T
  0.5567631012736139  0.0851254678539105  0.0923881127925094   T   T   T
  0.5555838236473599  0.9201658721058865  0.0996442446908178   T   T   T
  0.4316079872003719  0.3309581155905404  0.1024423845300508   T   T   T
  0.4268456972549154  0.8412556935789940  0.1057053497180392   T   T   T
  0.8066340327461686  0.0889252414979577  0.0843037354720799   T   T   T
  0.6798662992012917  0.1703037568735178  0.0886404139673454   T   T   T
  0.8078290840291537  0.9230782468447940  0.0873760200948712   T   T   T
  0.6796205894302587  0.3351676182200293  0.0974004462939938   T   T   T
  0.8091288457515632  0.5953434583592636  0.0981533640204956   T   T   T
  0.8024757910364230  0.4261369594532136  0.0943019578496263   T   T   T
  0.6846255921815352  0.8412156453124658  0.0990378733395069   T   T   T
  0.4167852840781668  0.6819476973388948  0.1227638117078273   T   T   T
  0.5540080720752067  0.3980994608486736  0.1167037946741908   T   T   T
  0.6982041757168851  0.6835840462979077  0.1153572588885185   T   T   T
  0.3056233232245894  0.9250073791847131  0.0907659764796256   T   T   T
  0.4294505923681953  0.1665630409841690  0.0927253342575277   T   T   T
  0.9327063282914231  0.6741133685271639  0.0879514416627292   T   T   T
  0.5611806720076105  0.5854973785655110  0.1703340401188348   T   T   T
 
  0.00000000E+00  0.00000000E+00  0.00000000E+00
  0.00000000E+00  0.00000000E+00  0.00000000E+00
  0.00000000E+00  0.00000000E+00  0.00000000E+00
  0.00000000E+00  0.00000000E+00  0.00000000E+00
  0.00000000E+00  0.00000000E+00  0.00000000E+00
  0.00000000E+00  0.00000000E+00  0.00000000E+00
  0.00000000E+00  0.00000000E+00  0.00000000E+00
  0.00000000E+00  0.00000000E+00  0.00000000E+00
  0.00000000E+00  0.00000000E+00  0.00000000E+00
  0.00000000E+00  0.00000000E+00  0.00000000E+00
  0.00000000E+00  0.00000000E+00  0.00000000E+00
  0.00000000E+00  0.00000000E+00  0.00000000E+00
  0.00000000E+00  0.00000000E+00  0.00000000E+00
  0.00000000E+00  0.00000000E+00  0.00000000E+00
  0.00000000E+00  0.00000000E+00  0.00000000E+00
  0.00000000E+00  0.00000000E+00  0.00000000E+00
  0.00000000E+00  0.00000000E+00  0.00000000E+00
  0.00000000E+00  0.00000000E+00  0.00000000E+00
  0.00000000E+00  0.00000000E+00  0.00000000E+00
  0.00000000E+00  0.00000000E+00  0.00000000E+00
  0.00000000E+00  0.00000000E+00  0.00000000E+00
  0.00000000E+00  0.00000000E+00  0.00000000E+00
  0.00000000E+00  0.00000000E+00  0.00000000E+00
  0.00000000E+00  0.00000000E+00  0.00000000E+00
  0.00000000E+00  0.00000000E+00  0.00000000E+00
  0.00000000E+00  0.00000000E+00  0.00000000E+00
  0.00000000E+00  0.00000000E+00  0.00000000E+00
  0.00000000E+00  0.00000000E+00  0.00000000E+00
  0.00000000E+00  0.00000000E+00  0.00000000E+00
  0.00000000E+00  0.00000000E+00  0.00000000E+00
  0.00000000E+00  0.00000000E+00  0.00000000E+00
  0.00000000E+00  0.00000000E+00  0.00000000E+00
