Title                                   
   1.00000000000000     
     4.9440799999999996    0.0000000000000000    0.0000000000000000
     0.0000000000000000    8.5647549999999999    0.0000000000000000
     0.0000000000000000    0.0000000000000000   20.0000000000000000
    10     4     1
Selective dynamics
Direct
  0.2500000000000000  0.2123810464121019  0.1004313542314755   T   T   T
  0.0001009695431279  0.2979587014742698  0.1004846925990692   T   T   T
  0.2500000000000000  0.0371938276648437  0.1004441778795329   T   T   T
  0.0001262749451992  0.9516138256162255  0.1005094899839964   T   T   T
  0.7500000000000000  0.2099683516914936  0.1004648968601442   T   T   T
  0.4998990304568723  0.2979587014742698  0.1004846925990692   T   T   T
  0.7500000000000000  0.0396267493843867  0.1004913346197209   T   T   T
  0.7500000000000000  0.7106765646249888  0.1006636621569880   T   T   T
  0.7500000000000000  0.5389162484418369  0.1006742718579395   T   T   T
  0.4998737250548008  0.9516138256162255  0.1005094899839964   T   T   T
  0.5088884810542889  0.4621522323383722  0.1005950612256647   T   T   T
 -0.0088884810542887  0.4621522323383722  0.1005950612256647   T   T   T
 -0.0088018142292992  0.7874000287655775  0.1005972401720242   T   T   T
  0.5088018142292993  0.7874000287655775  0.1005972401720242   T   T   T
  0.2500000000000000  0.6246686353914610  0.1004373344326935   T   T   T
 
  0.00000000E+00  0.00000000E+00  0.00000000E+00
  0.00000000E+00  0.00000000E+00  0.00000000E+00
  0.00000000E+00  0.00000000E+00  0.00000000E+00
  0.00000000E+00  0.00000000E+00  0.00000000E+00
  0.00000000E+00  0.00000000E+00  0.00000000E+00
  0.00000000E+00  0.00000000E+00  0.00000000E+00
  0.00000000E+00  0.00000000E+00  0.00000000E+00
  0.00000000E+00  0.00000000E+00  0.00000000E+00
  0.00000000E+00  0.00000000E+00  0.00000000E+00
  0.00000000E+00  0.00000000E+00  0.00000000E+00
  0.00000000E+00  0.00000000E+00  0.00000000E+00
  0.00000000E+00  0.00000000E+00  0.00000000E+00
  0.00000000E+00  0.00000000E+00  0.00000000E+00
  0.00000000E+00  0.00000000E+00  0.00000000E+00
  0.00000000E+00  0.00000000E+00  0.00000000E+00
