Title                                   
   1.00000000000000     
     9.8694509999999998    0.0000000000000000    0.0000000000000000
     0.0000000000000000    8.5490480000000009    0.0000000000000000
     0.0000000000000000    0.0000000000000000   20.0000000000000000
    29     1     1
Selective dynamics
Direct
  0.0558046826260224  0.0892330566466427  0.0858885134896467   T   T   T
  0.9309434584725190  0.1718659758702501  0.0872700983340308   T   T   T
  0.0571712727543369  0.9238187125481673  0.0863193902496225   T   T   T
  0.9325836254735064  0.3390065088823885  0.0869077930290770   T   T   T
  0.0567554222413996  0.5902936002766148  0.0851970432933398   T   T   T
  0.9328205373215575  0.6738727020659442  0.0873793445171788   T   T   T
  0.0568341741155675  0.4229435669378502  0.0848725654303576   T   T   T
  0.9314633622520289  0.8402791962058040  0.0878149370938714   T   T   T
  0.3069938946996359  0.0888568434581325  0.0920169466320111   T   T   T
  0.1816091137290090  0.1708709660019677  0.0871305395620260   T   T   T
  0.1807396913724339  0.3381045814598288  0.0867661303418717   T   T   T
  0.3030514311148240  0.5900808390623421  0.0936855431145991   T   T   T
  0.1812563575704658  0.6748257897193467  0.0873369332885091   T   T   T
  0.3031540563064860  0.4219279211447953  0.0934544690895560   T   T   T
  0.1824481382830314  0.8412892405948950  0.0878367129680550   T   T   T
  0.5562705995179342  0.0896073653921146  0.1010018948852220   T   T   T
  0.4310040892766839  0.1753674100841471  0.0992658838989649   T   T   T
  0.5550839674221323  0.9227544891320749  0.1010730948340474   T   T   T
  0.4274151610546903  0.3429911501484718  0.1038345825522727   T   T   T
  0.4268237097034939  0.6698269178397339  0.1038937155768247   T   T   T
  0.4301742250541035  0.8359684856678163  0.0994497599525239   T   T   T
  0.8049563265425028  0.0898763284210983  0.0917491561487655   T   T   T
  0.6805397988187580  0.1770384601726054  0.0984580109198217   T   T   T
  0.8050378259884478  0.9219667719513800  0.0919446113656817   T   T   T
  0.6841841337114877  0.3445320143747071  0.1024484182416803   T   T   T
  0.8098611808795770  0.5903362711135737  0.0932142590509414   T   T   T
  0.6846685183990527  0.6678665777202329  0.1029091053494794   T   T   T
  0.8097980756264257  0.4222971773155078  0.0929334612169777   T   T   T
  0.6800269039470954  0.8346177854981136  0.0987491180638611   T   T   T
  0.3068021495460965  0.9227174908708446  0.0920716709963246   T   T   T
  0.5568591161786963  0.5058408034226269  0.1480912965128853   T   T   T
 
  0.00000000E+00  0.00000000E+00  0.00000000E+00
  0.00000000E+00  0.00000000E+00  0.00000000E+00
  0.00000000E+00  0.00000000E+00  0.00000000E+00
  0.00000000E+00  0.00000000E+00  0.00000000E+00
  0.00000000E+00  0.00000000E+00  0.00000000E+00
  0.00000000E+00  0.00000000E+00  0.00000000E+00
  0.00000000E+00  0.00000000E+00  0.00000000E+00
  0.00000000E+00  0.00000000E+00  0.00000000E+00
  0.00000000E+00  0.00000000E+00  0.00000000E+00
  0.00000000E+00  0.00000000E+00  0.00000000E+00
  0.00000000E+00  0.00000000E+00  0.00000000E+00
  0.00000000E+00  0.00000000E+00  0.00000000E+00
  0.00000000E+00  0.00000000E+00  0.00000000E+00
  0.00000000E+00  0.00000000E+00  0.00000000E+00
  0.00000000E+00  0.00000000E+00  0.00000000E+00
  0.00000000E+00  0.00000000E+00  0.00000000E+00
  0.00000000E+00  0.00000000E+00  0.00000000E+00
  0.00000000E+00  0.00000000E+00  0.00000000E+00
  0.00000000E+00  0.00000000E+00  0.00000000E+00
  0.00000000E+00  0.00000000E+00  0.00000000E+00
  0.00000000E+00  0.00000000E+00  0.00000000E+00
  0.00000000E+00  0.00000000E+00  0.00000000E+00
  0.00000000E+00  0.00000000E+00  0.00000000E+00
  0.00000000E+00  0.00000000E+00  0.00000000E+00
  0.00000000E+00  0.00000000E+00  0.00000000E+00
  0.00000000E+00  0.00000000E+00  0.00000000E+00
  0.00000000E+00  0.00000000E+00  0.00000000E+00
  0.00000000E+00  0.00000000E+00  0.00000000E+00
  0.00000000E+00  0.00000000E+00  0.00000000E+00
  0.00000000E+00  0.00000000E+00  0.00000000E+00
  0.00000000E+00  0.00000000E+00  0.00000000E+00
