Title                                   
   1.00000000000000     
     9.8694509999999998    0.0000000000000000    0.0000000000000000
     0.0000000000000000    8.5490480000000009    0.0000000000000000
     0.0000000000000000    0.0000000000000000   20.0000000000000000
    28     3     1
Selective dynamics
Direct
  0.0560508345486341  0.0912150496464963  0.0812785370296651   T   T   T
  0.9305717678102863  0.1745186554641452  0.0819423202600650   T   T   T
  0.0577846690626603  0.9243399757207879  0.0824933158460658   T   T   T
  0.9299534992454477  0.3421763076893589  0.0845010350418361   T   T   T
  0.0568939353770641  0.5906571503291342  0.0836194163028225   T   T   T
  0.9326672140940032  0.6740508777704470  0.0869742073457421   T   T   T
  0.0565253655558766  0.4233713429953914  0.0835081885270644   T   T   T
  0.9331430393153991  0.8408880848270656  0.0853828136528180   T   T   T
  0.3056153759891489  0.0876697939292507  0.0877468620375283   T   T   T
  0.1822674271073731  0.1728102849328785  0.0839314106419868   T   T   T
  0.1820749427846924  0.3395976105913286  0.0861714969830628   T   T   T
  0.3026273513067505  0.5883768899986985  0.1026979651660848   T   T   T
  0.1821220195101552  0.6735625508262073  0.0882560790577303   T   T   T
  0.3064332130038835  0.4205577161879727  0.0988363104241227   T   T   T
  0.1823554991215162  0.8409716207287120  0.0861731130218813   T   T   T
  0.5557663624424111  0.0858792162039312  0.0928755784305146   T   T   T
  0.5551384534241963  0.9202049270188827  0.0996318140119347   T   T   T
  0.4287021641172619  0.3298939137238660  0.1064003270911582   T   T   T
  0.4266227144255176  0.8414708055730510  0.1051885625272735   T   T   T
  0.8058163987650603  0.0895872268998366  0.0837318308855529   T   T   T
  0.6797217069445258  0.1712267417715182  0.0894239210349344   T   T   T
  0.8074762482040143  0.9240815509539749  0.0875645155245084   T   T   T
  0.6813061498503469  0.3352300532072277  0.1004217614885539   T   T   T
  0.8096009543881478  0.5934010284541452  0.0985606072081048   T   T   T
  0.8041137891127398  0.4249346919945955  0.0946773136017730   T   T   T
  0.6850406554353929  0.8415862732251665  0.1001607693211740   T   T   T
  0.4152756180239839  0.6821425049132963  0.1239662432135993   T   T   T
  0.5557173360236731  0.4006258525305534  0.1233234974935739   T   T   T
  0.6969789775886809  0.6831773549466930  0.1177839677149696   T   T   T
  0.3061838613528418  0.9251643027513066  0.0901515319127048   T   T   T
  0.4288138145987687  0.1669109285066480  0.0945156877656825   T   T   T
  0.5602776414695512  0.5899647156874347  0.1737839994355278   T   T   T
 
  0.00000000E+00  0.00000000E+00  0.00000000E+00
  0.00000000E+00  0.00000000E+00  0.00000000E+00
  0.00000000E+00  0.00000000E+00  0.00000000E+00
  0.00000000E+00  0.00000000E+00  0.00000000E+00
  0.00000000E+00  0.00000000E+00  0.00000000E+00
  0.00000000E+00  0.00000000E+00  0.00000000E+00
  0.00000000E+00  0.00000000E+00  0.00000000E+00
  0.00000000E+00  0.00000000E+00  0.00000000E+00
  0.00000000E+00  0.00000000E+00  0.00000000E+00
  0.00000000E+00  0.00000000E+00  0.00000000E+00
  0.00000000E+00  0.00000000E+00  0.00000000E+00
  0.00000000E+00  0.00000000E+00  0.00000000E+00
  0.00000000E+00  0.00000000E+00  0.00000000E+00
  0.00000000E+00  0.00000000E+00  0.00000000E+00
  0.00000000E+00  0.00000000E+00  0.00000000E+00
  0.00000000E+00  0.00000000E+00  0.00000000E+00
  0.00000000E+00  0.00000000E+00  0.00000000E+00
  0.00000000E+00  0.00000000E+00  0.00000000E+00
  0.00000000E+00  0.00000000E+00  0.00000000E+00
  0.00000000E+00  0.00000000E+00  0.00000000E+00
  0.00000000E+00  0.00000000E+00  0.00000000E+00
  0.00000000E+00  0.00000000E+00  0.00000000E+00
  0.00000000E+00  0.00000000E+00  0.00000000E+00
  0.00000000E+00  0.00000000E+00  0.00000000E+00
  0.00000000E+00  0.00000000E+00  0.00000000E+00
  0.00000000E+00  0.00000000E+00  0.00000000E+00
  0.00000000E+00  0.00000000E+00  0.00000000E+00
  0.00000000E+00  0.00000000E+00  0.00000000E+00
  0.00000000E+00  0.00000000E+00  0.00000000E+00
  0.00000000E+00  0.00000000E+00  0.00000000E+00
  0.00000000E+00  0.00000000E+00  0.00000000E+00
  0.00000000E+00  0.00000000E+00  0.00000000E+00
