Title                                   
   1.00000000000000     
     4.9440799999999996    0.0000000000000000    0.0000000000000000
     0.0000000000000000    8.5647549999999999    0.0000000000000000
     0.0000000000000000    0.0000000000000000   20.0000000000000000
    12     2     1
Selective dynamics
Direct
  0.0016039519277655  0.2935247166322962  0.0924739778112796   T   T   T
  0.2538964902001270  0.0404007826372434  0.0963470009382895   T   T   T
  0.0041280760818293  0.9568602023350405  0.0907927973310749   T   T   T
  0.7512117855222855  0.2067212787184685  0.0922604549857200   T   T   T
  0.5017052382475415  0.2907589080127422  0.1007577054590320   T   T   T
  0.7536564146549048  0.0408584275928215  0.0913660098119557   T   T   T
  0.7487810681792083  0.7145950595391890  0.0979856040368301   T   T   T
  0.7440293247843880  0.5370919050666748  0.0998912330960663   T   T   T
  0.5075240705149359  0.9566105046276451  0.0998157602967620   T   T   T
  0.5015071399268026  0.4527011226518357  0.1138335888248859   T   T   T
 -0.0052141658195449  0.4574386577910749  0.0909670935631021   T   T   T
 -0.0059532997678426  0.7902213824701512  0.0878593572372274   T   T   T
  0.5124975363532157  0.7973625641128487  0.1114959640956860   T   T   T
  0.2537240955977131  0.2066884522914333  0.0968264302627108   T   T   T
  0.2269022735966699  0.6298470355205363  0.1453070222493809   T   T   T
 
  0.00000000E+00  0.00000000E+00  0.00000000E+00
  0.00000000E+00  0.00000000E+00  0.00000000E+00
  0.00000000E+00  0.00000000E+00  0.00000000E+00
  0.00000000E+00  0.00000000E+00  0.00000000E+00
  0.00000000E+00  0.00000000E+00  0.00000000E+00
  0.00000000E+00  0.00000000E+00  0.00000000E+00
  0.00000000E+00  0.00000000E+00  0.00000000E+00
  0.00000000E+00  0.00000000E+00  0.00000000E+00
  0.00000000E+00  0.00000000E+00  0.00000000E+00
  0.00000000E+00  0.00000000E+00  0.00000000E+00
  0.00000000E+00  0.00000000E+00  0.00000000E+00
  0.00000000E+00  0.00000000E+00  0.00000000E+00
  0.00000000E+00  0.00000000E+00  0.00000000E+00
  0.00000000E+00  0.00000000E+00  0.00000000E+00
  0.00000000E+00  0.00000000E+00  0.00000000E+00
