Title                                   
   1.00000000000000     
     8.5490480000000009    0.0000000000000000    0.0000000000000000
     0.0000000000000000    8.5490480000000009    0.0000000000000000
     0.0000000000000000    0.0000000000000000   20.0000000000000000
    22     2     1
Selective dynamics
Direct
  0.9110138578074980  0.2077244748267242  0.0976973278245159   T   T   T
  0.9133028122557361  0.7989903159014590  0.0977081692696978   T   T   T
  0.1982249044239187  0.0828359883121155  0.0977705060595948   T   T   T
  0.0746421099450160  0.2026814409957558  0.0977623644264835   T   T   T
  0.1586565283062762  0.6476043481568153  0.0978374458108705   T   T   T
  0.0754156346766808  0.5017114822963894  0.0978409880773779   T   T   T
  0.1577258907661870  0.3561738457296607  0.0978663674653517   T   T   T
  0.0783915989004309  0.7986414060931710  0.0977710867398465   T   T   T
  0.4931283075104647  0.0861967108886258  0.0976775404239110   T   T   T
  0.3449769059444589  0.1659426509070340  0.0978049405576470   T   T   T
  0.4924693381461642  0.9172701229829902  0.0976372178266576   T   T   T
  0.3462777045987787  0.8336694257236380  0.0977477093342110   T   T   T
  0.7868237567015636  0.0848021707523256  0.0976304831590440   T   T   T
  0.6374799264141334  0.1690570796065448  0.0976841397525829   T   T   T
  0.7879406638853260  0.9204067637959694  0.0976212182150555   T   T   T
  0.8299692444508093  0.6482079478694074  0.0977118628057059   T   T   T
  0.8275935366589275  0.3582799323709999  0.0977368974528948   T   T   T
  0.6382482265084986  0.8345098562150061  0.0976243291905319   T   T   T
  0.3221242409159197  0.3347395643852560  0.0978998391633104   T   T   T
  0.3238161569551742  0.6686707115491107  0.0978114485861578   T   T   T
  0.6621670165769209  0.3373359271963768  0.0977649529007945   T   T   T
  0.6633916552835587  0.6680014709759805  0.0976966764363276   T   T   T
  0.9102052204319694  0.5030937227800153  0.0978203534282101   T   T   T
  0.1983951213210170  0.9164434702218662  0.0978019013513568   T   T   T
  0.4930316406145569  0.5017991694667691  0.0977792337418427   T   T   T
 
  0.00000000E+00  0.00000000E+00  0.00000000E+00
  0.00000000E+00  0.00000000E+00  0.00000000E+00
  0.00000000E+00  0.00000000E+00  0.00000000E+00
  0.00000000E+00  0.00000000E+00  0.00000000E+00
  0.00000000E+00  0.00000000E+00  0.00000000E+00
  0.00000000E+00  0.00000000E+00  0.00000000E+00
  0.00000000E+00  0.00000000E+00  0.00000000E+00
  0.00000000E+00  0.00000000E+00  0.00000000E+00
  0.00000000E+00  0.00000000E+00  0.00000000E+00
  0.00000000E+00  0.00000000E+00  0.00000000E+00
  0.00000000E+00  0.00000000E+00  0.00000000E+00
  0.00000000E+00  0.00000000E+00  0.00000000E+00
  0.00000000E+00  0.00000000E+00  0.00000000E+00
  0.00000000E+00  0.00000000E+00  0.00000000E+00
  0.00000000E+00  0.00000000E+00  0.00000000E+00
  0.00000000E+00  0.00000000E+00  0.00000000E+00
  0.00000000E+00  0.00000000E+00  0.00000000E+00
  0.00000000E+00  0.00000000E+00  0.00000000E+00
  0.00000000E+00  0.00000000E+00  0.00000000E+00
  0.00000000E+00  0.00000000E+00  0.00000000E+00
  0.00000000E+00  0.00000000E+00  0.00000000E+00
  0.00000000E+00  0.00000000E+00  0.00000000E+00
  0.00000000E+00  0.00000000E+00  0.00000000E+00
  0.00000000E+00  0.00000000E+00  0.00000000E+00
  0.00000000E+00  0.00000000E+00  0.00000000E+00
