Title                                   
   1.00000000000000     
     9.8694509999999998    0.0000000000000000    0.0000000000000000
     0.0000000000000000    8.5490480000000009    0.0000000000000000
     0.0000000000000000    0.0000000000000000   20.0000000000000000
    25     5     1
Selective dynamics
Direct
  0.0553532061986684  0.0886434606086672  0.0929090548428025   T   T   T
  0.9307946369348479  0.1722128520822421  0.0923702432633939   T   T   T
  0.0569232120020956  0.9216675880094040  0.0931767833137141   T   T   T
  0.9337359526443921  0.3398118990758095  0.0919114129886307   T   T   T
  0.0554564534062871  0.5906641185496466  0.0929970986827793   T   T   T
  0.0563525374948580  0.4241007760790342  0.0926529267763788   T   T   T
  0.9322436791129031  0.8394392808220199  0.0929264238953022   T   T   T
  0.3068985290612627  0.0888115948398010  0.0955489281919978   T   T   T
  0.1806951455117159  0.1704083196449860  0.0940847958810186   T   T   T
  0.1798695562581355  0.3377735134600021  0.0943121540672765   T   T   T
  0.3014568212300975  0.5874324791701392  0.0973944705742447   T   T   T
  0.1790219741212760  0.6737419764547000  0.0947450711796755   T   T   T
  0.3017706443818726  0.4191681430554279  0.0971502393020919   T   T   T
  0.1826043311436817  0.8405614390200974  0.0944113956289462   T   T   T
  0.4306532143045578  0.1767710811821406  0.0971804217981162   T   T   T
  0.5557237984747033  0.9211030252990374  0.0965309488141623   T   T   T
  0.4251792218280498  0.6707967217813657  0.0995759655745329   T   T   T
  0.4293920403740809  0.8359444684517341  0.0976501182498705   T   T   T
  0.8049563573584965  0.0884616546430674  0.0932706868531464   T   T   T
  0.6814705494637403  0.1785566604566108  0.0944603433418710   T   T   T
  0.8062816220511655  0.9210401617275484  0.0935795364134809   T   T   T
  0.6861339031447152  0.3434870634112098  0.0942715812641820   T   T   T
  0.8114581488354454  0.5932368337929281  0.0929297108901772   T   T   T
  0.8117169822377316  0.4237836508002273  0.0924033787010885   T   T   T
  0.6808657550172701  0.8358838064668949  0.0950534706240984   T   T   T
  0.9326955054903450  0.6733883502662878  0.0925148729495918   T   T   T
  0.5557394925972524  0.0938946009396720  0.0962628225008748   T   T   T
  0.4253080249758429  0.3396365177612763  0.0990383995885906   T   T   T
  0.6898464705426922  0.6702051939179833  0.0948867080079626   T   T   T
  0.3057557864479031  0.9232591182372162  0.0955809855008526   T   T   T
  0.5567814473539138  0.5069886499928494  0.0991840503391825   T   T   T
 
  0.00000000E+00  0.00000000E+00  0.00000000E+00
  0.00000000E+00  0.00000000E+00  0.00000000E+00
  0.00000000E+00  0.00000000E+00  0.00000000E+00
  0.00000000E+00  0.00000000E+00  0.00000000E+00
  0.00000000E+00  0.00000000E+00  0.00000000E+00
  0.00000000E+00  0.00000000E+00  0.00000000E+00
  0.00000000E+00  0.00000000E+00  0.00000000E+00
  0.00000000E+00  0.00000000E+00  0.00000000E+00
  0.00000000E+00  0.00000000E+00  0.00000000E+00
  0.00000000E+00  0.00000000E+00  0.00000000E+00
  0.00000000E+00  0.00000000E+00  0.00000000E+00
  0.00000000E+00  0.00000000E+00  0.00000000E+00
  0.00000000E+00  0.00000000E+00  0.00000000E+00
  0.00000000E+00  0.00000000E+00  0.00000000E+00
  0.00000000E+00  0.00000000E+00  0.00000000E+00
  0.00000000E+00  0.00000000E+00  0.00000000E+00
  0.00000000E+00  0.00000000E+00  0.00000000E+00
  0.00000000E+00  0.00000000E+00  0.00000000E+00
  0.00000000E+00  0.00000000E+00  0.00000000E+00
  0.00000000E+00  0.00000000E+00  0.00000000E+00
  0.00000000E+00  0.00000000E+00  0.00000000E+00
  0.00000000E+00  0.00000000E+00  0.00000000E+00
  0.00000000E+00  0.00000000E+00  0.00000000E+00
  0.00000000E+00  0.00000000E+00  0.00000000E+00
  0.00000000E+00  0.00000000E+00  0.00000000E+00
  0.00000000E+00  0.00000000E+00  0.00000000E+00
  0.00000000E+00  0.00000000E+00  0.00000000E+00
  0.00000000E+00  0.00000000E+00  0.00000000E+00
  0.00000000E+00  0.00000000E+00  0.00000000E+00
  0.00000000E+00  0.00000000E+00  0.00000000E+00
  0.00000000E+00  0.00000000E+00  0.00000000E+00
