Title                                   
   1.00000000000000     
     4.9440799999999996    0.0000000000000000    0.0000000000000000
     0.0000000000000000   17.1295089999999988    0.0000000000000000
     0.0000000000000000    0.0000000000000000   20.0000000000000000
    28     2     1
Selective dynamics
Direct
 -0.0013034893634037  0.1057726699841101  0.2957700793726128   T   T   T
  0.2474867360022905  0.1485851578318230  0.2962817929784567   T   T   T
  0.2463910530146730  0.2328974464120725  0.2988661543680373   T   T   T
 -0.0065417268313619  0.2740224398944115  0.3030680240172932   T   T   T
  0.0026387429917150  0.6009450236755474  0.3037876466399724   T   T   T
  0.2506841601966031  0.7278192934926870  0.2969650967812337   T   T   T
  0.0000492614171289  0.8539863698010215  0.2951407433218166   T   T   T
  0.2500361966939931  0.8958752401802917  0.2948286057827234   T   T   T
  0.2491385063649571  0.9797260186462199  0.2946990838905783   T   T   T
  0.0009145743903132  0.7701534669078950  0.2961253433640362   T   T   T
  0.4973019430724540  0.1059383630494690  0.2946215907357593   T   T   T
  0.7480664957513534  0.1472219009678191  0.2952110721548153   T   T   T
  0.7473013835879087  0.2308314937343208  0.2966526449460243   T   T   T
  0.4983293131235692  0.0219694508476119  0.2943467932678641   T   T   T
  0.7458104723166884  0.3914720950257112  0.3029803453185975   T   T   T
  0.7518225429200721  0.4773968802488153  0.3034022779760004   T   T   T
  0.4993208656294496  0.2733846645771840  0.2956457766348213   T   T   T
  0.5023451874203908  0.6028852135240041  0.2991367244120803   T   T   T
  0.7520398081786465  0.7280022886547897  0.2961322236149443   T   T   T
  0.5002412029964795  0.8537630152370848  0.2947162877016604   T   T   T
  0.7497044849223897  0.8959628544420696  0.2946174346053438   T   T   T
  0.7488438749137263  0.9799544305991819  0.2944735792088431   T   T   T
  0.5012181107801427  0.7697929949509590  0.2954315144899270   T   T   T
  0.7536210451080251  0.6440093647208122  0.2983765119315138   T   T   T
  0.2510555548715300  0.6441491395193373  0.3003534937673895   T   T   T
 -0.0008342859685965  0.0218376175622760  0.2949540242183512   T   T   T
  0.5087421919421236  0.5203207453381206  0.3027357156657324   T   T   T
  0.9993251448806816  0.5171985486719212  0.3132547870935274   T   T   T
  0.5094275080900986  0.3533764576581558  0.2912244279198885   T   T   T
 -0.0197661378405581  0.3532400145717324  0.3155389325572788   T   T   T
  0.2765962784265178  0.4388513392725402  0.3357212712628278   T   T   T
 
  0.00000000E+00  0.00000000E+00  0.00000000E+00
  0.00000000E+00  0.00000000E+00  0.00000000E+00
  0.00000000E+00  0.00000000E+00  0.00000000E+00
  0.00000000E+00  0.00000000E+00  0.00000000E+00
  0.00000000E+00  0.00000000E+00  0.00000000E+00
  0.00000000E+00  0.00000000E+00  0.00000000E+00
  0.00000000E+00  0.00000000E+00  0.00000000E+00
  0.00000000E+00  0.00000000E+00  0.00000000E+00
  0.00000000E+00  0.00000000E+00  0.00000000E+00
  0.00000000E+00  0.00000000E+00  0.00000000E+00
  0.00000000E+00  0.00000000E+00  0.00000000E+00
  0.00000000E+00  0.00000000E+00  0.00000000E+00
  0.00000000E+00  0.00000000E+00  0.00000000E+00
  0.00000000E+00  0.00000000E+00  0.00000000E+00
  0.00000000E+00  0.00000000E+00  0.00000000E+00
  0.00000000E+00  0.00000000E+00  0.00000000E+00
  0.00000000E+00  0.00000000E+00  0.00000000E+00
  0.00000000E+00  0.00000000E+00  0.00000000E+00
  0.00000000E+00  0.00000000E+00  0.00000000E+00
  0.00000000E+00  0.00000000E+00  0.00000000E+00
  0.00000000E+00  0.00000000E+00  0.00000000E+00
  0.00000000E+00  0.00000000E+00  0.00000000E+00
  0.00000000E+00  0.00000000E+00  0.00000000E+00
  0.00000000E+00  0.00000000E+00  0.00000000E+00
  0.00000000E+00  0.00000000E+00  0.00000000E+00
  0.00000000E+00  0.00000000E+00  0.00000000E+00
  0.00000000E+00  0.00000000E+00  0.00000000E+00
  0.00000000E+00  0.00000000E+00  0.00000000E+00
  0.00000000E+00  0.00000000E+00  0.00000000E+00
  0.00000000E+00  0.00000000E+00  0.00000000E+00
  0.00000000E+00  0.00000000E+00  0.00000000E+00
