Title                                   
   1.00000000000000     
     9.8694509999999998    0.0000000000000000    0.0000000000000000
     0.0000000000000000    8.5490480000000009    0.0000000000000000
     0.0000000000000000    0.0000000000000000   20.0000000000000000
    25     5     1
Selective dynamics
Direct
  0.0555574703232884  0.0892745957368855  0.0906450149979066   T   T   T
  0.9310732393997979  0.1738362334072129  0.0933531346317537   T   T   T
  0.0580790728418785  0.9209897776593591  0.0907949115136588   T   T   T
  0.9324251504030842  0.3409709237871415  0.0951775920631080   T   T   T
  0.0569605031487148  0.5905800721726484  0.0922906229589325   T   T   T
  0.0561824750559812  0.4235159175740119  0.0920188167870100   T   T   T
  0.9333023089729415  0.8398483506798184  0.0945371786779258   T   T   T
  0.3075479559288066  0.0869938350545917  0.0878757766879495   T   T   T
  0.1806857510564408  0.1706910135604574  0.0889843157425481   T   T   T
  0.1797060223656111  0.3369637358066505  0.0893709574959291   T   T   T
  0.3068040999317286  0.5857422621578317  0.0845813913648958   T   T   T
  0.1809634351158095  0.6721370290286519  0.0887813506661761   T   T   T
  0.3051279373619228  0.4167221226183929  0.0869768688591247   T   T   T
  0.1834892335263539  0.8387359922169614  0.0881842970696311   T   T   T
  0.4296295110537630  0.1702861761243953  0.0897478916850232   T   T   T
  0.5573734906486023  0.9217526073122370  0.0952197924266160   T   T   T
  0.4294073875497348  0.6746074262775494  0.0828983391899245   T   T   T
  0.4317096738824876  0.8377856506502754  0.0874501553061429   T   T   T
  0.8051587584005254  0.0902841158349413  0.0947073198569593   T   T   T
  0.6809414381350359  0.1784722832066100  0.0983283727539767   T   T   T
  0.8078270020206952  0.9229814012753874  0.0959618610789101   T   T   T
  0.6836395360979226  0.3430985217210444  0.1065777905508735   T   T   T
  0.8108341883159600  0.5945711602332970  0.1033852679359715   T   T   T
  0.8087822850040639  0.4256017417677926  0.1020550426803916   T   T   T
  0.6828916490934328  0.8388256585833337  0.1005985433034999   T   T   T
  0.9332880660092968  0.6735500810140792  0.0957235860941035   T   T   T
  0.5568747155779425  0.0926240795779348  0.0943485080672285   T   T   T
  0.4258426363577132  0.3318968631967671  0.0896399699079043   T   T   T
  0.6920540207742112  0.6762910573040082  0.1109662695467414   T   T   T
  0.3064287810556577  0.9212541320232760  0.0862598287286036   T   T   T
  0.5325472045905958  0.5099901824364813  0.1435242313706141   T   T   T
 
  0.00000000E+00  0.00000000E+00  0.00000000E+00
  0.00000000E+00  0.00000000E+00  0.00000000E+00
  0.00000000E+00  0.00000000E+00  0.00000000E+00
  0.00000000E+00  0.00000000E+00  0.00000000E+00
  0.00000000E+00  0.00000000E+00  0.00000000E+00
  0.00000000E+00  0.00000000E+00  0.00000000E+00
  0.00000000E+00  0.00000000E+00  0.00000000E+00
  0.00000000E+00  0.00000000E+00  0.00000000E+00
  0.00000000E+00  0.00000000E+00  0.00000000E+00
  0.00000000E+00  0.00000000E+00  0.00000000E+00
  0.00000000E+00  0.00000000E+00  0.00000000E+00
  0.00000000E+00  0.00000000E+00  0.00000000E+00
  0.00000000E+00  0.00000000E+00  0.00000000E+00
  0.00000000E+00  0.00000000E+00  0.00000000E+00
  0.00000000E+00  0.00000000E+00  0.00000000E+00
  0.00000000E+00  0.00000000E+00  0.00000000E+00
  0.00000000E+00  0.00000000E+00  0.00000000E+00
  0.00000000E+00  0.00000000E+00  0.00000000E+00
  0.00000000E+00  0.00000000E+00  0.00000000E+00
  0.00000000E+00  0.00000000E+00  0.00000000E+00
  0.00000000E+00  0.00000000E+00  0.00000000E+00
  0.00000000E+00  0.00000000E+00  0.00000000E+00
  0.00000000E+00  0.00000000E+00  0.00000000E+00
  0.00000000E+00  0.00000000E+00  0.00000000E+00
  0.00000000E+00  0.00000000E+00  0.00000000E+00
  0.00000000E+00  0.00000000E+00  0.00000000E+00
  0.00000000E+00  0.00000000E+00  0.00000000E+00
  0.00000000E+00  0.00000000E+00  0.00000000E+00
  0.00000000E+00  0.00000000E+00  0.00000000E+00
  0.00000000E+00  0.00000000E+00  0.00000000E+00
  0.00000000E+00  0.00000000E+00  0.00000000E+00
