Title                                   
   1.00000000000000     
     9.8694509999999998    0.0000000000000000    0.0000000000000000
     0.0000000000000000    8.5490480000000009    0.0000000000000000
     0.0000000000000000    0.0000000000000000   20.0000000000000000
    26     4     1
Selective dynamics
Direct
  0.0549791163682549  0.0873184067070044  0.0862609124159650   T   T   T
  0.9311597899371002  0.1710525671001762  0.0879326316577092   T   T   T
  0.0565230687624022  0.9213667634816302  0.0873167854821768   T   T   T
  0.9349829882171595  0.3383820377431889  0.0874497003666041   T   T   T
  0.0563496108918496  0.5905882073277237  0.0855647803715576   T   T   T
  0.0569390970800291  0.4239978396842551  0.0838996221329707   T   T   T
  0.9318141482731690  0.8382268672043666  0.0897553325027967   T   T   T
  0.3050967993199412  0.0878402444382143  0.0925996532492047   T   T   T
  0.1805103090333997  0.1705159283871475  0.0873940564553471   T   T   T
  0.1794404398086732  0.3377389949567713  0.0862042732090942   T   T   T
  0.3020762960904775  0.5876831031472516  0.0946545214316590   T   T   T
  0.1794734270852286  0.6739860542251165  0.0881602631338138   T   T   T
  0.3010980238879688  0.4184646525405283  0.0937523244062037   T   T   T
  0.1819999613951531  0.8396558265186321  0.0890240146891891   T   T   T
  0.4282922412869716  0.1747059133947812  0.0992670290991968   T   T   T
  0.5544274972113100  0.9250333643846649  0.1023693702083263   T   T   T
  0.4205518476340186  0.6769955248541594  0.1043842613130560   T   T   T
  0.4285450989100582  0.8398396912286471  0.1009989246298715   T   T   T
  0.8058334770362217  0.0881857919013869  0.0931868168561149   T   T   T
  0.6822628623519172  0.1771111396956105  0.1001843822404276   T   T   T
  0.8065404515162831  0.9213169106643597  0.0943521756201953   T   T   T
  0.6931145104360169  0.3392040744484740  0.1053409767502571   T   T   T
  0.8137491226319702  0.5920850966665441  0.0974305725496374   T   T   T
  0.6928310240079414  0.6742746427392852  0.1055894284425252   T   T   T
  0.8155532854140530  0.4210714033890083  0.0965076424753630   T   T   T
  0.6798356556159273  0.8399552599222412  0.1016535429061247   T   T   T
  0.9347130545017943  0.6732381569793512  0.0894961475600192   T   T   T
  0.5546545470930990  0.0950437828584693  0.1015848007273469   T   T   T
  0.4190546739817796  0.3334790507119823  0.1026192914438653   T   T   T
  0.3041709359213567  0.9237364670919348  0.0931047403287310   T   T   T
  0.5565616382984906  0.5087812356071112  0.1129260253446984   T   T   T
 
  0.00000000E+00  0.00000000E+00  0.00000000E+00
  0.00000000E+00  0.00000000E+00  0.00000000E+00
  0.00000000E+00  0.00000000E+00  0.00000000E+00
  0.00000000E+00  0.00000000E+00  0.00000000E+00
  0.00000000E+00  0.00000000E+00  0.00000000E+00
  0.00000000E+00  0.00000000E+00  0.00000000E+00
  0.00000000E+00  0.00000000E+00  0.00000000E+00
  0.00000000E+00  0.00000000E+00  0.00000000E+00
  0.00000000E+00  0.00000000E+00  0.00000000E+00
  0.00000000E+00  0.00000000E+00  0.00000000E+00
  0.00000000E+00  0.00000000E+00  0.00000000E+00
  0.00000000E+00  0.00000000E+00  0.00000000E+00
  0.00000000E+00  0.00000000E+00  0.00000000E+00
  0.00000000E+00  0.00000000E+00  0.00000000E+00
  0.00000000E+00  0.00000000E+00  0.00000000E+00
  0.00000000E+00  0.00000000E+00  0.00000000E+00
  0.00000000E+00  0.00000000E+00  0.00000000E+00
  0.00000000E+00  0.00000000E+00  0.00000000E+00
  0.00000000E+00  0.00000000E+00  0.00000000E+00
  0.00000000E+00  0.00000000E+00  0.00000000E+00
  0.00000000E+00  0.00000000E+00  0.00000000E+00
  0.00000000E+00  0.00000000E+00  0.00000000E+00
  0.00000000E+00  0.00000000E+00  0.00000000E+00
  0.00000000E+00  0.00000000E+00  0.00000000E+00
  0.00000000E+00  0.00000000E+00  0.00000000E+00
  0.00000000E+00  0.00000000E+00  0.00000000E+00
  0.00000000E+00  0.00000000E+00  0.00000000E+00
  0.00000000E+00  0.00000000E+00  0.00000000E+00
  0.00000000E+00  0.00000000E+00  0.00000000E+00
  0.00000000E+00  0.00000000E+00  0.00000000E+00
  0.00000000E+00  0.00000000E+00  0.00000000E+00
