Title                                   
   1.00000000000000     
     8.5490480000000009    0.0000000000000000    0.0000000000000000
     0.0000000000000000    8.5490480000000009    0.0000000000000000
     0.0000000000000000    0.0000000000000000   20.0000000000000000
    23     1     1
Selective dynamics
Direct
  0.9094636852364407  0.2060679917100875  0.0950048468278619   T   T   T
  0.9101095974092431  0.5028204617074226  0.0956835999913487   T   T   T
  0.9115509980177348  0.8004510203109259  0.0946167318325530   T   T   T
  0.1984638112147354  0.0829989867915338  0.0947570363724536   T   T   T
  0.0750119705357536  0.2032229475445664  0.0950614661259750   T   T   T
  0.1588086016070508  0.6484796662674802  0.0960890420561252   T   T   T
  0.0773249868434548  0.5016508525231793  0.0957512675444731   T   T   T
  0.1580532362379130  0.3550569247720921  0.0968042071929628   T   T   T
  0.0781023861499527  0.7980578756378444  0.0944340718219951   T   T   T
  0.4924177445387499  0.0857220293005218  0.0956196147770894   T   T   T
  0.3455314246616233  0.1638272312711490  0.0963894149458008   T   T   T
  0.4918752006356101  0.9178741655779493  0.0956528228599641   T   T   T
  0.3459573529450610  0.8364282173258499  0.0965649548251832   T   T   T
  0.7864636007224961  0.0853235332530368  0.0948765577511517   T   T   T
  0.6375764683100672  0.1669269848958472  0.0961518458010075   T   T   T
  0.7872368283541850  0.9200444132081298  0.0949450780060534   T   T   T
  0.8304630676836773  0.6493674630270347  0.0962756571544238   T   T   T
  0.8283865155919493  0.3567436855501014  0.0963618927570824   T   T   T
  0.6380437642882862  0.8368212393938246  0.0964852986399274   T   T   T
  0.3239173366090236  0.3333785415711365  0.1018568416407687   T   T   T
  0.3245338740035060  0.6705866200490874  0.1005496973247155   T   T   T
  0.6611161552060089  0.3353415885503283  0.1008647523789761   T   T   T
  0.6623658969010681  0.6695148866749858  0.1015414138178598   T   T   T
  0.1988771597538123  0.9169538220428807  0.0946481417174890   T   T   T
  0.4937603365425828  0.5011288510430105  0.1267187458367389   T   T   T
 
  0.00000000E+00  0.00000000E+00  0.00000000E+00
  0.00000000E+00  0.00000000E+00  0.00000000E+00
  0.00000000E+00  0.00000000E+00  0.00000000E+00
  0.00000000E+00  0.00000000E+00  0.00000000E+00
  0.00000000E+00  0.00000000E+00  0.00000000E+00
  0.00000000E+00  0.00000000E+00  0.00000000E+00
  0.00000000E+00  0.00000000E+00  0.00000000E+00
  0.00000000E+00  0.00000000E+00  0.00000000E+00
  0.00000000E+00  0.00000000E+00  0.00000000E+00
  0.00000000E+00  0.00000000E+00  0.00000000E+00
  0.00000000E+00  0.00000000E+00  0.00000000E+00
  0.00000000E+00  0.00000000E+00  0.00000000E+00
  0.00000000E+00  0.00000000E+00  0.00000000E+00
  0.00000000E+00  0.00000000E+00  0.00000000E+00
  0.00000000E+00  0.00000000E+00  0.00000000E+00
  0.00000000E+00  0.00000000E+00  0.00000000E+00
  0.00000000E+00  0.00000000E+00  0.00000000E+00
  0.00000000E+00  0.00000000E+00  0.00000000E+00
  0.00000000E+00  0.00000000E+00  0.00000000E+00
  0.00000000E+00  0.00000000E+00  0.00000000E+00
  0.00000000E+00  0.00000000E+00  0.00000000E+00
  0.00000000E+00  0.00000000E+00  0.00000000E+00
  0.00000000E+00  0.00000000E+00  0.00000000E+00
  0.00000000E+00  0.00000000E+00  0.00000000E+00
  0.00000000E+00  0.00000000E+00  0.00000000E+00
