Title                                   
   1.00000000000000     
     9.8694509999999998    0.0000000000000000    0.0000000000000000
     0.0000000000000000    8.5490480000000009    0.0000000000000000
     0.0000000000000000    0.0000000000000000   20.0000000000000000
    29     2     1
Selective dynamics
Direct
  0.0564275866855401  0.0904213693655810  0.0822509891721930   T   T   T
  0.9315595390962106  0.1728490145060465  0.0835991044109725   T   T   T
  0.0573056725918361  0.9236773607348063  0.0815733231579520   T   T   T
  0.9311273116306353  0.3402190355839884  0.0875096242097805   T   T   T
  0.0574758074507218  0.5903645786037351  0.0850258381149155   T   T   T
  0.9325580272982953  0.6727113726348910  0.0860637214363502   T   T   T
  0.0575487494930722  0.4231121210592660  0.0866197835913655   T   T   T
  0.9319075347065889  0.8392982401767690  0.0832479928829576   T   T   T
  0.3056272531625914  0.0891714062030423  0.0880176418063756   T   T   T
  0.1825467977329900  0.1732890195510690  0.0859928481194005   T   T   T
  0.1830814816055407  0.3404887991602641  0.0899901935342675   T   T   T
  0.3040887937485274  0.5902818809019451  0.1039024058939607   T   T   T
  0.1824502762319742  0.6741027770120345  0.0881593368253281   T   T   T
  0.3067204192060992  0.4220887969377836  0.1022039123405168   T   T   T
  0.1817012188174310  0.8411521357141043  0.0852363747733208   T   T   T
  0.5547618856569934  0.0867800325546302  0.0928214022942196   T   T   T
  0.5536646970438092  0.9237010515358944  0.0985038310963683   T   T   T
  0.4315414436543492  0.3323133310063358  0.1081388533664456   T   T   T
  0.4255276934647537  0.8424832519858400  0.1042145565108884   T   T   T
  0.8061471793087506  0.0885729214366193  0.0840445711475650   T   T   T
  0.6806288444784807  0.1705285478712940  0.0901252096638116   T   T   T
  0.8064907897779189  0.9231685891467848  0.0855527280342666   T   T   T
  0.6821295544201924  0.3335541877366253  0.1026140385152168   T   T   T
  0.8085009892460779  0.5902605856741958  0.0981066833557468   T   T   T
  0.8067269577191231  0.4212674774295619  0.0969266498263721   T   T   T
  0.6821601763410993  0.8409807605343533  0.0979344303948835   T   T   T
  0.4145883515026814  0.6870321549393503  0.1222483679007340   T   T   T
  0.5571929080420321  0.3980250182092815  0.1233619460475097   T   T   T
  0.6936431038417797  0.6810936122211219  0.1122449702665983   T   T   T
  0.3055562160306425  0.9266806166395746  0.0886736380734009   T   T   T
  0.4291568109841709  0.1686484977569506  0.0934865192631583   T   T   T
  0.5590949290290967  0.5919274551762642  0.1672835139731737   T   T   T
 
  0.00000000E+00  0.00000000E+00  0.00000000E+00
  0.00000000E+00  0.00000000E+00  0.00000000E+00
  0.00000000E+00  0.00000000E+00  0.00000000E+00
  0.00000000E+00  0.00000000E+00  0.00000000E+00
  0.00000000E+00  0.00000000E+00  0.00000000E+00
  0.00000000E+00  0.00000000E+00  0.00000000E+00
  0.00000000E+00  0.00000000E+00  0.00000000E+00
  0.00000000E+00  0.00000000E+00  0.00000000E+00
  0.00000000E+00  0.00000000E+00  0.00000000E+00
  0.00000000E+00  0.00000000E+00  0.00000000E+00
  0.00000000E+00  0.00000000E+00  0.00000000E+00
  0.00000000E+00  0.00000000E+00  0.00000000E+00
  0.00000000E+00  0.00000000E+00  0.00000000E+00
  0.00000000E+00  0.00000000E+00  0.00000000E+00
  0.00000000E+00  0.00000000E+00  0.00000000E+00
  0.00000000E+00  0.00000000E+00  0.00000000E+00
  0.00000000E+00  0.00000000E+00  0.00000000E+00
  0.00000000E+00  0.00000000E+00  0.00000000E+00
  0.00000000E+00  0.00000000E+00  0.00000000E+00
  0.00000000E+00  0.00000000E+00  0.00000000E+00
  0.00000000E+00  0.00000000E+00  0.00000000E+00
  0.00000000E+00  0.00000000E+00  0.00000000E+00
  0.00000000E+00  0.00000000E+00  0.00000000E+00
  0.00000000E+00  0.00000000E+00  0.00000000E+00
  0.00000000E+00  0.00000000E+00  0.00000000E+00
  0.00000000E+00  0.00000000E+00  0.00000000E+00
  0.00000000E+00  0.00000000E+00  0.00000000E+00
  0.00000000E+00  0.00000000E+00  0.00000000E+00
  0.00000000E+00  0.00000000E+00  0.00000000E+00
  0.00000000E+00  0.00000000E+00  0.00000000E+00
  0.00000000E+00  0.00000000E+00  0.00000000E+00
  0.00000000E+00  0.00000000E+00  0.00000000E+00
