Title                                   
   1.00000000000000     
     9.8694509999999998    0.0000000000000000    0.0000000000000000
     0.0000000000000000    8.5490480000000009    0.0000000000000000
     0.0000000000000000    0.0000000000000000   20.0000000000000000
    24     6     1
Selective dynamics
Direct
  0.0550402192032166  0.0895074295807018  0.0927402502684382   T   T   T
  0.9310056856527508  0.1719553527094079  0.0932561269763092   T   T   T
  0.0570989765561098  0.9224080362816510  0.0931298881720463   T   T   T
  0.9342944462502536  0.3397311864599816  0.0928391394244301   T   T   T
  0.0562616386088617  0.5907234390367407  0.0919175408185758   T   T   T
  0.0569652517689046  0.4241009766394695  0.0914540883669231   T   T   T
  0.9325151438430785  0.8396275390215169  0.0939377891629284   T   T   T
  0.3060423921926744  0.0885460015047497  0.0960074588789169   T   T   T
  0.1807493926960701  0.1714129585332345  0.0934665935103762   T   T   T
  0.1802638349252494  0.3391872198005423  0.0930307675052343   T   T   T
  0.3013362157909498  0.5905513199488563  0.0972051621085402   T   T   T
  0.1789532096525548  0.6744592504792879  0.0935040203924199   T   T   T
  0.3028620581752644  0.4204488473352877  0.0970158828006310   T   T   T
  0.1813357040222799  0.8413340804490896  0.0939785808895091   T   T   T
  0.4296412551985181  0.1752537007931644  0.0995400381791551   T   T   T
  0.5543604046277730  0.9182207480383767  0.1004258311789549   T   T   T
  0.4269581878748533  0.8357232507943426  0.0998462487356938   T   T   T
  0.8047226404110724  0.0885579819428910  0.0956911064669585   T   T   T
  0.6815566187627246  0.1760454229923132  0.0989809707816097   T   T   T
  0.8067513007504026  0.9208737234291803  0.0960088597936197   T   T   T
  0.6878362061531940  0.3420503640589322  0.1012181094209177   T   T   T
  0.8136597185427186  0.5938267303745898  0.0972809565163437   T   T   T
  0.8134312440267484  0.4229461877162786  0.0966681107363017   T   T   T
  0.6825060126394623  0.8349168192986084  0.0995969361912424   T   T   T
  0.9342002521649785  0.6737472151275544  0.0935373756830179   T   T   T
  0.5548897634683125  0.0920116940193378  0.1003238645026985   T   T   T
  0.4233588601040083  0.3363015809233736  0.1018824048112060   T   T   T
  0.6940600781604966  0.6723796433776429  0.1018704102341745   T   T   T
  0.4187174138614393  0.6769152391200727  0.1022807499625433   T   T   T
  0.3048041850353658  0.9236122118788251  0.0959655274662130   T   T   T
  0.5569566888797226  0.5034988483340108  0.1063642100641072   T   T   T
 
  0.00000000E+00  0.00000000E+00  0.00000000E+00
  0.00000000E+00  0.00000000E+00  0.00000000E+00
  0.00000000E+00  0.00000000E+00  0.00000000E+00
  0.00000000E+00  0.00000000E+00  0.00000000E+00
  0.00000000E+00  0.00000000E+00  0.00000000E+00
  0.00000000E+00  0.00000000E+00  0.00000000E+00
  0.00000000E+00  0.00000000E+00  0.00000000E+00
  0.00000000E+00  0.00000000E+00  0.00000000E+00
  0.00000000E+00  0.00000000E+00  0.00000000E+00
  0.00000000E+00  0.00000000E+00  0.00000000E+00
  0.00000000E+00  0.00000000E+00  0.00000000E+00
  0.00000000E+00  0.00000000E+00  0.00000000E+00
  0.00000000E+00  0.00000000E+00  0.00000000E+00
  0.00000000E+00  0.00000000E+00  0.00000000E+00
  0.00000000E+00  0.00000000E+00  0.00000000E+00
  0.00000000E+00  0.00000000E+00  0.00000000E+00
  0.00000000E+00  0.00000000E+00  0.00000000E+00
  0.00000000E+00  0.00000000E+00  0.00000000E+00
  0.00000000E+00  0.00000000E+00  0.00000000E+00
  0.00000000E+00  0.00000000E+00  0.00000000E+00
  0.00000000E+00  0.00000000E+00  0.00000000E+00
  0.00000000E+00  0.00000000E+00  0.00000000E+00
  0.00000000E+00  0.00000000E+00  0.00000000E+00
  0.00000000E+00  0.00000000E+00  0.00000000E+00
  0.00000000E+00  0.00000000E+00  0.00000000E+00
  0.00000000E+00  0.00000000E+00  0.00000000E+00
  0.00000000E+00  0.00000000E+00  0.00000000E+00
  0.00000000E+00  0.00000000E+00  0.00000000E+00
  0.00000000E+00  0.00000000E+00  0.00000000E+00
  0.00000000E+00  0.00000000E+00  0.00000000E+00
  0.00000000E+00  0.00000000E+00  0.00000000E+00
