Title                                   
   1.00000000000000     
     8.5490480000000009    0.0000000000000000    0.0000000000000000
     0.0000000000000000    8.5490480000000009    0.0000000000000000
     0.0000000000000000    0.0000000000000000   20.0000000000000000
    19     5     1
Selective dynamics
Direct
  0.9091506784915198  0.2072121060048245  0.0965458693934735   T   T   T
  0.9106086644008369  0.7995987880367988  0.0975418173655464   T   T   T
  0.1979570350207710  0.0835443697150655  0.0973789427041564   T   T   T
  0.0769889927524088  0.2025054218234162  0.0972816177828365   T   T   T
  0.1573237593451388  0.6501702582635488  0.0970713154395487   T   T   T
  0.0777826518895603  0.5012907624713370  0.0977525243701601   T   T   T
  0.1578598067649161  0.3520340488578195  0.0981774216034181   T   T   T
  0.0785133729010811  0.7991686497725210  0.0969984710396918   T   T   T
  0.3448002183189222  0.1653883913879571  0.0981808039886521   T   T   T
  0.4921539441045968  0.9180450984416355  0.0975325390779841   T   T   T
  0.3449947876379389  0.8371445292739700  0.0967979806655372   T   T   T
  0.7863797184133383  0.0853962065660226  0.0965961189037386   T   T   T
  0.6384988213938817  0.1670517738031725  0.0969237993262739   T   T   T
  0.7887102494773580  0.9185661043581075  0.0973630548457310   T   T   T
  0.8292454440190922  0.6505524636445090  0.0982816230250615   T   T   T
  0.8284208458324741  0.3554253397854628  0.0970607234912293   T   T   T
  0.6409162343205075  0.8368243446467708  0.0980614222959127   T   T   T
  0.3244119716224477  0.6721355908092645  0.0970269503607713   T   T   T
  0.6595065257319639  0.3355021380579605  0.0981853052733085   T   T   T
  0.4935021722332580  0.0874134071771233  0.0975636073763647   T   T   T
  0.9079878976812799  0.5020281706798588  0.0977390581332583   T   T   T
  0.3229818158006209  0.3286770782717687  0.0995711684260355   T   T   T
  0.6656756470732574  0.6716209568057913  0.0990669120844672   T   T   T
  0.1961527970128679  0.9168465155756796  0.0966792796196835   T   T   T
  0.4948879477599474  0.5006474857696297  0.1023266734071390   T   T   T
 
  0.00000000E+00  0.00000000E+00  0.00000000E+00
  0.00000000E+00  0.00000000E+00  0.00000000E+00
  0.00000000E+00  0.00000000E+00  0.00000000E+00
  0.00000000E+00  0.00000000E+00  0.00000000E+00
  0.00000000E+00  0.00000000E+00  0.00000000E+00
  0.00000000E+00  0.00000000E+00  0.00000000E+00
  0.00000000E+00  0.00000000E+00  0.00000000E+00
  0.00000000E+00  0.00000000E+00  0.00000000E+00
  0.00000000E+00  0.00000000E+00  0.00000000E+00
  0.00000000E+00  0.00000000E+00  0.00000000E+00
  0.00000000E+00  0.00000000E+00  0.00000000E+00
  0.00000000E+00  0.00000000E+00  0.00000000E+00
  0.00000000E+00  0.00000000E+00  0.00000000E+00
  0.00000000E+00  0.00000000E+00  0.00000000E+00
  0.00000000E+00  0.00000000E+00  0.00000000E+00
  0.00000000E+00  0.00000000E+00  0.00000000E+00
  0.00000000E+00  0.00000000E+00  0.00000000E+00
  0.00000000E+00  0.00000000E+00  0.00000000E+00
  0.00000000E+00  0.00000000E+00  0.00000000E+00
  0.00000000E+00  0.00000000E+00  0.00000000E+00
  0.00000000E+00  0.00000000E+00  0.00000000E+00
  0.00000000E+00  0.00000000E+00  0.00000000E+00
  0.00000000E+00  0.00000000E+00  0.00000000E+00
  0.00000000E+00  0.00000000E+00  0.00000000E+00
  0.00000000E+00  0.00000000E+00  0.00000000E+00
