Title                                   
   1.00000000000000     
     4.9440799999999996    0.0000000000000000    0.0000000000000000
     0.0000000000000000    8.5647549999999999    0.0000000000000000
     0.0000000000000000    0.0000000000000000   20.0000000000000000
    12     3     1
Selective dynamics
Direct
  0.2500000000000000  0.2117546691144593  0.0908977288389304   T   T   T
 -0.0057130502027984  0.2920980965405656  0.0930103289607143   T   T   T
  0.2500000000000000  0.0443751633749007  0.0890022205691101   T   T   T
  0.0032038603734180  0.7959878342031442  0.1033356617471487   T   T   T
 -0.0001180998903355  0.9595179635492660  0.0895243132000038   T   T   T
  0.7500000000000000  0.2064015422361740  0.0854266877249570   T   T   T
  0.5057130502027983  0.2920980965405656  0.0930103289607143   T   T   T
  0.7500000000000000  0.0408389247642181  0.0842522063330772   T   T   T
  0.7500000000000000  0.7052464598028136  0.1060539000396921   T   T   T
  0.4967961396265820  0.7959878342031442  0.1033356617471487   T   T   T
  0.7500000000000000  0.5324821965226822  0.1058157394578451   T   T   T
  0.5001180998903353  0.9595179635492660  0.0895243132000038   T   T   T
  0.5161056599969823  0.4486193947991592  0.1052165759537789   T   T   T
 -0.0161056599969825  0.4486193947991592  0.1052165759537789   T   T   T
  0.2500000000000000  0.7305377077058129  0.1183785439898869   T   T   T
  0.2500000000000000  0.5359167582946684  0.1605112133232173   T   T   T
 
  0.00000000E+00  0.00000000E+00  0.00000000E+00
  0.00000000E+00  0.00000000E+00  0.00000000E+00
  0.00000000E+00  0.00000000E+00  0.00000000E+00
  0.00000000E+00  0.00000000E+00  0.00000000E+00
  0.00000000E+00  0.00000000E+00  0.00000000E+00
  0.00000000E+00  0.00000000E+00  0.00000000E+00
  0.00000000E+00  0.00000000E+00  0.00000000E+00
  0.00000000E+00  0.00000000E+00  0.00000000E+00
  0.00000000E+00  0.00000000E+00  0.00000000E+00
  0.00000000E+00  0.00000000E+00  0.00000000E+00
  0.00000000E+00  0.00000000E+00  0.00000000E+00
  0.00000000E+00  0.00000000E+00  0.00000000E+00
  0.00000000E+00  0.00000000E+00  0.00000000E+00
  0.00000000E+00  0.00000000E+00  0.00000000E+00
  0.00000000E+00  0.00000000E+00  0.00000000E+00
  0.00000000E+00  0.00000000E+00  0.00000000E+00
