Title                                   
   1.00000000000000     
     9.8694509999999998    0.0000000000000000    0.0000000000000000
     0.0000000000000000    8.5490480000000009    0.0000000000000000
     0.0000000000000000    0.0000000000000000   20.0000000000000000
    26     4     1
Selective dynamics
Direct
  0.0546482813771598  0.0878113900016538  0.0854703254954971   T   T   T
  0.9302658967251118  0.1721601802869434  0.0862191330318546   T   T   T
  0.0573211218677953  0.9212035992849387  0.0865681252659825   T   T   T
  0.9330046861364392  0.3397981807198994  0.0864297155463400   T   T   T
  0.0566994136913132  0.5904976347275472  0.0855017995997300   T   T   T
  0.0565694195941324  0.4242330958276070  0.0841951872102205   T   T   T
  0.9318577083782749  0.8387669535045507  0.0887661350074423   T   T   T
  0.3057667315270610  0.0872847984001210  0.0918721126484636   T   T   T
  0.1807259637683165  0.1700626199734567  0.0872301418629403   T   T   T
  0.1804194227853847  0.3376772042799186  0.0863250443180555   T   T   T
  0.3050159752077375  0.5865316632048369  0.0936471193684537   T   T   T
  0.1814447531717114  0.6726866203569246  0.0875861939991443   T   T   T
  0.3030410744575300  0.4175156351516980  0.0942554682461928   T   T   T
  0.1830848071875962  0.8390287652249773  0.0881343641672837   T   T   T
  0.4282999573236910  0.1752518705603252  0.0993673534147723   T   T   T
  0.5548975074249499  0.9247713011998536  0.1019451100354538   T   T   T
  0.4271783773060749  0.6712864134024104  0.1037940980198415   T   T   T
  0.4310033714639951  0.8373918824031905  0.0996468216423785   T   T   T
  0.8041517896111908  0.0900725221027381  0.0905801875686541   T   T   T
  0.6802959709483091  0.1795406483506472  0.0967501444792016   T   T   T
  0.8060267085340096  0.9218914214860786  0.0927079488688720   T   T   T
  0.6858902916595127  0.3446127915409523  0.1012133421814026   T   T   T
  0.8116767318796156  0.5936151440106584  0.0974281193473319   T   T   T
  0.6889739485671537  0.6724948617832868  0.1097348725900009   T   T   T
  0.8119228718224940  0.4231692920484323  0.0939952472616282   T   T   T
  0.6808732223783851  0.8392770154637061  0.1018861793227451   T   T   T
  0.9337161247670221  0.6734571692969833  0.0886973528115778   T   T   T
  0.5543128200083095  0.0950097449777423  0.1003071863862880   T   T   T
  0.4219342886685631  0.3343009655482336  0.1058831751273702   T   T   T
  0.3062348113602753  0.9219296719346377  0.0917180520157507   T   T   T
  0.5558809504009002  0.5075439429450701  0.1331089431591786   T   T   T
 
  0.00000000E+00  0.00000000E+00  0.00000000E+00
  0.00000000E+00  0.00000000E+00  0.00000000E+00
  0.00000000E+00  0.00000000E+00  0.00000000E+00
  0.00000000E+00  0.00000000E+00  0.00000000E+00
  0.00000000E+00  0.00000000E+00  0.00000000E+00
  0.00000000E+00  0.00000000E+00  0.00000000E+00
  0.00000000E+00  0.00000000E+00  0.00000000E+00
  0.00000000E+00  0.00000000E+00  0.00000000E+00
  0.00000000E+00  0.00000000E+00  0.00000000E+00
  0.00000000E+00  0.00000000E+00  0.00000000E+00
  0.00000000E+00  0.00000000E+00  0.00000000E+00
  0.00000000E+00  0.00000000E+00  0.00000000E+00
  0.00000000E+00  0.00000000E+00  0.00000000E+00
  0.00000000E+00  0.00000000E+00  0.00000000E+00
  0.00000000E+00  0.00000000E+00  0.00000000E+00
  0.00000000E+00  0.00000000E+00  0.00000000E+00
  0.00000000E+00  0.00000000E+00  0.00000000E+00
  0.00000000E+00  0.00000000E+00  0.00000000E+00
  0.00000000E+00  0.00000000E+00  0.00000000E+00
  0.00000000E+00  0.00000000E+00  0.00000000E+00
  0.00000000E+00  0.00000000E+00  0.00000000E+00
  0.00000000E+00  0.00000000E+00  0.00000000E+00
  0.00000000E+00  0.00000000E+00  0.00000000E+00
  0.00000000E+00  0.00000000E+00  0.00000000E+00
  0.00000000E+00  0.00000000E+00  0.00000000E+00
  0.00000000E+00  0.00000000E+00  0.00000000E+00
  0.00000000E+00  0.00000000E+00  0.00000000E+00
  0.00000000E+00  0.00000000E+00  0.00000000E+00
  0.00000000E+00  0.00000000E+00  0.00000000E+00
  0.00000000E+00  0.00000000E+00  0.00000000E+00
  0.00000000E+00  0.00000000E+00  0.00000000E+00
