Title                                   
   1.00000000000000     
     9.8694509999999998    0.0000000000000000    0.0000000000000000
     0.0000000000000000    8.5490480000000009    0.0000000000000000
     0.0000000000000000    0.0000000000000000   20.0000000000000000
    26     4     1
Selective dynamics
Direct
  0.0546972692454137  0.0892988740048260  0.0865191112601485   T   T   T
  0.9303160514574924  0.1743962985051838  0.0899831798212725   T   T   T
  0.0573794979187886  0.9237157595109269  0.0859684706459914   T   T   T
  0.9320593026102757  0.3419595756438439  0.0891132961327927   T   T   T
  0.0571497261182310  0.5899937184518037  0.0813718070285426   T   T   T
  0.9340718242500858  0.6747197396246754  0.0864147533386014   T   T   T
  0.0562222158718399  0.4231335224173700  0.0821499807552205   T   T   T
  0.9320378292709723  0.8417827537270699  0.0874444175842033   T   T   T
  0.3051795789217981  0.0850599567090914  0.0910925270987180   T   T   T
  0.1811849215363799  0.1692625378297238  0.0856204170718127   T   T   T
  0.1796981562200564  0.3368181490506530  0.0828027639886417   T   T   T
  0.3051133912728110  0.5872920992666937  0.0918278010454550   T   T   T
  0.1820077787022502  0.6720737512977477  0.0829253390253279   T   T   T
  0.3039474556806653  0.4147699021118754  0.0870905296094097   T   T   T
  0.1824825782915728  0.8387885861849689  0.0865682916952139   T   T   T
  0.4281809084858527  0.1729787518369163  0.0950363936298545   T   T   T
  0.5549753793791152  0.9207294511257974  0.1041215970432953   T   T   T
  0.4205318276419255  0.6695629600485850  0.1122719193592064   T   T   T
  0.4291066071640344  0.8351854367433763  0.1049314129404594   T   T   T
  0.8041876084132500  0.0924807782265344  0.0949854221275548   T   T   T
  0.6809458996581266  0.1797871458288899  0.1054611630380249   T   T   T
  0.8071786412927353  0.9254182335031227  0.0933645169143290   T   T   T
  0.6886048823767505  0.3427482210368556  0.1170851134543584   T   T   T
  0.8110438232185290  0.5959970718669110  0.0963586324459928   T   T   T
  0.8097145634275071  0.4242527447699872  0.1009167648685145   T   T   T
  0.6837886772639272  0.8380209235504642  0.1004231541649107   T   T   T
  0.5548634682080977  0.0932840177253399  0.1028426585442774   T   T   T
  0.4214193005009047  0.3304236123096415  0.0909008579764908   T   T   T
  0.6935828907313060  0.6779881815284173  0.1025570289597321   T   T   T
  0.3053756525814034  0.9197747864399729  0.0928276907282751   T   T   T
  0.5560872922879022  0.5091774591227626  0.1299879877034066   T   T   T
 
  0.00000000E+00  0.00000000E+00  0.00000000E+00
  0.00000000E+00  0.00000000E+00  0.00000000E+00
  0.00000000E+00  0.00000000E+00  0.00000000E+00
  0.00000000E+00  0.00000000E+00  0.00000000E+00
  0.00000000E+00  0.00000000E+00  0.00000000E+00
  0.00000000E+00  0.00000000E+00  0.00000000E+00
  0.00000000E+00  0.00000000E+00  0.00000000E+00
  0.00000000E+00  0.00000000E+00  0.00000000E+00
  0.00000000E+00  0.00000000E+00  0.00000000E+00
  0.00000000E+00  0.00000000E+00  0.00000000E+00
  0.00000000E+00  0.00000000E+00  0.00000000E+00
  0.00000000E+00  0.00000000E+00  0.00000000E+00
  0.00000000E+00  0.00000000E+00  0.00000000E+00
  0.00000000E+00  0.00000000E+00  0.00000000E+00
  0.00000000E+00  0.00000000E+00  0.00000000E+00
  0.00000000E+00  0.00000000E+00  0.00000000E+00
  0.00000000E+00  0.00000000E+00  0.00000000E+00
  0.00000000E+00  0.00000000E+00  0.00000000E+00
  0.00000000E+00  0.00000000E+00  0.00000000E+00
  0.00000000E+00  0.00000000E+00  0.00000000E+00
  0.00000000E+00  0.00000000E+00  0.00000000E+00
  0.00000000E+00  0.00000000E+00  0.00000000E+00
  0.00000000E+00  0.00000000E+00  0.00000000E+00
  0.00000000E+00  0.00000000E+00  0.00000000E+00
  0.00000000E+00  0.00000000E+00  0.00000000E+00
  0.00000000E+00  0.00000000E+00  0.00000000E+00
  0.00000000E+00  0.00000000E+00  0.00000000E+00
  0.00000000E+00  0.00000000E+00  0.00000000E+00
  0.00000000E+00  0.00000000E+00  0.00000000E+00
  0.00000000E+00  0.00000000E+00  0.00000000E+00
  0.00000000E+00  0.00000000E+00  0.00000000E+00
