Title                                   
   1.00000000000000     
     9.8694509999999998    0.0000000000000000    0.0000000000000000
     0.0000000000000000    8.5490480000000009    0.0000000000000000
     0.0000000000000000    0.0000000000000000   20.0000000000000000
    28     2     1
Selective dynamics
Direct
  0.0554919278477921  0.0890527921262581  0.0792443683304910   T   T   T
  0.9308164008589423  0.1735925134955838  0.0833398729486289   T   T   T
  0.0569703415541925  0.9233003338951564  0.0792678913817415   T   T   T
  0.9311099419070629  0.3405485531800495  0.0819526531772858   T   T   T
  0.0567704248169340  0.5893764958822475  0.0773592453475152   T   T   T
  0.9331135550061672  0.6748546423789178  0.0814097911746490   T   T   T
  0.0556895503296680  0.4229341328510006  0.0773640694122488   T   T   T
  0.9316720405729146  0.8412572417131133  0.0813188531798991   T   T   T
  0.3050564559638254  0.0876874243755364  0.0895279776551663   T   T   T
  0.1807997627571604  0.1710837962112201  0.0812559998028794   T   T   T
  0.3059900039218201  0.9209267477888902  0.0919217337897706   T   T   T
  0.1793755098618927  0.3374856008860239  0.0813450055770959   T   T   T
  0.3031164404100117  0.5885106430260877  0.0969067333806719   T   T   T
  0.1813473710641378  0.6717770717345607  0.0819099222337456   T   T   T
  0.3032485055890791  0.4164465104821655  0.0921577523845387   T   T   T
  0.1816382332616452  0.8387326869069845  0.0833330056782938   T   T   T
  0.5563198643519014  0.0906204656158967  0.1071320345658056   T   T   T
  0.4267902863661445  0.1753870577410658  0.0995715719206657   T   T   T
  0.5561381111589971  0.9216485376199004  0.1071584693035952   T   T   T
  0.4148977704647251  0.6735673649123367  0.1214187735064862   T   T   T
  0.4277248225326332  0.8360604339498786  0.1078459241928856   T   T   T
  0.8064626894037908  0.0913719286232493  0.0919460464755801   T   T   T
  0.6847136555528651  0.1762554250897998  0.1078612562511115   T   T   T
  0.8074090823674028  0.9246195173549669  0.0895841914868086   T   T   T
  0.6975304154514601  0.3387583661796814  0.1214539132626125   T   T   T
  0.8092630052218586  0.5958834423242404  0.0922733705302431   T   T   T
  0.8093590195193606  0.4238101313677214  0.0969884760474617   T   T   T
  0.6856927339219722  0.8369038830882497  0.0996528930063653   T   T   T
  0.4204041320965515  0.3345732759759113  0.0988756014920193   T   T   T
  0.6921343907038794  0.6777259616473932  0.0990145221768165   T   T   T
  0.5560885551632219  0.5061220215759251  0.1605730803269630   T   T   T
 
  0.00000000E+00  0.00000000E+00  0.00000000E+00
  0.00000000E+00  0.00000000E+00  0.00000000E+00
  0.00000000E+00  0.00000000E+00  0.00000000E+00
  0.00000000E+00  0.00000000E+00  0.00000000E+00
  0.00000000E+00  0.00000000E+00  0.00000000E+00
  0.00000000E+00  0.00000000E+00  0.00000000E+00
  0.00000000E+00  0.00000000E+00  0.00000000E+00
  0.00000000E+00  0.00000000E+00  0.00000000E+00
  0.00000000E+00  0.00000000E+00  0.00000000E+00
  0.00000000E+00  0.00000000E+00  0.00000000E+00
  0.00000000E+00  0.00000000E+00  0.00000000E+00
  0.00000000E+00  0.00000000E+00  0.00000000E+00
  0.00000000E+00  0.00000000E+00  0.00000000E+00
  0.00000000E+00  0.00000000E+00  0.00000000E+00
  0.00000000E+00  0.00000000E+00  0.00000000E+00
  0.00000000E+00  0.00000000E+00  0.00000000E+00
  0.00000000E+00  0.00000000E+00  0.00000000E+00
  0.00000000E+00  0.00000000E+00  0.00000000E+00
  0.00000000E+00  0.00000000E+00  0.00000000E+00
  0.00000000E+00  0.00000000E+00  0.00000000E+00
  0.00000000E+00  0.00000000E+00  0.00000000E+00
  0.00000000E+00  0.00000000E+00  0.00000000E+00
  0.00000000E+00  0.00000000E+00  0.00000000E+00
  0.00000000E+00  0.00000000E+00  0.00000000E+00
  0.00000000E+00  0.00000000E+00  0.00000000E+00
  0.00000000E+00  0.00000000E+00  0.00000000E+00
  0.00000000E+00  0.00000000E+00  0.00000000E+00
  0.00000000E+00  0.00000000E+00  0.00000000E+00
  0.00000000E+00  0.00000000E+00  0.00000000E+00
  0.00000000E+00  0.00000000E+00  0.00000000E+00
  0.00000000E+00  0.00000000E+00  0.00000000E+00
