Title                                   
   1.00000000000000     
     9.8694509999999998    0.0000000000000000    0.0000000000000000
     0.0000000000000000    8.5490480000000009    0.0000000000000000
     0.0000000000000000    0.0000000000000000   20.0000000000000000
    29     2     1
Selective dynamics
Direct
  0.0562063682171074  0.0908166526691054  0.0834036785082285   T   T   T
  0.9310122786973966  0.1742067422362705  0.0876051783319816   T   T   T
  0.0570268487529967  0.9232237857623961  0.0817740535587609   T   T   T
  0.9296246798349328  0.3411274974639462  0.0939576154281264   T   T   T
  0.0559858529651635  0.5893663804716532  0.0875843600170408   T   T   T
  0.9319211101775072  0.6732428395813165  0.0906686791140188   T   T   T
  0.0565308780756947  0.4230832585131331  0.0906865143047385   T   T   T
  0.9320105592232827  0.8404158688948019  0.0854414190303012   T   T   T
  0.3056879624078621  0.0875135470053223  0.0848875472309184   T   T   T
  0.1819816545433587  0.1735529375137505  0.0855595871594343   T   T   T
  0.3076833687425774  0.9219688595778875  0.0844327198251867   T   T   T
  0.1817576114874716  0.3397599460726313  0.0900435387565713   T   T   T
  0.3061346650620363  0.5881166525393351  0.0939685320911926   T   T   T
  0.1811761103115040  0.6706895810934974  0.0853360365395507   T   T   T
  0.1827348689803169  0.8377204953966991  0.0826236520743705   T   T   T
  0.5558789677596997  0.0865654506451827  0.0936673689239635   T   T   T
  0.4300893418799071  0.1686391401170702  0.0906180875396317   T   T   T
  0.4298144754129594  0.3339710353626278  0.1008200920158719   T   T   T
  0.4318238134872384  0.8378466975864799  0.0941698292323620   T   T   T
  0.8069221268445107  0.0906361416523968  0.0875947232909087   T   T   T
  0.6807574800518990  0.1706778443690111  0.0947743723366017   T   T   T
  0.8069163391294621  0.9251952599856005  0.0870580409861801   T   T   T
  0.6785596459257074  0.3355529116005294  0.1071779790316910   T   T   T
  0.8089775646582542  0.5939740205242364  0.1070332796333308   T   T   T
  0.8050990699448537  0.4239503319871100  0.1052507295843065   T   T   T
  0.6845912100879338  0.8425433429022964  0.1007251829027824   T   T   T
  0.4241661907435541  0.6755973845497937  0.1048040137945323   T   T   T
  0.5497880425080401  0.4040842514796463  0.1205111447612494   T   T   T
  0.6958083665150884  0.6898958810191672  0.1241291350666877   T   T   T
  0.5567916211876016  0.9217873650014035  0.0965833956926543   T   T   T
  0.3054812836304580  0.4210471607967487  0.0953098288986058   T   T   T
  0.5506986427536318  0.5934767356289583  0.1674746843382350   T   T   T
 
  0.00000000E+00  0.00000000E+00  0.00000000E+00
  0.00000000E+00  0.00000000E+00  0.00000000E+00
  0.00000000E+00  0.00000000E+00  0.00000000E+00
  0.00000000E+00  0.00000000E+00  0.00000000E+00
  0.00000000E+00  0.00000000E+00  0.00000000E+00
  0.00000000E+00  0.00000000E+00  0.00000000E+00
  0.00000000E+00  0.00000000E+00  0.00000000E+00
  0.00000000E+00  0.00000000E+00  0.00000000E+00
  0.00000000E+00  0.00000000E+00  0.00000000E+00
  0.00000000E+00  0.00000000E+00  0.00000000E+00
  0.00000000E+00  0.00000000E+00  0.00000000E+00
  0.00000000E+00  0.00000000E+00  0.00000000E+00
  0.00000000E+00  0.00000000E+00  0.00000000E+00
  0.00000000E+00  0.00000000E+00  0.00000000E+00
  0.00000000E+00  0.00000000E+00  0.00000000E+00
  0.00000000E+00  0.00000000E+00  0.00000000E+00
  0.00000000E+00  0.00000000E+00  0.00000000E+00
  0.00000000E+00  0.00000000E+00  0.00000000E+00
  0.00000000E+00  0.00000000E+00  0.00000000E+00
  0.00000000E+00  0.00000000E+00  0.00000000E+00
  0.00000000E+00  0.00000000E+00  0.00000000E+00
  0.00000000E+00  0.00000000E+00  0.00000000E+00
  0.00000000E+00  0.00000000E+00  0.00000000E+00
  0.00000000E+00  0.00000000E+00  0.00000000E+00
  0.00000000E+00  0.00000000E+00  0.00000000E+00
  0.00000000E+00  0.00000000E+00  0.00000000E+00
  0.00000000E+00  0.00000000E+00  0.00000000E+00
  0.00000000E+00  0.00000000E+00  0.00000000E+00
  0.00000000E+00  0.00000000E+00  0.00000000E+00
  0.00000000E+00  0.00000000E+00  0.00000000E+00
  0.00000000E+00  0.00000000E+00  0.00000000E+00
  0.00000000E+00  0.00000000E+00  0.00000000E+00
