Title                                   
   1.00000000000000     
     9.8694509999999998    0.0000000000000000    0.0000000000000000
     0.0000000000000000    8.5490480000000009    0.0000000000000000
     0.0000000000000000    0.0000000000000000   20.0000000000000000
    28     2     1
Selective dynamics
Direct
  0.0547592548907462  0.0890525724313374  0.0918137843540987   T   T   T
  0.9304955093475733  0.1726852620992885  0.0867177340448330   T   T   T
  0.0567335479035915  0.9221808421508066  0.0924232152670698   T   T   T
  0.9326805393624016  0.3391960611789627  0.0886344741996560   T   T   T
  0.0560122876525577  0.5903905350578881  0.0953820589279415   T   T   T
  0.9324138352437376  0.6738462968659682  0.0914419842458372   T   T   T
  0.0560850595020222  0.4223362969674569  0.0946968587202378   T   T   T
  0.9310592653110431  0.8397435417951189  0.0889934367266568   T   T   T
  0.3055684675648699  0.0883289291742017  0.1004538757792451   T   T   T
  0.1792047183705135  0.1697969751824693  0.0977051842380522   T   T   T
  0.1795481932535659  0.3370915819488092  0.0990174932028195   T   T   T
  0.3040782951945312  0.5869804163278810  0.1053655390327415   T   T   T
  0.1812660057904003  0.6726184636264125  0.0988919130283431   T   T   T
  0.3025322438776017  0.4192416191219951  0.1059581823320455   T   T   T
  0.1815451697208475  0.8397315178328703  0.0972150105795240   T   T   T
  0.5529475949328509  0.0927904614925037  0.0927247813204648   T   T   T
  0.4280262524196493  0.1777719078870818  0.1027502424082169   T   T   T
  0.5524437168254998  0.9251016835401421  0.0929560191039701   T   T   T
  0.4296289093830032  0.6674317084875830  0.1097200883363856   T   T   T
  0.4303383437942138  0.8343370979420183  0.1015481968287400   T   T   T
  0.8040267168428858  0.0905050483415228  0.0828174304061285   T   T   T
  0.6781445381255848  0.1744309726254884  0.0821856505490316   T   T   T
  0.8044707559460234  0.9238418153642867  0.0842059034348521   T   T   T
  0.6829723228880454  0.3402986046929293  0.0793349491512689   T   T   T
  0.8070516001014870  0.5915562989801184  0.0854349760223218   T   T   T
  0.6825229470459030  0.6761963186407633  0.0838965096753752   T   T   T
  0.8079050221232346  0.4221488521360695  0.0825402599003350   T   T   T
  0.6781681376923291  0.8420659331075064  0.0843346717695149   T   T   T
  0.4243266482296899  0.3408679297575075  0.1116865855801819   T   T   T
  0.3066615362999359  0.9218251879681926  0.0993723888021108   T   T   T
  0.5895175643636773  0.5064842672748403  0.1307456020320488   T   T   T
 
  0.00000000E+00  0.00000000E+00  0.00000000E+00
  0.00000000E+00  0.00000000E+00  0.00000000E+00
  0.00000000E+00  0.00000000E+00  0.00000000E+00
  0.00000000E+00  0.00000000E+00  0.00000000E+00
  0.00000000E+00  0.00000000E+00  0.00000000E+00
  0.00000000E+00  0.00000000E+00  0.00000000E+00
  0.00000000E+00  0.00000000E+00  0.00000000E+00
  0.00000000E+00  0.00000000E+00  0.00000000E+00
  0.00000000E+00  0.00000000E+00  0.00000000E+00
  0.00000000E+00  0.00000000E+00  0.00000000E+00
  0.00000000E+00  0.00000000E+00  0.00000000E+00
  0.00000000E+00  0.00000000E+00  0.00000000E+00
  0.00000000E+00  0.00000000E+00  0.00000000E+00
  0.00000000E+00  0.00000000E+00  0.00000000E+00
  0.00000000E+00  0.00000000E+00  0.00000000E+00
  0.00000000E+00  0.00000000E+00  0.00000000E+00
  0.00000000E+00  0.00000000E+00  0.00000000E+00
  0.00000000E+00  0.00000000E+00  0.00000000E+00
  0.00000000E+00  0.00000000E+00  0.00000000E+00
  0.00000000E+00  0.00000000E+00  0.00000000E+00
  0.00000000E+00  0.00000000E+00  0.00000000E+00
  0.00000000E+00  0.00000000E+00  0.00000000E+00
  0.00000000E+00  0.00000000E+00  0.00000000E+00
  0.00000000E+00  0.00000000E+00  0.00000000E+00
  0.00000000E+00  0.00000000E+00  0.00000000E+00
  0.00000000E+00  0.00000000E+00  0.00000000E+00
  0.00000000E+00  0.00000000E+00  0.00000000E+00
  0.00000000E+00  0.00000000E+00  0.00000000E+00
  0.00000000E+00  0.00000000E+00  0.00000000E+00
  0.00000000E+00  0.00000000E+00  0.00000000E+00
  0.00000000E+00  0.00000000E+00  0.00000000E+00
