Title                                   
   1.00000000000000     
     4.9440799999999996    0.0000000000000000    0.0000000000000000
     0.0000000000000000   17.1295089999999988    0.0000000000000000
     0.0000000000000000    0.0000000000000000   20.0000000000000000
    25     5     1
Selective dynamics
Direct
  0.0009730164960113  0.1055641101501906  0.2938933800048757   T   T   T
  0.2503316020371571  0.1484096698594783  0.2959814567260519   T   T   T
  0.2502034759494138  0.2329609903729943  0.3013559687244752   T   T   T
 -0.0028274662210108  0.2740786192035898  0.3029516268894909   T   T   T
 -0.0024192536243474  0.6013725354924164  0.3007416057958536   T   T   T
  0.2502028075841827  0.7260609006541119  0.2948638370442100   T   T   T
  0.0016380121891008  0.8526175020045237  0.2921118377904514   T   T   T
  0.2504052288625881  0.8950393813143828  0.2922438876733729   T   T   T
  0.2504556275541323  0.9792226898349684  0.2924773078265673   T   T   T
  0.0018077850212580  0.7682172346890398  0.2929088140911501   T   T   T
  0.4998396592049174  0.1056077196514622  0.2938050616202266   T   T   T
  0.7504737990544971  0.1474813806348617  0.2940355171331027   T   T   T
  0.7504744311581287  0.2310795243944206  0.2968498389192238   T   T   T
  0.5001898891693246  0.0214349222808314  0.2925305922959000   T   T   T
  0.7502877274132097  0.3960562167346994  0.3056511786799766   T   T   T
  0.7501934433268383  0.4805803938689240  0.3049455122055815   T   T   T
  0.5033946389551847  0.2739501391485890  0.3022646772763497   T   T   T
  0.5023328753277838  0.6014469171802742  0.2998246270004183   T   T   T
  0.7502868895998476  0.7272624815854071  0.2923597947600102   T   T   T
  0.4990835345551481  0.8526069404496666  0.2920668014136865   T   T   T
  0.7503546988734764  0.8946508967004443  0.2917966555540658   T   T   T
  0.7504195610308029  0.9789237848066675  0.2920303438160233   T   T   T
  0.4987640607510649  0.7681944562884480  0.2928476761688238   T   T   T
  0.7502951269617841  0.6444862441095202  0.2943178673597282   T   T   T
  0.0006909200050404  0.0214050917152392  0.2925740423757286   T   T   T
  0.5100644550461544  0.5228478120367357  0.3100276777799562   T   T   T
  0.9891668712311721  0.5228916262752539  0.3130105320338687   T   T   T
  0.5123790891907599  0.3536785300028714  0.3109562255560628   T   T   T
 -0.0122683499238983  0.3538094907107580  0.3129939032490826   T   T   T
  0.2500419022940656  0.6414703433092072  0.2990786274164179   T   T   T
  0.2527709409262146  0.4379334545400185  0.3415631248192187   T   T   T
 
  0.00000000E+00  0.00000000E+00  0.00000000E+00
  0.00000000E+00  0.00000000E+00  0.00000000E+00
  0.00000000E+00  0.00000000E+00  0.00000000E+00
  0.00000000E+00  0.00000000E+00  0.00000000E+00
  0.00000000E+00  0.00000000E+00  0.00000000E+00
  0.00000000E+00  0.00000000E+00  0.00000000E+00
  0.00000000E+00  0.00000000E+00  0.00000000E+00
  0.00000000E+00  0.00000000E+00  0.00000000E+00
  0.00000000E+00  0.00000000E+00  0.00000000E+00
  0.00000000E+00  0.00000000E+00  0.00000000E+00
  0.00000000E+00  0.00000000E+00  0.00000000E+00
  0.00000000E+00  0.00000000E+00  0.00000000E+00
  0.00000000E+00  0.00000000E+00  0.00000000E+00
  0.00000000E+00  0.00000000E+00  0.00000000E+00
  0.00000000E+00  0.00000000E+00  0.00000000E+00
  0.00000000E+00  0.00000000E+00  0.00000000E+00
  0.00000000E+00  0.00000000E+00  0.00000000E+00
  0.00000000E+00  0.00000000E+00  0.00000000E+00
  0.00000000E+00  0.00000000E+00  0.00000000E+00
  0.00000000E+00  0.00000000E+00  0.00000000E+00
  0.00000000E+00  0.00000000E+00  0.00000000E+00
  0.00000000E+00  0.00000000E+00  0.00000000E+00
  0.00000000E+00  0.00000000E+00  0.00000000E+00
  0.00000000E+00  0.00000000E+00  0.00000000E+00
  0.00000000E+00  0.00000000E+00  0.00000000E+00
  0.00000000E+00  0.00000000E+00  0.00000000E+00
  0.00000000E+00  0.00000000E+00  0.00000000E+00
  0.00000000E+00  0.00000000E+00  0.00000000E+00
  0.00000000E+00  0.00000000E+00  0.00000000E+00
  0.00000000E+00  0.00000000E+00  0.00000000E+00
  0.00000000E+00  0.00000000E+00  0.00000000E+00
