Title                                   
   1.00000000000000     
     9.8694509999999998    0.0000000000000000    0.0000000000000000
     0.0000000000000000    8.5490480000000009    0.0000000000000000
     0.0000000000000000    0.0000000000000000   20.0000000000000000
    27     3     1
Selective dynamics
Direct
  0.0551592679814178  0.0891794201458266  0.0863305747616386   T   T   T
  0.9310362036282364  0.1737297183205305  0.0880550874249045   T   T   T
  0.0577628490769681  0.9234888103807015  0.0864854230208753   T   T   T
  0.9323251332769837  0.3407881073732201  0.0848732867879973   T   T   T
  0.0573478125831118  0.5903205709183158  0.0816924856484705   T   T   T
  0.9344409425508668  0.6754653403240839  0.0840774512040529   T   T   T
  0.0564259757159322  0.4227240551395515  0.0815682888822438   T   T   T
  0.9328715634381550  0.8415346539352430  0.0860818351299444   T   T   T
  0.3047612503157392  0.0856709270219266  0.0936881387500411   T   T   T
  0.1801830474412438  0.1694842277702498  0.0871109696947747   T   T   T
  0.1788302515386812  0.3363440265790920  0.0857006101221173   T   T   T
  0.3032764290771532  0.5874112819201163  0.0974166044803097   T   T   T
  0.1816035755150735  0.6727187483134608  0.0864725183177351   T   T   T
  0.3022964016525027  0.4161691529125047  0.0933126088269670   T   T   T
  0.1823141689103176  0.8391215980545264  0.0890566535966479   T   T   T
  0.5562775948368290  0.0909422371735410  0.1046638141087979   T   T   T
  0.4267306915256723  0.1736129726693042  0.0997716989097785   T   T   T
  0.5554981972794547  0.9215556130561483  0.1034592758268957   T   T   T
  0.4199641526121738  0.6706964872444252  0.1161029600564586   T   T   T
  0.4283557679070909  0.8342668428293066  0.1062289788189235   T   T   T
  0.8056706665479326  0.0918418919979669  0.0944275028622552   T   T   T
  0.6827178600654946  0.1786016038087856  0.1052348270097550   T   T   T
  0.8070811508883782  0.9247316634122695  0.0919551833175467   T   T   T
  0.6918452523835552  0.3445687008053041  0.1140399417244448   T   T   T
  0.8100780216279553  0.5959498733119111  0.0893425294312918   T   T   T
  0.8093581611756726  0.4245693080333374  0.0941792328115340   T   T   T
  0.6845470516570230  0.8363501146605715  0.0965736990285120   T   T   T
  0.4192079571549737  0.3336591417467976  0.0975605256291265   T   T   T
  0.6918761171027165  0.6763419558050832  0.0921407593091066   T   T   T
  0.3058590261431098  0.9211217102204448  0.0953035198910156   T   T   T
  0.5574324583895877  0.5079142441154818  0.1280580146158719   T   T   T
 
  0.00000000E+00  0.00000000E+00  0.00000000E+00
  0.00000000E+00  0.00000000E+00  0.00000000E+00
  0.00000000E+00  0.00000000E+00  0.00000000E+00
  0.00000000E+00  0.00000000E+00  0.00000000E+00
  0.00000000E+00  0.00000000E+00  0.00000000E+00
  0.00000000E+00  0.00000000E+00  0.00000000E+00
  0.00000000E+00  0.00000000E+00  0.00000000E+00
  0.00000000E+00  0.00000000E+00  0.00000000E+00
  0.00000000E+00  0.00000000E+00  0.00000000E+00
  0.00000000E+00  0.00000000E+00  0.00000000E+00
  0.00000000E+00  0.00000000E+00  0.00000000E+00
  0.00000000E+00  0.00000000E+00  0.00000000E+00
  0.00000000E+00  0.00000000E+00  0.00000000E+00
  0.00000000E+00  0.00000000E+00  0.00000000E+00
  0.00000000E+00  0.00000000E+00  0.00000000E+00
  0.00000000E+00  0.00000000E+00  0.00000000E+00
  0.00000000E+00  0.00000000E+00  0.00000000E+00
  0.00000000E+00  0.00000000E+00  0.00000000E+00
  0.00000000E+00  0.00000000E+00  0.00000000E+00
  0.00000000E+00  0.00000000E+00  0.00000000E+00
  0.00000000E+00  0.00000000E+00  0.00000000E+00
  0.00000000E+00  0.00000000E+00  0.00000000E+00
  0.00000000E+00  0.00000000E+00  0.00000000E+00
  0.00000000E+00  0.00000000E+00  0.00000000E+00
  0.00000000E+00  0.00000000E+00  0.00000000E+00
  0.00000000E+00  0.00000000E+00  0.00000000E+00
  0.00000000E+00  0.00000000E+00  0.00000000E+00
  0.00000000E+00  0.00000000E+00  0.00000000E+00
  0.00000000E+00  0.00000000E+00  0.00000000E+00
  0.00000000E+00  0.00000000E+00  0.00000000E+00
  0.00000000E+00  0.00000000E+00  0.00000000E+00
