Title                                   
   1.00000000000000     
     4.9440799999999996    0.0000000000000000    0.0000000000000000
     0.0000000000000000    8.5647549999999999    0.0000000000000000
     0.0000000000000000    0.0000000000000000   20.0000000000000000
    11     4     1
Selective dynamics
Direct
 -0.0051355815186263  0.2933303131151709  0.0921039698531134   T   T   T
  0.2500000000000000  0.0448848674607217  0.0904528396257792   T   T   T
  0.0048439182102315  0.7948493158460969  0.1008994031086211   T   T   T
  0.0007322165996389  0.9612204943910129  0.0911537464929975   T   T   T
  0.7500000000000000  0.2059577181425820  0.0878720793731606   T   T   T
  0.5051355815186260  0.2933303131151709  0.0921039698531134   T   T   T
  0.7500000000000000  0.0413197688760602  0.0869934214383004   T   T   T
  0.7500000000000000  0.7042011152782677  0.1025970228086829   T   T   T
  0.4951560817897686  0.7948493158460969  0.1008994031086211   T   T   T
  0.7500000000000000  0.5319607378719504  0.1015711081371054   T   T   T
  0.4992677834003609  0.9612204943910129  0.0911537464929975   T   T   T
  0.5096578368256786  0.4504179353424704  0.1005995657972778   T   T   T
 -0.0096578368256784  0.4504179353424704  0.1005995657972778   T   T   T
  0.2500000000000000  0.7245251041134890  0.1115001875924226   T   T   T
  0.2500000000000000  0.2136185967312045  0.0898233173398111   T   T   T
  0.2500000000000000  0.5338959741362217  0.1721886531807280   T   T   T
 
  0.00000000E+00  0.00000000E+00  0.00000000E+00
  0.00000000E+00  0.00000000E+00  0.00000000E+00
  0.00000000E+00  0.00000000E+00  0.00000000E+00
  0.00000000E+00  0.00000000E+00  0.00000000E+00
  0.00000000E+00  0.00000000E+00  0.00000000E+00
  0.00000000E+00  0.00000000E+00  0.00000000E+00
  0.00000000E+00  0.00000000E+00  0.00000000E+00
  0.00000000E+00  0.00000000E+00  0.00000000E+00
  0.00000000E+00  0.00000000E+00  0.00000000E+00
  0.00000000E+00  0.00000000E+00  0.00000000E+00
  0.00000000E+00  0.00000000E+00  0.00000000E+00
  0.00000000E+00  0.00000000E+00  0.00000000E+00
  0.00000000E+00  0.00000000E+00  0.00000000E+00
  0.00000000E+00  0.00000000E+00  0.00000000E+00
  0.00000000E+00  0.00000000E+00  0.00000000E+00
  0.00000000E+00  0.00000000E+00  0.00000000E+00
