Title                                   
   1.00000000000000     
     9.8694509999999998    0.0000000000000000    0.0000000000000000
     0.0000000000000000    8.5490480000000009    0.0000000000000000
     0.0000000000000000    0.0000000000000000   20.0000000000000000
    31     1
Selective dynamics
Direct
  0.0562336257745272  0.0895251797945882  0.0849313785419748   T   T   T
  0.9314140788922447  0.1726770865788116  0.0866418638423713   T   T   T
  0.0562290357973044  0.9228359287544045  0.0851319502309440   T   T   T
  0.9311808926139230  0.3393997793695075  0.0887815246560100   T   T   T
  0.0562386246456940  0.5888684996048308  0.0869388412857337   T   T   T
  0.9321157927744044  0.6726421849114766  0.0890115928849256   T   T   T
  0.0562272739905065  0.4225541840246154  0.0873619681953395   T   T   T
  0.9315522059128362  0.8394120297017548  0.0875698584451497   T   T   T
  0.3055797055638302  0.0895161367385769  0.0890318345573956   T   T   T
  0.1810693745467153  0.1726789221003379  0.0866262935958967   T   T   T
  0.3053269313508581  0.9233813451356121  0.0903970033604436   T   T   T
  0.1812725120334551  0.3393987873498390  0.0887631679483711   T   T   T
  0.3039552582261301  0.5893068084595493  0.0976625468020841   T   T   T
  0.1803672161630422  0.6726417528884281  0.0889831753660079   T   T   T
  0.3051775518891594  0.4218749677409618  0.0960341519884640   T   T   T
  0.1809102660205384  0.8394118234839972  0.0875447037998099   T   T   T
  0.5562476759137083  0.0886248964395727  0.0950393551255327   T   T   T
  0.4306033151482379  0.1714720853820344  0.0938218321349785   T   T   T
  0.5562340089537628  0.9232892243840777  0.0984006816944539   T   T   T
  0.4301216009915866  0.3370996239852505  0.1001153120106663   T   T   T
  0.4223807961703013  0.6779547152509359  0.1092540304431718   T   T   T
  0.5562261795538362  0.4114918975058577  0.1112811128573673   T   T   T
  0.4296989607208949  0.8411767898298462  0.0992034704015227   T   T   T
  0.8069115758486302  0.0895123103282761  0.0890615847813250   T   T   T
  0.6818904429971816  0.1714692559467350  0.0938424404436799   T   T   T
  0.8071399774374159  0.9233855171094026  0.0904278659582902   T   T   T
  0.6823390111397344  0.3370975796625258  0.1001361003349244   T   T   T
  0.8085435169225689  0.5892906389233474  0.0977092232048572   T   T   T
  0.6901604420840672  0.6779637281411635  0.1093119463893531   T   T   T
  0.8072838971968518  0.4218679059712466  0.0960684713887373   T   T   T
  0.6827670083481119  0.8411728579204808  0.0992296672890332   T   T   T
  0.5562402443779474  0.5912515565819636  0.1613600500412191   T   T   T
 
  0.00000000E+00  0.00000000E+00  0.00000000E+00
  0.00000000E+00  0.00000000E+00  0.00000000E+00
  0.00000000E+00  0.00000000E+00  0.00000000E+00
  0.00000000E+00  0.00000000E+00  0.00000000E+00
  0.00000000E+00  0.00000000E+00  0.00000000E+00
  0.00000000E+00  0.00000000E+00  0.00000000E+00
  0.00000000E+00  0.00000000E+00  0.00000000E+00
  0.00000000E+00  0.00000000E+00  0.00000000E+00
  0.00000000E+00  0.00000000E+00  0.00000000E+00
  0.00000000E+00  0.00000000E+00  0.00000000E+00
  0.00000000E+00  0.00000000E+00  0.00000000E+00
  0.00000000E+00  0.00000000E+00  0.00000000E+00
  0.00000000E+00  0.00000000E+00  0.00000000E+00
  0.00000000E+00  0.00000000E+00  0.00000000E+00
  0.00000000E+00  0.00000000E+00  0.00000000E+00
  0.00000000E+00  0.00000000E+00  0.00000000E+00
  0.00000000E+00  0.00000000E+00  0.00000000E+00
  0.00000000E+00  0.00000000E+00  0.00000000E+00
  0.00000000E+00  0.00000000E+00  0.00000000E+00
  0.00000000E+00  0.00000000E+00  0.00000000E+00
  0.00000000E+00  0.00000000E+00  0.00000000E+00
  0.00000000E+00  0.00000000E+00  0.00000000E+00
  0.00000000E+00  0.00000000E+00  0.00000000E+00
  0.00000000E+00  0.00000000E+00  0.00000000E+00
  0.00000000E+00  0.00000000E+00  0.00000000E+00
  0.00000000E+00  0.00000000E+00  0.00000000E+00
  0.00000000E+00  0.00000000E+00  0.00000000E+00
  0.00000000E+00  0.00000000E+00  0.00000000E+00
  0.00000000E+00  0.00000000E+00  0.00000000E+00
  0.00000000E+00  0.00000000E+00  0.00000000E+00
  0.00000000E+00  0.00000000E+00  0.00000000E+00
  0.00000000E+00  0.00000000E+00  0.00000000E+00
