Title                                   
   1.00000000000000     
     9.8694509999999998    0.0000000000000000    0.0000000000000000
     0.0000000000000000    8.5490480000000009    0.0000000000000000
     0.0000000000000000    0.0000000000000000   20.0000000000000000
    28     3     1
Selective dynamics
Direct
  0.0551695000319853  0.0916963948905266  0.0873462567394591   T   T   T
  0.9298552986291897  0.1725211408352645  0.0889445128992901   T   T   T
  0.0556104986052464  0.9244526954350413  0.0882189244682422   T   T   T
  0.9291871193455902  0.3402946558267750  0.0917042101779037   T   T   T
  0.0552081735751458  0.5901480605074332  0.0875767475297999   T   T   T
  0.9303575962975751  0.6723887165310349  0.0928585138210079   T   T   T
  0.0566813296786480  0.4232198922244536  0.0883931250502916   T   T   T
  0.9310717839766534  0.8388006590207849  0.0918644601951501   T   T   T
  0.3047851897162699  0.0892804526468983  0.0875989032409805   T   T   T
  0.1811343791734132  0.1740558367444135  0.0863539487147020   T   T   T
  0.1842294078179075  0.3424925911789166  0.0857073245934674   T   T   T
  0.3074738794323341  0.5954330165971963  0.0851022143178023   T   T   T
  0.1803001227681694  0.6748927121866144  0.0855511811754014   T   T   T
  0.3110642054070287  0.4264469745735322  0.0844535197014363   T   T   T
  0.1798348665740961  0.8418428196606137  0.0869217055662718   T   T   T
  0.5548088580740099  0.0833426550402675  0.0934857005627919   T   T   T
  0.4310119018479711  0.1690663469112980  0.0885711295329456   T   T   T
  0.5529080331031275  0.9184158967236158  0.0998525592132115   T   T   T
  0.4375953721361694  0.3370195890898003  0.0864194942410334   T   T   T
  0.4251331341780902  0.8359150568938226  0.0925135844529136   T   T   T
  0.8054963626770095  0.0866261171108737  0.0916516839721162   T   T   T
  0.6802078904437553  0.1677703525460358  0.0931747639374921   T   T   T
  0.8051625220887618  0.9201636126328883  0.0944223024862502   T   T   T
  0.6764869227454982  0.3344827145777781  0.0939633583477879   T   T   T
  0.8058880195343852  0.5898874916499488  0.1061141838746148   T   T   T
  0.6921704416056010  0.6780341180692806  0.1268139029266395   T   T   T
  0.8038882660634581  0.4215726561763278  0.0990014333299328   T   T   T
  0.6807572143382764  0.8359442638546557  0.1067356840277931   T   T   T
  0.4229457440170243  0.6819417103225391  0.0887999023399959   T   T   T
  0.5577318263358595  0.4124503830125578  0.0895526539690616   T   T   T
  0.3032109521515060  0.9252204622238760  0.0883779554032939   T   T   T
  0.5722721876302475  0.5944259543049449  0.2076291591909538   T   T   T
 
  0.00000000E+00  0.00000000E+00  0.00000000E+00
  0.00000000E+00  0.00000000E+00  0.00000000E+00
  0.00000000E+00  0.00000000E+00  0.00000000E+00
  0.00000000E+00  0.00000000E+00  0.00000000E+00
  0.00000000E+00  0.00000000E+00  0.00000000E+00
  0.00000000E+00  0.00000000E+00  0.00000000E+00
  0.00000000E+00  0.00000000E+00  0.00000000E+00
  0.00000000E+00  0.00000000E+00  0.00000000E+00
  0.00000000E+00  0.00000000E+00  0.00000000E+00
  0.00000000E+00  0.00000000E+00  0.00000000E+00
  0.00000000E+00  0.00000000E+00  0.00000000E+00
  0.00000000E+00  0.00000000E+00  0.00000000E+00
  0.00000000E+00  0.00000000E+00  0.00000000E+00
  0.00000000E+00  0.00000000E+00  0.00000000E+00
  0.00000000E+00  0.00000000E+00  0.00000000E+00
  0.00000000E+00  0.00000000E+00  0.00000000E+00
  0.00000000E+00  0.00000000E+00  0.00000000E+00
  0.00000000E+00  0.00000000E+00  0.00000000E+00
  0.00000000E+00  0.00000000E+00  0.00000000E+00
  0.00000000E+00  0.00000000E+00  0.00000000E+00
  0.00000000E+00  0.00000000E+00  0.00000000E+00
  0.00000000E+00  0.00000000E+00  0.00000000E+00
  0.00000000E+00  0.00000000E+00  0.00000000E+00
  0.00000000E+00  0.00000000E+00  0.00000000E+00
  0.00000000E+00  0.00000000E+00  0.00000000E+00
  0.00000000E+00  0.00000000E+00  0.00000000E+00
  0.00000000E+00  0.00000000E+00  0.00000000E+00
  0.00000000E+00  0.00000000E+00  0.00000000E+00
  0.00000000E+00  0.00000000E+00  0.00000000E+00
  0.00000000E+00  0.00000000E+00  0.00000000E+00
  0.00000000E+00  0.00000000E+00  0.00000000E+00
  0.00000000E+00  0.00000000E+00  0.00000000E+00
