Title                                   
   1.00000000000000     
     9.8694509999999998    0.0000000000000000    0.0000000000000000
     0.0000000000000000    8.5490480000000009    0.0000000000000000
     0.0000000000000000    0.0000000000000000   20.0000000000000000
    26     4     1
Selective dynamics
Direct
  0.0558755190359720  0.0892612855983500  0.0840846028817088   T   T   T
  0.9309838437492431  0.1723749572819258  0.0894906135660359   T   T   T
  0.0573907738623386  0.9231497407573324  0.0843862760884684   T   T   T
  0.9330270261911884  0.3396352322917625  0.0929925679275476   T   T   T
  0.0578203594148264  0.5895006695916651  0.0861145279015239   T   T   T
  0.9335159946741594  0.6724360199148853  0.0934540129918952   T   T   T
  0.0576482565939754  0.4226961396934185  0.0857596089527473   T   T   T
  0.9320308780261790  0.8394632979025457  0.0900928281770653   T   T   T
  0.3074182167333600  0.0873765634153149  0.0839372836020937   T   T   T
  0.1824015588236396  0.1721074335195337  0.0821045172161109   T   T   T
  0.1818433672471731  0.3388035031592625  0.0818433921955810   T   T   T
  0.3081959331742999  0.5902930552577088  0.0832912847376057   T   T   T
  0.1824258484816748  0.6730269742759936  0.0823539314105470   T   T   T
  0.3080074425314633  0.4207659179953601  0.0829624205274021   T   T   T
  0.1822611373416729  0.8391870745419679  0.0826310150693075   T   T   T
  0.4307780174479480  0.1743964121039140  0.0904514403367988   T   T   T
  0.5533455154778643  0.9224931576474489  0.1002178949592514   T   T   T
  0.4299950320345562  0.8384974677136434  0.0913504519963425   T   T   T
  0.8051609367912228  0.0889746723211112  0.0933418826811184   T   T   T
  0.6818298319771170  0.1763376768939686  0.1037923928660332   T   T   T
  0.8064721467668462  0.9226619640502479  0.0941348011608724   T   T   T
  0.6874206866199868  0.3365620014258962  0.1182651133032480   T   T   T
  0.8113644073986523  0.5914194476050593  0.1079056501543562   T   T   T
  0.6887943736408602  0.6755850443863499  0.1191347615075829   T   T   T
  0.8112264821272287  0.4202951973044140  0.1077017680145781   T   T   T
  0.6819750316497821  0.8378902365364778  0.1052970774355813   T   T   T
  0.5543077604460649  0.0927289976016124  0.0994145542300273   T   T   T
  0.4274014695522347  0.3339750799141069  0.0904369553992041   T   T   T
  0.4264629958910785  0.6778975324559809  0.0907498891893831   T   T   T
  0.3065497961418152  0.9232471418115160  0.0837163408019457   T   T   T
  0.5292043601555956  0.5078351050312335  0.1595551427180841   T   T   T
 
  0.00000000E+00  0.00000000E+00  0.00000000E+00
  0.00000000E+00  0.00000000E+00  0.00000000E+00
  0.00000000E+00  0.00000000E+00  0.00000000E+00
  0.00000000E+00  0.00000000E+00  0.00000000E+00
  0.00000000E+00  0.00000000E+00  0.00000000E+00
  0.00000000E+00  0.00000000E+00  0.00000000E+00
  0.00000000E+00  0.00000000E+00  0.00000000E+00
  0.00000000E+00  0.00000000E+00  0.00000000E+00
  0.00000000E+00  0.00000000E+00  0.00000000E+00
  0.00000000E+00  0.00000000E+00  0.00000000E+00
  0.00000000E+00  0.00000000E+00  0.00000000E+00
  0.00000000E+00  0.00000000E+00  0.00000000E+00
  0.00000000E+00  0.00000000E+00  0.00000000E+00
  0.00000000E+00  0.00000000E+00  0.00000000E+00
  0.00000000E+00  0.00000000E+00  0.00000000E+00
  0.00000000E+00  0.00000000E+00  0.00000000E+00
  0.00000000E+00  0.00000000E+00  0.00000000E+00
  0.00000000E+00  0.00000000E+00  0.00000000E+00
  0.00000000E+00  0.00000000E+00  0.00000000E+00
  0.00000000E+00  0.00000000E+00  0.00000000E+00
  0.00000000E+00  0.00000000E+00  0.00000000E+00
  0.00000000E+00  0.00000000E+00  0.00000000E+00
  0.00000000E+00  0.00000000E+00  0.00000000E+00
  0.00000000E+00  0.00000000E+00  0.00000000E+00
  0.00000000E+00  0.00000000E+00  0.00000000E+00
  0.00000000E+00  0.00000000E+00  0.00000000E+00
  0.00000000E+00  0.00000000E+00  0.00000000E+00
  0.00000000E+00  0.00000000E+00  0.00000000E+00
  0.00000000E+00  0.00000000E+00  0.00000000E+00
  0.00000000E+00  0.00000000E+00  0.00000000E+00
  0.00000000E+00  0.00000000E+00  0.00000000E+00
