Title                                   
   1.00000000000000     
     8.5490480000000009    0.0000000000000000    0.0000000000000000
     0.0000000000000000    8.5490480000000009    0.0000000000000000
     0.0000000000000000    0.0000000000000000   20.0000000000000000
    21     3     1
Selective dynamics
Direct
  0.9104723986829246  0.2068780967343049  0.0954329719154007   T   T   T
  0.9040404202278083  0.5032476301608682  0.0952970894284328   T   T   T
  0.9091541951337503  0.7979671354459699  0.0954483386520443   T   T   T
  0.2004610875713302  0.0846852581204926  0.0954743602542693   T   T   T
  0.0759162942227443  0.2091996048921312  0.0954385477293663   T   T   T
  0.1981613404125875  0.9192337434024901  0.0954798323359408   T   T   T
  0.1576924764992712  0.6505540561179334  0.0953254593833250   T   T   T
  0.0755675180800516  0.5037127536719224  0.0953100135214156   T   T   T
  0.1587990137439406  0.3588559854889406  0.0953464382638030   T   T   T
  0.0760881938118619  0.7977209394996183  0.0954533447226941   T   T   T
  0.4948910783996925  0.0843706926347494  0.0953593064543704   T   T   T
  0.3500588760035634  0.1676093948991662  0.0953833117633919   T   T   T
  0.4944522255515987  0.9128389418299848  0.0953489718916479   T   T   T
  0.3470716667401810  0.8319244703275425  0.0953558044816098   T   T   T
  0.7889229428481092  0.0848303459338163  0.0954489762527807   T   T   T
  0.6417432634967112  0.1664734193944209  0.0953220748561766   T   T   T
  0.7891867364136711  0.9179091728083608  0.0954559653586666   T   T   T
  0.8243443881064585  0.6499762509874326  0.0953000470420553   T   T   T
  0.8231703684788778  0.3558221789142754  0.0953022231049375   T   T   T
  0.6411640778181792  0.8331098169847293  0.0953186642463350   T   T   T
  0.3276043247287269  0.3363984787504292  0.0953043847312230   T   T   T
  0.3220175171015372  0.6709077830561033  0.0952158199704399   T   T   T
  0.6621214794875899  0.3307436735186939  0.0951917547924965   T   T   T
  0.6628128878395427  0.6716076500336090  0.0951889753167960   T   T   T
  0.4894972285992830  0.4982125263920287  0.0952023235303587   T   T   T
 
  0.00000000E+00  0.00000000E+00  0.00000000E+00
  0.00000000E+00  0.00000000E+00  0.00000000E+00
  0.00000000E+00  0.00000000E+00  0.00000000E+00
  0.00000000E+00  0.00000000E+00  0.00000000E+00
  0.00000000E+00  0.00000000E+00  0.00000000E+00
  0.00000000E+00  0.00000000E+00  0.00000000E+00
  0.00000000E+00  0.00000000E+00  0.00000000E+00
  0.00000000E+00  0.00000000E+00  0.00000000E+00
  0.00000000E+00  0.00000000E+00  0.00000000E+00
  0.00000000E+00  0.00000000E+00  0.00000000E+00
  0.00000000E+00  0.00000000E+00  0.00000000E+00
  0.00000000E+00  0.00000000E+00  0.00000000E+00
  0.00000000E+00  0.00000000E+00  0.00000000E+00
  0.00000000E+00  0.00000000E+00  0.00000000E+00
  0.00000000E+00  0.00000000E+00  0.00000000E+00
  0.00000000E+00  0.00000000E+00  0.00000000E+00
  0.00000000E+00  0.00000000E+00  0.00000000E+00
  0.00000000E+00  0.00000000E+00  0.00000000E+00
  0.00000000E+00  0.00000000E+00  0.00000000E+00
  0.00000000E+00  0.00000000E+00  0.00000000E+00
  0.00000000E+00  0.00000000E+00  0.00000000E+00
  0.00000000E+00  0.00000000E+00  0.00000000E+00
  0.00000000E+00  0.00000000E+00  0.00000000E+00
  0.00000000E+00  0.00000000E+00  0.00000000E+00
  0.00000000E+00  0.00000000E+00  0.00000000E+00
