Title                                   
   1.00000000000000     
     4.9440799999999996    0.0000000000000000    0.0000000000000000
     0.0000000000000000   17.1295089999999988    0.0000000000000000
     0.0000000000000000    0.0000000000000000   20.0000000000000000
    28     3     1
Selective dynamics
Direct
  0.0028284420685359  0.1047780831772469  0.2842791511686044   T   T   T
  0.2531206154629996  0.1468079641049739  0.2875274786038725   T   T   T
  0.2550563985565371  0.2297919050783360  0.2968380660165639   T   T   T
  0.0113026319730808  0.3511081110759879  0.3181549500405632   T   T   T
  0.0034839584042421  0.2710595717257689  0.3015646145522195   T   T   T
 -0.0107338540473894  0.6040812175023337  0.3075999822655227   T   T   T
  0.2452159236668690  0.7278182543956890  0.2930420708261023   T   T   T
 -0.0017450753031016  0.8536933209227623  0.2829954520431992   T   T   T
  0.2483504753678432  0.8957499065546403  0.2818808700574050   T   T   T
  0.2503041976209244  0.9793421284626599  0.2808957467178291   T   T   T
 -0.0033592239521643  0.7702180420553398  0.2879063384436621   T   T   T
  0.5023492598154052  0.1047816772237247  0.2843635347944924   T   T   T
  0.7531248973776752  0.1467396970549651  0.2866168942308208   T   T   T
  0.7547653530125705  0.2292104828323888  0.2941527311941667   T   T   T
  0.5008477278117714  0.0213164308227802  0.2812823847124035   T   T   T
  0.5029011895453354  0.3512863508381543  0.3187590087690066   T   T   T
  0.7505389369821436  0.4817728223646623  0.3241353709544044   T   T   T
  0.5073510859608068  0.2709615658866008  0.3018147551625502   T   T   T
  0.4973349208729335  0.6050096446250929  0.3125965601379567   T   T   T
  0.7457491238047450  0.7290993816960526  0.2914244270828447   T   T   T
  0.4974102706446774  0.8536703141120856  0.2834270504508167   T   T   T
  0.7484175259642738  0.8955965736766217  0.2815560485910842   T   T   T
  0.7503324756590060  0.9792289823099021  0.2805748620229381   T   T   T
  0.4954493317587669  0.7702509342134037  0.2888728140548313   T   T   T
  0.7434189868601397  0.6464780450745945  0.3013667761761983   T   T   T
  0.2442102806687669  0.6449859757418751  0.3046308398842428   T   T   T
  0.0008869025578722  0.0213522608476138  0.2811975841302514   T   T   T
  0.5129588485751257  0.5252461522242194  0.3340615899251281   T   T   T
  0.9841869223175900  0.5242665494935933  0.3171794363733014   T   T   T
  0.2579374282954845  0.3849178483951217  0.3335389715961582   T   T   T
  0.7576372242734807  0.3961535510752180  0.3231717861136974   T   T   T
  0.2351898174230585  0.4817772544355852  0.3751568529071140   T   T   T
 
  0.00000000E+00  0.00000000E+00  0.00000000E+00
  0.00000000E+00  0.00000000E+00  0.00000000E+00
  0.00000000E+00  0.00000000E+00  0.00000000E+00
  0.00000000E+00  0.00000000E+00  0.00000000E+00
  0.00000000E+00  0.00000000E+00  0.00000000E+00
  0.00000000E+00  0.00000000E+00  0.00000000E+00
  0.00000000E+00  0.00000000E+00  0.00000000E+00
  0.00000000E+00  0.00000000E+00  0.00000000E+00
  0.00000000E+00  0.00000000E+00  0.00000000E+00
  0.00000000E+00  0.00000000E+00  0.00000000E+00
  0.00000000E+00  0.00000000E+00  0.00000000E+00
  0.00000000E+00  0.00000000E+00  0.00000000E+00
  0.00000000E+00  0.00000000E+00  0.00000000E+00
  0.00000000E+00  0.00000000E+00  0.00000000E+00
  0.00000000E+00  0.00000000E+00  0.00000000E+00
  0.00000000E+00  0.00000000E+00  0.00000000E+00
  0.00000000E+00  0.00000000E+00  0.00000000E+00
  0.00000000E+00  0.00000000E+00  0.00000000E+00
  0.00000000E+00  0.00000000E+00  0.00000000E+00
  0.00000000E+00  0.00000000E+00  0.00000000E+00
  0.00000000E+00  0.00000000E+00  0.00000000E+00
  0.00000000E+00  0.00000000E+00  0.00000000E+00
  0.00000000E+00  0.00000000E+00  0.00000000E+00
  0.00000000E+00  0.00000000E+00  0.00000000E+00
  0.00000000E+00  0.00000000E+00  0.00000000E+00
  0.00000000E+00  0.00000000E+00  0.00000000E+00
  0.00000000E+00  0.00000000E+00  0.00000000E+00
  0.00000000E+00  0.00000000E+00  0.00000000E+00
  0.00000000E+00  0.00000000E+00  0.00000000E+00
  0.00000000E+00  0.00000000E+00  0.00000000E+00
  0.00000000E+00  0.00000000E+00  0.00000000E+00
  0.00000000E+00  0.00000000E+00  0.00000000E+00
