Title                                   
   1.00000000000000     
     9.8694509999999998    0.0000000000000000    0.0000000000000000
     0.0000000000000000    8.5490480000000009    0.0000000000000000
     0.0000000000000000    0.0000000000000000   20.0000000000000000
    25     5     1
Selective dynamics
Direct
  0.0553724902127243  0.0883244919601384  0.0932294199869697   T   T   T
  0.9308641110117212  0.1710465008400219  0.0946878609990937   T   T   T
  0.0571845796167105  0.9215931146906079  0.0934645489484902   T   T   T
  0.9344406954626228  0.3382353312879277  0.0949686829967781   T   T   T
  0.0569761187301413  0.5902057242967157  0.0931364345493880   T   T   T
  0.0572000171247689  0.4238406501822669  0.0929279532071972   T   T   T
  0.9316257872197158  0.8383572566852711  0.0948725419728244   T   T   T
  0.3066572309592040  0.0888171164504156  0.0928580736595104   T   T   T
  0.1810325088642076  0.1714992289322019  0.0923071058796442   T   T   T
  0.1806817580499439  0.3391007763292165  0.0918317014054148   T   T   T
  0.3032382708741135  0.5897957468802018  0.0921303041836702   T   T   T
  0.1803181632127946  0.6738620257238110  0.0923125641056011   T   T   T
  0.3040542569395688  0.4215410515640398  0.0919355414830704   T   T   T
  0.1816004008565359  0.8402654258470443  0.0928160119139102   T   T   T
  0.4295378905635434  0.1769224825241378  0.0940954363651046   T   T   T
  0.5532914504730363  0.9216066101251235  0.0962710437452689   T   T   T
  0.4287786127896164  0.8361280104323806  0.0944220999747628   T   T   T
  0.8045157246572413  0.0889534838771584  0.0960473951931771   T   T   T
  0.6803858577358729  0.1786200203325725  0.0974831051557146   T   T   T
  0.8055606174521823  0.9203867990243548  0.0961574206471975   T   T   T
  0.6862103901516955  0.3448993506197730  0.0994804969701630   T   T   T
  0.8133570308762820  0.5914017055395975  0.0979051532779867   T   T   T
  0.6877045895709539  0.6680710057092326  0.0994385443557645   T   T   T
  0.8138237748871923  0.4215194351879673  0.0978713583846219   T   T   T
  0.6795785764241508  0.8357322419743436  0.0975985016022180   T   T   T
  0.9346419696279012  0.6728667506215275  0.0951459333898047   T   T   T
  0.5542220434284105  0.0942783000550330  0.0960827032751179   T   T   T
  0.4253326962802377  0.3383023883068689  0.0936775673152589   T   T   T
  0.4238371624265665  0.6746545898904015  0.0939690985953558   T   T   T
  0.3054753565753683  0.9226415834976971  0.0930054205276746   T   T   T
  0.5556348669449920  0.5074058006119564  0.0988349759332942   T   T   T
 
  0.00000000E+00  0.00000000E+00  0.00000000E+00
  0.00000000E+00  0.00000000E+00  0.00000000E+00
  0.00000000E+00  0.00000000E+00  0.00000000E+00
  0.00000000E+00  0.00000000E+00  0.00000000E+00
  0.00000000E+00  0.00000000E+00  0.00000000E+00
  0.00000000E+00  0.00000000E+00  0.00000000E+00
  0.00000000E+00  0.00000000E+00  0.00000000E+00
  0.00000000E+00  0.00000000E+00  0.00000000E+00
  0.00000000E+00  0.00000000E+00  0.00000000E+00
  0.00000000E+00  0.00000000E+00  0.00000000E+00
  0.00000000E+00  0.00000000E+00  0.00000000E+00
  0.00000000E+00  0.00000000E+00  0.00000000E+00
  0.00000000E+00  0.00000000E+00  0.00000000E+00
  0.00000000E+00  0.00000000E+00  0.00000000E+00
  0.00000000E+00  0.00000000E+00  0.00000000E+00
  0.00000000E+00  0.00000000E+00  0.00000000E+00
  0.00000000E+00  0.00000000E+00  0.00000000E+00
  0.00000000E+00  0.00000000E+00  0.00000000E+00
  0.00000000E+00  0.00000000E+00  0.00000000E+00
  0.00000000E+00  0.00000000E+00  0.00000000E+00
  0.00000000E+00  0.00000000E+00  0.00000000E+00
  0.00000000E+00  0.00000000E+00  0.00000000E+00
  0.00000000E+00  0.00000000E+00  0.00000000E+00
  0.00000000E+00  0.00000000E+00  0.00000000E+00
  0.00000000E+00  0.00000000E+00  0.00000000E+00
  0.00000000E+00  0.00000000E+00  0.00000000E+00
  0.00000000E+00  0.00000000E+00  0.00000000E+00
  0.00000000E+00  0.00000000E+00  0.00000000E+00
  0.00000000E+00  0.00000000E+00  0.00000000E+00
  0.00000000E+00  0.00000000E+00  0.00000000E+00
  0.00000000E+00  0.00000000E+00  0.00000000E+00
