Title                                   
   1.00000000000000     
     9.8694509999999998    0.0000000000000000    0.0000000000000000
     0.0000000000000000    8.5490480000000009    0.0000000000000000
     0.0000000000000000    0.0000000000000000   20.0000000000000000
    27     3     1
Selective dynamics
Direct
  0.0550277616086019  0.0886426656276050  0.0852830298306810   T   T   T
  0.9306937206421343  0.1712910298758935  0.0858390409793333   T   T   T
  0.0568675523990483  0.9219459292454361  0.0861963071741068   T   T   T
  0.9328250908448784  0.3387203990696998  0.0846163601123093   T   T   T
  0.0557800801809062  0.5906365484871299  0.0833710866519922   T   T   T
  0.0561330185697554  0.4243437313189237  0.0823255137164757   T   T   T
  0.9306101478205664  0.8384320417115986  0.0875271399883037   T   T   T
  0.3084753108854367  0.0901380335637337  0.0918343951900113   T   T   T
  0.1821637903502243  0.1714399915230336  0.0864427840262151   T   T   T
  0.1803372711445559  0.3388591774399963  0.0851140021753187   T   T   T
  0.3003228227115471  0.5900500724587479  0.0941303126068821   T   T   T
  0.1797441535580748  0.6754105424656972  0.0863540623708909   T   T   T
  0.3015197819624775  0.4228740900488678  0.0932874681472412   T   T   T
  0.1821656848117549  0.8417477180576050  0.0879423871925441   T   T   T
  0.4325286546307066  0.1773941442931441  0.0990583464268744   T   T   T
  0.5552391595537305  0.9227033430496761  0.1017417808018552   T   T   T
  0.4268982495954895  0.3451021933445196  0.1054395823842357   T   T   T
  0.4240955337992995  0.6691856545384769  0.1094054874253070   T   T   T
  0.4302893001919090  0.8361789561770863  0.1016301726863823   T   T   T
  0.8036916118158661  0.0887109615912706  0.0908524813960142   T   T   T
  0.6802098713211350  0.1766304560542117  0.0981857494032700   T   T   T
  0.8050134882956099  0.9196397288658075  0.0919979444346891   T   T   T
  0.6866669509638073  0.3439888188436495  0.1062797368712238   T   T   T
  0.8122860871461329  0.5903434625594285  0.0942631740025454   T   T   T
  0.6873211418437123  0.6669183212369630  0.1069895628401880   T   T   T
  0.8125157148232625  0.4218520912234562  0.0929846573966111   T   T   T
  0.6783365483029911  0.8354684678694867  0.0996512060696121   T   T   T
  0.9324414350656910  0.6723185749278752  0.0861862448671681   T   T   T
  0.5567140776273213  0.0918478840913585  0.1007718021255683   T   T   T
  0.3068734828031321  0.9227040636879527  0.0924226183706904   T   T   T
  0.5593475047302433  0.5053559067516893  0.1428405623354862   T   T   T
 
  0.00000000E+00  0.00000000E+00  0.00000000E+00
  0.00000000E+00  0.00000000E+00  0.00000000E+00
  0.00000000E+00  0.00000000E+00  0.00000000E+00
  0.00000000E+00  0.00000000E+00  0.00000000E+00
  0.00000000E+00  0.00000000E+00  0.00000000E+00
  0.00000000E+00  0.00000000E+00  0.00000000E+00
  0.00000000E+00  0.00000000E+00  0.00000000E+00
  0.00000000E+00  0.00000000E+00  0.00000000E+00
  0.00000000E+00  0.00000000E+00  0.00000000E+00
  0.00000000E+00  0.00000000E+00  0.00000000E+00
  0.00000000E+00  0.00000000E+00  0.00000000E+00
  0.00000000E+00  0.00000000E+00  0.00000000E+00
  0.00000000E+00  0.00000000E+00  0.00000000E+00
  0.00000000E+00  0.00000000E+00  0.00000000E+00
  0.00000000E+00  0.00000000E+00  0.00000000E+00
  0.00000000E+00  0.00000000E+00  0.00000000E+00
  0.00000000E+00  0.00000000E+00  0.00000000E+00
  0.00000000E+00  0.00000000E+00  0.00000000E+00
  0.00000000E+00  0.00000000E+00  0.00000000E+00
  0.00000000E+00  0.00000000E+00  0.00000000E+00
  0.00000000E+00  0.00000000E+00  0.00000000E+00
  0.00000000E+00  0.00000000E+00  0.00000000E+00
  0.00000000E+00  0.00000000E+00  0.00000000E+00
  0.00000000E+00  0.00000000E+00  0.00000000E+00
  0.00000000E+00  0.00000000E+00  0.00000000E+00
  0.00000000E+00  0.00000000E+00  0.00000000E+00
  0.00000000E+00  0.00000000E+00  0.00000000E+00
  0.00000000E+00  0.00000000E+00  0.00000000E+00
  0.00000000E+00  0.00000000E+00  0.00000000E+00
  0.00000000E+00  0.00000000E+00  0.00000000E+00
  0.00000000E+00  0.00000000E+00  0.00000000E+00
