Title                                   
   1.00000000000000     
     9.8694509999999998    0.0000000000000000    0.0000000000000000
     0.0000000000000000    8.5490480000000009    0.0000000000000000
     0.0000000000000000    0.0000000000000000   20.0000000000000000
    25     5     1
Selective dynamics
Direct
  0.0556258680642843  0.0906062039357907  0.0903690771352381   T   T   T
  0.9299303727972851  0.1734656226139208  0.0906784440026067   T   T   T
  0.0577450192576142  0.9235732828562544  0.0902948918438370   T   T   T
  0.9322901055857110  0.3410118315171761  0.0902032214189803   T   T   T
  0.0573635374440198  0.5896416588862794  0.0885295992541713   T   T   T
  0.9334510123276811  0.6739966512961656  0.0905291355815393   T   T   T
  0.0572678031373374  0.4231442648185329  0.0888445417931483   T   T   T
  0.9325552159395307  0.8408537071902921  0.0914287661009112   T   T   T
  0.3075890475780336  0.0877546909347522  0.0948439771348022   T   T   T
  0.1813687060809471  0.1717732221450336  0.0920731872742554   T   T   T
  0.1813655703439369  0.3385852935596785  0.0914225741186785   T   T   T
  0.3049690920946289  0.5887965987207210  0.0954938460490111   T   T   T
  0.1817581110262453  0.6729389323446202  0.0901523143988128   T   T   T
  0.3050835999392688  0.4208641514808470  0.0975071325158333   T   T   T
  0.1818647005619112  0.8394731343880297  0.0908695626889716   T   T   T
  0.4291654613519499  0.1740612874080362  0.1013941042610691   T   T   T
  0.5545239628729930  0.9190912665670880  0.1014674026615730   T   T   T
  0.4290829110069032  0.8350898644782875  0.0995809212616584   T   T   T
  0.8036034817511694  0.0897519596316940  0.0934193810141785   T   T   T
  0.6791741674404776  0.1769038097707019  0.0979429719751658   T   T   T
  0.8062245548577535  0.9227425391862945  0.0943265076375183   T   T   T
  0.6831738556056275  0.3419024409557025  0.1008015801137099   T   T   T
  0.8103415802201001  0.5933532657414855  0.0960286143751961   T   T   T
  0.8082415920669325  0.4242976620390957  0.0945412381215703   T   T   T
  0.6826200409480740  0.8353325651741871  0.1007402854753189   T   T   T
  0.5547455717314723  0.0914367841258739  0.1011933194619390   T   T   T
  0.4247226656219925  0.3354606229645165  0.1093469491853781   T   T   T
  0.6895715417193823  0.6737978607701117  0.1064028964623612   T   T   T
  0.4241700466890637  0.6747977199285324  0.1036129492782242   T   T   T
  0.3068302789881791  0.9216987869021313  0.0935552085836516   T   T   T
  0.5567155249495027  0.5046773176681794  0.1333703988207268   T   T   T
 
  0.00000000E+00  0.00000000E+00  0.00000000E+00
  0.00000000E+00  0.00000000E+00  0.00000000E+00
  0.00000000E+00  0.00000000E+00  0.00000000E+00
  0.00000000E+00  0.00000000E+00  0.00000000E+00
  0.00000000E+00  0.00000000E+00  0.00000000E+00
  0.00000000E+00  0.00000000E+00  0.00000000E+00
  0.00000000E+00  0.00000000E+00  0.00000000E+00
  0.00000000E+00  0.00000000E+00  0.00000000E+00
  0.00000000E+00  0.00000000E+00  0.00000000E+00
  0.00000000E+00  0.00000000E+00  0.00000000E+00
  0.00000000E+00  0.00000000E+00  0.00000000E+00
  0.00000000E+00  0.00000000E+00  0.00000000E+00
  0.00000000E+00  0.00000000E+00  0.00000000E+00
  0.00000000E+00  0.00000000E+00  0.00000000E+00
  0.00000000E+00  0.00000000E+00  0.00000000E+00
  0.00000000E+00  0.00000000E+00  0.00000000E+00
  0.00000000E+00  0.00000000E+00  0.00000000E+00
  0.00000000E+00  0.00000000E+00  0.00000000E+00
  0.00000000E+00  0.00000000E+00  0.00000000E+00
  0.00000000E+00  0.00000000E+00  0.00000000E+00
  0.00000000E+00  0.00000000E+00  0.00000000E+00
  0.00000000E+00  0.00000000E+00  0.00000000E+00
  0.00000000E+00  0.00000000E+00  0.00000000E+00
  0.00000000E+00  0.00000000E+00  0.00000000E+00
  0.00000000E+00  0.00000000E+00  0.00000000E+00
  0.00000000E+00  0.00000000E+00  0.00000000E+00
  0.00000000E+00  0.00000000E+00  0.00000000E+00
  0.00000000E+00  0.00000000E+00  0.00000000E+00
  0.00000000E+00  0.00000000E+00  0.00000000E+00
  0.00000000E+00  0.00000000E+00  0.00000000E+00
  0.00000000E+00  0.00000000E+00  0.00000000E+00
