Title                                   
   1.00000000000000     
     4.9440799999999996    0.0000000000000000    0.0000000000000000
     0.0000000000000000    8.5647549999999999    0.0000000000000000
     0.0000000000000000    0.0000000000000000   20.0000000000000000
    14     1     1
Selective dynamics
Direct
 -0.0007420188003393  0.2891109392524728  0.0926819601656381   T   T   T
  0.2500000000000000  0.0431965643091989  0.0860503114279370   T   T   T
 -0.0001288771594697  0.7959507361621996  0.0992925448619867   T   T   T
 -0.0006988582393838  0.9604666368682931  0.0864745277201977   T   T   T
  0.7500000000000000  0.2062152066519316  0.0835162891204034   T   T   T
  0.5007420188003390  0.2891109392524728  0.0926819601656381   T   T   T
  0.7500000000000000  0.0419261300241498  0.0817810610678652   T   T   T
  0.7500000000000000  0.7087262055260303  0.1032793580232234   T   T   T
  0.5001288771594702  0.7959507361621996  0.0992925448619867   T   T   T
  0.7500000000000000  0.5389365578834518  0.1072498115204134   T   T   T
  0.5006988582393836  0.9604666368682931  0.0864745277201977   T   T   T
  0.5051078684518948  0.4477813475114066  0.1106265061395297   T   T   T
 -0.0051078684518946  0.4477813475114066  0.1106265061395297   T   T   T
  0.2500000000000000  0.7240854121095374  0.1137351337595569   T   T   T
  0.2500000000000000  0.2070751626183595  0.0894007126051329   T   T   T
  0.2500000000000000  0.5432194412885970  0.1693482447007731   T   T   T
 
  0.00000000E+00  0.00000000E+00  0.00000000E+00
  0.00000000E+00  0.00000000E+00  0.00000000E+00
  0.00000000E+00  0.00000000E+00  0.00000000E+00
  0.00000000E+00  0.00000000E+00  0.00000000E+00
  0.00000000E+00  0.00000000E+00  0.00000000E+00
  0.00000000E+00  0.00000000E+00  0.00000000E+00
  0.00000000E+00  0.00000000E+00  0.00000000E+00
  0.00000000E+00  0.00000000E+00  0.00000000E+00
  0.00000000E+00  0.00000000E+00  0.00000000E+00
  0.00000000E+00  0.00000000E+00  0.00000000E+00
  0.00000000E+00  0.00000000E+00  0.00000000E+00
  0.00000000E+00  0.00000000E+00  0.00000000E+00
  0.00000000E+00  0.00000000E+00  0.00000000E+00
  0.00000000E+00  0.00000000E+00  0.00000000E+00
  0.00000000E+00  0.00000000E+00  0.00000000E+00
  0.00000000E+00  0.00000000E+00  0.00000000E+00
