Title                                   
   1.00000000000000     
     9.8694509999999998    0.0000000000000000    0.0000000000000000
     0.0000000000000000    8.5490480000000009    0.0000000000000000
     0.0000000000000000    0.0000000000000000   20.0000000000000000
    28     2     1
Selective dynamics
Direct
  0.0558870749900306  0.0884541599444213  0.0903197259775567   T   T   T
  0.9316203597088717  0.1717900220070309  0.0920184724001230   T   T   T
  0.0576216922600326  0.9226751140761300  0.0901378067777422   T   T   T
  0.9341097124259369  0.3384425823071125  0.0894956674397493   T   T   T
  0.0574178609271714  0.5903119891722988  0.0859091614418736   T   T   T
  0.9338036176372378  0.6742996605103232  0.0886017145966416   T   T   T
  0.0572615283127007  0.4226201224022612  0.0864199241000195   T   T   T
  0.9317478029647966  0.8402766928765300  0.0895940329594918   T   T   T
  0.3055171307192741  0.0882020093899923  0.0940598142025855   T   T   T
  0.1802873245018857  0.1696472443674845  0.0901338875106521   T   T   T
  0.1793963469833899  0.3373393889911280  0.0889165503108369   T   T   T
  0.3039536889451497  0.5880422495235401  0.0948478866519898   T   T   T
  0.1816566122069554  0.6731972336567684  0.0878729111245418   T   T   T
  0.3021452919879619  0.4186880713783067  0.0919753504819706   T   T   T
  0.1820897171307731  0.8402365923626568  0.0912017133963086   T   T   T
  0.5551014559677895  0.0933477590834406  0.1011303604501733   T   T   T
  0.4282824584455401  0.1763571605360030  0.0967961764736227   T   T   T
  0.5540034072708790  0.9247922964827509  0.1000960560366915   T   T   T
  0.4224995193510596  0.6722436378947535  0.1119615132061563   T   T   T
  0.4289488180086189  0.8371764555615244  0.1033777411132672   T   T   T
  0.8059311137955638  0.0901813235080401  0.0964003326954840   T   T   T
  0.6822962023038123  0.1778706212034555  0.1034785744983592   T   T   T
  0.8058282308355096  0.9229577288925692  0.0933452539646865   T   T   T
  0.6917287966034046  0.3426068894418485  0.1105393296887175   T   T   T
  0.8105864332746547  0.5909447160715570  0.0915656747842870   T   T   T
  0.6872296669281061  0.6724173817394812  0.0890997704988013   T   T   T
  0.8123310041017746  0.4216857529789021  0.0960720767515721   T   T   T
  0.6798201214642482  0.8374897869837459  0.0947722870985531   T   T   T
  0.4217625838914558  0.3384800680473913  0.0926699757573925   T   T   T
  0.3061834877782398  0.9226042850104779  0.0958123363042892   T   T   T
  0.5560859382771930  0.5054960035980939  0.1123429213059114   T   T   T
 
  0.00000000E+00  0.00000000E+00  0.00000000E+00
  0.00000000E+00  0.00000000E+00  0.00000000E+00
  0.00000000E+00  0.00000000E+00  0.00000000E+00
  0.00000000E+00  0.00000000E+00  0.00000000E+00
  0.00000000E+00  0.00000000E+00  0.00000000E+00
  0.00000000E+00  0.00000000E+00  0.00000000E+00
  0.00000000E+00  0.00000000E+00  0.00000000E+00
  0.00000000E+00  0.00000000E+00  0.00000000E+00
  0.00000000E+00  0.00000000E+00  0.00000000E+00
  0.00000000E+00  0.00000000E+00  0.00000000E+00
  0.00000000E+00  0.00000000E+00  0.00000000E+00
  0.00000000E+00  0.00000000E+00  0.00000000E+00
  0.00000000E+00  0.00000000E+00  0.00000000E+00
  0.00000000E+00  0.00000000E+00  0.00000000E+00
  0.00000000E+00  0.00000000E+00  0.00000000E+00
  0.00000000E+00  0.00000000E+00  0.00000000E+00
  0.00000000E+00  0.00000000E+00  0.00000000E+00
  0.00000000E+00  0.00000000E+00  0.00000000E+00
  0.00000000E+00  0.00000000E+00  0.00000000E+00
  0.00000000E+00  0.00000000E+00  0.00000000E+00
  0.00000000E+00  0.00000000E+00  0.00000000E+00
  0.00000000E+00  0.00000000E+00  0.00000000E+00
  0.00000000E+00  0.00000000E+00  0.00000000E+00
  0.00000000E+00  0.00000000E+00  0.00000000E+00
  0.00000000E+00  0.00000000E+00  0.00000000E+00
  0.00000000E+00  0.00000000E+00  0.00000000E+00
  0.00000000E+00  0.00000000E+00  0.00000000E+00
  0.00000000E+00  0.00000000E+00  0.00000000E+00
  0.00000000E+00  0.00000000E+00  0.00000000E+00
  0.00000000E+00  0.00000000E+00  0.00000000E+00
  0.00000000E+00  0.00000000E+00  0.00000000E+00
