Title                                   
   1.00000000000000     
     9.8694509999999998    0.0000000000000000    0.0000000000000000
     0.0000000000000000    8.5490480000000009    0.0000000000000000
     0.0000000000000000    0.0000000000000000   20.0000000000000000
    28     3     1
Selective dynamics
Direct
  0.0561252436806786  0.0912993770128319  0.0824400745308706   T   T   T
  0.9313223892976382  0.1733893404790216  0.0839880454690960   T   T   T
  0.0568153122387638  0.9243324375463646  0.0830558457622970   T   T   T
  0.9311725071180288  0.3399852197143352  0.0873516849837057   T   T   T
  0.0573857775320785  0.5897552292112048  0.0840318553948727   T   T   T
  0.9327109996959966  0.6722585619580126  0.0871615260400504   T   T   T
  0.0576393011628819  0.4229450056755583  0.0852281493578591   T   T   T
  0.9318823712115016  0.8394352832561739  0.0850607393738706   T   T   T
  0.3055227304259949  0.0888619576784932  0.0869328189166255   T   T   T
  0.1820382865735920  0.1737086181533409  0.0842506685301863   T   T   T
  0.1844823547354572  0.3408853540716255  0.0862610217369933   T   T   T
  0.3040827656450215  0.5933272726752452  0.0974119680179699   T   T   T
  0.1816780999223395  0.6744912435840120  0.0865991640433534   T   T   T
  0.3108297499655449  0.4259628999427569  0.0946483408404446   T   T   T
  0.1806948228193808  0.8414980943785676  0.0863045118939418   T   T   T
  0.5559579951521114  0.0855421895287665  0.0934659912595863   T   T   T
  0.4308421448940910  0.1697344651602934  0.0920978924283674   T   T   T
  0.5536979431302337  0.9199463477669095  0.0985321570215685   T   T   T
  0.4329351418024516  0.3339419529100275  0.0997021782842680   T   T   T
  0.4246824809635805  0.8422245958076887  0.1011309866715694   T   T   T
  0.8067792100891751  0.0888875405196586  0.0852910478195017   T   T   T
  0.6813533948082218  0.1687928774434781  0.0913950329875907   T   T   T
  0.8064034864296281  0.9229059795025389  0.0872263379295953   T   T   T
  0.6811197611691600  0.3328846854261280  0.1008587089861974   T   T   T
  0.8098855731379846  0.5899673608797215  0.0994776388125626   T   T   T
  0.6936215872244385  0.6796346782163690  0.1162269519626559   T   T   T
  0.8052264867810039  0.4218909014413165  0.0970343093466682   T   T   T
  0.6830143726882835  0.8399721956369925  0.0996383771564035   T   T   T
  0.4133493430851331  0.6868341128845520  0.1185126308364978   T   T   T
  0.5574401953005781  0.4016936575370321  0.1176021514008660   T   T   T
  0.3045488661341894  0.9251197700713450  0.0894957858840534   T   T   T
  0.5543983051848426  0.5881367939296455  0.1772604063199455   T   T   T
 
  0.00000000E+00  0.00000000E+00  0.00000000E+00
  0.00000000E+00  0.00000000E+00  0.00000000E+00
  0.00000000E+00  0.00000000E+00  0.00000000E+00
  0.00000000E+00  0.00000000E+00  0.00000000E+00
  0.00000000E+00  0.00000000E+00  0.00000000E+00
  0.00000000E+00  0.00000000E+00  0.00000000E+00
  0.00000000E+00  0.00000000E+00  0.00000000E+00
  0.00000000E+00  0.00000000E+00  0.00000000E+00
  0.00000000E+00  0.00000000E+00  0.00000000E+00
  0.00000000E+00  0.00000000E+00  0.00000000E+00
  0.00000000E+00  0.00000000E+00  0.00000000E+00
  0.00000000E+00  0.00000000E+00  0.00000000E+00
  0.00000000E+00  0.00000000E+00  0.00000000E+00
  0.00000000E+00  0.00000000E+00  0.00000000E+00
  0.00000000E+00  0.00000000E+00  0.00000000E+00
  0.00000000E+00  0.00000000E+00  0.00000000E+00
  0.00000000E+00  0.00000000E+00  0.00000000E+00
  0.00000000E+00  0.00000000E+00  0.00000000E+00
  0.00000000E+00  0.00000000E+00  0.00000000E+00
  0.00000000E+00  0.00000000E+00  0.00000000E+00
  0.00000000E+00  0.00000000E+00  0.00000000E+00
  0.00000000E+00  0.00000000E+00  0.00000000E+00
  0.00000000E+00  0.00000000E+00  0.00000000E+00
  0.00000000E+00  0.00000000E+00  0.00000000E+00
  0.00000000E+00  0.00000000E+00  0.00000000E+00
  0.00000000E+00  0.00000000E+00  0.00000000E+00
  0.00000000E+00  0.00000000E+00  0.00000000E+00
  0.00000000E+00  0.00000000E+00  0.00000000E+00
  0.00000000E+00  0.00000000E+00  0.00000000E+00
  0.00000000E+00  0.00000000E+00  0.00000000E+00
  0.00000000E+00  0.00000000E+00  0.00000000E+00
  0.00000000E+00  0.00000000E+00  0.00000000E+00
