Title                                   
   1.00000000000000     
     9.8694509999999998    0.0000000000000000    0.0000000000000000
     0.0000000000000000    8.5490480000000009    0.0000000000000000
     0.0000000000000000    0.0000000000000000   20.0000000000000000
    27     3     1
Selective dynamics
Direct
  0.0545967595175018  0.0888263628854933  0.0841280059846230   T   T   T
  0.9293371466482420  0.1733969740309389  0.0844274172293735   T   T   T
  0.0574538272338331  0.9225760445833683  0.0851659311949960   T   T   T
  0.9322328322085283  0.3404157387386820  0.0824397563523331   T   T   T
  0.0578222678570884  0.5898347343398730  0.0805282229143007   T   T   T
  0.9339337849681759  0.6744800474480713  0.0855946064790205   T   T   T
  0.0571769949239714  0.4228361164499272  0.0796759859143176   T   T   T
  0.9320052038289368  0.8419327688814988  0.0879274187835027   T   T   T
  0.3063978464594674  0.0855700743291669  0.0922180761197553   T   T   T
  0.1802905527597405  0.1688303019850722  0.0858720988849211   T   T   T
  0.1801684647984719  0.3355781125924151  0.0836920958034308   T   T   T
  0.3046105224641534  0.5840974567640036  0.0913093964814742   T   T   T
  0.1832497825580980  0.6715272720872612  0.0835568252256313   T   T   T
  0.3020120940278391  0.4161858058774201  0.0939090059469291   T   T   T
  0.1835479488733863  0.8384608860965357  0.0858488692913427   T   T   T
  0.4261782786591775  0.1745806630323100  0.1025034136332355   T   T   T
  0.5557193681520785  0.9244260761902316  0.1056746102426633   T   T   T
  0.4280210980173049  0.6649241544116182  0.1046816786996772   T   T   T
  0.4317185832300657  0.8342384723529396  0.1016336550755275   T   T   T
  0.8023167718924573  0.0929022296026893  0.0912419470849011   T   T   T
  0.6776603868248817  0.1814424526068881  0.0980118014061679   T   T   T
  0.8054681633758166  0.9252184132409645  0.0942261470907542   T   T   T
  0.6835030219552042  0.3485191316431961  0.1010870841684953   T   T   T
  0.8131605733896066  0.5928297588980417  0.0950020216926584   T   T   T
  0.6906937208053899  0.6716032305313524  0.1162708675589541   T   T   T
  0.8108040339032884  0.4253550804263630  0.0906077631787721   T   T   T
  0.6816758304898412  0.8409549106587688  0.1055440044629675   T   T   T
  0.5535888618683461  0.0937454307703477  0.1036274783086263   T   T   T
  0.4187806033859941  0.3341740363089652  0.1115794991250706   T   T   T
  0.3077291666755384  0.9196315050004717  0.0918536252395039   T   T   T
  0.5612805082475917  0.5117807572351438  0.1411256904261215   T   T   T
 
  0.00000000E+00  0.00000000E+00  0.00000000E+00
  0.00000000E+00  0.00000000E+00  0.00000000E+00
  0.00000000E+00  0.00000000E+00  0.00000000E+00
  0.00000000E+00  0.00000000E+00  0.00000000E+00
  0.00000000E+00  0.00000000E+00  0.00000000E+00
  0.00000000E+00  0.00000000E+00  0.00000000E+00
  0.00000000E+00  0.00000000E+00  0.00000000E+00
  0.00000000E+00  0.00000000E+00  0.00000000E+00
  0.00000000E+00  0.00000000E+00  0.00000000E+00
  0.00000000E+00  0.00000000E+00  0.00000000E+00
  0.00000000E+00  0.00000000E+00  0.00000000E+00
  0.00000000E+00  0.00000000E+00  0.00000000E+00
  0.00000000E+00  0.00000000E+00  0.00000000E+00
  0.00000000E+00  0.00000000E+00  0.00000000E+00
  0.00000000E+00  0.00000000E+00  0.00000000E+00
  0.00000000E+00  0.00000000E+00  0.00000000E+00
  0.00000000E+00  0.00000000E+00  0.00000000E+00
  0.00000000E+00  0.00000000E+00  0.00000000E+00
  0.00000000E+00  0.00000000E+00  0.00000000E+00
  0.00000000E+00  0.00000000E+00  0.00000000E+00
  0.00000000E+00  0.00000000E+00  0.00000000E+00
  0.00000000E+00  0.00000000E+00  0.00000000E+00
  0.00000000E+00  0.00000000E+00  0.00000000E+00
  0.00000000E+00  0.00000000E+00  0.00000000E+00
  0.00000000E+00  0.00000000E+00  0.00000000E+00
  0.00000000E+00  0.00000000E+00  0.00000000E+00
  0.00000000E+00  0.00000000E+00  0.00000000E+00
  0.00000000E+00  0.00000000E+00  0.00000000E+00
  0.00000000E+00  0.00000000E+00  0.00000000E+00
  0.00000000E+00  0.00000000E+00  0.00000000E+00
  0.00000000E+00  0.00000000E+00  0.00000000E+00
