Title                                   
   1.00000000000000     
     4.9440799999999996    0.0000000000000000    0.0000000000000000
     0.0000000000000000    8.5647549999999999    0.0000000000000000
     0.0000000000000000    0.0000000000000000   20.0000000000000000
    14     1
Selective dynamics
Direct
  0.2500000000000000  0.2073219377971803  0.0945873009987884   T   T   T
 -0.0001332663420944  0.2926593654682832  0.0952286713323841   T   T   T
  0.2500000000000000  0.0422651815061305  0.0945734839323363   T   T   T
 -0.0000861049267799  0.9568759706784659  0.0952219879390351   T   T   T
  0.7500000000000000  0.2085557538026212  0.0922847755190266   T   T   T
  0.5001332663420947  0.2926593654682832  0.0952286713323841   T   T   T
  0.7500000000000000  0.0409264190434543  0.0922877672008086   T   T   T
  0.7500000000000000  0.7114433949979186  0.1020896060939774   T   T   T
  0.7500000000000000  0.5381684064674891  0.1020825815438918   T   T   T
  0.5000861049267799  0.9568759706784659  0.0952219879390351   T   T   T
  0.5030129070760634  0.4578013634154865  0.1012849675023094   T   T   T
 -0.0030129070760633  0.4578013634154865  0.1012849675023094   T   T   T
 -0.0029889926038657  0.7918075332475566  0.1013240145334316   T   T   T
  0.5029889926038655  0.7918075332475566  0.1013240145334316   T   T   T
  0.2500000000000000  0.6247114407656240  0.1439552020968536   T   T   T
 
  0.00000000E+00  0.00000000E+00  0.00000000E+00
  0.00000000E+00  0.00000000E+00  0.00000000E+00
  0.00000000E+00  0.00000000E+00  0.00000000E+00
  0.00000000E+00  0.00000000E+00  0.00000000E+00
  0.00000000E+00  0.00000000E+00  0.00000000E+00
  0.00000000E+00  0.00000000E+00  0.00000000E+00
  0.00000000E+00  0.00000000E+00  0.00000000E+00
  0.00000000E+00  0.00000000E+00  0.00000000E+00
  0.00000000E+00  0.00000000E+00  0.00000000E+00
  0.00000000E+00  0.00000000E+00  0.00000000E+00
  0.00000000E+00  0.00000000E+00  0.00000000E+00
  0.00000000E+00  0.00000000E+00  0.00000000E+00
  0.00000000E+00  0.00000000E+00  0.00000000E+00
  0.00000000E+00  0.00000000E+00  0.00000000E+00
  0.00000000E+00  0.00000000E+00  0.00000000E+00
