Title                                   
   1.00000000000000     
     8.5490480000000009    0.0000000000000000    0.0000000000000000
     0.0000000000000000    8.5490480000000009    0.0000000000000000
     0.0000000000000000    0.0000000000000000   20.0000000000000000
    21     3     1
Selective dynamics
Direct
  0.9079422018602041  0.2078697027885188  0.0944469458225442   T   T   T
  0.9131706300463663  0.8024202995696826  0.0953460306693424   T   T   T
  0.1973735639632355  0.0820362217424984  0.0957170067112382   T   T   T
  0.0732808878991364  0.2025557564248738  0.0956565175473711   T   T   T
  0.1565391573894480  0.6478872448269352  0.0952076859160490   T   T   T
  0.0734652097708522  0.5017071305134818  0.0966587940092844   T   T   T
  0.1532169182804005  0.3539507569048990  0.0985796106994634   T   T   T
  0.0802666489235833  0.7983644007543899  0.0945054950172360   T   T   T
  0.4938228166032927  0.0838419589457699  0.0965613218047138   T   T   T
  0.3441334589831079  0.1621938189505946  0.0984703714492143   T   T   T
  0.4954705129649323  0.9143638156109193  0.0966966102444303   T   T   T
  0.3479645807611687  0.8324419487200373  0.0954151127123157   T   T   T
  0.7869432986688181  0.0883423786438170  0.0945905400330346   T   T   T
  0.6381978763883513  0.1675904316979287  0.0952718467460279   T   T   T
  0.7907279787176943  0.9204721660538626  0.0957979781525649   T   T   T
  0.8310907450498863  0.6530536934497841  0.0977246924184536   T   T   T
  0.8253644468772074  0.3603413181651092  0.0950592219578336   T   T   T
  0.6447178688361144  0.8361481018954300  0.0983359158660857   T   T   T
  0.3202600066233050  0.3314589578152152  0.1050760776715049   T   T   T
  0.3235939986375350  0.6687369818182647  0.0958841539743256   T   T   T
  0.6611077337786960  0.3383753161764240  0.0964420731784836   T   T   T
  0.9071445218933436  0.5055500765636536  0.0962183945062267   T   T   T
  0.6716408237427834  0.6728563121764564  0.1024762394353146   T   T   T
  0.1989677480769733  0.9148661417342256  0.0943249637215153   T   T   T
  0.4890083652635571  0.4973650680572416  0.1282413997354087   T   T   T
 
  0.00000000E+00  0.00000000E+00  0.00000000E+00
  0.00000000E+00  0.00000000E+00  0.00000000E+00
  0.00000000E+00  0.00000000E+00  0.00000000E+00
  0.00000000E+00  0.00000000E+00  0.00000000E+00
  0.00000000E+00  0.00000000E+00  0.00000000E+00
  0.00000000E+00  0.00000000E+00  0.00000000E+00
  0.00000000E+00  0.00000000E+00  0.00000000E+00
  0.00000000E+00  0.00000000E+00  0.00000000E+00
  0.00000000E+00  0.00000000E+00  0.00000000E+00
  0.00000000E+00  0.00000000E+00  0.00000000E+00
  0.00000000E+00  0.00000000E+00  0.00000000E+00
  0.00000000E+00  0.00000000E+00  0.00000000E+00
  0.00000000E+00  0.00000000E+00  0.00000000E+00
  0.00000000E+00  0.00000000E+00  0.00000000E+00
  0.00000000E+00  0.00000000E+00  0.00000000E+00
  0.00000000E+00  0.00000000E+00  0.00000000E+00
  0.00000000E+00  0.00000000E+00  0.00000000E+00
  0.00000000E+00  0.00000000E+00  0.00000000E+00
  0.00000000E+00  0.00000000E+00  0.00000000E+00
  0.00000000E+00  0.00000000E+00  0.00000000E+00
  0.00000000E+00  0.00000000E+00  0.00000000E+00
  0.00000000E+00  0.00000000E+00  0.00000000E+00
  0.00000000E+00  0.00000000E+00  0.00000000E+00
  0.00000000E+00  0.00000000E+00  0.00000000E+00
  0.00000000E+00  0.00000000E+00  0.00000000E+00
