Title                                   
   1.00000000000000     
     4.9440799999999996    0.0000000000000000    0.0000000000000000
     0.0000000000000000   17.1295089999999988    0.0000000000000000
     0.0000000000000000    0.0000000000000000   20.0000000000000000
    28     2     1
Selective dynamics
Direct
 -0.0039140409355684  0.1052724438484016  0.2958063294619975   T   T   T
  0.2444038545446020  0.1478703673954766  0.2965513711665218   T   T   T
  0.2423790986704451  0.2318342946002808  0.2992845678657680   T   T   T
 -0.0068095898816048  0.2748461494940501  0.3033325092864520   T   T   T
  0.0052281941276851  0.6007666193579875  0.3024365929459899   T   T   T
  0.2506466544271862  0.7269481615618518  0.2956795944802320   T   T   T
  0.0002441628334717  0.8531197603625447  0.2945770643082687   T   T   T
  0.2490184357058595  0.8953240502230968  0.2943905844825265   T   T   T
  0.2476931995297816  0.9794124477736237  0.2944706956461884   T   T   T
  0.0014563827879339  0.7689077805100275  0.2952366405784979   T   T   T
  0.4957983506941901  0.1057497498287079  0.2947800043365564   T   T   T
  0.7467139318740484  0.1476787009142090  0.2953044646516992   T   T   T
  0.7451085848073867  0.2316371148782546  0.2967224482343121   T   T   T
  0.4970985651236308  0.0216771769969898  0.2942576170862322   T   T   T
  0.7504924591597293  0.3948760183934057  0.3037100459305407   T   T   T
  0.7540927370862722  0.4796795262732600  0.3056666298395753   T   T   T
  0.4926051039097701  0.2731513011810319  0.2960944172487167   T   T   T
  0.4999841796830100  0.6026855623145421  0.2964103866023909   T   T   T
  0.7516191212741605  0.7272229547196809  0.2947795832493875   T   T   T
  0.4983397702983138  0.8529412765780094  0.2940810193494043   T   T   T
  0.7488086247872598  0.8950053588778435  0.2941252601014022   T   T   T
  0.7474554266324874  0.9791318341942102  0.2941870301005237   T   T   T
  0.4998950322213539  0.7686784943515157  0.2943037042718289   T   T   T
  0.7528281920839909  0.6440511212414017  0.2962345261354765   T   T   T
 -0.0026919043731930  0.0213113956676860  0.2947756013965670   T   T   T
  0.5039363120764997  0.5207252392269003  0.2999888541197476   T   T   T
  0.0072931634788848  0.5190290985526598  0.3138754099410449   T   T   T
  0.5039995378624754  0.3554811973869547  0.2955413454685120   T   T   T
 -0.0092047858318015  0.3553197788367837  0.3146590167471074   T   T   T
  0.2514886320847500  0.6443322456010747  0.2979816087744563   T   T   T
  0.2939996132569878  0.4366747788575325  0.3458150761920287   T   T   T
 
  0.00000000E+00  0.00000000E+00  0.00000000E+00
  0.00000000E+00  0.00000000E+00  0.00000000E+00
  0.00000000E+00  0.00000000E+00  0.00000000E+00
  0.00000000E+00  0.00000000E+00  0.00000000E+00
  0.00000000E+00  0.00000000E+00  0.00000000E+00
  0.00000000E+00  0.00000000E+00  0.00000000E+00
  0.00000000E+00  0.00000000E+00  0.00000000E+00
  0.00000000E+00  0.00000000E+00  0.00000000E+00
  0.00000000E+00  0.00000000E+00  0.00000000E+00
  0.00000000E+00  0.00000000E+00  0.00000000E+00
  0.00000000E+00  0.00000000E+00  0.00000000E+00
  0.00000000E+00  0.00000000E+00  0.00000000E+00
  0.00000000E+00  0.00000000E+00  0.00000000E+00
  0.00000000E+00  0.00000000E+00  0.00000000E+00
  0.00000000E+00  0.00000000E+00  0.00000000E+00
  0.00000000E+00  0.00000000E+00  0.00000000E+00
  0.00000000E+00  0.00000000E+00  0.00000000E+00
  0.00000000E+00  0.00000000E+00  0.00000000E+00
  0.00000000E+00  0.00000000E+00  0.00000000E+00
  0.00000000E+00  0.00000000E+00  0.00000000E+00
  0.00000000E+00  0.00000000E+00  0.00000000E+00
  0.00000000E+00  0.00000000E+00  0.00000000E+00
  0.00000000E+00  0.00000000E+00  0.00000000E+00
  0.00000000E+00  0.00000000E+00  0.00000000E+00
  0.00000000E+00  0.00000000E+00  0.00000000E+00
  0.00000000E+00  0.00000000E+00  0.00000000E+00
  0.00000000E+00  0.00000000E+00  0.00000000E+00
  0.00000000E+00  0.00000000E+00  0.00000000E+00
  0.00000000E+00  0.00000000E+00  0.00000000E+00
  0.00000000E+00  0.00000000E+00  0.00000000E+00
  0.00000000E+00  0.00000000E+00  0.00000000E+00
