Title                                   
   1.00000000000000     
     4.9440799999999996    0.0000000000000000    0.0000000000000000
     0.0000000000000000    8.5647549999999999    0.0000000000000000
     0.0000000000000000    0.0000000000000000   20.0000000000000000
    11     3     1
Selective dynamics
Direct
  0.0031006957991770  0.2946409855774398  0.1005277597479586   T   T   T
  0.2494738037515995  0.0401281348559136  0.1005330399240897   T   T   T
 -0.0027109534347337  0.9536547458334808  0.1006520230062200   T   T   T
  0.7530424009548302  0.2083516997912675  0.1005523535669240   T   T   T
  0.5036927048423595  0.2965311757292104  0.1005290345221392   T   T   T
  0.7488822191186155  0.0396217803689266  0.1005783084040816   T   T   T
  0.7455322779870017  0.7112274336931002  0.1005799777192446   T   T   T
  0.7520485079583951  0.5366080240779925  0.1005893861722585   T   T   T
  0.4967448112799436  0.9570334508897619  0.1004504685578849   T   T   T
  0.5045614972119165  0.7898318764483074  0.1003081299601306   T   T   T
 -0.0039872860136671  0.4593127327928733  0.1004477462505037   T   T   T
  0.5089888152440241  0.4567823493435228  0.1005717197601073   T   T   T
 -0.0100393832307428  0.7905169383330810  0.1007717040981068   T   T   T
  0.2514730114924331  0.2113916166415410  0.1005431349557996   T   T   T
  0.2491968770388475  0.6260480556235842  0.1003452133545544   T   T   T
 
  0.00000000E+00  0.00000000E+00  0.00000000E+00
  0.00000000E+00  0.00000000E+00  0.00000000E+00
  0.00000000E+00  0.00000000E+00  0.00000000E+00
  0.00000000E+00  0.00000000E+00  0.00000000E+00
  0.00000000E+00  0.00000000E+00  0.00000000E+00
  0.00000000E+00  0.00000000E+00  0.00000000E+00
  0.00000000E+00  0.00000000E+00  0.00000000E+00
  0.00000000E+00  0.00000000E+00  0.00000000E+00
  0.00000000E+00  0.00000000E+00  0.00000000E+00
  0.00000000E+00  0.00000000E+00  0.00000000E+00
  0.00000000E+00  0.00000000E+00  0.00000000E+00
  0.00000000E+00  0.00000000E+00  0.00000000E+00
  0.00000000E+00  0.00000000E+00  0.00000000E+00
  0.00000000E+00  0.00000000E+00  0.00000000E+00
  0.00000000E+00  0.00000000E+00  0.00000000E+00
