Title                                   
   1.00000000000000     
     9.8694509999999998    0.0000000000000000    0.0000000000000000
     0.0000000000000000    8.5490480000000009    0.0000000000000000
     0.0000000000000000    0.0000000000000000   20.0000000000000000
    28     2     1
Selective dynamics
Direct
  0.0562478001247787  0.0895933211459503  0.0910888682222339   T   T   T
  0.9308451757472207  0.1725138845259138  0.0875445133438044   T   T   T
  0.0562474342045087  0.9227308981942112  0.0910735452392448   T   T   T
  0.9330103346673708  0.3387756279285848  0.0878637630924720   T   T   T
  0.0565763478433371  0.5894885883635895  0.0909041411663986   T   T   T
  0.9330415896268338  0.6735413671583343  0.0878301421235688   T   T   T
  0.0565584288139845  0.4228182458193155  0.0909251845526381   T   T   T
  0.9308599833555775  0.8398254514185880  0.0875113400608962   T   T   T
  0.3063637752936915  0.0906896711961305  0.0994090301859607   T   T   T
  0.1801315372529829  0.1720620631458224  0.0956289112636121   T   T   T
  0.3063593689883760  0.9216236393249089  0.0993845944355523   T   T   T
  0.1801267125974265  0.3396711084298760  0.0955215475021541   T   T   T
  0.3029342023748900  0.5899831505750589  0.1023145914296591   T   T   T
  0.1801351597696821  0.6726400228437697  0.0954903805271440   T   T   T
  0.3029204746969553  0.4222990539321760  0.1023305475486954   T   T   T
  0.1801345348039810  0.8402594291015983  0.0956006879566492   T   T   T
  0.5524841619919507  0.0912400678622822  0.0964988266966906   T   T   T
  0.4293240428040834  0.1783313442457787  0.1027448927770014   T   T   T
  0.5525016512549958  0.9210648217881567  0.0964788457291663   T   T   T
  0.4293425283065717  0.8339883258444590  0.1027118746992663   T   T   T
  0.8053752775513502  0.0895972175082056  0.0864315538212271   T   T   T
  0.6797324795536429  0.1724851308652784  0.0880847820614326   T   T   T
  0.8053973088118033  0.9227388404199340  0.0864054635668629   T   T   T
  0.6843315705568246  0.3370915366024842  0.0846140031192628   T   T   T
  0.8081756143749974  0.5916184013091117  0.0848316876693270   T   T   T
  0.6843720844303065  0.6752084404064228  0.0846077487469085   T   T   T
  0.8081507660906821  0.4206691303616928  0.0848589455838039   T   T   T
  0.6797679789227714  0.8398336163718387  0.0880540290106037   T   T   T
  0.4254828714961006  0.3440331245374508  0.1101479290091231   T   T   T
  0.4254909078492074  0.6682884436878633  0.1101076700324007   T   T   T
  0.5807128958431252  0.5061710350852254  0.1339649588262805   T   T   T
 
  0.00000000E+00  0.00000000E+00  0.00000000E+00
  0.00000000E+00  0.00000000E+00  0.00000000E+00
  0.00000000E+00  0.00000000E+00  0.00000000E+00
  0.00000000E+00  0.00000000E+00  0.00000000E+00
  0.00000000E+00  0.00000000E+00  0.00000000E+00
  0.00000000E+00  0.00000000E+00  0.00000000E+00
  0.00000000E+00  0.00000000E+00  0.00000000E+00
  0.00000000E+00  0.00000000E+00  0.00000000E+00
  0.00000000E+00  0.00000000E+00  0.00000000E+00
  0.00000000E+00  0.00000000E+00  0.00000000E+00
  0.00000000E+00  0.00000000E+00  0.00000000E+00
  0.00000000E+00  0.00000000E+00  0.00000000E+00
  0.00000000E+00  0.00000000E+00  0.00000000E+00
  0.00000000E+00  0.00000000E+00  0.00000000E+00
  0.00000000E+00  0.00000000E+00  0.00000000E+00
  0.00000000E+00  0.00000000E+00  0.00000000E+00
  0.00000000E+00  0.00000000E+00  0.00000000E+00
  0.00000000E+00  0.00000000E+00  0.00000000E+00
  0.00000000E+00  0.00000000E+00  0.00000000E+00
  0.00000000E+00  0.00000000E+00  0.00000000E+00
  0.00000000E+00  0.00000000E+00  0.00000000E+00
  0.00000000E+00  0.00000000E+00  0.00000000E+00
  0.00000000E+00  0.00000000E+00  0.00000000E+00
  0.00000000E+00  0.00000000E+00  0.00000000E+00
  0.00000000E+00  0.00000000E+00  0.00000000E+00
  0.00000000E+00  0.00000000E+00  0.00000000E+00
  0.00000000E+00  0.00000000E+00  0.00000000E+00
  0.00000000E+00  0.00000000E+00  0.00000000E+00
  0.00000000E+00  0.00000000E+00  0.00000000E+00
  0.00000000E+00  0.00000000E+00  0.00000000E+00
  0.00000000E+00  0.00000000E+00  0.00000000E+00
