Title                                   
   1.00000000000000     
     8.5490480000000009    0.0000000000000000    0.0000000000000000
     0.0000000000000000    8.5490480000000009    0.0000000000000000
     0.0000000000000000    0.0000000000000000   20.0000000000000000
    22     2     1
Selective dynamics
Direct
  0.9108539091058560  0.2071595133927382  0.0954473214513847   T   T   T
  0.9079911355769937  0.5015784040669817  0.0953025841185236   T   T   T
  0.9104279445659875  0.7978283499199955  0.0954557846834174   T   T   T
  0.1970097780058287  0.0843763424435053  0.0954649174621360   T   T   T
  0.0756111242602494  0.2057477443835448  0.0954438993903391   T   T   T
  0.1984151060468670  0.9196296977119353  0.0954862073583065   T   T   T
  0.1573820895464121  0.6480367967199879  0.0953863222624005   T   T   T
  0.0780579984583189  0.5020156760500413  0.0953246785682467   T   T   T
  0.1589914934635228  0.3538761848860132  0.0953050413195371   T   T   T
  0.0751723928492771  0.7964185070970461  0.0954743152863927   T   T   T
  0.4932147635789730  0.0868223990780283  0.0953514915750772   T   T   T
  0.3451229361580739  0.1677671393206685  0.0953333917602580   T   T   T
  0.4927673283517272  0.9167583197338375  0.0953552206165840   T   T   T
  0.3467664236124876  0.8374303065420989  0.0953973368127493   T   T   T
  0.7876042372384392  0.0839602837532526  0.0954697139676297   T   T   T
  0.6392246987603392  0.1661649717185784  0.0953584756317915   T   T   T
  0.7890210704323739  0.9191987072201139  0.0954656796137489   T   T   T
  0.8270451902326353  0.6497088451307244  0.0952954990347765   T   T   T
  0.8286479605759437  0.3555418711676417  0.0953216945884405   T   T   T
  0.6408809273649841  0.8358048829516010  0.0953177620901110   T   T   T
  0.3245699604245847  0.6702632799352549  0.0953011352141632   T   T   T
  0.6614744388770121  0.3333264437351862  0.0952354794014073   T   T   T
  0.3208298015549111  0.3295602427195002  0.0951692581093559   T   T   T
  0.6652292155769066  0.6740086147063207  0.0951538441096528   T   T   T
  0.4931000753812880  0.5018064756154161  0.0950879455735477   T   T   T
 
  0.00000000E+00  0.00000000E+00  0.00000000E+00
  0.00000000E+00  0.00000000E+00  0.00000000E+00
  0.00000000E+00  0.00000000E+00  0.00000000E+00
  0.00000000E+00  0.00000000E+00  0.00000000E+00
  0.00000000E+00  0.00000000E+00  0.00000000E+00
  0.00000000E+00  0.00000000E+00  0.00000000E+00
  0.00000000E+00  0.00000000E+00  0.00000000E+00
  0.00000000E+00  0.00000000E+00  0.00000000E+00
  0.00000000E+00  0.00000000E+00  0.00000000E+00
  0.00000000E+00  0.00000000E+00  0.00000000E+00
  0.00000000E+00  0.00000000E+00  0.00000000E+00
  0.00000000E+00  0.00000000E+00  0.00000000E+00
  0.00000000E+00  0.00000000E+00  0.00000000E+00
  0.00000000E+00  0.00000000E+00  0.00000000E+00
  0.00000000E+00  0.00000000E+00  0.00000000E+00
  0.00000000E+00  0.00000000E+00  0.00000000E+00
  0.00000000E+00  0.00000000E+00  0.00000000E+00
  0.00000000E+00  0.00000000E+00  0.00000000E+00
  0.00000000E+00  0.00000000E+00  0.00000000E+00
  0.00000000E+00  0.00000000E+00  0.00000000E+00
  0.00000000E+00  0.00000000E+00  0.00000000E+00
  0.00000000E+00  0.00000000E+00  0.00000000E+00
  0.00000000E+00  0.00000000E+00  0.00000000E+00
  0.00000000E+00  0.00000000E+00  0.00000000E+00
  0.00000000E+00  0.00000000E+00  0.00000000E+00
