Title                                   
   1.00000000000000     
     8.5490480000000009    0.0000000000000000    0.0000000000000000
     0.0000000000000000    8.5490480000000009    0.0000000000000000
     0.0000000000000000    0.0000000000000000   20.0000000000000000
    21     3     1
Selective dynamics
Direct
  0.9094925348338065  0.2039014348476762  0.0975490881943809   T   T   T
  0.9029249611166845  0.5028456395220023  0.0977613485553637   T   T   T
  0.9114362461060306  0.8024188859374091  0.0975437865355846   T   T   T
  0.1986062738416210  0.0825801162041811  0.0978390796499206   T   T   T
  0.0750647778519696  0.2026847142316627  0.0976722171728790   T   T   T
  0.1555500824252548  0.6483841879410532  0.0976887075585230   T   T   T
  0.0720453242447675  0.5015792155105597  0.0976758920062330   T   T   T
  0.1541980116506594  0.3551488056982914  0.0977051589817155   T   T   T
  0.0785087427786443  0.7987451324542296  0.0976954971785355   T   T   T
  0.4954921272928980  0.0865075897011312  0.0977887056627166   T   T   T
  0.3480636900215490  0.1654861701198024  0.0978832342446624   T   T   T
  0.4949003570863924  0.9171237679018891  0.0977328530969277   T   T   T
  0.3483158383707787  0.8345658550329927  0.0978253324133103   T   T   T
  0.7898186789905671  0.0856693298806011  0.0974424479016621   T   T   T
  0.6428230780788919  0.1659763986542087  0.0977520202832626   T   T   T
  0.7907384661339284  0.9197152289036383  0.0974258200461858   T   T   T
  0.8271167634740190  0.6525276518481092  0.0977801024160000   T   T   T
  0.8249342953223133  0.3539056851241849  0.0978351031145940   T   T   T
  0.6429563452897643  0.8379847277570672  0.0976644285798037   T   T   T
  0.3185000406905811  0.3309540075674918  0.0978468638534985   T   T   T
  0.3197932022205074  0.6721408544029414  0.0977500434103299   T   T   T
  0.6666669911836863  0.3272978342635914  0.0980743952967898   T   T   T
  0.6677972642160185  0.6778563873435222  0.0979628344410631   T   T   T
  0.1988267126907556  0.9169766510962033  0.0979083838470069   T   T   T
  0.4908411940879024  0.5018137280555793  0.0979016555590235   T   T   T
 
  0.00000000E+00  0.00000000E+00  0.00000000E+00
  0.00000000E+00  0.00000000E+00  0.00000000E+00
  0.00000000E+00  0.00000000E+00  0.00000000E+00
  0.00000000E+00  0.00000000E+00  0.00000000E+00
  0.00000000E+00  0.00000000E+00  0.00000000E+00
  0.00000000E+00  0.00000000E+00  0.00000000E+00
  0.00000000E+00  0.00000000E+00  0.00000000E+00
  0.00000000E+00  0.00000000E+00  0.00000000E+00
  0.00000000E+00  0.00000000E+00  0.00000000E+00
  0.00000000E+00  0.00000000E+00  0.00000000E+00
  0.00000000E+00  0.00000000E+00  0.00000000E+00
  0.00000000E+00  0.00000000E+00  0.00000000E+00
  0.00000000E+00  0.00000000E+00  0.00000000E+00
  0.00000000E+00  0.00000000E+00  0.00000000E+00
  0.00000000E+00  0.00000000E+00  0.00000000E+00
  0.00000000E+00  0.00000000E+00  0.00000000E+00
  0.00000000E+00  0.00000000E+00  0.00000000E+00
  0.00000000E+00  0.00000000E+00  0.00000000E+00
  0.00000000E+00  0.00000000E+00  0.00000000E+00
  0.00000000E+00  0.00000000E+00  0.00000000E+00
  0.00000000E+00  0.00000000E+00  0.00000000E+00
  0.00000000E+00  0.00000000E+00  0.00000000E+00
  0.00000000E+00  0.00000000E+00  0.00000000E+00
  0.00000000E+00  0.00000000E+00  0.00000000E+00
  0.00000000E+00  0.00000000E+00  0.00000000E+00
