Title                                   
   1.00000000000000     
     4.9440799999999996    0.0000000000000000    0.0000000000000000
     0.0000000000000000    8.5647549999999999    0.0000000000000000
     0.0000000000000000    0.0000000000000000   20.0000000000000000
     9     5     1
Selective dynamics
Direct
 -0.0022401269629527  0.2951964668210094  0.1003624443122198   T   T   T
  0.2500000000000000  0.0383997939615514  0.1004404561984665   T   T   T
 -0.0019993957950934  0.9558151142224294  0.1004639705870183   T   T   T
  0.7500000000000000  0.2065078554459692  0.1001975126240828   T   T   T
  0.5022401269629527  0.2951964668210094  0.1003624443122198   T   T   T
  0.7500000000000000  0.0415004329344846  0.1002550178732307   T   T   T
  0.7500000000000000  0.7121595171612520  0.1005383649144147   T   T   T
  0.7500000000000000  0.5369574568990479  0.1005251015726476   T   T   T
  0.5019993957950938  0.9558151142224294  0.1004639705870183   T   T   T
  0.5101052485922567  0.4539717971788956  0.1006439743343870   T   T   T
 -0.0101052485922565  0.4539717971788956  0.1006439743343870   T   T   T
 -0.0112802050416730  0.7937671071023484  0.1006579074050096   T   T   T
  0.5112802050416734  0.7937671071023484  0.1006579074050096   T   T   T
  0.2500000000000000  0.2131539293529247  0.1003788655997885   T   T   T
  0.2500000000000000  0.6255010435954075  0.1013880879401030   T   T   T
 
  0.00000000E+00  0.00000000E+00  0.00000000E+00
  0.00000000E+00  0.00000000E+00  0.00000000E+00
  0.00000000E+00  0.00000000E+00  0.00000000E+00
  0.00000000E+00  0.00000000E+00  0.00000000E+00
  0.00000000E+00  0.00000000E+00  0.00000000E+00
  0.00000000E+00  0.00000000E+00  0.00000000E+00
  0.00000000E+00  0.00000000E+00  0.00000000E+00
  0.00000000E+00  0.00000000E+00  0.00000000E+00
  0.00000000E+00  0.00000000E+00  0.00000000E+00
  0.00000000E+00  0.00000000E+00  0.00000000E+00
  0.00000000E+00  0.00000000E+00  0.00000000E+00
  0.00000000E+00  0.00000000E+00  0.00000000E+00
  0.00000000E+00  0.00000000E+00  0.00000000E+00
  0.00000000E+00  0.00000000E+00  0.00000000E+00
  0.00000000E+00  0.00000000E+00  0.00000000E+00
