Title                                   
   1.00000000000000     
     9.8694509999999998    0.0000000000000000    0.0000000000000000
     0.0000000000000000    8.5490480000000009    0.0000000000000000
     0.0000000000000000    0.0000000000000000   20.0000000000000000
    25     6     1
Selective dynamics
Direct
  0.0559158608348300  0.0913791750307835  0.0870446760019443   T   T   T
  0.9312259723012971  0.1747371623575187  0.0877778627589016   T   T   T
  0.0572912293801103  0.9232200361511661  0.0873614431262263   T   T   T
  0.9302848751792211  0.3415734565715218  0.0900961484492740   T   T   T
  0.0566088585106586  0.5914261948218081  0.0884012388067949   T   T   T
  0.0561706630845523  0.4237681781239931  0.0893851089277113   T   T   T
  0.9328049378665775  0.8402078563898943  0.0892064961325583   T   T   T
  0.3061166695844529  0.0889178048818404  0.0891467466973965   T   T   T
  0.1822390976535146  0.1737553975573770  0.0884584269763723   T   T   T
  0.1824393123959811  0.3409783942175444  0.0903134756441325   T   T   T
  0.3040091424479890  0.5914901503285210  0.0980658992766664   T   T   T
  0.1799276082909335  0.6743030710626865  0.0897813732593311   T   T   T
  0.3103540240356241  0.4229497306038543  0.0960792171713738   T   T   T
  0.1815590957560250  0.8422262756659307  0.0888318482474727   T   T   T
  0.5561497272084797  0.0853694117688295  0.0931905715391942   T   T   T
  0.5549857093648937  0.9177732481365811  0.0974609873549658   T   T   T
  0.4321731798246798  0.3321336850023541  0.0991699564284069   T   T   T
  0.4262303992842373  0.8395817810886684  0.0993949349398577   T   T   T
  0.8066085644638782  0.0887487431673594  0.0880348210293457   T   T   T
  0.6801686135680554  0.1692619517426435  0.0910527802903369   T   T   T
  0.8084020051428279  0.9227956129304412  0.0901916727495446   T   T   T
  0.6798689475965058  0.3357074637670436  0.0982821619205340   T   T   T
  0.8097342811455570  0.5942079626712862  0.0992859754344370   T   T   T
  0.8031684956267079  0.4256693565777420  0.0963363248321894   T   T   T
  0.6842422839210203  0.8397183051632389  0.0988893647494905   T   T   T
  0.4161083514582078  0.6839890081347719  0.1119185334495634   T   T   T
  0.5545448665024897  0.4012294303759534  0.1115923351601972   T   T   T
  0.6969444237997821  0.6810395097811158  0.1125680966036905   T   T   T
  0.3055042491500612  0.9253909914243289  0.0899539182591710   T   T   T
  0.4299356164147590  0.1665894595596163  0.0924710361597351   T   T   T
  0.9327648541987601  0.6725722620011620  0.0900718263492798   T   T   T
  0.5551570840073354  0.5875349329424253  0.1658597412739205   T   T   T
 
  0.00000000E+00  0.00000000E+00  0.00000000E+00
  0.00000000E+00  0.00000000E+00  0.00000000E+00
  0.00000000E+00  0.00000000E+00  0.00000000E+00
  0.00000000E+00  0.00000000E+00  0.00000000E+00
  0.00000000E+00  0.00000000E+00  0.00000000E+00
  0.00000000E+00  0.00000000E+00  0.00000000E+00
  0.00000000E+00  0.00000000E+00  0.00000000E+00
  0.00000000E+00  0.00000000E+00  0.00000000E+00
  0.00000000E+00  0.00000000E+00  0.00000000E+00
  0.00000000E+00  0.00000000E+00  0.00000000E+00
  0.00000000E+00  0.00000000E+00  0.00000000E+00
  0.00000000E+00  0.00000000E+00  0.00000000E+00
  0.00000000E+00  0.00000000E+00  0.00000000E+00
  0.00000000E+00  0.00000000E+00  0.00000000E+00
  0.00000000E+00  0.00000000E+00  0.00000000E+00
  0.00000000E+00  0.00000000E+00  0.00000000E+00
  0.00000000E+00  0.00000000E+00  0.00000000E+00
  0.00000000E+00  0.00000000E+00  0.00000000E+00
  0.00000000E+00  0.00000000E+00  0.00000000E+00
  0.00000000E+00  0.00000000E+00  0.00000000E+00
  0.00000000E+00  0.00000000E+00  0.00000000E+00
  0.00000000E+00  0.00000000E+00  0.00000000E+00
  0.00000000E+00  0.00000000E+00  0.00000000E+00
  0.00000000E+00  0.00000000E+00  0.00000000E+00
  0.00000000E+00  0.00000000E+00  0.00000000E+00
  0.00000000E+00  0.00000000E+00  0.00000000E+00
  0.00000000E+00  0.00000000E+00  0.00000000E+00
  0.00000000E+00  0.00000000E+00  0.00000000E+00
  0.00000000E+00  0.00000000E+00  0.00000000E+00
  0.00000000E+00  0.00000000E+00  0.00000000E+00
  0.00000000E+00  0.00000000E+00  0.00000000E+00
  0.00000000E+00  0.00000000E+00  0.00000000E+00
