Title                                   
   1.00000000000000     
     4.9440799999999996    0.0000000000000000    0.0000000000000000
     0.0000000000000000    8.5647549999999999    0.0000000000000000
     0.0000000000000000    0.0000000000000000   20.0000000000000000
    10     4     1
Selective dynamics
Direct
 -0.0077751196821735  0.2954503466609273  0.1030839300977872   T   T   T
  0.2467765227287501  0.0391237980385028  0.0993230536025979   T   T   T
 -0.0027896812668813  0.9556008179996847  0.1028202582881885   T   T   T
  0.7463734156093869  0.2079193782054201  0.0942596105203775   T   T   T
  0.4944598178768492  0.2910006293277619  0.0907481439340153   T   T   T
  0.7515632650517605  0.0409133188533402  0.0956832252578465   T   T   T
  0.7542520250947846  0.7152569642339298  0.1007329042921632   T   T   T
  0.7472176148192837  0.5374068517166094  0.1004618441268023   T   T   T
  0.5023640717186660  0.9577382153425198  0.0950822915712890   T   T   T
  0.5036762675379760  0.4555748322860226  0.0872432235997280   T   T   T
 -0.0125448056225748  0.4550542322144669  0.1155773351851150   T   T   T
 -0.0113159930426825  0.7921244901916363  0.1129403346941641   T   T   T
  0.5163090026942398  0.7954895459582136  0.0936668982824540   T   T   T
  0.2425647514347335  0.2093418251883572  0.0984720691143171   T   T   T
  0.2788688450478822  0.6236857537826099  0.1178848774331577   T   T   T
 
  0.00000000E+00  0.00000000E+00  0.00000000E+00
  0.00000000E+00  0.00000000E+00  0.00000000E+00
  0.00000000E+00  0.00000000E+00  0.00000000E+00
  0.00000000E+00  0.00000000E+00  0.00000000E+00
  0.00000000E+00  0.00000000E+00  0.00000000E+00
  0.00000000E+00  0.00000000E+00  0.00000000E+00
  0.00000000E+00  0.00000000E+00  0.00000000E+00
  0.00000000E+00  0.00000000E+00  0.00000000E+00
  0.00000000E+00  0.00000000E+00  0.00000000E+00
  0.00000000E+00  0.00000000E+00  0.00000000E+00
  0.00000000E+00  0.00000000E+00  0.00000000E+00
  0.00000000E+00  0.00000000E+00  0.00000000E+00
  0.00000000E+00  0.00000000E+00  0.00000000E+00
  0.00000000E+00  0.00000000E+00  0.00000000E+00
  0.00000000E+00  0.00000000E+00  0.00000000E+00
