Title                                   
   1.00000000000000     
     4.9440799999999996    0.0000000000000000    0.0000000000000000
     0.0000000000000000   17.1295089999999988    0.0000000000000000
     0.0000000000000000    0.0000000000000000   20.0000000000000000
    31     1
Selective dynamics
Direct
 -0.0000514945385929  0.1044016230274355  0.2784810870097989   T   T   T
  0.2497579739812493  0.1460591819285451  0.2833758117614346   T   T   T
  0.2498069072001578  0.2284830028099283  0.2961375420737803   T   T   T
 -0.0009166799930230  0.3501395246230980  0.3222852974925483   T   T   T
 -0.0018828585370423  0.2690135142524461  0.3032844588159879   T   T   T
 -0.0030412195031798  0.6071686208587102  0.3157605294723221   T   T   T
  0.2500347883425795  0.7294622614734031  0.2919721270729444   T   T   T
  0.0001329276998779  0.8540352735956287  0.2761809354026231   T   T   T
  0.2499200022081218  0.8959141055719922  0.2737147041867461   T   T   T
  0.2498027200762654  0.9792816205387703  0.2719057389113080   T   T   T
  0.0003211630749876  0.7712302742118480  0.2848611267331899   T   T   T
  0.4995594610509361  0.1044010305255641  0.2784750970809969   T   T   T
  0.7497624122990254  0.1456977172522141  0.2828002562272335   T   T   T
  0.7498140991719326  0.2279510747804777  0.2949404638145651   T   T   T
  0.4997624872709238  0.0211309237439432  0.2728273220620490   T   T   T
  0.5005908039437751  0.3501439751456548  0.3222784350735722   T   T   T
  0.7498370310108377  0.3937951758620530  0.3287866720862186   T   T   T
  0.7499441636139967  0.4797440093225598  0.3327490789351356   T   T   T
  0.5015225531617797  0.2690144582584996  0.3032781439618769   T   T   T
  0.5031778524496464  0.6071926806901216  0.3157856863044815   T   T   T
  0.7500513619599601  0.7302340787369049  0.2900220228893406   T   T   T
  0.4997502200223735  0.8540271796753532  0.2761808912753214   T   T   T
  0.7499094684477229  0.8957150408399243  0.2733368682753318   T   T   T
  0.7497940443055526  0.9792968529387508  0.2717311794184177   T   T   T
  0.4997315286811880  0.7712239038563454  0.2848635982099795   T   T   T
  0.7500726471667954  0.6487918741985782  0.3045846956293841   T   T   T
  0.2500638902369760  0.6483055120410198  0.3083209407880398   T   T   T
 -0.0001858310068687  0.0211309843685395  0.2728277463659589   T   T   T
  0.5100003844285906  0.5274647065075844  0.3347440062855637   T   T   T
  0.9900210378142394  0.5274168652919872  0.3346422214595007   T   T   T
  0.2498528247003159  0.3855996094197887  0.3365187875838470   T   T   T
  0.2499063292589053  0.4750843436523227  0.4049115273404535   T   T   T
 
  0.00000000E+00  0.00000000E+00  0.00000000E+00
  0.00000000E+00  0.00000000E+00  0.00000000E+00
  0.00000000E+00  0.00000000E+00  0.00000000E+00
  0.00000000E+00  0.00000000E+00  0.00000000E+00
  0.00000000E+00  0.00000000E+00  0.00000000E+00
  0.00000000E+00  0.00000000E+00  0.00000000E+00
  0.00000000E+00  0.00000000E+00  0.00000000E+00
  0.00000000E+00  0.00000000E+00  0.00000000E+00
  0.00000000E+00  0.00000000E+00  0.00000000E+00
  0.00000000E+00  0.00000000E+00  0.00000000E+00
  0.00000000E+00  0.00000000E+00  0.00000000E+00
  0.00000000E+00  0.00000000E+00  0.00000000E+00
  0.00000000E+00  0.00000000E+00  0.00000000E+00
  0.00000000E+00  0.00000000E+00  0.00000000E+00
  0.00000000E+00  0.00000000E+00  0.00000000E+00
  0.00000000E+00  0.00000000E+00  0.00000000E+00
  0.00000000E+00  0.00000000E+00  0.00000000E+00
  0.00000000E+00  0.00000000E+00  0.00000000E+00
  0.00000000E+00  0.00000000E+00  0.00000000E+00
  0.00000000E+00  0.00000000E+00  0.00000000E+00
  0.00000000E+00  0.00000000E+00  0.00000000E+00
  0.00000000E+00  0.00000000E+00  0.00000000E+00
  0.00000000E+00  0.00000000E+00  0.00000000E+00
  0.00000000E+00  0.00000000E+00  0.00000000E+00
  0.00000000E+00  0.00000000E+00  0.00000000E+00
  0.00000000E+00  0.00000000E+00  0.00000000E+00
  0.00000000E+00  0.00000000E+00  0.00000000E+00
  0.00000000E+00  0.00000000E+00  0.00000000E+00
  0.00000000E+00  0.00000000E+00  0.00000000E+00
  0.00000000E+00  0.00000000E+00  0.00000000E+00
  0.00000000E+00  0.00000000E+00  0.00000000E+00
  0.00000000E+00  0.00000000E+00  0.00000000E+00
