Title                                   
   1.00000000000000     
     4.9440799999999996    0.0000000000000000    0.0000000000000000
     0.0000000000000000   17.1295089999999988    0.0000000000000000
     0.0000000000000000    0.0000000000000000   20.0000000000000000
    27     3     1
Selective dynamics
Direct
 -0.0044911073485653  0.1052000997557656  0.2970861161488483   T   T   T
  0.2430094732354931  0.1480414384328919  0.2969986710556934   T   T   T
  0.2394571784501468  0.2322913190994717  0.2985672810149212   T   T   T
 -0.0096766952505523  0.2757465836689248  0.3036366410377781   T   T   T
  0.0072415759828033  0.5999751775990250  0.3049002041287797   T   T   T
  0.2533341934180660  0.7262761973442866  0.2963994779226417   T   T   T
  0.0019570014041090  0.8528067499816836  0.2958764415677171   T   T   T
  0.2504634542477782  0.8951142238118708  0.2957740415096623   T   T   T
  0.2484143203801056  0.9792590576569725  0.2961322163627719   T   T   T
  0.0039098615133992  0.7684260396938322  0.2962389662524755   T   T   T
  0.4953971911499348  0.1059119124692608  0.2954151754789659   T   T   T
  0.7465091845288602  0.1476862472917105  0.2956774275745542   T   T   T
  0.7446340061727397  0.2318768593699465  0.2955940613646325   T   T   T
  0.4975603695622191  0.0216831013156647  0.2956777070393952   T   T   T
  0.7413879457371718  0.3963020198093514  0.3004398789985318   T   T   T
  0.7494761030214546  0.4806187076503701  0.3037724218359872   T   T   T
  0.4910156087731525  0.2724644028494147  0.2924591417230185   T   T   T
  0.5063861425163423  0.6029683217447401  0.2958684149610994   T   T   T
  0.7539550988984177  0.7271763848691869  0.2955856052948925   T   T   T
  0.4998193514341254  0.8526506670642136  0.2952111592833196   T   T   T
  0.7500143285940529  0.8946688818073428  0.2955637243212444   T   T   T
  0.7479985021052965  0.9789624111375994  0.2958812121951681   T   T   T
  0.5018584499376211  0.7682104536790959  0.2951435729667858   T   T   T
  0.7567903507500636  0.6439027917047082  0.2969706177651996   T   T   T
 -0.0024458528523762  0.0210879786213939  0.2965914406353984   T   T   T
 -0.0002111044829673  0.5180506011823700  0.3180986623810297   T   T   T
  0.4988944521353100  0.3543725095260537  0.2885292517816075   T   T   T
  0.5075380737566143  0.5230584242085046  0.2966797586851651   T   T   T
 -0.0152195782972264  0.3573756750651655  0.3181369552006562   T   T   T
  0.2547324432009959  0.6425358291064726  0.2988109947373074   T   T   T
  0.3002966773254155  0.4366409324827044  0.3373427587747033   T   T   T
 
  0.00000000E+00  0.00000000E+00  0.00000000E+00
  0.00000000E+00  0.00000000E+00  0.00000000E+00
  0.00000000E+00  0.00000000E+00  0.00000000E+00
  0.00000000E+00  0.00000000E+00  0.00000000E+00
  0.00000000E+00  0.00000000E+00  0.00000000E+00
  0.00000000E+00  0.00000000E+00  0.00000000E+00
  0.00000000E+00  0.00000000E+00  0.00000000E+00
  0.00000000E+00  0.00000000E+00  0.00000000E+00
  0.00000000E+00  0.00000000E+00  0.00000000E+00
  0.00000000E+00  0.00000000E+00  0.00000000E+00
  0.00000000E+00  0.00000000E+00  0.00000000E+00
  0.00000000E+00  0.00000000E+00  0.00000000E+00
  0.00000000E+00  0.00000000E+00  0.00000000E+00
  0.00000000E+00  0.00000000E+00  0.00000000E+00
  0.00000000E+00  0.00000000E+00  0.00000000E+00
  0.00000000E+00  0.00000000E+00  0.00000000E+00
  0.00000000E+00  0.00000000E+00  0.00000000E+00
  0.00000000E+00  0.00000000E+00  0.00000000E+00
  0.00000000E+00  0.00000000E+00  0.00000000E+00
  0.00000000E+00  0.00000000E+00  0.00000000E+00
  0.00000000E+00  0.00000000E+00  0.00000000E+00
  0.00000000E+00  0.00000000E+00  0.00000000E+00
  0.00000000E+00  0.00000000E+00  0.00000000E+00
  0.00000000E+00  0.00000000E+00  0.00000000E+00
  0.00000000E+00  0.00000000E+00  0.00000000E+00
  0.00000000E+00  0.00000000E+00  0.00000000E+00
  0.00000000E+00  0.00000000E+00  0.00000000E+00
  0.00000000E+00  0.00000000E+00  0.00000000E+00
  0.00000000E+00  0.00000000E+00  0.00000000E+00
  0.00000000E+00  0.00000000E+00  0.00000000E+00
  0.00000000E+00  0.00000000E+00  0.00000000E+00
