Title                                   
   1.00000000000000     
     4.9440799999999996    0.0000000000000000    0.0000000000000000
     0.0000000000000000    8.5647549999999999    0.0000000000000000
     0.0000000000000000    0.0000000000000000   20.0000000000000000
     9     5     1
Selective dynamics
Direct
 -0.0006633720462335  0.2989185428932469  0.1004718374511178   T   T   T
  0.2500000000000000  0.0369721177420529  0.1004611179995354   T   T   T
 -0.0002413308504700  0.9524172607752214  0.1005863920977858   T   T   T
  0.7500000000000000  0.2080405703240352  0.1005408420411870   T   T   T
  0.5006633720462337  0.2989185428932469  0.1004718374511178   T   T   T
  0.7500000000000000  0.0399200129854092  0.1005890733201535   T   T   T
  0.7500000000000000  0.7095968509637938  0.1006407945437875   T   T   T
  0.7500000000000000  0.5391346691013220  0.1006011764923133   T   T   T
  0.5002413308504698  0.9524172607752214  0.1005863920977858   T   T   T
  0.5068666986090876  0.4588637963270177  0.1004697427653854   T   T   T
 -0.0068666986090878  0.4588637963270177  0.1004697427653854   T   T   T
 -0.0081161846955423  0.7886299966115514  0.1006437789914816   T   T   T
  0.5081161846955420  0.7886299966115514  0.1006437789914816   T   T   T
  0.2500000000000000  0.2147590081364832  0.1004100948393509   T   T   T
  0.2500000000000000  0.6255985775328321  0.1003933981521347   T   T   T
 
  0.00000000E+00  0.00000000E+00  0.00000000E+00
  0.00000000E+00  0.00000000E+00  0.00000000E+00
  0.00000000E+00  0.00000000E+00  0.00000000E+00
  0.00000000E+00  0.00000000E+00  0.00000000E+00
  0.00000000E+00  0.00000000E+00  0.00000000E+00
  0.00000000E+00  0.00000000E+00  0.00000000E+00
  0.00000000E+00  0.00000000E+00  0.00000000E+00
  0.00000000E+00  0.00000000E+00  0.00000000E+00
  0.00000000E+00  0.00000000E+00  0.00000000E+00
  0.00000000E+00  0.00000000E+00  0.00000000E+00
  0.00000000E+00  0.00000000E+00  0.00000000E+00
  0.00000000E+00  0.00000000E+00  0.00000000E+00
  0.00000000E+00  0.00000000E+00  0.00000000E+00
  0.00000000E+00  0.00000000E+00  0.00000000E+00
  0.00000000E+00  0.00000000E+00  0.00000000E+00
