Title                                   
   1.00000000000000     
     8.5490480000000009    0.0000000000000000    0.0000000000000000
     0.0000000000000000    8.5490480000000009    0.0000000000000000
     0.0000000000000000    0.0000000000000000   20.0000000000000000
    24     1
Selective dynamics
Direct
  0.9111608286724365  0.2064611489554615  0.0954493180019667   T   T   T
  0.9090406625116545  0.5018091471224428  0.0953105096409987   T   T   T
  0.9111771950796118  0.7971246189320006  0.0954641256701950   T   T   T
  0.1976964825539073  0.0836188939034309  0.0954765212796523   T   T   T
  0.0748514891473497  0.2064387068167076  0.0954561943795659   T   T   T
  0.1977024777686365  0.9199253503563856  0.0954859456978339   T   T   T
  0.1575367762582198  0.6483258371479550  0.0953557485033914   T   T   T
  0.0769910259309233  0.5017958202616019  0.0953305412012305   T   T   T
  0.1575132014358403  0.3552420234708855  0.0953414266602007   T   T   T
  0.0748692421697663  0.7970995519150668  0.0954733520477323   T   T   T
  0.4929903872085536  0.0857616742593985  0.0953586392927755   T   T   T
  0.3464622711219324  0.1662962676424309  0.0953620345312737   T   T   T
  0.4929932999105954  0.9178175332257452  0.0953661607081491   T   T   T
  0.3464690415108075  0.8372912876579885  0.0953709806653652   T   T   T
  0.7883218827444191  0.0836451841150799  0.0954616655220967   T   T   T
  0.6395280479788154  0.1663081722817749  0.0953340302970396   T   T   T
  0.7883446564046028  0.9199516689517707  0.0954687211549150   T   T   T
  0.8285048319099754  0.6483514503238011  0.0953196638549512   T   T   T
  0.8285095017051587  0.3552550080510030  0.0953066493605802   T   T   T
  0.6395439246321102  0.8372843907199512  0.0953383544326102   T   T   T
  0.3246352642599127  0.3333982063956063  0.0952312137752461   T   T   T
  0.3246520318897222  0.6701886882269732  0.0952466835307680   T   T   T
  0.6614050889995937  0.3334055821322508  0.0951911968887413   T   T   T
  0.6614117085813496  0.6701979013411228  0.0951998479150622   T   T   T
  0.4931006796140985  0.5017958857931779  0.0950054749876361   T   T   T
 
  0.00000000E+00  0.00000000E+00  0.00000000E+00
  0.00000000E+00  0.00000000E+00  0.00000000E+00
  0.00000000E+00  0.00000000E+00  0.00000000E+00
  0.00000000E+00  0.00000000E+00  0.00000000E+00
  0.00000000E+00  0.00000000E+00  0.00000000E+00
  0.00000000E+00  0.00000000E+00  0.00000000E+00
  0.00000000E+00  0.00000000E+00  0.00000000E+00
  0.00000000E+00  0.00000000E+00  0.00000000E+00
  0.00000000E+00  0.00000000E+00  0.00000000E+00
  0.00000000E+00  0.00000000E+00  0.00000000E+00
  0.00000000E+00  0.00000000E+00  0.00000000E+00
  0.00000000E+00  0.00000000E+00  0.00000000E+00
  0.00000000E+00  0.00000000E+00  0.00000000E+00
  0.00000000E+00  0.00000000E+00  0.00000000E+00
  0.00000000E+00  0.00000000E+00  0.00000000E+00
  0.00000000E+00  0.00000000E+00  0.00000000E+00
  0.00000000E+00  0.00000000E+00  0.00000000E+00
  0.00000000E+00  0.00000000E+00  0.00000000E+00
  0.00000000E+00  0.00000000E+00  0.00000000E+00
  0.00000000E+00  0.00000000E+00  0.00000000E+00
  0.00000000E+00  0.00000000E+00  0.00000000E+00
  0.00000000E+00  0.00000000E+00  0.00000000E+00
  0.00000000E+00  0.00000000E+00  0.00000000E+00
  0.00000000E+00  0.00000000E+00  0.00000000E+00
  0.00000000E+00  0.00000000E+00  0.00000000E+00
