Title                                   
   1.00000000000000     
     4.9440799999999996    0.0000000000000000    0.0000000000000000
     0.0000000000000000   17.1295089999999988    0.0000000000000000
     0.0000000000000000    0.0000000000000000   20.0000000000000000
    29     2     1
Selective dynamics
Direct
  0.0017492503254991  0.1040556402015443  0.2801729399547825   T   T   T
  0.2524081818180398  0.1456351069796374  0.2834182827335469   T   T   T
  0.2544578709960603  0.2284894700431003  0.2929489999614298   T   T   T
  0.0117592126253763  0.3517145331026872  0.3132766051290504   T   T   T
  0.0044234657543810  0.2695742463638309  0.2983785620203859   T   T   T
 -0.0130349918826411  0.6046977535951632  0.3124773572577092   T   T   T
  0.2432652771719939  0.7286962383052130  0.2973210997941482   T   T   T
 -0.0032708047757914  0.8538089853059050  0.2834196045944087   T   T   T
  0.2469410469555895  0.8956133382048931  0.2807253154406540   T   T   T
  0.2490171832611656  0.9788838708407450  0.2775363157138286   T   T   T
 -0.0051127242834176  0.7709314925360009  0.2913501020908140   T   T   T
  0.5017728713760601  0.1040550421511997  0.2802144388823307   T   T   T
  0.7523849977928353  0.1456524783938067  0.2830333722912846   T   T   T
  0.7544733135212561  0.2285117859166244  0.2919523551972391   T   T   T
  0.4997286312332773  0.0206349457444902  0.2773598473899719   T   T   T
  0.5021432313366238  0.3514980193532006  0.3135612158844509   T   T   T
  0.7581060246154777  0.3955725946983723  0.3185178358541954   T   T   T
  0.7520550539757629  0.4812421885119144  0.3237784782362609   T   T   T
  0.5057807181936673  0.2694817588132309  0.2985098721379643   T   T   T
  0.4940328122261491  0.6058038424190023  0.3159489477797745   T   T   T
  0.7438317133528297  0.7301739373353024  0.2961734740121948   T   T   T
  0.4958230302631844  0.8538155661136695  0.2838545730859902   T   T   T
  0.7468997329951290  0.8953572182687550  0.2806251262890734   T   T   T
  0.7489879957684484  0.9788342119217438  0.2774332484115860   T   T   T
  0.4935460619861247  0.7709474323504930  0.2920981953623812   T   T   T
  0.7417251388091879  0.6480881918644272  0.3070090534419466   T   T   T
  0.2415053085192986  0.6463680485421580  0.3088721469202921   T   T   T
 -0.0004114404730259  0.0206350172800254  0.2772837555014553   T   T   T
  0.5156340985292133  0.5261421078816901  0.3318845473871483   T   T   T
  0.9868292059891719  0.5259135968603942  0.3192140012014615   T   T   T
  0.2578783700693611  0.3870687213465905  0.3235837471905560   T   T   T
  0.2614931619537159  0.4806536187541799  0.4106315828516373   T   T   T
 
  0.00000000E+00  0.00000000E+00  0.00000000E+00
  0.00000000E+00  0.00000000E+00  0.00000000E+00
  0.00000000E+00  0.00000000E+00  0.00000000E+00
  0.00000000E+00  0.00000000E+00  0.00000000E+00
  0.00000000E+00  0.00000000E+00  0.00000000E+00
  0.00000000E+00  0.00000000E+00  0.00000000E+00
  0.00000000E+00  0.00000000E+00  0.00000000E+00
  0.00000000E+00  0.00000000E+00  0.00000000E+00
  0.00000000E+00  0.00000000E+00  0.00000000E+00
  0.00000000E+00  0.00000000E+00  0.00000000E+00
  0.00000000E+00  0.00000000E+00  0.00000000E+00
  0.00000000E+00  0.00000000E+00  0.00000000E+00
  0.00000000E+00  0.00000000E+00  0.00000000E+00
  0.00000000E+00  0.00000000E+00  0.00000000E+00
  0.00000000E+00  0.00000000E+00  0.00000000E+00
  0.00000000E+00  0.00000000E+00  0.00000000E+00
  0.00000000E+00  0.00000000E+00  0.00000000E+00
  0.00000000E+00  0.00000000E+00  0.00000000E+00
  0.00000000E+00  0.00000000E+00  0.00000000E+00
  0.00000000E+00  0.00000000E+00  0.00000000E+00
  0.00000000E+00  0.00000000E+00  0.00000000E+00
  0.00000000E+00  0.00000000E+00  0.00000000E+00
  0.00000000E+00  0.00000000E+00  0.00000000E+00
  0.00000000E+00  0.00000000E+00  0.00000000E+00
  0.00000000E+00  0.00000000E+00  0.00000000E+00
  0.00000000E+00  0.00000000E+00  0.00000000E+00
  0.00000000E+00  0.00000000E+00  0.00000000E+00
  0.00000000E+00  0.00000000E+00  0.00000000E+00
  0.00000000E+00  0.00000000E+00  0.00000000E+00
  0.00000000E+00  0.00000000E+00  0.00000000E+00
  0.00000000E+00  0.00000000E+00  0.00000000E+00
  0.00000000E+00  0.00000000E+00  0.00000000E+00
