Title                                   
   1.00000000000000     
     9.8694509999999998    0.0000000000000000    0.0000000000000000
     0.0000000000000000    8.5490480000000009    0.0000000000000000
     0.0000000000000000    0.0000000000000000   20.0000000000000000
    26     5     1
Selective dynamics
Direct
  0.0567051900285849  0.0924830763102676  0.0910974911982290   T   T   T
  0.9310472637026507  0.1748442399636748  0.0920989922499819   T   T   T
  0.0572281280158755  0.9245450617346306  0.0909848650545493   T   T   T
  0.9294966215220334  0.3421298941614708  0.0943225166194170   T   T   T
  0.0559291110467008  0.5900436331017848  0.0919466216608467   T   T   T
  0.9321295087951490  0.6735902937328000  0.0933108629410538   T   T   T
  0.0575576902636182  0.4236300324707934  0.0925802487763556   T   T   T
  0.9321031599113581  0.8410789857361586  0.0920985163478546   T   T   T
  0.3057991567510271  0.0883436508468664  0.0906918262508397   T   T   T
  0.1830369289955564  0.1754877288590637  0.0910537997887034   T   T   T
  0.3069122291794070  0.9226804893371622  0.0915574720695859   T   T   T
  0.1838772644668850  0.3417807105673977  0.0915031675952913   T   T   T
  0.3080157537842348  0.5931981025815617  0.0925415376665679   T   T   T
  0.1816135986072842  0.6719631715007939  0.0919056323224880   T   T   T
  0.1815753866113057  0.8390802941594578  0.0912867553009042   T   T   T
  0.5559005045990029  0.0831658504819080  0.0931814520275142   T   T   T
  0.4315521725974500  0.1678738238108360  0.0921229534181637   T   T   T
  0.4351788989954822  0.3349448512540447  0.0952896102572283   T   T   T
  0.4284495621382056  0.8346821604698276  0.0929837741604419   T   T   T
  0.8070785780577134  0.0900046003751564  0.0915956211049710   T   T   T
  0.6801201612346781  0.1685633584560728  0.0940876707489793   T   T   T
  0.8072100567426517  0.9244760360408474  0.0919860715344768   T   T   T
  0.6761677677142900  0.3349979937657119  0.0991184584255340   T   T   T
  0.8052020280904528  0.5945642911693875  0.0992043099877717   T   T   T
  0.8018683739749027  0.4251021870084052  0.0985851159335544   T   T   T
  0.6845756595372026  0.8370363015750256  0.0963361813826441   T   T   T
  0.4266343911325612  0.6754230608546374  0.0933124443241938   T   T   T
  0.5534577079844536  0.4101422450569770  0.1039748272291368   T   T   T
  0.6885840767209959  0.6811394403092718  0.1058260195762150   T   T   T
  0.5566878140453556  0.9156046585362962  0.0929265709371360   T   T   T
  0.3113641829752898  0.4242903182248759  0.0913690499320547   T   T   T
  0.5465800717776471  0.5933554575468379  0.1747945631773319   T   T   T
 
  0.00000000E+00  0.00000000E+00  0.00000000E+00
  0.00000000E+00  0.00000000E+00  0.00000000E+00
  0.00000000E+00  0.00000000E+00  0.00000000E+00
  0.00000000E+00  0.00000000E+00  0.00000000E+00
  0.00000000E+00  0.00000000E+00  0.00000000E+00
  0.00000000E+00  0.00000000E+00  0.00000000E+00
  0.00000000E+00  0.00000000E+00  0.00000000E+00
  0.00000000E+00  0.00000000E+00  0.00000000E+00
  0.00000000E+00  0.00000000E+00  0.00000000E+00
  0.00000000E+00  0.00000000E+00  0.00000000E+00
  0.00000000E+00  0.00000000E+00  0.00000000E+00
  0.00000000E+00  0.00000000E+00  0.00000000E+00
  0.00000000E+00  0.00000000E+00  0.00000000E+00
  0.00000000E+00  0.00000000E+00  0.00000000E+00
  0.00000000E+00  0.00000000E+00  0.00000000E+00
  0.00000000E+00  0.00000000E+00  0.00000000E+00
  0.00000000E+00  0.00000000E+00  0.00000000E+00
  0.00000000E+00  0.00000000E+00  0.00000000E+00
  0.00000000E+00  0.00000000E+00  0.00000000E+00
  0.00000000E+00  0.00000000E+00  0.00000000E+00
  0.00000000E+00  0.00000000E+00  0.00000000E+00
  0.00000000E+00  0.00000000E+00  0.00000000E+00
  0.00000000E+00  0.00000000E+00  0.00000000E+00
  0.00000000E+00  0.00000000E+00  0.00000000E+00
  0.00000000E+00  0.00000000E+00  0.00000000E+00
  0.00000000E+00  0.00000000E+00  0.00000000E+00
  0.00000000E+00  0.00000000E+00  0.00000000E+00
  0.00000000E+00  0.00000000E+00  0.00000000E+00
  0.00000000E+00  0.00000000E+00  0.00000000E+00
  0.00000000E+00  0.00000000E+00  0.00000000E+00
  0.00000000E+00  0.00000000E+00  0.00000000E+00
  0.00000000E+00  0.00000000E+00  0.00000000E+00
