Title                                   
   1.00000000000000     
     4.9440799999999996    0.0000000000000000    0.0000000000000000
     0.0000000000000000   17.1295089999999988    0.0000000000000000
     0.0000000000000000    0.0000000000000000   20.0000000000000000
    31     1
Selective dynamics
Direct
  0.0004766061716688  0.1042432304672212  0.2786542676009116   T   T   T
  0.2501709198211587  0.1457965769024186  0.2841324481057999   T   T   T
  0.2501122142361875  0.2279613533605781  0.2978932724410757   T   T   T
 -0.0020027267943295  0.3492744980860736  0.3240106263910562   T   T   T
 -0.0017807172545505  0.2683195050369426  0.3052256058333531   T   T   T
 -0.0029690268578098  0.6078665037742046  0.3152428432624492   T   T   T
  0.2501138891312188  0.7297598817658796  0.2916338474134953   T   T   T
  0.0005285174871086  0.8540641440819852  0.2748800803779338   T   T   T
  0.2501809145657643  0.8958562012675212  0.2723816388585029   T   T   T
  0.2502090819042748  0.9792830902791817  0.2709819346941926   T   T   T
  0.0005874321474012  0.7712446969334339  0.2840436255030213   T   T   T
  0.4998916413944561  0.1042284632603730  0.2786687261412343   T   T   T
  0.7501573015093459  0.1454182988221815  0.2833395879377069   T   T   T
  0.7500960006200953  0.2273614450317277  0.2964108290902776   T   T   T
  0.5000814502010826  0.0210636157987322  0.2721724376508229   T   T   T
  0.5021337791776715  0.3492533489812655  0.3241730318304696   T   T   T
  0.7500290391057611  0.3936383002364695  0.3297198969026724   T   T   T
  0.7496567887367876  0.4800123900933170  0.3336009124763609   T   T   T
  0.5019847572829541  0.2683384265589669  0.3052868879316563   T   T   T
  0.5029242264886405  0.6078649706592769  0.3159557838818432   T   T   T
  0.7499700308899205  0.7303840957001311  0.2893733848385835   T   T   T
  0.4998257669111194  0.8540801964498901  0.2749212003228410   T   T   T
  0.7501972950511507  0.8957014467014299  0.2720073334192201   T   T   T
  0.7502211495068868  0.9792966425993380  0.2707068202369958   T   T   T
  0.4995681997755109  0.7712896422803273  0.2841318661538190   T   T   T
  0.7497729569719838  0.6487883812986185  0.3038414458510971   T   T   T
  0.2501173615466338  0.6485291323205117  0.3086766750477362   T   T   T
  0.0003382665763689  0.0210733239118796  0.2721634138657170   T   T   T
  0.5101923446207464  0.5275223445093337  0.3354044942604772   T   T   T
  0.9892794823560270  0.5272670694642838  0.3332912471248505   T   T   T
  0.2500581568625441  0.3843195306583757  0.3384295963494039   T   T   T
  0.2446998998562261  0.4794502527081246  0.4012092382043770   T   T   T
 
  0.00000000E+00  0.00000000E+00  0.00000000E+00
  0.00000000E+00  0.00000000E+00  0.00000000E+00
  0.00000000E+00  0.00000000E+00  0.00000000E+00
  0.00000000E+00  0.00000000E+00  0.00000000E+00
  0.00000000E+00  0.00000000E+00  0.00000000E+00
  0.00000000E+00  0.00000000E+00  0.00000000E+00
  0.00000000E+00  0.00000000E+00  0.00000000E+00
  0.00000000E+00  0.00000000E+00  0.00000000E+00
  0.00000000E+00  0.00000000E+00  0.00000000E+00
  0.00000000E+00  0.00000000E+00  0.00000000E+00
  0.00000000E+00  0.00000000E+00  0.00000000E+00
  0.00000000E+00  0.00000000E+00  0.00000000E+00
  0.00000000E+00  0.00000000E+00  0.00000000E+00
  0.00000000E+00  0.00000000E+00  0.00000000E+00
  0.00000000E+00  0.00000000E+00  0.00000000E+00
  0.00000000E+00  0.00000000E+00  0.00000000E+00
  0.00000000E+00  0.00000000E+00  0.00000000E+00
  0.00000000E+00  0.00000000E+00  0.00000000E+00
  0.00000000E+00  0.00000000E+00  0.00000000E+00
  0.00000000E+00  0.00000000E+00  0.00000000E+00
  0.00000000E+00  0.00000000E+00  0.00000000E+00
  0.00000000E+00  0.00000000E+00  0.00000000E+00
  0.00000000E+00  0.00000000E+00  0.00000000E+00
  0.00000000E+00  0.00000000E+00  0.00000000E+00
  0.00000000E+00  0.00000000E+00  0.00000000E+00
  0.00000000E+00  0.00000000E+00  0.00000000E+00
  0.00000000E+00  0.00000000E+00  0.00000000E+00
  0.00000000E+00  0.00000000E+00  0.00000000E+00
  0.00000000E+00  0.00000000E+00  0.00000000E+00
  0.00000000E+00  0.00000000E+00  0.00000000E+00
  0.00000000E+00  0.00000000E+00  0.00000000E+00
  0.00000000E+00  0.00000000E+00  0.00000000E+00
