Title                                   
   1.00000000000000     
     8.5490480000000009    0.0000000000000000    0.0000000000000000
     0.0000000000000000    8.5490480000000009    0.0000000000000000
     0.0000000000000000    0.0000000000000000   20.0000000000000000
    20     4     1
Selective dynamics
Direct
  0.9093357066519919  0.2060773912020770  0.0975052005354431   T   T   T
  0.9111807974291949  0.8004140188886977  0.0975107863493066   T   T   T
  0.1986040458514610  0.0836800584852769  0.0977874229498456   T   T   T
  0.0755464986228869  0.2033641434606117  0.0976545318311586   T   T   T
  0.1549823964320211  0.6486385741315616  0.0977782269369011   T   T   T
  0.0717645270640967  0.5014065028996468  0.0977633071886918   T   T   T
  0.1536169493743957  0.3554615849766328  0.0977552413129734   T   T   T
  0.0790531416616595  0.7983777864624806  0.0976915312798912   T   T   T
  0.4954526404679343  0.0868999091480518  0.0978373803694249   T   T   T
  0.3466396866463341  0.1664588191359541  0.0978936801902623   T   T   T
  0.4948925499312024  0.9167062489744876  0.0978081600883806   T   T   T
  0.3473686996572934  0.8331031433997399  0.0978920352351971   T   T   T
  0.7889407735229254  0.0869198356934328  0.0974488001853473   T   T   T
  0.6426629231439248  0.1679698391903486  0.0977339988508940   T   T   T
  0.7897571531640332  0.9185487141886021  0.0974328662568274   T   T   T
  0.8275087668478858  0.6514833768847100  0.0976858549617798   T   T   T
  0.8255366873252978  0.3548823310083765  0.0977177784108949   T   T   T
  0.6429578099540705  0.8358470324514211  0.0976725072146049   T   T   T
  0.3219575285065512  0.3351496363536274  0.0978699777077271   T   T   T
  0.3226747293805018  0.6688407585458603  0.0978588772043419   T   T   T
  0.9033376932280081  0.5028220322715291  0.0978155769717788   T   T   T
  0.6661706442467299  0.3329252547060783  0.0979059869085394   T   T   T
  0.6674152493089849  0.6722286432592007  0.0978354091711879   T   T   T
  0.1984447748492882  0.9161391258702133  0.0978529429642081   T   T   T
  0.4896096267313205  0.5004452384114020  0.0979969189243650   T   T   T
 
  0.00000000E+00  0.00000000E+00  0.00000000E+00
  0.00000000E+00  0.00000000E+00  0.00000000E+00
  0.00000000E+00  0.00000000E+00  0.00000000E+00
  0.00000000E+00  0.00000000E+00  0.00000000E+00
  0.00000000E+00  0.00000000E+00  0.00000000E+00
  0.00000000E+00  0.00000000E+00  0.00000000E+00
  0.00000000E+00  0.00000000E+00  0.00000000E+00
  0.00000000E+00  0.00000000E+00  0.00000000E+00
  0.00000000E+00  0.00000000E+00  0.00000000E+00
  0.00000000E+00  0.00000000E+00  0.00000000E+00
  0.00000000E+00  0.00000000E+00  0.00000000E+00
  0.00000000E+00  0.00000000E+00  0.00000000E+00
  0.00000000E+00  0.00000000E+00  0.00000000E+00
  0.00000000E+00  0.00000000E+00  0.00000000E+00
  0.00000000E+00  0.00000000E+00  0.00000000E+00
  0.00000000E+00  0.00000000E+00  0.00000000E+00
  0.00000000E+00  0.00000000E+00  0.00000000E+00
  0.00000000E+00  0.00000000E+00  0.00000000E+00
  0.00000000E+00  0.00000000E+00  0.00000000E+00
  0.00000000E+00  0.00000000E+00  0.00000000E+00
  0.00000000E+00  0.00000000E+00  0.00000000E+00
  0.00000000E+00  0.00000000E+00  0.00000000E+00
  0.00000000E+00  0.00000000E+00  0.00000000E+00
  0.00000000E+00  0.00000000E+00  0.00000000E+00
  0.00000000E+00  0.00000000E+00  0.00000000E+00
