Title                                   
   1.00000000000000     
     4.9440799999999996    0.0000000000000000    0.0000000000000000
     0.0000000000000000   17.1295089999999988    0.0000000000000000
     0.0000000000000000    0.0000000000000000   20.0000000000000000
    27     3     1
Selective dynamics
Direct
 -0.0063401219830113  0.1052067831364609  0.2967006719343954   T   T   T
  0.2420136364187042  0.1477695383485336  0.2977021656251495   T   T   T
  0.2388157916521683  0.2318761058914684  0.3002311584741211   T   T   T
 -0.0138213783974754  0.2735301358500802  0.3009753284741448   T   T   T
  0.0138619059397835  0.6024425333730435  0.2918918602269662   T   T   T
  0.2599298694262826  0.7262347184370014  0.2973455053293204   T   T   T
  0.0047670882002024  0.8524536365485264  0.2962484193779916   T   T   T
  0.2523045041645298  0.8950474308073765  0.2968616915668595   T   T   T
  0.2484853819251805  0.9790957947021568  0.2966418890286995   T   T   T
  0.0088170747939520  0.7681404258030995  0.2956873084511365   T   T   T
  0.4932185695391495  0.1053377259335696  0.2968201927324524   T   T   T
  0.7424316391848245  0.1472171220997905  0.2968964644156161   T   T   T
  0.7375270583152909  0.2311961598417642  0.2986419668922057   T   T   T
  0.4971833968979601  0.0211674097015558  0.2965023003106106   T   T   T
  0.7451956360180914  0.3949895310039206  0.3017536669512613   T   T   T
  0.7612294259735021  0.4819980128543546  0.3027144433836949   T   T   T
  0.4876545041240912  0.2737686239022538  0.3011514575686888   T   T   T
  0.5158462464547047  0.6009683235783873  0.3047105436967942   T   T   T
  0.7570262430468955  0.7273505082136371  0.2954325238455856   T   T   T
  0.5023309743338877  0.8529376997206597  0.2971667627478105   T   T   T
  0.7523589257170075  0.8945934670907900  0.2964658873026743   T   T   T
  0.7485569169018553  0.9788358660668989  0.2963318681402333   T   T   T
  0.5060595444111100  0.7686587264088430  0.2974928830155568   T   T   T
  0.7623897070480892  0.6443842346895516  0.2951033706223579   T   T   T
 -0.0025683628311257  0.0211831538128218  0.2963698236693617   T   T   T
  0.0011037450042913  0.5211449337287419  0.2876740625268769   T   T   T
  0.5011357465067658  0.3572354997159569  0.3064355434513631   T   T   T
  0.5236334353785279  0.5225094570949900  0.3195944628550977   T   T   T
 -0.0214266653902451  0.3537722500313630  0.3053086392306991   T   T   T
  0.2661913993150579  0.6427019631201334  0.2989139209165330   T   T   T
  0.2340951619099536  0.4375942284922656  0.3232932172356928   T   T   T
 
  0.00000000E+00  0.00000000E+00  0.00000000E+00
  0.00000000E+00  0.00000000E+00  0.00000000E+00
  0.00000000E+00  0.00000000E+00  0.00000000E+00
  0.00000000E+00  0.00000000E+00  0.00000000E+00
  0.00000000E+00  0.00000000E+00  0.00000000E+00
  0.00000000E+00  0.00000000E+00  0.00000000E+00
  0.00000000E+00  0.00000000E+00  0.00000000E+00
  0.00000000E+00  0.00000000E+00  0.00000000E+00
  0.00000000E+00  0.00000000E+00  0.00000000E+00
  0.00000000E+00  0.00000000E+00  0.00000000E+00
  0.00000000E+00  0.00000000E+00  0.00000000E+00
  0.00000000E+00  0.00000000E+00  0.00000000E+00
  0.00000000E+00  0.00000000E+00  0.00000000E+00
  0.00000000E+00  0.00000000E+00  0.00000000E+00
  0.00000000E+00  0.00000000E+00  0.00000000E+00
  0.00000000E+00  0.00000000E+00  0.00000000E+00
  0.00000000E+00  0.00000000E+00  0.00000000E+00
  0.00000000E+00  0.00000000E+00  0.00000000E+00
  0.00000000E+00  0.00000000E+00  0.00000000E+00
  0.00000000E+00  0.00000000E+00  0.00000000E+00
  0.00000000E+00  0.00000000E+00  0.00000000E+00
  0.00000000E+00  0.00000000E+00  0.00000000E+00
  0.00000000E+00  0.00000000E+00  0.00000000E+00
  0.00000000E+00  0.00000000E+00  0.00000000E+00
  0.00000000E+00  0.00000000E+00  0.00000000E+00
  0.00000000E+00  0.00000000E+00  0.00000000E+00
  0.00000000E+00  0.00000000E+00  0.00000000E+00
  0.00000000E+00  0.00000000E+00  0.00000000E+00
  0.00000000E+00  0.00000000E+00  0.00000000E+00
  0.00000000E+00  0.00000000E+00  0.00000000E+00
  0.00000000E+00  0.00000000E+00  0.00000000E+00
