Title                                   
   1.00000000000000     
     9.8694509999999998    0.0000000000000000    0.0000000000000000
     0.0000000000000000    8.5490480000000009    0.0000000000000000
     0.0000000000000000    0.0000000000000000   20.0000000000000000
    28     3     1
Selective dynamics
Direct
  0.0559358554773776  0.0896750311241343  0.0816764411690566   T   T   T
  0.9314734185845478  0.1735261674272513  0.0828119206070299   T   T   T
  0.0569651445615977  0.9224644983301787  0.0822108664374304   T   T   T
  0.9309234056964195  0.3407401519942725  0.0860488915670795   T   T   T
  0.0562082802015193  0.5912380918299851  0.0855593335371459   T   T   T
  0.0558899140706321  0.4245784254884326  0.0855830149183285   T   T   T
  0.9325639617819035  0.8382011312419049  0.0849395975921794   T   T   T
  0.3058725344719496  0.0887403866444994  0.0873057261479741   T   T   T
  0.1819912484147647  0.1728454578099085  0.0847586219353621   T   T   T
  0.1817440522268797  0.3401211420304551  0.0882160931461039   T   T   T
  0.3022742228923035  0.5883284684187098  0.1024388095766930   T   T   T
  0.1804678874723221  0.6747284096701470  0.0893820559665714   T   T   T
  0.3054658655696098  0.4213763320032893  0.0995942928777132   T   T   T
  0.1824754614238898  0.8406945612911112  0.0860344392490823   T   T   T
  0.5559591106133956  0.0876350234642329  0.0928485264007319   T   T   T
  0.5548402795080888  0.9231288759110251  0.0997831004031403   T   T   T
  0.4299674273474210  0.3319337554448656  0.1048854322673492   T   T   T
  0.4269454458336722  0.8417597746726739  0.1043406971781707   T   T   T
  0.8069520281007225  0.0885390175819654  0.0848194373721817   T   T   T
  0.6806393424705536  0.1708301236513288  0.0903274991886656   T   T   T
  0.8072706491460719  0.9225874006200028  0.0878346058565551   T   T   T
  0.6831893349091070  0.3363024471218890  0.1004861349079091   T   T   T
  0.8107688097087262  0.5923045846118953  0.1010105323346504   T   T   T
  0.8072164801454866  0.4233342979954634  0.0960158806597330   T   T   T
  0.6829645182533323  0.8428776448579386  0.1010162542752153   T   T   T
  0.4155621457360509  0.6832945278265826  0.1197788973123906   T   T   T
  0.5557679059084107  0.4012457734851417  0.1186475778469127   T   T   T
  0.6968518367486278  0.6823181104324519  0.1178369303585775   T   T   T
  0.3054140258819028  0.9251225681771791  0.0889044388627945   T   T   T
  0.4288640422352956  0.1677893020370403  0.0927015693924288   T   T   T
  0.9328167209366526  0.6737345449078321  0.0869426998050887   T   T   T
  0.5573976436707697  0.5882499718962141  0.1709346808497710   T   T   T
 
  0.00000000E+00  0.00000000E+00  0.00000000E+00
  0.00000000E+00  0.00000000E+00  0.00000000E+00
  0.00000000E+00  0.00000000E+00  0.00000000E+00
  0.00000000E+00  0.00000000E+00  0.00000000E+00
  0.00000000E+00  0.00000000E+00  0.00000000E+00
  0.00000000E+00  0.00000000E+00  0.00000000E+00
  0.00000000E+00  0.00000000E+00  0.00000000E+00
  0.00000000E+00  0.00000000E+00  0.00000000E+00
  0.00000000E+00  0.00000000E+00  0.00000000E+00
  0.00000000E+00  0.00000000E+00  0.00000000E+00
  0.00000000E+00  0.00000000E+00  0.00000000E+00
  0.00000000E+00  0.00000000E+00  0.00000000E+00
  0.00000000E+00  0.00000000E+00  0.00000000E+00
  0.00000000E+00  0.00000000E+00  0.00000000E+00
  0.00000000E+00  0.00000000E+00  0.00000000E+00
  0.00000000E+00  0.00000000E+00  0.00000000E+00
  0.00000000E+00  0.00000000E+00  0.00000000E+00
  0.00000000E+00  0.00000000E+00  0.00000000E+00
  0.00000000E+00  0.00000000E+00  0.00000000E+00
  0.00000000E+00  0.00000000E+00  0.00000000E+00
  0.00000000E+00  0.00000000E+00  0.00000000E+00
  0.00000000E+00  0.00000000E+00  0.00000000E+00
  0.00000000E+00  0.00000000E+00  0.00000000E+00
  0.00000000E+00  0.00000000E+00  0.00000000E+00
  0.00000000E+00  0.00000000E+00  0.00000000E+00
  0.00000000E+00  0.00000000E+00  0.00000000E+00
  0.00000000E+00  0.00000000E+00  0.00000000E+00
  0.00000000E+00  0.00000000E+00  0.00000000E+00
  0.00000000E+00  0.00000000E+00  0.00000000E+00
  0.00000000E+00  0.00000000E+00  0.00000000E+00
  0.00000000E+00  0.00000000E+00  0.00000000E+00
  0.00000000E+00  0.00000000E+00  0.00000000E+00
