Title                                   
   1.00000000000000     
     4.9440799999999996    0.0000000000000000    0.0000000000000000
     0.0000000000000000   17.1295089999999988    0.0000000000000000
     0.0000000000000000    0.0000000000000000   20.0000000000000000
    26     4     1
Selective dynamics
Direct
  0.0028279307818831  0.1060114182948337  0.2988907212339322   T   T   T
  0.2523077234165873  0.1490401354532608  0.2992670981175584   T   T   T
  0.2534809967976107  0.2338499276528427  0.3000883787234828   T   T   T
  0.0010665393943860  0.2750622727789604  0.3005252094571134   T   T   T
 -0.0052016813621148  0.6000908924479635  0.2997331276640802   T   T   T
  0.2461623968007481  0.7262390308346451  0.2991848480981184   T   T   T
  0.0000623954288543  0.8529081651478961  0.2983816488801037   T   T   T
  0.2490274866458375  0.8951797183655341  0.2982386830002036   T   T   T
  0.2503533938307023  0.9794970415007203  0.2981924780499430   T   T   T
 -0.0008130241244002  0.7684818897950360  0.2988472720506480   T   T   T
  0.5009878713428130  0.1059367434987648  0.2988414979530873   T   T   T
  0.7520989122054597  0.1479785832679443  0.2992150074760151   T   T   T
  0.7533126975190213  0.2314713873564060  0.3000040162313150   T   T   T
  0.5001350279824009  0.0217954534654337  0.2983206428401748   T   T   T
  0.7564919152131415  0.3941422199621396  0.3009103768228718   T   T   T
  0.7521789509283592  0.4795377059336570  0.3006945763151356   T   T   T
  0.5061967661559603  0.2755946644916377  0.3002814059671269   T   T   T
  0.4962485067659269  0.6002392988864469  0.3003660289589695   T   T   T
  0.7480847486765901  0.7268297543876607  0.2992742060432056   T   T   T
  0.4972709747455480  0.8525352024515025  0.2984706842574165   T   T   T
  0.7489490156225369  0.8949458205782975  0.2982573611571031   T   T   T
  0.7502636684568521  0.9791322983320168  0.2981886632679387   T   T   T
  0.4955160212714969  0.7681709423141584  0.2990165868119622   T   T   T
  0.7458383202989533  0.6441539510105886  0.2998745553835211   T   T   T
  0.0011508028936381  0.0217485220334626  0.2983389588461453   T   T   T
  0.5074184095460402  0.5191593217614549  0.3015808280682062   T   T   T
  0.9920055100037418  0.5209774968487800  0.2993513070457652   T   T   T
  0.5177552771477703  0.3554619711434902  0.3002990085384102   T   T   T
 -0.0075499322240522  0.3549965294000605  0.3015360944334076   T   T   T
  0.2436656915007065  0.6420469494071018  0.2996330297530846   T   T   T
  0.2527136863370034  0.4381266911973005  0.3012556985539047   T   T   T
 
  0.00000000E+00  0.00000000E+00  0.00000000E+00
  0.00000000E+00  0.00000000E+00  0.00000000E+00
  0.00000000E+00  0.00000000E+00  0.00000000E+00
  0.00000000E+00  0.00000000E+00  0.00000000E+00
  0.00000000E+00  0.00000000E+00  0.00000000E+00
  0.00000000E+00  0.00000000E+00  0.00000000E+00
  0.00000000E+00  0.00000000E+00  0.00000000E+00
  0.00000000E+00  0.00000000E+00  0.00000000E+00
  0.00000000E+00  0.00000000E+00  0.00000000E+00
  0.00000000E+00  0.00000000E+00  0.00000000E+00
  0.00000000E+00  0.00000000E+00  0.00000000E+00
  0.00000000E+00  0.00000000E+00  0.00000000E+00
  0.00000000E+00  0.00000000E+00  0.00000000E+00
  0.00000000E+00  0.00000000E+00  0.00000000E+00
  0.00000000E+00  0.00000000E+00  0.00000000E+00
  0.00000000E+00  0.00000000E+00  0.00000000E+00
  0.00000000E+00  0.00000000E+00  0.00000000E+00
  0.00000000E+00  0.00000000E+00  0.00000000E+00
  0.00000000E+00  0.00000000E+00  0.00000000E+00
  0.00000000E+00  0.00000000E+00  0.00000000E+00
  0.00000000E+00  0.00000000E+00  0.00000000E+00
  0.00000000E+00  0.00000000E+00  0.00000000E+00
  0.00000000E+00  0.00000000E+00  0.00000000E+00
  0.00000000E+00  0.00000000E+00  0.00000000E+00
  0.00000000E+00  0.00000000E+00  0.00000000E+00
  0.00000000E+00  0.00000000E+00  0.00000000E+00
  0.00000000E+00  0.00000000E+00  0.00000000E+00
  0.00000000E+00  0.00000000E+00  0.00000000E+00
  0.00000000E+00  0.00000000E+00  0.00000000E+00
  0.00000000E+00  0.00000000E+00  0.00000000E+00
  0.00000000E+00  0.00000000E+00  0.00000000E+00
