Title                                   
   1.00000000000000     
     8.5490480000000009    0.0000000000000000    0.0000000000000000
     0.0000000000000000    8.5490480000000009    0.0000000000000000
     0.0000000000000000    0.0000000000000000   20.0000000000000000
    24     1
Selective dynamics
Direct
  0.9117046132112457  0.2053284736948416  0.0954466451684245   T   T   T
  0.9089883220922044  0.5018045256367671  0.0953045740826552   T   T   T
  0.9117072328470333  0.7982438884712362  0.0954596932270491   T   T   T
  0.1965652683856989  0.0831022042782568  0.0954754329602730   T   T   T
  0.0743430206059539  0.2053188543825625  0.0954617361830151   T   T   T
  0.1965539703437459  0.9204617702318385  0.0954797109232857   T   T   T
  0.1575166538364472  0.6485560332060402  0.0953513223599507   T   T   T
  0.0770464793078342  0.5017996196357500  0.0953256452585245   T   T   T
  0.1575014843385148  0.3550199044245336  0.0953382939634453   T   T   T
  0.0743413630578939  0.7982377893799308  0.0954701245410518   T   T   T
  0.4929985182190754  0.0858038255750991  0.0953537590658527   T   T   T
  0.3462419829603052  0.1662906144055315  0.0953585762984368   T   T   T
  0.4929961286963738  0.9177736702747642  0.0953590334034611   T   T   T
  0.3462408245160727  0.8373004187127348  0.0953646772916256   T   T   T
  0.7894855333016139  0.0831153785431767  0.0954558368085969   T   T   T
  0.6397690130174538  0.1662889816790262  0.0953288227637279   T   T   T
  0.7895033587144711  0.9204705017507417  0.0954577270128491   T   T   T
  0.8285158941190615  0.6485711008099407  0.0953130576497647   T   T   T
  0.8285167177938438  0.3550278495823479  0.0953025814597239   T   T   T
  0.6397776365708208  0.8372970288654774  0.0953282698772541   T   T   T
  0.3229079896978652  0.3316710481130410  0.0952591900542021   T   T   T
  0.3229194780356542  0.6719134710751516  0.0952647625866473   T   T   T
  0.6631211957823355  0.3316658001725889  0.0952051631320768   T   T   T
  0.6631169748273567  0.6719234128170947  0.0952136004354340   T   T   T
  0.4930323457211173  0.5018038342815391  0.0950267634926497   T   T   T
 
  0.00000000E+00  0.00000000E+00  0.00000000E+00
  0.00000000E+00  0.00000000E+00  0.00000000E+00
  0.00000000E+00  0.00000000E+00  0.00000000E+00
  0.00000000E+00  0.00000000E+00  0.00000000E+00
  0.00000000E+00  0.00000000E+00  0.00000000E+00
  0.00000000E+00  0.00000000E+00  0.00000000E+00
  0.00000000E+00  0.00000000E+00  0.00000000E+00
  0.00000000E+00  0.00000000E+00  0.00000000E+00
  0.00000000E+00  0.00000000E+00  0.00000000E+00
  0.00000000E+00  0.00000000E+00  0.00000000E+00
  0.00000000E+00  0.00000000E+00  0.00000000E+00
  0.00000000E+00  0.00000000E+00  0.00000000E+00
  0.00000000E+00  0.00000000E+00  0.00000000E+00
  0.00000000E+00  0.00000000E+00  0.00000000E+00
  0.00000000E+00  0.00000000E+00  0.00000000E+00
  0.00000000E+00  0.00000000E+00  0.00000000E+00
  0.00000000E+00  0.00000000E+00  0.00000000E+00
  0.00000000E+00  0.00000000E+00  0.00000000E+00
  0.00000000E+00  0.00000000E+00  0.00000000E+00
  0.00000000E+00  0.00000000E+00  0.00000000E+00
  0.00000000E+00  0.00000000E+00  0.00000000E+00
  0.00000000E+00  0.00000000E+00  0.00000000E+00
  0.00000000E+00  0.00000000E+00  0.00000000E+00
  0.00000000E+00  0.00000000E+00  0.00000000E+00
  0.00000000E+00  0.00000000E+00  0.00000000E+00
