Title                                   
   1.00000000000000     
     9.8694509999999998    0.0000000000000000    0.0000000000000000
     0.0000000000000000    8.5490480000000009    0.0000000000000000
     0.0000000000000000    0.0000000000000000   20.0000000000000000
    29     2     1
Selective dynamics
Direct
  0.0563817148118166  0.0900572331794686  0.0834053038398731   T   T   T
  0.9316554496385926  0.1732115798106021  0.0854434118634215   T   T   T
  0.0575314543163316  0.9231670208262120  0.0832457802511641   T   T   T
  0.9314428409358509  0.3403927986795137  0.0888880191684149   T   T   T
  0.0571713741868648  0.5905648915086803  0.0860213292059920   T   T   T
  0.9326365726280218  0.6727944041460232  0.0892160617787389   T   T   T
  0.0569438953640559  0.4227920944085224  0.0870200072692830   T   T   T
  0.9324664643341493  0.8394592790906029  0.0868539084029208   T   T   T
  0.3059942640828276  0.0886945642919217  0.0865884739996087   T   T   T
  0.1822724697113799  0.1726551929083261  0.0853719572613373   T   T   T
  0.1819577327722884  0.3392721836160445  0.0881189135938201   T   T   T
  0.3051670369188932  0.5889193740804752  0.0976226176834599   T   T   T
  0.1819552034561044  0.6737882916117834  0.0866853095810435   T   T   T
  0.3067937772226749  0.4211478873912951  0.0968156456645017   T   T   T
  0.1822244406802949  0.8405339136396482  0.0844154542726525   T   T   T
  0.5561763857821390  0.0881524505522110  0.0927179937152771   T   T   T
  0.5547483710572607  0.9236284031515483  0.0988877561218130   T   T   T
  0.4302599910765218  0.3324294926345857  0.1024609533238842   T   T   T
  0.4281119499376799  0.8418817453624887  0.0998132205154566   T   T   T
  0.8065726762298828  0.0890184851769823  0.0868165742702549   T   T   T
  0.6806180122055399  0.1712230572428882  0.0914231881660767   T   T   T
  0.8071529401913107  0.9237773187707595  0.0895579440353259   T   T   T
  0.6822727807784605  0.3361822346627670  0.1015639403150993   T   T   T
  0.8092572490949083  0.5909099009461940  0.1014342941222740   T   T   T
  0.8064685989753299  0.4224849835549545  0.0984434545171599   T   T   T
  0.6832519641772168  0.8418536402669787  0.1016149373111690   T   T   T
  0.4205011534578208  0.6816499139956143  0.1120055375690767   T   T   T
  0.5546043348421577  0.4051293991304309  0.1163202656189606   T   T   T
  0.6915877798289093  0.6796602750191507  0.1165775469728661   T   T   T
  0.3061833063974249  0.9259485906603360  0.0862128726815578   T   T   T
  0.4287281696955417  0.1682810554293369  0.0913989620341691   T   T   T
  0.5505486452117565  0.5905843442536548  0.1827133648733631   T   T   T
 
  0.00000000E+00  0.00000000E+00  0.00000000E+00
  0.00000000E+00  0.00000000E+00  0.00000000E+00
  0.00000000E+00  0.00000000E+00  0.00000000E+00
  0.00000000E+00  0.00000000E+00  0.00000000E+00
  0.00000000E+00  0.00000000E+00  0.00000000E+00
  0.00000000E+00  0.00000000E+00  0.00000000E+00
  0.00000000E+00  0.00000000E+00  0.00000000E+00
  0.00000000E+00  0.00000000E+00  0.00000000E+00
  0.00000000E+00  0.00000000E+00  0.00000000E+00
  0.00000000E+00  0.00000000E+00  0.00000000E+00
  0.00000000E+00  0.00000000E+00  0.00000000E+00
  0.00000000E+00  0.00000000E+00  0.00000000E+00
  0.00000000E+00  0.00000000E+00  0.00000000E+00
  0.00000000E+00  0.00000000E+00  0.00000000E+00
  0.00000000E+00  0.00000000E+00  0.00000000E+00
  0.00000000E+00  0.00000000E+00  0.00000000E+00
  0.00000000E+00  0.00000000E+00  0.00000000E+00
  0.00000000E+00  0.00000000E+00  0.00000000E+00
  0.00000000E+00  0.00000000E+00  0.00000000E+00
  0.00000000E+00  0.00000000E+00  0.00000000E+00
  0.00000000E+00  0.00000000E+00  0.00000000E+00
  0.00000000E+00  0.00000000E+00  0.00000000E+00
  0.00000000E+00  0.00000000E+00  0.00000000E+00
  0.00000000E+00  0.00000000E+00  0.00000000E+00
  0.00000000E+00  0.00000000E+00  0.00000000E+00
  0.00000000E+00  0.00000000E+00  0.00000000E+00
  0.00000000E+00  0.00000000E+00  0.00000000E+00
  0.00000000E+00  0.00000000E+00  0.00000000E+00
  0.00000000E+00  0.00000000E+00  0.00000000E+00
  0.00000000E+00  0.00000000E+00  0.00000000E+00
  0.00000000E+00  0.00000000E+00  0.00000000E+00
  0.00000000E+00  0.00000000E+00  0.00000000E+00
