Title                                   
   1.00000000000000     
     9.8694509999999998    0.0000000000000000    0.0000000000000000
     0.0000000000000000    8.5490480000000009    0.0000000000000000
     0.0000000000000000    0.0000000000000000   20.0000000000000000
    23     7     1
Selective dynamics
Direct
  0.0560242355929918  0.0902209845179718  0.0937598364038022   T   T   T
  0.9320363385590854  0.1728716925461469  0.0968240440482932   T   T   T
  0.0573235175443213  0.9208183252046919  0.0939020496093460   T   T   T
  0.9330396983094558  0.3396973253921710  0.0978640613697840   T   T   T
  0.0570470329352116  0.5907870421714235  0.0947517822796752   T   T   T
  0.0566053551624334  0.4234348181010757  0.0944727366162813   T   T   T
  0.9324154770149996  0.8391647036410343  0.0967580472241003   T   T   T
  0.3085975596031533  0.0880712366475279  0.0903162301872446   T   T   T
  0.1816079778645094  0.1720412968018753  0.0913251834253174   T   T   T
  0.1809884828288595  0.3389703269160235  0.0914405031560840   T   T   T
  0.3060292294667969  0.5897398266180103  0.0876671253384758   T   T   T
  0.1801726981868361  0.6727967180130131  0.0924459119007308   T   T   T
  0.3068540775076022  0.4205924189869973  0.0873454027387879   T   T   T
  0.1822231152579838  0.8405497860786891  0.0920270098099255   T   T   T
  0.4303044529501876  0.1710265259076315  0.0904487978475921   T   T   T
  0.5559701248659176  0.9204074318942923  0.0966574344615867   T   T   T
  0.4296950365596560  0.8408595973288938  0.0905645559104538   T   T   T
  0.8046863168387937  0.0897460386231748  0.0976562433580460   T   T   T
  0.6833065041643734  0.1775560607305232  0.1011873011461976   T   T   T
  0.8062952447254442  0.9207962183067918  0.0977021050630187   T   T   T
  0.8098164235306734  0.5898460187773144  0.1034805650895341   T   T   T
  0.8094220844809937  0.4232267437109471  0.1034393011059581   T   T   T
  0.6824592883097504  0.8363496471602460  0.1015026397818640   T   T   T
  0.9329397750640253  0.6715885108634159  0.0976613503101173   T   T   T
  0.5580210151519993  0.0947062592330617  0.0961224081926872   T   T   T
  0.4278521795063957  0.3334660462215809  0.0870540291523652   T   T   T
  0.4259840682558571  0.6791084317997753  0.0859209346125337   T   T   T
  0.6862929563381229  0.3400796149295980  0.1110210614876513   T   T   T
  0.6898319017689070  0.6721904926527374  0.1114381197746208   T   T   T
  0.3057733973095236  0.9219691429039321  0.0904737769085605   T   T   T
  0.5335204343451363  0.5081957173194293  0.1377344516894225   T   T   T
 
  0.00000000E+00  0.00000000E+00  0.00000000E+00
  0.00000000E+00  0.00000000E+00  0.00000000E+00
  0.00000000E+00  0.00000000E+00  0.00000000E+00
  0.00000000E+00  0.00000000E+00  0.00000000E+00
  0.00000000E+00  0.00000000E+00  0.00000000E+00
  0.00000000E+00  0.00000000E+00  0.00000000E+00
  0.00000000E+00  0.00000000E+00  0.00000000E+00
  0.00000000E+00  0.00000000E+00  0.00000000E+00
  0.00000000E+00  0.00000000E+00  0.00000000E+00
  0.00000000E+00  0.00000000E+00  0.00000000E+00
  0.00000000E+00  0.00000000E+00  0.00000000E+00
  0.00000000E+00  0.00000000E+00  0.00000000E+00
  0.00000000E+00  0.00000000E+00  0.00000000E+00
  0.00000000E+00  0.00000000E+00  0.00000000E+00
  0.00000000E+00  0.00000000E+00  0.00000000E+00
  0.00000000E+00  0.00000000E+00  0.00000000E+00
  0.00000000E+00  0.00000000E+00  0.00000000E+00
  0.00000000E+00  0.00000000E+00  0.00000000E+00
  0.00000000E+00  0.00000000E+00  0.00000000E+00
  0.00000000E+00  0.00000000E+00  0.00000000E+00
  0.00000000E+00  0.00000000E+00  0.00000000E+00
  0.00000000E+00  0.00000000E+00  0.00000000E+00
  0.00000000E+00  0.00000000E+00  0.00000000E+00
  0.00000000E+00  0.00000000E+00  0.00000000E+00
  0.00000000E+00  0.00000000E+00  0.00000000E+00
  0.00000000E+00  0.00000000E+00  0.00000000E+00
  0.00000000E+00  0.00000000E+00  0.00000000E+00
  0.00000000E+00  0.00000000E+00  0.00000000E+00
  0.00000000E+00  0.00000000E+00  0.00000000E+00
  0.00000000E+00  0.00000000E+00  0.00000000E+00
  0.00000000E+00  0.00000000E+00  0.00000000E+00
