Title                                   
   1.00000000000000     
     9.8694509999999998    0.0000000000000000    0.0000000000000000
     0.0000000000000000    8.5490480000000009    0.0000000000000000
     0.0000000000000000    0.0000000000000000   20.0000000000000000
    27     3     1
Selective dynamics
Direct
  0.0560662223671989  0.0884963366941472  0.0906585788004733   T   T   T
  0.9314595748406916  0.1715906412425580  0.0939976324489702   T   T   T
  0.0574584460372118  0.9220314923661620  0.0911113453669320   T   T   T
  0.9329572555267452  0.3390608910981988  0.0957997535630770   T   T   T
  0.0566640283999471  0.5907813007420015  0.0939195417815644   T   T   T
  0.0567954741755919  0.4237189791478856  0.0933010758997514   T   T   T
  0.9320442754942602  0.8383186705549097  0.0947694259689957   T   T   T
  0.3084628338868451  0.0886253026506289  0.0855183061523571   T   T   T
  0.1826153970195480  0.1717766786118333  0.0880909415952442   T   T   T
  0.1809788992807338  0.3387153007875838  0.0896553576195513   T   T   T
  0.3052497074286850  0.5900629647448975  0.0869598752877872   T   T   T
  0.1806382831011495  0.6747381009445613  0.0910302221370358   T   T   T
  0.3057707564703655  0.4211840821241372  0.0861088841924097   T   T   T
  0.1833248059490200  0.8405336189870350  0.0891950815886296   T   T   T
  0.4341505073916801  0.1719074639877059  0.0864965522555681   T   T   T
  0.5568803448160208  0.9238166899317695  0.0947288417243132   T   T   T
  0.4310161441497981  0.3370771370267063  0.0866169340750043   T   T   T
  0.4292739455475492  0.6759146855210838  0.0877555274691433   T   T   T
  0.4324125381357325  0.8409448828650812  0.0879707137416288   T   T   T
  0.8053680511943161  0.0889510204578908  0.0956068124055465   T   T   T
  0.6805730784514279  0.1783167286916867  0.0990767837847154   T   T   T
  0.8061509145479657  0.9202828850046393  0.0962035003366781   T   T   T
  0.6830784979365854  0.3447463232972903  0.1079546076778407   T   T   T
  0.8106068332456007  0.5909108031522856  0.1033622333815271   T   T   T
  0.6847856411931423  0.6677757177990469  0.1094361010676224   T   T   T
  0.8109720224137786  0.4219472117006346  0.1024438160630262   T   T   T
  0.6796771941676768  0.8353044681223755  0.1002979373880812   T   T   T
  0.9331645813028489  0.6724334772385050  0.0964647454942153   T   T   T
  0.5585356567335018  0.0914635942385601  0.0936448209472357   T   T   T
  0.3064621042054778  0.9230877601823249  0.0859012941871966   T   T   T
  0.5295409845889030  0.5063597900858949  0.1368877555979050   T   T   T
 
  0.00000000E+00  0.00000000E+00  0.00000000E+00
  0.00000000E+00  0.00000000E+00  0.00000000E+00
  0.00000000E+00  0.00000000E+00  0.00000000E+00
  0.00000000E+00  0.00000000E+00  0.00000000E+00
  0.00000000E+00  0.00000000E+00  0.00000000E+00
  0.00000000E+00  0.00000000E+00  0.00000000E+00
  0.00000000E+00  0.00000000E+00  0.00000000E+00
  0.00000000E+00  0.00000000E+00  0.00000000E+00
  0.00000000E+00  0.00000000E+00  0.00000000E+00
  0.00000000E+00  0.00000000E+00  0.00000000E+00
  0.00000000E+00  0.00000000E+00  0.00000000E+00
  0.00000000E+00  0.00000000E+00  0.00000000E+00
  0.00000000E+00  0.00000000E+00  0.00000000E+00
  0.00000000E+00  0.00000000E+00  0.00000000E+00
  0.00000000E+00  0.00000000E+00  0.00000000E+00
  0.00000000E+00  0.00000000E+00  0.00000000E+00
  0.00000000E+00  0.00000000E+00  0.00000000E+00
  0.00000000E+00  0.00000000E+00  0.00000000E+00
  0.00000000E+00  0.00000000E+00  0.00000000E+00
  0.00000000E+00  0.00000000E+00  0.00000000E+00
  0.00000000E+00  0.00000000E+00  0.00000000E+00
  0.00000000E+00  0.00000000E+00  0.00000000E+00
  0.00000000E+00  0.00000000E+00  0.00000000E+00
  0.00000000E+00  0.00000000E+00  0.00000000E+00
  0.00000000E+00  0.00000000E+00  0.00000000E+00
  0.00000000E+00  0.00000000E+00  0.00000000E+00
  0.00000000E+00  0.00000000E+00  0.00000000E+00
  0.00000000E+00  0.00000000E+00  0.00000000E+00
  0.00000000E+00  0.00000000E+00  0.00000000E+00
  0.00000000E+00  0.00000000E+00  0.00000000E+00
  0.00000000E+00  0.00000000E+00  0.00000000E+00
