Title                                   
   1.00000000000000     
     9.8694509999999998    0.0000000000000000    0.0000000000000000
     0.0000000000000000    8.5490480000000009    0.0000000000000000
     0.0000000000000000    0.0000000000000000   20.0000000000000000
    25     5     1
Selective dynamics
Direct
  0.0562799113759536  0.0903470525625419  0.0947727682227481   T   T   T
  0.9322021160332906  0.1722710546086873  0.0993410666196907   T   T   T
  0.0577983508574777  0.9225010735448933  0.0950840096668181   T   T   T
  0.9329676148647408  0.3401235186979881  0.1004693389586187   T   T   T
  0.0578232470140839  0.5899082325611987  0.0967120477147330   T   T   T
  0.9333337849684636  0.6726761077120651  0.1005489495302747   T   T   T
  0.0577016350963755  0.4230109036451405  0.0963442851368724   T   T   T
  0.9328552866357759  0.8396846107583651  0.0992231957658218   T   T   T
  0.3071288941921315  0.0883258447550517  0.0880056591068676   T   T   T
  0.1814058822995483  0.1721322990129063  0.0906759227904372   T   T   T
  0.1812210334868974  0.3388645278834998  0.0915122593530700   T   T   T
  0.3064773855021939  0.5904592666325337  0.0861663591782511   T   T   T
  0.1818464533396266  0.6736228556744158  0.0926426793070606   T   T   T
  0.3067698067787619  0.4213887208162123  0.0856302791860160   T   T   T
  0.1818959538685394  0.8394101397309733  0.0920230680505859   T   T   T
  0.5577747648721207  0.0926132086453746  0.0960577587827931   T   T   T
  0.4300109144729474  0.1724986566969077  0.0879051040999887   T   T   T
  0.5564106867515146  0.9203194699158687  0.0962481348264282   T   T   T
  0.4296283208559102  0.8388421516621138  0.0890791944907375   T   T   T
  0.8054519807863159  0.0901386794309186  0.1011929927551611   T   T   T
  0.6823049463671806  0.1785890375125170  0.1032598510065056   T   T   T
  0.8056596729596223  0.9219536114436868  0.1007791879822910   T   T   T
  0.8093624340248935  0.5904219350974987  0.1060381544227739   T   T   T
  0.8091632916441156  0.4220494729710819  0.1062746295764006   T   T   T
  0.6823877892086637  0.8330653656959315  0.1025881437933493   T   T   T
  0.4262841700383298  0.3344216119478793  0.0832765719098901   T   T   T
  0.4256753488275167  0.6798704663084790  0.0839250984373284   T   T   T
  0.6868088379037601  0.3422474595305492  0.1113972017717456   T   T   T
  0.6872385841235530  0.6704993366792489  0.1101745253158036   T   T   T
  0.3073372800699700  0.9230732527822866  0.0889090686024296   T   T   T
  0.5339296207797265  0.5055450750831836  0.1247074936385651   T   T   T
 
  0.00000000E+00  0.00000000E+00  0.00000000E+00
  0.00000000E+00  0.00000000E+00  0.00000000E+00
  0.00000000E+00  0.00000000E+00  0.00000000E+00
  0.00000000E+00  0.00000000E+00  0.00000000E+00
  0.00000000E+00  0.00000000E+00  0.00000000E+00
  0.00000000E+00  0.00000000E+00  0.00000000E+00
  0.00000000E+00  0.00000000E+00  0.00000000E+00
  0.00000000E+00  0.00000000E+00  0.00000000E+00
  0.00000000E+00  0.00000000E+00  0.00000000E+00
  0.00000000E+00  0.00000000E+00  0.00000000E+00
  0.00000000E+00  0.00000000E+00  0.00000000E+00
  0.00000000E+00  0.00000000E+00  0.00000000E+00
  0.00000000E+00  0.00000000E+00  0.00000000E+00
  0.00000000E+00  0.00000000E+00  0.00000000E+00
  0.00000000E+00  0.00000000E+00  0.00000000E+00
  0.00000000E+00  0.00000000E+00  0.00000000E+00
  0.00000000E+00  0.00000000E+00  0.00000000E+00
  0.00000000E+00  0.00000000E+00  0.00000000E+00
  0.00000000E+00  0.00000000E+00  0.00000000E+00
  0.00000000E+00  0.00000000E+00  0.00000000E+00
  0.00000000E+00  0.00000000E+00  0.00000000E+00
  0.00000000E+00  0.00000000E+00  0.00000000E+00
  0.00000000E+00  0.00000000E+00  0.00000000E+00
  0.00000000E+00  0.00000000E+00  0.00000000E+00
  0.00000000E+00  0.00000000E+00  0.00000000E+00
  0.00000000E+00  0.00000000E+00  0.00000000E+00
  0.00000000E+00  0.00000000E+00  0.00000000E+00
  0.00000000E+00  0.00000000E+00  0.00000000E+00
  0.00000000E+00  0.00000000E+00  0.00000000E+00
  0.00000000E+00  0.00000000E+00  0.00000000E+00
  0.00000000E+00  0.00000000E+00  0.00000000E+00
