Title                                   
   1.00000000000000     
     8.5490480000000009    0.0000000000000000    0.0000000000000000
     0.0000000000000000    8.5490480000000009    0.0000000000000000
     0.0000000000000000    0.0000000000000000   20.0000000000000000
    21     3     1
Selective dynamics
Direct
  0.9103080640994023  0.2059748968999834  0.0975464732165832   T   T   T
  0.9123075151750935  0.7998684353960198  0.0976138698810999   T   T   T
  0.1981376122651214  0.0821687604147795  0.0977388300512391   T   T   T
  0.0754934581293637  0.2015706495266864  0.0976561535889769   T   T   T
  0.1574172596390755  0.6491030505279277  0.0979216360011662   T   T   T
  0.0764028782058363  0.5006403651276088  0.0978299922134279   T   T   T
  0.1568979356353347  0.3540287897261325  0.0978067965259402   T   T   T
  0.0781997541089755  0.7993682213767741  0.0977502389971069   T   T   T
  0.3463395753928716  0.1646816223958744  0.0978598203158993   T   T   T
  0.4928204207911792  0.9194834539366973  0.0977612488227294   T   T   T
  0.3453999481421937  0.8373968286880182  0.0978667715886307   T   T   T
  0.7874458588826069  0.0843013849046400  0.0975436711203283   T   T   T
  0.6377606058189352  0.1669665825919454  0.0976401954306471   T   T   T
  0.7895003472046239  0.9200925142201243  0.0975597490391580   T   T   T
  0.8299100425409428  0.6488505175774438  0.0977009303690148   T   T   T
  0.8280886106527450  0.3561837375417467  0.0975822102750921   T   T   T
  0.6389576373945067  0.8380099779021785  0.0976908525795594   T   T   T
  0.3231393402678959  0.3307875984726462  0.0979344835194486   T   T   T
  0.3225590646510902  0.6732105935427515  0.0980147399265980   T   T   T
  0.6619122979506121  0.3332368706796508  0.0976692441541018   T   T   T
  0.6641261289036254  0.6714232296299436  0.0978039200248812   T   T   T
  0.4937726876777214  0.0863913739798172  0.0978040385027345   T   T   T
  0.9088584298858541  0.5018167012117201  0.0977167196079736   T   T   T
  0.1965137711310965  0.9169547720429069  0.0977664622137923   T   T   T
  0.4931427554532831  0.5022790716859886  0.0979259520338509   T   T   T
 
  0.00000000E+00  0.00000000E+00  0.00000000E+00
  0.00000000E+00  0.00000000E+00  0.00000000E+00
  0.00000000E+00  0.00000000E+00  0.00000000E+00
  0.00000000E+00  0.00000000E+00  0.00000000E+00
  0.00000000E+00  0.00000000E+00  0.00000000E+00
  0.00000000E+00  0.00000000E+00  0.00000000E+00
  0.00000000E+00  0.00000000E+00  0.00000000E+00
  0.00000000E+00  0.00000000E+00  0.00000000E+00
  0.00000000E+00  0.00000000E+00  0.00000000E+00
  0.00000000E+00  0.00000000E+00  0.00000000E+00
  0.00000000E+00  0.00000000E+00  0.00000000E+00
  0.00000000E+00  0.00000000E+00  0.00000000E+00
  0.00000000E+00  0.00000000E+00  0.00000000E+00
  0.00000000E+00  0.00000000E+00  0.00000000E+00
  0.00000000E+00  0.00000000E+00  0.00000000E+00
  0.00000000E+00  0.00000000E+00  0.00000000E+00
  0.00000000E+00  0.00000000E+00  0.00000000E+00
  0.00000000E+00  0.00000000E+00  0.00000000E+00
  0.00000000E+00  0.00000000E+00  0.00000000E+00
  0.00000000E+00  0.00000000E+00  0.00000000E+00
  0.00000000E+00  0.00000000E+00  0.00000000E+00
  0.00000000E+00  0.00000000E+00  0.00000000E+00
  0.00000000E+00  0.00000000E+00  0.00000000E+00
  0.00000000E+00  0.00000000E+00  0.00000000E+00
  0.00000000E+00  0.00000000E+00  0.00000000E+00
