Title                                   
   1.00000000000000     
     4.9440799999999996    0.0000000000000000    0.0000000000000000
     0.0000000000000000   17.1295089999999988    0.0000000000000000
     0.0000000000000000    0.0000000000000000   20.0000000000000000
    30     1
Selective dynamics
Direct
 -0.0000674963069828  0.1046892861377524  0.2938527886559435   T   T   T
  0.2504225479859289  0.1466427214760078  0.2950841773143233   T   T   T
  0.2503681596789969  0.2295018920072401  0.2990044850117806   T   T   T
  0.0019746284432200  0.2722254911701643  0.3009774776176170   T   T   T
  0.0019107771070732  0.6027163636616879  0.3012163105623637   T   T   T
  0.2503624439802887  0.7282873725096209  0.2954636059146907   T   T   T
  0.0002274297603715  0.8537218366425340  0.2932547111560743   T   T   T
  0.2505078899966241  0.8957417732700647  0.2930894121425380   T   T   T
  0.2505268777613078  0.9791589167586126  0.2929587325104421   T   T   T
 -0.0000841654715624  0.7702299742879887  0.2942177307960921   T   T   T
  0.5009112787793331  0.1046806885307996  0.2938890925912875   T   T   T
  0.7503874953298785  0.1467150969746801  0.2945863450654610   T   T   T
  0.7502606161696863  0.2305006807447826  0.2979777087902802   T   T   T
  0.5007985442097632  0.0211724073155829  0.2930461391181647   T   T   T
  0.7501772732653323  0.3947800286894551  0.3053567794456778   T   T   T
  0.7501755578177118  0.4801349913098001  0.3053608071493925   T   T   T
  0.4986176506078301  0.2722857363867386  0.3012035610264832   T   T   T
  0.4986518574051016  0.6026678728118603  0.3014238149188185   T   T   T
  0.7504194211496876  0.7282039152007206  0.2949477628706026   T   T   T
  0.5008173387955980  0.8537396301557958  0.2932784956058468   T   T   T
  0.7505887665704021  0.8956339880379544  0.2929824874407486   T   T   T
  0.7505769676614457  0.9792764245133265  0.2928591479175020   T   T   T
  0.5009336327325068  0.7702329854955110  0.2942572219549880   T   T   T
  0.7503077210463961  0.6444510509828368  0.2982591435301062   T   T   T
  0.2503156822110549  0.6454293041180080  0.2992999571801233   T   T   T
  0.0002598539306552  0.0211766451827459  0.2930237546171433   T   T   T
  0.5047497110094724  0.5203315346273196  0.3083390436296912   T   T   T
  0.9954524916167605  0.5203963486251654  0.3078984407223435   T   T   T
  0.5047672836801992  0.3545823690410840  0.3082785267001142   T   T   T
 -0.0044733911836068  0.3545334588079226  0.3078212223498832   T   T   T
  0.2491621542595281  0.4375012145262313  0.3418511156934273   T   T   T
 
  0.00000000E+00  0.00000000E+00  0.00000000E+00
  0.00000000E+00  0.00000000E+00  0.00000000E+00
  0.00000000E+00  0.00000000E+00  0.00000000E+00
  0.00000000E+00  0.00000000E+00  0.00000000E+00
  0.00000000E+00  0.00000000E+00  0.00000000E+00
  0.00000000E+00  0.00000000E+00  0.00000000E+00
  0.00000000E+00  0.00000000E+00  0.00000000E+00
  0.00000000E+00  0.00000000E+00  0.00000000E+00
  0.00000000E+00  0.00000000E+00  0.00000000E+00
  0.00000000E+00  0.00000000E+00  0.00000000E+00
  0.00000000E+00  0.00000000E+00  0.00000000E+00
  0.00000000E+00  0.00000000E+00  0.00000000E+00
  0.00000000E+00  0.00000000E+00  0.00000000E+00
  0.00000000E+00  0.00000000E+00  0.00000000E+00
  0.00000000E+00  0.00000000E+00  0.00000000E+00
  0.00000000E+00  0.00000000E+00  0.00000000E+00
  0.00000000E+00  0.00000000E+00  0.00000000E+00
  0.00000000E+00  0.00000000E+00  0.00000000E+00
  0.00000000E+00  0.00000000E+00  0.00000000E+00
  0.00000000E+00  0.00000000E+00  0.00000000E+00
  0.00000000E+00  0.00000000E+00  0.00000000E+00
  0.00000000E+00  0.00000000E+00  0.00000000E+00
  0.00000000E+00  0.00000000E+00  0.00000000E+00
  0.00000000E+00  0.00000000E+00  0.00000000E+00
  0.00000000E+00  0.00000000E+00  0.00000000E+00
  0.00000000E+00  0.00000000E+00  0.00000000E+00
  0.00000000E+00  0.00000000E+00  0.00000000E+00
  0.00000000E+00  0.00000000E+00  0.00000000E+00
  0.00000000E+00  0.00000000E+00  0.00000000E+00
  0.00000000E+00  0.00000000E+00  0.00000000E+00
  0.00000000E+00  0.00000000E+00  0.00000000E+00
