Title                                   
   1.00000000000000     
     9.8694509999999998    0.0000000000000000    0.0000000000000000
     0.0000000000000000    8.5490480000000009    0.0000000000000000
     0.0000000000000000    0.0000000000000000   20.0000000000000000
    29     1     1
Selective dynamics
Direct
  0.0560788094240392  0.0888498851404493  0.0799461385771598   T   T   T
  0.9314915451457616  0.1717714982230202  0.0826563345836171   T   T   T
  0.0572375973779254  0.9242912558894484  0.0805637998597031   T   T   T
  0.9341768927450786  0.3384024922657822  0.0808418279938093   T   T   T
  0.0568473103499874  0.5900452275919759  0.0752682547653828   T   T   T
  0.9342827679672001  0.6745132128038748  0.0811571029432851   T   T   T
  0.0569570995289675  0.4232126669379148  0.0750454177482243   T   T   T
  0.9320133367010476  0.8406007362320305  0.0832213198701462   T   T   T
  0.3049256282730709  0.0882283900024849  0.0935953435821255   T   T   T
  0.1812446189205242  0.1704320795324232  0.0829191510667664   T   T   T
  0.1792767651000816  0.3375725784858135  0.0814380645002623   T   T   T
  0.2970223394645061  0.5910039131093741  0.0968728882995652   T   T   T
  0.1798569742528194  0.6751394334720265  0.0819170669036638   T   T   T
  0.2970825809014487  0.4205816027575808  0.0967661798650337   T   T   T
  0.1820311733457894  0.8418455939816474  0.0839685507222983   T   T   T
  0.5563308868109126  0.0888841884028032  0.1097992794220732   T   T   T
  0.4269213218621797  0.1738344620145136  0.1071170547322989   T   T   T
  0.5552035590201366  0.9237389907530413  0.1093319743663039   T   T   T
  0.4161088122439532  0.3378674539833806  0.1130629884754444   T   T   T
  0.4156272701433695  0.6746310047495148  0.1130962504466780   T   T   T
  0.4259797752276757  0.8370750049882731  0.1068117613635421   T   T   T
  0.8072807416325176  0.0895634760345044  0.0927334613055632   T   T   T
  0.6847194758508311  0.1756898336834881  0.1056133726028305   T   T   T
  0.8073216753926609  0.9225150015363950  0.0927547423634092   T   T   T
  0.6955086437743755  0.3396675159700571  0.1107559328264428   T   T   T
  0.8155602824835251  0.5913742783217292  0.0949450718690690   T   T   T
  0.6954701461375560  0.6727836983686554  0.1108171204557285   T   T   T
  0.8156576235564131  0.4213640925176084  0.0948240254694949   T   T   T
  0.6842059468242822  0.8361941147142137  0.1052957443104879   T   T   T
  0.3043995208614726  0.9231291690114253  0.0935146445936976   T   T   T
  0.5563138786798937  0.5060721485245715  0.1243141341159198   T   T   T
 
  0.00000000E+00  0.00000000E+00  0.00000000E+00
  0.00000000E+00  0.00000000E+00  0.00000000E+00
  0.00000000E+00  0.00000000E+00  0.00000000E+00
  0.00000000E+00  0.00000000E+00  0.00000000E+00
  0.00000000E+00  0.00000000E+00  0.00000000E+00
  0.00000000E+00  0.00000000E+00  0.00000000E+00
  0.00000000E+00  0.00000000E+00  0.00000000E+00
  0.00000000E+00  0.00000000E+00  0.00000000E+00
  0.00000000E+00  0.00000000E+00  0.00000000E+00
  0.00000000E+00  0.00000000E+00  0.00000000E+00
  0.00000000E+00  0.00000000E+00  0.00000000E+00
  0.00000000E+00  0.00000000E+00  0.00000000E+00
  0.00000000E+00  0.00000000E+00  0.00000000E+00
  0.00000000E+00  0.00000000E+00  0.00000000E+00
  0.00000000E+00  0.00000000E+00  0.00000000E+00
  0.00000000E+00  0.00000000E+00  0.00000000E+00
  0.00000000E+00  0.00000000E+00  0.00000000E+00
  0.00000000E+00  0.00000000E+00  0.00000000E+00
  0.00000000E+00  0.00000000E+00  0.00000000E+00
  0.00000000E+00  0.00000000E+00  0.00000000E+00
  0.00000000E+00  0.00000000E+00  0.00000000E+00
  0.00000000E+00  0.00000000E+00  0.00000000E+00
  0.00000000E+00  0.00000000E+00  0.00000000E+00
  0.00000000E+00  0.00000000E+00  0.00000000E+00
  0.00000000E+00  0.00000000E+00  0.00000000E+00
  0.00000000E+00  0.00000000E+00  0.00000000E+00
  0.00000000E+00  0.00000000E+00  0.00000000E+00
  0.00000000E+00  0.00000000E+00  0.00000000E+00
  0.00000000E+00  0.00000000E+00  0.00000000E+00
  0.00000000E+00  0.00000000E+00  0.00000000E+00
  0.00000000E+00  0.00000000E+00  0.00000000E+00
