Title                                   
   1.00000000000000     
     4.9440799999999996    0.0000000000000000    0.0000000000000000
     0.0000000000000000   17.1295089999999988    0.0000000000000000
     0.0000000000000000    0.0000000000000000   20.0000000000000000
    30     1
Selective dynamics
Direct
 -0.0000894022120699  0.1047820124794261  0.2966378077181638   T   T   T
  0.2504023237374204  0.1467413154159631  0.2969417474237241   T   T   T
  0.2503328848514622  0.2298500864365826  0.2985062727746023   T   T   T
  0.0015405999863757  0.2726970716964212  0.2995936700544273   T   T   T
  0.0015136478994615  0.6022523517544527  0.2996779120389435   T   T   T
  0.2503804776269626  0.7281567188384606  0.2974838717653633   T   T   T
  0.0001058760889895  0.8536816570112676  0.2971707267810931   T   T   T
  0.2503926169125278  0.8956559961776213  0.2970648545559787   T   T   T
  0.2504043928458014  0.9792210402369899  0.2967276157338732   T   T   T
 -0.0000809931164189  0.7701147859863290  0.2972757276112056   T   T   T
  0.5008946596096492  0.1047762810507056  0.2966371806199537   T   T   T
  0.7503779312354678  0.1468457576357929  0.2968621428200640   T   T   T
  0.7503004837821062  0.2306573006110192  0.2983229429524001   T   T   T
  0.5007030994949825  0.0212001516980724  0.2966084848392455   T   T   T
  0.7502601548604846  0.3950467964123122  0.3014397323650161   T   T   T
  0.7502729126401230  0.4799210282322106  0.3014558209304204   T   T   T
  0.4990468856054974  0.2727232390349663  0.2996016405090977   T   T   T
  0.4990261810767181  0.6022297687945205  0.2996897611938700   T   T   T
  0.7503640349799033  0.7280731331941342  0.2973834345640674   T   T   T
  0.5006670982090792  0.8536799386315732  0.2971680288729447   T   T   T
  0.7503870669716980  0.8956116215431135  0.2970151469329274   T   T   T
  0.7504002579484264  0.9792527696105593  0.2966834824381577   T   T   T
  0.5008536402960866  0.7701164221078185  0.2972795685508140   T   T   T
  0.7502716387905658  0.6442835026580122  0.2985104105739632   T   T   T
  0.2502984148443420  0.6450730029094192  0.2986858262107179   T   T   T
  0.0001053988619442  0.0212024772744235  0.2966075105582853   T   T   T
  0.5011565401791208  0.5195747447689549  0.3031438111466807   T   T   T
 -0.0006616229995754  0.5196083745132454  0.3031070216709873   T   T   T
  0.5011303638462216  0.3553850262684021  0.3031733487744588   T   T   T
 -0.0006737305820767  0.3553464243074100  0.3031466318700913   T   T   T
  0.2499231657287249  0.4375812027098167  0.3254578651484148   T   T   T
 
  0.00000000E+00  0.00000000E+00  0.00000000E+00
  0.00000000E+00  0.00000000E+00  0.00000000E+00
  0.00000000E+00  0.00000000E+00  0.00000000E+00
  0.00000000E+00  0.00000000E+00  0.00000000E+00
  0.00000000E+00  0.00000000E+00  0.00000000E+00
  0.00000000E+00  0.00000000E+00  0.00000000E+00
  0.00000000E+00  0.00000000E+00  0.00000000E+00
  0.00000000E+00  0.00000000E+00  0.00000000E+00
  0.00000000E+00  0.00000000E+00  0.00000000E+00
  0.00000000E+00  0.00000000E+00  0.00000000E+00
  0.00000000E+00  0.00000000E+00  0.00000000E+00
  0.00000000E+00  0.00000000E+00  0.00000000E+00
  0.00000000E+00  0.00000000E+00  0.00000000E+00
  0.00000000E+00  0.00000000E+00  0.00000000E+00
  0.00000000E+00  0.00000000E+00  0.00000000E+00
  0.00000000E+00  0.00000000E+00  0.00000000E+00
  0.00000000E+00  0.00000000E+00  0.00000000E+00
  0.00000000E+00  0.00000000E+00  0.00000000E+00
  0.00000000E+00  0.00000000E+00  0.00000000E+00
  0.00000000E+00  0.00000000E+00  0.00000000E+00
  0.00000000E+00  0.00000000E+00  0.00000000E+00
  0.00000000E+00  0.00000000E+00  0.00000000E+00
  0.00000000E+00  0.00000000E+00  0.00000000E+00
  0.00000000E+00  0.00000000E+00  0.00000000E+00
  0.00000000E+00  0.00000000E+00  0.00000000E+00
  0.00000000E+00  0.00000000E+00  0.00000000E+00
  0.00000000E+00  0.00000000E+00  0.00000000E+00
  0.00000000E+00  0.00000000E+00  0.00000000E+00
  0.00000000E+00  0.00000000E+00  0.00000000E+00
  0.00000000E+00  0.00000000E+00  0.00000000E+00
  0.00000000E+00  0.00000000E+00  0.00000000E+00
