Title                                   
   1.00000000000000     
     9.8694509999999998    0.0000000000000000    0.0000000000000000
     0.0000000000000000    8.5490480000000009    0.0000000000000000
     0.0000000000000000    0.0000000000000000   20.0000000000000000
    26     5     1
Selective dynamics
Direct
  0.0555904655712556  0.0910794270215535  0.0850091926942229   T   T   T
  0.9309020542882408  0.1751595467095635  0.0852201410598973   T   T   T
  0.0575969435286675  0.9232128736923971  0.0855353659701095   T   T   T
  0.9287608005097662  0.3425491243157596  0.0877310540580755   T   T   T
  0.0564259804612466  0.5915512323939197  0.0883013388187445   T   T   T
  0.0553224237285027  0.4246129639276047  0.0885684375300463   T   T   T
  0.9335623433000391  0.8400291530721654  0.0867684106098718   T   T   T
  0.3056098965090630  0.0879953466987209  0.0893728201973469   T   T   T
  0.1818039064462983  0.1729498722686767  0.0875048834841579   T   T   T
  0.1817035148512522  0.3401891905018730  0.0906784194857288   T   T   T
  0.3034605642413998  0.5888351083061611  0.1041518497232344   T   T   T
  0.1812860007368451  0.6741846121861550  0.0916565506981192   T   T   T
  0.3074489098408682  0.4209136499761525  0.0999903558713008   T   T   T
  0.1828999588389125  0.8413646864512044  0.0889928459160473   T   T   T
  0.5565929752003522  0.0849805142056149  0.0930816796721238   T   T   T
  0.5560120094585961  0.9200623402252206  0.1001785846536759   T   T   T
  0.4319145163180449  0.3309164366008542  0.1018095126413772   T   T   T
  0.4270446154828810  0.8402480948059438  0.1065749539638662   T   T   T
  0.8067150240277042  0.0892776452788697  0.0857065536980859   T   T   T
  0.6799216126735063  0.1701778608431448  0.0892075096947808   T   T   T
  0.8084570967475769  0.9236564755878347  0.0880130217134625   T   T   T
  0.6781791308863090  0.3362433347536053  0.0962962201564568   T   T   T
  0.8085003689079728  0.5962462799008312  0.0971971075187740   T   T   T
  0.8022388730605580  0.4265102122175975  0.0936684438115481   T   T   T
  0.6851804605098033  0.8411422648142495  0.0988395511105627   T   T   T
  0.4167173517250802  0.6822301715844883  0.1229633534817544   T   T   T
  0.5530447102680902  0.4005850546345078  0.1108330373319327   T   T   T
  0.6972996120221490  0.6830886526273134  0.1106153724234837   T   T   T
  0.3059486891717038  0.9246627140524127  0.0914305673856791   T   T   T
  0.4294002755380554  0.1658789635635801  0.0930254199574104   T   T   T
  0.9332909434091164  0.6738714445254101  0.0881702810184714   T   T   T
  0.5608069717401508  0.5858407522566159  0.1585821636496675   T   T   T
 
  0.00000000E+00  0.00000000E+00  0.00000000E+00
  0.00000000E+00  0.00000000E+00  0.00000000E+00
  0.00000000E+00  0.00000000E+00  0.00000000E+00
  0.00000000E+00  0.00000000E+00  0.00000000E+00
  0.00000000E+00  0.00000000E+00  0.00000000E+00
  0.00000000E+00  0.00000000E+00  0.00000000E+00
  0.00000000E+00  0.00000000E+00  0.00000000E+00
  0.00000000E+00  0.00000000E+00  0.00000000E+00
  0.00000000E+00  0.00000000E+00  0.00000000E+00
  0.00000000E+00  0.00000000E+00  0.00000000E+00
  0.00000000E+00  0.00000000E+00  0.00000000E+00
  0.00000000E+00  0.00000000E+00  0.00000000E+00
  0.00000000E+00  0.00000000E+00  0.00000000E+00
  0.00000000E+00  0.00000000E+00  0.00000000E+00
  0.00000000E+00  0.00000000E+00  0.00000000E+00
  0.00000000E+00  0.00000000E+00  0.00000000E+00
  0.00000000E+00  0.00000000E+00  0.00000000E+00
  0.00000000E+00  0.00000000E+00  0.00000000E+00
  0.00000000E+00  0.00000000E+00  0.00000000E+00
  0.00000000E+00  0.00000000E+00  0.00000000E+00
  0.00000000E+00  0.00000000E+00  0.00000000E+00
  0.00000000E+00  0.00000000E+00  0.00000000E+00
  0.00000000E+00  0.00000000E+00  0.00000000E+00
  0.00000000E+00  0.00000000E+00  0.00000000E+00
  0.00000000E+00  0.00000000E+00  0.00000000E+00
  0.00000000E+00  0.00000000E+00  0.00000000E+00
  0.00000000E+00  0.00000000E+00  0.00000000E+00
  0.00000000E+00  0.00000000E+00  0.00000000E+00
  0.00000000E+00  0.00000000E+00  0.00000000E+00
  0.00000000E+00  0.00000000E+00  0.00000000E+00
  0.00000000E+00  0.00000000E+00  0.00000000E+00
  0.00000000E+00  0.00000000E+00  0.00000000E+00
