Title                                   
   1.00000000000000     
     9.8694509999999998    0.0000000000000000    0.0000000000000000
     0.0000000000000000    8.5490480000000009    0.0000000000000000
     0.0000000000000000    0.0000000000000000   20.0000000000000000
    23     7     1
Selective dynamics
Direct
  0.0559287358753361  0.0901173838175381  0.0896202005845066   T   T   T
  0.9313422089903645  0.1725640617190645  0.0899408462380943   T   T   T
  0.0567760403611089  0.9207259164205570  0.0900899397680051   T   T   T
  0.9328900926375320  0.3389584443589780  0.0895319489732824   T   T   T
  0.0558884493744122  0.5904343471611120  0.0888236248259478   T   T   T
  0.0559906918915833  0.4239035462236548  0.0882092742665543   T   T   T
  0.9319954357824680  0.8384375319799134  0.0907306772708518   T   T   T
  0.3086068316786423  0.0892732212142903  0.0931343882304736   T   T   T
  0.1808701656656573  0.1717341399241485  0.0906321258729038   T   T   T
  0.1804889628779515  0.3395237820279307  0.0898476812953080   T   T   T
  0.3024495109770803  0.5897251473190179  0.0958766980363879   T   T   T
  0.1793882840001048  0.6734734065814008  0.0906212628215095   T   T   T
  0.3037309118804677  0.4223215951860917  0.0951949752834916   T   T   T
  0.1816740424946577  0.8412049106086206  0.0913752341182562   T   T   T
  0.4293178947235456  0.1740322886049227  0.0984485690442921   T   T   T
  0.5542826679964907  0.9198987685294252  0.0999140381235929   T   T   T
  0.4291523291698367  0.8388693012506094  0.1000812621877015   T   T   T
  0.8042053228049941  0.0894108022254604  0.0917832730173871   T   T   T
  0.6831421599181974  0.1760458745434164  0.0979198297926211   T   T   T
  0.8050674450837962  0.9201691628649700  0.0924976546627370   T   T   T
  0.8104293286716026  0.5894586498484135  0.0959211179732644   T   T   T
  0.8103474743755859  0.4228757342389295  0.0951626488527195   T   T   T
  0.6825042785464259  0.8368717397389434  0.0990988090672844   T   T   T
  0.9325079774899622  0.6719204991947220  0.0903035798831703   T   T   T
  0.5571662487637761  0.0951721405983197  0.0998070090537686   T   T   T
  0.4246280918260029  0.3378819810444440  0.1055229700799546   T   T   T
  0.4212377836694524  0.6761739787849942  0.1100045587470817   T   T   T
  0.6888400790549714  0.3389853430248697  0.1073687883560102   T   T   T
  0.6910971270403221  0.6723235425208106  0.1080812914366044   T   T   T
  0.3054950182749272  0.9218759244708433  0.0929349750038192   T   T   T
  0.5556944081027455  0.5065118339735845  0.1424857471324758   T   T   T
 
  0.00000000E+00  0.00000000E+00  0.00000000E+00
  0.00000000E+00  0.00000000E+00  0.00000000E+00
  0.00000000E+00  0.00000000E+00  0.00000000E+00
  0.00000000E+00  0.00000000E+00  0.00000000E+00
  0.00000000E+00  0.00000000E+00  0.00000000E+00
  0.00000000E+00  0.00000000E+00  0.00000000E+00
  0.00000000E+00  0.00000000E+00  0.00000000E+00
  0.00000000E+00  0.00000000E+00  0.00000000E+00
  0.00000000E+00  0.00000000E+00  0.00000000E+00
  0.00000000E+00  0.00000000E+00  0.00000000E+00
  0.00000000E+00  0.00000000E+00  0.00000000E+00
  0.00000000E+00  0.00000000E+00  0.00000000E+00
  0.00000000E+00  0.00000000E+00  0.00000000E+00
  0.00000000E+00  0.00000000E+00  0.00000000E+00
  0.00000000E+00  0.00000000E+00  0.00000000E+00
  0.00000000E+00  0.00000000E+00  0.00000000E+00
  0.00000000E+00  0.00000000E+00  0.00000000E+00
  0.00000000E+00  0.00000000E+00  0.00000000E+00
  0.00000000E+00  0.00000000E+00  0.00000000E+00
  0.00000000E+00  0.00000000E+00  0.00000000E+00
  0.00000000E+00  0.00000000E+00  0.00000000E+00
  0.00000000E+00  0.00000000E+00  0.00000000E+00
  0.00000000E+00  0.00000000E+00  0.00000000E+00
  0.00000000E+00  0.00000000E+00  0.00000000E+00
  0.00000000E+00  0.00000000E+00  0.00000000E+00
  0.00000000E+00  0.00000000E+00  0.00000000E+00
  0.00000000E+00  0.00000000E+00  0.00000000E+00
  0.00000000E+00  0.00000000E+00  0.00000000E+00
  0.00000000E+00  0.00000000E+00  0.00000000E+00
  0.00000000E+00  0.00000000E+00  0.00000000E+00
  0.00000000E+00  0.00000000E+00  0.00000000E+00
