Title                                   
   1.00000000000000     
     4.9440799999999996    0.0000000000000000    0.0000000000000000
     0.0000000000000000   17.1295089999999988    0.0000000000000000
     0.0000000000000000    0.0000000000000000   20.0000000000000000
    29     2     1
Selective dynamics
Direct
  0.0016790077220077  0.1043125047282648  0.2812438822295115   T   T   T
  0.2521474404620895  0.1459430973436458  0.2853332062701774   T   T   T
  0.2535401519539265  0.2285097797087984  0.2961671895037130   T   T   T
  0.0054839140241209  0.3503856500559641  0.3187478881198786   T   T   T
  0.0029328759905061  0.2696212410325179  0.3016158471294221   T   T   T
 -0.0076437754392740  0.6061436471526654  0.3122757286310666   T   T   T
  0.2471622252154777  0.7285530426049804  0.2932625959017923   T   T   T
 -0.0007358022057978  0.8536190579824637  0.2793826765673672   T   T   T
  0.2492490413695678  0.8955911828240639  0.2775674557408685   T   T   T
  0.2502942298719936  0.9790580401548702  0.2762640375024782   T   T   T
 -0.0017795303641626  0.7706036823028712  0.2865127153745158   T   T   T
  0.5017746946486343  0.1043277087854261  0.2813598161841177   T   T   T
  0.7519458209160665  0.1460183776052765  0.2844515302882493   T   T   T
  0.7530321700748497  0.2287821571436475  0.2940387094188665   T   T   T
  0.5007418004976888  0.0208550269792278  0.2769417791166524   T   T   T
  0.5044218693815202  0.3508192953678998  0.3197367018230904   T   T   T
  0.7559834603135396  0.3958372549095366  0.3240410469913700   T   T   T
  0.7494247379530395  0.4821463830521566  0.3280098309640733   T   T   T
  0.5043971806832330  0.2696645053996670  0.3021377597986385   T   T   T
  0.5002542256376981  0.6071341515812482  0.3164970801280873   T   T   T
  0.7477440463652515  0.7296927434220454  0.2909097227853160   T   T   T
  0.4985735969383068  0.8537135682926704  0.2796423952448089   T   T   T
  0.7491965900862475  0.8953473676377398  0.2772021484145384   T   T   T
  0.7503377305727830  0.9789988776749321  0.2759490499712888   T   T   T
  0.4973540052216219  0.7704643726789171  0.2871470139378540   T   T   T
  0.7457643321341721  0.6475542635692733  0.3036837366975328   T   T   T
  0.2470708163959146  0.6466628880236545  0.3082211187654513   T   T   T
  0.0005205227037578  0.0209581341890395  0.2768421720712629   T   T   T
  0.5148758432007894  0.5272193120519683  0.3391378586991816   T   T   T
  0.9823317855945932  0.5272827457219655  0.3256077914014727   T   T   T
  0.2550592646056382  0.3835407730777795  0.3352244742140718   T   T   T
  0.2336887274742066  0.4791901669448163  0.3874100401132347   T   T   T
 
  0.00000000E+00  0.00000000E+00  0.00000000E+00
  0.00000000E+00  0.00000000E+00  0.00000000E+00
  0.00000000E+00  0.00000000E+00  0.00000000E+00
  0.00000000E+00  0.00000000E+00  0.00000000E+00
  0.00000000E+00  0.00000000E+00  0.00000000E+00
  0.00000000E+00  0.00000000E+00  0.00000000E+00
  0.00000000E+00  0.00000000E+00  0.00000000E+00
  0.00000000E+00  0.00000000E+00  0.00000000E+00
  0.00000000E+00  0.00000000E+00  0.00000000E+00
  0.00000000E+00  0.00000000E+00  0.00000000E+00
  0.00000000E+00  0.00000000E+00  0.00000000E+00
  0.00000000E+00  0.00000000E+00  0.00000000E+00
  0.00000000E+00  0.00000000E+00  0.00000000E+00
  0.00000000E+00  0.00000000E+00  0.00000000E+00
  0.00000000E+00  0.00000000E+00  0.00000000E+00
  0.00000000E+00  0.00000000E+00  0.00000000E+00
  0.00000000E+00  0.00000000E+00  0.00000000E+00
  0.00000000E+00  0.00000000E+00  0.00000000E+00
  0.00000000E+00  0.00000000E+00  0.00000000E+00
  0.00000000E+00  0.00000000E+00  0.00000000E+00
  0.00000000E+00  0.00000000E+00  0.00000000E+00
  0.00000000E+00  0.00000000E+00  0.00000000E+00
  0.00000000E+00  0.00000000E+00  0.00000000E+00
  0.00000000E+00  0.00000000E+00  0.00000000E+00
  0.00000000E+00  0.00000000E+00  0.00000000E+00
  0.00000000E+00  0.00000000E+00  0.00000000E+00
  0.00000000E+00  0.00000000E+00  0.00000000E+00
  0.00000000E+00  0.00000000E+00  0.00000000E+00
  0.00000000E+00  0.00000000E+00  0.00000000E+00
  0.00000000E+00  0.00000000E+00  0.00000000E+00
  0.00000000E+00  0.00000000E+00  0.00000000E+00
  0.00000000E+00  0.00000000E+00  0.00000000E+00
