Title                                   
   1.00000000000000     
     4.9440799999999996    0.0000000000000000    0.0000000000000000
     0.0000000000000000   17.1295089999999988    0.0000000000000000
     0.0000000000000000    0.0000000000000000   20.0000000000000000
    31     1
Selective dynamics
Direct
  0.0001871003117270  0.1041782182152441  0.2794830890756906   T   T   T
  0.2499377581399453  0.1459389712400770  0.2835661073839738   T   T   T
  0.2499371110759401  0.2285495573765253  0.2947361763295948   T   T   T
 -0.0024788814877650  0.3504528884222064  0.3184589776573592   T   T   T
 -0.0020179875579713  0.2691326122479513  0.3012273075912640   T   T   T
 -0.0022301655020291  0.6076440803751991  0.3168539202380206   T   T   T
  0.2498580938271389  0.7296684932972171  0.2936351099396897   T   T   T
  0.0001256901253675  0.8540895169864298  0.2789697948313521   T   T   T
  0.2499091460819722  0.8957801143018805  0.2765234559806276   T   T   T
  0.2499297020427353  0.9791334873778192  0.2745723373028054   T   T   T
  0.0001758714886756  0.7711805254996275  0.2871914019457015   T   T   T
  0.4996740021484848  0.1041740767972650  0.2794861077327913   T   T   T
  0.7499318720928623  0.1454553361588649  0.2830733628956915   T   T   T
  0.7499264756296993  0.2278224073752651  0.2937159238233884   T   T   T
  0.4998205030681708  0.0208832440383447  0.2750902473195618   T   T   T
  0.5023455962007879  0.3504467414682606  0.3184616009815607   T   T   T
  0.7499300308485367  0.3940124533971617  0.3254603050927355   T   T   T
  0.7499083186291737  0.4798808795711551  0.3334112815875027   T   T   T
  0.5018944402907006  0.2691312605659541  0.3012269555954043   T   T   T
  0.5019697093891670  0.6076343574488716  0.3168676912105483   T   T   T
  0.7498358158134145  0.7302436253427883  0.2923316319101913   T   T   T
  0.4996600736510193  0.8540887600246707  0.2789738121794087   T   T   T
  0.7498964563699755  0.8956741293883639  0.2763503078689863   T   T   T
  0.7499051844245722  0.9791593139078194  0.2744196477881146   T   T   T
  0.4995115863544575  0.7711833258532915  0.2871956852358636   T   T   T
  0.7498426416239888  0.6484585414525368  0.3063228262174490   T   T   T
  0.2498653866758836  0.6481642980241543  0.3095056683468491   T   T   T
  0.0000308150566107  0.0208797277250491  0.2750910874420002   T   T   T
  0.5080003920968431  0.5271566876611214  0.3353518408596965   T   T   T
  0.9917515512618388  0.5271647247735800  0.3353105693620425   T   T   T
  0.2499316797943588  0.3863072264990640  0.3317657405280384   T   T   T
  0.2498570300337249  0.4748814171862320  0.3879350277460476   T   T   T
 
  0.00000000E+00  0.00000000E+00  0.00000000E+00
  0.00000000E+00  0.00000000E+00  0.00000000E+00
  0.00000000E+00  0.00000000E+00  0.00000000E+00
  0.00000000E+00  0.00000000E+00  0.00000000E+00
  0.00000000E+00  0.00000000E+00  0.00000000E+00
  0.00000000E+00  0.00000000E+00  0.00000000E+00
  0.00000000E+00  0.00000000E+00  0.00000000E+00
  0.00000000E+00  0.00000000E+00  0.00000000E+00
  0.00000000E+00  0.00000000E+00  0.00000000E+00
  0.00000000E+00  0.00000000E+00  0.00000000E+00
  0.00000000E+00  0.00000000E+00  0.00000000E+00
  0.00000000E+00  0.00000000E+00  0.00000000E+00
  0.00000000E+00  0.00000000E+00  0.00000000E+00
  0.00000000E+00  0.00000000E+00  0.00000000E+00
  0.00000000E+00  0.00000000E+00  0.00000000E+00
  0.00000000E+00  0.00000000E+00  0.00000000E+00
  0.00000000E+00  0.00000000E+00  0.00000000E+00
  0.00000000E+00  0.00000000E+00  0.00000000E+00
  0.00000000E+00  0.00000000E+00  0.00000000E+00
  0.00000000E+00  0.00000000E+00  0.00000000E+00
  0.00000000E+00  0.00000000E+00  0.00000000E+00
  0.00000000E+00  0.00000000E+00  0.00000000E+00
  0.00000000E+00  0.00000000E+00  0.00000000E+00
  0.00000000E+00  0.00000000E+00  0.00000000E+00
  0.00000000E+00  0.00000000E+00  0.00000000E+00
  0.00000000E+00  0.00000000E+00  0.00000000E+00
  0.00000000E+00  0.00000000E+00  0.00000000E+00
  0.00000000E+00  0.00000000E+00  0.00000000E+00
  0.00000000E+00  0.00000000E+00  0.00000000E+00
  0.00000000E+00  0.00000000E+00  0.00000000E+00
  0.00000000E+00  0.00000000E+00  0.00000000E+00
  0.00000000E+00  0.00000000E+00  0.00000000E+00
