Title                                   
   1.00000000000000     
     8.5490480000000009    0.0000000000000000    0.0000000000000000
     0.0000000000000000    8.5490480000000009    0.0000000000000000
     0.0000000000000000    0.0000000000000000   20.0000000000000000
    20     4     1
Selective dynamics
Direct
  0.9096844391416474  0.2072533413162598  0.0970928121391443   T   T   T
  0.9116034496868427  0.8013728043437568  0.0975212826310597   T   T   T
  0.1999879923874352  0.0827876142407569  0.0974264648083461   T   T   T
  0.0754487673659784  0.2042734021715072  0.0974171623063557   T   T   T
  0.1552093808207721  0.6509670651973691  0.0977774882704047   T   T   T
  0.0739205618635346  0.5021694600816559  0.0980343520473236   T   T   T
  0.1554236329512899  0.3552551075103109  0.0980968438811027   T   T   T
  0.0786005440112315  0.8000335781253076  0.0973815289391991   T   T   T
  0.3472460875407464  0.1631818547984773  0.0979241192733912   T   T   T
  0.4938630533376202  0.9155625926896342  0.0978340696621551   T   T   T
  0.3457945622579454  0.8349900387966056  0.0976572659750979   T   T   T
  0.7870892077459546  0.0850564594623617  0.0970465402075558   T   T   T
  0.6391065989051870  0.1642228712151894  0.0974500648401175   T   T   T
  0.7903729705236040  0.9191927860367648  0.0973998576634671   T   T   T
  0.8290185916362081  0.6525194911878213  0.0981278841547676   T   T   T
  0.8255942939456249  0.3564141985552253  0.0976686390993358   T   T   T
  0.6429133206387199  0.8362996687092413  0.0980516967499258   T   T   T
  0.3261566409547658  0.3333727445579343  0.0989632150051463   T   T   T
  0.3222113851727709  0.6710946062441476  0.0982095641602447   T   T   T
  0.6588163307867537  0.3334072479484624  0.0984969144458482   T   T   T
  0.4951095821315106  0.0831024139063356  0.0977489651687458   T   T   T
  0.9054455990688823  0.5035011850490370  0.0980508509007994   T   T   T
  0.6688423757929831  0.6739720778350078  0.0988620047789082   T   T   T
  0.1967921349796607  0.9175464521660024  0.0972480769500200   T   T   T
  0.4911604963523233  0.4972409378548404  0.1012173359415197   T   T   T
 
  0.00000000E+00  0.00000000E+00  0.00000000E+00
  0.00000000E+00  0.00000000E+00  0.00000000E+00
  0.00000000E+00  0.00000000E+00  0.00000000E+00
  0.00000000E+00  0.00000000E+00  0.00000000E+00
  0.00000000E+00  0.00000000E+00  0.00000000E+00
  0.00000000E+00  0.00000000E+00  0.00000000E+00
  0.00000000E+00  0.00000000E+00  0.00000000E+00
  0.00000000E+00  0.00000000E+00  0.00000000E+00
  0.00000000E+00  0.00000000E+00  0.00000000E+00
  0.00000000E+00  0.00000000E+00  0.00000000E+00
  0.00000000E+00  0.00000000E+00  0.00000000E+00
  0.00000000E+00  0.00000000E+00  0.00000000E+00
  0.00000000E+00  0.00000000E+00  0.00000000E+00
  0.00000000E+00  0.00000000E+00  0.00000000E+00
  0.00000000E+00  0.00000000E+00  0.00000000E+00
  0.00000000E+00  0.00000000E+00  0.00000000E+00
  0.00000000E+00  0.00000000E+00  0.00000000E+00
  0.00000000E+00  0.00000000E+00  0.00000000E+00
  0.00000000E+00  0.00000000E+00  0.00000000E+00
  0.00000000E+00  0.00000000E+00  0.00000000E+00
  0.00000000E+00  0.00000000E+00  0.00000000E+00
  0.00000000E+00  0.00000000E+00  0.00000000E+00
  0.00000000E+00  0.00000000E+00  0.00000000E+00
  0.00000000E+00  0.00000000E+00  0.00000000E+00
  0.00000000E+00  0.00000000E+00  0.00000000E+00
