Title                                   
   1.00000000000000     
     9.8694509999999998    0.0000000000000000    0.0000000000000000
     0.0000000000000000    8.5490480000000009    0.0000000000000000
     0.0000000000000000    0.0000000000000000   20.0000000000000000
    29     1     1
Selective dynamics
Direct
  0.0558533241032750  0.0877847227683828  0.0935816986463320   T   T   T
  0.9313499971881936  0.1714695212318534  0.0940112506790191   T   T   T
  0.0563768024007711  0.9228145151315263  0.0936358735068400   T   T   T
  0.9342517971276526  0.3378503369007512  0.0941227674381310   T   T   T
  0.0568582218099686  0.5891890766981224  0.0937869086979588   T   T   T
  0.9334871573583213  0.6743504000390150  0.0941140261729877   T   T   T
  0.0568839586307925  0.4230888403170824  0.0937408096179295   T   T   T
  0.9313604392021639  0.8403935059424504  0.0940129994019194   T   T   T
  0.3054460777314482  0.0899560317860958  0.0947313545033060   T   T   T
  0.1801775274710590  0.1710920276692126  0.0939509316712285   T   T   T
  0.3062484290650215  0.9222354481822070  0.0947848909570290   T   T   T
  0.1794719446210214  0.3373947379988610  0.0940097643723327   T   T   T
  0.3038916756020886  0.5886224926052148  0.0950183191558426   T   T   T
  0.1805209131935110  0.6726897914917958  0.0941584505130855   T   T   T
  0.3021268062488761  0.4188633017240291  0.0949126601559656   T   T   T
  0.1815148867870601  0.8394911560058399  0.0940647620739106   T   T   T
  0.5553750846863310  0.0924879895764321  0.0958200792351800   T   T   T
  0.4281876606838975  0.1792133610055243  0.0955308755920415   T   T   T
  0.5551957691724014  0.9254553724830997  0.0957896326589083   T   T   T
  0.4274764686605055  0.6708554932071711  0.0958620032734677   T   T   T
  0.4305595604522662  0.8359987274198278  0.0955958327419595   T   T   T
  0.8058370443296108  0.0901786453599179  0.0948108936632502   T   T   T
  0.6819496486150437  0.1792139411142777  0.0957404821354282   T   T   T
  0.8057783808430919  0.9223460557297273  0.0947756248488690   T   T   T
  0.6878937674267331  0.3438331341152975  0.0961703312369942   T   T   T
  0.8113974322049917  0.5904107860460216  0.0951004778233528   T   T   T
  0.6860755854365665  0.6698049010076796  0.0959707326738294   T   T   T
  0.8125281038551858  0.4218259224602495  0.0951763418449837   T   T   T
  0.6807305001988965  0.8354572001691803  0.0956408206316334   T   T   T
  0.4224581473301064  0.3399618233345740  0.0957066679222152   T   T   T
  0.5558718875631573  0.5065457404785928  0.0966367361541099   T   T   T
 
  0.00000000E+00  0.00000000E+00  0.00000000E+00
  0.00000000E+00  0.00000000E+00  0.00000000E+00
  0.00000000E+00  0.00000000E+00  0.00000000E+00
  0.00000000E+00  0.00000000E+00  0.00000000E+00
  0.00000000E+00  0.00000000E+00  0.00000000E+00
  0.00000000E+00  0.00000000E+00  0.00000000E+00
  0.00000000E+00  0.00000000E+00  0.00000000E+00
  0.00000000E+00  0.00000000E+00  0.00000000E+00
  0.00000000E+00  0.00000000E+00  0.00000000E+00
  0.00000000E+00  0.00000000E+00  0.00000000E+00
  0.00000000E+00  0.00000000E+00  0.00000000E+00
  0.00000000E+00  0.00000000E+00  0.00000000E+00
  0.00000000E+00  0.00000000E+00  0.00000000E+00
  0.00000000E+00  0.00000000E+00  0.00000000E+00
  0.00000000E+00  0.00000000E+00  0.00000000E+00
  0.00000000E+00  0.00000000E+00  0.00000000E+00
  0.00000000E+00  0.00000000E+00  0.00000000E+00
  0.00000000E+00  0.00000000E+00  0.00000000E+00
  0.00000000E+00  0.00000000E+00  0.00000000E+00
  0.00000000E+00  0.00000000E+00  0.00000000E+00
  0.00000000E+00  0.00000000E+00  0.00000000E+00
  0.00000000E+00  0.00000000E+00  0.00000000E+00
  0.00000000E+00  0.00000000E+00  0.00000000E+00
  0.00000000E+00  0.00000000E+00  0.00000000E+00
  0.00000000E+00  0.00000000E+00  0.00000000E+00
  0.00000000E+00  0.00000000E+00  0.00000000E+00
  0.00000000E+00  0.00000000E+00  0.00000000E+00
  0.00000000E+00  0.00000000E+00  0.00000000E+00
  0.00000000E+00  0.00000000E+00  0.00000000E+00
  0.00000000E+00  0.00000000E+00  0.00000000E+00
  0.00000000E+00  0.00000000E+00  0.00000000E+00
