Title                                   
   1.00000000000000     
     9.8694509999999998    0.0000000000000000    0.0000000000000000
     0.0000000000000000    8.5490480000000009    0.0000000000000000
     0.0000000000000000    0.0000000000000000   20.0000000000000000
    26     4     1
Selective dynamics
Direct
  0.0548067121178199  0.0873056571367570  0.0842687506008890   T   T   T
  0.9309005041954642  0.1712429714162877  0.0854459509989759   T   T   T
  0.0568138150235001  0.9217952877484270  0.0856584464196965   T   T   T
  0.9343463923650630  0.3387183572344100  0.0849473071009469   T   T   T
  0.0563878394295644  0.5907254525755745  0.0839011909525150   T   T   T
  0.0569746919799872  0.4244335767842348  0.0819625172289447   T   T   T
  0.9318259431645228  0.8383023750910805  0.0881095606905024   T   T   T
  0.3046579276003514  0.0880163418467019  0.0924825396921488   T   T   T
  0.1808669261290687  0.1699175644103960  0.0862850159463276   T   T   T
  0.1798461897791511  0.3382803195287705  0.0853336514162054   T   T   T
  0.3019842788092671  0.5886409117357757  0.0961302404794112   T   T   T
  0.1800002580590085  0.6736841655961532  0.0874890881139269   T   T   T
  0.3010511736262517  0.4174940083048485  0.0951949195693517   T   T   T
  0.1823290871491032  0.8400884919741115  0.0881661161196485   T   T   T
  0.4283437577815458  0.1756679439985323  0.1005073777493674   T   T   T
  0.5543554879586351  0.9245611477748295  0.1036152252091067   T   T   T
  0.4215644359970249  0.6743518956784487  0.1078587860026198   T   T   T
  0.4281499314534040  0.8391086990163266  0.1025641197455745   T   T   T
  0.8055031780717163  0.0886550261455409  0.0916150720622845   T   T   T
  0.6828455744943530  0.1781957773050293  0.0998984780973609   T   T   T
  0.8064967474510298  0.9209224868633216  0.0932177246431416   T   T   T
  0.6918507739764899  0.3411854628372508  0.1062646698172840   T   T   T
  0.8138151279465912  0.5927804814868882  0.0972909761599371   T   T   T
  0.6917948843169351  0.6719563710616436  0.1078769104822070   T   T   T
  0.8154216302831706  0.4209519945562782  0.0954373233549924   T   T   T
  0.6805116603300656  0.8389660999935502  0.1023155735583856   T   T   T
  0.9347240073290104  0.6736472404860026  0.0878155713823601   T   T   T
  0.5543898451231530  0.0951830427785680  0.1023328760058362   T   T   T
  0.4188933218914809  0.3337960770103646  0.1056412307240549   T   T   T
  0.3045576172615636  0.9226864127977891  0.0932063077602687   T   T   T
  0.5571252789057263  0.5096133588261270  0.1181314819157765   T   T   T
 
  0.00000000E+00  0.00000000E+00  0.00000000E+00
  0.00000000E+00  0.00000000E+00  0.00000000E+00
  0.00000000E+00  0.00000000E+00  0.00000000E+00
  0.00000000E+00  0.00000000E+00  0.00000000E+00
  0.00000000E+00  0.00000000E+00  0.00000000E+00
  0.00000000E+00  0.00000000E+00  0.00000000E+00
  0.00000000E+00  0.00000000E+00  0.00000000E+00
  0.00000000E+00  0.00000000E+00  0.00000000E+00
  0.00000000E+00  0.00000000E+00  0.00000000E+00
  0.00000000E+00  0.00000000E+00  0.00000000E+00
  0.00000000E+00  0.00000000E+00  0.00000000E+00
  0.00000000E+00  0.00000000E+00  0.00000000E+00
  0.00000000E+00  0.00000000E+00  0.00000000E+00
  0.00000000E+00  0.00000000E+00  0.00000000E+00
  0.00000000E+00  0.00000000E+00  0.00000000E+00
  0.00000000E+00  0.00000000E+00  0.00000000E+00
  0.00000000E+00  0.00000000E+00  0.00000000E+00
  0.00000000E+00  0.00000000E+00  0.00000000E+00
  0.00000000E+00  0.00000000E+00  0.00000000E+00
  0.00000000E+00  0.00000000E+00  0.00000000E+00
  0.00000000E+00  0.00000000E+00  0.00000000E+00
  0.00000000E+00  0.00000000E+00  0.00000000E+00
  0.00000000E+00  0.00000000E+00  0.00000000E+00
  0.00000000E+00  0.00000000E+00  0.00000000E+00
  0.00000000E+00  0.00000000E+00  0.00000000E+00
  0.00000000E+00  0.00000000E+00  0.00000000E+00
  0.00000000E+00  0.00000000E+00  0.00000000E+00
  0.00000000E+00  0.00000000E+00  0.00000000E+00
  0.00000000E+00  0.00000000E+00  0.00000000E+00
  0.00000000E+00  0.00000000E+00  0.00000000E+00
  0.00000000E+00  0.00000000E+00  0.00000000E+00
