Title                                   
   1.00000000000000     
     9.8694509999999998    0.0000000000000000    0.0000000000000000
     0.0000000000000000    8.5490480000000009    0.0000000000000000
     0.0000000000000000    0.0000000000000000   20.0000000000000000
    25     5     1
Selective dynamics
Direct
  0.0561398792997036  0.0892912189897011  0.0910909558835538   T   T   T
  0.9314031018413957  0.1719096364270951  0.0953096577653360   T   T   T
  0.0574619842330213  0.9211342690793861  0.0918266885765123   T   T   T
  0.9339385926846285  0.3393763593800142  0.0975677361269744   T   T   T
  0.0579495342223967  0.5904895592590538  0.0937629702842951   T   T   T
  0.0576358868027076  0.4237948875466984  0.0930507186946071   T   T   T
  0.9326054195001994  0.8386140486495502  0.0964621154694881   T   T   T
  0.3082514080290508  0.0885607904173990  0.0853957536960324   T   T   T
  0.1815112324033640  0.1722138057129718  0.0875105136782523   T   T   T
  0.1814991485504742  0.3389644215859505  0.0879583211161259   T   T   T
  0.3072527961718740  0.5897918318114487  0.0828868781951628   T   T   T
  0.1814359312855719  0.6735760687914191  0.0896004342292716   T   T   T
  0.3073591439412724  0.4203710112043831  0.0822884542102602   T   T   T
  0.1828674991902366  0.8395175790728591  0.0887417378135462   T   T   T
  0.4303891151203398  0.1710834743800591  0.0862746099942230   T   T   T
  0.5545772890014249  0.9220097477376209  0.0944234901198725   T   T   T
  0.4307857553834693  0.8409616646615222  0.0861790437655950   T   T   T
  0.8050970115859608  0.0894761856844783  0.0970337211595567   T   T   T
  0.6804404181819417  0.1781131684781546  0.1008603823863025   T   T   T
  0.8058498271309406  0.9205686975428863  0.0977577390145121   T   T   T
  0.6847389622494927  0.3437507847764206  0.1115878130009792   T   T   T
  0.8123894698711651  0.5910386839345436  0.1068489301570856   T   T   T
  0.6873750582595760  0.6695760550885089  0.1129524345192444   T   T   T
  0.8122612069993809  0.4221490074756318  0.1059445792211813   T   T   T
  0.6803066468255911  0.8363021547499356  0.1018506461785794   T   T   T
  0.9344872199845867  0.6722720013795030  0.0984904316922971   T   T   T
  0.5565483695757301  0.0936162090412768  0.0936800599913449   T   T   T
  0.4285318908305067  0.3337388624995797  0.0829102839596113   T   T   T
  0.4275362572807846  0.6787762775853514  0.0815916087521718   T   T   T
  0.3057998822249970  0.9216539001510284  0.0848704109565156   T   T   T
  0.5287090613382336  0.5081826369055763  0.1342558793915572   T   T   T
 
  0.00000000E+00  0.00000000E+00  0.00000000E+00
  0.00000000E+00  0.00000000E+00  0.00000000E+00
  0.00000000E+00  0.00000000E+00  0.00000000E+00
  0.00000000E+00  0.00000000E+00  0.00000000E+00
  0.00000000E+00  0.00000000E+00  0.00000000E+00
  0.00000000E+00  0.00000000E+00  0.00000000E+00
  0.00000000E+00  0.00000000E+00  0.00000000E+00
  0.00000000E+00  0.00000000E+00  0.00000000E+00
  0.00000000E+00  0.00000000E+00  0.00000000E+00
  0.00000000E+00  0.00000000E+00  0.00000000E+00
  0.00000000E+00  0.00000000E+00  0.00000000E+00
  0.00000000E+00  0.00000000E+00  0.00000000E+00
  0.00000000E+00  0.00000000E+00  0.00000000E+00
  0.00000000E+00  0.00000000E+00  0.00000000E+00
  0.00000000E+00  0.00000000E+00  0.00000000E+00
  0.00000000E+00  0.00000000E+00  0.00000000E+00
  0.00000000E+00  0.00000000E+00  0.00000000E+00
  0.00000000E+00  0.00000000E+00  0.00000000E+00
  0.00000000E+00  0.00000000E+00  0.00000000E+00
  0.00000000E+00  0.00000000E+00  0.00000000E+00
  0.00000000E+00  0.00000000E+00  0.00000000E+00
  0.00000000E+00  0.00000000E+00  0.00000000E+00
  0.00000000E+00  0.00000000E+00  0.00000000E+00
  0.00000000E+00  0.00000000E+00  0.00000000E+00
  0.00000000E+00  0.00000000E+00  0.00000000E+00
  0.00000000E+00  0.00000000E+00  0.00000000E+00
  0.00000000E+00  0.00000000E+00  0.00000000E+00
  0.00000000E+00  0.00000000E+00  0.00000000E+00
  0.00000000E+00  0.00000000E+00  0.00000000E+00
  0.00000000E+00  0.00000000E+00  0.00000000E+00
  0.00000000E+00  0.00000000E+00  0.00000000E+00
