Title                                   
   1.00000000000000     
     9.8694509999999998    0.0000000000000000    0.0000000000000000
     0.0000000000000000    8.5490480000000009    0.0000000000000000
     0.0000000000000000    0.0000000000000000   20.0000000000000000
    30     1     1
Selective dynamics
Direct
  0.0563348156529738  0.0906912637557499  0.0863094718291927   T   T   T
  0.9312257660318290  0.1721966974969454  0.0897909449730663   T   T   T
  0.0552799180190658  0.9238943391095615  0.0851821487102755   T   T   T
  0.9317376076051624  0.3392018361618772  0.0933957407004475   T   T   T
  0.0561639985886898  0.5894091577524628  0.0882364477767120   T   T   T
  0.9320629062126832  0.6724255533377498  0.0925925116238786   T   T   T
  0.0570476417780688  0.4233236721866103  0.0891816511685934   T   T   T
  0.9309100627710799  0.8390511870042525  0.0897567847180734   T   T   T
  0.3059221590495982  0.0912031092451770  0.0866231443611508   T   T   T
  0.1816077465378144  0.1745226805096458  0.0869874660478639   T   T   T
  0.3042815406679258  0.9245590476636809  0.0847034415692113   T   T   T
  0.1830559148521227  0.3422372162940263  0.0883215943828747   T   T   T
  0.3057930304940333  0.5949423891626034  0.0869580803903442   T   T   T
  0.1797372362370445  0.6744989114999163  0.0850434448678295   T   T   T
  0.3081116507359663  0.4261370660750671  0.0914964942691267   T   T   T
  0.1795025757615685  0.8412517640668341  0.0835759493468875   T   T   T
  0.5555391620325576  0.0860658828743047  0.0940917229104431   T   T   T
  0.4316975518341115  0.1723169153863522  0.0918966984375396   T   T   T
  0.5541862055178307  0.9189770045643694  0.0940685443467660   T   T   T
  0.4327743228439372  0.3396435536416375  0.0996266695363265   T   T   T
  0.5580550261465472  0.4076550345075132  0.1174865901891763   T   T   T
  0.4268316979076788  0.8377351158635397  0.0877182257083390   T   T   T
  0.8066204511336665  0.0879842796165395  0.0914116752256675   T   T   T
  0.6816122183143576  0.1692552597959833  0.0964503907386138   T   T   T
  0.8061504938807625  0.9212011062487336  0.0923972495847671   T   T   T
  0.6831869961019197  0.3347419944484425  0.1062272556217620   T   T   T
  0.8093650853469994  0.5884607543128906  0.1047605972109803   T   T   T
  0.6929552046765720  0.6771043444235851  0.1171117952827038   T   T   T
  0.8087487644376156  0.4202634848527557  0.1034487435722851   T   T   T
  0.6811257861225233  0.8370342580031832  0.1007679149103008   T   T   T
  0.4241148729304719  0.6779231665401715  0.0860286530391663   T   T   T
  0.5479005897768277  0.5943379535978471  0.1740269569496693   T   T   T
 
  0.00000000E+00  0.00000000E+00  0.00000000E+00
  0.00000000E+00  0.00000000E+00  0.00000000E+00
  0.00000000E+00  0.00000000E+00  0.00000000E+00
  0.00000000E+00  0.00000000E+00  0.00000000E+00
  0.00000000E+00  0.00000000E+00  0.00000000E+00
  0.00000000E+00  0.00000000E+00  0.00000000E+00
  0.00000000E+00  0.00000000E+00  0.00000000E+00
  0.00000000E+00  0.00000000E+00  0.00000000E+00
  0.00000000E+00  0.00000000E+00  0.00000000E+00
  0.00000000E+00  0.00000000E+00  0.00000000E+00
  0.00000000E+00  0.00000000E+00  0.00000000E+00
  0.00000000E+00  0.00000000E+00  0.00000000E+00
  0.00000000E+00  0.00000000E+00  0.00000000E+00
  0.00000000E+00  0.00000000E+00  0.00000000E+00
  0.00000000E+00  0.00000000E+00  0.00000000E+00
  0.00000000E+00  0.00000000E+00  0.00000000E+00
  0.00000000E+00  0.00000000E+00  0.00000000E+00
  0.00000000E+00  0.00000000E+00  0.00000000E+00
  0.00000000E+00  0.00000000E+00  0.00000000E+00
  0.00000000E+00  0.00000000E+00  0.00000000E+00
  0.00000000E+00  0.00000000E+00  0.00000000E+00
  0.00000000E+00  0.00000000E+00  0.00000000E+00
  0.00000000E+00  0.00000000E+00  0.00000000E+00
  0.00000000E+00  0.00000000E+00  0.00000000E+00
  0.00000000E+00  0.00000000E+00  0.00000000E+00
  0.00000000E+00  0.00000000E+00  0.00000000E+00
  0.00000000E+00  0.00000000E+00  0.00000000E+00
  0.00000000E+00  0.00000000E+00  0.00000000E+00
  0.00000000E+00  0.00000000E+00  0.00000000E+00
  0.00000000E+00  0.00000000E+00  0.00000000E+00
  0.00000000E+00  0.00000000E+00  0.00000000E+00
  0.00000000E+00  0.00000000E+00  0.00000000E+00
