Title                                   
   1.00000000000000     
     4.9440799999999996    0.0000000000000000    0.0000000000000000
     0.0000000000000000    8.5647549999999999    0.0000000000000000
     0.0000000000000000    0.0000000000000000   20.0000000000000000
    10     4     1
Selective dynamics
Direct
 -0.0078207212849579  0.2964862932527352  0.1007301457161040   T   T   T
  0.2447522100258933  0.0382675487658881  0.0977797012362903   T   T   T
 -0.0043299081762303  0.9536993073215109  0.1027325178257755   T   T   T
  0.7471894932041651  0.2082097654730878  0.0932841457330868   T   T   T
  0.4928444327273747  0.2914839106574748  0.0905787640064464   T   T   T
  0.7499573270634931  0.0399428091154280  0.0945638139797926   T   T   T
  0.7505252427315863  0.7116511579633461  0.0982520687548442   T   T   T
  0.7462453854530546  0.5405525404046926  0.0965148381180892   T   T   T
  0.4994310788129693  0.9591149335201591  0.0929389950394863   T   T   T
  0.5000664417265404  0.4549053528932595  0.0869567930277420   T   T   T
 -0.0097995456715783  0.4577809009836318  0.1136949769755007   T   T   T
 -0.0121401191698771  0.7903727346308076  0.1157832313819217   T   T   T
  0.5085410760763235  0.7952201496108233  0.0904683676007034   T   T   T
  0.2413492748514553  0.2101576004782975  0.0969539466504603   T   T   T
  0.3031883316297885  0.6238359949288589  0.1367476939537602   T   T   T
 
  0.00000000E+00  0.00000000E+00  0.00000000E+00
  0.00000000E+00  0.00000000E+00  0.00000000E+00
  0.00000000E+00  0.00000000E+00  0.00000000E+00
  0.00000000E+00  0.00000000E+00  0.00000000E+00
  0.00000000E+00  0.00000000E+00  0.00000000E+00
  0.00000000E+00  0.00000000E+00  0.00000000E+00
  0.00000000E+00  0.00000000E+00  0.00000000E+00
  0.00000000E+00  0.00000000E+00  0.00000000E+00
  0.00000000E+00  0.00000000E+00  0.00000000E+00
  0.00000000E+00  0.00000000E+00  0.00000000E+00
  0.00000000E+00  0.00000000E+00  0.00000000E+00
  0.00000000E+00  0.00000000E+00  0.00000000E+00
  0.00000000E+00  0.00000000E+00  0.00000000E+00
  0.00000000E+00  0.00000000E+00  0.00000000E+00
  0.00000000E+00  0.00000000E+00  0.00000000E+00
