Title                                   
   1.00000000000000     
     9.8694509999999998    0.0000000000000000    0.0000000000000000
     0.0000000000000000    8.5490480000000009    0.0000000000000000
     0.0000000000000000    0.0000000000000000   20.0000000000000000
    29     1     1
Selective dynamics
Direct
  0.0550984330627414  0.0882628530940620  0.0858187973431336   T   T   T
  0.9300323631473338  0.1732356555748288  0.0873751616452739   T   T   T
  0.0566598149256853  0.9223740486253696  0.0863900105734639   T   T   T
  0.9321601331266414  0.3397797463894000  0.0873414948882998   T   T   T
  0.0573532631097324  0.5892853097589130  0.0856873672258907   T   T   T
  0.9336280363449825  0.6750727862478073  0.0893670836135411   T   T   T
  0.0562013494880788  0.4228460842904370  0.0852137183453117   T   T   T
  0.9316589583508796  0.8416641432181644  0.0894598637262052   T   T   T
  0.3051519694137844  0.0871603389084395  0.0912643452033090   T   T   T
  0.1797000950275168  0.1698090600306226  0.0871887383583258   T   T   T
  0.3078036536774508  0.9192641393756775  0.0908431253227247   T   T   T
  0.1791601523692443  0.3363381362036370  0.0866608212922725   T   T   T
  0.3061479202235609  0.5854823386423297  0.0914191161446961   T   T   T
  0.1820834866418523  0.6709014261100652  0.0869034255029553   T   T   T
  0.3026910441772439  0.4162874890138639  0.0925509783253864   T   T   T
  0.1824573315242788  0.8378126388946113  0.0870167656590589   T   T   T
  0.5541786418469069  0.0926069368015092  0.1007628579845595   T   T   T
  0.4267451464177204  0.1753885664501040  0.0984648384980454   T   T   T
  0.5562921890700563  0.9244150288136623  0.1015533008095107   T   T   T
  0.4312613328301451  0.6656526567584253  0.0982375844019751   T   T   T
  0.4333464211172380  0.8339210704128770  0.0970588186326922   T   T   T
  0.8041695686945501  0.0931161423927809  0.0923837798634469   T   T   T
  0.6787459326119619  0.1807725237602184  0.0982422552977537   T   T   T
  0.8056841585600826  0.9250600801862811  0.0938679519927345   T   T   T
  0.6845016919030087  0.3479613030530196  0.1006772558435938   T   T   T
  0.8115122772598492  0.5931834124196097  0.0972844462489480   T   T   T
  0.6883359801182379  0.6737298712306024  0.1112950431019374   T   T   T
  0.8100569413480645  0.4253174323487907  0.0940159819933553   T   T   T
  0.6825091203919201  0.8395651523056492  0.1023844992470830   T   T   T
  0.4212644805544796  0.3360280829112864  0.1024613868591894   T   T   T
  0.5565431126647804  0.5085805457769673  0.1417741860553677   T   T   T
 
  0.00000000E+00  0.00000000E+00  0.00000000E+00
  0.00000000E+00  0.00000000E+00  0.00000000E+00
  0.00000000E+00  0.00000000E+00  0.00000000E+00
  0.00000000E+00  0.00000000E+00  0.00000000E+00
  0.00000000E+00  0.00000000E+00  0.00000000E+00
  0.00000000E+00  0.00000000E+00  0.00000000E+00
  0.00000000E+00  0.00000000E+00  0.00000000E+00
  0.00000000E+00  0.00000000E+00  0.00000000E+00
  0.00000000E+00  0.00000000E+00  0.00000000E+00
  0.00000000E+00  0.00000000E+00  0.00000000E+00
  0.00000000E+00  0.00000000E+00  0.00000000E+00
  0.00000000E+00  0.00000000E+00  0.00000000E+00
  0.00000000E+00  0.00000000E+00  0.00000000E+00
  0.00000000E+00  0.00000000E+00  0.00000000E+00
  0.00000000E+00  0.00000000E+00  0.00000000E+00
  0.00000000E+00  0.00000000E+00  0.00000000E+00
  0.00000000E+00  0.00000000E+00  0.00000000E+00
  0.00000000E+00  0.00000000E+00  0.00000000E+00
  0.00000000E+00  0.00000000E+00  0.00000000E+00
  0.00000000E+00  0.00000000E+00  0.00000000E+00
  0.00000000E+00  0.00000000E+00  0.00000000E+00
  0.00000000E+00  0.00000000E+00  0.00000000E+00
  0.00000000E+00  0.00000000E+00  0.00000000E+00
  0.00000000E+00  0.00000000E+00  0.00000000E+00
  0.00000000E+00  0.00000000E+00  0.00000000E+00
  0.00000000E+00  0.00000000E+00  0.00000000E+00
  0.00000000E+00  0.00000000E+00  0.00000000E+00
  0.00000000E+00  0.00000000E+00  0.00000000E+00
  0.00000000E+00  0.00000000E+00  0.00000000E+00
  0.00000000E+00  0.00000000E+00  0.00000000E+00
  0.00000000E+00  0.00000000E+00  0.00000000E+00
