Title                                   
   1.00000000000000     
     4.9440799999999996    0.0000000000000000    0.0000000000000000
     0.0000000000000000    8.5647549999999999    0.0000000000000000
     0.0000000000000000    0.0000000000000000   20.0000000000000000
    14     1     1
Selective dynamics
Direct
 -0.0001137793281039  0.2891358418196083  0.0951492664212387   T   T   T
  0.2500000000000000  0.0434841628734873  0.0885472624216349   T   T   T
 -0.0004131828353728  0.7946837609312285  0.0979441992826230   T   T   T
 -0.0003804726565413  0.9605377143561774  0.0884629337575466   T   T   T
  0.7500000000000000  0.2065565918064649  0.0876230196283177   T   T   T
  0.5001137793281039  0.2891358418196083  0.0951492664212387   T   T   T
  0.7500000000000000  0.0418770431822604  0.0851274328393100   T   T   T
  0.7500000000000000  0.7085846927371554  0.1012117229652744   T   T   T
  0.5004131828353726  0.7946837609312285  0.0979441992826230   T   T   T
  0.7500000000000000  0.5398877833691809  0.1058580500510905   T   T   T
  0.5003804726565413  0.9605377143561774  0.0884629337575466   T   T   T
  0.5074189961891449  0.4500164743286639  0.1109863169901980   T   T   T
 -0.0074189961891448  0.4500164743286639  0.1109863169901980   T   T   T
  0.2500000000000000  0.7205700050222111  0.1099471893921401   T   T   T
  0.2500000000000000  0.2071636378724152  0.0918801571539088   T   T   T
  0.2500000000000000  0.5431285002654688  0.1572317326451202   T   T   T
 
  0.00000000E+00  0.00000000E+00  0.00000000E+00
  0.00000000E+00  0.00000000E+00  0.00000000E+00
  0.00000000E+00  0.00000000E+00  0.00000000E+00
  0.00000000E+00  0.00000000E+00  0.00000000E+00
  0.00000000E+00  0.00000000E+00  0.00000000E+00
  0.00000000E+00  0.00000000E+00  0.00000000E+00
  0.00000000E+00  0.00000000E+00  0.00000000E+00
  0.00000000E+00  0.00000000E+00  0.00000000E+00
  0.00000000E+00  0.00000000E+00  0.00000000E+00
  0.00000000E+00  0.00000000E+00  0.00000000E+00
  0.00000000E+00  0.00000000E+00  0.00000000E+00
  0.00000000E+00  0.00000000E+00  0.00000000E+00
  0.00000000E+00  0.00000000E+00  0.00000000E+00
  0.00000000E+00  0.00000000E+00  0.00000000E+00
  0.00000000E+00  0.00000000E+00  0.00000000E+00
  0.00000000E+00  0.00000000E+00  0.00000000E+00
