Title                                   
   1.00000000000000     
     9.8694509999999998    0.0000000000000000    0.0000000000000000
     0.0000000000000000    8.5490480000000009    0.0000000000000000
     0.0000000000000000    0.0000000000000000   20.0000000000000000
    25     6     1
Selective dynamics
Direct
  0.0561831834839533  0.0938801571338333  0.0911348699151341   T   T   T
  0.9294770627010802  0.1762676801056326  0.0909197461940360   T   T   T
  0.0562086560423722  0.9253873697785990  0.0912371606757035   T   T   T
  0.9281848826045044  0.3430259057448357  0.0906037371799074   T   T   T
  0.0562182228828031  0.5910623739175341  0.0909655382637849   T   T   T
  0.9316970319001052  0.6727373357623684  0.0908865442300954   T   T   T
  0.0561957877805951  0.4240236536350103  0.0907091222299288   T   T   T
  0.9314183680948206  0.8401155095819746  0.0910639987717451   T   T   T
  0.3056888667649419  0.0887880688674864  0.0909462173867096   T   T   T
  0.1828910678626313  0.1762328212070169  0.0909513102921959   T   T   T
  0.3060703254776819  0.9234599158021936  0.0909630455346237   T   T   T
  0.1842177933013374  0.3430076485317881  0.0906521309364662   T   T   T
  0.3098566615324579  0.5956635885567146  0.0901654022371334   T   T   T
  0.1807363684140117  0.6727310343930971  0.0909756600356727   T   T   T
  0.1809593991760379  0.8401223540286276  0.0911400116814341   T   T   T
  0.5561759576959996  0.0822227990234506  0.0904016732761739   T   T   T
  0.4320222639582733  0.1683259336485028  0.0905846932692608   T   T   T
  0.4385707929308857  0.3361273687185719  0.0900904429811277   T   T   T
  0.4276321054356383  0.8323574347176570  0.0901051419767256   T   T   T
  0.8066931766973543  0.0888213176847750  0.0908528549289898   T   T   T
  0.6803807380885601  0.1683679496675893  0.0904865174651642   T   T   T
  0.8062993977644036  0.9234800297247069  0.0908498208079116   T   T   T
  0.6738101772655003  0.3361160461299041  0.0900009465987384   T   T   T
  0.8025706915913706  0.5956574557562557  0.0900384597517727   T   T   T
  0.6847661939588812  0.8323824387691702  0.0899982579196631   T   T   T
  0.4249754512050808  0.6765230403410584  0.0891541041446159   T   T   T
  0.5561718862748598  0.4119561297331423  0.0892709224783676   T   T   T
  0.6874802511335208  0.6765473790400541  0.0889904040454350   T   T   T
  0.5562023645468668  0.9139125481956036  0.0900062901073826   T   T   T
  0.3120351670761336  0.4258246367225813  0.0901503319261346   T   T   T
  0.8003718294786676  0.4258395987202584  0.0900290137671321   T   T   T
  0.5574768768786752  0.5892784763600073  0.2813506289908497   T   T   T
 
  0.00000000E+00  0.00000000E+00  0.00000000E+00
  0.00000000E+00  0.00000000E+00  0.00000000E+00
  0.00000000E+00  0.00000000E+00  0.00000000E+00
  0.00000000E+00  0.00000000E+00  0.00000000E+00
  0.00000000E+00  0.00000000E+00  0.00000000E+00
  0.00000000E+00  0.00000000E+00  0.00000000E+00
  0.00000000E+00  0.00000000E+00  0.00000000E+00
  0.00000000E+00  0.00000000E+00  0.00000000E+00
  0.00000000E+00  0.00000000E+00  0.00000000E+00
  0.00000000E+00  0.00000000E+00  0.00000000E+00
  0.00000000E+00  0.00000000E+00  0.00000000E+00
  0.00000000E+00  0.00000000E+00  0.00000000E+00
  0.00000000E+00  0.00000000E+00  0.00000000E+00
  0.00000000E+00  0.00000000E+00  0.00000000E+00
  0.00000000E+00  0.00000000E+00  0.00000000E+00
  0.00000000E+00  0.00000000E+00  0.00000000E+00
  0.00000000E+00  0.00000000E+00  0.00000000E+00
  0.00000000E+00  0.00000000E+00  0.00000000E+00
  0.00000000E+00  0.00000000E+00  0.00000000E+00
  0.00000000E+00  0.00000000E+00  0.00000000E+00
  0.00000000E+00  0.00000000E+00  0.00000000E+00
  0.00000000E+00  0.00000000E+00  0.00000000E+00
  0.00000000E+00  0.00000000E+00  0.00000000E+00
  0.00000000E+00  0.00000000E+00  0.00000000E+00
  0.00000000E+00  0.00000000E+00  0.00000000E+00
  0.00000000E+00  0.00000000E+00  0.00000000E+00
  0.00000000E+00  0.00000000E+00  0.00000000E+00
  0.00000000E+00  0.00000000E+00  0.00000000E+00
  0.00000000E+00  0.00000000E+00  0.00000000E+00
  0.00000000E+00  0.00000000E+00  0.00000000E+00
  0.00000000E+00  0.00000000E+00  0.00000000E+00
  0.00000000E+00  0.00000000E+00  0.00000000E+00
