Title                                   
   1.00000000000000     
     9.8694509999999998    0.0000000000000000    0.0000000000000000
     0.0000000000000000    8.5490480000000009    0.0000000000000000
     0.0000000000000000    0.0000000000000000   20.0000000000000000
    28     3     1
Selective dynamics
Direct
  0.0558145060977001  0.0895490318618008  0.0816531317516844   T   T   T
  0.9310857939751466  0.1733413658613397  0.0820583660450638   T   T   T
  0.0571584524691114  0.9223077412718602  0.0832188908615623   T   T   T
  0.9306530738454902  0.3406601372820734  0.0845589560293619   T   T   T
  0.0561804865370710  0.5913971241584806  0.0854785235516959   T   T   T
  0.0561628775295736  0.4243887272424970  0.0842350187745956   T   T   T
  0.9323537740290673  0.8380645908302710  0.0858105516415936   T   T   T
  0.3055311133118575  0.0890262574452156  0.0871718716435671   T   T   T
  0.1821589987641281  0.1725874733122350  0.0839241766573492   T   T   T
  0.1819038056782546  0.3407238654191240  0.0861894387319152   T   T   T
  0.3028741551661285  0.5890305729727308  0.1020066613118891   T   T   T
  0.1812162491418812  0.6743128553133177  0.0894757224710771   T   T   T
  0.3063819110275778  0.4213998177091470  0.0978187098442978   T   T   T
  0.1825852606127268  0.8413773066945289  0.0869625045705641   T   T   T
  0.5555455074105823  0.0877444696751383  0.0916545239876203   T   T   T
  0.5545054427042504  0.9229263422800668  0.0993395900244079   T   T   T
  0.4300171714624840  0.3323964807542675  0.1038398939716668   T   T   T
  0.4268640641843873  0.8418706257433736  0.1047714040479951   T   T   T
  0.8066494393339027  0.0884535300685783  0.0841779463565284   T   T   T
  0.6806881388927067  0.1715767542412153  0.0892686788682472   T   T   T
  0.8066265963534355  0.9220487640229769  0.0878988032408701   T   T   T
  0.6826952360429830  0.3363741144843094  0.0997768556339255   T   T   T
  0.8107342392217074  0.5922928583929925  0.1011448951756107   T   T   T
  0.8070978762680528  0.4237045347038742  0.0952476586180343   T   T   T
  0.6826015113955543  0.8423306320778308  0.1009292396454459   T   T   T
  0.4172584256746497  0.6818826293894790  0.1221979455499566   T   T   T
  0.5562070641514142  0.4037989624059649  0.1202614328946193   T   T   T
  0.6946059912224373  0.6810336014787700  0.1197643129411285   T   T   T
  0.3058608236943911  0.9250316813781555  0.0900006604814946   T   T   T
  0.4292748831763801  0.1686378102677697  0.0922872278305399   T   T   T
  0.9327563262128755  0.6729469446237539  0.0882290232744941   T   T   T
  0.5575898044120990  0.5870283966368652  0.1743223835712137   T   T   T
 
  0.00000000E+00  0.00000000E+00  0.00000000E+00
  0.00000000E+00  0.00000000E+00  0.00000000E+00
  0.00000000E+00  0.00000000E+00  0.00000000E+00
  0.00000000E+00  0.00000000E+00  0.00000000E+00
  0.00000000E+00  0.00000000E+00  0.00000000E+00
  0.00000000E+00  0.00000000E+00  0.00000000E+00
  0.00000000E+00  0.00000000E+00  0.00000000E+00
  0.00000000E+00  0.00000000E+00  0.00000000E+00
  0.00000000E+00  0.00000000E+00  0.00000000E+00
  0.00000000E+00  0.00000000E+00  0.00000000E+00
  0.00000000E+00  0.00000000E+00  0.00000000E+00
  0.00000000E+00  0.00000000E+00  0.00000000E+00
  0.00000000E+00  0.00000000E+00  0.00000000E+00
  0.00000000E+00  0.00000000E+00  0.00000000E+00
  0.00000000E+00  0.00000000E+00  0.00000000E+00
  0.00000000E+00  0.00000000E+00  0.00000000E+00
  0.00000000E+00  0.00000000E+00  0.00000000E+00
  0.00000000E+00  0.00000000E+00  0.00000000E+00
  0.00000000E+00  0.00000000E+00  0.00000000E+00
  0.00000000E+00  0.00000000E+00  0.00000000E+00
  0.00000000E+00  0.00000000E+00  0.00000000E+00
  0.00000000E+00  0.00000000E+00  0.00000000E+00
  0.00000000E+00  0.00000000E+00  0.00000000E+00
  0.00000000E+00  0.00000000E+00  0.00000000E+00
  0.00000000E+00  0.00000000E+00  0.00000000E+00
  0.00000000E+00  0.00000000E+00  0.00000000E+00
  0.00000000E+00  0.00000000E+00  0.00000000E+00
  0.00000000E+00  0.00000000E+00  0.00000000E+00
  0.00000000E+00  0.00000000E+00  0.00000000E+00
  0.00000000E+00  0.00000000E+00  0.00000000E+00
  0.00000000E+00  0.00000000E+00  0.00000000E+00
  0.00000000E+00  0.00000000E+00  0.00000000E+00
