Title                                   
   1.00000000000000     
     4.9440799999999996    0.0000000000000000    0.0000000000000000
     0.0000000000000000    8.5647549999999999    0.0000000000000000
     0.0000000000000000    0.0000000000000000   20.0000000000000000
    11     4     1
Selective dynamics
Direct
 -0.0058112837485734  0.2940318686155873  0.0910985232579313   T   T   T
  0.2500000000000000  0.0448099853529658  0.0907407305354051   T   T   T
  0.0052863709462862  0.7944276198339115  0.1013824004683158   T   T   T
  0.0008525869404120  0.9610258993632280  0.0908723149337306   T   T   T
  0.7500000000000000  0.2059240742261868  0.0854475116289827   T   T   T
  0.5058112837485732  0.2940318686155873  0.0910985232579313   T   T   T
  0.7500000000000000  0.0407688779912208  0.0857480862482553   T   T   T
  0.7500000000000000  0.7040297257657195  0.1032074486311386   T   T   T
  0.4947136290537138  0.7944276198339115  0.1013824004683158   T   T   T
  0.7500000000000000  0.5305833696865633  0.1006827322230856   T   T   T
  0.4991474130595880  0.9610258993632280  0.0908723149337306   T   T   T
  0.5111912666329320  0.4496006780814842  0.1005517094793445   T   T   T
 -0.0111912666329322  0.4496006780814842  0.1005517094793445   T   T   T
  0.2500000000000000  0.7247055716082782  0.1124546091079571   T   T   T
  0.2500000000000000  0.2140724383341931  0.0904733899986250   T   T   T
  0.2500000000000000  0.5369338252464509  0.1759475953479158   T   T   T
 
  0.00000000E+00  0.00000000E+00  0.00000000E+00
  0.00000000E+00  0.00000000E+00  0.00000000E+00
  0.00000000E+00  0.00000000E+00  0.00000000E+00
  0.00000000E+00  0.00000000E+00  0.00000000E+00
  0.00000000E+00  0.00000000E+00  0.00000000E+00
  0.00000000E+00  0.00000000E+00  0.00000000E+00
  0.00000000E+00  0.00000000E+00  0.00000000E+00
  0.00000000E+00  0.00000000E+00  0.00000000E+00
  0.00000000E+00  0.00000000E+00  0.00000000E+00
  0.00000000E+00  0.00000000E+00  0.00000000E+00
  0.00000000E+00  0.00000000E+00  0.00000000E+00
  0.00000000E+00  0.00000000E+00  0.00000000E+00
  0.00000000E+00  0.00000000E+00  0.00000000E+00
  0.00000000E+00  0.00000000E+00  0.00000000E+00
  0.00000000E+00  0.00000000E+00  0.00000000E+00
  0.00000000E+00  0.00000000E+00  0.00000000E+00
