Title                                   
   1.00000000000000     
     9.8694509999999998    0.0000000000000000    0.0000000000000000
     0.0000000000000000    8.5490480000000009    0.0000000000000000
     0.0000000000000000    0.0000000000000000   20.0000000000000000
    26     4     1
Selective dynamics
Direct
  0.0551265383268050  0.0898391986363930  0.0862399405048182   T   T   T
  0.9294495144854072  0.1739774262483169  0.0859735732665320   T   T   T
  0.0580938221309682  0.9230389255076591  0.0863794268649794   T   T   T
  0.9317563008711094  0.3415522111810833  0.0853540803930673   T   T   T
  0.0570087396607678  0.5898953591772311  0.0845022373307668   T   T   T
  0.9335464696723680  0.6749513590633737  0.0872149625961886   T   T   T
  0.0564785730530993  0.4229501223592425  0.0844571716081741   T   T   T
  0.9329220442112937  0.8417757058043569  0.0883204564083404   T   T   T
  0.3073192408738807  0.0864277994378834  0.0927629297194606   T   T   T
  0.1804486256970413  0.1698148229301897  0.0890374001594697   T   T   T
  0.1798571708956068  0.3362325190156206  0.0885189621444582   T   T   T
  0.3041697711019283  0.5845649270130537  0.0932424516827514   T   T   T
  0.1820304624969916  0.6719461920530274  0.0867947481900026   T   T   T
  0.3015444273560471  0.4175059062660758  0.0966841079986697   T   T   T
  0.1832627310250220  0.8386852390890759  0.0872759437612133   T   T   T
  0.4281534171259639  0.1726952532092788  0.1012908809708060   T   T   T
  0.5566547005379405  0.9218436098897620  0.1013205767647457   T   T   T
  0.4279042036209437  0.6688711936111783  0.1016912385508998   T   T   T
  0.4318175007981522  0.8350955542358577  0.0983079128775417   T   T   T
  0.8029999230047847  0.0914512010107940  0.0898216897136074   T   T   T
  0.6780358253726662  0.1791794721012811  0.0952708424554963   T   T   T
  0.8065370101648603  0.9244221248301639  0.0921508868588488   T   T   T
  0.6823388266198194  0.3456647319063850  0.0972346653208797   T   T   T
  0.8111279080342600  0.5946694687908868  0.0939564148523122   T   T   T
  0.8083061431221277  0.4266156574496251  0.0904214741128866   T   T   T
  0.6832325944746085  0.8385959365686706  0.1010203754765268   T   T   T
  0.5552369025147845  0.0927513625398285  0.1006353148155733   T   T   T
  0.4211774526759269  0.3341284659256480  0.1128938343671651   T   T   T
  0.6915081085179587  0.6753933998780635  0.1095908587472863   T   T   T
  0.3078274320489169  0.9208826513383399  0.0909632542613219   T   T   T
  0.5572626195079500  0.5054572029316804  0.1416363872252444   T   T   T
 
  0.00000000E+00  0.00000000E+00  0.00000000E+00
  0.00000000E+00  0.00000000E+00  0.00000000E+00
  0.00000000E+00  0.00000000E+00  0.00000000E+00
  0.00000000E+00  0.00000000E+00  0.00000000E+00
  0.00000000E+00  0.00000000E+00  0.00000000E+00
  0.00000000E+00  0.00000000E+00  0.00000000E+00
  0.00000000E+00  0.00000000E+00  0.00000000E+00
  0.00000000E+00  0.00000000E+00  0.00000000E+00
  0.00000000E+00  0.00000000E+00  0.00000000E+00
  0.00000000E+00  0.00000000E+00  0.00000000E+00
  0.00000000E+00  0.00000000E+00  0.00000000E+00
  0.00000000E+00  0.00000000E+00  0.00000000E+00
  0.00000000E+00  0.00000000E+00  0.00000000E+00
  0.00000000E+00  0.00000000E+00  0.00000000E+00
  0.00000000E+00  0.00000000E+00  0.00000000E+00
  0.00000000E+00  0.00000000E+00  0.00000000E+00
  0.00000000E+00  0.00000000E+00  0.00000000E+00
  0.00000000E+00  0.00000000E+00  0.00000000E+00
  0.00000000E+00  0.00000000E+00  0.00000000E+00
  0.00000000E+00  0.00000000E+00  0.00000000E+00
  0.00000000E+00  0.00000000E+00  0.00000000E+00
  0.00000000E+00  0.00000000E+00  0.00000000E+00
  0.00000000E+00  0.00000000E+00  0.00000000E+00
  0.00000000E+00  0.00000000E+00  0.00000000E+00
  0.00000000E+00  0.00000000E+00  0.00000000E+00
  0.00000000E+00  0.00000000E+00  0.00000000E+00
  0.00000000E+00  0.00000000E+00  0.00000000E+00
  0.00000000E+00  0.00000000E+00  0.00000000E+00
  0.00000000E+00  0.00000000E+00  0.00000000E+00
  0.00000000E+00  0.00000000E+00  0.00000000E+00
  0.00000000E+00  0.00000000E+00  0.00000000E+00
