Title                                   
   1.00000000000000     
     4.9440799999999996    0.0000000000000000    0.0000000000000000
     0.0000000000000000    8.5647549999999999    0.0000000000000000
     0.0000000000000000    0.0000000000000000   20.0000000000000000
    15     1
Selective dynamics
Direct
  0.2500000000000000  0.2083741584023399  0.0838012285876795   T   T   T
 -0.0052264952651846  0.2872139424405516  0.0904058633203275   T   T   T
  0.2500000000000000  0.0423388064495497  0.0802368148536678   T   T   T
  0.0020279406446146  0.8003056876966284  0.1055949180135546   T   T   T
  0.0003172762943505  0.9582861746927042  0.0833015280389069   T   T   T
  0.7500000000000000  0.2018927888817214  0.0804988242137706   T   T   T
  0.5052264952651844  0.2872139424405516  0.0904058633203275   T   T   T
  0.7500000000000000  0.0378486107698743  0.0761965648189888   T   T   T
  0.7500000000000000  0.7150556409394262  0.1102562514369009   T   T   T
  0.4979720593553853  0.8003056876966284  0.1055949180135546   T   T   T
  0.7500000000000000  0.5478789663216520  0.1103096766315881   T   T   T
  0.4996827237056496  0.9582861746927042  0.0833015280389069   T   T   T
  0.5303111407242211  0.4410973572268574  0.1130028961337918   T   T   T
 -0.0303111407242213  0.4410973572268574  0.1130028961337918   T   T   T
  0.2500000000000000  0.7356896205821271  0.1264622806105420   T   T   T
  0.2500000000000000  0.5371150835398263  0.1701399478337082   T   T   T
 
  0.00000000E+00  0.00000000E+00  0.00000000E+00
  0.00000000E+00  0.00000000E+00  0.00000000E+00
  0.00000000E+00  0.00000000E+00  0.00000000E+00
  0.00000000E+00  0.00000000E+00  0.00000000E+00
  0.00000000E+00  0.00000000E+00  0.00000000E+00
  0.00000000E+00  0.00000000E+00  0.00000000E+00
  0.00000000E+00  0.00000000E+00  0.00000000E+00
  0.00000000E+00  0.00000000E+00  0.00000000E+00
  0.00000000E+00  0.00000000E+00  0.00000000E+00
  0.00000000E+00  0.00000000E+00  0.00000000E+00
  0.00000000E+00  0.00000000E+00  0.00000000E+00
  0.00000000E+00  0.00000000E+00  0.00000000E+00
  0.00000000E+00  0.00000000E+00  0.00000000E+00
  0.00000000E+00  0.00000000E+00  0.00000000E+00
  0.00000000E+00  0.00000000E+00  0.00000000E+00
  0.00000000E+00  0.00000000E+00  0.00000000E+00
