Title                                   
   1.00000000000000     
     9.8694509999999998    0.0000000000000000    0.0000000000000000
     0.0000000000000000    8.5490480000000009    0.0000000000000000
     0.0000000000000000    0.0000000000000000   20.0000000000000000
    24     6     1
Selective dynamics
Direct
  0.0557291003772370  0.0895972800819341  0.0938042549219563   T   T   T
  0.9315613343907195  0.1717689345528893  0.0944006888890803   T   T   T
  0.0571161181390810  0.9232138562238600  0.0938912548539279   T   T   T
  0.9333638817324970  0.3392966616240203  0.0937976503461694   T   T   T
  0.0567227785456305  0.5896189661752094  0.0922882327325411   T   T   T
  0.9335760855183780  0.6729056074888947  0.0938324798636246   T   T   T
  0.0567651728503362  0.4229235018773853  0.0922527165395574   T   T   T
  0.9322038078333778  0.8398947521789176  0.0944915003180320   T   T   T
  0.3066774929797070  0.0879171522048156  0.0963289078257255   T   T   T
  0.1815182641986699  0.1711767434837461  0.0942573070892745   T   T   T
  0.1799196759067731  0.3384160131966681  0.0936937424346760   T   T   T
  0.3023396775272337  0.5909103921590030  0.0968062430048491   T   T   T
  0.1799669107588668  0.6743263285915521  0.0936561125578238   T   T   T
  0.3021924172110235  0.4209278455039224  0.0967604877709925   T   T   T
  0.1810909651359045  0.8405897161906402  0.0943434664049381   T   T   T
  0.4291425858621298  0.1770049310878065  0.0991374968187899   T   T   T
  0.5547823009622059  0.9196897190772394  0.1001469771083077   T   T   T
  0.4286389850915883  0.8364130162719283  0.0994115069273084   T   T   T
  0.8052835309357437  0.0891307470639501  0.0963928719153782   T   T   T
  0.6827183469177834  0.1784267462303928  0.0990103778145012   T   T   T
  0.8063056059378146  0.9222328636861189  0.0965193730748445   T   T   T
  0.8106059231593253  0.5908741128304292  0.0968607040905916   T   T   T
  0.8107871364537143  0.4205996466522002  0.0967649219734354   T   T   T
  0.6827953685274930  0.8345115334305380  0.0993891819492530   T   T   T
  0.5566574446494980  0.0951674249325377  0.1001106446399401   T   T   T
  0.4223683583403840  0.3368670932883066  0.1006398828436911   T   T   T
  0.4209470324508303  0.6753928800615329  0.1009724066786453   T   T   T
  0.6892752714409026  0.3383030803415631  0.1004302911475991   T   T   T
  0.6906256498202257  0.6727707410135206  0.1007329002562880   T   T   T
  0.3055231864395576  0.9231941964288632  0.0963175689554805   T   T   T
  0.5559355899053676  0.5068125160696136  0.1035228482528349   T   T   T
 
  0.00000000E+00  0.00000000E+00  0.00000000E+00
  0.00000000E+00  0.00000000E+00  0.00000000E+00
  0.00000000E+00  0.00000000E+00  0.00000000E+00
  0.00000000E+00  0.00000000E+00  0.00000000E+00
  0.00000000E+00  0.00000000E+00  0.00000000E+00
  0.00000000E+00  0.00000000E+00  0.00000000E+00
  0.00000000E+00  0.00000000E+00  0.00000000E+00
  0.00000000E+00  0.00000000E+00  0.00000000E+00
  0.00000000E+00  0.00000000E+00  0.00000000E+00
  0.00000000E+00  0.00000000E+00  0.00000000E+00
  0.00000000E+00  0.00000000E+00  0.00000000E+00
  0.00000000E+00  0.00000000E+00  0.00000000E+00
  0.00000000E+00  0.00000000E+00  0.00000000E+00
  0.00000000E+00  0.00000000E+00  0.00000000E+00
  0.00000000E+00  0.00000000E+00  0.00000000E+00
  0.00000000E+00  0.00000000E+00  0.00000000E+00
  0.00000000E+00  0.00000000E+00  0.00000000E+00
  0.00000000E+00  0.00000000E+00  0.00000000E+00
  0.00000000E+00  0.00000000E+00  0.00000000E+00
  0.00000000E+00  0.00000000E+00  0.00000000E+00
  0.00000000E+00  0.00000000E+00  0.00000000E+00
  0.00000000E+00  0.00000000E+00  0.00000000E+00
  0.00000000E+00  0.00000000E+00  0.00000000E+00
  0.00000000E+00  0.00000000E+00  0.00000000E+00
  0.00000000E+00  0.00000000E+00  0.00000000E+00
  0.00000000E+00  0.00000000E+00  0.00000000E+00
  0.00000000E+00  0.00000000E+00  0.00000000E+00
  0.00000000E+00  0.00000000E+00  0.00000000E+00
  0.00000000E+00  0.00000000E+00  0.00000000E+00
  0.00000000E+00  0.00000000E+00  0.00000000E+00
  0.00000000E+00  0.00000000E+00  0.00000000E+00
