Title                                   
   1.00000000000000     
     9.8694509999999998    0.0000000000000000    0.0000000000000000
     0.0000000000000000    8.5490480000000009    0.0000000000000000
     0.0000000000000000    0.0000000000000000   20.0000000000000000
    28     3     1
Selective dynamics
Direct
  0.0554396058617534  0.0914848625818412  0.0864443827376371   T   T   T
  0.9300698338961310  0.1752943933666617  0.0885019667175529   T   T   T
  0.0568286625648151  0.9235052812198921  0.0850772727403361   T   T   T
  0.9288251645879645  0.3422405243056739  0.0920301376275605   T   T   T
  0.0559049638204932  0.5898479259090593  0.0888214505720224   T   T   T
  0.9328129210654150  0.6741746298056307  0.0873168834670948   T   T   T
  0.0557195609549310  0.4231663368629054  0.0915952567425377   T   T   T
  0.9318127906795601  0.8413117182023431  0.0844363603023257   T   T   T
  0.3041421221090808  0.0868734342021888  0.0882072799771326   T   T   T
  0.1810911518907931  0.1733969593659480  0.0889266221652929   T   T   T
  0.3070185614999529  0.9211103537565455  0.0898982821989145   T   T   T
  0.1800058625313769  0.3398927344020765  0.0932330206924719   T   T   T
  0.3052266515316305  0.5887760877745029  0.1027723041725732   T   T   T
  0.1816802691311841  0.6705934036318858  0.0910695769152365   T   T   T
  0.1818091143606636  0.8376884051015775  0.0885500404194048   T   T   T
  0.5547505152905553  0.0869689197347054  0.0931033785704256   T   T   T
  0.4286436046488270  0.1683922313463738  0.0918714881167917   T   T   T
  0.4268243771980298  0.3341428820699300  0.0999411563325395   T   T   T
  0.4296706543024028  0.8364152809994928  0.1002012527304116   T   T   T
  0.8061583494288547  0.0914255932745421  0.0868695288332297   T   T   T
  0.6798366152170128  0.1704202776351583  0.0924136748424818   T   T   T
  0.8066614481374860  0.9262644330393360  0.0842328193636040   T   T   T
  0.6769114749629023  0.3362805530231425  0.1002561264552548   T   T   T
  0.8066082381995755  0.5953795465678960  0.0941274602411493   T   T   T
  0.8017751805300549  0.4264655171508643  0.0966124852371647   T   T   T
  0.6833900500556833  0.8431254472856048  0.0908135829226198   T   T   T
  0.4242470096729795  0.6755872340738812  0.1185877365544102   T   T   T
  0.5492416469625686  0.4087511274383112  0.1124066639374568   T   T   T
  0.6897112122572638  0.6857537883309734  0.1008596867450428   T   T   T
  0.5564544380599119  0.9195257182541089  0.0954858617437040   T   T   T
  0.3043914818577052  0.4212972331145366  0.1002151242581142   T   T   T
  0.5859754667324485  0.5846931661724133  0.1807961356675215   T   T   T
 
  0.00000000E+00  0.00000000E+00  0.00000000E+00
  0.00000000E+00  0.00000000E+00  0.00000000E+00
  0.00000000E+00  0.00000000E+00  0.00000000E+00
  0.00000000E+00  0.00000000E+00  0.00000000E+00
  0.00000000E+00  0.00000000E+00  0.00000000E+00
  0.00000000E+00  0.00000000E+00  0.00000000E+00
  0.00000000E+00  0.00000000E+00  0.00000000E+00
  0.00000000E+00  0.00000000E+00  0.00000000E+00
  0.00000000E+00  0.00000000E+00  0.00000000E+00
  0.00000000E+00  0.00000000E+00  0.00000000E+00
  0.00000000E+00  0.00000000E+00  0.00000000E+00
  0.00000000E+00  0.00000000E+00  0.00000000E+00
  0.00000000E+00  0.00000000E+00  0.00000000E+00
  0.00000000E+00  0.00000000E+00  0.00000000E+00
  0.00000000E+00  0.00000000E+00  0.00000000E+00
  0.00000000E+00  0.00000000E+00  0.00000000E+00
  0.00000000E+00  0.00000000E+00  0.00000000E+00
  0.00000000E+00  0.00000000E+00  0.00000000E+00
  0.00000000E+00  0.00000000E+00  0.00000000E+00
  0.00000000E+00  0.00000000E+00  0.00000000E+00
  0.00000000E+00  0.00000000E+00  0.00000000E+00
  0.00000000E+00  0.00000000E+00  0.00000000E+00
  0.00000000E+00  0.00000000E+00  0.00000000E+00
  0.00000000E+00  0.00000000E+00  0.00000000E+00
  0.00000000E+00  0.00000000E+00  0.00000000E+00
  0.00000000E+00  0.00000000E+00  0.00000000E+00
  0.00000000E+00  0.00000000E+00  0.00000000E+00
  0.00000000E+00  0.00000000E+00  0.00000000E+00
  0.00000000E+00  0.00000000E+00  0.00000000E+00
  0.00000000E+00  0.00000000E+00  0.00000000E+00
  0.00000000E+00  0.00000000E+00  0.00000000E+00
  0.00000000E+00  0.00000000E+00  0.00000000E+00
