Title                                   
   1.00000000000000     
     4.9440799999999996    0.0000000000000000    0.0000000000000000
     0.0000000000000000    8.5647549999999999    0.0000000000000000
     0.0000000000000000    0.0000000000000000   20.0000000000000000
    13     1     1
Selective dynamics
Direct
  0.0009283272104971  0.2927089525539500  0.1005683148089367   T   T   T
  0.2500000000000000  0.0439537040910430  0.1005956461830006   T   T   T
  0.0001143991479259  0.9580061414951058  0.1006485361627534   T   T   T
  0.7500000000000000  0.2077058474400868  0.1006433646845159   T   T   T
  0.4990716727895030  0.2927089525539500  0.1005683148089367   T   T   T
  0.7500000000000000  0.0413398708955338  0.1006537499267678   T   T   T
  0.7500000000000000  0.7099800177792452  0.1005323186787839   T   T   T
  0.7500000000000000  0.5372887788167634  0.1004841169349104   T   T   T
  0.4998856008520739  0.9580061414951058  0.1006485361627534   T   T   T
  0.5003072796963515  0.4567406529484788  0.1004685407265585   T   T   T
 -0.0003072796963517  0.4567406529484788  0.1004685407265585   T   T   T
 -0.0021562033691302  0.7919240812380223  0.1005421159214218   T   T   T
  0.5021562033691301  0.7919240812380223  0.1005421159214218   T   T   T
  0.2500000000000000  0.2066205745536081  0.1005778064393522   T   T   T
  0.2500000000000000  0.6260325499526084  0.1000379819133320   T   T   T
 
  0.00000000E+00  0.00000000E+00  0.00000000E+00
  0.00000000E+00  0.00000000E+00  0.00000000E+00
  0.00000000E+00  0.00000000E+00  0.00000000E+00
  0.00000000E+00  0.00000000E+00  0.00000000E+00
  0.00000000E+00  0.00000000E+00  0.00000000E+00
  0.00000000E+00  0.00000000E+00  0.00000000E+00
  0.00000000E+00  0.00000000E+00  0.00000000E+00
  0.00000000E+00  0.00000000E+00  0.00000000E+00
  0.00000000E+00  0.00000000E+00  0.00000000E+00
  0.00000000E+00  0.00000000E+00  0.00000000E+00
  0.00000000E+00  0.00000000E+00  0.00000000E+00
  0.00000000E+00  0.00000000E+00  0.00000000E+00
  0.00000000E+00  0.00000000E+00  0.00000000E+00
  0.00000000E+00  0.00000000E+00  0.00000000E+00
  0.00000000E+00  0.00000000E+00  0.00000000E+00
