Title                                   
   1.00000000000000     
     9.8694509999999998    0.0000000000000000    0.0000000000000000
     0.0000000000000000    8.5490480000000009    0.0000000000000000
     0.0000000000000000    0.0000000000000000   20.0000000000000000
    27     3     1
Selective dynamics
Direct
  0.0560669615952662  0.0903939251319853  0.0918888569496530   T   T   T
  0.9305426825148692  0.1737433537777163  0.0918556952778792   T   T   T
  0.0566703509476571  0.9235113585576696  0.0915939689140727   T   T   T
  0.9321692449754343  0.3404533308155054  0.0931788872992594   T   T   T
  0.0568012356147777  0.5895934893302953  0.0935560798018938   T   T   T
  0.9334517261422551  0.6748585575421717  0.0931333561474400   T   T   T
  0.0565275787980356  0.4231010323172713  0.0938117145066336   T   T   T
  0.9320708707071375  0.8410375549518084  0.0919445856269235   T   T   T
  0.3065964436917680  0.0891096734325861  0.0930936597113880   T   T   T
  0.1806154969277443  0.1722868573084961  0.0932405785763705   T   T   T
  0.3069312821561832  0.9213946537038502  0.0922744922237477   T   T   T
  0.1803352080957936  0.3392623825097952  0.0944361292606268   T   T   T
  0.3049898771669553  0.5896217394363408  0.0946288835717081   T   T   T
  0.1804933443116706  0.6726109898452767  0.0933323266595659   T   T   T
  0.3049624163669278  0.4208292636587505  0.0963165817935869   T   T   T
  0.1809975179069986  0.8395285762015938  0.0921112903698110   T   T   T
  0.5545274891365295  0.0893476640209426  0.0942182073027796   T   T   T
  0.4298700584024651  0.1753495562869061  0.0954161749249125   T   T   T
  0.5553911672569163  0.9182031975035908  0.0938735807508907   T   T   T
  0.4300023957568505  0.8329590248165017  0.0935490270199722   T   T   T
  0.8049115994031031  0.0904086682277948  0.0912512429229025   T   T   T
  0.6799976555744747  0.1758047757543839  0.0925878227743250   T   T   T
  0.8060591881462857  0.9230758771911658  0.0916224806843046   T   T   T
  0.6831834536050919  0.3420508826557789  0.0938548479633749   T   T   T
  0.8094026471517054  0.5939137131657121  0.0940010429385791   T   T   T
  0.8073078352246208  0.4246492764861555  0.0935211724251929   T   T   T
  0.6828624088749656  0.8355323957281415  0.0933647570341316   T   T   T
  0.4265123971900605  0.3391205117760628  0.1000751391568191   T   T   T
  0.6882035370830845  0.6737880464686927  0.0955566982200751   T   T   T
  0.4264517516285956  0.6703206057516196  0.0952124700448450   T   T   T
  0.5582291776457858  0.5050140656454508  0.1324632491463762   T   T   T
 
  0.00000000E+00  0.00000000E+00  0.00000000E+00
  0.00000000E+00  0.00000000E+00  0.00000000E+00
  0.00000000E+00  0.00000000E+00  0.00000000E+00
  0.00000000E+00  0.00000000E+00  0.00000000E+00
  0.00000000E+00  0.00000000E+00  0.00000000E+00
  0.00000000E+00  0.00000000E+00  0.00000000E+00
  0.00000000E+00  0.00000000E+00  0.00000000E+00
  0.00000000E+00  0.00000000E+00  0.00000000E+00
  0.00000000E+00  0.00000000E+00  0.00000000E+00
  0.00000000E+00  0.00000000E+00  0.00000000E+00
  0.00000000E+00  0.00000000E+00  0.00000000E+00
  0.00000000E+00  0.00000000E+00  0.00000000E+00
  0.00000000E+00  0.00000000E+00  0.00000000E+00
  0.00000000E+00  0.00000000E+00  0.00000000E+00
  0.00000000E+00  0.00000000E+00  0.00000000E+00
  0.00000000E+00  0.00000000E+00  0.00000000E+00
  0.00000000E+00  0.00000000E+00  0.00000000E+00
  0.00000000E+00  0.00000000E+00  0.00000000E+00
  0.00000000E+00  0.00000000E+00  0.00000000E+00
  0.00000000E+00  0.00000000E+00  0.00000000E+00
  0.00000000E+00  0.00000000E+00  0.00000000E+00
  0.00000000E+00  0.00000000E+00  0.00000000E+00
  0.00000000E+00  0.00000000E+00  0.00000000E+00
  0.00000000E+00  0.00000000E+00  0.00000000E+00
  0.00000000E+00  0.00000000E+00  0.00000000E+00
  0.00000000E+00  0.00000000E+00  0.00000000E+00
  0.00000000E+00  0.00000000E+00  0.00000000E+00
  0.00000000E+00  0.00000000E+00  0.00000000E+00
  0.00000000E+00  0.00000000E+00  0.00000000E+00
  0.00000000E+00  0.00000000E+00  0.00000000E+00
  0.00000000E+00  0.00000000E+00  0.00000000E+00
