Title                                   
   1.00000000000000     
     4.9440799999999996    0.0000000000000000    0.0000000000000000
     0.0000000000000000   17.1295089999999988    0.0000000000000000
     0.0000000000000000    0.0000000000000000   20.0000000000000000
    27     3     1
Selective dynamics
Direct
  0.0025953361392164  0.1060272112998045  0.2962326454767809   T   T   T
  0.2516972311270954  0.1487865654999195  0.2969070843136989   T   T   T
  0.2525564403180662  0.2335653569608270  0.2994323433115899   T   T   T
  0.0024027088089800  0.2751521049866857  0.3021102520776200   T   T   T
 -0.0076237667909273  0.5995077480732623  0.3032147100330884   T   T   T
  0.2447503963550054  0.7265074171844178  0.2968959271170811   T   T   T
 -0.0017598406649651  0.8534475747605386  0.2960223730242003   T   T   T
  0.2486253528674184  0.8955041240221742  0.2956926678428109   T   T   T
  0.2500305081865201  0.9796443433346091  0.2955831022818726   T   T   T
 -0.0030854428186175  0.7693395073295678  0.2966544315509010   T   T   T
  0.5009425854927412  0.1063023540717940  0.2957207732886558   T   T   T
  0.7528794146191098  0.1479751940343252  0.2960561911773452   T   T   T
  0.7552148012948533  0.2317596985740794  0.2976744738731592   T   T   T
  0.4999198977718769  0.0220745881697875  0.2953830837539884   T   T   T
  0.7537495735578927  0.3936707850237027  0.3040000377493604   T   T   T
  0.7465042250039721  0.4791545000320886  0.3036266385463468   T   T   T
  0.5062758218372876  0.2740880236488445  0.2984563629715458   T   T   T
  0.4936642100068015  0.6011605440826316  0.2953621235137611   T   T   T
  0.7473254310887384  0.7270008600393699  0.2959494113917426   T   T   T
  0.4977636004828486  0.8530489768768588  0.2954312375302670   T   T   T
  0.7483050160383639  0.8955297125300361  0.2955084432788008   T   T   T
  0.7497661247765784  0.9797635719808367  0.2954171357226815   T   T   T
  0.4961751416022849  0.7687777842699939  0.2955320032156264   T   T   T
  0.7457385654908696  0.6429425324718153  0.2969351523116603   T   T   T
  0.2424078450991296  0.6422316564162138  0.2988378398485892   T   T   T
  0.0007890115299397  0.0218387635578331  0.2956917615799110   T   T   T
  0.5025059760100318  0.5187861978324398  0.2926786765265306   T   T   T
  0.9897162467558014  0.5186808375068775  0.3155101241017124   T   T   T
  0.5150406472769230  0.3541221158576149  0.2996834288779046   T   T   T
 -0.0046570680267567  0.3563983540104917  0.3100139589387662   T   T   T
  0.2797910087629222  0.4385529955605553  0.3328456047719527   T   T   T
 
  0.00000000E+00  0.00000000E+00  0.00000000E+00
  0.00000000E+00  0.00000000E+00  0.00000000E+00
  0.00000000E+00  0.00000000E+00  0.00000000E+00
  0.00000000E+00  0.00000000E+00  0.00000000E+00
  0.00000000E+00  0.00000000E+00  0.00000000E+00
  0.00000000E+00  0.00000000E+00  0.00000000E+00
  0.00000000E+00  0.00000000E+00  0.00000000E+00
  0.00000000E+00  0.00000000E+00  0.00000000E+00
  0.00000000E+00  0.00000000E+00  0.00000000E+00
  0.00000000E+00  0.00000000E+00  0.00000000E+00
  0.00000000E+00  0.00000000E+00  0.00000000E+00
  0.00000000E+00  0.00000000E+00  0.00000000E+00
  0.00000000E+00  0.00000000E+00  0.00000000E+00
  0.00000000E+00  0.00000000E+00  0.00000000E+00
  0.00000000E+00  0.00000000E+00  0.00000000E+00
  0.00000000E+00  0.00000000E+00  0.00000000E+00
  0.00000000E+00  0.00000000E+00  0.00000000E+00
  0.00000000E+00  0.00000000E+00  0.00000000E+00
  0.00000000E+00  0.00000000E+00  0.00000000E+00
  0.00000000E+00  0.00000000E+00  0.00000000E+00
  0.00000000E+00  0.00000000E+00  0.00000000E+00
  0.00000000E+00  0.00000000E+00  0.00000000E+00
  0.00000000E+00  0.00000000E+00  0.00000000E+00
  0.00000000E+00  0.00000000E+00  0.00000000E+00
  0.00000000E+00  0.00000000E+00  0.00000000E+00
  0.00000000E+00  0.00000000E+00  0.00000000E+00
  0.00000000E+00  0.00000000E+00  0.00000000E+00
  0.00000000E+00  0.00000000E+00  0.00000000E+00
  0.00000000E+00  0.00000000E+00  0.00000000E+00
  0.00000000E+00  0.00000000E+00  0.00000000E+00
  0.00000000E+00  0.00000000E+00  0.00000000E+00
