Title                                   
   1.00000000000000     
     9.8694509999999998    0.0000000000000000    0.0000000000000000
     0.0000000000000000    8.5490480000000009    0.0000000000000000
     0.0000000000000000    0.0000000000000000   20.0000000000000000
    23     7     1
Selective dynamics
Direct
  0.0555960781279902  0.0897815274593728  0.0886690297522059   T   T   T
  0.9314394603571092  0.1725908435880872  0.0895008972422230   T   T   T
  0.0571829133146602  0.9208348321899372  0.0891952753432397   T   T   T
  0.9317756672636471  0.3402233420225885  0.0887072502922182   T   T   T
  0.0558828013003861  0.5903727851394525  0.0871641793768710   T   T   T
  0.0559759985223871  0.4238999887458573  0.0864111293093573   T   T   T
  0.9316982637511865  0.8377892298002905  0.0902719345308039   T   T   T
  0.3067330161567635  0.0883670642476353  0.0927941571511217   T   T   T
  0.1812045303109939  0.1723345615547067  0.0893044330466478   T   T   T
  0.1811731506908376  0.3400668790541888  0.0881682304461937   T   T   T
  0.3063102670377369  0.5912814868622429  0.0946579006111265   T   T   T
  0.1808279665015422  0.6725173289157474  0.0892266902637355   T   T   T
  0.3075349760762107  0.4197900449134169  0.0941339439772676   T   T   T
  0.1815141872637123  0.8400635581994149  0.0902339609164136   T   T   T
  0.4284019499652054  0.1764817285760313  0.0990476943270584   T   T   T
  0.5554417792638590  0.9204324723748067  0.1010147096760169   T   T   T
  0.4274248300407719  0.8357582861779634  0.1003669753352692   T   T   T
  0.8059086908283074  0.0884904115971645  0.0928624825859219   T   T   T
  0.6843496596568025  0.1785731835234741  0.0989502838289913   T   T   T
  0.8069984819023039  0.9211641370639516  0.0933845682391875   T   T   T
  0.8059309772821484  0.5932422821824651  0.0956331853436043   T   T   T
  0.8067646054998924  0.4197287750187599  0.0949141713751017   T   T   T
  0.6825368112632685  0.8360861767800786  0.0996670938404184   T   T   T
  0.9321527135351518  0.6714682194538059  0.0895750732310313   T   T   T
  0.5565598997797757  0.0952756850227874  0.1010100705190940   T   T   T
  0.4237960294856490  0.3344964567273249  0.1025720253255247   T   T   T
  0.4219162530628431  0.6789646537910978  0.1044616209173867   T   T   T
  0.6889726078977778  0.3365299349640277  0.1027138249065410   T   T   T
  0.6914285222960224  0.6749246197926284  0.1034779795573677   T   T   T
  0.3049633546023591  0.9228723726190836  0.0929030673630125   T   T   T
  0.5547395569626987  0.5064721316416065  0.1699711613691048   T   T   T
 
  0.00000000E+00  0.00000000E+00  0.00000000E+00
  0.00000000E+00  0.00000000E+00  0.00000000E+00
  0.00000000E+00  0.00000000E+00  0.00000000E+00
  0.00000000E+00  0.00000000E+00  0.00000000E+00
  0.00000000E+00  0.00000000E+00  0.00000000E+00
  0.00000000E+00  0.00000000E+00  0.00000000E+00
  0.00000000E+00  0.00000000E+00  0.00000000E+00
  0.00000000E+00  0.00000000E+00  0.00000000E+00
  0.00000000E+00  0.00000000E+00  0.00000000E+00
  0.00000000E+00  0.00000000E+00  0.00000000E+00
  0.00000000E+00  0.00000000E+00  0.00000000E+00
  0.00000000E+00  0.00000000E+00  0.00000000E+00
  0.00000000E+00  0.00000000E+00  0.00000000E+00
  0.00000000E+00  0.00000000E+00  0.00000000E+00
  0.00000000E+00  0.00000000E+00  0.00000000E+00
  0.00000000E+00  0.00000000E+00  0.00000000E+00
  0.00000000E+00  0.00000000E+00  0.00000000E+00
  0.00000000E+00  0.00000000E+00  0.00000000E+00
  0.00000000E+00  0.00000000E+00  0.00000000E+00
  0.00000000E+00  0.00000000E+00  0.00000000E+00
  0.00000000E+00  0.00000000E+00  0.00000000E+00
  0.00000000E+00  0.00000000E+00  0.00000000E+00
  0.00000000E+00  0.00000000E+00  0.00000000E+00
  0.00000000E+00  0.00000000E+00  0.00000000E+00
  0.00000000E+00  0.00000000E+00  0.00000000E+00
  0.00000000E+00  0.00000000E+00  0.00000000E+00
  0.00000000E+00  0.00000000E+00  0.00000000E+00
  0.00000000E+00  0.00000000E+00  0.00000000E+00
  0.00000000E+00  0.00000000E+00  0.00000000E+00
  0.00000000E+00  0.00000000E+00  0.00000000E+00
  0.00000000E+00  0.00000000E+00  0.00000000E+00
