Title                                   
   1.00000000000000     
     9.8694509999999998    0.0000000000000000    0.0000000000000000
     0.0000000000000000    8.5490480000000009    0.0000000000000000
     0.0000000000000000    0.0000000000000000   20.0000000000000000
    29     2     1
Selective dynamics
Direct
  0.0567900279864980  0.0913943212850195  0.0847240206026352   T   T   T
  0.9316902352215177  0.1736076029562497  0.0871076511782571   T   T   T
  0.0561216049801864  0.9240831006149356  0.0843295550732411   T   T   T
  0.9310505113274937  0.3396413310313351  0.0908612664787102   T   T   T
  0.0566361047562103  0.5894661243708862  0.0874938739155422   T   T   T
  0.9324115098319795  0.6727675132531772  0.0899058215443465   T   T   T
  0.0571644249893473  0.4228137217006419  0.0892758572497869   T   T   T
  0.9317384086842254  0.8394162175739766  0.0876036878771480   T   T   T
  0.3059912925944123  0.0901929589281928  0.0865963496802314   T   T   T
  0.1818365112470536  0.1750799890992915  0.0862229880449419   T   T   T
  0.3048082598864840  0.9249885845230380  0.0872048857730472   T   T   T
  0.1834817795892296  0.3414709867859446  0.0895257246736169   T   T   T
  0.3053966339651187  0.5939965824115169  0.0948644483289060   T   T   T
  0.1799369900827770  0.6740960652454113  0.0873239081046590   T   T   T
  0.3105463476734833  0.4257473935389119  0.0948403957303426   T   T   T
  0.1800411002696980  0.8407594867425723  0.0854836453710923   T   T   T
  0.5561596582341488  0.0856474276413513  0.0938277047618266   T   T   T
  0.4316565256898946  0.1705197830443367  0.0908271008795933   T   T   T
  0.5555498145507901  0.9199754900263122  0.0989055672801805   T   T   T
  0.4347837224502798  0.3353500766223804  0.0969546382224077   T   T   T
  0.4272787996123484  0.8404927201056112  0.0962953543053606   T   T   T
  0.8073232941128489  0.0886945184845035  0.0885114751805256   T   T   T
  0.6818687614106551  0.1690062913810366  0.0925888784083082   T   T   T
  0.8071373188662652  0.9230674075396574  0.0904086665687326   T   T   T
  0.6808272921433415  0.3340898141803460  0.0991023069524197   T   T   T
  0.8085865557878769  0.5903740072289962  0.1013606641697485   T   T   T
  0.6918241934397474  0.6785534270747343  0.1155898661502211   T   T   T
  0.8054305336828470  0.4221240552747152  0.0985638380394939   T   T   T
  0.6841899449159490  0.8392614438783708  0.1018335499995327   T   T   T
  0.4204679307732366  0.6818089367608102  0.1048347677663348   T   T   T
  0.5576785144686673  0.4069259432203319  0.1081232876552658   T   T   T
  0.5432343967753952  0.5848326774754150  0.1745832540335783   T   T   T
 
  0.00000000E+00  0.00000000E+00  0.00000000E+00
  0.00000000E+00  0.00000000E+00  0.00000000E+00
  0.00000000E+00  0.00000000E+00  0.00000000E+00
  0.00000000E+00  0.00000000E+00  0.00000000E+00
  0.00000000E+00  0.00000000E+00  0.00000000E+00
  0.00000000E+00  0.00000000E+00  0.00000000E+00
  0.00000000E+00  0.00000000E+00  0.00000000E+00
  0.00000000E+00  0.00000000E+00  0.00000000E+00
  0.00000000E+00  0.00000000E+00  0.00000000E+00
  0.00000000E+00  0.00000000E+00  0.00000000E+00
  0.00000000E+00  0.00000000E+00  0.00000000E+00
  0.00000000E+00  0.00000000E+00  0.00000000E+00
  0.00000000E+00  0.00000000E+00  0.00000000E+00
  0.00000000E+00  0.00000000E+00  0.00000000E+00
  0.00000000E+00  0.00000000E+00  0.00000000E+00
  0.00000000E+00  0.00000000E+00  0.00000000E+00
  0.00000000E+00  0.00000000E+00  0.00000000E+00
  0.00000000E+00  0.00000000E+00  0.00000000E+00
  0.00000000E+00  0.00000000E+00  0.00000000E+00
  0.00000000E+00  0.00000000E+00  0.00000000E+00
  0.00000000E+00  0.00000000E+00  0.00000000E+00
  0.00000000E+00  0.00000000E+00  0.00000000E+00
  0.00000000E+00  0.00000000E+00  0.00000000E+00
  0.00000000E+00  0.00000000E+00  0.00000000E+00
  0.00000000E+00  0.00000000E+00  0.00000000E+00
  0.00000000E+00  0.00000000E+00  0.00000000E+00
  0.00000000E+00  0.00000000E+00  0.00000000E+00
  0.00000000E+00  0.00000000E+00  0.00000000E+00
  0.00000000E+00  0.00000000E+00  0.00000000E+00
  0.00000000E+00  0.00000000E+00  0.00000000E+00
  0.00000000E+00  0.00000000E+00  0.00000000E+00
  0.00000000E+00  0.00000000E+00  0.00000000E+00
