Title                                   
   1.00000000000000     
     9.8694509999999998    0.0000000000000000    0.0000000000000000
     0.0000000000000000    8.5490480000000009    0.0000000000000000
     0.0000000000000000    0.0000000000000000   20.0000000000000000
    27     4     1
Selective dynamics
Direct
  0.0559713610099277  0.0920846294969404  0.0833412726313760   T   T   T
  0.9298239953749339  0.1750408182418267  0.0859243491853076   T   T   T
  0.0567928330708667  0.9235533709004297  0.0824262733511024   T   T   T
  0.9295901790907428  0.3416929977302235  0.0901749919316036   T   T   T
  0.0557989472443119  0.5899320177489655  0.0850225060584273   T   T   T
  0.9315769787599461  0.6724610142860985  0.0860297536330612   T   T   T
  0.0554361321476765  0.4230498398700755  0.0887273733477856   T   T   T
  0.9316589965671208  0.8399944562477074  0.0846931946633000   T   T   T
  0.3054060276241781  0.0884305281252281  0.0860267408196856   T   T   T
  0.1819901703196424  0.1738090687664393  0.0858173044526691   T   T   T
  0.3075300233879869  0.9228425051509316  0.0866901910987610   T   T   T
  0.1814957153665966  0.3400687379835239  0.0903387019163539   T   T   T
  0.3034685825237935  0.5885351071474177  0.0996432918577036   T   T   T
  0.1805789664366904  0.6707705214426968  0.0867681481522739   T   T   T
  0.1819573129180630  0.8388013518595686  0.0843859118296943   T   T   T
  0.5566267081818455  0.0860563827421354  0.0949099778002642   T   T   T
  0.4304410774599297  0.1695013913755530  0.0932854212591219   T   T   T
  0.4298603633817946  0.3337906892075629  0.1033222731901035   T   T   T
  0.4296374731149447  0.8394480975301442  0.0983372646368259   T   T   T
  0.8068612570320143  0.0896581652085308  0.0860433819316660   T   T   T
  0.6815897722836164  0.1714084272080360  0.0928534425260132   T   T   T
  0.8064512870570749  0.9243419522659373  0.0870799132426315   T   T   T
  0.6800650612901151  0.3353477917168894  0.1020687372598914   T   T   T
  0.8076303284138693  0.5926576624569246  0.0972650882714341   T   T   T
  0.6851464695489435  0.8401405822019014  0.0978876720444157   T   T   T
  0.4190017523719509  0.6786788782473311  0.1189413849938560   T   T   T
  0.5548946876407250  0.4070698154400282  0.1227413001218768   T   T   T
  0.6966022117936642  0.6821852498442654  0.1165994247723483   T   T   T
  0.5574202389100855  0.9187654946939721  0.0978815740643491   T   T   T
  0.3055539302712411  0.4212999775123301  0.0985013166685789   T   T   T
  0.8039884787066329  0.4249805673720478  0.0972241917191693   T   T   T
  0.5587916806990803  0.5938479099783396  0.1747226305683652   T   T   T
 
  0.00000000E+00  0.00000000E+00  0.00000000E+00
  0.00000000E+00  0.00000000E+00  0.00000000E+00
  0.00000000E+00  0.00000000E+00  0.00000000E+00
  0.00000000E+00  0.00000000E+00  0.00000000E+00
  0.00000000E+00  0.00000000E+00  0.00000000E+00
  0.00000000E+00  0.00000000E+00  0.00000000E+00
  0.00000000E+00  0.00000000E+00  0.00000000E+00
  0.00000000E+00  0.00000000E+00  0.00000000E+00
  0.00000000E+00  0.00000000E+00  0.00000000E+00
  0.00000000E+00  0.00000000E+00  0.00000000E+00
  0.00000000E+00  0.00000000E+00  0.00000000E+00
  0.00000000E+00  0.00000000E+00  0.00000000E+00
  0.00000000E+00  0.00000000E+00  0.00000000E+00
  0.00000000E+00  0.00000000E+00  0.00000000E+00
  0.00000000E+00  0.00000000E+00  0.00000000E+00
  0.00000000E+00  0.00000000E+00  0.00000000E+00
  0.00000000E+00  0.00000000E+00  0.00000000E+00
  0.00000000E+00  0.00000000E+00  0.00000000E+00
  0.00000000E+00  0.00000000E+00  0.00000000E+00
  0.00000000E+00  0.00000000E+00  0.00000000E+00
  0.00000000E+00  0.00000000E+00  0.00000000E+00
  0.00000000E+00  0.00000000E+00  0.00000000E+00
  0.00000000E+00  0.00000000E+00  0.00000000E+00
  0.00000000E+00  0.00000000E+00  0.00000000E+00
  0.00000000E+00  0.00000000E+00  0.00000000E+00
  0.00000000E+00  0.00000000E+00  0.00000000E+00
  0.00000000E+00  0.00000000E+00  0.00000000E+00
  0.00000000E+00  0.00000000E+00  0.00000000E+00
  0.00000000E+00  0.00000000E+00  0.00000000E+00
  0.00000000E+00  0.00000000E+00  0.00000000E+00
  0.00000000E+00  0.00000000E+00  0.00000000E+00
  0.00000000E+00  0.00000000E+00  0.00000000E+00
