Title                                   
   1.00000000000000     
     9.8694509999999998    0.0000000000000000    0.0000000000000000
     0.0000000000000000    8.5490480000000009    0.0000000000000000
     0.0000000000000000    0.0000000000000000   20.0000000000000000
    27     4     1
Selective dynamics
Direct
  0.0559281399120553  0.0915053485004176  0.0842687334284804   T   T   T
  0.9307715229625396  0.1749051810841596  0.0853570623484705   T   T   T
  0.0576814379430790  0.9243341122340410  0.0843172324138219   T   T   T
  0.9291777406928410  0.3423688396576558  0.0880127374628469   T   T   T
  0.0569550296592349  0.5909717236145537  0.0860593990734724   T   T   T
  0.9325684352364431  0.6740182894844597  0.0878537665057279   T   T   T
  0.0560263418406029  0.4233856441299103  0.0872901804829762   T   T   T
  0.9330830549452231  0.8408738958925261  0.0866154191939417   T   T   T
  0.3057904197770971  0.0881781751733060  0.0887429427934146   T   T   T
  0.1820623516573468  0.1731194357181327  0.0865838035373478   T   T   T
  0.1820489358000987  0.3395415188866793  0.0892888796210611   T   T   T
  0.3048788546601258  0.5895503292505295  0.1012073347975719   T   T   T
  0.1821449425334337  0.6740077767028567  0.0889398396108565   T   T   T
  0.3078806174247403  0.4214670269889967  0.0982317136572710   T   T   T
  0.1823933215896099  0.8409768906390509  0.0869583473517783   T   T   T
  0.5566260395732814  0.0853170748615697  0.0946611141327980   T   T   T
  0.5553685128419751  0.9213230435078642  0.1015351621722442   T   T   T
  0.4312867993571911  0.3315067470655892  0.1016266207871908   T   T   T
  0.4271740070903587  0.8404885046004168  0.1051972451824634   T   T   T
  0.8060675242834449  0.0897556229227625  0.0864924219287442   T   T   T
  0.6796255558638417  0.1704779251867325  0.0905115377972800   T   T   T
  0.8076485002947511  0.9245486236134450  0.0891042466597396   T   T   T
  0.6785836595388298  0.3353167674251245  0.0977772645562750   T   T   T
  0.8077361911567356  0.5946476609916834  0.0971686838736111   T   T   T
  0.8014315782507604  0.4255358278095742  0.0948758296960466   T   T   T
  0.6849362335772158  0.8407659772501925  0.1003053112804271   T   T   T
  0.4186813759586419  0.6817098780428160  0.1187599116746944   T   T   T
  0.5532105658176435  0.4008390192722245  0.1132437385047536   T   T   T
  0.6936833167992154  0.6824249876787017  0.1117894521659353   T   T   T
  0.3061949858795653  0.9254933506481617  0.0899577366611435   T   T   T
  0.4288279695748543  0.1671214715206189  0.0935947586678999   T   T   T
  0.5631650375072290  0.5837693296452483  0.1693465719797302   T   T   T
 
  0.00000000E+00  0.00000000E+00  0.00000000E+00
  0.00000000E+00  0.00000000E+00  0.00000000E+00
  0.00000000E+00  0.00000000E+00  0.00000000E+00
  0.00000000E+00  0.00000000E+00  0.00000000E+00
  0.00000000E+00  0.00000000E+00  0.00000000E+00
  0.00000000E+00  0.00000000E+00  0.00000000E+00
  0.00000000E+00  0.00000000E+00  0.00000000E+00
  0.00000000E+00  0.00000000E+00  0.00000000E+00
  0.00000000E+00  0.00000000E+00  0.00000000E+00
  0.00000000E+00  0.00000000E+00  0.00000000E+00
  0.00000000E+00  0.00000000E+00  0.00000000E+00
  0.00000000E+00  0.00000000E+00  0.00000000E+00
  0.00000000E+00  0.00000000E+00  0.00000000E+00
  0.00000000E+00  0.00000000E+00  0.00000000E+00
  0.00000000E+00  0.00000000E+00  0.00000000E+00
  0.00000000E+00  0.00000000E+00  0.00000000E+00
  0.00000000E+00  0.00000000E+00  0.00000000E+00
  0.00000000E+00  0.00000000E+00  0.00000000E+00
  0.00000000E+00  0.00000000E+00  0.00000000E+00
  0.00000000E+00  0.00000000E+00  0.00000000E+00
  0.00000000E+00  0.00000000E+00  0.00000000E+00
  0.00000000E+00  0.00000000E+00  0.00000000E+00
  0.00000000E+00  0.00000000E+00  0.00000000E+00
  0.00000000E+00  0.00000000E+00  0.00000000E+00
  0.00000000E+00  0.00000000E+00  0.00000000E+00
  0.00000000E+00  0.00000000E+00  0.00000000E+00
  0.00000000E+00  0.00000000E+00  0.00000000E+00
  0.00000000E+00  0.00000000E+00  0.00000000E+00
  0.00000000E+00  0.00000000E+00  0.00000000E+00
  0.00000000E+00  0.00000000E+00  0.00000000E+00
  0.00000000E+00  0.00000000E+00  0.00000000E+00
  0.00000000E+00  0.00000000E+00  0.00000000E+00
