Title                                   
   1.00000000000000     
     4.9440799999999996    0.0000000000000000    0.0000000000000000
     0.0000000000000000    8.5647549999999999    0.0000000000000000
     0.0000000000000000    0.0000000000000000   20.0000000000000000
    11     3     1
Selective dynamics
Direct
  0.0014938396736599  0.2932316005615996  0.0961861602014836   T   T   T
  0.2500000000000000  0.0375727622146541  0.0961848569575253   T   T   T
 -0.0012866227831557  0.9553048288156379  0.0965408138824969   T   T   T
  0.7500000000000000  0.2071312759024348  0.0940487219583671   T   T   T
  0.4985061603263401  0.2932316005615996  0.0961861602014836   T   T   T
  0.7500000000000000  0.0401636281703947  0.0945722992215762   T   T   T
  0.7500000000000000  0.7149727510960753  0.0998975819641862   T   T   T
  0.7500000000000000  0.5419282266836526  0.1010255522640631   T   T   T
  0.5012866227831554  0.9553048288156379  0.0965408138824969   T   T   T
  0.4981734746213085  0.4581352762432585  0.1011428778177726   T   T   T
  0.0018265253786912  0.4581352762432585  0.1011428778177726   T   T   T
 -0.0079886231258187  0.7922851430386402  0.0999036859125983   T   T   T
  0.5079886231258186  0.7922851430386402  0.0999036859125983   T   T   T
  0.2500000000000000  0.2070438975739341  0.0956651906669617   T   T   T
  0.2500000000000000  0.6249547610405854  0.1390387213386211   T   T   T
 
  0.00000000E+00  0.00000000E+00  0.00000000E+00
  0.00000000E+00  0.00000000E+00  0.00000000E+00
  0.00000000E+00  0.00000000E+00  0.00000000E+00
  0.00000000E+00  0.00000000E+00  0.00000000E+00
  0.00000000E+00  0.00000000E+00  0.00000000E+00
  0.00000000E+00  0.00000000E+00  0.00000000E+00
  0.00000000E+00  0.00000000E+00  0.00000000E+00
  0.00000000E+00  0.00000000E+00  0.00000000E+00
  0.00000000E+00  0.00000000E+00  0.00000000E+00
  0.00000000E+00  0.00000000E+00  0.00000000E+00
  0.00000000E+00  0.00000000E+00  0.00000000E+00
  0.00000000E+00  0.00000000E+00  0.00000000E+00
  0.00000000E+00  0.00000000E+00  0.00000000E+00
  0.00000000E+00  0.00000000E+00  0.00000000E+00
  0.00000000E+00  0.00000000E+00  0.00000000E+00
