Title                                   
   1.00000000000000     
     9.8694509999999998    0.0000000000000000    0.0000000000000000
     0.0000000000000000    8.5490480000000009    0.0000000000000000
     0.0000000000000000    0.0000000000000000   20.0000000000000000
    27     3     1
Selective dynamics
Direct
  0.0565363780011157  0.0897968372206960  0.0881162184990392   T   T   T
  0.9311143781912692  0.1719097461401242  0.0890948248869337   T   T   T
  0.0580111452053127  0.9230572855924083  0.0883899359401822   T   T   T
  0.9337927456375421  0.3385269489658880  0.0877747171399563   T   T   T
  0.0578604345459496  0.5901343277658762  0.0851939756329842   T   T   T
  0.9337895345553259  0.6739752294575221  0.0877180326139073   T   T   T
  0.0579927557729313  0.4228285639379806  0.0851008870527658   T   T   T
  0.9314848844154738  0.8400082660336975  0.0891061744729506   T   T   T
  0.3069505388181674  0.0892282561968130  0.0925155266603157   T   T   T
  0.1810369195505187  0.1712452609572949  0.0886559493125418   T   T   T
  0.1816532333070287  0.3395414250948012  0.0872171115798565   T   T   T
  0.3045208702450162  0.5901388654149612  0.0926550006788066   T   T   T
  0.1819161524872617  0.6730245835896970  0.0874832726034987   T   T   T
  0.3052831121738678  0.4222981068542310  0.0926026703973847   T   T   T
  0.1814770674798687  0.8407663167018616  0.0892107003622643   T   T   T
  0.5543831912110008  0.0912600232303876  0.1002664758195698   T   T   T
  0.4292003537630066  0.1764363477703437  0.0984275587403158   T   T   T
  0.5531848766166341  0.9214725986589372  0.1000050371847331   T   T   T
  0.4283045626239314  0.8355057500977942  0.0985413126369983   T   T   T
  0.8050224923549824  0.0900352935055150  0.0932735745222340   T   T   T
  0.6810502977406904  0.1772384105597910  0.0992743657785712   T   T   T
  0.8050881720591179  0.9215109972756892  0.0931249482390549   T   T   T
  0.6865713986532898  0.3443849240255751  0.1031695783924200   T   T   T
  0.8109521371605585  0.5907861948995963  0.0933941259393531   T   T   T
  0.6860811575816577  0.6672797294556786  0.1017989729214021   T   T   T
  0.8110922596045137  0.4213649011655887  0.0937812798423992   T   T   T
  0.6802336287601454  0.8341333721097103  0.0986537729047494   T   T   T
  0.4253352221648367  0.3406042721853920  0.1026963295967709   T   T   T
  0.4239594316285009  0.6741681816856970  0.1035311895463187   T   T   T
  0.3070846346475602  0.9223253728939883  0.0925713130131705   T   T   T
  0.5521710330429431  0.5058886105564667  0.1376201670885999   T   T   T
 
  0.00000000E+00  0.00000000E+00  0.00000000E+00
  0.00000000E+00  0.00000000E+00  0.00000000E+00
  0.00000000E+00  0.00000000E+00  0.00000000E+00
  0.00000000E+00  0.00000000E+00  0.00000000E+00
  0.00000000E+00  0.00000000E+00  0.00000000E+00
  0.00000000E+00  0.00000000E+00  0.00000000E+00
  0.00000000E+00  0.00000000E+00  0.00000000E+00
  0.00000000E+00  0.00000000E+00  0.00000000E+00
  0.00000000E+00  0.00000000E+00  0.00000000E+00
  0.00000000E+00  0.00000000E+00  0.00000000E+00
  0.00000000E+00  0.00000000E+00  0.00000000E+00
  0.00000000E+00  0.00000000E+00  0.00000000E+00
  0.00000000E+00  0.00000000E+00  0.00000000E+00
  0.00000000E+00  0.00000000E+00  0.00000000E+00
  0.00000000E+00  0.00000000E+00  0.00000000E+00
  0.00000000E+00  0.00000000E+00  0.00000000E+00
  0.00000000E+00  0.00000000E+00  0.00000000E+00
  0.00000000E+00  0.00000000E+00  0.00000000E+00
  0.00000000E+00  0.00000000E+00  0.00000000E+00
  0.00000000E+00  0.00000000E+00  0.00000000E+00
  0.00000000E+00  0.00000000E+00  0.00000000E+00
  0.00000000E+00  0.00000000E+00  0.00000000E+00
  0.00000000E+00  0.00000000E+00  0.00000000E+00
  0.00000000E+00  0.00000000E+00  0.00000000E+00
  0.00000000E+00  0.00000000E+00  0.00000000E+00
  0.00000000E+00  0.00000000E+00  0.00000000E+00
  0.00000000E+00  0.00000000E+00  0.00000000E+00
  0.00000000E+00  0.00000000E+00  0.00000000E+00
  0.00000000E+00  0.00000000E+00  0.00000000E+00
  0.00000000E+00  0.00000000E+00  0.00000000E+00
  0.00000000E+00  0.00000000E+00  0.00000000E+00
