Title                                   
   1.00000000000000     
     9.8694509999999998    0.0000000000000000    0.0000000000000000
     0.0000000000000000    8.5490480000000009    0.0000000000000000
     0.0000000000000000    0.0000000000000000   20.0000000000000000
    26     5     1
Selective dynamics
Direct
  0.0563041333106295  0.0919953897095541  0.0858395871057425   T   T   T
  0.9311569616197138  0.1743583542141302  0.0875261344242960   T   T   T
  0.0576018372192110  0.9245383156993748  0.0847567719294546   T   T   T
  0.9301465595944155  0.3420569083206143  0.0902224027452617   T   T   T
  0.0573365570240536  0.5907778670551157  0.0857800424665686   T   T   T
  0.9326633931305790  0.6736825613596685  0.0882029257512843   T   T   T
  0.0567829023972003  0.4230506347302312  0.0881699145671723   T   T   T
  0.9329424229991309  0.8404081058056881  0.0867760188066196   T   T   T
  0.3063696184291823  0.0886970030374444  0.0897600511498004   T   T   T
  0.1828655037327026  0.1737359281237135  0.0882676710276124   T   T   T
  0.1833404663994159  0.3404223061036565  0.0904050263667527   T   T   T
  0.3054722741007041  0.5915691525590676  0.0972969250092481   T   T   T
  0.1814644450071582  0.6749117100716471  0.0869457538471369   T   T   T
  0.3099563883274137  0.4232460471796109  0.0976689134647168   T   T   T
  0.1812404425741970  0.8411208827292718  0.0862486100191480   T   T   T
  0.5564860277122022  0.0843151823531337  0.0955903382942545   T   T   T
  0.5543822077132804  0.9184997862784942  0.0997498763483607   T   T   T
  0.4323332777774380  0.3318720043353563  0.1022662673969580   T   T   T
  0.4265565758331540  0.8392011563645151  0.1007163007327711   T   T   T
  0.8062972557965595  0.0893661718289077  0.0879958617205560   T   T   T
  0.6794323377763535  0.1691129924139203  0.0927558591078638   T   T   T
  0.8076739169016605  0.9238028872190645  0.0891869295946908   T   T   T
  0.6796888522505786  0.3342323785914985  0.1006871410188216   T   T   T
  0.8081884540417744  0.5933040978911822  0.0979936574396514   T   T   T
  0.8024986974761964  0.4242500197924763  0.0972164293194521   T   T   T
  0.6850015746422640  0.8390246050574892  0.0989845464398804   T   T   T
  0.4158887309988162  0.6837102865847441  0.1119045701988625   T   T   T
  0.5546618669920115  0.3994850061986673  0.1153050991359411   T   T   T
  0.6942452985110790  0.6816565147562611  0.1103829226143918   T   T   T
  0.3058851138192097  0.9254527100494613  0.0894438362766088   T   T   T
  0.4292727198769017  0.1673004318934080  0.0947022769243857   T   T   T
  0.5555021860148195  0.5910886016926321  0.1669263387557506   T   T   T
 
  0.00000000E+00  0.00000000E+00  0.00000000E+00
  0.00000000E+00  0.00000000E+00  0.00000000E+00
  0.00000000E+00  0.00000000E+00  0.00000000E+00
  0.00000000E+00  0.00000000E+00  0.00000000E+00
  0.00000000E+00  0.00000000E+00  0.00000000E+00
  0.00000000E+00  0.00000000E+00  0.00000000E+00
  0.00000000E+00  0.00000000E+00  0.00000000E+00
  0.00000000E+00  0.00000000E+00  0.00000000E+00
  0.00000000E+00  0.00000000E+00  0.00000000E+00
  0.00000000E+00  0.00000000E+00  0.00000000E+00
  0.00000000E+00  0.00000000E+00  0.00000000E+00
  0.00000000E+00  0.00000000E+00  0.00000000E+00
  0.00000000E+00  0.00000000E+00  0.00000000E+00
  0.00000000E+00  0.00000000E+00  0.00000000E+00
  0.00000000E+00  0.00000000E+00  0.00000000E+00
  0.00000000E+00  0.00000000E+00  0.00000000E+00
  0.00000000E+00  0.00000000E+00  0.00000000E+00
  0.00000000E+00  0.00000000E+00  0.00000000E+00
  0.00000000E+00  0.00000000E+00  0.00000000E+00
  0.00000000E+00  0.00000000E+00  0.00000000E+00
  0.00000000E+00  0.00000000E+00  0.00000000E+00
  0.00000000E+00  0.00000000E+00  0.00000000E+00
  0.00000000E+00  0.00000000E+00  0.00000000E+00
  0.00000000E+00  0.00000000E+00  0.00000000E+00
  0.00000000E+00  0.00000000E+00  0.00000000E+00
  0.00000000E+00  0.00000000E+00  0.00000000E+00
  0.00000000E+00  0.00000000E+00  0.00000000E+00
  0.00000000E+00  0.00000000E+00  0.00000000E+00
  0.00000000E+00  0.00000000E+00  0.00000000E+00
  0.00000000E+00  0.00000000E+00  0.00000000E+00
  0.00000000E+00  0.00000000E+00  0.00000000E+00
  0.00000000E+00  0.00000000E+00  0.00000000E+00
