Title                                   
   1.00000000000000     
     9.8694509999999998    0.0000000000000000    0.0000000000000000
     0.0000000000000000    8.5490480000000009    0.0000000000000000
     0.0000000000000000    0.0000000000000000   20.0000000000000000
    24     6     1
Selective dynamics
Direct
  0.0558836116706576  0.0900806572634697  0.0927513384069107   T   T   T
  0.9311979949363705  0.1737224228030883  0.0961909592917098   T   T   T
  0.0578998051007591  0.9216660377857828  0.0932196240861328   T   T   T
  0.9328601987238139  0.3409512136943538  0.0977433840648805   T   T   T
  0.0575827464317126  0.5905274615748239  0.0940715115696369   T   T   T
  0.0568507916775030  0.4237006967172663  0.0934027067596361   T   T   T
  0.9331742919154260  0.8402874916009959  0.0972921492578300   T   T   T
  0.3079050264841042  0.0872060163949930  0.0892118203296727   T   T   T
  0.1814378799029569  0.1717715372735085  0.0900905356582784   T   T   T
  0.1808893955431395  0.3384867827342726  0.0898794272751053   T   T   T
  0.3073991464138051  0.5887622323351452  0.0850352167611192   T   T   T
  0.1810545993263342  0.6727267509005787  0.0906135313170641   T   T   T
  0.3073711800049020  0.4191609645006572  0.0864001760732600   T   T   T
  0.1827172552561486  0.8393760956320369  0.0903875466034220   T   T   T
  0.4300670617955188  0.1698672864622811  0.0909420410978952   T   T   T
  0.5560344779653598  0.9189444965539336  0.0968279722194304   T   T   T
  0.4297051618936719  0.8380535984035070  0.0890030578134820   T   T   T
  0.8052274027868983  0.0897862602540440  0.0982406800844930   T   T   T
  0.6807223119452893  0.1771674528267326  0.1023673141892806   T   T   T
  0.8076461307049215  0.9222138230643655  0.0990389557444332   T   T   T
  0.6839886968431985  0.3419382464204980  0.1116894468705880   T   T   T
  0.8110724894758682  0.5936084242615322  0.1061424845707561   T   T   T
  0.8092363006859470  0.4246418715732888  0.1058788937424529   T   T   T
  0.6826003301115247  0.8373018220821471  0.1026855107971564   T   T   T
  0.9336813795593042  0.6729692475579587  0.0983853344475290   T   T   T
  0.5563067457247725  0.0913583038322744  0.0971645125863531   T   T   T
  0.4272294090657958  0.3318467401390881  0.0892732854057861   T   T   T
  0.6921965271017946  0.6743527490059243  0.1125649083630271   T   T   T
  0.4270699581246128  0.6774705977601558  0.0816999699442540   T   T   T
  0.3063917899365548  0.9207469481629946  0.0889768543594926   T   T   T
  0.5297349028913443  0.5101807704283122  0.1437938503089681   T   T   T
 
  0.00000000E+00  0.00000000E+00  0.00000000E+00
  0.00000000E+00  0.00000000E+00  0.00000000E+00
  0.00000000E+00  0.00000000E+00  0.00000000E+00
  0.00000000E+00  0.00000000E+00  0.00000000E+00
  0.00000000E+00  0.00000000E+00  0.00000000E+00
  0.00000000E+00  0.00000000E+00  0.00000000E+00
  0.00000000E+00  0.00000000E+00  0.00000000E+00
  0.00000000E+00  0.00000000E+00  0.00000000E+00
  0.00000000E+00  0.00000000E+00  0.00000000E+00
  0.00000000E+00  0.00000000E+00  0.00000000E+00
  0.00000000E+00  0.00000000E+00  0.00000000E+00
  0.00000000E+00  0.00000000E+00  0.00000000E+00
  0.00000000E+00  0.00000000E+00  0.00000000E+00
  0.00000000E+00  0.00000000E+00  0.00000000E+00
  0.00000000E+00  0.00000000E+00  0.00000000E+00
  0.00000000E+00  0.00000000E+00  0.00000000E+00
  0.00000000E+00  0.00000000E+00  0.00000000E+00
  0.00000000E+00  0.00000000E+00  0.00000000E+00
  0.00000000E+00  0.00000000E+00  0.00000000E+00
  0.00000000E+00  0.00000000E+00  0.00000000E+00
  0.00000000E+00  0.00000000E+00  0.00000000E+00
  0.00000000E+00  0.00000000E+00  0.00000000E+00
  0.00000000E+00  0.00000000E+00  0.00000000E+00
  0.00000000E+00  0.00000000E+00  0.00000000E+00
  0.00000000E+00  0.00000000E+00  0.00000000E+00
  0.00000000E+00  0.00000000E+00  0.00000000E+00
  0.00000000E+00  0.00000000E+00  0.00000000E+00
  0.00000000E+00  0.00000000E+00  0.00000000E+00
  0.00000000E+00  0.00000000E+00  0.00000000E+00
  0.00000000E+00  0.00000000E+00  0.00000000E+00
  0.00000000E+00  0.00000000E+00  0.00000000E+00
