Title                                   
   1.00000000000000     
     4.9440799999999996    0.0000000000000000    0.0000000000000000
     0.0000000000000000    8.5647549999999999    0.0000000000000000
     0.0000000000000000    0.0000000000000000   20.0000000000000000
    13     2     1
Selective dynamics
Direct
 -0.0020985450508913  0.2892899028081105  0.0915760615661780   T   T   T
  0.2500000000000000  0.0431891166936690  0.0866942459130501   T   T   T
  0.0030372013437812  0.7967720864925485  0.0992983756657981   T   T   T
 -0.0000476926060875  0.9603400969325279  0.0865437944807624   T   T   T
  0.7500000000000000  0.2053782275357235  0.0816767788207761   T   T   T
  0.5020985450508914  0.2892899028081105  0.0915760615661780   T   T   T
  0.7500000000000000  0.0412587933492629  0.0809688659337400   T   T   T
  0.7500000000000000  0.7074005836199136  0.1048080614115146   T   T   T
  0.4969627986562187  0.7967720864925485  0.0992983756657981   T   T   T
  0.7500000000000000  0.5358345377351019  0.1066983057289056   T   T   T
  0.5000476926060876  0.9603400969325279  0.0865437944807624   T   T   T
  0.5047548802008021  0.4467435228009994  0.1087877621576486   T   T   T
 -0.0047548802008018  0.4467435228009994  0.1087877621576486   T   T   T
  0.2500000000000000  0.7274441801632204  0.1107629996790481   T   T   T
  0.2500000000000000  0.2057285823184669  0.0896501482155900   T   T   T
  0.2500000000000000  0.5474747605162689  0.1788406065566110   T   T   T
 
  0.00000000E+00  0.00000000E+00  0.00000000E+00
  0.00000000E+00  0.00000000E+00  0.00000000E+00
  0.00000000E+00  0.00000000E+00  0.00000000E+00
  0.00000000E+00  0.00000000E+00  0.00000000E+00
  0.00000000E+00  0.00000000E+00  0.00000000E+00
  0.00000000E+00  0.00000000E+00  0.00000000E+00
  0.00000000E+00  0.00000000E+00  0.00000000E+00
  0.00000000E+00  0.00000000E+00  0.00000000E+00
  0.00000000E+00  0.00000000E+00  0.00000000E+00
  0.00000000E+00  0.00000000E+00  0.00000000E+00
  0.00000000E+00  0.00000000E+00  0.00000000E+00
  0.00000000E+00  0.00000000E+00  0.00000000E+00
  0.00000000E+00  0.00000000E+00  0.00000000E+00
  0.00000000E+00  0.00000000E+00  0.00000000E+00
  0.00000000E+00  0.00000000E+00  0.00000000E+00
  0.00000000E+00  0.00000000E+00  0.00000000E+00
