Title                                   
   1.00000000000000     
     9.8694509999999998    0.0000000000000000    0.0000000000000000
     0.0000000000000000    8.5490480000000009    0.0000000000000000
     0.0000000000000000    0.0000000000000000   20.0000000000000000
    26     5     1
Selective dynamics
Direct
  0.0555608934014766  0.0918760259687716  0.0871913643983737   T   T   T
  0.9294830945662282  0.1754245926334998  0.0884475557048140   T   T   T
  0.0561764632245373  0.9232300580277817  0.0856553158592029   T   T   T
  0.9289699524962793  0.3414665109952226  0.0908224615124336   T   T   T
  0.0560522167159165  0.5897828584714196  0.0875062102145152   T   T   T
  0.9315586509192227  0.6714301250280010  0.0864808562262378   T   T   T
  0.0554923099404673  0.4229415590873351  0.0910824136512931   T   T   T
  0.9311293655918209  0.8397027171751758  0.0859314908901852   T   T   T
  0.3048682424952955  0.0892569051387488  0.0895848913552679   T   T   T
  0.1814089196565387  0.1741784233389534  0.0897719329564685   T   T   T
  0.3065348185653312  0.9233061397153267  0.0898450280920560   T   T   T
  0.1811016578431956  0.3399191771028992  0.0934610874224124   T   T   T
  0.3056444664176456  0.5900893427189843  0.1006404701812902   T   T   T
  0.1808617186461927  0.6702658337124574  0.0895839383428487   T   T   T
  0.1819352374574543  0.8386694124570686  0.0877970231698798   T   T   T
  0.5560948429082251  0.0866400169736621  0.0967193581249614   T   T   T
  0.4305217666841061  0.1694196326010219  0.0951201419910370   T   T   T
  0.4320513001820176  0.3348607747660265  0.1014195616389331   T   T   T
  0.4291787912581298  0.8385584311121792  0.0998513472936763   T   T   T
  0.8065157994841096  0.0897704706963901  0.0883668022786678   T   T   T
  0.6808449113783932  0.1710627166744203  0.0935026810780848   T   T   T
  0.8062425557375380  0.9245543261958936  0.0882506620595253   T   T   T
  0.6773679322550823  0.3351508466756954  0.0978873515602885   T   T   T
  0.8056611971970804  0.5931830861933228  0.0913155285125615   T   T   T
  0.6838084182325207  0.8389908132990868  0.0949960770086948   T   T   T
  0.4226330225577111  0.6777600743959139  0.1147003008275016   T   T   T
  0.5545569298935422  0.4092214634055305  0.1125461811269008   T   T   T
  0.6884205817033839  0.6786424506572521  0.0991975667657986   T   T   T
  0.5569330716474161  0.9190077480182668  0.0981624746769038   T   T   T
  0.3090201040265548  0.4215273324433660  0.0994397419939391   T   T   T
  0.7999568475420259  0.4253040392563667  0.0932465031335013   T   T   T
  0.5730529193745671  0.5950520950639624  0.1771506799517615   T   T   T
 
  0.00000000E+00  0.00000000E+00  0.00000000E+00
  0.00000000E+00  0.00000000E+00  0.00000000E+00
  0.00000000E+00  0.00000000E+00  0.00000000E+00
  0.00000000E+00  0.00000000E+00  0.00000000E+00
  0.00000000E+00  0.00000000E+00  0.00000000E+00
  0.00000000E+00  0.00000000E+00  0.00000000E+00
  0.00000000E+00  0.00000000E+00  0.00000000E+00
  0.00000000E+00  0.00000000E+00  0.00000000E+00
  0.00000000E+00  0.00000000E+00  0.00000000E+00
  0.00000000E+00  0.00000000E+00  0.00000000E+00
  0.00000000E+00  0.00000000E+00  0.00000000E+00
  0.00000000E+00  0.00000000E+00  0.00000000E+00
  0.00000000E+00  0.00000000E+00  0.00000000E+00
  0.00000000E+00  0.00000000E+00  0.00000000E+00
  0.00000000E+00  0.00000000E+00  0.00000000E+00
  0.00000000E+00  0.00000000E+00  0.00000000E+00
  0.00000000E+00  0.00000000E+00  0.00000000E+00
  0.00000000E+00  0.00000000E+00  0.00000000E+00
  0.00000000E+00  0.00000000E+00  0.00000000E+00
  0.00000000E+00  0.00000000E+00  0.00000000E+00
  0.00000000E+00  0.00000000E+00  0.00000000E+00
  0.00000000E+00  0.00000000E+00  0.00000000E+00
  0.00000000E+00  0.00000000E+00  0.00000000E+00
  0.00000000E+00  0.00000000E+00  0.00000000E+00
  0.00000000E+00  0.00000000E+00  0.00000000E+00
  0.00000000E+00  0.00000000E+00  0.00000000E+00
  0.00000000E+00  0.00000000E+00  0.00000000E+00
  0.00000000E+00  0.00000000E+00  0.00000000E+00
  0.00000000E+00  0.00000000E+00  0.00000000E+00
  0.00000000E+00  0.00000000E+00  0.00000000E+00
  0.00000000E+00  0.00000000E+00  0.00000000E+00
  0.00000000E+00  0.00000000E+00  0.00000000E+00
