Title                                   
   1.00000000000000     
     9.8694509999999998    0.0000000000000000    0.0000000000000000
     0.0000000000000000    8.5490480000000009    0.0000000000000000
     0.0000000000000000    0.0000000000000000   20.0000000000000000
    27     3     1
Selective dynamics
Direct
  0.0553962977449049  0.0882904717619820  0.0847864727614170   T   T   T
  0.9307537833182244  0.1716393534878456  0.0861612417447362   T   T   T
  0.0567443039844311  0.9225051605952527  0.0856137837000562   T   T   T
  0.9326626374603618  0.3391587297375630  0.0851313090269725   T   T   T
  0.0558023200720826  0.5908264835874214  0.0835463253494395   T   T   T
  0.0560572192183011  0.4243719255963419  0.0823989939449484   T   T   T
  0.9313992113929352  0.8383719949128120  0.0875263526578542   T   T   T
  0.3069838039537817  0.0888405643112653  0.0918157850971665   T   T   T
  0.1819537035969271  0.1712192398666383  0.0861807253523547   T   T   T
  0.1802821183024713  0.3392167685505844  0.0853650756835715   T   T   T
  0.3017656900436263  0.5905381858091804  0.0953937970943930   T   T   T
  0.1798388901028179  0.6749186705400919  0.0868598407253783   T   T   T
  0.3023738033531064  0.4206949732950713  0.0946614692888652   T   T   T
  0.1826061391539483  0.8413259526203376  0.0877595279802304   T   T   T
  0.4314350592758222  0.1745907248456192  0.1002031695619385   T   T   T
  0.5556247998519843  0.9232273678993917  0.1031529438547818   T   T   T
  0.4257753900052313  0.3389100845686221  0.1061962357833257   T   T   T
  0.4233328943194253  0.6733203540837943  0.1079677663153973   T   T   T
  0.4290873673166025  0.8379135412809882  0.1023544369679713   T   T   T
  0.8054786987285486  0.0885943500553631  0.0918749794385342   T   T   T
  0.6814195377055198  0.1765333951585340  0.0996805848229771   T   T   T
  0.8062894698772970  0.9205871310744496  0.0926811648285276   T   T   T
  0.6868082338685498  0.3416761482337425  0.1048660482782555   T   T   T
  0.8110272961351266  0.5920892560498275  0.0951631521872593   T   T   T
  0.6888366237140843  0.6701385114843990  0.1062694666762720   T   T   T
  0.8116178191372748  0.4209157092660636  0.0939552279365871   T   T   T
  0.6803164836893154  0.8372380088709572  0.1011816322521510   T   T   T
  0.9332007226568210  0.6728215561908667  0.0864488155677135   T   T   T
  0.5569249700224914  0.0912980074256288  0.1021380286358197   T   T   T
  0.3051653958035668  0.9229419813130842  0.0925289169607548   T   T   T
  0.5561743161944229  0.5061603975262999  0.1311017295243767   T   T   T
 
  0.00000000E+00  0.00000000E+00  0.00000000E+00
  0.00000000E+00  0.00000000E+00  0.00000000E+00
  0.00000000E+00  0.00000000E+00  0.00000000E+00
  0.00000000E+00  0.00000000E+00  0.00000000E+00
  0.00000000E+00  0.00000000E+00  0.00000000E+00
  0.00000000E+00  0.00000000E+00  0.00000000E+00
  0.00000000E+00  0.00000000E+00  0.00000000E+00
  0.00000000E+00  0.00000000E+00  0.00000000E+00
  0.00000000E+00  0.00000000E+00  0.00000000E+00
  0.00000000E+00  0.00000000E+00  0.00000000E+00
  0.00000000E+00  0.00000000E+00  0.00000000E+00
  0.00000000E+00  0.00000000E+00  0.00000000E+00
  0.00000000E+00  0.00000000E+00  0.00000000E+00
  0.00000000E+00  0.00000000E+00  0.00000000E+00
  0.00000000E+00  0.00000000E+00  0.00000000E+00
  0.00000000E+00  0.00000000E+00  0.00000000E+00
  0.00000000E+00  0.00000000E+00  0.00000000E+00
  0.00000000E+00  0.00000000E+00  0.00000000E+00
  0.00000000E+00  0.00000000E+00  0.00000000E+00
  0.00000000E+00  0.00000000E+00  0.00000000E+00
  0.00000000E+00  0.00000000E+00  0.00000000E+00
  0.00000000E+00  0.00000000E+00  0.00000000E+00
  0.00000000E+00  0.00000000E+00  0.00000000E+00
  0.00000000E+00  0.00000000E+00  0.00000000E+00
  0.00000000E+00  0.00000000E+00  0.00000000E+00
  0.00000000E+00  0.00000000E+00  0.00000000E+00
  0.00000000E+00  0.00000000E+00  0.00000000E+00
  0.00000000E+00  0.00000000E+00  0.00000000E+00
  0.00000000E+00  0.00000000E+00  0.00000000E+00
  0.00000000E+00  0.00000000E+00  0.00000000E+00
  0.00000000E+00  0.00000000E+00  0.00000000E+00
