Title                                   
   1.00000000000000     
     4.9440799999999996    0.0000000000000000    0.0000000000000000
     0.0000000000000000    8.5647549999999999    0.0000000000000000
     0.0000000000000000    0.0000000000000000   20.0000000000000000
    13     1     1
Selective dynamics
Direct
  0.0021557319417133  0.2929646349301824  0.0938765552974135   T   T   T
  0.2500000000000000  0.0432433211632892  0.0939127953728806   T   T   T
  0.0013394877590504  0.9580780618340374  0.0948655150697206   T   T   T
  0.7500000000000000  0.2076967441304113  0.0907391751988827   T   T   T
  0.4978442680582866  0.2929646349301824  0.0938765552974135   T   T   T
  0.7500000000000000  0.0411360711515788  0.0913617458815970   T   T   T
  0.7500000000000000  0.7097032906549826  0.1035904435099068   T   T   T
  0.7500000000000000  0.5371841305110634  0.1028812313388598   T   T   T
  0.4986605122409494  0.9580780618340374  0.0948655150697206   T   T   T
  0.4976960585003272  0.4568432294250639  0.1014694106398311   T   T   T
  0.0023039414996729  0.4568432294250639  0.1014694106398311   T   T   T
  0.0011674152697210  0.7916383656582960  0.1028343404604892   T   T   T
  0.4988325847302790  0.7916383656582960  0.1028343404604892   T   T   T
  0.2500000000000000  0.2079471624733601  0.0930494668757725   T   T   T
  0.2500000000000000  0.6257216962201577  0.1463534988871951   T   T   T
 
  0.00000000E+00  0.00000000E+00  0.00000000E+00
  0.00000000E+00  0.00000000E+00  0.00000000E+00
  0.00000000E+00  0.00000000E+00  0.00000000E+00
  0.00000000E+00  0.00000000E+00  0.00000000E+00
  0.00000000E+00  0.00000000E+00  0.00000000E+00
  0.00000000E+00  0.00000000E+00  0.00000000E+00
  0.00000000E+00  0.00000000E+00  0.00000000E+00
  0.00000000E+00  0.00000000E+00  0.00000000E+00
  0.00000000E+00  0.00000000E+00  0.00000000E+00
  0.00000000E+00  0.00000000E+00  0.00000000E+00
  0.00000000E+00  0.00000000E+00  0.00000000E+00
  0.00000000E+00  0.00000000E+00  0.00000000E+00
  0.00000000E+00  0.00000000E+00  0.00000000E+00
  0.00000000E+00  0.00000000E+00  0.00000000E+00
  0.00000000E+00  0.00000000E+00  0.00000000E+00
