Title                                   
   1.00000000000000     
     4.9440799999999996    0.0000000000000000    0.0000000000000000
     0.0000000000000000    8.5647549999999999    0.0000000000000000
     0.0000000000000000    0.0000000000000000   20.0000000000000000
    11     4     1
Selective dynamics
Direct
 -0.0063386696255858  0.2956398027735571  0.0903918980239421   T   T   T
  0.2500000000000000  0.0455620779417048  0.0900651462883536   T   T   T
  0.0067671013496860  0.7931266446754566  0.0994627865709248   T   T   T
  0.0011540723776168  0.9611653450917793  0.0906298748682575   T   T   T
  0.7500000000000000  0.2060924249358916  0.0862984470015954   T   T   T
  0.5063386696255857  0.2956398027735571  0.0903918980239421   T   T   T
  0.7500000000000000  0.0413678325344614  0.0868493143567356   T   T   T
  0.7500000000000000  0.7032531277790551  0.1001324416815828   T   T   T
  0.4932328986503141  0.7931266446754566  0.0994627865709248   T   T   T
  0.7500000000000000  0.5295884907841195  0.0977564763781376   T   T   T
  0.4988459276223829  0.9611653450917793  0.0906298748682575   T   T   T
  0.5097521177677830  0.4501695712802970  0.0970600553808598   T   T   T
 -0.0097521177677828  0.4501695712802970  0.0970600553808598   T   T   T
  0.2500000000000000  0.7216319726938907  0.1091172118331692   T   T   T
  0.2500000000000000  0.2140384894179113  0.0894160989750990   T   T   T
  0.2500000000000000  0.5382628562707857  0.1977876337973681   T   T   T
 
  0.00000000E+00  0.00000000E+00  0.00000000E+00
  0.00000000E+00  0.00000000E+00  0.00000000E+00
  0.00000000E+00  0.00000000E+00  0.00000000E+00
  0.00000000E+00  0.00000000E+00  0.00000000E+00
  0.00000000E+00  0.00000000E+00  0.00000000E+00
  0.00000000E+00  0.00000000E+00  0.00000000E+00
  0.00000000E+00  0.00000000E+00  0.00000000E+00
  0.00000000E+00  0.00000000E+00  0.00000000E+00
  0.00000000E+00  0.00000000E+00  0.00000000E+00
  0.00000000E+00  0.00000000E+00  0.00000000E+00
  0.00000000E+00  0.00000000E+00  0.00000000E+00
  0.00000000E+00  0.00000000E+00  0.00000000E+00
  0.00000000E+00  0.00000000E+00  0.00000000E+00
  0.00000000E+00  0.00000000E+00  0.00000000E+00
  0.00000000E+00  0.00000000E+00  0.00000000E+00
  0.00000000E+00  0.00000000E+00  0.00000000E+00
