Title                                   
   1.00000000000000     
     9.8694509999999998    0.0000000000000000    0.0000000000000000
     0.0000000000000000    8.5490480000000009    0.0000000000000000
     0.0000000000000000    0.0000000000000000   20.0000000000000000
    27     4     1
Selective dynamics
Direct
  0.0562371590489803  0.0922105431384371  0.0825679895309104   T   T   T
  0.9303267651924257  0.1747216598913772  0.0854762538150867   T   T   T
  0.0562281978208353  0.9247850560357425  0.0823984971153192   T   T   T
  0.9289653261660201  0.3418450551548154  0.0903717240543233   T   T   T
  0.0562525884473134  0.5895914411124243  0.0874097968679712   T   T   T
  0.9318978131734273  0.6739122700783088  0.0890476238516041   T   T   T
  0.0562328329702501  0.4234798465598868  0.0891072195001759   T   T   T
  0.9317402633095231  0.8403695610379370  0.0853349202405829   T   T   T
  0.3057277764581007  0.0890269605126900  0.0855064786513060   T   T   T
  0.1821634171824543  0.1747357297441988  0.0850828197910951   T   T   T
  0.3062943712463122  0.9236360867727208  0.0856768382991361   T   T   T
  0.1835208972577827  0.3418590181011874  0.0899946599227599   T   T   T
  0.3045548937152616  0.5936291517466273  0.0998612092599812   T   T   T
  0.1806407132573024  0.6739403219000633  0.0885427893287876   T   T   T
  0.3100253154572513  0.4251824908226662  0.0986788618222284   T   T   T
  0.1807800552507196  0.8403740125704345  0.0848602308798871   T   T   T
  0.5562373766398598  0.0826602723987379  0.0961592105513142   T   T   T
  0.4321599043403617  0.1675182545948395  0.0934819292254983   T   T   T
  0.4338216602910011  0.3321988510350117  0.1024832495825203   T   T   T
  0.4275799309573666  0.8379299185430389  0.0970408451673225   T   T   T
  0.8067748163294861  0.0890370092684337  0.0859829467137321   T   T   T
  0.6803388749702605  0.1675440657041549  0.0937809275819321   T   T   T
  0.8062508474039020  0.9236429676402867  0.0862518648449418   T   T   T
  0.6786722625300141  0.3322470606330801  0.1027572912190457   T   T   T
  0.8080226499609167  0.5936443117950966  0.1005351203018918   T   T   T
  0.8025163488115747  0.4251586842318584  0.0991972461031132   T   T   T
  0.6849628222760179  0.8379243336113141  0.0974637531945634   T   T   T
  0.4181562646224175  0.6853849141500802  0.1158814652094413   T   T   T
  0.5561585104557155  0.4012651956631982  0.1187084126222670   T   T   T
  0.6943475263687110  0.6854170207163715  0.1164150442708353   T   T   T
  0.5562493209833540  0.9164810113399106  0.0988441625284499   T   T   T
  0.5558014971050863  0.5888929234950790  0.1707736179519992   T   T   T
 
  0.00000000E+00  0.00000000E+00  0.00000000E+00
  0.00000000E+00  0.00000000E+00  0.00000000E+00
  0.00000000E+00  0.00000000E+00  0.00000000E+00
  0.00000000E+00  0.00000000E+00  0.00000000E+00
  0.00000000E+00  0.00000000E+00  0.00000000E+00
  0.00000000E+00  0.00000000E+00  0.00000000E+00
  0.00000000E+00  0.00000000E+00  0.00000000E+00
  0.00000000E+00  0.00000000E+00  0.00000000E+00
  0.00000000E+00  0.00000000E+00  0.00000000E+00
  0.00000000E+00  0.00000000E+00  0.00000000E+00
  0.00000000E+00  0.00000000E+00  0.00000000E+00
  0.00000000E+00  0.00000000E+00  0.00000000E+00
  0.00000000E+00  0.00000000E+00  0.00000000E+00
  0.00000000E+00  0.00000000E+00  0.00000000E+00
  0.00000000E+00  0.00000000E+00  0.00000000E+00
  0.00000000E+00  0.00000000E+00  0.00000000E+00
  0.00000000E+00  0.00000000E+00  0.00000000E+00
  0.00000000E+00  0.00000000E+00  0.00000000E+00
  0.00000000E+00  0.00000000E+00  0.00000000E+00
  0.00000000E+00  0.00000000E+00  0.00000000E+00
  0.00000000E+00  0.00000000E+00  0.00000000E+00
  0.00000000E+00  0.00000000E+00  0.00000000E+00
  0.00000000E+00  0.00000000E+00  0.00000000E+00
  0.00000000E+00  0.00000000E+00  0.00000000E+00
  0.00000000E+00  0.00000000E+00  0.00000000E+00
  0.00000000E+00  0.00000000E+00  0.00000000E+00
  0.00000000E+00  0.00000000E+00  0.00000000E+00
  0.00000000E+00  0.00000000E+00  0.00000000E+00
  0.00000000E+00  0.00000000E+00  0.00000000E+00
  0.00000000E+00  0.00000000E+00  0.00000000E+00
  0.00000000E+00  0.00000000E+00  0.00000000E+00
  0.00000000E+00  0.00000000E+00  0.00000000E+00
