Title                                   
   1.00000000000000     
     9.8694509999999998    0.0000000000000000    0.0000000000000000
     0.0000000000000000    8.5490480000000009    0.0000000000000000
     0.0000000000000000    0.0000000000000000   20.0000000000000000
    27     3     1
Selective dynamics
Direct
  0.0555025199199193  0.0881312317967252  0.0828449083029698   T   T   T
  0.9310844440436302  0.1715555211101233  0.0842064449386173   T   T   T
  0.0567766482648150  0.9228188691117890  0.0841052507406967   T   T   T
  0.9337043871144294  0.3388386527732091  0.0830321283614576   T   T   T
  0.0558236610365761  0.5909948529462276  0.0815029819555965   T   T   T
  0.0561267095089390  0.4245441606894960  0.0797516584595945   T   T   T
  0.9318002926472374  0.8384536535107620  0.0864257959880290   T   T   T
  0.3060197867833566  0.0885382700267189  0.0925182581973857   T   T   T
  0.1817128555273891  0.1710624306422584  0.0850928832103702   T   T   T
  0.1793224266655166  0.3389485469135158  0.0842920688369221   T   T   T
  0.2989181116240049  0.5907224529142795  0.0977954837143146   T   T   T
  0.1787438563472387  0.6754492837950751  0.0865115748380148   T   T   T
  0.2993421846826111  0.4204049377063315  0.0967496782018366   T   T   T
  0.1821882426274243  0.8414134589695522  0.0873760469032956   T   T   T
  0.4302141221618439  0.1735468915953543  0.1023259391684640   T   T   T
  0.5555436430393781  0.9228742641672526  0.1051381304636924   T   T   T
  0.4201199037941381  0.3359758763634715  0.1093226245953232   T   T   T
  0.4176019171916094  0.6758559523854586  0.1115408646771083   T   T   T
  0.4278175181093074  0.8388440432157207  0.1049013730517274   T   T   T
  0.8065106359644836  0.0882025152413900  0.0913107183480996   T   T   T
  0.6823788036434804  0.1750092728738601  0.1005507239939441   T   T   T
  0.8072617779576280  0.9210137496065918  0.0926338570774393   T   T   T
  0.6924162438194362  0.3380445566713388  0.1061062992643273   T   T   T
  0.8135760824727309  0.5925070492323352  0.0960135270284409   T   T   T
  0.6946945376061092  0.6737382209459557  0.1084111982867862   T   T   T
  0.8141816108994558  0.4205644423476909  0.0941854943039307   T   T   T
  0.6814098691841376  0.8387150227521352  0.1028855333916608   T   T   T
  0.9345006019646822  0.6734275999869420  0.0852352545181801   T   T   T
  0.5568562193788281  0.0912492093017476  0.1036745120347089   T   T   T
  0.3041870525030829  0.9232058840359089  0.0935238056344185   T   T   T
  0.5567983335165831  0.5062241263708024  0.1209999815126745   T   T   T
 
  0.00000000E+00  0.00000000E+00  0.00000000E+00
  0.00000000E+00  0.00000000E+00  0.00000000E+00
  0.00000000E+00  0.00000000E+00  0.00000000E+00
  0.00000000E+00  0.00000000E+00  0.00000000E+00
  0.00000000E+00  0.00000000E+00  0.00000000E+00
  0.00000000E+00  0.00000000E+00  0.00000000E+00
  0.00000000E+00  0.00000000E+00  0.00000000E+00
  0.00000000E+00  0.00000000E+00  0.00000000E+00
  0.00000000E+00  0.00000000E+00  0.00000000E+00
  0.00000000E+00  0.00000000E+00  0.00000000E+00
  0.00000000E+00  0.00000000E+00  0.00000000E+00
  0.00000000E+00  0.00000000E+00  0.00000000E+00
  0.00000000E+00  0.00000000E+00  0.00000000E+00
  0.00000000E+00  0.00000000E+00  0.00000000E+00
  0.00000000E+00  0.00000000E+00  0.00000000E+00
  0.00000000E+00  0.00000000E+00  0.00000000E+00
  0.00000000E+00  0.00000000E+00  0.00000000E+00
  0.00000000E+00  0.00000000E+00  0.00000000E+00
  0.00000000E+00  0.00000000E+00  0.00000000E+00
  0.00000000E+00  0.00000000E+00  0.00000000E+00
  0.00000000E+00  0.00000000E+00  0.00000000E+00
  0.00000000E+00  0.00000000E+00  0.00000000E+00
  0.00000000E+00  0.00000000E+00  0.00000000E+00
  0.00000000E+00  0.00000000E+00  0.00000000E+00
  0.00000000E+00  0.00000000E+00  0.00000000E+00
  0.00000000E+00  0.00000000E+00  0.00000000E+00
  0.00000000E+00  0.00000000E+00  0.00000000E+00
  0.00000000E+00  0.00000000E+00  0.00000000E+00
  0.00000000E+00  0.00000000E+00  0.00000000E+00
  0.00000000E+00  0.00000000E+00  0.00000000E+00
  0.00000000E+00  0.00000000E+00  0.00000000E+00
