Title                                   
   1.00000000000000     
     9.8694509999999998    0.0000000000000000    0.0000000000000000
     0.0000000000000000    8.5490480000000009    0.0000000000000000
     0.0000000000000000    0.0000000000000000   20.0000000000000000
    25     5     1
Selective dynamics
Direct
  0.0560290109033080  0.0904452556902986  0.0889991840819969   T   T   T
  0.9320884465329139  0.1722979205242734  0.0923153416444877   T   T   T
  0.0575402801920013  0.9223260333096357  0.0894062980045803   T   T   T
  0.9327038193607059  0.3401808306250504  0.0923928633106345   T   T   T
  0.0566757957745814  0.5899542636001790  0.0880739017440420   T   T   T
  0.9326944324583469  0.6724366356660532  0.0922752281087137   T   T   T
  0.0567597340343026  0.4230037862253363  0.0878811872822286   T   T   T
  0.9323886779710638  0.8393232044440053  0.0920764151918582   T   T   T
  0.3071645648714704  0.0889787348846799  0.0905892504326671   T   T   T
  0.1813738382767463  0.1721758426138271  0.0879396601290959   T   T   T
  0.1806510492150812  0.3388570229966826  0.0873287967273419   T   T   T
  0.3051863497269847  0.5901983378587042  0.0904801253940674   T   T   T
  0.1807308435354197  0.6737766148515459  0.0880669758765622   T   T   T
  0.3059641507882558  0.4219654249604685  0.0902427829191419   T   T   T
  0.1814619743347231  0.8393626115079229  0.0887500349598892   T   T   T
  0.5571350386453927  0.0931958903048239  0.1012495901442504   T   T   T
  0.4290744420770548  0.1739892383369970  0.0960071231173638   T   T   T
  0.5556926936271787  0.9202500689713911  0.1009911784879067   T   T   T
  0.4289482121861040  0.8375407249407747  0.0960638956150513   T   T   T
  0.8057659641183764  0.0893790255329743  0.0962486767063319   T   T   T
  0.6831592902744383  0.1765780204674842  0.1031087602861659   T   T   T
  0.8058711600091740  0.9223282165113671  0.0957518036672317   T   T   T
  0.8089361396647176  0.5904488539938945  0.1002995967588092   T   T   T
  0.8088308980020671  0.4215866683059534  0.1009863413746773   T   T   T
  0.6828359790031674  0.8344908826501714  0.1019629632631200   T   T   T
  0.4249448610862293  0.3367430920788951  0.0970538441414968   T   T   T
  0.4241615209103030  0.6784868228284154  0.0972659001343130   T   T   T
  0.6897095952173982  0.3390509519692491  0.1114912730861099   T   T   T
  0.6892519029426294  0.6731223955055253  0.1095108474818147   T   T   T
  0.3074017225504147  0.9226698017033496  0.0904638704094888   T   T   T
  0.5420036117094491  0.5057318261400727  0.1556912895186187   T   T   T
 
  0.00000000E+00  0.00000000E+00  0.00000000E+00
  0.00000000E+00  0.00000000E+00  0.00000000E+00
  0.00000000E+00  0.00000000E+00  0.00000000E+00
  0.00000000E+00  0.00000000E+00  0.00000000E+00
  0.00000000E+00  0.00000000E+00  0.00000000E+00
  0.00000000E+00  0.00000000E+00  0.00000000E+00
  0.00000000E+00  0.00000000E+00  0.00000000E+00
  0.00000000E+00  0.00000000E+00  0.00000000E+00
  0.00000000E+00  0.00000000E+00  0.00000000E+00
  0.00000000E+00  0.00000000E+00  0.00000000E+00
  0.00000000E+00  0.00000000E+00  0.00000000E+00
  0.00000000E+00  0.00000000E+00  0.00000000E+00
  0.00000000E+00  0.00000000E+00  0.00000000E+00
  0.00000000E+00  0.00000000E+00  0.00000000E+00
  0.00000000E+00  0.00000000E+00  0.00000000E+00
  0.00000000E+00  0.00000000E+00  0.00000000E+00
  0.00000000E+00  0.00000000E+00  0.00000000E+00
  0.00000000E+00  0.00000000E+00  0.00000000E+00
  0.00000000E+00  0.00000000E+00  0.00000000E+00
  0.00000000E+00  0.00000000E+00  0.00000000E+00
  0.00000000E+00  0.00000000E+00  0.00000000E+00
  0.00000000E+00  0.00000000E+00  0.00000000E+00
  0.00000000E+00  0.00000000E+00  0.00000000E+00
  0.00000000E+00  0.00000000E+00  0.00000000E+00
  0.00000000E+00  0.00000000E+00  0.00000000E+00
  0.00000000E+00  0.00000000E+00  0.00000000E+00
  0.00000000E+00  0.00000000E+00  0.00000000E+00
  0.00000000E+00  0.00000000E+00  0.00000000E+00
  0.00000000E+00  0.00000000E+00  0.00000000E+00
  0.00000000E+00  0.00000000E+00  0.00000000E+00
  0.00000000E+00  0.00000000E+00  0.00000000E+00
