Title                                   
   1.00000000000000     
     9.8694509999999998    0.0000000000000000    0.0000000000000000
     0.0000000000000000    8.5490480000000009    0.0000000000000000
     0.0000000000000000    0.0000000000000000   20.0000000000000000
    30     1     1
Selective dynamics
Direct
  0.0562373502470480  0.0896129651198740  0.0840677891963924   T   T   T
  0.9311088065576231  0.1730170860406048  0.0862244553973665   T   T   T
  0.0562307724525385  0.9229709071368236  0.0839378602996579   T   T   T
  0.9307246151172477  0.3401451506172695  0.0888742232591180   T   T   T
  0.0562345396612509  0.5892425287924568  0.0865069573906433   T   T   T
  0.9312804369420570  0.6725871158987161  0.0882795829771053   T   T   T
  0.0562346263319387  0.4230205126217487  0.0873105656285122   T   T   T
  0.9307172883068359  0.8393974525727192  0.0861724088916363   T   T   T
  0.3055017304420571  0.0894465877657384  0.0883058867994870   T   T   T
  0.1813592768172430  0.1730284396772453  0.0862415834757647   T   T   T
  0.3066660349338491  0.9237055544285162  0.0884582487610406   T   T   T
  0.1817542568433081  0.3401587288040036  0.0888970699275578   T   T   T
  0.3052467013181909  0.5905709400106172  0.0977362802798867   T   T   T
  0.1811911393092840  0.6726010060658402  0.0882478865301468   T   T   T
  0.3061040603754974  0.4225042050160963  0.0967885382983210   T   T   T
  0.1817436921667138  0.8393998481754612  0.0861302290784302   T   T   T
  0.5562305870813359  0.0874508733779118  0.0960396308055224   T   T   T
  0.4310115886969259  0.1698884461840096  0.0948440748934894   T   T   T
  0.4306610930673194  0.3358946450651369  0.1020988307208289   T   T   T
  0.4253818331533398  0.6795288857797755  0.1101381717881993   T   T   T
  0.5562662675435299  0.4096864214051419  0.1148625101645147   T   T   T
  0.4310805254692411  0.8411944436237987  0.0979079374583161   T   T   T
  0.8069666941882104  0.0894277708972648  0.0883034302102657   T   T   T
  0.6814589874883791  0.1698938024677624  0.0948130183641062   T   T   T
  0.8058026414968600  0.9237042681479720  0.0885171699729962   T   T   T
  0.6818456209392765  0.3358759424463887  0.1020508819437595   T   T   T
  0.8072351889199644  0.5905459519212117  0.0977682618052054   T   T   T
  0.6871498628626130  0.6795287741604126  0.1102318046602333   T   T   T
  0.8063844612738270  0.4224876932618976  0.0967565971593027   T   T   T
  0.6813800619366969  0.8411971491377059  0.0979774002031330   T   T   T
  0.5562334552575458  0.9230323494608433  0.0976460890228031   T   T   T
  0.5562148028022573  0.5894995539190458  0.1635396246362919   T   T   T
 
  0.00000000E+00  0.00000000E+00  0.00000000E+00
  0.00000000E+00  0.00000000E+00  0.00000000E+00
  0.00000000E+00  0.00000000E+00  0.00000000E+00
  0.00000000E+00  0.00000000E+00  0.00000000E+00
  0.00000000E+00  0.00000000E+00  0.00000000E+00
  0.00000000E+00  0.00000000E+00  0.00000000E+00
  0.00000000E+00  0.00000000E+00  0.00000000E+00
  0.00000000E+00  0.00000000E+00  0.00000000E+00
  0.00000000E+00  0.00000000E+00  0.00000000E+00
  0.00000000E+00  0.00000000E+00  0.00000000E+00
  0.00000000E+00  0.00000000E+00  0.00000000E+00
  0.00000000E+00  0.00000000E+00  0.00000000E+00
  0.00000000E+00  0.00000000E+00  0.00000000E+00
  0.00000000E+00  0.00000000E+00  0.00000000E+00
  0.00000000E+00  0.00000000E+00  0.00000000E+00
  0.00000000E+00  0.00000000E+00  0.00000000E+00
  0.00000000E+00  0.00000000E+00  0.00000000E+00
  0.00000000E+00  0.00000000E+00  0.00000000E+00
  0.00000000E+00  0.00000000E+00  0.00000000E+00
  0.00000000E+00  0.00000000E+00  0.00000000E+00
  0.00000000E+00  0.00000000E+00  0.00000000E+00
  0.00000000E+00  0.00000000E+00  0.00000000E+00
  0.00000000E+00  0.00000000E+00  0.00000000E+00
  0.00000000E+00  0.00000000E+00  0.00000000E+00
  0.00000000E+00  0.00000000E+00  0.00000000E+00
  0.00000000E+00  0.00000000E+00  0.00000000E+00
  0.00000000E+00  0.00000000E+00  0.00000000E+00
  0.00000000E+00  0.00000000E+00  0.00000000E+00
  0.00000000E+00  0.00000000E+00  0.00000000E+00
  0.00000000E+00  0.00000000E+00  0.00000000E+00
  0.00000000E+00  0.00000000E+00  0.00000000E+00
  0.00000000E+00  0.00000000E+00  0.00000000E+00
