Title                                   
   1.00000000000000     
     9.8694509999999998    0.0000000000000000    0.0000000000000000
     0.0000000000000000    8.5490480000000009    0.0000000000000000
     0.0000000000000000    0.0000000000000000   20.0000000000000000
    31     1
Selective dynamics
Direct
  0.0562501464343080  0.0899040120824034  0.0811806418804704   T   T   T
  0.9311728884031976  0.1730644299822425  0.0833650600001888   T   T   T
  0.0562395980059741  0.9228557435348024  0.0816656950677895   T   T   T
  0.9306989489489305  0.3398801485086572  0.0857772903317407   T   T   T
  0.0562290762159225  0.5890006298710563  0.0834798312398070   T   T   T
  0.9319334266614027  0.6726108657396356  0.0866365017095282   T   T   T
  0.0562351588760465  0.4229721913234143  0.0838053049772542   T   T   T
  0.9315725416525512  0.8396624752361458  0.0848408608708292   T   T   T
  0.3056236002581283  0.0895875689515224  0.0866975591381756   T   T   T
  0.1813209233177684  0.1730796415630669  0.0833284062536722   T   T   T
  0.3053578494245342  0.9233341603274564  0.0887517547696977   T   T   T
  0.1817692265531866  0.3398967662226704  0.0857366808247455   T   T   T
  0.3025157094675665  0.5898554265951762  0.0987018555317940   T   T   T
  0.1805337460579473  0.6726038097210953  0.0865127640960265   T   T   T
  0.3055065200459938  0.4222734198731324  0.0963763501637638   T   T   T
  0.1808925430674017  0.8396463137241860  0.0847320508891797   T   T   T
  0.5562689579645292  0.0876204561307401  0.0945891800354461   T   T   T
  0.4305408723927266  0.1712895216727004  0.0931140777871556   T   T   T
  0.5562466284291584  0.9225338101647890  0.1000442152220772   T   T   T
  0.4299171462306861  0.3357304563015146  0.1020738282834085   T   T   T
  0.4189661743013228  0.6791860755271484  0.1166622967248340   T   T   T
  0.5562241799628772  0.4077281356456000  0.1194582301857459   T   T   T
  0.4284068942091961  0.8413594843581716  0.1011119611376960   T   T   T
  0.8068731082114999  0.0895843387581200  0.0867770061096894   T   T   T
  0.6819818337342646  0.1713074472210513  0.0931675341602767   T   T   T
  0.8071124714815155  0.9233435859973335  0.0888811687333496   T   T   T
  0.6825718557634688  0.3357302307357866  0.1021302494678896   T   T   T
  0.8099848807017949  0.5898402148452502  0.0988824052542066   T   T   T
  0.6935434405005165  0.6791843369422262  0.1168283976688678   T   T   T
  0.8069731911880641  0.4222523786043658  0.0964792294160935   T   T   T
  0.6840713197793790  0.8413217977123001  0.1012224464880008   T   T   T
  0.5561041417581469  0.5920061261262477  0.1726641655806339   T   T   T
 
  0.00000000E+00  0.00000000E+00  0.00000000E+00
  0.00000000E+00  0.00000000E+00  0.00000000E+00
  0.00000000E+00  0.00000000E+00  0.00000000E+00
  0.00000000E+00  0.00000000E+00  0.00000000E+00
  0.00000000E+00  0.00000000E+00  0.00000000E+00
  0.00000000E+00  0.00000000E+00  0.00000000E+00
  0.00000000E+00  0.00000000E+00  0.00000000E+00
  0.00000000E+00  0.00000000E+00  0.00000000E+00
  0.00000000E+00  0.00000000E+00  0.00000000E+00
  0.00000000E+00  0.00000000E+00  0.00000000E+00
  0.00000000E+00  0.00000000E+00  0.00000000E+00
  0.00000000E+00  0.00000000E+00  0.00000000E+00
  0.00000000E+00  0.00000000E+00  0.00000000E+00
  0.00000000E+00  0.00000000E+00  0.00000000E+00
  0.00000000E+00  0.00000000E+00  0.00000000E+00
  0.00000000E+00  0.00000000E+00  0.00000000E+00
  0.00000000E+00  0.00000000E+00  0.00000000E+00
  0.00000000E+00  0.00000000E+00  0.00000000E+00
  0.00000000E+00  0.00000000E+00  0.00000000E+00
  0.00000000E+00  0.00000000E+00  0.00000000E+00
  0.00000000E+00  0.00000000E+00  0.00000000E+00
  0.00000000E+00  0.00000000E+00  0.00000000E+00
  0.00000000E+00  0.00000000E+00  0.00000000E+00
  0.00000000E+00  0.00000000E+00  0.00000000E+00
  0.00000000E+00  0.00000000E+00  0.00000000E+00
  0.00000000E+00  0.00000000E+00  0.00000000E+00
  0.00000000E+00  0.00000000E+00  0.00000000E+00
  0.00000000E+00  0.00000000E+00  0.00000000E+00
  0.00000000E+00  0.00000000E+00  0.00000000E+00
  0.00000000E+00  0.00000000E+00  0.00000000E+00
  0.00000000E+00  0.00000000E+00  0.00000000E+00
  0.00000000E+00  0.00000000E+00  0.00000000E+00
