Title                                   
   1.00000000000000     
     9.8694509999999998    0.0000000000000000    0.0000000000000000
     0.0000000000000000    8.5490480000000009    0.0000000000000000
     0.0000000000000000    0.0000000000000000   20.0000000000000000
    27     4     1
Selective dynamics
Direct
  0.0555481730587276  0.0901312740995048  0.0827669826792447   T   T   T
  0.9307903969001614  0.1746788147918084  0.0828873676610770   T   T   T
  0.0574685643321985  0.9224855159326684  0.0839261850108852   T   T   T
  0.9300654271219907  0.3417721118004584  0.0851624196433353   T   T   T
  0.0563471104706264  0.5909078793436023  0.0859211245089997   T   T   T
  0.0555617367042269  0.4240438815868276  0.0853935822109339   T   T   T
  0.9330229891743249  0.8394819051598407  0.0855894127310365   T   T   T
  0.3054877522999436  0.0879148875030126  0.0880790514647893   T   T   T
  0.1816554796368828  0.1721538957069366  0.0855425587380559   T   T   T
  0.1810337457613516  0.3396156276926985  0.0882229039439456   T   T   T
  0.3021928966920747  0.5879837533997567  0.1038532909478477   T   T   T
  0.1805072762163479  0.6734720947636630  0.0907979653226284   T   T   T
  0.3056350786523259  0.4201921028044123  0.1000095925806088   T   T   T
  0.1826491325542628  0.8407783393871502  0.0879196741714656   T   T   T
  0.5559110409497450  0.0869215066449242  0.0915367387149423   T   T   T
  0.5556815399932608  0.9200531827355468  0.0975994220603152   T   T   T
  0.4290389176521615  0.3308773181205032  0.1052497749774677   T   T   T
  0.4270301859056677  0.8405509543236894  0.1040476399744231   T   T   T
  0.8061639286526810  0.0893499824352272  0.0839578282461849   T   T   T
  0.6799106725984533  0.1718516863795936  0.0886698203617292   T   T   T
  0.8076445275477893  0.9234302897754754  0.0867852945509542   T   T   T
  0.6810920492233410  0.3376882583401176  0.0989746949075754   T   T   T
  0.8101071621360145  0.5947985963035360  0.0974624346520385   T   T   T
  0.8048376349202147  0.4263728395337669  0.0939191154272817   T   T   T
  0.6843492573479248  0.8413890377517749  0.0975776896186944   T   T   T
  0.4165588522027331  0.6816665884161909  0.1223052895325160   T   T   T
  0.5548546267582567  0.4025067953748639  0.1199943412026539   T   T   T
  0.6984995446027406  0.6830394818761276  0.1142291102760387   T   T   T
  0.3062649344290196  0.9241363420549421  0.0903625364215621   T   T   T
  0.4290095401098061  0.1668745467858194  0.0932069792837719   T   T   T
  0.9322641014385930  0.6736081325809434  0.0869775272790246   T   T   T
  0.5624547239561559  0.5895183765946166  0.1767466508979882   T   T   T
 
  0.00000000E+00  0.00000000E+00  0.00000000E+00
  0.00000000E+00  0.00000000E+00  0.00000000E+00
  0.00000000E+00  0.00000000E+00  0.00000000E+00
  0.00000000E+00  0.00000000E+00  0.00000000E+00
  0.00000000E+00  0.00000000E+00  0.00000000E+00
  0.00000000E+00  0.00000000E+00  0.00000000E+00
  0.00000000E+00  0.00000000E+00  0.00000000E+00
  0.00000000E+00  0.00000000E+00  0.00000000E+00
  0.00000000E+00  0.00000000E+00  0.00000000E+00
  0.00000000E+00  0.00000000E+00  0.00000000E+00
  0.00000000E+00  0.00000000E+00  0.00000000E+00
  0.00000000E+00  0.00000000E+00  0.00000000E+00
  0.00000000E+00  0.00000000E+00  0.00000000E+00
  0.00000000E+00  0.00000000E+00  0.00000000E+00
  0.00000000E+00  0.00000000E+00  0.00000000E+00
  0.00000000E+00  0.00000000E+00  0.00000000E+00
  0.00000000E+00  0.00000000E+00  0.00000000E+00
  0.00000000E+00  0.00000000E+00  0.00000000E+00
  0.00000000E+00  0.00000000E+00  0.00000000E+00
  0.00000000E+00  0.00000000E+00  0.00000000E+00
  0.00000000E+00  0.00000000E+00  0.00000000E+00
  0.00000000E+00  0.00000000E+00  0.00000000E+00
  0.00000000E+00  0.00000000E+00  0.00000000E+00
  0.00000000E+00  0.00000000E+00  0.00000000E+00
  0.00000000E+00  0.00000000E+00  0.00000000E+00
  0.00000000E+00  0.00000000E+00  0.00000000E+00
  0.00000000E+00  0.00000000E+00  0.00000000E+00
  0.00000000E+00  0.00000000E+00  0.00000000E+00
  0.00000000E+00  0.00000000E+00  0.00000000E+00
  0.00000000E+00  0.00000000E+00  0.00000000E+00
  0.00000000E+00  0.00000000E+00  0.00000000E+00
  0.00000000E+00  0.00000000E+00  0.00000000E+00
