Title                                   
   1.00000000000000     
     8.5490480000000009    0.0000000000000000    0.0000000000000000
     0.0000000000000000    8.5490480000000009    0.0000000000000000
     0.0000000000000000    0.0000000000000000   20.0000000000000000
    21     3     1
Selective dynamics
Direct
  0.9090791135203622  0.2051014943391659  0.0976251591009533   T   T   T
  0.9029926509423629  0.5029464010830119  0.0976982478548799   T   T   T
  0.9108102644781465  0.8012481649126424  0.0976210695520226   T   T   T
  0.2003608671403149  0.0830590343083157  0.0978509510227710   T   T   T
  0.0754932459401837  0.2046076967990065  0.0977210816733312   T   T   T
  0.1570480320455106  0.6481366647768371  0.0976923937434291   T   T   T
  0.0725306397409765  0.5017336590773402  0.0976641925744144   T   T   T
  0.1555623693328702  0.3558607361430995  0.0977137100143026   T   T   T
  0.0789304429004150  0.7972825282610199  0.0977423194955515   T   T   T
  0.4951040191547352  0.0866835788409610  0.0977877263664429   T   T   T
  0.3481550504807646  0.1660836322338957  0.0978642190896202   T   T   T
  0.4944906023174336  0.9167676074184198  0.0977509061999112   T   T   T
  0.3488602648761902  0.8336323190250833  0.0978304759762296   T   T   T
  0.7885472388206601  0.0860770719360114  0.0975838699067698   T   T   T
  0.6416939631747374  0.1673977140259445  0.0977555273227327   T   T   T
  0.7894033592980634  0.9190458135489665  0.0975609669261813   T   T   T
  0.8260180400553575  0.6518065563905489  0.0977284927717137   T   T   T
  0.8238063083990377  0.3547164534339123  0.0977888259412695   T   T   T
  0.6418562120505483  0.8361980910788990  0.0976808028210046   T   T   T
  0.3233111596852771  0.3360148896885323  0.0978086646987712   T   T   T
  0.3244248000426472  0.6680074251931050  0.0977280570420757   T   T   T
  0.6634226942658231  0.3308077295711584  0.0979234770795814   T   T   T
  0.6644972858376039  0.6744928097568108  0.0978514530617511   T   T   T
  0.2003631361574508  0.9169607840277301  0.0979371329572111   T   T   T
  0.4886502393425202  0.5001211441296015  0.0977952768070515   T   T   T
 
  0.00000000E+00  0.00000000E+00  0.00000000E+00
  0.00000000E+00  0.00000000E+00  0.00000000E+00
  0.00000000E+00  0.00000000E+00  0.00000000E+00
  0.00000000E+00  0.00000000E+00  0.00000000E+00
  0.00000000E+00  0.00000000E+00  0.00000000E+00
  0.00000000E+00  0.00000000E+00  0.00000000E+00
  0.00000000E+00  0.00000000E+00  0.00000000E+00
  0.00000000E+00  0.00000000E+00  0.00000000E+00
  0.00000000E+00  0.00000000E+00  0.00000000E+00
  0.00000000E+00  0.00000000E+00  0.00000000E+00
  0.00000000E+00  0.00000000E+00  0.00000000E+00
  0.00000000E+00  0.00000000E+00  0.00000000E+00
  0.00000000E+00  0.00000000E+00  0.00000000E+00
  0.00000000E+00  0.00000000E+00  0.00000000E+00
  0.00000000E+00  0.00000000E+00  0.00000000E+00
  0.00000000E+00  0.00000000E+00  0.00000000E+00
  0.00000000E+00  0.00000000E+00  0.00000000E+00
  0.00000000E+00  0.00000000E+00  0.00000000E+00
  0.00000000E+00  0.00000000E+00  0.00000000E+00
  0.00000000E+00  0.00000000E+00  0.00000000E+00
  0.00000000E+00  0.00000000E+00  0.00000000E+00
  0.00000000E+00  0.00000000E+00  0.00000000E+00
  0.00000000E+00  0.00000000E+00  0.00000000E+00
  0.00000000E+00  0.00000000E+00  0.00000000E+00
  0.00000000E+00  0.00000000E+00  0.00000000E+00
