Title                                   
   1.00000000000000     
     4.9440799999999996    0.0000000000000000    0.0000000000000000
     0.0000000000000000   17.1295089999999988    0.0000000000000000
     0.0000000000000000    0.0000000000000000   20.0000000000000000
    29     2     1
Selective dynamics
Direct
 -0.0001515097262098  0.1041169051327968  0.2966149154356958   T   T   T
  0.2498669914809895  0.1458808214784912  0.2998448266773604   T   T   T
  0.2498911864524923  0.2286172194735023  0.3077172633278979   T   T   T
  0.0047920415104895  0.3517865747641122  0.3209539229381181   T   T   T
 -0.0005787490343062  0.2705282339561291  0.3102180018694681   T   T   T
 -0.0047533357213133  0.6019461919451569  0.2887383114660214   T   T   T
  0.2499101475315862  0.7276392249558640  0.2907042441440839   T   T   T
  0.0004263761330468  0.8535760381687297  0.2904434571111884   T   T   T
  0.2499162662199569  0.8955428923261208  0.2910404304050073   T   T   T
  0.2498797687934403  0.9790199739855534  0.2923650315643732   T   T   T
  0.0009337495009779  0.7700451292684440  0.2899315224532517   T   T   T
  0.4998883869494916  0.1041154927246845  0.2966149679035643   T   T   T
  0.7498782872671592  0.1461759726924784  0.2983816368523849   T   T   T
  0.7499025562479367  0.2288879926890996  0.3040052602470200   T   T   T
  0.4999322037593600  0.0208504074230643  0.2932256577572316   T   T   T
  0.4949970508348971  0.3517821582719467  0.3209410601913486   T   T   T
  0.7498728546312819  0.4750962919825061  0.2958561424501600   T   T   T
  0.5003552648204717  0.2705167636819417  0.3102097554197117   T   T   T
  0.5045335127132059  0.6019557179110020  0.2886898529118501   T   T   T
  0.7498953610625250  0.7286640686822730  0.2885878383940264   T   T   T
  0.4993940747248044  0.8535759038969697  0.2904396880151860   T   T   T
  0.7499009552255244  0.8954131384695225  0.2906046185663733   T   T   T
  0.7498844858751920  0.9788316341647545  0.2919445627217690   T   T   T
  0.4988508972279539  0.7700497590477767  0.2899221649337281   T   T   T
  0.7499031343338003  0.6459652895325558  0.2872804328178556   T   T   T
  0.2498800915580229  0.6431853844472963  0.2904819369275312   T   T   T
 -0.0001760328757689  0.0208531542448888  0.2932254111505390   T   T   T
  0.5127185364767244  0.5185037695981930  0.2934493205935254   T   T   T
  0.9870922678651854  0.5185172764835266  0.2935842236149291   T   T   T
  0.2499083634193464  0.3894027126752281  0.3351606096756242   T   T   T
  0.7498650620034032  0.3945641156563418  0.3181431498145126   T   T   T
  0.2502127527383403  0.5129447902690411  0.3732447816486144   T   T   T
 
  0.00000000E+00  0.00000000E+00  0.00000000E+00
  0.00000000E+00  0.00000000E+00  0.00000000E+00
  0.00000000E+00  0.00000000E+00  0.00000000E+00
  0.00000000E+00  0.00000000E+00  0.00000000E+00
  0.00000000E+00  0.00000000E+00  0.00000000E+00
  0.00000000E+00  0.00000000E+00  0.00000000E+00
  0.00000000E+00  0.00000000E+00  0.00000000E+00
  0.00000000E+00  0.00000000E+00  0.00000000E+00
  0.00000000E+00  0.00000000E+00  0.00000000E+00
  0.00000000E+00  0.00000000E+00  0.00000000E+00
  0.00000000E+00  0.00000000E+00  0.00000000E+00
  0.00000000E+00  0.00000000E+00  0.00000000E+00
  0.00000000E+00  0.00000000E+00  0.00000000E+00
  0.00000000E+00  0.00000000E+00  0.00000000E+00
  0.00000000E+00  0.00000000E+00  0.00000000E+00
  0.00000000E+00  0.00000000E+00  0.00000000E+00
  0.00000000E+00  0.00000000E+00  0.00000000E+00
  0.00000000E+00  0.00000000E+00  0.00000000E+00
  0.00000000E+00  0.00000000E+00  0.00000000E+00
  0.00000000E+00  0.00000000E+00  0.00000000E+00
  0.00000000E+00  0.00000000E+00  0.00000000E+00
  0.00000000E+00  0.00000000E+00  0.00000000E+00
  0.00000000E+00  0.00000000E+00  0.00000000E+00
  0.00000000E+00  0.00000000E+00  0.00000000E+00
  0.00000000E+00  0.00000000E+00  0.00000000E+00
  0.00000000E+00  0.00000000E+00  0.00000000E+00
  0.00000000E+00  0.00000000E+00  0.00000000E+00
  0.00000000E+00  0.00000000E+00  0.00000000E+00
  0.00000000E+00  0.00000000E+00  0.00000000E+00
  0.00000000E+00  0.00000000E+00  0.00000000E+00
  0.00000000E+00  0.00000000E+00  0.00000000E+00
  0.00000000E+00  0.00000000E+00  0.00000000E+00
