Title                                   
   1.00000000000000     
     8.5490480000000009    0.0000000000000000    0.0000000000000000
     0.0000000000000000    8.5490480000000009    0.0000000000000000
     0.0000000000000000    0.0000000000000000   20.0000000000000000
    21     3     1
Selective dynamics
Direct
  0.9106478776733493  0.2080104105446660  0.0977631184210437   T   T   T
  0.9131644655802993  0.8019377502440138  0.0976634761256482   T   T   T
  0.1992641916671595  0.0820592163580471  0.0981048203318508   T   T   T
  0.0735087806846686  0.2045527599640758  0.0980382716104826   T   T   T
  0.1548886408547866  0.6498343122900524  0.0980126985932337   T   T   T
  0.0730456875299104  0.5030154482741065  0.0980302119160186   T   T   T
  0.1549540869194204  0.3561984808628507  0.0981434802059691   T   T   T
  0.0779390270091979  0.7995964747624119  0.0978820280149427   T   T   T
  0.4947895955670540  0.0828466755106853  0.0979211685074588   T   T   T
  0.3457981818843929  0.1638488328701493  0.0981403266311065   T   T   T
  0.4944395482212918  0.9134364302915914  0.0979226131805330   T   T   T
  0.3465973157042155  0.8321690312504433  0.0981159259017730   T   T   T
  0.7875586165677998  0.0852530777981030  0.0975758325780511   T   T   T
  0.6398358338020237  0.1651470606252092  0.0977424843456945   T   T   T
  0.7901256374960738  0.9200486240760507  0.0975860045397727   T   T   T
  0.8296750648468184  0.6520711954327861  0.0978654755167436   T   T   T
  0.8254943093297331  0.3585674412790098  0.0978742839806860   T   T   T
  0.6433976940217550  0.8345487201035713  0.0978425001274110   T   T   T
  0.3216969447324536  0.3336647204852528  0.0981491266254653   T   T   T
  0.3207264470599276  0.6689480099048954  0.0981415477290979   T   T   T
  0.6614135360080631  0.3349533105566976  0.0978805817619455   T   T   T
  0.9062038496577750  0.5046699166384053  0.0979828884121231   T   T   T
  0.6709954137315294  0.6731458186931881  0.0980621417760300   T   T   T
  0.1987292301969594  0.9178174827102197  0.0981016557360585   T   T   T
  0.4905220232533352  0.4984487984735305  0.0981623374308426   T   T   T
 
  0.00000000E+00  0.00000000E+00  0.00000000E+00
  0.00000000E+00  0.00000000E+00  0.00000000E+00
  0.00000000E+00  0.00000000E+00  0.00000000E+00
  0.00000000E+00  0.00000000E+00  0.00000000E+00
  0.00000000E+00  0.00000000E+00  0.00000000E+00
  0.00000000E+00  0.00000000E+00  0.00000000E+00
  0.00000000E+00  0.00000000E+00  0.00000000E+00
  0.00000000E+00  0.00000000E+00  0.00000000E+00
  0.00000000E+00  0.00000000E+00  0.00000000E+00
  0.00000000E+00  0.00000000E+00  0.00000000E+00
  0.00000000E+00  0.00000000E+00  0.00000000E+00
  0.00000000E+00  0.00000000E+00  0.00000000E+00
  0.00000000E+00  0.00000000E+00  0.00000000E+00
  0.00000000E+00  0.00000000E+00  0.00000000E+00
  0.00000000E+00  0.00000000E+00  0.00000000E+00
  0.00000000E+00  0.00000000E+00  0.00000000E+00
  0.00000000E+00  0.00000000E+00  0.00000000E+00
  0.00000000E+00  0.00000000E+00  0.00000000E+00
  0.00000000E+00  0.00000000E+00  0.00000000E+00
  0.00000000E+00  0.00000000E+00  0.00000000E+00
  0.00000000E+00  0.00000000E+00  0.00000000E+00
  0.00000000E+00  0.00000000E+00  0.00000000E+00
  0.00000000E+00  0.00000000E+00  0.00000000E+00
  0.00000000E+00  0.00000000E+00  0.00000000E+00
  0.00000000E+00  0.00000000E+00  0.00000000E+00
