Title                                   
   1.00000000000000     
     9.8694509999999998    0.0000000000000000    0.0000000000000000
     0.0000000000000000    8.5490480000000009    0.0000000000000000
     0.0000000000000000    0.0000000000000000   20.0000000000000000
    27     4     1
Selective dynamics
Direct
  0.0553598700768508  0.0900040853766736  0.0833902637870021   T   T   T
  0.9305760532491227  0.1747710947666589  0.0843588320474422   T   T   T
  0.0571359052344567  0.9224145002869989  0.0828461720031616   T   T   T
  0.9300454609824832  0.3413008262184978  0.0870939921307405   T   T   T
  0.0563891777739542  0.5907621923073060  0.0856133698851094   T   T   T
  0.0553022583386371  0.4236157693076945  0.0869703164551273   T   T   T
  0.9326801591228195  0.8395812011958100  0.0835285716263235   T   T   T
  0.3054161653392788  0.0876048720715388  0.0883904922662908   T   T   T
  0.1812375077974427  0.1722669391035134  0.0868728287340270   T   T   T
  0.1805716830653850  0.3392048748623632  0.0903662462011289   T   T   T
  0.3024620460073587  0.5883369637715002  0.1038045633975414   T   T   T
  0.1803487569169774  0.6730451318843312  0.0897097266266269   T   T   T
  0.3053347823867164  0.4199660328725018  0.1014362335831248   T   T   T
  0.1823616477187370  0.8404436214143047  0.0865027515230519   T   T   T
  0.5554481155287364  0.0869409357363429  0.0923654109080711   T   T   T
  0.5552677627227768  0.9195658745776341  0.0977216439074893   T   T   T
  0.4293912454671103  0.3319977176919128  0.1055635966968737   T   T   T
  0.4265894840866719  0.8390064789787617  0.1039075837078005   T   T   T
  0.8056319730800162  0.0893484372179000  0.0846956755978324   T   T   T
  0.6796381697020923  0.1712438640351239  0.0896231605870225   T   T   T
  0.8077778318604814  0.9234468919304337  0.0854208302926818   T   T   T
  0.6797222986182668  0.3381991208303339  0.1000534274861712   T   T   T
  0.8093966212463517  0.5947537084015361  0.0944514615573770   T   T   T
  0.8043812015028770  0.4264704377844037  0.0947562847081812   T   T   T
  0.6840334194415006  0.8403681788158032  0.0955773926939545   T   T   T
  0.4175505263794863  0.6809779237305522  0.1195658222536159   T   T   T
  0.5535669426970614  0.4049842440103393  0.1173333720279519   T   T   T
  0.6964574333083153  0.6811979331292155  0.1074138830033710   T   T   T
  0.3052757019333324  0.9245555775782067  0.0891779940139152   T   T   T
  0.4288714143474219  0.1658758248749914  0.0931587367900488   T   T   T
  0.9326363711884073  0.6732346211697062  0.0842748186544476   T   T   T
  0.5727810128788791  0.5947601240671144  0.1897295448465123   T   T   T
 
  0.00000000E+00  0.00000000E+00  0.00000000E+00
  0.00000000E+00  0.00000000E+00  0.00000000E+00
  0.00000000E+00  0.00000000E+00  0.00000000E+00
  0.00000000E+00  0.00000000E+00  0.00000000E+00
  0.00000000E+00  0.00000000E+00  0.00000000E+00
  0.00000000E+00  0.00000000E+00  0.00000000E+00
  0.00000000E+00  0.00000000E+00  0.00000000E+00
  0.00000000E+00  0.00000000E+00  0.00000000E+00
  0.00000000E+00  0.00000000E+00  0.00000000E+00
  0.00000000E+00  0.00000000E+00  0.00000000E+00
  0.00000000E+00  0.00000000E+00  0.00000000E+00
  0.00000000E+00  0.00000000E+00  0.00000000E+00
  0.00000000E+00  0.00000000E+00  0.00000000E+00
  0.00000000E+00  0.00000000E+00  0.00000000E+00
  0.00000000E+00  0.00000000E+00  0.00000000E+00
  0.00000000E+00  0.00000000E+00  0.00000000E+00
  0.00000000E+00  0.00000000E+00  0.00000000E+00
  0.00000000E+00  0.00000000E+00  0.00000000E+00
  0.00000000E+00  0.00000000E+00  0.00000000E+00
  0.00000000E+00  0.00000000E+00  0.00000000E+00
  0.00000000E+00  0.00000000E+00  0.00000000E+00
  0.00000000E+00  0.00000000E+00  0.00000000E+00
  0.00000000E+00  0.00000000E+00  0.00000000E+00
  0.00000000E+00  0.00000000E+00  0.00000000E+00
  0.00000000E+00  0.00000000E+00  0.00000000E+00
  0.00000000E+00  0.00000000E+00  0.00000000E+00
  0.00000000E+00  0.00000000E+00  0.00000000E+00
  0.00000000E+00  0.00000000E+00  0.00000000E+00
  0.00000000E+00  0.00000000E+00  0.00000000E+00
  0.00000000E+00  0.00000000E+00  0.00000000E+00
  0.00000000E+00  0.00000000E+00  0.00000000E+00
  0.00000000E+00  0.00000000E+00  0.00000000E+00
