Title                                   
   1.00000000000000     
     9.8694509999999998    0.0000000000000000    0.0000000000000000
     0.0000000000000000    8.5490480000000009    0.0000000000000000
     0.0000000000000000    0.0000000000000000   20.0000000000000000
    26     5     1
Selective dynamics
Direct
  0.0557999493919861  0.0920107236212819  0.0874580991471472   T   T   T
  0.9297433472427420  0.1756621532189426  0.0889101239878538   T   T   T
  0.0565007087683796  0.9236001277853511  0.0869234929070316   T   T   T
  0.9287662714084571  0.3419822280328037  0.0901939739466187   T   T   T
  0.0562659890070830  0.5902589710709021  0.0871740590652273   T   T   T
  0.9315120077138438  0.6722628183169894  0.0881811390123943   T   T   T
  0.0556339943505955  0.4231729998265498  0.0899607079875478   T   T   T
  0.9315333448726519  0.8401161183276884  0.0880042044825258   T   T   T
  0.3055155703823079  0.0885853087945903  0.0895873797798098   T   T   T
  0.1819057742938794  0.1738598143591030  0.0888702456773573   T   T   T
  0.3075099786038539  0.9225857631055275  0.0910762641419788   T   T   T
  0.1815275656565473  0.3397506212748848  0.0916788433946208   T   T   T
  0.3065028209835971  0.5895912291162695  0.0995125733483093   T   T   T
  0.1816269827255604  0.6709271242189371  0.0895136425807128   T   T   T
  0.1823089294684991  0.8388613829389878  0.0887392208775307   T   T   T
  0.5567067872116159  0.0863910419490129  0.0966976547981930   T   T   T
  0.4309598673045337  0.1694731233804100  0.0940458847413197   T   T   T
  0.4326167933974243  0.3350660527797738  0.0976323428986614   T   T   T
  0.4303040277471079  0.8385032165194720  0.1012742168836654   T   T   T
  0.8066304647565844  0.0898069570808533  0.0899959371781989   T   T   T
  0.6810251816171211  0.1715966042401248  0.0943580755378786   T   T   T
  0.8063017035596453  0.9246521303787528  0.0903313272876977   T   T   T
  0.6772456886748515  0.3364293432549926  0.0963562357635921   T   T   T
  0.8053370213819018  0.5939556211024022  0.0938797887870752   T   T   T
  0.6838487214139853  0.8395443888832054  0.0978204379946702   T   T   T
  0.4223261240279767  0.6777233530452329  0.1188067754084488   T   T   T
  0.5540406128535992  0.4120871798732523  0.1044715541635321   T   T   T
  0.6892346225247715  0.6799346987570681  0.1054838424295348   T   T   T
  0.5579823385503729  0.9200838090853116  0.0997557880835329   T   T   T
  0.3086414985804641  0.4213231906016446  0.0965711944927624   T   T   T
  0.8007684318989342  0.4260257313884729  0.0920729015359424   T   T   T
  0.5630158796291319  0.5844221736712107  0.1703370716786445   T   T   T
 
  0.00000000E+00  0.00000000E+00  0.00000000E+00
  0.00000000E+00  0.00000000E+00  0.00000000E+00
  0.00000000E+00  0.00000000E+00  0.00000000E+00
  0.00000000E+00  0.00000000E+00  0.00000000E+00
  0.00000000E+00  0.00000000E+00  0.00000000E+00
  0.00000000E+00  0.00000000E+00  0.00000000E+00
  0.00000000E+00  0.00000000E+00  0.00000000E+00
  0.00000000E+00  0.00000000E+00  0.00000000E+00
  0.00000000E+00  0.00000000E+00  0.00000000E+00
  0.00000000E+00  0.00000000E+00  0.00000000E+00
  0.00000000E+00  0.00000000E+00  0.00000000E+00
  0.00000000E+00  0.00000000E+00  0.00000000E+00
  0.00000000E+00  0.00000000E+00  0.00000000E+00
  0.00000000E+00  0.00000000E+00  0.00000000E+00
  0.00000000E+00  0.00000000E+00  0.00000000E+00
  0.00000000E+00  0.00000000E+00  0.00000000E+00
  0.00000000E+00  0.00000000E+00  0.00000000E+00
  0.00000000E+00  0.00000000E+00  0.00000000E+00
  0.00000000E+00  0.00000000E+00  0.00000000E+00
  0.00000000E+00  0.00000000E+00  0.00000000E+00
  0.00000000E+00  0.00000000E+00  0.00000000E+00
  0.00000000E+00  0.00000000E+00  0.00000000E+00
  0.00000000E+00  0.00000000E+00  0.00000000E+00
  0.00000000E+00  0.00000000E+00  0.00000000E+00
  0.00000000E+00  0.00000000E+00  0.00000000E+00
  0.00000000E+00  0.00000000E+00  0.00000000E+00
  0.00000000E+00  0.00000000E+00  0.00000000E+00
  0.00000000E+00  0.00000000E+00  0.00000000E+00
  0.00000000E+00  0.00000000E+00  0.00000000E+00
  0.00000000E+00  0.00000000E+00  0.00000000E+00
  0.00000000E+00  0.00000000E+00  0.00000000E+00
  0.00000000E+00  0.00000000E+00  0.00000000E+00
