Title                                   
   1.00000000000000     
     8.5490480000000009    0.0000000000000000    0.0000000000000000
     0.0000000000000000    8.5490480000000009    0.0000000000000000
     0.0000000000000000    0.0000000000000000   20.0000000000000000
    21     3     1
Selective dynamics
Direct
  0.9094203452265945  0.2056132186979380  0.0954485896776755   T   T   T
  0.9059757205487031  0.5030453702679432  0.0953113042043613   T   T   T
  0.9100988650294192  0.7990656679329153  0.0954824830876678   T   T   T
  0.1967796782472692  0.0838505339472826  0.0954878240084562   T   T   T
  0.0750694644776396  0.2055359631313084  0.0954762244110819   T   T   T
  0.1968727968539668  0.9181886955107802  0.0954784347374640   T   T   T
  0.1551568354624588  0.6508902234022539  0.0953405078889508   T   T   T
  0.0757412943408231  0.5023343836595721  0.0953411932628236   T   T   T
  0.1543053114712089  0.3543723836361296  0.0954050549225300   T   T   T
  0.0768831311055037  0.7977436262760386  0.0954696583667254   T   T   T
  0.4934980244812895  0.0845536380325023  0.0953681295129316   T   T   T
  0.3455769038200160  0.1631535504797887  0.0954131898316120   T   T   T
  0.4942397501836893  0.9147748767380134  0.0953548395015070   T   T   T
  0.3447723620884311  0.8374298058329240  0.0953506707236488   T   T   T
  0.7889539565233227  0.0856436266346657  0.0954662248025902   T   T   T
  0.6420801665190881  0.1638943301874441  0.0953253036100432   T   T   T
  0.7903051739915854  0.9188751949567799  0.0954801873401158   T   T   T
  0.8297474187630454  0.6522858301725939  0.0953402916624194   T   T   T
  0.8286821541170712  0.3535259032389022  0.0952858931602635   T   T   T
  0.6434909504680302  0.8385655478050911  0.0953413757363034   T   T   T
  0.3213599448654496  0.3302306527303308  0.0953681245147732   T   T   T
  0.3198276837750085  0.6748064819521179  0.0951839884038180   T   T   T
  0.6660660442160536  0.3285177015688610  0.0951419835051781   T   T   T
  0.6679938893460861  0.6768279182314472  0.0951885032698659   T   T   T
  0.4925141340782397  0.5010648749763893  0.0948550198571711   T   T   T
 
  0.00000000E+00  0.00000000E+00  0.00000000E+00
  0.00000000E+00  0.00000000E+00  0.00000000E+00
  0.00000000E+00  0.00000000E+00  0.00000000E+00
  0.00000000E+00  0.00000000E+00  0.00000000E+00
  0.00000000E+00  0.00000000E+00  0.00000000E+00
  0.00000000E+00  0.00000000E+00  0.00000000E+00
  0.00000000E+00  0.00000000E+00  0.00000000E+00
  0.00000000E+00  0.00000000E+00  0.00000000E+00
  0.00000000E+00  0.00000000E+00  0.00000000E+00
  0.00000000E+00  0.00000000E+00  0.00000000E+00
  0.00000000E+00  0.00000000E+00  0.00000000E+00
  0.00000000E+00  0.00000000E+00  0.00000000E+00
  0.00000000E+00  0.00000000E+00  0.00000000E+00
  0.00000000E+00  0.00000000E+00  0.00000000E+00
  0.00000000E+00  0.00000000E+00  0.00000000E+00
  0.00000000E+00  0.00000000E+00  0.00000000E+00
  0.00000000E+00  0.00000000E+00  0.00000000E+00
  0.00000000E+00  0.00000000E+00  0.00000000E+00
  0.00000000E+00  0.00000000E+00  0.00000000E+00
  0.00000000E+00  0.00000000E+00  0.00000000E+00
  0.00000000E+00  0.00000000E+00  0.00000000E+00
  0.00000000E+00  0.00000000E+00  0.00000000E+00
  0.00000000E+00  0.00000000E+00  0.00000000E+00
  0.00000000E+00  0.00000000E+00  0.00000000E+00
  0.00000000E+00  0.00000000E+00  0.00000000E+00
