Title                                   
   1.00000000000000     
     9.8694509999999998    0.0000000000000000    0.0000000000000000
     0.0000000000000000    8.5490480000000009    0.0000000000000000
     0.0000000000000000    0.0000000000000000   20.0000000000000000
    28     2     1
Selective dynamics
Direct
  0.0561676699514872  0.0894617528869915  0.0827954426016047   T   T   T
  0.9305413372625624  0.1721858471745117  0.0805639620166161   T   T   T
  0.0572774632992644  0.9237092174077459  0.0828607136858373   T   T   T
  0.9326587960254207  0.3395881933299185  0.0798397807765182   T   T   T
  0.0574782430820471  0.5905257047606176  0.0839274931909442   T   T   T
  0.9330096311208176  0.6729843431038309  0.0800976435716480   T   T   T
  0.0575041434510406  0.4229153216593113  0.0837933724616624   T   T   T
  0.9314555474252931  0.8397166967501259  0.0807711501340888   T   T   T
  0.3058138406378506  0.0881589483069610  0.0951522910179093   T   T   T
  0.1817343937174040  0.1719698875484292  0.0890511967196979   T   T   T
  0.1817693374070380  0.3396016926389563  0.0918739415183971   T   T   T
  0.3032328972601580  0.5920755491120093  0.1095122324334179   T   T   T
  0.1822137762159858  0.6737351648240223  0.0918583323077610   T   T   T
  0.3032132558205278  0.4195858343590026  0.1093174090696653   T   T   T
  0.1821088597326272  0.8406473204584460  0.0891574266343676   T   T   T
  0.4289120023565467  0.1721803052415712  0.1073118237410850   T   T   T
  0.5541528417763071  0.9241918747071329  0.1024196291687180   T   T   T
  0.4239467878818155  0.3325287068573571  0.1230915545324289   T   T   T
  0.4213217401452069  0.6798452299812487  0.1249191921020213   T   T   T
  0.4267224658992200  0.8409153993551003  0.1098458726473752   T   T   T
  0.8046361393421203  0.0884000941170456  0.0827070918467227   T   T   T
  0.6795971427309100  0.1748510516045190  0.0895599957453707   T   T   T
  0.8054797594688364  0.9225187626487346  0.0830038278071042   T   T   T
  0.6818769724223964  0.3383148103099748  0.0882210017964092   T   T   T
  0.8063735065254354  0.5915422728605353  0.0803722843394656   T   T   T
  0.6826484621392371  0.6722800983244848  0.0882536814319721   T   T   T
  0.8063950031421582  0.4197679559735236  0.0800516454787635   T   T   T
  0.6794920245164724  0.8376278621353846  0.0908502410061523   T   T   T
  0.5558061707859183  0.0889047475593198  0.1012727757369008   T   T   T
  0.3040801989220550  0.9237123476535060  0.0951530250848259   T   T   T
  0.5855145895358405  0.5064320063497000  0.1633589693945754   T   T   T
 
  0.00000000E+00  0.00000000E+00  0.00000000E+00
  0.00000000E+00  0.00000000E+00  0.00000000E+00
  0.00000000E+00  0.00000000E+00  0.00000000E+00
  0.00000000E+00  0.00000000E+00  0.00000000E+00
  0.00000000E+00  0.00000000E+00  0.00000000E+00
  0.00000000E+00  0.00000000E+00  0.00000000E+00
  0.00000000E+00  0.00000000E+00  0.00000000E+00
  0.00000000E+00  0.00000000E+00  0.00000000E+00
  0.00000000E+00  0.00000000E+00  0.00000000E+00
  0.00000000E+00  0.00000000E+00  0.00000000E+00
  0.00000000E+00  0.00000000E+00  0.00000000E+00
  0.00000000E+00  0.00000000E+00  0.00000000E+00
  0.00000000E+00  0.00000000E+00  0.00000000E+00
  0.00000000E+00  0.00000000E+00  0.00000000E+00
  0.00000000E+00  0.00000000E+00  0.00000000E+00
  0.00000000E+00  0.00000000E+00  0.00000000E+00
  0.00000000E+00  0.00000000E+00  0.00000000E+00
  0.00000000E+00  0.00000000E+00  0.00000000E+00
  0.00000000E+00  0.00000000E+00  0.00000000E+00
  0.00000000E+00  0.00000000E+00  0.00000000E+00
  0.00000000E+00  0.00000000E+00  0.00000000E+00
  0.00000000E+00  0.00000000E+00  0.00000000E+00
  0.00000000E+00  0.00000000E+00  0.00000000E+00
  0.00000000E+00  0.00000000E+00  0.00000000E+00
  0.00000000E+00  0.00000000E+00  0.00000000E+00
  0.00000000E+00  0.00000000E+00  0.00000000E+00
  0.00000000E+00  0.00000000E+00  0.00000000E+00
  0.00000000E+00  0.00000000E+00  0.00000000E+00
  0.00000000E+00  0.00000000E+00  0.00000000E+00
  0.00000000E+00  0.00000000E+00  0.00000000E+00
  0.00000000E+00  0.00000000E+00  0.00000000E+00
