Title                                   
   1.00000000000000     
     4.9440799999999996    0.0000000000000000    0.0000000000000000
     0.0000000000000000   17.1295089999999988    0.0000000000000000
     0.0000000000000000    0.0000000000000000   20.0000000000000000
    28     3     1
Selective dynamics
Direct
  0.0012532257305249  0.1043424409414877  0.2935462076915401   T   T   T
  0.2513338370524147  0.1463169386365561  0.2961580294218861   T   T   T
  0.2510789211983059  0.2293791799751975  0.3025039508487361   T   T   T
  0.0041709104611669  0.3521760769215090  0.3141493380272242   T   T   T
 -0.0003171888763392  0.2709360160116671  0.3042228725703319   T   T   T
 -0.0015594619895725  0.5998966739374120  0.2941410176376719   T   T   T
  0.2523527939365236  0.7268081170806314  0.2925020913027351   T   T   T
  0.0030735020187279  0.8531784631276278  0.2899384391691706   T   T   T
  0.2525776948926223  0.8951843188055338  0.2901662322509260   T   T   T
  0.2520177532050822  0.9788134637155805  0.2907243831517475   T   T   T
  0.0040686307188988  0.7695995010148167  0.2907748293325181   T   T   T
  0.5012050167956068  0.1042580981217858  0.2937820605461953   T   T   T
  0.7507554244152537  0.1464057977554213  0.2949070936053850   T   T   T
  0.7498941287891183  0.2294485366560440  0.2994631018846866   T   T   T
  0.5018628673707745  0.0207398494494229  0.2913745686614364   T   T   T
  0.4956955085906590  0.3537718497358506  0.3156493552361180   T   T   T
  0.7590819288624078  0.4802988163602457  0.3097685120258845   T   T   T
  0.5010445101355839  0.2716544454956810  0.3053306705656353   T   T   T
  0.5087798084503596  0.6036793288493444  0.3021390400628127   T   T   T
  0.7541396041893910  0.7281580560190923  0.2926072064760201   T   T   T
  0.5021386149958147  0.8529959349819214  0.2906137378609185   T   T   T
  0.7523318981644764  0.8950014108073889  0.2900455303584357   T   T   T
  0.7519588843557604  0.9786651771630012  0.2904597288554522   T   T   T
  0.5021759586073783  0.7691728905346484  0.2921913224990073   T   T   T
  0.7539914070446605  0.6451549537605775  0.2959815359084505   T   T   T
  0.2534791876147222  0.6421772898574751  0.2953182693071969   T   T   T
  0.0017634713220247  0.0208445714344279  0.2911780234283430   T   T   T
  0.5273554099573232  0.5236523800516116  0.3240791009584066   T   T   T
  0.9869560995040496  0.5170820339053470  0.2775476181043190   T   T   T
  0.2475485952227964  0.3903954516698493  0.3290037075561552   T   T   T
  0.7516025738665255  0.3955725147995329  0.3137676104520689   T   T   T
  0.1730114833969663  0.5027904224233021  0.3685298142425367   T   T   T
 
  0.00000000E+00  0.00000000E+00  0.00000000E+00
  0.00000000E+00  0.00000000E+00  0.00000000E+00
  0.00000000E+00  0.00000000E+00  0.00000000E+00
  0.00000000E+00  0.00000000E+00  0.00000000E+00
  0.00000000E+00  0.00000000E+00  0.00000000E+00
  0.00000000E+00  0.00000000E+00  0.00000000E+00
  0.00000000E+00  0.00000000E+00  0.00000000E+00
  0.00000000E+00  0.00000000E+00  0.00000000E+00
  0.00000000E+00  0.00000000E+00  0.00000000E+00
  0.00000000E+00  0.00000000E+00  0.00000000E+00
  0.00000000E+00  0.00000000E+00  0.00000000E+00
  0.00000000E+00  0.00000000E+00  0.00000000E+00
  0.00000000E+00  0.00000000E+00  0.00000000E+00
  0.00000000E+00  0.00000000E+00  0.00000000E+00
  0.00000000E+00  0.00000000E+00  0.00000000E+00
  0.00000000E+00  0.00000000E+00  0.00000000E+00
  0.00000000E+00  0.00000000E+00  0.00000000E+00
  0.00000000E+00  0.00000000E+00  0.00000000E+00
  0.00000000E+00  0.00000000E+00  0.00000000E+00
  0.00000000E+00  0.00000000E+00  0.00000000E+00
  0.00000000E+00  0.00000000E+00  0.00000000E+00
  0.00000000E+00  0.00000000E+00  0.00000000E+00
  0.00000000E+00  0.00000000E+00  0.00000000E+00
  0.00000000E+00  0.00000000E+00  0.00000000E+00
  0.00000000E+00  0.00000000E+00  0.00000000E+00
  0.00000000E+00  0.00000000E+00  0.00000000E+00
  0.00000000E+00  0.00000000E+00  0.00000000E+00
  0.00000000E+00  0.00000000E+00  0.00000000E+00
  0.00000000E+00  0.00000000E+00  0.00000000E+00
  0.00000000E+00  0.00000000E+00  0.00000000E+00
  0.00000000E+00  0.00000000E+00  0.00000000E+00
  0.00000000E+00  0.00000000E+00  0.00000000E+00
