Title                                   
   1.00000000000000     
     8.5490480000000009    0.0000000000000000    0.0000000000000000
     0.0000000000000000    8.5490480000000009    0.0000000000000000
     0.0000000000000000    0.0000000000000000   20.0000000000000000
    19     5     1
Selective dynamics
Direct
  0.9078055542640255  0.2053323163456535  0.0975203356164239   T   T   T
  0.9082907911664863  0.5024878519252109  0.0977264090018874   T   T   T
  0.9100341385844931  0.8014638673459294  0.0975066428820192   T   T   T
  0.1965938794461705  0.0836043806142211  0.0976506957719401   T   T   T
  0.0758068998922593  0.2022322623920023  0.0975503338128906   T   T   T
  0.1576464427878508  0.6516720191282289  0.0976916525497715   T   T   T
  0.0790587062308860  0.5010875263652191  0.0977108321006566   T   T   T
  0.1575840802043742  0.3509919204810331  0.0977534301073501   T   T   T
  0.0783686966908725  0.7984653448079410  0.0975605794670303   T   T   T
  0.4928611175002777  0.0873948171117790  0.0978503053648523   T   T   T
  0.3435315077030279  0.1643680363152900  0.0978896678494375   T   T   T
  0.4923448756837628  0.9169329426409104  0.0977645851091164   T   T   T
  0.3435779548505537  0.8372380617975295  0.0977505526131702   T   T   T
  0.7876234918378660  0.0865252387666019  0.0975468588231510   T   T   T
  0.6406080938492923  0.1670931291101265  0.0978338260406623   T   T   T
  0.7883880376305923  0.9192162393374281  0.0975207495637946   T   T   T
  0.8303961649433107  0.6520527661833775  0.0977011499150766   T   T   T
  0.8285307556085596  0.3534305478883997  0.0977636933448507   T   T   T
  0.6412856484288361  0.8369170187391882  0.0977288913593454   T   T   T
  0.3198259149053857  0.3266775993959347  0.0980522919112110   T   T   T
  0.3199981344465324  0.6778504432058066  0.0978740591752217   T   T   T
  0.6653155262328974  0.3301502799830716  0.0980396489474991   T   T   T
  0.6672052143625836  0.6746355305928288  0.0979172685788497   T   T   T
  0.1978953600831811  0.9162451883305974  0.0976550696192265   T   T   T
  0.4948350126659155  0.5007246711956893  0.0981454704745452   T   T   T
 
  0.00000000E+00  0.00000000E+00  0.00000000E+00
  0.00000000E+00  0.00000000E+00  0.00000000E+00
  0.00000000E+00  0.00000000E+00  0.00000000E+00
  0.00000000E+00  0.00000000E+00  0.00000000E+00
  0.00000000E+00  0.00000000E+00  0.00000000E+00
  0.00000000E+00  0.00000000E+00  0.00000000E+00
  0.00000000E+00  0.00000000E+00  0.00000000E+00
  0.00000000E+00  0.00000000E+00  0.00000000E+00
  0.00000000E+00  0.00000000E+00  0.00000000E+00
  0.00000000E+00  0.00000000E+00  0.00000000E+00
  0.00000000E+00  0.00000000E+00  0.00000000E+00
  0.00000000E+00  0.00000000E+00  0.00000000E+00
  0.00000000E+00  0.00000000E+00  0.00000000E+00
  0.00000000E+00  0.00000000E+00  0.00000000E+00
  0.00000000E+00  0.00000000E+00  0.00000000E+00
  0.00000000E+00  0.00000000E+00  0.00000000E+00
  0.00000000E+00  0.00000000E+00  0.00000000E+00
  0.00000000E+00  0.00000000E+00  0.00000000E+00
  0.00000000E+00  0.00000000E+00  0.00000000E+00
  0.00000000E+00  0.00000000E+00  0.00000000E+00
  0.00000000E+00  0.00000000E+00  0.00000000E+00
  0.00000000E+00  0.00000000E+00  0.00000000E+00
  0.00000000E+00  0.00000000E+00  0.00000000E+00
  0.00000000E+00  0.00000000E+00  0.00000000E+00
  0.00000000E+00  0.00000000E+00  0.00000000E+00
