Title                                   
   1.00000000000000     
     9.8694509999999998    0.0000000000000000    0.0000000000000000
     0.0000000000000000    8.5490480000000009    0.0000000000000000
     0.0000000000000000    0.0000000000000000   20.0000000000000000
    30     1     1
Selective dynamics
Direct
  0.0562482880096513  0.0900225380566224  0.0821500399176979   T   T   T
  0.9312298086031567  0.1734251298768761  0.0847916879678257   T   T   T
  0.0562285023011394  0.9228263179967985  0.0817782989467452   T   T   T
  0.9307190143365017  0.3401772835325494  0.0894598814612848   T   T   T
  0.0562331057815659  0.5893227027829362  0.0872419366787569   T   T   T
  0.9316252744648884  0.6727049683992665  0.0884869247395669   T   T   T
  0.0562312947772738  0.4227539846675419  0.0885129184277408   T   T   T
  0.9310588983160980  0.8390902440229315  0.0844993854909255   T   T   T
  0.3052801456486524  0.0890852918593438  0.0853171351910569   T   T   T
  0.1812594370361842  0.1734319841841475  0.0847875167554073   T   T   T
  0.3065051113559537  0.9239551076290169  0.0856607949385147   T   T   T
  0.1817614091988783  0.3401769824321550  0.0894545520195315   T   T   T
  0.3050172574836695  0.5912440662877156  0.0999642913882955   T   T   T
  0.1808538604561734  0.6726915719499846  0.0884538654850472   T   T   T
  0.3064614275136060  0.4229553181921142  0.0983409744688411   T   T   T
  0.1813949623747372  0.8390755422584563  0.0844737116130984   T   T   T
  0.5562415517519865  0.0874526039929510  0.0925520155446949   T   T   T
  0.4307714301000656  0.1693700412054140  0.0915244089529099   T   T   T
  0.4308514720579671  0.3345133263125959  0.1011682356876669   T   T   T
  0.4238196840144794  0.6824764036522462  0.1132427169506135   T   T   T
  0.5562361635600298  0.4070574991435518  0.1144169051423675   T   T   T
  0.4301843598024196  0.8419275018110158  0.0970418994130676   T   T   T
  0.8071996819539912  0.0890812288013738  0.0853253552027635   T   T   T
  0.6817220830480927  0.1693836218920948  0.0915391353820356   T   T   T
  0.8059380805446144  0.9239599157611851  0.0856792027507750   T   T   T
  0.6816381060831512  0.3345249868264795  0.1011790162931001   T   T   T
  0.8074953737328618  0.5912350766533514  0.1000070484024074   T   T   T
  0.6887017962604691  0.6824820004536376  0.1132924824278408   T   T   T
  0.8060236966270389  0.4229584621856350  0.0983570331338120   T   T   T
  0.6822669736467274  0.8419151065087840  0.0970668017900043   T   T   T
  0.5562265175187648  0.9230946432538553  0.0959373634780122   T   T   T
  0.5562142316392167  0.5858745474173807  0.1839714639576263   T   T   T
 
  0.00000000E+00  0.00000000E+00  0.00000000E+00
  0.00000000E+00  0.00000000E+00  0.00000000E+00
  0.00000000E+00  0.00000000E+00  0.00000000E+00
  0.00000000E+00  0.00000000E+00  0.00000000E+00
  0.00000000E+00  0.00000000E+00  0.00000000E+00
  0.00000000E+00  0.00000000E+00  0.00000000E+00
  0.00000000E+00  0.00000000E+00  0.00000000E+00
  0.00000000E+00  0.00000000E+00  0.00000000E+00
  0.00000000E+00  0.00000000E+00  0.00000000E+00
  0.00000000E+00  0.00000000E+00  0.00000000E+00
  0.00000000E+00  0.00000000E+00  0.00000000E+00
  0.00000000E+00  0.00000000E+00  0.00000000E+00
  0.00000000E+00  0.00000000E+00  0.00000000E+00
  0.00000000E+00  0.00000000E+00  0.00000000E+00
  0.00000000E+00  0.00000000E+00  0.00000000E+00
  0.00000000E+00  0.00000000E+00  0.00000000E+00
  0.00000000E+00  0.00000000E+00  0.00000000E+00
  0.00000000E+00  0.00000000E+00  0.00000000E+00
  0.00000000E+00  0.00000000E+00  0.00000000E+00
  0.00000000E+00  0.00000000E+00  0.00000000E+00
  0.00000000E+00  0.00000000E+00  0.00000000E+00
  0.00000000E+00  0.00000000E+00  0.00000000E+00
  0.00000000E+00  0.00000000E+00  0.00000000E+00
  0.00000000E+00  0.00000000E+00  0.00000000E+00
  0.00000000E+00  0.00000000E+00  0.00000000E+00
  0.00000000E+00  0.00000000E+00  0.00000000E+00
  0.00000000E+00  0.00000000E+00  0.00000000E+00
  0.00000000E+00  0.00000000E+00  0.00000000E+00
  0.00000000E+00  0.00000000E+00  0.00000000E+00
  0.00000000E+00  0.00000000E+00  0.00000000E+00
  0.00000000E+00  0.00000000E+00  0.00000000E+00
  0.00000000E+00  0.00000000E+00  0.00000000E+00
