Title                                   
   1.00000000000000     
     9.8694509999999998    0.0000000000000000    0.0000000000000000
     0.0000000000000000    8.5490480000000009    0.0000000000000000
     0.0000000000000000    0.0000000000000000   20.0000000000000000
    25     5     1
Selective dynamics
Direct
  0.0558589369758581  0.0890497046637744  0.0935058198128182   T   T   T
  0.9311113762290580  0.1734528396066109  0.0970793685502016   T   T   T
  0.0583705326241344  0.9209740452621347  0.0934020151545608   T   T   T
  0.9329679747689844  0.3408036248298834  0.0985482524045521   T   T   T
  0.0575497911467480  0.5907375347661125  0.0950002864373024   T   T   T
  0.0566753456841185  0.4236169769078581  0.0951566426819102   T   T   T
  0.9334341671799342  0.8399982327120854  0.0981300214563255   T   T   T
  0.3079935131542828  0.0866698427135341  0.0867838966875511   T   T   T
  0.1809792647363629  0.1706008651895442  0.0904334778414449   T   T   T
  0.1799711816088349  0.3369653006692693  0.0913006187628271   T   T   T
  0.3065454698258767  0.5860024760326482  0.0801081838588427   T   T   T
  0.1813952768500999  0.6724028545462312  0.0893284149724977   T   T   T
  0.3045475890716697  0.4172474300600101  0.0844682003061789   T   T   T
  0.1836227252536563  0.8386473596003288  0.0887880249308423   T   T   T
  0.4305387772779937  0.1685898131405335  0.0870629213582298   T   T   T
  0.5580262473774664  0.9213803336872595  0.0936137989459832   T   T   T
  0.4296532647000035  0.6760851908657903  0.0746499969057936   T   T   T
  0.4319469964693397  0.8389032624402619  0.0829208700602379   T   T   T
  0.8047508569331864  0.0904566833050888  0.0981412226496359   T   T   T
  0.6804947861327597  0.1796046289265334  0.0995657050356609   T   T   T
  0.8073679121675134  0.9222763624546054  0.0994141016807638   T   T   T
  0.6830097512673035  0.3464785315778558  0.1068617715770925   T   T   T
  0.8119365245061620  0.5938692666893104  0.1055106617400510   T   T   T
  0.8099847531823987  0.4262976653827299  0.1037882801355734   T   T   T
  0.6820922249860157  0.8375093522786237  0.1019081807538598   T   T   T
  0.9337229490262383  0.6739154360468136  0.0993116019131332   T   T   T
  0.5574718680707602  0.0925082279443432  0.0931242153344554   T   T   T
  0.4262912636052024  0.3311890012166052  0.0861552084868294   T   T   T
  0.6902273163114774  0.6728323538268859  0.1127810537706462   T   T   T
  0.3069318488742018  0.9214513232441290  0.0846981316492677   T   T   T
  0.5276645140023594  0.5103584794126299  0.1294240541449647   T   T   T
 
  0.00000000E+00  0.00000000E+00  0.00000000E+00
  0.00000000E+00  0.00000000E+00  0.00000000E+00
  0.00000000E+00  0.00000000E+00  0.00000000E+00
  0.00000000E+00  0.00000000E+00  0.00000000E+00
  0.00000000E+00  0.00000000E+00  0.00000000E+00
  0.00000000E+00  0.00000000E+00  0.00000000E+00
  0.00000000E+00  0.00000000E+00  0.00000000E+00
  0.00000000E+00  0.00000000E+00  0.00000000E+00
  0.00000000E+00  0.00000000E+00  0.00000000E+00
  0.00000000E+00  0.00000000E+00  0.00000000E+00
  0.00000000E+00  0.00000000E+00  0.00000000E+00
  0.00000000E+00  0.00000000E+00  0.00000000E+00
  0.00000000E+00  0.00000000E+00  0.00000000E+00
  0.00000000E+00  0.00000000E+00  0.00000000E+00
  0.00000000E+00  0.00000000E+00  0.00000000E+00
  0.00000000E+00  0.00000000E+00  0.00000000E+00
  0.00000000E+00  0.00000000E+00  0.00000000E+00
  0.00000000E+00  0.00000000E+00  0.00000000E+00
  0.00000000E+00  0.00000000E+00  0.00000000E+00
  0.00000000E+00  0.00000000E+00  0.00000000E+00
  0.00000000E+00  0.00000000E+00  0.00000000E+00
  0.00000000E+00  0.00000000E+00  0.00000000E+00
  0.00000000E+00  0.00000000E+00  0.00000000E+00
  0.00000000E+00  0.00000000E+00  0.00000000E+00
  0.00000000E+00  0.00000000E+00  0.00000000E+00
  0.00000000E+00  0.00000000E+00  0.00000000E+00
  0.00000000E+00  0.00000000E+00  0.00000000E+00
  0.00000000E+00  0.00000000E+00  0.00000000E+00
  0.00000000E+00  0.00000000E+00  0.00000000E+00
  0.00000000E+00  0.00000000E+00  0.00000000E+00
  0.00000000E+00  0.00000000E+00  0.00000000E+00
