Title                                   
   1.00000000000000     
     9.8694509999999998    0.0000000000000000    0.0000000000000000
     0.0000000000000000    8.5490480000000009    0.0000000000000000
     0.0000000000000000    0.0000000000000000   20.0000000000000000
    27     4     1
Selective dynamics
Direct
  0.0556975976052222  0.0914779598783060  0.0870126630168202   T   T   T
  0.9296973208739263  0.1749166593310749  0.0891045545209433   T   T   T
  0.0563415133951239  0.9229428141635735  0.0847658362689453   T   T   T
  0.9295885139459347  0.3411598338134455  0.0926160720282979   T   T   T
  0.0560028954756857  0.5892516846323135  0.0879249069513455   T   T   T
  0.9320189422676047  0.6713639602755141  0.0865838022065392   T   T   T
  0.0555063488513684  0.4222803481547694  0.0921397034179314   T   T   T
  0.9314918644312263  0.8394175333231829  0.0851517137884037   T   T   T
  0.3050298373898223  0.0885473068488920  0.0885509242755165   T   T   T
  0.1815135714979239  0.1734673417131853  0.0898912207163844   T   T   T
  0.3066117134734782  0.9227317792405474  0.0877240836869285   T   T   T
  0.1807759289180384  0.3394992577923704  0.0943182144933547   T   T   T
  0.3048843741908809  0.5887069198124184  0.0994019204697038   T   T   T
  0.1804753125538276  0.6699972400588572  0.0886092730547454   T   T   T
  0.1818874459452069  0.8381579914046067  0.0862103790544014   T   T   T
  0.5562298543552788  0.0872258961967296  0.0943435480049880   T   T   T
  0.4303747420687517  0.1692649610448644  0.0939989031893050   T   T   T
  0.4310858235248176  0.3351997959530780  0.1034761788315848   T   T   T
  0.4293862888026141  0.8374176278531165  0.0964201841000075   T   T   T
  0.8065862020149960  0.0896659589680564  0.0878108900177988   T   T   T
  0.6810832468260579  0.1711035389162756  0.0928651192510448   T   T   T
  0.8066248051481902  0.9243335666312007  0.0869244552735043   T   T   T
  0.6783979296093741  0.3367070741702853  0.1012104254780570   T   T   T
  0.8066291499870576  0.5924673187863453  0.0936344686835153   T   T   T
  0.6846492140191063  0.8385840137412587  0.0937064304284286   T   T   T
  0.4230832629364413  0.6757707898682138  0.1107216412378683   T   T   T
  0.5546442243960680  0.4119050405369754  0.1164484484997223   T   T   T
  0.6907998269700207  0.6784804685760296  0.1020015429870136   T   T   T
  0.5571000337702741  0.9175972904497126  0.0951612449705727   T   T   T
  0.3060090498745387  0.4209119591153556  0.1008502686008214   T   T   T
  0.8029851781444036  0.4249664049003393  0.0970400069562461   T   T   T
  0.5664469867367460  0.6047256638491083  0.1790559755392764   T   T   T
 
  0.00000000E+00  0.00000000E+00  0.00000000E+00
  0.00000000E+00  0.00000000E+00  0.00000000E+00
  0.00000000E+00  0.00000000E+00  0.00000000E+00
  0.00000000E+00  0.00000000E+00  0.00000000E+00
  0.00000000E+00  0.00000000E+00  0.00000000E+00
  0.00000000E+00  0.00000000E+00  0.00000000E+00
  0.00000000E+00  0.00000000E+00  0.00000000E+00
  0.00000000E+00  0.00000000E+00  0.00000000E+00
  0.00000000E+00  0.00000000E+00  0.00000000E+00
  0.00000000E+00  0.00000000E+00  0.00000000E+00
  0.00000000E+00  0.00000000E+00  0.00000000E+00
  0.00000000E+00  0.00000000E+00  0.00000000E+00
  0.00000000E+00  0.00000000E+00  0.00000000E+00
  0.00000000E+00  0.00000000E+00  0.00000000E+00
  0.00000000E+00  0.00000000E+00  0.00000000E+00
  0.00000000E+00  0.00000000E+00  0.00000000E+00
  0.00000000E+00  0.00000000E+00  0.00000000E+00
  0.00000000E+00  0.00000000E+00  0.00000000E+00
  0.00000000E+00  0.00000000E+00  0.00000000E+00
  0.00000000E+00  0.00000000E+00  0.00000000E+00
  0.00000000E+00  0.00000000E+00  0.00000000E+00
  0.00000000E+00  0.00000000E+00  0.00000000E+00
  0.00000000E+00  0.00000000E+00  0.00000000E+00
  0.00000000E+00  0.00000000E+00  0.00000000E+00
  0.00000000E+00  0.00000000E+00  0.00000000E+00
  0.00000000E+00  0.00000000E+00  0.00000000E+00
  0.00000000E+00  0.00000000E+00  0.00000000E+00
  0.00000000E+00  0.00000000E+00  0.00000000E+00
  0.00000000E+00  0.00000000E+00  0.00000000E+00
  0.00000000E+00  0.00000000E+00  0.00000000E+00
  0.00000000E+00  0.00000000E+00  0.00000000E+00
  0.00000000E+00  0.00000000E+00  0.00000000E+00
