Title                                   
   1.00000000000000     
     4.9440799999999996    0.0000000000000000    0.0000000000000000
     0.0000000000000000    8.5647549999999999    0.0000000000000000
     0.0000000000000000    0.0000000000000000   20.0000000000000000
    14     1     1
Selective dynamics
Direct
  0.2500000000000000  0.2071624652465388  0.0895739219803658   T   T   T
 -0.0029448201848229  0.2877151888236567  0.0945434969274837   T   T   T
  0.2500000000000000  0.0422507865413230  0.0830062719217197   T   T   T
  0.0016922885759527  0.7973429858648654  0.0985786433420451   T   T   T
 -0.0003734850826906  0.9588439541250580  0.0833939209764222   T   T   T
  0.7500000000000000  0.2059444142823014  0.0841475298433927   T   T   T
  0.5029448201848228  0.2877151888236567  0.0945434969274837   T   T   T
  0.7500000000000000  0.0404484125825354  0.0788409011292218   T   T   T
  0.7500000000000000  0.7099982542269192  0.1049098547942297   T   T   T
  0.4983077114240473  0.7973429858648654  0.0985786433420451   T   T   T
  0.7500000000000000  0.5409230185958490  0.1108089098891604   T   T   T
  0.5003734850826909  0.9588439541250580  0.0833939209764222   T   T   T
  0.5128136353700761  0.4466228387140616  0.1147547363382905   T   T   T
 -0.0128136353700757  0.4466228387140616  0.1147547363382905   T   T   T
  0.2500000000000000  0.7300519686215270  0.1139692350480445   T   T   T
  0.2500000000000000  0.5421707448477217  0.1747137802253900   T   T   T
 
  0.00000000E+00  0.00000000E+00  0.00000000E+00
  0.00000000E+00  0.00000000E+00  0.00000000E+00
  0.00000000E+00  0.00000000E+00  0.00000000E+00
  0.00000000E+00  0.00000000E+00  0.00000000E+00
  0.00000000E+00  0.00000000E+00  0.00000000E+00
  0.00000000E+00  0.00000000E+00  0.00000000E+00
  0.00000000E+00  0.00000000E+00  0.00000000E+00
  0.00000000E+00  0.00000000E+00  0.00000000E+00
  0.00000000E+00  0.00000000E+00  0.00000000E+00
  0.00000000E+00  0.00000000E+00  0.00000000E+00
  0.00000000E+00  0.00000000E+00  0.00000000E+00
  0.00000000E+00  0.00000000E+00  0.00000000E+00
  0.00000000E+00  0.00000000E+00  0.00000000E+00
  0.00000000E+00  0.00000000E+00  0.00000000E+00
  0.00000000E+00  0.00000000E+00  0.00000000E+00
  0.00000000E+00  0.00000000E+00  0.00000000E+00
