Title                                   
   1.00000000000000     
     4.9440799999999996    0.0000000000000000    0.0000000000000000
     0.0000000000000000   17.1295089999999988    0.0000000000000000
     0.0000000000000000    0.0000000000000000   20.0000000000000000
    28     2     1
Selective dynamics
Direct
 -0.0016525506178510  0.1043747821345051  0.2968083698792855   T   T   T
  0.2473978382111696  0.1470193876759027  0.2982992836577617   T   T   T
  0.2472697401948608  0.2307145097756190  0.3007463350242373   T   T   T
 -0.0058939215234253  0.2719072456655275  0.2986818711314602   T   T   T
  0.0020652983552948  0.6044842134137329  0.2960778210054794   T   T   T
  0.2517539523675678  0.7273189711018831  0.2988424333875631   T   T   T
  0.0011882177730508  0.8533532800276461  0.2965041480106424   T   T   T
  0.2498132540406156  0.8955515736022417  0.2964756310560492   T   T   T
  0.2489943354655583  0.9789854641868935  0.2961417082229882   T   T   T
  0.0018499594280525  0.7696523744488681  0.2971669102436753   T   T   T
  0.4978527627379792  0.1045268512304162  0.2978907548769059   T   T   T
  0.7483528896134198  0.1457706265704823  0.2980848876844367   T   T   T
  0.7468064693431802  0.2291539054195120  0.3003205759399288   T   T   T
  0.4986610644949047  0.0208849684732394  0.2966180619764269   T   T   T
  0.7551844478248221  0.3925205986917734  0.3023223052718529   T   T   T
  0.7577246462819776  0.4820744096826907  0.3000920888215706   T   T   T
  0.4999103157481868  0.2717388364774562  0.3051726098175344   T   T   T
  0.5031169458873280  0.6033382802551199  0.3044792877633525   T   T   T
  0.7508083000121584  0.7290317979084279  0.2983110074265466   T   T   T
  0.4990801289782312  0.8534771644698114  0.2973578049223085   T   T   T
  0.7499058570365413  0.8950511480952509  0.2964871174485322   T   T   T
  0.7490216500080317  0.9788404751897625  0.2961671273101301   T   T   T
  0.5001614271428211  0.7699005326555791  0.2988933456517359   T   T   T
  0.7512747083554306  0.6465245499721906  0.2992797146841556   T   T   T
 -0.0011302624238747  0.0207864772867947  0.2960193019981730   T   T   T
  0.5127636493944443  0.5210705853415346  0.3117817123632021   T   T   T
  0.9970421634023588  0.5233282797147704  0.2913262934018102   T   T   T
  0.5128282625151184  0.3538148487064917  0.3140411617811134   T   T   T
 -0.0151515781950214  0.3518778693967333  0.2947753567952722   T   T   T
  0.2529319395881077  0.6457152432767652  0.3003207098762518   T   T   T
  0.2500750885589623  0.4385527491523744  0.3095742625695697   T   T   T
 
  0.00000000E+00  0.00000000E+00  0.00000000E+00
  0.00000000E+00  0.00000000E+00  0.00000000E+00
  0.00000000E+00  0.00000000E+00  0.00000000E+00
  0.00000000E+00  0.00000000E+00  0.00000000E+00
  0.00000000E+00  0.00000000E+00  0.00000000E+00
  0.00000000E+00  0.00000000E+00  0.00000000E+00
  0.00000000E+00  0.00000000E+00  0.00000000E+00
  0.00000000E+00  0.00000000E+00  0.00000000E+00
  0.00000000E+00  0.00000000E+00  0.00000000E+00
  0.00000000E+00  0.00000000E+00  0.00000000E+00
  0.00000000E+00  0.00000000E+00  0.00000000E+00
  0.00000000E+00  0.00000000E+00  0.00000000E+00
  0.00000000E+00  0.00000000E+00  0.00000000E+00
  0.00000000E+00  0.00000000E+00  0.00000000E+00
  0.00000000E+00  0.00000000E+00  0.00000000E+00
  0.00000000E+00  0.00000000E+00  0.00000000E+00
  0.00000000E+00  0.00000000E+00  0.00000000E+00
  0.00000000E+00  0.00000000E+00  0.00000000E+00
  0.00000000E+00  0.00000000E+00  0.00000000E+00
  0.00000000E+00  0.00000000E+00  0.00000000E+00
  0.00000000E+00  0.00000000E+00  0.00000000E+00
  0.00000000E+00  0.00000000E+00  0.00000000E+00
  0.00000000E+00  0.00000000E+00  0.00000000E+00
  0.00000000E+00  0.00000000E+00  0.00000000E+00
  0.00000000E+00  0.00000000E+00  0.00000000E+00
  0.00000000E+00  0.00000000E+00  0.00000000E+00
  0.00000000E+00  0.00000000E+00  0.00000000E+00
  0.00000000E+00  0.00000000E+00  0.00000000E+00
  0.00000000E+00  0.00000000E+00  0.00000000E+00
  0.00000000E+00  0.00000000E+00  0.00000000E+00
  0.00000000E+00  0.00000000E+00  0.00000000E+00
