Title                                   
   1.00000000000000     
     4.9440799999999996    0.0000000000000000    0.0000000000000000
     0.0000000000000000   17.1295089999999988    0.0000000000000000
     0.0000000000000000    0.0000000000000000   20.0000000000000000
    29     1     1
Selective dynamics
Direct
  0.0002983470523452  0.1048798808193537  0.2941021332343048   T   T   T
  0.2505008534449126  0.1469216644357395  0.2949095979615505   T   T   T
  0.2502255948598510  0.2303408001011842  0.2980166375354745   T   T   T
  0.0015012036659683  0.2731426400116937  0.3001129424399981   T   T   T
  0.0028369726625962  0.6022306746491120  0.2999811041556109   T   T   T
  0.2503760314309191  0.7270648054611237  0.2952693334433559   T   T   T
  0.0016274219840062  0.8529727325834657  0.2937874753568187   T   T   T
  0.2507321164705134  0.8952080424230070  0.2937402666792194   T   T   T
  0.2507774582967941  0.9790718047444001  0.2936563508222998   T   T   T
  0.0011467016365166  0.7689316149658133  0.2943106361285548   T   T   T
  0.5007944469161544  0.1048715837279051  0.2941173594754324   T   T   T
  0.7504729661843770  0.1471128035549110  0.2946631787561879   T   T   T
  0.7501856099643005  0.2311150283431692  0.2973860173393774   T   T   T
  0.5008899870162967  0.0210111997844565  0.2936786309996259   T   T   T
  0.7500386350813012  0.3964154931185140  0.3083106715594117   T   T   T
  0.7500226764920663  0.4815186667126126  0.3083702358859577   T   T   T
  0.4987925397231971  0.2731749071248168  0.3002055319303969   T   T   T
  0.4973756072756177  0.6021997400969776  0.3000633734610340   T   T   T
  0.7503760365605129  0.7274952071512880  0.2945688071075512   T   T   T
  0.4997360896206657  0.8529755353010336  0.2937910388575469   T   T   T
  0.7507233117072070  0.8947844300564478  0.2936987252987721   T   T   T
  0.7507797508834489  0.9787798612462163  0.2936553720373735   T   T   T
  0.4997349754586239  0.7689406903091165  0.2943211254767306   T   T   T
  0.7501407453160894  0.6445219556253237  0.2969676725233472   T   T   T
  0.0006187819571240  0.0210114008855189  0.2936736677863638   T   T   T
  0.4955253927529387  0.5203605402907959  0.3070616407158356   T   T   T
  0.0043959277461611  0.5203931543243365  0.3068693669171270   T   T   T
  0.4983772320175437  0.3560799136748588  0.3070855949552254   T   T   T
  0.0015416239165769  0.3560352983612379  0.3069127013985172   T   T   T
  0.2501543817846184  0.6449373859547545  0.2980327173805363   T   T   T
  0.2493075801207573  0.4368425441608129  0.3437400923804138   T   T   T
 
  0.00000000E+00  0.00000000E+00  0.00000000E+00
  0.00000000E+00  0.00000000E+00  0.00000000E+00
  0.00000000E+00  0.00000000E+00  0.00000000E+00
  0.00000000E+00  0.00000000E+00  0.00000000E+00
  0.00000000E+00  0.00000000E+00  0.00000000E+00
  0.00000000E+00  0.00000000E+00  0.00000000E+00
  0.00000000E+00  0.00000000E+00  0.00000000E+00
  0.00000000E+00  0.00000000E+00  0.00000000E+00
  0.00000000E+00  0.00000000E+00  0.00000000E+00
  0.00000000E+00  0.00000000E+00  0.00000000E+00
  0.00000000E+00  0.00000000E+00  0.00000000E+00
  0.00000000E+00  0.00000000E+00  0.00000000E+00
  0.00000000E+00  0.00000000E+00  0.00000000E+00
  0.00000000E+00  0.00000000E+00  0.00000000E+00
  0.00000000E+00  0.00000000E+00  0.00000000E+00
  0.00000000E+00  0.00000000E+00  0.00000000E+00
  0.00000000E+00  0.00000000E+00  0.00000000E+00
  0.00000000E+00  0.00000000E+00  0.00000000E+00
  0.00000000E+00  0.00000000E+00  0.00000000E+00
  0.00000000E+00  0.00000000E+00  0.00000000E+00
  0.00000000E+00  0.00000000E+00  0.00000000E+00
  0.00000000E+00  0.00000000E+00  0.00000000E+00
  0.00000000E+00  0.00000000E+00  0.00000000E+00
  0.00000000E+00  0.00000000E+00  0.00000000E+00
  0.00000000E+00  0.00000000E+00  0.00000000E+00
  0.00000000E+00  0.00000000E+00  0.00000000E+00
  0.00000000E+00  0.00000000E+00  0.00000000E+00
  0.00000000E+00  0.00000000E+00  0.00000000E+00
  0.00000000E+00  0.00000000E+00  0.00000000E+00
  0.00000000E+00  0.00000000E+00  0.00000000E+00
  0.00000000E+00  0.00000000E+00  0.00000000E+00
