Title                                   
   1.00000000000000     
     4.9440799999999996    0.0000000000000000    0.0000000000000000
     0.0000000000000000    8.5647549999999999    0.0000000000000000
     0.0000000000000000    0.0000000000000000   20.0000000000000000
    11     3     1
Selective dynamics
Direct
  0.0014363731259902  0.2924565561752185  0.0989315871779302   T   T   T
  0.2500993986398259  0.0408042463001728  0.1002290484326318   T   T   T
 -0.0027565460500687  0.9553945630869085  0.1005654923743758   T   T   T
  0.7521899727830196  0.2075386756965722  0.0987585883055372   T   T   T
  0.5033368713763662  0.2950086243779169  0.1004201123325239   T   T   T
  0.7493491003533483  0.0405336439959378  0.0988754956447279   T   T   T
  0.7462195432170897  0.7123124963146005  0.0999677082722424   T   T   T
  0.7522017205528613  0.5356757238200204  0.0997808322460103   T   T   T
  0.4986402337716773  0.9589767273542559  0.0993256833069015   T   T   T
  0.5054092678468151  0.7922189021843506  0.0993760402983188   T   T   T
 -0.0053426822230193  0.4563881170195964  0.0984622099944503   T   T   T
  0.5075610327852087  0.4555274914337794  0.1028653059369535   T   T   T
 -0.0084479237276293  0.7919956853538207  0.1026995227204927   T   T   T
  0.2510514737533999  0.2106677747960803  0.1001399928407467   T   T   T
  0.2490521637951154  0.6261817720907713  0.1075823801161603   T   T   T
 
  0.00000000E+00  0.00000000E+00  0.00000000E+00
  0.00000000E+00  0.00000000E+00  0.00000000E+00
  0.00000000E+00  0.00000000E+00  0.00000000E+00
  0.00000000E+00  0.00000000E+00  0.00000000E+00
  0.00000000E+00  0.00000000E+00  0.00000000E+00
  0.00000000E+00  0.00000000E+00  0.00000000E+00
  0.00000000E+00  0.00000000E+00  0.00000000E+00
  0.00000000E+00  0.00000000E+00  0.00000000E+00
  0.00000000E+00  0.00000000E+00  0.00000000E+00
  0.00000000E+00  0.00000000E+00  0.00000000E+00
  0.00000000E+00  0.00000000E+00  0.00000000E+00
  0.00000000E+00  0.00000000E+00  0.00000000E+00
  0.00000000E+00  0.00000000E+00  0.00000000E+00
  0.00000000E+00  0.00000000E+00  0.00000000E+00
  0.00000000E+00  0.00000000E+00  0.00000000E+00
