Title                                   
   1.00000000000000     
     4.9440799999999996    0.0000000000000000    0.0000000000000000
     0.0000000000000000    8.5647549999999999    0.0000000000000000
     0.0000000000000000    0.0000000000000000   20.0000000000000000
    12     3     1
Selective dynamics
Direct
  0.2500000000000000  0.2119482691014532  0.0906565439176881   T   T   T
 -0.0048329876770533  0.2926193570381395  0.0915215466616875   T   T   T
  0.2500000000000000  0.0441502160401706  0.0913196398715151   T   T   T
  0.0019598011548737  0.7939842814877555  0.1029386807230722   T   T   T
  0.0004705346564461  0.9589985515100282  0.0921563319742762   T   T   T
  0.7500000000000000  0.2066938328099799  0.0877550695065253   T   T   T
  0.5048329876770534  0.2926193570381395  0.0915215466616875   T   T   T
  0.7500000000000000  0.0403567297692859  0.0876033122850478   T   T   T
  0.7500000000000000  0.7046560164794319  0.1040915261405123   T   T   T
  0.4980401988451263  0.7939842814877555  0.1029386807230722   T   T   T
  0.7500000000000000  0.5330069555495275  0.1005532470817421   T   T   T
  0.4995294653435539  0.9589985515100282  0.0921563319742762   T   T   T
  0.5126584581956742  0.4525202043870331  0.0991840293728977   T   T   T
 -0.0126584581956741  0.4525202043870331  0.0991840293728977   T   T   T
  0.2500000000000000  0.7257742969676401  0.1166086778105348   T   T   T
  0.2500000000000000  0.5371688944365984  0.1723228059225750   T   T   T
 
  0.00000000E+00  0.00000000E+00  0.00000000E+00
  0.00000000E+00  0.00000000E+00  0.00000000E+00
  0.00000000E+00  0.00000000E+00  0.00000000E+00
  0.00000000E+00  0.00000000E+00  0.00000000E+00
  0.00000000E+00  0.00000000E+00  0.00000000E+00
  0.00000000E+00  0.00000000E+00  0.00000000E+00
  0.00000000E+00  0.00000000E+00  0.00000000E+00
  0.00000000E+00  0.00000000E+00  0.00000000E+00
  0.00000000E+00  0.00000000E+00  0.00000000E+00
  0.00000000E+00  0.00000000E+00  0.00000000E+00
  0.00000000E+00  0.00000000E+00  0.00000000E+00
  0.00000000E+00  0.00000000E+00  0.00000000E+00
  0.00000000E+00  0.00000000E+00  0.00000000E+00
  0.00000000E+00  0.00000000E+00  0.00000000E+00
  0.00000000E+00  0.00000000E+00  0.00000000E+00
  0.00000000E+00  0.00000000E+00  0.00000000E+00
