Title                                   
   1.00000000000000     
     4.9440799999999996    0.0000000000000000    0.0000000000000000
     0.0000000000000000   17.1295089999999988    0.0000000000000000
     0.0000000000000000    0.0000000000000000   20.0000000000000000
    30     1     1
Selective dynamics
Direct
  0.0013203412261777  0.1039937656242502  0.2826939594119799   T   T   T
  0.2514482206890858  0.1454045324043153  0.2876490387197024   T   T   T
  0.2515191264500578  0.2273268522651255  0.3001828839122183   T   T   T
  0.0031915723588935  0.3490789677211393  0.3233528656641435   T   T   T
  0.0003940476318841  0.2680590830026529  0.3066002990535358   T   T   T
 -0.0006326342902436  0.6064297483156155  0.3067856135670044   T   T   T
  0.2519958010927778  0.7296013833403108  0.2899798250557190   T   T   T
  0.0017933402896194  0.8542236016999568  0.2767840778602064   T   T   T
  0.2514351337516402  0.8961976817141197  0.2754725412314134   T   T   T
  0.2513584607542346  0.9792833562464380  0.2752726065309225   T   T   T
  0.0019546515568239  0.7713187165135956  0.2832148182029222   T   T   T
  0.5014647185823281  0.1039421726520766  0.2827526581243741   T   T   T
  0.7513262320729921  0.1453177635867046  0.2868832085625915   T   T   T
  0.7513744950825704  0.2274970271207853  0.2985486950424778   T   T   T
  0.5015021572490266  0.0210195978103437  0.2766330106342766   T   T   T
  0.4999358020875727  0.3491039861567983  0.3242799963926144   T   T   T
  0.7515522950336607  0.3938697338102428  0.3288368156214763   T   T   T
  0.7487000553422209  0.4817205315729740  0.3263610869234299   T   T   T
  0.5025547735902369  0.2681913565910810  0.3068967686029474   T   T   T
  0.5057708180060492  0.6074639268609465  0.3125355657903695   T   T   T
  0.7512431478676119  0.7304087665870558  0.2873109869872149   T   T   T
  0.5012655880223478  0.8543967348831503  0.2771304959578456   T   T   T
  0.7515576293467192  0.8959233762250719  0.2749886263924263   T   T   T
  0.7514272819916696  0.9793157238631057  0.2749528868993438   T   T   T
  0.5012563298108201  0.7716245560441173  0.2840083985156836   T   T   T
  0.7509830787191614  0.6483913442452560  0.2990085543107915   T   T   T
  0.2527999992209639  0.6482190741135696  0.3044375173426050   T   T   T
  0.0012398381541491  0.0210435948648293  0.2765707817152092   T   T   T
  0.5118028323553816  0.5280618489060052  0.3348914570961504   T   T   T
  0.9898137892952378  0.5248271319692882  0.3167676207057248   T   T   T
  0.2517819733524608  0.3833096411509573  0.3369309799000011   T   T   T
  0.2016921033058722  0.4839854221381144  0.4038503592726285   T   T   T
 
  0.00000000E+00  0.00000000E+00  0.00000000E+00
  0.00000000E+00  0.00000000E+00  0.00000000E+00
  0.00000000E+00  0.00000000E+00  0.00000000E+00
  0.00000000E+00  0.00000000E+00  0.00000000E+00
  0.00000000E+00  0.00000000E+00  0.00000000E+00
  0.00000000E+00  0.00000000E+00  0.00000000E+00
  0.00000000E+00  0.00000000E+00  0.00000000E+00
  0.00000000E+00  0.00000000E+00  0.00000000E+00
  0.00000000E+00  0.00000000E+00  0.00000000E+00
  0.00000000E+00  0.00000000E+00  0.00000000E+00
  0.00000000E+00  0.00000000E+00  0.00000000E+00
  0.00000000E+00  0.00000000E+00  0.00000000E+00
  0.00000000E+00  0.00000000E+00  0.00000000E+00
  0.00000000E+00  0.00000000E+00  0.00000000E+00
  0.00000000E+00  0.00000000E+00  0.00000000E+00
  0.00000000E+00  0.00000000E+00  0.00000000E+00
  0.00000000E+00  0.00000000E+00  0.00000000E+00
  0.00000000E+00  0.00000000E+00  0.00000000E+00
  0.00000000E+00  0.00000000E+00  0.00000000E+00
  0.00000000E+00  0.00000000E+00  0.00000000E+00
  0.00000000E+00  0.00000000E+00  0.00000000E+00
  0.00000000E+00  0.00000000E+00  0.00000000E+00
  0.00000000E+00  0.00000000E+00  0.00000000E+00
  0.00000000E+00  0.00000000E+00  0.00000000E+00
  0.00000000E+00  0.00000000E+00  0.00000000E+00
  0.00000000E+00  0.00000000E+00  0.00000000E+00
  0.00000000E+00  0.00000000E+00  0.00000000E+00
  0.00000000E+00  0.00000000E+00  0.00000000E+00
  0.00000000E+00  0.00000000E+00  0.00000000E+00
  0.00000000E+00  0.00000000E+00  0.00000000E+00
  0.00000000E+00  0.00000000E+00  0.00000000E+00
  0.00000000E+00  0.00000000E+00  0.00000000E+00
