Title                                   
   1.00000000000000     
     9.8694509999999998    0.0000000000000000    0.0000000000000000
     0.0000000000000000    8.5490480000000009    0.0000000000000000
     0.0000000000000000    0.0000000000000000   20.0000000000000000
    29     2     1
Selective dynamics
Direct
  0.0563629859059053  0.0904028360234745  0.0847041801056759   T   T   T
  0.9317302062040974  0.1720549819633288  0.0868863354716461   T   T   T
  0.0571468672623029  0.9235130627662637  0.0841779653828403   T   T   T
  0.9320456934367164  0.3391732770481704  0.0898281668505668   T   T   T
  0.0572321149966319  0.5891848745657776  0.0848989602046559   T   T   T
  0.9329925862439604  0.6716693006818492  0.0881610399063179   T   T   T
  0.0577248601492657  0.4223319544879997  0.0867215890137262   T   T   T
  0.9321832838553695  0.8385672112293325  0.0865014802979160   T   T   T
  0.3059149147427160  0.0891685239166643  0.0887687081598107   T   T   T
  0.1821385151661057  0.1730967252415212  0.0866962884639717   T   T   T
  0.1833818928591290  0.3402287229628331  0.0884741406923885   T   T   T
  0.3033525061471302  0.5917384359695149  0.0958194438672348   T   T   T
  0.1809308889368140  0.6742859709683101  0.0857863336512878   T   T   T
  0.3083263250658487  0.4251091563638532  0.0965574011713440   T   T   T
  0.1808450983507866  0.8406233001786632  0.0856035441999120   T   T   T
  0.5562797745278036  0.0864731422680658  0.0956983065382117   T   T   T
  0.4310191396081285  0.1699132850309641  0.0944401614389118   T   T   T
  0.5538573252819533  0.9188513684602507  0.0991706346991095   T   T   T
  0.4322734712310417  0.3359197659767950  0.1030207003283494   T   T   T
  0.5576343262563358  0.4097526962949728  0.1177923584083751   T   T   T
  0.4256470169599986  0.8416016270911879  0.0987056999555334   T   T   T
  0.8070160640303029  0.0877811707782999  0.0885727281803338   T   T   T
  0.6818049895357530  0.1691902002742826  0.0947707450847286   T   T   T
  0.8068849906311327  0.9219394353144453  0.0895049990852637   T   T   T
  0.6827587986111783  0.3346291371548610  0.1041127042352574   T   T   T
  0.8108186381312136  0.5884367710701532  0.1003617693666542   T   T   T
  0.6929717407702624  0.6758821729402442  0.1150666905279046   T   T   T
  0.8082371716385431  0.4207475301614438  0.0994372712464824   T   T   T
  0.6834475134479124  0.8373003208119538  0.1008308295524953   T   T   T
  0.4149221216527388  0.6842250921666313  0.1119827747075193   T   T   T
  0.3047927275591973  0.9249269960754449  0.0886690063703654   T   T   T
  0.5469644508037302  0.6015269537624340  0.1819520428352550   T   T   T
 
  0.00000000E+00  0.00000000E+00  0.00000000E+00
  0.00000000E+00  0.00000000E+00  0.00000000E+00
  0.00000000E+00  0.00000000E+00  0.00000000E+00
  0.00000000E+00  0.00000000E+00  0.00000000E+00
  0.00000000E+00  0.00000000E+00  0.00000000E+00
  0.00000000E+00  0.00000000E+00  0.00000000E+00
  0.00000000E+00  0.00000000E+00  0.00000000E+00
  0.00000000E+00  0.00000000E+00  0.00000000E+00
  0.00000000E+00  0.00000000E+00  0.00000000E+00
  0.00000000E+00  0.00000000E+00  0.00000000E+00
  0.00000000E+00  0.00000000E+00  0.00000000E+00
  0.00000000E+00  0.00000000E+00  0.00000000E+00
  0.00000000E+00  0.00000000E+00  0.00000000E+00
  0.00000000E+00  0.00000000E+00  0.00000000E+00
  0.00000000E+00  0.00000000E+00  0.00000000E+00
  0.00000000E+00  0.00000000E+00  0.00000000E+00
  0.00000000E+00  0.00000000E+00  0.00000000E+00
  0.00000000E+00  0.00000000E+00  0.00000000E+00
  0.00000000E+00  0.00000000E+00  0.00000000E+00
  0.00000000E+00  0.00000000E+00  0.00000000E+00
  0.00000000E+00  0.00000000E+00  0.00000000E+00
  0.00000000E+00  0.00000000E+00  0.00000000E+00
  0.00000000E+00  0.00000000E+00  0.00000000E+00
  0.00000000E+00  0.00000000E+00  0.00000000E+00
  0.00000000E+00  0.00000000E+00  0.00000000E+00
  0.00000000E+00  0.00000000E+00  0.00000000E+00
  0.00000000E+00  0.00000000E+00  0.00000000E+00
  0.00000000E+00  0.00000000E+00  0.00000000E+00
  0.00000000E+00  0.00000000E+00  0.00000000E+00
  0.00000000E+00  0.00000000E+00  0.00000000E+00
  0.00000000E+00  0.00000000E+00  0.00000000E+00
  0.00000000E+00  0.00000000E+00  0.00000000E+00
