Title                                   
   1.00000000000000     
     8.5490480000000009    0.0000000000000000    0.0000000000000000
     0.0000000000000000    8.5490480000000009    0.0000000000000000
     0.0000000000000000    0.0000000000000000   20.0000000000000000
    18     6     1
Selective dynamics
Direct
  0.9086683448505940  0.2059632683847007  0.0975401778580287   T   T   T
  0.9107966792219717  0.8002591730660448  0.0975242816990715   T   T   T
  0.1962998499063771  0.0841704785611652  0.0976788580352238   T   T   T
  0.0760351432715034  0.2015069826771545  0.0976072323540941   T   T   T
  0.1569690893362078  0.6509971381525833  0.0977637597274156   T   T   T
  0.0778679605347635  0.5008320959413597  0.0978328161876238   T   T   T
  0.1567558249623356  0.3519043018596908  0.0977759199985346   T   T   T
  0.0786754232979319  0.7988957671844790  0.0976291866667133   T   T   T
  0.4934085080467907  0.0887390193035980  0.0978223782195008   T   T   T
  0.3436281087832376  0.1665960583488082  0.0978007501130085   T   T   T
  0.4926709442507906  0.9158412412560231  0.0978125410494817   T   T   T
  0.3440635781280345  0.8348903028664333  0.0978131542050413   T   T   T
  0.7887292371774699  0.0870675961561032  0.0975390404892477   T   T   T
  0.6414717555294336  0.1688513624349654  0.0977288944387175   T   T   T
  0.7892667482438183  0.9185967594738157  0.0975207032570200   T   T   T
  0.8294138802884454  0.6507282385691554  0.0977274172892802   T   T   T
  0.8275156279531831  0.3544615863359321  0.0977641915506970   T   T   T
  0.6422708694472112  0.8355183853938664  0.0976930355841581   T   T   T
  0.9065353878327735  0.5023935655573765  0.0978642504968895   T   T   T
  0.3196703087032755  0.3295343172660541  0.0979461695733823   T   T   T
  0.3199821452397048  0.6748431040829116  0.0979498583822238   T   T   T
  0.6660255800620308  0.3332446189343362  0.0978955558431176   T   T   T
  0.6678304866937925  0.6714995090177568  0.0978164482471809   T   T   T
  0.1971871529166264  0.9155527575767973  0.0977121247058947   T   T   T
  0.4936733653216895  0.5019023715988885  0.0979462540284329   T   T   T
 
  0.00000000E+00  0.00000000E+00  0.00000000E+00
  0.00000000E+00  0.00000000E+00  0.00000000E+00
  0.00000000E+00  0.00000000E+00  0.00000000E+00
  0.00000000E+00  0.00000000E+00  0.00000000E+00
  0.00000000E+00  0.00000000E+00  0.00000000E+00
  0.00000000E+00  0.00000000E+00  0.00000000E+00
  0.00000000E+00  0.00000000E+00  0.00000000E+00
  0.00000000E+00  0.00000000E+00  0.00000000E+00
  0.00000000E+00  0.00000000E+00  0.00000000E+00
  0.00000000E+00  0.00000000E+00  0.00000000E+00
  0.00000000E+00  0.00000000E+00  0.00000000E+00
  0.00000000E+00  0.00000000E+00  0.00000000E+00
  0.00000000E+00  0.00000000E+00  0.00000000E+00
  0.00000000E+00  0.00000000E+00  0.00000000E+00
  0.00000000E+00  0.00000000E+00  0.00000000E+00
  0.00000000E+00  0.00000000E+00  0.00000000E+00
  0.00000000E+00  0.00000000E+00  0.00000000E+00
  0.00000000E+00  0.00000000E+00  0.00000000E+00
  0.00000000E+00  0.00000000E+00  0.00000000E+00
  0.00000000E+00  0.00000000E+00  0.00000000E+00
  0.00000000E+00  0.00000000E+00  0.00000000E+00
  0.00000000E+00  0.00000000E+00  0.00000000E+00
  0.00000000E+00  0.00000000E+00  0.00000000E+00
  0.00000000E+00  0.00000000E+00  0.00000000E+00
  0.00000000E+00  0.00000000E+00  0.00000000E+00
