Title                                   
   1.00000000000000     
     9.8694509999999998    0.0000000000000000    0.0000000000000000
     0.0000000000000000    8.5490480000000009    0.0000000000000000
     0.0000000000000000    0.0000000000000000   20.0000000000000000
    25     6     1
Selective dynamics
Direct
  0.0558177207715376  0.0918028295058275  0.0874028938161976   T   T   T
  0.9310318848359095  0.1750210849500622  0.0880829999347780   T   T   T
  0.0570246943485567  0.9237915397414347  0.0872555192457160   T   T   T
  0.9296319902561172  0.3422010685231812  0.0907810508712895   T   T   T
  0.0565932227446804  0.5916609890354455  0.0887005688590474   T   T   T
  0.0559031717985696  0.4242199331974884  0.0899471033469161   T   T   T
  0.9331007953369327  0.8399081701724239  0.0886316522346472   T   T   T
  0.3060855346472258  0.0887245221876703  0.0896904821419338   T   T   T
  0.1823441089246500  0.1741944585706929  0.0890749867445548   T   T   T
  0.1828926626232385  0.3414410985172242  0.0910055781995521   T   T   T
  0.3050393155470948  0.5923885690037900  0.0978592177614906   T   T   T
  0.1800046595643519  0.6746392848252450  0.0897767324720682   T   T   T
  0.3102855982530271  0.4233313419404108  0.0964916948614730   T   T   T
  0.1817453206068042  0.8420011949524603  0.0887718322627896   T   T   T
  0.5561490661915178  0.0841231884981390  0.0932682227280445   T   T   T
  0.5549820850576133  0.9168186868785286  0.0976343171954555   T   T   T
  0.4342062260187136  0.3326667384510644  0.0997119649452492   T   T   T
  0.4259137388604924  0.8369700844177406  0.0997942849429699   T   T   T
  0.8065720513312478  0.0887813550471909  0.0879305328522810   T   T   T
  0.6799834055345948  0.1688571367197524  0.0911050036579484   T   T   T
  0.8082019145215524  0.9227007663126954  0.0895051193935150   T   T   T
  0.6783217031543701  0.3359474089987309  0.0983980291852320   T   T   T
  0.8085077667692004  0.5958461298053711  0.0995746411941551   T   T   T
  0.8027322493284959  0.4257519171736959  0.0968433788404869   T   T   T
  0.6851547980517695  0.8381167035246097  0.0986175362727861   T   T   T
  0.4169657165350429  0.6831941377960919  0.1091778099351881   T   T   T
  0.5540664015508496  0.4019860118262731  0.1091666635580593   T   T   T
  0.6966740149248267  0.6808645159480423  0.1104646811257501   T   T   T
  0.3048673842452094  0.9253572360028338  0.0902999165694066   T   T   T
  0.4301875917517201  0.1655884733591587  0.0925123581640376   T   T   T
  0.9330252948897102  0.6732836292096869  0.0898755179827878   T   T   T
  0.5556269110243834  0.5880657949070405  0.1683227087042089   T   T   T
 
  0.00000000E+00  0.00000000E+00  0.00000000E+00
  0.00000000E+00  0.00000000E+00  0.00000000E+00
  0.00000000E+00  0.00000000E+00  0.00000000E+00
  0.00000000E+00  0.00000000E+00  0.00000000E+00
  0.00000000E+00  0.00000000E+00  0.00000000E+00
  0.00000000E+00  0.00000000E+00  0.00000000E+00
  0.00000000E+00  0.00000000E+00  0.00000000E+00
  0.00000000E+00  0.00000000E+00  0.00000000E+00
  0.00000000E+00  0.00000000E+00  0.00000000E+00
  0.00000000E+00  0.00000000E+00  0.00000000E+00
  0.00000000E+00  0.00000000E+00  0.00000000E+00
  0.00000000E+00  0.00000000E+00  0.00000000E+00
  0.00000000E+00  0.00000000E+00  0.00000000E+00
  0.00000000E+00  0.00000000E+00  0.00000000E+00
  0.00000000E+00  0.00000000E+00  0.00000000E+00
  0.00000000E+00  0.00000000E+00  0.00000000E+00
  0.00000000E+00  0.00000000E+00  0.00000000E+00
  0.00000000E+00  0.00000000E+00  0.00000000E+00
  0.00000000E+00  0.00000000E+00  0.00000000E+00
  0.00000000E+00  0.00000000E+00  0.00000000E+00
  0.00000000E+00  0.00000000E+00  0.00000000E+00
  0.00000000E+00  0.00000000E+00  0.00000000E+00
  0.00000000E+00  0.00000000E+00  0.00000000E+00
  0.00000000E+00  0.00000000E+00  0.00000000E+00
  0.00000000E+00  0.00000000E+00  0.00000000E+00
  0.00000000E+00  0.00000000E+00  0.00000000E+00
  0.00000000E+00  0.00000000E+00  0.00000000E+00
  0.00000000E+00  0.00000000E+00  0.00000000E+00
  0.00000000E+00  0.00000000E+00  0.00000000E+00
  0.00000000E+00  0.00000000E+00  0.00000000E+00
  0.00000000E+00  0.00000000E+00  0.00000000E+00
  0.00000000E+00  0.00000000E+00  0.00000000E+00
