Title                                   
   1.00000000000000     
     4.9440799999999996    0.0000000000000000    0.0000000000000000
     0.0000000000000000    8.5647549999999999    0.0000000000000000
     0.0000000000000000    0.0000000000000000   20.0000000000000000
    11     3     1
Selective dynamics
Direct
  0.2425184393477495  0.2092507315198850  0.0967521712033290   T   T   T
 -0.0054759788655854  0.2974554893798388  0.1017514644426808   T   T   T
  0.2448553698903667  0.0370972713094785  0.0974537645893244   T   T   T
 -0.0031955288034136  0.9516818398770143  0.1022127550611191   T   T   T
  0.7492678035289955  0.2096933384685040  0.0938890272203776   T   T   T
  0.4944092518291943  0.2891346170879605  0.0904391782478101   T   T   T
  0.7515738760055002  0.0397791705208360  0.0947934997520847   T   T   T
  0.7482793526285715  0.7119827999469986  0.0989009615686127   T   T   T
  0.7432150425379951  0.5417968671215752  0.0987937187076411   T   T   T
  0.5002352059966835  0.9587531533237194  0.0928966622036059   T   T   T
  0.5009636272647915  0.4551119522088568  0.0883358741167792   T   T   T
 -0.0111550560678863  0.4633881550427340  0.1159296017240666   T   T   T
 -0.0130648469726035  0.7874607990749571  0.1144127514974786   T   T   T
  0.5095964872417760  0.7956970936319658  0.0905925517938037   T   T   T
  0.2979769544378654  0.6233977214856795  0.1308260178712901   T   T   T
 
  0.00000000E+00  0.00000000E+00  0.00000000E+00
  0.00000000E+00  0.00000000E+00  0.00000000E+00
  0.00000000E+00  0.00000000E+00  0.00000000E+00
  0.00000000E+00  0.00000000E+00  0.00000000E+00
  0.00000000E+00  0.00000000E+00  0.00000000E+00
  0.00000000E+00  0.00000000E+00  0.00000000E+00
  0.00000000E+00  0.00000000E+00  0.00000000E+00
  0.00000000E+00  0.00000000E+00  0.00000000E+00
  0.00000000E+00  0.00000000E+00  0.00000000E+00
  0.00000000E+00  0.00000000E+00  0.00000000E+00
  0.00000000E+00  0.00000000E+00  0.00000000E+00
  0.00000000E+00  0.00000000E+00  0.00000000E+00
  0.00000000E+00  0.00000000E+00  0.00000000E+00
  0.00000000E+00  0.00000000E+00  0.00000000E+00
  0.00000000E+00  0.00000000E+00  0.00000000E+00
