Title                                   
   1.00000000000000     
     8.5490480000000009    0.0000000000000000    0.0000000000000000
     0.0000000000000000    8.5490480000000009    0.0000000000000000
     0.0000000000000000    0.0000000000000000   20.0000000000000000
    22     2     1
Selective dynamics
Direct
  0.9092585779982846  0.2051080626304433  0.0984840075637859   T   T   T
  0.9031743679282489  0.5018118822028959  0.0967962449331815   T   T   T
  0.9092721550787799  0.7984513764364612  0.0985031271994247   T   T   T
  0.1967224921367392  0.0838337335843474  0.0983101270150654   T   T   T
  0.0754485259061425  0.2065968591761945  0.0982607899870286   T   T   T
  0.1967218120970434  0.9197292637587398  0.0983184112172103   T   T   T
  0.1540906567196497  0.6485868607673050  0.0964231423627581   T   T   T
  0.0731077018732001  0.5018194875591595  0.0964470619053744   T   T   T
  0.1540633415422465  0.3550174743788160  0.0964183669599991   T   T   T
  0.0754575386027853  0.7969690306738757  0.0982699135189408   T   T   T
  0.4952641661785332  0.0862725400638584  0.0969047701150517   T   T   T
  0.3480546460118085  0.1667922871533451  0.0964098902195292   T   T   T
  0.4952793804509439  0.9173089367067534  0.0969060198985912   T   T   T
  0.3480605849164596  0.8367911429268247  0.0964328868959387   T   T   T
  0.7901809536744681  0.0852498497475295  0.0988802614890555   T   T   T
  0.6426794241362022  0.1652335571497516  0.0974045704680358   T   T   T
  0.7901928782858252  0.9183220086546772  0.0988843774106716   T   T   T
  0.8265569626151339  0.6507912032730848  0.0969605595240562   T   T   T
  0.8265618259401073  0.3528033172176628  0.0969465330332980   T   T   T
  0.6426903024784804  0.8383534835442422  0.0973888844064013   T   T   T
  0.3230978893268848  0.3313774043476642  0.0933428619091558   T   T   T
  0.3231232372233698  0.6722019584258222  0.0933770399073667   T   T   T
  0.6651603947588971  0.3276695650549060  0.0952065107404907   T   T   T
  0.6651536367082718  0.6759055338457240  0.0952031556660144   T   T   T
  0.4960385474114870  0.5017931807199288  0.0572254856535525   T   T   T
 
  0.00000000E+00  0.00000000E+00  0.00000000E+00
  0.00000000E+00  0.00000000E+00  0.00000000E+00
  0.00000000E+00  0.00000000E+00  0.00000000E+00
  0.00000000E+00  0.00000000E+00  0.00000000E+00
  0.00000000E+00  0.00000000E+00  0.00000000E+00
  0.00000000E+00  0.00000000E+00  0.00000000E+00
  0.00000000E+00  0.00000000E+00  0.00000000E+00
  0.00000000E+00  0.00000000E+00  0.00000000E+00
  0.00000000E+00  0.00000000E+00  0.00000000E+00
  0.00000000E+00  0.00000000E+00  0.00000000E+00
  0.00000000E+00  0.00000000E+00  0.00000000E+00
  0.00000000E+00  0.00000000E+00  0.00000000E+00
  0.00000000E+00  0.00000000E+00  0.00000000E+00
  0.00000000E+00  0.00000000E+00  0.00000000E+00
  0.00000000E+00  0.00000000E+00  0.00000000E+00
  0.00000000E+00  0.00000000E+00  0.00000000E+00
  0.00000000E+00  0.00000000E+00  0.00000000E+00
  0.00000000E+00  0.00000000E+00  0.00000000E+00
  0.00000000E+00  0.00000000E+00  0.00000000E+00
  0.00000000E+00  0.00000000E+00  0.00000000E+00
  0.00000000E+00  0.00000000E+00  0.00000000E+00
  0.00000000E+00  0.00000000E+00  0.00000000E+00
  0.00000000E+00  0.00000000E+00  0.00000000E+00
  0.00000000E+00  0.00000000E+00  0.00000000E+00
  0.00000000E+00  0.00000000E+00  0.00000000E+00
