Title                                   
   1.00000000000000     
     9.8694509999999998    0.0000000000000000    0.0000000000000000
     0.0000000000000000    8.5490480000000009    0.0000000000000000
     0.0000000000000000    0.0000000000000000   20.0000000000000000
    25     6     1
Selective dynamics
Direct
  0.0558477856353627  0.0915365112528629  0.0888930818167526   T   T   T
  0.9310486125436385  0.1746473611095809  0.0891093018740003   T   T   T
  0.0570397941393618  0.9235720962723433  0.0890221872885231   T   T   T
  0.9298046719695133  0.3419571640378444  0.0909081092450357   T   T   T
  0.0565433380620006  0.5916032912853266  0.0898953537663481   T   T   T
  0.0558871721083019  0.4242004880296205  0.0906362283992325   T   T   T
  0.9329402025362170  0.8398189456006295  0.0900084088574543   T   T   T
  0.3063626637157086  0.0887210767578585  0.0907100086306226   T   T   T
  0.1823690422048468  0.1739460518402113  0.0902123838657865   T   T   T
  0.1828261602963905  0.3413180139610900  0.0915851028044285   T   T   T
  0.3055459109067568  0.5919675833285566  0.0972988085071643   T   T   T
  0.1802577714376484  0.6746706964902648  0.0913401815055595   T   T   T
  0.3100359920224222  0.4233319177174015  0.0957342923566378   T   T   T
  0.1817825706954940  0.8419153074542494  0.0905364830317415   T   T   T
  0.5561508639633427  0.0846880406240486  0.0930590601394758   T   T   T
  0.5548544775459555  0.9173625811052039  0.0962049451171943   T   T   T
  0.4341702685530680  0.3337087749217257  0.0977175532726766   T   T   T
  0.4267484549407091  0.8365582483726048  0.0983416871548687   T   T   T
  0.8063801923973846  0.0887447168520950  0.0890193813222332   T   T   T
  0.6797662375061730  0.1694110442792016  0.0911596058309256   T   T   T
  0.8077929442532522  0.9225041293979001  0.0905591476171627   T   T   T
  0.6783346985787562  0.3369081748947406  0.0961903588137642   T   T   T
  0.8076501525697792  0.5952250724773148  0.0971025959182275   T   T   T
  0.8029114869293384  0.4255159378845979  0.0949332247002798   T   T   T
  0.6842001039986466  0.8377278687938344  0.0967435873221467   T   T   T
  0.4193393029377535  0.6817163799698728  0.1067043392640408   T   T   T
  0.5542782762612699  0.4055589288303443  0.1048236855223198   T   T   T
  0.6934467416454700  0.6788008596015357  0.1051293433287414   T   T   T
  0.3052311834971467  0.9249598865038996  0.0915034492339186   T   T   T
  0.4303081670676304  0.1663999565370156  0.0929272763300318   T   T   T
  0.9326749200080741  0.6733746304587666  0.0909865037625086   T   T   T
  0.5571088390725923  0.5878742633574624  0.1766793234002124   T   T   T
 
  0.00000000E+00  0.00000000E+00  0.00000000E+00
  0.00000000E+00  0.00000000E+00  0.00000000E+00
  0.00000000E+00  0.00000000E+00  0.00000000E+00
  0.00000000E+00  0.00000000E+00  0.00000000E+00
  0.00000000E+00  0.00000000E+00  0.00000000E+00
  0.00000000E+00  0.00000000E+00  0.00000000E+00
  0.00000000E+00  0.00000000E+00  0.00000000E+00
  0.00000000E+00  0.00000000E+00  0.00000000E+00
  0.00000000E+00  0.00000000E+00  0.00000000E+00
  0.00000000E+00  0.00000000E+00  0.00000000E+00
  0.00000000E+00  0.00000000E+00  0.00000000E+00
  0.00000000E+00  0.00000000E+00  0.00000000E+00
  0.00000000E+00  0.00000000E+00  0.00000000E+00
  0.00000000E+00  0.00000000E+00  0.00000000E+00
  0.00000000E+00  0.00000000E+00  0.00000000E+00
  0.00000000E+00  0.00000000E+00  0.00000000E+00
  0.00000000E+00  0.00000000E+00  0.00000000E+00
  0.00000000E+00  0.00000000E+00  0.00000000E+00
  0.00000000E+00  0.00000000E+00  0.00000000E+00
  0.00000000E+00  0.00000000E+00  0.00000000E+00
  0.00000000E+00  0.00000000E+00  0.00000000E+00
  0.00000000E+00  0.00000000E+00  0.00000000E+00
  0.00000000E+00  0.00000000E+00  0.00000000E+00
  0.00000000E+00  0.00000000E+00  0.00000000E+00
  0.00000000E+00  0.00000000E+00  0.00000000E+00
  0.00000000E+00  0.00000000E+00  0.00000000E+00
  0.00000000E+00  0.00000000E+00  0.00000000E+00
  0.00000000E+00  0.00000000E+00  0.00000000E+00
  0.00000000E+00  0.00000000E+00  0.00000000E+00
  0.00000000E+00  0.00000000E+00  0.00000000E+00
  0.00000000E+00  0.00000000E+00  0.00000000E+00
  0.00000000E+00  0.00000000E+00  0.00000000E+00
