Title                                   
   1.00000000000000     
     9.8694509999999998    0.0000000000000000    0.0000000000000000
     0.0000000000000000    8.5490480000000009    0.0000000000000000
     0.0000000000000000    0.0000000000000000   20.0000000000000000
    27     4     1
Selective dynamics
Direct
  0.0562649270397265  0.0916384325660105  0.0871462952677531   T   T   T
  0.9306415790176797  0.1751716907921328  0.0883307672918850   T   T   T
  0.0575990870579726  0.9240767643914699  0.0867169623040728   T   T   T
  0.9285621325362112  0.3426853152859237  0.0897197181532561   T   T   T
  0.0562367335416633  0.5899601856778898  0.0879820225060662   T   T   T
  0.9319779229829366  0.6741230572009145  0.0879534233870656   T   T   T
  0.0566949550890417  0.4235497567429162  0.0901652095794084   T   T   T
  0.9323611836041613  0.8414524110084918  0.0874256039442262   T   T   T
  0.3057192990613551  0.0872264747461659  0.0901449821189999   T   T   T
  0.1825473156254348  0.1739283115377336  0.0891791113742935   T   T   T
  0.3081107684673456  0.9214103439227266  0.0909607603140799   T   T   T
  0.1825056503564521  0.3399571426026823  0.0924447281800390   T   T   T
  0.3066757460374657  0.5889008967687708  0.1014577660089511   T   T   T
  0.1825319372454890  0.6711897648113300  0.0904017937846585   T   T   T
  0.1828087675036164  0.8381967084206877  0.0889403402883612   T   T   T
  0.5564519413656684  0.0849244819892155  0.0963997610093264   T   T   T
  0.4309200321439586  0.1682753387085460  0.0945724474749920   T   T   T
  0.4326889522140521  0.3341009314534788  0.0980698729979396   T   T   T
  0.4309443477857354  0.8368195620072324  0.1018013846328323   T   T   T
  0.8068090997908213  0.0908836102413136  0.0895211627301987   T   T   T
  0.6798761297783977  0.1705520536985280  0.0932383017985191   T   T   T
  0.8072863933802418  0.9255412488022456  0.0895361131927825   T   T   T
  0.6754052693738246  0.3365926086444491  0.0947138854901233   T   T   T
  0.8048152811698012  0.5957063379003813  0.0924529858053954   T   T   T
  0.8007782748319754  0.4265509281771497  0.0921039403863521   T   T   T
  0.6844633757083166  0.8395458887188810  0.0957992986536952   T   T   T
  0.4224761453123676  0.6776707261534000  0.1216151325285883   T   T   T
  0.5515403177407027  0.4120195721089687  0.1021406618161108   T   T   T
  0.6869230380679614  0.6823390143645500  0.1001638814764533   T   T   T
  0.5581378720610610  0.9196504829514307  0.1000930407389727   T   T   T
  0.3082473278874381  0.4216117860101496  0.0985250506336012   T   T   T
  0.5606371962211291  0.5839941715942365  0.1759585941310167   T   T   T
 
  0.00000000E+00  0.00000000E+00  0.00000000E+00
  0.00000000E+00  0.00000000E+00  0.00000000E+00
  0.00000000E+00  0.00000000E+00  0.00000000E+00
  0.00000000E+00  0.00000000E+00  0.00000000E+00
  0.00000000E+00  0.00000000E+00  0.00000000E+00
  0.00000000E+00  0.00000000E+00  0.00000000E+00
  0.00000000E+00  0.00000000E+00  0.00000000E+00
  0.00000000E+00  0.00000000E+00  0.00000000E+00
  0.00000000E+00  0.00000000E+00  0.00000000E+00
  0.00000000E+00  0.00000000E+00  0.00000000E+00
  0.00000000E+00  0.00000000E+00  0.00000000E+00
  0.00000000E+00  0.00000000E+00  0.00000000E+00
  0.00000000E+00  0.00000000E+00  0.00000000E+00
  0.00000000E+00  0.00000000E+00  0.00000000E+00
  0.00000000E+00  0.00000000E+00  0.00000000E+00
  0.00000000E+00  0.00000000E+00  0.00000000E+00
  0.00000000E+00  0.00000000E+00  0.00000000E+00
  0.00000000E+00  0.00000000E+00  0.00000000E+00
  0.00000000E+00  0.00000000E+00  0.00000000E+00
  0.00000000E+00  0.00000000E+00  0.00000000E+00
  0.00000000E+00  0.00000000E+00  0.00000000E+00
  0.00000000E+00  0.00000000E+00  0.00000000E+00
  0.00000000E+00  0.00000000E+00  0.00000000E+00
  0.00000000E+00  0.00000000E+00  0.00000000E+00
  0.00000000E+00  0.00000000E+00  0.00000000E+00
  0.00000000E+00  0.00000000E+00  0.00000000E+00
  0.00000000E+00  0.00000000E+00  0.00000000E+00
  0.00000000E+00  0.00000000E+00  0.00000000E+00
  0.00000000E+00  0.00000000E+00  0.00000000E+00
  0.00000000E+00  0.00000000E+00  0.00000000E+00
  0.00000000E+00  0.00000000E+00  0.00000000E+00
  0.00000000E+00  0.00000000E+00  0.00000000E+00
