Title                                   
   1.00000000000000     
     8.5490480000000009    0.0000000000000000    0.0000000000000000
     0.0000000000000000    8.5490480000000009    0.0000000000000000
     0.0000000000000000    0.0000000000000000   20.0000000000000000
    18     6     1
Selective dynamics
Direct
  0.9089347589958547  0.2047254791292925  0.0973541400183677   T   T   T
  0.9112495769634126  0.8018748198870466  0.0974348875009858   T   T   T
  0.1949983762852006  0.0833952263499297  0.0976855386018494   T   T   T
  0.0753857688830046  0.2002531175314242  0.0975192177441038   T   T   T
  0.1556570277332203  0.6524392351802101  0.0977147820166461   T   T   T
  0.0773965960379555  0.5007535852336821  0.0977544713819759   T   T   T
  0.1554517310237766  0.3500453615572940  0.0977690073951361   T   T   T
  0.0779352579340167  0.8000528010044126  0.0975998527451446   T   T   T
  0.4935796198503607  0.0878000853966431  0.0979029060926873   T   T   T
  0.3421087721081285  0.1651775968762585  0.0979374984362917   T   T   T
  0.4930984700875905  0.9168576596121493  0.0977741364987657   T   T   T
  0.3422672146048618  0.8363947820742867  0.0977979952913212   T   T   T
  0.7896027918449952  0.0869970972026325  0.0974144928128455   T   T   T
  0.6428153375794934  0.1683991499687974  0.0978733549539016   T   T   T
  0.7902237570258644  0.9190370462080190  0.0974157721623339   T   T   T
  0.8308685534797495  0.6519726900696542  0.0976847513685686   T   T   T
  0.8290345574885719  0.3533885252872139  0.0977802982280457   T   T   T
  0.6438270489443937  0.8362968221323567  0.0976571985340269   T   T   T
  0.9080631891875932  0.5023056349802397  0.0977919109513782   T   T   T
  0.3152620157070468  0.3243290870283925  0.0980676199033497   T   T   T
  0.3156129994190793  0.6799563787853510  0.0978404834482941   T   T   T
  0.6706046796605178  0.3297598572268209  0.0982549077424690   T   T   T
  0.6728353995890229  0.6749870870813682  0.0978424273568351   T   T   T
  0.1961086162254239  0.9162065143563003  0.0977243450290520   T   T   T
  0.4924898833408584  0.5013843598402229  0.0981130037856047   T   T   T
 
  0.00000000E+00  0.00000000E+00  0.00000000E+00
  0.00000000E+00  0.00000000E+00  0.00000000E+00
  0.00000000E+00  0.00000000E+00  0.00000000E+00
  0.00000000E+00  0.00000000E+00  0.00000000E+00
  0.00000000E+00  0.00000000E+00  0.00000000E+00
  0.00000000E+00  0.00000000E+00  0.00000000E+00
  0.00000000E+00  0.00000000E+00  0.00000000E+00
  0.00000000E+00  0.00000000E+00  0.00000000E+00
  0.00000000E+00  0.00000000E+00  0.00000000E+00
  0.00000000E+00  0.00000000E+00  0.00000000E+00
  0.00000000E+00  0.00000000E+00  0.00000000E+00
  0.00000000E+00  0.00000000E+00  0.00000000E+00
  0.00000000E+00  0.00000000E+00  0.00000000E+00
  0.00000000E+00  0.00000000E+00  0.00000000E+00
  0.00000000E+00  0.00000000E+00  0.00000000E+00
  0.00000000E+00  0.00000000E+00  0.00000000E+00
  0.00000000E+00  0.00000000E+00  0.00000000E+00
  0.00000000E+00  0.00000000E+00  0.00000000E+00
  0.00000000E+00  0.00000000E+00  0.00000000E+00
  0.00000000E+00  0.00000000E+00  0.00000000E+00
  0.00000000E+00  0.00000000E+00  0.00000000E+00
  0.00000000E+00  0.00000000E+00  0.00000000E+00
  0.00000000E+00  0.00000000E+00  0.00000000E+00
  0.00000000E+00  0.00000000E+00  0.00000000E+00
  0.00000000E+00  0.00000000E+00  0.00000000E+00
