Title                                   
   1.00000000000000     
     4.9440799999999996    0.0000000000000000    0.0000000000000000
     0.0000000000000000   17.1295089999999988    0.0000000000000000
     0.0000000000000000    0.0000000000000000   20.0000000000000000
    28     2     1
Selective dynamics
Direct
 -0.0017762828307530  0.1056472388709814  0.2977002578794954   T   T   T
  0.2475499661852441  0.1483849512981819  0.2987359321360201   T   T   T
  0.2472580838171534  0.2322978258043983  0.3006300727216122   T   T   T
 -0.0040858304868361  0.2745337578469506  0.2998209282561495   T   T   T
  0.0046257244287416  0.6019414325521409  0.2963300836067349   T   T   T
  0.2520891866266582  0.7261011981061137  0.2971540779891182   T   T   T
  0.0013247346089848  0.8527497415008219  0.2960715020359868   T   T   T
  0.2500669594716872  0.8952588075440907  0.2963629300971428   T   T   T
  0.2492584427242900  0.9793408481931171  0.2966986170650591   T   T   T
  0.0017907599007580  0.7683760602728944  0.2961162189535685   T   T   T
  0.4980865221914523  0.1057532641046537  0.2982890736570384   T   T   T
  0.7481973046630699  0.1477374707021456  0.2986157348535255   T   T   T
  0.7464414893249047  0.2319137830692271  0.3003216960500293   T   T   T
  0.4989343734619348  0.0215966669499659  0.2971934408799751   T   T   T
  0.7551684980439832  0.3941842194141347  0.3025810625961308   T   T   T
  0.7595114185413866  0.4802851463909966  0.3014898774597756   T   T   T
  0.4969773039889122  0.2747601776475084  0.3033675618770748   T   T   T
  0.5014270941661686  0.6002760186478013  0.3016995935873792   T   T   T
  0.7510542997016728  0.7270895911622011  0.2966955840893729   T   T   T
  0.4994909279426903  0.8528755126035688  0.2965319333683487   T   T   T
  0.7501678398600237  0.8948427635232070  0.2963113317094898   T   T   T
  0.7492548274861109  0.9792031194066610  0.2966867403611376   T   T   T
  0.5007975416847448  0.7686320472236293  0.2970564877865441   T   T   T
  0.7517779574651056  0.6437155849451254  0.2976053195563267   T   T   T
 -0.0009436904321987  0.0215201375667418  0.2968575729489375   T   T   T
  0.5040668535111967  0.5176989089893100  0.3089118438293555   T   T   T
  0.0063144264436086  0.5200069083727846  0.2950745216113893   T   T   T
  0.5066655378346743  0.3577612617626588  0.3092720158172734   T   T   T
 -0.0061621849918805  0.3549061480328282  0.2984642792405584   T   T   T
  0.2532438402512343  0.6440236758827060  0.2984671901249001   T   T   T
  0.2414330744152775  0.4379277316124495  0.3179465178545017   T   T   T
 
  0.00000000E+00  0.00000000E+00  0.00000000E+00
  0.00000000E+00  0.00000000E+00  0.00000000E+00
  0.00000000E+00  0.00000000E+00  0.00000000E+00
  0.00000000E+00  0.00000000E+00  0.00000000E+00
  0.00000000E+00  0.00000000E+00  0.00000000E+00
  0.00000000E+00  0.00000000E+00  0.00000000E+00
  0.00000000E+00  0.00000000E+00  0.00000000E+00
  0.00000000E+00  0.00000000E+00  0.00000000E+00
  0.00000000E+00  0.00000000E+00  0.00000000E+00
  0.00000000E+00  0.00000000E+00  0.00000000E+00
  0.00000000E+00  0.00000000E+00  0.00000000E+00
  0.00000000E+00  0.00000000E+00  0.00000000E+00
  0.00000000E+00  0.00000000E+00  0.00000000E+00
  0.00000000E+00  0.00000000E+00  0.00000000E+00
  0.00000000E+00  0.00000000E+00  0.00000000E+00
  0.00000000E+00  0.00000000E+00  0.00000000E+00
  0.00000000E+00  0.00000000E+00  0.00000000E+00
  0.00000000E+00  0.00000000E+00  0.00000000E+00
  0.00000000E+00  0.00000000E+00  0.00000000E+00
  0.00000000E+00  0.00000000E+00  0.00000000E+00
  0.00000000E+00  0.00000000E+00  0.00000000E+00
  0.00000000E+00  0.00000000E+00  0.00000000E+00
  0.00000000E+00  0.00000000E+00  0.00000000E+00
  0.00000000E+00  0.00000000E+00  0.00000000E+00
  0.00000000E+00  0.00000000E+00  0.00000000E+00
  0.00000000E+00  0.00000000E+00  0.00000000E+00
  0.00000000E+00  0.00000000E+00  0.00000000E+00
  0.00000000E+00  0.00000000E+00  0.00000000E+00
  0.00000000E+00  0.00000000E+00  0.00000000E+00
  0.00000000E+00  0.00000000E+00  0.00000000E+00
  0.00000000E+00  0.00000000E+00  0.00000000E+00
