Title                                   
   1.00000000000000     
     9.8694509999999998    0.0000000000000000    0.0000000000000000
     0.0000000000000000    8.5490480000000009    0.0000000000000000
     0.0000000000000000    0.0000000000000000   20.0000000000000000
    28     3     1
Selective dynamics
Direct
  0.0558170364804796  0.0921473455973191  0.0839934580579937   T   T   T
  0.9307789855229628  0.1735903266234249  0.0856405281288286   T   T   T
  0.0564629629296598  0.9248845461379585  0.0847219136300835   T   T   T
  0.9299839108013863  0.3409372477355073  0.0892808249414146   T   T   T
  0.0563627816392355  0.5902759274004628  0.0854913810738682   T   T   T
  0.9321889769722620  0.6729697923848972  0.0904054810987015   T   T   T
  0.0570625308188033  0.4232890680857614  0.0867190607513273   T   T   T
  0.9321725098806539  0.8396897072384042  0.0884307352893687   T   T   T
  0.3052460905587139  0.0885636551143743  0.0877303543446022   T   T   T
  0.1816722154395026  0.1741395020096039  0.0851983500450028   T   T   T
  0.1841670870769107  0.3416938841870383  0.0866728715138290   T   T   T
  0.3052810642827989  0.5942373915955551  0.0935221864016425   T   T   T
  0.1803942441542811  0.6752232017231088  0.0858803002706035   T   T   T
  0.3103377845330758  0.4260867078671567  0.0915036496527449   T   T   T
  0.1804127702495688  0.8416987514283891  0.0860473999035424   T   T   T
  0.5557190115395106  0.0839081665565205  0.0945850501967397   T   T   T
  0.4309804125265047  0.1682340790054599  0.0912257779802858   T   T   T
  0.5540137230035473  0.9188556326377669  0.1018218416547178   T   T   T
  0.4351399756044752  0.3347939812886117  0.0946494761057135   T   T   T
  0.4250533625716624  0.8388132587081840  0.0998039587274216   T   T   T
  0.8066548450699856  0.0879792559775582  0.0882033617382989   T   T   T
  0.6811125985985904  0.1681359458874685  0.0922436195927003   T   T   T
  0.8066127098699938  0.9222370275198067  0.0914951971704014   T   T   T
  0.6785893230024427  0.3338643622951721  0.0978701715114707   T   T   T
  0.8094094441317035  0.5910406896066294  0.1050342950488382   T   T   T
  0.6982065234014344  0.6818332154622383  0.1266498376127496   T   T   T
  0.8049067717993119  0.4226642884268675  0.0987359537597532   T   T   T
  0.6840497503267702  0.8385641690546609  0.1062801169704776   T   T   T
  0.4174073390410743  0.6833686044960431  0.1064398885848020   T   T   T
  0.5565938776744296  0.4076557944629040  0.1027390304171534   T   T   T
  0.3041583000412508  0.9253889188535608  0.0890376244739698   T   T   T
  0.5526900804570218  0.5834815546315972  0.1676213033509875   T   T   T
 
  0.00000000E+00  0.00000000E+00  0.00000000E+00
  0.00000000E+00  0.00000000E+00  0.00000000E+00
  0.00000000E+00  0.00000000E+00  0.00000000E+00
  0.00000000E+00  0.00000000E+00  0.00000000E+00
  0.00000000E+00  0.00000000E+00  0.00000000E+00
  0.00000000E+00  0.00000000E+00  0.00000000E+00
  0.00000000E+00  0.00000000E+00  0.00000000E+00
  0.00000000E+00  0.00000000E+00  0.00000000E+00
  0.00000000E+00  0.00000000E+00  0.00000000E+00
  0.00000000E+00  0.00000000E+00  0.00000000E+00
  0.00000000E+00  0.00000000E+00  0.00000000E+00
  0.00000000E+00  0.00000000E+00  0.00000000E+00
  0.00000000E+00  0.00000000E+00  0.00000000E+00
  0.00000000E+00  0.00000000E+00  0.00000000E+00
  0.00000000E+00  0.00000000E+00  0.00000000E+00
  0.00000000E+00  0.00000000E+00  0.00000000E+00
  0.00000000E+00  0.00000000E+00  0.00000000E+00
  0.00000000E+00  0.00000000E+00  0.00000000E+00
  0.00000000E+00  0.00000000E+00  0.00000000E+00
  0.00000000E+00  0.00000000E+00  0.00000000E+00
  0.00000000E+00  0.00000000E+00  0.00000000E+00
  0.00000000E+00  0.00000000E+00  0.00000000E+00
  0.00000000E+00  0.00000000E+00  0.00000000E+00
  0.00000000E+00  0.00000000E+00  0.00000000E+00
  0.00000000E+00  0.00000000E+00  0.00000000E+00
  0.00000000E+00  0.00000000E+00  0.00000000E+00
  0.00000000E+00  0.00000000E+00  0.00000000E+00
  0.00000000E+00  0.00000000E+00  0.00000000E+00
  0.00000000E+00  0.00000000E+00  0.00000000E+00
  0.00000000E+00  0.00000000E+00  0.00000000E+00
  0.00000000E+00  0.00000000E+00  0.00000000E+00
  0.00000000E+00  0.00000000E+00  0.00000000E+00
