Title                                   
   1.00000000000000     
     4.9440799999999996    0.0000000000000000    0.0000000000000000
     0.0000000000000000   17.1295089999999988    0.0000000000000000
     0.0000000000000000    0.0000000000000000   20.0000000000000000
    29     1     1
Selective dynamics
Direct
 -0.0017959183784128  0.1054080714217226  0.2979124862517083   T   T   T
  0.2473992209961266  0.1481793507200349  0.2986780955158137   T   T   T
  0.2470672434362155  0.2316551116927628  0.3001372082681996   T   T   T
 -0.0040008161355544  0.2741008762991955  0.3006341537320353   T   T   T
  0.0019206967761493  0.6018624376479742  0.3009398960817685   T   T   T
  0.2511829777310006  0.7274378093685376  0.2991523615197434   T   T   T
 -0.0002875061403690  0.8535585663819163  0.2972763519474589   T   T   T
  0.2497802301271161  0.8958117598286671  0.2968930671582248   T   T   T
  0.2491450320697841  0.9794359640092797  0.2967032595078544   T   T   T
  0.0002063860209631  0.7697795708735024  0.2984578806319028   T   T   T
  0.4983920006426898  0.1056424186374951  0.2979956902284219   T   T   T
  0.7487706046295166  0.1473309366262990  0.2986388533794300   T   T   T
  0.7475420289997852  0.2312360090597501  0.3001369300081093   T   T   T
  0.4989670915898995  0.0218539098317717  0.2969726482343941   T   T   T
  0.7541649769736829  0.3927870640818018  0.3024617263015721   T   T   T
  0.7578244502527818  0.4787820034167026  0.3024848126638163   T   T   T
  0.4979784418749397  0.2736981147476638  0.3011408037953344   T   T   T
  0.5013245303938448  0.6008122466553919  0.3012610644009340   T   T   T
  0.7506974363497891  0.7277460449916083  0.2991178297808238   T   T   T
  0.5003796521447498  0.8536179231650574  0.2973112418582113   T   T   T
  0.7499045551341474  0.8957485186256405  0.2968413652842430   T   T   T
  0.7491682827620708  0.9797032416361993  0.2966644821240897   T   T   T
  0.5013273565144981  0.7699350979908205  0.2985202925423920   T   T   T
  0.7511480997004147  0.6437319562656609  0.3004532143460513   T   T   T
  0.2518472643240907  0.6443375478875117  0.3004627274344370   T   T   T
 -0.0010921421445414  0.0216633510244012  0.2969183894428457   T   T   T
  0.5094921529299848  0.5179825208458680  0.3024832863904320   T   T   T
  0.0004993797041694  0.5195226628983308  0.3017389630933399   T   T   T
  0.5073192331423870  0.3559831921507398  0.3028358467331523   T   T   T
 -0.0083053929311455  0.3544373212233757  0.3014074737901719   T   T   T
  0.2520394505092292  0.4375603999943136  0.3024275975530397   T   T   T
 
  0.00000000E+00  0.00000000E+00  0.00000000E+00
  0.00000000E+00  0.00000000E+00  0.00000000E+00
  0.00000000E+00  0.00000000E+00  0.00000000E+00
  0.00000000E+00  0.00000000E+00  0.00000000E+00
  0.00000000E+00  0.00000000E+00  0.00000000E+00
  0.00000000E+00  0.00000000E+00  0.00000000E+00
  0.00000000E+00  0.00000000E+00  0.00000000E+00
  0.00000000E+00  0.00000000E+00  0.00000000E+00
  0.00000000E+00  0.00000000E+00  0.00000000E+00
  0.00000000E+00  0.00000000E+00  0.00000000E+00
  0.00000000E+00  0.00000000E+00  0.00000000E+00
  0.00000000E+00  0.00000000E+00  0.00000000E+00
  0.00000000E+00  0.00000000E+00  0.00000000E+00
  0.00000000E+00  0.00000000E+00  0.00000000E+00
  0.00000000E+00  0.00000000E+00  0.00000000E+00
  0.00000000E+00  0.00000000E+00  0.00000000E+00
  0.00000000E+00  0.00000000E+00  0.00000000E+00
  0.00000000E+00  0.00000000E+00  0.00000000E+00
  0.00000000E+00  0.00000000E+00  0.00000000E+00
  0.00000000E+00  0.00000000E+00  0.00000000E+00
  0.00000000E+00  0.00000000E+00  0.00000000E+00
  0.00000000E+00  0.00000000E+00  0.00000000E+00
  0.00000000E+00  0.00000000E+00  0.00000000E+00
  0.00000000E+00  0.00000000E+00  0.00000000E+00
  0.00000000E+00  0.00000000E+00  0.00000000E+00
  0.00000000E+00  0.00000000E+00  0.00000000E+00
  0.00000000E+00  0.00000000E+00  0.00000000E+00
  0.00000000E+00  0.00000000E+00  0.00000000E+00
  0.00000000E+00  0.00000000E+00  0.00000000E+00
  0.00000000E+00  0.00000000E+00  0.00000000E+00
  0.00000000E+00  0.00000000E+00  0.00000000E+00
