Title                                   
   1.00000000000000     
     9.8694509999999998    0.0000000000000000    0.0000000000000000
     0.0000000000000000    8.5490480000000009    0.0000000000000000
     0.0000000000000000    0.0000000000000000   20.0000000000000000
    27     4     1
Selective dynamics
Direct
  0.0562557989847698  0.0920438729282211  0.0827606341326486   T   T   T
  0.9304742142882577  0.1748191613573923  0.0846962505987991   T   T   T
  0.0562838611583419  0.9245897489480667  0.0840467226271972   T   T   T
  0.9291632230793241  0.3419228217316706  0.0887056266711523   T   T   T
  0.0562199403169683  0.5895689944588540  0.0875989085300491   T   T   T
  0.9317689754116767  0.6736081018595262  0.0902406402271560   T   T   T
  0.0562110668751071  0.4235264811968634  0.0879609541067201   T   T   T
  0.9316897466256743  0.8405407324458487  0.0872856357699997   T   T   T
  0.3055534317414837  0.0894190127019251  0.0849428567237199   T   T   T
  0.1820369660385194  0.1747804606407380  0.0843822239281205   T   T   T
  0.3063491889743660  0.9238229274752349  0.0867649850005986   T   T   T
  0.1832677546211069  0.3418710698108086  0.0884546520232892   T   T   T
  0.3042485449212965  0.5931340593675827  0.1001480799021214   T   T   T
  0.1807140944589861  0.6735877496336066  0.0898823434018998   T   T   T
  0.3102901594664841  0.4248774379470231  0.0970566172074399   T   T   T
  0.1808940408782084  0.8405463117383370  0.0868192993038575   T   T   T
  0.5562644418368751  0.0832623045633400  0.0949391597952641   T   T   T
  0.4317516198778152  0.1678657842161481  0.0923828183068373   T   T   T
  0.4325900072904211  0.3316776865211509  0.1012327013740338   T   T   T
  0.4282681780806211  0.8397089288376508  0.0967873235164458   T   T   T
  0.8069545596982419  0.0894319608458509  0.0854454307061226   T   T   T
  0.6807680673468871  0.1678939683072423  0.0927040685043425   T   T   T
  0.8062208887115697  0.9238217744140795  0.0873795849568887   T   T   T
  0.6798607952612549  0.3317446354269750  0.1015267531251024   T   T   T
  0.8083127768300585  0.5931690273225190  0.1007163999787965   T   T   T
  0.8021706461394594  0.4249415122615282  0.0974500023167666   T   T   T
  0.6843418809266301  0.8397192317700413  0.0973490013668067   T   T   T
  0.4188981183547965  0.6856592167176582  0.1169224883487742   T   T   T
  0.5561162814350005  0.3998089513960971  0.1204400970337248   T   T   T
  0.6937253193865016  0.6856848400815024  0.1176465779879829   T   T   T
  0.5562827462670172  0.9168163827164914  0.0970718813820583   T   T   T
  0.5556916647162859  0.5863808503600293  0.1739342811453003   T   T   T
 
  0.00000000E+00  0.00000000E+00  0.00000000E+00
  0.00000000E+00  0.00000000E+00  0.00000000E+00
  0.00000000E+00  0.00000000E+00  0.00000000E+00
  0.00000000E+00  0.00000000E+00  0.00000000E+00
  0.00000000E+00  0.00000000E+00  0.00000000E+00
  0.00000000E+00  0.00000000E+00  0.00000000E+00
  0.00000000E+00  0.00000000E+00  0.00000000E+00
  0.00000000E+00  0.00000000E+00  0.00000000E+00
  0.00000000E+00  0.00000000E+00  0.00000000E+00
  0.00000000E+00  0.00000000E+00  0.00000000E+00
  0.00000000E+00  0.00000000E+00  0.00000000E+00
  0.00000000E+00  0.00000000E+00  0.00000000E+00
  0.00000000E+00  0.00000000E+00  0.00000000E+00
  0.00000000E+00  0.00000000E+00  0.00000000E+00
  0.00000000E+00  0.00000000E+00  0.00000000E+00
  0.00000000E+00  0.00000000E+00  0.00000000E+00
  0.00000000E+00  0.00000000E+00  0.00000000E+00
  0.00000000E+00  0.00000000E+00  0.00000000E+00
  0.00000000E+00  0.00000000E+00  0.00000000E+00
  0.00000000E+00  0.00000000E+00  0.00000000E+00
  0.00000000E+00  0.00000000E+00  0.00000000E+00
  0.00000000E+00  0.00000000E+00  0.00000000E+00
  0.00000000E+00  0.00000000E+00  0.00000000E+00
  0.00000000E+00  0.00000000E+00  0.00000000E+00
  0.00000000E+00  0.00000000E+00  0.00000000E+00
  0.00000000E+00  0.00000000E+00  0.00000000E+00
  0.00000000E+00  0.00000000E+00  0.00000000E+00
  0.00000000E+00  0.00000000E+00  0.00000000E+00
  0.00000000E+00  0.00000000E+00  0.00000000E+00
  0.00000000E+00  0.00000000E+00  0.00000000E+00
  0.00000000E+00  0.00000000E+00  0.00000000E+00
  0.00000000E+00  0.00000000E+00  0.00000000E+00
