Title                                   
   1.00000000000000     
     9.8694509999999998    0.0000000000000000    0.0000000000000000
     0.0000000000000000    8.5490480000000009    0.0000000000000000
     0.0000000000000000    0.0000000000000000   20.0000000000000000
    30     1
Selective dynamics
Direct
  0.0562394990805204  0.0892395839112696  0.0800926177162568   T   T   T
  0.9312065763987397  0.1715165647971978  0.0829493844151528   T   T   T
  0.0562247764789961  0.9230650415809711  0.0800909294029465   T   T   T
  0.9331622467761508  0.3381808153898165  0.0809259128052602   T   T   T
  0.0562294905703563  0.5896672525140705  0.0754689522231586   T   T   T
  0.9331639695434590  0.6741086626630566  0.0809000092447429   T   T   T
  0.0562353782088716  0.4226511848473843  0.0754658773539308   T   T   T
  0.9311741820491709  0.8408059362094581  0.0829099053778396   T   T   T
  0.3062460876617628  0.0901127071749418  0.0926965207734100   T   T   T
  0.1812790739172750  0.1715192252516944  0.0830030464112951   T   T   T
  0.3062269993247392  0.9221703805805261  0.0927038184836513   T   T   T
  0.1793177355811128  0.3382089437095462  0.0810005901779515   T   T   T
  0.2979206186177422  0.5906185601984962  0.0950821392999833   T   T   T
  0.1792987438257335  0.6741033627664181  0.0810118461296614   T   T   T
  0.2979361361803028  0.4216779302933340  0.0950735616353420   T   T   T
  0.1812328999611706  0.8407827812548052  0.0829989655339014   T   T   T
  0.5562071934892868  0.0905845401715905  0.1079833896984394   T   T   T
  0.4285855248606744  0.1761034242326254  0.1050610954617297   T   T   T
  0.5562091120239410  0.9217095384905475  0.1079639673492538   T   T   T
  0.4186198273266478  0.3425859489599036  0.1132411961831025   T   T   T
  0.4185703787063268  0.6697527320229436  0.1132443737624820   T   T   T
  0.4285761180857864  0.8362127216184206  0.1050514334820078   T   T   T
  0.8061932433260468  0.0901229805840479  0.0926156284534196   T   T   T
  0.6838504874578107  0.1761137472310091  0.1050016146651596   T   T   T
  0.8061858369028660  0.9221787006424230  0.0925993938782039   T   T   T
  0.6939099528608922  0.3426032200152582  0.1131518575196153   T   T   T
  0.8145471961215026  0.5906505328173750  0.0949375694214663   T   T   T
  0.6938831102764893  0.6697466424171392  0.1131291069949407   T   T   T
  0.8145711333634421  0.4217093718791426  0.0949645823535734   T   T   T
  0.6838452680038412  0.8362235995404184  0.1049508350217286   T   T   T
  0.5562862030183524  0.5061483662341810  0.1346948787704346   T   T   T
 
  0.00000000E+00  0.00000000E+00  0.00000000E+00
  0.00000000E+00  0.00000000E+00  0.00000000E+00
  0.00000000E+00  0.00000000E+00  0.00000000E+00
  0.00000000E+00  0.00000000E+00  0.00000000E+00
  0.00000000E+00  0.00000000E+00  0.00000000E+00
  0.00000000E+00  0.00000000E+00  0.00000000E+00
  0.00000000E+00  0.00000000E+00  0.00000000E+00
  0.00000000E+00  0.00000000E+00  0.00000000E+00
  0.00000000E+00  0.00000000E+00  0.00000000E+00
  0.00000000E+00  0.00000000E+00  0.00000000E+00
  0.00000000E+00  0.00000000E+00  0.00000000E+00
  0.00000000E+00  0.00000000E+00  0.00000000E+00
  0.00000000E+00  0.00000000E+00  0.00000000E+00
  0.00000000E+00  0.00000000E+00  0.00000000E+00
  0.00000000E+00  0.00000000E+00  0.00000000E+00
  0.00000000E+00  0.00000000E+00  0.00000000E+00
  0.00000000E+00  0.00000000E+00  0.00000000E+00
  0.00000000E+00  0.00000000E+00  0.00000000E+00
  0.00000000E+00  0.00000000E+00  0.00000000E+00
  0.00000000E+00  0.00000000E+00  0.00000000E+00
  0.00000000E+00  0.00000000E+00  0.00000000E+00
  0.00000000E+00  0.00000000E+00  0.00000000E+00
  0.00000000E+00  0.00000000E+00  0.00000000E+00
  0.00000000E+00  0.00000000E+00  0.00000000E+00
  0.00000000E+00  0.00000000E+00  0.00000000E+00
  0.00000000E+00  0.00000000E+00  0.00000000E+00
  0.00000000E+00  0.00000000E+00  0.00000000E+00
  0.00000000E+00  0.00000000E+00  0.00000000E+00
  0.00000000E+00  0.00000000E+00  0.00000000E+00
  0.00000000E+00  0.00000000E+00  0.00000000E+00
  0.00000000E+00  0.00000000E+00  0.00000000E+00
