Title                                   
   1.00000000000000     
     4.9440799999999996    0.0000000000000000    0.0000000000000000
     0.0000000000000000    8.5647549999999999    0.0000000000000000
     0.0000000000000000    0.0000000000000000   20.0000000000000000
    11     3     1
Selective dynamics
Direct
  0.0008085069197685  0.2926965914672051  0.0955496230491012   T   T   T
  0.2500000000000000  0.0379355270301861  0.0961023370766579   T   T   T
 -0.0017669265946706  0.9556711078611596  0.0960819680101223   T   T   T
  0.7500000000000000  0.2061144606483889  0.0922402327589342   T   T   T
  0.4991914930802316  0.2926965914672051  0.0955496230491012   T   T   T
  0.7500000000000000  0.0407983163644960  0.0930120467183297   T   T   T
  0.7500000000000000  0.7158177988424879  0.0996188328022164   T   T   T
  0.7500000000000000  0.5409033215463241  0.0999085483168713   T   T   T
  0.5017669265946709  0.9556711078611596  0.0960819680101223   T   T   T
  0.5005352092584064  0.4564873736174646  0.1011447298685365   T   T   T
 -0.0005352092584063  0.4564873736174646  0.1011447298685365   T   T   T
 -0.0089821838781018  0.7938000318775721  0.1002175464503745   T   T   T
  0.5089821838781018  0.7938000318775721  0.1002175464503745   T   T   T
  0.2500000000000000  0.2065399940885928  0.0957714121305896   T   T   T
  0.2500000000000000  0.6262613718327245  0.1453388554401353   T   T   T
 
  0.00000000E+00  0.00000000E+00  0.00000000E+00
  0.00000000E+00  0.00000000E+00  0.00000000E+00
  0.00000000E+00  0.00000000E+00  0.00000000E+00
  0.00000000E+00  0.00000000E+00  0.00000000E+00
  0.00000000E+00  0.00000000E+00  0.00000000E+00
  0.00000000E+00  0.00000000E+00  0.00000000E+00
  0.00000000E+00  0.00000000E+00  0.00000000E+00
  0.00000000E+00  0.00000000E+00  0.00000000E+00
  0.00000000E+00  0.00000000E+00  0.00000000E+00
  0.00000000E+00  0.00000000E+00  0.00000000E+00
  0.00000000E+00  0.00000000E+00  0.00000000E+00
  0.00000000E+00  0.00000000E+00  0.00000000E+00
  0.00000000E+00  0.00000000E+00  0.00000000E+00
  0.00000000E+00  0.00000000E+00  0.00000000E+00
  0.00000000E+00  0.00000000E+00  0.00000000E+00
