Title                                   
   1.00000000000000     
     8.5490480000000009    0.0000000000000000    0.0000000000000000
     0.0000000000000000    8.5490480000000009    0.0000000000000000
     0.0000000000000000    0.0000000000000000   20.0000000000000000
    18     6     1
Selective dynamics
Direct
  0.9088798267930359  0.2051490596257649  0.0974551017783800   T   T   T
  0.9109524906282764  0.8013629310663211  0.0974418232823364   T   T   T
  0.1954935134698868  0.0836381494591438  0.0976873007118478   T   T   T
  0.0755162052620822  0.2008285157494960  0.0975800813000625   T   T   T
  0.1561934918650116  0.6524509436218332  0.0977625478500751   T   T   T
  0.0775422345553008  0.5008354794569938  0.0978179372023700   T   T   T
  0.1558879668656747  0.3502154070713288  0.0978499500503564   T   T   T
  0.0780500859321793  0.7996537535704268  0.0975303123194461   T   T   T
  0.4936320089502184  0.0881204264930040  0.0979061918686522   T   T   T
  0.3422776289357039  0.1657193997402304  0.0979550463182225   T   T   T
  0.4930928145260660  0.9168490683029962  0.0978236414743328   T   T   T
  0.3424836603424181  0.8361427658620194  0.0978558508063999   T   T   T
  0.7891608751017785  0.0870655502277874  0.0974707552004919   T   T   T
  0.6428518287242270  0.1689413157124529  0.0978152327523358   T   T   T
  0.7897162724111597  0.9187883770695925  0.0974366709627673   T   T   T
  0.8301417057848657  0.6518353806513758  0.0977021195595629   T   T   T
  0.8286327935501838  0.3534229658595362  0.0977590543642542   T   T   T
  0.6435427525466800  0.8356598645544645  0.0976838505390245   T   T   T
  0.9078770409847114  0.5023591503863014  0.0978156439596986   T   T   T
  0.3170939169660335  0.3263411610966685  0.0981121270380289   T   T   T
  0.3174709328682401  0.6786120601036837  0.0979988260039750   T   T   T
  0.6690311852119154  0.3318734743043538  0.0980140511154044   T   T   T
  0.6707624635159899  0.6729428421030671  0.0978325944585865   T   T   T
  0.1965028992617253  0.9162627584355592  0.0976586345176745   T   T   T
  0.4926254049466291  0.4997191994755980  0.0977396545656943   T   T   T
 
  0.00000000E+00  0.00000000E+00  0.00000000E+00
  0.00000000E+00  0.00000000E+00  0.00000000E+00
  0.00000000E+00  0.00000000E+00  0.00000000E+00
  0.00000000E+00  0.00000000E+00  0.00000000E+00
  0.00000000E+00  0.00000000E+00  0.00000000E+00
  0.00000000E+00  0.00000000E+00  0.00000000E+00
  0.00000000E+00  0.00000000E+00  0.00000000E+00
  0.00000000E+00  0.00000000E+00  0.00000000E+00
  0.00000000E+00  0.00000000E+00  0.00000000E+00
  0.00000000E+00  0.00000000E+00  0.00000000E+00
  0.00000000E+00  0.00000000E+00  0.00000000E+00
  0.00000000E+00  0.00000000E+00  0.00000000E+00
  0.00000000E+00  0.00000000E+00  0.00000000E+00
  0.00000000E+00  0.00000000E+00  0.00000000E+00
  0.00000000E+00  0.00000000E+00  0.00000000E+00
  0.00000000E+00  0.00000000E+00  0.00000000E+00
  0.00000000E+00  0.00000000E+00  0.00000000E+00
  0.00000000E+00  0.00000000E+00  0.00000000E+00
  0.00000000E+00  0.00000000E+00  0.00000000E+00
  0.00000000E+00  0.00000000E+00  0.00000000E+00
  0.00000000E+00  0.00000000E+00  0.00000000E+00
  0.00000000E+00  0.00000000E+00  0.00000000E+00
  0.00000000E+00  0.00000000E+00  0.00000000E+00
  0.00000000E+00  0.00000000E+00  0.00000000E+00
  0.00000000E+00  0.00000000E+00  0.00000000E+00
