Title                                   
   1.00000000000000     
     4.9440799999999996    0.0000000000000000    0.0000000000000000
     0.0000000000000000    8.5647549999999999    0.0000000000000000
     0.0000000000000000    0.0000000000000000   20.0000000000000000
    14     1     1
Selective dynamics
Direct
 -0.0030978940240885  0.2880056781874777  0.0829072739582701   T   T   T
  0.2500000000000000  0.0427593932582353  0.0853808264629658   T   T   T
  0.0021140805563734  0.8014259593296156  0.1134241622507743   T   T   T
  0.0005296399136417  0.9602111649080771  0.0901765497148540   T   T   T
  0.7500000000000000  0.2015228295024943  0.0755865002669322   T   T   T
  0.5030978940240886  0.2880056781874777  0.0829072739582701   T   T   T
  0.7500000000000000  0.0378666614024840  0.0800705098075294   T   T   T
  0.7500000000000000  0.7122561146060447  0.1137856381178902   T   T   T
  0.4978859194436264  0.8014259593296156  0.1134241622507743   T   T   T
  0.7500000000000000  0.5425017949078861  0.1052251235375602   T   T   T
  0.4994703600863585  0.9602111649080771  0.0901765497148540   T   T   T
  0.5140503688799549  0.4445715546955969  0.1003345890604745   T   T   T
 -0.0140503688799554  0.4445715546955969  0.1003345890604745   T   T   T
  0.2500000000000000  0.7392526656180285  0.1355346111991756   T   T   T
  0.2500000000000000  0.2067423009764996  0.0791773568953103   T   T   T
  0.2500000000000000  0.5286695254867920  0.1640662837439000   T   T   T
 
  0.00000000E+00  0.00000000E+00  0.00000000E+00
  0.00000000E+00  0.00000000E+00  0.00000000E+00
  0.00000000E+00  0.00000000E+00  0.00000000E+00
  0.00000000E+00  0.00000000E+00  0.00000000E+00
  0.00000000E+00  0.00000000E+00  0.00000000E+00
  0.00000000E+00  0.00000000E+00  0.00000000E+00
  0.00000000E+00  0.00000000E+00  0.00000000E+00
  0.00000000E+00  0.00000000E+00  0.00000000E+00
  0.00000000E+00  0.00000000E+00  0.00000000E+00
  0.00000000E+00  0.00000000E+00  0.00000000E+00
  0.00000000E+00  0.00000000E+00  0.00000000E+00
  0.00000000E+00  0.00000000E+00  0.00000000E+00
  0.00000000E+00  0.00000000E+00  0.00000000E+00
  0.00000000E+00  0.00000000E+00  0.00000000E+00
  0.00000000E+00  0.00000000E+00  0.00000000E+00
  0.00000000E+00  0.00000000E+00  0.00000000E+00
