Title                                   
   1.00000000000000     
     9.8694509999999998    0.0000000000000000    0.0000000000000000
     0.0000000000000000    8.5490480000000009    0.0000000000000000
     0.0000000000000000    0.0000000000000000   20.0000000000000000
    27     3     1
Selective dynamics
Direct
  0.0559360347130341  0.0885240798044646  0.0901120173307468   T   T   T
  0.9314572941394811  0.1717826934701548  0.0925904458675611   T   T   T
  0.0573154462513148  0.9218570137305567  0.0905187598407665   T   T   T
  0.9325970387909450  0.3391173534170809  0.0942820635509532   T   T   T
  0.0565470218694752  0.5905608944565951  0.0933782255345016   T   T   T
  0.0565445513757984  0.4236137052908965  0.0926861988095772   T   T   T
  0.9320012783082042  0.8381461666777777  0.0932343032628055   T   T   T
  0.3081934908310333  0.0885815034377351  0.0871655140217272   T   T   T
  0.1824688904230370  0.1717858956800797  0.0886815579828408   T   T   T
  0.1809331039489302  0.3386344380617893  0.0900898065064372   T   T   T
  0.3053052418988836  0.5896162251797660  0.0885224726182831   T   T   T
  0.1806755048923362  0.6745005788874610  0.0914153575987768   T   T   T
  0.3057987678592750  0.4210999607848065  0.0881177842456166   T   T   T
  0.1831099145411122  0.8403059599030076  0.0895523879500142   T   T   T
  0.4334163832386624  0.1724402118990506  0.0889520802625371   T   T   T
  0.5566522843042423  0.9240276161372526  0.0954484356993532   T   T   T
  0.4311641750305041  0.3373765254145780  0.0899451465844969   T   T   T
  0.4293703676747817  0.6757340760748768  0.0896159937707070   T   T   T
  0.4315385392687696  0.8401890044453634  0.0899572924742258   T   T   T
  0.8056180413301929  0.0887060468487451  0.0939880917818367   T   T   T
  0.6807436673421956  0.1770363382593371  0.0979735489299557   T   T   T
  0.8064358265081407  0.9207512470430892  0.0944584663261539   T   T   T
  0.6825271336929034  0.3428601175069826  0.1056463135495960   T   T   T
  0.8098419890732025  0.5910546448083940  0.1006974096637140   T   T   T
  0.6848230414603292  0.6696755172716620  0.1066540725022379   T   T   T
  0.8100102189962066  0.4216813456399956  0.1000690223634133   T   T   T
  0.6799465107844777  0.8368125734635005  0.0989148835903972   T   T   T
  0.9329305737380855  0.6721452749068322  0.0947664048748894   T   T   T
  0.5581838771426983  0.0910666933104444  0.0945180106852761   T   T   T
  0.3062327595993645  0.9231062221109653  0.0873245672827700   T   T   T
  0.5348160309723861  0.5080850760767798  0.1416883645378589   T   T   T
 
  0.00000000E+00  0.00000000E+00  0.00000000E+00
  0.00000000E+00  0.00000000E+00  0.00000000E+00
  0.00000000E+00  0.00000000E+00  0.00000000E+00
  0.00000000E+00  0.00000000E+00  0.00000000E+00
  0.00000000E+00  0.00000000E+00  0.00000000E+00
  0.00000000E+00  0.00000000E+00  0.00000000E+00
  0.00000000E+00  0.00000000E+00  0.00000000E+00
  0.00000000E+00  0.00000000E+00  0.00000000E+00
  0.00000000E+00  0.00000000E+00  0.00000000E+00
  0.00000000E+00  0.00000000E+00  0.00000000E+00
  0.00000000E+00  0.00000000E+00  0.00000000E+00
  0.00000000E+00  0.00000000E+00  0.00000000E+00
  0.00000000E+00  0.00000000E+00  0.00000000E+00
  0.00000000E+00  0.00000000E+00  0.00000000E+00
  0.00000000E+00  0.00000000E+00  0.00000000E+00
  0.00000000E+00  0.00000000E+00  0.00000000E+00
  0.00000000E+00  0.00000000E+00  0.00000000E+00
  0.00000000E+00  0.00000000E+00  0.00000000E+00
  0.00000000E+00  0.00000000E+00  0.00000000E+00
  0.00000000E+00  0.00000000E+00  0.00000000E+00
  0.00000000E+00  0.00000000E+00  0.00000000E+00
  0.00000000E+00  0.00000000E+00  0.00000000E+00
  0.00000000E+00  0.00000000E+00  0.00000000E+00
  0.00000000E+00  0.00000000E+00  0.00000000E+00
  0.00000000E+00  0.00000000E+00  0.00000000E+00
  0.00000000E+00  0.00000000E+00  0.00000000E+00
  0.00000000E+00  0.00000000E+00  0.00000000E+00
  0.00000000E+00  0.00000000E+00  0.00000000E+00
  0.00000000E+00  0.00000000E+00  0.00000000E+00
  0.00000000E+00  0.00000000E+00  0.00000000E+00
  0.00000000E+00  0.00000000E+00  0.00000000E+00
