Title                                   
   1.00000000000000     
     8.5490480000000009    0.0000000000000000    0.0000000000000000
     0.0000000000000000    8.5490480000000009    0.0000000000000000
     0.0000000000000000    0.0000000000000000   20.0000000000000000
    21     3     1
Selective dynamics
Direct
  0.9084385251546161  0.2073923831629343  0.0975001524162801   T   T   T
  0.9091015578719566  0.5030978401340387  0.0975797861642355   T   T   T
  0.9116075720432432  0.8009520879827322  0.0976293265369503   T   T   T
  0.1970512502510647  0.0827263166385914  0.0977894504113755   T   T   T
  0.0749383641119254  0.2027457142656787  0.0976562845946592   T   T   T
  0.1606596347617097  0.6479461430313299  0.0976825994711971   T   T   T
  0.0785566277940702  0.5013141414131421  0.0976550956860844   T   T   T
  0.1590903634488333  0.3526479160153418  0.0978117670547664   T   T   T
  0.0795295155283391  0.7975937219585726  0.0976432600552410   T   T   T
  0.4920618115323505  0.0864779013035193  0.0978458652259073   T   T   T
  0.3428636125567530  0.1652020923460728  0.0979466820681797   T   T   T
  0.4922124364963085  0.9170001618307443  0.0978405345600440   T   T   T
  0.3469259135412799  0.8344099451792349  0.0978220414401582   T   T   T
  0.7859275603569729  0.0858966430651181  0.0975941705087334   T   T   T
  0.6365256321505798  0.1680137576465816  0.0977334247561164   T   T   T
  0.7885602649103222  0.9204832363465882  0.0976934564552136   T   T   T
  0.8294232045500783  0.6522894800894349  0.0977004392271508   T   T   T
  0.8275216865666075  0.3573110796338410  0.0975358679135102   T   T   T
  0.6400998588404802  0.8356283699734092  0.0978635226919939   T   T   T
  0.3263288987403921  0.6699972156367136  0.0977927972332605   T   T   T
  0.6594058062034847  0.3359134893151463  0.0976898301457755   T   T   T
  0.3204158733036315  0.3291976415474154  0.0980675466239198   T   T   T
  0.6652133698325627  0.6739298698982141  0.0979241435186189   T   T   T
  0.1984393565567585  0.9159415527422569  0.0977827141441359   T   T   T
  0.4945133028956657  0.5006812988433619  0.0979242410964728   T   T   T
 
  0.00000000E+00  0.00000000E+00  0.00000000E+00
  0.00000000E+00  0.00000000E+00  0.00000000E+00
  0.00000000E+00  0.00000000E+00  0.00000000E+00
  0.00000000E+00  0.00000000E+00  0.00000000E+00
  0.00000000E+00  0.00000000E+00  0.00000000E+00
  0.00000000E+00  0.00000000E+00  0.00000000E+00
  0.00000000E+00  0.00000000E+00  0.00000000E+00
  0.00000000E+00  0.00000000E+00  0.00000000E+00
  0.00000000E+00  0.00000000E+00  0.00000000E+00
  0.00000000E+00  0.00000000E+00  0.00000000E+00
  0.00000000E+00  0.00000000E+00  0.00000000E+00
  0.00000000E+00  0.00000000E+00  0.00000000E+00
  0.00000000E+00  0.00000000E+00  0.00000000E+00
  0.00000000E+00  0.00000000E+00  0.00000000E+00
  0.00000000E+00  0.00000000E+00  0.00000000E+00
  0.00000000E+00  0.00000000E+00  0.00000000E+00
  0.00000000E+00  0.00000000E+00  0.00000000E+00
  0.00000000E+00  0.00000000E+00  0.00000000E+00
  0.00000000E+00  0.00000000E+00  0.00000000E+00
  0.00000000E+00  0.00000000E+00  0.00000000E+00
  0.00000000E+00  0.00000000E+00  0.00000000E+00
  0.00000000E+00  0.00000000E+00  0.00000000E+00
  0.00000000E+00  0.00000000E+00  0.00000000E+00
  0.00000000E+00  0.00000000E+00  0.00000000E+00
  0.00000000E+00  0.00000000E+00  0.00000000E+00
