Title                                   
   1.00000000000000     
     9.8694509999999998    0.0000000000000000    0.0000000000000000
     0.0000000000000000    8.5490480000000009    0.0000000000000000
     0.0000000000000000    0.0000000000000000   20.0000000000000000
    26     4     1
Selective dynamics
Direct
  0.0554099762807940  0.0889830013194190  0.0918859312506713   T   T   T
  0.9305256224938669  0.1715535020501229  0.0935488493643083   T   T   T
  0.0570446767846669  0.9235080269893499  0.0921011473598364   T   T   T
  0.9341064425354290  0.3386336889490508  0.0934532652485369   T   T   T
  0.0581733066920752  0.5894429992656604  0.0907453581294393   T   T   T
  0.9345015816310165  0.6734858311592091  0.0937348597441319   T   T   T
  0.0580637365742653  0.4228641870199428  0.0905024367090899   T   T   T
  0.9315911391021986  0.8402955256304013  0.0938329800246045   T   T   T
  0.3061773731986834  0.0876300272501679  0.0927507967097368   T   T   T
  0.1816046533731855  0.1712453692223281  0.0911174942932613   T   T   T
  0.1813314103263292  0.3386331346089676  0.0900538705751570   T   T   T
  0.3047566180962445  0.5899803706977123  0.0914057413834024   T   T   T
  0.1819042971573948  0.6733187320178865  0.0903880215469602   T   T   T
  0.3045197722124988  0.4212098542122482  0.0912913138039133   T   T   T
  0.1816542711388926  0.8402056370256565  0.0915043134797246   T   T   T
  0.4298068104587294  0.1763447847351889  0.0951981343017180   T   T   T
  0.5527253506263230  0.9219125949695617  0.0981004720450191   T   T   T
  0.4289587919985496  0.8370395296743619  0.0954347103934688   T   T   T
  0.8038833068425110  0.0894115285075861  0.0960553204543995   T   T   T
  0.6797063553630374  0.1783721404633167  0.0989860078661256   T   T   T
  0.8052386752299362  0.9221640430545219  0.0962623910830107   T   T   T
  0.6852486270383075  0.3435793852207788  0.1017888364610518   T   T   T
  0.8128070898092424  0.5902110743794149  0.0981098343444557   T   T   T
  0.6861049224009844  0.6685986704625693  0.1017851102262339   T   T   T
  0.8127573564392565  0.4215538414951617  0.0980548848187102   T   T   T
  0.6797831829904256  0.8355302953839031  0.0993067165372728   T   T   T
  0.5536127417886881  0.0934864425388835  0.0980490236195280   T   T   T
  0.4254529380197516  0.3366011096925417  0.0950934497240863   T   T   T
  0.4247606689943945  0.6746884342665420  0.0952295491777108   T   T   T
  0.3055170656389872  0.9229237302244588  0.0928617900771056   T   T   T
  0.5554062387633498  0.5074675075130897  0.1023323892473776   T   T   T
 
  0.00000000E+00  0.00000000E+00  0.00000000E+00
  0.00000000E+00  0.00000000E+00  0.00000000E+00
  0.00000000E+00  0.00000000E+00  0.00000000E+00
  0.00000000E+00  0.00000000E+00  0.00000000E+00
  0.00000000E+00  0.00000000E+00  0.00000000E+00
  0.00000000E+00  0.00000000E+00  0.00000000E+00
  0.00000000E+00  0.00000000E+00  0.00000000E+00
  0.00000000E+00  0.00000000E+00  0.00000000E+00
  0.00000000E+00  0.00000000E+00  0.00000000E+00
  0.00000000E+00  0.00000000E+00  0.00000000E+00
  0.00000000E+00  0.00000000E+00  0.00000000E+00
  0.00000000E+00  0.00000000E+00  0.00000000E+00
  0.00000000E+00  0.00000000E+00  0.00000000E+00
  0.00000000E+00  0.00000000E+00  0.00000000E+00
  0.00000000E+00  0.00000000E+00  0.00000000E+00
  0.00000000E+00  0.00000000E+00  0.00000000E+00
  0.00000000E+00  0.00000000E+00  0.00000000E+00
  0.00000000E+00  0.00000000E+00  0.00000000E+00
  0.00000000E+00  0.00000000E+00  0.00000000E+00
  0.00000000E+00  0.00000000E+00  0.00000000E+00
  0.00000000E+00  0.00000000E+00  0.00000000E+00
  0.00000000E+00  0.00000000E+00  0.00000000E+00
  0.00000000E+00  0.00000000E+00  0.00000000E+00
  0.00000000E+00  0.00000000E+00  0.00000000E+00
  0.00000000E+00  0.00000000E+00  0.00000000E+00
  0.00000000E+00  0.00000000E+00  0.00000000E+00
  0.00000000E+00  0.00000000E+00  0.00000000E+00
  0.00000000E+00  0.00000000E+00  0.00000000E+00
  0.00000000E+00  0.00000000E+00  0.00000000E+00
  0.00000000E+00  0.00000000E+00  0.00000000E+00
  0.00000000E+00  0.00000000E+00  0.00000000E+00
