Title                                   
   1.00000000000000     
     9.8694509999999998    0.0000000000000000    0.0000000000000000
     0.0000000000000000    8.5490480000000009    0.0000000000000000
     0.0000000000000000    0.0000000000000000   20.0000000000000000
    27     4     1
Selective dynamics
Direct
  0.0562385071918014  0.0922959140170502  0.0842723324452985   T   T   T
  0.9305060428745192  0.1750029551917834  0.0871707858118526   T   T   T
  0.0562346455292015  0.9247502320649884  0.0833411504733839   T   T   T
  0.9288839776139116  0.3420505673305254  0.0915573866139169   T   T   T
  0.0562059476139444  0.5896762754998263  0.0877019755794936   T   T   T
  0.9319749010339567  0.6737646338653807  0.0889066820943275   T   T   T
  0.0562254324584450  0.4235462900286349  0.0899384967039035   T   T   T
  0.9318132420541124  0.8401722368997125  0.0857497998229781   T   T   T
  0.3054948167357285  0.0892271008157924  0.0870165518321804   T   T   T
  0.1819619672099398  0.1749973926716779  0.0867797674789053   T   T   T
  0.3058842208481501  0.9242131872116754  0.0868826592058447   T   T   T
  0.1835642761155108  0.3420249893923272  0.0911601312682919   T   T   T
  0.3051673596494851  0.5940221519049554  0.0993062881788617   T   T   T
  0.1804803885805920  0.6737871488731535  0.0885394430666978   T   T   T
  0.3103194645611029  0.4250434742822258  0.0990282570123639   T   T   T
  0.1806829396348763  0.8401892389788117  0.0854832424122553   T   T   T
  0.5562411359430984  0.0822796850453140  0.0960403560816935   T   T   T
  0.4320621304298650  0.1670426668454239  0.0939763539740997   T   T   T
  0.4346235828668402  0.3322196623822533  0.1029244635271834   T   T   T
  0.4267576626010854  0.8377113455829559  0.0977024569360349   T   T   T
  0.8070317633774977  0.0892168374308977  0.0875768201837896   T   T   T
  0.6804397481588644  0.1670698726601165  0.0944053457388582   T   T   T
  0.8066633168031085  0.9242095047754330  0.0873459851215136   T   T   T
  0.6778569246647814  0.3322479675669066  0.1033458265646393   T   T   T
  0.8073743650100673  0.5940448461412136  0.0999665646861786   T   T   T
  0.8021802721429558  0.4250779249478627  0.0996249894700273   T   T   T
  0.6857671225804256  0.8377117097136167  0.0981572065413923   T   T   T
  0.4190917849723329  0.6843721531830171  0.1120711375199341   T   T   T
  0.5561253286585868  0.4019020798311853  0.1167845923257436   T   T   T
  0.6935596517839137  0.6844890913956470  0.1128037135802994   T   T   T
  0.5562530998111480  0.9161167737842506  0.0984581651485535   T   T   T
  0.5559729804901571  0.5897700896853859  0.1616560725995195   T   T   T
 
  0.00000000E+00  0.00000000E+00  0.00000000E+00
  0.00000000E+00  0.00000000E+00  0.00000000E+00
  0.00000000E+00  0.00000000E+00  0.00000000E+00
  0.00000000E+00  0.00000000E+00  0.00000000E+00
  0.00000000E+00  0.00000000E+00  0.00000000E+00
  0.00000000E+00  0.00000000E+00  0.00000000E+00
  0.00000000E+00  0.00000000E+00  0.00000000E+00
  0.00000000E+00  0.00000000E+00  0.00000000E+00
  0.00000000E+00  0.00000000E+00  0.00000000E+00
  0.00000000E+00  0.00000000E+00  0.00000000E+00
  0.00000000E+00  0.00000000E+00  0.00000000E+00
  0.00000000E+00  0.00000000E+00  0.00000000E+00
  0.00000000E+00  0.00000000E+00  0.00000000E+00
  0.00000000E+00  0.00000000E+00  0.00000000E+00
  0.00000000E+00  0.00000000E+00  0.00000000E+00
  0.00000000E+00  0.00000000E+00  0.00000000E+00
  0.00000000E+00  0.00000000E+00  0.00000000E+00
  0.00000000E+00  0.00000000E+00  0.00000000E+00
  0.00000000E+00  0.00000000E+00  0.00000000E+00
  0.00000000E+00  0.00000000E+00  0.00000000E+00
  0.00000000E+00  0.00000000E+00  0.00000000E+00
  0.00000000E+00  0.00000000E+00  0.00000000E+00
  0.00000000E+00  0.00000000E+00  0.00000000E+00
  0.00000000E+00  0.00000000E+00  0.00000000E+00
  0.00000000E+00  0.00000000E+00  0.00000000E+00
  0.00000000E+00  0.00000000E+00  0.00000000E+00
  0.00000000E+00  0.00000000E+00  0.00000000E+00
  0.00000000E+00  0.00000000E+00  0.00000000E+00
  0.00000000E+00  0.00000000E+00  0.00000000E+00
  0.00000000E+00  0.00000000E+00  0.00000000E+00
  0.00000000E+00  0.00000000E+00  0.00000000E+00
  0.00000000E+00  0.00000000E+00  0.00000000E+00
