Title                                   
   1.00000000000000     
     4.9440799999999996    0.0000000000000000    0.0000000000000000
     0.0000000000000000    8.5647549999999999    0.0000000000000000
     0.0000000000000000    0.0000000000000000   20.0000000000000000
    12     2     1
Selective dynamics
Direct
  0.0009064541118125  0.2940971951403523  0.0960680112936572   T   T   T
  0.2525667745144759  0.0402156989437030  0.0958661268435276   T   T   T
  0.0041753270645711  0.9559518565697377  0.0958553964142090   T   T   T
  0.7494863499166068  0.2074102390789069  0.0938917185065122   T   T   T
  0.4968112388682533  0.2926806803686589  0.0957201051080015   T   T   T
  0.7522931493280577  0.0401330106168317  0.0942933416448695   T   T   T
  0.7490335974467788  0.7125952895882446  0.1014017214558164   T   T   T
  0.7432113392342407  0.5398439391141955  0.1019074047674578   T   T   T
  0.5034724553560310  0.9559509436692635  0.0973182731776068   T   T   T
  0.4933309718669976  0.4577063093681925  0.1006217415525011   T   T   T
 -0.0017354563754514  0.4592608080275803  0.1020463516213780   T   T   T
 -0.0018798728335649  0.7888165950028118  0.0993565665453946   T   T   T
  0.5053069687273742  0.7932288099072993  0.1036610628062701   T   T   T
  0.2506358036118737  0.2075492456778487  0.0950159496593818   T   T   T
  0.2523848991619431  0.6262403789263753  0.1349562286034198   T   T   T
 
  0.00000000E+00  0.00000000E+00  0.00000000E+00
  0.00000000E+00  0.00000000E+00  0.00000000E+00
  0.00000000E+00  0.00000000E+00  0.00000000E+00
  0.00000000E+00  0.00000000E+00  0.00000000E+00
  0.00000000E+00  0.00000000E+00  0.00000000E+00
  0.00000000E+00  0.00000000E+00  0.00000000E+00
  0.00000000E+00  0.00000000E+00  0.00000000E+00
  0.00000000E+00  0.00000000E+00  0.00000000E+00
  0.00000000E+00  0.00000000E+00  0.00000000E+00
  0.00000000E+00  0.00000000E+00  0.00000000E+00
  0.00000000E+00  0.00000000E+00  0.00000000E+00
  0.00000000E+00  0.00000000E+00  0.00000000E+00
  0.00000000E+00  0.00000000E+00  0.00000000E+00
  0.00000000E+00  0.00000000E+00  0.00000000E+00
  0.00000000E+00  0.00000000E+00  0.00000000E+00
