Title                                   
   1.00000000000000     
     8.5490480000000009    0.0000000000000000    0.0000000000000000
     0.0000000000000000    8.5490480000000009    0.0000000000000000
     0.0000000000000000    0.0000000000000000   20.0000000000000000
    23     1     1
Selective dynamics
Direct
  0.9107174512411379  0.2073337340227220  0.0954154817486021   T   T   T
  0.9056182699025642  0.5028536005096946  0.0952915489507997   T   T   T
  0.9108602208894421  0.7989182204715075  0.0954344564905748   T   T   T
  0.1984400400250144  0.0838180373084706  0.0954457640234181   T   T   T
  0.0750394056718670  0.2071606525075630  0.0954146771233918   T   T   T
  0.1986125816878829  0.9194913658837974  0.0954622666160358   T   T   T
  0.1565248589988168  0.6480901359524399  0.0953585881634071   T   T   T
  0.0746379643562474  0.5028314322243077  0.0953116473395251   T   T   T
  0.1577918399455960  0.3569767110390170  0.0953369683180599   T   T   T
  0.0758233042918101  0.7972925069490989  0.0954454995580849   T   T   T
  0.4940256526329908  0.0834230510103669  0.0953539139764084   T   T   T
  0.3481970828136162  0.1666045126308749  0.0953756952682951   T   T   T
  0.4940689037054229  0.9143914816630618  0.0953440859280977   T   T   T
  0.3479347269043092  0.8341779283843194  0.0953830585029254   T   T   T
  0.7885007586127055  0.0845612098284475  0.0954373522612870   T   T   T
  0.6392818974685475  0.1653031742145413  0.0953442124265073   T   T   T
  0.7901707430764211  0.9196128798006764  0.0954382627193237   T   T   T
  0.8265696074131262  0.6511127733989833  0.0952893047029760   T   T   T
  0.8253976613305029  0.3566916073645887  0.0953169314491085   T   T   T
  0.6423414318596569  0.8353227741850212  0.0953009169221692   T   T   T
  0.3257094731753665  0.3345093357572471  0.0953011887713379   T   T   T
  0.3241199644979814  0.6675441149337684  0.0953086868764687   T   T   T
  0.6587416121071406  0.3328898920735087  0.0952632577135606   T   T   T
  0.6654596127400983  0.6742287799392340  0.0951619439065747   T   T   T
  0.4908269346517287  0.4996500879467541  0.0951692902430381   T   T   T
 
  0.00000000E+00  0.00000000E+00  0.00000000E+00
  0.00000000E+00  0.00000000E+00  0.00000000E+00
  0.00000000E+00  0.00000000E+00  0.00000000E+00
  0.00000000E+00  0.00000000E+00  0.00000000E+00
  0.00000000E+00  0.00000000E+00  0.00000000E+00
  0.00000000E+00  0.00000000E+00  0.00000000E+00
  0.00000000E+00  0.00000000E+00  0.00000000E+00
  0.00000000E+00  0.00000000E+00  0.00000000E+00
  0.00000000E+00  0.00000000E+00  0.00000000E+00
  0.00000000E+00  0.00000000E+00  0.00000000E+00
  0.00000000E+00  0.00000000E+00  0.00000000E+00
  0.00000000E+00  0.00000000E+00  0.00000000E+00
  0.00000000E+00  0.00000000E+00  0.00000000E+00
  0.00000000E+00  0.00000000E+00  0.00000000E+00
  0.00000000E+00  0.00000000E+00  0.00000000E+00
  0.00000000E+00  0.00000000E+00  0.00000000E+00
  0.00000000E+00  0.00000000E+00  0.00000000E+00
  0.00000000E+00  0.00000000E+00  0.00000000E+00
  0.00000000E+00  0.00000000E+00  0.00000000E+00
  0.00000000E+00  0.00000000E+00  0.00000000E+00
  0.00000000E+00  0.00000000E+00  0.00000000E+00
  0.00000000E+00  0.00000000E+00  0.00000000E+00
  0.00000000E+00  0.00000000E+00  0.00000000E+00
  0.00000000E+00  0.00000000E+00  0.00000000E+00
  0.00000000E+00  0.00000000E+00  0.00000000E+00
