Title                                   
   1.00000000000000     
     4.9440799999999996    0.0000000000000000    0.0000000000000000
     0.0000000000000000   17.1295089999999988    0.0000000000000000
     0.0000000000000000    0.0000000000000000   20.0000000000000000
    28     2     1
Selective dynamics
Direct
  0.0020080032543123  0.1054566405139896  0.2934272512363171   T   T   T
  0.2512512702821654  0.1479467481390427  0.2946649355868338   T   T   T
  0.2518708556304462  0.2323052545582629  0.2985309340819250   T   T   T
 -0.0011361647307328  0.2728559587129381  0.3009853850487217   T   T   T
 -0.0037315650822172  0.6030545263126157  0.3046484533175473   T   T   T
  0.2484383780945148  0.7278499795465881  0.2958258147435233   T   T   T
 -0.0007287520225565  0.8539776903347843  0.2932230955819220   T   T   T
  0.2493398140993293  0.8960057945362081  0.2927509886527163   T   T   T
  0.2501297212121601  0.9795884978604517  0.2924480575592823   T   T   T
 -0.0014703111535312  0.7703178526630776  0.2947135861211732   T   T   T
  0.5000871114815370  0.1054494024185166  0.2931252573786463   T   T   T
  0.7512237974392426  0.1467596424614202  0.2937702738001353   T   T   T
  0.7514807445113126  0.2300917463168816  0.2965974268669178   T   T   T
  0.4998584416060633  0.0216744629056956  0.2923137868057032   T   T   T
  0.7525801866204086  0.3910405419124862  0.3056835088591685   T   T   T
  0.7508237145664030  0.4785948356154314  0.3076162616551899   T   T   T
  0.5047547655466077  0.2728856756101365  0.2989458719290584   T   T   T
  0.4980309808162465  0.6017195232151021  0.2993083950336338   T   T   T
  0.7481347335648024  0.7286536156600685  0.2949534810333228   T   T   T
  0.4989740234832480  0.8539983889295280  0.2928092642198138   T   T   T
  0.7493443029486268  0.8959850949585804  0.2925393488200643   T   T   T
  0.7501491630785516  0.9798442368698640  0.2922472920556387   T   T   T
  0.4984079425447855  0.7703516403371455  0.2938591024324383   T   T   T
  0.7475975992799001  0.6449416712332361  0.2983745920169871   T   T   T
  0.2477157336368899  0.6447416581718123  0.3000649952305857   T   T   T
  0.0008710689521447  0.0216671640420103  0.2925228587216872   T   T   T
  0.5030255351050327  0.5187265070628666  0.2997755655210768   T   T   T
  0.9945057601260622  0.5211852743789321  0.3163157060837176   T   T   T
  0.5132312124768270  0.3535285305699015  0.3021679484956342   T   T   T
 -0.0095826229840162  0.3528450376742713  0.3087424868882878   T   T   T
  0.2628215556154345  0.4372984064781515  0.3521080742222827   T   T   T
 
  0.00000000E+00  0.00000000E+00  0.00000000E+00
  0.00000000E+00  0.00000000E+00  0.00000000E+00
  0.00000000E+00  0.00000000E+00  0.00000000E+00
  0.00000000E+00  0.00000000E+00  0.00000000E+00
  0.00000000E+00  0.00000000E+00  0.00000000E+00
  0.00000000E+00  0.00000000E+00  0.00000000E+00
  0.00000000E+00  0.00000000E+00  0.00000000E+00
  0.00000000E+00  0.00000000E+00  0.00000000E+00
  0.00000000E+00  0.00000000E+00  0.00000000E+00
  0.00000000E+00  0.00000000E+00  0.00000000E+00
  0.00000000E+00  0.00000000E+00  0.00000000E+00
  0.00000000E+00  0.00000000E+00  0.00000000E+00
  0.00000000E+00  0.00000000E+00  0.00000000E+00
  0.00000000E+00  0.00000000E+00  0.00000000E+00
  0.00000000E+00  0.00000000E+00  0.00000000E+00
  0.00000000E+00  0.00000000E+00  0.00000000E+00
  0.00000000E+00  0.00000000E+00  0.00000000E+00
  0.00000000E+00  0.00000000E+00  0.00000000E+00
  0.00000000E+00  0.00000000E+00  0.00000000E+00
  0.00000000E+00  0.00000000E+00  0.00000000E+00
  0.00000000E+00  0.00000000E+00  0.00000000E+00
  0.00000000E+00  0.00000000E+00  0.00000000E+00
  0.00000000E+00  0.00000000E+00  0.00000000E+00
  0.00000000E+00  0.00000000E+00  0.00000000E+00
  0.00000000E+00  0.00000000E+00  0.00000000E+00
  0.00000000E+00  0.00000000E+00  0.00000000E+00
  0.00000000E+00  0.00000000E+00  0.00000000E+00
  0.00000000E+00  0.00000000E+00  0.00000000E+00
  0.00000000E+00  0.00000000E+00  0.00000000E+00
  0.00000000E+00  0.00000000E+00  0.00000000E+00
  0.00000000E+00  0.00000000E+00  0.00000000E+00
