Title                                   
   1.00000000000000     
     4.9440799999999996    0.0000000000000000    0.0000000000000000
     0.0000000000000000   17.1295089999999988    0.0000000000000000
     0.0000000000000000    0.0000000000000000   20.0000000000000000
    29     1     1
Selective dynamics
Direct
 -0.0040527343306911  0.1042945342175555  0.2975720775366136   T   T   T
  0.2445867989607069  0.1467065974523791  0.2977713449869933   T   T   T
  0.2426934113057408  0.2298700159904142  0.2990259589400730   T   T   T
 -0.0099905957634513  0.2713907901333278  0.3013743552758101   T   T   T
  0.0053767512305933  0.6043626895790594  0.2997679472957833   T   T   T
  0.2538693904152130  0.7289256586120492  0.2978781174457344   T   T   T
  0.0009550229614226  0.8542768980421710  0.2969429616954997   T   T   T
  0.2503838437593772  0.8960533088609379  0.2970702247891861   T   T   T
  0.2483376170512442  0.9792328168663995  0.2970882903020496   T   T   T
  0.0029820350852379  0.7709566453640853  0.2970743764338518   T   T   T
  0.4954923880502770  0.1044595255672113  0.2969366899335624   T   T   T
  0.7455087359684394  0.1455696178887164  0.2972272879597945   T   T   T
  0.7427902519916788  0.2288321436020686  0.2980747136867669   T   T   T
  0.4975459607999793  0.0211099510461316  0.2969255991109280   T   T   T
  0.7530490554568147  0.3922966618981679  0.3003946458928168   T   T   T
  0.7593355000931514  0.4794096562197375  0.3006417962831995   T   T   T
  0.4934862433311462  0.2712883025661261  0.2974290985886962   T   T   T
  0.5074243588082090  0.6036078141387879  0.3021819119977112   T   T   T
  0.7536269133198658  0.7295801640719236  0.2975082359353692   T   T   T
  0.5011215315429566  0.8542894113565067  0.2970952758754290   T   T   T
  0.7504452469997448  0.8959619778793577  0.2969524572222376   T   T   T
  0.7483257953648372  0.9794463226157568  0.2969555891100129   T   T   T
  0.5032564319836240  0.7710371065215824  0.2974521120976522   T   T   T
  0.7553071446411505  0.6462807718398301  0.2994064517446440   T   T   T
  0.2559353440410486  0.6459038183794322  0.2999626384217880   T   T   T
 -0.0021315779234333  0.0210123983034634  0.2971827191043090   T   T   T
  0.5171850681931129  0.5214264180799296  0.3068875434319656   T   T   T
  0.9974855293457336  0.5222777317938692  0.3013133341790067   T   T   T
  0.5101315888243942  0.3530785164936694  0.2969632996339276   T   T   T
 -0.0162877825292924  0.3506422381684868  0.3066434563292924   T   T   T
  0.2558317310211718  0.4377614964508612  0.3193594887592473   T   T   T
 
  0.00000000E+00  0.00000000E+00  0.00000000E+00
  0.00000000E+00  0.00000000E+00  0.00000000E+00
  0.00000000E+00  0.00000000E+00  0.00000000E+00
  0.00000000E+00  0.00000000E+00  0.00000000E+00
  0.00000000E+00  0.00000000E+00  0.00000000E+00
  0.00000000E+00  0.00000000E+00  0.00000000E+00
  0.00000000E+00  0.00000000E+00  0.00000000E+00
  0.00000000E+00  0.00000000E+00  0.00000000E+00
  0.00000000E+00  0.00000000E+00  0.00000000E+00
  0.00000000E+00  0.00000000E+00  0.00000000E+00
  0.00000000E+00  0.00000000E+00  0.00000000E+00
  0.00000000E+00  0.00000000E+00  0.00000000E+00
  0.00000000E+00  0.00000000E+00  0.00000000E+00
  0.00000000E+00  0.00000000E+00  0.00000000E+00
  0.00000000E+00  0.00000000E+00  0.00000000E+00
  0.00000000E+00  0.00000000E+00  0.00000000E+00
  0.00000000E+00  0.00000000E+00  0.00000000E+00
  0.00000000E+00  0.00000000E+00  0.00000000E+00
  0.00000000E+00  0.00000000E+00  0.00000000E+00
  0.00000000E+00  0.00000000E+00  0.00000000E+00
  0.00000000E+00  0.00000000E+00  0.00000000E+00
  0.00000000E+00  0.00000000E+00  0.00000000E+00
  0.00000000E+00  0.00000000E+00  0.00000000E+00
  0.00000000E+00  0.00000000E+00  0.00000000E+00
  0.00000000E+00  0.00000000E+00  0.00000000E+00
  0.00000000E+00  0.00000000E+00  0.00000000E+00
  0.00000000E+00  0.00000000E+00  0.00000000E+00
  0.00000000E+00  0.00000000E+00  0.00000000E+00
  0.00000000E+00  0.00000000E+00  0.00000000E+00
  0.00000000E+00  0.00000000E+00  0.00000000E+00
  0.00000000E+00  0.00000000E+00  0.00000000E+00
