Title                                   
   1.00000000000000     
     4.9440799999999996    0.0000000000000000    0.0000000000000000
     0.0000000000000000   17.1295089999999988    0.0000000000000000
     0.0000000000000000    0.0000000000000000   20.0000000000000000
    26     4     1
Selective dynamics
Direct
  0.0001406754810770  0.1062296670998407  0.2967301424814633   T   T   T
  0.2488012907762441  0.1492363687635742  0.2970336220534024   T   T   T
  0.2478249369592069  0.2341199837541068  0.2991710485166607   T   T   T
 -0.0033814601267227  0.2762567691474907  0.3032057570530395   T   T   T
 -0.0034902809691162  0.5986351378288974  0.3034408750008802   T   T   T
  0.2486780010410399  0.7256973011274492  0.2972980216722991   T   T   T
 -0.0002177904575108  0.8530557930633611  0.2964019241978695   T   T   T
  0.2496343189396807  0.8953303779967413  0.2961497066111841   T   T   T
  0.2496811889923334  0.9796401210139156  0.2960876435341105   T   T   T
  0.0000129668971437  0.7687199463102267  0.2970061514368821   T   T   T
  0.4988979854289775  0.1065403509058797  0.2956751801402125   T   T   T
  0.7502209708791201  0.1483831558023947  0.2959701973574846   T   T   T
  0.7506281789203464  0.2322302502710029  0.2966976928439948   T   T   T
  0.4992368941314415  0.0221783542456057  0.2956637455405257   T   T   T
  0.7465996623766569  0.3954462957235331  0.3015050884780475   T   T   T
  0.7465714627798496  0.4794362823979563  0.3016009876004023   T   T   T
  0.5013296357828272  0.2745100505316089  0.2957127593152613   T   T   T
  0.5012387963969990  0.6003864437587272  0.2959379167592205   T   T   T
  0.7500746797316913  0.7265507251611115  0.2962421185589573   T   T   T
  0.4991630251072313  0.8528047362519160  0.2957967750867234   T   T   T
  0.7493662125176299  0.8953222146134951  0.2958925117794349   T   T   T
  0.7494212427034881  0.9796666392675725  0.2958301957538423   T   T   T
  0.4987563696435427  0.7684111860769751  0.2959203209495941   T   T   T
  0.7505140128541945  0.6426863986743221  0.2969610924959025   T   T   T
  0.2477318487614953  0.6407919591807499  0.2994587203681925   T   T   T
 -0.0001309271869760  0.0219147152590864  0.2962682701479359   T   T   T
  0.5077554309223208  0.5205130210527071  0.2925289834184990   T   T   T
  0.9882547149761978  0.5183529180046783  0.3152246103301549   T   T   T
  0.5077861720628810  0.3543815758540921  0.2924001389059434   T   T   T
 -0.0117547041111823  0.3565030694565440  0.3151397299437860   T   T   T
  0.2906614877878935  0.4374101914044329  0.3361080716680458   T   T   T
 
  0.00000000E+00  0.00000000E+00  0.00000000E+00
  0.00000000E+00  0.00000000E+00  0.00000000E+00
  0.00000000E+00  0.00000000E+00  0.00000000E+00
  0.00000000E+00  0.00000000E+00  0.00000000E+00
  0.00000000E+00  0.00000000E+00  0.00000000E+00
  0.00000000E+00  0.00000000E+00  0.00000000E+00
  0.00000000E+00  0.00000000E+00  0.00000000E+00
  0.00000000E+00  0.00000000E+00  0.00000000E+00
  0.00000000E+00  0.00000000E+00  0.00000000E+00
  0.00000000E+00  0.00000000E+00  0.00000000E+00
  0.00000000E+00  0.00000000E+00  0.00000000E+00
  0.00000000E+00  0.00000000E+00  0.00000000E+00
  0.00000000E+00  0.00000000E+00  0.00000000E+00
  0.00000000E+00  0.00000000E+00  0.00000000E+00
  0.00000000E+00  0.00000000E+00  0.00000000E+00
  0.00000000E+00  0.00000000E+00  0.00000000E+00
  0.00000000E+00  0.00000000E+00  0.00000000E+00
  0.00000000E+00  0.00000000E+00  0.00000000E+00
  0.00000000E+00  0.00000000E+00  0.00000000E+00
  0.00000000E+00  0.00000000E+00  0.00000000E+00
  0.00000000E+00  0.00000000E+00  0.00000000E+00
  0.00000000E+00  0.00000000E+00  0.00000000E+00
  0.00000000E+00  0.00000000E+00  0.00000000E+00
  0.00000000E+00  0.00000000E+00  0.00000000E+00
  0.00000000E+00  0.00000000E+00  0.00000000E+00
  0.00000000E+00  0.00000000E+00  0.00000000E+00
  0.00000000E+00  0.00000000E+00  0.00000000E+00
  0.00000000E+00  0.00000000E+00  0.00000000E+00
  0.00000000E+00  0.00000000E+00  0.00000000E+00
  0.00000000E+00  0.00000000E+00  0.00000000E+00
  0.00000000E+00  0.00000000E+00  0.00000000E+00
