Title                                   
   1.00000000000000     
     4.9440799999999996    0.0000000000000000    0.0000000000000000
     0.0000000000000000   17.1295089999999988    0.0000000000000000
     0.0000000000000000    0.0000000000000000   20.0000000000000000
    26     4     1
Selective dynamics
Direct
  0.0015853613086197  0.1055094153102932  0.2970819434491764   T   T   T
  0.2510965603296610  0.1483124368957523  0.2978092280484543   T   T   T
  0.2517734728311847  0.2329137382778758  0.2994775561565731   T   T   T
 -0.0017782410608196  0.2733190284033069  0.2991270405766694   T   T   T
 -0.0034524484909044  0.6013391036605801  0.2997704500462905   T   T   T
  0.2478091958654836  0.7267009362756252  0.2982877639978455   T   T   T
  0.0008240657685204  0.8531713390177897  0.2973419164295001   T   T   T
  0.2495801172558281  0.8952931784201621  0.2973480743295595   T   T   T
  0.2500437358833031  0.9793077742844908  0.2971808919814777   T   T   T
  0.0004968734024936  0.7689688086579809  0.2975764294209732   T   T   T
  0.4997476882186012  0.1053258348789947  0.2972535617333992   T   T   T
  0.7504952260782609  0.1470779634591185  0.2970582614781155   T   T   T
  0.7509180338471574  0.2304525433053526  0.2978411154027734   T   T   T
  0.4996666349871274  0.0214042739182911  0.2971045773229966   T   T   T
  0.7557991037733768  0.3937499976879003  0.3015633246167480   T   T   T
  0.7534331924075138  0.4807803614247493  0.3016402393675073   T   T   T
  0.5048984733891175  0.2744817648841601  0.3004681978468205   T   T   T
  0.4998080440816195  0.6017633964004835  0.3001586715878557   T   T   T
  0.7496567705716196  0.7277600176783482  0.2973369616303524   T   T   T
  0.4980777938347263  0.8528580921925585  0.2973884745184897   T   T   T
  0.7496291634221375  0.8950008064310487  0.2972456823278178   T   T   T
  0.7500868238997658  0.9790688753328541  0.2970850762340027   T   T   T
  0.4970956657101175  0.7686613060254793  0.2976292169707930   T   T   T
  0.7476924113704744  0.6451006170365439  0.2979862287250373   T   T   T
  0.0007474112950349  0.0214451041202377  0.2970144889357206   T   T   T
  0.5080103430756150  0.5204583463673458  0.3042260236120109   T   T   T
  0.9951453690211198  0.5223041075806738  0.3022814417670348   T   T   T
  0.5159115236914807  0.3546478716877638  0.3046818835023736   T   T   T
 -0.0096884880361332  0.3532827898992483  0.3006007756810687   T   T   T
  0.2462884574174512  0.6430547894292077  0.2997016012472087   T   T   T
  0.2486086648504477  0.4378273810557801  0.3177929010553063   T   T   T
 
  0.00000000E+00  0.00000000E+00  0.00000000E+00
  0.00000000E+00  0.00000000E+00  0.00000000E+00
  0.00000000E+00  0.00000000E+00  0.00000000E+00
  0.00000000E+00  0.00000000E+00  0.00000000E+00
  0.00000000E+00  0.00000000E+00  0.00000000E+00
  0.00000000E+00  0.00000000E+00  0.00000000E+00
  0.00000000E+00  0.00000000E+00  0.00000000E+00
  0.00000000E+00  0.00000000E+00  0.00000000E+00
  0.00000000E+00  0.00000000E+00  0.00000000E+00
  0.00000000E+00  0.00000000E+00  0.00000000E+00
  0.00000000E+00  0.00000000E+00  0.00000000E+00
  0.00000000E+00  0.00000000E+00  0.00000000E+00
  0.00000000E+00  0.00000000E+00  0.00000000E+00
  0.00000000E+00  0.00000000E+00  0.00000000E+00
  0.00000000E+00  0.00000000E+00  0.00000000E+00
  0.00000000E+00  0.00000000E+00  0.00000000E+00
  0.00000000E+00  0.00000000E+00  0.00000000E+00
  0.00000000E+00  0.00000000E+00  0.00000000E+00
  0.00000000E+00  0.00000000E+00  0.00000000E+00
  0.00000000E+00  0.00000000E+00  0.00000000E+00
  0.00000000E+00  0.00000000E+00  0.00000000E+00
  0.00000000E+00  0.00000000E+00  0.00000000E+00
  0.00000000E+00  0.00000000E+00  0.00000000E+00
  0.00000000E+00  0.00000000E+00  0.00000000E+00
  0.00000000E+00  0.00000000E+00  0.00000000E+00
  0.00000000E+00  0.00000000E+00  0.00000000E+00
  0.00000000E+00  0.00000000E+00  0.00000000E+00
  0.00000000E+00  0.00000000E+00  0.00000000E+00
  0.00000000E+00  0.00000000E+00  0.00000000E+00
  0.00000000E+00  0.00000000E+00  0.00000000E+00
  0.00000000E+00  0.00000000E+00  0.00000000E+00
