Title                                   
   1.00000000000000     
     9.8694509999999998    0.0000000000000000    0.0000000000000000
     0.0000000000000000    8.5490480000000009    0.0000000000000000
     0.0000000000000000    0.0000000000000000   20.0000000000000000
    27     3     1
Selective dynamics
Direct
  0.0554874049460770  0.0902983774268919  0.0834657763941627   T   T   T
  0.9301805280783501  0.1725962760929049  0.0849301515160859   T   T   T
  0.0564335786882424  0.9237325087296266  0.0831025072681257   T   T   T
  0.9330034895052312  0.3400322435814644  0.0830149034341244   T   T   T
  0.0568365421604686  0.5892288912184465  0.0786166150668542   T   T   T
  0.9338783610037557  0.6750484882969979  0.0832005195226134   T   T   T
  0.0570105355261513  0.4233223531935845  0.0789963241158142   T   T   T
  0.9320879579011921  0.8413903822862142  0.0854514228277479   T   T   T
  0.3062643137202786  0.0907998213079187  0.0936377367809509   T   T   T
  0.1804768317507456  0.1720492191820613  0.0863189944911159   T   T   T
  0.3068135267259184  0.9218126653946739  0.0921528317784239   T   T   T
  0.1803200485779663  0.3389296089324707  0.0843657049845116   T   T   T
  0.3013082238049758  0.5902212899584576  0.0928077857127998   T   T   T
  0.1802040555565241  0.6732573667986554  0.0827183351405066   T   T   T
  0.3010600115980016  0.4209871652185989  0.0950626530604925   T   T   T
  0.1813318117603830  0.8406333720834960  0.0846613376662469   T   T   T
  0.5552767635373681  0.0897715743392189  0.1067269978950752   T   T   T
  0.4276529796060696  0.1768519721172251  0.1049584915904697   T   T   T
  0.5558072828511283  0.9174106711925966  0.1061711545243163   T   T   T
  0.4282440982946367  0.8331964073425825  0.1013850933730837   T   T   T
  0.8041671287348556  0.0904558146179006  0.0924490139957140   T   T   T
  0.6810914191785509  0.1760446525949649  0.1024405154218578   T   T   T
  0.8057153065283980  0.9215551741235816  0.0930023832880015   T   T   T
  0.6889009040407741  0.3458312592367275  0.1078850209407167   T   T   T
  0.8141046171565098  0.5927047800074502  0.0943648182575856   T   T   T
  0.8128237398861969  0.4248006938091267  0.0927079214979893   T   T   T
  0.6847675974738573  0.8331712772677320  0.1040069382667766   T   T   T
  0.4200375604711020  0.3417186179880749  0.1126855243345638   T   T   T
  0.6947651549902704  0.6697755819751247  0.1114088406360881   T   T   T
  0.4202759423220551  0.6702270267410790  0.1048633003402521   T   T   T
  0.5568072836239739  0.5030194669441629  0.1334053858769741   T   T   T
 
  0.00000000E+00  0.00000000E+00  0.00000000E+00
  0.00000000E+00  0.00000000E+00  0.00000000E+00
  0.00000000E+00  0.00000000E+00  0.00000000E+00
  0.00000000E+00  0.00000000E+00  0.00000000E+00
  0.00000000E+00  0.00000000E+00  0.00000000E+00
  0.00000000E+00  0.00000000E+00  0.00000000E+00
  0.00000000E+00  0.00000000E+00  0.00000000E+00
  0.00000000E+00  0.00000000E+00  0.00000000E+00
  0.00000000E+00  0.00000000E+00  0.00000000E+00
  0.00000000E+00  0.00000000E+00  0.00000000E+00
  0.00000000E+00  0.00000000E+00  0.00000000E+00
  0.00000000E+00  0.00000000E+00  0.00000000E+00
  0.00000000E+00  0.00000000E+00  0.00000000E+00
  0.00000000E+00  0.00000000E+00  0.00000000E+00
  0.00000000E+00  0.00000000E+00  0.00000000E+00
  0.00000000E+00  0.00000000E+00  0.00000000E+00
  0.00000000E+00  0.00000000E+00  0.00000000E+00
  0.00000000E+00  0.00000000E+00  0.00000000E+00
  0.00000000E+00  0.00000000E+00  0.00000000E+00
  0.00000000E+00  0.00000000E+00  0.00000000E+00
  0.00000000E+00  0.00000000E+00  0.00000000E+00
  0.00000000E+00  0.00000000E+00  0.00000000E+00
  0.00000000E+00  0.00000000E+00  0.00000000E+00
  0.00000000E+00  0.00000000E+00  0.00000000E+00
  0.00000000E+00  0.00000000E+00  0.00000000E+00
  0.00000000E+00  0.00000000E+00  0.00000000E+00
  0.00000000E+00  0.00000000E+00  0.00000000E+00
  0.00000000E+00  0.00000000E+00  0.00000000E+00
  0.00000000E+00  0.00000000E+00  0.00000000E+00
  0.00000000E+00  0.00000000E+00  0.00000000E+00
  0.00000000E+00  0.00000000E+00  0.00000000E+00
