Title                                   
   1.00000000000000     
     4.9440799999999996    0.0000000000000000    0.0000000000000000
     0.0000000000000000    8.5647549999999999    0.0000000000000000
     0.0000000000000000    0.0000000000000000   20.0000000000000000
    10     4     1
Selective dynamics
Direct
 -0.0014354882780025  0.2925059918531795  0.0932887925015044   T   T   T
  0.2525649142438035  0.0379196354136828  0.0963243169922062   T   T   T
  0.0003748879129930  0.9568845238957759  0.0926382844059434   T   T   T
  0.7496311053992711  0.2074124041915177  0.0927526320550711   T   T   T
  0.4999394102634163  0.2963574053766343  0.0995487794486583   T   T   T
  0.7507866648196175  0.0404969102359396  0.0934743597875650   T   T   T
  0.7575131538807320  0.7113949180239000  0.0974270404512292   T   T   T
  0.7562629333267584  0.5393286918747140  0.0993712983054494   T   T   T
  0.5043534924453248  0.9543799418573986  0.0993300500580857   T   T   T
  0.5065780681436809  0.4584913790255973  0.1103681892767869   T   T   T
 -0.0000642141353189  0.4528502520138649  0.0932284613288246   T   T   T
 -0.0041283142880971  0.7944992046856664  0.0887841622518880   T   T   T
  0.5147725381278254  0.7908352744166444  0.1102016291277730   T   T   T
  0.2496706755705504  0.2101330787814656  0.0966951790270822   T   T   T
  0.2131801725674451  0.6281913883540212  0.1445468249819358   T   T   T
 
  0.00000000E+00  0.00000000E+00  0.00000000E+00
  0.00000000E+00  0.00000000E+00  0.00000000E+00
  0.00000000E+00  0.00000000E+00  0.00000000E+00
  0.00000000E+00  0.00000000E+00  0.00000000E+00
  0.00000000E+00  0.00000000E+00  0.00000000E+00
  0.00000000E+00  0.00000000E+00  0.00000000E+00
  0.00000000E+00  0.00000000E+00  0.00000000E+00
  0.00000000E+00  0.00000000E+00  0.00000000E+00
  0.00000000E+00  0.00000000E+00  0.00000000E+00
  0.00000000E+00  0.00000000E+00  0.00000000E+00
  0.00000000E+00  0.00000000E+00  0.00000000E+00
  0.00000000E+00  0.00000000E+00  0.00000000E+00
  0.00000000E+00  0.00000000E+00  0.00000000E+00
  0.00000000E+00  0.00000000E+00  0.00000000E+00
  0.00000000E+00  0.00000000E+00  0.00000000E+00
