Title                                   
   1.00000000000000     
     4.9440799999999996    0.0000000000000000    0.0000000000000000
     0.0000000000000000   17.1295089999999988    0.0000000000000000
     0.0000000000000000    0.0000000000000000   20.0000000000000000
    27     3     1
Selective dynamics
Direct
 -0.0044344783535813  0.1049519834373469  0.2933994285735313   T   T   T
  0.2435634414332348  0.1475984619502834  0.2947962629710076   T   T   T
  0.2404983131833332  0.2316221391929814  0.2991341272937988   T   T   T
 -0.0108323335085048  0.2737820322842370  0.3018608206593039   T   T   T
  0.0098358575643321  0.6017617075255259  0.2996457801691704   T   T   T
  0.2570063797223662  0.7269095376672010  0.2947305560057493   T   T   T
  0.0036479221067507  0.8527976294563060  0.2926182408855280   T   T   T
  0.2517376281848371  0.8951351746983801  0.2925693128966360   T   T   T
  0.2488359495147428  0.9791840795926643  0.2924980914153011   T   T   T
  0.0067402190891193  0.7685920376269785  0.2933474155892089   T   T   T
  0.4948828433071904  0.1053308761270342  0.2931272843776471   T   T   T
  0.7453302316391642  0.1472032398671790  0.2935644806642628   T   T   T
  0.7421859965082538  0.2307521420106080  0.2964224061803187   T   T   T
  0.4978539732230106  0.0213260098967432  0.2924033474912533   T   T   T
  0.7432706612144921  0.3957370656565633  0.3079047870980570   T   T   T
  0.7558093375842583  0.4814284058035848  0.3078173676770682   T   T   T
  0.4914181763627116  0.2732108738630366  0.2995693952715554   T   T   T
  0.5102753243267905  0.6017226705153735  0.3001036133778949   T   T   T
  0.7552792565452849  0.7275910729789479  0.2933854444110447   T   T   T
  0.5013568317684781  0.8530947962751283  0.2925791408066432   T   T   T
  0.7516844550536422  0.8948678775550338  0.2923367613842978   T   T   T
  0.7487814202268258  0.9788337636853219  0.2922194092405704   T   T   T
  0.5040980429538214  0.7688683577953466  0.2933661731172557   T   T   T
  0.7589639097588496  0.6448755139871766  0.2957711762990100   T   T   T
 -0.0018147347654083  0.0210853517690758  0.2925279043973777   T   T   T
  0.0049518245819412  0.5208232973068997  0.3072245040048393   T   T   T
  0.4972275103893387  0.3553840591200391  0.3049254629874227   T   T   T
  0.5106897154689561  0.5228634456424676  0.3081552677391449   T   T   T
 -0.0142016039444006  0.3540738787636857  0.3114745778608614   T   T   T
  0.2607304952339287  0.6430661143480269  0.2980489543133170   T   T   T
  0.2546344336262422  0.4368684036008191  0.3575325048408742   T   T   T
 
  0.00000000E+00  0.00000000E+00  0.00000000E+00
  0.00000000E+00  0.00000000E+00  0.00000000E+00
  0.00000000E+00  0.00000000E+00  0.00000000E+00
  0.00000000E+00  0.00000000E+00  0.00000000E+00
  0.00000000E+00  0.00000000E+00  0.00000000E+00
  0.00000000E+00  0.00000000E+00  0.00000000E+00
  0.00000000E+00  0.00000000E+00  0.00000000E+00
  0.00000000E+00  0.00000000E+00  0.00000000E+00
  0.00000000E+00  0.00000000E+00  0.00000000E+00
  0.00000000E+00  0.00000000E+00  0.00000000E+00
  0.00000000E+00  0.00000000E+00  0.00000000E+00
  0.00000000E+00  0.00000000E+00  0.00000000E+00
  0.00000000E+00  0.00000000E+00  0.00000000E+00
  0.00000000E+00  0.00000000E+00  0.00000000E+00
  0.00000000E+00  0.00000000E+00  0.00000000E+00
  0.00000000E+00  0.00000000E+00  0.00000000E+00
  0.00000000E+00  0.00000000E+00  0.00000000E+00
  0.00000000E+00  0.00000000E+00  0.00000000E+00
  0.00000000E+00  0.00000000E+00  0.00000000E+00
  0.00000000E+00  0.00000000E+00  0.00000000E+00
  0.00000000E+00  0.00000000E+00  0.00000000E+00
  0.00000000E+00  0.00000000E+00  0.00000000E+00
  0.00000000E+00  0.00000000E+00  0.00000000E+00
  0.00000000E+00  0.00000000E+00  0.00000000E+00
  0.00000000E+00  0.00000000E+00  0.00000000E+00
  0.00000000E+00  0.00000000E+00  0.00000000E+00
  0.00000000E+00  0.00000000E+00  0.00000000E+00
  0.00000000E+00  0.00000000E+00  0.00000000E+00
  0.00000000E+00  0.00000000E+00  0.00000000E+00
  0.00000000E+00  0.00000000E+00  0.00000000E+00
  0.00000000E+00  0.00000000E+00  0.00000000E+00
