Title                                   
   1.00000000000000     
     8.5490480000000009    0.0000000000000000    0.0000000000000000
     0.0000000000000000    8.5490480000000009    0.0000000000000000
     0.0000000000000000    0.0000000000000000   20.0000000000000000
    20     4     1
Selective dynamics
Direct
  0.9080884186282592  0.2076927047194033  0.0949746510152523   T   T   T
  0.9119878621572929  0.8007936288134302  0.0966393847806365   T   T   T
  0.1957794332343731  0.0824837688744796  0.0967944395828518   T   T   T
  0.0741836210139384  0.2020723513007578  0.0966029898955488   T   T   T
  0.1583207645013827  0.6489753571056053  0.0958279704307687   T   T   T
  0.0769623493330269  0.5014543284293888  0.0970651325909120   T   T   T
  0.1540236112324414  0.3507395495514598  0.0984300087611146   T   T   T
  0.0797848080409976  0.7980439451999045  0.0955508536777719   T   T   T
  0.4933066465865194  0.0869269086017549  0.0975401734555803   T   T   T
  0.3414092370602551  0.1631687192599861  0.0985784728575655   T   T   T
  0.4940815333577447  0.9177030477072012  0.0975773548741731   T   T   T
  0.3467304937560491  0.8356554537040074  0.0957330808266530   T   T   T
  0.7868948375209467  0.0883163130937764  0.0957164094853960   T   T   T
  0.6386098031073570  0.1700518323245593  0.0963574388033356   T   T   T
  0.7892850501910600  0.9197701965624846  0.0970772434349244   T   T   T
  0.8312060495938981  0.6519459965866037  0.0982784191681515   T   T   T
  0.8293500823703986  0.3587582824408760  0.0947257861845246   T   T   T
  0.6431952151343003  0.8362141931756615  0.0989950262001351   T   T   T
  0.3256053145831795  0.6726294206810289  0.0956269011772064   T   T   T
  0.6641620020341517  0.3400732068427087  0.0959966648130965   T   T   T
  0.9098453168647804  0.5042022585294575  0.0966063923829680   T   T   T
  0.3169787751774425  0.3265913683379030  0.1013415350382601   T   T   T
  0.6689653541138759  0.6713286197206314  0.1016383769170588   T   T   T
  0.1976188997671760  0.9157628871455262  0.0953152253981328   T   T   T
  0.4890365206391376  0.4934356612914174  0.1147150682479616   T   T   T
 
  0.00000000E+00  0.00000000E+00  0.00000000E+00
  0.00000000E+00  0.00000000E+00  0.00000000E+00
  0.00000000E+00  0.00000000E+00  0.00000000E+00
  0.00000000E+00  0.00000000E+00  0.00000000E+00
  0.00000000E+00  0.00000000E+00  0.00000000E+00
  0.00000000E+00  0.00000000E+00  0.00000000E+00
  0.00000000E+00  0.00000000E+00  0.00000000E+00
  0.00000000E+00  0.00000000E+00  0.00000000E+00
  0.00000000E+00  0.00000000E+00  0.00000000E+00
  0.00000000E+00  0.00000000E+00  0.00000000E+00
  0.00000000E+00  0.00000000E+00  0.00000000E+00
  0.00000000E+00  0.00000000E+00  0.00000000E+00
  0.00000000E+00  0.00000000E+00  0.00000000E+00
  0.00000000E+00  0.00000000E+00  0.00000000E+00
  0.00000000E+00  0.00000000E+00  0.00000000E+00
  0.00000000E+00  0.00000000E+00  0.00000000E+00
  0.00000000E+00  0.00000000E+00  0.00000000E+00
  0.00000000E+00  0.00000000E+00  0.00000000E+00
  0.00000000E+00  0.00000000E+00  0.00000000E+00
  0.00000000E+00  0.00000000E+00  0.00000000E+00
  0.00000000E+00  0.00000000E+00  0.00000000E+00
  0.00000000E+00  0.00000000E+00  0.00000000E+00
  0.00000000E+00  0.00000000E+00  0.00000000E+00
  0.00000000E+00  0.00000000E+00  0.00000000E+00
  0.00000000E+00  0.00000000E+00  0.00000000E+00
