Title                                   
   1.00000000000000     
     9.8694509999999998    0.0000000000000000    0.0000000000000000
     0.0000000000000000    8.5490480000000009    0.0000000000000000
     0.0000000000000000    0.0000000000000000   20.0000000000000000
    30     1
Selective dynamics
Direct
  0.0562322124415786  0.0884190794683533  0.0934299723120775   T   T   T
  0.9316048137237309  0.1717162221615801  0.0938472089075872   T   T   T
  0.0562257863797244  0.9239116056124143  0.0934334197332601   T   T   T
  0.9336684282152603  0.3378980884658261  0.0938994956980247   T   T   T
  0.0562351726294719  0.5890931755701402  0.0934360352039290   T   T   T
  0.9336737228605845  0.6744006361347527  0.0938961243754370   T   T   T
  0.0562373498706042  0.4232214227552520  0.0934296475707510   T   T   T
  0.9315947742765419  0.8405938513447250  0.0938439735996056   T   T   T
  0.3057874810603488  0.0897181912746479  0.0947218638681398   T   T   T
  0.1808729496712602  0.1717216189669142  0.0938745007935878   T   T   T
  0.3057813373820407  0.9225846561865571  0.0947144133906036   T   T   T
  0.1787993343189322  0.3379145153311807  0.0939291208500218   T   T   T
  0.3004178617668662  0.5903153853844332  0.0951803243262176   T   T   T
  0.1787901133320765  0.6744213319597513  0.0939450020233683   T   T   T
  0.3004229557979727  0.4220026098347942  0.0951685097310167   T   T   T
  0.1808521995370276  0.8406098762854168  0.0938819501125570   T   T   T
  0.5562234895838049  0.0886710512514185  0.0958902193669016   T   T   T
  0.4304356035872444  0.1764186963629830  0.0957682218260930   T   T   T
  0.5562106591814665  0.9236203527603192  0.0958675792435219   T   T   T
  0.4234746599983515  0.3400120652771901  0.0962529900824101   T   T   T
  0.4234616413598613  0.6723226614694670  0.0962362628325865   T   T   T
  0.4304304575848704  0.8359036364106471  0.0957336910374458   T   T   T
  0.8066726796912619  0.0897161536201009  0.0946849615935925   T   T   T
  0.6820110794550761  0.1764098132961871  0.0957268765818915   T   T   T
  0.8066667338648564  0.9225769790520505  0.0946713036697041   T   T   T
  0.6890054365754118  0.3400109696394460  0.0961886068371395   T   T   T
  0.8120594754211266  0.5903048099118974  0.0950933050765193   T   T   T
  0.6890129153774882  0.6723074099583749  0.0961674949422128   T   T   T
  0.8120546755991868  0.4219963838017838  0.0951083436854414   T   T   T
  0.6820007776816773  0.8358885553708980  0.0956925025575785   T   T   T
  0.5562182217743032  0.5061731950805100  0.0972510781708177   T   T   T
 
  0.00000000E+00  0.00000000E+00  0.00000000E+00
  0.00000000E+00  0.00000000E+00  0.00000000E+00
  0.00000000E+00  0.00000000E+00  0.00000000E+00
  0.00000000E+00  0.00000000E+00  0.00000000E+00
  0.00000000E+00  0.00000000E+00  0.00000000E+00
  0.00000000E+00  0.00000000E+00  0.00000000E+00
  0.00000000E+00  0.00000000E+00  0.00000000E+00
  0.00000000E+00  0.00000000E+00  0.00000000E+00
  0.00000000E+00  0.00000000E+00  0.00000000E+00
  0.00000000E+00  0.00000000E+00  0.00000000E+00
  0.00000000E+00  0.00000000E+00  0.00000000E+00
  0.00000000E+00  0.00000000E+00  0.00000000E+00
  0.00000000E+00  0.00000000E+00  0.00000000E+00
  0.00000000E+00  0.00000000E+00  0.00000000E+00
  0.00000000E+00  0.00000000E+00  0.00000000E+00
  0.00000000E+00  0.00000000E+00  0.00000000E+00
  0.00000000E+00  0.00000000E+00  0.00000000E+00
  0.00000000E+00  0.00000000E+00  0.00000000E+00
  0.00000000E+00  0.00000000E+00  0.00000000E+00
  0.00000000E+00  0.00000000E+00  0.00000000E+00
  0.00000000E+00  0.00000000E+00  0.00000000E+00
  0.00000000E+00  0.00000000E+00  0.00000000E+00
  0.00000000E+00  0.00000000E+00  0.00000000E+00
  0.00000000E+00  0.00000000E+00  0.00000000E+00
  0.00000000E+00  0.00000000E+00  0.00000000E+00
  0.00000000E+00  0.00000000E+00  0.00000000E+00
  0.00000000E+00  0.00000000E+00  0.00000000E+00
  0.00000000E+00  0.00000000E+00  0.00000000E+00
  0.00000000E+00  0.00000000E+00  0.00000000E+00
  0.00000000E+00  0.00000000E+00  0.00000000E+00
  0.00000000E+00  0.00000000E+00  0.00000000E+00
