Title                                   
   1.00000000000000     
     9.8694509999999998    0.0000000000000000    0.0000000000000000
     0.0000000000000000    8.5490480000000009    0.0000000000000000
     0.0000000000000000    0.0000000000000000   20.0000000000000000
    28     3     1
Selective dynamics
Direct
  0.0560990535480589  0.0918699672116621  0.0825838903744326   T   T   T
  0.9313931676476160  0.1733145598145608  0.0841208479171268   T   T   T
  0.0570964309972764  0.9245928495893474  0.0827805659483685   T   T   T
  0.9306271686168198  0.3403369727480253  0.0881469661127511   T   T   T
  0.0572628498977211  0.5901749868142884  0.0847154701542091   T   T   T
  0.9327073887753939  0.6729596551953914  0.0880190159421173   T   T   T
  0.0575162576620938  0.4230890394019332  0.0863115387294832   T   T   T
  0.9321902172210950  0.8396898510609289  0.0852164775470042   T   T   T
  0.3054254425473401  0.0889143809701868  0.0870767609302357   T   T   T
  0.1821128372156432  0.1737627023595171  0.0849100848837388   T   T   T
  0.1841555335517800  0.3412202741244760  0.0876577693288512   T   T   T
  0.3036011178799842  0.5933681466090305  0.0979834156630720   T   T   T
  0.1810004728475850  0.6751494852277798  0.0867178281125703   T   T   T
  0.3100275207415643  0.4259097206832425  0.0959496623961714   T   T   T
  0.1804485376694096  0.8418147728026412  0.0858625049262993   T   T   T
  0.5557756511572141  0.0847970653880091  0.0932294624003530   T   T   T
  0.4307879563658795  0.1689342215836925  0.0918716725406655   T   T   T
  0.5539017559632959  0.9196145011990829  0.0986967662330867   T   T   T
  0.4330398920627789  0.3334043135962688  0.0999218403026420   T   T   T
  0.4251331051303368  0.8418542204724995  0.1008903810847366   T   T   T
  0.8068104547705335  0.0887114630439132  0.0852626747184576   T   T   T
  0.6812171785373200  0.1682827187336224  0.0910396341730971   T   T   T
  0.8068470269887918  0.9227948309754074  0.0877325898849581   T   T   T
  0.6808582194559335  0.3327869016887351  0.1003981272909867   T   T   T
  0.8104406368303597  0.5903339259258166  0.1011874429928938   T   T   T
  0.6953309824151270  0.6808861950725300  0.1189504377310632   T   T   T
  0.8055899662796762  0.4218548793542070  0.0976787362955670   T   T   T
  0.6839186274950387  0.8402762933177497  0.1008982843088494   T   T   T
  0.4130564302142696  0.6867550973458486  0.1167448398233939   T   T   T
  0.5571799859754107  0.4006246591601489  0.1154047321250583   T   T   T
  0.3046401620145616  0.9250670165338236  0.0889332055688479   T   T   T
  0.5534469715240967  0.5871003319956429  0.1687813735589462   T   T   T
 
  0.00000000E+00  0.00000000E+00  0.00000000E+00
  0.00000000E+00  0.00000000E+00  0.00000000E+00
  0.00000000E+00  0.00000000E+00  0.00000000E+00
  0.00000000E+00  0.00000000E+00  0.00000000E+00
  0.00000000E+00  0.00000000E+00  0.00000000E+00
  0.00000000E+00  0.00000000E+00  0.00000000E+00
  0.00000000E+00  0.00000000E+00  0.00000000E+00
  0.00000000E+00  0.00000000E+00  0.00000000E+00
  0.00000000E+00  0.00000000E+00  0.00000000E+00
  0.00000000E+00  0.00000000E+00  0.00000000E+00
  0.00000000E+00  0.00000000E+00  0.00000000E+00
  0.00000000E+00  0.00000000E+00  0.00000000E+00
  0.00000000E+00  0.00000000E+00  0.00000000E+00
  0.00000000E+00  0.00000000E+00  0.00000000E+00
  0.00000000E+00  0.00000000E+00  0.00000000E+00
  0.00000000E+00  0.00000000E+00  0.00000000E+00
  0.00000000E+00  0.00000000E+00  0.00000000E+00
  0.00000000E+00  0.00000000E+00  0.00000000E+00
  0.00000000E+00  0.00000000E+00  0.00000000E+00
  0.00000000E+00  0.00000000E+00  0.00000000E+00
  0.00000000E+00  0.00000000E+00  0.00000000E+00
  0.00000000E+00  0.00000000E+00  0.00000000E+00
  0.00000000E+00  0.00000000E+00  0.00000000E+00
  0.00000000E+00  0.00000000E+00  0.00000000E+00
  0.00000000E+00  0.00000000E+00  0.00000000E+00
  0.00000000E+00  0.00000000E+00  0.00000000E+00
  0.00000000E+00  0.00000000E+00  0.00000000E+00
  0.00000000E+00  0.00000000E+00  0.00000000E+00
  0.00000000E+00  0.00000000E+00  0.00000000E+00
  0.00000000E+00  0.00000000E+00  0.00000000E+00
  0.00000000E+00  0.00000000E+00  0.00000000E+00
  0.00000000E+00  0.00000000E+00  0.00000000E+00
