Title                                   
   1.00000000000000     
     8.5490480000000009    0.0000000000000000    0.0000000000000000
     0.0000000000000000    8.5490480000000009    0.0000000000000000
     0.0000000000000000    0.0000000000000000   20.0000000000000000
    19     5     1
Selective dynamics
Direct
  0.9086890722932452  0.2065036090576317  0.0974694529693578   T   T   T
  0.9110482098968961  0.8003925707725830  0.0975761715796029   T   T   T
  0.1973330748281447  0.0829941992744025  0.0976423213261497   T   T   T
  0.0763655759939960  0.2014495768875769  0.0976196879066686   T   T   T
  0.1580394733224459  0.6493239507768194  0.0977924350691205   T   T   T
  0.0775541180203682  0.5011223145042818  0.0978347543845365   T   T   T
  0.1580925119762746  0.3518310703407339  0.0979052386266076   T   T   T
  0.0791499849205398  0.7989522238815404  0.0975740212473975   T   T   T
  0.3445745452293609  0.1656746315625365  0.0978689444643425   T   T   T
  0.4923779306309543  0.9180349221265751  0.0978002188575295   T   T   T
  0.3458662186037600  0.8364664464945623  0.0977707054124684   T   T   T
  0.7868985272946499  0.0858151166245744  0.0974763115301501   T   T   T
  0.6382637142918252  0.1681113637754449  0.0976460540305514   T   T   T
  0.7897095177987636  0.9188959974227464  0.0975767051828943   T   T   T
  0.8288621589318900  0.6505420455821984  0.0977792593174800   T   T   T
  0.8269349865268374  0.3562148938945773  0.0976145594707538   T   T   T
  0.6412790924552980  0.8366227030276341  0.0978371846454053   T   T   T
  0.3249840695369914  0.6714324539336924  0.0978828630748639   T   T   T
  0.6599717650186974  0.3355646304794675  0.0976923129496487   T   T   T
  0.4932565359770913  0.0878028675471231  0.0978211962390496   T   T   T
  0.9075265533004629  0.5023535781795084  0.0977811652356973   T   T   T
  0.3215626425336457  0.3278568268341798  0.0981226766215819   T   T   T
  0.6668994128440376  0.6727167165136074  0.0980249865196832   T   T   T
  0.1964243979543577  0.9159808128949920  0.0975844523721205   T   T   T
  0.4937479098194515  0.5021344776110241  0.0980113209663188   T   T   T
 
  0.00000000E+00  0.00000000E+00  0.00000000E+00
  0.00000000E+00  0.00000000E+00  0.00000000E+00
  0.00000000E+00  0.00000000E+00  0.00000000E+00
  0.00000000E+00  0.00000000E+00  0.00000000E+00
  0.00000000E+00  0.00000000E+00  0.00000000E+00
  0.00000000E+00  0.00000000E+00  0.00000000E+00
  0.00000000E+00  0.00000000E+00  0.00000000E+00
  0.00000000E+00  0.00000000E+00  0.00000000E+00
  0.00000000E+00  0.00000000E+00  0.00000000E+00
  0.00000000E+00  0.00000000E+00  0.00000000E+00
  0.00000000E+00  0.00000000E+00  0.00000000E+00
  0.00000000E+00  0.00000000E+00  0.00000000E+00
  0.00000000E+00  0.00000000E+00  0.00000000E+00
  0.00000000E+00  0.00000000E+00  0.00000000E+00
  0.00000000E+00  0.00000000E+00  0.00000000E+00
  0.00000000E+00  0.00000000E+00  0.00000000E+00
  0.00000000E+00  0.00000000E+00  0.00000000E+00
  0.00000000E+00  0.00000000E+00  0.00000000E+00
  0.00000000E+00  0.00000000E+00  0.00000000E+00
  0.00000000E+00  0.00000000E+00  0.00000000E+00
  0.00000000E+00  0.00000000E+00  0.00000000E+00
  0.00000000E+00  0.00000000E+00  0.00000000E+00
  0.00000000E+00  0.00000000E+00  0.00000000E+00
  0.00000000E+00  0.00000000E+00  0.00000000E+00
  0.00000000E+00  0.00000000E+00  0.00000000E+00
