Title                                   
   1.00000000000000     
     9.8694509999999998    0.0000000000000000    0.0000000000000000
     0.0000000000000000    8.5490480000000009    0.0000000000000000
     0.0000000000000000    0.0000000000000000   20.0000000000000000
    25     5     1
Selective dynamics
Direct
  0.0561709154650585  0.0892183492382432  0.0886016314721704   T   T   T
  0.9313947778716527  0.1721196850828432  0.0923434119831062   T   T   T
  0.0576084209337798  0.9213935711063815  0.0891593100587780   T   T   T
  0.9333862102253805  0.3394191714802576  0.0948150031865856   T   T   T
  0.0569593445379780  0.5905777277994686  0.0901812954785855   T   T   T
  0.0570314806538337  0.4237735666582043  0.0895878691752395   T   T   T
  0.9322946631333912  0.8381010705360731  0.0928998193308521   T   T   T
  0.3080130544015645  0.0886483189247217  0.0869379480463984   T   T   T
  0.1815172930342260  0.1724585321710121  0.0864377117802334   T   T   T
  0.1813811111653832  0.3393753303008316  0.0860519753638075   T   T   T
  0.3066479792030550  0.5898949172322900  0.0851419858675004   T   T   T
  0.1809545332389418  0.6733104325503615  0.0874324626442323   T   T   T
  0.3077500951512457  0.4208569534531418  0.0842076721884295   T   T   T
  0.1823803508897658  0.8395794895404433  0.0876459506588676   T   T   T
  0.4303649553092389  0.1740525386785887  0.0888531477356462   T   T   T
  0.5543148543453854  0.9223397579855266  0.0968555582143646   T   T   T
  0.4295927587019208  0.8380351012038747  0.0901774414094186   T   T   T
  0.8057346475079437  0.0887615601292917  0.0944543695910196   T   T   T
  0.6819513483000488  0.1767278911158680  0.1011277199874476   T   T   T
  0.8067158438160696  0.9208327845876050  0.0949019861393992   T   T   T
  0.6865976687782527  0.3393460163378962  0.1131858748344294   T   T   T
  0.8107947185693711  0.5923883519876477  0.1061273318578551   T   T   T
  0.6883356248363957  0.6729659698332062  0.1132703969333205   T   T   T
  0.8113082002431415  0.4208193706262668  0.1058080598269368   T   T   T
  0.6808832563370262  0.8376386299634827  0.1018152645836499   T   T   T
  0.9339411418530996  0.6722937850496159  0.0951176433408105   T   T   T
  0.5554904711458923  0.0934202618078198  0.0957509883238567   T   T   T
  0.4283393935135169  0.3351424218060573  0.0856856488293400   T   T   T
  0.4261494448652260  0.6784270046098192  0.0873130438822181   T   T   T
  0.3060658439151707  0.9224072210516154  0.0872176182508162   T   T   T
  0.5330645980570594  0.5065492171515494  0.1418588590247326   T   T   T
 
  0.00000000E+00  0.00000000E+00  0.00000000E+00
  0.00000000E+00  0.00000000E+00  0.00000000E+00
  0.00000000E+00  0.00000000E+00  0.00000000E+00
  0.00000000E+00  0.00000000E+00  0.00000000E+00
  0.00000000E+00  0.00000000E+00  0.00000000E+00
  0.00000000E+00  0.00000000E+00  0.00000000E+00
  0.00000000E+00  0.00000000E+00  0.00000000E+00
  0.00000000E+00  0.00000000E+00  0.00000000E+00
  0.00000000E+00  0.00000000E+00  0.00000000E+00
  0.00000000E+00  0.00000000E+00  0.00000000E+00
  0.00000000E+00  0.00000000E+00  0.00000000E+00
  0.00000000E+00  0.00000000E+00  0.00000000E+00
  0.00000000E+00  0.00000000E+00  0.00000000E+00
  0.00000000E+00  0.00000000E+00  0.00000000E+00
  0.00000000E+00  0.00000000E+00  0.00000000E+00
  0.00000000E+00  0.00000000E+00  0.00000000E+00
  0.00000000E+00  0.00000000E+00  0.00000000E+00
  0.00000000E+00  0.00000000E+00  0.00000000E+00
  0.00000000E+00  0.00000000E+00  0.00000000E+00
  0.00000000E+00  0.00000000E+00  0.00000000E+00
  0.00000000E+00  0.00000000E+00  0.00000000E+00
  0.00000000E+00  0.00000000E+00  0.00000000E+00
  0.00000000E+00  0.00000000E+00  0.00000000E+00
  0.00000000E+00  0.00000000E+00  0.00000000E+00
  0.00000000E+00  0.00000000E+00  0.00000000E+00
  0.00000000E+00  0.00000000E+00  0.00000000E+00
  0.00000000E+00  0.00000000E+00  0.00000000E+00
  0.00000000E+00  0.00000000E+00  0.00000000E+00
  0.00000000E+00  0.00000000E+00  0.00000000E+00
  0.00000000E+00  0.00000000E+00  0.00000000E+00
  0.00000000E+00  0.00000000E+00  0.00000000E+00
