Title                                   
   1.00000000000000     
     8.5490480000000009    0.0000000000000000    0.0000000000000000
     0.0000000000000000    8.5490480000000009    0.0000000000000000
     0.0000000000000000    0.0000000000000000   20.0000000000000000
    23     1     1
Selective dynamics
Direct
  0.9094970969028647  0.2061055233854207  0.0951005567695092   T   T   T
  0.9100105469487525  0.5028069036810390  0.0955404042084633   T   T   T
  0.9115734900045853  0.8004511579982653  0.0946846502670931   T   T   T
  0.1984078352965903  0.0830111850454760  0.0947149360169638   T   T   T
  0.0749397498010019  0.2034245871029024  0.0951121590679740   T   T   T
  0.1590336125160249  0.6486369144793660  0.0961048913930999   T   T   T
  0.0774883766994671  0.5016717348585500  0.0956777132609643   T   T   T
  0.1581029074962695  0.3551123920173286  0.0966602181675135   T   T   T
  0.0780383601372215  0.7982819436099698  0.0945640078804454   T   T   T
  0.4925409285287998  0.0857599176031834  0.0955430382164271   T   T   T
  0.3455778801797841  0.1638372338066340  0.0961196188184149   T   T   T
  0.4919256243297862  0.9177658342592001  0.0956373116007878   T   T   T
  0.3459356695644120  0.8362740714711631  0.0965458398193970   T   T   T
  0.7865684113903930  0.0852008954415980  0.0950483350213880   T   T   T
  0.6374870205560307  0.1670703766589463  0.0962031911526885   T   T   T
  0.7872464894889660  0.9201773392757914  0.0950836267495016   T   T   T
  0.8303789588169898  0.6493991623860073  0.0960869723145852   T   T   T
  0.8282658491547348  0.3567895886252764  0.0962607940662836   T   T   T
  0.6379268288264655  0.8366957322595477  0.0964644027761128   T   T   T
  0.3238460051325652  0.3329326249743003  0.1015285645114054   T   T   T
  0.3243942167158563  0.6709604099195752  0.1003331262901110   T   T   T
  0.6612094317676073  0.3350713795925679  0.1008979830939399   T   T   T
  0.6625288041060896  0.6696545655030401  0.1012418185365726   T   T   T
  0.1985517074092235  0.9171612957360298  0.0947808519471892   T   T   T
  0.4939361982295041  0.5005372303088288  0.1277699880531491   T   T   T
 
  0.00000000E+00  0.00000000E+00  0.00000000E+00
  0.00000000E+00  0.00000000E+00  0.00000000E+00
  0.00000000E+00  0.00000000E+00  0.00000000E+00
  0.00000000E+00  0.00000000E+00  0.00000000E+00
  0.00000000E+00  0.00000000E+00  0.00000000E+00
  0.00000000E+00  0.00000000E+00  0.00000000E+00
  0.00000000E+00  0.00000000E+00  0.00000000E+00
  0.00000000E+00  0.00000000E+00  0.00000000E+00
  0.00000000E+00  0.00000000E+00  0.00000000E+00
  0.00000000E+00  0.00000000E+00  0.00000000E+00
  0.00000000E+00  0.00000000E+00  0.00000000E+00
  0.00000000E+00  0.00000000E+00  0.00000000E+00
  0.00000000E+00  0.00000000E+00  0.00000000E+00
  0.00000000E+00  0.00000000E+00  0.00000000E+00
  0.00000000E+00  0.00000000E+00  0.00000000E+00
  0.00000000E+00  0.00000000E+00  0.00000000E+00
  0.00000000E+00  0.00000000E+00  0.00000000E+00
  0.00000000E+00  0.00000000E+00  0.00000000E+00
  0.00000000E+00  0.00000000E+00  0.00000000E+00
  0.00000000E+00  0.00000000E+00  0.00000000E+00
  0.00000000E+00  0.00000000E+00  0.00000000E+00
  0.00000000E+00  0.00000000E+00  0.00000000E+00
  0.00000000E+00  0.00000000E+00  0.00000000E+00
  0.00000000E+00  0.00000000E+00  0.00000000E+00
  0.00000000E+00  0.00000000E+00  0.00000000E+00
