Title                                   
   1.00000000000000     
     9.8694509999999998    0.0000000000000000    0.0000000000000000
     0.0000000000000000    8.5490480000000009    0.0000000000000000
     0.0000000000000000    0.0000000000000000   20.0000000000000000
    27     4     1
Selective dynamics
Direct
  0.0562304649645830  0.0919400265228607  0.0881930622927724   T   T   T
  0.9304730668332943  0.1747946878947629  0.0895869247047810   T   T   T
  0.0562598715205277  0.9247641986042343  0.0877855734419893   T   T   T
  0.9289199416989652  0.3422214284058142  0.0922193136937489   T   T   T
  0.0562163930531326  0.5898383019760629  0.0901875149558508   T   T   T
  0.9314171400315854  0.6737786470816165  0.0908992815878221   T   T   T
  0.0562263453476887  0.4238998225552877  0.0912575357974866   T   T   T
  0.9315945208993995  0.8404149163761478  0.0890386057271492   T   T   T
  0.3056221247977276  0.0895069761112508  0.0892136430173613   T   T   T
  0.1820162253874740  0.1747277125112232  0.0895182791197915   T   T   T
  0.3061360215267570  0.9238627984777397  0.0892527497303924   T   T   T
  0.1835316233281456  0.3421718528846723  0.0920498669908653   T   T   T
  0.3068993678036098  0.5939233997224830  0.0963085150571256   T   T   T
  0.1810547796979415  0.6737611954502477  0.0906225326082818   T   T   T
  0.3103179265524099  0.4249744162841777  0.0967064348793658   T   T   T
  0.1809061342607607  0.8404160504921493  0.0888721195891251   T   T   T
  0.5562560952014620  0.0827143406022048  0.0942505679219066   T   T   T
  0.4324113481725289  0.1680326471493562  0.0933470249617422   T   T   T
  0.4348797087079615  0.3341569922900287  0.0999979403907650   T   T   T
  0.4281640663980028  0.8365669497719574  0.0945776140027324   T   T   T
  0.8069355768968168  0.0895414161920543  0.0892820156954194   T   T   T
  0.6801387755692384  0.1680366842657351  0.0935972416622942   T   T   T
  0.8064461183010071  0.9239085519736927  0.0894108157271558   T   T   T
  0.6775965391277803  0.3341497667596185  0.1003244584268838   T   T   T
  0.8056487213370160  0.5939666706867003  0.0969863278264280   T   T   T
  0.8021868926667252  0.4249890600789966  0.0972085642692616   T   T   T
  0.6844279344966231  0.8366269717540703  0.0950010512920231   T   T   T
  0.4249371437216845  0.6803903308676424  0.1029225050197749   T   T   T
  0.5561772515103932  0.4070210951111966  0.1114689105963287   T   T   T
  0.6877976047735366  0.6806297480253934  0.1039874375436924   T   T   T
  0.5562780770071936  0.9164294190466068  0.0948222673668115   T   T   T
  0.5555351984080330  0.5880889240740171  0.1767783041028872   T   T   T
 
  0.00000000E+00  0.00000000E+00  0.00000000E+00
  0.00000000E+00  0.00000000E+00  0.00000000E+00
  0.00000000E+00  0.00000000E+00  0.00000000E+00
  0.00000000E+00  0.00000000E+00  0.00000000E+00
  0.00000000E+00  0.00000000E+00  0.00000000E+00
  0.00000000E+00  0.00000000E+00  0.00000000E+00
  0.00000000E+00  0.00000000E+00  0.00000000E+00
  0.00000000E+00  0.00000000E+00  0.00000000E+00
  0.00000000E+00  0.00000000E+00  0.00000000E+00
  0.00000000E+00  0.00000000E+00  0.00000000E+00
  0.00000000E+00  0.00000000E+00  0.00000000E+00
  0.00000000E+00  0.00000000E+00  0.00000000E+00
  0.00000000E+00  0.00000000E+00  0.00000000E+00
  0.00000000E+00  0.00000000E+00  0.00000000E+00
  0.00000000E+00  0.00000000E+00  0.00000000E+00
  0.00000000E+00  0.00000000E+00  0.00000000E+00
  0.00000000E+00  0.00000000E+00  0.00000000E+00
  0.00000000E+00  0.00000000E+00  0.00000000E+00
  0.00000000E+00  0.00000000E+00  0.00000000E+00
  0.00000000E+00  0.00000000E+00  0.00000000E+00
  0.00000000E+00  0.00000000E+00  0.00000000E+00
  0.00000000E+00  0.00000000E+00  0.00000000E+00
  0.00000000E+00  0.00000000E+00  0.00000000E+00
  0.00000000E+00  0.00000000E+00  0.00000000E+00
  0.00000000E+00  0.00000000E+00  0.00000000E+00
  0.00000000E+00  0.00000000E+00  0.00000000E+00
  0.00000000E+00  0.00000000E+00  0.00000000E+00
  0.00000000E+00  0.00000000E+00  0.00000000E+00
  0.00000000E+00  0.00000000E+00  0.00000000E+00
  0.00000000E+00  0.00000000E+00  0.00000000E+00
  0.00000000E+00  0.00000000E+00  0.00000000E+00
  0.00000000E+00  0.00000000E+00  0.00000000E+00
