Title                                   
   1.00000000000000     
     9.8694509999999998    0.0000000000000000    0.0000000000000000
     0.0000000000000000    8.5490480000000009    0.0000000000000000
     0.0000000000000000    0.0000000000000000   20.0000000000000000
    27     3     1
Selective dynamics
Direct
  0.0555102889748500  0.0882042873166392  0.0905305669535544   T   T   T
  0.9311176249024228  0.1719273722439414  0.0917919729078774   T   T   T
  0.0573489261467513  0.9226378333227783  0.0903844297932778   T   T   T
  0.9338550873002935  0.3388479665965120  0.0895673317771668   T   T   T
  0.0577105208673261  0.5899412653575987  0.0869626738492995   T   T   T
  0.9336210968079811  0.6735425716799263  0.0892310779094526   T   T   T
  0.0573668602196322  0.4225568410070896  0.0869311435265866   T   T   T
  0.9315569262259650  0.8400342900517113  0.0896534693059473   T   T   T
  0.3059638972243726  0.0869913627961063  0.0943580784791878   T   T   T
  0.1813209904209501  0.1701741773602791  0.0903099900769994   T   T   T
  0.1801631388727591  0.3370578134181700  0.0887892610970205   T   T   T
  0.3058442966384228  0.5876050232856735  0.0952201625475545   T   T   T
  0.1824872274264957  0.6729067089756440  0.0885442939680047   T   T   T
  0.3033230109249944  0.4181702934633820  0.0919992134647473   T   T   T
  0.1823130418056307  0.8393299238156816  0.0916625336519609   T   T   T
  0.4289487951642844  0.1757434801305870  0.0964837518240484   T   T   T
  0.5536427396152741  0.9251036386335498  0.1000571214921942   T   T   T
  0.4236531309848363  0.6732332284412015  0.1134810033371752   T   T   T
  0.4298217528214278  0.8389539413138148  0.1047039880742218   T   T   T
  0.8047116613892009  0.0897276790992352  0.0949165452844503   T   T   T
  0.6809344717760540  0.1783221587301055  0.1015751272182917   T   T   T
  0.8058755339231504  0.9233607874285368  0.0924431393790084   T   T   T
  0.6893874501429385  0.3415185096574986  0.1095159320707860   T   T   T
  0.8098303000274099  0.5906760334712320  0.0914562245915684   T   T   T
  0.6860242019479588  0.6736967337095500  0.0876409010022850   T   T   T
  0.8115199503706515  0.4213674907375249  0.0956788019390103   T   T   T
  0.6791861332472064  0.8390390687985801  0.0937896020305868   T   T   T
  0.5546849466874187  0.0951595649143033  0.1001201693183889   T   T   T
  0.4228203238244430  0.3350603887520061  0.0931835128754791   T   T   T
  0.3056102109082452  0.9225468810016256  0.0963150628959719   T   T   T
  0.5569804624106663  0.5074376844895366  0.1136679173579444   T   T   T
 
  0.00000000E+00  0.00000000E+00  0.00000000E+00
  0.00000000E+00  0.00000000E+00  0.00000000E+00
  0.00000000E+00  0.00000000E+00  0.00000000E+00
  0.00000000E+00  0.00000000E+00  0.00000000E+00
  0.00000000E+00  0.00000000E+00  0.00000000E+00
  0.00000000E+00  0.00000000E+00  0.00000000E+00
  0.00000000E+00  0.00000000E+00  0.00000000E+00
  0.00000000E+00  0.00000000E+00  0.00000000E+00
  0.00000000E+00  0.00000000E+00  0.00000000E+00
  0.00000000E+00  0.00000000E+00  0.00000000E+00
  0.00000000E+00  0.00000000E+00  0.00000000E+00
  0.00000000E+00  0.00000000E+00  0.00000000E+00
  0.00000000E+00  0.00000000E+00  0.00000000E+00
  0.00000000E+00  0.00000000E+00  0.00000000E+00
  0.00000000E+00  0.00000000E+00  0.00000000E+00
  0.00000000E+00  0.00000000E+00  0.00000000E+00
  0.00000000E+00  0.00000000E+00  0.00000000E+00
  0.00000000E+00  0.00000000E+00  0.00000000E+00
  0.00000000E+00  0.00000000E+00  0.00000000E+00
  0.00000000E+00  0.00000000E+00  0.00000000E+00
  0.00000000E+00  0.00000000E+00  0.00000000E+00
  0.00000000E+00  0.00000000E+00  0.00000000E+00
  0.00000000E+00  0.00000000E+00  0.00000000E+00
  0.00000000E+00  0.00000000E+00  0.00000000E+00
  0.00000000E+00  0.00000000E+00  0.00000000E+00
  0.00000000E+00  0.00000000E+00  0.00000000E+00
  0.00000000E+00  0.00000000E+00  0.00000000E+00
  0.00000000E+00  0.00000000E+00  0.00000000E+00
  0.00000000E+00  0.00000000E+00  0.00000000E+00
  0.00000000E+00  0.00000000E+00  0.00000000E+00
  0.00000000E+00  0.00000000E+00  0.00000000E+00
