Title                                   
   1.00000000000000     
     9.8694509999999998    0.0000000000000000    0.0000000000000000
     0.0000000000000000    8.5490480000000009    0.0000000000000000
     0.0000000000000000    0.0000000000000000   20.0000000000000000
    27     4     1
Selective dynamics
Direct
  0.0558073229996825  0.0924092337593238  0.0883957144866436   T   T   T
  0.9311649480884885  0.1743264055296316  0.0902091586724740   T   T   T
  0.0571549485193951  0.9247093788334282  0.0881728490796414   T   T   T
  0.9299172088271176  0.3418935089365319  0.0930040342217236   T   T   T
  0.0565410635198585  0.5901600850763519  0.0900478866539548   T   T   T
  0.9325689865145195  0.6734385622183997  0.0922498624831302   T   T   T
  0.0566540706222567  0.4230754853281152  0.0912252228880864   T   T   T
  0.9329387623409738  0.8399805435413470  0.0905618518105202   T   T   T
  0.3056839730786516  0.0884256307588929  0.0897829871923665   T   T   T
  0.1820013193635607  0.1736448912022882  0.0893318571361036   T   T   T
  0.1837061526136058  0.3407638714881227  0.0910967638556291   T   T   T
  0.3056946445465670  0.5929725959221140  0.0939876796957979   T   T   T
  0.1805314838382246  0.6747364270184275  0.0896873420015219   T   T   T
  0.3101895309512949  0.4251623265743498  0.0944382890012915   T   T   T
  0.1804989120136783  0.8408197116677064  0.0886804428053894   T   T   T
  0.5567825724677744  0.0838525581902605  0.0943393869994708   T   T   T
  0.4310167771898260  0.1676413019347885  0.0928674104660248   T   T   T
  0.5553716535622139  0.9171155198840207  0.0966925220537564   T   T   T
  0.4343016972122483  0.3339019345361563  0.0973195366819728   T   T   T
  0.4260331264713758  0.8377469317845361  0.0952513711684751   T   T   T
  0.8067667585478501  0.0888802879692867  0.0907381765316825   T   T   T
  0.6808830035502207  0.1686606333497777  0.0938793937141082   T   T   T
  0.8075447155703842  0.9231472364358390  0.0918319548616598   T   T   T
  0.6781706402290260  0.3349292871833685  0.0994455861489950   T   T   T
  0.8074105240861346  0.5930144368274687  0.1003452368729963   T   T   T
  0.8030394174932332  0.4246077963282870  0.0987108155987193   T   T   T
  0.6846808866000863  0.8368577690819580  0.0989904565639098   T   T   T
  0.4216818743399149  0.6814058269212537  0.0996013226649990   T   T   T
  0.5560000916270482  0.4079727699587861  0.1059520622848931   T   T   T
  0.6918876735958234  0.6791069380631829  0.1097865039324785   T   T   T
  0.3049036196291446  0.9238079167091352  0.0898309048847296   T   T   T
  0.5521106399898267  0.5910781969868648  0.1692204165868711   T   T   T
 
  0.00000000E+00  0.00000000E+00  0.00000000E+00
  0.00000000E+00  0.00000000E+00  0.00000000E+00
  0.00000000E+00  0.00000000E+00  0.00000000E+00
  0.00000000E+00  0.00000000E+00  0.00000000E+00
  0.00000000E+00  0.00000000E+00  0.00000000E+00
  0.00000000E+00  0.00000000E+00  0.00000000E+00
  0.00000000E+00  0.00000000E+00  0.00000000E+00
  0.00000000E+00  0.00000000E+00  0.00000000E+00
  0.00000000E+00  0.00000000E+00  0.00000000E+00
  0.00000000E+00  0.00000000E+00  0.00000000E+00
  0.00000000E+00  0.00000000E+00  0.00000000E+00
  0.00000000E+00  0.00000000E+00  0.00000000E+00
  0.00000000E+00  0.00000000E+00  0.00000000E+00
  0.00000000E+00  0.00000000E+00  0.00000000E+00
  0.00000000E+00  0.00000000E+00  0.00000000E+00
  0.00000000E+00  0.00000000E+00  0.00000000E+00
  0.00000000E+00  0.00000000E+00  0.00000000E+00
  0.00000000E+00  0.00000000E+00  0.00000000E+00
  0.00000000E+00  0.00000000E+00  0.00000000E+00
  0.00000000E+00  0.00000000E+00  0.00000000E+00
  0.00000000E+00  0.00000000E+00  0.00000000E+00
  0.00000000E+00  0.00000000E+00  0.00000000E+00
  0.00000000E+00  0.00000000E+00  0.00000000E+00
  0.00000000E+00  0.00000000E+00  0.00000000E+00
  0.00000000E+00  0.00000000E+00  0.00000000E+00
  0.00000000E+00  0.00000000E+00  0.00000000E+00
  0.00000000E+00  0.00000000E+00  0.00000000E+00
  0.00000000E+00  0.00000000E+00  0.00000000E+00
  0.00000000E+00  0.00000000E+00  0.00000000E+00
  0.00000000E+00  0.00000000E+00  0.00000000E+00
  0.00000000E+00  0.00000000E+00  0.00000000E+00
  0.00000000E+00  0.00000000E+00  0.00000000E+00
