Title                                   
   1.00000000000000     
     9.8694509999999998    0.0000000000000000    0.0000000000000000
     0.0000000000000000    8.5490480000000009    0.0000000000000000
     0.0000000000000000    0.0000000000000000   20.0000000000000000
    29     1     1
Selective dynamics
Direct
  0.0553172862338004  0.0881965755928442  0.0861184897644181   T   T   T
  0.9304301243366062  0.1729521694248093  0.0875852466599428   T   T   T
  0.0566423643960971  0.9226480398010877  0.0864579365549047   T   T   T
  0.9324873438291228  0.3395775370517801  0.0873493897377394   T   T   T
  0.0569494994201539  0.5893280227336430  0.0853995625186768   T   T   T
  0.9333236472760468  0.6747632981195346  0.0887935264672858   T   T   T
  0.0563877855420402  0.4230437537681790  0.0851042670500673   T   T   T
  0.9316835299299741  0.8412089301130193  0.0891893313795562   T   T   T
  0.3049935049640711  0.0881397870007074  0.0922418335773935   T   T   T
  0.1799069907475611  0.1702997340640561  0.0878724056738913   T   T   T
  0.3072330468374551  0.9202942587651274  0.0916259059323897   T   T   T
  0.1794170524019328  0.3369237829521919  0.0871860801233868   T   T   T
  0.3056167506645017  0.5870307292410909  0.0918620829673832   T   T   T
  0.1814813915284004  0.6713661363566564  0.0870272201812469   T   T   T
  0.3029161038047597  0.4166913214970685  0.0935126967564896   T   T   T
  0.1822338421538384  0.8383484935691593  0.0873305713873602   T   T   T
  0.5545102925496203  0.0920975113511824  0.1014369907803021   T   T   T
  0.4267876219646566  0.1765939296177717  0.0995206009020255   T   T   T
  0.5561622223573821  0.9248210941069938  0.1020922398066231   T   T   T
  0.4295491313558541  0.6676288812133280  0.0978418878667819   T   T   T
  0.4321321775602404  0.8344530392284502  0.0975171957373152   T   T   T
  0.8051150380411483  0.0920273005130844  0.0926358880629320   T   T   T
  0.6802562420031668  0.1795264012739700  0.0985135214116516   T   T   T
  0.8062398561165125  0.9244258881181682  0.0940447901215434   T   T   T
  0.6857818156665098  0.3451382772717976  0.1005295828889859   T   T   T
  0.8106936586866937  0.5932863144339694  0.0969529359683884   T   T   T
  0.6880671671990696  0.6735325875531288  0.1101423371298089   T   T   T
  0.8100752581597328  0.4239251955688664  0.0941134223481894   T   T   T
  0.6829826280526284  0.8387716481332209  0.1027516149862094   T   T   T
  0.4213321439441105  0.3369348706310173  0.1036486054021416   T   T   T
  0.5564294822763233  0.5068994909341085  0.1345668398550104   T   T   T
 
  0.00000000E+00  0.00000000E+00  0.00000000E+00
  0.00000000E+00  0.00000000E+00  0.00000000E+00
  0.00000000E+00  0.00000000E+00  0.00000000E+00
  0.00000000E+00  0.00000000E+00  0.00000000E+00
  0.00000000E+00  0.00000000E+00  0.00000000E+00
  0.00000000E+00  0.00000000E+00  0.00000000E+00
  0.00000000E+00  0.00000000E+00  0.00000000E+00
  0.00000000E+00  0.00000000E+00  0.00000000E+00
  0.00000000E+00  0.00000000E+00  0.00000000E+00
  0.00000000E+00  0.00000000E+00  0.00000000E+00
  0.00000000E+00  0.00000000E+00  0.00000000E+00
  0.00000000E+00  0.00000000E+00  0.00000000E+00
  0.00000000E+00  0.00000000E+00  0.00000000E+00
  0.00000000E+00  0.00000000E+00  0.00000000E+00
  0.00000000E+00  0.00000000E+00  0.00000000E+00
  0.00000000E+00  0.00000000E+00  0.00000000E+00
  0.00000000E+00  0.00000000E+00  0.00000000E+00
  0.00000000E+00  0.00000000E+00  0.00000000E+00
  0.00000000E+00  0.00000000E+00  0.00000000E+00
  0.00000000E+00  0.00000000E+00  0.00000000E+00
  0.00000000E+00  0.00000000E+00  0.00000000E+00
  0.00000000E+00  0.00000000E+00  0.00000000E+00
  0.00000000E+00  0.00000000E+00  0.00000000E+00
  0.00000000E+00  0.00000000E+00  0.00000000E+00
  0.00000000E+00  0.00000000E+00  0.00000000E+00
  0.00000000E+00  0.00000000E+00  0.00000000E+00
  0.00000000E+00  0.00000000E+00  0.00000000E+00
  0.00000000E+00  0.00000000E+00  0.00000000E+00
  0.00000000E+00  0.00000000E+00  0.00000000E+00
  0.00000000E+00  0.00000000E+00  0.00000000E+00
  0.00000000E+00  0.00000000E+00  0.00000000E+00
