Title                                   
   1.00000000000000     
     4.9440799999999996    0.0000000000000000    0.0000000000000000
     0.0000000000000000   17.1295089999999988    0.0000000000000000
     0.0000000000000000    0.0000000000000000   20.0000000000000000
    25     5     1
Selective dynamics
Direct
 -0.0000273064610754  0.1058288241366886  0.2963109188018133   T   T   T
  0.2489434859086950  0.1488220491313104  0.2968387152592160   T   T   T
  0.2482311960997835  0.2338916410838919  0.2992838241208487   T   T   T
 -0.0035464272283836  0.2757671798229934  0.3029960167588925   T   T   T
 -0.0036322119768357  0.6003684410368054  0.3028000278305347   T   T   T
  0.2484809853344209  0.7254562985199360  0.2968130908303795   T   T   T
  0.0001445887532230  0.8525500726500749  0.2960413893287222   T   T   T
  0.2491851562752952  0.8948781657634981  0.2956999042764545   T   T   T
  0.2493297234199389  0.9792755226204740  0.2955414847552054   T   T   T
  0.0000242225703982  0.7678249212834024  0.2966480634491381   T   T   T
  0.4989490381782810  0.1061287409010360  0.2953474180274246   T   T   T
  0.7501358907592404  0.1478297031901920  0.2955776635582090   T   T   T
  0.7506324579279567  0.2319134802272815  0.2963588929154798   T   T   T
  0.4990589850311251  0.0216349292553196  0.2951914301920023   T   T   T
  0.7486347587585999  0.3961022640049754  0.3001754039680421   T   T   T
  0.7471083873394003  0.4805020221785153  0.3000473256821136   T   T   T
  0.5021209475431295  0.2743048607737890  0.2958089133233572   T   T   T
  0.5004174094957140  0.6013705531819373  0.2953688833203293   T   T   T
  0.7492716281784837  0.7270474488919216  0.2963021504976530   T   T   T
  0.4978412718208267  0.8523999708497375  0.2956121037022220   T   T   T
  0.7488840524194348  0.8944572868137700  0.2955875529081601   T   T   T
  0.7490377848937353  0.9790613704250039  0.2953407267716420   T   T   T
  0.4977038757865155  0.7676102081479168  0.2959261717077298   T   T   T
  0.7489792664304449  0.6436662027126716  0.2975294087824250   T   T   T
 -0.0005919906518544  0.0213887931442720  0.2957371789801137   T   T   T
  0.5061014652671438  0.5209528525532749  0.2881871978153276   T   T   T
  0.9868011735242462  0.5203943143815977  0.3177791053038392   T   T   T
  0.5088167071481952  0.3545319158584078  0.2918640839967366   T   T   T
 -0.0128127806995152  0.3560939358818334  0.3156125084971611   T   T   T
  0.2471100979603302  0.6403789499832083  0.2978953966269104   T   T   T
  0.2986731601931085  0.4389090805942609  0.3488370480118688   T   T   T
 
  0.00000000E+00  0.00000000E+00  0.00000000E+00
  0.00000000E+00  0.00000000E+00  0.00000000E+00
  0.00000000E+00  0.00000000E+00  0.00000000E+00
  0.00000000E+00  0.00000000E+00  0.00000000E+00
  0.00000000E+00  0.00000000E+00  0.00000000E+00
  0.00000000E+00  0.00000000E+00  0.00000000E+00
  0.00000000E+00  0.00000000E+00  0.00000000E+00
  0.00000000E+00  0.00000000E+00  0.00000000E+00
  0.00000000E+00  0.00000000E+00  0.00000000E+00
  0.00000000E+00  0.00000000E+00  0.00000000E+00
  0.00000000E+00  0.00000000E+00  0.00000000E+00
  0.00000000E+00  0.00000000E+00  0.00000000E+00
  0.00000000E+00  0.00000000E+00  0.00000000E+00
  0.00000000E+00  0.00000000E+00  0.00000000E+00
  0.00000000E+00  0.00000000E+00  0.00000000E+00
  0.00000000E+00  0.00000000E+00  0.00000000E+00
  0.00000000E+00  0.00000000E+00  0.00000000E+00
  0.00000000E+00  0.00000000E+00  0.00000000E+00
  0.00000000E+00  0.00000000E+00  0.00000000E+00
  0.00000000E+00  0.00000000E+00  0.00000000E+00
  0.00000000E+00  0.00000000E+00  0.00000000E+00
  0.00000000E+00  0.00000000E+00  0.00000000E+00
  0.00000000E+00  0.00000000E+00  0.00000000E+00
  0.00000000E+00  0.00000000E+00  0.00000000E+00
  0.00000000E+00  0.00000000E+00  0.00000000E+00
  0.00000000E+00  0.00000000E+00  0.00000000E+00
  0.00000000E+00  0.00000000E+00  0.00000000E+00
  0.00000000E+00  0.00000000E+00  0.00000000E+00
  0.00000000E+00  0.00000000E+00  0.00000000E+00
  0.00000000E+00  0.00000000E+00  0.00000000E+00
  0.00000000E+00  0.00000000E+00  0.00000000E+00
