Title                                   
   1.00000000000000     
     4.9440799999999996    0.0000000000000000    0.0000000000000000
     0.0000000000000000   17.1295089999999988    0.0000000000000000
     0.0000000000000000    0.0000000000000000   20.0000000000000000
    27     4     1
Selective dynamics
Direct
  0.0000541854893457  0.1049116873988760  0.2895037237238221   T   T   T
  0.2498986596022905  0.1470095224019509  0.2919924925830575   T   T   T
  0.2499075602588577  0.2305568176070123  0.2991723499734161   T   T   T
  0.0063347268122892  0.3533962325679926  0.3156249050432894   T   T   T
 -0.0021224479962012  0.2720411727073871  0.3026019772907978   T   T   T
 -0.0052096274029866  0.6018035872577374  0.3013556493578414   T   T   T
  0.2499084479976011  0.7265481431141222  0.2926238483649640   T   T   T
  0.0005066398321550  0.8531724740499284  0.2876892043337487   T   T   T
  0.2498886439504392  0.8953028884504857  0.2871446435342749   T   T   T
  0.2498817082431024  0.9791990097733445  0.2869138164227386   T   T   T
  0.0009929645199161  0.7692234141763329  0.2901730477157262   T   T   T
  0.4997361452424907  0.1049139858404304  0.2895026257210795   T   T   T
  0.7498941073113612  0.1469989296935300  0.2911177803621062   T   T   T
  0.7498937066127348  0.2298378969077020  0.2966936872684883   T   T   T
  0.4999071889537943  0.0211939257972443  0.2872104067876466   T   T   T
  0.4934580731199683  0.3533964245707804  0.3156246118051442   T   T   T
  0.7499217697103999  0.4835668652004379  0.3116435252796886   T   T   T
  0.5019072367710697  0.2720444737334173  0.3026018103326730   T   T   T
  0.5050279410384347  0.6018080487384186  0.3013470220477040   T   T   T
  0.7499072530008329  0.7281284229449305  0.2913829116750971   T   T   T
  0.4992693068923252  0.8531710081456859  0.2876863420210354   T   T   T
  0.7498812968204418  0.8951007641194375  0.2869017467841743   T   T   T
  0.7498699918202586  0.9789704371014667  0.2866115986674225   T   T   T
  0.4988174529375514  0.7692222721589407  0.2901720848970099   T   T   T
  0.7499186863022891  0.6447773761881544  0.2962939030944950   T   T   T
  0.2499128196610715  0.6418372424454691  0.2985466039690705   T   T   T
 -0.0001674509865608  0.0211946894725770  0.2872093229165231   T   T   T
  0.5125627140801517  0.5212673729649393  0.3111617375811216   T   T   T
  0.9872710246389781  0.5212671062230202  0.3112077265280827   T   T   T
  0.2499012315814679  0.3881375107115451  0.3279988384861864   T   T   T
  0.7499067032777138  0.3989027964240985  0.3184212390710244   T   T   T
  0.2499843399064215  0.4896485011125971  0.3884338163605029   T   T   T
 
  0.00000000E+00  0.00000000E+00  0.00000000E+00
  0.00000000E+00  0.00000000E+00  0.00000000E+00
  0.00000000E+00  0.00000000E+00  0.00000000E+00
  0.00000000E+00  0.00000000E+00  0.00000000E+00
  0.00000000E+00  0.00000000E+00  0.00000000E+00
  0.00000000E+00  0.00000000E+00  0.00000000E+00
  0.00000000E+00  0.00000000E+00  0.00000000E+00
  0.00000000E+00  0.00000000E+00  0.00000000E+00
  0.00000000E+00  0.00000000E+00  0.00000000E+00
  0.00000000E+00  0.00000000E+00  0.00000000E+00
  0.00000000E+00  0.00000000E+00  0.00000000E+00
  0.00000000E+00  0.00000000E+00  0.00000000E+00
  0.00000000E+00  0.00000000E+00  0.00000000E+00
  0.00000000E+00  0.00000000E+00  0.00000000E+00
  0.00000000E+00  0.00000000E+00  0.00000000E+00
  0.00000000E+00  0.00000000E+00  0.00000000E+00
  0.00000000E+00  0.00000000E+00  0.00000000E+00
  0.00000000E+00  0.00000000E+00  0.00000000E+00
  0.00000000E+00  0.00000000E+00  0.00000000E+00
  0.00000000E+00  0.00000000E+00  0.00000000E+00
  0.00000000E+00  0.00000000E+00  0.00000000E+00
  0.00000000E+00  0.00000000E+00  0.00000000E+00
  0.00000000E+00  0.00000000E+00  0.00000000E+00
  0.00000000E+00  0.00000000E+00  0.00000000E+00
  0.00000000E+00  0.00000000E+00  0.00000000E+00
  0.00000000E+00  0.00000000E+00  0.00000000E+00
  0.00000000E+00  0.00000000E+00  0.00000000E+00
  0.00000000E+00  0.00000000E+00  0.00000000E+00
  0.00000000E+00  0.00000000E+00  0.00000000E+00
  0.00000000E+00  0.00000000E+00  0.00000000E+00
  0.00000000E+00  0.00000000E+00  0.00000000E+00
  0.00000000E+00  0.00000000E+00  0.00000000E+00
