Title                                   
   1.00000000000000     
     8.5490480000000009    0.0000000000000000    0.0000000000000000
     0.0000000000000000    8.5490480000000009    0.0000000000000000
     0.0000000000000000    0.0000000000000000   20.0000000000000000
    22     2     1
Selective dynamics
Direct
  0.9101600018808629  0.2070488420389960  0.0946117199365394   T   T   T
  0.9122837233791674  0.7997027223529579  0.0949260320418689   T   T   T
  0.1978255309094833  0.0832594572683470  0.0955383839746590   T   T   T
  0.0746092037894444  0.2023927128357126  0.0944813390332248   T   T   T
  0.1586740683541976  0.6484981866605481  0.0961980435914801   T   T   T
  0.0756342411273240  0.5020125234765197  0.0951660600952262   T   T   T
  0.1554254782962495  0.3548472513528234  0.0952217225935639   T   T   T
  0.0782456837206737  0.7986851865284318  0.0949999797221677   T   T   T
  0.4936367620136518  0.0872262116884840  0.0977903646208770   T   T   T
  0.3444833992354087  0.1652151932623600  0.0973488394711560   T   T   T
  0.4931787643755616  0.9181194073190171  0.0977462749307412   T   T   T
  0.3459459769982636  0.8354391314542179  0.0976592150785453   T   T   T
  0.7869138532647124  0.0864056213539902  0.0964736963917476   T   T   T
  0.6388304698262037  0.1696846704790595  0.0981114059678877   T   T   T
  0.7877897683247231  0.9198147909614500  0.0962994785931184   T   T   T
  0.8293538125831335  0.6479968516305242  0.0958704288245556   T   T   T
  0.8296451348447150  0.3585773759377335  0.0946630159650650   T   T   T
  0.6392478988726572  0.8353710150415110  0.0980264965896216   T   T   T
  0.3208548694427701  0.3346685241167451  0.0989856941399568   T   T   T
  0.3251902122408371  0.6702610011226737  0.0994897811695439   T   T   T
  0.6647718682632290  0.3408355647024232  0.0985742331478196   T   T   T
  0.6628759974986534  0.6659303214421805  0.1003564350278526   T   T   T
  0.9107418999357462  0.5034013550952622  0.0947447447376563   T   T   T
  0.1981156490628906  0.9166060871000977  0.0956613024910279   T   T   T
  0.4909777317594270  0.4927899947779388  0.1247603118640774   T   T   T
 
  0.00000000E+00  0.00000000E+00  0.00000000E+00
  0.00000000E+00  0.00000000E+00  0.00000000E+00
  0.00000000E+00  0.00000000E+00  0.00000000E+00
  0.00000000E+00  0.00000000E+00  0.00000000E+00
  0.00000000E+00  0.00000000E+00  0.00000000E+00
  0.00000000E+00  0.00000000E+00  0.00000000E+00
  0.00000000E+00  0.00000000E+00  0.00000000E+00
  0.00000000E+00  0.00000000E+00  0.00000000E+00
  0.00000000E+00  0.00000000E+00  0.00000000E+00
  0.00000000E+00  0.00000000E+00  0.00000000E+00
  0.00000000E+00  0.00000000E+00  0.00000000E+00
  0.00000000E+00  0.00000000E+00  0.00000000E+00
  0.00000000E+00  0.00000000E+00  0.00000000E+00
  0.00000000E+00  0.00000000E+00  0.00000000E+00
  0.00000000E+00  0.00000000E+00  0.00000000E+00
  0.00000000E+00  0.00000000E+00  0.00000000E+00
  0.00000000E+00  0.00000000E+00  0.00000000E+00
  0.00000000E+00  0.00000000E+00  0.00000000E+00
  0.00000000E+00  0.00000000E+00  0.00000000E+00
  0.00000000E+00  0.00000000E+00  0.00000000E+00
  0.00000000E+00  0.00000000E+00  0.00000000E+00
  0.00000000E+00  0.00000000E+00  0.00000000E+00
  0.00000000E+00  0.00000000E+00  0.00000000E+00
  0.00000000E+00  0.00000000E+00  0.00000000E+00
  0.00000000E+00  0.00000000E+00  0.00000000E+00
