Title                                   
   1.00000000000000     
     9.8694509999999998    0.0000000000000000    0.0000000000000000
     0.0000000000000000    8.5490480000000009    0.0000000000000000
     0.0000000000000000    0.0000000000000000   20.0000000000000000
    28     3     1
Selective dynamics
Direct
  0.0562224308156451  0.0920807321148330  0.0867625529942486   T   T   T
  0.9308450655030946  0.1746625240873828  0.0885647739990320   T   T   T
  0.0562041089751538  0.9249418908833367  0.0855249035153526   T   T   T
  0.9295385642981614  0.3415645563932498  0.0911221124484352   T   T   T
  0.0562166107892874  0.5894867164306630  0.0873578671325361   T   T   T
  0.9323721228977135  0.6738498723368133  0.0883405541131912   T   T   T
  0.0562295189836162  0.4235080343056483  0.0893771854334583   T   T   T
  0.9323055328611768  0.8407213892531655  0.0869654408056566   T   T   T
  0.3057280186211926  0.0899003584941889  0.0887626894120603   T   T   T
  0.1816239518916677  0.1746543081594712  0.0885261564135889   T   T   T
  0.3048248068154536  0.9235866268408387  0.0890038709337867   T   T   T
  0.1829390323670797  0.3415666649945585  0.0910212295275505   T   T   T
  0.3048619515764977  0.5934561668903616  0.0959363306981348   T   T   T
  0.1800626596545724  0.6738793505315678  0.0881984572956828   T   T   T
  0.3091275203373908  0.4245161152397744  0.0968850617495236   T   T   T
  0.1801253298624261  0.8407409218873148  0.0868503452337920   T   T   T
  0.5562335768081181  0.0837249555335549  0.0944477543943346   T   T   T
  0.4316119007182562  0.1695048945439591  0.0933616549593261   T   T   T
  0.5562202220850188  0.9168810125131598  0.0960552650757722   T   T   T
  0.4333003713579103  0.3347893624773115  0.1007956959405309   T   T   T
  0.4269968900664953  0.8374919290654013  0.0959357280350334   T   T   T
  0.8067511521251027  0.0898974276066480  0.0888238538108365   T   T   T
  0.6808735298606969  0.1694979449149934  0.0934062907899323   T   T   T
  0.8076279332477112  0.9235945641484731  0.0891480424273717   T   T   T
  0.6791863532009064  0.3347662325354906  0.1009006565814437   T   T   T
  0.8076563913621800  0.5933947375354823  0.0962433918333068   T   T   T
  0.8033609184652907  0.4244836538836359  0.0971120557418269   T   T   T
  0.6854458853838598  0.8375282647378213  0.0961569858949343   T   T   T
  0.4206848539937174  0.6789174194987808  0.1040891549337745   T   T   T
  0.5562379808967176  0.4049975134411451  0.1131628977070126   T   T   T
  0.6919748432873629  0.6790012744993460  0.1045896476592227   T   T   T
  0.5562489708905324  0.5886585842216372  0.1722463925093450   T   T   T
 
  0.00000000E+00  0.00000000E+00  0.00000000E+00
  0.00000000E+00  0.00000000E+00  0.00000000E+00
  0.00000000E+00  0.00000000E+00  0.00000000E+00
  0.00000000E+00  0.00000000E+00  0.00000000E+00
  0.00000000E+00  0.00000000E+00  0.00000000E+00
  0.00000000E+00  0.00000000E+00  0.00000000E+00
  0.00000000E+00  0.00000000E+00  0.00000000E+00
  0.00000000E+00  0.00000000E+00  0.00000000E+00
  0.00000000E+00  0.00000000E+00  0.00000000E+00
  0.00000000E+00  0.00000000E+00  0.00000000E+00
  0.00000000E+00  0.00000000E+00  0.00000000E+00
  0.00000000E+00  0.00000000E+00  0.00000000E+00
  0.00000000E+00  0.00000000E+00  0.00000000E+00
  0.00000000E+00  0.00000000E+00  0.00000000E+00
  0.00000000E+00  0.00000000E+00  0.00000000E+00
  0.00000000E+00  0.00000000E+00  0.00000000E+00
  0.00000000E+00  0.00000000E+00  0.00000000E+00
  0.00000000E+00  0.00000000E+00  0.00000000E+00
  0.00000000E+00  0.00000000E+00  0.00000000E+00
  0.00000000E+00  0.00000000E+00  0.00000000E+00
  0.00000000E+00  0.00000000E+00  0.00000000E+00
  0.00000000E+00  0.00000000E+00  0.00000000E+00
  0.00000000E+00  0.00000000E+00  0.00000000E+00
  0.00000000E+00  0.00000000E+00  0.00000000E+00
  0.00000000E+00  0.00000000E+00  0.00000000E+00
  0.00000000E+00  0.00000000E+00  0.00000000E+00
  0.00000000E+00  0.00000000E+00  0.00000000E+00
  0.00000000E+00  0.00000000E+00  0.00000000E+00
  0.00000000E+00  0.00000000E+00  0.00000000E+00
  0.00000000E+00  0.00000000E+00  0.00000000E+00
  0.00000000E+00  0.00000000E+00  0.00000000E+00
  0.00000000E+00  0.00000000E+00  0.00000000E+00
