Title                                   
   1.00000000000000     
     4.9440799999999996    0.0000000000000000    0.0000000000000000
     0.0000000000000000   17.1295089999999988    0.0000000000000000
     0.0000000000000000    0.0000000000000000   20.0000000000000000
    27     4     1
Selective dynamics
Direct
  0.0001759512230502  0.1046097218099627  0.2923742064973167   T   T   T
  0.2499166307444639  0.1467305883239194  0.2936492181625721   T   T   T
  0.2499025814943615  0.2304352002038499  0.2978661808675173   T   T   T
  0.0062446311550818  0.3539096308316744  0.3092663394143234   T   T   T
 -0.0020917001790525  0.2719872979156069  0.2997589741239784   T   T   T
 -0.0052781440822512  0.6018988412629598  0.3000621679294908   T   T   T
  0.2499038336858094  0.7266480760320101  0.2950476343176744   T   T   T
  0.0004687848800142  0.8532335008079098  0.2924925264631053   T   T   T
  0.2498920508213845  0.8953263820701988  0.2921206675039357   T   T   T
  0.2498895988135944  0.9790645916444032  0.2917065618599839   T   T   T
  0.0008501331955724  0.7694445267810286  0.2937570347169883   T   T   T
  0.4996609060294898  0.1046030481875153  0.2923701752823136   T   T   T
  0.7499106943571379  0.1466535726108225  0.2927570088431601   T   T   T
  0.7499024521587493  0.2295537056050613  0.2954763766979983   T   T   T
  0.4998812962019866  0.0210054055918726  0.2916726676209558   T   T   T
  0.4935314941043697  0.3539199816996059  0.3092601607497704   T   T   T
  0.7499226229174722  0.4837263359051078  0.3067968727176063   T   T   T
  0.5019004050346436  0.2719946648820772  0.2997696428908458   T   T   T
  0.5051314407927728  0.6019059722871958  0.3000834995080598   T   T   T
  0.7499065079470532  0.7284105322602116  0.2944368161136418   T   T   T
  0.4993038371516562  0.8532352090806011  0.2925084580544255   T   T   T
  0.7498893969645568  0.8951476281943300  0.2920967640740429   T   T   T
  0.7498870949879981  0.9788582943028182  0.2916344078341655   T   T   T
  0.4989771780038510  0.7694450202743827  0.2937743069722873   T   T   T
  0.7499444919125492  0.6451250946484396  0.2972774085273871   T   T   T
  0.2499276497685836  0.6421623801375343  0.2982506954252350   T   T   T
 -0.0001112509983779  0.0210090452674290  0.2916788118161037   T   T   T
  0.5113657375854995  0.5211844800197194  0.3061726100022185   T   T   T
  0.9885109585815556  0.5211756243769824  0.3060977764341593   T   T   T
  0.2498697098161038  0.3896357134834622  0.3194841466827621   T   T   T
  0.7498798035028276  0.3991554720575289  0.3100581713959896   T   T   T
  0.2497562214274996  0.4873554614437713  0.3828067104999380   T   T   T
 
  0.00000000E+00  0.00000000E+00  0.00000000E+00
  0.00000000E+00  0.00000000E+00  0.00000000E+00
  0.00000000E+00  0.00000000E+00  0.00000000E+00
  0.00000000E+00  0.00000000E+00  0.00000000E+00
  0.00000000E+00  0.00000000E+00  0.00000000E+00
  0.00000000E+00  0.00000000E+00  0.00000000E+00
  0.00000000E+00  0.00000000E+00  0.00000000E+00
  0.00000000E+00  0.00000000E+00  0.00000000E+00
  0.00000000E+00  0.00000000E+00  0.00000000E+00
  0.00000000E+00  0.00000000E+00  0.00000000E+00
  0.00000000E+00  0.00000000E+00  0.00000000E+00
  0.00000000E+00  0.00000000E+00  0.00000000E+00
  0.00000000E+00  0.00000000E+00  0.00000000E+00
  0.00000000E+00  0.00000000E+00  0.00000000E+00
  0.00000000E+00  0.00000000E+00  0.00000000E+00
  0.00000000E+00  0.00000000E+00  0.00000000E+00
  0.00000000E+00  0.00000000E+00  0.00000000E+00
  0.00000000E+00  0.00000000E+00  0.00000000E+00
  0.00000000E+00  0.00000000E+00  0.00000000E+00
  0.00000000E+00  0.00000000E+00  0.00000000E+00
  0.00000000E+00  0.00000000E+00  0.00000000E+00
  0.00000000E+00  0.00000000E+00  0.00000000E+00
  0.00000000E+00  0.00000000E+00  0.00000000E+00
  0.00000000E+00  0.00000000E+00  0.00000000E+00
  0.00000000E+00  0.00000000E+00  0.00000000E+00
  0.00000000E+00  0.00000000E+00  0.00000000E+00
  0.00000000E+00  0.00000000E+00  0.00000000E+00
  0.00000000E+00  0.00000000E+00  0.00000000E+00
  0.00000000E+00  0.00000000E+00  0.00000000E+00
  0.00000000E+00  0.00000000E+00  0.00000000E+00
  0.00000000E+00  0.00000000E+00  0.00000000E+00
  0.00000000E+00  0.00000000E+00  0.00000000E+00
