Title                                   
   1.00000000000000     
     9.8694509999999998    0.0000000000000000    0.0000000000000000
     0.0000000000000000    8.5490480000000009    0.0000000000000000
     0.0000000000000000    0.0000000000000000   20.0000000000000000
    28     2     1
Selective dynamics
Direct
  0.0562963608094573  0.0894979326763152  0.0842584224076100   T   T   T
  0.9313778980642140  0.1708480046674202  0.0862959363280676   T   T   T
  0.0563802736545339  0.9238095541096990  0.0848668906268919   T   T   T
  0.9329585454786213  0.3381788792309258  0.0859064365903821   T   T   T
  0.0562425422169501  0.5901214430098000  0.0839174829482786   T   T   T
  0.9313256722146109  0.6719343036741148  0.0860607327474105   T   T   T
  0.0572332111446892  0.4231893286411023  0.0832917070935760   T   T   T
  0.9303521773294032  0.8389797592393083  0.0863931484778334   T   T   T
  0.3083878167485177  0.0910999434746697  0.0904111473026005   T   T   T
  0.1832078829259736  0.1723574738053274  0.0852659470907222   T   T   T
  0.1819398882404069  0.3398382460416252  0.0853043718429669   T   T   T
  0.3023156649498159  0.5933076019487429  0.0962117685906720   T   T   T
  0.1805400768576774  0.6754949718975690  0.0872101602301668   T   T   T
  0.3045187079340546  0.4238170564962541  0.0924721240845812   T   T   T
  0.1815141975650510  0.8427969252100824  0.0877245928981753   T   T   T
  0.4338594705906656  0.1769538802678666  0.0969728518233797   T   T   T
  0.5539987981376289  0.9240994918878467  0.1030498591222879   T   T   T
  0.4300402956718851  0.3437049167692211  0.0994745009569258   T   T   T
  0.4223123739788891  0.6760040768881828  0.1129905326350164   T   T   T
  0.4273171941855801  0.8399734814885883  0.1036204688032642   T   T   T
  0.8051361521371529  0.0873146353199217  0.0914529936900228   T   T   T
  0.6827145024054659  0.1740669466937487  0.1011693213416436   T   T   T
  0.8047506622997059  0.9197593134314099  0.0915270659029387   T   T   T
  0.6886066540117876  0.3369341525568819  0.1119773832965665   T   T   T
  0.8088123559655573  0.5876334895044140  0.0933046640322155   T   T   T
  0.6837039397841471  0.6665134389956647  0.1031673449618530   T   T   T
  0.8106287203781510  0.4183150173550904  0.0956352958377672   T   T   T
  0.6778083473465285  0.8344780034394739  0.0993022767577709   T   T   T
  0.5573892798044101  0.0896416480251076  0.1018977036492433   T   T   T
  0.3050327236065876  0.9245638646388362  0.0923807337116083   T   T   T
  0.5564326135618816  0.5056472186148115  0.1374511342175882   T   T   T
 
  0.00000000E+00  0.00000000E+00  0.00000000E+00
  0.00000000E+00  0.00000000E+00  0.00000000E+00
  0.00000000E+00  0.00000000E+00  0.00000000E+00
  0.00000000E+00  0.00000000E+00  0.00000000E+00
  0.00000000E+00  0.00000000E+00  0.00000000E+00
  0.00000000E+00  0.00000000E+00  0.00000000E+00
  0.00000000E+00  0.00000000E+00  0.00000000E+00
  0.00000000E+00  0.00000000E+00  0.00000000E+00
  0.00000000E+00  0.00000000E+00  0.00000000E+00
  0.00000000E+00  0.00000000E+00  0.00000000E+00
  0.00000000E+00  0.00000000E+00  0.00000000E+00
  0.00000000E+00  0.00000000E+00  0.00000000E+00
  0.00000000E+00  0.00000000E+00  0.00000000E+00
  0.00000000E+00  0.00000000E+00  0.00000000E+00
  0.00000000E+00  0.00000000E+00  0.00000000E+00
  0.00000000E+00  0.00000000E+00  0.00000000E+00
  0.00000000E+00  0.00000000E+00  0.00000000E+00
  0.00000000E+00  0.00000000E+00  0.00000000E+00
  0.00000000E+00  0.00000000E+00  0.00000000E+00
  0.00000000E+00  0.00000000E+00  0.00000000E+00
  0.00000000E+00  0.00000000E+00  0.00000000E+00
  0.00000000E+00  0.00000000E+00  0.00000000E+00
  0.00000000E+00  0.00000000E+00  0.00000000E+00
  0.00000000E+00  0.00000000E+00  0.00000000E+00
  0.00000000E+00  0.00000000E+00  0.00000000E+00
  0.00000000E+00  0.00000000E+00  0.00000000E+00
  0.00000000E+00  0.00000000E+00  0.00000000E+00
  0.00000000E+00  0.00000000E+00  0.00000000E+00
  0.00000000E+00  0.00000000E+00  0.00000000E+00
  0.00000000E+00  0.00000000E+00  0.00000000E+00
  0.00000000E+00  0.00000000E+00  0.00000000E+00
