Title                                   
   1.00000000000000     
     4.9440799999999996    0.0000000000000000    0.0000000000000000
     0.0000000000000000    8.5647549999999999    0.0000000000000000
     0.0000000000000000    0.0000000000000000   20.0000000000000000
    13     1     1
Selective dynamics
Direct
  0.0016586415221294  0.2928515746327158  0.0951383101801572   T   T   T
  0.2500000000000000  0.0430845661526942  0.0978995483775239   T   T   T
  0.0016581114692449  0.9582978893215555  0.0986693597984393   T   T   T
  0.7500000000000000  0.2079934390126671  0.0934583659433515   T   T   T
  0.4983413584778706  0.2928515746327158  0.0951383101801572   T   T   T
  0.7500000000000000  0.0402910774222776  0.0953911294419512   T   T   T
  0.7500000000000000  0.7112672124857993  0.0991618873271695   T   T   T
  0.7500000000000000  0.5368920438002952  0.0964996264282701   T   T   T
  0.4983418885307553  0.9582978893215555  0.0986693597984393   T   T   T
  0.5036371372620098  0.4577406984985154  0.0993864208252791   T   T   T
 -0.0036371372620098  0.4577406984985154  0.0993864208252791   T   T   T
 -0.0052641115752009  0.7909064125118958  0.1051058523912444   T   T   T
  0.5052641115752008  0.7909064125118958  0.1051058523912444   T   T   T
  0.2500000000000000  0.2081007907149990  0.0955114372794153   T   T   T
  0.2500000000000000  0.6244587204819058  0.1334581188120821   T   T   T
 
  0.00000000E+00  0.00000000E+00  0.00000000E+00
  0.00000000E+00  0.00000000E+00  0.00000000E+00
  0.00000000E+00  0.00000000E+00  0.00000000E+00
  0.00000000E+00  0.00000000E+00  0.00000000E+00
  0.00000000E+00  0.00000000E+00  0.00000000E+00
  0.00000000E+00  0.00000000E+00  0.00000000E+00
  0.00000000E+00  0.00000000E+00  0.00000000E+00
  0.00000000E+00  0.00000000E+00  0.00000000E+00
  0.00000000E+00  0.00000000E+00  0.00000000E+00
  0.00000000E+00  0.00000000E+00  0.00000000E+00
  0.00000000E+00  0.00000000E+00  0.00000000E+00
  0.00000000E+00  0.00000000E+00  0.00000000E+00
  0.00000000E+00  0.00000000E+00  0.00000000E+00
  0.00000000E+00  0.00000000E+00  0.00000000E+00
  0.00000000E+00  0.00000000E+00  0.00000000E+00
