Title                                   
   1.00000000000000     
     4.9440799999999996    0.0000000000000000    0.0000000000000000
     0.0000000000000000    8.5647549999999999    0.0000000000000000
     0.0000000000000000    0.0000000000000000   20.0000000000000000
    10     4     1
Selective dynamics
Direct
  0.2500000000000000  0.2115758014540970  0.0977390512260436   T   T   T
 -0.0018784302013428  0.2946329374003123  0.0976202239187133   T   T   T
  0.2500000000000000  0.0380234585633791  0.0977455797321897   T   T   T
 -0.0018547627304463  0.9549129009401214  0.0976371505325473   T   T   T
  0.7500000000000000  0.2087426147335371  0.0952678393996590   T   T   T
  0.5018784302013429  0.2946329374003123  0.0976202239187133   T   T   T
  0.7500000000000000  0.0407707008716000  0.0952901948323049   T   T   T
  0.7500000000000000  0.7127307825679849  0.1001570748020935   T   T   T
  0.7500000000000000  0.5368729310583907  0.1001421651514847   T   T   T
  0.5018547627304467  0.9549129009401214  0.0976371505325473   T   T   T
  0.5107992189940672  0.4576348019475982  0.1017626910353825   T   T   T
 -0.0107992189940675  0.4576348019475982  0.1017626910353825   T   T   T
 -0.0107793479694116  0.7919205089324008  0.1017674517366026   T   T   T
  0.5107793479694115  0.7919205089324008  0.1017674517366026   T   T   T
  0.2500000000000000  0.6247624123101484  0.1240630604097366   T   T   T
 
  0.00000000E+00  0.00000000E+00  0.00000000E+00
  0.00000000E+00  0.00000000E+00  0.00000000E+00
  0.00000000E+00  0.00000000E+00  0.00000000E+00
  0.00000000E+00  0.00000000E+00  0.00000000E+00
  0.00000000E+00  0.00000000E+00  0.00000000E+00
  0.00000000E+00  0.00000000E+00  0.00000000E+00
  0.00000000E+00  0.00000000E+00  0.00000000E+00
  0.00000000E+00  0.00000000E+00  0.00000000E+00
  0.00000000E+00  0.00000000E+00  0.00000000E+00
  0.00000000E+00  0.00000000E+00  0.00000000E+00
  0.00000000E+00  0.00000000E+00  0.00000000E+00
  0.00000000E+00  0.00000000E+00  0.00000000E+00
  0.00000000E+00  0.00000000E+00  0.00000000E+00
  0.00000000E+00  0.00000000E+00  0.00000000E+00
  0.00000000E+00  0.00000000E+00  0.00000000E+00
