Title                                   
   1.00000000000000     
     4.9440799999999996    0.0000000000000000    0.0000000000000000
     0.0000000000000000    8.5647549999999999    0.0000000000000000
     0.0000000000000000    0.0000000000000000   20.0000000000000000
    12     2     1
Selective dynamics
Direct
  0.0048780283311624  0.2897236817486182  0.0920769603008793   T   T   T
  0.2586429287325521  0.0401886627108169  0.0968798847326529   T   T   T
  0.0092916876213764  0.9590862225735743  0.0908678879428290   T   T   T
  0.7510131112059468  0.2080045097654712  0.0938709955613370   T   T   T
  0.4999781658356685  0.2968004298229226  0.1008307495645736   T   T   T
  0.7538275380047560  0.0394979042766962  0.0936754535688123   T   T   T
  0.7527306804826448  0.7118358079909903  0.0985695616347608   T   T   T
  0.7503408535650731  0.5409769832299338  0.0996858410528298   T   T   T
  0.5080270066954669  0.9526604506897496  0.1018824904282422   T   T   T
  0.4976436820402982  0.4629815060403619  0.1114347093559580   T   T   T
 -0.0011297298435030  0.4553935893804596  0.0933208679637090   T   T   T
 -0.0006228278560375  0.7922495453327587  0.0894514769135146   T   T   T
  0.5118965762359006  0.7895082241231407  0.1146338526802471   T   T   T
  0.2561015909480728  0.2073946246696852  0.0965826264583970   T   T   T
  0.1973807080006219  0.6253788576448237  0.1342166418412608   T   T   T
 
  0.00000000E+00  0.00000000E+00  0.00000000E+00
  0.00000000E+00  0.00000000E+00  0.00000000E+00
  0.00000000E+00  0.00000000E+00  0.00000000E+00
  0.00000000E+00  0.00000000E+00  0.00000000E+00
  0.00000000E+00  0.00000000E+00  0.00000000E+00
  0.00000000E+00  0.00000000E+00  0.00000000E+00
  0.00000000E+00  0.00000000E+00  0.00000000E+00
  0.00000000E+00  0.00000000E+00  0.00000000E+00
  0.00000000E+00  0.00000000E+00  0.00000000E+00
  0.00000000E+00  0.00000000E+00  0.00000000E+00
  0.00000000E+00  0.00000000E+00  0.00000000E+00
  0.00000000E+00  0.00000000E+00  0.00000000E+00
  0.00000000E+00  0.00000000E+00  0.00000000E+00
  0.00000000E+00  0.00000000E+00  0.00000000E+00
  0.00000000E+00  0.00000000E+00  0.00000000E+00
