Title                                   
   1.00000000000000     
     4.9440799999999996    0.0000000000000000    0.0000000000000000
     0.0000000000000000    8.5647549999999999    0.0000000000000000
     0.0000000000000000    0.0000000000000000   20.0000000000000000
    13     1     1
Selective dynamics
Direct
  0.2522336825333736  0.2065491278108606  0.0963283059598727   T   T   T
  0.0000035327517631  0.2912989432341775  0.0968859110922773   T   T   T
  0.2547337347208799  0.0393906364444751  0.0959537793723800   T   T   T
  0.0039037861802398  0.9564435999090417  0.0943524999917438   T   T   T
  0.7490247309740651  0.2084777627841465  0.0951268925395890   T   T   T
  0.4990957859483026  0.2946934609845249  0.0976019723981934   T   T   T
  0.7523105092339273  0.0400008780891977  0.0944212613317475   T   T   T
  0.7517957616490000  0.7140057724406644  0.0998737632438665   T   T   T
  0.7479450961352133  0.5410454375038132  0.1022746501001864   T   T   T
  0.5057092122246668  0.9529429735032148  0.0977325246097913   T   T   T
  0.4979888500719160  0.4617365560093902  0.1018526894312930   T   T   T
 -0.0030832669470104  0.4568865122462365  0.1026827749245080   T   T   T
 -0.0024258341768880  0.7910895108928409  0.0950525619622132   T   T   T
  0.5097470438222160  0.7912436514077814  0.1040174959564963   T   T   T
  0.2310173748783355  0.6258761767396360  0.1338229170858449   T   T   T
 
  0.00000000E+00  0.00000000E+00  0.00000000E+00
  0.00000000E+00  0.00000000E+00  0.00000000E+00
  0.00000000E+00  0.00000000E+00  0.00000000E+00
  0.00000000E+00  0.00000000E+00  0.00000000E+00
  0.00000000E+00  0.00000000E+00  0.00000000E+00
  0.00000000E+00  0.00000000E+00  0.00000000E+00
  0.00000000E+00  0.00000000E+00  0.00000000E+00
  0.00000000E+00  0.00000000E+00  0.00000000E+00
  0.00000000E+00  0.00000000E+00  0.00000000E+00
  0.00000000E+00  0.00000000E+00  0.00000000E+00
  0.00000000E+00  0.00000000E+00  0.00000000E+00
  0.00000000E+00  0.00000000E+00  0.00000000E+00
  0.00000000E+00  0.00000000E+00  0.00000000E+00
  0.00000000E+00  0.00000000E+00  0.00000000E+00
  0.00000000E+00  0.00000000E+00  0.00000000E+00
