Title                                   
   1.00000000000000     
     9.8694509999999998    0.0000000000000000    0.0000000000000000
     0.0000000000000000    8.5490480000000009    0.0000000000000000
     0.0000000000000000    0.0000000000000000   20.0000000000000000
    24     6     1
Selective dynamics
Direct
  0.0554472099336490  0.0903582812368132  0.0882891353492084   T   T   T
  0.9306377372882234  0.1727512071132083  0.0891707255537035   T   T   T
  0.0572628770819737  0.9220402782492840  0.0890892358314597   T   T   T
  0.9333310506548540  0.3403050058267214  0.0890830642257518   T   T   T
  0.0562361612908110  0.5909474350903262  0.0875617064528826   T   T   T
  0.0564454891670070  0.4241048402276561  0.0865366861872612   T   T   T
  0.9326113122914432  0.8396885769631617  0.0910411378735113   T   T   T
  0.3065703470144068  0.0882162933359504  0.0933596713161289   T   T   T
  0.1805973543902997  0.1718001261291657  0.0895737856150195   T   T   T
  0.1806007079140361  0.3394949949078521  0.0886914212613163   T   T   T
  0.3024618688793569  0.5899537021110239  0.0950943460309066   T   T   T
  0.1795090098988851  0.6737638325270466  0.0892919161001071   T   T   T
  0.3036365106305979  0.4207655570993041  0.0953815333349634   T   T   T
  0.1814458731818213  0.8410475604179013  0.0901030420868856   T   T   T
  0.4287540205514664  0.1720996748317048  0.1008714928356893   T   T   T
  0.5544188367033819  0.9186943092417404  0.1033552885871058   T   T   T
  0.4271379948538604  0.8377976095966029  0.1010355442719139   T   T   T
  0.8048441558257732  0.0884311186475208  0.0930311946762201   T   T   T
  0.6816619400805489  0.1745074441961056  0.1006554790468237   T   T   T
  0.8067783991845627  0.9212122804292623  0.0943221300069205   T   T   T
  0.6886075107447012  0.3390394699297505  0.1082996996190323   T   T   T
  0.8135003593476560  0.5934641171896570  0.0991413433677783   T   T   T
  0.8120104561136424  0.4245464559636699  0.0975461481738897   T   T   T
  0.6831083258909485  0.8370030867251750  0.1030164458757502   T   T   T
  0.9339751821245781  0.6736682612021678  0.0908963178004828   T   T   T
  0.5552784894903697  0.0915169747746412  0.1027937497963392   T   T   T
  0.4222725753260677  0.3333173441721346  0.1070359331557712   T   T   T
  0.6954654173825063  0.6748616058395787  0.1108801204357016   T   T   T
  0.4186046964834538  0.6791199795612685  0.1065224979783454   T   T   T
  0.3047566218891277  0.9230564095598770  0.0925897353024181   T   T   T
  0.5551665083899983  0.5033011669037412  0.1267044718507482   T   T   T
 
  0.00000000E+00  0.00000000E+00  0.00000000E+00
  0.00000000E+00  0.00000000E+00  0.00000000E+00
  0.00000000E+00  0.00000000E+00  0.00000000E+00
  0.00000000E+00  0.00000000E+00  0.00000000E+00
  0.00000000E+00  0.00000000E+00  0.00000000E+00
  0.00000000E+00  0.00000000E+00  0.00000000E+00
  0.00000000E+00  0.00000000E+00  0.00000000E+00
  0.00000000E+00  0.00000000E+00  0.00000000E+00
  0.00000000E+00  0.00000000E+00  0.00000000E+00
  0.00000000E+00  0.00000000E+00  0.00000000E+00
  0.00000000E+00  0.00000000E+00  0.00000000E+00
  0.00000000E+00  0.00000000E+00  0.00000000E+00
  0.00000000E+00  0.00000000E+00  0.00000000E+00
  0.00000000E+00  0.00000000E+00  0.00000000E+00
  0.00000000E+00  0.00000000E+00  0.00000000E+00
  0.00000000E+00  0.00000000E+00  0.00000000E+00
  0.00000000E+00  0.00000000E+00  0.00000000E+00
  0.00000000E+00  0.00000000E+00  0.00000000E+00
  0.00000000E+00  0.00000000E+00  0.00000000E+00
  0.00000000E+00  0.00000000E+00  0.00000000E+00
  0.00000000E+00  0.00000000E+00  0.00000000E+00
  0.00000000E+00  0.00000000E+00  0.00000000E+00
  0.00000000E+00  0.00000000E+00  0.00000000E+00
  0.00000000E+00  0.00000000E+00  0.00000000E+00
  0.00000000E+00  0.00000000E+00  0.00000000E+00
  0.00000000E+00  0.00000000E+00  0.00000000E+00
  0.00000000E+00  0.00000000E+00  0.00000000E+00
  0.00000000E+00  0.00000000E+00  0.00000000E+00
  0.00000000E+00  0.00000000E+00  0.00000000E+00
  0.00000000E+00  0.00000000E+00  0.00000000E+00
  0.00000000E+00  0.00000000E+00  0.00000000E+00
