Title                                   
   1.00000000000000     
     4.9440799999999996    0.0000000000000000    0.0000000000000000
     0.0000000000000000    8.5647549999999999    0.0000000000000000
     0.0000000000000000    0.0000000000000000   20.0000000000000000
    11     3     1
Selective dynamics
Direct
  0.2487402851957357  0.2086377076108766  0.0994310567220299   T   T   T
 -0.0031023022766039  0.2940478258287204  0.0992580602673894   T   T   T
  0.2491222475096933  0.0377695518656128  0.0991966267148840   T   T   T
 -0.0029711591014765  0.9561782275261107  0.0982424730616075   T   T   T
  0.7485361006444252  0.2085602947847665  0.0974930060778272   T   T   T
  0.4991871954832167  0.2922627398043635  0.0991222878091344   T   T   T
  0.7498408000324149  0.0409887212892864  0.0974157091451782   T   T   T
  0.7539898850429335  0.7163064833314627  0.1001683296289618   T   T   T
  0.7522488528798998  0.5368484959399690  0.1000927724205246   T   T   T
  0.5028843849639987  0.9549267740642722  0.0995640417024584   T   T   T
  0.5083419919490588  0.4587681123880871  0.1013833305846478   T   T   T
 -0.0079136855553040  0.4564759685965314  0.1015148944095928   T   T   T
 -0.0121317982570750  0.7945540808654268  0.0986062130094612   T   T   T
  0.5146610214748820  0.7923108584756329  0.1030518524212765   T   T   T
  0.2485661800142000  0.6230451576288830  0.1134393460250299   T   T   T
 
  0.00000000E+00  0.00000000E+00  0.00000000E+00
  0.00000000E+00  0.00000000E+00  0.00000000E+00
  0.00000000E+00  0.00000000E+00  0.00000000E+00
  0.00000000E+00  0.00000000E+00  0.00000000E+00
  0.00000000E+00  0.00000000E+00  0.00000000E+00
  0.00000000E+00  0.00000000E+00  0.00000000E+00
  0.00000000E+00  0.00000000E+00  0.00000000E+00
  0.00000000E+00  0.00000000E+00  0.00000000E+00
  0.00000000E+00  0.00000000E+00  0.00000000E+00
  0.00000000E+00  0.00000000E+00  0.00000000E+00
  0.00000000E+00  0.00000000E+00  0.00000000E+00
  0.00000000E+00  0.00000000E+00  0.00000000E+00
  0.00000000E+00  0.00000000E+00  0.00000000E+00
  0.00000000E+00  0.00000000E+00  0.00000000E+00
  0.00000000E+00  0.00000000E+00  0.00000000E+00
