Title                                   
   1.00000000000000     
     9.8694509999999998    0.0000000000000000    0.0000000000000000
     0.0000000000000000    8.5490480000000009    0.0000000000000000
     0.0000000000000000    0.0000000000000000   20.0000000000000000
    30     1
Selective dynamics
Direct
  0.0562448381380019  0.0890296774753481  0.0891940170322873   T   T   T
  0.9311208737508246  0.1720192445073034  0.0902914432222952   T   T   T
  0.0562317846482033  0.9232828040997998  0.0891937517412031   T   T   T
  0.9320582384413634  0.3386411621072836  0.0898646105490889   T   T   T
  0.0562216114357768  0.5895755248366421  0.0884297460698118   T   T   T
  0.9320402197757315  0.6736585755552875  0.0898628302209549   T   T   T
  0.0562195406782529  0.4227442954039521  0.0884283150527417   T   T   T
  0.9311064542562280  0.8402783985167388  0.0902974929135084   T   T   T
  0.3066872404473954  0.0899970025157132  0.0934937560492967   T   T   T
  0.1813620635209721  0.1720382242030095  0.0903689413444059   T   T   T
  0.3066953338681692  0.9223212608472068  0.0934951114095244   T   T   T
  0.1803933731860878  0.3386558364194067  0.0899457502107087   T   T   T
  0.3043580006880794  0.5906737979549862  0.0938478982699654   T   T   T
  0.1804092907319549  0.6736608289375509  0.0899361424362494   T   T   T
  0.3043417418367650  0.4216416753964344  0.0938525568848328   T   T   T
  0.1813653453336626  0.8402806892765554  0.0903663823497672   T   T   T
  0.5562252793463061  0.0890452250953627  0.0987956421593359   T   T   T
  0.4313097934476899  0.1761220146346179  0.0976192656752066   T   T   T
  0.5562209296512456  0.9232345163401099  0.0988011292998358   T   T   T
  0.4285446395983472  0.3415706560633991  0.1000839422647805   T   T   T
  0.4285329732518264  0.6708103021097616  0.1000849476595223   T   T   T
  0.4313069095410328  0.8362116871856978  0.0976326997784964   T   T   T
  0.8057925258432476  0.0899879642471596  0.0933890090883901   T   T   T
  0.6811383647077236  0.1760874078147329  0.0975339469724517   T   T   T
  0.8057675160013743  0.9223096201453557  0.0933997093454050   T   T   T
  0.6839106330195182  0.3415400868607991  0.0999627800665133   T   T   T
  0.8080871910663796  0.5906669933194365  0.0937039792283718   T   T   T
  0.6839190376636721  0.6708045843961448  0.0999668353439138   T   T   T
  0.8081016837623034  0.4216299627817228  0.0937101605499550   T   T   T
  0.6811360172436168  0.8362118857951065  0.0975549914485032   T   T   T
  0.5562855551182559  0.5061430951573852  0.1278572153627180   T   T   T
 
  0.00000000E+00  0.00000000E+00  0.00000000E+00
  0.00000000E+00  0.00000000E+00  0.00000000E+00
  0.00000000E+00  0.00000000E+00  0.00000000E+00
  0.00000000E+00  0.00000000E+00  0.00000000E+00
  0.00000000E+00  0.00000000E+00  0.00000000E+00
  0.00000000E+00  0.00000000E+00  0.00000000E+00
  0.00000000E+00  0.00000000E+00  0.00000000E+00
  0.00000000E+00  0.00000000E+00  0.00000000E+00
  0.00000000E+00  0.00000000E+00  0.00000000E+00
  0.00000000E+00  0.00000000E+00  0.00000000E+00
  0.00000000E+00  0.00000000E+00  0.00000000E+00
  0.00000000E+00  0.00000000E+00  0.00000000E+00
  0.00000000E+00  0.00000000E+00  0.00000000E+00
  0.00000000E+00  0.00000000E+00  0.00000000E+00
  0.00000000E+00  0.00000000E+00  0.00000000E+00
  0.00000000E+00  0.00000000E+00  0.00000000E+00
  0.00000000E+00  0.00000000E+00  0.00000000E+00
  0.00000000E+00  0.00000000E+00  0.00000000E+00
  0.00000000E+00  0.00000000E+00  0.00000000E+00
  0.00000000E+00  0.00000000E+00  0.00000000E+00
  0.00000000E+00  0.00000000E+00  0.00000000E+00
  0.00000000E+00  0.00000000E+00  0.00000000E+00
  0.00000000E+00  0.00000000E+00  0.00000000E+00
  0.00000000E+00  0.00000000E+00  0.00000000E+00
  0.00000000E+00  0.00000000E+00  0.00000000E+00
  0.00000000E+00  0.00000000E+00  0.00000000E+00
  0.00000000E+00  0.00000000E+00  0.00000000E+00
  0.00000000E+00  0.00000000E+00  0.00000000E+00
  0.00000000E+00  0.00000000E+00  0.00000000E+00
  0.00000000E+00  0.00000000E+00  0.00000000E+00
  0.00000000E+00  0.00000000E+00  0.00000000E+00
