Title                                   
   1.00000000000000     
     4.9440799999999996    0.0000000000000000    0.0000000000000000
     0.0000000000000000   17.1295089999999988    0.0000000000000000
     0.0000000000000000    0.0000000000000000   20.0000000000000000
    30     1
Selective dynamics
Direct
 -0.0002129289323396  0.1046804101271775  0.2899377372744414   T   T   T
  0.2501756823400478  0.1467062065872771  0.2927474820727274   T   T   T
  0.2504853192845037  0.2293699114845330  0.3003844287383347   T   T   T
  0.0009481901859569  0.2716796997901437  0.3044204142018740   T   T   T
  0.0009783463093211  0.6032230853476035  0.3040803586475139   T   T   T
  0.2502358431589677  0.7281832710797269  0.2924809260751702   T   T   T
 -0.0001797727121215  0.8536835376820170  0.2864472125264769   T   T   T
  0.2499291301538913  0.8957684041097834  0.2857291130812519   T   T   T
  0.2499030705731388  0.9791867876421787  0.2857951781281299   T   T   T
 -0.0001602760739914  0.7702361764459836  0.2896697315123924   T   T   T
  0.5004557404101274  0.1046754994189244  0.2899312244572126   T   T   T
  0.7501592193860648  0.1465457448058908  0.2922526301955331   T   T   T
  0.7504480450650052  0.2299575066220020  0.2990571335990250   T   T   T
  0.5001274092254918  0.0212270561698588  0.2866229030861016   T   T   T
  0.7506996752703267  0.3941511076472032  0.3173494163373999   T   T   T
  0.7507559963522802  0.4807469216256372  0.3172161824568204   T   T   T
  0.5000834200891843  0.2717096196496717  0.3043726496912580   T   T   T
  0.5001654158831484  0.6031943607718406  0.3040350073017054   T   T   T
  0.7501991022896978  0.7283645751077028  0.2919148575236135   T   T   T
  0.5001078349121456  0.8536942388471321  0.2864464085373922   T   T   T
  0.7499563122091740  0.8956200686846536  0.2856109784414374   T   T   T
  0.7499292670904201  0.9792904192496260  0.2857131152101997   T   T   T
  0.5004261828348964  0.7702411997924733  0.2896606392165318   T   T   T
  0.7504930999983129  0.6449714750951275  0.2987003311131607   T   T   T
  0.2505324740654775  0.6455282245421595  0.3000371448773655   T   T   T
 -0.0002571508391008  0.0212360408338699  0.2866202550625640   T   T   T
  0.5025589293315711  0.5211671412234684  0.3146425555334533   T   T   T
 -0.0010594935054696  0.5212141575455925  0.3147640590546575   T   T   T
  0.5024046153792063  0.3537606687753094  0.3149288996731533   T   T   T
 -0.0010516424394810  0.3537297055315772  0.3150364231626971   T   T   T
  0.2507699427041467  0.4375987777638516  0.3584546032103570   T   T   T
 
  0.00000000E+00  0.00000000E+00  0.00000000E+00
  0.00000000E+00  0.00000000E+00  0.00000000E+00
  0.00000000E+00  0.00000000E+00  0.00000000E+00
  0.00000000E+00  0.00000000E+00  0.00000000E+00
  0.00000000E+00  0.00000000E+00  0.00000000E+00
  0.00000000E+00  0.00000000E+00  0.00000000E+00
  0.00000000E+00  0.00000000E+00  0.00000000E+00
  0.00000000E+00  0.00000000E+00  0.00000000E+00
  0.00000000E+00  0.00000000E+00  0.00000000E+00
  0.00000000E+00  0.00000000E+00  0.00000000E+00
  0.00000000E+00  0.00000000E+00  0.00000000E+00
  0.00000000E+00  0.00000000E+00  0.00000000E+00
  0.00000000E+00  0.00000000E+00  0.00000000E+00
  0.00000000E+00  0.00000000E+00  0.00000000E+00
  0.00000000E+00  0.00000000E+00  0.00000000E+00
  0.00000000E+00  0.00000000E+00  0.00000000E+00
  0.00000000E+00  0.00000000E+00  0.00000000E+00
  0.00000000E+00  0.00000000E+00  0.00000000E+00
  0.00000000E+00  0.00000000E+00  0.00000000E+00
  0.00000000E+00  0.00000000E+00  0.00000000E+00
  0.00000000E+00  0.00000000E+00  0.00000000E+00
  0.00000000E+00  0.00000000E+00  0.00000000E+00
  0.00000000E+00  0.00000000E+00  0.00000000E+00
  0.00000000E+00  0.00000000E+00  0.00000000E+00
  0.00000000E+00  0.00000000E+00  0.00000000E+00
  0.00000000E+00  0.00000000E+00  0.00000000E+00
  0.00000000E+00  0.00000000E+00  0.00000000E+00
  0.00000000E+00  0.00000000E+00  0.00000000E+00
  0.00000000E+00  0.00000000E+00  0.00000000E+00
  0.00000000E+00  0.00000000E+00  0.00000000E+00
  0.00000000E+00  0.00000000E+00  0.00000000E+00
