Title                                   
   1.00000000000000     
     8.5490480000000009    0.0000000000000000    0.0000000000000000
     0.0000000000000000    8.5490480000000009    0.0000000000000000
     0.0000000000000000    0.0000000000000000   20.0000000000000000
    19     5     1
Selective dynamics
Direct
  0.9068959142168000  0.2066388888174471  0.0943136896967498   T   T   T
  0.9120520917012712  0.8015288710824005  0.0952244099044202   T   T   T
  0.1962458278283317  0.0819142803608669  0.0951619627567396   T   T   T
  0.0750252516720021  0.2009034886494111  0.0957683695311293   T   T   T
  0.1581926455872852  0.6488943541465626  0.0950338804491416   T   T   T
  0.0773182622849047  0.4998896361071757  0.0970538069474298   T   T   T
  0.1557950424455256  0.3491348556801174  0.0987638140226749   T   T   T
  0.0801855039376335  0.7985856658592898  0.0939101169535214   T   T   T
  0.3424925202457832  0.1625961864181377  0.0978573324522857   T   T   T
  0.4939158446955288  0.9187640481948195  0.0969969560405514   T   T   T
  0.3462447299519725  0.8363472628409251  0.0951293162745109   T   T   T
  0.7870244366207442  0.0879093403092159  0.0942798922611651   T   T   T
  0.6371022452449250  0.1697321271733829  0.0947712582652656   T   T   T
  0.7903428667360312  0.9204794656326529  0.0957734583850586   T   T   T
  0.8315510654707794  0.6528925305173184  0.0979864405901076   T   T   T
  0.8261201033016933  0.3572099056049905  0.0948999820741452   T   T   T
  0.6435064240040423  0.8389027362821475  0.0986797918050384   T   T   T
  0.3246802979623395  0.6727266741304510  0.0952920885877775   T   T   T
  0.6593348852785150  0.3361300655510023  0.0951236267401468   T   T   T
  0.4925166470477380  0.0865085022268375  0.0963366079665136   T   T   T
  0.9088270008860796  0.5030969443869621  0.0965708747069296   T   T   T
  0.3204761032940392  0.3238694719859058  0.1027702646161505   T   T   T
  0.6701377165577969  0.6738916628964968  0.1028787196024433   T   T   T
  0.1967447966974885  0.9149377883927350  0.0936144782732260   T   T   T
  0.4926837763307363  0.5013052467527613  0.1295138610968574   T   T   T
 
  0.00000000E+00  0.00000000E+00  0.00000000E+00
  0.00000000E+00  0.00000000E+00  0.00000000E+00
  0.00000000E+00  0.00000000E+00  0.00000000E+00
  0.00000000E+00  0.00000000E+00  0.00000000E+00
  0.00000000E+00  0.00000000E+00  0.00000000E+00
  0.00000000E+00  0.00000000E+00  0.00000000E+00
  0.00000000E+00  0.00000000E+00  0.00000000E+00
  0.00000000E+00  0.00000000E+00  0.00000000E+00
  0.00000000E+00  0.00000000E+00  0.00000000E+00
  0.00000000E+00  0.00000000E+00  0.00000000E+00
  0.00000000E+00  0.00000000E+00  0.00000000E+00
  0.00000000E+00  0.00000000E+00  0.00000000E+00
  0.00000000E+00  0.00000000E+00  0.00000000E+00
  0.00000000E+00  0.00000000E+00  0.00000000E+00
  0.00000000E+00  0.00000000E+00  0.00000000E+00
  0.00000000E+00  0.00000000E+00  0.00000000E+00
  0.00000000E+00  0.00000000E+00  0.00000000E+00
  0.00000000E+00  0.00000000E+00  0.00000000E+00
  0.00000000E+00  0.00000000E+00  0.00000000E+00
  0.00000000E+00  0.00000000E+00  0.00000000E+00
  0.00000000E+00  0.00000000E+00  0.00000000E+00
  0.00000000E+00  0.00000000E+00  0.00000000E+00
  0.00000000E+00  0.00000000E+00  0.00000000E+00
  0.00000000E+00  0.00000000E+00  0.00000000E+00
  0.00000000E+00  0.00000000E+00  0.00000000E+00
