Title                                   
   1.00000000000000     
     4.9440799999999996    0.0000000000000000    0.0000000000000000
     0.0000000000000000    8.5647549999999999    0.0000000000000000
     0.0000000000000000    0.0000000000000000   20.0000000000000000
    14     1     1
Selective dynamics
Direct
  0.2500000000000000  0.2063661608116321  0.0891761491079546   T   T   T
 -0.0029601855677111  0.2881517257752230  0.0923080900746479   T   T   T
  0.2500000000000000  0.0419397256968933  0.0851174309253125   T   T   T
  0.0008047188765764  0.7981658944995724  0.1009495275932507   T   T   T
 -0.0007259165344065  0.9588061051158052  0.0859712987756127   T   T   T
  0.7500000000000000  0.2053462772777883  0.0827328088344473   T   T   T
  0.5029601855677112  0.2881517257752230  0.0923080900746479   T   T   T
  0.7500000000000000  0.0405853097763188  0.0804434545049528   T   T   T
  0.7500000000000000  0.7092766619699955  0.1065537299058884   T   T   T
  0.4991952811234238  0.7981658944995724  0.1009495275932507   T   T   T
  0.7500000000000000  0.5390280533266797  0.1080038282444591   T   T   T
  0.5007259165344068  0.9588061051158052  0.0859712987756127   T   T   T
  0.5092166262611236  0.4480513210413319  0.1092388186033189   T   T   T
 -0.0092166262611234  0.4480513210413319  0.1092388186033189   T   T   T
  0.2500000000000000  0.7303312231948109  0.1154540687158551   T   T   T
  0.2500000000000000  0.5407764950820169  0.1780950596674774   T   T   T
 
  0.00000000E+00  0.00000000E+00  0.00000000E+00
  0.00000000E+00  0.00000000E+00  0.00000000E+00
  0.00000000E+00  0.00000000E+00  0.00000000E+00
  0.00000000E+00  0.00000000E+00  0.00000000E+00
  0.00000000E+00  0.00000000E+00  0.00000000E+00
  0.00000000E+00  0.00000000E+00  0.00000000E+00
  0.00000000E+00  0.00000000E+00  0.00000000E+00
  0.00000000E+00  0.00000000E+00  0.00000000E+00
  0.00000000E+00  0.00000000E+00  0.00000000E+00
  0.00000000E+00  0.00000000E+00  0.00000000E+00
  0.00000000E+00  0.00000000E+00  0.00000000E+00
  0.00000000E+00  0.00000000E+00  0.00000000E+00
  0.00000000E+00  0.00000000E+00  0.00000000E+00
  0.00000000E+00  0.00000000E+00  0.00000000E+00
  0.00000000E+00  0.00000000E+00  0.00000000E+00
  0.00000000E+00  0.00000000E+00  0.00000000E+00
