Title                                   
   1.00000000000000     
     9.8694509999999998    0.0000000000000000    0.0000000000000000
     0.0000000000000000    8.5490480000000009    0.0000000000000000
     0.0000000000000000    0.0000000000000000   20.0000000000000000
    27     4     1
Selective dynamics
Direct
  0.0565249709875635  0.0917313191787950  0.0817696842079924   T   T   T
  0.9311523992191333  0.1744729309954712  0.0827968246532966   T   T   T
  0.0579049073825893  0.9245295577699744  0.0812281059869455   T   T   T
  0.9298429812877438  0.3419106534605253  0.0856542374552524   T   T   T
  0.0578858247471001  0.5907707277302383  0.0834395604349341   T   T   T
  0.9337072100176524  0.6736704248610055  0.0840818441652432   T   T   T
  0.0569394889967165  0.4233293461957839  0.0859683540136428   T   T   T
  0.9333673307165993  0.8403212092848952  0.0831694780101490   T   T   T
  0.3060162685421158  0.0883143118691731  0.0888917838008602   T   T   T
  0.1826387944978038  0.1738255554334310  0.0857820703408103   T   T   T
  0.1832737451605660  0.3403167635984167  0.0902641062594801   T   T   T
  0.3022117445141428  0.5916637775288647  0.1079909485829608   T   T   T
  0.1821855615631917  0.6745435002116353  0.0887574408944747   T   T   T
  0.3081814695720782  0.4225151598563167  0.1028787273026658   T   T   T
  0.1823456824238472  0.8413664920232699  0.0854273491096404   T   T   T
  0.5569008857476428  0.0834617753685894  0.0961319045533775   T   T   T
  0.5550274356036036  0.9200904398840293  0.1054614224453156   T   T   T
  0.4326266648617524  0.3313745854553130  0.1042370080660719   T   T   T
  0.4241859237846595  0.8424856790720325  0.1121729399294994   T   T   T
  0.8063406598552912  0.0887019470437061  0.0843064268364774   T   T   T
  0.6799316137080721  0.1685353277869264  0.0892093660880372   T   T   T
  0.8076925719795935  0.9236157706915177  0.0869396366429228   T   T   T
  0.6789410024402418  0.3338089576927628  0.0960924636515074   T   T   T
  0.8091547924024930  0.5941912872877303  0.0946232379692160   T   T   T
  0.8021719998672219  0.4246572541258047  0.0922989476555294   T   T   T
  0.6861360489571474  0.8389631529682100  0.1010354735175778   T   T   T
  0.4081907238422094  0.6887715215835355  0.1314650142410345   T   T   T
  0.5551075565178463  0.3990229833912521  0.1116749144628042   T   T   T
  0.6972089709391144  0.6812806681367977  0.1104681703983174   T   T   T
  0.3056892844078460  0.9260862248383001  0.0899126074438728   T   T   T
  0.4288118162239941  0.1662875423908818  0.0952686343431419   T   T   T
  0.5613426692324326  0.5856291522848157  0.1662763165369649   T   T   T
 
  0.00000000E+00  0.00000000E+00  0.00000000E+00
  0.00000000E+00  0.00000000E+00  0.00000000E+00
  0.00000000E+00  0.00000000E+00  0.00000000E+00
  0.00000000E+00  0.00000000E+00  0.00000000E+00
  0.00000000E+00  0.00000000E+00  0.00000000E+00
  0.00000000E+00  0.00000000E+00  0.00000000E+00
  0.00000000E+00  0.00000000E+00  0.00000000E+00
  0.00000000E+00  0.00000000E+00  0.00000000E+00
  0.00000000E+00  0.00000000E+00  0.00000000E+00
  0.00000000E+00  0.00000000E+00  0.00000000E+00
  0.00000000E+00  0.00000000E+00  0.00000000E+00
  0.00000000E+00  0.00000000E+00  0.00000000E+00
  0.00000000E+00  0.00000000E+00  0.00000000E+00
  0.00000000E+00  0.00000000E+00  0.00000000E+00
  0.00000000E+00  0.00000000E+00  0.00000000E+00
  0.00000000E+00  0.00000000E+00  0.00000000E+00
  0.00000000E+00  0.00000000E+00  0.00000000E+00
  0.00000000E+00  0.00000000E+00  0.00000000E+00
  0.00000000E+00  0.00000000E+00  0.00000000E+00
  0.00000000E+00  0.00000000E+00  0.00000000E+00
  0.00000000E+00  0.00000000E+00  0.00000000E+00
  0.00000000E+00  0.00000000E+00  0.00000000E+00
  0.00000000E+00  0.00000000E+00  0.00000000E+00
  0.00000000E+00  0.00000000E+00  0.00000000E+00
  0.00000000E+00  0.00000000E+00  0.00000000E+00
  0.00000000E+00  0.00000000E+00  0.00000000E+00
  0.00000000E+00  0.00000000E+00  0.00000000E+00
  0.00000000E+00  0.00000000E+00  0.00000000E+00
  0.00000000E+00  0.00000000E+00  0.00000000E+00
  0.00000000E+00  0.00000000E+00  0.00000000E+00
  0.00000000E+00  0.00000000E+00  0.00000000E+00
  0.00000000E+00  0.00000000E+00  0.00000000E+00
