Title                                   
   1.00000000000000     
     4.9440799999999996    0.0000000000000000    0.0000000000000000
     0.0000000000000000   17.1295089999999988    0.0000000000000000
     0.0000000000000000    0.0000000000000000   20.0000000000000000
    30     1     1
Selective dynamics
Direct
  0.0003715332581249  0.1047589295668266  0.2844252066020856   T   T   T
  0.2499261223044469  0.1466254588089819  0.2885019292640127   T   T   T
  0.2499289267498690  0.2293517962008949  0.2990057664472029   T   T   T
  0.0000607504150357  0.3509560019056876  0.3219173967018443   T   T   T
 -0.0017651017571569  0.2704149747403155  0.3044019930517216   T   T   T
 -0.0040706020015927  0.6050336487021848  0.3080021126387232   T   T   T
  0.2498927688396309  0.7284143125608664  0.2905656536896619   T   T   T
  0.0002527987097224  0.8540138645994449  0.2806905452475671   T   T   T
  0.2499100772919590  0.8959120150206393  0.2794571174174549   T   T   T
  0.2499173105749604  0.9794685285726329  0.2790706593600359   T   T   T
  0.0003807018572234  0.7705483359993207  0.2858802011364539   T   T   T
  0.4995163448739431  0.1047623846460092  0.2844295691795912   T   T   T
  0.7499452064027541  0.1463472342114553  0.2873918962561355   T   T   T
  0.7499277078008623  0.2288901364664641  0.2964769156917771   T   T   T
  0.4997332326745444  0.0213541794231441  0.2799697509806710   T   T   T
  0.4997514004701475  0.3509637585110467  0.3219241279434621   T   T   T
  0.7498410347631188  0.4768440437261276  0.3193951323371026   T   T   T
  0.5016272204386731  0.2704060720904267  0.3044105094121062   T   T   T
  0.5037614692095411  0.6050331307989784  0.3080297626457624   T   T   T
  0.7499023867452617  0.7295640345870431  0.2890607408538525   T   T   T
  0.4995566850757575  0.8540140535951781  0.2806892733589248   T   T   T
  0.7499310635289916  0.8957787822757342  0.2791499611266628   T   T   T
  0.7499194160595334  0.9794944164257742  0.2788436964735759   T   T   T
  0.4994082078706676  0.7705396837055193  0.2858829203216616   T   T   T
  0.7498621601052495  0.6468480376724454  0.2990658737185151   T   T   T
  0.2498825425340223  0.6455123795259370  0.3028234673411248   T   T   T
  0.0001359230835938  0.0213635404244828  0.2799661767992570   T   T   T
  0.5148132328883999  0.5233797599364084  0.3257216413727723   T   T   T
  0.9848773642931182  0.5233865749386689  0.3256781679300083   T   T   T
  0.2498920611786746  0.3874045115357849  0.3406111545921830   T   T   T
  0.7499043119942276  0.3933413655146045  0.3238036296665446   T   T   T
  0.2498287417667008  0.4878250533109643  0.3873220504414973   T   T   T
 
  0.00000000E+00  0.00000000E+00  0.00000000E+00
  0.00000000E+00  0.00000000E+00  0.00000000E+00
  0.00000000E+00  0.00000000E+00  0.00000000E+00
  0.00000000E+00  0.00000000E+00  0.00000000E+00
  0.00000000E+00  0.00000000E+00  0.00000000E+00
  0.00000000E+00  0.00000000E+00  0.00000000E+00
  0.00000000E+00  0.00000000E+00  0.00000000E+00
  0.00000000E+00  0.00000000E+00  0.00000000E+00
  0.00000000E+00  0.00000000E+00  0.00000000E+00
  0.00000000E+00  0.00000000E+00  0.00000000E+00
  0.00000000E+00  0.00000000E+00  0.00000000E+00
  0.00000000E+00  0.00000000E+00  0.00000000E+00
  0.00000000E+00  0.00000000E+00  0.00000000E+00
  0.00000000E+00  0.00000000E+00  0.00000000E+00
  0.00000000E+00  0.00000000E+00  0.00000000E+00
  0.00000000E+00  0.00000000E+00  0.00000000E+00
  0.00000000E+00  0.00000000E+00  0.00000000E+00
  0.00000000E+00  0.00000000E+00  0.00000000E+00
  0.00000000E+00  0.00000000E+00  0.00000000E+00
  0.00000000E+00  0.00000000E+00  0.00000000E+00
  0.00000000E+00  0.00000000E+00  0.00000000E+00
  0.00000000E+00  0.00000000E+00  0.00000000E+00
  0.00000000E+00  0.00000000E+00  0.00000000E+00
  0.00000000E+00  0.00000000E+00  0.00000000E+00
  0.00000000E+00  0.00000000E+00  0.00000000E+00
  0.00000000E+00  0.00000000E+00  0.00000000E+00
  0.00000000E+00  0.00000000E+00  0.00000000E+00
  0.00000000E+00  0.00000000E+00  0.00000000E+00
  0.00000000E+00  0.00000000E+00  0.00000000E+00
  0.00000000E+00  0.00000000E+00  0.00000000E+00
  0.00000000E+00  0.00000000E+00  0.00000000E+00
  0.00000000E+00  0.00000000E+00  0.00000000E+00
