Title                                   
   1.00000000000000     
     4.9440799999999996    0.0000000000000000    0.0000000000000000
     0.0000000000000000    8.5647549999999999    0.0000000000000000
     0.0000000000000000    0.0000000000000000   20.0000000000000000
    10     4     1
Selective dynamics
Direct
 -0.0074720223763615  0.2958824188122902  0.0919640933148718   T   T   T
  0.2495790060921261  0.0391958381964269  0.0959104859147077   T   T   T
 -0.0030439874055222  0.9566217468785233  0.0983741011389998   T   T   T
  0.7460062622596878  0.2079365058838744  0.0961983021125934   T   T   T
  0.4982221517248629  0.2941548789614618  0.1022618649283427   T   T   T
  0.7493973254109217  0.0414324409658414  0.0955925408213591   T   T   T
  0.7544831429290471  0.7192102953781143  0.0940792856222201   T   T   T
  0.7534961964252281  0.5347014513946708  0.0956803377163648   T   T   T
  0.5050328078431662  0.9545582250465073  0.0928411080694122   T   T   T
  0.5154577978933784  0.4570458055639103  0.1155091846643071   T   T   T
 -0.0117170764583456  0.4513439239206742  0.0822180737204520   T   T   T
 -0.0124785597126607  0.7956347285211276  0.1056245622201964   T   T   T
  0.5151381766329972  0.7938011801005356  0.0847508962135172   T   T   T
  0.2478957270308996  0.2101967669272304  0.0970072797973366   T   T   T
  0.2500030517105743  0.6199647934488142  0.1599678837453225   T   T   T
 
  0.00000000E+00  0.00000000E+00  0.00000000E+00
  0.00000000E+00  0.00000000E+00  0.00000000E+00
  0.00000000E+00  0.00000000E+00  0.00000000E+00
  0.00000000E+00  0.00000000E+00  0.00000000E+00
  0.00000000E+00  0.00000000E+00  0.00000000E+00
  0.00000000E+00  0.00000000E+00  0.00000000E+00
  0.00000000E+00  0.00000000E+00  0.00000000E+00
  0.00000000E+00  0.00000000E+00  0.00000000E+00
  0.00000000E+00  0.00000000E+00  0.00000000E+00
  0.00000000E+00  0.00000000E+00  0.00000000E+00
  0.00000000E+00  0.00000000E+00  0.00000000E+00
  0.00000000E+00  0.00000000E+00  0.00000000E+00
  0.00000000E+00  0.00000000E+00  0.00000000E+00
  0.00000000E+00  0.00000000E+00  0.00000000E+00
  0.00000000E+00  0.00000000E+00  0.00000000E+00
