Title                                   
   1.00000000000000     
     9.8694509999999998    0.0000000000000000    0.0000000000000000
     0.0000000000000000    8.5490480000000009    0.0000000000000000
     0.0000000000000000    0.0000000000000000   20.0000000000000000
    26     5     1
Selective dynamics
Direct
  0.0558926612226304  0.0908557863535710  0.0846771888272053   T   T   T
  0.9310472199525541  0.1748390026430410  0.0848376722081777   T   T   T
  0.0574698340111782  0.9229167182134946  0.0851156932231653   T   T   T
  0.9296070221982243  0.3417958101765056  0.0867077819369438   T   T   T
  0.0566563330026459  0.5914200519126204  0.0870952149331454   T   T   T
  0.0556916400147450  0.4240467894068043  0.0878196328291601   T   T   T
  0.9330842188685691  0.8398804521419158  0.0863930381049614   T   T   T
  0.3059848388006459  0.0882309850141486  0.0892271037378588   T   T   T
  0.1818692710793249  0.1731172113967179  0.0872936201919576   T   T   T
  0.1818917294647432  0.3401463182522815  0.0905026151633868   T   T   T
  0.3031508949847520  0.5898376580451773  0.1052373340039273   T   T   T
  0.1811961560781654  0.6741137424383531  0.0911138892083285   T   T   T
  0.3080507439043310  0.4213918241656555  0.0999470416697063   T   T   T
  0.1827526928224299  0.8416561982266769  0.0885914790984958   T   T   T
  0.5565618655822535  0.0856832751909296  0.0942130257067703   T   T   T
  0.5555998072157803  0.9200064947108599  0.1018516762860880   T   T   T
  0.4323318780089134  0.3328312196900075  0.1001073469108710   T   T   T
  0.4264056546872175  0.8407365074743761  0.1084685626978472   T   T   T
  0.8063423327553353  0.0888889913073074  0.0860041551138414   T   T   T
  0.6800838689454207  0.1699731549210924  0.0892747963806322   T   T   T
  0.8080184204122016  0.9229750633593262  0.0883740622030248   T   T   T
  0.6784892484607723  0.3371278688569566  0.0942278571490264   T   T   T
  0.8088219373291007  0.5956088566802640  0.0945909802715522   T   T   T
  0.8026042559831128  0.4262907891344267  0.0915001967224674   T   T   T
  0.6844162332429349  0.8397657361967857  0.0989928975572944   T   T   T
  0.4140578430450346  0.6843137250891262  0.1261279413573806   T   T   T
  0.5537152934618975  0.4042021713189123  0.1063394468309618   T   T   T
  0.6957677755534211  0.6803099306389864  0.1078015889667841   T   T   T
  0.3057206295000927  0.9252643490535039  0.0909926032992306   T   T   T
  0.4297357749172467  0.1664960446418604  0.0933190950351790   T   T   T
  0.9330462248755231  0.6729858504814878  0.0871253542668498   T   T   T
  0.5635746996188099  0.5825374228668290  0.1718041081077949   T   T   T
 
  0.00000000E+00  0.00000000E+00  0.00000000E+00
  0.00000000E+00  0.00000000E+00  0.00000000E+00
  0.00000000E+00  0.00000000E+00  0.00000000E+00
  0.00000000E+00  0.00000000E+00  0.00000000E+00
  0.00000000E+00  0.00000000E+00  0.00000000E+00
  0.00000000E+00  0.00000000E+00  0.00000000E+00
  0.00000000E+00  0.00000000E+00  0.00000000E+00
  0.00000000E+00  0.00000000E+00  0.00000000E+00
  0.00000000E+00  0.00000000E+00  0.00000000E+00
  0.00000000E+00  0.00000000E+00  0.00000000E+00
  0.00000000E+00  0.00000000E+00  0.00000000E+00
  0.00000000E+00  0.00000000E+00  0.00000000E+00
  0.00000000E+00  0.00000000E+00  0.00000000E+00
  0.00000000E+00  0.00000000E+00  0.00000000E+00
  0.00000000E+00  0.00000000E+00  0.00000000E+00
  0.00000000E+00  0.00000000E+00  0.00000000E+00
  0.00000000E+00  0.00000000E+00  0.00000000E+00
  0.00000000E+00  0.00000000E+00  0.00000000E+00
  0.00000000E+00  0.00000000E+00  0.00000000E+00
  0.00000000E+00  0.00000000E+00  0.00000000E+00
  0.00000000E+00  0.00000000E+00  0.00000000E+00
  0.00000000E+00  0.00000000E+00  0.00000000E+00
  0.00000000E+00  0.00000000E+00  0.00000000E+00
  0.00000000E+00  0.00000000E+00  0.00000000E+00
  0.00000000E+00  0.00000000E+00  0.00000000E+00
  0.00000000E+00  0.00000000E+00  0.00000000E+00
  0.00000000E+00  0.00000000E+00  0.00000000E+00
  0.00000000E+00  0.00000000E+00  0.00000000E+00
  0.00000000E+00  0.00000000E+00  0.00000000E+00
  0.00000000E+00  0.00000000E+00  0.00000000E+00
  0.00000000E+00  0.00000000E+00  0.00000000E+00
  0.00000000E+00  0.00000000E+00  0.00000000E+00
