Title                                   
   1.00000000000000     
     9.8694509999999998    0.0000000000000000    0.0000000000000000
     0.0000000000000000    8.5490480000000009    0.0000000000000000
     0.0000000000000000    0.0000000000000000   20.0000000000000000
    29     1     1
Selective dynamics
Direct
  0.0556409823504073  0.0893972435815201  0.0882917174732551   T   T   T
  0.9310491611213404  0.1719466179568877  0.0865242923195529   T   T   T
  0.0571133974699897  0.9236763990278024  0.0882892714451087   T   T   T
  0.9328812905781283  0.3389648493681417  0.0879433985991014   T   T   T
  0.0563916342663007  0.5904097724459941  0.0906246093013565   T   T   T
  0.9330845632714444  0.6738408592423385  0.0881346875019362   T   T   T
  0.0565128367951755  0.4228667891275704  0.0906041158755936   T   T   T
  0.9315192362735720  0.8400968798907611  0.0868018098760587   T   T   T
  0.3061344514291684  0.0886413292869694  0.0957436003454199   T   T   T
  0.1809002439958449  0.1710398667277150  0.0927654148349809   T   T   T
  0.1800257609686637  0.3382983457950717  0.0948345881849189   T   T   T
  0.3017205560018866  0.5903170860930894  0.1027646423925875   T   T   T
  0.1805978024960845  0.6746563532828701  0.0944903440860150   T   T   T
  0.3019621341119121  0.4217337408827969  0.1030284646263717   T   T   T
  0.1817753880976508  0.8412255164018835  0.0922853315732728   T   T   T
  0.5553429780575792  0.0894451150124742  0.0956356781050063   T   T   T
  0.4303347225815707  0.1747957858424113  0.1007404799891583   T   T   T
  0.5541734714004460  0.9227783185891194  0.0956282548265913   T   T   T
  0.4272178240347292  0.3415900397133678  0.1090814225899470   T   T   T
  0.4263929176516900  0.6713994959456240  0.1086749246627398   T   T   T
  0.4294806640851537  0.8364308961974841  0.1003897674165190   T   T   T
  0.8050235906307704  0.0893832717885438  0.0859761793760910   T   T   T
  0.6798181761648351  0.1749742600147186  0.0895571891541395   T   T   T
  0.8052393686371229  0.9224723089344857  0.0862097818671218   T   T   T
  0.6831621159912002  0.3413770665656639  0.0909427598781000   T   T   T
  0.8090910751958632  0.5906604863467758  0.0882133466160383   T   T   T
  0.6837128767388623  0.6708797034677880  0.0909030064930907   T   T   T
  0.8090413443014729  0.4216995216833282  0.0881133463241694   T   T   T
  0.6793893844887499  0.8365658262217818  0.0898908562100682   T   T   T
  0.3059757310289349  0.9229717388941028  0.0950380422333745   T   T   T
  0.5724293197834536  0.5063395156709383  0.1428436758223421   T   T   T
 
  0.00000000E+00  0.00000000E+00  0.00000000E+00
  0.00000000E+00  0.00000000E+00  0.00000000E+00
  0.00000000E+00  0.00000000E+00  0.00000000E+00
  0.00000000E+00  0.00000000E+00  0.00000000E+00
  0.00000000E+00  0.00000000E+00  0.00000000E+00
  0.00000000E+00  0.00000000E+00  0.00000000E+00
  0.00000000E+00  0.00000000E+00  0.00000000E+00
  0.00000000E+00  0.00000000E+00  0.00000000E+00
  0.00000000E+00  0.00000000E+00  0.00000000E+00
  0.00000000E+00  0.00000000E+00  0.00000000E+00
  0.00000000E+00  0.00000000E+00  0.00000000E+00
  0.00000000E+00  0.00000000E+00  0.00000000E+00
  0.00000000E+00  0.00000000E+00  0.00000000E+00
  0.00000000E+00  0.00000000E+00  0.00000000E+00
  0.00000000E+00  0.00000000E+00  0.00000000E+00
  0.00000000E+00  0.00000000E+00  0.00000000E+00
  0.00000000E+00  0.00000000E+00  0.00000000E+00
  0.00000000E+00  0.00000000E+00  0.00000000E+00
  0.00000000E+00  0.00000000E+00  0.00000000E+00
  0.00000000E+00  0.00000000E+00  0.00000000E+00
  0.00000000E+00  0.00000000E+00  0.00000000E+00
  0.00000000E+00  0.00000000E+00  0.00000000E+00
  0.00000000E+00  0.00000000E+00  0.00000000E+00
  0.00000000E+00  0.00000000E+00  0.00000000E+00
  0.00000000E+00  0.00000000E+00  0.00000000E+00
  0.00000000E+00  0.00000000E+00  0.00000000E+00
  0.00000000E+00  0.00000000E+00  0.00000000E+00
  0.00000000E+00  0.00000000E+00  0.00000000E+00
  0.00000000E+00  0.00000000E+00  0.00000000E+00
  0.00000000E+00  0.00000000E+00  0.00000000E+00
  0.00000000E+00  0.00000000E+00  0.00000000E+00
