Title                                   
   1.00000000000000     
     9.8694509999999998    0.0000000000000000    0.0000000000000000
     0.0000000000000000    8.5490480000000009    0.0000000000000000
     0.0000000000000000    0.0000000000000000   20.0000000000000000
    26     4     1
Selective dynamics
Direct
  0.0562232507107207  0.0899297377634489  0.0844956844091576   T   T   T
  0.9315399067628632  0.1722139372072923  0.0861052319726644   T   T   T
  0.0562152396715700  0.9224121078364551  0.0845216650186819   T   T   T
  0.9326364291074316  0.3391244306244437  0.0847482712801165   T   T   T
  0.0562524355385944  0.5890830677135197  0.0809748273557521   T   T   T
  0.9326398290584941  0.6732002971929749  0.0847818778325324   T   T   T
  0.0562490109772853  0.4232386306305030  0.0809576884746464   T   T   T
  0.9315331628430877  0.8401088434586800  0.0861450970345450   T   T   T
  0.3073150137512460  0.0903785024656124  0.0920164864982668   T   T   T
  0.1808892567759909  0.1722172344235513  0.0864038758202612   T   T   T
  0.3073063141874807  0.9219272707460537  0.0920257417912685   T   T   T
  0.1798289231071324  0.3391355952850645  0.0850876932819912   T   T   T
  0.3010599681089333  0.5898724795740844  0.0942956642580240   T   T   T
  0.1798128027741902  0.6732028829661365  0.0851162612615983   T   T   T
  0.3010578094742618  0.4224378393528158  0.0942788307005512   T   T   T
  0.1808844937642188  0.8401217869972269  0.0864414301347378   T   T   T
  0.5562347593342901  0.0930699399158082  0.1028579843955992   T   T   T
  0.4290443866374465  0.1764865948115502  0.1010492975630135   T   T   T
  0.5562057192591139  0.9192144810629708  0.1028607751320792   T   T   T
  0.4290434954713478  0.8358363151350634  0.1010534758565525   T   T   T
  0.8051045688308713  0.0903661563874756  0.0916328054505196   T   T   T
  0.6833997241410326  0.1764597788407313  0.1007408239624357   T   T   T
  0.8050865896341438  0.9219174607341900  0.0916475554745013   T   T   T
  0.8113723394998003  0.5898788152383740  0.0937775708821382   T   T   T
  0.8113761963928537  0.4224467561485782  0.0937616608648990   T   T   T
  0.6833692236589670  0.8358224853803455  0.1007555345844442   T   T   T
  0.4210980364838790  0.3407805768036838  0.1090410642629706   T   T   T
  0.4210984791313782  0.6715500115720616  0.1090508421712195   T   T   T
  0.6914212015727381  0.3407788545318717  0.1086422264084129   T   T   T
  0.6914148601472017  0.6715361605852783  0.1086518776948861   T   T   T
  0.5564225731914418  0.5061259686141527  0.1370451781715745   T   T   T
 
  0.00000000E+00  0.00000000E+00  0.00000000E+00
  0.00000000E+00  0.00000000E+00  0.00000000E+00
  0.00000000E+00  0.00000000E+00  0.00000000E+00
  0.00000000E+00  0.00000000E+00  0.00000000E+00
  0.00000000E+00  0.00000000E+00  0.00000000E+00
  0.00000000E+00  0.00000000E+00  0.00000000E+00
  0.00000000E+00  0.00000000E+00  0.00000000E+00
  0.00000000E+00  0.00000000E+00  0.00000000E+00
  0.00000000E+00  0.00000000E+00  0.00000000E+00
  0.00000000E+00  0.00000000E+00  0.00000000E+00
  0.00000000E+00  0.00000000E+00  0.00000000E+00
  0.00000000E+00  0.00000000E+00  0.00000000E+00
  0.00000000E+00  0.00000000E+00  0.00000000E+00
  0.00000000E+00  0.00000000E+00  0.00000000E+00
  0.00000000E+00  0.00000000E+00  0.00000000E+00
  0.00000000E+00  0.00000000E+00  0.00000000E+00
  0.00000000E+00  0.00000000E+00  0.00000000E+00
  0.00000000E+00  0.00000000E+00  0.00000000E+00
  0.00000000E+00  0.00000000E+00  0.00000000E+00
  0.00000000E+00  0.00000000E+00  0.00000000E+00
  0.00000000E+00  0.00000000E+00  0.00000000E+00
  0.00000000E+00  0.00000000E+00  0.00000000E+00
  0.00000000E+00  0.00000000E+00  0.00000000E+00
  0.00000000E+00  0.00000000E+00  0.00000000E+00
  0.00000000E+00  0.00000000E+00  0.00000000E+00
  0.00000000E+00  0.00000000E+00  0.00000000E+00
  0.00000000E+00  0.00000000E+00  0.00000000E+00
  0.00000000E+00  0.00000000E+00  0.00000000E+00
  0.00000000E+00  0.00000000E+00  0.00000000E+00
  0.00000000E+00  0.00000000E+00  0.00000000E+00
  0.00000000E+00  0.00000000E+00  0.00000000E+00
