Title                                   
   1.00000000000000     
     9.8694509999999998    0.0000000000000000    0.0000000000000000
     0.0000000000000000    8.5490480000000009    0.0000000000000000
     0.0000000000000000    0.0000000000000000   20.0000000000000000
    24     6     1
Selective dynamics
Direct
  0.0554186421278411  0.0902451556407157  0.0909835712482265   T   T   T
  0.9301547287551805  0.1733539709524381  0.0903212911375106   T   T   T
  0.0576595948895412  0.9216257128018197  0.0912760865003038   T   T   T
  0.9325528038151192  0.3406251053352008  0.0900704222483946   T   T   T
  0.0564972684552281  0.5904758727395889  0.0904147924310558   T   T   T
  0.0563147942701952  0.4239323922029439  0.0901076034031397   T   T   T
  0.9326154109707915  0.8398568431248644  0.0920316003755443   T   T   T
  0.3075660754786281  0.0882932268097672  0.0954449654417053   T   T   T
  0.1804783612544088  0.1714006436660133  0.0930143967100118   T   T   T
  0.1805878770565642  0.3389952379725998  0.0927192525302520   T   T   T
  0.3034976711277411  0.5883856436738035  0.0968703879635646   T   T   T
  0.1802126754632344  0.6729180714908777  0.0920811330965295   T   T   T
  0.3043510200822719  0.4203518192712873  0.0987975424992864   T   T   T
  0.1820617715001098  0.8400596476381958  0.0922272097054675   T   T   T
  0.4287508164879131  0.1739648546650121  0.1014381221866817   T   T   T
  0.5548014357453103  0.9187854647090277  0.1003732666789356   T   T   T
  0.4288688683888367  0.8348577544740370  0.0993718098672345   T   T   T
  0.8041938970241665  0.0894589563827489  0.0923821683166633   T   T   T
  0.6797853858469259  0.1769345787303456  0.0959653295818617   T   T   T
  0.8067021067905480  0.9218991614591766  0.0937458022573832   T   T   T
  0.6838017308203260  0.3425124732880933  0.0971994530471311   T   T   T
  0.8112187297006899  0.5941822821134919  0.0958732200777433   T   T   T
  0.8091132370814511  0.4248253343997842  0.0930736522712500   T   T   T
  0.6826381571199964  0.8368223797896187  0.0995556787226882   T   T   T
  0.9332159618589175  0.6734976885694740  0.0914069659773711   T   T   T
  0.5548898244195574  0.0921923122410021  0.1003341086625376   T   T   T
  0.4243434086943741  0.3360329618851515  0.1098247964194326   T   T   T
  0.6924996440666999  0.6743790687688421  0.1053967865932621   T   T   T
  0.4233431857941335  0.6740251929642413  0.1036255707760316   T   T   T
  0.3064952613616160  0.9210436772145536  0.0941222386577839   T   T   T
  0.5585046535516924  0.5049415150252965  0.1309157746150524   T   T   T
 
  0.00000000E+00  0.00000000E+00  0.00000000E+00
  0.00000000E+00  0.00000000E+00  0.00000000E+00
  0.00000000E+00  0.00000000E+00  0.00000000E+00
  0.00000000E+00  0.00000000E+00  0.00000000E+00
  0.00000000E+00  0.00000000E+00  0.00000000E+00
  0.00000000E+00  0.00000000E+00  0.00000000E+00
  0.00000000E+00  0.00000000E+00  0.00000000E+00
  0.00000000E+00  0.00000000E+00  0.00000000E+00
  0.00000000E+00  0.00000000E+00  0.00000000E+00
  0.00000000E+00  0.00000000E+00  0.00000000E+00
  0.00000000E+00  0.00000000E+00  0.00000000E+00
  0.00000000E+00  0.00000000E+00  0.00000000E+00
  0.00000000E+00  0.00000000E+00  0.00000000E+00
  0.00000000E+00  0.00000000E+00  0.00000000E+00
  0.00000000E+00  0.00000000E+00  0.00000000E+00
  0.00000000E+00  0.00000000E+00  0.00000000E+00
  0.00000000E+00  0.00000000E+00  0.00000000E+00
  0.00000000E+00  0.00000000E+00  0.00000000E+00
  0.00000000E+00  0.00000000E+00  0.00000000E+00
  0.00000000E+00  0.00000000E+00  0.00000000E+00
  0.00000000E+00  0.00000000E+00  0.00000000E+00
  0.00000000E+00  0.00000000E+00  0.00000000E+00
  0.00000000E+00  0.00000000E+00  0.00000000E+00
  0.00000000E+00  0.00000000E+00  0.00000000E+00
  0.00000000E+00  0.00000000E+00  0.00000000E+00
  0.00000000E+00  0.00000000E+00  0.00000000E+00
  0.00000000E+00  0.00000000E+00  0.00000000E+00
  0.00000000E+00  0.00000000E+00  0.00000000E+00
  0.00000000E+00  0.00000000E+00  0.00000000E+00
  0.00000000E+00  0.00000000E+00  0.00000000E+00
  0.00000000E+00  0.00000000E+00  0.00000000E+00
