Title                                   
   1.00000000000000     
     9.8694509999999998    0.0000000000000000    0.0000000000000000
     0.0000000000000000    8.5490480000000009    0.0000000000000000
     0.0000000000000000    0.0000000000000000   20.0000000000000000
    27     3     1
Selective dynamics
Direct
  0.0547270429866802  0.0887127028903404  0.0911166705676302   T   T   T
  0.9298535519714638  0.1725982588007252  0.0877480683649080   T   T   T
  0.0561502158517548  0.9223318040343473  0.0912616054960411   T   T   T
  0.9318607653592139  0.3388836255204558  0.0897007067786991   T   T   T
  0.0549866171611752  0.5907919334138925  0.0940942528710062   T   T   T
  0.0549775561538407  0.4239119497064374  0.0939872653156028   T   T   T
  0.9302689305029908  0.8381612847320714  0.0882545550031663   T   T   T
  0.3074381721456554  0.0899289930483098  0.0972649533105709   T   T   T
  0.1810026386454315  0.1712165229408015  0.0954288598227167   T   T   T
  0.1798606280475613  0.3389621711284410  0.0971817105561256   T   T   T
  0.3020496263539887  0.5893606685842789  0.1042333967865167   T   T   T
  0.1795387128109847  0.6745430786726234  0.0971875759794199   T   T   T
  0.3025992743425862  0.4218294451229598  0.1040604035910764   T   T   T
  0.1818507473252883  0.8412878491639225  0.0953250766512516   T   T   T
  0.4319243797418606  0.1775895905758478  0.1003968428816192   T   T   T
  0.5535963469524752  0.9234380123179337  0.0936938007971586   T   T   T
  0.4301760136357662  0.3450011630321188  0.1098787107976450   T   T   T
  0.4285105696326797  0.6671228911512831  0.1109520879493213   T   T   T
  0.4308292441525520  0.8346386036672758  0.1016055936133385   T   T   T
  0.8036818266228144  0.0889034536530560  0.0843840460963065   T   T   T
  0.6778409849713780  0.1734747396491725  0.0849057136145036   T   T   T
  0.8049372874234045  0.9206908614911011  0.0847918180037987   T   T   T
  0.6810602419066629  0.3399438861318366  0.0850863038034180   T   T   T
  0.8075612158973401  0.5914519473536581  0.0860970701016554   T   T   T
  0.6828963496683427  0.6728809413716288  0.0873244189741121   T   T   T
  0.8078826831929254  0.4220159584815527  0.0853965415861278   T   T   T
  0.6768884381129768  0.8399177906519401  0.0858706819206203   T   T   T
  0.9322320529120973  0.6729286165502858  0.0899945061877304   T   T   T
  0.5549294434691765  0.0911767312296607  0.0930242883853954   T   T   T
  0.3055446001515847  0.9215155350106646  0.0973017848144338   T   T   T
  0.5854788418973491  0.5056639899213947  0.1334156893781109   T   T   T
 
  0.00000000E+00  0.00000000E+00  0.00000000E+00
  0.00000000E+00  0.00000000E+00  0.00000000E+00
  0.00000000E+00  0.00000000E+00  0.00000000E+00
  0.00000000E+00  0.00000000E+00  0.00000000E+00
  0.00000000E+00  0.00000000E+00  0.00000000E+00
  0.00000000E+00  0.00000000E+00  0.00000000E+00
  0.00000000E+00  0.00000000E+00  0.00000000E+00
  0.00000000E+00  0.00000000E+00  0.00000000E+00
  0.00000000E+00  0.00000000E+00  0.00000000E+00
  0.00000000E+00  0.00000000E+00  0.00000000E+00
  0.00000000E+00  0.00000000E+00  0.00000000E+00
  0.00000000E+00  0.00000000E+00  0.00000000E+00
  0.00000000E+00  0.00000000E+00  0.00000000E+00
  0.00000000E+00  0.00000000E+00  0.00000000E+00
  0.00000000E+00  0.00000000E+00  0.00000000E+00
  0.00000000E+00  0.00000000E+00  0.00000000E+00
  0.00000000E+00  0.00000000E+00  0.00000000E+00
  0.00000000E+00  0.00000000E+00  0.00000000E+00
  0.00000000E+00  0.00000000E+00  0.00000000E+00
  0.00000000E+00  0.00000000E+00  0.00000000E+00
  0.00000000E+00  0.00000000E+00  0.00000000E+00
  0.00000000E+00  0.00000000E+00  0.00000000E+00
  0.00000000E+00  0.00000000E+00  0.00000000E+00
  0.00000000E+00  0.00000000E+00  0.00000000E+00
  0.00000000E+00  0.00000000E+00  0.00000000E+00
  0.00000000E+00  0.00000000E+00  0.00000000E+00
  0.00000000E+00  0.00000000E+00  0.00000000E+00
  0.00000000E+00  0.00000000E+00  0.00000000E+00
  0.00000000E+00  0.00000000E+00  0.00000000E+00
  0.00000000E+00  0.00000000E+00  0.00000000E+00
  0.00000000E+00  0.00000000E+00  0.00000000E+00
