Title                                   
   1.00000000000000     
     8.5490480000000009    0.0000000000000000    0.0000000000000000
     0.0000000000000000    8.5490480000000009    0.0000000000000000
     0.0000000000000000    0.0000000000000000   20.0000000000000000
    22     2     1
Selective dynamics
Direct
  0.9095642950438684  0.2074517915981859  0.0947630611062545   T   T   T
  0.9115776440176959  0.7993384103424385  0.0947507860354234   T   T   T
  0.1981593656734035  0.0836328782855787  0.0949415835796868   T   T   T
  0.0752046998878613  0.2034069369720014  0.0950311816663752   T   T   T
  0.1565353297322915  0.6487537574303083  0.0964024912873411   T   T   T
  0.0754826429388031  0.5014439834766863  0.0960943696513028   T   T   T
  0.1556361155132089  0.3550100162684747  0.0967217941500255   T   T   T
  0.0780326526547197  0.7983692818846567  0.0948395563070474   T   T   T
  0.4937602779414352  0.0860846587733774  0.0959924563598308   T   T   T
  0.3454645358623104  0.1647889279759817  0.0965507501908631   T   T   T
  0.4930342556589746  0.9176247983225646  0.0960495798370706   T   T   T
  0.3457144174305177  0.8358099128345452  0.0967452976974703   T   T   T
  0.7871109086442474  0.0865021431253679  0.0950941378048106   T   T   T
  0.6389586640170236  0.1677907056459193  0.0965104165724625   T   T   T
  0.7877617071249590  0.9189939145407683  0.0952031169242343   T   T   T
  0.8305348707830122  0.6475433933449385  0.0960288358564511   T   T   T
  0.8291691492553027  0.3583155634463110  0.0958356591981200   T   T   T
  0.6393939594045295  0.8359035297675806  0.0967573376740303   T   T   T
  0.3231167552786645  0.3336339122529421  0.1015519951796995   T   T   T
  0.3232604065445100  0.6704540669558368  0.1002725010248392   T   T   T
  0.6625754686999284  0.3380807698634340  0.1009366379586601   T   T   T
  0.6638630088600623  0.6665341487559614  0.1011249881395086   T   T   T
  0.9099734383565957  0.5026048673524369  0.0955419518522202   T   T   T
  0.1982494087905384  0.9167178244565164  0.0949154759295405   T   T   T
  0.4932780218855218  0.4999998063271938  0.1250490380167114   T   T   T
 
  0.00000000E+00  0.00000000E+00  0.00000000E+00
  0.00000000E+00  0.00000000E+00  0.00000000E+00
  0.00000000E+00  0.00000000E+00  0.00000000E+00
  0.00000000E+00  0.00000000E+00  0.00000000E+00
  0.00000000E+00  0.00000000E+00  0.00000000E+00
  0.00000000E+00  0.00000000E+00  0.00000000E+00
  0.00000000E+00  0.00000000E+00  0.00000000E+00
  0.00000000E+00  0.00000000E+00  0.00000000E+00
  0.00000000E+00  0.00000000E+00  0.00000000E+00
  0.00000000E+00  0.00000000E+00  0.00000000E+00
  0.00000000E+00  0.00000000E+00  0.00000000E+00
  0.00000000E+00  0.00000000E+00  0.00000000E+00
  0.00000000E+00  0.00000000E+00  0.00000000E+00
  0.00000000E+00  0.00000000E+00  0.00000000E+00
  0.00000000E+00  0.00000000E+00  0.00000000E+00
  0.00000000E+00  0.00000000E+00  0.00000000E+00
  0.00000000E+00  0.00000000E+00  0.00000000E+00
  0.00000000E+00  0.00000000E+00  0.00000000E+00
  0.00000000E+00  0.00000000E+00  0.00000000E+00
  0.00000000E+00  0.00000000E+00  0.00000000E+00
  0.00000000E+00  0.00000000E+00  0.00000000E+00
  0.00000000E+00  0.00000000E+00  0.00000000E+00
  0.00000000E+00  0.00000000E+00  0.00000000E+00
  0.00000000E+00  0.00000000E+00  0.00000000E+00
  0.00000000E+00  0.00000000E+00  0.00000000E+00
