Title                                   
   1.00000000000000     
     4.9440799999999996    0.0000000000000000    0.0000000000000000
     0.0000000000000000    8.5647549999999999    0.0000000000000000
     0.0000000000000000    0.0000000000000000   20.0000000000000000
    12     2     1
Selective dynamics
Direct
  0.2494073134438574  0.2078566685790598  0.1004012504899321   T   T   T
 -0.0046726231910429  0.2947798822842007  0.1004657313728765   T   T   T
  0.2506026363478857  0.0417203097681382  0.1004111177257055   T   T   T
 -0.0011842481012351  0.9578544435540230  0.1004553764472326   T   T   T
  0.7485517926587613  0.2082939070116532  0.1004704785177263   T   T   T
  0.5011692121940894  0.2917040571061435  0.1004697871791448   T   T   T
  0.7514699520711849  0.0412843916574235  0.1004784580750321   T   T   T
  0.7511748441412699  0.7148429641297031  0.1006815623547614   T   T   T
  0.7488067061967517  0.5347063720032991  0.1006690774032115   T   T   T
  0.5046614379770459  0.9547799684468807  0.1005108558747679   T   T   T
  0.5084689560471011  0.4550961918492034  0.1006000294298751   T   T   T
 -0.0084513403167505  0.7944544827338230  0.1005437685618760   T   T   T
 -0.0148788452777273  0.4553683450140072  0.1005805939396830   T   T   T
  0.5148727061500346  0.7941837075994173  0.1006525136932247   T   T   T
  0.2500014996587744  0.6247553082630266  0.1005893989349541   T   T   T
 
  0.00000000E+00  0.00000000E+00  0.00000000E+00
  0.00000000E+00  0.00000000E+00  0.00000000E+00
  0.00000000E+00  0.00000000E+00  0.00000000E+00
  0.00000000E+00  0.00000000E+00  0.00000000E+00
  0.00000000E+00  0.00000000E+00  0.00000000E+00
  0.00000000E+00  0.00000000E+00  0.00000000E+00
  0.00000000E+00  0.00000000E+00  0.00000000E+00
  0.00000000E+00  0.00000000E+00  0.00000000E+00
  0.00000000E+00  0.00000000E+00  0.00000000E+00
  0.00000000E+00  0.00000000E+00  0.00000000E+00
  0.00000000E+00  0.00000000E+00  0.00000000E+00
  0.00000000E+00  0.00000000E+00  0.00000000E+00
  0.00000000E+00  0.00000000E+00  0.00000000E+00
  0.00000000E+00  0.00000000E+00  0.00000000E+00
  0.00000000E+00  0.00000000E+00  0.00000000E+00
