Title                                   
   1.00000000000000     
     9.8694509999999998    0.0000000000000000    0.0000000000000000
     0.0000000000000000    8.5490480000000009    0.0000000000000000
     0.0000000000000000    0.0000000000000000   20.0000000000000000
    28     3     1
Selective dynamics
Direct
  0.0562486334472964  0.0918859442758977  0.0831925446713460   T   T   T
  0.9308247778738535  0.1745786641611579  0.0852507436643650   T   T   T
  0.0562376909237218  0.9245075017657061  0.0828614905711661   T   T   T
  0.9295814734938578  0.3411664250993812  0.0886862993476917   T   T   T
  0.0562390263220067  0.5890877546463402  0.0851790296265139   T   T   T
  0.9325488304426962  0.6734810141539610  0.0871117413209002   T   T   T
  0.0562250892567893  0.4229766189568422  0.0871782883944584   T   T   T
  0.9323674429958910  0.8403292307469660  0.0853157904201606   T   T   T
  0.3057420661518105  0.0894573994964213  0.0862984782289310   T   T   T
  0.1816702109349935  0.1745713343527366  0.0852239409418804   T   T   T
  0.3049265036655232  0.9236540000834700  0.0877559790204803   T   T   T
  0.1828736604374252  0.3411600853100555  0.0886623067951825   T   T   T
  0.3034847507332571  0.5930262515634195  0.0979735321462388   T   T   T
  0.1799050183831889  0.6735017530679435  0.0870650698083537   T   T   T
  0.3094897671953728  0.4244758829810512  0.0966866012773609   T   T   T
  0.1801050112040974  0.8403376720698511  0.0852823638730800   T   T   T
  0.5562574371563046  0.0839770557881455  0.0946817351953103   T   T   T
  0.4313730387601832  0.1691644507651179  0.0921650790815709   T   T   T
  0.5562507356996068  0.9171865362899575  0.0993559187289622   T   T   T
  0.4328605496295206  0.3334819823278998  0.1002608770067823   T   T   T
  0.4263107795109927  0.8392263797620603  0.0992448344771601   T   T   T
  0.8067583375709321  0.0894407053548360  0.0863416371952886   T   T   T
  0.6811529724889275  0.1691651573915255  0.0921951915069489   T   T   T
  0.8075623791374150  0.9236224614443981  0.0878034405189541   T   T   T
  0.6796216723841105  0.3334908915650486  0.1002828559736629   T   T   T
  0.8089987890387063  0.5930064106157241  0.0980700093621519   T   T   T
  0.8029735188508365  0.4244794098743312  0.0967384782157154   T   T   T
  0.6861839793361600  0.8392079073868504  0.0993078899190476   T   T   T
  0.4161046873385749  0.6821573561976311  0.1136205194976988   T   T   T
  0.5562280116849810  0.4024590303595220  0.1159498195199961   T   T   T
  0.6964056827013865  0.6821486849096946  0.1137371377786206   T   T   T
  0.5561264752495882  0.5898340472360650  0.1761953759140542   T   T   T
 
  0.00000000E+00  0.00000000E+00  0.00000000E+00
  0.00000000E+00  0.00000000E+00  0.00000000E+00
  0.00000000E+00  0.00000000E+00  0.00000000E+00
  0.00000000E+00  0.00000000E+00  0.00000000E+00
  0.00000000E+00  0.00000000E+00  0.00000000E+00
  0.00000000E+00  0.00000000E+00  0.00000000E+00
  0.00000000E+00  0.00000000E+00  0.00000000E+00
  0.00000000E+00  0.00000000E+00  0.00000000E+00
  0.00000000E+00  0.00000000E+00  0.00000000E+00
  0.00000000E+00  0.00000000E+00  0.00000000E+00
  0.00000000E+00  0.00000000E+00  0.00000000E+00
  0.00000000E+00  0.00000000E+00  0.00000000E+00
  0.00000000E+00  0.00000000E+00  0.00000000E+00
  0.00000000E+00  0.00000000E+00  0.00000000E+00
  0.00000000E+00  0.00000000E+00  0.00000000E+00
  0.00000000E+00  0.00000000E+00  0.00000000E+00
  0.00000000E+00  0.00000000E+00  0.00000000E+00
  0.00000000E+00  0.00000000E+00  0.00000000E+00
  0.00000000E+00  0.00000000E+00  0.00000000E+00
  0.00000000E+00  0.00000000E+00  0.00000000E+00
  0.00000000E+00  0.00000000E+00  0.00000000E+00
  0.00000000E+00  0.00000000E+00  0.00000000E+00
  0.00000000E+00  0.00000000E+00  0.00000000E+00
  0.00000000E+00  0.00000000E+00  0.00000000E+00
  0.00000000E+00  0.00000000E+00  0.00000000E+00
  0.00000000E+00  0.00000000E+00  0.00000000E+00
  0.00000000E+00  0.00000000E+00  0.00000000E+00
  0.00000000E+00  0.00000000E+00  0.00000000E+00
  0.00000000E+00  0.00000000E+00  0.00000000E+00
  0.00000000E+00  0.00000000E+00  0.00000000E+00
  0.00000000E+00  0.00000000E+00  0.00000000E+00
  0.00000000E+00  0.00000000E+00  0.00000000E+00
