Title                                   
   1.00000000000000     
     4.9440799999999996    0.0000000000000000    0.0000000000000000
     0.0000000000000000   17.1295089999999988    0.0000000000000000
     0.0000000000000000    0.0000000000000000   20.0000000000000000
    30     1
Selective dynamics
Direct
  0.0000076960035014  0.1043493303229690  0.2968197401673362   T   T   T
  0.2503930236645682  0.1463119345330815  0.2970831479348456   T   T   T
  0.2502994238578332  0.2291797813787524  0.2984522172880081   T   T   T
  0.0010483396181223  0.2718176537283937  0.2993058053480875   T   T   T
  0.0009591399112236  0.6031067191355249  0.2998151526094144   T   T   T
  0.2503661271834975  0.7286160298885029  0.2976773510219051   T   T   T
  0.0001594340693121  0.8539322151248888  0.2971953707420222   T   T   T
  0.2504659135192814  0.8958241402068413  0.2971681899115226   T   T   T
  0.2504846077219262  0.9791176115851563  0.2969556998730744   T   T   T
 -0.0000339371771832  0.7705802902185148  0.2973257752949964   T   T   T
  0.5008246295402088  0.1043552219786811  0.2968308267523153   T   T   T
  0.7503990289387165  0.1461990100150397  0.2968865926078279   T   T   T
  0.7503230787988967  0.2297759526168055  0.2980866852386314   T   T   T
  0.5007107541048869  0.0210132495283889  0.2968600242246044   T   T   T
  0.7501824696862371  0.3948319272536913  0.3009041689823768   T   T   T
  0.7501473301014172  0.4800925487365099  0.3010986906319217   T   T   T
  0.4995151687296335  0.2718096955576804  0.2993463294394635   T   T   T
  0.4994999860202530  0.6031236047334645  0.2998380317000302   T   T   T
  0.7503821791718844  0.7287273173215670  0.2974898101515135   T   T   T
  0.5007004583929819  0.8539170644748785  0.2971994879183901   T   T   T
  0.7504135741125196  0.8957421545312759  0.2971281553282334   T   T   T
  0.7504268776447949  0.9791910341863429  0.2969190515696553   T   T   T
  0.5008328548038582  0.7705733110932547  0.2973341293368689   T   T   T
  0.7502646776268000  0.6451656747463653  0.2986274230142608   T   T   T
  0.2502461736031552  0.6457417232336070  0.2989716981331814   T   T   T
  0.0001888239654000  0.0209994107081511  0.2968586109125166   T   T   T
  0.5023789333322349  0.5207135595806081  0.3026411970981971   T   T   T
 -0.0020648448345712  0.5207052669027622  0.3025966078504433   T   T   T
  0.5024224855561293  0.3542042772219396  0.3023708035766000   T   T   T
 -0.0020690537536367  0.3542089240790017  0.3023179237163353   T   T   T
  0.2501316460861192  0.4374153653773552  0.3269553016253712   T   T   T
 
  0.00000000E+00  0.00000000E+00  0.00000000E+00
  0.00000000E+00  0.00000000E+00  0.00000000E+00
  0.00000000E+00  0.00000000E+00  0.00000000E+00
  0.00000000E+00  0.00000000E+00  0.00000000E+00
  0.00000000E+00  0.00000000E+00  0.00000000E+00
  0.00000000E+00  0.00000000E+00  0.00000000E+00
  0.00000000E+00  0.00000000E+00  0.00000000E+00
  0.00000000E+00  0.00000000E+00  0.00000000E+00
  0.00000000E+00  0.00000000E+00  0.00000000E+00
  0.00000000E+00  0.00000000E+00  0.00000000E+00
  0.00000000E+00  0.00000000E+00  0.00000000E+00
  0.00000000E+00  0.00000000E+00  0.00000000E+00
  0.00000000E+00  0.00000000E+00  0.00000000E+00
  0.00000000E+00  0.00000000E+00  0.00000000E+00
  0.00000000E+00  0.00000000E+00  0.00000000E+00
  0.00000000E+00  0.00000000E+00  0.00000000E+00
  0.00000000E+00  0.00000000E+00  0.00000000E+00
  0.00000000E+00  0.00000000E+00  0.00000000E+00
  0.00000000E+00  0.00000000E+00  0.00000000E+00
  0.00000000E+00  0.00000000E+00  0.00000000E+00
  0.00000000E+00  0.00000000E+00  0.00000000E+00
  0.00000000E+00  0.00000000E+00  0.00000000E+00
  0.00000000E+00  0.00000000E+00  0.00000000E+00
  0.00000000E+00  0.00000000E+00  0.00000000E+00
  0.00000000E+00  0.00000000E+00  0.00000000E+00
  0.00000000E+00  0.00000000E+00  0.00000000E+00
  0.00000000E+00  0.00000000E+00  0.00000000E+00
  0.00000000E+00  0.00000000E+00  0.00000000E+00
  0.00000000E+00  0.00000000E+00  0.00000000E+00
  0.00000000E+00  0.00000000E+00  0.00000000E+00
  0.00000000E+00  0.00000000E+00  0.00000000E+00
