Title                                   
   1.00000000000000     
     8.5490480000000009    0.0000000000000000    0.0000000000000000
     0.0000000000000000    8.5490480000000009    0.0000000000000000
     0.0000000000000000    0.0000000000000000   20.0000000000000000
    20     4     1
Selective dynamics
Direct
  0.9097352253749416  0.2050670609764486  0.0954617704699584   T   T   T
  0.9071767505942533  0.5018147128160815  0.0953129725570917   T   T   T
  0.9097507299492551  0.7985305507652394  0.0954741876939772   T   T   T
  0.1963096489823894  0.0850445824445373  0.0954906900622731   T   T   T
  0.0762994927578122  0.2050430577838756  0.0954733425227559   T   T   T
  0.1963256405523764  0.9184973620359610  0.0954966034580255   T   T   T
  0.1571514178072736  0.6509165737327590  0.0953475423333476   T   T   T
  0.0788952125826192  0.5017862684690952  0.0953297027178887   T   T   T
  0.1571367420364783  0.3526395704196131  0.0953361364586407   T   T   T
  0.0763174731422504  0.7985067609636517  0.0954822790953403   T   T   T
  0.4930008671771986  0.0876512730702975  0.0953538924790413   T   T   T
  0.3438959364979396  0.1659008599976274  0.0953543799174620   T   T   T
  0.4930102374177890  0.9159509638399742  0.0953609203406144   T   T   T
  0.3439211058278970  0.8376719612010571  0.0953596276364719   T   T   T
  0.7897272650377849  0.0850829048622205  0.0954759809232254   T   T   T
  0.6421127639313126  0.1659442087336955  0.0953269799341650   T   T   T
  0.7897431484913447  0.9185252267943652  0.0954811664392937   T   T   T
  0.8288952451552526  0.6509404737919796  0.0953228964527783   T   T   T
  0.8288913646931021  0.3526841013970470  0.0952998446178917   T   T   T
  0.6421289309798361  0.8376635473475680  0.0953361787524874   T   T   T
  0.3192953537657004  0.3280274236831873  0.0952029469020123   T   T   T
  0.3193176046039935  0.6755238347169664  0.0952121752173227   T   T   T
  0.6667379414542757  0.3280763410048955  0.0951720601870885   T   T   T
  0.6667408132736830  0.6755177084018427  0.0951889500163821   T   T   T
  0.4928950879132331  0.5017826707500276  0.0950517728144420   T   T   T
 
  0.00000000E+00  0.00000000E+00  0.00000000E+00
  0.00000000E+00  0.00000000E+00  0.00000000E+00
  0.00000000E+00  0.00000000E+00  0.00000000E+00
  0.00000000E+00  0.00000000E+00  0.00000000E+00
  0.00000000E+00  0.00000000E+00  0.00000000E+00
  0.00000000E+00  0.00000000E+00  0.00000000E+00
  0.00000000E+00  0.00000000E+00  0.00000000E+00
  0.00000000E+00  0.00000000E+00  0.00000000E+00
  0.00000000E+00  0.00000000E+00  0.00000000E+00
  0.00000000E+00  0.00000000E+00  0.00000000E+00
  0.00000000E+00  0.00000000E+00  0.00000000E+00
  0.00000000E+00  0.00000000E+00  0.00000000E+00
  0.00000000E+00  0.00000000E+00  0.00000000E+00
  0.00000000E+00  0.00000000E+00  0.00000000E+00
  0.00000000E+00  0.00000000E+00  0.00000000E+00
  0.00000000E+00  0.00000000E+00  0.00000000E+00
  0.00000000E+00  0.00000000E+00  0.00000000E+00
  0.00000000E+00  0.00000000E+00  0.00000000E+00
  0.00000000E+00  0.00000000E+00  0.00000000E+00
  0.00000000E+00  0.00000000E+00  0.00000000E+00
  0.00000000E+00  0.00000000E+00  0.00000000E+00
  0.00000000E+00  0.00000000E+00  0.00000000E+00
  0.00000000E+00  0.00000000E+00  0.00000000E+00
  0.00000000E+00  0.00000000E+00  0.00000000E+00
  0.00000000E+00  0.00000000E+00  0.00000000E+00
