Title                                   
   1.00000000000000     
     8.5490480000000009    0.0000000000000000    0.0000000000000000
     0.0000000000000000    8.5490480000000009    0.0000000000000000
     0.0000000000000000    0.0000000000000000   20.0000000000000000
    19     5     1
Selective dynamics
Direct
  0.9074557722160411  0.2057351082579938  0.0945081149695697   T   T   T
  0.9122125560133449  0.8021161887087234  0.0953179598583460   T   T   T
  0.1955607688826448  0.0818062667772605  0.0954591399597768   T   T   T
  0.0749633107078294  0.2003069379509012  0.0958860748185418   T   T   T
  0.1577186242691234  0.6496764595894993  0.0952225172470340   T   T   T
  0.0772404647684765  0.4999888039993231  0.0970964607898580   T   T   T
  0.1557863466476157  0.3487055127613650  0.0986756445549739   T   T   T
  0.0796860625576046  0.7994540352993769  0.0941837772863925   T   T   T
  0.3419579311356021  0.1626628466648438  0.0979436201105519   T   T   T
  0.4938187251046585  0.9189068168112887  0.0971730084630205   T   T   T
  0.3453786018088806  0.8367877972968071  0.0952774209312126   T   T   T
  0.7879485254251584  0.0873225145141463  0.0944615777800602   T   T   T
  0.6381110875738563  0.1693323342296875  0.0954545932902888   T   T   T
  0.7909331817882601  0.9205499508469540  0.0958539213472271   T   T   T
  0.8315244868925795  0.6533765515375204  0.0978895273137587   T   T   T
  0.8264439334499113  0.3561523531454613  0.0955220005915750   T   T   T
  0.6439542153210789  0.8389488741901100  0.0987349769163793   T   T   T
  0.3232979154096793  0.6742753640784324  0.0949751212809636   T   T   T
  0.6605672873275592  0.3347639342945508  0.0956784734308261   T   T   T
  0.4927920727366235  0.0863855649373766  0.0968109215349723   T   T   T
  0.9089387677800237  0.5028139862205927  0.0968425106254347   T   T   T
  0.3195206219301450  0.3228948437159458  0.1017468162953773   T   T   T
  0.6712433224430463  0.6748215322805189  0.1019417175118700   T   T   T
  0.1957229495867179  0.9154690190738001  0.0939797475974594   T   T   T
  0.4926344682235252  0.5015364028175333  0.1270693554945095   T   T   T
 
  0.00000000E+00  0.00000000E+00  0.00000000E+00
  0.00000000E+00  0.00000000E+00  0.00000000E+00
  0.00000000E+00  0.00000000E+00  0.00000000E+00
  0.00000000E+00  0.00000000E+00  0.00000000E+00
  0.00000000E+00  0.00000000E+00  0.00000000E+00
  0.00000000E+00  0.00000000E+00  0.00000000E+00
  0.00000000E+00  0.00000000E+00  0.00000000E+00
  0.00000000E+00  0.00000000E+00  0.00000000E+00
  0.00000000E+00  0.00000000E+00  0.00000000E+00
  0.00000000E+00  0.00000000E+00  0.00000000E+00
  0.00000000E+00  0.00000000E+00  0.00000000E+00
  0.00000000E+00  0.00000000E+00  0.00000000E+00
  0.00000000E+00  0.00000000E+00  0.00000000E+00
  0.00000000E+00  0.00000000E+00  0.00000000E+00
  0.00000000E+00  0.00000000E+00  0.00000000E+00
  0.00000000E+00  0.00000000E+00  0.00000000E+00
  0.00000000E+00  0.00000000E+00  0.00000000E+00
  0.00000000E+00  0.00000000E+00  0.00000000E+00
  0.00000000E+00  0.00000000E+00  0.00000000E+00
  0.00000000E+00  0.00000000E+00  0.00000000E+00
  0.00000000E+00  0.00000000E+00  0.00000000E+00
  0.00000000E+00  0.00000000E+00  0.00000000E+00
  0.00000000E+00  0.00000000E+00  0.00000000E+00
  0.00000000E+00  0.00000000E+00  0.00000000E+00
  0.00000000E+00  0.00000000E+00  0.00000000E+00
