Title                                   
   1.00000000000000     
     9.8694509999999998    0.0000000000000000    0.0000000000000000
     0.0000000000000000    8.5490480000000009    0.0000000000000000
     0.0000000000000000    0.0000000000000000   20.0000000000000000
    28     2     1
Selective dynamics
Direct
  0.0561830110229550  0.0894446438645785  0.0850080934623415   T   T   T
  0.9306988659864941  0.1723419482733434  0.0824665396927221   T   T   T
  0.0572804076188657  0.9237274686184180  0.0850001669228962   T   T   T
  0.9327523198292549  0.3396549356078490  0.0816414976681744   T   T   T
  0.0573951934954040  0.5904946294024724  0.0856858264444088   T   T   T
  0.9329584974274264  0.6729264729649678  0.0817616153195554   T   T   T
  0.0573436849394237  0.4228812333385668  0.0856545397636528   T   T   T
  0.9316012008291813  0.8396092919654783  0.0825664204309048   T   T   T
  0.3060246950394047  0.0881373809308059  0.0964919754858919   T   T   T
  0.1818284431063848  0.1719350904320565  0.0909225576581416   T   T   T
  0.1817005040035010  0.3395354818685821  0.0933823571888688   T   T   T
  0.3038488448128098  0.5920212632498992  0.1095519333889227   T   T   T
  0.1820966178006725  0.6737525260825488  0.0932318690185903   T   T   T
  0.3037077754665087  0.4196151036579657  0.1094032791512003   T   T   T
  0.1821839304054915  0.8406757752752445  0.0909401525022103   T   T   T
  0.4295961744175462  0.1725345171251199  0.1068889727190699   T   T   T
  0.5542860649354353  0.9242070355106272  0.1010898682816416   T   T   T
  0.4253374415877660  0.3334799234249589  0.1212275074601543   T   T   T
  0.4229501834436083  0.6788660961516805  0.1231782579458158   T   T   T
  0.4276012504472287  0.8405210751886705  0.1091243756961050   T   T   T
  0.8048866637343552  0.0885497887085054  0.0839746225548234   T   T   T
  0.6794990236682807  0.1747638226411413  0.0889684693566043   T   T   T
  0.8057141599870132  0.9225315951838111  0.0841728173131079   T   T   T
  0.6814039297613314  0.3384401278183053  0.0859106892310581   T   T   T
  0.8063533112413792  0.5916307118581932  0.0805640998482507   T   T   T
  0.6820708860537781  0.6723463686131110  0.0860596970432191   T   T   T
  0.8063578334818602  0.4197901402283484  0.0803055213052286   T   T   T
  0.6794509797484214  0.8376753414775095  0.0899755748795426   T   T   T
  0.5561475778651473  0.0890767466247152  0.1001525432046491   T   T   T
  0.3042157522369313  0.9235280808064623  0.0965695936816685   T   T   T
  0.5796597756061407  0.5061803831060844  0.1490935653806062   T   T   T
 
  0.00000000E+00  0.00000000E+00  0.00000000E+00
  0.00000000E+00  0.00000000E+00  0.00000000E+00
  0.00000000E+00  0.00000000E+00  0.00000000E+00
  0.00000000E+00  0.00000000E+00  0.00000000E+00
  0.00000000E+00  0.00000000E+00  0.00000000E+00
  0.00000000E+00  0.00000000E+00  0.00000000E+00
  0.00000000E+00  0.00000000E+00  0.00000000E+00
  0.00000000E+00  0.00000000E+00  0.00000000E+00
  0.00000000E+00  0.00000000E+00  0.00000000E+00
  0.00000000E+00  0.00000000E+00  0.00000000E+00
  0.00000000E+00  0.00000000E+00  0.00000000E+00
  0.00000000E+00  0.00000000E+00  0.00000000E+00
  0.00000000E+00  0.00000000E+00  0.00000000E+00
  0.00000000E+00  0.00000000E+00  0.00000000E+00
  0.00000000E+00  0.00000000E+00  0.00000000E+00
  0.00000000E+00  0.00000000E+00  0.00000000E+00
  0.00000000E+00  0.00000000E+00  0.00000000E+00
  0.00000000E+00  0.00000000E+00  0.00000000E+00
  0.00000000E+00  0.00000000E+00  0.00000000E+00
  0.00000000E+00  0.00000000E+00  0.00000000E+00
  0.00000000E+00  0.00000000E+00  0.00000000E+00
  0.00000000E+00  0.00000000E+00  0.00000000E+00
  0.00000000E+00  0.00000000E+00  0.00000000E+00
  0.00000000E+00  0.00000000E+00  0.00000000E+00
  0.00000000E+00  0.00000000E+00  0.00000000E+00
  0.00000000E+00  0.00000000E+00  0.00000000E+00
  0.00000000E+00  0.00000000E+00  0.00000000E+00
  0.00000000E+00  0.00000000E+00  0.00000000E+00
  0.00000000E+00  0.00000000E+00  0.00000000E+00
  0.00000000E+00  0.00000000E+00  0.00000000E+00
  0.00000000E+00  0.00000000E+00  0.00000000E+00
