Title                                   
   1.00000000000000     
     8.5490480000000009    0.0000000000000000    0.0000000000000000
     0.0000000000000000    8.5490480000000009    0.0000000000000000
     0.0000000000000000    0.0000000000000000   20.0000000000000000
    22     2     1
Selective dynamics
Direct
  0.9106087521345132  0.2065892877074355  0.0954366152255605   T   T   T
  0.9081993474874103  0.5023254849511801  0.0952887685863766   T   T   T
  0.9114016908488208  0.7983075996904397  0.0954551616286237   T   T   T
  0.1965078171584423  0.0834265088513762  0.0954697153177922   T   T   T
  0.0746362814762930  0.2052677723192604  0.0954549267942526   T   T   T
  0.1978467680529375  0.9194151943152943  0.0954858486022069   T   T   T
  0.1574442828741910  0.6473578985249606  0.0953825473588974   T   T   T
  0.0778588038096130  0.5012761918493465  0.0953291762038701   T   T   T
  0.1575330017691997  0.3534908203697493  0.0953207881086212   T   T   T
  0.0754255234597248  0.7969920767717164  0.0954736086351214   T   T   T
  0.4924685270322497  0.0866070630766698  0.0953424291375990   T   T   T
  0.3447145546120030  0.1663094880087966  0.0953341622777491   T   T   T
  0.4935227551362927  0.9169609401070351  0.0953494456012618   T   T   T
  0.3474747842512192  0.8373865050727992  0.0953957766826616   T   T   T
  0.7881690134881592  0.0841672098297465  0.0954538589232962   T   T   T
  0.6385285629387812  0.1662158267910178  0.0953331180433186   T   T   T
  0.7895229492105710  0.9201423146761534  0.0954554097607188   T   T   T
  0.8285142480321048  0.6500982411306010  0.0952875870818522   T   T   T
  0.8285930589880515  0.3562508390677447  0.0953058075475770   T   T   T
  0.6412929540321110  0.8372464609633908  0.0953087602673668   T   T   T
  0.3213432621674158  0.6735059197815098  0.0953411518720844   T   T   T
  0.6646983473916090  0.3300971715946358  0.0952530298752972   T   T   T
  0.3180952198636798  0.3268434670830641  0.0951629217309693   T   T   T
  0.6679713398815883  0.6767157233312274  0.0951276244838103   T   T   T
  0.4930401539030119  0.5017939941348625  0.0951567602530925   T   T   T
 
  0.00000000E+00  0.00000000E+00  0.00000000E+00
  0.00000000E+00  0.00000000E+00  0.00000000E+00
  0.00000000E+00  0.00000000E+00  0.00000000E+00
  0.00000000E+00  0.00000000E+00  0.00000000E+00
  0.00000000E+00  0.00000000E+00  0.00000000E+00
  0.00000000E+00  0.00000000E+00  0.00000000E+00
  0.00000000E+00  0.00000000E+00  0.00000000E+00
  0.00000000E+00  0.00000000E+00  0.00000000E+00
  0.00000000E+00  0.00000000E+00  0.00000000E+00
  0.00000000E+00  0.00000000E+00  0.00000000E+00
  0.00000000E+00  0.00000000E+00  0.00000000E+00
  0.00000000E+00  0.00000000E+00  0.00000000E+00
  0.00000000E+00  0.00000000E+00  0.00000000E+00
  0.00000000E+00  0.00000000E+00  0.00000000E+00
  0.00000000E+00  0.00000000E+00  0.00000000E+00
  0.00000000E+00  0.00000000E+00  0.00000000E+00
  0.00000000E+00  0.00000000E+00  0.00000000E+00
  0.00000000E+00  0.00000000E+00  0.00000000E+00
  0.00000000E+00  0.00000000E+00  0.00000000E+00
  0.00000000E+00  0.00000000E+00  0.00000000E+00
  0.00000000E+00  0.00000000E+00  0.00000000E+00
  0.00000000E+00  0.00000000E+00  0.00000000E+00
  0.00000000E+00  0.00000000E+00  0.00000000E+00
  0.00000000E+00  0.00000000E+00  0.00000000E+00
  0.00000000E+00  0.00000000E+00  0.00000000E+00
