Title                                   
   1.00000000000000     
     9.8694509999999998    0.0000000000000000    0.0000000000000000
     0.0000000000000000    8.5490480000000009    0.0000000000000000
     0.0000000000000000    0.0000000000000000   20.0000000000000000
    25     5     1
Selective dynamics
Direct
  0.0552270005798995  0.0885080444143854  0.0942463069128038   T   T   T
  0.9306154030806061  0.1721319301544514  0.0941750489212938   T   T   T
  0.0569188689355440  0.9217755745260103  0.0940121731751411   T   T   T
  0.9332390647422339  0.3398439649394139  0.0939470624022500   T   T   T
  0.0552703484383947  0.5904831041156621  0.0941401777766526   T   T   T
  0.0563300927408378  0.4240932347198585  0.0942570108676586   T   T   T
  0.9319842456396354  0.8395468330648629  0.0938479027177846   T   T   T
  0.3071634304101973  0.0889385383351862  0.0951991271149347   T   T   T
  0.1809979466875082  0.1702953317454074  0.0947844041342178   T   T   T
  0.1803009615649558  0.3377580388134300  0.0949751248027166   T   T   T
  0.3018703753276447  0.5872572957776956  0.0958980986049565   T   T   T
  0.1794785880815331  0.6737668793690497  0.0948007097983678   T   T   T
  0.3023266932414982  0.4193580147427655  0.0958214162364280   T   T   T
  0.1827844568066112  0.8404805629280058  0.0944963594381475   T   T   T
  0.4311080059920684  0.1779825198689780  0.0956698404200213   T   T   T
  0.5558441487405883  0.9211355041504993  0.0955136125740957   T   T   T
  0.4269148729162486  0.6687171064246054  0.0964710912190445   T   T   T
  0.4298349478523286  0.8349838256794400  0.0958437077381765   T   T   T
  0.8044742408063309  0.0888264581818506  0.0945090086209914   T   T   T
  0.6810431796955337  0.1795716307853716  0.0949410323724358   T   T   T
  0.8059524052795798  0.9209081008711509  0.0943824333545044   T   T   T
  0.6846070156954644  0.3452356582522180  0.0948237163341807   T   T   T
  0.8107090165289075  0.5931812363688227  0.0940434891186567   T   T   T
  0.8111888892971177  0.4237508580691660  0.0940407094888801   T   T   T
  0.6805447662194410  0.8350364923381909  0.0949401709275764   T   T   T
  0.9322995197876150  0.6732057316718371  0.0936727058353566   T   T   T
  0.5557370726830297  0.0940652258681832  0.0953494259490711   T   T   T
  0.4267389539139019  0.3412260868844302  0.0961420916751623   T   T   T
  0.6886005100750586  0.6688992627702282  0.0947669742933977   T   T   T
  0.3063827138591139  0.9229221559138127  0.0950731037383181   T   T   T
  0.5566472643805741  0.5069897982550585  0.0961809634368114   T   T   T
 
  0.00000000E+00  0.00000000E+00  0.00000000E+00
  0.00000000E+00  0.00000000E+00  0.00000000E+00
  0.00000000E+00  0.00000000E+00  0.00000000E+00
  0.00000000E+00  0.00000000E+00  0.00000000E+00
  0.00000000E+00  0.00000000E+00  0.00000000E+00
  0.00000000E+00  0.00000000E+00  0.00000000E+00
  0.00000000E+00  0.00000000E+00  0.00000000E+00
  0.00000000E+00  0.00000000E+00  0.00000000E+00
  0.00000000E+00  0.00000000E+00  0.00000000E+00
  0.00000000E+00  0.00000000E+00  0.00000000E+00
  0.00000000E+00  0.00000000E+00  0.00000000E+00
  0.00000000E+00  0.00000000E+00  0.00000000E+00
  0.00000000E+00  0.00000000E+00  0.00000000E+00
  0.00000000E+00  0.00000000E+00  0.00000000E+00
  0.00000000E+00  0.00000000E+00  0.00000000E+00
  0.00000000E+00  0.00000000E+00  0.00000000E+00
  0.00000000E+00  0.00000000E+00  0.00000000E+00
  0.00000000E+00  0.00000000E+00  0.00000000E+00
  0.00000000E+00  0.00000000E+00  0.00000000E+00
  0.00000000E+00  0.00000000E+00  0.00000000E+00
  0.00000000E+00  0.00000000E+00  0.00000000E+00
  0.00000000E+00  0.00000000E+00  0.00000000E+00
  0.00000000E+00  0.00000000E+00  0.00000000E+00
  0.00000000E+00  0.00000000E+00  0.00000000E+00
  0.00000000E+00  0.00000000E+00  0.00000000E+00
  0.00000000E+00  0.00000000E+00  0.00000000E+00
  0.00000000E+00  0.00000000E+00  0.00000000E+00
  0.00000000E+00  0.00000000E+00  0.00000000E+00
  0.00000000E+00  0.00000000E+00  0.00000000E+00
  0.00000000E+00  0.00000000E+00  0.00000000E+00
  0.00000000E+00  0.00000000E+00  0.00000000E+00
