Title                                   
   1.00000000000000     
     8.5490480000000009    0.0000000000000000    0.0000000000000000
     0.0000000000000000    8.5490480000000009    0.0000000000000000
     0.0000000000000000    0.0000000000000000   20.0000000000000000
    22     2     1
Selective dynamics
Direct
  0.9085590672221926  0.2079698593848310  0.0952488196612879   T   T   T
  0.9072687045668052  0.5044829819101314  0.0970260535566444   T   T   T
  0.9116417015575395  0.8020876916806715  0.0970519923920340   T   T   T
  0.1990550518222153  0.0818798988308091  0.0967133259797497   T   T   T
  0.0738821309020439  0.2049359485905954  0.0965465519130676   T   T   T
  0.1586262786897568  0.6494418245646069  0.0969082380426817   T   T   T
  0.0758548162240101  0.5023052680175625  0.0974334899836786   T   T   T
  0.1539946092601954  0.3545088610623853  0.0984213724454811   T   T   T
  0.0799692360063816  0.7971806673728338  0.0962802886207034   T   T   T
  0.4937560870115341  0.0836064724581126  0.0975125992936990   T   T   T
  0.3453306507646240  0.1607829372283419  0.0984708593187307   T   T   T
  0.4940571448030417  0.9156151762466188  0.0971990559234589   T   T   T
  0.3479565542341434  0.8357995472983528  0.0957732626803560   T   T   T
  0.7860803679145445  0.0867896123851780  0.0958826379145044   T   T   T
  0.6379659265142011  0.1663289999152398  0.0967935276132857   T   T   T
  0.7897091080250387  0.9206022174446923  0.0968808191314657   T   T   T
  0.8293356389358074  0.6539551405850151  0.0987365777733327   T   T   T
  0.8282593470342913  0.3581706557170231  0.0954361951534082   T   T   T
  0.6424783219514224  0.8357962788371455  0.0986046307424784   T   T   T
  0.3232310933405382  0.3312039448471601  0.1022726942494167   T   T   T
  0.3265308311567474  0.6715021416109354  0.0972083882423716   T   T   T
  0.6603094314346540  0.3365931501264607  0.0981292140523253   T   T   T
  0.6669543733789079  0.6753369382014796  0.1014528904064699   T   T   T
  0.1996425712577919  0.9169807832874523  0.0954493279733086   T   T   T
  0.4849629559915648  0.4909330023963774  0.1112721869360427   T   T   T
 
  0.00000000E+00  0.00000000E+00  0.00000000E+00
  0.00000000E+00  0.00000000E+00  0.00000000E+00
  0.00000000E+00  0.00000000E+00  0.00000000E+00
  0.00000000E+00  0.00000000E+00  0.00000000E+00
  0.00000000E+00  0.00000000E+00  0.00000000E+00
  0.00000000E+00  0.00000000E+00  0.00000000E+00
  0.00000000E+00  0.00000000E+00  0.00000000E+00
  0.00000000E+00  0.00000000E+00  0.00000000E+00
  0.00000000E+00  0.00000000E+00  0.00000000E+00
  0.00000000E+00  0.00000000E+00  0.00000000E+00
  0.00000000E+00  0.00000000E+00  0.00000000E+00
  0.00000000E+00  0.00000000E+00  0.00000000E+00
  0.00000000E+00  0.00000000E+00  0.00000000E+00
  0.00000000E+00  0.00000000E+00  0.00000000E+00
  0.00000000E+00  0.00000000E+00  0.00000000E+00
  0.00000000E+00  0.00000000E+00  0.00000000E+00
  0.00000000E+00  0.00000000E+00  0.00000000E+00
  0.00000000E+00  0.00000000E+00  0.00000000E+00
  0.00000000E+00  0.00000000E+00  0.00000000E+00
  0.00000000E+00  0.00000000E+00  0.00000000E+00
  0.00000000E+00  0.00000000E+00  0.00000000E+00
  0.00000000E+00  0.00000000E+00  0.00000000E+00
  0.00000000E+00  0.00000000E+00  0.00000000E+00
  0.00000000E+00  0.00000000E+00  0.00000000E+00
  0.00000000E+00  0.00000000E+00  0.00000000E+00
