Title                                   
   1.00000000000000     
     8.5490480000000009    0.0000000000000000    0.0000000000000000
     0.0000000000000000    8.5490480000000009    0.0000000000000000
     0.0000000000000000    0.0000000000000000   20.0000000000000000
    22     2     1
Selective dynamics
Direct
  0.9109181847317805  0.2041942028906612  0.0954490231041196   T   T   T
  0.9023844583230449  0.5018059187383743  0.0952891147843533   T   T   T
  0.9109143430260158  0.7993590883462576  0.0954582724260628   T   T   T
  0.1997902870885909  0.0837552660723105  0.0954670707351926   T   T   T
  0.0752959593941419  0.2063636766964902  0.0954497188457444   T   T   T
  0.1998017422780411  0.9197842001838746  0.0954794402191424   T   T   T
  0.1548527259842204  0.6476223032909316  0.0953641414798436   T   T   T
  0.0714614506635558  0.5017995520120151  0.0953292457298287   T   T   T
  0.1548450700778817  0.3559597042750581  0.0953597034539813   T   T   T
  0.0752985228957132  0.7971816583979844  0.0954639860804994   T   T   T
  0.4953002084402807  0.0874264525768469  0.0953446509805284   T   T   T
  0.3491293843752035  0.1680301952680136  0.0953704192211082   T   T   T
  0.4953011298467838  0.9161542815806365  0.0953536662697507   T   T   T
  0.3491389414603586  0.8355423594131441  0.0953842443445997   T   T   T
  0.7904715802573052  0.0847976647037587  0.0954625360944057   T   T   T
  0.6439254390356445  0.1662486660496194  0.0953060838046071   T   T   T
  0.7904759241398257  0.9187830461274566  0.0954691758852745   T   T   T
  0.8244056806311989  0.6503727890379757  0.0952914865140830   T   T   T
  0.8244228701019325  0.3532220854970225  0.0952866555793272   T   T   T
  0.6439205487333189  0.8373456086115394  0.0953144576960775   T   T   T
  0.3218498619296479  0.3362383820320645  0.0952956021447280   T   T   T
  0.3218668622685237  0.6673699765360455  0.0953027537378067   T   T   T
  0.6663609843359374  0.3277847969049166  0.0951429447456878   T   T   T
  0.6663458635575319  0.6757993138495380  0.0951537426180173   T   T   T
  0.4869339764235135  0.5018488109074768  0.0951168635052078   T   T   T
 
  0.00000000E+00  0.00000000E+00  0.00000000E+00
  0.00000000E+00  0.00000000E+00  0.00000000E+00
  0.00000000E+00  0.00000000E+00  0.00000000E+00
  0.00000000E+00  0.00000000E+00  0.00000000E+00
  0.00000000E+00  0.00000000E+00  0.00000000E+00
  0.00000000E+00  0.00000000E+00  0.00000000E+00
  0.00000000E+00  0.00000000E+00  0.00000000E+00
  0.00000000E+00  0.00000000E+00  0.00000000E+00
  0.00000000E+00  0.00000000E+00  0.00000000E+00
  0.00000000E+00  0.00000000E+00  0.00000000E+00
  0.00000000E+00  0.00000000E+00  0.00000000E+00
  0.00000000E+00  0.00000000E+00  0.00000000E+00
  0.00000000E+00  0.00000000E+00  0.00000000E+00
  0.00000000E+00  0.00000000E+00  0.00000000E+00
  0.00000000E+00  0.00000000E+00  0.00000000E+00
  0.00000000E+00  0.00000000E+00  0.00000000E+00
  0.00000000E+00  0.00000000E+00  0.00000000E+00
  0.00000000E+00  0.00000000E+00  0.00000000E+00
  0.00000000E+00  0.00000000E+00  0.00000000E+00
  0.00000000E+00  0.00000000E+00  0.00000000E+00
  0.00000000E+00  0.00000000E+00  0.00000000E+00
  0.00000000E+00  0.00000000E+00  0.00000000E+00
  0.00000000E+00  0.00000000E+00  0.00000000E+00
  0.00000000E+00  0.00000000E+00  0.00000000E+00
  0.00000000E+00  0.00000000E+00  0.00000000E+00
