Title                                   
   1.00000000000000     
     9.8694509999999998    0.0000000000000000    0.0000000000000000
     0.0000000000000000    8.5490480000000009    0.0000000000000000
     0.0000000000000000    0.0000000000000000   20.0000000000000000
    29     1     1
Selective dynamics
Direct
  0.0561222240338258  0.0891701264663847  0.0826164371640439   T   T   T
  0.9315993448076970  0.1716237569862065  0.0849722220875966   T   T   T
  0.0569288280009215  0.9239598282763589  0.0829277690570583   T   T   T
  0.9333301133626722  0.3384866132756048  0.0839222390568490   T   T   T
  0.0566917543336524  0.5900797527171692  0.0802134843889578   T   T   T
  0.9329269502598956  0.6735516329851707  0.0836169890356403   T   T   T
  0.0569895114863086  0.4231563144030185  0.0801745618938571   T   T   T
  0.9315458020487571  0.8399070058791128  0.0847253511664404   T   T   T
  0.3058076368806517  0.0889722855767776  0.0926983081660007   T   T   T
  0.1815473517974356  0.1711456211550779  0.0848368888622605   T   T   T
  0.1805693475485798  0.3384982372558445  0.0841194608519099   T   T   T
  0.3009077446844572  0.5919158121711291  0.0960939571599862   T   T   T
  0.1806843307514453  0.6751217980352384  0.0846494718841163   T   T   T
  0.3015554445631843  0.4219834243689229  0.0946856222267413   T   T   T
  0.1818871654362990  0.8419098584219886  0.0858578191100844   T   T   T
  0.5567123474286423  0.0886214585331296  0.1060078815526272   T   T   T
  0.4293899451529599  0.1742397596638910  0.1029071243873010   T   T   T
  0.5546423205019609  0.9238935657978780  0.1056512372556915   T   T   T
  0.4221462390225489  0.3390965945210677  0.1073783583118663   T   T   T
  0.4199984195505625  0.6753439242025311  0.1118007092594005   T   T   T
  0.4266904470590831  0.8378658508022999  0.1046296616932367   T   T   T
  0.8068266048464394  0.0890008688687272  0.0923222558215268   T   T   T
  0.6838856615179641  0.1748177672558198  0.1033119807477068   T   T   T
  0.8063012426663249  0.9218431671717469  0.0918001777672155   T   T   T
  0.6912491246203153  0.3388088841586470  0.1098017112365310   T   T   T
  0.8112661290522034  0.5900375900491684  0.0930804445834257   T   T   T
  0.6897456730889279  0.6717935333450480  0.1053579773541566   T   T   T
  0.8119202402825066  0.4205140345167815  0.0943832344954215   T   T   T
  0.6816041958264467  0.8359743868172861  0.1013257861736398   T   T   T
  0.3048004130110556  0.9235720027462268  0.0930322858956164   T   T   T
  0.5568624463762754  0.5059695435757645  0.1320635913531210   T   T   T
 
  0.00000000E+00  0.00000000E+00  0.00000000E+00
  0.00000000E+00  0.00000000E+00  0.00000000E+00
  0.00000000E+00  0.00000000E+00  0.00000000E+00
  0.00000000E+00  0.00000000E+00  0.00000000E+00
  0.00000000E+00  0.00000000E+00  0.00000000E+00
  0.00000000E+00  0.00000000E+00  0.00000000E+00
  0.00000000E+00  0.00000000E+00  0.00000000E+00
  0.00000000E+00  0.00000000E+00  0.00000000E+00
  0.00000000E+00  0.00000000E+00  0.00000000E+00
  0.00000000E+00  0.00000000E+00  0.00000000E+00
  0.00000000E+00  0.00000000E+00  0.00000000E+00
  0.00000000E+00  0.00000000E+00  0.00000000E+00
  0.00000000E+00  0.00000000E+00  0.00000000E+00
  0.00000000E+00  0.00000000E+00  0.00000000E+00
  0.00000000E+00  0.00000000E+00  0.00000000E+00
  0.00000000E+00  0.00000000E+00  0.00000000E+00
  0.00000000E+00  0.00000000E+00  0.00000000E+00
  0.00000000E+00  0.00000000E+00  0.00000000E+00
  0.00000000E+00  0.00000000E+00  0.00000000E+00
  0.00000000E+00  0.00000000E+00  0.00000000E+00
  0.00000000E+00  0.00000000E+00  0.00000000E+00
  0.00000000E+00  0.00000000E+00  0.00000000E+00
  0.00000000E+00  0.00000000E+00  0.00000000E+00
  0.00000000E+00  0.00000000E+00  0.00000000E+00
  0.00000000E+00  0.00000000E+00  0.00000000E+00
  0.00000000E+00  0.00000000E+00  0.00000000E+00
  0.00000000E+00  0.00000000E+00  0.00000000E+00
  0.00000000E+00  0.00000000E+00  0.00000000E+00
  0.00000000E+00  0.00000000E+00  0.00000000E+00
  0.00000000E+00  0.00000000E+00  0.00000000E+00
  0.00000000E+00  0.00000000E+00  0.00000000E+00
