Title                                   
   1.00000000000000     
     9.8694509999999998    0.0000000000000000    0.0000000000000000
     0.0000000000000000    8.5490480000000009    0.0000000000000000
     0.0000000000000000    0.0000000000000000   20.0000000000000000
    27     4     1
Selective dynamics
Direct
  0.0562109627271742  0.0916998951023984  0.0842768574764990   T   T   T
  0.9309697278424464  0.1746744949017285  0.0850008718196077   T   T   T
  0.0579012349297140  0.9242994714189702  0.0842001228891191   T   T   T
  0.9293660226792921  0.3423131935420439  0.0868342343326996   T   T   T
  0.0574637277285143  0.5908349681772573  0.0856766349466877   T   T   T
  0.9330618503577208  0.6739387698678778  0.0862021210682576   T   T   T
  0.0564022780816114  0.4232395406569877  0.0872574740553346   T   T   T
  0.9333121760113844  0.8406157687074614  0.0857920954366561   T   T   T
  0.3060578709937098  0.0878729791898641  0.0895146150573610   T   T   T
  0.1824993086604281  0.1731319463949199  0.0870359702509050   T   T   T
  0.1826646218045865  0.3398301942217777  0.0904229526880196   T   T   T
  0.3042982053591040  0.5901013818336496  0.1051815691607923   T   T   T
  0.1824090246745330  0.6741072160328242  0.0899943827863948   T   T   T
  0.3078363874001268  0.4219931201054404  0.1004687876860919   T   T   T
  0.1823551071062145  0.8410318151180733  0.0874609338643956   T   T   T
  0.5568261509847541  0.0846172387096322  0.0954421500333829   T   T   T
  0.5553186013240329  0.9207752634372425  0.1035884397438111   T   T   T
  0.4325639955857048  0.3323586234569169  0.1008623146548451   T   T   T
  0.4262988841901242  0.8407182449852501  0.1090361949006337   T   T   T
  0.8061802887764449  0.0893078018695347  0.0865231965702366   T   T   T
  0.6795813523695016  0.1697128890398230  0.0900105855760895   T   T   T
  0.8076527309780459  0.9241076552968590  0.0887850344278397   T   T   T
  0.6777924468051890  0.3359682319722649  0.0944191450690286   T   T   T
  0.8073685704912544  0.5947559747017637  0.0938764984392120   T   T   T
  0.8016712043840577  0.4254862035501970  0.0916686052335864   T   T   T
  0.6851925911759259  0.8392639420513593  0.0998935607264876   T   T   T
  0.4146234540456206  0.6844054667799775  0.1262587517680672   T   T   T
  0.5534108887506580  0.4042981179366777  0.1056805191779602   T   T   T
  0.6927761574786059  0.6805546636876231  0.1072758608219921   T   T   T
  0.3062503708358182  0.9251022022067937  0.0906301426430694   T   T   T
  0.4290899909940596  0.1668065891091969  0.0942918967169683   T   T   T
  0.5642328144736471  0.5823221359376147  0.1721124799779841   T   T   T
 
  0.00000000E+00  0.00000000E+00  0.00000000E+00
  0.00000000E+00  0.00000000E+00  0.00000000E+00
  0.00000000E+00  0.00000000E+00  0.00000000E+00
  0.00000000E+00  0.00000000E+00  0.00000000E+00
  0.00000000E+00  0.00000000E+00  0.00000000E+00
  0.00000000E+00  0.00000000E+00  0.00000000E+00
  0.00000000E+00  0.00000000E+00  0.00000000E+00
  0.00000000E+00  0.00000000E+00  0.00000000E+00
  0.00000000E+00  0.00000000E+00  0.00000000E+00
  0.00000000E+00  0.00000000E+00  0.00000000E+00
  0.00000000E+00  0.00000000E+00  0.00000000E+00
  0.00000000E+00  0.00000000E+00  0.00000000E+00
  0.00000000E+00  0.00000000E+00  0.00000000E+00
  0.00000000E+00  0.00000000E+00  0.00000000E+00
  0.00000000E+00  0.00000000E+00  0.00000000E+00
  0.00000000E+00  0.00000000E+00  0.00000000E+00
  0.00000000E+00  0.00000000E+00  0.00000000E+00
  0.00000000E+00  0.00000000E+00  0.00000000E+00
  0.00000000E+00  0.00000000E+00  0.00000000E+00
  0.00000000E+00  0.00000000E+00  0.00000000E+00
  0.00000000E+00  0.00000000E+00  0.00000000E+00
  0.00000000E+00  0.00000000E+00  0.00000000E+00
  0.00000000E+00  0.00000000E+00  0.00000000E+00
  0.00000000E+00  0.00000000E+00  0.00000000E+00
  0.00000000E+00  0.00000000E+00  0.00000000E+00
  0.00000000E+00  0.00000000E+00  0.00000000E+00
  0.00000000E+00  0.00000000E+00  0.00000000E+00
  0.00000000E+00  0.00000000E+00  0.00000000E+00
  0.00000000E+00  0.00000000E+00  0.00000000E+00
  0.00000000E+00  0.00000000E+00  0.00000000E+00
  0.00000000E+00  0.00000000E+00  0.00000000E+00
  0.00000000E+00  0.00000000E+00  0.00000000E+00
