Title                                   
   1.00000000000000     
     4.9440799999999996    0.0000000000000000    0.0000000000000000
     0.0000000000000000    8.5647549999999999    0.0000000000000000
     0.0000000000000000    0.0000000000000000   20.0000000000000000
    11     3     1
Selective dynamics
Direct
  0.2486901242196536  0.2089644167035414  0.1004777855666731   T   T   T
 -0.0025365690517552  0.2957631748011068  0.0999652422189134   T   T   T
  0.2485814673930050  0.0372629957238001  0.1003589658250829   T   T   T
 -0.0025307135597872  0.9547181123162986  0.0998216171999030   T   T   T
  0.7483912164068602  0.2094859963596616  0.1004598413933236   T   T   T
  0.4978792507414252  0.2936571936791443  0.1011787214544141   T   T   T
  0.7494217184225017  0.0403486224633308  0.1003156149697242   T   T   T
  0.7540685087446855  0.7153215821600282  0.1005002396125744   T   T   T
  0.7525776502221380  0.5384508471867977  0.1007566389540708   T   T   T
  0.5020268520248392  0.9533188427306377  0.1008968564114620   T   T   T
  0.5063325393498491  0.4617868018961413  0.1020083285928666   T   T   T
 -0.0055014567294939  0.4594635663428762  0.0993948715692992   T   T   T
 -0.0107706030183355  0.7916364100771663  0.0990874002455198   T   T   T
  0.5123153851130260  0.7895345625586959  0.1018025732318834   T   T   T
  0.2510546297213877  0.6219678750007760  0.1009553027542927   T   T   T
 
  0.00000000E+00  0.00000000E+00  0.00000000E+00
  0.00000000E+00  0.00000000E+00  0.00000000E+00
  0.00000000E+00  0.00000000E+00  0.00000000E+00
  0.00000000E+00  0.00000000E+00  0.00000000E+00
  0.00000000E+00  0.00000000E+00  0.00000000E+00
  0.00000000E+00  0.00000000E+00  0.00000000E+00
  0.00000000E+00  0.00000000E+00  0.00000000E+00
  0.00000000E+00  0.00000000E+00  0.00000000E+00
  0.00000000E+00  0.00000000E+00  0.00000000E+00
  0.00000000E+00  0.00000000E+00  0.00000000E+00
  0.00000000E+00  0.00000000E+00  0.00000000E+00
  0.00000000E+00  0.00000000E+00  0.00000000E+00
  0.00000000E+00  0.00000000E+00  0.00000000E+00
  0.00000000E+00  0.00000000E+00  0.00000000E+00
  0.00000000E+00  0.00000000E+00  0.00000000E+00
