Title                                   
   1.00000000000000     
     9.8694509999999998    0.0000000000000000    0.0000000000000000
     0.0000000000000000    8.5490480000000009    0.0000000000000000
     0.0000000000000000    0.0000000000000000   20.0000000000000000
    27     4     1
Selective dynamics
Direct
  0.0561919662912539  0.0930007214831046  0.0842621961580601   T   T   T
  0.9313105143029015  0.1739254978123068  0.0854614513050146   T   T   T
  0.0572162331997993  0.9251312530981098  0.0832787185137207   T   T   T
  0.9303595768037072  0.3415215727773580  0.0885029289675095   T   T   T
  0.0571127627206886  0.5902258924022961  0.0853907297431925   T   T   T
  0.9331050227368515  0.6732880040543859  0.0857636785245831   T   T   T
  0.0575686742445439  0.4232756278035426  0.0883049654442351   T   T   T
  0.9326837472874782  0.8397585735690252  0.0844705797778663   T   T   T
  0.3055841352686415  0.0894106324414366  0.0897927138086763   T   T   T
  0.1822427606029445  0.1747603562003248  0.0881334361439506   T   T   T
  0.1846742334596055  0.3419366940735054  0.0921443562530196   T   T   T
  0.3028245681145356  0.5951327276648471  0.1038429558592730   T   T   T
  0.1807078703733729  0.6753666120951134  0.0884511045045522   T   T   T
  0.3105667998822443  0.4267426260372695  0.1024977531890098   T   T   T
  0.1800757846612376  0.8416793641262587  0.0864834217248857   T   T   T
  0.5563723553641542  0.0826390588798422  0.0951125644033117   T   T   T
  0.4309665481411873  0.1676349581869205  0.0952703779081667   T   T   T
  0.5542062539349251  0.9161233572282766  0.1003356004034363   T   T   T
  0.4347198452490797  0.3332740562579877  0.1047947877394400   T   T   T
  0.4228190902919520  0.8410885185412117  0.1046588525081607   T   T   T
  0.8068670045509214  0.0877911859919567  0.0860421139279451   T   T   T
  0.6811505283354484  0.1667576157892137  0.0913399225312636   T   T   T
  0.8071893297088204  0.9223140391984469  0.0872089646784091   T   T   T
  0.6797797466001645  0.3319440729618267  0.0996403899656896   T   T   T
  0.8084827651700169  0.5922340733379063  0.0957808082151975   T   T   T
  0.8039181839074961  0.4234110518534326  0.0951461124343757   T   T   T
  0.6849141197363463  0.8359617705841315  0.0984855123674731   T   T   T
  0.4089660305642889  0.6907357881552866  0.1232441098190463   T   T   T
  0.5593030716822094  0.3997410882151750  0.1154106650150770   T   T   T
  0.6956600694589455  0.6789147582056284  0.1089654473177063   T   T   T
  0.3044263399388280  0.9251664212185090  0.0895629234630047   T   T   T
  0.5576730674154162  0.5893580297553668  0.1578948573847635   T   T   T
 
  0.00000000E+00  0.00000000E+00  0.00000000E+00
  0.00000000E+00  0.00000000E+00  0.00000000E+00
  0.00000000E+00  0.00000000E+00  0.00000000E+00
  0.00000000E+00  0.00000000E+00  0.00000000E+00
  0.00000000E+00  0.00000000E+00  0.00000000E+00
  0.00000000E+00  0.00000000E+00  0.00000000E+00
  0.00000000E+00  0.00000000E+00  0.00000000E+00
  0.00000000E+00  0.00000000E+00  0.00000000E+00
  0.00000000E+00  0.00000000E+00  0.00000000E+00
  0.00000000E+00  0.00000000E+00  0.00000000E+00
  0.00000000E+00  0.00000000E+00  0.00000000E+00
  0.00000000E+00  0.00000000E+00  0.00000000E+00
  0.00000000E+00  0.00000000E+00  0.00000000E+00
  0.00000000E+00  0.00000000E+00  0.00000000E+00
  0.00000000E+00  0.00000000E+00  0.00000000E+00
  0.00000000E+00  0.00000000E+00  0.00000000E+00
  0.00000000E+00  0.00000000E+00  0.00000000E+00
  0.00000000E+00  0.00000000E+00  0.00000000E+00
  0.00000000E+00  0.00000000E+00  0.00000000E+00
  0.00000000E+00  0.00000000E+00  0.00000000E+00
  0.00000000E+00  0.00000000E+00  0.00000000E+00
  0.00000000E+00  0.00000000E+00  0.00000000E+00
  0.00000000E+00  0.00000000E+00  0.00000000E+00
  0.00000000E+00  0.00000000E+00  0.00000000E+00
  0.00000000E+00  0.00000000E+00  0.00000000E+00
  0.00000000E+00  0.00000000E+00  0.00000000E+00
  0.00000000E+00  0.00000000E+00  0.00000000E+00
  0.00000000E+00  0.00000000E+00  0.00000000E+00
  0.00000000E+00  0.00000000E+00  0.00000000E+00
  0.00000000E+00  0.00000000E+00  0.00000000E+00
  0.00000000E+00  0.00000000E+00  0.00000000E+00
  0.00000000E+00  0.00000000E+00  0.00000000E+00
