Title                                   
   1.00000000000000     
     4.9440799999999996    0.0000000000000000    0.0000000000000000
     0.0000000000000000    8.5647549999999999    0.0000000000000000
     0.0000000000000000    0.0000000000000000   20.0000000000000000
    14     1
Selective dynamics
Direct
  0.2500000000000000  0.2071992124356314  0.0973608111486202   T   T   T
  0.0005385054992605  0.2934946954056315  0.0981425589192857   T   T   T
  0.2500000000000000  0.0423887557797990  0.0974030010295798   T   T   T
  0.0005669890537560  0.9560883961743093  0.0982312988784839   T   T   T
  0.7500000000000000  0.2086820469511319  0.0974344419275065   T   T   T
  0.4994614945007397  0.2934946954056315  0.0981425589192857   T   T   T
  0.7500000000000000  0.0408676372434199  0.0974965888394777   T   T   T
  0.7500000000000000  0.7097960486312886  0.1001214650530389   T   T   T
  0.7500000000000000  0.5398291685730360  0.1000612445250906   T   T   T
  0.4994330109462438  0.9560883961743093  0.0982312988784839   T   T   T
  0.5017542204493923  0.4583324142930926  0.1009360925852665   T   T   T
 -0.0017542204493925  0.4583324142930926  0.1009360925852665   T   T   T
 -0.0017084345193933  0.7912612450101162  0.1010287711249128   T   T   T
  0.5017084345193928  0.7912612450101162  0.1010287711249128   T   T   T
  0.2500000000000000  0.6245646286193953  0.1214250044607918   T   T   T
 
  0.00000000E+00  0.00000000E+00  0.00000000E+00
  0.00000000E+00  0.00000000E+00  0.00000000E+00
  0.00000000E+00  0.00000000E+00  0.00000000E+00
  0.00000000E+00  0.00000000E+00  0.00000000E+00
  0.00000000E+00  0.00000000E+00  0.00000000E+00
  0.00000000E+00  0.00000000E+00  0.00000000E+00
  0.00000000E+00  0.00000000E+00  0.00000000E+00
  0.00000000E+00  0.00000000E+00  0.00000000E+00
  0.00000000E+00  0.00000000E+00  0.00000000E+00
  0.00000000E+00  0.00000000E+00  0.00000000E+00
  0.00000000E+00  0.00000000E+00  0.00000000E+00
  0.00000000E+00  0.00000000E+00  0.00000000E+00
  0.00000000E+00  0.00000000E+00  0.00000000E+00
  0.00000000E+00  0.00000000E+00  0.00000000E+00
  0.00000000E+00  0.00000000E+00  0.00000000E+00
