Title                                   
   1.00000000000000     
     9.8694509999999998    0.0000000000000000    0.0000000000000000
     0.0000000000000000    8.5490480000000009    0.0000000000000000
     0.0000000000000000    0.0000000000000000   20.0000000000000000
    27     3     1
Selective dynamics
Direct
  0.0562745785407885  0.0895022776314331  0.0854265520253862   T   T   T
  0.9313858868472689  0.1719756296886124  0.0886436022569210   T   T   T
  0.0575841470827218  0.9233637604012728  0.0858649972468772   T   T   T
  0.9338246348357252  0.3388781308856750  0.0895614678641241   T   T   T
  0.0576539712537988  0.5901457995746960  0.0849644213449082   T   T   T
  0.9337094339523624  0.6736192317021894  0.0897452467250462   T   T   T
  0.0578013666453038  0.4228690937544869  0.0846952874374096   T   T   T
  0.9318067753279453  0.8400056090653331  0.0888647625447072   T   T   T
  0.3068105917757846  0.0884502877397744  0.0890373417700847   T   T   T
  0.1812382260823098  0.1716602457969646  0.0852717650818552   T   T   T
  0.1812026917631376  0.3388427341017544  0.0847001507302361   T   T   T
  0.3045207772583736  0.5898609692884305  0.0894627689568640   T   T   T
  0.1813781135389486  0.6738677824047898  0.0852353740622948   T   T   T
  0.3050873995758364  0.4224451893828004  0.0893356322281643   T   T   T
  0.1816128965386919  0.8402546498148540  0.0861210416480554   T   T   T
  0.5545932691727428  0.0912381670293917  0.1000429104373634   T   T   T
  0.4294364554750335  0.1749679445979362  0.0957637474958689   T   T   T
  0.5533634295508894  0.9214462576900873  0.0998266564538352   T   T   T
  0.4286372546587637  0.8369757548855022  0.0959616022775401   T   T   T
  0.8057721190871761  0.0893573122201774  0.0932335708429464   T   T   T
  0.6818640962899368  0.1756876175578281  0.1013561095917931   T   T   T
  0.8057451417001915  0.9223030675748854  0.0931191352316521   T   T   T
  0.6881528639754073  0.3406618082929097  0.1089641412391155   T   T   T
  0.8115348311047211  0.5910194839813974  0.0994504398917589   T   T   T
  0.6876498760454882  0.6710605399889691  0.1083207444723822   T   T   T
  0.8117193128514907  0.4211905606994795  0.0996268235134745   T   T   T
  0.6811878744764949  0.8357631814340428  0.1008745617745497   T   T   T
  0.4249734201771030  0.3390230813484026  0.0989291215806621   T   T   T
  0.4236750450573487  0.6754043316091387  0.0994316881891437   T   T   T
  0.3070243675747898  0.9233594095594571  0.0892460035891601   T   T   T
  0.5459141517834414  0.5056750902973342  0.1498873314958681   T   T   T
 
  0.00000000E+00  0.00000000E+00  0.00000000E+00
  0.00000000E+00  0.00000000E+00  0.00000000E+00
  0.00000000E+00  0.00000000E+00  0.00000000E+00
  0.00000000E+00  0.00000000E+00  0.00000000E+00
  0.00000000E+00  0.00000000E+00  0.00000000E+00
  0.00000000E+00  0.00000000E+00  0.00000000E+00
  0.00000000E+00  0.00000000E+00  0.00000000E+00
  0.00000000E+00  0.00000000E+00  0.00000000E+00
  0.00000000E+00  0.00000000E+00  0.00000000E+00
  0.00000000E+00  0.00000000E+00  0.00000000E+00
  0.00000000E+00  0.00000000E+00  0.00000000E+00
  0.00000000E+00  0.00000000E+00  0.00000000E+00
  0.00000000E+00  0.00000000E+00  0.00000000E+00
  0.00000000E+00  0.00000000E+00  0.00000000E+00
  0.00000000E+00  0.00000000E+00  0.00000000E+00
  0.00000000E+00  0.00000000E+00  0.00000000E+00
  0.00000000E+00  0.00000000E+00  0.00000000E+00
  0.00000000E+00  0.00000000E+00  0.00000000E+00
  0.00000000E+00  0.00000000E+00  0.00000000E+00
  0.00000000E+00  0.00000000E+00  0.00000000E+00
  0.00000000E+00  0.00000000E+00  0.00000000E+00
  0.00000000E+00  0.00000000E+00  0.00000000E+00
  0.00000000E+00  0.00000000E+00  0.00000000E+00
  0.00000000E+00  0.00000000E+00  0.00000000E+00
  0.00000000E+00  0.00000000E+00  0.00000000E+00
  0.00000000E+00  0.00000000E+00  0.00000000E+00
  0.00000000E+00  0.00000000E+00  0.00000000E+00
  0.00000000E+00  0.00000000E+00  0.00000000E+00
  0.00000000E+00  0.00000000E+00  0.00000000E+00
  0.00000000E+00  0.00000000E+00  0.00000000E+00
  0.00000000E+00  0.00000000E+00  0.00000000E+00
