Title                                   
   1.00000000000000     
     8.5490480000000009    0.0000000000000000    0.0000000000000000
     0.0000000000000000    8.5490480000000009    0.0000000000000000
     0.0000000000000000    0.0000000000000000   20.0000000000000000
    22     2     1
Selective dynamics
Direct
  0.9107691444475574  0.2061018517875589  0.0954447117397623   T   T   T
  0.9083028618973467  0.5014533847585191  0.0953034956271654   T   T   T
  0.9102526911164123  0.7984150747989581  0.0954542245375574   T   T   T
  0.1964288319869573  0.0845722362360971  0.0954625202759773   T   T   T
  0.0758025290218671  0.2051791925366819  0.0954526092465303   T   T   T
  0.1973386865508084  0.9195670470735546  0.0954847823388224   T   T   T
  0.1557999436854276  0.6490991831198968  0.0953871400245503   T   T   T
  0.0777351051030942  0.5021465906483691  0.0953298091980987   T   T   T
  0.1573707178531849  0.3526425223604214  0.0953274837414634   T   T   T
  0.0752581567222766  0.7974955321764561  0.0954707362911898   T   T   T
  0.4933502786782440  0.0865022887188383  0.0953569377708550   T   T   T
  0.3438827040093165  0.1661619185482811  0.0953360781736218   T   T   T
  0.4926492955785012  0.9170834763973528  0.0953633836473616   T   T   T
  0.3457209409756621  0.8390240207036523  0.0954027145116844   T   T   T
  0.7886986403859501  0.0840294060683605  0.0954614591994319   T   T   T
  0.6402881563286755  0.1645591019060831  0.0953622519879612   T   T   T
  0.7896432308615926  0.9190201548912679  0.0954543906171774   T   T   T
  0.8286633879659576  0.6509570657669916  0.0953047341439124   T   T   T
  0.8302295554969887  0.3544993834718958  0.0953213509851737   T   T   T
  0.6421504060187025  0.8374280260149719  0.0953172471914143   T   T   T
  0.3227165970134795  0.6721155882579267  0.0953137477682765   T   T   T
  0.6633140414145922  0.3314579247517544  0.0952345279851489   T   T   T
  0.3191285713589156  0.3278795847120644  0.0951841246254754   T   T   T
  0.6669303200361815  0.6756900325420989  0.0951626392657248   T   T   T
  0.4929872054923010  0.5017094117519600  0.0950118991056412   T   T   T
 
  0.00000000E+00  0.00000000E+00  0.00000000E+00
  0.00000000E+00  0.00000000E+00  0.00000000E+00
  0.00000000E+00  0.00000000E+00  0.00000000E+00
  0.00000000E+00  0.00000000E+00  0.00000000E+00
  0.00000000E+00  0.00000000E+00  0.00000000E+00
  0.00000000E+00  0.00000000E+00  0.00000000E+00
  0.00000000E+00  0.00000000E+00  0.00000000E+00
  0.00000000E+00  0.00000000E+00  0.00000000E+00
  0.00000000E+00  0.00000000E+00  0.00000000E+00
  0.00000000E+00  0.00000000E+00  0.00000000E+00
  0.00000000E+00  0.00000000E+00  0.00000000E+00
  0.00000000E+00  0.00000000E+00  0.00000000E+00
  0.00000000E+00  0.00000000E+00  0.00000000E+00
  0.00000000E+00  0.00000000E+00  0.00000000E+00
  0.00000000E+00  0.00000000E+00  0.00000000E+00
  0.00000000E+00  0.00000000E+00  0.00000000E+00
  0.00000000E+00  0.00000000E+00  0.00000000E+00
  0.00000000E+00  0.00000000E+00  0.00000000E+00
  0.00000000E+00  0.00000000E+00  0.00000000E+00
  0.00000000E+00  0.00000000E+00  0.00000000E+00
  0.00000000E+00  0.00000000E+00  0.00000000E+00
  0.00000000E+00  0.00000000E+00  0.00000000E+00
  0.00000000E+00  0.00000000E+00  0.00000000E+00
  0.00000000E+00  0.00000000E+00  0.00000000E+00
  0.00000000E+00  0.00000000E+00  0.00000000E+00
