Title                                   
   1.00000000000000     
     4.9440799999999996    0.0000000000000000    0.0000000000000000
     0.0000000000000000    8.5647549999999999    0.0000000000000000
     0.0000000000000000    0.0000000000000000   20.0000000000000000
    13     2     1
Selective dynamics
Direct
 -0.0025448025086268  0.2906031213437349  0.0916490592419856   T   T   T
  0.2500000000000000  0.0457706068654761  0.0859082060783567   T   T   T
  0.0069279664981631  0.7978655944867860  0.0989744948124121   T   T   T
  0.0007082516627085  0.9622852363776097  0.0861456033882901   T   T   T
  0.7500000000000000  0.2058774201106135  0.0831158172894247   T   T   T
  0.5025448025086264  0.2906031213437349  0.0916490592419856   T   T   T
  0.7500000000000000  0.0419115818381107  0.0812548661566776   T   T   T
  0.7500000000000000  0.7116011286381221  0.1030185789898805   T   T   T
  0.4930720335018369  0.7978655944867860  0.0989744948124121   T   T   T
  0.7500000000000000  0.5415531606026880  0.1054289521760843   T   T   T
  0.4992917483372913  0.9622852363776097  0.0861456033882901   T   T   T
  0.5081561398912664  0.4487596700921601  0.1055145627271891   T   T   T
 -0.0081561398912665  0.4487596700921601  0.1055145627271891   T   T   T
  0.2500000000000000  0.7271010057211491  0.1100767863314911   T   T   T
  0.2500000000000000  0.2080225747218552  0.0880075037919765   T   T   T
  0.2500000000000000  0.5191352769014040  0.1911338488463639   T   T   T
 
  0.00000000E+00  0.00000000E+00  0.00000000E+00
  0.00000000E+00  0.00000000E+00  0.00000000E+00
  0.00000000E+00  0.00000000E+00  0.00000000E+00
  0.00000000E+00  0.00000000E+00  0.00000000E+00
  0.00000000E+00  0.00000000E+00  0.00000000E+00
  0.00000000E+00  0.00000000E+00  0.00000000E+00
  0.00000000E+00  0.00000000E+00  0.00000000E+00
  0.00000000E+00  0.00000000E+00  0.00000000E+00
  0.00000000E+00  0.00000000E+00  0.00000000E+00
  0.00000000E+00  0.00000000E+00  0.00000000E+00
  0.00000000E+00  0.00000000E+00  0.00000000E+00
  0.00000000E+00  0.00000000E+00  0.00000000E+00
  0.00000000E+00  0.00000000E+00  0.00000000E+00
  0.00000000E+00  0.00000000E+00  0.00000000E+00
  0.00000000E+00  0.00000000E+00  0.00000000E+00
  0.00000000E+00  0.00000000E+00  0.00000000E+00
