Title                                   
   1.00000000000000     
     9.8694509999999998    0.0000000000000000    0.0000000000000000
     0.0000000000000000    8.5490480000000009    0.0000000000000000
     0.0000000000000000    0.0000000000000000   20.0000000000000000
    28     3     1
Selective dynamics
Direct
  0.0559783361664605  0.0897056697848631  0.0818087915351437   T   T   T
  0.9312821257221532  0.1735905044623055  0.0835794922134931   T   T   T
  0.0570036013636402  0.9222283801038392  0.0813028789745212   T   T   T
  0.9307773531429160  0.3406944739298808  0.0870150520639305   T   T   T
  0.0563125128818478  0.5911998506440524  0.0848766234217913   T   T   T
  0.0556801092647168  0.4242025581993539  0.0860489793969084   T   T   T
  0.9325106096977671  0.8381561256626164  0.0837531898022849   T   T   T
  0.3059781589934173  0.0887212350460129  0.0861217577124417   T   T   T
  0.1818172582116479  0.1729207290675109  0.0848117018885072   T   T   T
  0.1816847259744565  0.3399373299092383  0.0885042549253950   T   T   T
  0.3037233985128992  0.5892029508098998  0.1008033784540930   T   T   T
  0.1810302338031523  0.6740811162874240  0.0872713637314984   T   T   T
  0.3057713437111375  0.4213856028884838  0.0992743493337983   T   T   T
  0.1828446504423447  0.8406641906552537  0.0837953455590718   T   T   T
  0.5557666301201400  0.0878374598814712  0.0919264396899897   T   T   T
  0.5547359290025964  0.9226872535553288  0.0995624385703799   T   T   T
  0.4312174458348600  0.3327882351687393  0.1041048120395677   T   T   T
  0.4270373834811904  0.8400848265477964  0.1032670687933422   T   T   T
  0.8067810454922739  0.0886069618057181  0.0849784887469693   T   T   T
  0.6804447450479808  0.1714350888507474  0.0898528404951714   T   T   T
  0.8069052901833027  0.9224808493280003  0.0869582100217249   T   T   T
  0.6817289729733315  0.3372651712608764  0.1003787928578780   T   T   T
  0.8097335627401404  0.5932023352038028  0.1006414238552174   T   T   T
  0.8067877941469542  0.4237905570718233  0.0968237038398069   T   T   T
  0.6830489074069656  0.8413463408710395  0.1003075101210336   T   T   T
  0.4183878348607279  0.6817103194774895  0.1176441337556048   T   T   T
  0.5548054590976231  0.4057793854417738  0.1167704479077741   T   T   T
  0.6945059837614608  0.6801684216711023  0.1164723517603864   T   T   T
  0.3056217939727193  0.9251173267056386  0.0863319221658676   T   T   T
  0.4288420823871516  0.1678682070777498  0.0911824555678783   T   T   T
  0.9329543721831896  0.6730391291989960  0.0854113869574035   T   T   T
  0.5579393494188415  0.5883474134311730  0.1940934138411415   T   T   T
 
  0.00000000E+00  0.00000000E+00  0.00000000E+00
  0.00000000E+00  0.00000000E+00  0.00000000E+00
  0.00000000E+00  0.00000000E+00  0.00000000E+00
  0.00000000E+00  0.00000000E+00  0.00000000E+00
  0.00000000E+00  0.00000000E+00  0.00000000E+00
  0.00000000E+00  0.00000000E+00  0.00000000E+00
  0.00000000E+00  0.00000000E+00  0.00000000E+00
  0.00000000E+00  0.00000000E+00  0.00000000E+00
  0.00000000E+00  0.00000000E+00  0.00000000E+00
  0.00000000E+00  0.00000000E+00  0.00000000E+00
  0.00000000E+00  0.00000000E+00  0.00000000E+00
  0.00000000E+00  0.00000000E+00  0.00000000E+00
  0.00000000E+00  0.00000000E+00  0.00000000E+00
  0.00000000E+00  0.00000000E+00  0.00000000E+00
  0.00000000E+00  0.00000000E+00  0.00000000E+00
  0.00000000E+00  0.00000000E+00  0.00000000E+00
  0.00000000E+00  0.00000000E+00  0.00000000E+00
  0.00000000E+00  0.00000000E+00  0.00000000E+00
  0.00000000E+00  0.00000000E+00  0.00000000E+00
  0.00000000E+00  0.00000000E+00  0.00000000E+00
  0.00000000E+00  0.00000000E+00  0.00000000E+00
  0.00000000E+00  0.00000000E+00  0.00000000E+00
  0.00000000E+00  0.00000000E+00  0.00000000E+00
  0.00000000E+00  0.00000000E+00  0.00000000E+00
  0.00000000E+00  0.00000000E+00  0.00000000E+00
  0.00000000E+00  0.00000000E+00  0.00000000E+00
  0.00000000E+00  0.00000000E+00  0.00000000E+00
  0.00000000E+00  0.00000000E+00  0.00000000E+00
  0.00000000E+00  0.00000000E+00  0.00000000E+00
  0.00000000E+00  0.00000000E+00  0.00000000E+00
  0.00000000E+00  0.00000000E+00  0.00000000E+00
  0.00000000E+00  0.00000000E+00  0.00000000E+00
