Title                                   
   1.00000000000000     
     4.9440799999999996    0.0000000000000000    0.0000000000000000
     0.0000000000000000   17.1295089999999988    0.0000000000000000
     0.0000000000000000    0.0000000000000000   20.0000000000000000
    27     3     1
Selective dynamics
Direct
 -0.0104233233133893  0.1058590263668420  0.2962353609945254   T   T   T
  0.2373729649258995  0.1486242077542815  0.2969765528894293   T   T   T
  0.2317311354049880  0.2327570140879482  0.2998030421524658   T   T   T
 -0.0213535907923685  0.2746112574385058  0.3042728758479561   T   T   T
  0.0219469661869933  0.6000469060948765  0.2949186830062147   T   T   T
  0.2636774041196291  0.7256192566480889  0.2962390512545609   T   T   T
  0.0064052235306654  0.8523721109606616  0.2945885410742675   T   T   T
  0.2534443646582362  0.8949851043350524  0.2949152142900564   T   T   T
  0.2473221483712698  0.9792934499344071  0.2950532806563916   T   T   T
  0.0123597698724535  0.7677762931780161  0.2946941960075254   T   T   T
  0.4894078863340990  0.1060097108735858  0.2952309569312743   T   T   T
  0.7378231416997101  0.1481750641264893  0.2957453479480661   T   T   T
  0.7309646471459201  0.2325386893670514  0.2974800174446571   T   T   T
  0.4953124805737283  0.0216111079212055  0.2948301214945909   T   T   T
  0.7393747169648650  0.3951763436838090  0.3061582245197547   T   T   T
  0.7620923001706876  0.4817086587386739  0.3058470773789176   T   T   T
  0.4791833557921224  0.2753641880423977  0.2970117214736672   T   T   T
  0.5218111602510649  0.6006437420543163  0.3031085321959046   T   T   T
  0.7628255828000877  0.7265686455389370  0.2946388704281116   T   T   T
  0.5042432696729590  0.8525484882191189  0.2949366185019588   T   T   T
  0.7533081028859464  0.8945284155953547  0.2945782876834310   T   T   T
  0.7472895075604878  0.9790625852208390  0.2947107221200261   T   T   T
  0.5104509737941698  0.7678357769568106  0.2954584519457288   T   T   T
  0.7699942622722504  0.6428964110382536  0.2958053409961732   T   T   T
 -0.0045768356913140  0.0215993480956957  0.2952821844129737   T   T   T
  0.0109514341773762  0.5169057449171441  0.2938406466313311   T   T   T
  0.4914337083737424  0.3593824998806885  0.2964110039099155   T   T   T
  0.5255267630340046  0.5227349557451776  0.3173446993834513   T   T   T
 -0.0273363224135072  0.3539294322097352  0.3167134896664069   T   T   T
  0.2694430918948904  0.6419263159081627  0.2984668913738707   T   T   T
  0.2480007097423320  0.4382512490678705  0.3337639953863471   T   T   T
 
  0.00000000E+00  0.00000000E+00  0.00000000E+00
  0.00000000E+00  0.00000000E+00  0.00000000E+00
  0.00000000E+00  0.00000000E+00  0.00000000E+00
  0.00000000E+00  0.00000000E+00  0.00000000E+00
  0.00000000E+00  0.00000000E+00  0.00000000E+00
  0.00000000E+00  0.00000000E+00  0.00000000E+00
  0.00000000E+00  0.00000000E+00  0.00000000E+00
  0.00000000E+00  0.00000000E+00  0.00000000E+00
  0.00000000E+00  0.00000000E+00  0.00000000E+00
  0.00000000E+00  0.00000000E+00  0.00000000E+00
  0.00000000E+00  0.00000000E+00  0.00000000E+00
  0.00000000E+00  0.00000000E+00  0.00000000E+00
  0.00000000E+00  0.00000000E+00  0.00000000E+00
  0.00000000E+00  0.00000000E+00  0.00000000E+00
  0.00000000E+00  0.00000000E+00  0.00000000E+00
  0.00000000E+00  0.00000000E+00  0.00000000E+00
  0.00000000E+00  0.00000000E+00  0.00000000E+00
  0.00000000E+00  0.00000000E+00  0.00000000E+00
  0.00000000E+00  0.00000000E+00  0.00000000E+00
  0.00000000E+00  0.00000000E+00  0.00000000E+00
  0.00000000E+00  0.00000000E+00  0.00000000E+00
  0.00000000E+00  0.00000000E+00  0.00000000E+00
  0.00000000E+00  0.00000000E+00  0.00000000E+00
  0.00000000E+00  0.00000000E+00  0.00000000E+00
  0.00000000E+00  0.00000000E+00  0.00000000E+00
  0.00000000E+00  0.00000000E+00  0.00000000E+00
  0.00000000E+00  0.00000000E+00  0.00000000E+00
  0.00000000E+00  0.00000000E+00  0.00000000E+00
  0.00000000E+00  0.00000000E+00  0.00000000E+00
  0.00000000E+00  0.00000000E+00  0.00000000E+00
  0.00000000E+00  0.00000000E+00  0.00000000E+00
