Title                                   
   1.00000000000000     
     9.8694509999999998    0.0000000000000000    0.0000000000000000
     0.0000000000000000    8.5490480000000009    0.0000000000000000
     0.0000000000000000    0.0000000000000000   20.0000000000000000
    28     3     1
Selective dynamics
Direct
  0.0561981509682692  0.0913397878356639  0.0837417438118507   T   T   T
  0.9316120152233186  0.1731275787133978  0.0854487530169405   T   T   T
  0.0569516214668307  0.9241217778814307  0.0837877504960045   T   T   T
  0.9313427115445029  0.3398049225257300  0.0887764016563660   T   T   T
  0.0573244173250149  0.5898846354413479  0.0852285634754337   T   T   T
  0.9324743506574343  0.6722203120915512  0.0875574485636434   T   T   T
  0.0577730450869616  0.4228479514701863  0.0867674202257600   T   T   T
  0.9317011228662126  0.8391625730453097  0.0856129515968855   T   T   T
  0.3055825895442631  0.0892879588740277  0.0878923793423388   T   T   T
  0.1821615518956327  0.1737984832816253  0.0857453506511377   T   T   T
  0.1845205089520622  0.3410648886010746  0.0879167738221902   T   T   T
  0.3046735974432030  0.5935823051688994  0.0971299010626517   T   T   T
  0.1814638402047387  0.6745677090030664  0.0871531852033113   T   T   T
  0.3109197114622188  0.4261841147803776  0.0953241350745569   T   T   T
  0.1804856147057042  0.8414750937370646  0.0865009889707516   T   T   T
  0.5560792215876155  0.0856873470266501  0.0939105292608608   T   T   T
  0.4309556082348823  0.1699300620896362  0.0927161820335903   T   T   T
  0.5536957084325131  0.9199755408056580  0.0983105681651729   T   T   T
  0.4336697547311462  0.3346379188909194  0.0997309867468565   T   T   T
  0.4249968048472579  0.8421897216501906  0.1002502746343560   T   T   T
  0.8068424836963781  0.0885488683324986  0.0865746620270527   T   T   T
  0.6814798424093311  0.1686554424056624  0.0919923835971694   T   T   T
  0.8064105437459137  0.9226063000532331  0.0879588365366932   T   T   T
  0.6810088876897274  0.3334170956822616  0.1005062118513846   T   T   T
  0.8089443752332384  0.5897224525832225  0.0987592528627968   T   T   T
  0.6915782890111219  0.6778356381993905  0.1130168968773737   T   T   T
  0.8054779414099412  0.4215836214365960  0.0972130017079346   T   T   T
  0.6825721632676487  0.8388093748569730  0.0990979970680653   T   T   T
  0.4155980527762598  0.6862210652765933  0.1150501554828412   T   T   T
  0.5580056355867252  0.4042977121744800  0.1144573449594569   T   T   T
  0.3047440369532086  0.9253117819606971  0.0893378433450487   T   T   T
  0.5523948010407287  0.5883459641245926  0.1722081258735581   T   T   T
 
  0.00000000E+00  0.00000000E+00  0.00000000E+00
  0.00000000E+00  0.00000000E+00  0.00000000E+00
  0.00000000E+00  0.00000000E+00  0.00000000E+00
  0.00000000E+00  0.00000000E+00  0.00000000E+00
  0.00000000E+00  0.00000000E+00  0.00000000E+00
  0.00000000E+00  0.00000000E+00  0.00000000E+00
  0.00000000E+00  0.00000000E+00  0.00000000E+00
  0.00000000E+00  0.00000000E+00  0.00000000E+00
  0.00000000E+00  0.00000000E+00  0.00000000E+00
  0.00000000E+00  0.00000000E+00  0.00000000E+00
  0.00000000E+00  0.00000000E+00  0.00000000E+00
  0.00000000E+00  0.00000000E+00  0.00000000E+00
  0.00000000E+00  0.00000000E+00  0.00000000E+00
  0.00000000E+00  0.00000000E+00  0.00000000E+00
  0.00000000E+00  0.00000000E+00  0.00000000E+00
  0.00000000E+00  0.00000000E+00  0.00000000E+00
  0.00000000E+00  0.00000000E+00  0.00000000E+00
  0.00000000E+00  0.00000000E+00  0.00000000E+00
  0.00000000E+00  0.00000000E+00  0.00000000E+00
  0.00000000E+00  0.00000000E+00  0.00000000E+00
  0.00000000E+00  0.00000000E+00  0.00000000E+00
  0.00000000E+00  0.00000000E+00  0.00000000E+00
  0.00000000E+00  0.00000000E+00  0.00000000E+00
  0.00000000E+00  0.00000000E+00  0.00000000E+00
  0.00000000E+00  0.00000000E+00  0.00000000E+00
  0.00000000E+00  0.00000000E+00  0.00000000E+00
  0.00000000E+00  0.00000000E+00  0.00000000E+00
  0.00000000E+00  0.00000000E+00  0.00000000E+00
  0.00000000E+00  0.00000000E+00  0.00000000E+00
  0.00000000E+00  0.00000000E+00  0.00000000E+00
  0.00000000E+00  0.00000000E+00  0.00000000E+00
  0.00000000E+00  0.00000000E+00  0.00000000E+00
