Title                                   
   1.00000000000000     
     4.9440799999999996    0.0000000000000000    0.0000000000000000
     0.0000000000000000    8.5647549999999999    0.0000000000000000
     0.0000000000000000    0.0000000000000000   20.0000000000000000
    12     2     1
Selective dynamics
Direct
  0.2493122106506045  0.2089145124180638  0.1005318015073004   T   T   T
 -0.0031904035351806  0.2977151841333140  0.1005353551581128   T   T   T
  0.2507338378611687  0.0406725714460154  0.1005425060077712   T   T   T
  0.0006762787733018  0.9546330682901616  0.1005411541914338   T   T   T
  0.7485857035791817  0.2099904997944746  0.1006025035967923   T   T   T
  0.4993809395796031  0.2949009548329143  0.1005411275635778   T   T   T
  0.7514709154920606  0.0395624010961005  0.1006069910893981   T   T   T
  0.7513884555586127  0.7125860249834480  0.1005528852258491   T   T   T
  0.7485353309749061  0.5370023025228406  0.1005465710048121   T   T   T
  0.5031944087787976  0.9518678996846688  0.1005682324208275   T   T   T
  0.5025201170915666  0.4610848330460661  0.1005099222129187   T   T   T
 -0.0024974663725064  0.7884369580815770  0.1004962289042435   T   T   T
 -0.0090938960984126  0.4615086428974990  0.1005039966722178   T   T   T
  0.5090240252854301  0.7880930190633026  0.1005426553110744   T   T   T
  0.2499595423808670  0.6247121277095545  0.1003580691336737   T   T   T
 
  0.00000000E+00  0.00000000E+00  0.00000000E+00
  0.00000000E+00  0.00000000E+00  0.00000000E+00
  0.00000000E+00  0.00000000E+00  0.00000000E+00
  0.00000000E+00  0.00000000E+00  0.00000000E+00
  0.00000000E+00  0.00000000E+00  0.00000000E+00
  0.00000000E+00  0.00000000E+00  0.00000000E+00
  0.00000000E+00  0.00000000E+00  0.00000000E+00
  0.00000000E+00  0.00000000E+00  0.00000000E+00
  0.00000000E+00  0.00000000E+00  0.00000000E+00
  0.00000000E+00  0.00000000E+00  0.00000000E+00
  0.00000000E+00  0.00000000E+00  0.00000000E+00
  0.00000000E+00  0.00000000E+00  0.00000000E+00
  0.00000000E+00  0.00000000E+00  0.00000000E+00
  0.00000000E+00  0.00000000E+00  0.00000000E+00
  0.00000000E+00  0.00000000E+00  0.00000000E+00
