Title                                   
   1.00000000000000     
     9.8694509999999998    0.0000000000000000    0.0000000000000000
     0.0000000000000000    8.5490480000000009    0.0000000000000000
     0.0000000000000000    0.0000000000000000   20.0000000000000000
    27     3     1
Selective dynamics
Direct
  0.0564165039193034  0.0897869734906162  0.0883911878841477   T   T   T
  0.9311640051911477  0.1719410464433852  0.0901547706466037   T   T   T
  0.0579744392611386  0.9230554092232787  0.0887587351290256   T   T   T
  0.9340386424377991  0.3383740268239596  0.0889155704481772   T   T   T
  0.0575918090159796  0.5901299882412427  0.0847787205423866   T   T   T
  0.9341387018505347  0.6742237950632753  0.0889477115379800   T   T   T
  0.0576620727818387  0.4227613452677760  0.0846739888977767   T   T   T
  0.9316221716345577  0.8400984470580500  0.0902535791506714   T   T   T
  0.3062745699451601  0.0887651397619971  0.0925949062784897   T   T   T
  0.1805159999765761  0.1709382760564283  0.0882831824006642   T   T   T
  0.1807820339338360  0.3394076526482644  0.0862154930934712   T   T   T
  0.3032973088493079  0.5901379836571023  0.0911489159329466   T   T   T
  0.1811791833066177  0.6729062896238557  0.0865937340583300   T   T   T
  0.3039799150848668  0.4218723831235304  0.0910070496185982   T   T   T
  0.1810773987954527  0.8409403106107873  0.0890235243760463   T   T   T
  0.5540061065206375  0.0911610221494369  0.1016289253059946   T   T   T
  0.4283776889702066  0.1759122281171235  0.0984723533670262   T   T   T
  0.5529205209540804  0.9216639158949740  0.1014612410925243   T   T   T
  0.4276910624397631  0.8357221160749111  0.0986775894102406   T   T   T
  0.8055457865340427  0.0900065535559010  0.0951520667638586   T   T   T
  0.6815273016807848  0.1761704388950602  0.1015195473207859   T   T   T
  0.8056954882332704  0.9218886793317160  0.0950082745565065   T   T   T
  0.6887439526522782  0.3422164387940443  0.1057338887133002   T   T   T
  0.8122226074723987  0.5913061554036617  0.0965056577044135   T   T   T
  0.6886140017201446  0.6701037266469104  0.1051811078605816   T   T   T
  0.8122490177110888  0.4212330491145073  0.0966654563670186   T   T   T
  0.6809755926801918  0.8356853099629001  0.1010862944930075   T   T   T
  0.4235830481513025  0.3393287969341464  0.1001441551173230   T   T   T
  0.4225273619981714  0.6748415113922535  0.1009342911381123   T   T   T
  0.3064722782370082  0.9223950737250065  0.0928121527214303   T   T   T
  0.5542684280605306  0.5059009169139023  0.1202409280726097   T   T   T
 
  0.00000000E+00  0.00000000E+00  0.00000000E+00
  0.00000000E+00  0.00000000E+00  0.00000000E+00
  0.00000000E+00  0.00000000E+00  0.00000000E+00
  0.00000000E+00  0.00000000E+00  0.00000000E+00
  0.00000000E+00  0.00000000E+00  0.00000000E+00
  0.00000000E+00  0.00000000E+00  0.00000000E+00
  0.00000000E+00  0.00000000E+00  0.00000000E+00
  0.00000000E+00  0.00000000E+00  0.00000000E+00
  0.00000000E+00  0.00000000E+00  0.00000000E+00
  0.00000000E+00  0.00000000E+00  0.00000000E+00
  0.00000000E+00  0.00000000E+00  0.00000000E+00
  0.00000000E+00  0.00000000E+00  0.00000000E+00
  0.00000000E+00  0.00000000E+00  0.00000000E+00
  0.00000000E+00  0.00000000E+00  0.00000000E+00
  0.00000000E+00  0.00000000E+00  0.00000000E+00
  0.00000000E+00  0.00000000E+00  0.00000000E+00
  0.00000000E+00  0.00000000E+00  0.00000000E+00
  0.00000000E+00  0.00000000E+00  0.00000000E+00
  0.00000000E+00  0.00000000E+00  0.00000000E+00
  0.00000000E+00  0.00000000E+00  0.00000000E+00
  0.00000000E+00  0.00000000E+00  0.00000000E+00
  0.00000000E+00  0.00000000E+00  0.00000000E+00
  0.00000000E+00  0.00000000E+00  0.00000000E+00
  0.00000000E+00  0.00000000E+00  0.00000000E+00
  0.00000000E+00  0.00000000E+00  0.00000000E+00
  0.00000000E+00  0.00000000E+00  0.00000000E+00
  0.00000000E+00  0.00000000E+00  0.00000000E+00
  0.00000000E+00  0.00000000E+00  0.00000000E+00
  0.00000000E+00  0.00000000E+00  0.00000000E+00
  0.00000000E+00  0.00000000E+00  0.00000000E+00
  0.00000000E+00  0.00000000E+00  0.00000000E+00
