Title                                   
   1.00000000000000     
     9.8694509999999998    0.0000000000000000    0.0000000000000000
     0.0000000000000000    8.5490480000000009    0.0000000000000000
     0.0000000000000000    0.0000000000000000   20.0000000000000000
    29     2     1
Selective dynamics
Direct
  0.0560044204602503  0.0918188339024428  0.0798679629505652   T   T   T
  0.9304848802117812  0.1741955335736687  0.0836180224588871   T   T   T
  0.0559044607390846  0.9246491003914287  0.0791067718055585   T   T   T
  0.9290350262756348  0.3406902221388461  0.0893804509505291   T   T   T
  0.0557648664992748  0.5890356310335880  0.0825184789082342   T   T   T
  0.9325052339632768  0.6733396829799760  0.0871542904232040   T   T   T
  0.0560985105026785  0.4231464794322679  0.0856249601712066   T   T   T
  0.9317235668842787  0.8400896362104291  0.0836751100735128   T   T   T
  0.3052533406969273  0.0894176074575491  0.0845974764111963   T   T   T
  0.1815625245875518  0.1745087729267604  0.0822458106496261   T   T   T
  0.3046243499501470  0.9236889616970677  0.0864870534919178   T   T   T
  0.1829560389012613  0.3416606056011034  0.0861242936383036   T   T   T
  0.3028755175492871  0.5940574284354129  0.0955807468850026   T   T   T
  0.1795333754013055  0.6736605117480411  0.0831519910575980   T   T   T
  0.3090620164661682  0.4245841378281907  0.0940246204237452   T   T   T
  0.1799805266587087  0.8406404716012670  0.0817326854657947   T   T   T
  0.5554509077105548  0.0832770080659872  0.0961754614283757   T   T   T
  0.4309463546127816  0.1684838669416961  0.0908541341744664   T   T   T
  0.5556753959138950  0.9184215397231068  0.1047624820873211   T   T   T
  0.4335989964672673  0.3331341458779568  0.0981305341463162   T   T   T
  0.4251765855431492  0.8391707010801392  0.1015534975556245   T   T   T
  0.8068834694333659  0.0891528339972786  0.0866583797179325   T   T   T
  0.6813346729988246  0.1684248141580351  0.0937946252922332   T   T   T
  0.8076381825586547  0.9233724978708959  0.0890770445132921   T   T   T
  0.6791262116396921  0.3326750784144055  0.1028706942138045   T   T   T
  0.8121621819316709  0.5928616536088689  0.1068370243305599   T   T   T
  0.7044698706798931  0.6863023971594699  0.1295946489484587   T   T   T
  0.8051676167310481  0.4229310678427183  0.1020166818044989   T   T   T
  0.6876304833519622  0.8413250658941389  0.1085330860368799   T   T   T
  0.4134388154885714  0.6818548781397753  0.1122211591933064   T   T   T
  0.5550226264010477  0.4020964857681237  0.1121965934727926   T   T   T
  0.5525479727900112  0.5875783484993726  0.1655082273192899   T   T   T
 
  0.00000000E+00  0.00000000E+00  0.00000000E+00
  0.00000000E+00  0.00000000E+00  0.00000000E+00
  0.00000000E+00  0.00000000E+00  0.00000000E+00
  0.00000000E+00  0.00000000E+00  0.00000000E+00
  0.00000000E+00  0.00000000E+00  0.00000000E+00
  0.00000000E+00  0.00000000E+00  0.00000000E+00
  0.00000000E+00  0.00000000E+00  0.00000000E+00
  0.00000000E+00  0.00000000E+00  0.00000000E+00
  0.00000000E+00  0.00000000E+00  0.00000000E+00
  0.00000000E+00  0.00000000E+00  0.00000000E+00
  0.00000000E+00  0.00000000E+00  0.00000000E+00
  0.00000000E+00  0.00000000E+00  0.00000000E+00
  0.00000000E+00  0.00000000E+00  0.00000000E+00
  0.00000000E+00  0.00000000E+00  0.00000000E+00
  0.00000000E+00  0.00000000E+00  0.00000000E+00
  0.00000000E+00  0.00000000E+00  0.00000000E+00
  0.00000000E+00  0.00000000E+00  0.00000000E+00
  0.00000000E+00  0.00000000E+00  0.00000000E+00
  0.00000000E+00  0.00000000E+00  0.00000000E+00
  0.00000000E+00  0.00000000E+00  0.00000000E+00
  0.00000000E+00  0.00000000E+00  0.00000000E+00
  0.00000000E+00  0.00000000E+00  0.00000000E+00
  0.00000000E+00  0.00000000E+00  0.00000000E+00
  0.00000000E+00  0.00000000E+00  0.00000000E+00
  0.00000000E+00  0.00000000E+00  0.00000000E+00
  0.00000000E+00  0.00000000E+00  0.00000000E+00
  0.00000000E+00  0.00000000E+00  0.00000000E+00
  0.00000000E+00  0.00000000E+00  0.00000000E+00
  0.00000000E+00  0.00000000E+00  0.00000000E+00
  0.00000000E+00  0.00000000E+00  0.00000000E+00
  0.00000000E+00  0.00000000E+00  0.00000000E+00
  0.00000000E+00  0.00000000E+00  0.00000000E+00
