Title                                   
   1.00000000000000     
     9.8694509999999998    0.0000000000000000    0.0000000000000000
     0.0000000000000000    8.5490480000000009    0.0000000000000000
     0.0000000000000000    0.0000000000000000   20.0000000000000000
    28     3     1
Selective dynamics
Direct
  0.0562872947731290  0.0902537861343974  0.0844143210493940   T   T   T
  0.9305932889027104  0.1736044680070213  0.0877567845179105   T   T   T
  0.0562728704546278  0.9222118015871374  0.0817879261099240   T   T   T
  0.9308618166563029  0.3395805592739865  0.0916700867009435   T   T   T
  0.0562034361349824  0.5889740204625107  0.0845178595423135   T   T   T
  0.9315560376477441  0.6701661860206560  0.0851682311934231   T   T   T
  0.0562613642269678  0.4224362554869454  0.0894805723994224   T   T   T
  0.9304742678946125  0.8382771259606019  0.0835826696158537   T   T   T
  0.3056708361492860  0.0894171482372189  0.0872365581695378   T   T   T
  0.1820195501360077  0.1736383334679590  0.0872468047750899   T   T   T
  0.3067368176413451  0.9238613933516423  0.0863088861171108   T   T   T
  0.1816723685219535  0.3395259342406964  0.0911944767237385   T   T   T
  0.3046873602548952  0.5889160258225602  0.0956116960079549   T   T   T
  0.1808740488153180  0.6701968652012509  0.0843507531914931   T   T   T
  0.1821333904976886  0.8383104085353477  0.0828016352436521   T   T   T
  0.5563528008619513  0.0882294115943048  0.0959207059571055   T   T   T
  0.4308106713307497  0.1711066217182277  0.0937789837128610   T   T   T
  0.4317941325910775  0.3364154020255747  0.1025955881518869   T   T   T
  0.4295622601940627  0.8399301948424024  0.0974099642768417   T   T   T
  0.8069669206001048  0.0893373720039384  0.0881217787053911   T   T   T
  0.6818863376060474  0.1711565338271880  0.0945327958900092   T   T   T
  0.8059342708213230  0.9237757101275808  0.0874258616751845   T   T   T
  0.6808455061748084  0.3365161653223195  0.1033152336566203   T   T   T
  0.8079895167733452  0.5889804338310189  0.0971331257979677   T   T   T
  0.6831723136204928  0.8399082555527838  0.0986730055275481   T   T   T
  0.4215949208271198  0.6771282361400461  0.1102717091379601   T   T   T
  0.5560924654880293  0.4119779724331376  0.1190722796762159   T   T   T
  0.6912712165507078  0.6772595095520103  0.1122266149343087   T   T   T
  0.5563814969256078  0.9208643058201272  0.0987405852332614   T   T   T
  0.3067919515856548  0.4217507869286051  0.0979060749723653   T   T   T
  0.8058333881085605  0.4218042768484769  0.0989627687677062   T   T   T
  0.5540540812327942  0.6047344996423265  0.1864586625690209   T   T   T
 
  0.00000000E+00  0.00000000E+00  0.00000000E+00
  0.00000000E+00  0.00000000E+00  0.00000000E+00
  0.00000000E+00  0.00000000E+00  0.00000000E+00
  0.00000000E+00  0.00000000E+00  0.00000000E+00
  0.00000000E+00  0.00000000E+00  0.00000000E+00
  0.00000000E+00  0.00000000E+00  0.00000000E+00
  0.00000000E+00  0.00000000E+00  0.00000000E+00
  0.00000000E+00  0.00000000E+00  0.00000000E+00
  0.00000000E+00  0.00000000E+00  0.00000000E+00
  0.00000000E+00  0.00000000E+00  0.00000000E+00
  0.00000000E+00  0.00000000E+00  0.00000000E+00
  0.00000000E+00  0.00000000E+00  0.00000000E+00
  0.00000000E+00  0.00000000E+00  0.00000000E+00
  0.00000000E+00  0.00000000E+00  0.00000000E+00
  0.00000000E+00  0.00000000E+00  0.00000000E+00
  0.00000000E+00  0.00000000E+00  0.00000000E+00
  0.00000000E+00  0.00000000E+00  0.00000000E+00
  0.00000000E+00  0.00000000E+00  0.00000000E+00
  0.00000000E+00  0.00000000E+00  0.00000000E+00
  0.00000000E+00  0.00000000E+00  0.00000000E+00
  0.00000000E+00  0.00000000E+00  0.00000000E+00
  0.00000000E+00  0.00000000E+00  0.00000000E+00
  0.00000000E+00  0.00000000E+00  0.00000000E+00
  0.00000000E+00  0.00000000E+00  0.00000000E+00
  0.00000000E+00  0.00000000E+00  0.00000000E+00
  0.00000000E+00  0.00000000E+00  0.00000000E+00
  0.00000000E+00  0.00000000E+00  0.00000000E+00
  0.00000000E+00  0.00000000E+00  0.00000000E+00
  0.00000000E+00  0.00000000E+00  0.00000000E+00
  0.00000000E+00  0.00000000E+00  0.00000000E+00
  0.00000000E+00  0.00000000E+00  0.00000000E+00
  0.00000000E+00  0.00000000E+00  0.00000000E+00
