Title                                   
   1.00000000000000     
     9.8694509999999998    0.0000000000000000    0.0000000000000000
     0.0000000000000000    8.5490480000000009    0.0000000000000000
     0.0000000000000000    0.0000000000000000   20.0000000000000000
    27     3     1
Selective dynamics
Direct
  0.0566839437755567  0.0899673191610652  0.0848815783360682   T   T   T
  0.9313984899349718  0.1721934491244268  0.0877826068020080   T   T   T
  0.0580963837809950  0.9229407161425403  0.0853070195464816   T   T   T
  0.9332751150885918  0.3388614065078385  0.0880130748674786   T   T   T
  0.0572965349268532  0.5903132212945374  0.0827813503848573   T   T   T
  0.9332169923750712  0.6735938499061361  0.0881687087139243   T   T   T
  0.0574934138117056  0.4226577009238108  0.0825562599189652   T   T   T
  0.9317081582629076  0.8396808725723267  0.0879375016080444   T   T   T
  0.3068223080391408  0.0888770180600589  0.0893167579910877   T   T   T
  0.1810393747613401  0.1711918124751276  0.0847882720248635   T   T   T
  0.1812239600662587  0.3398308680172204  0.0833253016382973   T   T   T
  0.3048803544154301  0.5906336427640305  0.0888719874165134   T   T   T
  0.1814368722652309  0.6727469891777588  0.0838159828499490   T   T   T
  0.3057916733537154  0.4217754946870388  0.0887087019676848   T   T   T
  0.1814363830146746  0.8409030613339028  0.0856934862365280   T   T   T
  0.5546515816698109  0.0909382244479981  0.1016143816130483   T   T   T
  0.4290263773617525  0.1756121073673576  0.0967246800305128   T   T   T
  0.5534687195060811  0.9218224574669480  0.1013560946171247   T   T   T
  0.4280258107707082  0.8362826046531593  0.0970024696251286   T   T   T
  0.8061783314165973  0.0895589087935820  0.0932740062199381   T   T   T
  0.6828626707572034  0.1751545570000638  0.1028381293380034   T   T   T
  0.8061472069214325  0.9219129520422213  0.0930805787619656   T   T   T
  0.6891518418857570  0.3398934217673531  0.1117002020919923   T   T   T
  0.8107951119353634  0.5916994652521612  0.0996758410129962   T   T   T
  0.6883256364304180  0.6715879136671137  0.1105227123878266   T   T   T
  0.8110920885880486  0.4204055096180682  0.0999534705904759   T   T   T
  0.6819134629656850  0.8362228008901524  0.1021279524060517   T   T   T
  0.4246788372056837  0.3389081746556811  0.0992944787478275   T   T   T
  0.4230433621283167  0.6760670756979076  0.1001281774118814   T   T   T
  0.3068348560540071  0.9228657451355023  0.0896078096893421   T   T   T
  0.5451391465307087  0.5057756593969159  0.1501154251531822   T   T   T
 
  0.00000000E+00  0.00000000E+00  0.00000000E+00
  0.00000000E+00  0.00000000E+00  0.00000000E+00
  0.00000000E+00  0.00000000E+00  0.00000000E+00
  0.00000000E+00  0.00000000E+00  0.00000000E+00
  0.00000000E+00  0.00000000E+00  0.00000000E+00
  0.00000000E+00  0.00000000E+00  0.00000000E+00
  0.00000000E+00  0.00000000E+00  0.00000000E+00
  0.00000000E+00  0.00000000E+00  0.00000000E+00
  0.00000000E+00  0.00000000E+00  0.00000000E+00
  0.00000000E+00  0.00000000E+00  0.00000000E+00
  0.00000000E+00  0.00000000E+00  0.00000000E+00
  0.00000000E+00  0.00000000E+00  0.00000000E+00
  0.00000000E+00  0.00000000E+00  0.00000000E+00
  0.00000000E+00  0.00000000E+00  0.00000000E+00
  0.00000000E+00  0.00000000E+00  0.00000000E+00
  0.00000000E+00  0.00000000E+00  0.00000000E+00
  0.00000000E+00  0.00000000E+00  0.00000000E+00
  0.00000000E+00  0.00000000E+00  0.00000000E+00
  0.00000000E+00  0.00000000E+00  0.00000000E+00
  0.00000000E+00  0.00000000E+00  0.00000000E+00
  0.00000000E+00  0.00000000E+00  0.00000000E+00
  0.00000000E+00  0.00000000E+00  0.00000000E+00
  0.00000000E+00  0.00000000E+00  0.00000000E+00
  0.00000000E+00  0.00000000E+00  0.00000000E+00
  0.00000000E+00  0.00000000E+00  0.00000000E+00
  0.00000000E+00  0.00000000E+00  0.00000000E+00
  0.00000000E+00  0.00000000E+00  0.00000000E+00
  0.00000000E+00  0.00000000E+00  0.00000000E+00
  0.00000000E+00  0.00000000E+00  0.00000000E+00
  0.00000000E+00  0.00000000E+00  0.00000000E+00
  0.00000000E+00  0.00000000E+00  0.00000000E+00
