Title                                   
   1.00000000000000     
     4.9440799999999996    0.0000000000000000    0.0000000000000000
     0.0000000000000000    8.5647549999999999    0.0000000000000000
     0.0000000000000000    0.0000000000000000   20.0000000000000000
    12     2     1
Selective dynamics
Direct
  0.2500000000000000  0.2060309112626434  0.0979824428868281   T   T   T
 -0.0000894776838935  0.2917381817171772  0.0979118485277260   T   T   T
  0.2500000000000000  0.0372547108386261  0.0978297844641498   T   T   T
 -0.0036847725603216  0.9552129973766128  0.0972794999530298   T   T   T
  0.7500000000000000  0.2086350427192605  0.0948491840998623   T   T   T
  0.5000894776838932  0.2917381817171772  0.0979118485277260   T   T   T
  0.7500000000000000  0.0409854654719750  0.0941750629456313   T   T   T
  0.7500000000000000  0.7180410692601684  0.0997243144538322   T   T   T
  0.7500000000000000  0.5418071965044940  0.0990135978478889   T   T   T
  0.5036847725603217  0.9552129973766128  0.0972794999530298   T   T   T
  0.5064764521408229  0.4586367281386082  0.1037794704183224   T   T   T
 -0.0064764521408230  0.4586367281386082  0.1037794704183224   T   T   T
 -0.0146477307455445  0.7950263840134578  0.1011332724645862   T   T   T
  0.5146477307455443  0.7950263840134578  0.1011332724645862   T   T   T
  0.2500000000000000  0.6176980214511228  0.1241974305744823   T   T   T
 
  0.00000000E+00  0.00000000E+00  0.00000000E+00
  0.00000000E+00  0.00000000E+00  0.00000000E+00
  0.00000000E+00  0.00000000E+00  0.00000000E+00
  0.00000000E+00  0.00000000E+00  0.00000000E+00
  0.00000000E+00  0.00000000E+00  0.00000000E+00
  0.00000000E+00  0.00000000E+00  0.00000000E+00
  0.00000000E+00  0.00000000E+00  0.00000000E+00
  0.00000000E+00  0.00000000E+00  0.00000000E+00
  0.00000000E+00  0.00000000E+00  0.00000000E+00
  0.00000000E+00  0.00000000E+00  0.00000000E+00
  0.00000000E+00  0.00000000E+00  0.00000000E+00
  0.00000000E+00  0.00000000E+00  0.00000000E+00
  0.00000000E+00  0.00000000E+00  0.00000000E+00
  0.00000000E+00  0.00000000E+00  0.00000000E+00
  0.00000000E+00  0.00000000E+00  0.00000000E+00
