Title                                   
   1.00000000000000     
     9.8694509999999998    0.0000000000000000    0.0000000000000000
     0.0000000000000000    8.5490480000000009    0.0000000000000000
     0.0000000000000000    0.0000000000000000   20.0000000000000000
    26     4     1
Selective dynamics
Direct
  0.0557764711385923  0.0881927307431801  0.0908719958429142   T   T   T
  0.9313229201266776  0.1721934785955186  0.0946043980178264   T   T   T
  0.0579034855429986  0.9206999970842472  0.0911771243104574   T   T   T
  0.9331281309279399  0.3397391151701035  0.0965650333979763   T   T   T
  0.0575641647405435  0.5905080751125569  0.0934115248990101   T   T   T
  0.0570857647231465  0.4236512920646575  0.0929491827438898   T   T   T
  0.9325351098936361  0.8387292081892380  0.0955730251646031   T   T   T
  0.3079348811467796  0.0879219870668224  0.0861608098048882   T   T   T
  0.1812175400906227  0.1710421762839159  0.0880958389382160   T   T   T
  0.1805709655777589  0.3372294642322454  0.0887286051223549   T   T   T
  0.3081961021633151  0.5863433876022683  0.0834896060429740   T   T   T
  0.1821798323559316  0.6727044242854402  0.0893544735142718   T   T   T
  0.3059334539122150  0.4175267480711772  0.0841122934240135   T   T   T
  0.1839174356238129  0.8386202944882303  0.0882172333289486   T   T   T
  0.4303337195366511  0.1718209064529189  0.0873488820401540   T   T   T
  0.5565113320449574  0.9251691574259195  0.0954345244102085   T   T   T
  0.4315580719413363  0.6755994277707936  0.0833364908023898   T   T   T
  0.4324739544363537  0.8400806545512525  0.0869335196698737   T   T   T
  0.8050519245341266  0.0900607846830579  0.0963861487403205   T   T   T
  0.6805385078863028  0.1796100573853222  0.0996892243475122   T   T   T
  0.8065383134884909  0.9216805043519700  0.0973745858364133   T   T   T
  0.6837102934584425  0.3450733687893545  0.1083304191422700   T   T   T
  0.8109805730147051  0.5924756278788860  0.1053533816984589   T   T   T
  0.6858841853993953  0.6711906104064423  0.1121985462303066   T   T   T
  0.8109809289705959  0.4229827901411504  0.1036389673795800   T   T   T
  0.6800741955238397  0.8386303623903993  0.1019960621092633   T   T   T
  0.9338914228171584  0.6724892729815529  0.0973893119129673   T   T   T
  0.5567303995803238  0.0944322540340047  0.0939023154198886   T   T   T
  0.4275295565408129  0.3335669052144234  0.0852901331287459   T   T   T
  0.3067674674247554  0.9218818619490344  0.0849841935539892   T   T   T
  0.5283138954377973  0.5090280746039347  0.1380671490253622   T   T   T
 
  0.00000000E+00  0.00000000E+00  0.00000000E+00
  0.00000000E+00  0.00000000E+00  0.00000000E+00
  0.00000000E+00  0.00000000E+00  0.00000000E+00
  0.00000000E+00  0.00000000E+00  0.00000000E+00
  0.00000000E+00  0.00000000E+00  0.00000000E+00
  0.00000000E+00  0.00000000E+00  0.00000000E+00
  0.00000000E+00  0.00000000E+00  0.00000000E+00
  0.00000000E+00  0.00000000E+00  0.00000000E+00
  0.00000000E+00  0.00000000E+00  0.00000000E+00
  0.00000000E+00  0.00000000E+00  0.00000000E+00
  0.00000000E+00  0.00000000E+00  0.00000000E+00
  0.00000000E+00  0.00000000E+00  0.00000000E+00
  0.00000000E+00  0.00000000E+00  0.00000000E+00
  0.00000000E+00  0.00000000E+00  0.00000000E+00
  0.00000000E+00  0.00000000E+00  0.00000000E+00
  0.00000000E+00  0.00000000E+00  0.00000000E+00
  0.00000000E+00  0.00000000E+00  0.00000000E+00
  0.00000000E+00  0.00000000E+00  0.00000000E+00
  0.00000000E+00  0.00000000E+00  0.00000000E+00
  0.00000000E+00  0.00000000E+00  0.00000000E+00
  0.00000000E+00  0.00000000E+00  0.00000000E+00
  0.00000000E+00  0.00000000E+00  0.00000000E+00
  0.00000000E+00  0.00000000E+00  0.00000000E+00
  0.00000000E+00  0.00000000E+00  0.00000000E+00
  0.00000000E+00  0.00000000E+00  0.00000000E+00
  0.00000000E+00  0.00000000E+00  0.00000000E+00
  0.00000000E+00  0.00000000E+00  0.00000000E+00
  0.00000000E+00  0.00000000E+00  0.00000000E+00
  0.00000000E+00  0.00000000E+00  0.00000000E+00
  0.00000000E+00  0.00000000E+00  0.00000000E+00
  0.00000000E+00  0.00000000E+00  0.00000000E+00
