Title                                   
   1.00000000000000     
     8.5490480000000009    0.0000000000000000    0.0000000000000000
     0.0000000000000000    8.5490480000000009    0.0000000000000000
     0.0000000000000000    0.0000000000000000   20.0000000000000000
    21     3     1
Selective dynamics
Direct
  0.9102754872334914  0.2065324719105104  0.0954484793658285   T   T   T
  0.9043325019622745  0.5032903879526925  0.0953044738551074   T   T   T
  0.9099421142772272  0.7986849778460057  0.0954718226548187   T   T   T
  0.1996333765922537  0.0839017985799414  0.0954829671743782   T   T   T
  0.0751292043340417  0.2083885461995488  0.0954540113960113   T   T   T
  0.1978061757564707  0.9190575830852005  0.0954904664900597   T   T   T
  0.1567267197897594  0.6506337567266874  0.0953319564720275   T   T   T
  0.0755577259025766  0.5031799074930617  0.0953188332239547   T   T   T
  0.1568919790430958  0.3573028817574748  0.0953556344685961   T   T   T
  0.0761104394648168  0.7979256015970517  0.0954697947161101   T   T   T
  0.4943610691479858  0.0843614577871219  0.0953616712343497   T   T   T
  0.3485037134723174  0.1657013192089070  0.0953860147250884   T   T   T
  0.4944893189932548  0.9131229675071748  0.0953554103650460   T   T   T
  0.3465131067101954  0.8333682573099261  0.0953494806999724   T   T   T
  0.7891205006635866  0.0848685396255123  0.0954636741715531   T   T   T
  0.6418220099619451  0.1655114518863925  0.0953168422663842   T   T   T
  0.7899025832316917  0.9187028679341129  0.0954764129892167   T   T   T
  0.8262457743617875  0.6509217492883254  0.0953091553342467   T   T   T
  0.8246074015176145  0.3552784369719668  0.0952978381565156   T   T   T
  0.6421104237609151  0.8350064213385865  0.0953222853001847   T   T   T
  0.3253882611551691  0.3341576324546754  0.0952855431128845   T   T   T
  0.3203145091248751  0.6728189452519837  0.0951974873025841   T   T   T
  0.6640505358146230  0.3290431212171687  0.0951646933682595   T   T   T
  0.6656202002540812  0.6743848734661069  0.0951667347748426   T   T   T
  0.4899568674739432  0.4986440456038773  0.0951233163819572   T   T   T
 
  0.00000000E+00  0.00000000E+00  0.00000000E+00
  0.00000000E+00  0.00000000E+00  0.00000000E+00
  0.00000000E+00  0.00000000E+00  0.00000000E+00
  0.00000000E+00  0.00000000E+00  0.00000000E+00
  0.00000000E+00  0.00000000E+00  0.00000000E+00
  0.00000000E+00  0.00000000E+00  0.00000000E+00
  0.00000000E+00  0.00000000E+00  0.00000000E+00
  0.00000000E+00  0.00000000E+00  0.00000000E+00
  0.00000000E+00  0.00000000E+00  0.00000000E+00
  0.00000000E+00  0.00000000E+00  0.00000000E+00
  0.00000000E+00  0.00000000E+00  0.00000000E+00
  0.00000000E+00  0.00000000E+00  0.00000000E+00
  0.00000000E+00  0.00000000E+00  0.00000000E+00
  0.00000000E+00  0.00000000E+00  0.00000000E+00
  0.00000000E+00  0.00000000E+00  0.00000000E+00
  0.00000000E+00  0.00000000E+00  0.00000000E+00
  0.00000000E+00  0.00000000E+00  0.00000000E+00
  0.00000000E+00  0.00000000E+00  0.00000000E+00
  0.00000000E+00  0.00000000E+00  0.00000000E+00
  0.00000000E+00  0.00000000E+00  0.00000000E+00
  0.00000000E+00  0.00000000E+00  0.00000000E+00
  0.00000000E+00  0.00000000E+00  0.00000000E+00
  0.00000000E+00  0.00000000E+00  0.00000000E+00
  0.00000000E+00  0.00000000E+00  0.00000000E+00
  0.00000000E+00  0.00000000E+00  0.00000000E+00
