Title                                   
   1.00000000000000     
     4.9440799999999996    0.0000000000000000    0.0000000000000000
     0.0000000000000000   17.1295089999999988    0.0000000000000000
     0.0000000000000000    0.0000000000000000   20.0000000000000000
    27     3     1
Selective dynamics
Direct
 -0.0054300538706235  0.1057423406852812  0.2946333647890297   T   T   T
  0.2434252445247968  0.1482081135767250  0.2965471241024094   T   T   T
  0.2404016483749187  0.2323156462159273  0.3009706478479358   T   T   T
 -0.0121471460256147  0.2732656783677057  0.3010931430267574   T   T   T
  0.0162409336138287  0.6019616842812946  0.2924413431426303   T   T   T
  0.2602102920592161  0.7256717868715581  0.2958883633854413   T   T   T
  0.0051169736419830  0.8521220594394371  0.2928808299474496   T   T   T
  0.2527332096866540  0.8948361307482516  0.2931043040010941   T   T   T
  0.2490515848935199  0.9790782281244003  0.2931480497565036   T   T   T
  0.0084862007659096  0.7675567997428941  0.2935919899332462   T   T   T
  0.4943656631721770  0.1055494593961592  0.2951897982122585   T   T   T
  0.7431579686919082  0.1477761671178901  0.2957888631253606   T   T   T
  0.7382977733432449  0.2320207316799822  0.2991856436924179   T   T   T
  0.4980782587462565  0.0213215434111290  0.2936238949245134   T   T   T
  0.7449201566658680  0.3956842115318635  0.3059710742491114   T   T   T
  0.7654626710919817  0.4810614193285834  0.3064648826443929   T   T   T
  0.4883178774641935  0.2753470559914069  0.3045890476034757   T   T   T
  0.5145974385266732  0.6000104328322322  0.3043740010432267   T   T   T
  0.7574316827822688  0.7265499441199064  0.2942762474897279   T   T   T
  0.5030706379869426  0.8525574543404820  0.2936161443678579   T   T   T
  0.7531358853340725  0.8944071740465186  0.2928555957669754   T   T   T
  0.7495077211251396  0.9788780962780500  0.2929570494486128   T   T   T
  0.5068294813823819  0.7681314574448371  0.2950725983888265   T   T   T
  0.7609425720512188  0.6430497113677567  0.2956601969912621   T   T   T
 -0.0018063368754449  0.0213807982049345  0.2932018000226400   T   T   T
  0.0064794766484485  0.5200271423325759  0.2899998728306977   T   T   T
  0.4957556917221888  0.3590172134358037  0.3126974655111245   T   T   T
  0.5185212565894842  0.5206860018270418  0.3237442423953938   T   T   T
 -0.0176817394041490  0.3539127887683667  0.3059345398786625   T   T   T
  0.2648845010840019  0.6423088808972763  0.2982053714056501   T   T   T
  0.2176494742065551  0.4409058475937267  0.3373525100752672   T   T   T
 
  0.00000000E+00  0.00000000E+00  0.00000000E+00
  0.00000000E+00  0.00000000E+00  0.00000000E+00
  0.00000000E+00  0.00000000E+00  0.00000000E+00
  0.00000000E+00  0.00000000E+00  0.00000000E+00
  0.00000000E+00  0.00000000E+00  0.00000000E+00
  0.00000000E+00  0.00000000E+00  0.00000000E+00
  0.00000000E+00  0.00000000E+00  0.00000000E+00
  0.00000000E+00  0.00000000E+00  0.00000000E+00
  0.00000000E+00  0.00000000E+00  0.00000000E+00
  0.00000000E+00  0.00000000E+00  0.00000000E+00
  0.00000000E+00  0.00000000E+00  0.00000000E+00
  0.00000000E+00  0.00000000E+00  0.00000000E+00
  0.00000000E+00  0.00000000E+00  0.00000000E+00
  0.00000000E+00  0.00000000E+00  0.00000000E+00
  0.00000000E+00  0.00000000E+00  0.00000000E+00
  0.00000000E+00  0.00000000E+00  0.00000000E+00
  0.00000000E+00  0.00000000E+00  0.00000000E+00
  0.00000000E+00  0.00000000E+00  0.00000000E+00
  0.00000000E+00  0.00000000E+00  0.00000000E+00
  0.00000000E+00  0.00000000E+00  0.00000000E+00
  0.00000000E+00  0.00000000E+00  0.00000000E+00
  0.00000000E+00  0.00000000E+00  0.00000000E+00
  0.00000000E+00  0.00000000E+00  0.00000000E+00
  0.00000000E+00  0.00000000E+00  0.00000000E+00
  0.00000000E+00  0.00000000E+00  0.00000000E+00
  0.00000000E+00  0.00000000E+00  0.00000000E+00
  0.00000000E+00  0.00000000E+00  0.00000000E+00
  0.00000000E+00  0.00000000E+00  0.00000000E+00
  0.00000000E+00  0.00000000E+00  0.00000000E+00
  0.00000000E+00  0.00000000E+00  0.00000000E+00
  0.00000000E+00  0.00000000E+00  0.00000000E+00
