Title                                   
   1.00000000000000     
     9.8694509999999998    0.0000000000000000    0.0000000000000000
     0.0000000000000000    8.5490480000000009    0.0000000000000000
     0.0000000000000000    0.0000000000000000   20.0000000000000000
    24     6     1
Selective dynamics
Direct
  0.0564253024053322  0.0906811944441903  0.0895527768971173   T   T   T
  0.9312713105182958  0.1723946635532730  0.0911867654691581   T   T   T
  0.0573432988233765  0.9219780913611495  0.0895681365501974   T   T   T
  0.9323878583509889  0.3395925113138117  0.0903212539007403   T   T   T
  0.0563771182127562  0.5893936082212355  0.0860481244696608   T   T   T
  0.9323446736653734  0.6719518927613457  0.0901246849238474   T   T   T
  0.0566421968847497  0.4229835506618588  0.0862904662063559   T   T   T
  0.9319376891784820  0.8393098035258317  0.0910917489069938   T   T   T
  0.3090234258424533  0.0891134651555778  0.0920449900780954   T   T   T
  0.1814727268230261  0.1719029099590297  0.0893330550757815   T   T   T
  0.1808220484208327  0.3390123772561606  0.0875477850703613   T   T   T
  0.3035000492340030  0.5900845177446842  0.0928280186841994   T   T   T
  0.1808228826471745  0.6734648748219202  0.0872250015981648   T   T   T
  0.3040692071652640  0.4226919824955050  0.0927784585609240   T   T   T
  0.1811995178633454  0.8400854833561550  0.0893445857115393   T   T   T
  0.4291203142810813  0.1746344555338121  0.0982927548705139   T   T   T
  0.5545433115269733  0.9201223549744036  0.1015646786893023   T   T   T
  0.4292650075810331  0.8387055920573290  0.0997994048530316   T   T   T
  0.8043266966850190  0.0898436598551911  0.0940399063002900   T   T   T
  0.6823693165302643  0.1761785108667781  0.1006143913206070   T   T   T
  0.8052441543570907  0.9211630487695827  0.0943185951551444   T   T   T
  0.8095098570941884  0.5893723039288239  0.0978129309735400   T   T   T
  0.8095029913199138  0.4215108456928666  0.0976710865416863   T   T   T
  0.6827396224968975  0.8361326824766835  0.1015040327215053   T   T   T
  0.5574027350562716  0.0951942576434512  0.1012458546838515   T   T   T
  0.4241835081292221  0.3382998158088650  0.1050976337416268   T   T   T
  0.4219939815798098  0.6761391453660244  0.1081807231937320   T   T   T
  0.6883070118230752  0.3380126660258124  0.1098139947335092   T   T   T
  0.6891820604510601  0.6725968296898027  0.1099461022321690   T   T   T
  0.3066830028325523  0.9217648312248481  0.0915981500522104   T   T   T
  0.5531231222200939  0.5065630734539964  0.1441789078342010   T   T   T
 
  0.00000000E+00  0.00000000E+00  0.00000000E+00
  0.00000000E+00  0.00000000E+00  0.00000000E+00
  0.00000000E+00  0.00000000E+00  0.00000000E+00
  0.00000000E+00  0.00000000E+00  0.00000000E+00
  0.00000000E+00  0.00000000E+00  0.00000000E+00
  0.00000000E+00  0.00000000E+00  0.00000000E+00
  0.00000000E+00  0.00000000E+00  0.00000000E+00
  0.00000000E+00  0.00000000E+00  0.00000000E+00
  0.00000000E+00  0.00000000E+00  0.00000000E+00
  0.00000000E+00  0.00000000E+00  0.00000000E+00
  0.00000000E+00  0.00000000E+00  0.00000000E+00
  0.00000000E+00  0.00000000E+00  0.00000000E+00
  0.00000000E+00  0.00000000E+00  0.00000000E+00
  0.00000000E+00  0.00000000E+00  0.00000000E+00
  0.00000000E+00  0.00000000E+00  0.00000000E+00
  0.00000000E+00  0.00000000E+00  0.00000000E+00
  0.00000000E+00  0.00000000E+00  0.00000000E+00
  0.00000000E+00  0.00000000E+00  0.00000000E+00
  0.00000000E+00  0.00000000E+00  0.00000000E+00
  0.00000000E+00  0.00000000E+00  0.00000000E+00
  0.00000000E+00  0.00000000E+00  0.00000000E+00
  0.00000000E+00  0.00000000E+00  0.00000000E+00
  0.00000000E+00  0.00000000E+00  0.00000000E+00
  0.00000000E+00  0.00000000E+00  0.00000000E+00
  0.00000000E+00  0.00000000E+00  0.00000000E+00
  0.00000000E+00  0.00000000E+00  0.00000000E+00
  0.00000000E+00  0.00000000E+00  0.00000000E+00
  0.00000000E+00  0.00000000E+00  0.00000000E+00
  0.00000000E+00  0.00000000E+00  0.00000000E+00
  0.00000000E+00  0.00000000E+00  0.00000000E+00
  0.00000000E+00  0.00000000E+00  0.00000000E+00
