Title                                   
   1.00000000000000     
     9.8694509999999998    0.0000000000000000    0.0000000000000000
     0.0000000000000000    8.5490480000000009    0.0000000000000000
     0.0000000000000000    0.0000000000000000   20.0000000000000000
    24     6     1
Selective dynamics
Direct
  0.0556221562845479  0.0899604357933826  0.0921577225032685   T   T   T
  0.9309237640235649  0.1726768112485810  0.0926683072654016   T   T   T
  0.0573238012613090  0.9219122279697455  0.0925355251444970   T   T   T
  0.9335698291979176  0.3400397149745496  0.0924362068263795   T   T   T
  0.0562090115869903  0.5906319698231205  0.0916400432802319   T   T   T
  0.0565915958180373  0.4239183052033895  0.0911401060098003   T   T   T
  0.9325782798755670  0.8394854657056153  0.0935134138761511   T   T   T
  0.3069542715594711  0.0884325872709117  0.0953440854785174   T   T   T
  0.1807509198545101  0.1717812897283705  0.0930438587596457   T   T   T
  0.1804324397023064  0.3392893266110893  0.0925690718359686   T   T   T
  0.3027279489248932  0.5898856191263990  0.0962557858080477   T   T   T
  0.1793688648263663  0.6735290473234067  0.0928423510331654   T   T   T
  0.3042480317897910  0.4205501844107540  0.0964328999251569   T   T   T
  0.1815693909983476  0.8405956038546786  0.0933066302688404   T   T   T
  0.4295439608045813  0.1739696839265868  0.0994181496533677   T   T   T
  0.5546567080209147  0.9189556034212398  0.1003533341757329   T   T   T
  0.4273747454229767  0.8364396322537178  0.0993375369940846   T   T   T
  0.8052310014569892  0.0883945232779371  0.0950581745708471   T   T   T
  0.6818132037795468  0.1759216983861916  0.0991576090945199   T   T   T
  0.8069946074776082  0.9212136530184467  0.0955413433036786   T   T   T
  0.6871070949822113  0.3400347622042212  0.1024432986829660   T   T   T
  0.8116945839341926  0.5938129793162698  0.0975878312846276   T   T   T
  0.8109828557309517  0.4232175173593298  0.0969651151533013   T   T   T
  0.6822393242489154  0.8363678281754087  0.0997735544522915   T   T   T
  0.9335649224514763  0.6733235854769178  0.0931830254669023   T   T   T
  0.5550895629499499  0.0918722137406212  0.1004806820870410   T   T   T
  0.4242991063312893  0.3352778061472392  0.1023782352288524   T   T   T
  0.6928074362115767  0.6736373726736862  0.1029696367211250   T   T   T
  0.4207080193090658  0.6776336422168159  0.1020019229157739   T   T   T
  0.3052808749246357  0.9227261671884719  0.0949987937703375   T   T   T
  0.5548766862595088  0.5053877421729184  0.1134307484295149   T   T   T
 
  0.00000000E+00  0.00000000E+00  0.00000000E+00
  0.00000000E+00  0.00000000E+00  0.00000000E+00
  0.00000000E+00  0.00000000E+00  0.00000000E+00
  0.00000000E+00  0.00000000E+00  0.00000000E+00
  0.00000000E+00  0.00000000E+00  0.00000000E+00
  0.00000000E+00  0.00000000E+00  0.00000000E+00
  0.00000000E+00  0.00000000E+00  0.00000000E+00
  0.00000000E+00  0.00000000E+00  0.00000000E+00
  0.00000000E+00  0.00000000E+00  0.00000000E+00
  0.00000000E+00  0.00000000E+00  0.00000000E+00
  0.00000000E+00  0.00000000E+00  0.00000000E+00
  0.00000000E+00  0.00000000E+00  0.00000000E+00
  0.00000000E+00  0.00000000E+00  0.00000000E+00
  0.00000000E+00  0.00000000E+00  0.00000000E+00
  0.00000000E+00  0.00000000E+00  0.00000000E+00
  0.00000000E+00  0.00000000E+00  0.00000000E+00
  0.00000000E+00  0.00000000E+00  0.00000000E+00
  0.00000000E+00  0.00000000E+00  0.00000000E+00
  0.00000000E+00  0.00000000E+00  0.00000000E+00
  0.00000000E+00  0.00000000E+00  0.00000000E+00
  0.00000000E+00  0.00000000E+00  0.00000000E+00
  0.00000000E+00  0.00000000E+00  0.00000000E+00
  0.00000000E+00  0.00000000E+00  0.00000000E+00
  0.00000000E+00  0.00000000E+00  0.00000000E+00
  0.00000000E+00  0.00000000E+00  0.00000000E+00
  0.00000000E+00  0.00000000E+00  0.00000000E+00
  0.00000000E+00  0.00000000E+00  0.00000000E+00
  0.00000000E+00  0.00000000E+00  0.00000000E+00
  0.00000000E+00  0.00000000E+00  0.00000000E+00
  0.00000000E+00  0.00000000E+00  0.00000000E+00
  0.00000000E+00  0.00000000E+00  0.00000000E+00
