Title                                   
   1.00000000000000     
     9.8694509999999998    0.0000000000000000    0.0000000000000000
     0.0000000000000000    8.5490480000000009    0.0000000000000000
     0.0000000000000000    0.0000000000000000   20.0000000000000000
    26     4     1
Selective dynamics
Direct
  0.0549913126652126  0.0883875148171232  0.0873556515642191   T   T   T
  0.9302905409111114  0.1724507410430543  0.0872589863191010   T   T   T
  0.0572237036735874  0.9205801616369047  0.0884554806422739   T   T   T
  0.9329305658691769  0.3394509842904268  0.0870053570722356   T   T   T
  0.0567548436232391  0.5906584516811135  0.0877050540143768   T   T   T
  0.0564288859076934  0.4235398057584417  0.0864315459138008   T   T   T
  0.9316070445430028  0.8389507399145824  0.0899202649414034   T   T   T
  0.3069650747431602  0.0877313091444880  0.0919841300656909   T   T   T
  0.1802662618770973  0.1700764134915022  0.0886419423969009   T   T   T
  0.1800052889275873  0.3372989230169236  0.0879711785982416   T   T   T
  0.3052568768256071  0.5860465807145120  0.0931239990748764   T   T   T
  0.1811096921734414  0.6724237685188970  0.0891786257460123   T   T   T
  0.3037145939113208  0.4182095455321635  0.0929654294729796   T   T   T
  0.1829029030709354  0.8392504079987742  0.0895775635989387   T   T   T
  0.4286411235897102  0.1748450556551083  0.0968507952713313   T   T   T
  0.5549749164447217  0.9249624132925439  0.0991504497397039   T   T   T
  0.4290270210355998  0.6700339741036496  0.1016264775031050   T   T   T
  0.4315422463922169  0.8369364462232739  0.0978467490876285   T   T   T
  0.8037099798457071  0.0904444039121567  0.0904996850039892   T   T   T
  0.6795933457424123  0.1794709492155065  0.0953743988840195   T   T   T
  0.8054523060712485  0.9220178212479825  0.0921812626265215   T   T   T
  0.6848428128828548  0.3457100061722228  0.0994084042476199   T   T   T
  0.8112757371428173  0.5924082324802835  0.0961625780888505   T   T   T
  0.6871538945599194  0.6720378782701047  0.1075317206597171   T   T   T
  0.8109792606589951  0.4239171565082140  0.0925559185710422   T   T   T
  0.6794114996589489  0.8398646514782213  0.0990303419704619   T   T   T
  0.9331714338572946  0.6730163563244168  0.0898563509100279   T   T   T
  0.5546491812889215  0.0951510184285241  0.0978756493455935   T   T   T
  0.4243594711811625  0.3366718231550014  0.1010380720232952   T   T   T
  0.3064668951778904  0.9210592696857858  0.0917204753546969   T   T   T
  0.5574362857474231  0.5072721962881162  0.1446804612913928   T   T   T
 
  0.00000000E+00  0.00000000E+00  0.00000000E+00
  0.00000000E+00  0.00000000E+00  0.00000000E+00
  0.00000000E+00  0.00000000E+00  0.00000000E+00
  0.00000000E+00  0.00000000E+00  0.00000000E+00
  0.00000000E+00  0.00000000E+00  0.00000000E+00
  0.00000000E+00  0.00000000E+00  0.00000000E+00
  0.00000000E+00  0.00000000E+00  0.00000000E+00
  0.00000000E+00  0.00000000E+00  0.00000000E+00
  0.00000000E+00  0.00000000E+00  0.00000000E+00
  0.00000000E+00  0.00000000E+00  0.00000000E+00
  0.00000000E+00  0.00000000E+00  0.00000000E+00
  0.00000000E+00  0.00000000E+00  0.00000000E+00
  0.00000000E+00  0.00000000E+00  0.00000000E+00
  0.00000000E+00  0.00000000E+00  0.00000000E+00
  0.00000000E+00  0.00000000E+00  0.00000000E+00
  0.00000000E+00  0.00000000E+00  0.00000000E+00
  0.00000000E+00  0.00000000E+00  0.00000000E+00
  0.00000000E+00  0.00000000E+00  0.00000000E+00
  0.00000000E+00  0.00000000E+00  0.00000000E+00
  0.00000000E+00  0.00000000E+00  0.00000000E+00
  0.00000000E+00  0.00000000E+00  0.00000000E+00
  0.00000000E+00  0.00000000E+00  0.00000000E+00
  0.00000000E+00  0.00000000E+00  0.00000000E+00
  0.00000000E+00  0.00000000E+00  0.00000000E+00
  0.00000000E+00  0.00000000E+00  0.00000000E+00
  0.00000000E+00  0.00000000E+00  0.00000000E+00
  0.00000000E+00  0.00000000E+00  0.00000000E+00
  0.00000000E+00  0.00000000E+00  0.00000000E+00
  0.00000000E+00  0.00000000E+00  0.00000000E+00
  0.00000000E+00  0.00000000E+00  0.00000000E+00
  0.00000000E+00  0.00000000E+00  0.00000000E+00
