Title                                   
   1.00000000000000     
     9.8694509999999998    0.0000000000000000    0.0000000000000000
     0.0000000000000000    8.5490480000000009    0.0000000000000000
     0.0000000000000000    0.0000000000000000   20.0000000000000000
    28     3     1
Selective dynamics
Direct
  0.0562452270382135  0.0917282158750534  0.0824971224328791   T   T   T
  0.9308113823867573  0.1745341905858896  0.0844249469934045   T   T   T
  0.0562335472985650  0.9243466996963992  0.0827287215120614   T   T   T
  0.9296919433048514  0.3411302025205571  0.0868328779748812   T   T   T
  0.0562395746725641  0.5891389700580958  0.0834057075845943   T   T   T
  0.9324817816519184  0.6733030719573170  0.0863686074495307   T   T   T
  0.0562271473394537  0.4231227527553343  0.0849272274827315   T   T   T
  0.9323206582823158  0.8404692441879260  0.0853698926557779   T   T   T
  0.3057308520352334  0.0896834155767259  0.0865697675107637   T   T   T
  0.1816705992323935  0.1745547855710602  0.0843501133373768   T   T   T
  0.3047929347737328  0.9237749675480869  0.0883698927070049   T   T   T
  0.1827680888350472  0.3411380496440682  0.0867596063930928   T   T   T
  0.3024879533506674  0.5922540599276066  0.0973762753547031   T   T   T
  0.1800059364106489  0.6733061623063351  0.0863023312533476   T   T   T
  0.3095617328422189  0.4242403192228565  0.0956197118865442   T   T   T
  0.1801457727545953  0.8404768331545431  0.0852999002158646   T   T   T
  0.5562367503606542  0.0842292428519779  0.0959224517558356   T   T   T
  0.4312246569842001  0.1691813971207666  0.0935044868495349   T   T   T
  0.5562310977645445  0.9170083624986816  0.0996895532437448   T   T   T
  0.4316920569305631  0.3329814480740501  0.1014490448754509   T   T   T
  0.4262153102505870  0.8402177298701718  0.0998178094555943   T   T   T
  0.8067620801018286  0.0896652574464169  0.0866849726676921   T   T   T
  0.6812759817881719  0.1691761173359222  0.0935783345652058   T   T   T
  0.8076887889543559  0.9237664476014433  0.0884891485905216   T   T   T
  0.6807795385493698  0.3329789357859253  0.1015248049229634   T   T   T
  0.8100288317406981  0.5922331796092353  0.0974838954773825   T   T   T
  0.8029247635663450  0.4242154963082652  0.0957324320602494   T   T   T
  0.6862543962662743  0.8401965307953040  0.0998835177066112   T   T   T
  0.4149833109676510  0.6821034350806384  0.1152805117956685   T   T   T
  0.5562011269834277  0.4008942500712751  0.1202511074424007   T   T   T
  0.6975144796781717  0.6820856307335249  0.1153376339719714   T   T   T
  0.5562106969039865  0.5921105982285567  0.1738425918746491   T   T   T
 
  0.00000000E+00  0.00000000E+00  0.00000000E+00
  0.00000000E+00  0.00000000E+00  0.00000000E+00
  0.00000000E+00  0.00000000E+00  0.00000000E+00
  0.00000000E+00  0.00000000E+00  0.00000000E+00
  0.00000000E+00  0.00000000E+00  0.00000000E+00
  0.00000000E+00  0.00000000E+00  0.00000000E+00
  0.00000000E+00  0.00000000E+00  0.00000000E+00
  0.00000000E+00  0.00000000E+00  0.00000000E+00
  0.00000000E+00  0.00000000E+00  0.00000000E+00
  0.00000000E+00  0.00000000E+00  0.00000000E+00
  0.00000000E+00  0.00000000E+00  0.00000000E+00
  0.00000000E+00  0.00000000E+00  0.00000000E+00
  0.00000000E+00  0.00000000E+00  0.00000000E+00
  0.00000000E+00  0.00000000E+00  0.00000000E+00
  0.00000000E+00  0.00000000E+00  0.00000000E+00
  0.00000000E+00  0.00000000E+00  0.00000000E+00
  0.00000000E+00  0.00000000E+00  0.00000000E+00
  0.00000000E+00  0.00000000E+00  0.00000000E+00
  0.00000000E+00  0.00000000E+00  0.00000000E+00
  0.00000000E+00  0.00000000E+00  0.00000000E+00
  0.00000000E+00  0.00000000E+00  0.00000000E+00
  0.00000000E+00  0.00000000E+00  0.00000000E+00
  0.00000000E+00  0.00000000E+00  0.00000000E+00
  0.00000000E+00  0.00000000E+00  0.00000000E+00
  0.00000000E+00  0.00000000E+00  0.00000000E+00
  0.00000000E+00  0.00000000E+00  0.00000000E+00
  0.00000000E+00  0.00000000E+00  0.00000000E+00
  0.00000000E+00  0.00000000E+00  0.00000000E+00
  0.00000000E+00  0.00000000E+00  0.00000000E+00
  0.00000000E+00  0.00000000E+00  0.00000000E+00
  0.00000000E+00  0.00000000E+00  0.00000000E+00
  0.00000000E+00  0.00000000E+00  0.00000000E+00
