Title                                   
   1.00000000000000     
     9.8694509999999998    0.0000000000000000    0.0000000000000000
     0.0000000000000000    8.5490480000000009    0.0000000000000000
     0.0000000000000000    0.0000000000000000   20.0000000000000000
    29     1     1
Selective dynamics
Direct
  0.0560209136234283  0.0878636372307176  0.0904588479179832   T   T   T
  0.9315200260013755  0.1716748756219215  0.0914512874091262   T   T   T
  0.0564972750965562  0.9226189882254134  0.0905149354084031   T   T   T
  0.9341932027270934  0.3380275053157419  0.0897550766465933   T   T   T
  0.0569301903335293  0.5891783368867891  0.0882049575599163   T   T   T
  0.9335718423489676  0.6742952334970204  0.0900100589329043   T   T   T
  0.0568331919259433  0.4228858364208719  0.0881249648772226   T   T   T
  0.9313596062557755  0.8404358640172658  0.0903402162307004   T   T   T
  0.3052435809471799  0.0895249937225685  0.0949765426911595   T   T   T
  0.1801657274130890  0.1708545731047780  0.0912176459431686   T   T   T
  0.3060766250927613  0.9222010480754050  0.0965367518196153   T   T   T
  0.1789843417886811  0.3374184723163093  0.0904959219004192   T   T   T
  0.3037001947214777  0.5880932450151455  0.0954922436635269   T   T   T
  0.1805869208319807  0.6725142665235377  0.0902957832740357   T   T   T
  0.3014124623556091  0.4187384300858109  0.0935394667720720   T   T   T
  0.1814551248591076  0.8393036961329718  0.0923499855305974   T   T   T
  0.5549633488294206  0.0932648824701477  0.1000021738401294   T   T   T
  0.4281305497881601  0.1779369394563780  0.0972596628918432   T   T   T
  0.5550762559628785  0.9254275511153902  0.0998475817877325   T   T   T
  0.4246081735410747  0.6720825081467867  0.1073441043403451   T   T   T
  0.4305994699043059  0.8367681863369504  0.1019778539767433   T   T   T
  0.8061766860040057  0.0902544531499572  0.0950259074736455   T   T   T
  0.6821794415381582  0.1781595306327257  0.1006080825379374   T   T   T
  0.8061265651835058  0.9231429794697122  0.0932908003108669   T   T   T
  0.6911628695874503  0.3418328346851849  0.1055321614471712   T   T   T
  0.8110921860414403  0.5904554994671800  0.0924566123430143   T   T   T
  0.6880561889122645  0.6735345131887038  0.0913413140397471   T   T   T
  0.8127494984129962  0.4218253321234111  0.0949558428830121   T   T   T
  0.6803804933556581  0.8377943613421401  0.0953878241697403   T   T   T
  0.4211490755887360  0.3388560709289022  0.0945093711985923   T   T   T
  0.5561329710273980  0.5039103552941762  0.1076610201820768   T   T   T
 
  0.00000000E+00  0.00000000E+00  0.00000000E+00
  0.00000000E+00  0.00000000E+00  0.00000000E+00
  0.00000000E+00  0.00000000E+00  0.00000000E+00
  0.00000000E+00  0.00000000E+00  0.00000000E+00
  0.00000000E+00  0.00000000E+00  0.00000000E+00
  0.00000000E+00  0.00000000E+00  0.00000000E+00
  0.00000000E+00  0.00000000E+00  0.00000000E+00
  0.00000000E+00  0.00000000E+00  0.00000000E+00
  0.00000000E+00  0.00000000E+00  0.00000000E+00
  0.00000000E+00  0.00000000E+00  0.00000000E+00
  0.00000000E+00  0.00000000E+00  0.00000000E+00
  0.00000000E+00  0.00000000E+00  0.00000000E+00
  0.00000000E+00  0.00000000E+00  0.00000000E+00
  0.00000000E+00  0.00000000E+00  0.00000000E+00
  0.00000000E+00  0.00000000E+00  0.00000000E+00
  0.00000000E+00  0.00000000E+00  0.00000000E+00
  0.00000000E+00  0.00000000E+00  0.00000000E+00
  0.00000000E+00  0.00000000E+00  0.00000000E+00
  0.00000000E+00  0.00000000E+00  0.00000000E+00
  0.00000000E+00  0.00000000E+00  0.00000000E+00
  0.00000000E+00  0.00000000E+00  0.00000000E+00
  0.00000000E+00  0.00000000E+00  0.00000000E+00
  0.00000000E+00  0.00000000E+00  0.00000000E+00
  0.00000000E+00  0.00000000E+00  0.00000000E+00
  0.00000000E+00  0.00000000E+00  0.00000000E+00
  0.00000000E+00  0.00000000E+00  0.00000000E+00
  0.00000000E+00  0.00000000E+00  0.00000000E+00
  0.00000000E+00  0.00000000E+00  0.00000000E+00
  0.00000000E+00  0.00000000E+00  0.00000000E+00
  0.00000000E+00  0.00000000E+00  0.00000000E+00
  0.00000000E+00  0.00000000E+00  0.00000000E+00
