Title                                   
   1.00000000000000     
     9.8694509999999998    0.0000000000000000    0.0000000000000000
     0.0000000000000000    8.5490480000000009    0.0000000000000000
     0.0000000000000000    0.0000000000000000   20.0000000000000000
    23     7     1
Selective dynamics
Direct
  0.0558078636687907  0.0900575373275855  0.0873806742975451   T   T   T
  0.9315968263160014  0.1723235343190242  0.0882382579962251   T   T   T
  0.0570843666295492  0.9208436404545701  0.0879867131621583   T   T   T
  0.9328880614529544  0.3392761336518393  0.0878288310596329   T   T   T
  0.0557572906423815  0.5906405912057975  0.0862431504334864   T   T   T
  0.0558867801662977  0.4238726310124478  0.0853179060394489   T   T   T
  0.9321447445217597  0.8385513990587872  0.0893031686247887   T   T   T
  0.3075309814634138  0.0884834221802940  0.0930247649245045   T   T   T
  0.1808523737556648  0.1716209336447401  0.0889482655270841   T   T   T
  0.1800936332716745  0.3394255424374619  0.0880972168278762   T   T   T
  0.3018559917948339  0.5904575736779724  0.0969038109998174   T   T   T
  0.1792780548707410  0.6734078206248072  0.0891389188717691   T   T   T
  0.3030733896023751  0.4209850832461869  0.0962148356393087   T   T   T
  0.1814153394937601  0.8411425609986319  0.0897504190412855   T   T   T
  0.4281816504840448  0.1735860185325937  0.1010262182474481   T   T   T
  0.5548495065590051  0.9197445202022789  0.1035299616523123   T   T   T
  0.4277267261294609  0.8387322346471576  0.1029249543601696   T   T   T
  0.8052483950861739  0.0887053109220336  0.0918743271321327   T   T   T
  0.6839414759924748  0.1758548840483327  0.1002426603170433   T   T   T
  0.8063379083752759  0.9210471360562533  0.0927743270736942   T   T   T
  0.8110107460678638  0.5910650886662496  0.0973540399301224   T   T   T
  0.8108685138735355  0.4217074846412974  0.0962175058799642   T   T   T
  0.6834475577137351  0.8377441555638664  0.1019940419805865   T   T   T
  0.9330361709369612  0.6720794892890958  0.0889058007239556   T   T   T
  0.5570568466547499  0.0952200197483254  0.1030750416347334   T   T   T
  0.4206610133086210  0.3342999880488126  0.1085372889101686   T   T   T
  0.4179222264168179  0.6791703408805067  0.1116183185337901   T   T   T
  0.6918044048086579  0.3360089837913797  0.1086665728278528   T   T   T
  0.6952632096326419  0.6756582534234319  0.1105315827192826   T   T   T
  0.3050611663919096  0.9223039588570463  0.0926419515757497   T   T   T
  0.5554527839178737  0.5068587288411900  0.1346734730561207   T   T   T
 
  0.00000000E+00  0.00000000E+00  0.00000000E+00
  0.00000000E+00  0.00000000E+00  0.00000000E+00
  0.00000000E+00  0.00000000E+00  0.00000000E+00
  0.00000000E+00  0.00000000E+00  0.00000000E+00
  0.00000000E+00  0.00000000E+00  0.00000000E+00
  0.00000000E+00  0.00000000E+00  0.00000000E+00
  0.00000000E+00  0.00000000E+00  0.00000000E+00
  0.00000000E+00  0.00000000E+00  0.00000000E+00
  0.00000000E+00  0.00000000E+00  0.00000000E+00
  0.00000000E+00  0.00000000E+00  0.00000000E+00
  0.00000000E+00  0.00000000E+00  0.00000000E+00
  0.00000000E+00  0.00000000E+00  0.00000000E+00
  0.00000000E+00  0.00000000E+00  0.00000000E+00
  0.00000000E+00  0.00000000E+00  0.00000000E+00
  0.00000000E+00  0.00000000E+00  0.00000000E+00
  0.00000000E+00  0.00000000E+00  0.00000000E+00
  0.00000000E+00  0.00000000E+00  0.00000000E+00
  0.00000000E+00  0.00000000E+00  0.00000000E+00
  0.00000000E+00  0.00000000E+00  0.00000000E+00
  0.00000000E+00  0.00000000E+00  0.00000000E+00
  0.00000000E+00  0.00000000E+00  0.00000000E+00
  0.00000000E+00  0.00000000E+00  0.00000000E+00
  0.00000000E+00  0.00000000E+00  0.00000000E+00
  0.00000000E+00  0.00000000E+00  0.00000000E+00
  0.00000000E+00  0.00000000E+00  0.00000000E+00
  0.00000000E+00  0.00000000E+00  0.00000000E+00
  0.00000000E+00  0.00000000E+00  0.00000000E+00
  0.00000000E+00  0.00000000E+00  0.00000000E+00
  0.00000000E+00  0.00000000E+00  0.00000000E+00
  0.00000000E+00  0.00000000E+00  0.00000000E+00
  0.00000000E+00  0.00000000E+00  0.00000000E+00
