Title                                   
   1.00000000000000     
     8.5490480000000009    0.0000000000000000    0.0000000000000000
     0.0000000000000000    8.5490480000000009    0.0000000000000000
     0.0000000000000000    0.0000000000000000   20.0000000000000000
    20     4     1
Selective dynamics
Direct
  0.9096195534530143  0.2040481029660161  0.0949647703883157   T   T   T
  0.9074671250308168  0.5018014826456650  0.0975049508952442   T   T   T
  0.9095720616972975  0.7995336435004491  0.0950137045679516   T   T   T
  0.1954460205970340  0.0854222987369214  0.0951611451326816   T   T   T
  0.0768283680774738  0.2040784142364518  0.0951179861417627   T   T   T
  0.1954096607876334  0.9182187406809024  0.0951568471914896   T   T   T
  0.1572171325019409  0.6516201297891134  0.0973199144852922   T   T   T
  0.0789952000315298  0.5018127922479741  0.0975828608614880   T   T   T
  0.1572385481144037  0.3520078691775344  0.0972908646067091   T   T   T
  0.0767880041933626  0.7995433883862125  0.0951299388714070   T   T   T
  0.4931286180061363  0.0875620042026252  0.0974917838773573   T   T   T
  0.3433624321985084  0.1658327838065039  0.0972593579464885   T   T   T
  0.4930830855746541  0.9160616456305101  0.0975271844741625   T   T   T
  0.3433206444287538  0.8378088477918570  0.0972854889125915   T   T   T
  0.7909311813249940  0.0854020636195937  0.0949213593503302   T   T   T
  0.6429632369337195  0.1658209125620169  0.0971007984741865   T   T   T
  0.7908836735881304  0.9181887047953520  0.0949558048266928   T   T   T
  0.8291768689180398  0.6516015651437668  0.0971768917419636   T   T   T
  0.8292070024813312  0.3519766481020531  0.0970956660219672   T   T   T
  0.6429091385205276  0.8377910259676701  0.0971750610869623   T   T   T
  0.3187128849712238  0.3272670833904525  0.0992851836563065   T   T   T
  0.3187049353401349  0.6763604739861020  0.0993425375024465   T   T   T
  0.6677421210790706  0.3272953319324987  0.0991279067933662   T   T   T
  0.6677040389715012  0.6763027503969840  0.0992540833796533   T   T   T
  0.4932574631787491  0.5017422963047837  0.1378839088131787   T   T   T
 
  0.00000000E+00  0.00000000E+00  0.00000000E+00
  0.00000000E+00  0.00000000E+00  0.00000000E+00
  0.00000000E+00  0.00000000E+00  0.00000000E+00
  0.00000000E+00  0.00000000E+00  0.00000000E+00
  0.00000000E+00  0.00000000E+00  0.00000000E+00
  0.00000000E+00  0.00000000E+00  0.00000000E+00
  0.00000000E+00  0.00000000E+00  0.00000000E+00
  0.00000000E+00  0.00000000E+00  0.00000000E+00
  0.00000000E+00  0.00000000E+00  0.00000000E+00
  0.00000000E+00  0.00000000E+00  0.00000000E+00
  0.00000000E+00  0.00000000E+00  0.00000000E+00
  0.00000000E+00  0.00000000E+00  0.00000000E+00
  0.00000000E+00  0.00000000E+00  0.00000000E+00
  0.00000000E+00  0.00000000E+00  0.00000000E+00
  0.00000000E+00  0.00000000E+00  0.00000000E+00
  0.00000000E+00  0.00000000E+00  0.00000000E+00
  0.00000000E+00  0.00000000E+00  0.00000000E+00
  0.00000000E+00  0.00000000E+00  0.00000000E+00
  0.00000000E+00  0.00000000E+00  0.00000000E+00
  0.00000000E+00  0.00000000E+00  0.00000000E+00
  0.00000000E+00  0.00000000E+00  0.00000000E+00
  0.00000000E+00  0.00000000E+00  0.00000000E+00
  0.00000000E+00  0.00000000E+00  0.00000000E+00
  0.00000000E+00  0.00000000E+00  0.00000000E+00
  0.00000000E+00  0.00000000E+00  0.00000000E+00
