Title                                   
   1.00000000000000     
     4.9440799999999996    0.0000000000000000    0.0000000000000000
     0.0000000000000000    8.5647549999999999    0.0000000000000000
     0.0000000000000000    0.0000000000000000   20.0000000000000000
    14     1     1
Selective dynamics
Direct
  0.2500000000000000  0.2063003659161576  0.0900347220416619   T   T   T
 -0.0030221522459684  0.2887909759365286  0.0930165585869132   T   T   T
  0.2500000000000000  0.0424348363522800  0.0859240955035711   T   T   T
  0.0018944891433534  0.7970695353832024  0.1005879671266606   T   T   T
 -0.0007112355820538  0.9588083293506603  0.0865788043624507   T   T   T
  0.7500000000000000  0.2056977657046447  0.0839275692837474   T   T   T
  0.5030221522459685  0.2887909759365286  0.0930165585869132   T   T   T
  0.7500000000000000  0.0401459345309449  0.0816795963096319   T   T   T
  0.7500000000000000  0.7099409475174010  0.1063723951836104   T   T   T
  0.4981055108566466  0.7970695353832024  0.1005879671266606   T   T   T
  0.7500000000000000  0.5379853553202285  0.1080896440493996   T   T   T
  0.5007112355820542  0.9588083293506603  0.0865788043624507   T   T   T
  0.5084298360325940  0.4492285806822088  0.1081089037309889   T   T   T
 -0.0084298360325939  0.4492285806822088  0.1081089037309889   T   T   T
  0.2500000000000000  0.7277976600373449  0.1133640083780842   T   T   T
  0.2500000000000000  0.5419022919157980  0.1765355016362743   T   T   T
 
  0.00000000E+00  0.00000000E+00  0.00000000E+00
  0.00000000E+00  0.00000000E+00  0.00000000E+00
  0.00000000E+00  0.00000000E+00  0.00000000E+00
  0.00000000E+00  0.00000000E+00  0.00000000E+00
  0.00000000E+00  0.00000000E+00  0.00000000E+00
  0.00000000E+00  0.00000000E+00  0.00000000E+00
  0.00000000E+00  0.00000000E+00  0.00000000E+00
  0.00000000E+00  0.00000000E+00  0.00000000E+00
  0.00000000E+00  0.00000000E+00  0.00000000E+00
  0.00000000E+00  0.00000000E+00  0.00000000E+00
  0.00000000E+00  0.00000000E+00  0.00000000E+00
  0.00000000E+00  0.00000000E+00  0.00000000E+00
  0.00000000E+00  0.00000000E+00  0.00000000E+00
  0.00000000E+00  0.00000000E+00  0.00000000E+00
  0.00000000E+00  0.00000000E+00  0.00000000E+00
  0.00000000E+00  0.00000000E+00  0.00000000E+00
