Title                                   
   1.00000000000000     
     9.8694509999999998    0.0000000000000000    0.0000000000000000
     0.0000000000000000    8.5490480000000009    0.0000000000000000
     0.0000000000000000    0.0000000000000000   20.0000000000000000
    27     4     1
Selective dynamics
Direct
  0.0560353195506666  0.0915791772581371  0.0849304305485297   T   T   T
  0.9303554830383015  0.1750094452740467  0.0875558048158510   T   T   T
  0.0570640751642898  0.9237565718557901  0.0841041626227837   T   T   T
  0.9287931259019254  0.3420358489936949  0.0909017896811855   T   T   T
  0.0559263543925366  0.5895455171791082  0.0871802515578450   T   T   T
  0.9318103350430926  0.6736048996247920  0.0878087876711596   T   T   T
  0.0565723731346652  0.4231846905371813  0.0900587818991698   T   T   T
  0.9319095126363678  0.8412906905236386  0.0857389007026906   T   T   T
  0.3055161299986849  0.0881221456138890  0.0868804752255325   T   T   T
  0.1821029319902589  0.1740649802890981  0.0869148374632919   T   T   T
  0.3075232079544307  0.9221011404893085  0.0880737521667490   T   T   T
  0.1819853323398737  0.3397724322921617  0.0912998821116566   T   T   T
  0.3060842710440745  0.5894614516671465  0.0993528120800075   T   T   T
  0.1820124782386842  0.6706439977664442  0.0883173131554671   T   T   T
  0.1825419774331459  0.8382136662423004  0.0862044017595608   T   T   T
  0.5559381847131319  0.0857804291417998  0.0960150935309278   T   T   T
  0.4306637001412392  0.1687634515505371  0.0924538745471402   T   T   T
  0.4315117977185081  0.3342497498698020  0.0985734808922331   T   T   T
  0.4298200241293218  0.8375248407626900  0.0995993808277217   T   T   T
  0.8063596380069394  0.0908135270045582  0.0881319772923377   T   T   T
  0.6799916070531049  0.1705400262436709  0.0939283429657756   T   T   T
  0.8066209704115153  0.9251644222074458  0.0875319920378438   T   T   T
  0.6766701757385865  0.3354535730128581  0.0995121125088973   T   T   T
  0.8063901884119052  0.5950080678477517  0.0963161062678563   T   T   T
  0.8009560202886837  0.4261819550412287  0.0965190482518864   T   T   T
  0.6837821025234507  0.8408810231055608  0.0963829207808945   T   T   T
  0.4227585655618192  0.6776845969748118  0.1173484516895667   T   T   T
  0.5513135365891058  0.4079831938963644  0.1120674833715539   T   T   T
  0.6899052688219737  0.6841030662142205  0.1088268324149169   T   T   T
  0.5574959665813243  0.9197466388604855  0.0995193553026849   T   T   T
  0.3083960353359377  0.4214222593795621  0.0980655086230537   T   T   T
  0.5648323101124598  0.5865585232799196  0.1795606552332453   T   T   T
 
  0.00000000E+00  0.00000000E+00  0.00000000E+00
  0.00000000E+00  0.00000000E+00  0.00000000E+00
  0.00000000E+00  0.00000000E+00  0.00000000E+00
  0.00000000E+00  0.00000000E+00  0.00000000E+00
  0.00000000E+00  0.00000000E+00  0.00000000E+00
  0.00000000E+00  0.00000000E+00  0.00000000E+00
  0.00000000E+00  0.00000000E+00  0.00000000E+00
  0.00000000E+00  0.00000000E+00  0.00000000E+00
  0.00000000E+00  0.00000000E+00  0.00000000E+00
  0.00000000E+00  0.00000000E+00  0.00000000E+00
  0.00000000E+00  0.00000000E+00  0.00000000E+00
  0.00000000E+00  0.00000000E+00  0.00000000E+00
  0.00000000E+00  0.00000000E+00  0.00000000E+00
  0.00000000E+00  0.00000000E+00  0.00000000E+00
  0.00000000E+00  0.00000000E+00  0.00000000E+00
  0.00000000E+00  0.00000000E+00  0.00000000E+00
  0.00000000E+00  0.00000000E+00  0.00000000E+00
  0.00000000E+00  0.00000000E+00  0.00000000E+00
  0.00000000E+00  0.00000000E+00  0.00000000E+00
  0.00000000E+00  0.00000000E+00  0.00000000E+00
  0.00000000E+00  0.00000000E+00  0.00000000E+00
  0.00000000E+00  0.00000000E+00  0.00000000E+00
  0.00000000E+00  0.00000000E+00  0.00000000E+00
  0.00000000E+00  0.00000000E+00  0.00000000E+00
  0.00000000E+00  0.00000000E+00  0.00000000E+00
  0.00000000E+00  0.00000000E+00  0.00000000E+00
  0.00000000E+00  0.00000000E+00  0.00000000E+00
  0.00000000E+00  0.00000000E+00  0.00000000E+00
  0.00000000E+00  0.00000000E+00  0.00000000E+00
  0.00000000E+00  0.00000000E+00  0.00000000E+00
  0.00000000E+00  0.00000000E+00  0.00000000E+00
  0.00000000E+00  0.00000000E+00  0.00000000E+00
