Title                                   
   1.00000000000000     
     9.8694509999999998    0.0000000000000000    0.0000000000000000
     0.0000000000000000    8.5490480000000009    0.0000000000000000
     0.0000000000000000    0.0000000000000000   20.0000000000000000
    26     4     1
Selective dynamics
Direct
  0.0546882146514494  0.0897281241748890  0.0860249237972910   T   T   T
  0.9293618355112468  0.1745165696448784  0.0860898734236013   T   T   T
  0.0581371954467106  0.9231907747475294  0.0863460635252856   T   T   T
  0.9313812796064052  0.3421695185784970  0.0857917121544482   T   T   T
  0.0572103490452684  0.5899713002085731  0.0850211838753803   T   T   T
  0.9337981868983075  0.6752895029384121  0.0874926441657485   T   T   T
  0.0563897714375512  0.4229278099929399  0.0848292072702068   T   T   T
  0.9330566673923582  0.8421331852036925  0.0882963808029821   T   T   T
  0.3063983041178832  0.0851605249210361  0.0924777167665313   T   T   T
  0.1804725860162732  0.1694626879232749  0.0886625940498834   T   T   T
  0.1798474124655373  0.3359162384874911  0.0883430059399499   T   T   T
  0.3054365950205397  0.5841014821863820  0.0935266145517379   T   T   T
  0.1825267222158184  0.6715838055781872  0.0872818179170704   T   T   T
  0.3023613643904359  0.4161065473912863  0.0965831960579530   T   T   T
  0.1834491758856354  0.8380488589063192  0.0874755125671695   T   T   T
  0.4275926601537565  0.1718306546693697  0.1011007034683488   T   T   T
  0.5567486312890119  0.9219588944233563  0.1012428151515394   T   T   T
  0.4286520676374128  0.6685894271713201  0.1006712811542220   T   T   T
  0.4323605397344712  0.8347620398616737  0.0980031878508013   T   T   T
  0.8029185338375430  0.0922096338853103  0.0898637256595506   T   T   T
  0.6777144376816692  0.1798735321391975  0.0954047201191485   T   T   T
  0.8069318402128318  0.9254790651273509  0.0919675313357908   T   T   T
  0.6817260285640493  0.3459966373221745  0.0969982718579680   T   T   T
  0.8105546679202450  0.5957788592496933  0.0944249143664587   T   T   T
  0.8075304209182078  0.4272716263180779  0.0909307846416139   T   T   T
  0.6839015243875241  0.8393256941124507  0.1010406052315285   T   T   T
  0.5546967990166234  0.0926767518999065  0.1005380799918963   T   T   T
  0.4203683902526968  0.3311591936293746  0.1116880835155223   T   T   T
  0.6922046196042383  0.6777196568057297  0.1092883354821937   T   T   T
  0.3076539498860185  0.9202288690596214  0.0910201623182572   T   T   T
  0.5570642288022821  0.5057075334420309  0.1425393509899549   T   T   T
 
  0.00000000E+00  0.00000000E+00  0.00000000E+00
  0.00000000E+00  0.00000000E+00  0.00000000E+00
  0.00000000E+00  0.00000000E+00  0.00000000E+00
  0.00000000E+00  0.00000000E+00  0.00000000E+00
  0.00000000E+00  0.00000000E+00  0.00000000E+00
  0.00000000E+00  0.00000000E+00  0.00000000E+00
  0.00000000E+00  0.00000000E+00  0.00000000E+00
  0.00000000E+00  0.00000000E+00  0.00000000E+00
  0.00000000E+00  0.00000000E+00  0.00000000E+00
  0.00000000E+00  0.00000000E+00  0.00000000E+00
  0.00000000E+00  0.00000000E+00  0.00000000E+00
  0.00000000E+00  0.00000000E+00  0.00000000E+00
  0.00000000E+00  0.00000000E+00  0.00000000E+00
  0.00000000E+00  0.00000000E+00  0.00000000E+00
  0.00000000E+00  0.00000000E+00  0.00000000E+00
  0.00000000E+00  0.00000000E+00  0.00000000E+00
  0.00000000E+00  0.00000000E+00  0.00000000E+00
  0.00000000E+00  0.00000000E+00  0.00000000E+00
  0.00000000E+00  0.00000000E+00  0.00000000E+00
  0.00000000E+00  0.00000000E+00  0.00000000E+00
  0.00000000E+00  0.00000000E+00  0.00000000E+00
  0.00000000E+00  0.00000000E+00  0.00000000E+00
  0.00000000E+00  0.00000000E+00  0.00000000E+00
  0.00000000E+00  0.00000000E+00  0.00000000E+00
  0.00000000E+00  0.00000000E+00  0.00000000E+00
  0.00000000E+00  0.00000000E+00  0.00000000E+00
  0.00000000E+00  0.00000000E+00  0.00000000E+00
  0.00000000E+00  0.00000000E+00  0.00000000E+00
  0.00000000E+00  0.00000000E+00  0.00000000E+00
  0.00000000E+00  0.00000000E+00  0.00000000E+00
  0.00000000E+00  0.00000000E+00  0.00000000E+00
