Title                                   
   1.00000000000000     
     9.8694509999999998    0.0000000000000000    0.0000000000000000
     0.0000000000000000    8.5490480000000009    0.0000000000000000
     0.0000000000000000    0.0000000000000000   20.0000000000000000
    25     5     1
Selective dynamics
Direct
  0.0563490287222841  0.0906106322615433  0.0923909267940090   T   T   T
  0.9309496982585085  0.1734424574482819  0.0960215946610459   T   T   T
  0.0581821606693283  0.9229546810336147  0.0927448111679773   T   T   T
  0.9328117702679268  0.3408530608324856  0.0979441585487967   T   T   T
  0.0578665981134618  0.5897452913837165  0.0941082060629478   T   T   T
  0.9337940850003958  0.6734541041958421  0.0985758372828679   T   T   T
  0.0575559941665589  0.4227817810663110  0.0936686878244026   T   T   T
  0.9330704358247266  0.8406269655621020  0.0969562342594537   T   T   T
  0.3083136778025373  0.0874594958122565  0.0892500868967414   T   T   T
  0.1819334980603086  0.1719774150561046  0.0900715438297943   T   T   T
  0.1812160974331420  0.3382801783438061  0.0901981153707060   T   T   T
  0.3073235622486938  0.5892451665753285  0.0856733945061793   T   T   T
  0.1820519388945649  0.6729322265943388  0.0903242326361406   T   T   T
  0.3071350674562155  0.4200784107266947  0.0870929476988083   T   T   T
  0.1821089111858256  0.8386808227135956  0.0901214921792010   T   T   T
  0.4302477518588836  0.1708756587620032  0.0915517771178002   T   T   T
  0.5553654087244199  0.9192536337402769  0.0974954982562628   T   T   T
  0.4300365919833513  0.8379419049018083  0.0898019584255115   T   T   T
  0.8044026271353059  0.0900132726815596  0.0977441940663851   T   T   T
  0.6804148104246462  0.1769518672576376  0.1023218963764426   T   T   T
  0.8068063319764808  0.9225806487322011  0.0985578972473830   T   T   T
  0.6836709411393768  0.3411351367392643  0.1115139451179044   T   T   T
  0.8105210015973395  0.5927399287304304  0.1056489369945632   T   T   T
  0.8086077244874129  0.4235155861941155  0.1057097739338687   T   T   T
  0.6826900043293571  0.8359213332159875  0.1027699326831740   T   T   T
  0.5561138721557393  0.0914716019832142  0.0974972497413547   T   T   T
  0.4275357932740140  0.3329440964004248  0.0900553287014971   T   T   T
  0.6887351294934249  0.6740689187022892  0.1116482425456304   T   T   T
  0.4275974249564954  0.6777825196902849  0.0838666664974132   T   T   T
  0.3069803171459797  0.9211607984331319  0.0883640884109571   T   T   T
  0.5327467452133045  0.5093954042293618  0.1412753441648171   T   T   T
 
  0.00000000E+00  0.00000000E+00  0.00000000E+00
  0.00000000E+00  0.00000000E+00  0.00000000E+00
  0.00000000E+00  0.00000000E+00  0.00000000E+00
  0.00000000E+00  0.00000000E+00  0.00000000E+00
  0.00000000E+00  0.00000000E+00  0.00000000E+00
  0.00000000E+00  0.00000000E+00  0.00000000E+00
  0.00000000E+00  0.00000000E+00  0.00000000E+00
  0.00000000E+00  0.00000000E+00  0.00000000E+00
  0.00000000E+00  0.00000000E+00  0.00000000E+00
  0.00000000E+00  0.00000000E+00  0.00000000E+00
  0.00000000E+00  0.00000000E+00  0.00000000E+00
  0.00000000E+00  0.00000000E+00  0.00000000E+00
  0.00000000E+00  0.00000000E+00  0.00000000E+00
  0.00000000E+00  0.00000000E+00  0.00000000E+00
  0.00000000E+00  0.00000000E+00  0.00000000E+00
  0.00000000E+00  0.00000000E+00  0.00000000E+00
  0.00000000E+00  0.00000000E+00  0.00000000E+00
  0.00000000E+00  0.00000000E+00  0.00000000E+00
  0.00000000E+00  0.00000000E+00  0.00000000E+00
  0.00000000E+00  0.00000000E+00  0.00000000E+00
  0.00000000E+00  0.00000000E+00  0.00000000E+00
  0.00000000E+00  0.00000000E+00  0.00000000E+00
  0.00000000E+00  0.00000000E+00  0.00000000E+00
  0.00000000E+00  0.00000000E+00  0.00000000E+00
  0.00000000E+00  0.00000000E+00  0.00000000E+00
  0.00000000E+00  0.00000000E+00  0.00000000E+00
  0.00000000E+00  0.00000000E+00  0.00000000E+00
  0.00000000E+00  0.00000000E+00  0.00000000E+00
  0.00000000E+00  0.00000000E+00  0.00000000E+00
  0.00000000E+00  0.00000000E+00  0.00000000E+00
  0.00000000E+00  0.00000000E+00  0.00000000E+00
