Title                                   
   1.00000000000000     
     9.8694509999999998    0.0000000000000000    0.0000000000000000
     0.0000000000000000    8.5490480000000009    0.0000000000000000
     0.0000000000000000    0.0000000000000000   20.0000000000000000
    29     1     1
Selective dynamics
Direct
  0.0559733428216173  0.0893355388401338  0.0838738576375749   T   T   T
  0.9311486725334793  0.1719648686469797  0.0821128554069717   T   T   T
  0.0572923825190459  0.9236693505799189  0.0841482900446039   T   T   T
  0.9331463391124543  0.3391416702642752  0.0816885141064267   T   T   T
  0.0572499231370662  0.5902755785764019  0.0838704578162634   T   T   T
  0.9332517104272416  0.6735295321468556  0.0819391129288468   T   T   T
  0.0573510881877145  0.4229114277272797  0.0838095451118304   T   T   T
  0.9315637117377027  0.8399950370750370  0.0825766846435552   T   T   T
  0.3053472810353237  0.0884709918197181  0.0963558571719080   T   T   T
  0.1809863333973471  0.1712935771951963  0.0896493498626832   T   T   T
  0.1806560271244271  0.3386899497023635  0.0910955557431523   T   T   T
  0.3016563975705051  0.5910599887556737  0.1046626139637765   T   T   T
  0.1812423373196513  0.6742088835833681  0.0909516704252783   T   T   T
  0.3018303458402491  0.4210598966591942  0.1047836574724732   T   T   T
  0.1818550800038336  0.8411315350041390  0.0895872302261628   T   T   T
  0.5556604320417026  0.0889252024983350  0.1015090056316823   T   T   T
  0.4287268968206486  0.1734754819643429  0.1061915553693579   T   T   T
  0.5543209350459157  0.9234390443841162  0.1012190969858549   T   T   T
  0.4238943248551122  0.3382905317767307  0.1164001137522275   T   T   T
  0.4229907317022026  0.6751032421660469  0.1163867295267956   T   T   T
  0.4276646572855560  0.8378601011002816  0.1057837964371332   T   T   T
  0.8053590277066600  0.0892293426549010  0.0850361646645437   T   T   T
  0.6808387802265835  0.1749320655552348  0.0928536469662544   T   T   T
  0.8054339938434398  0.9224514457920449  0.0852127983912847   T   T   T
  0.6849570328305604  0.3404215544118501  0.0933819549543571   T   T   T
  0.8087585117249112  0.5911355214268474  0.0845851223731983   T   T   T
  0.6850036775901271  0.6715433890497391  0.0931192182249057   T   T   T
  0.8087870728952564  0.4212018347938621  0.0845174124363886   T   T   T
  0.6801270401300077  0.8364781532720990  0.0928005438375758   T   T   T
  0.3050159830798728  0.9233419565247586  0.0956159415790134   T   T   T
  0.5750449294537883  0.5063083060522942  0.1552466463079463   T   T   T
 
  0.00000000E+00  0.00000000E+00  0.00000000E+00
  0.00000000E+00  0.00000000E+00  0.00000000E+00
  0.00000000E+00  0.00000000E+00  0.00000000E+00
  0.00000000E+00  0.00000000E+00  0.00000000E+00
  0.00000000E+00  0.00000000E+00  0.00000000E+00
  0.00000000E+00  0.00000000E+00  0.00000000E+00
  0.00000000E+00  0.00000000E+00  0.00000000E+00
  0.00000000E+00  0.00000000E+00  0.00000000E+00
  0.00000000E+00  0.00000000E+00  0.00000000E+00
  0.00000000E+00  0.00000000E+00  0.00000000E+00
  0.00000000E+00  0.00000000E+00  0.00000000E+00
  0.00000000E+00  0.00000000E+00  0.00000000E+00
  0.00000000E+00  0.00000000E+00  0.00000000E+00
  0.00000000E+00  0.00000000E+00  0.00000000E+00
  0.00000000E+00  0.00000000E+00  0.00000000E+00
  0.00000000E+00  0.00000000E+00  0.00000000E+00
  0.00000000E+00  0.00000000E+00  0.00000000E+00
  0.00000000E+00  0.00000000E+00  0.00000000E+00
  0.00000000E+00  0.00000000E+00  0.00000000E+00
  0.00000000E+00  0.00000000E+00  0.00000000E+00
  0.00000000E+00  0.00000000E+00  0.00000000E+00
  0.00000000E+00  0.00000000E+00  0.00000000E+00
  0.00000000E+00  0.00000000E+00  0.00000000E+00
  0.00000000E+00  0.00000000E+00  0.00000000E+00
  0.00000000E+00  0.00000000E+00  0.00000000E+00
  0.00000000E+00  0.00000000E+00  0.00000000E+00
  0.00000000E+00  0.00000000E+00  0.00000000E+00
  0.00000000E+00  0.00000000E+00  0.00000000E+00
  0.00000000E+00  0.00000000E+00  0.00000000E+00
  0.00000000E+00  0.00000000E+00  0.00000000E+00
  0.00000000E+00  0.00000000E+00  0.00000000E+00
