Title                                   
   1.00000000000000     
     4.9440799999999996    0.0000000000000000    0.0000000000000000
     0.0000000000000000    8.5647549999999999    0.0000000000000000
     0.0000000000000000    0.0000000000000000   20.0000000000000000
    11     3     1
Selective dynamics
Direct
  0.0015221536007797  0.2918458784695891  0.0967561433651761   T   T   T
  0.2500000000000000  0.0382460082896667  0.0968508434574103   T   T   T
 -0.0019186214872162  0.9567179147915426  0.0965767100423795   T   T   T
  0.7500000000000000  0.2077118655995694  0.0934548406023078   T   T   T
  0.4984778463992204  0.2918458784695891  0.0967561433651761   T   T   T
  0.7500000000000000  0.0405270028292309  0.0940283923165348   T   T   T
  0.7500000000000000  0.7153663620936977  0.0973806005752434   T   T   T
  0.7500000000000000  0.5427622131267201  0.0971089130924055   T   T   T
  0.5019186214872166  0.9567179147915426  0.0965767100423795   T   T   T
  0.5031167002927578  0.4581004522127836  0.1041981236165118   T   T   T
 -0.0031167002927579  0.4581004522127836  0.1041981236165118   T   T   T
 -0.0102755735893576  0.7935209865600192  0.1002570045325579   T   T   T
  0.5102755735893579  0.7935209865600192  0.1002570045325579   T   T   T
  0.2500000000000000  0.2076389197668942  0.0972889112874883   T   T   T
  0.2500000000000000  0.6190581642263537  0.1362915355553628   T   T   T
 
  0.00000000E+00  0.00000000E+00  0.00000000E+00
  0.00000000E+00  0.00000000E+00  0.00000000E+00
  0.00000000E+00  0.00000000E+00  0.00000000E+00
  0.00000000E+00  0.00000000E+00  0.00000000E+00
  0.00000000E+00  0.00000000E+00  0.00000000E+00
  0.00000000E+00  0.00000000E+00  0.00000000E+00
  0.00000000E+00  0.00000000E+00  0.00000000E+00
  0.00000000E+00  0.00000000E+00  0.00000000E+00
  0.00000000E+00  0.00000000E+00  0.00000000E+00
  0.00000000E+00  0.00000000E+00  0.00000000E+00
  0.00000000E+00  0.00000000E+00  0.00000000E+00
  0.00000000E+00  0.00000000E+00  0.00000000E+00
  0.00000000E+00  0.00000000E+00  0.00000000E+00
  0.00000000E+00  0.00000000E+00  0.00000000E+00
  0.00000000E+00  0.00000000E+00  0.00000000E+00
