Title                                   
   1.00000000000000     
     4.9440799999999996    0.0000000000000000    0.0000000000000000
     0.0000000000000000   17.1295089999999988    0.0000000000000000
     0.0000000000000000    0.0000000000000000   20.0000000000000000
    27     3     1
Selective dynamics
Direct
 -0.0022629455393711  0.1054219947969549  0.2983819950883632   T   T   T
  0.2459656206688879  0.1483541867610913  0.2990046432054368   T   T   T
  0.2445930595799644  0.2324014384465910  0.3002023285267871   T   T   T
 -0.0061911014754785  0.2754802572687967  0.3006642472597699   T   T   T
  0.0056839377572584  0.6012129523952153  0.3007163355009265   T   T   T
  0.2548200589551217  0.7263490720035856  0.2990598827807345   T   T   T
  0.0029456056803339  0.8526733856978037  0.2975565159814373   T   T   T
  0.2512239009173434  0.8951486999573288  0.2972904779717555   T   T   T
  0.2496510626400986  0.9793602913226861  0.2972456377549799   T   T   T
  0.0047396909187779  0.7681060199481722  0.2984589897320351   T   T   T
  0.4972987529115708  0.1058672633794527  0.2984247594111987   T   T   T
  0.7480181606615133  0.1476097012065241  0.2989958195267389   T   T   T
  0.7459515720721619  0.2316997328229345  0.3001754816398626   T   T   T
  0.4988934547454825  0.0215901229188718  0.2975232732096279   T   T   T
  0.7461371378424819  0.3953343982728214  0.3018302042446243   T   T   T
  0.7533830507168721  0.4816212666079147  0.3018477654604860   T   T   T
  0.4954327429568707  0.2738781584590781  0.3007971124346816   T   T   T
  0.5066921124827926  0.6000329503421117  0.3009195620616172   T   T   T
  0.7528761683380534  0.7272745062173911  0.2990334130174487   T   T   T
  0.5004729365778033  0.8529941002309155  0.2975571740672312   T   T   T
  0.7511530116443907  0.8947045215098183  0.2973299698594503   T   T   T
  0.7495781916572255  0.9790863134334155  0.2972944844920378   T   T   T
  0.5019800458601379  0.7684389332930057  0.2984674209908207   T   T   T
  0.7553747743616956  0.6439003350627771  0.3002534118071798   T   T   T
 -0.0006838094873608  0.0213499956983803  0.2975066657691719   T   T   T
 -0.0020504145521773  0.5196134047219780  0.3013171357831588   T   T   T
  0.5045483637923918  0.3561823438071247  0.3017479355246965   T   T   T
  0.5111797057483403  0.5204947557987851  0.3019814484878512   T   T   T
 -0.0134921535365557  0.3560900194591775  0.3014314168709005   T   T   T
  0.2565074945086258  0.6421273980236387  0.3002889303754247   T   T   T
  0.2495868105947479  0.4369434801356534  0.3017555611635153   T   T   T
 
  0.00000000E+00  0.00000000E+00  0.00000000E+00
  0.00000000E+00  0.00000000E+00  0.00000000E+00
  0.00000000E+00  0.00000000E+00  0.00000000E+00
  0.00000000E+00  0.00000000E+00  0.00000000E+00
  0.00000000E+00  0.00000000E+00  0.00000000E+00
  0.00000000E+00  0.00000000E+00  0.00000000E+00
  0.00000000E+00  0.00000000E+00  0.00000000E+00
  0.00000000E+00  0.00000000E+00  0.00000000E+00
  0.00000000E+00  0.00000000E+00  0.00000000E+00
  0.00000000E+00  0.00000000E+00  0.00000000E+00
  0.00000000E+00  0.00000000E+00  0.00000000E+00
  0.00000000E+00  0.00000000E+00  0.00000000E+00
  0.00000000E+00  0.00000000E+00  0.00000000E+00
  0.00000000E+00  0.00000000E+00  0.00000000E+00
  0.00000000E+00  0.00000000E+00  0.00000000E+00
  0.00000000E+00  0.00000000E+00  0.00000000E+00
  0.00000000E+00  0.00000000E+00  0.00000000E+00
  0.00000000E+00  0.00000000E+00  0.00000000E+00
  0.00000000E+00  0.00000000E+00  0.00000000E+00
  0.00000000E+00  0.00000000E+00  0.00000000E+00
  0.00000000E+00  0.00000000E+00  0.00000000E+00
  0.00000000E+00  0.00000000E+00  0.00000000E+00
  0.00000000E+00  0.00000000E+00  0.00000000E+00
  0.00000000E+00  0.00000000E+00  0.00000000E+00
  0.00000000E+00  0.00000000E+00  0.00000000E+00
  0.00000000E+00  0.00000000E+00  0.00000000E+00
  0.00000000E+00  0.00000000E+00  0.00000000E+00
  0.00000000E+00  0.00000000E+00  0.00000000E+00
  0.00000000E+00  0.00000000E+00  0.00000000E+00
  0.00000000E+00  0.00000000E+00  0.00000000E+00
  0.00000000E+00  0.00000000E+00  0.00000000E+00
