Title                                   
   1.00000000000000     
     9.8694509999999998    0.0000000000000000    0.0000000000000000
     0.0000000000000000    8.5490480000000009    0.0000000000000000
     0.0000000000000000    0.0000000000000000   20.0000000000000000
    29     2     1
Selective dynamics
Direct
  0.0563582962125483  0.0902906967982479  0.0826916875410054   T   T   T
  0.9311827302471978  0.1739156575146737  0.0858628423110201   T   T   T
  0.0569415523551116  0.9226839359393907  0.0819669181265030   T   T   T
  0.9303882152700506  0.3404491180226304  0.0900842089472298   T   T   T
  0.0560474054118747  0.5890867546561303  0.0857995948852709   T   T   T
  0.9323146497971506  0.6726362716659493  0.0884523665455723   T   T   T
  0.0566233869967043  0.4229426544929725  0.0880809176573635   T   T   T
  0.9312890979068583  0.8402052377845406  0.0849189495449386   T   T   T
  0.3054378906670594  0.0876733293862432  0.0851651584826608   T   T   T
  0.1820431278735299  0.1735162036592156  0.0846727540740505   T   T   T
  0.3075152964967057  0.9221204838112380  0.0861582431822851   T   T   T
  0.1817007167947438  0.3395746989383879  0.0887149619140985   T   T   T
  0.3050339003785435  0.5882526716848664  0.0969426459527759   T   T   T
  0.1819565563624883  0.6704650881823413  0.0858286420173824   T   T   T
  0.1824361521725219  0.8375213273771097  0.0838219455580907   T   T   T
  0.5553265347682302  0.0875523659195719  0.0943771191052500   T   T   T
  0.4295618381406972  0.1699729196804342  0.0914411692788833   T   T   T
  0.4287778996703373  0.3347783345433533  0.1008136768739377   T   T   T
  0.4301460356628636  0.8386121024535318  0.0981039766659463   T   T   T
  0.8067683096367732  0.0908891907036726  0.0869603599139832   T   T   T
  0.6808443769402740  0.1711469401446827  0.0941336529844453   T   T   T
  0.8063023630642235  0.9255047572394982  0.0870397054501692   T   T   T
  0.6792873310055544  0.3358323076072610  0.1042085255484772   T   T   T
  0.8089498322735527  0.5917140734282507  0.1014184709816912   T   T   T
  0.8048882712893277  0.4235891245261003  0.0998453501396497   T   T   T
  0.6828656003603152  0.8439617750962412  0.0992704241113964   T   T   T
  0.4231203510027570  0.6761378091333525  0.1147938220547753   T   T   T
  0.5509614532126738  0.4084437947268721  0.1196843495766476   T   T   T
  0.6922552807241084  0.6847856686080586  0.1176703000311813   T   T   T
  0.5561769193900002  0.9219773862401598  0.0982043905646818   T   T   T
  0.3057190754618558  0.4217242061083558  0.0963853121610232   T   T   T
  0.5604185524533731  0.5922891139266664  0.1821625578176299   T   T   T
 
  0.00000000E+00  0.00000000E+00  0.00000000E+00
  0.00000000E+00  0.00000000E+00  0.00000000E+00
  0.00000000E+00  0.00000000E+00  0.00000000E+00
  0.00000000E+00  0.00000000E+00  0.00000000E+00
  0.00000000E+00  0.00000000E+00  0.00000000E+00
  0.00000000E+00  0.00000000E+00  0.00000000E+00
  0.00000000E+00  0.00000000E+00  0.00000000E+00
  0.00000000E+00  0.00000000E+00  0.00000000E+00
  0.00000000E+00  0.00000000E+00  0.00000000E+00
  0.00000000E+00  0.00000000E+00  0.00000000E+00
  0.00000000E+00  0.00000000E+00  0.00000000E+00
  0.00000000E+00  0.00000000E+00  0.00000000E+00
  0.00000000E+00  0.00000000E+00  0.00000000E+00
  0.00000000E+00  0.00000000E+00  0.00000000E+00
  0.00000000E+00  0.00000000E+00  0.00000000E+00
  0.00000000E+00  0.00000000E+00  0.00000000E+00
  0.00000000E+00  0.00000000E+00  0.00000000E+00
  0.00000000E+00  0.00000000E+00  0.00000000E+00
  0.00000000E+00  0.00000000E+00  0.00000000E+00
  0.00000000E+00  0.00000000E+00  0.00000000E+00
  0.00000000E+00  0.00000000E+00  0.00000000E+00
  0.00000000E+00  0.00000000E+00  0.00000000E+00
  0.00000000E+00  0.00000000E+00  0.00000000E+00
  0.00000000E+00  0.00000000E+00  0.00000000E+00
  0.00000000E+00  0.00000000E+00  0.00000000E+00
  0.00000000E+00  0.00000000E+00  0.00000000E+00
  0.00000000E+00  0.00000000E+00  0.00000000E+00
  0.00000000E+00  0.00000000E+00  0.00000000E+00
  0.00000000E+00  0.00000000E+00  0.00000000E+00
  0.00000000E+00  0.00000000E+00  0.00000000E+00
  0.00000000E+00  0.00000000E+00  0.00000000E+00
  0.00000000E+00  0.00000000E+00  0.00000000E+00
