Title                                   
   1.00000000000000     
     4.9440799999999996    0.0000000000000000    0.0000000000000000
     0.0000000000000000    8.5647549999999999    0.0000000000000000
     0.0000000000000000    0.0000000000000000   20.0000000000000000
    12     3     1
Selective dynamics
Direct
 -0.0120224757739708  0.2954005550610456  0.0900112974399862   T   T   T
  0.2461025127114762  0.0473099345576687  0.0902987009371875   T   T   T
  0.0083763335663420  0.7932039783316770  0.0905241463301775   T   T   T
 -0.0018939637414399  0.9628172636295826  0.0880490693339857   T   T   T
  0.7427910894555598  0.2080965375515541  0.0894356090479667   T   T   T
  0.4968125332365936  0.2934618160797460  0.1006324424990471   T   T   T
  0.7463217044208597  0.0429643351004229  0.0878344113149845   T   T   T
  0.7524342001903094  0.7061184396399166  0.0944788164216903   T   T   T
  0.4929236446656823  0.7933889614244758  0.0920618497328455   T   T   T
  0.7521823412784551  0.5325758686533750  0.1000940047797199   T   T   T
  0.4965816530113038  0.9626447090046126  0.0896912892716808   T   T   T
  0.5174015284792826  0.4486549122526551  0.1221191632006550   T   T   T
 -0.0170728953871996  0.4497467043456977  0.0855417668432371   T   T   T
  0.2512528842678189  0.7185126459910874  0.0929361331706573   T   T   T
  0.2435078440975393  0.2120177412719194  0.0948725401748419   T   T   T
  0.2843010655213881  0.5330855971045643  0.2039307595013466   T   T   T
 
  0.00000000E+00  0.00000000E+00  0.00000000E+00
  0.00000000E+00  0.00000000E+00  0.00000000E+00
  0.00000000E+00  0.00000000E+00  0.00000000E+00
  0.00000000E+00  0.00000000E+00  0.00000000E+00
  0.00000000E+00  0.00000000E+00  0.00000000E+00
  0.00000000E+00  0.00000000E+00  0.00000000E+00
  0.00000000E+00  0.00000000E+00  0.00000000E+00
  0.00000000E+00  0.00000000E+00  0.00000000E+00
  0.00000000E+00  0.00000000E+00  0.00000000E+00
  0.00000000E+00  0.00000000E+00  0.00000000E+00
  0.00000000E+00  0.00000000E+00  0.00000000E+00
  0.00000000E+00  0.00000000E+00  0.00000000E+00
  0.00000000E+00  0.00000000E+00  0.00000000E+00
  0.00000000E+00  0.00000000E+00  0.00000000E+00
  0.00000000E+00  0.00000000E+00  0.00000000E+00
  0.00000000E+00  0.00000000E+00  0.00000000E+00
