Title                                   
   1.00000000000000     
     8.5490480000000009    0.0000000000000000    0.0000000000000000
     0.0000000000000000    8.5490480000000009    0.0000000000000000
     0.0000000000000000    0.0000000000000000   20.0000000000000000
    19     5     1
Selective dynamics
Direct
  0.9066030036387434  0.2070636757708198  0.0975852940928493   T   T   T
  0.9122671914564638  0.8015497009288638  0.0976513743880326   T   T   T
  0.1960141094647372  0.0820221616085797  0.0977477723558272   T   T   T
  0.0752040647080527  0.2001749500621980  0.0976559096302467   T   T   T
  0.1602104108438980  0.6473899098739901  0.0976091740591919   T   T   T
  0.0777155095220949  0.4997730107947572  0.0976960329742318   T   T   T
  0.1576997593225306  0.3502157541398474  0.0977830935494381   T   T   T
  0.0809783048014182  0.7980653852958223  0.0976648400364485   T   T   T
  0.3432465526998941  0.1647661169634867  0.0978889286382123   T   T   T
  0.4937560934244885  0.9181820888739632  0.0977581577272199   T   T   T
  0.3476138412396214  0.8340986468785808  0.0977072797488822   T   T   T
  0.7866173692570250  0.0882119363413232  0.0976400747606428   T   T   T
  0.6358777217873043  0.1713119697146737  0.0977382072720237   T   T   T
  0.7908884917579403  0.9203939192357748  0.0976654173331737   T   T   T
  0.8295565801930421  0.6518734815958259  0.0978339579940272   T   T   T
  0.8243728207612926  0.3582346725040862  0.0976707094298291   T   T   T
  0.6426391426808723  0.8373656565994655  0.0978298875552832   T   T   T
  0.3267268915510981  0.6699832673121751  0.0975480704656474   T   T   T
  0.6576347467571119  0.3374573903474120  0.0977837874009399   T   T   T
  0.4920791315233882  0.0876578656416671  0.0978514810166421   T   T   T
  0.9075986179971561  0.5031915918287595  0.0977987701211993   T   T   T
  0.3212189709611394  0.3260734283367751  0.0980671333691263   T   T   T
  0.6684553163865348  0.6732737551783683  0.0980770564796433   T   T   T
  0.1971268523769784  0.9138753902933975  0.0977897950429001   T   T   T
  0.4933105048871599  0.5025842738793995  0.0976627945583215   T   T   T
 
  0.00000000E+00  0.00000000E+00  0.00000000E+00
  0.00000000E+00  0.00000000E+00  0.00000000E+00
  0.00000000E+00  0.00000000E+00  0.00000000E+00
  0.00000000E+00  0.00000000E+00  0.00000000E+00
  0.00000000E+00  0.00000000E+00  0.00000000E+00
  0.00000000E+00  0.00000000E+00  0.00000000E+00
  0.00000000E+00  0.00000000E+00  0.00000000E+00
  0.00000000E+00  0.00000000E+00  0.00000000E+00
  0.00000000E+00  0.00000000E+00  0.00000000E+00
  0.00000000E+00  0.00000000E+00  0.00000000E+00
  0.00000000E+00  0.00000000E+00  0.00000000E+00
  0.00000000E+00  0.00000000E+00  0.00000000E+00
  0.00000000E+00  0.00000000E+00  0.00000000E+00
  0.00000000E+00  0.00000000E+00  0.00000000E+00
  0.00000000E+00  0.00000000E+00  0.00000000E+00
  0.00000000E+00  0.00000000E+00  0.00000000E+00
  0.00000000E+00  0.00000000E+00  0.00000000E+00
  0.00000000E+00  0.00000000E+00  0.00000000E+00
  0.00000000E+00  0.00000000E+00  0.00000000E+00
  0.00000000E+00  0.00000000E+00  0.00000000E+00
  0.00000000E+00  0.00000000E+00  0.00000000E+00
  0.00000000E+00  0.00000000E+00  0.00000000E+00
  0.00000000E+00  0.00000000E+00  0.00000000E+00
  0.00000000E+00  0.00000000E+00  0.00000000E+00
  0.00000000E+00  0.00000000E+00  0.00000000E+00
