Title                                   
   1.00000000000000     
     8.5490480000000009    0.0000000000000000    0.0000000000000000
     0.0000000000000000    8.5490480000000009    0.0000000000000000
     0.0000000000000000    0.0000000000000000   20.0000000000000000
    19     5     1
Selective dynamics
Direct
  0.9091316799540674  0.2050110809768977  0.0955773866767045   T   T   T
  0.9108158692834529  0.8004946823103786  0.0953490252887140   T   T   T
  0.1983300508084605  0.0835714665611860  0.0954821958256599   T   T   T
  0.0768759514449751  0.2024756100432012  0.0955548789346994   T   T   T
  0.1542137324047720  0.6505397217690991  0.0981423983891460   T   T   T
  0.0729566315301721  0.5009057139927526  0.0976304401808091   T   T   T
  0.1539249857268082  0.3536557770093712  0.0971774083259414   T   T   T
  0.0787003938203747  0.7998079774772112  0.0958961483343951   T   T   T
  0.3467639167565003  0.1646382911653556  0.0970154692432862   T   T   T
  0.4935005131804823  0.9187995812830978  0.0976142275564297   T   T   T
  0.3449295091510627  0.8385233431881326  0.0982853072980142   T   T   T
  0.7888740447507350  0.0855866540661120  0.0956363811055080   T   T   T
  0.6423918158233328  0.1653247402203749  0.0972842768979267   T   T   T
  0.7900557407234660  0.9183408945002577  0.0955085855512049   T   T   T
  0.8288432568717552  0.6520880338675278  0.0968460930890575   T   T   T
  0.8272677829787831  0.3516656557994641  0.0971175989221902   T   T   T
  0.6428011029200182  0.8387729234402224  0.0971180414004625   T   T   T
  0.3241046530376784  0.3312611692098058  0.0995784433730124   T   T   T
  0.3217680187246605  0.6738373407234958  0.1012777674582617   T   T   T
  0.4955119446070947  0.0869758965552392  0.0973414411698472   T   T   T
  0.9031712906929178  0.5017578188155186  0.0972879410079773   T   T   T
  0.6656897480290467  0.3272145171158671  0.0994618459943337   T   T   T
  0.6683339976359555  0.6753298088036527  0.0986888919846190   T   T   T
  0.1957458258934620  0.9172865750156797  0.0958282012530294   T   T   T
  0.4907095432499570  0.5009247260901185  0.1110046047387430   T   T   T
 
  0.00000000E+00  0.00000000E+00  0.00000000E+00
  0.00000000E+00  0.00000000E+00  0.00000000E+00
  0.00000000E+00  0.00000000E+00  0.00000000E+00
  0.00000000E+00  0.00000000E+00  0.00000000E+00
  0.00000000E+00  0.00000000E+00  0.00000000E+00
  0.00000000E+00  0.00000000E+00  0.00000000E+00
  0.00000000E+00  0.00000000E+00  0.00000000E+00
  0.00000000E+00  0.00000000E+00  0.00000000E+00
  0.00000000E+00  0.00000000E+00  0.00000000E+00
  0.00000000E+00  0.00000000E+00  0.00000000E+00
  0.00000000E+00  0.00000000E+00  0.00000000E+00
  0.00000000E+00  0.00000000E+00  0.00000000E+00
  0.00000000E+00  0.00000000E+00  0.00000000E+00
  0.00000000E+00  0.00000000E+00  0.00000000E+00
  0.00000000E+00  0.00000000E+00  0.00000000E+00
  0.00000000E+00  0.00000000E+00  0.00000000E+00
  0.00000000E+00  0.00000000E+00  0.00000000E+00
  0.00000000E+00  0.00000000E+00  0.00000000E+00
  0.00000000E+00  0.00000000E+00  0.00000000E+00
  0.00000000E+00  0.00000000E+00  0.00000000E+00
  0.00000000E+00  0.00000000E+00  0.00000000E+00
  0.00000000E+00  0.00000000E+00  0.00000000E+00
  0.00000000E+00  0.00000000E+00  0.00000000E+00
  0.00000000E+00  0.00000000E+00  0.00000000E+00
  0.00000000E+00  0.00000000E+00  0.00000000E+00
