Title                                   
   1.00000000000000     
     4.9440799999999996    0.0000000000000000    0.0000000000000000
     0.0000000000000000    8.5647549999999999    0.0000000000000000
     0.0000000000000000    0.0000000000000000   20.0000000000000000
    13     1     1
Selective dynamics
Direct
  0.2513573811757151  0.2052123457044543  0.0999259903149695   T   T   T
 -0.0007302789826887  0.2920723872388832  0.1030970810386596   T   T   T
  0.2523285165889472  0.0404388406316919  0.1008645109387162   T   T   T
 -0.0003247037444322  0.9567220150256965  0.1064569318386038   T   T   T
  0.7510760602470404  0.2074634408736884  0.0999157680386665   T   T   T
  0.5023149887093166  0.2902444016927753  0.0955680982173346   T   T   T
  0.7528279208734430  0.0415600327149795  0.1014390729340255   T   T   T
  0.7464910676404927  0.7168285815608941  0.1008874547081295   T   T   T
  0.7441217593388211  0.5394158913520016  0.0983592433242358   T   T   T
  0.5066473209630090  0.9565861352822641  0.0969473308459507   T   T   T
  0.5089641065110876  0.4526567998155223  0.0906071865040050   T   T   T
 -0.0156356832904828  0.4555983627847707  0.1066211388304145   T   T   T
 -0.0157327354834354  0.7949831478385270  0.1150085602716946   T   T   T
  0.5168938996046338  0.7988840857400192  0.0892904689707132   T   T   T
  0.2494003798485330  0.6230145317438353  0.1029911632238844   T   T   T
 
  0.00000000E+00  0.00000000E+00  0.00000000E+00
  0.00000000E+00  0.00000000E+00  0.00000000E+00
  0.00000000E+00  0.00000000E+00  0.00000000E+00
  0.00000000E+00  0.00000000E+00  0.00000000E+00
  0.00000000E+00  0.00000000E+00  0.00000000E+00
  0.00000000E+00  0.00000000E+00  0.00000000E+00
  0.00000000E+00  0.00000000E+00  0.00000000E+00
  0.00000000E+00  0.00000000E+00  0.00000000E+00
  0.00000000E+00  0.00000000E+00  0.00000000E+00
  0.00000000E+00  0.00000000E+00  0.00000000E+00
  0.00000000E+00  0.00000000E+00  0.00000000E+00
  0.00000000E+00  0.00000000E+00  0.00000000E+00
  0.00000000E+00  0.00000000E+00  0.00000000E+00
  0.00000000E+00  0.00000000E+00  0.00000000E+00
  0.00000000E+00  0.00000000E+00  0.00000000E+00
