Title                                   
   1.00000000000000     
     4.9440799999999996    0.0000000000000000    0.0000000000000000
     0.0000000000000000   17.1295089999999988    0.0000000000000000
     0.0000000000000000    0.0000000000000000   20.0000000000000000
    31     1
Selective dynamics
Direct
  0.0000779496666326  0.1041803880914624  0.2809357992058022   T   T   T
  0.2498959518378548  0.1457320062948276  0.2851639253240340   T   T   T
  0.2498998222340840  0.2283679083013966  0.2965055261775933   T   T   T
 -0.0012675480169997  0.3509339778430290  0.3194726973339407   T   T   T
 -0.0008905205542878  0.2691230895129775  0.3027500767399005   T   T   T
 -0.0029692722401176  0.6071660627714733  0.3155191563596120   T   T   T
  0.2498741280330301  0.7292529840361089  0.2935697376434716   T   T   T
  0.0000402208353377  0.8538893949382402  0.2792391688894438   T   T   T
  0.2498647979544419  0.8956604549446081  0.2770834606948478   T   T   T
  0.2498893983291895  0.9790661889389346  0.2754551890414234   T   T   T
  0.0001268911781971  0.7709330238059681  0.2870521787324499   T   T   T
  0.4997263104039100  0.1041824905461385  0.2809350524678212   T   T   T
  0.7498990118993804  0.1456061105602584  0.2845784525945515   T   T   T
  0.7498957636632755  0.2282145888039687  0.2951390022005488   T   T   T
  0.4998584520468560  0.0208365920580875  0.2761802346362232   T   T   T
  0.5011118849224027  0.3509355041894579  0.3194668586652461   T   T   T
  0.7499373988753489  0.3939314261889418  0.3234627317394440   T   T   T
  0.7499308906251331  0.4788102959051677  0.3259853701074166   T   T   T
  0.5007019533889636  0.2691217791236656  0.3027453739506390   T   T   T
  0.5027994001160133  0.6071681746014019  0.3155090843064075   T   T   T
  0.7498779698541698  0.7300105940075325  0.2916380744080593   T   T   T
  0.4996927111625534  0.8538908663791466  0.2792386555762935   T   T   T
  0.7498624884031000  0.8955181659930804  0.2767545781767864   T   T   T
  0.7498848443786115  0.9790690165905496  0.2752769460840200   T   T   T
  0.4996289516035247  0.7709338988425922  0.2870502961096001   T   T   T
  0.7499139940762276  0.6482375162122236  0.3049831242126831   T   T   T
  0.2499019202140123  0.6477771258024565  0.3091634554822474   T   T   T
 -0.0000827751851910  0.0208349031313245  0.2761807582091880   T   T   T
  0.5174233414726420  0.5265772260591095  0.3323469240610404   T   T   T
  0.9824339663356497  0.5265751575248709  0.3323610055552221   T   T   T
  0.2499391035947209  0.3857790880422433  0.3339028666516115   T   T   T
  0.2499435988913392  0.4802349999587469  0.3869192386623839   T   T   T
 
  0.00000000E+00  0.00000000E+00  0.00000000E+00
  0.00000000E+00  0.00000000E+00  0.00000000E+00
  0.00000000E+00  0.00000000E+00  0.00000000E+00
  0.00000000E+00  0.00000000E+00  0.00000000E+00
  0.00000000E+00  0.00000000E+00  0.00000000E+00
  0.00000000E+00  0.00000000E+00  0.00000000E+00
  0.00000000E+00  0.00000000E+00  0.00000000E+00
  0.00000000E+00  0.00000000E+00  0.00000000E+00
  0.00000000E+00  0.00000000E+00  0.00000000E+00
  0.00000000E+00  0.00000000E+00  0.00000000E+00
  0.00000000E+00  0.00000000E+00  0.00000000E+00
  0.00000000E+00  0.00000000E+00  0.00000000E+00
  0.00000000E+00  0.00000000E+00  0.00000000E+00
  0.00000000E+00  0.00000000E+00  0.00000000E+00
  0.00000000E+00  0.00000000E+00  0.00000000E+00
  0.00000000E+00  0.00000000E+00  0.00000000E+00
  0.00000000E+00  0.00000000E+00  0.00000000E+00
  0.00000000E+00  0.00000000E+00  0.00000000E+00
  0.00000000E+00  0.00000000E+00  0.00000000E+00
  0.00000000E+00  0.00000000E+00  0.00000000E+00
  0.00000000E+00  0.00000000E+00  0.00000000E+00
  0.00000000E+00  0.00000000E+00  0.00000000E+00
  0.00000000E+00  0.00000000E+00  0.00000000E+00
  0.00000000E+00  0.00000000E+00  0.00000000E+00
  0.00000000E+00  0.00000000E+00  0.00000000E+00
  0.00000000E+00  0.00000000E+00  0.00000000E+00
  0.00000000E+00  0.00000000E+00  0.00000000E+00
  0.00000000E+00  0.00000000E+00  0.00000000E+00
  0.00000000E+00  0.00000000E+00  0.00000000E+00
  0.00000000E+00  0.00000000E+00  0.00000000E+00
  0.00000000E+00  0.00000000E+00  0.00000000E+00
  0.00000000E+00  0.00000000E+00  0.00000000E+00
