Title                                   
   1.00000000000000     
     9.8694509999999998    0.0000000000000000    0.0000000000000000
     0.0000000000000000    8.5490480000000009    0.0000000000000000
     0.0000000000000000    0.0000000000000000   20.0000000000000000
    27     4     1
Selective dynamics
Direct
  0.0560974607693496  0.0913842084690939  0.0825978199033811   T   T   T
  0.9306280412484234  0.1752048063104116  0.0836245458548172   T   T   T
  0.0579920433456666  0.9243247197463490  0.0833075969645524   T   T   T
  0.9288978811671647  0.3424477850806328  0.0857612927369021   T   T   T
  0.0567499217618412  0.5907346592308010  0.0834755937888286   T   T   T
  0.9322145882085173  0.6737626367086550  0.0873757698302332   T   T   T
  0.0560770096485864  0.4234321145996150  0.0843453824841247   T   T   T
  0.9331631545151186  0.8411751422656688  0.0866616237310927   T   T   T
  0.3058516933728221  0.0880444713080138  0.0873803883432280   T   T   T
  0.1822174387822720  0.1729034739506535  0.0844904843536336   T   T   T
  0.1819717663041362  0.3393559934981577  0.0862969451168481   T   T   T
  0.3041617859742224  0.5887624800293740  0.0987962971540424   T   T   T
  0.1821992089518645  0.6733016202885452  0.0862802809454604   T   T   T
  0.3082917980235986  0.4205924070731908  0.0962207841179278   T   T   T
  0.1827256728372963  0.8410308748368269  0.0852812584121202   T   T   T
  0.5561608280168641  0.0858570596030274  0.0952345756350885   T   T   T
  0.5558301135597693  0.9209356986908156  0.1017605079929323   T   T   T
  0.4303718553639033  0.3302411418664865  0.1028343540845832   T   T   T
  0.4271345539320774  0.8408515274620898  0.1039322747592396   T   T   T
  0.8060283892853211  0.0902350184376288  0.0858440754617178   T   T   T
  0.6798857826853786  0.1712534410009483  0.0910916104188484   T   T   T
  0.8081059392898028  0.9248476158150809  0.0897740579231402   T   T   T
  0.6791413845910856  0.3350414377851807  0.0991541975299637   T   T   T
  0.8087846223902713  0.5943879809974815  0.0983255929166087   T   T   T
  0.8011315706422453  0.4258461114954160  0.0944837311853010   T   T   T
  0.6855170743624830  0.8421072403195704  0.1024997733543114   T   T   T
  0.4169435015838200  0.6813527513041676  0.1184406268191470   T   T   T
  0.5530371386631626  0.3966866590619824  0.1207898484713662   T   T   T
  0.6970473083768404  0.6839903226999559  0.1185655362049242   T   T   T
  0.3068652079800666  0.9254907446834295  0.0888497848190028   T   T   T
  0.4294617511892605  0.1670275607690094  0.0938513901947237   T   T   T
  0.5589525131767733  0.5876362946117417  0.1783469984919251   T   T   T
 
  0.00000000E+00  0.00000000E+00  0.00000000E+00
  0.00000000E+00  0.00000000E+00  0.00000000E+00
  0.00000000E+00  0.00000000E+00  0.00000000E+00
  0.00000000E+00  0.00000000E+00  0.00000000E+00
  0.00000000E+00  0.00000000E+00  0.00000000E+00
  0.00000000E+00  0.00000000E+00  0.00000000E+00
  0.00000000E+00  0.00000000E+00  0.00000000E+00
  0.00000000E+00  0.00000000E+00  0.00000000E+00
  0.00000000E+00  0.00000000E+00  0.00000000E+00
  0.00000000E+00  0.00000000E+00  0.00000000E+00
  0.00000000E+00  0.00000000E+00  0.00000000E+00
  0.00000000E+00  0.00000000E+00  0.00000000E+00
  0.00000000E+00  0.00000000E+00  0.00000000E+00
  0.00000000E+00  0.00000000E+00  0.00000000E+00
  0.00000000E+00  0.00000000E+00  0.00000000E+00
  0.00000000E+00  0.00000000E+00  0.00000000E+00
  0.00000000E+00  0.00000000E+00  0.00000000E+00
  0.00000000E+00  0.00000000E+00  0.00000000E+00
  0.00000000E+00  0.00000000E+00  0.00000000E+00
  0.00000000E+00  0.00000000E+00  0.00000000E+00
  0.00000000E+00  0.00000000E+00  0.00000000E+00
  0.00000000E+00  0.00000000E+00  0.00000000E+00
  0.00000000E+00  0.00000000E+00  0.00000000E+00
  0.00000000E+00  0.00000000E+00  0.00000000E+00
  0.00000000E+00  0.00000000E+00  0.00000000E+00
  0.00000000E+00  0.00000000E+00  0.00000000E+00
  0.00000000E+00  0.00000000E+00  0.00000000E+00
  0.00000000E+00  0.00000000E+00  0.00000000E+00
  0.00000000E+00  0.00000000E+00  0.00000000E+00
  0.00000000E+00  0.00000000E+00  0.00000000E+00
  0.00000000E+00  0.00000000E+00  0.00000000E+00
  0.00000000E+00  0.00000000E+00  0.00000000E+00
