Title                                   
   1.00000000000000     
     4.9440799999999996    0.0000000000000000    0.0000000000000000
     0.0000000000000000    8.5647549999999999    0.0000000000000000
     0.0000000000000000    0.0000000000000000   20.0000000000000000
    14     1
Selective dynamics
Direct
  0.2500000000000000  0.2072034694680212  0.0992127059891178   T   T   T
  0.0003086887063195  0.2930125389440639  0.0996568512255389   T   T   T
  0.2500000000000000  0.0423562476879687  0.0992474603848575   T   T   T
  0.0002905018649859  0.9565366209215457  0.0997153662565279   T   T   T
  0.7500000000000000  0.2082124950821976  0.0994894468420472   T   T   T
  0.4996913112936806  0.2930125389440639  0.0996568512255389   T   T   T
  0.7500000000000000  0.0413930955836728  0.0995201549019344   T   T   T
  0.7500000000000000  0.7097409584840647  0.0996107695345688   T   T   T
  0.7500000000000000  0.5397968515600376  0.0995836449859344   T   T   T
  0.4997094981350143  0.9565366209215457  0.0997153662565279   T   T   T
  0.5028314074639819  0.4572866166666180  0.1007743024941878   T   T   T
 -0.0028314074639815  0.4572866166666180  0.1007743024941878   T   T   T
 -0.0027980384479272  0.7922411701237760  0.1008342929000355   T   T   T
  0.5027980384479271  0.7922411701237760  0.1008342929000355   T   T   T
  0.2500000000000000  0.6248239888220315  0.1093541916089631   T   T   T
 
  0.00000000E+00  0.00000000E+00  0.00000000E+00
  0.00000000E+00  0.00000000E+00  0.00000000E+00
  0.00000000E+00  0.00000000E+00  0.00000000E+00
  0.00000000E+00  0.00000000E+00  0.00000000E+00
  0.00000000E+00  0.00000000E+00  0.00000000E+00
  0.00000000E+00  0.00000000E+00  0.00000000E+00
  0.00000000E+00  0.00000000E+00  0.00000000E+00
  0.00000000E+00  0.00000000E+00  0.00000000E+00
  0.00000000E+00  0.00000000E+00  0.00000000E+00
  0.00000000E+00  0.00000000E+00  0.00000000E+00
  0.00000000E+00  0.00000000E+00  0.00000000E+00
  0.00000000E+00  0.00000000E+00  0.00000000E+00
  0.00000000E+00  0.00000000E+00  0.00000000E+00
  0.00000000E+00  0.00000000E+00  0.00000000E+00
  0.00000000E+00  0.00000000E+00  0.00000000E+00
