Title                                   
   1.00000000000000     
     9.8694509999999998    0.0000000000000000    0.0000000000000000
     0.0000000000000000    8.5490480000000009    0.0000000000000000
     0.0000000000000000    0.0000000000000000   20.0000000000000000
    25     5     1
Selective dynamics
Direct
  0.0562857091772476  0.0906117763399707  0.0900437397698997   T   T   T
  0.9310037189012994  0.1736479304949722  0.0949075569582688   T   T   T
  0.0581546362985036  0.9230111606672358  0.0901929321698949   T   T   T
  0.9324806763362101  0.3411367193387604  0.0975245516303457   T   T   T
  0.0575914730219648  0.5897102424120649  0.0914551909227187   T   T   T
  0.9336257546619727  0.6731224601658972  0.0975899226052696   T   T   T
  0.0572383588608459  0.4226406210008581  0.0911387999243829   T   T   T
  0.9332078102407737  0.8403822121087139  0.0952405111460153   T   T   T
  0.3082661620488788  0.0871792440842318  0.0876519536313662   T   T   T
  0.1819976129760903  0.1718993661805766  0.0873656916427892   T   T   T
  0.1812261078848034  0.3383971765031728  0.0868793899014703   T   T   T
  0.3078560805735330  0.5893985087525198  0.0836391213925898   T   T   T
  0.1820341118477997  0.6726522804185526  0.0869772048514109   T   T   T
  0.3077933462760296  0.4197671236712013  0.0847344440474148   T   T   T
  0.1821730000187567  0.8387374184594611  0.0873217585811190   T   T   T
  0.4304409293823392  0.1719197278269133  0.0912700527204128   T   T   T
  0.5551408400209008  0.9192706433602970  0.0992276535697441   T   T   T
  0.4300844709127937  0.8367802673744501  0.0897683486358071   T   T   T
  0.8049145988669683  0.0898333531769759  0.0973907416226951   T   T   T
  0.6811689201240184  0.1762718557437458  0.1047856995372984   T   T   T
  0.8073944816879111  0.9228941148951897  0.0978473986866163   T   T   T
  0.6849998665980399  0.3383080241772364  0.1177197533448782   T   T   T
  0.8101260345694671  0.5934461195632607  0.1081557770174625   T   T   T
  0.8083143809757176  0.4228737993467569  0.1090610786784244   T   T   T
  0.6835463157521041  0.8366095936412581  0.1044603529095911   T   T   T
  0.5557682497553130  0.0915229393335160  0.0993460437472132   T   T   T
  0.4277497718230098  0.3329600242957090  0.0892641853942139   T   T   T
  0.6901398760420625  0.6766057079397033  0.1154977396893575   T   T   T
  0.4276952053381483  0.6775599072273223  0.0839251698122291   T   T   T
  0.3069920113771329  0.9213290706399638  0.0868429660186839   T   T   T
  0.5277244876493735  0.5103956108595219  0.1537392694404529   T   T   T
 
  0.00000000E+00  0.00000000E+00  0.00000000E+00
  0.00000000E+00  0.00000000E+00  0.00000000E+00
  0.00000000E+00  0.00000000E+00  0.00000000E+00
  0.00000000E+00  0.00000000E+00  0.00000000E+00
  0.00000000E+00  0.00000000E+00  0.00000000E+00
  0.00000000E+00  0.00000000E+00  0.00000000E+00
  0.00000000E+00  0.00000000E+00  0.00000000E+00
  0.00000000E+00  0.00000000E+00  0.00000000E+00
  0.00000000E+00  0.00000000E+00  0.00000000E+00
  0.00000000E+00  0.00000000E+00  0.00000000E+00
  0.00000000E+00  0.00000000E+00  0.00000000E+00
  0.00000000E+00  0.00000000E+00  0.00000000E+00
  0.00000000E+00  0.00000000E+00  0.00000000E+00
  0.00000000E+00  0.00000000E+00  0.00000000E+00
  0.00000000E+00  0.00000000E+00  0.00000000E+00
  0.00000000E+00  0.00000000E+00  0.00000000E+00
  0.00000000E+00  0.00000000E+00  0.00000000E+00
  0.00000000E+00  0.00000000E+00  0.00000000E+00
  0.00000000E+00  0.00000000E+00  0.00000000E+00
  0.00000000E+00  0.00000000E+00  0.00000000E+00
  0.00000000E+00  0.00000000E+00  0.00000000E+00
  0.00000000E+00  0.00000000E+00  0.00000000E+00
  0.00000000E+00  0.00000000E+00  0.00000000E+00
  0.00000000E+00  0.00000000E+00  0.00000000E+00
  0.00000000E+00  0.00000000E+00  0.00000000E+00
  0.00000000E+00  0.00000000E+00  0.00000000E+00
  0.00000000E+00  0.00000000E+00  0.00000000E+00
  0.00000000E+00  0.00000000E+00  0.00000000E+00
  0.00000000E+00  0.00000000E+00  0.00000000E+00
  0.00000000E+00  0.00000000E+00  0.00000000E+00
  0.00000000E+00  0.00000000E+00  0.00000000E+00
