Title                                   
   1.00000000000000     
     9.8694509999999998    0.0000000000000000    0.0000000000000000
     0.0000000000000000    8.5490480000000009    0.0000000000000000
     0.0000000000000000    0.0000000000000000   20.0000000000000000
    29     2     1
Selective dynamics
Direct
  0.0561734047185843  0.0913787206757135  0.0881029916518237   T   T   T
  0.9304335519820784  0.1725021096365725  0.0913711912808248   T   T   T
  0.0544900272596636  0.9248567252613641  0.0861684319577326   T   T   T
  0.9312749185578610  0.3401923325078929  0.0953390003597122   T   T   T
  0.0560886997656333  0.5905202641964392  0.0895965794213097   T   T   T
  0.9308256667624701  0.6726683950582689  0.0927008321114112   T   T   T
  0.0570912401278886  0.4246085933822326  0.0910087111091218   T   T   T
  0.9292426442513942  0.8393716563790150  0.0891496895393242   T   T   T
  0.3054555236244211  0.0928311577490187  0.0880996998695064   T   T   T
  0.1817735004075940  0.1759259386098920  0.0893748840692436   T   T   T
  0.3043661519629241  0.9266769497542013  0.0853711496320426   T   T   T
  0.1840018372194280  0.3444929884202633  0.0909309286251326   T   T   T
  0.3078910067329010  0.5979474032993157  0.0869794168874118   T   T   T
  0.1803609915802281  0.6754539080600476  0.0859629444800156   T   T   T
  0.3094692919431046  0.4283278277898414  0.0940569269238839   T   T   T
  0.1796742917817322  0.8423295508774926  0.0845915618475936   T   T   T
  0.5549649897100484  0.0852199593045199  0.0944373016256655   T   T   T
  0.4326213141042298  0.1725794673810562  0.0931138093944859   T   T   T
  0.4339187629939000  0.3406920420565258  0.1028319375244973   T   T   T
  0.5582186063822624  0.4065389741800698  0.1234502846907143   T   T   T
  0.4261339456526664  0.8370893248400869  0.0856454345386835   T   T   T
  0.8063080835329766  0.0880218709834009  0.0911895608412007   T   T   T
  0.6803019777897164  0.1679526659464623  0.0971556197774705   T   T   T
  0.8035357575805165  0.9210346300118208  0.0903596795348428   T   T   T
  0.6822527483168443  0.3336801207530209  0.1093956946246710   T   T   T
  0.8070585458758800  0.5897424511543534  0.1036444684069473   T   T   T
  0.6860229538094891  0.6754174648621646  0.1117261295949288   T   T   T
  0.8078815432437798  0.4206708181317324  0.1048142319019353   T   T   T
  0.6782365009034698  0.8355520169354128  0.0971966256301995   T   T   T
  0.4257170385337278  0.6820516246051077  0.0829706719773021   T   T   T
  0.5529022908059760  0.9187326449970301  0.0921449732688015   T   T   T
  0.5649511920866177  0.5751854021996524  0.1947936369016091   T   T   T
 
  0.00000000E+00  0.00000000E+00  0.00000000E+00
  0.00000000E+00  0.00000000E+00  0.00000000E+00
  0.00000000E+00  0.00000000E+00  0.00000000E+00
  0.00000000E+00  0.00000000E+00  0.00000000E+00
  0.00000000E+00  0.00000000E+00  0.00000000E+00
  0.00000000E+00  0.00000000E+00  0.00000000E+00
  0.00000000E+00  0.00000000E+00  0.00000000E+00
  0.00000000E+00  0.00000000E+00  0.00000000E+00
  0.00000000E+00  0.00000000E+00  0.00000000E+00
  0.00000000E+00  0.00000000E+00  0.00000000E+00
  0.00000000E+00  0.00000000E+00  0.00000000E+00
  0.00000000E+00  0.00000000E+00  0.00000000E+00
  0.00000000E+00  0.00000000E+00  0.00000000E+00
  0.00000000E+00  0.00000000E+00  0.00000000E+00
  0.00000000E+00  0.00000000E+00  0.00000000E+00
  0.00000000E+00  0.00000000E+00  0.00000000E+00
  0.00000000E+00  0.00000000E+00  0.00000000E+00
  0.00000000E+00  0.00000000E+00  0.00000000E+00
  0.00000000E+00  0.00000000E+00  0.00000000E+00
  0.00000000E+00  0.00000000E+00  0.00000000E+00
  0.00000000E+00  0.00000000E+00  0.00000000E+00
  0.00000000E+00  0.00000000E+00  0.00000000E+00
  0.00000000E+00  0.00000000E+00  0.00000000E+00
  0.00000000E+00  0.00000000E+00  0.00000000E+00
  0.00000000E+00  0.00000000E+00  0.00000000E+00
  0.00000000E+00  0.00000000E+00  0.00000000E+00
  0.00000000E+00  0.00000000E+00  0.00000000E+00
  0.00000000E+00  0.00000000E+00  0.00000000E+00
  0.00000000E+00  0.00000000E+00  0.00000000E+00
  0.00000000E+00  0.00000000E+00  0.00000000E+00
  0.00000000E+00  0.00000000E+00  0.00000000E+00
  0.00000000E+00  0.00000000E+00  0.00000000E+00
