Title                                   
   1.00000000000000     
     9.8694509999999998    0.0000000000000000    0.0000000000000000
     0.0000000000000000    8.5490480000000009    0.0000000000000000
     0.0000000000000000    0.0000000000000000   20.0000000000000000
    27     4     1
Selective dynamics
Direct
  0.0562089943956656  0.0921725230581390  0.0872526485549182   T   T   T
  0.9306181886236078  0.1751196532447454  0.0896798344702963   T   T   T
  0.0562808479495963  0.9246753056224161  0.0858409654161033   T   T   T
  0.9288112077034478  0.3422071408072256  0.0935940537183097   T   T   T
  0.0562468350254385  0.5898529640546339  0.0897760583259132   T   T   T
  0.9319091914062646  0.6737496539071252  0.0904341994059367   T   T   T
  0.0562535183207396  0.4236558016755459  0.0919321323399688   T   T   T
  0.9319046446160749  0.8400316533952247  0.0875869029814621   T   T   T
  0.3053792931485133  0.0891921039030262  0.0883328990805288   T   T   T
  0.1818505410294787  0.1749882988486407  0.0891953152697342   T   T   T
  0.3056495487024227  0.9244002309192589  0.0875622697679729   T   T   T
  0.1836568921060215  0.3420968033423658  0.0927367980713245   T   T   T
  0.3068918448944666  0.5941098114074855  0.0964978770156546   T   T   T
  0.1806194667882343  0.6736877946449045  0.0893424005691161   T   T   T
  0.3108044097391868  0.4249709805693508  0.0981337682281941   T   T   T
  0.1806988745885123  0.8399855711491866  0.0868402409446550   T   T   T
  0.5563437292941351  0.0819397135883276  0.0942445473115622   T   T   T
  0.4322519967735043  0.1669500399605391  0.0933341227863805   T   T   T
  0.4356259033944107  0.3327330620313947  0.1019817745064908   T   T   T
  0.4269779889290484  0.8361770085187181  0.0942738975825954   T   T   T
  0.8071811073673123  0.0892850375698220  0.0890576577533082   T   T   T
  0.6803723641436846  0.1670924196179909  0.0940602963658303   T   T   T
  0.8070055511557377  0.9244942687146630  0.0884133718929571   T   T   T
  0.6768012238240017  0.3328376562558532  0.1030878505142688   T   T   T
  0.8059176020443503  0.5943527113997147  0.0990628429905796   T   T   T
  0.8017524410249123  0.4251085578610216  0.1000306492510013   T   T   T
  0.6858049523370520  0.8364634415316352  0.0958684846041177   T   T   T
  0.4231801554748612  0.6817721668969891  0.1025421272035420   T   T   T
  0.5559531454003107  0.4037952859899496  0.1145384104568044   T   T   T
  0.6902571613671018  0.6827291794851179  0.1062689398477543   T   T   T
  0.5563986313983140  0.9159569964827655  0.0945573860436190   T   T   T
  0.5540307470335966  0.5936621635462265  0.1696142767291157   T   T   T
 
  0.00000000E+00  0.00000000E+00  0.00000000E+00
  0.00000000E+00  0.00000000E+00  0.00000000E+00
  0.00000000E+00  0.00000000E+00  0.00000000E+00
  0.00000000E+00  0.00000000E+00  0.00000000E+00
  0.00000000E+00  0.00000000E+00  0.00000000E+00
  0.00000000E+00  0.00000000E+00  0.00000000E+00
  0.00000000E+00  0.00000000E+00  0.00000000E+00
  0.00000000E+00  0.00000000E+00  0.00000000E+00
  0.00000000E+00  0.00000000E+00  0.00000000E+00
  0.00000000E+00  0.00000000E+00  0.00000000E+00
  0.00000000E+00  0.00000000E+00  0.00000000E+00
  0.00000000E+00  0.00000000E+00  0.00000000E+00
  0.00000000E+00  0.00000000E+00  0.00000000E+00
  0.00000000E+00  0.00000000E+00  0.00000000E+00
  0.00000000E+00  0.00000000E+00  0.00000000E+00
  0.00000000E+00  0.00000000E+00  0.00000000E+00
  0.00000000E+00  0.00000000E+00  0.00000000E+00
  0.00000000E+00  0.00000000E+00  0.00000000E+00
  0.00000000E+00  0.00000000E+00  0.00000000E+00
  0.00000000E+00  0.00000000E+00  0.00000000E+00
  0.00000000E+00  0.00000000E+00  0.00000000E+00
  0.00000000E+00  0.00000000E+00  0.00000000E+00
  0.00000000E+00  0.00000000E+00  0.00000000E+00
  0.00000000E+00  0.00000000E+00  0.00000000E+00
  0.00000000E+00  0.00000000E+00  0.00000000E+00
  0.00000000E+00  0.00000000E+00  0.00000000E+00
  0.00000000E+00  0.00000000E+00  0.00000000E+00
  0.00000000E+00  0.00000000E+00  0.00000000E+00
  0.00000000E+00  0.00000000E+00  0.00000000E+00
  0.00000000E+00  0.00000000E+00  0.00000000E+00
  0.00000000E+00  0.00000000E+00  0.00000000E+00
  0.00000000E+00  0.00000000E+00  0.00000000E+00
