Title                                   
   1.00000000000000     
     4.9440799999999996    0.0000000000000000    0.0000000000000000
     0.0000000000000000   17.1295089999999988    0.0000000000000000
     0.0000000000000000    0.0000000000000000   20.0000000000000000
    29     1     1
Selective dynamics
Direct
  0.0011089104758173  0.1035880747161080  0.2897744319651744   T   T   T
  0.2513093863276212  0.1459124252037103  0.2922092026504421   T   T   T
  0.2521945508459970  0.2284685339754799  0.2987069429223110   T   T   T
  0.0012502597474849  0.2708682774145957  0.3031379782717041   T   T   T
 -0.0038884085208963  0.6054995493348089  0.3096399778889984   T   T   T
  0.2477659800992807  0.7278174870324230  0.2946662655089371   T   T   T
 -0.0000144777047702  0.8532853534738344  0.2875378795988981   T   T   T
  0.2492117440874631  0.8952486780743670  0.2864678307197641   T   T   T
  0.2501145472987967  0.9785420473656785  0.2862061732302846   T   T   T
 -0.0010340212958752  0.7698529567473625  0.2915718606300206   T   T   T
  0.5012195312303632  0.1036430942968968  0.2894559935547096   T   T   T
  0.7515044687094128  0.1450458156660646  0.2916431369425230   T   T   T
  0.7523352097785858  0.2282275272974492  0.2978343202291865   T   T   T
  0.5003379841694892  0.0203230075129623  0.2866576557698346   T   T   T
  0.7526610886536810  0.3960655020360100  0.3124761170781846   T   T   T
  0.7508070135133558  0.4840162138262750  0.3146842480245275   T   T   T
  0.5036408886872654  0.2705695853833728  0.3016683283648054   T   T   T
  0.4964853500511704  0.6040437185265893  0.3028909364294358   T   T   T
  0.7478934059119289  0.7290655658007549  0.2926363270802884   T   T   T
  0.4978455352950549  0.8532057650647780  0.2868852361265344   T   T   T
  0.7491984497312943  0.8947281547991885  0.2861185909784079   T   T   T
  0.7501123669856000  0.9783888095279297  0.2860005943029336   T   T   T
  0.4971618401459113  0.7696869677059328  0.2901337851248884   T   T   T
  0.7470795158558841  0.6469223516528326  0.2993480091267256   T   T   T
  0.0004156728323012  0.0202953691132821  0.2868912003004808   T   T   T
  0.5006155575349736  0.5225424632294762  0.3061851328237565   T   T   T
  0.9950278511590772  0.5260656933706281  0.3263347053855815   T   T   T
  0.5091538146780971  0.3524306431275765  0.3092637587554372   T   T   T
 -0.0025601424272419  0.3524033231085603  0.3130549693788887   T   T   T
  0.2465623168088269  0.6468030717231010  0.3033811629830211   T   T   T
  0.2644908093340499  0.4377859738919700  0.3615972478532641   T   T   T
 
  0.00000000E+00  0.00000000E+00  0.00000000E+00
  0.00000000E+00  0.00000000E+00  0.00000000E+00
  0.00000000E+00  0.00000000E+00  0.00000000E+00
  0.00000000E+00  0.00000000E+00  0.00000000E+00
  0.00000000E+00  0.00000000E+00  0.00000000E+00
  0.00000000E+00  0.00000000E+00  0.00000000E+00
  0.00000000E+00  0.00000000E+00  0.00000000E+00
  0.00000000E+00  0.00000000E+00  0.00000000E+00
  0.00000000E+00  0.00000000E+00  0.00000000E+00
  0.00000000E+00  0.00000000E+00  0.00000000E+00
  0.00000000E+00  0.00000000E+00  0.00000000E+00
  0.00000000E+00  0.00000000E+00  0.00000000E+00
  0.00000000E+00  0.00000000E+00  0.00000000E+00
  0.00000000E+00  0.00000000E+00  0.00000000E+00
  0.00000000E+00  0.00000000E+00  0.00000000E+00
  0.00000000E+00  0.00000000E+00  0.00000000E+00
  0.00000000E+00  0.00000000E+00  0.00000000E+00
  0.00000000E+00  0.00000000E+00  0.00000000E+00
  0.00000000E+00  0.00000000E+00  0.00000000E+00
  0.00000000E+00  0.00000000E+00  0.00000000E+00
  0.00000000E+00  0.00000000E+00  0.00000000E+00
  0.00000000E+00  0.00000000E+00  0.00000000E+00
  0.00000000E+00  0.00000000E+00  0.00000000E+00
  0.00000000E+00  0.00000000E+00  0.00000000E+00
  0.00000000E+00  0.00000000E+00  0.00000000E+00
  0.00000000E+00  0.00000000E+00  0.00000000E+00
  0.00000000E+00  0.00000000E+00  0.00000000E+00
  0.00000000E+00  0.00000000E+00  0.00000000E+00
  0.00000000E+00  0.00000000E+00  0.00000000E+00
  0.00000000E+00  0.00000000E+00  0.00000000E+00
  0.00000000E+00  0.00000000E+00  0.00000000E+00
