Title                                   
   1.00000000000000     
     9.8694509999999998    0.0000000000000000    0.0000000000000000
     0.0000000000000000    8.5490480000000009    0.0000000000000000
     0.0000000000000000    0.0000000000000000   20.0000000000000000
    23     7     1
Selective dynamics
Direct
  0.0557274785834717  0.0897708072341430  0.0959067841524724   T   T   T
  0.9313347757322501  0.1717684023913709  0.0962903109485796   T   T   T
  0.0572665405591268  0.9207879582277634  0.0957733034626409   T   T   T
  0.9325565780448390  0.3389741931286173  0.0961131069595378   T   T   T
  0.0554998770548385  0.5905122964299800  0.0950887665781196   T   T   T
  0.0557077755643392  0.4237994165054860  0.0953862803833883   T   T   T
  0.9317519535733149  0.8385483292355818  0.0959579704450952   T   T   T
  0.3083553411501517  0.0896542798853677  0.0967574813106473   T   T   T
  0.1811649822693903  0.1712924569365404  0.0961242267622621   T   T   T
  0.1800916438421501  0.3391748672929096  0.0958767171154147   T   T   T
  0.3024831020869885  0.5899209456141775  0.0963458805303458   T   T   T
  0.1794997647743834  0.6737524540006510  0.0954512619631529   T   T   T
  0.3034027891181044  0.4214740256068488  0.0965789203078333   T   T   T
  0.1816373469618253  0.8411022935506089  0.0958567808523464   T   T   T
  0.4299084967398070  0.1780853145626913  0.0974175162788742   T   T   T
  0.5549726160207813  0.9188066040216130  0.0979971000597473   T   T   T
  0.4297699845898833  0.8344333415003677  0.0976325410841302   T   T   T
  0.8044419323726043  0.0894037854161725  0.0969641434456324   T   T   T
  0.6822257074912712  0.1796628685064330  0.0977105037457173   T   T   T
  0.8055407208947084  0.9204315526152946  0.0968391409546652   T   T   T
  0.8096923325984018  0.5907208900173818  0.0967378762889736   T   T   T
  0.8101126530169354  0.4216294289049763  0.0970822909128875   T   T   T
  0.6815870272673238  0.8342164361058303  0.0978946965464906   T   T   T
  0.9325600407294975  0.6722632372923288  0.0955050146601206   T   T   T
  0.5568328431504431  0.0967625150865459  0.0978212517903605   T   T   T
  0.4259697297473251  0.3417567064751276  0.0971551024162436   T   T   T
  0.4245112317604281  0.6715719772314570  0.0980458919214781   T   T   T
  0.6866127791952650  0.3427043224338860  0.0980255149884811   T   T   T
  0.6890735894931239  0.6692964822433382  0.0988066551262436   T   T   T
  0.3062040747928025  0.9215233723034900  0.0965767826904451   T   T   T
  0.5566402908242238  0.5070734392430181  0.0992451853177303   T   T   T
 
  0.00000000E+00  0.00000000E+00  0.00000000E+00
  0.00000000E+00  0.00000000E+00  0.00000000E+00
  0.00000000E+00  0.00000000E+00  0.00000000E+00
  0.00000000E+00  0.00000000E+00  0.00000000E+00
  0.00000000E+00  0.00000000E+00  0.00000000E+00
  0.00000000E+00  0.00000000E+00  0.00000000E+00
  0.00000000E+00  0.00000000E+00  0.00000000E+00
  0.00000000E+00  0.00000000E+00  0.00000000E+00
  0.00000000E+00  0.00000000E+00  0.00000000E+00
  0.00000000E+00  0.00000000E+00  0.00000000E+00
  0.00000000E+00  0.00000000E+00  0.00000000E+00
  0.00000000E+00  0.00000000E+00  0.00000000E+00
  0.00000000E+00  0.00000000E+00  0.00000000E+00
  0.00000000E+00  0.00000000E+00  0.00000000E+00
  0.00000000E+00  0.00000000E+00  0.00000000E+00
  0.00000000E+00  0.00000000E+00  0.00000000E+00
  0.00000000E+00  0.00000000E+00  0.00000000E+00
  0.00000000E+00  0.00000000E+00  0.00000000E+00
  0.00000000E+00  0.00000000E+00  0.00000000E+00
  0.00000000E+00  0.00000000E+00  0.00000000E+00
  0.00000000E+00  0.00000000E+00  0.00000000E+00
  0.00000000E+00  0.00000000E+00  0.00000000E+00
  0.00000000E+00  0.00000000E+00  0.00000000E+00
  0.00000000E+00  0.00000000E+00  0.00000000E+00
  0.00000000E+00  0.00000000E+00  0.00000000E+00
  0.00000000E+00  0.00000000E+00  0.00000000E+00
  0.00000000E+00  0.00000000E+00  0.00000000E+00
  0.00000000E+00  0.00000000E+00  0.00000000E+00
  0.00000000E+00  0.00000000E+00  0.00000000E+00
  0.00000000E+00  0.00000000E+00  0.00000000E+00
  0.00000000E+00  0.00000000E+00  0.00000000E+00
