Title                                   
   1.00000000000000     
     4.9440799999999996    0.0000000000000000    0.0000000000000000
     0.0000000000000000   17.1295089999999988    0.0000000000000000
     0.0000000000000000    0.0000000000000000   20.0000000000000000
    30     1     1
Selective dynamics
Direct
 -0.0002494980302400  0.1042265864220429  0.2796893648139617   T   T   T
  0.2498849244244685  0.1455849550291851  0.2839699569300915   T   T   T
  0.2499051068922092  0.2279333728629962  0.2956826258999274   T   T   T
  0.0014102793456575  0.3498586430412929  0.3196253276037083   T   T   T
 -0.0002963796109965  0.2689089075899206  0.3020549532558841   T   T   T
 -0.0031689320241974  0.6077818048726500  0.3166154857136477   T   T   T
  0.2498762628880813  0.7295872683338365  0.2939438310550465   T   T   T
  0.0001300389090245  0.8541088151064847  0.2789649056512505   T   T   T
  0.2498652361859524  0.8958027801714815  0.2764860470411655   T   T   T
  0.2498973481939804  0.9792435680120782  0.2744969208761950   T   T   T
  0.0002629986344550  0.7711467687291627  0.2873666983367028   T   T   T
  0.5000127062493506  0.1042258897775663  0.2796865538743744   T   T   T
  0.7498798010662806  0.1457950782474373  0.2833492425289530   T   T   T
  0.7499091372534186  0.2283537020114071  0.2940749122225353   T   T   T
  0.5000445217581525  0.0209009846532743  0.2750654448672011   T   T   T
  0.4984625674534189  0.3498576484187201  0.3196232045214217   T   T   T
  0.7499439264982165  0.3936838487225000  0.3249140768518782   T   T   T
  0.7499357819484325  0.4795192893574760  0.3274925686016656   T   T   T
  0.5001285093776345  0.2689103520939970  0.3020509581342867   T   T   T
  0.5029850567875126  0.6077744413369083  0.3165979099172478   T   T   T
  0.7498709551024434  0.7304527173737885  0.2923621355476507   T   T   T
  0.4996126241621543  0.8541071150326933  0.2789669605543128   T   T   T
  0.7498642222077199  0.8956264804071178  0.2762810846216708   T   T   T
  0.7498856466152237  0.9791300105266023  0.2743521783199958   T   T   T
  0.4994722620395866  0.7711487225244716  0.2873638652227918   T   T   T
  0.7499106868962779  0.6486497092791409  0.3061711066266735   T   T   T
  0.2499085082355253  0.6478657006978148  0.3098855727360905   T   T   T
 -0.0002898792957196  0.0209020383197160  0.2750676776220314   T   T   T
  0.5160702831819167  0.5267520242255925  0.3343595593961969   T   T   T
  0.9837955891134886  0.5267546425049934  0.3343719084747731   T   T   T
  0.2499497354411216  0.3839673813312383  0.3341611259577738   T   T   T
  0.2499529720994567  0.4799897529864036  0.3874708362228477   T   T   T
 
  0.00000000E+00  0.00000000E+00  0.00000000E+00
  0.00000000E+00  0.00000000E+00  0.00000000E+00
  0.00000000E+00  0.00000000E+00  0.00000000E+00
  0.00000000E+00  0.00000000E+00  0.00000000E+00
  0.00000000E+00  0.00000000E+00  0.00000000E+00
  0.00000000E+00  0.00000000E+00  0.00000000E+00
  0.00000000E+00  0.00000000E+00  0.00000000E+00
  0.00000000E+00  0.00000000E+00  0.00000000E+00
  0.00000000E+00  0.00000000E+00  0.00000000E+00
  0.00000000E+00  0.00000000E+00  0.00000000E+00
  0.00000000E+00  0.00000000E+00  0.00000000E+00
  0.00000000E+00  0.00000000E+00  0.00000000E+00
  0.00000000E+00  0.00000000E+00  0.00000000E+00
  0.00000000E+00  0.00000000E+00  0.00000000E+00
  0.00000000E+00  0.00000000E+00  0.00000000E+00
  0.00000000E+00  0.00000000E+00  0.00000000E+00
  0.00000000E+00  0.00000000E+00  0.00000000E+00
  0.00000000E+00  0.00000000E+00  0.00000000E+00
  0.00000000E+00  0.00000000E+00  0.00000000E+00
  0.00000000E+00  0.00000000E+00  0.00000000E+00
  0.00000000E+00  0.00000000E+00  0.00000000E+00
  0.00000000E+00  0.00000000E+00  0.00000000E+00
  0.00000000E+00  0.00000000E+00  0.00000000E+00
  0.00000000E+00  0.00000000E+00  0.00000000E+00
  0.00000000E+00  0.00000000E+00  0.00000000E+00
  0.00000000E+00  0.00000000E+00  0.00000000E+00
  0.00000000E+00  0.00000000E+00  0.00000000E+00
  0.00000000E+00  0.00000000E+00  0.00000000E+00
  0.00000000E+00  0.00000000E+00  0.00000000E+00
  0.00000000E+00  0.00000000E+00  0.00000000E+00
  0.00000000E+00  0.00000000E+00  0.00000000E+00
  0.00000000E+00  0.00000000E+00  0.00000000E+00
