Title                                   
   1.00000000000000     
     9.8694509999999998    0.0000000000000000    0.0000000000000000
     0.0000000000000000    8.5490480000000009    0.0000000000000000
     0.0000000000000000    0.0000000000000000   20.0000000000000000
    29     2     1
Selective dynamics
Direct
  0.0564829958195230  0.0898150045240269  0.0838212941713014   T   T   T
  0.9317184019700182  0.1731175676502929  0.0860373065361929   T   T   T
  0.0575766175595791  0.9229150693538208  0.0834567814276145   T   T   T
  0.9314429581634109  0.3403171851943159  0.0890389637018246   T   T   T
  0.0570583471808027  0.5901288627414911  0.0855498023947248   T   T   T
  0.9325976023535457  0.6724584430936891  0.0894084474927233   T   T   T
  0.0568204286162938  0.4226018455616438  0.0866276518068792   T   T   T
  0.9326413544745300  0.8393525698841109  0.0873924215230256   T   T   T
  0.3062369974586655  0.0887379932210277  0.0867228173026456   T   T   T
  0.1824168489800558  0.1723010969504931  0.0855928953172084   T   T   T
  0.1820344747369721  0.3388230482302419  0.0877130043343072   T   T   T
  0.3053045348049742  0.5882592021315753  0.0950120940971849   T   T   T
  0.1818378756249120  0.6734867545049835  0.0852834662857781   T   T   T
  0.3067075118028802  0.4206399731725017  0.0957589466466386   T   T   T
  0.1824103004641684  0.8401679540288493  0.0836811916628566   T   T   T
  0.5563391265181113  0.0883338625607989  0.0934387224337981   T   T   T
  0.5551520400130314  0.9235071714799179  0.0993068951304181   T   T   T
  0.4304700086658143  0.3326328308697790  0.1026311751102559   T   T   T
  0.4285495490455752  0.8413890195630547  0.0986464741984190   T   T   T
  0.8066702717060219  0.0891251702889171  0.0878725775080012   T   T   T
  0.6805763301380475  0.1715220821727869  0.0925009056963668   T   T   T
  0.8074030019127585  0.9238256097296584  0.0906100746146315   T   T   T
  0.6823202581047867  0.3365804793962913  0.1023974213962691   T   T   T
  0.8096006343350320  0.5905786118853327  0.1019374215785066   T   T   T
  0.8065950788404797  0.4224778515798500  0.0988579579773324   T   T   T
  0.6835567438161304  0.8418720007847068  0.1026485251569213   T   T   T
  0.4207328580923979  0.6805618728006484  0.1081098272055204   T   T   T
  0.5545363937033598  0.4052704089348356  0.1169284844990516   T   T   T
  0.6928363563144379  0.6799054968335986  0.1180021173188781   T   T   T
  0.3064626319837252  0.9256961372569502  0.0855229309905289   T   T   T
  0.4290019810423331  0.1683533288306295  0.0916601211189190   T   T   T
  0.5455484857576303  0.5954914947891824  0.1835062833652923   T   T   T
 
  0.00000000E+00  0.00000000E+00  0.00000000E+00
  0.00000000E+00  0.00000000E+00  0.00000000E+00
  0.00000000E+00  0.00000000E+00  0.00000000E+00
  0.00000000E+00  0.00000000E+00  0.00000000E+00
  0.00000000E+00  0.00000000E+00  0.00000000E+00
  0.00000000E+00  0.00000000E+00  0.00000000E+00
  0.00000000E+00  0.00000000E+00  0.00000000E+00
  0.00000000E+00  0.00000000E+00  0.00000000E+00
  0.00000000E+00  0.00000000E+00  0.00000000E+00
  0.00000000E+00  0.00000000E+00  0.00000000E+00
  0.00000000E+00  0.00000000E+00  0.00000000E+00
  0.00000000E+00  0.00000000E+00  0.00000000E+00
  0.00000000E+00  0.00000000E+00  0.00000000E+00
  0.00000000E+00  0.00000000E+00  0.00000000E+00
  0.00000000E+00  0.00000000E+00  0.00000000E+00
  0.00000000E+00  0.00000000E+00  0.00000000E+00
  0.00000000E+00  0.00000000E+00  0.00000000E+00
  0.00000000E+00  0.00000000E+00  0.00000000E+00
  0.00000000E+00  0.00000000E+00  0.00000000E+00
  0.00000000E+00  0.00000000E+00  0.00000000E+00
  0.00000000E+00  0.00000000E+00  0.00000000E+00
  0.00000000E+00  0.00000000E+00  0.00000000E+00
  0.00000000E+00  0.00000000E+00  0.00000000E+00
  0.00000000E+00  0.00000000E+00  0.00000000E+00
  0.00000000E+00  0.00000000E+00  0.00000000E+00
  0.00000000E+00  0.00000000E+00  0.00000000E+00
  0.00000000E+00  0.00000000E+00  0.00000000E+00
  0.00000000E+00  0.00000000E+00  0.00000000E+00
  0.00000000E+00  0.00000000E+00  0.00000000E+00
  0.00000000E+00  0.00000000E+00  0.00000000E+00
  0.00000000E+00  0.00000000E+00  0.00000000E+00
  0.00000000E+00  0.00000000E+00  0.00000000E+00
