Title                                   
   1.00000000000000     
     8.5490480000000009    0.0000000000000000    0.0000000000000000
     0.0000000000000000    8.5490480000000009    0.0000000000000000
     0.0000000000000000    0.0000000000000000   20.0000000000000000
    21     3     1
Selective dynamics
Direct
  0.9088761741590370  0.2079038434514445  0.0947442296244680   T   T   T
  0.9106790023583917  0.7983268469310333  0.0946085617826783   T   T   T
  0.1998954823922867  0.0834012310558273  0.0945860530728881   T   T   T
  0.0765361175072443  0.2040074745665048  0.0949668273835406   T   T   T
  0.1577205986302116  0.6491757363911118  0.0967905060388188   T   T   T
  0.0762839009649056  0.5007968231005729  0.0965174152880375   T   T   T
  0.1574805634456262  0.3544847073097858  0.0967476903604887   T   T   T
  0.0785129612468547  0.7978043545145750  0.0948041062705400   T   T   T
  0.3476687671957704  0.1653898572804080  0.0960412963906808   T   T   T
  0.4930324534867235  0.9196237035794306  0.0964497861422722   T   T   T
  0.3457307139773229  0.8368341316206337  0.0972466529314091   T   T   T
  0.7857558811898578  0.0856936505358893  0.0947461427895837   T   T   T
  0.6370891707124400  0.1674233046648569  0.0960645999067326   T   T   T
  0.7875730071685261  0.9188920938987569  0.0949070483496444   T   T   T
  0.8289770714094030  0.6478303613070643  0.0960379727917304   T   T   T
  0.8278865430288267  0.3570073385406696  0.0961306833811714   T   T   T
  0.6381975225532632  0.8371514007870742  0.0965429351308254   T   T   T
  0.3277112469912784  0.3339216641893710  0.1014510864275714   T   T   T
  0.3255887326295211  0.6706673803131832  0.1012415107413007   T   T   T
  0.6579721557409083  0.3370782840669529  0.1018768667604866   T   T   T
  0.6602671860526645  0.6668440062903203  0.1013465063171356   T   T   T
  0.4941384629247904  0.0859010874579522  0.0958882204573842   T   T   T
  0.9093024501990162  0.5015889390322082  0.0959708233873525   T   T   T
  0.1979763701931341  0.9167587216465827  0.0949058284263953   T   T   T
  0.4945594638419816  0.5002830574677971  0.1230916498468437   T   T   T
 
  0.00000000E+00  0.00000000E+00  0.00000000E+00
  0.00000000E+00  0.00000000E+00  0.00000000E+00
  0.00000000E+00  0.00000000E+00  0.00000000E+00
  0.00000000E+00  0.00000000E+00  0.00000000E+00
  0.00000000E+00  0.00000000E+00  0.00000000E+00
  0.00000000E+00  0.00000000E+00  0.00000000E+00
  0.00000000E+00  0.00000000E+00  0.00000000E+00
  0.00000000E+00  0.00000000E+00  0.00000000E+00
  0.00000000E+00  0.00000000E+00  0.00000000E+00
  0.00000000E+00  0.00000000E+00  0.00000000E+00
  0.00000000E+00  0.00000000E+00  0.00000000E+00
  0.00000000E+00  0.00000000E+00  0.00000000E+00
  0.00000000E+00  0.00000000E+00  0.00000000E+00
  0.00000000E+00  0.00000000E+00  0.00000000E+00
  0.00000000E+00  0.00000000E+00  0.00000000E+00
  0.00000000E+00  0.00000000E+00  0.00000000E+00
  0.00000000E+00  0.00000000E+00  0.00000000E+00
  0.00000000E+00  0.00000000E+00  0.00000000E+00
  0.00000000E+00  0.00000000E+00  0.00000000E+00
  0.00000000E+00  0.00000000E+00  0.00000000E+00
  0.00000000E+00  0.00000000E+00  0.00000000E+00
  0.00000000E+00  0.00000000E+00  0.00000000E+00
  0.00000000E+00  0.00000000E+00  0.00000000E+00
  0.00000000E+00  0.00000000E+00  0.00000000E+00
  0.00000000E+00  0.00000000E+00  0.00000000E+00
