Title                                   
   1.00000000000000     
     4.9440799999999996    0.0000000000000000    0.0000000000000000
     0.0000000000000000    8.5647549999999999    0.0000000000000000
     0.0000000000000000    0.0000000000000000   20.0000000000000000
    15     1
Selective dynamics
Direct
  0.2500000000000000  0.2075267436655371  0.0914302424821271   T   T   T
 -0.0023031483396665  0.2885399632730231  0.0956984324547174   T   T   T
  0.2500000000000000  0.0422291914708503  0.0846821766018646   T   T   T
 -0.0015438182298822  0.7952504295115171  0.0979404199248974   T   T   T
 -0.0009339412911247  0.9592213539326182  0.0852709028749310   T   T   T
  0.7500000000000000  0.2071605820170486  0.0864700132344983   T   T   T
  0.5023031483396667  0.2885399632730231  0.0956984324547174   T   T   T
  0.7500000000000000  0.0413383102555435  0.0817377186561730   T   T   T
  0.7500000000000000  0.7103363518406186  0.1032583465735014   T   T   T
  0.5015438182298821  0.7952504295115171  0.0979404199248974   T   T   T
  0.7500000000000000  0.5411593961283716  0.1073039194139665   T   T   T
  0.5009339412911249  0.9592213539326182  0.0852709028749310   T   T   T
  0.5149697724986655  0.4489007698126075  0.1139820837749111   T   T   T
 -0.0149697724986654  0.4489007698126075  0.1139820837749111   T   T   T
  0.2500000000000000  0.7239909364072750  0.1139955971459644   T   T   T
  0.2500000000000000  0.5424334551552246  0.1678503078329985   T   T   T
 
  0.00000000E+00  0.00000000E+00  0.00000000E+00
  0.00000000E+00  0.00000000E+00  0.00000000E+00
  0.00000000E+00  0.00000000E+00  0.00000000E+00
  0.00000000E+00  0.00000000E+00  0.00000000E+00
  0.00000000E+00  0.00000000E+00  0.00000000E+00
  0.00000000E+00  0.00000000E+00  0.00000000E+00
  0.00000000E+00  0.00000000E+00  0.00000000E+00
  0.00000000E+00  0.00000000E+00  0.00000000E+00
  0.00000000E+00  0.00000000E+00  0.00000000E+00
  0.00000000E+00  0.00000000E+00  0.00000000E+00
  0.00000000E+00  0.00000000E+00  0.00000000E+00
  0.00000000E+00  0.00000000E+00  0.00000000E+00
  0.00000000E+00  0.00000000E+00  0.00000000E+00
  0.00000000E+00  0.00000000E+00  0.00000000E+00
  0.00000000E+00  0.00000000E+00  0.00000000E+00
  0.00000000E+00  0.00000000E+00  0.00000000E+00
