Title                                   
   1.00000000000000     
     8.5490480000000009    0.0000000000000000    0.0000000000000000
     0.0000000000000000    8.5490480000000009    0.0000000000000000
     0.0000000000000000    0.0000000000000000   20.0000000000000000
    18     6     1
Selective dynamics
Direct
  0.9080208108716141  0.2055844268370881  0.0974851913325643   T   T   T
  0.9115107072587076  0.8013319871416608  0.0973623625006140   T   T   T
  0.1969197576194106  0.0830045631387798  0.0976556155280962   T   T   T
  0.0761944312963414  0.2004312294874770  0.0975782671580966   T   T   T
  0.1554344214699714  0.6514447741467974  0.0978909675547519   T   T   T
  0.0758464272183023  0.5003262354419581  0.0978081831429570   T   T   T
  0.1548671852956635  0.3525170872471065  0.0977175350978201   T   T   T
  0.0793664538483725  0.7993833007790723  0.0976368027688821   T   T   T
  0.3465763650654171  0.1638050977011998  0.0977695612413795   T   T   T
  0.4931318198819837  0.9160003299415954  0.0978148617870606   T   T   T
  0.3437378478960372  0.8377139258234013  0.0980073231577459   T   T   T
  0.7878083944820032  0.0867174168626993  0.0974203359464666   T   T   T
  0.6407642309329880  0.1658326938477603  0.0977109556777075   T   T   T
  0.7907520839813659  0.9190667284218987  0.0973412029417649   T   T   T
  0.8304996365065860  0.6524555888315159  0.0976049396216985   T   T   T
  0.8272473943558518  0.3530141041572278  0.0977205973986763   T   T   T
  0.6438392340906199  0.8382766073750352  0.0975975286999062   T   T   T
  0.3238591459814881  0.3299977031577598  0.0978583725393696   T   T   T
  0.4937338706390442  0.0866868141942947  0.0978294791059364   T   T   T
  0.9042360582970183  0.5028458753266372  0.0977803398747038   T   T   T
  0.3188002865493811  0.6767639210891307  0.0982022949520936   T   T   T
  0.6639070395221814  0.3288259294013746  0.0979311520573374   T   T   T
  0.6702084930796505  0.6755794306367430  0.0977966253799268   T   T   T
  0.1965094811386581  0.9155537244342177  0.0978126318434288   T   T   T
  0.4916404227213356  0.5016305045775892  0.0983718726909882   T   T   T
 
  0.00000000E+00  0.00000000E+00  0.00000000E+00
  0.00000000E+00  0.00000000E+00  0.00000000E+00
  0.00000000E+00  0.00000000E+00  0.00000000E+00
  0.00000000E+00  0.00000000E+00  0.00000000E+00
  0.00000000E+00  0.00000000E+00  0.00000000E+00
  0.00000000E+00  0.00000000E+00  0.00000000E+00
  0.00000000E+00  0.00000000E+00  0.00000000E+00
  0.00000000E+00  0.00000000E+00  0.00000000E+00
  0.00000000E+00  0.00000000E+00  0.00000000E+00
  0.00000000E+00  0.00000000E+00  0.00000000E+00
  0.00000000E+00  0.00000000E+00  0.00000000E+00
  0.00000000E+00  0.00000000E+00  0.00000000E+00
  0.00000000E+00  0.00000000E+00  0.00000000E+00
  0.00000000E+00  0.00000000E+00  0.00000000E+00
  0.00000000E+00  0.00000000E+00  0.00000000E+00
  0.00000000E+00  0.00000000E+00  0.00000000E+00
  0.00000000E+00  0.00000000E+00  0.00000000E+00
  0.00000000E+00  0.00000000E+00  0.00000000E+00
  0.00000000E+00  0.00000000E+00  0.00000000E+00
  0.00000000E+00  0.00000000E+00  0.00000000E+00
  0.00000000E+00  0.00000000E+00  0.00000000E+00
  0.00000000E+00  0.00000000E+00  0.00000000E+00
  0.00000000E+00  0.00000000E+00  0.00000000E+00
  0.00000000E+00  0.00000000E+00  0.00000000E+00
  0.00000000E+00  0.00000000E+00  0.00000000E+00
