Title                                   
   1.00000000000000     
     9.8694509999999998    0.0000000000000000    0.0000000000000000
     0.0000000000000000    8.5490480000000009    0.0000000000000000
     0.0000000000000000    0.0000000000000000   20.0000000000000000
    28     2     1
Selective dynamics
Direct
  0.0558113950387671  0.0889503685006608  0.0822482030888103   T   T   T
  0.9310894800083310  0.1724441650094841  0.0842261819405240   T   T   T
  0.0574719250168611  0.9230085587436564  0.0827909067502869   T   T   T
  0.9331319392356328  0.3395146214759642  0.0838221201812577   T   T   T
  0.0571014277917688  0.5906754860861738  0.0800101911767950   T   T   T
  0.9331869625949388  0.6739967105164900  0.0846286835251268   T   T   T
  0.0573239554520007  0.4230190411360355  0.0796849739878983   T   T   T
  0.9318922388692285  0.8401284356647981  0.0851893155083432   T   T   T
  0.3051132804375604  0.0881442812818165  0.0909572242314925   T   T   T
  0.1805045135652600  0.1702540798296820  0.0841619026463464   T   T   T
  0.1804685977036882  0.3380415396128655  0.0829369150447928   T   T   T
  0.3048372585966541  0.5889111635555540  0.0928016370244625   T   T   T
  0.1817812935911768  0.6730203775724769  0.0831253867162220   T   T   T
  0.3035087229267458  0.4181387475797048  0.0926164194330937   T   T   T
  0.1825202392937191  0.8402156172547589  0.0846239126177524   T   T   T
  0.5552124987911944  0.0919330495476645  0.1039365450095009   T   T   T
  0.4270952330127338  0.1751408574948481  0.1007540786568489   T   T   T
  0.5544886327081113  0.9248548961019925  0.1047721929698483   T   T   T
  0.4238080114653356  0.6733876581618056  0.1065929380952146   T   T   T
  0.4282802086559073  0.8373852743047075  0.1018489501238485   T   T   T
  0.8060865998835136  0.0899641455688775  0.0908859010809497   T   T   T
  0.6830166730720152  0.1766007675389419  0.1013952194366557   T   T   T
  0.8061547953307028  0.9229915846858793  0.0916362342797989   T   T   T
  0.6896101064318307  0.3407602684851008  0.1082264551565871   T   T   T
  0.8104253547662261  0.5925407147432953  0.0964310762063761   T   T   T
  0.6895141765353385  0.6729030132103525  0.1108147246330895   T   T   T
  0.8109003982216281  0.4214261183180181  0.0954237307094398   T   T   T
  0.6826242434979386  0.8379026722688266  0.1031472315940714   T   T   T
  0.4205806111886862  0.3365027113843985  0.1052607015348933   T   T   T
  0.3058756348916790  0.9232301542943763  0.0908615600202285   T   T   T
  0.5537185914248436  0.5048879200708133  0.1551534866194924   T   T   T
 
  0.00000000E+00  0.00000000E+00  0.00000000E+00
  0.00000000E+00  0.00000000E+00  0.00000000E+00
  0.00000000E+00  0.00000000E+00  0.00000000E+00
  0.00000000E+00  0.00000000E+00  0.00000000E+00
  0.00000000E+00  0.00000000E+00  0.00000000E+00
  0.00000000E+00  0.00000000E+00  0.00000000E+00
  0.00000000E+00  0.00000000E+00  0.00000000E+00
  0.00000000E+00  0.00000000E+00  0.00000000E+00
  0.00000000E+00  0.00000000E+00  0.00000000E+00
  0.00000000E+00  0.00000000E+00  0.00000000E+00
  0.00000000E+00  0.00000000E+00  0.00000000E+00
  0.00000000E+00  0.00000000E+00  0.00000000E+00
  0.00000000E+00  0.00000000E+00  0.00000000E+00
  0.00000000E+00  0.00000000E+00  0.00000000E+00
  0.00000000E+00  0.00000000E+00  0.00000000E+00
  0.00000000E+00  0.00000000E+00  0.00000000E+00
  0.00000000E+00  0.00000000E+00  0.00000000E+00
  0.00000000E+00  0.00000000E+00  0.00000000E+00
  0.00000000E+00  0.00000000E+00  0.00000000E+00
  0.00000000E+00  0.00000000E+00  0.00000000E+00
  0.00000000E+00  0.00000000E+00  0.00000000E+00
  0.00000000E+00  0.00000000E+00  0.00000000E+00
  0.00000000E+00  0.00000000E+00  0.00000000E+00
  0.00000000E+00  0.00000000E+00  0.00000000E+00
  0.00000000E+00  0.00000000E+00  0.00000000E+00
  0.00000000E+00  0.00000000E+00  0.00000000E+00
  0.00000000E+00  0.00000000E+00  0.00000000E+00
  0.00000000E+00  0.00000000E+00  0.00000000E+00
  0.00000000E+00  0.00000000E+00  0.00000000E+00
  0.00000000E+00  0.00000000E+00  0.00000000E+00
  0.00000000E+00  0.00000000E+00  0.00000000E+00
