Title                                   
   1.00000000000000     
     8.5490480000000009    0.0000000000000000    0.0000000000000000
     0.0000000000000000    8.5490480000000009    0.0000000000000000
     0.0000000000000000    0.0000000000000000   20.0000000000000000
    23     1     1
Selective dynamics
Direct
  0.9100122723621259  0.2060152069349343  0.0976631468567968   T   T   T
  0.9097381070987270  0.5026975680336516  0.0977292417301206   T   T   T
  0.9121928229101826  0.8006366417471584  0.0976637163849440   T   T   T
  0.1983769428597827  0.0822867694290065  0.0978020321997356   T   T   T
  0.0744317998752546  0.2037816252748137  0.0977226252559113   T   T   T
  0.1594279161017662  0.6490056121382282  0.0977708750307623   T   T   T
  0.0776250881829248  0.5015764948517607  0.0977546502480882   T   T   T
  0.1582517885308612  0.3547657401787244  0.0977770320964271   T   T   T
  0.0777061743668411  0.7982379625904793  0.0977544189300442   T   T   T
  0.4924694664025374  0.0855188424164607  0.0978367425330733   T   T   T
  0.3455875526189360  0.1644323943735273  0.0978530498597007   T   T   T
  0.4917648418692487  0.9178987640276610  0.0977661113890326   T   T   T
  0.3459493686031209  0.8358331228205960  0.0977641856387902   T   T   T
  0.7869939469609269  0.0844791958294234  0.0976855275337795   T   T   T
  0.6379122879128315  0.1675224030242668  0.0978174480928380   T   T   T
  0.7877778404676149  0.9206578694157058  0.0976575253398766   T   T   T
  0.8300056350804180  0.6498140723173822  0.0976957093024127   T   T   T
  0.8276578291901232  0.3563059906921649  0.0977319750027752   T   T   T
  0.6383588599370801  0.8360803516616405  0.0977106469984707   T   T   T
  0.3241469653492464  0.3331289878789559  0.0978087960075877   T   T   T
  0.3246144486537226  0.6706819652910651  0.0977229729736856   T   T   T
  0.6604651953404518  0.3346580451479479  0.0977822946423461   T   T   T
  0.6620340959063072  0.6701216201731863  0.0976893545169419   T   T   T
  0.1984586922229678  0.9180283545797200  0.0978250262116855   T   T   T
  0.4934520611959862  0.5006243991715449  0.0977198952241536   T   T   T
 
  0.00000000E+00  0.00000000E+00  0.00000000E+00
  0.00000000E+00  0.00000000E+00  0.00000000E+00
  0.00000000E+00  0.00000000E+00  0.00000000E+00
  0.00000000E+00  0.00000000E+00  0.00000000E+00
  0.00000000E+00  0.00000000E+00  0.00000000E+00
  0.00000000E+00  0.00000000E+00  0.00000000E+00
  0.00000000E+00  0.00000000E+00  0.00000000E+00
  0.00000000E+00  0.00000000E+00  0.00000000E+00
  0.00000000E+00  0.00000000E+00  0.00000000E+00
  0.00000000E+00  0.00000000E+00  0.00000000E+00
  0.00000000E+00  0.00000000E+00  0.00000000E+00
  0.00000000E+00  0.00000000E+00  0.00000000E+00
  0.00000000E+00  0.00000000E+00  0.00000000E+00
  0.00000000E+00  0.00000000E+00  0.00000000E+00
  0.00000000E+00  0.00000000E+00  0.00000000E+00
  0.00000000E+00  0.00000000E+00  0.00000000E+00
  0.00000000E+00  0.00000000E+00  0.00000000E+00
  0.00000000E+00  0.00000000E+00  0.00000000E+00
  0.00000000E+00  0.00000000E+00  0.00000000E+00
  0.00000000E+00  0.00000000E+00  0.00000000E+00
  0.00000000E+00  0.00000000E+00  0.00000000E+00
  0.00000000E+00  0.00000000E+00  0.00000000E+00
  0.00000000E+00  0.00000000E+00  0.00000000E+00
  0.00000000E+00  0.00000000E+00  0.00000000E+00
  0.00000000E+00  0.00000000E+00  0.00000000E+00
