Title                                   
   1.00000000000000     
     9.8694509999999998    0.0000000000000000    0.0000000000000000
     0.0000000000000000    8.5490480000000009    0.0000000000000000
     0.0000000000000000    0.0000000000000000   20.0000000000000000
    29     2     1
Selective dynamics
Direct
  0.0563242986767615  0.0900849155372758  0.0833397545852202   T   T   T
  0.9316919365861352  0.1731108407558282  0.0850048710964610   T   T   T
  0.0574473633960850  0.9231970884281900  0.0824494984276185   T   T   T
  0.9314071228148471  0.3404524735630823  0.0886907665627655   T   T   T
  0.0572281384430356  0.5906040707949006  0.0853900882386119   T   T   T
  0.9322055390672968  0.6729704678075926  0.0874838813574297   T   T   T
  0.0570389938165399  0.4229830993774193  0.0870258341745232   T   T   T
  0.9319125619268873  0.8394273151836443  0.0846544687617235   T   T   T
  0.3058088746502925  0.0889429532029619  0.0882293060540379   T   T   T
  0.1821686672992431  0.1728423495542034  0.0864987267098388   T   T   T
  0.1823207466140066  0.3394804123973991  0.0896165679013324   T   T   T
  0.3051289730533988  0.5881542292250219  0.0999896921099281   T   T   T
  0.1823565933568813  0.6741377535607633  0.0873157487884065   T   T   T
  0.3066009440077855  0.4209938941913081  0.0999761559658566   T   T   T
  0.1818471079576548  0.8405250494344128  0.0850776794099930   T   T   T
  0.5555351461815721  0.0878529109166365  0.0925894918736118   T   T   T
  0.5542267755107920  0.9248912847946724  0.0970002514761780   T   T   T
  0.4295710409900475  0.3313952751377383  0.1069768932351785   T   T   T
  0.4277847438121630  0.8428954508825048  0.1010595562496435   T   T   T
  0.8063389531100705  0.0894204536470109  0.0852965202876280   T   T   T
  0.6804485019905661  0.1711445181142425  0.0911349186356641   T   T   T
  0.8070433102325303  0.9240361845766064  0.0867896776592459   T   T   T
  0.6829193904658319  0.3344450577524552  0.1037939610204559   T   T   T
  0.8082768114427912  0.5900042288911750  0.0995383849932025   T   T   T
  0.8063950581797458  0.4216046782249404  0.0982212614663470   T   T   T
  0.6821529167709453  0.8429765879290982  0.0981411823745667   T   T   T
  0.4176677946259282  0.6844526605685017  0.1143165518017973   T   T   T
  0.5558997610873776  0.3954833076718669  0.1243981131842698   T   T   T
  0.6932816061637763  0.6830691494169759  0.1126383720513483   T   T   T
  0.3056890409692456  0.9264956168070284  0.0882810159917735   T   T   T
  0.4283692515556338  0.1686166685628336  0.0931126149468167   T   T   T
  0.5565510352441411  0.5935550530917113  0.1716431926085418   T   T   T
 
  0.00000000E+00  0.00000000E+00  0.00000000E+00
  0.00000000E+00  0.00000000E+00  0.00000000E+00
  0.00000000E+00  0.00000000E+00  0.00000000E+00
  0.00000000E+00  0.00000000E+00  0.00000000E+00
  0.00000000E+00  0.00000000E+00  0.00000000E+00
  0.00000000E+00  0.00000000E+00  0.00000000E+00
  0.00000000E+00  0.00000000E+00  0.00000000E+00
  0.00000000E+00  0.00000000E+00  0.00000000E+00
  0.00000000E+00  0.00000000E+00  0.00000000E+00
  0.00000000E+00  0.00000000E+00  0.00000000E+00
  0.00000000E+00  0.00000000E+00  0.00000000E+00
  0.00000000E+00  0.00000000E+00  0.00000000E+00
  0.00000000E+00  0.00000000E+00  0.00000000E+00
  0.00000000E+00  0.00000000E+00  0.00000000E+00
  0.00000000E+00  0.00000000E+00  0.00000000E+00
  0.00000000E+00  0.00000000E+00  0.00000000E+00
  0.00000000E+00  0.00000000E+00  0.00000000E+00
  0.00000000E+00  0.00000000E+00  0.00000000E+00
  0.00000000E+00  0.00000000E+00  0.00000000E+00
  0.00000000E+00  0.00000000E+00  0.00000000E+00
  0.00000000E+00  0.00000000E+00  0.00000000E+00
  0.00000000E+00  0.00000000E+00  0.00000000E+00
  0.00000000E+00  0.00000000E+00  0.00000000E+00
  0.00000000E+00  0.00000000E+00  0.00000000E+00
  0.00000000E+00  0.00000000E+00  0.00000000E+00
  0.00000000E+00  0.00000000E+00  0.00000000E+00
  0.00000000E+00  0.00000000E+00  0.00000000E+00
  0.00000000E+00  0.00000000E+00  0.00000000E+00
  0.00000000E+00  0.00000000E+00  0.00000000E+00
  0.00000000E+00  0.00000000E+00  0.00000000E+00
  0.00000000E+00  0.00000000E+00  0.00000000E+00
  0.00000000E+00  0.00000000E+00  0.00000000E+00
