Title                                   
   1.00000000000000     
     9.8694509999999998    0.0000000000000000    0.0000000000000000
     0.0000000000000000    8.5490480000000009    0.0000000000000000
     0.0000000000000000    0.0000000000000000   20.0000000000000000
    25     5     1
Selective dynamics
Direct
  0.0555044416761681  0.0888254508737879  0.0898247172653998   T   T   T
  0.9310432401261743  0.1712685419124538  0.0917230639435144   T   T   T
  0.0569058886689877  0.9215317058767665  0.0903021082577378   T   T   T
  0.9354024013309998  0.3379831579489359  0.0916482211173645   T   T   T
  0.0568848610690836  0.5906219677018929  0.0888274412726868   T   T   T
  0.0571438323119191  0.4236393873736263  0.0882048185366592   T   T   T
  0.9318222933444097  0.8387541083474611  0.0923854909241352   T   T   T
  0.3062361054967508  0.0880756234185068  0.0922801067563492   T   T   T
  0.1803130061559140  0.1718094073301707  0.0895762208796357   T   T   T
  0.1799943076726633  0.3386575474713220  0.0884257065192202   T   T   T
  0.3020302879895420  0.5895091933639272  0.0920086399863343   T   T   T
  0.1794352935033043  0.6738092793635251  0.0891197770796946   T   T   T
  0.3032055081123471  0.4213576402179194  0.0918628516310491   T   T   T
  0.1809513176302814  0.8400450022720036  0.0903355285366909   T   T   T
  0.4279653142635443  0.1737597441283290  0.0965566573211051   T   T   T
  0.5528570424531222  0.9217909674037750  0.0993952025848793   T   T   T
  0.4271638961511864  0.8380968813202238  0.0971325181036411   T   T   T
  0.8049815411342647  0.0885714872057388  0.0951943291869040   T   T   T
  0.6803836622579432  0.1765570738228169  0.0995956352780708   T   T   T
  0.8060371056989111  0.9211116787448599  0.0955560614214358   T   T   T
  0.6923090601908825  0.3400688025469906  0.1033703323701119   T   T   T
  0.8151580138726530  0.5915616970035793  0.0984867562883503   T   T   T
  0.6937703702866937  0.6731924106359406  0.1039202606363396   T   T   T
  0.8154965431823553  0.4219435511118576  0.0980880106981373   T   T   T
  0.6794800470778893  0.8378030591998927  0.1001229160189204   T   T   T
  0.9357261471185525  0.6734691112325792  0.0923281194816079   T   T   T
  0.5538955277817895  0.0939071107175740  0.0993407086785352   T   T   T
  0.4212863645704814  0.3337945739557702  0.0979619872126666   T   T   T
  0.4191426625954546  0.6794768440899409  0.0988319227564721   T   T   T
  0.3044226565012782  0.9226316458335738  0.0923546664637472   T   T   T
  0.5561862597744677  0.5072503475742631  0.1062042227926518   T   T   T
 
  0.00000000E+00  0.00000000E+00  0.00000000E+00
  0.00000000E+00  0.00000000E+00  0.00000000E+00
  0.00000000E+00  0.00000000E+00  0.00000000E+00
  0.00000000E+00  0.00000000E+00  0.00000000E+00
  0.00000000E+00  0.00000000E+00  0.00000000E+00
  0.00000000E+00  0.00000000E+00  0.00000000E+00
  0.00000000E+00  0.00000000E+00  0.00000000E+00
  0.00000000E+00  0.00000000E+00  0.00000000E+00
  0.00000000E+00  0.00000000E+00  0.00000000E+00
  0.00000000E+00  0.00000000E+00  0.00000000E+00
  0.00000000E+00  0.00000000E+00  0.00000000E+00
  0.00000000E+00  0.00000000E+00  0.00000000E+00
  0.00000000E+00  0.00000000E+00  0.00000000E+00
  0.00000000E+00  0.00000000E+00  0.00000000E+00
  0.00000000E+00  0.00000000E+00  0.00000000E+00
  0.00000000E+00  0.00000000E+00  0.00000000E+00
  0.00000000E+00  0.00000000E+00  0.00000000E+00
  0.00000000E+00  0.00000000E+00  0.00000000E+00
  0.00000000E+00  0.00000000E+00  0.00000000E+00
  0.00000000E+00  0.00000000E+00  0.00000000E+00
  0.00000000E+00  0.00000000E+00  0.00000000E+00
  0.00000000E+00  0.00000000E+00  0.00000000E+00
  0.00000000E+00  0.00000000E+00  0.00000000E+00
  0.00000000E+00  0.00000000E+00  0.00000000E+00
  0.00000000E+00  0.00000000E+00  0.00000000E+00
  0.00000000E+00  0.00000000E+00  0.00000000E+00
  0.00000000E+00  0.00000000E+00  0.00000000E+00
  0.00000000E+00  0.00000000E+00  0.00000000E+00
  0.00000000E+00  0.00000000E+00  0.00000000E+00
  0.00000000E+00  0.00000000E+00  0.00000000E+00
  0.00000000E+00  0.00000000E+00  0.00000000E+00
