Title                                   
   1.00000000000000     
     9.8694509999999998    0.0000000000000000    0.0000000000000000
     0.0000000000000000    8.5490480000000009    0.0000000000000000
     0.0000000000000000    0.0000000000000000   20.0000000000000000
    25     5     1
Selective dynamics
Direct
  0.0553583474821008  0.0899623628274228  0.0930314075754170   T   T   T
  0.9306602561904356  0.1725412990670742  0.0939356213402249   T   T   T
  0.0571334979801972  0.9243249245536665  0.0930306010720911   T   T   T
  0.9341775126231734  0.3400419156458349  0.0934034074690033   T   T   T
  0.0573884557053875  0.5898875866796780  0.0913360855186566   T   T   T
  0.9346853428583580  0.6745932206240657  0.0932468755908290   T   T   T
  0.0577272498357129  0.4231350634494747  0.0914693540227901   T   T   T
  0.9325112708301172  0.8410521150042206  0.0939077546573795   T   T   T
  0.3060009015368046  0.0875204240245128  0.0960900189401575   T   T   T
  0.1814905559931291  0.1718457282627110  0.0936028095841644   T   T   T
  0.1807513039590458  0.3384541431804920  0.0929680346379548   T   T   T
  0.3029518473194882  0.5904375704717926  0.0965621741129370   T   T   T
  0.1802226832674949  0.6742485432528645  0.0927218777537466   T   T   T
  0.3036443980307046  0.4209262982178643  0.0965422389245629   T   T   T
  0.1811729428191988  0.8402253646218171  0.0935187996255463   T   T   T
  0.4297300996128403  0.1742825651052110  0.0995618856211787   T   T   T
  0.5539274516684654  0.9184458626135998  0.1008616545507098   T   T   T
  0.4274542360934291  0.8362990511422855  0.0998358795579737   T   T   T
  0.8044079470059553  0.0889261081335463  0.0964602659612382   T   T   T
  0.6802280352519593  0.1765517853752327  0.0997783373967696   T   T   T
  0.8063997635112441  0.9226574655045817  0.0965169307288541   T   T   T
  0.6880312263707303  0.3401536562163913  0.1015759419968361   T   T   T
  0.8127721259483486  0.5929074776440151  0.0971739297298444   T   T   T
  0.8120025235891563  0.4234994663938768  0.0971813045945213   T   T   T
  0.6823384958171057  0.8340915467659915  0.1000366136028314   T   T   T
  0.5544555254554173  0.0914604611083421  0.1007542398513257   T   T   T
  0.4229653550301114  0.3340307510777112  0.1011901635059956   T   T   T
  0.6922428554499784  0.6733278923478392  0.1017683763878349   T   T   T
  0.4192186312258964  0.6780992061371852  0.1018367208100761   T   T   T
  0.3049873254086085  0.9236812351002422  0.0959128345073109   T   T   T
  0.5560968361294134  0.5032639094504676  0.1051528603712751   T   T   T
 
  0.00000000E+00  0.00000000E+00  0.00000000E+00
  0.00000000E+00  0.00000000E+00  0.00000000E+00
  0.00000000E+00  0.00000000E+00  0.00000000E+00
  0.00000000E+00  0.00000000E+00  0.00000000E+00
  0.00000000E+00  0.00000000E+00  0.00000000E+00
  0.00000000E+00  0.00000000E+00  0.00000000E+00
  0.00000000E+00  0.00000000E+00  0.00000000E+00
  0.00000000E+00  0.00000000E+00  0.00000000E+00
  0.00000000E+00  0.00000000E+00  0.00000000E+00
  0.00000000E+00  0.00000000E+00  0.00000000E+00
  0.00000000E+00  0.00000000E+00  0.00000000E+00
  0.00000000E+00  0.00000000E+00  0.00000000E+00
  0.00000000E+00  0.00000000E+00  0.00000000E+00
  0.00000000E+00  0.00000000E+00  0.00000000E+00
  0.00000000E+00  0.00000000E+00  0.00000000E+00
  0.00000000E+00  0.00000000E+00  0.00000000E+00
  0.00000000E+00  0.00000000E+00  0.00000000E+00
  0.00000000E+00  0.00000000E+00  0.00000000E+00
  0.00000000E+00  0.00000000E+00  0.00000000E+00
  0.00000000E+00  0.00000000E+00  0.00000000E+00
  0.00000000E+00  0.00000000E+00  0.00000000E+00
  0.00000000E+00  0.00000000E+00  0.00000000E+00
  0.00000000E+00  0.00000000E+00  0.00000000E+00
  0.00000000E+00  0.00000000E+00  0.00000000E+00
  0.00000000E+00  0.00000000E+00  0.00000000E+00
  0.00000000E+00  0.00000000E+00  0.00000000E+00
  0.00000000E+00  0.00000000E+00  0.00000000E+00
  0.00000000E+00  0.00000000E+00  0.00000000E+00
  0.00000000E+00  0.00000000E+00  0.00000000E+00
  0.00000000E+00  0.00000000E+00  0.00000000E+00
  0.00000000E+00  0.00000000E+00  0.00000000E+00
