Title                                   
   1.00000000000000     
     9.8694509999999998    0.0000000000000000    0.0000000000000000
     0.0000000000000000    8.5490480000000009    0.0000000000000000
     0.0000000000000000    0.0000000000000000   20.0000000000000000
    27     3     1
Selective dynamics
Direct
  0.0545169943149675  0.0896522460188739  0.0858969443010829   T   T   T
  0.9292381239232977  0.1746604222997795  0.0855097582908606   T   T   T
  0.0585579176584355  0.9235178806795663  0.0865082512965388   T   T   T
  0.9315147703297477  0.3421285539729674  0.0849300256672904   T   T   T
  0.0573946715281708  0.5904263790846357  0.0841165966671309   T   T   T
  0.9345119957366673  0.6769471755208620  0.0872190505608101   T   T   T
  0.0562337596299931  0.4230268828409244  0.0838727056280646   T   T   T
  0.9335819347917227  0.8429792960297052  0.0886457810529007   T   T   T
  0.3053364568855705  0.0851966742783242  0.0947656992809800   T   T   T
  0.1792922513388321  0.1682330216129019  0.0890921033252917   T   T   T
  0.1788664343340835  0.3352325560342149  0.0880131931432974   T   T   T
  0.3040311401603440  0.5834111642940748  0.0923816879347499   T   T   T
  0.1822487038234439  0.6716904380577075  0.0866697326664000   T   T   T
  0.3007101929973851  0.4149879045002691  0.0971633278408618   T   T   T
  0.1838103486085769  0.8386552787626635  0.0875392002821927   T   T   T
  0.5547976270949808  0.0911162130597476  0.1025229328103643   T   T   T
  0.4255283071662683  0.1734344870139950  0.1044509940221740   T   T   T
  0.5567672299670087  0.9212850357074981  0.1029656368048800   T   T   T
  0.4287547380407216  0.6624924234614449  0.0970962687600616   T   T   T
  0.4333287693717076  0.8309834078180705  0.0977544315511467   T   T   T
  0.8030858097056462  0.0941278349932055  0.0903647155474958   T   T   T
  0.6774304657834970  0.1815527026299536  0.0954819599961649   T   T   T
  0.8067402428470577  0.9255098563678635  0.0931322462111530   T   T   T
  0.6824812663250580  0.3517740375271630  0.0944942019941983   T   T   T
  0.8120182271018661  0.5973442737293354  0.0952035794237490   T   T   T
  0.8085183030693668  0.4286498545917853  0.0900372037848901   T   T   T
  0.6859602148900582  0.8368331454401614  0.1029973079892512   T   T   T
  0.4176297887191222  0.3349793440940110  0.1136286697188901   T   T   T
  0.6945749694853055  0.6754201705628857  0.1116079960598918   T   T   T
  0.3084831453893181  0.9189287869236322  0.0923732388691731   T   T   T
  0.5571901989817816  0.5056975520918038  0.1345295585180978   T   T   T
 
  0.00000000E+00  0.00000000E+00  0.00000000E+00
  0.00000000E+00  0.00000000E+00  0.00000000E+00
  0.00000000E+00  0.00000000E+00  0.00000000E+00
  0.00000000E+00  0.00000000E+00  0.00000000E+00
  0.00000000E+00  0.00000000E+00  0.00000000E+00
  0.00000000E+00  0.00000000E+00  0.00000000E+00
  0.00000000E+00  0.00000000E+00  0.00000000E+00
  0.00000000E+00  0.00000000E+00  0.00000000E+00
  0.00000000E+00  0.00000000E+00  0.00000000E+00
  0.00000000E+00  0.00000000E+00  0.00000000E+00
  0.00000000E+00  0.00000000E+00  0.00000000E+00
  0.00000000E+00  0.00000000E+00  0.00000000E+00
  0.00000000E+00  0.00000000E+00  0.00000000E+00
  0.00000000E+00  0.00000000E+00  0.00000000E+00
  0.00000000E+00  0.00000000E+00  0.00000000E+00
  0.00000000E+00  0.00000000E+00  0.00000000E+00
  0.00000000E+00  0.00000000E+00  0.00000000E+00
  0.00000000E+00  0.00000000E+00  0.00000000E+00
  0.00000000E+00  0.00000000E+00  0.00000000E+00
  0.00000000E+00  0.00000000E+00  0.00000000E+00
  0.00000000E+00  0.00000000E+00  0.00000000E+00
  0.00000000E+00  0.00000000E+00  0.00000000E+00
  0.00000000E+00  0.00000000E+00  0.00000000E+00
  0.00000000E+00  0.00000000E+00  0.00000000E+00
  0.00000000E+00  0.00000000E+00  0.00000000E+00
  0.00000000E+00  0.00000000E+00  0.00000000E+00
  0.00000000E+00  0.00000000E+00  0.00000000E+00
  0.00000000E+00  0.00000000E+00  0.00000000E+00
  0.00000000E+00  0.00000000E+00  0.00000000E+00
  0.00000000E+00  0.00000000E+00  0.00000000E+00
  0.00000000E+00  0.00000000E+00  0.00000000E+00
