Title                                   
   1.00000000000000     
     9.8694509999999998    0.0000000000000000    0.0000000000000000
     0.0000000000000000    8.5490480000000009    0.0000000000000000
     0.0000000000000000    0.0000000000000000   20.0000000000000000
    31     1
Selective dynamics
Direct
  0.0562524176081722  0.0900918146154841  0.0804049090008181   T   T   T
  0.9311658822177967  0.1729557853635601  0.0833337400449677   T   T   T
  0.0562375637899748  0.9231211959230970  0.0798049105316830   T   T   T
  0.9305499668095656  0.3399996231502398  0.0877941407344373   T   T   T
  0.0562405029142521  0.5889653332910028  0.0833601840661828   T   T   T
  0.9319619317380552  0.6727188062624154  0.0856176380615135   T   T   T
  0.0562287713576197  0.4229878092158852  0.0856878728842504   T   T   T
  0.9315278237231516  0.8396652576101176  0.0828236328922952   T   T   T
  0.3057174065921380  0.0894132370680187  0.0852076007971565   T   T   T
  0.1813281847440204  0.1729696532972550  0.0833366458780350   T   T   T
  0.3055663507017913  0.9229313947070419  0.0865174415602882   T   T   T
  0.1819075418807751  0.3400135125173815  0.0877613970840203   T   T   T
  0.3030681354196862  0.5911870978951704  0.0992919428901096   T   T   T
  0.1805231157187004  0.6727187049581559  0.0855628033430687   T   T   T
  0.3051763359310267  0.4221974581663734  0.0976721393593944   T   T   T
  0.1809416246577752  0.8396590941873652  0.0827847447299904   T   T   T
  0.5562370267101976  0.0870043685875816  0.0934830254043272   T   T   T
  0.4305225181114845  0.1712439480779427  0.0914956247106798   T   T   T
  0.5562366026389831  0.9223952712971307  0.0997943815194156   T   T   T
  0.4312372973895920  0.3362220705082841  0.1010772306041479   T   T   T
  0.4201247647921912  0.6786665022646969  0.1153150552220354   T   T   T
  0.5562254678016043  0.4104649999106695  0.1157899362904206   T   T   T
  0.4280812979657065  0.8398173723642357  0.1002675379571169   T   T   T
  0.8067644871542602  0.0893986717142845  0.0852060596629018   T   T   T
  0.6819744254924924  0.1712474666224680  0.0915188858098871   T   T   T
  0.8069033075855470  0.9229228328417217  0.0865633395058635   T   T   T
  0.6812418105237552  0.3362309693866471  0.1011191531084631   T   T   T
  0.8094510794247480  0.5911949428135368  0.0994092684446584   T   T   T
  0.6924366270138345  0.6786968047192390  0.1154595417505711   T   T   T
  0.8073083233872569  0.4222060831100257  0.0977472170255275   T   T   T
  0.6844082219230344  0.8398251408103110  0.1003488530800380   T   T   T
  0.5560921862808168  0.5911127767426699  0.1941181460457692   T   T   T
 
  0.00000000E+00  0.00000000E+00  0.00000000E+00
  0.00000000E+00  0.00000000E+00  0.00000000E+00
  0.00000000E+00  0.00000000E+00  0.00000000E+00
  0.00000000E+00  0.00000000E+00  0.00000000E+00
  0.00000000E+00  0.00000000E+00  0.00000000E+00
  0.00000000E+00  0.00000000E+00  0.00000000E+00
  0.00000000E+00  0.00000000E+00  0.00000000E+00
  0.00000000E+00  0.00000000E+00  0.00000000E+00
  0.00000000E+00  0.00000000E+00  0.00000000E+00
  0.00000000E+00  0.00000000E+00  0.00000000E+00
  0.00000000E+00  0.00000000E+00  0.00000000E+00
  0.00000000E+00  0.00000000E+00  0.00000000E+00
  0.00000000E+00  0.00000000E+00  0.00000000E+00
  0.00000000E+00  0.00000000E+00  0.00000000E+00
  0.00000000E+00  0.00000000E+00  0.00000000E+00
  0.00000000E+00  0.00000000E+00  0.00000000E+00
  0.00000000E+00  0.00000000E+00  0.00000000E+00
  0.00000000E+00  0.00000000E+00  0.00000000E+00
  0.00000000E+00  0.00000000E+00  0.00000000E+00
  0.00000000E+00  0.00000000E+00  0.00000000E+00
  0.00000000E+00  0.00000000E+00  0.00000000E+00
  0.00000000E+00  0.00000000E+00  0.00000000E+00
  0.00000000E+00  0.00000000E+00  0.00000000E+00
  0.00000000E+00  0.00000000E+00  0.00000000E+00
  0.00000000E+00  0.00000000E+00  0.00000000E+00
  0.00000000E+00  0.00000000E+00  0.00000000E+00
  0.00000000E+00  0.00000000E+00  0.00000000E+00
  0.00000000E+00  0.00000000E+00  0.00000000E+00
  0.00000000E+00  0.00000000E+00  0.00000000E+00
  0.00000000E+00  0.00000000E+00  0.00000000E+00
  0.00000000E+00  0.00000000E+00  0.00000000E+00
  0.00000000E+00  0.00000000E+00  0.00000000E+00
