Title                                   
   1.00000000000000     
     4.9440799999999996    0.0000000000000000    0.0000000000000000
     0.0000000000000000    8.5647549999999999    0.0000000000000000
     0.0000000000000000    0.0000000000000000   20.0000000000000000
    13     1     1
Selective dynamics
Direct
  0.2477203051156861  0.2060448185152265  0.0939544906652652   T   T   T
 -0.0053440655504146  0.2918443539044830  0.0974939275958640   T   T   T
  0.2488160029912735  0.0398448442286087  0.0959475832930804   T   T   T
 -0.0034857606742812  0.9569259285399692  0.1004574025685877   T   T   T
  0.7470950070789976  0.2072838112976493  0.0898506750293654   T   T   T
  0.4971890355803495  0.2921841242081356  0.0889759152256398   T   T   T
  0.7492006221943068  0.0406418956477102  0.0909930879694028   T   T   T
  0.7480618059750941  0.7170619170575343  0.0998187790736017   T   T   T
  0.7442036951395157  0.5401634606060901  0.0969717147220734   T   T   T
  0.5018731252611552  0.9546513576291679  0.0919432561909262   T   T   T
  0.5020961417670108  0.4571815493695922  0.0878933100746932   T   T   T
 -0.0118207936453227  0.4552486605304005  0.1090586732700742   T   T   T
 -0.0115828515118440  0.7949454265329242  0.1144947117255922   T   T   T
  0.5090532249812427  0.7944194823765551  0.0906384985632252   T   T   T
  0.2869245052972287  0.6232393695559563  0.1594879740326121   T   T   T
 
  0.00000000E+00  0.00000000E+00  0.00000000E+00
  0.00000000E+00  0.00000000E+00  0.00000000E+00
  0.00000000E+00  0.00000000E+00  0.00000000E+00
  0.00000000E+00  0.00000000E+00  0.00000000E+00
  0.00000000E+00  0.00000000E+00  0.00000000E+00
  0.00000000E+00  0.00000000E+00  0.00000000E+00
  0.00000000E+00  0.00000000E+00  0.00000000E+00
  0.00000000E+00  0.00000000E+00  0.00000000E+00
  0.00000000E+00  0.00000000E+00  0.00000000E+00
  0.00000000E+00  0.00000000E+00  0.00000000E+00
  0.00000000E+00  0.00000000E+00  0.00000000E+00
  0.00000000E+00  0.00000000E+00  0.00000000E+00
  0.00000000E+00  0.00000000E+00  0.00000000E+00
  0.00000000E+00  0.00000000E+00  0.00000000E+00
  0.00000000E+00  0.00000000E+00  0.00000000E+00
