Title                                   
   1.00000000000000     
     9.8694509999999998    0.0000000000000000    0.0000000000000000
     0.0000000000000000    8.5490480000000009    0.0000000000000000
     0.0000000000000000    0.0000000000000000   20.0000000000000000
    26     4     1
Selective dynamics
Direct
  0.0553403988852856  0.0892141650039479  0.0947559217182105   T   T   T
  0.9302684754147063  0.1726961743910775  0.0947090721212240   T   T   T
  0.0570502967339989  0.9237445425056777  0.0946995706585798   T   T   T
  0.9330508469071893  0.3405769338740360  0.0946851382537674   T   T   T
  0.0563687832911226  0.5898349997610878  0.0946522954412561   T   T   T
  0.9327024323562907  0.6742263043572101  0.0945491481307398   T   T   T
  0.0571683785883536  0.4231394465178754  0.0947036431415966   T   T   T
  0.9319039963822772  0.8411498860786211  0.0945932510671834   T   T   T
  0.3070641990263629  0.0884527815021233  0.0949178641719936   T   T   T
  0.1817889015641750  0.1697703959392473  0.0948647708489972   T   T   T
  0.1810081288643877  0.3374840563435064  0.0948900980504777   T   T   T
  0.3036753800968659  0.5878952842347624  0.0952546713915634   T   T   T
  0.1807832607464736  0.6730148928849865  0.0949139132272141   T   T   T
  0.3030697782587097  0.4181953420191035  0.0951389805686384   T   T   T
  0.1826239257744540  0.8401610983703348  0.0948522993085170   T   T   T
  0.4314720808272032  0.1774755865138690  0.0949844573777992   T   T   T
  0.5553921123023733  0.9211509700290200  0.0948829884597873   T   T   T
  0.4275194107136085  0.6683960071196807  0.0954749849757708   T   T   T
  0.4304178151071950  0.8351154953259795  0.0951510342261380   T   T   T
  0.8036509846758679  0.0900963296728954  0.0947148794328424   T   T   T
  0.6801036854254271  0.1799693270677074  0.0948303220573669   T   T   T
  0.8054967243938161  0.9218946817292227  0.0946544933242509   T   T   T
  0.6834940468311956  0.3454178058730122  0.0949521001064189   T   T   T
  0.8099777574142973  0.5929185155132952  0.0946570753026925   T   T   T
  0.8100633260031892  0.4239284410644162  0.0947175918543760   T   T   T
  0.6805283090168633  0.8337252877241756  0.0947718583340623   T   T   T
  0.5553230513213105  0.0937198020905139  0.0947936948071080   T   T   T
  0.4268150119247703  0.3400064771958066  0.0951749456877048   T   T   T
  0.6862529829681975  0.6687966511120208  0.0947914630915111   T   T   T
  0.3065663507345690  0.9216129265979855  0.0949102336072366   T   T   T
  0.5561941674494657  0.5070943915868279  0.0953222392550092   T   T   T
 
  0.00000000E+00  0.00000000E+00  0.00000000E+00
  0.00000000E+00  0.00000000E+00  0.00000000E+00
  0.00000000E+00  0.00000000E+00  0.00000000E+00
  0.00000000E+00  0.00000000E+00  0.00000000E+00
  0.00000000E+00  0.00000000E+00  0.00000000E+00
  0.00000000E+00  0.00000000E+00  0.00000000E+00
  0.00000000E+00  0.00000000E+00  0.00000000E+00
  0.00000000E+00  0.00000000E+00  0.00000000E+00
  0.00000000E+00  0.00000000E+00  0.00000000E+00
  0.00000000E+00  0.00000000E+00  0.00000000E+00
  0.00000000E+00  0.00000000E+00  0.00000000E+00
  0.00000000E+00  0.00000000E+00  0.00000000E+00
  0.00000000E+00  0.00000000E+00  0.00000000E+00
  0.00000000E+00  0.00000000E+00  0.00000000E+00
  0.00000000E+00  0.00000000E+00  0.00000000E+00
  0.00000000E+00  0.00000000E+00  0.00000000E+00
  0.00000000E+00  0.00000000E+00  0.00000000E+00
  0.00000000E+00  0.00000000E+00  0.00000000E+00
  0.00000000E+00  0.00000000E+00  0.00000000E+00
  0.00000000E+00  0.00000000E+00  0.00000000E+00
  0.00000000E+00  0.00000000E+00  0.00000000E+00
  0.00000000E+00  0.00000000E+00  0.00000000E+00
  0.00000000E+00  0.00000000E+00  0.00000000E+00
  0.00000000E+00  0.00000000E+00  0.00000000E+00
  0.00000000E+00  0.00000000E+00  0.00000000E+00
  0.00000000E+00  0.00000000E+00  0.00000000E+00
  0.00000000E+00  0.00000000E+00  0.00000000E+00
  0.00000000E+00  0.00000000E+00  0.00000000E+00
  0.00000000E+00  0.00000000E+00  0.00000000E+00
  0.00000000E+00  0.00000000E+00  0.00000000E+00
  0.00000000E+00  0.00000000E+00  0.00000000E+00
