Title                                   
   1.00000000000000     
     8.5490480000000009    0.0000000000000000    0.0000000000000000
     0.0000000000000000    8.5490480000000009    0.0000000000000000
     0.0000000000000000    0.0000000000000000   20.0000000000000000
    23     1     1
Selective dynamics
Direct
  0.9109135632409442  0.2077766566832407  0.0970096565893374   T   T   T
  0.9054519494999480  0.5021686477434895  0.0955591428694226   T   T   T
  0.9107655428932678  0.7985461624935345  0.0960821849224068   T   T   T
  0.1991890160717687  0.0846293824270910  0.0963268127856616   T   T   T
  0.0758643631566750  0.2079285898652873  0.0962587292458941   T   T   T
  0.1990381224343985  0.9196948776056614  0.0971497195726809   T   T   T
  0.1555767851639359  0.6484303395592363  0.0965953326328619   T   T   T
  0.0745025577187128  0.5025110057197003  0.0957731929522959   T   T   T
  0.1567906976758190  0.3567088492940330  0.0950971379978682   T   T   T
  0.0758043207005577  0.7969007435013248  0.0971063282606642   T   T   T
  0.4936970485587129  0.0832726132192468  0.0959176702236689   T   T   T
  0.3479264240403073  0.1655886002784253  0.0951992020815965   T   T   T
  0.4933895453857425  0.9142247745025812  0.0957939597984206   T   T   T
  0.3468703097461844  0.8360251911397969  0.0965661923558099   T   T   T
  0.7881003858294308  0.0845666642802476  0.0970953557054178   T   T   T
  0.6396042118619382  0.1643372493682936  0.0965952069502287   T   T   T
  0.7897794978664061  0.9195151073748336  0.0961363286494826   T   T   T
  0.8269283389640260  0.6513009486902754  0.0947139428084482   T   T   T
  0.8272271743380787  0.3556386639904623  0.0963232489904399   T   T   T
  0.6425187799833734  0.8356765526856447  0.0948362114742778   T   T   T
  0.3273235282372847  0.3361149330884179  0.0924993776790104   T   T   T
  0.3234333693017328  0.6672782688763228  0.0947672766905780   T   T   T
  0.6584655106522516  0.3321772634946581  0.0946065693944185   T   T   T
  0.6662137639111563  0.6749695382363221  0.0927205843702536   T   T   T
  0.4900371927673415  0.4988083758818848  0.0869756349988330   T   T   T
 
  0.00000000E+00  0.00000000E+00  0.00000000E+00
  0.00000000E+00  0.00000000E+00  0.00000000E+00
  0.00000000E+00  0.00000000E+00  0.00000000E+00
  0.00000000E+00  0.00000000E+00  0.00000000E+00
  0.00000000E+00  0.00000000E+00  0.00000000E+00
  0.00000000E+00  0.00000000E+00  0.00000000E+00
  0.00000000E+00  0.00000000E+00  0.00000000E+00
  0.00000000E+00  0.00000000E+00  0.00000000E+00
  0.00000000E+00  0.00000000E+00  0.00000000E+00
  0.00000000E+00  0.00000000E+00  0.00000000E+00
  0.00000000E+00  0.00000000E+00  0.00000000E+00
  0.00000000E+00  0.00000000E+00  0.00000000E+00
  0.00000000E+00  0.00000000E+00  0.00000000E+00
  0.00000000E+00  0.00000000E+00  0.00000000E+00
  0.00000000E+00  0.00000000E+00  0.00000000E+00
  0.00000000E+00  0.00000000E+00  0.00000000E+00
  0.00000000E+00  0.00000000E+00  0.00000000E+00
  0.00000000E+00  0.00000000E+00  0.00000000E+00
  0.00000000E+00  0.00000000E+00  0.00000000E+00
  0.00000000E+00  0.00000000E+00  0.00000000E+00
  0.00000000E+00  0.00000000E+00  0.00000000E+00
  0.00000000E+00  0.00000000E+00  0.00000000E+00
  0.00000000E+00  0.00000000E+00  0.00000000E+00
  0.00000000E+00  0.00000000E+00  0.00000000E+00
  0.00000000E+00  0.00000000E+00  0.00000000E+00
