Title                                   
   1.00000000000000     
     8.5490480000000009    0.0000000000000000    0.0000000000000000
     0.0000000000000000    8.5490480000000009    0.0000000000000000
     0.0000000000000000    0.0000000000000000   20.0000000000000000
    22     2     1
Selective dynamics
Direct
  0.9103324619846229  0.2068894594552407  0.0977796698287810   T   T   T
  0.9060283604241686  0.5033793892278507  0.0979049677378092   T   T   T
  0.9117079736726369  0.8022524522267930  0.0977581391960230   T   T   T
  0.1995793090281180  0.0823755051787854  0.0980057266569238   T   T   T
  0.0744561282455214  0.2052604336864666  0.0979323698632357   T   T   T
  0.1567737044368892  0.6502702546240551  0.0979059885028129   T   T   T
  0.0751786994756776  0.5026201749419613  0.0979168842106682   T   T   T
  0.1568440415583844  0.3561200737732865  0.0980254231821185   T   T   T
  0.0782106459463622  0.7989406943866358  0.0978389495026476   T   T   T
  0.4938219803327402  0.0826177759621573  0.0979758717008672   T   T   T
  0.3464982237923946  0.1632557333884624  0.0980770252197317   T   T   T
  0.4926948864881318  0.9145495155055735  0.0979694443306495   T   T   T
  0.3465030283539370  0.8340445680790136  0.0980363572637415   T   T   T
  0.7876773718477108  0.0847097244839658  0.0977007921031684   T   T   T
  0.6390409022048295  0.1643662429601320  0.0978686259065913   T   T   T
  0.7899676058052789  0.9202946575408296  0.0977384020171051   T   T   T
  0.8289936013168994  0.6533206880927572  0.0979279912994551   T   T   T
  0.8263917556562451  0.3568010146269180  0.0978797162420975   T   T   T
  0.6419501244307617  0.8352362858161531  0.0979563728631640   T   T   T
  0.3244001283076475  0.3333106996477865  0.0981229479448731   T   T   T
  0.3223391698078238  0.6699449012398628  0.0980551952958909   T   T   T
  0.6591664999547312  0.3320679276542850  0.0979987838565246   T   T   T
  0.6676490070540033  0.6761140682165668  0.0981246489321193   T   T   T
  0.1985594745227680  0.9183400879221799  0.0980128507781827   T   T   T
  0.4906469153517085  0.4977076713622954  0.0981918555648006   T   T   T
 
  0.00000000E+00  0.00000000E+00  0.00000000E+00
  0.00000000E+00  0.00000000E+00  0.00000000E+00
  0.00000000E+00  0.00000000E+00  0.00000000E+00
  0.00000000E+00  0.00000000E+00  0.00000000E+00
  0.00000000E+00  0.00000000E+00  0.00000000E+00
  0.00000000E+00  0.00000000E+00  0.00000000E+00
  0.00000000E+00  0.00000000E+00  0.00000000E+00
  0.00000000E+00  0.00000000E+00  0.00000000E+00
  0.00000000E+00  0.00000000E+00  0.00000000E+00
  0.00000000E+00  0.00000000E+00  0.00000000E+00
  0.00000000E+00  0.00000000E+00  0.00000000E+00
  0.00000000E+00  0.00000000E+00  0.00000000E+00
  0.00000000E+00  0.00000000E+00  0.00000000E+00
  0.00000000E+00  0.00000000E+00  0.00000000E+00
  0.00000000E+00  0.00000000E+00  0.00000000E+00
  0.00000000E+00  0.00000000E+00  0.00000000E+00
  0.00000000E+00  0.00000000E+00  0.00000000E+00
  0.00000000E+00  0.00000000E+00  0.00000000E+00
  0.00000000E+00  0.00000000E+00  0.00000000E+00
  0.00000000E+00  0.00000000E+00  0.00000000E+00
  0.00000000E+00  0.00000000E+00  0.00000000E+00
  0.00000000E+00  0.00000000E+00  0.00000000E+00
  0.00000000E+00  0.00000000E+00  0.00000000E+00
  0.00000000E+00  0.00000000E+00  0.00000000E+00
  0.00000000E+00  0.00000000E+00  0.00000000E+00
