Title                                   
   1.00000000000000     
     9.8694509999999998    0.0000000000000000    0.0000000000000000
     0.0000000000000000    8.5490480000000009    0.0000000000000000
     0.0000000000000000    0.0000000000000000   20.0000000000000000
    28     3     1
Selective dynamics
Direct
  0.0562480559965986  0.0906913999361667  0.0833623083935645   T   T   T
  0.9303654352319779  0.1740960640328530  0.0862405760920498   T   T   T
  0.0562259762572406  0.9226275270821911  0.0821303649186088   T   T   T
  0.9303828684103079  0.3401986173674526  0.0906933536909537   T   T   T
  0.0562246679885745  0.5890265301235074  0.0859924218163053   T   T   T
  0.9310323118188985  0.6706416933313301  0.0868223242302353   T   T   T
  0.0562385076427078  0.4231946958788659  0.0894055719189431   T   T   T
  0.9304135730926207  0.8384986671209350  0.0843349501811677   T   T   T
  0.3055840900249162  0.0893282374932328  0.0858346171356885   T   T   T
  0.1821660115127332  0.1741022343578176  0.0859094233345453   T   T   T
  0.3070586777958286  0.9235338481216261  0.0860040573847710   T   T   T
  0.1820933778758386  0.3402042002276405  0.0903558503796475   T   T   T
  0.3052369408910776  0.5897013101463209  0.0979401788290144   T   T   T
  0.1814333747991820  0.6706657597877387  0.0863991750175082   T   T   T
  0.1820915534193912  0.8385337894684521  0.0839114318109952   T   T   T
  0.5562542830955067  0.0885176698479479  0.0943325151283991   T   T   T
  0.4304092083542784  0.1714040680207271  0.0921826026197337   T   T   T
  0.4311751636262222  0.3359155925338123  0.1017022602673121   T   T   T
  0.4298924804369915  0.8405871311451728  0.0976804893020310   T   T   T
  0.8069845942320648  0.0892574930142607  0.0864337994819661   T   T   T
  0.6821668768216318  0.1713625716197809  0.0928003232274029   T   T   T
  0.8055088701949069  0.9235281892594247  0.0866625440503369   T   T   T
  0.6813769902892914  0.3358915763179500  0.1022969839931387   T   T   T
  0.8073385130142643  0.5897353993577171  0.0986420360327110   T   T   T
  0.6826811095498327  0.8406053769976987  0.0983115876779117   T   T   T
  0.4225389792691261  0.6793712561337427  0.1151491266856676   T   T   T
  0.5560903363689026  0.4095780121999523  0.1199561792886409   T   T   T
  0.6900592511810251  0.6794086216808695  0.1158678966596269   T   T   T
  0.5562605164834090  0.9220495147747924  0.0982118340204774   T   T   T
  0.3071731547898934  0.4227043898634539  0.0978638033414423   T   T   T
  0.8053808211937521  0.4227030722715093  0.0985278759312721   T   T   T
  0.5555524283410145  0.5925814904850587  0.1837165371579473   T   T   T
 
  0.00000000E+00  0.00000000E+00  0.00000000E+00
  0.00000000E+00  0.00000000E+00  0.00000000E+00
  0.00000000E+00  0.00000000E+00  0.00000000E+00
  0.00000000E+00  0.00000000E+00  0.00000000E+00
  0.00000000E+00  0.00000000E+00  0.00000000E+00
  0.00000000E+00  0.00000000E+00  0.00000000E+00
  0.00000000E+00  0.00000000E+00  0.00000000E+00
  0.00000000E+00  0.00000000E+00  0.00000000E+00
  0.00000000E+00  0.00000000E+00  0.00000000E+00
  0.00000000E+00  0.00000000E+00  0.00000000E+00
  0.00000000E+00  0.00000000E+00  0.00000000E+00
  0.00000000E+00  0.00000000E+00  0.00000000E+00
  0.00000000E+00  0.00000000E+00  0.00000000E+00
  0.00000000E+00  0.00000000E+00  0.00000000E+00
  0.00000000E+00  0.00000000E+00  0.00000000E+00
  0.00000000E+00  0.00000000E+00  0.00000000E+00
  0.00000000E+00  0.00000000E+00  0.00000000E+00
  0.00000000E+00  0.00000000E+00  0.00000000E+00
  0.00000000E+00  0.00000000E+00  0.00000000E+00
  0.00000000E+00  0.00000000E+00  0.00000000E+00
  0.00000000E+00  0.00000000E+00  0.00000000E+00
  0.00000000E+00  0.00000000E+00  0.00000000E+00
  0.00000000E+00  0.00000000E+00  0.00000000E+00
  0.00000000E+00  0.00000000E+00  0.00000000E+00
  0.00000000E+00  0.00000000E+00  0.00000000E+00
  0.00000000E+00  0.00000000E+00  0.00000000E+00
  0.00000000E+00  0.00000000E+00  0.00000000E+00
  0.00000000E+00  0.00000000E+00  0.00000000E+00
  0.00000000E+00  0.00000000E+00  0.00000000E+00
  0.00000000E+00  0.00000000E+00  0.00000000E+00
  0.00000000E+00  0.00000000E+00  0.00000000E+00
  0.00000000E+00  0.00000000E+00  0.00000000E+00
