Title                                   
   1.00000000000000     
     9.8694509999999998    0.0000000000000000    0.0000000000000000
     0.0000000000000000    8.5490480000000009    0.0000000000000000
     0.0000000000000000    0.0000000000000000   20.0000000000000000
    26     4     1
Selective dynamics
Direct
  0.0560373563729694  0.0906419859614806  0.0937223842834333   T   T   T
  0.9314689520608938  0.1730194102286973  0.0995609460271879   T   T   T
  0.0580600818090722  0.9234106134067080  0.0937917907656413   T   T   T
  0.9333485370320375  0.3407934113888644  0.1006640104308874   T   T   T
  0.0585646074314689  0.5901261182800587  0.0950733460567875   T   T   T
  0.9342869608374802  0.6742599954425021  0.1007262573793762   T   T   T
  0.0581314267407872  0.4230349036194238  0.0948955126758969   T   T   T
  0.9336183934706367  0.8410038125135565  0.0996390517173649   T   T   T
  0.3074773316017007  0.0878258824958101  0.0855507999077382   T   T   T
  0.1814202507243569  0.1718843939120377  0.0888640471493177   T   T   T
  0.1811651278578844  0.3381959800787063  0.0895934344430158   T   T   T
  0.3067427128177428  0.5896335148522917  0.0816317324693347   T   T   T
  0.1821035335651771  0.6738762281623029  0.0894727488206534   T   T   T
  0.3066240151211782  0.4210513329798364  0.0832873275278145   T   T   T
  0.1823264660966395  0.8391724806782755  0.0889796464198402   T   T   T
  0.5568967936704308  0.0898005858126902  0.0971842527974290   T   T   T
  0.4306170188140654  0.1699780607451529  0.0875206998017683   T   T   T
  0.5563349862901290  0.9185497938140199  0.0967953285046639   T   T   T
  0.4299715559305863  0.8382761651778760  0.0865799538830760   T   T   T
  0.8044209054348749  0.0903722204758895  0.1027638943114336   T   T   T
  0.6800453642985201  0.1778373943757013  0.1059791037055633   T   T   T
  0.8056109151291722  0.9219326920789576  0.1026318931338191   T   T   T
  0.6838665631280547  0.3463302567724743  0.1152720781186064   T   T   T
  0.8123599905738113  0.5920962905811089  0.1083333858359621   T   T   T
  0.8104888447771734  0.4251667682209160  0.1084713144267920   T   T   T
  0.6822070866715741  0.8327544645589330  0.1052990463245536   T   T   T
  0.4272362957849303  0.3339006737128874  0.0852534801068797   T   T   T
  0.6879567327603577  0.6690360702179469  0.1153355969114139   T   T   T
  0.4273694331775206  0.6784122981675982  0.0795498663137815   T   T   T
  0.3083790255912660  0.9219657174034507  0.0854822800998865   T   T   T
  0.5279977344275184  0.5065354838838559  0.1330597896501172   T   T   T
 
  0.00000000E+00  0.00000000E+00  0.00000000E+00
  0.00000000E+00  0.00000000E+00  0.00000000E+00
  0.00000000E+00  0.00000000E+00  0.00000000E+00
  0.00000000E+00  0.00000000E+00  0.00000000E+00
  0.00000000E+00  0.00000000E+00  0.00000000E+00
  0.00000000E+00  0.00000000E+00  0.00000000E+00
  0.00000000E+00  0.00000000E+00  0.00000000E+00
  0.00000000E+00  0.00000000E+00  0.00000000E+00
  0.00000000E+00  0.00000000E+00  0.00000000E+00
  0.00000000E+00  0.00000000E+00  0.00000000E+00
  0.00000000E+00  0.00000000E+00  0.00000000E+00
  0.00000000E+00  0.00000000E+00  0.00000000E+00
  0.00000000E+00  0.00000000E+00  0.00000000E+00
  0.00000000E+00  0.00000000E+00  0.00000000E+00
  0.00000000E+00  0.00000000E+00  0.00000000E+00
  0.00000000E+00  0.00000000E+00  0.00000000E+00
  0.00000000E+00  0.00000000E+00  0.00000000E+00
  0.00000000E+00  0.00000000E+00  0.00000000E+00
  0.00000000E+00  0.00000000E+00  0.00000000E+00
  0.00000000E+00  0.00000000E+00  0.00000000E+00
  0.00000000E+00  0.00000000E+00  0.00000000E+00
  0.00000000E+00  0.00000000E+00  0.00000000E+00
  0.00000000E+00  0.00000000E+00  0.00000000E+00
  0.00000000E+00  0.00000000E+00  0.00000000E+00
  0.00000000E+00  0.00000000E+00  0.00000000E+00
  0.00000000E+00  0.00000000E+00  0.00000000E+00
  0.00000000E+00  0.00000000E+00  0.00000000E+00
  0.00000000E+00  0.00000000E+00  0.00000000E+00
  0.00000000E+00  0.00000000E+00  0.00000000E+00
  0.00000000E+00  0.00000000E+00  0.00000000E+00
  0.00000000E+00  0.00000000E+00  0.00000000E+00
