Title                                   
   1.00000000000000     
     9.8694509999999998    0.0000000000000000    0.0000000000000000
     0.0000000000000000    8.5490480000000009    0.0000000000000000
     0.0000000000000000    0.0000000000000000   20.0000000000000000
    29     2     1
Selective dynamics
Direct
  0.0566695098922877  0.0905627868045807  0.0858443001096724   T   T   T
  0.9310053232646541  0.1726261966481455  0.0883266626439095   T   T   T
  0.0557733812808091  0.9237732122335848  0.0860858041596109   T   T   T
  0.9311660298917960  0.3401047619411751  0.0914993807798549   T   T   T
  0.0566752507675177  0.5893492385354041  0.0887590911601719   T   T   T
  0.9319734444066603  0.6725619510736789  0.0916312244019295   T   T   T
  0.0570008431390763  0.4234739408923098  0.0894691814461775   T   T   T
  0.9307621994980261  0.8392045970583403  0.0887274057519523   T   T   T
  0.3056601789583912  0.0899745610923260  0.0880921200392511   T   T   T
  0.1820413638772226  0.1740558580427110  0.0871974764138919   T   T   T
  0.3055876495753009  0.9239553747196469  0.0889102540451132   T   T   T
  0.1831836351642492  0.3424019225522047  0.0900642994230935   T   T   T
  0.3049804291516055  0.5941383069344558  0.0986226712323126   T   T   T
  0.1809302003133529  0.6738957663041573  0.0900583078161496   T   T   T
  0.3081375315875444  0.4253378647229860  0.0970600810856316   T   T   T
  0.1805732653063732  0.8406938758819088  0.0879589453816702   T   T   T
  0.5556555936229852  0.0856010080835631  0.0955867022941102   T   T   T
  0.4317608977510622  0.1699163414064120  0.0936783751609089   T   T   T
  0.4325291220695042  0.3362767907760443  0.1010498316006824   T   T   T
  0.5573225205632237  0.4099101140169875  0.1143894592498298   T   T   T
  0.4283858170233099  0.8397293211511933  0.0976202366691491   T   T   T
  0.8073757361459256  0.0883638673161958  0.0899195615303250   T   T   T
  0.6812728866636908  0.1679063609023533  0.0957236713024483   T   T   T
  0.8053950789871162  0.9221469250738675  0.0902326991737568   T   T   T
  0.6823888030583058  0.3340222614502040  0.1036612774107955   T   T   T
  0.8088073418387607  0.5902174712037993  0.1023475208583554   T   T   T
  0.6886068457613095  0.6785495806911258  0.1147888261787595   T   T   T
  0.8073623026693443  0.4215490003357046  0.1001617833841566   T   T   T
  0.6816404175590277  0.8387040821405858  0.0991452015636890   T   T   T
  0.4218691367523761  0.6830116307886801  0.1113357287853303   T   T   T
  0.5543519829860445  0.9191222624267307  0.0973002908705272   T   T   T
  0.5527942804731516  0.5891087667989235  0.1584266280768289   T   T   T
 
  0.00000000E+00  0.00000000E+00  0.00000000E+00
  0.00000000E+00  0.00000000E+00  0.00000000E+00
  0.00000000E+00  0.00000000E+00  0.00000000E+00
  0.00000000E+00  0.00000000E+00  0.00000000E+00
  0.00000000E+00  0.00000000E+00  0.00000000E+00
  0.00000000E+00  0.00000000E+00  0.00000000E+00
  0.00000000E+00  0.00000000E+00  0.00000000E+00
  0.00000000E+00  0.00000000E+00  0.00000000E+00
  0.00000000E+00  0.00000000E+00  0.00000000E+00
  0.00000000E+00  0.00000000E+00  0.00000000E+00
  0.00000000E+00  0.00000000E+00  0.00000000E+00
  0.00000000E+00  0.00000000E+00  0.00000000E+00
  0.00000000E+00  0.00000000E+00  0.00000000E+00
  0.00000000E+00  0.00000000E+00  0.00000000E+00
  0.00000000E+00  0.00000000E+00  0.00000000E+00
  0.00000000E+00  0.00000000E+00  0.00000000E+00
  0.00000000E+00  0.00000000E+00  0.00000000E+00
  0.00000000E+00  0.00000000E+00  0.00000000E+00
  0.00000000E+00  0.00000000E+00  0.00000000E+00
  0.00000000E+00  0.00000000E+00  0.00000000E+00
  0.00000000E+00  0.00000000E+00  0.00000000E+00
  0.00000000E+00  0.00000000E+00  0.00000000E+00
  0.00000000E+00  0.00000000E+00  0.00000000E+00
  0.00000000E+00  0.00000000E+00  0.00000000E+00
  0.00000000E+00  0.00000000E+00  0.00000000E+00
  0.00000000E+00  0.00000000E+00  0.00000000E+00
  0.00000000E+00  0.00000000E+00  0.00000000E+00
  0.00000000E+00  0.00000000E+00  0.00000000E+00
  0.00000000E+00  0.00000000E+00  0.00000000E+00
  0.00000000E+00  0.00000000E+00  0.00000000E+00
  0.00000000E+00  0.00000000E+00  0.00000000E+00
  0.00000000E+00  0.00000000E+00  0.00000000E+00
