Title                                   
   1.00000000000000     
     8.5490480000000009    0.0000000000000000    0.0000000000000000
     0.0000000000000000    8.5490480000000009    0.0000000000000000
     0.0000000000000000    0.0000000000000000   20.0000000000000000
    19     5     1
Selective dynamics
Direct
  0.9071379028474410  0.2061255827372709  0.0942273229880742   T   T   T
  0.9118611282850037  0.8016112994903852  0.0952488984550405   T   T   T
  0.1961092627683183  0.0820507540093706  0.0953632772892908   T   T   T
  0.0753190029646022  0.2006131404764540  0.0957148925585856   T   T   T
  0.1576195740743372  0.6494010696793697  0.0949580085034950   T   T   T
  0.0772083484313057  0.4999657052266026  0.0969942168069144   T   T   T
  0.1553465749075162  0.3490337641760997  0.0986047330111962   T   T   T
  0.0799022990888625  0.7989206208825314  0.0940361132993756   T   T   T
  0.3427208306017288  0.1621811383959274  0.0979712744051188   T   T   T
  0.4937574004768506  0.9189206093046246  0.0971336356145604   T   T   T
  0.3457649686815044  0.8370931897865247  0.0949978167171926   T   T   T
  0.7874556249597779  0.0876636076367694  0.0942273576412668   T   T   T
  0.6379139724108152  0.1691753654382468  0.0950705759100673   T   T   T
  0.7905599428153289  0.9200748145767138  0.0957067889968151   T   T   T
  0.8319952807458273  0.6526337506249675  0.0979699892189748   T   T   T
  0.8267052394990926  0.3565231253109323  0.0950454075275061   T   T   T
  0.6435967999373077  0.8392259776243295  0.0986894062341799   T   T   T
  0.3238163888472919  0.6738951628037715  0.0945457656313436   T   T   T
  0.6603687393027616  0.3351923151834110  0.0948433661232233   T   T   T
  0.4925292848548923  0.0866611595172554  0.0966180834772475   T   T   T
  0.9087705025458787  0.5030929965043226  0.0966603082225228   T   T   T
  0.3199897361013831  0.3235166588196300  0.1021130565561586   T   T   T
  0.6704511101924905  0.6742709519099876  0.1023407502757420   T   T   T
  0.1963961280458857  0.9152121437631066  0.0938085824730607   T   T   T
  0.4921159566137808  0.5017350961214093  0.1308153720630277   T   T   T
 
  0.00000000E+00  0.00000000E+00  0.00000000E+00
  0.00000000E+00  0.00000000E+00  0.00000000E+00
  0.00000000E+00  0.00000000E+00  0.00000000E+00
  0.00000000E+00  0.00000000E+00  0.00000000E+00
  0.00000000E+00  0.00000000E+00  0.00000000E+00
  0.00000000E+00  0.00000000E+00  0.00000000E+00
  0.00000000E+00  0.00000000E+00  0.00000000E+00
  0.00000000E+00  0.00000000E+00  0.00000000E+00
  0.00000000E+00  0.00000000E+00  0.00000000E+00
  0.00000000E+00  0.00000000E+00  0.00000000E+00
  0.00000000E+00  0.00000000E+00  0.00000000E+00
  0.00000000E+00  0.00000000E+00  0.00000000E+00
  0.00000000E+00  0.00000000E+00  0.00000000E+00
  0.00000000E+00  0.00000000E+00  0.00000000E+00
  0.00000000E+00  0.00000000E+00  0.00000000E+00
  0.00000000E+00  0.00000000E+00  0.00000000E+00
  0.00000000E+00  0.00000000E+00  0.00000000E+00
  0.00000000E+00  0.00000000E+00  0.00000000E+00
  0.00000000E+00  0.00000000E+00  0.00000000E+00
  0.00000000E+00  0.00000000E+00  0.00000000E+00
  0.00000000E+00  0.00000000E+00  0.00000000E+00
  0.00000000E+00  0.00000000E+00  0.00000000E+00
  0.00000000E+00  0.00000000E+00  0.00000000E+00
  0.00000000E+00  0.00000000E+00  0.00000000E+00
  0.00000000E+00  0.00000000E+00  0.00000000E+00
