Title                                   
   1.00000000000000     
     8.5490480000000009    0.0000000000000000    0.0000000000000000
     0.0000000000000000    8.5490480000000009    0.0000000000000000
     0.0000000000000000    0.0000000000000000   20.0000000000000000
    23     1     1
Selective dynamics
Direct
  0.9104549079899313  0.2059121586842831  0.0978283349731627   T   T   T
  0.9099453268123897  0.5030654973583469  0.0976202436465148   T   T   T
  0.9126524204626900  0.8008919761246167  0.0982302110154931   T   T   T
  0.1977566732977517  0.0822734963677791  0.0978288136995232   T   T   T
  0.0747427923953220  0.2025672665946270  0.0978528763587454   T   T   T
  0.1592636711565960  0.6480158308981946  0.0959089390731707   T   T   T
  0.0772337875809130  0.5020140785212153  0.0973669889553610   T   T   T
  0.1588642891649204  0.3558493545267879  0.0991098513606441   T   T   T
  0.0782659145587715  0.7986326965133689  0.0978889111891552   T   T   T
  0.4920137123332811  0.0850769846915519  0.0978173800640855   T   T   T
  0.3453698411132418  0.1641425883281088  0.0992724119421763   T   T   T
  0.4914781516035964  0.9180402892025740  0.0975464950710996   T   T   T
  0.3461746990246039  0.8355521977449788  0.0958294606847041   T   T   T
  0.7876132343855068  0.0841410457119505  0.0977420059835210   T   T   T
  0.6370248040155155  0.1669211411129693  0.0965276367249224   T   T   T
  0.7888215493931512  0.9211097516678495  0.0979872609274841   T   T   T
  0.8306399492027291  0.6499024492089650  0.0991159877929523   T   T   T
  0.8280704387365581  0.3567064399056942  0.0965362871323637   T   T   T
  0.6373429171238612  0.8365473513986135  0.0988462379247275   T   T   T
  0.3211374287931050  0.3308179390990006  0.1038398207161272   T   T   T
  0.3226934136350958  0.6723038152758579  0.0917031341278371   T   T   T
  0.6632322326688193  0.3312696407692517  0.0932529087269408   T   T   T
  0.6644344754890700  0.6738434041431005  0.1023981922183937   T   T   T
  0.1981793596965919  0.9169945966598393  0.0979237330840703   T   T   T
  0.4920060093659739  0.5021980094904809  0.0977308766068045   T   T   T
 
  0.00000000E+00  0.00000000E+00  0.00000000E+00
  0.00000000E+00  0.00000000E+00  0.00000000E+00
  0.00000000E+00  0.00000000E+00  0.00000000E+00
  0.00000000E+00  0.00000000E+00  0.00000000E+00
  0.00000000E+00  0.00000000E+00  0.00000000E+00
  0.00000000E+00  0.00000000E+00  0.00000000E+00
  0.00000000E+00  0.00000000E+00  0.00000000E+00
  0.00000000E+00  0.00000000E+00  0.00000000E+00
  0.00000000E+00  0.00000000E+00  0.00000000E+00
  0.00000000E+00  0.00000000E+00  0.00000000E+00
  0.00000000E+00  0.00000000E+00  0.00000000E+00
  0.00000000E+00  0.00000000E+00  0.00000000E+00
  0.00000000E+00  0.00000000E+00  0.00000000E+00
  0.00000000E+00  0.00000000E+00  0.00000000E+00
  0.00000000E+00  0.00000000E+00  0.00000000E+00
  0.00000000E+00  0.00000000E+00  0.00000000E+00
  0.00000000E+00  0.00000000E+00  0.00000000E+00
  0.00000000E+00  0.00000000E+00  0.00000000E+00
  0.00000000E+00  0.00000000E+00  0.00000000E+00
  0.00000000E+00  0.00000000E+00  0.00000000E+00
  0.00000000E+00  0.00000000E+00  0.00000000E+00
  0.00000000E+00  0.00000000E+00  0.00000000E+00
  0.00000000E+00  0.00000000E+00  0.00000000E+00
  0.00000000E+00  0.00000000E+00  0.00000000E+00
  0.00000000E+00  0.00000000E+00  0.00000000E+00
