Title                                   
   1.00000000000000     
     8.5490480000000009    0.0000000000000000    0.0000000000000000
     0.0000000000000000    8.5490480000000009    0.0000000000000000
     0.0000000000000000    0.0000000000000000   20.0000000000000000
    19     5     1
Selective dynamics
Direct
  0.9077778767889670  0.2055267961826672  0.0974879538108997   T   T   T
  0.9110176997419759  0.8009599032307494  0.0975409780730786   T   T   T
  0.1966605468365831  0.0831408785350633  0.0976335017697817   T   T   T
  0.0761882642850345  0.2011958894772316  0.0975464944166611   T   T   T
  0.1576353641934920  0.6490594415420997  0.0976873796483408   T   T   T
  0.0771016257963502  0.5002722025477391  0.0977458946789041   T   T   T
  0.1569428224169476  0.3507571937452342  0.0978216057747609   T   T   T
  0.0795176228850907  0.7993265587599010  0.0976111811383938   T   T   T
  0.3438273484402357  0.1642193801239714  0.0979174637657960   T   T   T
  0.4932646111019278  0.9188105564410622  0.0977701415389655   T   T   T
  0.3457891923317388  0.8368571111729041  0.0977399848760246   T   T   T
  0.7881891954652653  0.0870340669471465  0.0975291477028629   T   T   T
  0.6375622019720517  0.1688274396824536  0.0977418802057633   T   T   T
  0.7900220106630108  0.9194070811317053  0.0975350624256260   T   T   T
  0.8301601729777455  0.6513684541348117  0.0978121733962764   T   T   T
  0.8267175040811398  0.3566867500808817  0.0976805423729051   T   T   T
  0.6421117115332609  0.8380803169530679  0.0977966900493626   T   T   T
  0.3220906605336502  0.6746113282703210  0.0976634123850312   T   T   T
  0.6621912801736906  0.3327934710667868  0.0978079596804565   T   T   T
  0.4928837377634425  0.0866397884434938  0.0978992384526126   T   T   T
  0.9085384873992689  0.5025050181132796  0.0978124671312918   T   T   T
  0.3205774652257767  0.3249701172760740  0.0982292391121187   T   T   T
  0.6695140661988904  0.6739854399854323  0.0981369688302723   T   T   T
  0.1959067991475117  0.9153994472679752  0.0977025300203759   T   T   T
  0.4932237320469381  0.5023553688879616  0.0978551087434181   T   T   T
 
  0.00000000E+00  0.00000000E+00  0.00000000E+00
  0.00000000E+00  0.00000000E+00  0.00000000E+00
  0.00000000E+00  0.00000000E+00  0.00000000E+00
  0.00000000E+00  0.00000000E+00  0.00000000E+00
  0.00000000E+00  0.00000000E+00  0.00000000E+00
  0.00000000E+00  0.00000000E+00  0.00000000E+00
  0.00000000E+00  0.00000000E+00  0.00000000E+00
  0.00000000E+00  0.00000000E+00  0.00000000E+00
  0.00000000E+00  0.00000000E+00  0.00000000E+00
  0.00000000E+00  0.00000000E+00  0.00000000E+00
  0.00000000E+00  0.00000000E+00  0.00000000E+00
  0.00000000E+00  0.00000000E+00  0.00000000E+00
  0.00000000E+00  0.00000000E+00  0.00000000E+00
  0.00000000E+00  0.00000000E+00  0.00000000E+00
  0.00000000E+00  0.00000000E+00  0.00000000E+00
  0.00000000E+00  0.00000000E+00  0.00000000E+00
  0.00000000E+00  0.00000000E+00  0.00000000E+00
  0.00000000E+00  0.00000000E+00  0.00000000E+00
  0.00000000E+00  0.00000000E+00  0.00000000E+00
  0.00000000E+00  0.00000000E+00  0.00000000E+00
  0.00000000E+00  0.00000000E+00  0.00000000E+00
  0.00000000E+00  0.00000000E+00  0.00000000E+00
  0.00000000E+00  0.00000000E+00  0.00000000E+00
  0.00000000E+00  0.00000000E+00  0.00000000E+00
  0.00000000E+00  0.00000000E+00  0.00000000E+00
