Title                                   
   1.00000000000000     
     8.5490480000000009    0.0000000000000000    0.0000000000000000
     0.0000000000000000    8.5490480000000009    0.0000000000000000
     0.0000000000000000    0.0000000000000000   20.0000000000000000
    20     4     1
Selective dynamics
Direct
  0.9092515091356312  0.2060240945959618  0.0978067248526380   T   T   T
  0.9115591247089591  0.8014919742226543  0.0977134865503962   T   T   T
  0.1977367568521684  0.0830484277007137  0.0980267763074050   T   T   T
  0.0760467302412886  0.2013325472928833  0.0979842500850252   T   T   T
  0.1557487065237450  0.6498097070355583  0.0979828052402322   T   T   T
  0.0742608160121333  0.5018812699573465  0.0980147735751708   T   T   T
  0.1565466739174375  0.3552324213136073  0.0980653542190333   T   T   T
  0.0794020044318768  0.8000023573274280  0.0978316721264313   T   T   T
  0.3477193100940401  0.1641995918002912  0.0980336704559922   T   T   T
  0.4939197396514314  0.9164299874132654  0.0979803723766548   T   T   T
  0.3459885016304576  0.8351371717062585  0.0980975437282016   T   T   T
  0.7880754345287702  0.0857329898360869  0.0976939789231335   T   T   T
  0.6387031857543248  0.1654799916209867  0.0977760575961170   T   T   T
  0.7908607907439968  0.9193406661596405  0.0977041873711095   T   T   T
  0.8295280914843792  0.6521601813056791  0.0979118590527522   T   T   T
  0.8252590310285337  0.3567088822352036  0.0978687320941710   T   T   T
  0.6426336028197722  0.8371566213703391  0.0979379304878837   T   T   T
  0.3232786049428010  0.3306774773456077  0.0980676288112113   T   T   T
  0.3213681405599027  0.6720472489690791  0.0981039493748032   T   T   T
  0.6605554156277932  0.3320964099775029  0.0978373483700991   T   T   T
  0.4946081737875037  0.0841252605706807  0.0979773659683003   T   T   T
  0.9056622767055740  0.5037471941908155  0.0979995324767828   T   T   T
  0.6692577742976034  0.6747986177832873  0.0981730056182774   T   T   T
  0.1964832820840488  0.9159427770677331  0.0980036693048901   T   T   T
  0.4909583224358211  0.5001861312014025  0.0981123250332708   T   T   T
 
  0.00000000E+00  0.00000000E+00  0.00000000E+00
  0.00000000E+00  0.00000000E+00  0.00000000E+00
  0.00000000E+00  0.00000000E+00  0.00000000E+00
  0.00000000E+00  0.00000000E+00  0.00000000E+00
  0.00000000E+00  0.00000000E+00  0.00000000E+00
  0.00000000E+00  0.00000000E+00  0.00000000E+00
  0.00000000E+00  0.00000000E+00  0.00000000E+00
  0.00000000E+00  0.00000000E+00  0.00000000E+00
  0.00000000E+00  0.00000000E+00  0.00000000E+00
  0.00000000E+00  0.00000000E+00  0.00000000E+00
  0.00000000E+00  0.00000000E+00  0.00000000E+00
  0.00000000E+00  0.00000000E+00  0.00000000E+00
  0.00000000E+00  0.00000000E+00  0.00000000E+00
  0.00000000E+00  0.00000000E+00  0.00000000E+00
  0.00000000E+00  0.00000000E+00  0.00000000E+00
  0.00000000E+00  0.00000000E+00  0.00000000E+00
  0.00000000E+00  0.00000000E+00  0.00000000E+00
  0.00000000E+00  0.00000000E+00  0.00000000E+00
  0.00000000E+00  0.00000000E+00  0.00000000E+00
  0.00000000E+00  0.00000000E+00  0.00000000E+00
  0.00000000E+00  0.00000000E+00  0.00000000E+00
  0.00000000E+00  0.00000000E+00  0.00000000E+00
  0.00000000E+00  0.00000000E+00  0.00000000E+00
  0.00000000E+00  0.00000000E+00  0.00000000E+00
  0.00000000E+00  0.00000000E+00  0.00000000E+00
