Title                                   
   1.00000000000000     
     4.9440799999999996    0.0000000000000000    0.0000000000000000
     0.0000000000000000    8.5647549999999999    0.0000000000000000
     0.0000000000000000    0.0000000000000000   20.0000000000000000
    11     3     1
Selective dynamics
Direct
  0.2481056413358713  0.2079057864498410  0.1005162552264617   T   T   T
 -0.0043387518613163  0.2936680171290995  0.1025760133741751   T   T   T
  0.2487565522456135  0.0380073085230466  0.1012123000274346   T   T   T
 -0.0049409579771930  0.9564200857343446  0.1046927768930659   T   T   T
  0.7471084056790364  0.2087811072893277  0.0999879223327215   T   T   T
  0.4988621281495448  0.2921535264366740  0.0970363251818977   T   T   T
  0.7487865224217649  0.0412994338857918  0.1008765664932617   T   T   T
  0.7554892989986219  0.7174112027211573  0.1012596749117635   T   T   T
  0.7549025674988367  0.5360623948929882  0.0997437139239462   T   T   T
  0.5031050700995766  0.9543899897385840  0.0979740397034991   T   T   T
  0.5092249446351922  0.4589766279177123  0.0933846813246296   T   T   T
 -0.0106257768025139  0.4557681488406522  0.1054593115920170   T   T   T
 -0.0152905700372902  0.7966421445225967  0.1106572496464472   T   T   T
  0.5184041981222617  0.7926644063670165  0.0926448808329664   T   T   T
  0.2524507274919934  0.6215308195511700  0.0999582885357164   T   T   T
 
  0.00000000E+00  0.00000000E+00  0.00000000E+00
  0.00000000E+00  0.00000000E+00  0.00000000E+00
  0.00000000E+00  0.00000000E+00  0.00000000E+00
  0.00000000E+00  0.00000000E+00  0.00000000E+00
  0.00000000E+00  0.00000000E+00  0.00000000E+00
  0.00000000E+00  0.00000000E+00  0.00000000E+00
  0.00000000E+00  0.00000000E+00  0.00000000E+00
  0.00000000E+00  0.00000000E+00  0.00000000E+00
  0.00000000E+00  0.00000000E+00  0.00000000E+00
  0.00000000E+00  0.00000000E+00  0.00000000E+00
  0.00000000E+00  0.00000000E+00  0.00000000E+00
  0.00000000E+00  0.00000000E+00  0.00000000E+00
  0.00000000E+00  0.00000000E+00  0.00000000E+00
  0.00000000E+00  0.00000000E+00  0.00000000E+00
  0.00000000E+00  0.00000000E+00  0.00000000E+00
