Title                                   
   1.00000000000000     
     8.5490480000000009    0.0000000000000000    0.0000000000000000
     0.0000000000000000    8.5490480000000009    0.0000000000000000
     0.0000000000000000    0.0000000000000000   20.0000000000000000
    21     3     1
Selective dynamics
Direct
  0.9082104636854507  0.2077039334316513  0.0975839830138744   T   T   T
  0.9089871091127284  0.5029879939016129  0.0977070920405381   T   T   T
  0.9124795564013084  0.8014263942289516  0.0977001773114238   T   T   T
  0.1967761417251551  0.0824523003906254  0.0977579892328173   T   T   T
  0.0746407083244053  0.2024053003237274  0.0977307521968018   T   T   T
  0.1615801068047494  0.6472093904188061  0.0977482331842853   T   T   T
  0.0785755908887422  0.5010431686023865  0.0977738928944495   T   T   T
  0.1597081006001192  0.3522745032761113  0.0978906332194605   T   T   T
  0.0797619469526059  0.7975746516013394  0.0976992714494809   T   T   T
  0.4916694601601971  0.0865816948157410  0.0977174699580702   T   T   T
  0.3423821504692774  0.1656524822809798  0.0978644544608939   T   T   T
  0.4920233796852197  0.9166815901530515  0.0976899817475957   T   T   T
  0.3470943676814657  0.8335468682262570  0.0976861316175172   T   T   T
  0.7857887896997090  0.0861054528187271  0.0975884942852490   T   T   T
  0.6357141890989692  0.1689284064008248  0.0976765331969173   T   T   T
  0.7890013546216070  0.9212330163475966  0.0976832195469358   T   T   T
  0.8292396319151246  0.6526503663363337  0.0977685344296226   T   T   T
  0.8266660878593636  0.3574115541970865  0.0976464792302900   T   T   T
  0.6405262498419274  0.8353153047947425  0.0977739789348641   T   T   T
  0.3272770247299789  0.6680372070177413  0.0977502572683910   T   T   T
  0.6574109111039460  0.3371240422924806  0.0977295391490048   T   T   T
  0.3204915796342279  0.3294311433840386  0.0980539343709328   T   T   T
  0.6657466670748179  0.6743022454288305  0.0978746655002153   T   T   T
  0.1987148562709791  0.9156848955928321  0.0977037282608878   T   T   T
  0.4949455756579104  0.5010260937375395  0.0979055734994608   T   T   T
 
  0.00000000E+00  0.00000000E+00  0.00000000E+00
  0.00000000E+00  0.00000000E+00  0.00000000E+00
  0.00000000E+00  0.00000000E+00  0.00000000E+00
  0.00000000E+00  0.00000000E+00  0.00000000E+00
  0.00000000E+00  0.00000000E+00  0.00000000E+00
  0.00000000E+00  0.00000000E+00  0.00000000E+00
  0.00000000E+00  0.00000000E+00  0.00000000E+00
  0.00000000E+00  0.00000000E+00  0.00000000E+00
  0.00000000E+00  0.00000000E+00  0.00000000E+00
  0.00000000E+00  0.00000000E+00  0.00000000E+00
  0.00000000E+00  0.00000000E+00  0.00000000E+00
  0.00000000E+00  0.00000000E+00  0.00000000E+00
  0.00000000E+00  0.00000000E+00  0.00000000E+00
  0.00000000E+00  0.00000000E+00  0.00000000E+00
  0.00000000E+00  0.00000000E+00  0.00000000E+00
  0.00000000E+00  0.00000000E+00  0.00000000E+00
  0.00000000E+00  0.00000000E+00  0.00000000E+00
  0.00000000E+00  0.00000000E+00  0.00000000E+00
  0.00000000E+00  0.00000000E+00  0.00000000E+00
  0.00000000E+00  0.00000000E+00  0.00000000E+00
  0.00000000E+00  0.00000000E+00  0.00000000E+00
  0.00000000E+00  0.00000000E+00  0.00000000E+00
  0.00000000E+00  0.00000000E+00  0.00000000E+00
  0.00000000E+00  0.00000000E+00  0.00000000E+00
  0.00000000E+00  0.00000000E+00  0.00000000E+00
