Title                                   
   1.00000000000000     
     4.9440799999999996    0.0000000000000000    0.0000000000000000
     0.0000000000000000    8.5647549999999999    0.0000000000000000
     0.0000000000000000    0.0000000000000000   20.0000000000000000
    14     1     1
Selective dynamics
Direct
 -0.0007110091698020  0.2882142791168176  0.0918721232224889   T   T   T
  0.2500000000000000  0.0427348911161014  0.0826503389556966   T   T   T
 -0.0013536096186091  0.7971752824206993  0.0979953223931651   T   T   T
 -0.0014752883623650  0.9604146034352199  0.0831141932814034   T   T   T
  0.7500000000000000  0.2067076403851429  0.0809330026238694   T   T   T
  0.5007110091698019  0.2882142791168176  0.0918721232224889   T   T   T
  0.7500000000000000  0.0425065575962661  0.0779060368701475   T   T   T
  0.7500000000000000  0.7081717531835532  0.1039001863951704   T   T   T
  0.5013536096186088  0.7971752824206993  0.0979953223931651   T   T   T
  0.7500000000000000  0.5385490972188270  0.1121806178675778   T   T   T
  0.5014752883623649  0.9604146034352199  0.0831141932814034   T   T   T
  0.5055136841449696  0.4436760668688543  0.1150594192873051   T   T   T
 -0.0055136841449696  0.4436760668688543  0.1150594192873051   T   T   T
  0.2500000000000000  0.7277444426735140  0.1136393520035934   T   T   T
  0.2500000000000000  0.2067029008202793  0.0872465402211172   T   T   T
  0.2500000000000000  0.5479222533231350  0.1779738086941122   T   T   T
 
  0.00000000E+00  0.00000000E+00  0.00000000E+00
  0.00000000E+00  0.00000000E+00  0.00000000E+00
  0.00000000E+00  0.00000000E+00  0.00000000E+00
  0.00000000E+00  0.00000000E+00  0.00000000E+00
  0.00000000E+00  0.00000000E+00  0.00000000E+00
  0.00000000E+00  0.00000000E+00  0.00000000E+00
  0.00000000E+00  0.00000000E+00  0.00000000E+00
  0.00000000E+00  0.00000000E+00  0.00000000E+00
  0.00000000E+00  0.00000000E+00  0.00000000E+00
  0.00000000E+00  0.00000000E+00  0.00000000E+00
  0.00000000E+00  0.00000000E+00  0.00000000E+00
  0.00000000E+00  0.00000000E+00  0.00000000E+00
  0.00000000E+00  0.00000000E+00  0.00000000E+00
  0.00000000E+00  0.00000000E+00  0.00000000E+00
  0.00000000E+00  0.00000000E+00  0.00000000E+00
  0.00000000E+00  0.00000000E+00  0.00000000E+00
