Title                                   
   1.00000000000000     
     4.9440799999999996    0.0000000000000000    0.0000000000000000
     0.0000000000000000   17.1295089999999988    0.0000000000000000
     0.0000000000000000    0.0000000000000000   20.0000000000000000
    28     2     1
Selective dynamics
Direct
 -0.0009943457921960  0.1049124207959297  0.2964211465427419   T   T   T
  0.2479970948113500  0.1475802478426407  0.2977941442868468   T   T   T
  0.2478957050544889  0.2313070399604983  0.3002447496229546   T   T   T
 -0.0041161905322395  0.2733335997677327  0.2987863800416932   T   T   T
  0.0026402997145810  0.6030946612417485  0.2969889772696543   T   T   T
  0.2518982215533925  0.7270380957459385  0.2976585573340226   T   T   T
  0.0016401771451631  0.8532612813816925  0.2959254233713525   T   T   T
  0.2503186806469141  0.8954728299838128  0.2960532486911127   T   T   T
  0.2496196318568761  0.9792433451541750  0.2959310217976407   T   T   T
  0.0020610442872945  0.7691838656538708  0.2964067830168665   T   T   T
  0.4984822297937643  0.1051124214473601  0.2973238890717603   T   T   T
  0.7490637034782571  0.1466192723520881  0.2974694349596310   T   T   T
  0.7477683940954248  0.2303273781092602  0.2995870263456875   T   T   T
  0.4991672434019310  0.0212620478757402  0.2962600377095387   T   T   T
  0.7527743129411865  0.3933446096012803  0.3026520500098171   T   T   T
  0.7565835989561990  0.4808379710788541  0.3015447761410970   T   T   T
  0.4991854975638008  0.2727380267433082  0.3039710651851885   T   T   T
  0.5022528994404146  0.6020860325162509  0.3023326421084951   T   T   T
  0.7510938597116970  0.7283149477708473  0.2969299528871271   T   T   T
  0.4995194946074852  0.8533596789924506  0.2963947152660352   T   T   T
  0.7503222221882273  0.8950349112828708  0.2958241109267163   T   T   T
  0.7495480659314568  0.9790845111643106  0.2957342453289413   T   T   T
  0.5005249214831072  0.7693798841243752  0.2972954564626055   T   T   T
  0.7517254320580685  0.6452999502271998  0.2978415965757484   T   T   T
 -0.0004559482312995  0.0211268173641658  0.2957436661839613   T   T   T
  0.5066752804210938  0.5202818601898137  0.3101244157634047   T   T   T
  0.0015506316721095  0.5214789998622206  0.2951225531055432   T   T   T
  0.5095406758580283  0.3549400872939769  0.3122273152300709   T   T   T
 -0.0090578651032213  0.3536051223367652  0.2960625324444470   T   T   T
  0.2527784497458359  0.6449726132924950  0.2993572104682418   T   T   T
  0.2420035812408079  0.4377074688463231  0.3230508758510073   T   T   T
 
  0.00000000E+00  0.00000000E+00  0.00000000E+00
  0.00000000E+00  0.00000000E+00  0.00000000E+00
  0.00000000E+00  0.00000000E+00  0.00000000E+00
  0.00000000E+00  0.00000000E+00  0.00000000E+00
  0.00000000E+00  0.00000000E+00  0.00000000E+00
  0.00000000E+00  0.00000000E+00  0.00000000E+00
  0.00000000E+00  0.00000000E+00  0.00000000E+00
  0.00000000E+00  0.00000000E+00  0.00000000E+00
  0.00000000E+00  0.00000000E+00  0.00000000E+00
  0.00000000E+00  0.00000000E+00  0.00000000E+00
  0.00000000E+00  0.00000000E+00  0.00000000E+00
  0.00000000E+00  0.00000000E+00  0.00000000E+00
  0.00000000E+00  0.00000000E+00  0.00000000E+00
  0.00000000E+00  0.00000000E+00  0.00000000E+00
  0.00000000E+00  0.00000000E+00  0.00000000E+00
  0.00000000E+00  0.00000000E+00  0.00000000E+00
  0.00000000E+00  0.00000000E+00  0.00000000E+00
  0.00000000E+00  0.00000000E+00  0.00000000E+00
  0.00000000E+00  0.00000000E+00  0.00000000E+00
  0.00000000E+00  0.00000000E+00  0.00000000E+00
  0.00000000E+00  0.00000000E+00  0.00000000E+00
  0.00000000E+00  0.00000000E+00  0.00000000E+00
  0.00000000E+00  0.00000000E+00  0.00000000E+00
  0.00000000E+00  0.00000000E+00  0.00000000E+00
  0.00000000E+00  0.00000000E+00  0.00000000E+00
  0.00000000E+00  0.00000000E+00  0.00000000E+00
  0.00000000E+00  0.00000000E+00  0.00000000E+00
  0.00000000E+00  0.00000000E+00  0.00000000E+00
  0.00000000E+00  0.00000000E+00  0.00000000E+00
  0.00000000E+00  0.00000000E+00  0.00000000E+00
  0.00000000E+00  0.00000000E+00  0.00000000E+00
