Title                                   
   1.00000000000000     
     9.8694509999999998    0.0000000000000000    0.0000000000000000
     0.0000000000000000    8.5490480000000009    0.0000000000000000
     0.0000000000000000    0.0000000000000000   20.0000000000000000
    26     5     1
Selective dynamics
Direct
  0.0562241592331362  0.0921540071856677  0.0894504521040885   T   T   T
  0.9298564265634082  0.1761335472926633  0.0896806103145463   T   T   T
  0.0573793572220120  0.9239472689201133  0.0893580320689060   T   T   T
  0.9283049097103655  0.3426771739867703  0.0892465780381752   T   T   T
  0.0568535764610814  0.5903296373552109  0.0885074307231281   T   T   T
  0.9319958351029878  0.6725717748766107  0.0883788781293540   T   T   T
  0.0556449860163962  0.4232356286250388  0.0900720010031510   T   T   T
  0.9321801626980414  0.8401047801204612  0.0892497468772270   T   T   T
  0.3060265074520501  0.0874130672428084  0.0923617919686872   T   T   T
  0.1826228202820850  0.1739322678460330  0.0908471293739409   T   T   T
  0.3080675467256820  0.9217097490970368  0.0937139646181900   T   T   T
  0.1826201078086360  0.3400147366591476  0.0924308374853853   T   T   T
  0.3080475944550340  0.5891382949313161  0.1019383460550083   T   T   T
  0.1824571535616818  0.6708656938039814  0.0916046570999527   T   T   T
  0.1828371995991994  0.8384807652735188  0.0915129347732226   T   T   T
  0.5572680292609805  0.0850390637173888  0.0956524572133942   T   T   T
  0.4315225805056982  0.1683358301818293  0.0947060180287853   T   T   T
  0.4354736900169496  0.3346484251332740  0.0944625094409312   T   T   T
  0.4316744189663890  0.8368749089144950  0.1037877158301990   T   T   T
  0.8070863430978799  0.0900448916378283  0.0913640625299132   T   T   T
  0.6807106478770575  0.1707109355525974  0.0927907514923940   T   T   T
  0.8073703714931780  0.9248115442254469  0.0915594738968169   T   T   T
  0.6740257845376846  0.3377851026332144  0.0905654304237280   T   T   T
  0.8031375344807887  0.5959965914777162  0.0896274627355683   T   T   T
  0.6854698785145567  0.8366997092503492  0.0947963108170556   T   T   T
  0.4230555828667051  0.6769053807962822  0.1209337529070297   T   T   T
  0.5536160853097104  0.4134946867179940  0.0918690267054710   T   T   T
  0.6868275002592010  0.6791790586759356  0.0937388001306410   T   T   T
  0.5582551343343561  0.9185227616741838  0.0992862296246538   T   T   T
  0.3094315470438795  0.4216896538063269  0.0969317706392449   T   T   T
  0.7993305536846609  0.4267307417459423  0.0885321772171237   T   T   T
  0.5542649748585343  0.5900683206428203  0.1867176597341033   T   T   T
 
  0.00000000E+00  0.00000000E+00  0.00000000E+00
  0.00000000E+00  0.00000000E+00  0.00000000E+00
  0.00000000E+00  0.00000000E+00  0.00000000E+00
  0.00000000E+00  0.00000000E+00  0.00000000E+00
  0.00000000E+00  0.00000000E+00  0.00000000E+00
  0.00000000E+00  0.00000000E+00  0.00000000E+00
  0.00000000E+00  0.00000000E+00  0.00000000E+00
  0.00000000E+00  0.00000000E+00  0.00000000E+00
  0.00000000E+00  0.00000000E+00  0.00000000E+00
  0.00000000E+00  0.00000000E+00  0.00000000E+00
  0.00000000E+00  0.00000000E+00  0.00000000E+00
  0.00000000E+00  0.00000000E+00  0.00000000E+00
  0.00000000E+00  0.00000000E+00  0.00000000E+00
  0.00000000E+00  0.00000000E+00  0.00000000E+00
  0.00000000E+00  0.00000000E+00  0.00000000E+00
  0.00000000E+00  0.00000000E+00  0.00000000E+00
  0.00000000E+00  0.00000000E+00  0.00000000E+00
  0.00000000E+00  0.00000000E+00  0.00000000E+00
  0.00000000E+00  0.00000000E+00  0.00000000E+00
  0.00000000E+00  0.00000000E+00  0.00000000E+00
  0.00000000E+00  0.00000000E+00  0.00000000E+00
  0.00000000E+00  0.00000000E+00  0.00000000E+00
  0.00000000E+00  0.00000000E+00  0.00000000E+00
  0.00000000E+00  0.00000000E+00  0.00000000E+00
  0.00000000E+00  0.00000000E+00  0.00000000E+00
  0.00000000E+00  0.00000000E+00  0.00000000E+00
  0.00000000E+00  0.00000000E+00  0.00000000E+00
  0.00000000E+00  0.00000000E+00  0.00000000E+00
  0.00000000E+00  0.00000000E+00  0.00000000E+00
  0.00000000E+00  0.00000000E+00  0.00000000E+00
  0.00000000E+00  0.00000000E+00  0.00000000E+00
  0.00000000E+00  0.00000000E+00  0.00000000E+00
