Title                                   
   1.00000000000000     
     9.8694509999999998    0.0000000000000000    0.0000000000000000
     0.0000000000000000    8.5490480000000009    0.0000000000000000
     0.0000000000000000    0.0000000000000000   20.0000000000000000
    28     2     1
Selective dynamics
Direct
  0.0558808583796261  0.0889775520847497  0.0840980217257467   T   T   T
  0.9309489274803504  0.1722575346733113  0.0853514945796653   T   T   T
  0.0576005367130857  0.9229436713202043  0.0848108478373025   T   T   T
  0.9332756416154885  0.3395519087723418  0.0849812572408324   T   T   T
  0.0571608915738714  0.5904031722484918  0.0824704166886258   T   T   T
  0.9334677419080353  0.6740813028686783  0.0864426419407034   T   T   T
  0.0572858802059375  0.4230054254505242  0.0818940399850621   T   T   T
  0.9317821060832270  0.8404121994221131  0.0869351573531834   T   T   T
  0.3058693793781506  0.0884108216986860  0.0915354064289829   T   T   T
  0.1806137965791429  0.1699504279013302  0.0858296779540730   T   T   T
  0.1804739205250764  0.3378938418109012  0.0849409641857091   T   T   T
  0.3037976747460019  0.5876179321602872  0.0932668081233086   T   T   T
  0.1816416459143055  0.6728569208732988  0.0853498706961437   T   T   T
  0.3022442385760398  0.4192498045646905  0.0931241947242702   T   T   T
  0.1826307151737891  0.8401135412053639  0.0864780867763437   T   T   T
  0.5546878361915566  0.0926358189522489  0.1013313784803546   T   T   T
  0.4283514992998119  0.1753100568721525  0.0996082626042919   T   T   T
  0.5543718990526424  0.9238906271587292  0.1024512474437354   T   T   T
  0.4253691415803899  0.6706375150466573  0.1056508878689259   T   T   T
  0.4298223157841382  0.8366527370520227  0.1005081599923528   T   T   T
  0.8055454466810086  0.0903296885557402  0.0907565973097193   T   T   T
  0.6813406602870811  0.1773030754509861  0.0987410173049691   T   T   T
  0.8056958987428366  0.9229985263108818  0.0919401901585910   T   T   T
  0.6873561196192669  0.3428483289303524  0.1034098554172841   T   T   T
  0.8110543517753044  0.5920033693036372  0.0955994026187579   T   T   T
  0.6881344230966221  0.6716117884561754  0.1082708346612675   T   T   T
  0.8111152975329657  0.4222755184405888  0.0936703970059082   T   T   T
  0.6811801193980243  0.8378659849162458  0.1015232262046142   T   T   T
  0.4223564360233417  0.3391457612639233  0.1052314844103689   T   T   T
  0.3068277317767097  0.9225632773936189  0.0914432699766998   T   T   T
  0.5552518683061898  0.5050768688410884  0.1533199023022545   T   T   T
 
  0.00000000E+00  0.00000000E+00  0.00000000E+00
  0.00000000E+00  0.00000000E+00  0.00000000E+00
  0.00000000E+00  0.00000000E+00  0.00000000E+00
  0.00000000E+00  0.00000000E+00  0.00000000E+00
  0.00000000E+00  0.00000000E+00  0.00000000E+00
  0.00000000E+00  0.00000000E+00  0.00000000E+00
  0.00000000E+00  0.00000000E+00  0.00000000E+00
  0.00000000E+00  0.00000000E+00  0.00000000E+00
  0.00000000E+00  0.00000000E+00  0.00000000E+00
  0.00000000E+00  0.00000000E+00  0.00000000E+00
  0.00000000E+00  0.00000000E+00  0.00000000E+00
  0.00000000E+00  0.00000000E+00  0.00000000E+00
  0.00000000E+00  0.00000000E+00  0.00000000E+00
  0.00000000E+00  0.00000000E+00  0.00000000E+00
  0.00000000E+00  0.00000000E+00  0.00000000E+00
  0.00000000E+00  0.00000000E+00  0.00000000E+00
  0.00000000E+00  0.00000000E+00  0.00000000E+00
  0.00000000E+00  0.00000000E+00  0.00000000E+00
  0.00000000E+00  0.00000000E+00  0.00000000E+00
  0.00000000E+00  0.00000000E+00  0.00000000E+00
  0.00000000E+00  0.00000000E+00  0.00000000E+00
  0.00000000E+00  0.00000000E+00  0.00000000E+00
  0.00000000E+00  0.00000000E+00  0.00000000E+00
  0.00000000E+00  0.00000000E+00  0.00000000E+00
  0.00000000E+00  0.00000000E+00  0.00000000E+00
  0.00000000E+00  0.00000000E+00  0.00000000E+00
  0.00000000E+00  0.00000000E+00  0.00000000E+00
  0.00000000E+00  0.00000000E+00  0.00000000E+00
  0.00000000E+00  0.00000000E+00  0.00000000E+00
  0.00000000E+00  0.00000000E+00  0.00000000E+00
  0.00000000E+00  0.00000000E+00  0.00000000E+00
