Title                                   
   1.00000000000000     
     9.8694509999999998    0.0000000000000000    0.0000000000000000
     0.0000000000000000    8.5490480000000009    0.0000000000000000
     0.0000000000000000    0.0000000000000000   20.0000000000000000
    28     2     1
Selective dynamics
Direct
  0.0565405180321315  0.0894305252616063  0.0868003010697787   T   T   T
  0.9311211062877632  0.1721826967290027  0.0879003715574665   T   T   T
  0.0565427518473611  0.9228495311623847  0.0868084258941389   T   T   T
  0.9335031048559846  0.3386509282656304  0.0888961873148394   T   T   T
  0.0573436999066213  0.5895670463652632  0.0875808986689967   T   T   T
  0.9335059956784412  0.6736736071685133  0.0888860602952170   T   T   T
  0.0573371084509058  0.4227678541774285  0.0875695008417836   T   T   T
  0.9311194990177545  0.8401476696103466  0.0878914429802372   T   T   T
  0.3062136446913186  0.0901550523949653  0.0915603897010223   T   T   T
  0.1806492704704763  0.1720274995230825  0.0887204167637156   T   T   T
  0.3062140933661426  0.9221500729255980  0.0915642094884300   T   T   T
  0.1805399607800018  0.3397918400310848  0.0893461083665721   T   T   T
  0.3044747613616060  0.5907988826063429  0.0949672731662225   T   T   T
  0.1805502886142460  0.6725392239661341  0.0893634472724195   T   T   T
  0.3044767832361370  0.4214820442361391  0.0949637539751878   T   T   T
  0.1806565095942251  0.8402959359810932  0.0887492023939681   T   T   T
  0.5538313209197989  0.0911158197818310  0.0982389473358717   T   T   T
  0.4292794653481961  0.1765545147933053  0.0971959249168836   T   T   T
  0.5538468911588103  0.9211301223001205  0.0982474997905678   T   T   T
  0.4292735370199211  0.8357159084410125  0.0972001569881826   T   T   T
  0.8056768238367871  0.0899662808960562  0.0903344737574326   T   T   T
  0.6810961034129626  0.1746917326657597  0.0964748026730950   T   T   T
  0.8056946585613908  0.9224053350537054  0.0903379182510717   T   T   T
  0.6870466266993159  0.3399015505262916  0.1008500282599099   T   T   T
  0.8102715249931027  0.5913459131529065  0.0945936053444962   T   T   T
  0.6870942982188412  0.6724410097466165  0.1008619471773609   T   T   T
  0.8102535370038293  0.4209609587817589  0.0946020576386789   T   T   T
  0.6811427029342475  0.8376617923439225  0.0964834017229759   T   T   T
  0.4250250128805740  0.3402415155825197  0.1021897775273843   T   T   T
  0.4250260241938235  0.6720505731292550  0.1021831993678238   T   T   T
  0.5577873766272909  0.5061815624003352  0.1496032694983103   T   T   T
 
  0.00000000E+00  0.00000000E+00  0.00000000E+00
  0.00000000E+00  0.00000000E+00  0.00000000E+00
  0.00000000E+00  0.00000000E+00  0.00000000E+00
  0.00000000E+00  0.00000000E+00  0.00000000E+00
  0.00000000E+00  0.00000000E+00  0.00000000E+00
  0.00000000E+00  0.00000000E+00  0.00000000E+00
  0.00000000E+00  0.00000000E+00  0.00000000E+00
  0.00000000E+00  0.00000000E+00  0.00000000E+00
  0.00000000E+00  0.00000000E+00  0.00000000E+00
  0.00000000E+00  0.00000000E+00  0.00000000E+00
  0.00000000E+00  0.00000000E+00  0.00000000E+00
  0.00000000E+00  0.00000000E+00  0.00000000E+00
  0.00000000E+00  0.00000000E+00  0.00000000E+00
  0.00000000E+00  0.00000000E+00  0.00000000E+00
  0.00000000E+00  0.00000000E+00  0.00000000E+00
  0.00000000E+00  0.00000000E+00  0.00000000E+00
  0.00000000E+00  0.00000000E+00  0.00000000E+00
  0.00000000E+00  0.00000000E+00  0.00000000E+00
  0.00000000E+00  0.00000000E+00  0.00000000E+00
  0.00000000E+00  0.00000000E+00  0.00000000E+00
  0.00000000E+00  0.00000000E+00  0.00000000E+00
  0.00000000E+00  0.00000000E+00  0.00000000E+00
  0.00000000E+00  0.00000000E+00  0.00000000E+00
  0.00000000E+00  0.00000000E+00  0.00000000E+00
  0.00000000E+00  0.00000000E+00  0.00000000E+00
  0.00000000E+00  0.00000000E+00  0.00000000E+00
  0.00000000E+00  0.00000000E+00  0.00000000E+00
  0.00000000E+00  0.00000000E+00  0.00000000E+00
  0.00000000E+00  0.00000000E+00  0.00000000E+00
  0.00000000E+00  0.00000000E+00  0.00000000E+00
  0.00000000E+00  0.00000000E+00  0.00000000E+00
