Title                                   
   1.00000000000000     
     4.9440799999999996    0.0000000000000000    0.0000000000000000
     0.0000000000000000    8.5647549999999999    0.0000000000000000
     0.0000000000000000    0.0000000000000000   20.0000000000000000
    13     1     1
Selective dynamics
Direct
  0.2508376187484247  0.2056554865367141  0.0995082530265422   T   T   T
 -0.0015147010857599  0.2919098154067437  0.1017296757885533   T   T   T
  0.2528322368366533  0.0396364412954324  0.0999559235855624   T   T   T
  0.0013621857922659  0.9557880894324500  0.1045161778498659   T   T   T
  0.7491276627582244  0.2071232046882522  0.0993888478132633   T   T   T
  0.5000938802307383  0.2919385775519860  0.0971134988664057   T   T   T
  0.7524739134967101  0.0404024943068826  0.1002803956826653   T   T   T
  0.7490979023461021  0.7169518028594513  0.1011291902195576   T   T   T
  0.7446419039130052  0.5417333353331085  0.0997117408800721   T   T   T
  0.5059985210571437  0.9547807817603824  0.0968799303125517   T   T   T
  0.5071481369900389  0.4560625916850060  0.0951800730273192   T   T   T
 -0.0168788404379046  0.4554062842741321  0.1045929496654748   T   T   T
 -0.0102501766963101  0.7927528616001432  0.1124576634734946   T   T   T
  0.5163675033299460  0.7952625537279406  0.0908223934243460   T   T   T
  0.2486622527207225  0.6262766795413774  0.1047132863843291   T   T   T
 
  0.00000000E+00  0.00000000E+00  0.00000000E+00
  0.00000000E+00  0.00000000E+00  0.00000000E+00
  0.00000000E+00  0.00000000E+00  0.00000000E+00
  0.00000000E+00  0.00000000E+00  0.00000000E+00
  0.00000000E+00  0.00000000E+00  0.00000000E+00
  0.00000000E+00  0.00000000E+00  0.00000000E+00
  0.00000000E+00  0.00000000E+00  0.00000000E+00
  0.00000000E+00  0.00000000E+00  0.00000000E+00
  0.00000000E+00  0.00000000E+00  0.00000000E+00
  0.00000000E+00  0.00000000E+00  0.00000000E+00
  0.00000000E+00  0.00000000E+00  0.00000000E+00
  0.00000000E+00  0.00000000E+00  0.00000000E+00
  0.00000000E+00  0.00000000E+00  0.00000000E+00
  0.00000000E+00  0.00000000E+00  0.00000000E+00
  0.00000000E+00  0.00000000E+00  0.00000000E+00
