Title                                   
   1.00000000000000     
     8.5490480000000009    0.0000000000000000    0.0000000000000000
     0.0000000000000000    8.5490480000000009    0.0000000000000000
     0.0000000000000000    0.0000000000000000   20.0000000000000000
    20     4     1
Selective dynamics
Direct
  0.9079437602967634  0.2067287467477875  0.0975190898229435   T   T   T
  0.9062654987582005  0.5035844989646483  0.0976322555550372   T   T   T
  0.9109984688210727  0.8023459758984148  0.0972745579693428   T   T   T
  0.1982424899914321  0.0828360505607585  0.0973741985438351   T   T   T
  0.0748192529343202  0.2039603805034448  0.0973551082402089   T   T   T
  0.1560930855947754  0.6515183127413960  0.0977170323638399   T   T   T
  0.0756891753749073  0.5016203501967094  0.0975983021788334   T   T   T
  0.1552445806546544  0.3534318819481108  0.0975724435798176   T   T   T
  0.0788964191731257  0.7982448395963180  0.0974324214897534   T   T   T
  0.4930921609775457  0.0838331862274755  0.0976844251199783   T   T   T
  0.3453718810169694  0.1619653105984726  0.0975896620157512   T   T   T
  0.4931992521336893  0.9146865432043358  0.0975994993387727   T   T   T
  0.3440607390410261  0.8358827235748071  0.0978018249761594   T   T   T
  0.7870032267078441  0.0867694837763353  0.0975161581260111   T   T   T
  0.6403735598112615  0.1648527398862121  0.0979040414401516   T   T   T
  0.7892764548208945  0.9201895846270621  0.0972866412975437   T   T   T
  0.8307202061019042  0.6539814566481122  0.0974790798583263   T   T   T
  0.8276663000108150  0.3541856384472398  0.0978960192764786   T   T   T
  0.6428519195594422  0.8372070937327472  0.0974838926860862   T   T   T
  0.3235761411152513  0.3310903241800825  0.0980534425558088   T   T   T
  0.3192912014327638  0.6759201748666612  0.0982418073600467   T   T   T
  0.6633446925111121  0.3296606276581683  0.0985116504322236   T   T   T
  0.6688814121004716  0.6766498372268235  0.0977686592046396   T   T   T
  0.1990049639973017  0.9162176686082942  0.0975316535834456   T   T   T
  0.4935051570624484  0.4974265695796041  0.0998811329849378   T   T   T
 
  0.00000000E+00  0.00000000E+00  0.00000000E+00
  0.00000000E+00  0.00000000E+00  0.00000000E+00
  0.00000000E+00  0.00000000E+00  0.00000000E+00
  0.00000000E+00  0.00000000E+00  0.00000000E+00
  0.00000000E+00  0.00000000E+00  0.00000000E+00
  0.00000000E+00  0.00000000E+00  0.00000000E+00
  0.00000000E+00  0.00000000E+00  0.00000000E+00
  0.00000000E+00  0.00000000E+00  0.00000000E+00
  0.00000000E+00  0.00000000E+00  0.00000000E+00
  0.00000000E+00  0.00000000E+00  0.00000000E+00
  0.00000000E+00  0.00000000E+00  0.00000000E+00
  0.00000000E+00  0.00000000E+00  0.00000000E+00
  0.00000000E+00  0.00000000E+00  0.00000000E+00
  0.00000000E+00  0.00000000E+00  0.00000000E+00
  0.00000000E+00  0.00000000E+00  0.00000000E+00
  0.00000000E+00  0.00000000E+00  0.00000000E+00
  0.00000000E+00  0.00000000E+00  0.00000000E+00
  0.00000000E+00  0.00000000E+00  0.00000000E+00
  0.00000000E+00  0.00000000E+00  0.00000000E+00
  0.00000000E+00  0.00000000E+00  0.00000000E+00
  0.00000000E+00  0.00000000E+00  0.00000000E+00
  0.00000000E+00  0.00000000E+00  0.00000000E+00
  0.00000000E+00  0.00000000E+00  0.00000000E+00
  0.00000000E+00  0.00000000E+00  0.00000000E+00
  0.00000000E+00  0.00000000E+00  0.00000000E+00
