Title                                   
   1.00000000000000     
     9.8694509999999998    0.0000000000000000    0.0000000000000000
     0.0000000000000000    8.5490480000000009    0.0000000000000000
     0.0000000000000000    0.0000000000000000   20.0000000000000000
    26     4     1
Selective dynamics
Direct
  0.0551878588731245  0.0895522269304274  0.0844310423161305   T   T   T
  0.9302277268559495  0.1726775111582616  0.0841421114396427   T   T   T
  0.0576440661962968  0.9236565059753790  0.0847824181960473   T   T   T
  0.9335283590386474  0.3406271666069627  0.0826434109161464   T   T   T
  0.0567904528351816  0.5898412426512233  0.0805681871573975   T   T   T
  0.9335540135540595  0.6746847272874006  0.0844352073240266   T   T   T
  0.0573761000966759  0.4233725533607069  0.0804204039225623   T   T   T
  0.9325148005574510  0.8413478693318763  0.0864376475712127   T   T   T
  0.3061184932874329  0.0881432960582537  0.0944259686318242   T   T   T
  0.1810573118598381  0.1699642892269161  0.0878430950836675   T   T   T
  0.1803982827723485  0.3372285996943913  0.0865684372988073   T   T   T
  0.3004864065082515  0.5875362435912336  0.0965841196450460   T   T   T
  0.1808465665497588  0.6728728942988758  0.0856409627286539   T   T   T
  0.2994990352149186  0.4181734813707604  0.0982241036444655   T   T   T
  0.1827659592824174  0.8405991716963358  0.0869372269739798   T   T   T
  0.4286230520482034  0.1756462678599695  0.1041602803726152   T   T   T
  0.5553424763521941  0.9213605871306072  0.1045899170858765   T   T   T
  0.4218733367528215  0.6707697681108233  0.1098400468862348   T   T   T
  0.4293164769344925  0.8370129829613424  0.1028581153555357   T   T   T
  0.8037241174726875  0.0898279022125565  0.0897305817400807   T   T   T
  0.6808145033464320  0.1775800801630093  0.0970968007965525   T   T   T
  0.8064733306289152  0.9221328235808914  0.0921476377088441   T   T   T
  0.6884238968286150  0.3428109447537479  0.1023059674422035   T   T   T
  0.8131323069335891  0.5934136021611985  0.0937926662532127   T   T   T
  0.8122853098238314  0.4242742591352615  0.0907531727410325   T   T   T
  0.6832735359637169  0.8355868163609189  0.1027933660779431   T   T   T
  0.5552896337464417  0.0929835099081669  0.1032545265372839   T   T   T
  0.4195767900296566  0.3366175655083118  0.1134897320706238   T   T   T
  0.6932707786044644  0.6721093646870742  0.1101135726539287   T   T   T
  0.3063657107111978  0.9225173838941089  0.0932701022981843   T   T   T
  0.5573543103403906  0.5059533623330346  0.1266841711302721   T   T   T
 
  0.00000000E+00  0.00000000E+00  0.00000000E+00
  0.00000000E+00  0.00000000E+00  0.00000000E+00
  0.00000000E+00  0.00000000E+00  0.00000000E+00
  0.00000000E+00  0.00000000E+00  0.00000000E+00
  0.00000000E+00  0.00000000E+00  0.00000000E+00
  0.00000000E+00  0.00000000E+00  0.00000000E+00
  0.00000000E+00  0.00000000E+00  0.00000000E+00
  0.00000000E+00  0.00000000E+00  0.00000000E+00
  0.00000000E+00  0.00000000E+00  0.00000000E+00
  0.00000000E+00  0.00000000E+00  0.00000000E+00
  0.00000000E+00  0.00000000E+00  0.00000000E+00
  0.00000000E+00  0.00000000E+00  0.00000000E+00
  0.00000000E+00  0.00000000E+00  0.00000000E+00
  0.00000000E+00  0.00000000E+00  0.00000000E+00
  0.00000000E+00  0.00000000E+00  0.00000000E+00
  0.00000000E+00  0.00000000E+00  0.00000000E+00
  0.00000000E+00  0.00000000E+00  0.00000000E+00
  0.00000000E+00  0.00000000E+00  0.00000000E+00
  0.00000000E+00  0.00000000E+00  0.00000000E+00
  0.00000000E+00  0.00000000E+00  0.00000000E+00
  0.00000000E+00  0.00000000E+00  0.00000000E+00
  0.00000000E+00  0.00000000E+00  0.00000000E+00
  0.00000000E+00  0.00000000E+00  0.00000000E+00
  0.00000000E+00  0.00000000E+00  0.00000000E+00
  0.00000000E+00  0.00000000E+00  0.00000000E+00
  0.00000000E+00  0.00000000E+00  0.00000000E+00
  0.00000000E+00  0.00000000E+00  0.00000000E+00
  0.00000000E+00  0.00000000E+00  0.00000000E+00
  0.00000000E+00  0.00000000E+00  0.00000000E+00
  0.00000000E+00  0.00000000E+00  0.00000000E+00
  0.00000000E+00  0.00000000E+00  0.00000000E+00
