Title                                   
   1.00000000000000     
     8.5490480000000009    0.0000000000000000    0.0000000000000000
     0.0000000000000000    8.5490480000000009    0.0000000000000000
     0.0000000000000000    0.0000000000000000   20.0000000000000000
    19     5     1
Selective dynamics
Direct
  0.9079898246883085  0.2066856014160240  0.0976000678864482   T   T   T
  0.9109535723967254  0.8001858400122690  0.0976292536110356   T   T   T
  0.1989202637040917  0.0841706928816539  0.0978687740340603   T   T   T
  0.0772474467874550  0.2025008631599970  0.0977257636755705   T   T   T
  0.1566349504765763  0.6483180364206333  0.0977379910380528   T   T   T
  0.0724939657384867  0.5003170687620028  0.0977297690708103   T   T   T
  0.1561492908472224  0.3548025092754225  0.0977016585820241   T   T   T
  0.0800701368602137  0.7982301756905152  0.0977731758633686   T   T   T
  0.3484017925045039  0.1685049850883867  0.0978358565027725   T   T   T
  0.4945952507299614  0.9186443747194768  0.0978090645022279   T   T   T
  0.3471967139159602  0.8342936633198220  0.0978437638017212   T   T   T
  0.7877810634712044  0.0867790429455998  0.0975537908724686   T   T   T
  0.6408158265907392  0.1680270048206780  0.0977165469530209   T   T   T
  0.7900616259519205  0.9186415644053222  0.0975643631849761   T   T   T
  0.8260469190393616  0.6517472760564053  0.0977224495970281   T   T   T
  0.8239991531756624  0.3532517799140200  0.0976980223020003   T   T   T
  0.6425131731688796  0.8370952554098101  0.0977039949703918   T   T   T
  0.3269131904761317  0.3361591856837347  0.0977449358077458   T   T   T
  0.3250903372127167  0.6679467546841238  0.0977290931126845   T   T   T
  0.4955131899428332  0.0871028994890686  0.0978848761098745   T   T   T
  0.9024724837283046  0.5018951127801797  0.0978047797032045   T   T   T
  0.6606671493859352  0.3308010825589940  0.0978156782805558   T   T   T
  0.6653353556857727  0.6728856466783838  0.0978009687917205   T   T   T
  0.1982203482195468  0.9155287064365663  0.0979436147023265   T   T   T
  0.4893289753014788  0.5002748773909323  0.0977667470438828   T   T   T
 
  0.00000000E+00  0.00000000E+00  0.00000000E+00
  0.00000000E+00  0.00000000E+00  0.00000000E+00
  0.00000000E+00  0.00000000E+00  0.00000000E+00
  0.00000000E+00  0.00000000E+00  0.00000000E+00
  0.00000000E+00  0.00000000E+00  0.00000000E+00
  0.00000000E+00  0.00000000E+00  0.00000000E+00
  0.00000000E+00  0.00000000E+00  0.00000000E+00
  0.00000000E+00  0.00000000E+00  0.00000000E+00
  0.00000000E+00  0.00000000E+00  0.00000000E+00
  0.00000000E+00  0.00000000E+00  0.00000000E+00
  0.00000000E+00  0.00000000E+00  0.00000000E+00
  0.00000000E+00  0.00000000E+00  0.00000000E+00
  0.00000000E+00  0.00000000E+00  0.00000000E+00
  0.00000000E+00  0.00000000E+00  0.00000000E+00
  0.00000000E+00  0.00000000E+00  0.00000000E+00
  0.00000000E+00  0.00000000E+00  0.00000000E+00
  0.00000000E+00  0.00000000E+00  0.00000000E+00
  0.00000000E+00  0.00000000E+00  0.00000000E+00
  0.00000000E+00  0.00000000E+00  0.00000000E+00
  0.00000000E+00  0.00000000E+00  0.00000000E+00
  0.00000000E+00  0.00000000E+00  0.00000000E+00
  0.00000000E+00  0.00000000E+00  0.00000000E+00
  0.00000000E+00  0.00000000E+00  0.00000000E+00
  0.00000000E+00  0.00000000E+00  0.00000000E+00
  0.00000000E+00  0.00000000E+00  0.00000000E+00
