Title                                   
   1.00000000000000     
     4.9440799999999996    0.0000000000000000    0.0000000000000000
     0.0000000000000000   17.1295089999999988    0.0000000000000000
     0.0000000000000000    0.0000000000000000   20.0000000000000000
    27     3     1
Selective dynamics
Direct
  0.0012781377325152  0.1064348864077258  0.2984405079706066   T   T   T
  0.2508864833363092  0.1490925812851497  0.2990177245955539   T   T   T
  0.2512458340103340  0.2339887503247220  0.2997943030964156   T   T   T
 -0.0015736557935241  0.2744024070107038  0.2989433716095144   T   T   T
 -0.0022073307277025  0.5995168316055637  0.2994715012078912   T   T   T
  0.2483817857471445  0.7263036665613385  0.2990289839840441   T   T   T
 -0.0004812816025544  0.8532807955486700  0.2980398129003975   T   T   T
  0.2494516533309773  0.8954896464352704  0.2979947038326157   T   T   T
  0.2497676776963670  0.9796727703389271  0.2979202831376067   T   T   T
 -0.0005481769571767  0.7691096792421707  0.2985004084336783   T   T   T
  0.4994979245863711  0.1062580116539927  0.2987572037494265   T   T   T
  0.7501284610067392  0.1480890806746133  0.2989300110738732   T   T   T
  0.7500779885196472  0.2319676184393976  0.2996541355738145   T   T   T
  0.4994226554208281  0.0220228462355676  0.2981217131212179   T   T   T
  0.7551805517107361  0.3932159714797694  0.3010127181666886   T   T   T
  0.7539540596620965  0.4796829457855723  0.3014632618975581   T   T   T
  0.5030989872103093  0.2754370588778651  0.3012730246454631   T   T   T
  0.4991599033293673  0.6005376104789422  0.3017112280598004   T   T   T
  0.7498721564810497  0.7269271722692933  0.2990785210452805   T   T   T
  0.4991306165067536  0.8531147900982973  0.2982491528268164   T   T   T
  0.7493675907041674  0.8955208624083165  0.2979775168623369   T   T   T
  0.7497787730468162  0.9798835301952347  0.2978947367468383   T   T   T
  0.4989887561804425  0.7687986307628050  0.2988616393452686   T   T   T
  0.7489097871566659  0.6426917312240189  0.3000717498198056   T   T   T
  0.2486131828240651  0.6421216936872304  0.2999659895849494   T   T   T
  0.0004217562020861  0.0221044307571900  0.2979363978106078   T   T   T
  0.5078525269058837  0.5173135083374947  0.3045715878174071   T   T   T
  0.9945976552322138  0.5185284521981272  0.2984584035045103   T   T   T
  0.5140431427336130  0.3566125387636769  0.3043922679563662   T   T   T
 -0.0095558433626545  0.3550744848352188  0.2973498113801311   T   T   T
  0.2512652411701141  0.4381470160771309  0.3021773282434680   T   T   T
 
  0.00000000E+00  0.00000000E+00  0.00000000E+00
  0.00000000E+00  0.00000000E+00  0.00000000E+00
  0.00000000E+00  0.00000000E+00  0.00000000E+00
  0.00000000E+00  0.00000000E+00  0.00000000E+00
  0.00000000E+00  0.00000000E+00  0.00000000E+00
  0.00000000E+00  0.00000000E+00  0.00000000E+00
  0.00000000E+00  0.00000000E+00  0.00000000E+00
  0.00000000E+00  0.00000000E+00  0.00000000E+00
  0.00000000E+00  0.00000000E+00  0.00000000E+00
  0.00000000E+00  0.00000000E+00  0.00000000E+00
  0.00000000E+00  0.00000000E+00  0.00000000E+00
  0.00000000E+00  0.00000000E+00  0.00000000E+00
  0.00000000E+00  0.00000000E+00  0.00000000E+00
  0.00000000E+00  0.00000000E+00  0.00000000E+00
  0.00000000E+00  0.00000000E+00  0.00000000E+00
  0.00000000E+00  0.00000000E+00  0.00000000E+00
  0.00000000E+00  0.00000000E+00  0.00000000E+00
  0.00000000E+00  0.00000000E+00  0.00000000E+00
  0.00000000E+00  0.00000000E+00  0.00000000E+00
  0.00000000E+00  0.00000000E+00  0.00000000E+00
  0.00000000E+00  0.00000000E+00  0.00000000E+00
  0.00000000E+00  0.00000000E+00  0.00000000E+00
  0.00000000E+00  0.00000000E+00  0.00000000E+00
  0.00000000E+00  0.00000000E+00  0.00000000E+00
  0.00000000E+00  0.00000000E+00  0.00000000E+00
  0.00000000E+00  0.00000000E+00  0.00000000E+00
  0.00000000E+00  0.00000000E+00  0.00000000E+00
  0.00000000E+00  0.00000000E+00  0.00000000E+00
  0.00000000E+00  0.00000000E+00  0.00000000E+00
  0.00000000E+00  0.00000000E+00  0.00000000E+00
  0.00000000E+00  0.00000000E+00  0.00000000E+00
