Title                                   
   1.00000000000000     
     8.5490480000000009    0.0000000000000000    0.0000000000000000
     0.0000000000000000    8.5490480000000009    0.0000000000000000
     0.0000000000000000    0.0000000000000000   20.0000000000000000
    21     3     1
Selective dynamics
Direct
  0.9095983290815517  0.2070977581167883  0.0976205059977415   T   T   T
  0.9119616324299330  0.7990852404578515  0.0976937476087876   T   T   T
  0.1988850096808212  0.0827092882087273  0.0977659908595192   T   T   T
  0.0759161631691575  0.2024635552256394  0.0976971413177556   T   T   T
  0.1593843893360549  0.6479043529411206  0.0978669259470660   T   T   T
  0.0766677068290117  0.5005329342717351  0.0977892267799256   T   T   T
  0.1589690768686732  0.3550568591018369  0.0977944647146757   T   T   T
  0.0787989095687377  0.7983039744785854  0.0977681076507230   T   T   T
  0.3472999485110323  0.1663496758718845  0.0978174447055443   T   T   T
  0.4929636216697305  0.9192375966635887  0.0977233281843477   T   T   T
  0.3465217400722415  0.8354419791593096  0.0978247854007212   T   T   T
  0.7864092023010880  0.0850539672768092  0.0976188180981593   T   T   T
  0.6363476248841765  0.1691771546096559  0.0976842115510159   T   T   T
  0.7886396392674462  0.9197981543795233  0.0976343985937154   T   T   T
  0.8281795556732086  0.6477994526628086  0.0977392855983551   T   T   T
  0.8260897169501153  0.3574745943641561  0.0976549873569849   T   T   T
  0.6379535229095239  0.8361130015090305  0.0976967207134379   T   T   T
  0.3264954695365420  0.3335724363350989  0.0978575421177689   T   T   T
  0.3257397604140179  0.6699705634006239  0.0978776918653547   T   T   T
  0.6581263748319054  0.3370115442143349  0.0976933108236408   T   T   T
  0.6612702562488032  0.6680253694951883  0.0977522136867184   T   T   T
  0.4937215218679327  0.0864893478573686  0.0977886217327363   T   T   T
  0.9087567685745420  0.5017460133212205  0.0977549686971632   T   T   T
  0.1976245116191176  0.9162666889383346  0.0978125341065337   T   T   T
  0.4930915477046213  0.5021084971387859  0.0977780258915885   T   T   T
 
  0.00000000E+00  0.00000000E+00  0.00000000E+00
  0.00000000E+00  0.00000000E+00  0.00000000E+00
  0.00000000E+00  0.00000000E+00  0.00000000E+00
  0.00000000E+00  0.00000000E+00  0.00000000E+00
  0.00000000E+00  0.00000000E+00  0.00000000E+00
  0.00000000E+00  0.00000000E+00  0.00000000E+00
  0.00000000E+00  0.00000000E+00  0.00000000E+00
  0.00000000E+00  0.00000000E+00  0.00000000E+00
  0.00000000E+00  0.00000000E+00  0.00000000E+00
  0.00000000E+00  0.00000000E+00  0.00000000E+00
  0.00000000E+00  0.00000000E+00  0.00000000E+00
  0.00000000E+00  0.00000000E+00  0.00000000E+00
  0.00000000E+00  0.00000000E+00  0.00000000E+00
  0.00000000E+00  0.00000000E+00  0.00000000E+00
  0.00000000E+00  0.00000000E+00  0.00000000E+00
  0.00000000E+00  0.00000000E+00  0.00000000E+00
  0.00000000E+00  0.00000000E+00  0.00000000E+00
  0.00000000E+00  0.00000000E+00  0.00000000E+00
  0.00000000E+00  0.00000000E+00  0.00000000E+00
  0.00000000E+00  0.00000000E+00  0.00000000E+00
  0.00000000E+00  0.00000000E+00  0.00000000E+00
  0.00000000E+00  0.00000000E+00  0.00000000E+00
  0.00000000E+00  0.00000000E+00  0.00000000E+00
  0.00000000E+00  0.00000000E+00  0.00000000E+00
  0.00000000E+00  0.00000000E+00  0.00000000E+00
