Title                                   
   1.00000000000000     
     9.8694509999999998    0.0000000000000000    0.0000000000000000
     0.0000000000000000    8.5490480000000009    0.0000000000000000
     0.0000000000000000    0.0000000000000000   20.0000000000000000
    27     3     1
Selective dynamics
Direct
  0.0552496079799565  0.0883051877952633  0.0832242804956556   T   T   T
  0.9307557260041958  0.1716974730164915  0.0851213693972363   T   T   T
  0.0569544119861286  0.9231548355757820  0.0839181533583463   T   T   T
  0.9342474790668170  0.3388878736980409  0.0845161581823070   T   T   T
  0.0574500263013129  0.5901155205723850  0.0809756338958555   T   T   T
  0.9341539301798345  0.6739487892084733  0.0858161940005630   T   T   T
  0.0576471978689138  0.4230010234725339  0.0802875494278981   T   T   T
  0.9317551913990197  0.8404365335876850  0.0865000180828016   T   T   T
  0.3048686549431381  0.0871558455561411  0.0919017140880801   T   T   T
  0.1810946376619655  0.1698890111682251  0.0851842874452502   T   T   T
  0.1804200353757367  0.3374156301295215  0.0840595695393453   T   T   T
  0.3032033767733177  0.5888393372174049  0.0953219786297279   T   T   T
  0.1816200373880868  0.6730710652065767  0.0848834706770656   T   T   T
  0.3017420944368456  0.4172778634352554  0.0947457030270224   T   T   T
  0.1822210168877808  0.8399918681348943  0.0861267750466864   T   T   T
  0.4274015062808426  0.1750758631977107  0.1014478689418829   T   T   T
  0.5538477809047307  0.9253075052338752  0.1056164818320422   T   T   T
  0.4219271085314520  0.6746889901183639  0.1092140584026668   T   T   T
  0.4278066384236783  0.8396082676513300  0.1034428115085838   T   T   T
  0.8049535737818095  0.0893985582212062  0.0918249274320113   T   T   T
  0.6826044264100491  0.1782281172319495  0.1016159291868061   T   T   T
  0.8061933153917759  0.9227734873761659  0.0930634354453307   T   T   T
  0.6912163503912999  0.3405805084100355  0.1092157609752988   T   T   T
  0.8134230861057457  0.5912682942860696  0.0967218969662556   T   T   T
  0.6904136999563836  0.6719377653785739  0.1098464973654043   T   T   T
  0.8141280964256209  0.4211135154341138  0.0960708115565288   T   T   T
  0.6815999063943726  0.8382494500691436  0.1038472048170506   T   T   T
  0.5544646616638303  0.0936007164385189  0.1044197445640567   T   T   T
  0.4185346263943354  0.3327405676055984  0.1066660260478966   T   T   T
  0.3047629264563323  0.9229245578683006  0.0924667386009471   T   T   T
  0.5564738722347088  0.5101909777043891  0.1229019510634444   T   T   T
 
  0.00000000E+00  0.00000000E+00  0.00000000E+00
  0.00000000E+00  0.00000000E+00  0.00000000E+00
  0.00000000E+00  0.00000000E+00  0.00000000E+00
  0.00000000E+00  0.00000000E+00  0.00000000E+00
  0.00000000E+00  0.00000000E+00  0.00000000E+00
  0.00000000E+00  0.00000000E+00  0.00000000E+00
  0.00000000E+00  0.00000000E+00  0.00000000E+00
  0.00000000E+00  0.00000000E+00  0.00000000E+00
  0.00000000E+00  0.00000000E+00  0.00000000E+00
  0.00000000E+00  0.00000000E+00  0.00000000E+00
  0.00000000E+00  0.00000000E+00  0.00000000E+00
  0.00000000E+00  0.00000000E+00  0.00000000E+00
  0.00000000E+00  0.00000000E+00  0.00000000E+00
  0.00000000E+00  0.00000000E+00  0.00000000E+00
  0.00000000E+00  0.00000000E+00  0.00000000E+00
  0.00000000E+00  0.00000000E+00  0.00000000E+00
  0.00000000E+00  0.00000000E+00  0.00000000E+00
  0.00000000E+00  0.00000000E+00  0.00000000E+00
  0.00000000E+00  0.00000000E+00  0.00000000E+00
  0.00000000E+00  0.00000000E+00  0.00000000E+00
  0.00000000E+00  0.00000000E+00  0.00000000E+00
  0.00000000E+00  0.00000000E+00  0.00000000E+00
  0.00000000E+00  0.00000000E+00  0.00000000E+00
  0.00000000E+00  0.00000000E+00  0.00000000E+00
  0.00000000E+00  0.00000000E+00  0.00000000E+00
  0.00000000E+00  0.00000000E+00  0.00000000E+00
  0.00000000E+00  0.00000000E+00  0.00000000E+00
  0.00000000E+00  0.00000000E+00  0.00000000E+00
  0.00000000E+00  0.00000000E+00  0.00000000E+00
  0.00000000E+00  0.00000000E+00  0.00000000E+00
  0.00000000E+00  0.00000000E+00  0.00000000E+00
