Title                                   
   1.00000000000000     
     9.8694509999999998    0.0000000000000000    0.0000000000000000
     0.0000000000000000    8.5490480000000009    0.0000000000000000
     0.0000000000000000    0.0000000000000000   20.0000000000000000
    28     3     1
Selective dynamics
Direct
  0.0558682509030815  0.0891232842827383  0.0852495355210170   T   T   T
  0.9314895179792564  0.1731921823581457  0.0858537027854431   T   T   T
  0.0571124699867857  0.9219020617542713  0.0863167366857752   T   T   T
  0.9312510348552709  0.3401543917008238  0.0876340262965021   T   T   T
  0.0563567116344179  0.5909143639896154  0.0878138661093114   T   T   T
  0.0558854065884754  0.4238763663108523  0.0870744960915639   T   T   T
  0.9323397200288210  0.8381920702512702  0.0884517741449545   T   T   T
  0.3058969486476920  0.0888462718948571  0.0888751233394656   T   T   T
  0.1818159566625887  0.1722520712884265  0.0867026541662602   T   T   T
  0.1813037919192418  0.3395576524519887  0.0884107485605816   T   T   T
  0.3038737674412069  0.5880396429305660  0.1001330100585157   T   T   T
  0.1809727679076216  0.6739119982039909  0.0908353200546436   T   T   T
  0.3058637162108197  0.4211128781903091  0.0967595153567924   T   T   T
  0.1826558488863973  0.8407989538150429  0.0889759759445978   T   T   T
  0.5558422949879374  0.0890466983934102  0.0926678667836064   T   T   T
  0.5546913144572658  0.9237709268857313  0.0981992146242155   T   T   T
  0.4301231892123163  0.3336710362593686  0.1011980820500602   T   T   T
  0.4280793185154905  0.8412539756158023  0.1022441760025328   T   T   T
  0.8067561900468974  0.0887192406344861  0.0876298573675581   T   T   T
  0.6807411707911092  0.1719507571471853  0.0912517310436470   T   T   T
  0.8069217568049840  0.9224954500712592  0.0903173635565934   T   T   T
  0.6827457039694318  0.3382133840924506  0.0989713191663454   T   T   T
  0.8098088743473123  0.5919909905911549  0.0999852338123928   T   T   T
  0.8071756471479530  0.4236231434981705  0.0954154140126254   T   T   T
  0.6817638009400261  0.8422377306237619  0.1000735805545734   T   T   T
  0.4206262806158321  0.6801183808826846  0.1153577767568147   T   T   T
  0.5551679489666367  0.4080704057953879  0.1133419345818157   T   T   T
  0.6918366317833566  0.6791329201704301  0.1141386185450765   T   T   T
  0.3061733014968987  0.9249554126954643  0.0910258916129075   T   T   T
  0.4291447304972851  0.1691537907670427  0.0924926803030952   T   T   T
  0.9325166914989598  0.6727210872841801  0.0897407695509403   T   T   T
  0.5568382442686369  0.5872464791691347  0.1625370045597915   T   T   T
 
  0.00000000E+00  0.00000000E+00  0.00000000E+00
  0.00000000E+00  0.00000000E+00  0.00000000E+00
  0.00000000E+00  0.00000000E+00  0.00000000E+00
  0.00000000E+00  0.00000000E+00  0.00000000E+00
  0.00000000E+00  0.00000000E+00  0.00000000E+00
  0.00000000E+00  0.00000000E+00  0.00000000E+00
  0.00000000E+00  0.00000000E+00  0.00000000E+00
  0.00000000E+00  0.00000000E+00  0.00000000E+00
  0.00000000E+00  0.00000000E+00  0.00000000E+00
  0.00000000E+00  0.00000000E+00  0.00000000E+00
  0.00000000E+00  0.00000000E+00  0.00000000E+00
  0.00000000E+00  0.00000000E+00  0.00000000E+00
  0.00000000E+00  0.00000000E+00  0.00000000E+00
  0.00000000E+00  0.00000000E+00  0.00000000E+00
  0.00000000E+00  0.00000000E+00  0.00000000E+00
  0.00000000E+00  0.00000000E+00  0.00000000E+00
  0.00000000E+00  0.00000000E+00  0.00000000E+00
  0.00000000E+00  0.00000000E+00  0.00000000E+00
  0.00000000E+00  0.00000000E+00  0.00000000E+00
  0.00000000E+00  0.00000000E+00  0.00000000E+00
  0.00000000E+00  0.00000000E+00  0.00000000E+00
  0.00000000E+00  0.00000000E+00  0.00000000E+00
  0.00000000E+00  0.00000000E+00  0.00000000E+00
  0.00000000E+00  0.00000000E+00  0.00000000E+00
  0.00000000E+00  0.00000000E+00  0.00000000E+00
  0.00000000E+00  0.00000000E+00  0.00000000E+00
  0.00000000E+00  0.00000000E+00  0.00000000E+00
  0.00000000E+00  0.00000000E+00  0.00000000E+00
  0.00000000E+00  0.00000000E+00  0.00000000E+00
  0.00000000E+00  0.00000000E+00  0.00000000E+00
  0.00000000E+00  0.00000000E+00  0.00000000E+00
  0.00000000E+00  0.00000000E+00  0.00000000E+00
