Title                                   
   1.00000000000000     
     9.8694509999999998    0.0000000000000000    0.0000000000000000
     0.0000000000000000    8.5490480000000009    0.0000000000000000
     0.0000000000000000    0.0000000000000000   20.0000000000000000
    29     2     1
Selective dynamics
Direct
  0.0561791758823429  0.0909461131605618  0.0826282317957906   T   T   T
  0.9312105537624095  0.1731711807607870  0.0842718991920966   T   T   T
  0.0567361843018577  0.9240945315180633  0.0840578576176005   T   T   T
  0.9314579682254638  0.3400717882179349  0.0873385826928404   T   T   T
  0.0572511718160229  0.5896672058378063  0.0848268612254502   T   T   T
  0.9329200911031541  0.6723059193120372  0.0897705387179005   T   T   T
  0.0574677159859023  0.4229439934908973  0.0846915309475959   T   T   T
  0.9323067174328014  0.8393938258541080  0.0869935297770427   T   T   T
  0.3055619776180393  0.0882963608650194  0.0872345383988135   T   T   T
  0.1817977336193142  0.1728671631258255  0.0841479896424014   T   T   T
  0.1835282426407940  0.3406995804557000  0.0857347834734606   T   T   T
  0.3030050709879296  0.5922766237500942  0.0985177215425785   T   T   T
  0.1814397432286934  0.6744017073406383  0.0876777282912331   T   T   T
  0.3083925082282306  0.4247318075509637  0.0955348087156781   T   T   T
  0.1809677410520288  0.8413853737509277  0.0873028487497515   T   T   T
  0.5560467870682527  0.0858862568390767  0.0937549778701489   T   T   T
  0.4306686379502875  0.1696030801414231  0.0927325018571899   T   T   T
  0.5542443160246070  0.9196762607523441  0.0982989362721054   T   T   T
  0.4306734830623056  0.3342457809765154  0.1023279031472971   T   T   T
  0.5564015104226047  0.4042465836158400  0.1226711156833674   T   T   T
  0.4249043999506866  0.8418628648341140  0.1010901157469704   T   T   T
  0.8069411997199488  0.0885140617326165  0.0865799832602515   T   T   T
  0.6820285671783463  0.1695809552605774  0.0934639394730947   T   T   T
  0.8065919351988481  0.9224394551516297  0.0888700157960867   T   T   T
  0.6834373657520431  0.3333154951524410  0.1050280014919866   T   T   T
  0.8115580971784407  0.5894267470239379  0.1032040668638322   T   T   T
  0.6947673554466786  0.6801946300451305  0.1210321103096685   T   T   T
  0.8073574669623403  0.4217297404961711  0.0995130417225858   T   T   T
  0.6832667167138347  0.8400802182362741  0.1010119567624872   T   T   T
  0.4131390528746601  0.6854158598937518  0.1193360857877825   T   T   T
  0.3046632135904826  0.9242348175777884  0.0902734429346924   T   T   T
  0.5527262990206553  0.5925400172789906  0.1737573542402639   T   T   T
 
  0.00000000E+00  0.00000000E+00  0.00000000E+00
  0.00000000E+00  0.00000000E+00  0.00000000E+00
  0.00000000E+00  0.00000000E+00  0.00000000E+00
  0.00000000E+00  0.00000000E+00  0.00000000E+00
  0.00000000E+00  0.00000000E+00  0.00000000E+00
  0.00000000E+00  0.00000000E+00  0.00000000E+00
  0.00000000E+00  0.00000000E+00  0.00000000E+00
  0.00000000E+00  0.00000000E+00  0.00000000E+00
  0.00000000E+00  0.00000000E+00  0.00000000E+00
  0.00000000E+00  0.00000000E+00  0.00000000E+00
  0.00000000E+00  0.00000000E+00  0.00000000E+00
  0.00000000E+00  0.00000000E+00  0.00000000E+00
  0.00000000E+00  0.00000000E+00  0.00000000E+00
  0.00000000E+00  0.00000000E+00  0.00000000E+00
  0.00000000E+00  0.00000000E+00  0.00000000E+00
  0.00000000E+00  0.00000000E+00  0.00000000E+00
  0.00000000E+00  0.00000000E+00  0.00000000E+00
  0.00000000E+00  0.00000000E+00  0.00000000E+00
  0.00000000E+00  0.00000000E+00  0.00000000E+00
  0.00000000E+00  0.00000000E+00  0.00000000E+00
  0.00000000E+00  0.00000000E+00  0.00000000E+00
  0.00000000E+00  0.00000000E+00  0.00000000E+00
  0.00000000E+00  0.00000000E+00  0.00000000E+00
  0.00000000E+00  0.00000000E+00  0.00000000E+00
  0.00000000E+00  0.00000000E+00  0.00000000E+00
  0.00000000E+00  0.00000000E+00  0.00000000E+00
  0.00000000E+00  0.00000000E+00  0.00000000E+00
  0.00000000E+00  0.00000000E+00  0.00000000E+00
  0.00000000E+00  0.00000000E+00  0.00000000E+00
  0.00000000E+00  0.00000000E+00  0.00000000E+00
  0.00000000E+00  0.00000000E+00  0.00000000E+00
  0.00000000E+00  0.00000000E+00  0.00000000E+00
