Title                                   
   1.00000000000000     
     4.9440799999999996    0.0000000000000000    0.0000000000000000
     0.0000000000000000    8.5647549999999999    0.0000000000000000
     0.0000000000000000    0.0000000000000000   20.0000000000000000
    13     2     1
Selective dynamics
Direct
  0.2460564425008839  0.2093592351726969  0.0884397543058301   T   T   T
 -0.0091283677116110  0.2913156310545903  0.0913726195682503   T   T   T
  0.2486437671719435  0.0439130147225324  0.0864625271477505   T   T   T
  0.0064441103443643  0.7977254250021935  0.1034103625521543   T   T   T
 -0.0001410371833028  0.9594296711192637  0.0874548033069562   T   T   T
  0.7469454543316770  0.2055607584546036  0.0841196085841700   T   T   T
  0.4999558085622265  0.2895352641241298  0.0930475537121768   T   T   T
  0.7496854383551154  0.0401161526778210  0.0823487862494875   T   T   T
  0.7547005398120112  0.7089499940490656  0.1077852167582110   T   T   T
  0.4987936401170640  0.7976537396846538  0.1040554058838966   T   T   T
  0.7520480250891658  0.5370821866245685  0.1080490161157574   T   T   T
  0.5002467345804871  0.9597145766024774  0.0882471607051450   T   T   T
  0.5177563844184020  0.4462599968047949  0.1112898105094438   T   T   T
 -0.0140738331875727  0.4476145096984381  0.1032666811303518   T   T   T
  0.2529227034811686  0.7319733207200110  0.1185882475924928   T   T   T
  0.2491441893179769  0.5337965234881596  0.1645744458779333   T   T   T
 
  0.00000000E+00  0.00000000E+00  0.00000000E+00
  0.00000000E+00  0.00000000E+00  0.00000000E+00
  0.00000000E+00  0.00000000E+00  0.00000000E+00
  0.00000000E+00  0.00000000E+00  0.00000000E+00
  0.00000000E+00  0.00000000E+00  0.00000000E+00
  0.00000000E+00  0.00000000E+00  0.00000000E+00
  0.00000000E+00  0.00000000E+00  0.00000000E+00
  0.00000000E+00  0.00000000E+00  0.00000000E+00
  0.00000000E+00  0.00000000E+00  0.00000000E+00
  0.00000000E+00  0.00000000E+00  0.00000000E+00
  0.00000000E+00  0.00000000E+00  0.00000000E+00
  0.00000000E+00  0.00000000E+00  0.00000000E+00
  0.00000000E+00  0.00000000E+00  0.00000000E+00
  0.00000000E+00  0.00000000E+00  0.00000000E+00
  0.00000000E+00  0.00000000E+00  0.00000000E+00
  0.00000000E+00  0.00000000E+00  0.00000000E+00
