Title                                   
   1.00000000000000     
     9.8694509999999998    0.0000000000000000    0.0000000000000000
     0.0000000000000000    8.5490480000000009    0.0000000000000000
     0.0000000000000000    0.0000000000000000   20.0000000000000000
    28     2     1
Selective dynamics
Direct
  0.0553584869769644  0.0890178258452767  0.0911125212795112   T   T   T
  0.9308245453929538  0.1725336858928168  0.0870027529624134   T   T   T
  0.0572074872214334  0.9225590721650058  0.0915770442559638   T   T   T
  0.9330436573380745  0.3392893820861300  0.0876975331769553   T   T   T
  0.0565609729941452  0.5904104222181071  0.0930988888120367   T   T   T
  0.9331885486466637  0.6740462291987342  0.0897223137926174   T   T   T
  0.0564142944264847  0.4225114614359006  0.0926856997803851   T   T   T
  0.9314487914500054  0.8401165220577913  0.0888345737865672   T   T   T
  0.3055563756878583  0.0881123067952567  0.0989306812533564   T   T   T
  0.1796192851207443  0.1699198370148244  0.0961139235832286   T   T   T
  0.1796260986666353  0.3373666820148080  0.0972554812132515   T   T   T
  0.3035648567155244  0.5871874871956990  0.1038216260890044   T   T   T
  0.1811596873345507  0.6727644634608967  0.0971865092700933   T   T   T
  0.3017784517353669  0.4196364347774699  0.1040589747787483   T   T   T
  0.1817940666762161  0.8398041327563703  0.0957031676185872   T   T   T
  0.5532988769810369  0.0929222752059771  0.0940135186410676   T   T   T
  0.4283795081137640  0.1762592764334149  0.1018021405685521   T   T   T
  0.5529915839201777  0.9246129479725413  0.0943634536603789   T   T   T
  0.4284993166383756  0.6692224812003353  0.1088119279394400   T   T   T
  0.4302106209466638  0.8357783494323755  0.1009743212976073   T   T   T
  0.8048050260835602  0.0901787635348757  0.0850726319211876   T   T   T
  0.6792443805897812  0.1756686524324175  0.0853812369775955   T   T   T
  0.8051199395491694  0.9238204854735167  0.0863377016479335   T   T   T
  0.6836057301104818  0.3407457691313810  0.0815300539587796   T   T   T
  0.8082699934629199  0.5920142676128370  0.0861300336945749   T   T   T
  0.6835311598836100  0.6746247775392145  0.0865267074183067   T   T   T
  0.8085056031913289  0.4222899658355211  0.0834379492205089   T   T   T
  0.6789484967019581  0.8402850766641409  0.0876637121496070   T   T   T
  0.4239274655484240  0.3401333222387219  0.1102433713216991   T   T   T
  0.3066054451979556  0.9223859465248601  0.0979665846199854   T   T   T
  0.5800462466971880  0.5046566978528025  0.1359079633101038   T   T   T
 
  0.00000000E+00  0.00000000E+00  0.00000000E+00
  0.00000000E+00  0.00000000E+00  0.00000000E+00
  0.00000000E+00  0.00000000E+00  0.00000000E+00
  0.00000000E+00  0.00000000E+00  0.00000000E+00
  0.00000000E+00  0.00000000E+00  0.00000000E+00
  0.00000000E+00  0.00000000E+00  0.00000000E+00
  0.00000000E+00  0.00000000E+00  0.00000000E+00
  0.00000000E+00  0.00000000E+00  0.00000000E+00
  0.00000000E+00  0.00000000E+00  0.00000000E+00
  0.00000000E+00  0.00000000E+00  0.00000000E+00
  0.00000000E+00  0.00000000E+00  0.00000000E+00
  0.00000000E+00  0.00000000E+00  0.00000000E+00
  0.00000000E+00  0.00000000E+00  0.00000000E+00
  0.00000000E+00  0.00000000E+00  0.00000000E+00
  0.00000000E+00  0.00000000E+00  0.00000000E+00
  0.00000000E+00  0.00000000E+00  0.00000000E+00
  0.00000000E+00  0.00000000E+00  0.00000000E+00
  0.00000000E+00  0.00000000E+00  0.00000000E+00
  0.00000000E+00  0.00000000E+00  0.00000000E+00
  0.00000000E+00  0.00000000E+00  0.00000000E+00
  0.00000000E+00  0.00000000E+00  0.00000000E+00
  0.00000000E+00  0.00000000E+00  0.00000000E+00
  0.00000000E+00  0.00000000E+00  0.00000000E+00
  0.00000000E+00  0.00000000E+00  0.00000000E+00
  0.00000000E+00  0.00000000E+00  0.00000000E+00
  0.00000000E+00  0.00000000E+00  0.00000000E+00
  0.00000000E+00  0.00000000E+00  0.00000000E+00
  0.00000000E+00  0.00000000E+00  0.00000000E+00
  0.00000000E+00  0.00000000E+00  0.00000000E+00
  0.00000000E+00  0.00000000E+00  0.00000000E+00
  0.00000000E+00  0.00000000E+00  0.00000000E+00
