Title                                   
   1.00000000000000     
     4.9440799999999996    0.0000000000000000    0.0000000000000000
     0.0000000000000000   17.1295089999999988    0.0000000000000000
     0.0000000000000000    0.0000000000000000   20.0000000000000000
    26     4     1
Selective dynamics
Direct
  0.0018969330183770  0.1056522915776809  0.2971630813005048   T   T   T
  0.2510427434984812  0.1485566563360545  0.2976744411296669   T   T   T
  0.2514082938330456  0.2333878696178107  0.3004110237830530   T   T   T
  0.0009823120038368  0.2755894337524502  0.3050955461093215   T   T   T
 -0.0081384023793828  0.6000900992007062  0.3028277724236881   T   T   T
  0.2444929429660639  0.7260438934747526  0.2965249098201091   T   T   T
 -0.0013555326834408  0.8529624976895135  0.2961228120932330   T   T   T
  0.2483534634034717  0.8950948420260181  0.2959763316406193   T   T   T
  0.2497638718224799  0.9793662560012226  0.2961274572822927   T   T   T
 -0.0025958626246958  0.7685083300591613  0.2963667105017856   T   T   T
  0.5009977268546619  0.1061284748232376  0.2960560440300669   T   T   T
  0.7527712487527989  0.1476850233123533  0.2965030946679659   T   T   T
  0.7544262478695064  0.2317727638518135  0.2975739467132114   T   T   T
  0.4997513830008177  0.0216819066889205  0.2957539257179285   T   T   T
  0.7532880237733127  0.3953256731306906  0.3013723569346753   T   T   T
  0.7460397755294546  0.4792709188441294  0.2996041752165218   T   T   T
  0.5052532847652041  0.2728544100517720  0.2967475185908727   T   T   T
  0.4922269814150224  0.6022009749712713  0.2918121491238848   T   T   T
  0.7473359534674030  0.7271039483092994  0.2950464346657635   T   T   T
  0.4965787119948978  0.8525313469014129  0.2954207059696622   T   T   T
  0.7477694012205406  0.8947373670401705  0.2956495726262370   T   T   T
  0.7491581329489626  0.9791873765942005  0.2957851855079217   T   T   T
  0.4954668225531184  0.7678992556546319  0.2951227461175273   T   T   T
  0.7463173977240217  0.6437906471045229  0.2951094345573049   T   T   T
  0.0001430955379015  0.0213833943517520  0.2964022889034594   T   T   T
  0.5005566344008507  0.5211102056010074  0.2879827137712723   T   T   T
  0.9895040508341486  0.5197924276301780  0.3181398231244074   T   T   T
  0.5123355069598061  0.3533341930186928  0.2958884642493716   T   T   T
 -0.0082509452039607  0.3566205620682789  0.3173964699150889   T   T   T
  0.2416496014178248  0.6422174767375934  0.2977659396953767   T   T   T
  0.3008372013254712  0.4394614835786979  0.3396369238171575   T   T   T
 
  0.00000000E+00  0.00000000E+00  0.00000000E+00
  0.00000000E+00  0.00000000E+00  0.00000000E+00
  0.00000000E+00  0.00000000E+00  0.00000000E+00
  0.00000000E+00  0.00000000E+00  0.00000000E+00
  0.00000000E+00  0.00000000E+00  0.00000000E+00
  0.00000000E+00  0.00000000E+00  0.00000000E+00
  0.00000000E+00  0.00000000E+00  0.00000000E+00
  0.00000000E+00  0.00000000E+00  0.00000000E+00
  0.00000000E+00  0.00000000E+00  0.00000000E+00
  0.00000000E+00  0.00000000E+00  0.00000000E+00
  0.00000000E+00  0.00000000E+00  0.00000000E+00
  0.00000000E+00  0.00000000E+00  0.00000000E+00
  0.00000000E+00  0.00000000E+00  0.00000000E+00
  0.00000000E+00  0.00000000E+00  0.00000000E+00
  0.00000000E+00  0.00000000E+00  0.00000000E+00
  0.00000000E+00  0.00000000E+00  0.00000000E+00
  0.00000000E+00  0.00000000E+00  0.00000000E+00
  0.00000000E+00  0.00000000E+00  0.00000000E+00
  0.00000000E+00  0.00000000E+00  0.00000000E+00
  0.00000000E+00  0.00000000E+00  0.00000000E+00
  0.00000000E+00  0.00000000E+00  0.00000000E+00
  0.00000000E+00  0.00000000E+00  0.00000000E+00
  0.00000000E+00  0.00000000E+00  0.00000000E+00
  0.00000000E+00  0.00000000E+00  0.00000000E+00
  0.00000000E+00  0.00000000E+00  0.00000000E+00
  0.00000000E+00  0.00000000E+00  0.00000000E+00
  0.00000000E+00  0.00000000E+00  0.00000000E+00
  0.00000000E+00  0.00000000E+00  0.00000000E+00
  0.00000000E+00  0.00000000E+00  0.00000000E+00
  0.00000000E+00  0.00000000E+00  0.00000000E+00
  0.00000000E+00  0.00000000E+00  0.00000000E+00
