Title                                   
   1.00000000000000     
     4.9440799999999996    0.0000000000000000    0.0000000000000000
     0.0000000000000000   17.1295089999999988    0.0000000000000000
     0.0000000000000000    0.0000000000000000   20.0000000000000000
    25     5     1
Selective dynamics
Direct
  0.0006008377505665  0.1057838592171362  0.2965878106919076   T   T   T
  0.2492281774930678  0.1485805304716586  0.2967384042608424   T   T   T
  0.2485164076629139  0.2338457347512942  0.2986708087707709   T   T   T
 -0.0019219820310243  0.2757370407291617  0.3035000335392972   T   T   T
 -0.0041014954839901  0.6000231847988767  0.3029632761588698   T   T   T
  0.2479732948020459  0.7255283662325266  0.2975420857218807   T   T   T
  0.0003307827188482  0.8525943804455687  0.2970413914865643   T   T   T
  0.2493998264766777  0.8948834767541551  0.2966704688508887   T   T   T
  0.2497816089143367  0.9792876158374189  0.2963572590671657   T   T   T
 -0.0000897540579520  0.7679269129987288  0.2976150854593246   T   T   T
  0.4994854760609047  0.1062307820088531  0.2956196086283668   T   T   T
  0.7511376240205929  0.1477292009693341  0.2958840215188884   T   T   T
  0.7523176146524184  0.2320929305237429  0.2969705797596813   T   T   T
  0.4994890318592501  0.0216024897013525  0.2958360233084006   T   T   T
  0.7471722851018346  0.3960140370711917  0.3006114632002437   T   T   T
  0.7437459385877637  0.4807254265173507  0.2991079110890393   T   T   T
  0.5026229055460953  0.2729143372384014  0.2953473690849013   T   T   T
  0.4996362542721287  0.6022129740450309  0.2943511349140959   T   T   T
  0.7492668251231784  0.7271124120125138  0.2971089224211771   T   T   T
  0.4979016238217497  0.8523848564940133  0.2965273255627254   T   T   T
  0.7490665689817807  0.8944367043506506  0.2965190594955174   T   T   T
  0.7493784687331588  0.9790759904411022  0.2961784188857872   T   T   T
  0.4975139426946698  0.7676117670275161  0.2967116276474178   T   T   T
  0.7490537376092400  0.6436694164980332  0.2977703243697123   T   T   T
 -0.0001101061517301  0.0213268979686674  0.2964262332272716   T   T   T
  0.5047759477286310  0.5218103564663291  0.2862487410705383   T   T   T
  0.9849964096960496  0.5193599292047565  0.3175533689391115   T   T   T
  0.5098449209812791  0.3540388501845415  0.2928032950494385   T   T   T
 -0.0120334890211946  0.3577253059598982  0.3177218786603973   T   T   T
  0.2465032072097324  0.6405196074034776  0.2980136745540147   T   T   T
  0.2985241082469776  0.4385566256767158  0.3380623946057132   T   T   T
 
  0.00000000E+00  0.00000000E+00  0.00000000E+00
  0.00000000E+00  0.00000000E+00  0.00000000E+00
  0.00000000E+00  0.00000000E+00  0.00000000E+00
  0.00000000E+00  0.00000000E+00  0.00000000E+00
  0.00000000E+00  0.00000000E+00  0.00000000E+00
  0.00000000E+00  0.00000000E+00  0.00000000E+00
  0.00000000E+00  0.00000000E+00  0.00000000E+00
  0.00000000E+00  0.00000000E+00  0.00000000E+00
  0.00000000E+00  0.00000000E+00  0.00000000E+00
  0.00000000E+00  0.00000000E+00  0.00000000E+00
  0.00000000E+00  0.00000000E+00  0.00000000E+00
  0.00000000E+00  0.00000000E+00  0.00000000E+00
  0.00000000E+00  0.00000000E+00  0.00000000E+00
  0.00000000E+00  0.00000000E+00  0.00000000E+00
  0.00000000E+00  0.00000000E+00  0.00000000E+00
  0.00000000E+00  0.00000000E+00  0.00000000E+00
  0.00000000E+00  0.00000000E+00  0.00000000E+00
  0.00000000E+00  0.00000000E+00  0.00000000E+00
  0.00000000E+00  0.00000000E+00  0.00000000E+00
  0.00000000E+00  0.00000000E+00  0.00000000E+00
  0.00000000E+00  0.00000000E+00  0.00000000E+00
  0.00000000E+00  0.00000000E+00  0.00000000E+00
  0.00000000E+00  0.00000000E+00  0.00000000E+00
  0.00000000E+00  0.00000000E+00  0.00000000E+00
  0.00000000E+00  0.00000000E+00  0.00000000E+00
  0.00000000E+00  0.00000000E+00  0.00000000E+00
  0.00000000E+00  0.00000000E+00  0.00000000E+00
  0.00000000E+00  0.00000000E+00  0.00000000E+00
  0.00000000E+00  0.00000000E+00  0.00000000E+00
  0.00000000E+00  0.00000000E+00  0.00000000E+00
  0.00000000E+00  0.00000000E+00  0.00000000E+00
