Title                                   
   1.00000000000000     
     4.9440799999999996    0.0000000000000000    0.0000000000000000
     0.0000000000000000    8.5647549999999999    0.0000000000000000
     0.0000000000000000    0.0000000000000000   20.0000000000000000
    12     3     1
Selective dynamics
Direct
  0.2500000000000000  0.2122515856147121  0.0899298523753611   T   T   T
 -0.0059348451235714  0.2931649592802297  0.0919545754974316   T   T   T
  0.2500000000000000  0.0450081868592951  0.0891370330598384   T   T   T
  0.0042272362113305  0.7953078186588758  0.1036948651789189   T   T   T
 -0.0000573935964941  0.9597164176633927  0.0901965744180388   T   T   T
  0.7500000000000000  0.2067649190031285  0.0858253181120799   T   T   T
  0.5059348451235715  0.2931649592802297  0.0919545754974316   T   T   T
  0.7500000000000000  0.0405866190385386  0.0853652187989152   T   T   T
  0.7500000000000000  0.7052069034802796  0.1060036596158398   T   T   T
  0.4957727637886694  0.7953078186588758  0.1036948651789189   T   T   T
  0.7500000000000000  0.5300965366449761  0.1039147988746695   T   T   T
  0.5000573935964939  0.9597164176633927  0.0901965744180388   T   T   T
  0.5135145820265401  0.4503802568265642  0.1022221391309941   T   T   T
 -0.0135145820265400  0.4503802568265642  0.1022221391309941   T   T   T
  0.2500000000000000  0.7288073429773937  0.1179065221537235   T   T   T
  0.2500000000000000  0.5341390015235510  0.1682932885588128   T   T   T
 
  0.00000000E+00  0.00000000E+00  0.00000000E+00
  0.00000000E+00  0.00000000E+00  0.00000000E+00
  0.00000000E+00  0.00000000E+00  0.00000000E+00
  0.00000000E+00  0.00000000E+00  0.00000000E+00
  0.00000000E+00  0.00000000E+00  0.00000000E+00
  0.00000000E+00  0.00000000E+00  0.00000000E+00
  0.00000000E+00  0.00000000E+00  0.00000000E+00
  0.00000000E+00  0.00000000E+00  0.00000000E+00
  0.00000000E+00  0.00000000E+00  0.00000000E+00
  0.00000000E+00  0.00000000E+00  0.00000000E+00
  0.00000000E+00  0.00000000E+00  0.00000000E+00
  0.00000000E+00  0.00000000E+00  0.00000000E+00
  0.00000000E+00  0.00000000E+00  0.00000000E+00
  0.00000000E+00  0.00000000E+00  0.00000000E+00
  0.00000000E+00  0.00000000E+00  0.00000000E+00
  0.00000000E+00  0.00000000E+00  0.00000000E+00
