Title                                   
   1.00000000000000     
     9.8694509999999998    0.0000000000000000    0.0000000000000000
     0.0000000000000000    8.5490480000000009    0.0000000000000000
     0.0000000000000000    0.0000000000000000   20.0000000000000000
    29     2     1
Selective dynamics
Direct
  0.0566657029877359  0.0908486545130875  0.0818955836316075   T   T   T
  0.9307169696326197  0.1728313448638668  0.0852340507387134   T   T   T
  0.0557698880963539  0.9238188021035609  0.0818855839871212   T   T   T
  0.9307098339574766  0.3402124977675020  0.0900424610858241   T   T   T
  0.0565328368481064  0.5891153270305060  0.0862312142689075   T   T   T
  0.9320463895128213  0.6725099158467338  0.0897145244801332   T   T   T
  0.0568354642632589  0.4233455259956769  0.0874843647673337   T   T   T
  0.9308837801589365  0.8391582873132850  0.0853376362625023   T   T   T
  0.3058584358965833  0.0900540497240291  0.0852124018265174   T   T   T
  0.1821223803720297  0.1741498433509086  0.0843114683189101   T   T   T
  0.3056709775933570  0.9240318011574631  0.0857092401452355   T   T   T
  0.1833769052042455  0.3424122458998421  0.0885584639219438   T   T   T
  0.3037963891496461  0.5942559284138687  0.0993984266892763   T   T   T
  0.1806830679071064  0.6737394912052638  0.0877866512312385   T   T   T
  0.3082381961061426  0.4250707084693530  0.0982085585422962   T   T   T
  0.1806233676837843  0.8406226126998801  0.0845071730395568   T   T   T
  0.5557764226776212  0.0850907249284453  0.0951805733829272   T   T   T
  0.4318022085792091  0.1696767444964195  0.0930928212563871   T   T   T
  0.4322037777737926  0.3345688189111047  0.1039190262053007   T   T   T
  0.5569559845182287  0.4041903769265927  0.1232099704256734   T   T   T
  0.4279238740385793  0.8403511685878979  0.0970992142597785   T   T   T
  0.8072298371247731  0.0883972112256712  0.0869181159433797   T   T   T
  0.6814573033749739  0.1674832180257500  0.0954446358567399   T   T   T
  0.8053140982036974  0.9219118899170593  0.0872189217788289   T   T   T
  0.6828312315725017  0.3322343759575089  0.1072227921669125   T   T   T
  0.8103562251345721  0.5907314927147991  0.1044620638494872   T   T   T
  0.6931228183244930  0.6820585471046456  0.1212972558783768   T   T   T
  0.8072599077922247  0.4215574131669061  0.1021019230145419   T   T   T
  0.6827453589049732  0.8390816436526523  0.0994595020389844   T   T   T
  0.4178566819560423  0.6859798486512769  0.1150116631033499   T   T   T
  0.5543470109494548  0.9187629420242786  0.0972824761991305   T   T   T
  0.5519256737046655  0.5919925473541542  0.1732362417031295   T   T   T
 
  0.00000000E+00  0.00000000E+00  0.00000000E+00
  0.00000000E+00  0.00000000E+00  0.00000000E+00
  0.00000000E+00  0.00000000E+00  0.00000000E+00
  0.00000000E+00  0.00000000E+00  0.00000000E+00
  0.00000000E+00  0.00000000E+00  0.00000000E+00
  0.00000000E+00  0.00000000E+00  0.00000000E+00
  0.00000000E+00  0.00000000E+00  0.00000000E+00
  0.00000000E+00  0.00000000E+00  0.00000000E+00
  0.00000000E+00  0.00000000E+00  0.00000000E+00
  0.00000000E+00  0.00000000E+00  0.00000000E+00
  0.00000000E+00  0.00000000E+00  0.00000000E+00
  0.00000000E+00  0.00000000E+00  0.00000000E+00
  0.00000000E+00  0.00000000E+00  0.00000000E+00
  0.00000000E+00  0.00000000E+00  0.00000000E+00
  0.00000000E+00  0.00000000E+00  0.00000000E+00
  0.00000000E+00  0.00000000E+00  0.00000000E+00
  0.00000000E+00  0.00000000E+00  0.00000000E+00
  0.00000000E+00  0.00000000E+00  0.00000000E+00
  0.00000000E+00  0.00000000E+00  0.00000000E+00
  0.00000000E+00  0.00000000E+00  0.00000000E+00
  0.00000000E+00  0.00000000E+00  0.00000000E+00
  0.00000000E+00  0.00000000E+00  0.00000000E+00
  0.00000000E+00  0.00000000E+00  0.00000000E+00
  0.00000000E+00  0.00000000E+00  0.00000000E+00
  0.00000000E+00  0.00000000E+00  0.00000000E+00
  0.00000000E+00  0.00000000E+00  0.00000000E+00
  0.00000000E+00  0.00000000E+00  0.00000000E+00
  0.00000000E+00  0.00000000E+00  0.00000000E+00
  0.00000000E+00  0.00000000E+00  0.00000000E+00
  0.00000000E+00  0.00000000E+00  0.00000000E+00
  0.00000000E+00  0.00000000E+00  0.00000000E+00
  0.00000000E+00  0.00000000E+00  0.00000000E+00
