Title                                   
   1.00000000000000     
     4.9440799999999996    0.0000000000000000    0.0000000000000000
     0.0000000000000000    8.5647549999999999    0.0000000000000000
     0.0000000000000000    0.0000000000000000   20.0000000000000000
    15     1
Selective dynamics
Direct
  0.2500000000000000  0.2066139580890763  0.0883145205583070   T   T   T
 -0.0023944158785672  0.2895163888587945  0.0928472454560098   T   T   T
  0.2500000000000000  0.0417266430935543  0.0839806138474440   T   T   T
 -0.0001672769810321  0.7954469777550857  0.0997053323564706   T   T   T
 -0.0011931596466353  0.9585281926017494  0.0853096578248955   T   T   T
  0.7500000000000000  0.2060497818853107  0.0845644939494980   T   T   T
  0.5023944158785674  0.2895163888587945  0.0928472454560098   T   T   T
  0.7500000000000000  0.0406897353303807  0.0811289890599750   T   T   T
  0.7500000000000000  0.7106673102106297  0.1052943099864904   T   T   T
  0.5001672769810322  0.7954469777550857  0.0997053323564706   T   T   T
  0.7500000000000000  0.5412266273719862  0.1086879762097805   T   T   T
  0.5011931596466350  0.9585281926017494  0.0853096578248955   T   T   T
  0.5087280352276785  0.4490622239258036  0.1095476291939419   T   T   T
 -0.0087280352276784  0.4490622239258036  0.1095476291939419   T   T   T
  0.2500000000000000  0.7231910172277439  0.1138035455086798   T   T   T
  0.2500000000000000  0.5447273605084514  0.1819178212171975   T   T   T
 
  0.00000000E+00  0.00000000E+00  0.00000000E+00
  0.00000000E+00  0.00000000E+00  0.00000000E+00
  0.00000000E+00  0.00000000E+00  0.00000000E+00
  0.00000000E+00  0.00000000E+00  0.00000000E+00
  0.00000000E+00  0.00000000E+00  0.00000000E+00
  0.00000000E+00  0.00000000E+00  0.00000000E+00
  0.00000000E+00  0.00000000E+00  0.00000000E+00
  0.00000000E+00  0.00000000E+00  0.00000000E+00
  0.00000000E+00  0.00000000E+00  0.00000000E+00
  0.00000000E+00  0.00000000E+00  0.00000000E+00
  0.00000000E+00  0.00000000E+00  0.00000000E+00
  0.00000000E+00  0.00000000E+00  0.00000000E+00
  0.00000000E+00  0.00000000E+00  0.00000000E+00
  0.00000000E+00  0.00000000E+00  0.00000000E+00
  0.00000000E+00  0.00000000E+00  0.00000000E+00
  0.00000000E+00  0.00000000E+00  0.00000000E+00
