Title                                   
   1.00000000000000     
     9.8694509999999998    0.0000000000000000    0.0000000000000000
     0.0000000000000000    8.5490480000000009    0.0000000000000000
     0.0000000000000000    0.0000000000000000   20.0000000000000000
    27     3     1
Selective dynamics
Direct
  0.0552291818233094  0.0883142890255217  0.0832525856312632   T   T   T
  0.9306989873108537  0.1714588806798276  0.0848466857870563   T   T   T
  0.0566201959690348  0.9221614599320166  0.0842198313881881   T   T   T
  0.9325111564844903  0.3391715340415842  0.0850802156121255   T   T   T
  0.0559760297491394  0.5905258306819888  0.0841908031496387   T   T   T
  0.0561862854193952  0.4239825284118966  0.0827962089056227   T   T   T
  0.9313128252367407  0.8382949603119387  0.0864128461520578   T   T   T
  0.3070922415866523  0.0881823369789502  0.0895229351490827   T   T   T
  0.1820077825954447  0.1715642548923250  0.0846960625455615   T   T   T
  0.1805412554498086  0.3388624218147495  0.0849469499944641   T   T   T
  0.3024413980613406  0.5898886375289049  0.0949092534237207   T   T   T
  0.1801324838699098  0.6747444633828791  0.0868533227932107   T   T   T
  0.3030746250606893  0.4211012984538660  0.0939085490502923   T   T   T
  0.1825716114908292  0.8409702625804321  0.0864781287541688   T   T   T
  0.4317871903332917  0.1742614338553358  0.0983181557978321   T   T   T
  0.5556412878681120  0.9234194243716746  0.1016923649078817   T   T   T
  0.4264343919585970  0.3383581082683682  0.1052945405588436   T   T   T
  0.4241163698103745  0.6745710151524511  0.1073578462229010   T   T   T
  0.4295818497002415  0.8386909353552656  0.1008466525509344   T   T   T
  0.8051425443020764  0.0881493982837675  0.0896377059445227   T   T   T
  0.6809757033102627  0.1763292654113190  0.0983562422324276   T   T   T
  0.8058967590985789  0.9208821442641082  0.0906402696758831   T   T   T
  0.6861441705440920  0.3413163667899967  0.1056144272684796   T   T   T
  0.8109825186623997  0.5916256880368120  0.0956008325988398   T   T   T
  0.6884770190029436  0.6707943215860134  0.1073139865389631   T   T   T
  0.8113724424522708  0.4212302280417637  0.0942683267451791   T   T   T
  0.6801363358994471  0.8375853529423879  0.1001498345232956   T   T   T
  0.9329719242136099  0.6722449825430947  0.0866537801979860   T   T   T
  0.5569482345542134  0.0917177790716936  0.1004861139874338   T   T   T
  0.3053351989791867  0.9239539337836026  0.0902135528691803   T   T   T
  0.5547949992026677  0.5065214635254836  0.1564059890429906   T   T   T
 
  0.00000000E+00  0.00000000E+00  0.00000000E+00
  0.00000000E+00  0.00000000E+00  0.00000000E+00
  0.00000000E+00  0.00000000E+00  0.00000000E+00
  0.00000000E+00  0.00000000E+00  0.00000000E+00
  0.00000000E+00  0.00000000E+00  0.00000000E+00
  0.00000000E+00  0.00000000E+00  0.00000000E+00
  0.00000000E+00  0.00000000E+00  0.00000000E+00
  0.00000000E+00  0.00000000E+00  0.00000000E+00
  0.00000000E+00  0.00000000E+00  0.00000000E+00
  0.00000000E+00  0.00000000E+00  0.00000000E+00
  0.00000000E+00  0.00000000E+00  0.00000000E+00
  0.00000000E+00  0.00000000E+00  0.00000000E+00
  0.00000000E+00  0.00000000E+00  0.00000000E+00
  0.00000000E+00  0.00000000E+00  0.00000000E+00
  0.00000000E+00  0.00000000E+00  0.00000000E+00
  0.00000000E+00  0.00000000E+00  0.00000000E+00
  0.00000000E+00  0.00000000E+00  0.00000000E+00
  0.00000000E+00  0.00000000E+00  0.00000000E+00
  0.00000000E+00  0.00000000E+00  0.00000000E+00
  0.00000000E+00  0.00000000E+00  0.00000000E+00
  0.00000000E+00  0.00000000E+00  0.00000000E+00
  0.00000000E+00  0.00000000E+00  0.00000000E+00
  0.00000000E+00  0.00000000E+00  0.00000000E+00
  0.00000000E+00  0.00000000E+00  0.00000000E+00
  0.00000000E+00  0.00000000E+00  0.00000000E+00
  0.00000000E+00  0.00000000E+00  0.00000000E+00
  0.00000000E+00  0.00000000E+00  0.00000000E+00
  0.00000000E+00  0.00000000E+00  0.00000000E+00
  0.00000000E+00  0.00000000E+00  0.00000000E+00
  0.00000000E+00  0.00000000E+00  0.00000000E+00
  0.00000000E+00  0.00000000E+00  0.00000000E+00
