Title                                   
   1.00000000000000     
     4.9440799999999996    0.0000000000000000    0.0000000000000000
     0.0000000000000000    8.5647549999999999    0.0000000000000000
     0.0000000000000000    0.0000000000000000   20.0000000000000000
    14     1
Selective dynamics
Direct
  0.2500000000000000  0.2057032463803249  0.0999601522846949   T   T   T
 -0.0014894517349442  0.2897764596805634  0.1002356048909336   T   T   T
  0.2500000000000000  0.0438486055769740  0.0999402871102108   T   T   T
 -0.0015589999340738  0.9597679979899021  0.1001748457392762   T   T   T
  0.7500000000000000  0.2067977311321392  0.0999832082002538   T   T   T
  0.5014894517349439  0.2897764596805634  0.1002356048909336   T   T   T
  0.7500000000000000  0.0427906979879457  0.0999460671405800   T   T   T
  0.7500000000000000  0.7113932496830884  0.1012603528249598   T   T   T
  0.7500000000000000  0.5381172710154886  0.1013053628455467   T   T   T
  0.5015589999340738  0.9597679979899021  0.1001748457392762   T   T   T
  0.5135313876150773  0.4504173463597872  0.1009120268133319   T   T   T
 -0.0135313876150773  0.4504173463597872  0.1009120268133319   T   T   T
 -0.0136640175339111  0.7991286018266104  0.1008420010273770   T   T   T
  0.5136640175339111  0.7991286018266104  0.1008420010273770   T   T   T
  0.2500000000000000  0.6248493865103160  0.1012556126519201   T   T   T
 
  0.00000000E+00  0.00000000E+00  0.00000000E+00
  0.00000000E+00  0.00000000E+00  0.00000000E+00
  0.00000000E+00  0.00000000E+00  0.00000000E+00
  0.00000000E+00  0.00000000E+00  0.00000000E+00
  0.00000000E+00  0.00000000E+00  0.00000000E+00
  0.00000000E+00  0.00000000E+00  0.00000000E+00
  0.00000000E+00  0.00000000E+00  0.00000000E+00
  0.00000000E+00  0.00000000E+00  0.00000000E+00
  0.00000000E+00  0.00000000E+00  0.00000000E+00
  0.00000000E+00  0.00000000E+00  0.00000000E+00
  0.00000000E+00  0.00000000E+00  0.00000000E+00
  0.00000000E+00  0.00000000E+00  0.00000000E+00
  0.00000000E+00  0.00000000E+00  0.00000000E+00
  0.00000000E+00  0.00000000E+00  0.00000000E+00
  0.00000000E+00  0.00000000E+00  0.00000000E+00
