Title                                   
   1.00000000000000     
     9.8694509999999998    0.0000000000000000    0.0000000000000000
     0.0000000000000000    8.5490480000000009    0.0000000000000000
     0.0000000000000000    0.0000000000000000   20.0000000000000000
    29     2     1
Selective dynamics
Direct
  0.0562858263081361  0.0902554510171446  0.0824910813829770   T   T   T
  0.9313655971506756  0.1731774299284256  0.0842365836148619   T   T   T
  0.0573146408017858  0.9234429926621956  0.0819724903061328   T   T   T
  0.9309983525005360  0.3404928196161893  0.0876868804277035   T   T   T
  0.0572341188543538  0.5907359286975816  0.0847686060149334   T   T   T
  0.9323547700104584  0.6729305830378643  0.0864515099445253   T   T   T
  0.0569444247297428  0.4229354023595195  0.0861873734508502   T   T   T
  0.9320437309587706  0.8396200605376452  0.0842321356858996   T   T   T
  0.3058668588781598  0.0882237986573420  0.0872385551206663   T   T   T
  0.1823246972973502  0.1727626031057665  0.0852438932399950   T   T   T
  0.1822935499981986  0.3397938777692697  0.0885791640572051   T   T   T
  0.3049572121931295  0.5896801523393057  0.1009545823841329   T   T   T
  0.1823887475163949  0.6736938817525242  0.0873165958550866   T   T   T
  0.3063127565709133  0.4215508689200054  0.0993078886080971   T   T   T
  0.1821269327229703  0.8407594637146329  0.0847241500109931   T   T   T
  0.5553002291041772  0.0872715941809715  0.0930595798522772   T   T   T
  0.5542262458637019  0.9234882011848249  0.0998732121948753   T   T   T
  0.4310535566367340  0.3331780520303722  0.1046993179115611   T   T   T
  0.4268699387596723  0.8405990451454763  0.1034621903605875   T   T   T
  0.8060386811035815  0.0888867126599012  0.0853491577949618   T   T   T
  0.6801770774844957  0.1711428506083642  0.0905157713459714   T   T   T
  0.8065207646977032  0.9236049784672812  0.0871688397568166   T   T   T
  0.6811192679772968  0.3358790565544376  0.1010103386681319   T   T   T
  0.8081300008581941  0.5914715257783845  0.0987021154786087   T   T   T
  0.8060306368712078  0.4222270170015725  0.0969071807924116   T   T   T
  0.6828548478700135  0.8408625727342283  0.0998520304892914   T   T   T
  0.4197185482134998  0.6816450319134068  0.1175861418335746   T   T   T
  0.5549234996190822  0.4060358790242435  0.1173718804634866   T   T   T
  0.6905390645167548  0.6789720369107460  0.1134756310798332   T   T   T
  0.3058574391147889  0.9257957366088169  0.0879951731335201   T   T   T
  0.4288850640243672  0.1681332524181042  0.0924525029211035   T   T   T
  0.5605819207931597  0.5909971426634570  0.1848024458189439   T   T   T
 
  0.00000000E+00  0.00000000E+00  0.00000000E+00
  0.00000000E+00  0.00000000E+00  0.00000000E+00
  0.00000000E+00  0.00000000E+00  0.00000000E+00
  0.00000000E+00  0.00000000E+00  0.00000000E+00
  0.00000000E+00  0.00000000E+00  0.00000000E+00
  0.00000000E+00  0.00000000E+00  0.00000000E+00
  0.00000000E+00  0.00000000E+00  0.00000000E+00
  0.00000000E+00  0.00000000E+00  0.00000000E+00
  0.00000000E+00  0.00000000E+00  0.00000000E+00
  0.00000000E+00  0.00000000E+00  0.00000000E+00
  0.00000000E+00  0.00000000E+00  0.00000000E+00
  0.00000000E+00  0.00000000E+00  0.00000000E+00
  0.00000000E+00  0.00000000E+00  0.00000000E+00
  0.00000000E+00  0.00000000E+00  0.00000000E+00
  0.00000000E+00  0.00000000E+00  0.00000000E+00
  0.00000000E+00  0.00000000E+00  0.00000000E+00
  0.00000000E+00  0.00000000E+00  0.00000000E+00
  0.00000000E+00  0.00000000E+00  0.00000000E+00
  0.00000000E+00  0.00000000E+00  0.00000000E+00
  0.00000000E+00  0.00000000E+00  0.00000000E+00
  0.00000000E+00  0.00000000E+00  0.00000000E+00
  0.00000000E+00  0.00000000E+00  0.00000000E+00
  0.00000000E+00  0.00000000E+00  0.00000000E+00
  0.00000000E+00  0.00000000E+00  0.00000000E+00
  0.00000000E+00  0.00000000E+00  0.00000000E+00
  0.00000000E+00  0.00000000E+00  0.00000000E+00
  0.00000000E+00  0.00000000E+00  0.00000000E+00
  0.00000000E+00  0.00000000E+00  0.00000000E+00
  0.00000000E+00  0.00000000E+00  0.00000000E+00
  0.00000000E+00  0.00000000E+00  0.00000000E+00
  0.00000000E+00  0.00000000E+00  0.00000000E+00
  0.00000000E+00  0.00000000E+00  0.00000000E+00
