Title                                   
   1.00000000000000     
     9.8694509999999998    0.0000000000000000    0.0000000000000000
     0.0000000000000000    8.5490480000000009    0.0000000000000000
     0.0000000000000000    0.0000000000000000   20.0000000000000000
    27     4     1
Selective dynamics
Direct
  0.0559090172644387  0.0914646390302725  0.0852633779759080   T   T   T
  0.9308531418795600  0.1754910012895729  0.0862591007038509   T   T   T
  0.0581955770461329  0.9241485980816019  0.0853831038658406   T   T   T
  0.9287073964172043  0.3430570840412767  0.0892996329330252   T   T   T
  0.0573004717184940  0.5908870954799635  0.0875019552490218   T   T   T
  0.9328157822192298  0.6743369677749058  0.0888299375776103   T   T   T
  0.0557721436529777  0.4235041867388879  0.0885833759833419   T   T   T
  0.9335683485709808  0.8410431927201539  0.0870099700496019   T   T   T
  0.3057373079959816  0.0871373335405061  0.0895342751888027   T   T   T
  0.1821234886022705  0.1725514576103744  0.0874172091019372   T   T   T
  0.1818398570202322  0.3392136220280776  0.0900010969308033   T   T   T
  0.3055044333558503  0.5879491916670375  0.1020089322092053   T   T   T
  0.1827421038099133  0.6735655879876408  0.0906120279936235   T   T   T
  0.3074457088122379  0.4205389540069359  0.0983965389798224   T   T   T
  0.1826577278874332  0.8404286199962546  0.0886174850797699   T   T   T
  0.5566644603517971  0.0851441256118891  0.0930841585858757   T   T   T
  0.5559572222670801  0.9213227878084862  0.0993771485444540   T   T   T
  0.4308699995307939  0.3300109683384487  0.1011708049661204   T   T   T
  0.4287013639448854  0.8401352628368995  0.1049091467206405   T   T   T
  0.8062866438511501  0.0905856964928873  0.0863883764267344   T   T   T
  0.6795155665180275  0.1706561477773640  0.0900945096825157   T   T   T
  0.8084621024698517  0.9254067663111506  0.0882948786729799   T   T   T
  0.6776097041348906  0.3355622127712745  0.0983219828728992   T   T   T
  0.8075503675869682  0.5955771808006602  0.0980602136032514   T   T   T
  0.8007884521573941  0.4263767094098866  0.0960471419467086   T   T   T
  0.6857666610803835  0.8420793099185638  0.0985558582525244   T   T   T
  0.4201212864318964  0.6805035480762615  0.1192461417722977   T   T   T
  0.5514567962462751  0.3999173670853080  0.1121018297165256   T   T   T
  0.6935461220742949  0.6851767329247892  0.1110573726224474   T   T   T
  0.3064859619328356  0.9244389374542770  0.0915960977718556   T   T   T
  0.4285903735595213  0.1659701671371671  0.0930358350634261   T   T   T
  0.5600934096090238  0.5860645472512276  0.1596154829565949   T   T   T
 
  0.00000000E+00  0.00000000E+00  0.00000000E+00
  0.00000000E+00  0.00000000E+00  0.00000000E+00
  0.00000000E+00  0.00000000E+00  0.00000000E+00
  0.00000000E+00  0.00000000E+00  0.00000000E+00
  0.00000000E+00  0.00000000E+00  0.00000000E+00
  0.00000000E+00  0.00000000E+00  0.00000000E+00
  0.00000000E+00  0.00000000E+00  0.00000000E+00
  0.00000000E+00  0.00000000E+00  0.00000000E+00
  0.00000000E+00  0.00000000E+00  0.00000000E+00
  0.00000000E+00  0.00000000E+00  0.00000000E+00
  0.00000000E+00  0.00000000E+00  0.00000000E+00
  0.00000000E+00  0.00000000E+00  0.00000000E+00
  0.00000000E+00  0.00000000E+00  0.00000000E+00
  0.00000000E+00  0.00000000E+00  0.00000000E+00
  0.00000000E+00  0.00000000E+00  0.00000000E+00
  0.00000000E+00  0.00000000E+00  0.00000000E+00
  0.00000000E+00  0.00000000E+00  0.00000000E+00
  0.00000000E+00  0.00000000E+00  0.00000000E+00
  0.00000000E+00  0.00000000E+00  0.00000000E+00
  0.00000000E+00  0.00000000E+00  0.00000000E+00
  0.00000000E+00  0.00000000E+00  0.00000000E+00
  0.00000000E+00  0.00000000E+00  0.00000000E+00
  0.00000000E+00  0.00000000E+00  0.00000000E+00
  0.00000000E+00  0.00000000E+00  0.00000000E+00
  0.00000000E+00  0.00000000E+00  0.00000000E+00
  0.00000000E+00  0.00000000E+00  0.00000000E+00
  0.00000000E+00  0.00000000E+00  0.00000000E+00
  0.00000000E+00  0.00000000E+00  0.00000000E+00
  0.00000000E+00  0.00000000E+00  0.00000000E+00
  0.00000000E+00  0.00000000E+00  0.00000000E+00
  0.00000000E+00  0.00000000E+00  0.00000000E+00
  0.00000000E+00  0.00000000E+00  0.00000000E+00
