Title                                   
   1.00000000000000     
     4.9440799999999996    0.0000000000000000    0.0000000000000000
     0.0000000000000000   17.1295089999999988    0.0000000000000000
     0.0000000000000000    0.0000000000000000   20.0000000000000000
    28     3     1
Selective dynamics
Direct
 -0.0002217150643006  0.1040580053724946  0.2887962073257133   T   T   T
  0.2498287042307234  0.1457545423701929  0.2912786090926323   T   T   T
  0.2498677653966212  0.2289461433145175  0.2980704658334978   T   T   T
  0.0032256274361667  0.3527004596542341  0.3131402904724798   T   T   T
 -0.0008073556517405  0.2703501318858256  0.3016823520817973   T   T   T
 -0.0045605253523226  0.6038981945608999  0.3045240694387096   T   T   T
  0.2499228868770248  0.7275914095939988  0.2931215665091564   T   T   T
  0.0003442831699003  0.8534598645935090  0.2866474517019461   T   T   T
  0.2498272187934788  0.8953408368318926  0.2858291590509245   T   T   T
  0.2497954152139694  0.9788748744980851  0.2855959363134594   T   T   T
  0.0007533979543961  0.7699281353701511  0.2900827758997341   T   T   T
  0.4998472773088280  0.1040530504136511  0.2887898042987095   T   T   T
  0.7498163869953679  0.1458497039128499  0.2906577971010351   T   T   T
  0.7498642791452330  0.2289065669070301  0.2965121856505359   T   T   T
  0.4998993214909269  0.0205844518691981  0.2861121761276201   T   T   T
  0.4966859505067703  0.3527029182025866  0.3131243658385423   T   T   T
  0.7499683524616113  0.3974896081530513  0.3158626388662226   T   T   T
  0.7499796950489093  0.4829066240582466  0.3153131741682672   T   T   T
  0.5005816309479157  0.2703570416406196  0.3016703850896363   T   T   T
  0.5045448642794463  0.6038811294782774  0.3044443504042940   T   T   T
  0.7499083488611487  0.7290482722777519  0.2922174858749516   T   T   T
  0.4993554372748137  0.8534637936977133  0.2866413519563501   T   T   T
  0.7498352363836206  0.8951161205170367  0.2856875542915708   T   T   T
  0.7497931997483741  0.9787029733705547  0.2854211764314233   T   T   T
  0.4990466343502202  0.7699335683455479  0.2900719959716104   T   T   T
  0.7499799980646823  0.6461840163649364  0.2991198478306394   T   T   T
  0.2499867245544946  0.6437345510852829  0.3005573433061678   T   T   T
 -0.0003103609720557  0.0205889974623475  0.2861155178681974   T   T   T
  0.5116210550446624  0.5238631733626504  0.3151444687315813   T   T   T
  0.9882553419712731  0.5239053423186651  0.3153647170006085   T   T   T
  0.2499578874666318  0.3882741899931457  0.3236092410501976   T   T   T
  0.2502300360632141  0.4881023085230456  0.3913585384217393   T   T   T
 
  0.00000000E+00  0.00000000E+00  0.00000000E+00
  0.00000000E+00  0.00000000E+00  0.00000000E+00
  0.00000000E+00  0.00000000E+00  0.00000000E+00
  0.00000000E+00  0.00000000E+00  0.00000000E+00
  0.00000000E+00  0.00000000E+00  0.00000000E+00
  0.00000000E+00  0.00000000E+00  0.00000000E+00
  0.00000000E+00  0.00000000E+00  0.00000000E+00
  0.00000000E+00  0.00000000E+00  0.00000000E+00
  0.00000000E+00  0.00000000E+00  0.00000000E+00
  0.00000000E+00  0.00000000E+00  0.00000000E+00
  0.00000000E+00  0.00000000E+00  0.00000000E+00
  0.00000000E+00  0.00000000E+00  0.00000000E+00
  0.00000000E+00  0.00000000E+00  0.00000000E+00
  0.00000000E+00  0.00000000E+00  0.00000000E+00
  0.00000000E+00  0.00000000E+00  0.00000000E+00
  0.00000000E+00  0.00000000E+00  0.00000000E+00
  0.00000000E+00  0.00000000E+00  0.00000000E+00
  0.00000000E+00  0.00000000E+00  0.00000000E+00
  0.00000000E+00  0.00000000E+00  0.00000000E+00
  0.00000000E+00  0.00000000E+00  0.00000000E+00
  0.00000000E+00  0.00000000E+00  0.00000000E+00
  0.00000000E+00  0.00000000E+00  0.00000000E+00
  0.00000000E+00  0.00000000E+00  0.00000000E+00
  0.00000000E+00  0.00000000E+00  0.00000000E+00
  0.00000000E+00  0.00000000E+00  0.00000000E+00
  0.00000000E+00  0.00000000E+00  0.00000000E+00
  0.00000000E+00  0.00000000E+00  0.00000000E+00
  0.00000000E+00  0.00000000E+00  0.00000000E+00
  0.00000000E+00  0.00000000E+00  0.00000000E+00
  0.00000000E+00  0.00000000E+00  0.00000000E+00
  0.00000000E+00  0.00000000E+00  0.00000000E+00
  0.00000000E+00  0.00000000E+00  0.00000000E+00
