Title                                   
   1.00000000000000     
     4.9440799999999996    0.0000000000000000    0.0000000000000000
     0.0000000000000000   17.1295089999999988    0.0000000000000000
     0.0000000000000000    0.0000000000000000   20.0000000000000000
    30     1     1
Selective dynamics
Direct
  0.0003314139747622  0.1045334561548746  0.2860448443255517   T   T   T
  0.2498775834446660  0.1464647158161934  0.2894469536030331   T   T   T
  0.2498916913336466  0.2294908598730110  0.2983936326271135   T   T   T
 -0.0003955680904453  0.3518901546788020  0.3175951203266059   T   T   T
 -0.0019543088371938  0.2704285160638862  0.3031151151025973   T   T   T
 -0.0032696941295457  0.6051753970862226  0.3092967080681107   T   T   T
  0.2498965782186792  0.7286154677560530  0.2929551472909987   T   T   T
  0.0001053181375592  0.8540590636387808  0.2835652607258053   T   T   T
  0.2498457665410151  0.8958680164573786  0.2822186030280009   T   T   T
  0.2498508941724082  0.9793380750611326  0.2815162022538396   T   T   T
  0.0002027441899362  0.7706661486366361  0.2886718785734075   T   T   T
  0.4994160893301110  0.1045416746204240  0.2860429145743250   T   T   T
  0.7498826875011954  0.1460199738550710  0.2887596147114911   T   T   T
  0.7499008834217312  0.2286607021794196  0.2966811294800598   T   T   T
  0.4996479520635269  0.0211429184797323  0.2822402475383088   T   T   T
  0.5002867476588602  0.3518897998841770  0.3175922709293571   T   T   T
  0.7499511957266241  0.4776345669501376  0.3187853393534127   T   T   T
  0.5017751357831476  0.2704293409710346  0.3031116076224784   T   T   T
  0.5031291012751484  0.6051708951915862  0.3092717853090641   T   T   T
  0.7498901088616239  0.7296399201187972  0.2918879860429959   T   T   T
  0.4995767163233873  0.8540595982539131  0.2835641084423343   T   T   T
  0.7498432272735692  0.8957593913315356  0.2820390709422164   T   T   T
  0.7498439710897139  0.9793662330121000  0.2813787621785657   T   T   T
  0.4995626471212903  0.7706625756479302  0.2886667733342907   T   T   T
  0.7499211268946104  0.6468796832133733  0.3015030185098124   T   T   T
  0.2499297568590829  0.6457793986118222  0.3041038323604145   T   T   T
  0.0000666357063159  0.0211375262436606  0.2822430236470621   T   T   T
  0.5122455243862336  0.5229924334540663  0.3236794648859561   T   T   T
  0.9876465694861273  0.5229973488726399  0.3237143301073035   T   T   T
  0.2499567703083548  0.3897671374928611  0.3321942060147348   T   T   T
  0.7499570756070768  0.3937458223539402  0.3198297213151954   T   T   T
  0.2500106583667868  0.4837441880388001  0.3724563267755105   T   T   T
 
  0.00000000E+00  0.00000000E+00  0.00000000E+00
  0.00000000E+00  0.00000000E+00  0.00000000E+00
  0.00000000E+00  0.00000000E+00  0.00000000E+00
  0.00000000E+00  0.00000000E+00  0.00000000E+00
  0.00000000E+00  0.00000000E+00  0.00000000E+00
  0.00000000E+00  0.00000000E+00  0.00000000E+00
  0.00000000E+00  0.00000000E+00  0.00000000E+00
  0.00000000E+00  0.00000000E+00  0.00000000E+00
  0.00000000E+00  0.00000000E+00  0.00000000E+00
  0.00000000E+00  0.00000000E+00  0.00000000E+00
  0.00000000E+00  0.00000000E+00  0.00000000E+00
  0.00000000E+00  0.00000000E+00  0.00000000E+00
  0.00000000E+00  0.00000000E+00  0.00000000E+00
  0.00000000E+00  0.00000000E+00  0.00000000E+00
  0.00000000E+00  0.00000000E+00  0.00000000E+00
  0.00000000E+00  0.00000000E+00  0.00000000E+00
  0.00000000E+00  0.00000000E+00  0.00000000E+00
  0.00000000E+00  0.00000000E+00  0.00000000E+00
  0.00000000E+00  0.00000000E+00  0.00000000E+00
  0.00000000E+00  0.00000000E+00  0.00000000E+00
  0.00000000E+00  0.00000000E+00  0.00000000E+00
  0.00000000E+00  0.00000000E+00  0.00000000E+00
  0.00000000E+00  0.00000000E+00  0.00000000E+00
  0.00000000E+00  0.00000000E+00  0.00000000E+00
  0.00000000E+00  0.00000000E+00  0.00000000E+00
  0.00000000E+00  0.00000000E+00  0.00000000E+00
  0.00000000E+00  0.00000000E+00  0.00000000E+00
  0.00000000E+00  0.00000000E+00  0.00000000E+00
  0.00000000E+00  0.00000000E+00  0.00000000E+00
  0.00000000E+00  0.00000000E+00  0.00000000E+00
  0.00000000E+00  0.00000000E+00  0.00000000E+00
  0.00000000E+00  0.00000000E+00  0.00000000E+00
