Title                                   
   1.00000000000000     
     9.8694509999999998    0.0000000000000000    0.0000000000000000
     0.0000000000000000    8.5490480000000009    0.0000000000000000
     0.0000000000000000    0.0000000000000000   20.0000000000000000
    24     6     1
Selective dynamics
Direct
  0.0559970570810475  0.0903193502130899  0.0938060573365202   T   T   T
  0.9309982517315631  0.1733621837888449  0.0968219990870270   T   T   T
  0.0577658108584555  0.9215819473512050  0.0940776964550900   T   T   T
  0.9329712268731034  0.3408700245289388  0.0984331891736479   T   T   T
  0.0573588317995110  0.5906067892958287  0.0954803152816337   T   T   T
  0.0570574315062604  0.4238423109688786  0.0952251806127212   T   T   T
  0.9330899605478722  0.8401728613670434  0.0977554147748536   T   T   T
  0.3080562106414652  0.0877863130056048  0.0902347833932198   T   T   T
  0.1813835350181890  0.1719958579939047  0.0916889428984213   T   T   T
  0.1813101341988683  0.3390521616647127  0.0921154437086626   T   T   T
  0.3068284157992443  0.5893270340782356  0.0867671202240216   T   T   T
  0.1809271517322522  0.6729288638253346  0.0920781452477229   T   T   T
  0.3073523896654448  0.4199463561737024  0.0882303245957834   T   T   T
  0.1826167546625838  0.8396535423022199  0.0915700224189194   T   T   T
  0.4302453085595242  0.1705880293323480  0.0911542285404240   T   T   T
  0.5557053902118474  0.9188533692171517  0.0964171277729159   T   T   T
  0.4298784846066970  0.8379140888893785  0.0892978691282621   T   T   T
  0.8047856956184396  0.0898631873811066  0.0981740430137985   T   T   T
  0.6805717693953491  0.1781362133716311  0.1012096594249643   T   T   T
  0.8068980137124394  0.9215283084377964  0.0989775325641322   T   T   T
  0.6836146869663512  0.3435388466399511  0.1088130388149789   T   T   T
  0.8108495633549770  0.5936455008164643  0.1056113545973408   T   T   T
  0.8094493965923576  0.4245792715043103  0.1047554037767268   T   T   T
  0.6824341243925516  0.8357842887150158  0.1022366166434202   T   T   T
  0.9334176435002087  0.6729760564598546  0.0990151839906094   T   T   T
  0.5562879881315062  0.0917447989175280  0.0963217528006891   T   T   T
  0.4277284119747309  0.3324574007461093  0.0897746640650283   T   T   T
  0.6910328291887868  0.6725067748725583  0.1113370755748593   T   T   T
  0.4264703109731314  0.6775722341883410  0.0834817415543821   T   T   T
  0.3062900596783286  0.9209922924099141  0.0897382561554770   T   T   T
  0.5337621610269218  0.5067487415430112  0.1303648163737831   T   T   T
 
  0.00000000E+00  0.00000000E+00  0.00000000E+00
  0.00000000E+00  0.00000000E+00  0.00000000E+00
  0.00000000E+00  0.00000000E+00  0.00000000E+00
  0.00000000E+00  0.00000000E+00  0.00000000E+00
  0.00000000E+00  0.00000000E+00  0.00000000E+00
  0.00000000E+00  0.00000000E+00  0.00000000E+00
  0.00000000E+00  0.00000000E+00  0.00000000E+00
  0.00000000E+00  0.00000000E+00  0.00000000E+00
  0.00000000E+00  0.00000000E+00  0.00000000E+00
  0.00000000E+00  0.00000000E+00  0.00000000E+00
  0.00000000E+00  0.00000000E+00  0.00000000E+00
  0.00000000E+00  0.00000000E+00  0.00000000E+00
  0.00000000E+00  0.00000000E+00  0.00000000E+00
  0.00000000E+00  0.00000000E+00  0.00000000E+00
  0.00000000E+00  0.00000000E+00  0.00000000E+00
  0.00000000E+00  0.00000000E+00  0.00000000E+00
  0.00000000E+00  0.00000000E+00  0.00000000E+00
  0.00000000E+00  0.00000000E+00  0.00000000E+00
  0.00000000E+00  0.00000000E+00  0.00000000E+00
  0.00000000E+00  0.00000000E+00  0.00000000E+00
  0.00000000E+00  0.00000000E+00  0.00000000E+00
  0.00000000E+00  0.00000000E+00  0.00000000E+00
  0.00000000E+00  0.00000000E+00  0.00000000E+00
  0.00000000E+00  0.00000000E+00  0.00000000E+00
  0.00000000E+00  0.00000000E+00  0.00000000E+00
  0.00000000E+00  0.00000000E+00  0.00000000E+00
  0.00000000E+00  0.00000000E+00  0.00000000E+00
  0.00000000E+00  0.00000000E+00  0.00000000E+00
  0.00000000E+00  0.00000000E+00  0.00000000E+00
  0.00000000E+00  0.00000000E+00  0.00000000E+00
  0.00000000E+00  0.00000000E+00  0.00000000E+00
