Title                                   
   1.00000000000000     
     8.5490480000000009    0.0000000000000000    0.0000000000000000
     0.0000000000000000    8.5490480000000009    0.0000000000000000
     0.0000000000000000    0.0000000000000000   20.0000000000000000
    23     1     1
Selective dynamics
Direct
  0.9093350878132355  0.2063038103495481  0.0950432233825023   T   T   T
  0.9105232513994405  0.5033474621917852  0.0953981727879134   T   T   T
  0.9120962735882475  0.8005508263467160  0.0953225865254351   T   T   T
  0.1978758391292710  0.0827440335641288  0.0946729371586100   T   T   T
  0.0749694352514471  0.2025479769772841  0.0951039711524303   T   T   T
  0.1603179474205370  0.6479978433812569  0.0963966873271621   T   T   T
  0.0778389734514736  0.5018073346186036  0.0957412027945852   T   T   T
  0.1579682979834814  0.3546857632687063  0.0964337946328815   T   T   T
  0.0790410485123613  0.7979807995768085  0.0953040195014248   T   T   T
  0.4925276061412368  0.0860858786479977  0.0959760676343227   T   T   T
  0.3450406329174747  0.1631968808429887  0.0957211768807975   T   T   T
  0.4922804791101517  0.9183580679049295  0.0959033368078811   T   T   T
  0.3466656627117504  0.8369682469938414  0.0958205755641445   T   T   T
  0.7866614487621840  0.0855304516551999  0.0958780614165419   T   T   T
  0.6369501230267088  0.1685599237130812  0.0968511197262593   T   T   T
  0.7880018758959756  0.9205674412259671  0.0958283296953563   T   T   T
  0.8304281501042728  0.6496833335369266  0.0964451088510015   T   T   T
  0.8287257093514137  0.3573027541398858  0.0952637369981833   T   T   T
  0.6377525915396816  0.8359045388650779  0.0970616904917376   T   T   T
  0.3235512268173583  0.3324362023685860  0.0997514628949245   T   T   T
  0.3269595206337672  0.6714349036860427  0.0987176022577594   T   T   T
  0.6614973433167833  0.3371742970626364  0.0985786044338492   T   T   T
  0.6616644791259313  0.6693277986606573  0.1006266982100687   T   T   T
  0.1987709234726999  0.9163228999896770  0.0947762242628316   T   T   T
  0.4879680725231010  0.4979705304316729  0.1310886086113761   T   T   T
 
  0.00000000E+00  0.00000000E+00  0.00000000E+00
  0.00000000E+00  0.00000000E+00  0.00000000E+00
  0.00000000E+00  0.00000000E+00  0.00000000E+00
  0.00000000E+00  0.00000000E+00  0.00000000E+00
  0.00000000E+00  0.00000000E+00  0.00000000E+00
  0.00000000E+00  0.00000000E+00  0.00000000E+00
  0.00000000E+00  0.00000000E+00  0.00000000E+00
  0.00000000E+00  0.00000000E+00  0.00000000E+00
  0.00000000E+00  0.00000000E+00  0.00000000E+00
  0.00000000E+00  0.00000000E+00  0.00000000E+00
  0.00000000E+00  0.00000000E+00  0.00000000E+00
  0.00000000E+00  0.00000000E+00  0.00000000E+00
  0.00000000E+00  0.00000000E+00  0.00000000E+00
  0.00000000E+00  0.00000000E+00  0.00000000E+00
  0.00000000E+00  0.00000000E+00  0.00000000E+00
  0.00000000E+00  0.00000000E+00  0.00000000E+00
  0.00000000E+00  0.00000000E+00  0.00000000E+00
  0.00000000E+00  0.00000000E+00  0.00000000E+00
  0.00000000E+00  0.00000000E+00  0.00000000E+00
  0.00000000E+00  0.00000000E+00  0.00000000E+00
  0.00000000E+00  0.00000000E+00  0.00000000E+00
  0.00000000E+00  0.00000000E+00  0.00000000E+00
  0.00000000E+00  0.00000000E+00  0.00000000E+00
  0.00000000E+00  0.00000000E+00  0.00000000E+00
  0.00000000E+00  0.00000000E+00  0.00000000E+00
