Title                                   
   1.00000000000000     
     9.8694509999999998    0.0000000000000000    0.0000000000000000
     0.0000000000000000    8.5490480000000009    0.0000000000000000
     0.0000000000000000    0.0000000000000000   20.0000000000000000
    26     4     1
Selective dynamics
Direct
  0.0557584715476864  0.0895823913707030  0.0943956384226990   T   T   T
  0.9305000227087044  0.1718288241092534  0.0942771700288450   T   T   T
  0.0572729751032070  0.9233938009327388  0.0944259436979466   T   T   T
  0.9341042975295720  0.3387791103316039  0.0940191117867349   T   T   T
  0.0582042643696942  0.5898308808901921  0.0940672707060620   T   T   T
  0.9343444967259007  0.6737601688837265  0.0941299197765749   T   T   T
  0.0582283143261778  0.4229818338780603  0.0940058965677618   T   T   T
  0.9314791671132969  0.8403763590908320  0.0943987072371866   T   T   T
  0.3067307638812723  0.0882391099730751  0.0949992880398013   T   T   T
  0.1816002051504185  0.1708839272382937  0.0946481199334253   T   T   T
  0.1814822156953223  0.3393353355580608  0.0945568064469292   T   T   T
  0.3049267169166746  0.5902902736925956  0.0951635691518639   T   T   T
  0.1820277796841511  0.6729844740115462  0.0945756615304132   T   T   T
  0.3047275113438852  0.4209639630846977  0.0952108113010505   T   T   T
  0.1817767818123084  0.8409332242735474  0.0946269444692344   T   T   T
  0.4301666080634962  0.1773938689713145  0.0954633059648567   T   T   T
  0.5529976520743468  0.9215085253728519  0.0954107023832885   T   T   T
  0.4293145189956927  0.8354229706601266  0.0954101220809524   T   T   T
  0.8033859219263335  0.0899919700166301  0.0946459203653266   T   T   T
  0.6795955703285055  0.1793975187346686  0.0950750001318191   T   T   T
  0.8047072862792116  0.9214774759474668  0.0947291224688315   T   T   T
  0.6840082070842745  0.3466642321043365  0.0951925360195127   T   T   T
  0.8124449732257240  0.5903153583150523  0.0944636956028725   T   T   T
  0.6843994259169963  0.6652178270358512  0.0953702715478523   T   T   T
  0.8126393069012310  0.4216469235733430  0.0943747655419901   T   T   T
  0.6794570880151373  0.8342351825352452  0.0952091687939917   T   T   T
  0.5539211026269537  0.0935402513606823  0.0953377549678269   T   T   T
  0.4264350782613214  0.3385666236547862  0.0958621078409532   T   T   T
  0.4255470510392778  0.6725847613890226  0.0956826986830542   T   T   T
  0.3057442002334987  0.9221269495429116  0.0948964872928533   T   T   T
  0.5552070251197444  0.5066208834667879  0.0963404812175376   T   T   T
 
  0.00000000E+00  0.00000000E+00  0.00000000E+00
  0.00000000E+00  0.00000000E+00  0.00000000E+00
  0.00000000E+00  0.00000000E+00  0.00000000E+00
  0.00000000E+00  0.00000000E+00  0.00000000E+00
  0.00000000E+00  0.00000000E+00  0.00000000E+00
  0.00000000E+00  0.00000000E+00  0.00000000E+00
  0.00000000E+00  0.00000000E+00  0.00000000E+00
  0.00000000E+00  0.00000000E+00  0.00000000E+00
  0.00000000E+00  0.00000000E+00  0.00000000E+00
  0.00000000E+00  0.00000000E+00  0.00000000E+00
  0.00000000E+00  0.00000000E+00  0.00000000E+00
  0.00000000E+00  0.00000000E+00  0.00000000E+00
  0.00000000E+00  0.00000000E+00  0.00000000E+00
  0.00000000E+00  0.00000000E+00  0.00000000E+00
  0.00000000E+00  0.00000000E+00  0.00000000E+00
  0.00000000E+00  0.00000000E+00  0.00000000E+00
  0.00000000E+00  0.00000000E+00  0.00000000E+00
  0.00000000E+00  0.00000000E+00  0.00000000E+00
  0.00000000E+00  0.00000000E+00  0.00000000E+00
  0.00000000E+00  0.00000000E+00  0.00000000E+00
  0.00000000E+00  0.00000000E+00  0.00000000E+00
  0.00000000E+00  0.00000000E+00  0.00000000E+00
  0.00000000E+00  0.00000000E+00  0.00000000E+00
  0.00000000E+00  0.00000000E+00  0.00000000E+00
  0.00000000E+00  0.00000000E+00  0.00000000E+00
  0.00000000E+00  0.00000000E+00  0.00000000E+00
  0.00000000E+00  0.00000000E+00  0.00000000E+00
  0.00000000E+00  0.00000000E+00  0.00000000E+00
  0.00000000E+00  0.00000000E+00  0.00000000E+00
  0.00000000E+00  0.00000000E+00  0.00000000E+00
  0.00000000E+00  0.00000000E+00  0.00000000E+00
