Title                                   
   1.00000000000000     
     9.8694509999999998    0.0000000000000000    0.0000000000000000
     0.0000000000000000    8.5490480000000009    0.0000000000000000
     0.0000000000000000    0.0000000000000000   20.0000000000000000
    24     6     1
Selective dynamics
Direct
  0.0568274821497576  0.0907069536149626  0.0937792764571911   T   T   T
  0.9319308754744017  0.1726390397747969  0.0980778384360610   T   T   T
  0.0577266759468634  0.9217805023097574  0.0943732026025233   T   T   T
  0.9326616613811499  0.3401010366999398  0.1002747541058324   T   T   T
  0.0575670805732523  0.5895666033028255  0.0967143333317606   T   T   T
  0.9327015841615193  0.6715953047950044  0.1006923619736255   T   T   T
  0.0576320220933942  0.4227157887435059  0.0961789958697609   T   T   T
  0.9326241157392344  0.8390331168705644  0.0986721250247718   T   T   T
  0.3089382233404745  0.0883242657405086  0.0889405639655368   T   T   T
  0.1820590037587106  0.1724097323951998  0.0903361045971316   T   T   T
  0.1819155479299200  0.3389262823696123  0.0911083789666341   T   T   T
  0.3078550662784860  0.5908825977931917  0.0865963979668382   T   T   T
  0.1818681006237422  0.6733014837443964  0.0926383816325909   T   T   T
  0.3079697752205826  0.4207902802322711  0.0857232869402842   T   T   T
  0.1816161881116275  0.8391055672660581  0.0916426805831083   T   T   T
  0.4299418700373114  0.1728352551414699  0.0886306227183060   T   T   T
  0.5555890136779627  0.9203538707256312  0.0967226006884107   T   T   T
  0.4304096356654677  0.8398364286708981  0.0888149491573363   T   T   T
  0.8051889161935671  0.0898183270694248  0.0989662374409856   T   T   T
  0.6824536356882799  0.1775479870499765  0.1019667941576153   T   T   T
  0.8059941218561307  0.9215524961477484  0.0992535129666596   T   T   T
  0.8077558438170774  0.5899197589158224  0.1068536279613492   T   T   T
  0.8077784305228920  0.4210367645722669  0.1066996084455297   T   T   T
  0.6829280734168202  0.8353713918861734  0.1026102697119853   T   T   T
  0.5585313628803323  0.0949214203323614  0.0955760887064585   T   T   T
  0.4283114216116943  0.3341882051017443  0.0826986031806813   T   T   T
  0.4270804445784530  0.6798230736611103  0.0817489033352236   T   T   T
  0.6853594499775781  0.3375773549627600  0.1115832098753228   T   T   T
  0.6866102530822228  0.6732084057654028  0.1119184711041118   T   T   T
  0.3063776449558627  0.9223487689152122  0.0886822626741685   T   T   T
  0.5309324792552319  0.5086569354294009  0.1324905554222624   T   T   T
 
  0.00000000E+00  0.00000000E+00  0.00000000E+00
  0.00000000E+00  0.00000000E+00  0.00000000E+00
  0.00000000E+00  0.00000000E+00  0.00000000E+00
  0.00000000E+00  0.00000000E+00  0.00000000E+00
  0.00000000E+00  0.00000000E+00  0.00000000E+00
  0.00000000E+00  0.00000000E+00  0.00000000E+00
  0.00000000E+00  0.00000000E+00  0.00000000E+00
  0.00000000E+00  0.00000000E+00  0.00000000E+00
  0.00000000E+00  0.00000000E+00  0.00000000E+00
  0.00000000E+00  0.00000000E+00  0.00000000E+00
  0.00000000E+00  0.00000000E+00  0.00000000E+00
  0.00000000E+00  0.00000000E+00  0.00000000E+00
  0.00000000E+00  0.00000000E+00  0.00000000E+00
  0.00000000E+00  0.00000000E+00  0.00000000E+00
  0.00000000E+00  0.00000000E+00  0.00000000E+00
  0.00000000E+00  0.00000000E+00  0.00000000E+00
  0.00000000E+00  0.00000000E+00  0.00000000E+00
  0.00000000E+00  0.00000000E+00  0.00000000E+00
  0.00000000E+00  0.00000000E+00  0.00000000E+00
  0.00000000E+00  0.00000000E+00  0.00000000E+00
  0.00000000E+00  0.00000000E+00  0.00000000E+00
  0.00000000E+00  0.00000000E+00  0.00000000E+00
  0.00000000E+00  0.00000000E+00  0.00000000E+00
  0.00000000E+00  0.00000000E+00  0.00000000E+00
  0.00000000E+00  0.00000000E+00  0.00000000E+00
  0.00000000E+00  0.00000000E+00  0.00000000E+00
  0.00000000E+00  0.00000000E+00  0.00000000E+00
  0.00000000E+00  0.00000000E+00  0.00000000E+00
  0.00000000E+00  0.00000000E+00  0.00000000E+00
  0.00000000E+00  0.00000000E+00  0.00000000E+00
  0.00000000E+00  0.00000000E+00  0.00000000E+00
