Title                                   
   1.00000000000000     
     4.9440799999999996    0.0000000000000000    0.0000000000000000
     0.0000000000000000    8.5647549999999999    0.0000000000000000
     0.0000000000000000    0.0000000000000000   20.0000000000000000
    12     3     1
Selective dynamics
Direct
 -0.0022975053733602  0.2919998836982373  0.0874202767013564   T   T   T
  0.2545552100429010  0.0439582546125350  0.0892678904348003   T   T   T
  0.0123774657636129  0.7956146205249731  0.0976215281765989   T   T   T
  0.0061901689571622  0.9613018793414947  0.0884797182738165   T   T   T
  0.7518422431523197  0.2059741877556121  0.0852701715976292   T   T   T
  0.5046840940210507  0.2916292560113784  0.0956669561908745   T   T   T
  0.7553794077040183  0.0415047295000912  0.0852339354444814   T   T   T
  0.7615201382386391  0.7045236541803498  0.1025128844544141   T   T   T
  0.5059756120586942  0.7953569443764750  0.1005381409520251   T   T   T
  0.7537778371919016  0.5315413848552499  0.1029185147549037   T   T   T
  0.5062242735762992  0.9606964450164933  0.0905280589889241   T   T   T
  0.5143921300247657  0.4465096402724609  0.1189637702168824   T   T   T
 -0.0054343353116534  0.4502129465283944  0.0868290696078172   T   T   T
  0.2596910534589159  0.7248453192596130  0.1088197255124465   T   T   T
  0.2522815872186461  0.2104168328954998  0.0903634737034268   T   T   T
  0.1688406192760870  0.5439140211711406  0.1820778849896122   T   T   T
 
  0.00000000E+00  0.00000000E+00  0.00000000E+00
  0.00000000E+00  0.00000000E+00  0.00000000E+00
  0.00000000E+00  0.00000000E+00  0.00000000E+00
  0.00000000E+00  0.00000000E+00  0.00000000E+00
  0.00000000E+00  0.00000000E+00  0.00000000E+00
  0.00000000E+00  0.00000000E+00  0.00000000E+00
  0.00000000E+00  0.00000000E+00  0.00000000E+00
  0.00000000E+00  0.00000000E+00  0.00000000E+00
  0.00000000E+00  0.00000000E+00  0.00000000E+00
  0.00000000E+00  0.00000000E+00  0.00000000E+00
  0.00000000E+00  0.00000000E+00  0.00000000E+00
  0.00000000E+00  0.00000000E+00  0.00000000E+00
  0.00000000E+00  0.00000000E+00  0.00000000E+00
  0.00000000E+00  0.00000000E+00  0.00000000E+00
  0.00000000E+00  0.00000000E+00  0.00000000E+00
  0.00000000E+00  0.00000000E+00  0.00000000E+00
