Title                                   
   1.00000000000000     
     4.9440799999999996    0.0000000000000000    0.0000000000000000
     0.0000000000000000    8.5647549999999999    0.0000000000000000
     0.0000000000000000    0.0000000000000000   20.0000000000000000
    13     1     1
Selective dynamics
Direct
  0.2466178115794304  0.2073536180227154  0.0954921710325936   T   T   T
 -0.0028173009841440  0.2952461869964881  0.1002804754798381   T   T   T
  0.2516666472367691  0.0394025035713530  0.0951058943887967   T   T   T
  0.0048946530481546  0.9528785095697802  0.0978645145141381   T   T   T
  0.7497058388017422  0.2092437906421382  0.0930090813603950   T   T   T
  0.4945508753254249  0.2909927014139201  0.0918431116835554   T   T   T
  0.7549460836426304  0.0404255599556624  0.0930484392248674   T   T   T
  0.7450018010653983  0.7135134821988153  0.1001592925132714   T   T   T
  0.7359499363074047  0.5417210789336250  0.1025955192061494   T   T   T
  0.5051547267549505  0.9573532905692690  0.0931730539375279   T   T   T
  0.4955909934671492  0.4575053468585107  0.0931421105320352   T   T   T
 -0.0107436269586677  0.4612695165056020  0.1149143283876564   T   T   T
 -0.0040268773057572  0.7861924420810025  0.1062663695572673   T   T   T
  0.5092859112674150  0.7962079740562102  0.0944834167579753   T   T   T
  0.2742225267520996  0.6223749986249117  0.1366022214239363   T   T   T
 
  0.00000000E+00  0.00000000E+00  0.00000000E+00
  0.00000000E+00  0.00000000E+00  0.00000000E+00
  0.00000000E+00  0.00000000E+00  0.00000000E+00
  0.00000000E+00  0.00000000E+00  0.00000000E+00
  0.00000000E+00  0.00000000E+00  0.00000000E+00
  0.00000000E+00  0.00000000E+00  0.00000000E+00
  0.00000000E+00  0.00000000E+00  0.00000000E+00
  0.00000000E+00  0.00000000E+00  0.00000000E+00
  0.00000000E+00  0.00000000E+00  0.00000000E+00
  0.00000000E+00  0.00000000E+00  0.00000000E+00
  0.00000000E+00  0.00000000E+00  0.00000000E+00
  0.00000000E+00  0.00000000E+00  0.00000000E+00
  0.00000000E+00  0.00000000E+00  0.00000000E+00
  0.00000000E+00  0.00000000E+00  0.00000000E+00
  0.00000000E+00  0.00000000E+00  0.00000000E+00
