Title                                   
   1.00000000000000     
     9.8694509999999998    0.0000000000000000    0.0000000000000000
     0.0000000000000000    8.5490480000000009    0.0000000000000000
     0.0000000000000000    0.0000000000000000   20.0000000000000000
    28     2     1
Selective dynamics
Direct
  0.0558882095808078  0.0886792235125661  0.0852724483846745   T   T   T
  0.9310915159987593  0.1719851947466505  0.0865991342261959   T   T   T
  0.0575364648870345  0.9227876913391374  0.0859648174346551   T   T   T
  0.9337322529617875  0.3388160481791675  0.0850183820761970   T   T   T
  0.0571275326812997  0.5901819896695761  0.0819607786599529   T   T   T
  0.9333471539440999  0.6740435918407907  0.0860435099396185   T   T   T
  0.0573408953381741  0.4229253451785910  0.0814351945945326   T   T   T
  0.9317478316253694  0.8400795022143407  0.0877482882817675   T   T   T
  0.3054188142803314  0.0884674483765809  0.0932337116341604   T   T   T
  0.1803619130011709  0.1699178226824558  0.0867268109494141   T   T   T
  0.1802804814932426  0.3376623627678253  0.0848860649972999   T   T   T
  0.3036864640453245  0.5883161384585840  0.0935613399438830   T   T   T
  0.1816525484805292  0.6728349449190770  0.0854562515379140   T   T   T
  0.3022563480769956  0.4186353083805437  0.0933671288612397   T   T   T
  0.1824315703936477  0.8403730868261183  0.0875029949297559   T   T   T
  0.5551087801342969  0.0925387279751737  0.1040134337755982   T   T   T
  0.4275594367929594  0.1763014496498433  0.1014720526798609   T   T   T
  0.5542154539710590  0.9249680479165778  0.1042257738408680   T   T   T
  0.4247827011450221  0.6721661054019722  0.1058010357662358   T   T   T
  0.4287703010691116  0.8370968807638827  0.1018966932523551   T   T   T
  0.8058495045312031  0.0900700412822557  0.0931578985090741   T   T   T
  0.6825453261490755  0.1774822074396733  0.1015358321124445   T   T   T
  0.8058792817402404  0.9224226225360049  0.0938568774617812   T   T   T
  0.6895014474359350  0.3425777093541051  0.1059685581679818   T   T   T
  0.8111144688910066  0.5914568228798249  0.0948283355763884   T   T   T
  0.6876652126248384  0.6707069264136113  0.1066415209905008   T   T   T
  0.8120713222380302  0.4216720832351208  0.0942266338060503   T   T   T
  0.6812895461543724  0.8368745918574590  0.1024043777942798   T   T   T
  0.4210760157473127  0.3384615471167216  0.1046091231302867   T   T   T
  0.3060249878499310  0.9228005857208219  0.0932355983717565   T   T   T
  0.5557812167370473  0.5075729513649655  0.1283143983133254   T   T   T
 
  0.00000000E+00  0.00000000E+00  0.00000000E+00
  0.00000000E+00  0.00000000E+00  0.00000000E+00
  0.00000000E+00  0.00000000E+00  0.00000000E+00
  0.00000000E+00  0.00000000E+00  0.00000000E+00
  0.00000000E+00  0.00000000E+00  0.00000000E+00
  0.00000000E+00  0.00000000E+00  0.00000000E+00
  0.00000000E+00  0.00000000E+00  0.00000000E+00
  0.00000000E+00  0.00000000E+00  0.00000000E+00
  0.00000000E+00  0.00000000E+00  0.00000000E+00
  0.00000000E+00  0.00000000E+00  0.00000000E+00
  0.00000000E+00  0.00000000E+00  0.00000000E+00
  0.00000000E+00  0.00000000E+00  0.00000000E+00
  0.00000000E+00  0.00000000E+00  0.00000000E+00
  0.00000000E+00  0.00000000E+00  0.00000000E+00
  0.00000000E+00  0.00000000E+00  0.00000000E+00
  0.00000000E+00  0.00000000E+00  0.00000000E+00
  0.00000000E+00  0.00000000E+00  0.00000000E+00
  0.00000000E+00  0.00000000E+00  0.00000000E+00
  0.00000000E+00  0.00000000E+00  0.00000000E+00
  0.00000000E+00  0.00000000E+00  0.00000000E+00
  0.00000000E+00  0.00000000E+00  0.00000000E+00
  0.00000000E+00  0.00000000E+00  0.00000000E+00
  0.00000000E+00  0.00000000E+00  0.00000000E+00
  0.00000000E+00  0.00000000E+00  0.00000000E+00
  0.00000000E+00  0.00000000E+00  0.00000000E+00
  0.00000000E+00  0.00000000E+00  0.00000000E+00
  0.00000000E+00  0.00000000E+00  0.00000000E+00
  0.00000000E+00  0.00000000E+00  0.00000000E+00
  0.00000000E+00  0.00000000E+00  0.00000000E+00
  0.00000000E+00  0.00000000E+00  0.00000000E+00
  0.00000000E+00  0.00000000E+00  0.00000000E+00
