Title                                   
   1.00000000000000     
     9.8694509999999998    0.0000000000000000    0.0000000000000000
     0.0000000000000000    8.5490480000000009    0.0000000000000000
     0.0000000000000000    0.0000000000000000   20.0000000000000000
    23     7     1
Selective dynamics
Direct
  0.0563120567647315  0.0900183092143935  0.0956944340741101   T   T   T
  0.9319884444088029  0.1725559995816344  0.0990269926774197   T   T   T
  0.0575078757080311  0.9208852677327967  0.0961910288912560   T   T   T
  0.9330583329580356  0.3398492412582700  0.1001823200726723   T   T   T
  0.0570502242935161  0.5906707292980798  0.0970807399689332   T   T   T
  0.0569167688356618  0.4236871976135264  0.0967425611522302   T   T   T
  0.9323792638613931  0.8387788813043158  0.0994336734756321   T   T   T
  0.3081072546599957  0.0881000353689539  0.0899635933307597   T   T   T
  0.1817389861820915  0.1723310503928518  0.0921219846118865   T   T   T
  0.1816094682495735  0.3395707086925163  0.0923350786907755   T   T   T
  0.3068214246857005  0.5905021922339000  0.0866912936571755   T   T   T
  0.1807409840809118  0.6729383712128182  0.0935968059009190   T   T   T
  0.3075723544030001  0.4203237214804321  0.0858117938511542   T   T   T
  0.1822257835955250  0.8402023081976122  0.0933882723002120   T   T   T
  0.4303903964008279  0.1711487855473910  0.0884262678324534   T   T   T
  0.5562328231334638  0.9204615285783783  0.0959335001611358   T   T   T
  0.4297213708322306  0.8409925463142466  0.0888554782702659   T   T   T
  0.8053950964151962  0.0892771902058626  0.0997718892335729   T   T   T
  0.6829319728407799  0.1784714911895258  0.1015480755194633   T   T   T
  0.8065321522523319  0.9208040182610089  0.0999711650703259   T   T   T
  0.8089460461092647  0.5905005297921564  0.1057933909211226   T   T   T
  0.8091680398927527  0.4223245371315669  0.1053701113836987   T   T   T
  0.6820376935177251  0.8353871872457824  0.1021662631897442   T   T   T
  0.9329898514700274  0.6716612111431474  0.1004507476950812   T   T   T
  0.5583308627949034  0.0948622654320918  0.0950689798656637   T   T   T
  0.4274993696850089  0.3321765252379603  0.0826284990278693   T   T   T
  0.4254781253641116  0.6810169429975280  0.0832401705466034   T   T   T
  0.6862052134819454  0.3401648304599572  0.1097790094841458   T   T   T
  0.6891917633502903  0.6716535167312498  0.1109085315243751   T   T   T
  0.3052481151561292  0.9226452037979120  0.0903252811757464   T   T   T
  0.5328078846160409  0.5069126763521316  0.1224670664436547   T   T   T
 
  0.00000000E+00  0.00000000E+00  0.00000000E+00
  0.00000000E+00  0.00000000E+00  0.00000000E+00
  0.00000000E+00  0.00000000E+00  0.00000000E+00
  0.00000000E+00  0.00000000E+00  0.00000000E+00
  0.00000000E+00  0.00000000E+00  0.00000000E+00
  0.00000000E+00  0.00000000E+00  0.00000000E+00
  0.00000000E+00  0.00000000E+00  0.00000000E+00
  0.00000000E+00  0.00000000E+00  0.00000000E+00
  0.00000000E+00  0.00000000E+00  0.00000000E+00
  0.00000000E+00  0.00000000E+00  0.00000000E+00
  0.00000000E+00  0.00000000E+00  0.00000000E+00
  0.00000000E+00  0.00000000E+00  0.00000000E+00
  0.00000000E+00  0.00000000E+00  0.00000000E+00
  0.00000000E+00  0.00000000E+00  0.00000000E+00
  0.00000000E+00  0.00000000E+00  0.00000000E+00
  0.00000000E+00  0.00000000E+00  0.00000000E+00
  0.00000000E+00  0.00000000E+00  0.00000000E+00
  0.00000000E+00  0.00000000E+00  0.00000000E+00
  0.00000000E+00  0.00000000E+00  0.00000000E+00
  0.00000000E+00  0.00000000E+00  0.00000000E+00
  0.00000000E+00  0.00000000E+00  0.00000000E+00
  0.00000000E+00  0.00000000E+00  0.00000000E+00
  0.00000000E+00  0.00000000E+00  0.00000000E+00
  0.00000000E+00  0.00000000E+00  0.00000000E+00
  0.00000000E+00  0.00000000E+00  0.00000000E+00
  0.00000000E+00  0.00000000E+00  0.00000000E+00
  0.00000000E+00  0.00000000E+00  0.00000000E+00
  0.00000000E+00  0.00000000E+00  0.00000000E+00
  0.00000000E+00  0.00000000E+00  0.00000000E+00
  0.00000000E+00  0.00000000E+00  0.00000000E+00
  0.00000000E+00  0.00000000E+00  0.00000000E+00
