Title                                   
   1.00000000000000     
     8.5490480000000009    0.0000000000000000    0.0000000000000000
     0.0000000000000000    8.5490480000000009    0.0000000000000000
     0.0000000000000000    0.0000000000000000   20.0000000000000000
    22     2     1
Selective dynamics
Direct
  0.9099359537782865  0.2045648286603348  0.0954246432475381   T   T   T
  0.9035275692670706  0.5017995046720142  0.0952651032543710   T   T   T
  0.9099389048061627  0.7990081034695037  0.0954416131649384   T   T   T
  0.1974041942376084  0.0835807748720228  0.0954635307921042   T   T   T
  0.0749322188297670  0.2062664996175266  0.0954464005149025   T   T   T
  0.1974052791482651  0.9200049237416198  0.0954735879668159   T   T   T
  0.1547089332611696  0.6485925940873400  0.0954009826629797   T   T   T
  0.0729876825969403  0.5018068540592656  0.0953375540428804   T   T   T
  0.1546873778886468  0.3550103570617612  0.0953958873555370   T   T   T
  0.0749443172962163  0.7973137356319241  0.0954592409618812   T   T   T
  0.4951609972126606  0.0865890295952834  0.0953672116347806   T   T   T
  0.3476111478386913  0.1666198122377112  0.0954098818234137   T   T   T
  0.4951678981288920  0.9169956182301285  0.0953651451330649   T   T   T
  0.3476190746277103  0.8369857482992142  0.0954223826536748   T   T   T
  0.7897696561046234  0.0851973637104629  0.0954434311864825   T   T   T
  0.6434440771062560  0.1658716990967753  0.0953121316861241   T   T   T
  0.7897661065515327  0.9183695615228710  0.0954474543710096   T   T   T
  0.8258479753274856  0.6504640940805219  0.0952947090290565   T   T   T
  0.8258499203212559  0.3531184518707960  0.0952688403854060   T   T   T
  0.6434467064465907  0.8376935716469142  0.0953134000888024   T   T   T
  0.3231540272241470  0.3327127040495061  0.0953657183839514   T   T   T
  0.3231728949830805  0.6708933115413797  0.0953830326432747   T   T   T
  0.6660049640301848  0.3289030120937214  0.0951634068543721   T   T   T
  0.6660013989976167  0.6746550778068020  0.0951738221689035   T   T   T
  0.4929227239891320  0.5017727683446123  0.0948658879937125   T   T   T
 
  0.00000000E+00  0.00000000E+00  0.00000000E+00
  0.00000000E+00  0.00000000E+00  0.00000000E+00
  0.00000000E+00  0.00000000E+00  0.00000000E+00
  0.00000000E+00  0.00000000E+00  0.00000000E+00
  0.00000000E+00  0.00000000E+00  0.00000000E+00
  0.00000000E+00  0.00000000E+00  0.00000000E+00
  0.00000000E+00  0.00000000E+00  0.00000000E+00
  0.00000000E+00  0.00000000E+00  0.00000000E+00
  0.00000000E+00  0.00000000E+00  0.00000000E+00
  0.00000000E+00  0.00000000E+00  0.00000000E+00
  0.00000000E+00  0.00000000E+00  0.00000000E+00
  0.00000000E+00  0.00000000E+00  0.00000000E+00
  0.00000000E+00  0.00000000E+00  0.00000000E+00
  0.00000000E+00  0.00000000E+00  0.00000000E+00
  0.00000000E+00  0.00000000E+00  0.00000000E+00
  0.00000000E+00  0.00000000E+00  0.00000000E+00
  0.00000000E+00  0.00000000E+00  0.00000000E+00
  0.00000000E+00  0.00000000E+00  0.00000000E+00
  0.00000000E+00  0.00000000E+00  0.00000000E+00
  0.00000000E+00  0.00000000E+00  0.00000000E+00
  0.00000000E+00  0.00000000E+00  0.00000000E+00
  0.00000000E+00  0.00000000E+00  0.00000000E+00
  0.00000000E+00  0.00000000E+00  0.00000000E+00
  0.00000000E+00  0.00000000E+00  0.00000000E+00
  0.00000000E+00  0.00000000E+00  0.00000000E+00
