Title                                   
   1.00000000000000     
     4.9440799999999996    0.0000000000000000    0.0000000000000000
     0.0000000000000000   17.1295089999999988    0.0000000000000000
     0.0000000000000000    0.0000000000000000   20.0000000000000000
    29     2     1
Selective dynamics
Direct
  0.0017508329527016  0.1043496551177676  0.2907164959349903   T   T   T
  0.2518228273353251  0.1459855064042106  0.2947851637046301   T   T   T
  0.2515957260596271  0.2286294117558197  0.3050132234808512   T   T   T
  0.0059565847482359  0.3501648404249887  0.3245797492224778   T   T   T
  0.0001184777251960  0.2698474679345251  0.3092473772554039   T   T   T
 -0.0000665233603480  0.6019734486294825  0.2927474757779268   T   T   T
  0.2524770579510472  0.7279302832945559  0.2871705621669062   T   T   T
  0.0026988481866982  0.8537514799131667  0.2818836777471835   T   T   T
  0.2523052611675821  0.8957823789490408  0.2826216406058452   T   T   T
  0.2520755760969356  0.9792822709942384  0.2843890815903927   T   T   T
  0.0029968492199986  0.7702275965996774  0.2831825375795451   T   T   T
  0.5017306501645113  0.1042801799437742  0.2908848470001196   T   T   T
  0.7515137908797496  0.1461870120423310  0.2936738533306962   T   T   T
  0.7510371027616592  0.2285618944600679  0.3019449997786205   T   T   T
  0.5022131146358372  0.0210377387825005  0.2858891216612847   T   T   T
  0.4956096094745659  0.3506340482390521  0.3260133750389794   T   T   T
  0.7495407625936078  0.4794892668515930  0.3111774015412336   T   T   T
  0.5024070424772549  0.2701147637796808  0.3100192665039003   T   T   T
  0.5080173483786049  0.6040652483581195  0.3012743658292411   T   T   T
  0.7523384835419330  0.7288808708401784  0.2844386898337268   T   T   T
  0.5020274995334281  0.8538310232138058  0.2825043651978029   T   T   T
  0.7523571398092527  0.8956257148578117  0.2820153182100222   T   T   T
  0.7521577063774439  0.9791254957673156  0.2838566545434587   T   T   T
  0.5018369854586940  0.7703365203396467  0.2844937393599574   T   T   T
  0.7526399690645660  0.6458815220187396  0.2897560659738962   T   T   T
  0.2536144565116762  0.6445593534473927  0.2950534632051165   T   T   T
  0.0018946737542884  0.0211124152363019  0.2857371105350373   T   T   T
  0.5165695713795030  0.5238676247706883  0.3226080273982114   T   T   T
  0.9906247945619031  0.5185947773086638  0.2958998011138713   T   T   T
  0.2502516484595804  0.3856610246366770  0.3399283775115740   T   T   T
  0.7517157000321814  0.3946724521093323  0.3271045963345517   T   T   T
  0.1829934320667671  0.5041077129788469  0.3919545750324946   T   T   T
 
  0.00000000E+00  0.00000000E+00  0.00000000E+00
  0.00000000E+00  0.00000000E+00  0.00000000E+00
  0.00000000E+00  0.00000000E+00  0.00000000E+00
  0.00000000E+00  0.00000000E+00  0.00000000E+00
  0.00000000E+00  0.00000000E+00  0.00000000E+00
  0.00000000E+00  0.00000000E+00  0.00000000E+00
  0.00000000E+00  0.00000000E+00  0.00000000E+00
  0.00000000E+00  0.00000000E+00  0.00000000E+00
  0.00000000E+00  0.00000000E+00  0.00000000E+00
  0.00000000E+00  0.00000000E+00  0.00000000E+00
  0.00000000E+00  0.00000000E+00  0.00000000E+00
  0.00000000E+00  0.00000000E+00  0.00000000E+00
  0.00000000E+00  0.00000000E+00  0.00000000E+00
  0.00000000E+00  0.00000000E+00  0.00000000E+00
  0.00000000E+00  0.00000000E+00  0.00000000E+00
  0.00000000E+00  0.00000000E+00  0.00000000E+00
  0.00000000E+00  0.00000000E+00  0.00000000E+00
  0.00000000E+00  0.00000000E+00  0.00000000E+00
  0.00000000E+00  0.00000000E+00  0.00000000E+00
  0.00000000E+00  0.00000000E+00  0.00000000E+00
  0.00000000E+00  0.00000000E+00  0.00000000E+00
  0.00000000E+00  0.00000000E+00  0.00000000E+00
  0.00000000E+00  0.00000000E+00  0.00000000E+00
  0.00000000E+00  0.00000000E+00  0.00000000E+00
  0.00000000E+00  0.00000000E+00  0.00000000E+00
  0.00000000E+00  0.00000000E+00  0.00000000E+00
  0.00000000E+00  0.00000000E+00  0.00000000E+00
  0.00000000E+00  0.00000000E+00  0.00000000E+00
  0.00000000E+00  0.00000000E+00  0.00000000E+00
  0.00000000E+00  0.00000000E+00  0.00000000E+00
  0.00000000E+00  0.00000000E+00  0.00000000E+00
  0.00000000E+00  0.00000000E+00  0.00000000E+00
