Title                                   
   1.00000000000000     
     8.5490480000000009    0.0000000000000000    0.0000000000000000
     0.0000000000000000    8.5490480000000009    0.0000000000000000
     0.0000000000000000    0.0000000000000000   20.0000000000000000
    19     5     1
Selective dynamics
Direct
  0.9080738111192845  0.2055623879562543  0.0942118903625963   T   T   T
  0.9111331147706221  0.8012779796621202  0.0939816470792579   T   T   T
  0.1963301125647796  0.0833514848711975  0.0938625675261174   T   T   T
  0.0767344387280379  0.2006596051185750  0.0943069352871155   T   T   T
  0.1551210070435018  0.6499764225336497  0.0963785871302032   T   T   T
  0.0735558917887358  0.5000070254954749  0.0970371482015109   T   T   T
  0.1550494907705073  0.3526734192212692  0.0974262436223408   T   T   T
  0.0793119409225887  0.7996197482682015  0.0937339369360166   T   T   T
  0.3463411681927822  0.1646810866307607  0.0967092537200283   T   T   T
  0.4942274014740388  0.9192727083711802  0.0968220794423001   T   T   T
  0.3447374848146720  0.8383734360277115  0.0965511763122104   T   T   T
  0.7880540771388265  0.0866832908035206  0.0942676516932753   T   T   T
  0.6415911664985496  0.1666363250494191  0.0962394285633465   T   T   T
  0.7903400342287402  0.9187146572939322  0.0944461735919789   T   T   T
  0.8296850866008676  0.6525410919038798  0.0961943958913961   T   T   T
  0.8269752202200396  0.3520241528865399  0.0961504987996754   T   T   T
  0.6432814725150584  0.8384045393961496  0.0968179206733023   T   T   T
  0.3236297060826709  0.3289458436565970  0.1003465853649737   T   T   T
  0.3215082107076835  0.6747881184035557  0.0986841891314796   T   T   T
  0.4950759287490676  0.0863980925420132  0.0964908370000618   T   T   T
  0.9045653718233857  0.5020113784086688  0.0963153439871249   T   T   T
  0.6644254103215912  0.3285645111293445  0.0983423698772673   T   T   T
  0.6695832297688090  0.6747328471195996  0.0989087076859362   T   T   T
  0.1958123854331629  0.9163234084134361  0.0935337986992451   T   T   T
  0.4902688377219896  0.5025664388369691  0.1359456334212123   T   T   T
 
  0.00000000E+00  0.00000000E+00  0.00000000E+00
  0.00000000E+00  0.00000000E+00  0.00000000E+00
  0.00000000E+00  0.00000000E+00  0.00000000E+00
  0.00000000E+00  0.00000000E+00  0.00000000E+00
  0.00000000E+00  0.00000000E+00  0.00000000E+00
  0.00000000E+00  0.00000000E+00  0.00000000E+00
  0.00000000E+00  0.00000000E+00  0.00000000E+00
  0.00000000E+00  0.00000000E+00  0.00000000E+00
  0.00000000E+00  0.00000000E+00  0.00000000E+00
  0.00000000E+00  0.00000000E+00  0.00000000E+00
  0.00000000E+00  0.00000000E+00  0.00000000E+00
  0.00000000E+00  0.00000000E+00  0.00000000E+00
  0.00000000E+00  0.00000000E+00  0.00000000E+00
  0.00000000E+00  0.00000000E+00  0.00000000E+00
  0.00000000E+00  0.00000000E+00  0.00000000E+00
  0.00000000E+00  0.00000000E+00  0.00000000E+00
  0.00000000E+00  0.00000000E+00  0.00000000E+00
  0.00000000E+00  0.00000000E+00  0.00000000E+00
  0.00000000E+00  0.00000000E+00  0.00000000E+00
  0.00000000E+00  0.00000000E+00  0.00000000E+00
  0.00000000E+00  0.00000000E+00  0.00000000E+00
  0.00000000E+00  0.00000000E+00  0.00000000E+00
  0.00000000E+00  0.00000000E+00  0.00000000E+00
  0.00000000E+00  0.00000000E+00  0.00000000E+00
  0.00000000E+00  0.00000000E+00  0.00000000E+00
