Title                                   
   1.00000000000000     
     4.9440799999999996    0.0000000000000000    0.0000000000000000
     0.0000000000000000   17.1295089999999988    0.0000000000000000
     0.0000000000000000    0.0000000000000000   20.0000000000000000
    30     1     1
Selective dynamics
Direct
  0.0003922767495569  0.1047319190552735  0.2847848262056120   T   T   T
  0.2499102056718497  0.1466492952561844  0.2894625413756045   T   T   T
  0.2498958745636443  0.2293186271833651  0.3011940631636442   T   T   T
  0.0003540714501911  0.3506050108670642  0.3252967453774553   T   T   T
 -0.0021405657793288  0.2702561906385936  0.3069970626180244   T   T   T
 -0.0036467873337509  0.6046282399699704  0.3057342677092335   T   T   T
  0.2498648424119136  0.7281672467085082  0.2875201296135753   T   T   T
  0.0002560750268156  0.8538350836863166  0.2782010246828372   T   T   T
  0.2498916212704721  0.8958358262134609  0.2773458133787469   T   T   T
  0.2499059586865136  0.9794543875791651  0.2778182134827113   T   T   T
  0.0003313125323618  0.7703084447993089  0.2828322514139646   T   T   T
  0.4994089176881585  0.1047286035952929  0.2847840537254500   T   T   T
  0.7499115304167047  0.1463262699174193  0.2883461835670988   T   T   T
  0.7498985773210975  0.2286316481290805  0.2985500659423174   T   T   T
  0.4996554902098680  0.0213998126308554  0.2791970177529950   T   T   T
  0.4994143853472656  0.3506030570751842  0.3252845484961515   T   T   T
  0.7499323372083037  0.4776265670210061  0.3235387903124129   T   T   T
  0.5019130410299090  0.2702639812861672  0.3069885284967295   T   T   T
  0.5033771248100229  0.6046071401300606  0.3056756978225881   T   T   T
  0.7498682516085001  0.7290065738249319  0.2856966099245928   T   T   T
  0.4995401051910912  0.8538432344554560  0.2781964587381335   T   T   T
  0.7499048436715836  0.8957526111520739  0.2770661015703633   T   T   T
  0.7499128624674776  0.9794322028730365  0.2775652088780653   T   T   T
  0.4994057340017626  0.7703129313102625  0.2828278976027191   T   T   T
  0.7498706371891902  0.6462999472656302  0.2956983186749651   T   T   T
  0.2498554497311583  0.6454593682960320  0.3001634595669381   T   T   T
  0.0001561249232427  0.0214054847741032  0.2792002838645074   T   T   T
  0.5114947035706424  0.5237320587468366  0.3248472350709876   T   T   T
  0.9882522859256778  0.5237775510003265  0.3250104689849402   T   T   T
  0.2498851851736664  0.3867977177592213  0.3436912509085903   T   T   T
  0.7498868570127339  0.3934580940230962  0.3275580948392613   T   T   T
  0.2502636702517116  0.4912958727767078  0.3954917862387352   T   T   T
 
  0.00000000E+00  0.00000000E+00  0.00000000E+00
  0.00000000E+00  0.00000000E+00  0.00000000E+00
  0.00000000E+00  0.00000000E+00  0.00000000E+00
  0.00000000E+00  0.00000000E+00  0.00000000E+00
  0.00000000E+00  0.00000000E+00  0.00000000E+00
  0.00000000E+00  0.00000000E+00  0.00000000E+00
  0.00000000E+00  0.00000000E+00  0.00000000E+00
  0.00000000E+00  0.00000000E+00  0.00000000E+00
  0.00000000E+00  0.00000000E+00  0.00000000E+00
  0.00000000E+00  0.00000000E+00  0.00000000E+00
  0.00000000E+00  0.00000000E+00  0.00000000E+00
  0.00000000E+00  0.00000000E+00  0.00000000E+00
  0.00000000E+00  0.00000000E+00  0.00000000E+00
  0.00000000E+00  0.00000000E+00  0.00000000E+00
  0.00000000E+00  0.00000000E+00  0.00000000E+00
  0.00000000E+00  0.00000000E+00  0.00000000E+00
  0.00000000E+00  0.00000000E+00  0.00000000E+00
  0.00000000E+00  0.00000000E+00  0.00000000E+00
  0.00000000E+00  0.00000000E+00  0.00000000E+00
  0.00000000E+00  0.00000000E+00  0.00000000E+00
  0.00000000E+00  0.00000000E+00  0.00000000E+00
  0.00000000E+00  0.00000000E+00  0.00000000E+00
  0.00000000E+00  0.00000000E+00  0.00000000E+00
  0.00000000E+00  0.00000000E+00  0.00000000E+00
  0.00000000E+00  0.00000000E+00  0.00000000E+00
  0.00000000E+00  0.00000000E+00  0.00000000E+00
  0.00000000E+00  0.00000000E+00  0.00000000E+00
  0.00000000E+00  0.00000000E+00  0.00000000E+00
  0.00000000E+00  0.00000000E+00  0.00000000E+00
  0.00000000E+00  0.00000000E+00  0.00000000E+00
  0.00000000E+00  0.00000000E+00  0.00000000E+00
  0.00000000E+00  0.00000000E+00  0.00000000E+00
