Title                                   
   1.00000000000000     
     4.9440799999999996    0.0000000000000000    0.0000000000000000
     0.0000000000000000    8.5647549999999999    0.0000000000000000
     0.0000000000000000    0.0000000000000000   20.0000000000000000
    12     3     1
Selective dynamics
Direct
 -0.0138116124129506  0.2942450221990807  0.0872641420922680   T   T   T
  0.2450126855558151  0.0460924411091679  0.0905449368774115   T   T   T
  0.0057108321940007  0.7928423201701260  0.0965282823310096   T   T   T
 -0.0023868011858723  0.9611588551766989  0.0893216311964778   T   T   T
  0.7410411924714627  0.2071172727328858  0.0881956229427786   T   T   T
  0.4935862509645769  0.2914667967836869  0.0986259961144048   T   T   T
  0.7457059842107037  0.0413850054322786  0.0872194765644788   T   T   T
  0.7534744247077994  0.7054265914577317  0.0981247013861983   T   T   T
  0.4967150744703530  0.7933619259618500  0.0979014387692562   T   T   T
  0.7543379770390009  0.5311199565547651  0.0993454627450621   T   T   T
  0.4961117711159035  0.9610862568958469  0.0909611257400068   T   T   T
  0.5202306499754534  0.4469883313697972  0.1217935226962297   T   T   T
 -0.0168160103721065  0.4495862190387541  0.0822967873804559   T   T   T
  0.2519971902951488  0.7201556274292983  0.1062250490077847   T   T   T
  0.2413366403976825  0.2108552303416139  0.0923268482362825   T   T   T
  0.2877537505730288  0.5471121473464184  0.1858369759199039   T   T   T
 
  0.00000000E+00  0.00000000E+00  0.00000000E+00
  0.00000000E+00  0.00000000E+00  0.00000000E+00
  0.00000000E+00  0.00000000E+00  0.00000000E+00
  0.00000000E+00  0.00000000E+00  0.00000000E+00
  0.00000000E+00  0.00000000E+00  0.00000000E+00
  0.00000000E+00  0.00000000E+00  0.00000000E+00
  0.00000000E+00  0.00000000E+00  0.00000000E+00
  0.00000000E+00  0.00000000E+00  0.00000000E+00
  0.00000000E+00  0.00000000E+00  0.00000000E+00
  0.00000000E+00  0.00000000E+00  0.00000000E+00
  0.00000000E+00  0.00000000E+00  0.00000000E+00
  0.00000000E+00  0.00000000E+00  0.00000000E+00
  0.00000000E+00  0.00000000E+00  0.00000000E+00
  0.00000000E+00  0.00000000E+00  0.00000000E+00
  0.00000000E+00  0.00000000E+00  0.00000000E+00
  0.00000000E+00  0.00000000E+00  0.00000000E+00
