Title                                   
   1.00000000000000     
     8.5490480000000009    0.0000000000000000    0.0000000000000000
     0.0000000000000000    8.5490480000000009    0.0000000000000000
     0.0000000000000000    0.0000000000000000   20.0000000000000000
    19     5     1
Selective dynamics
Direct
  0.9086099331472565  0.2073222517275240  0.0976644149174723   T   T   T
  0.9105153978686666  0.8003620786815300  0.0975294994800942   T   T   T
  0.1980900347315870  0.0850302548006073  0.0977851430730195   T   T   T
  0.0765295493644836  0.2034751738045815  0.0977408829916659   T   T   T
  0.1562371140821189  0.6509992197056467  0.0977801766015237   T   T   T
  0.0748130997389163  0.5017649682757116  0.0977657052111280   T   T   T
  0.1575584231262077  0.3562709731297076  0.0977520129882338   T   T   T
  0.0788846268305146  0.7986465089586851  0.0976608116866622   T   T   T
  0.4943507526012129  0.0851585572304702  0.0977699051736536   T   T   T
  0.3474039864835751  0.1668091343020354  0.0978056814676388   T   T   T
  0.4936560527759329  0.9137069236455474  0.0977384878817269   T   T   T
  0.3442462715651612  0.8325806129500464  0.0978532205159995   T   T   T
  0.7881992542055404  0.0876262483776262  0.0975885133021658   T   T   T
  0.6411915040375082  0.1682714745805282  0.0977776065871546   T   T   T
  0.7889043787963903  0.9182775088850962  0.0975085706013874   T   T   T
  0.8278147942873697  0.6510500211081351  0.0976445496846020   T   T   T
  0.8248991923034774  0.3556218252003392  0.0977738969965608   T   T   T
  0.6425273218975194  0.8334145380897020  0.0976767006046730   T   T   T
  0.3263841449671870  0.3357119546709982  0.0977844132877284   T   T   T
  0.9049885673369581  0.5031614736667455  0.0978145007153526   T   T   T
  0.3195662877009511  0.6726047941464999  0.0978944084835358   T   T   T
  0.6626909817885989  0.3338693560300016  0.0979363154491132   T   T   T
  0.6674612710503025  0.6699382353684524  0.0977850626386252   T   T   T
  0.1985713961888642  0.9155165575644185  0.0978001651977421   T   T   T
  0.4913176631236929  0.4975993550993840  0.0978743544625137   T   T   T
 
  0.00000000E+00  0.00000000E+00  0.00000000E+00
  0.00000000E+00  0.00000000E+00  0.00000000E+00
  0.00000000E+00  0.00000000E+00  0.00000000E+00
  0.00000000E+00  0.00000000E+00  0.00000000E+00
  0.00000000E+00  0.00000000E+00  0.00000000E+00
  0.00000000E+00  0.00000000E+00  0.00000000E+00
  0.00000000E+00  0.00000000E+00  0.00000000E+00
  0.00000000E+00  0.00000000E+00  0.00000000E+00
  0.00000000E+00  0.00000000E+00  0.00000000E+00
  0.00000000E+00  0.00000000E+00  0.00000000E+00
  0.00000000E+00  0.00000000E+00  0.00000000E+00
  0.00000000E+00  0.00000000E+00  0.00000000E+00
  0.00000000E+00  0.00000000E+00  0.00000000E+00
  0.00000000E+00  0.00000000E+00  0.00000000E+00
  0.00000000E+00  0.00000000E+00  0.00000000E+00
  0.00000000E+00  0.00000000E+00  0.00000000E+00
  0.00000000E+00  0.00000000E+00  0.00000000E+00
  0.00000000E+00  0.00000000E+00  0.00000000E+00
  0.00000000E+00  0.00000000E+00  0.00000000E+00
  0.00000000E+00  0.00000000E+00  0.00000000E+00
  0.00000000E+00  0.00000000E+00  0.00000000E+00
  0.00000000E+00  0.00000000E+00  0.00000000E+00
  0.00000000E+00  0.00000000E+00  0.00000000E+00
  0.00000000E+00  0.00000000E+00  0.00000000E+00
  0.00000000E+00  0.00000000E+00  0.00000000E+00
