Title                                   
   1.00000000000000     
     4.9440799999999996    0.0000000000000000    0.0000000000000000
     0.0000000000000000    8.5647549999999999    0.0000000000000000
     0.0000000000000000    0.0000000000000000   20.0000000000000000
    11     3     1
Selective dynamics
Direct
  0.0006011421792211  0.2918858141168712  0.1001801151939242   T   T   T
  0.2500000000000000  0.0381288705160660  0.1004906950562190   T   T   T
 -0.0024845341354537  0.9570742931447271  0.1003496872976267   T   T   T
  0.7500000000000000  0.2073220074273693  0.0998106520229598   T   T   T
  0.4993988578207788  0.2918858141168712  0.1001801151939242   T   T   T
  0.7500000000000000  0.0407355496471151  0.0999589860127720   T   T   T
  0.7500000000000000  0.7175454955790909  0.1001142685440626   T   T   T
  0.7500000000000000  0.5397502302550884  0.0999342851244034   T   T   T
  0.5024845341354536  0.9570742931447271  0.1003496872976267   T   T   T
  0.5027471142901042  0.4567623107543770  0.1005061558592858   T   T   T
 -0.0027471142901040  0.4567623107543770  0.1005061558592858   T   T   T
 -0.0125008045918397  0.7940178190395467  0.1005457707482956   T   T   T
  0.5125008045918397  0.7940178190395467  0.1005457707482956   T   T   T
  0.2500000000000000  0.2068789088745930  0.1004421000784690   T   T   T
  0.2500000000000000  0.6218394635896352  0.1040655549628531   T   T   T
 
  0.00000000E+00  0.00000000E+00  0.00000000E+00
  0.00000000E+00  0.00000000E+00  0.00000000E+00
  0.00000000E+00  0.00000000E+00  0.00000000E+00
  0.00000000E+00  0.00000000E+00  0.00000000E+00
  0.00000000E+00  0.00000000E+00  0.00000000E+00
  0.00000000E+00  0.00000000E+00  0.00000000E+00
  0.00000000E+00  0.00000000E+00  0.00000000E+00
  0.00000000E+00  0.00000000E+00  0.00000000E+00
  0.00000000E+00  0.00000000E+00  0.00000000E+00
  0.00000000E+00  0.00000000E+00  0.00000000E+00
  0.00000000E+00  0.00000000E+00  0.00000000E+00
  0.00000000E+00  0.00000000E+00  0.00000000E+00
  0.00000000E+00  0.00000000E+00  0.00000000E+00
  0.00000000E+00  0.00000000E+00  0.00000000E+00
  0.00000000E+00  0.00000000E+00  0.00000000E+00
