Title                                   
   1.00000000000000     
     9.8694509999999998    0.0000000000000000    0.0000000000000000
     0.0000000000000000    8.5490480000000009    0.0000000000000000
     0.0000000000000000    0.0000000000000000   20.0000000000000000
    27     4     1
Selective dynamics
Direct
  0.0563700345110710  0.0919777622840048  0.0850813930988421   T   T   T
  0.9308847191779756  0.1748417038939144  0.0867581225676132   T   T   T
  0.0562747079813410  0.9243430965104673  0.0864617759711318   T   T   T
  0.9297307104287040  0.3417445070439333  0.0910521275795788   T   T   T
  0.0562145232792118  0.5897134635908267  0.0907855977274091   T   T   T
  0.9315564327237890  0.6733072288423302  0.0930156216635396   T   T   T
  0.0563194910637066  0.4231979240722942  0.0908483473445258   T   T   T
  0.9316825453350596  0.8404526114961016  0.0896737286190854   T   T   T
  0.3054005233877081  0.0897574315938153  0.0849156362697570   T   T   T
  0.1818722330775584  0.1749287655696989  0.0859736511209876   T   T   T
  0.3062930599058460  0.9240907823434980  0.0866105746858250   T   T   T
  0.1829762116527325  0.3417547424101720  0.0901748526310308   T   T   T
  0.3057380472546875  0.5936788076351839  0.0989908580916821   T   T   T
  0.1807937070273212  0.6734119739588293  0.0915237989837295   T   T   T
  0.3108373549963757  0.4248600578800631  0.0964445289829665   T   T   T
  0.1810236535295106  0.8404971912127476  0.0883183039641385   T   T   T
  0.5564848903920542  0.0842461538941500  0.0922570549477651   T   T   T
  0.4316084023876025  0.1680635766777257  0.0901283730568008   T   T   T
  0.4329436782320719  0.3323358968296635  0.0980684927008298   T   T   T
  0.4288153927838922  0.8403156444994779  0.0944096657118016   T   T   T
  0.8074342368676640  0.0895285990330810  0.0861275658016851   T   T   T
  0.6812773118832595  0.1681084806101523  0.0908509703149080   T   T   T
  0.8063868304032744  0.9238461203532086  0.0882944164055874   T   T   T
  0.6800516850756734  0.3324074492600044  0.0988874703633669   T   T   T
  0.8069085905822287  0.5936016525522265  0.1014071654712047   T   T   T
  0.8019947177991674  0.4248571409650155  0.0979445276220881   T   T   T
  0.6839207925199863  0.8399942693317585  0.0963052355533586   T   T   T
  0.4224301718497677  0.6846928621206966  0.1114168855755513   T   T   T
  0.5562674173562687  0.4019276118197353  0.1144363449349852   T   T   T
  0.6902442013850592  0.6847924570119609  0.1148496496422696   T   T   T
  0.5564905147582284  0.9173224679079408  0.0946362604859449   T   T   T
  0.5524122103912097  0.5816475667953223  0.1790260021100265   T   T   T
 
  0.00000000E+00  0.00000000E+00  0.00000000E+00
  0.00000000E+00  0.00000000E+00  0.00000000E+00
  0.00000000E+00  0.00000000E+00  0.00000000E+00
  0.00000000E+00  0.00000000E+00  0.00000000E+00
  0.00000000E+00  0.00000000E+00  0.00000000E+00
  0.00000000E+00  0.00000000E+00  0.00000000E+00
  0.00000000E+00  0.00000000E+00  0.00000000E+00
  0.00000000E+00  0.00000000E+00  0.00000000E+00
  0.00000000E+00  0.00000000E+00  0.00000000E+00
  0.00000000E+00  0.00000000E+00  0.00000000E+00
  0.00000000E+00  0.00000000E+00  0.00000000E+00
  0.00000000E+00  0.00000000E+00  0.00000000E+00
  0.00000000E+00  0.00000000E+00  0.00000000E+00
  0.00000000E+00  0.00000000E+00  0.00000000E+00
  0.00000000E+00  0.00000000E+00  0.00000000E+00
  0.00000000E+00  0.00000000E+00  0.00000000E+00
  0.00000000E+00  0.00000000E+00  0.00000000E+00
  0.00000000E+00  0.00000000E+00  0.00000000E+00
  0.00000000E+00  0.00000000E+00  0.00000000E+00
  0.00000000E+00  0.00000000E+00  0.00000000E+00
  0.00000000E+00  0.00000000E+00  0.00000000E+00
  0.00000000E+00  0.00000000E+00  0.00000000E+00
  0.00000000E+00  0.00000000E+00  0.00000000E+00
  0.00000000E+00  0.00000000E+00  0.00000000E+00
  0.00000000E+00  0.00000000E+00  0.00000000E+00
  0.00000000E+00  0.00000000E+00  0.00000000E+00
  0.00000000E+00  0.00000000E+00  0.00000000E+00
  0.00000000E+00  0.00000000E+00  0.00000000E+00
  0.00000000E+00  0.00000000E+00  0.00000000E+00
  0.00000000E+00  0.00000000E+00  0.00000000E+00
  0.00000000E+00  0.00000000E+00  0.00000000E+00
  0.00000000E+00  0.00000000E+00  0.00000000E+00
