Title                                   
   1.00000000000000     
     4.9440799999999996    0.0000000000000000    0.0000000000000000
     0.0000000000000000    8.5647549999999999    0.0000000000000000
     0.0000000000000000    0.0000000000000000   20.0000000000000000
    14     1     1
Selective dynamics
Direct
 -0.0005345637276869  0.2891515712689738  0.0930744648023305   T   T   T
  0.2500000000000000  0.0435980113761932  0.0857073334357661   T   T   T
 -0.0003165071581374  0.7955625127696194  0.0983438329412387   T   T   T
 -0.0004891282559269  0.9604932042720123  0.0857579159296041   T   T   T
  0.7500000000000000  0.2070048081356469  0.0838627997856223   T   T   T
  0.5005345637276872  0.2891515712689738  0.0930744648023305   T   T   T
  0.7500000000000000  0.0418889525282736  0.0812452509486145   T   T   T
  0.7500000000000000  0.7088587309547620  0.1023513101868578   T   T   T
  0.5003165071581372  0.7955625127696194  0.0983438329412387   T   T   T
  0.7500000000000000  0.5393637714402902  0.1064709775529728   T   T   T
  0.5004891282559268  0.9604932042720123  0.0857579159296041   T   T   T
  0.5101344552322452  0.4478298728198943  0.1129676924917357   T   T   T
 -0.0101344552322450  0.4478298728198943  0.1129676924917357   T   T   T
  0.2500000000000000  0.7244640280272566  0.1140952660178717   T   T   T
  0.2500000000000000  0.2071738511502720  0.0896352835646080   T   T   T
  0.2500000000000000  0.5415735241263051  0.1688559661778785   T   T   T
 
  0.00000000E+00  0.00000000E+00  0.00000000E+00
  0.00000000E+00  0.00000000E+00  0.00000000E+00
  0.00000000E+00  0.00000000E+00  0.00000000E+00
  0.00000000E+00  0.00000000E+00  0.00000000E+00
  0.00000000E+00  0.00000000E+00  0.00000000E+00
  0.00000000E+00  0.00000000E+00  0.00000000E+00
  0.00000000E+00  0.00000000E+00  0.00000000E+00
  0.00000000E+00  0.00000000E+00  0.00000000E+00
  0.00000000E+00  0.00000000E+00  0.00000000E+00
  0.00000000E+00  0.00000000E+00  0.00000000E+00
  0.00000000E+00  0.00000000E+00  0.00000000E+00
  0.00000000E+00  0.00000000E+00  0.00000000E+00
  0.00000000E+00  0.00000000E+00  0.00000000E+00
  0.00000000E+00  0.00000000E+00  0.00000000E+00
  0.00000000E+00  0.00000000E+00  0.00000000E+00
  0.00000000E+00  0.00000000E+00  0.00000000E+00
