Title                                   
   1.00000000000000     
     4.9440799999999996    0.0000000000000000    0.0000000000000000
     0.0000000000000000    8.5647549999999999    0.0000000000000000
     0.0000000000000000    0.0000000000000000   20.0000000000000000
    13     2     1
Selective dynamics
Direct
  0.2498014263027858  0.2089366026776532  0.0901811972286071   T   T   T
 -0.0047720062751826  0.2901645100281269  0.0911408037746270   T   T   T
  0.2515506391082425  0.0430218931460922  0.0849431775897535   T   T   T
  0.0059625140516507  0.7968601526254210  0.0980590710024665   T   T   T
  0.0016063256853981  0.9590589572746496  0.0842053937756758   T   T   T
  0.7485376913191878  0.2069472248203330  0.0841398158542016   T   T   T
  0.5024849461946393  0.2896379105449983  0.0964658742253503   T   T   T
  0.7514880780471385  0.0412319488506073  0.0803769679359238   T   T   T
  0.7564771390217859  0.7063772960395237  0.1041553299914810   T   T   T
  0.5033247768039920  0.7959939035065376  0.0997744179976783   T   T   T
  0.7526870679344512  0.5353815600100499  0.1095257654811449   T   T   T
  0.5030227640431630  0.9588029758494909  0.0857666959512315   T   T   T
  0.5139182227109397  0.4463235980784759  0.1200203166984455   T   T   T
 -0.0102614693217738  0.4482548607321604  0.1026722572110931   T   T   T
  0.2544065418179560  0.7295271973287795  0.1144881977815174   T   T   T
  0.2197653425556264  0.5434794084871016  0.1765967175008103   T   T   T
 
  0.00000000E+00  0.00000000E+00  0.00000000E+00
  0.00000000E+00  0.00000000E+00  0.00000000E+00
  0.00000000E+00  0.00000000E+00  0.00000000E+00
  0.00000000E+00  0.00000000E+00  0.00000000E+00
  0.00000000E+00  0.00000000E+00  0.00000000E+00
  0.00000000E+00  0.00000000E+00  0.00000000E+00
  0.00000000E+00  0.00000000E+00  0.00000000E+00
  0.00000000E+00  0.00000000E+00  0.00000000E+00
  0.00000000E+00  0.00000000E+00  0.00000000E+00
  0.00000000E+00  0.00000000E+00  0.00000000E+00
  0.00000000E+00  0.00000000E+00  0.00000000E+00
  0.00000000E+00  0.00000000E+00  0.00000000E+00
  0.00000000E+00  0.00000000E+00  0.00000000E+00
  0.00000000E+00  0.00000000E+00  0.00000000E+00
  0.00000000E+00  0.00000000E+00  0.00000000E+00
  0.00000000E+00  0.00000000E+00  0.00000000E+00
