Title                                   
   1.00000000000000     
     8.5490480000000009    0.0000000000000000    0.0000000000000000
     0.0000000000000000    8.5490480000000009    0.0000000000000000
     0.0000000000000000    0.0000000000000000   20.0000000000000000
    22     2     1
Selective dynamics
Direct
  0.9094624253668722  0.2075631178286860  0.0978734330312993   T   T   T
  0.9059505816191351  0.5039506360244763  0.0979045081091098   T   T   T
  0.9120082008003387  0.8022452691334129  0.0978411766550391   T   T   T
  0.1994775792982287  0.0822131898967683  0.0980685138772773   T   T   T
  0.0742582744870125  0.2049967094986809  0.0979997487203264   T   T   T
  0.1586182920518982  0.6489815623899627  0.0979021091046762   T   T   T
  0.0752521618557860  0.5025302752213895  0.0979099671174982   T   T   T
  0.1581866759360821  0.3564662893610851  0.0980003854201794   T   T   T
  0.0793539005305005  0.7982546037657564  0.0979205920323806   T   T   T
  0.4934070446889494  0.0828226853215087  0.0979706411151535   T   T   T
  0.3465094940354471  0.1640664544423347  0.0980617993824775   T   T   T
  0.4931091251684965  0.9143594530405825  0.0979912690005300   T   T   T
  0.3480005403304363  0.8317545419951213  0.0980506004937120   T   T   T
  0.7869581886147201  0.0856613166544190  0.0978138546689054   T   T   T
  0.6377536894068495  0.1662329300203945  0.0978781376841125   T   T   T
  0.7900153957054242  0.9206701822331065  0.0978314633848225   T   T   T
  0.8282657166957942  0.6535887425816393  0.0979154823469507   T   T   T
  0.8241718246989982  0.3583436388764202  0.0978760868125719   T   T   T
  0.6418852582450819  0.8345120052351842  0.0979629409995544   T   T   T
  0.3256599425347388  0.3348511781443771  0.0980146565846441   T   T   T
  0.3251986331639521  0.6668540352145209  0.0979604177676510   T   T   T
  0.6562429759828838  0.3349309382125510  0.0978847695870411   T   T   T
  0.6661496348296956  0.6747987536058888  0.0980356393289217   T   T   T
  0.1992425793785683  0.9169545215530321  0.0981113251789748   T   T   T
  0.4902738645741029  0.4971869697487140  0.0979254815961732   T   T   T
 
  0.00000000E+00  0.00000000E+00  0.00000000E+00
  0.00000000E+00  0.00000000E+00  0.00000000E+00
  0.00000000E+00  0.00000000E+00  0.00000000E+00
  0.00000000E+00  0.00000000E+00  0.00000000E+00
  0.00000000E+00  0.00000000E+00  0.00000000E+00
  0.00000000E+00  0.00000000E+00  0.00000000E+00
  0.00000000E+00  0.00000000E+00  0.00000000E+00
  0.00000000E+00  0.00000000E+00  0.00000000E+00
  0.00000000E+00  0.00000000E+00  0.00000000E+00
  0.00000000E+00  0.00000000E+00  0.00000000E+00
  0.00000000E+00  0.00000000E+00  0.00000000E+00
  0.00000000E+00  0.00000000E+00  0.00000000E+00
  0.00000000E+00  0.00000000E+00  0.00000000E+00
  0.00000000E+00  0.00000000E+00  0.00000000E+00
  0.00000000E+00  0.00000000E+00  0.00000000E+00
  0.00000000E+00  0.00000000E+00  0.00000000E+00
  0.00000000E+00  0.00000000E+00  0.00000000E+00
  0.00000000E+00  0.00000000E+00  0.00000000E+00
  0.00000000E+00  0.00000000E+00  0.00000000E+00
  0.00000000E+00  0.00000000E+00  0.00000000E+00
  0.00000000E+00  0.00000000E+00  0.00000000E+00
  0.00000000E+00  0.00000000E+00  0.00000000E+00
  0.00000000E+00  0.00000000E+00  0.00000000E+00
  0.00000000E+00  0.00000000E+00  0.00000000E+00
  0.00000000E+00  0.00000000E+00  0.00000000E+00
