Title                                   
   1.00000000000000     
     9.8694509999999998    0.0000000000000000    0.0000000000000000
     0.0000000000000000    8.5490480000000009    0.0000000000000000
     0.0000000000000000    0.0000000000000000   20.0000000000000000
    28     3     1
Selective dynamics
Direct
  0.0559574557639056  0.0908539731430325  0.0818180214502923   T   T   T
  0.9305654276963000  0.1746347018867966  0.0828941479763398   T   T   T
  0.0579718581214797  0.9240788792451547  0.0828199413198852   T   T   T
  0.9297102026290950  0.3419451792357645  0.0848190736643353   T   T   T
  0.0569044812754337  0.5901897231939111  0.0827635608218775   T   T   T
  0.9326923064291049  0.6738095189386758  0.0867799776267888   T   T   T
  0.0562712639236316  0.4229982859448984  0.0830664097726694   T   T   T
  0.9332791537959743  0.8409675326265423  0.0859626307760942   T   T   T
  0.3055821235783267  0.0876004762571414  0.0873189661712078   T   T   T
  0.1820560557260098  0.1722356395232524  0.0839129529790389   T   T   T
  0.1814444920333661  0.3388601104785655  0.0856035545077903   T   T   T
  0.3028560957085652  0.5876579335671008  0.1003336731076773   T   T   T
  0.1821052054204432  0.6728962506439212  0.0866685657708690   T   T   T
  0.3060526051249994  0.4197793332086275  0.0975428439192724   T   T   T
  0.1826125599038159  0.8405234118295259  0.0854487673317400   T   T   T
  0.5555804582637663  0.0865851779548020  0.0941193561905459   T   T   T
  0.5554856702837182  0.9206172936318346  0.0998983705872070   T   T   T
  0.4281292585952930  0.3297260623576970  0.1060072184789958   T   T   T
  0.4267030349555958  0.8410064024865510  0.1034746515913914   T   T   T
  0.8058099863475214  0.0901691510990374  0.0852619477337519   T   T   T
  0.6799816637475540  0.1721392051593228  0.0911727110702852   T   T   T
  0.8078780006680010  0.9246737828056625  0.0889163723783588   T   T   T
  0.6810710537508332  0.3360865132732397  0.1013265215014004   T   T   T
  0.8101773774749776  0.5934911950645887  0.0985684738689631   T   T   T
  0.8037893051410918  0.4251955688884980  0.0949112970228440   T   T   T
  0.6854340060565182  0.8422006248406376  0.1012021332891785   T   T   T
  0.4158695951126388  0.6808399194212993  0.1207080237316075   T   T   T
  0.5540095339247760  0.4009339322089731  0.1239183231063698   T   T   T
  0.6980667435157221  0.6836140570647460  0.1186487199469789   T   T   T
  0.3069349894229246  0.9246194272005798  0.0893024467134946   T   T   T
  0.4289146203964823  0.1672299103360574  0.0945171864698364   T   T   T
  0.5597424152121412  0.5920868264835634  0.1759681591229287   T   T   T
 
  0.00000000E+00  0.00000000E+00  0.00000000E+00
  0.00000000E+00  0.00000000E+00  0.00000000E+00
  0.00000000E+00  0.00000000E+00  0.00000000E+00
  0.00000000E+00  0.00000000E+00  0.00000000E+00
  0.00000000E+00  0.00000000E+00  0.00000000E+00
  0.00000000E+00  0.00000000E+00  0.00000000E+00
  0.00000000E+00  0.00000000E+00  0.00000000E+00
  0.00000000E+00  0.00000000E+00  0.00000000E+00
  0.00000000E+00  0.00000000E+00  0.00000000E+00
  0.00000000E+00  0.00000000E+00  0.00000000E+00
  0.00000000E+00  0.00000000E+00  0.00000000E+00
  0.00000000E+00  0.00000000E+00  0.00000000E+00
  0.00000000E+00  0.00000000E+00  0.00000000E+00
  0.00000000E+00  0.00000000E+00  0.00000000E+00
  0.00000000E+00  0.00000000E+00  0.00000000E+00
  0.00000000E+00  0.00000000E+00  0.00000000E+00
  0.00000000E+00  0.00000000E+00  0.00000000E+00
  0.00000000E+00  0.00000000E+00  0.00000000E+00
  0.00000000E+00  0.00000000E+00  0.00000000E+00
  0.00000000E+00  0.00000000E+00  0.00000000E+00
  0.00000000E+00  0.00000000E+00  0.00000000E+00
  0.00000000E+00  0.00000000E+00  0.00000000E+00
  0.00000000E+00  0.00000000E+00  0.00000000E+00
  0.00000000E+00  0.00000000E+00  0.00000000E+00
  0.00000000E+00  0.00000000E+00  0.00000000E+00
  0.00000000E+00  0.00000000E+00  0.00000000E+00
  0.00000000E+00  0.00000000E+00  0.00000000E+00
  0.00000000E+00  0.00000000E+00  0.00000000E+00
  0.00000000E+00  0.00000000E+00  0.00000000E+00
  0.00000000E+00  0.00000000E+00  0.00000000E+00
  0.00000000E+00  0.00000000E+00  0.00000000E+00
  0.00000000E+00  0.00000000E+00  0.00000000E+00
