Title                                   
   1.00000000000000     
     4.9440799999999996    0.0000000000000000    0.0000000000000000
     0.0000000000000000    8.5647549999999999    0.0000000000000000
     0.0000000000000000    0.0000000000000000   20.0000000000000000
    11     3     1
Selective dynamics
Direct
  0.0018006223047630  0.2936388036856336  0.0986506725161227   T   T   T
  0.2498675208758418  0.0406236413699505  0.0999136214886986   T   T   T
 -0.0024720668829181  0.9542138908240748  0.1004258387604186   T   T   T
  0.7522342815330363  0.2081197429912344  0.0986437614211884   T   T   T
  0.5030862606577093  0.2961884948922163  0.1002439113385934   T   T   T
  0.7492454393222675  0.0399664364335348  0.0988075533655662   T   T   T
  0.7461741032683840  0.7117414649367579  0.1006344361796057   T   T   T
  0.7521019101758796  0.5362285777386501  0.1003866071407101   T   T   T
  0.4983175296874038  0.9579526514011426  0.0990954520293053   T   T   T
  0.5032587817997193  0.7903568290238234  0.0994327687277937   T   T   T
 -0.0033248050841382  0.4585013490482749  0.0983682656433518   T   T   T
  0.5065849726172290  0.4572603461183770  0.1028558607344562   T   T   T
 -0.0072498347374693  0.7899837660496006  0.1028473344374875   T   T   T
  0.2508453855652566  0.2109514958632234  0.0997853730548769   T   T   T
  0.2495298988970354  0.6259535096235097  0.1078885431618282   T   T   T
 
  0.00000000E+00  0.00000000E+00  0.00000000E+00
  0.00000000E+00  0.00000000E+00  0.00000000E+00
  0.00000000E+00  0.00000000E+00  0.00000000E+00
  0.00000000E+00  0.00000000E+00  0.00000000E+00
  0.00000000E+00  0.00000000E+00  0.00000000E+00
  0.00000000E+00  0.00000000E+00  0.00000000E+00
  0.00000000E+00  0.00000000E+00  0.00000000E+00
  0.00000000E+00  0.00000000E+00  0.00000000E+00
  0.00000000E+00  0.00000000E+00  0.00000000E+00
  0.00000000E+00  0.00000000E+00  0.00000000E+00
  0.00000000E+00  0.00000000E+00  0.00000000E+00
  0.00000000E+00  0.00000000E+00  0.00000000E+00
  0.00000000E+00  0.00000000E+00  0.00000000E+00
  0.00000000E+00  0.00000000E+00  0.00000000E+00
  0.00000000E+00  0.00000000E+00  0.00000000E+00
