Title                                   
   1.00000000000000     
     9.8694509999999998    0.0000000000000000    0.0000000000000000
     0.0000000000000000    8.5490480000000009    0.0000000000000000
     0.0000000000000000    0.0000000000000000   20.0000000000000000
    26     5     1
Selective dynamics
Direct
  0.0562684757210883  0.0922110623587758  0.0844261320072873   T   T   T
  0.9310674205555823  0.1745188107370068  0.0855922723803597   T   T   T
  0.0575847420453512  0.9247248828091976  0.0835908212120274   T   T   T
  0.9300923678542262  0.3421485287752837  0.0889640059982981   T   T   T
  0.0574881003909116  0.5910148591873213  0.0851664620420775   T   T   T
  0.9329438857421123  0.6738767640091523  0.0873931550735143   T   T   T
  0.0569666537429706  0.4232860473057328  0.0874290977095842   T   T   T
  0.9329441633068161  0.8405392325694078  0.0854230128427717   T   T   T
  0.3060450416669426  0.0886576744696486  0.0895955725583091   T   T   T
  0.1827382062950679  0.1740638716634197  0.0874573121428010   T   T   T
  0.1835084194407250  0.3407517764595863  0.0898263481785821   T   T   T
  0.3047914411491113  0.5916627825242158  0.0989608805223142   T   T   T
  0.1815165375296850  0.6752264011424370  0.0869609989987415   T   T   T
  0.3103910601379394  0.4232617980406636  0.0984540634921515   T   T   T
  0.1810180278578589  0.8412650454187892  0.0858272537512030   T   T   T
  0.5562994147084669  0.0838331261534661  0.0950054008941904   T   T   T
  0.5543506202504953  0.9186266489328567  0.0997164346108301   T   T   T
  0.4316123364099250  0.3305345050370593  0.1040109167797346   T   T   T
  0.4260448956151905  0.8401465566555997  0.1018996004852137   T   T   T
  0.8062002260251092  0.0894642989479264  0.0854437166749162   T   T   T
  0.6793112219731130  0.1689362931339465  0.0911923751945159   T   T   T
  0.8076754564269022  0.9240477256199877  0.0872881539669388   T   T   T
  0.6801132946547107  0.3328774369300149  0.1011344654786448   T   T   T
  0.8089781992722630  0.5932761601786042  0.0982384159058844   T   T   T
  0.8024093373150335  0.4241926686926734  0.0968492281922601   T   T   T
  0.6853863147606465  0.8399709794486157  0.0987243633042710   T   T   T
  0.4136953913565700  0.6855030870649508  0.1159986305215680   T   T   T
  0.5550760311803238  0.3950211932144231  0.1203279635683877   T   T   T
  0.6962109438180881  0.6833673456202397  0.1127841796936433   T   T   T
  0.3055876550857448  0.9258683259194754  0.0893206999120575   T   T   T
  0.4287323063656440  0.1667965427164629  0.0951193397157494   T   T   T
  0.5565908113453915  0.5905735682630624  0.1675537261911874   T   T   T
 
  0.00000000E+00  0.00000000E+00  0.00000000E+00
  0.00000000E+00  0.00000000E+00  0.00000000E+00
  0.00000000E+00  0.00000000E+00  0.00000000E+00
  0.00000000E+00  0.00000000E+00  0.00000000E+00
  0.00000000E+00  0.00000000E+00  0.00000000E+00
  0.00000000E+00  0.00000000E+00  0.00000000E+00
  0.00000000E+00  0.00000000E+00  0.00000000E+00
  0.00000000E+00  0.00000000E+00  0.00000000E+00
  0.00000000E+00  0.00000000E+00  0.00000000E+00
  0.00000000E+00  0.00000000E+00  0.00000000E+00
  0.00000000E+00  0.00000000E+00  0.00000000E+00
  0.00000000E+00  0.00000000E+00  0.00000000E+00
  0.00000000E+00  0.00000000E+00  0.00000000E+00
  0.00000000E+00  0.00000000E+00  0.00000000E+00
  0.00000000E+00  0.00000000E+00  0.00000000E+00
  0.00000000E+00  0.00000000E+00  0.00000000E+00
  0.00000000E+00  0.00000000E+00  0.00000000E+00
  0.00000000E+00  0.00000000E+00  0.00000000E+00
  0.00000000E+00  0.00000000E+00  0.00000000E+00
  0.00000000E+00  0.00000000E+00  0.00000000E+00
  0.00000000E+00  0.00000000E+00  0.00000000E+00
  0.00000000E+00  0.00000000E+00  0.00000000E+00
  0.00000000E+00  0.00000000E+00  0.00000000E+00
  0.00000000E+00  0.00000000E+00  0.00000000E+00
  0.00000000E+00  0.00000000E+00  0.00000000E+00
  0.00000000E+00  0.00000000E+00  0.00000000E+00
  0.00000000E+00  0.00000000E+00  0.00000000E+00
  0.00000000E+00  0.00000000E+00  0.00000000E+00
  0.00000000E+00  0.00000000E+00  0.00000000E+00
  0.00000000E+00  0.00000000E+00  0.00000000E+00
  0.00000000E+00  0.00000000E+00  0.00000000E+00
  0.00000000E+00  0.00000000E+00  0.00000000E+00
