Title                                   
   1.00000000000000     
     9.8694509999999998    0.0000000000000000    0.0000000000000000
     0.0000000000000000    8.5490480000000009    0.0000000000000000
     0.0000000000000000    0.0000000000000000   20.0000000000000000
    27     3     1
Selective dynamics
Direct
  0.0560239047010619  0.0903829290895422  0.0887157549860638   T   T   T
  0.9306032669020339  0.1737701164168447  0.0889013088525357   T   T   T
  0.0566804943943592  0.9233839010148510  0.0886688484517658   T   T   T
  0.9323266641140718  0.3404245622915988  0.0895485670242891   T   T   T
  0.0568618194933000  0.5896091218426429  0.0889845309390623   T   T   T
  0.9335657499404733  0.6748442454913255  0.0897511174750552   T   T   T
  0.0565436825156737  0.4230096399408841  0.0889979336429401   T   T   T
  0.9321673617195810  0.8409068672637608  0.0892825843727739   T   T   T
  0.3062794054098127  0.0888787018211778  0.0926321352718972   T   T   T
  0.1804377026267677  0.1723176435820019  0.0905375890075401   T   T   T
  0.3066938166273232  0.9216004441146237  0.0920547802052830   T   T   T
  0.1801322501610140  0.3392562037330764  0.0908843332617919   T   T   T
  0.3047733823264829  0.5894622422636250  0.0946134276675113   T   T   T
  0.1804566615612043  0.6725504216712719  0.0903901676685562   T   T   T
  0.3044335373447810  0.4208604512988399  0.0958166386566205   T   T   T
  0.1808822005786414  0.8394286323478297  0.0899506964555717   T   T   T
  0.5543989314931580  0.0894713450360975  0.0971983823327191   T   T   T
  0.4293058546338869  0.1746082884229317  0.0976915841421089   T   T   T
  0.5552682722009770  0.9183558808084153  0.0968837903684684   T   T   T
  0.4296138721211293  0.8339092544803073  0.0962454765004086   T   T   T
  0.8050877020117376  0.0901433224384490  0.0903170175058753   T   T   T
  0.6802966061044885  0.1749000484095224  0.0945559838974445   T   T   T
  0.8062767990625054  0.9232486529467272  0.0907542228391973   T   T   T
  0.6842972321441478  0.3406601401332546  0.0971055432787445   T   T   T
  0.8096365802835883  0.5939175487693054  0.0932429087495461   T   T   T
  0.8075036439309503  0.4245099672772651  0.0929060459987821   T   T   T
  0.6831524981992008  0.8365386088265363  0.0951714415914470   T   T   T
  0.4246220703717100  0.3379620548640373  0.1036476401159589   T   T   T
  0.6892317065196794  0.6751156784734975  0.0983252860655240   T   T   T
  0.4255010065124906  0.6714440779600686  0.0999332824339147   T   T   T
  0.5600803239937794  0.5054040069697014  0.1472559802406439   T   T   T
 
  0.00000000E+00  0.00000000E+00  0.00000000E+00
  0.00000000E+00  0.00000000E+00  0.00000000E+00
  0.00000000E+00  0.00000000E+00  0.00000000E+00
  0.00000000E+00  0.00000000E+00  0.00000000E+00
  0.00000000E+00  0.00000000E+00  0.00000000E+00
  0.00000000E+00  0.00000000E+00  0.00000000E+00
  0.00000000E+00  0.00000000E+00  0.00000000E+00
  0.00000000E+00  0.00000000E+00  0.00000000E+00
  0.00000000E+00  0.00000000E+00  0.00000000E+00
  0.00000000E+00  0.00000000E+00  0.00000000E+00
  0.00000000E+00  0.00000000E+00  0.00000000E+00
  0.00000000E+00  0.00000000E+00  0.00000000E+00
  0.00000000E+00  0.00000000E+00  0.00000000E+00
  0.00000000E+00  0.00000000E+00  0.00000000E+00
  0.00000000E+00  0.00000000E+00  0.00000000E+00
  0.00000000E+00  0.00000000E+00  0.00000000E+00
  0.00000000E+00  0.00000000E+00  0.00000000E+00
  0.00000000E+00  0.00000000E+00  0.00000000E+00
  0.00000000E+00  0.00000000E+00  0.00000000E+00
  0.00000000E+00  0.00000000E+00  0.00000000E+00
  0.00000000E+00  0.00000000E+00  0.00000000E+00
  0.00000000E+00  0.00000000E+00  0.00000000E+00
  0.00000000E+00  0.00000000E+00  0.00000000E+00
  0.00000000E+00  0.00000000E+00  0.00000000E+00
  0.00000000E+00  0.00000000E+00  0.00000000E+00
  0.00000000E+00  0.00000000E+00  0.00000000E+00
  0.00000000E+00  0.00000000E+00  0.00000000E+00
  0.00000000E+00  0.00000000E+00  0.00000000E+00
  0.00000000E+00  0.00000000E+00  0.00000000E+00
  0.00000000E+00  0.00000000E+00  0.00000000E+00
  0.00000000E+00  0.00000000E+00  0.00000000E+00
