Title                                   
   1.00000000000000     
     4.9440799999999996    0.0000000000000000    0.0000000000000000
     0.0000000000000000    8.5647549999999999    0.0000000000000000
     0.0000000000000000    0.0000000000000000   20.0000000000000000
    13     1     1
Selective dynamics
Direct
  0.0014680237912396  0.2929438093961832  0.0977709332425795   T   T   T
  0.2500000000000000  0.0435306737126002  0.0985171671787799   T   T   T
  0.0007682836886611  0.9578130834291433  0.0984565897144897   T   T   T
  0.7500000000000000  0.2077473790198771  0.0959612982999147   T   T   T
  0.4985319762087605  0.2929438093961832  0.0977709332425795   T   T   T
  0.7500000000000000  0.0409293424355874  0.0964051437625899   T   T   T
  0.7500000000000000  0.7099911259898368  0.0991540023357996   T   T   T
  0.7500000000000000  0.5373823532583166  0.0989157944898062   T   T   T
  0.4992317163113389  0.9578130834291433  0.0984565897144897   T   T   T
  0.4995687172794483  0.4574353504430290  0.1005577106723318   T   T   T
  0.0004312827205515  0.4574353504430290  0.1005577106723318   T   T   T
 -0.0010798373711642  0.7912002478079527  0.1015168589662386   T   T   T
  0.5010798373711647  0.7912002478079527  0.1015168589662386   T   T   T
  0.2500000000000000  0.2075021468915458  0.0981477347790512   T   T   T
  0.2500000000000000  0.6258129965396214  0.1242746739627826   T   T   T
 
  0.00000000E+00  0.00000000E+00  0.00000000E+00
  0.00000000E+00  0.00000000E+00  0.00000000E+00
  0.00000000E+00  0.00000000E+00  0.00000000E+00
  0.00000000E+00  0.00000000E+00  0.00000000E+00
  0.00000000E+00  0.00000000E+00  0.00000000E+00
  0.00000000E+00  0.00000000E+00  0.00000000E+00
  0.00000000E+00  0.00000000E+00  0.00000000E+00
  0.00000000E+00  0.00000000E+00  0.00000000E+00
  0.00000000E+00  0.00000000E+00  0.00000000E+00
  0.00000000E+00  0.00000000E+00  0.00000000E+00
  0.00000000E+00  0.00000000E+00  0.00000000E+00
  0.00000000E+00  0.00000000E+00  0.00000000E+00
  0.00000000E+00  0.00000000E+00  0.00000000E+00
  0.00000000E+00  0.00000000E+00  0.00000000E+00
  0.00000000E+00  0.00000000E+00  0.00000000E+00
