Title                                   
   1.00000000000000     
     9.8694509999999998    0.0000000000000000    0.0000000000000000
     0.0000000000000000    8.5490480000000009    0.0000000000000000
     0.0000000000000000    0.0000000000000000   20.0000000000000000
    27     4     1
Selective dynamics
Direct
  0.0560433678441016  0.0915190483232201  0.0826690948617187   T   T   T
  0.9305577912009133  0.1749404558739374  0.0831981106107048   T   T   T
  0.0579045570919922  0.9244851163775919  0.0836146920116287   T   T   T
  0.9292044110637797  0.3423347460976437  0.0850469256870579   T   T   T
  0.0571577872587191  0.5908079604164789  0.0830522348556383   T   T   T
  0.9326740345772863  0.6739333969038921  0.0868235669616384   T   T   T
  0.0563325613752454  0.4236038494232048  0.0837429188290168   T   T   T
  0.9331549301712792  0.8411633509664728  0.0863070948203179   T   T   T
  0.3056720287806480  0.0883316314500744  0.0882948720060953   T   T   T
  0.1821293922379099  0.1732620363761318  0.0846572450118119   T   T   T
  0.1822465277289113  0.3397337815431420  0.0860359088915442   T   T   T
  0.3035536399815916  0.5890511710856490  0.1008836869759238   T   T   T
  0.1823905239933072  0.6736836291279891  0.0873824973632194   T   T   T
  0.3082948068590561  0.4215249094130653  0.0963760944357185   T   T   T
  0.1824062774288758  0.8412373456663575  0.0866494263601540   T   T   T
  0.5560134364218260  0.0856262241300880  0.0943651700801636   T   T   T
  0.5549997873944006  0.9207726388680959  0.1013775330365302   T   T   T
  0.4300835134458403  0.3303793220472534  0.1024716939738573   T   T   T
  0.4263996711137501  0.8423547483707415  0.1063557994431980   T   T   T
  0.8059862144209338  0.0898681264051800  0.0850336836512294   T   T   T
  0.6796747705879889  0.1707344170768006  0.0900971588967509   T   T   T
  0.8077017115010711  0.9245333193793364  0.0890543789741080   T   T   T
  0.6798257428862022  0.3342568242142738  0.0984992337726701   T   T   T
  0.8095629324354342  0.5938925019566353  0.0976419636214139   T   T   T
  0.8017478288240070  0.4256426132658471  0.0937569379956635   T   T   T
  0.6850285588805104  0.8420969815714384  0.1014780237965879   T   T   T
  0.4151398809968684  0.6825529689102102  0.1235099057199895   T   T   T
  0.5540633235696547  0.3962313659044761  0.1203931661593984   T   T   T
  0.6971043223435315  0.6836800481444060  0.1176702712421924   T   T   T
  0.3064607304835269  0.9257383551654405  0.0910197502008817   T   T   T
  0.4290872209451340  0.1672844356345686  0.0943181647345062   T   T   T
  0.5610367161557104  0.5849886799103583  0.1738977950186865   T   T   T
 
  0.00000000E+00  0.00000000E+00  0.00000000E+00
  0.00000000E+00  0.00000000E+00  0.00000000E+00
  0.00000000E+00  0.00000000E+00  0.00000000E+00
  0.00000000E+00  0.00000000E+00  0.00000000E+00
  0.00000000E+00  0.00000000E+00  0.00000000E+00
  0.00000000E+00  0.00000000E+00  0.00000000E+00
  0.00000000E+00  0.00000000E+00  0.00000000E+00
  0.00000000E+00  0.00000000E+00  0.00000000E+00
  0.00000000E+00  0.00000000E+00  0.00000000E+00
  0.00000000E+00  0.00000000E+00  0.00000000E+00
  0.00000000E+00  0.00000000E+00  0.00000000E+00
  0.00000000E+00  0.00000000E+00  0.00000000E+00
  0.00000000E+00  0.00000000E+00  0.00000000E+00
  0.00000000E+00  0.00000000E+00  0.00000000E+00
  0.00000000E+00  0.00000000E+00  0.00000000E+00
  0.00000000E+00  0.00000000E+00  0.00000000E+00
  0.00000000E+00  0.00000000E+00  0.00000000E+00
  0.00000000E+00  0.00000000E+00  0.00000000E+00
  0.00000000E+00  0.00000000E+00  0.00000000E+00
  0.00000000E+00  0.00000000E+00  0.00000000E+00
  0.00000000E+00  0.00000000E+00  0.00000000E+00
  0.00000000E+00  0.00000000E+00  0.00000000E+00
  0.00000000E+00  0.00000000E+00  0.00000000E+00
  0.00000000E+00  0.00000000E+00  0.00000000E+00
  0.00000000E+00  0.00000000E+00  0.00000000E+00
  0.00000000E+00  0.00000000E+00  0.00000000E+00
  0.00000000E+00  0.00000000E+00  0.00000000E+00
  0.00000000E+00  0.00000000E+00  0.00000000E+00
  0.00000000E+00  0.00000000E+00  0.00000000E+00
  0.00000000E+00  0.00000000E+00  0.00000000E+00
  0.00000000E+00  0.00000000E+00  0.00000000E+00
  0.00000000E+00  0.00000000E+00  0.00000000E+00
