Title                                   
   1.00000000000000     
     4.9440799999999996    0.0000000000000000    0.0000000000000000
     0.0000000000000000   17.1295089999999988    0.0000000000000000
     0.0000000000000000    0.0000000000000000   20.0000000000000000
    29     2     1
Selective dynamics
Direct
 -0.0000285954999399  0.1047442681476129  0.2859061923791203   T   T   T
  0.2498693675254557  0.1465750661314625  0.2897247138168165   T   T   T
  0.2498836588612549  0.2289926704963954  0.2999039561842218   T   T   T
  0.0028702653749231  0.3503547620031285  0.3206695978977647   T   T   T
 -0.0015666754489091  0.2703243393068735  0.3048410913115462   T   T   T
 -0.0028921365140530  0.6050713846913726  0.3069602537636773   T   T   T
  0.2499214097946282  0.7288062884616037  0.2912913165072595   T   T   T
  0.0001584728286375  0.8542769064615592  0.2824388993673239   T   T   T
  0.2498832381469783  0.8962359568413850  0.2814145337775888   T   T   T
  0.2498778835225287  0.9796446469357212  0.2810801820707212   T   T   T
  0.0002422954401226  0.7709405836081800  0.2869688564108877   T   T   T
  0.4998052481789253  0.1047438705018016  0.2859001261185061   T   T   T
  0.7498807406899539  0.1465157408288056  0.2886715785692676   T   T   T
  0.7498797016911902  0.2288822030902620  0.2970054575287949   T   T   T
  0.4999085950272867  0.0215179664470099  0.2818534472460745   T   T   T
  0.4969327359265954  0.3503577991841023  0.3206739738253387   T   T   T
  0.7499218049523506  0.4786515953193057  0.3198818273771724   T   T   T
  0.5013687245377818  0.2703251426303231  0.3048445084324082   T   T   T
  0.5027198444613921  0.6050781567119942  0.3069602201647595   T   T   T
  0.7499250296848895  0.7297035865469100  0.2898197652427565   T   T   T
  0.4996328817913457  0.8542767654828065  0.2824351234493689   T   T   T
  0.7498948455857429  0.8960654691451404  0.2811627892734014   T   T   T
  0.7498793197540499  0.9796132156002263  0.2808286515964648   T   T   T
  0.4995912255401410  0.7709413942794159  0.2869647571070036   T   T   T
  0.7499235804099134  0.6469893919189770  0.2990168568317886   T   T   T
  0.2499072798732911  0.6462458629063570  0.3020218061603344   T   T   T
 -0.0001415670570644  0.0215184382956362  0.2818581127428630   T   T   T
  0.5112655906626675  0.5233300644538912  0.3211643183791632   T   T   T
  0.9885954374759472  0.5233305689791509  0.3211833206883160   T   T   T
  0.2498969760658041  0.3856372607166474  0.3353705008029988   T   T   T
  0.7499020325303950  0.3942555598165568  0.3240054263373626   T   T   T
  0.2499137881857787  0.4846040740593781  0.3797428386388797   T   T   T
 
  0.00000000E+00  0.00000000E+00  0.00000000E+00
  0.00000000E+00  0.00000000E+00  0.00000000E+00
  0.00000000E+00  0.00000000E+00  0.00000000E+00
  0.00000000E+00  0.00000000E+00  0.00000000E+00
  0.00000000E+00  0.00000000E+00  0.00000000E+00
  0.00000000E+00  0.00000000E+00  0.00000000E+00
  0.00000000E+00  0.00000000E+00  0.00000000E+00
  0.00000000E+00  0.00000000E+00  0.00000000E+00
  0.00000000E+00  0.00000000E+00  0.00000000E+00
  0.00000000E+00  0.00000000E+00  0.00000000E+00
  0.00000000E+00  0.00000000E+00  0.00000000E+00
  0.00000000E+00  0.00000000E+00  0.00000000E+00
  0.00000000E+00  0.00000000E+00  0.00000000E+00
  0.00000000E+00  0.00000000E+00  0.00000000E+00
  0.00000000E+00  0.00000000E+00  0.00000000E+00
  0.00000000E+00  0.00000000E+00  0.00000000E+00
  0.00000000E+00  0.00000000E+00  0.00000000E+00
  0.00000000E+00  0.00000000E+00  0.00000000E+00
  0.00000000E+00  0.00000000E+00  0.00000000E+00
  0.00000000E+00  0.00000000E+00  0.00000000E+00
  0.00000000E+00  0.00000000E+00  0.00000000E+00
  0.00000000E+00  0.00000000E+00  0.00000000E+00
  0.00000000E+00  0.00000000E+00  0.00000000E+00
  0.00000000E+00  0.00000000E+00  0.00000000E+00
  0.00000000E+00  0.00000000E+00  0.00000000E+00
  0.00000000E+00  0.00000000E+00  0.00000000E+00
  0.00000000E+00  0.00000000E+00  0.00000000E+00
  0.00000000E+00  0.00000000E+00  0.00000000E+00
  0.00000000E+00  0.00000000E+00  0.00000000E+00
  0.00000000E+00  0.00000000E+00  0.00000000E+00
  0.00000000E+00  0.00000000E+00  0.00000000E+00
  0.00000000E+00  0.00000000E+00  0.00000000E+00
