Title                                   
   1.00000000000000     
     8.5490480000000009    0.0000000000000000    0.0000000000000000
     0.0000000000000000    8.5490480000000009    0.0000000000000000
     0.0000000000000000    0.0000000000000000   20.0000000000000000
    22     2     1
Selective dynamics
Direct
  0.9096067011661626  0.2077943598904713  0.0967601739488690   T   T   T
  0.9060216445108796  0.5029654555516037  0.0976215650641086   T   T   T
  0.9116637848379429  0.8021280030776586  0.0973982650738000   T   T   T
  0.2003378758424784  0.0833020535438201  0.0974332126493521   T   T   T
  0.0750520318635887  0.2063112897765093  0.0974085960546387   T   T   T
  0.1566678319806125  0.6501742504546540  0.0971522687976055   T   T   T
  0.0748206508783845  0.5021365920501168  0.0976067390078459   T   T   T
  0.1561720144937317  0.3560476568712352  0.0981417230468079   T   T   T
  0.0783840351971726  0.7984782041188510  0.0968307530097951   T   T   T
  0.4937343839751324  0.0823511358906299  0.0974152234762221   T   T   T
  0.3468967809252659  0.1629091584464310  0.0980988762995550   T   T   T
  0.4925755543251188  0.9141896434470994  0.0976312159760656   T   T   T
  0.3462962261142886  0.8345552797481448  0.0974216553108109   T   T   T
  0.7870542990903249  0.0852898579982329  0.0965577922993224   T   T   T
  0.6384892284632452  0.1642208808292039  0.0967802824359063   T   T   T
  0.7896027459965075  0.9202441232250126  0.0973219123581680   T   T   T
  0.8290188850872673  0.6531846075810828  0.0981463716162518   T   T   T
  0.8266634470692907  0.3564611000031045  0.0971873038502032   T   T   T
  0.6421404732101335  0.8352404632470936  0.0981194218866172   T   T   T
  0.3268488446147070  0.3347794954579112  0.1000398913100033   T   T   T
  0.3226125536364619  0.6690479220430220  0.0983624702199436   T   T   T
  0.6572792060224907  0.3325950641906592  0.0986322204822905   T   T   T
  0.6676826214292809  0.6755278666859497  0.0993983349351150   T   T   T
  0.1993725160555328  0.9183926049581660  0.0968833001149360   T   T   T
  0.4904176632139906  0.4964629309133519  0.1043554307757491   T   T   T
 
  0.00000000E+00  0.00000000E+00  0.00000000E+00
  0.00000000E+00  0.00000000E+00  0.00000000E+00
  0.00000000E+00  0.00000000E+00  0.00000000E+00
  0.00000000E+00  0.00000000E+00  0.00000000E+00
  0.00000000E+00  0.00000000E+00  0.00000000E+00
  0.00000000E+00  0.00000000E+00  0.00000000E+00
  0.00000000E+00  0.00000000E+00  0.00000000E+00
  0.00000000E+00  0.00000000E+00  0.00000000E+00
  0.00000000E+00  0.00000000E+00  0.00000000E+00
  0.00000000E+00  0.00000000E+00  0.00000000E+00
  0.00000000E+00  0.00000000E+00  0.00000000E+00
  0.00000000E+00  0.00000000E+00  0.00000000E+00
  0.00000000E+00  0.00000000E+00  0.00000000E+00
  0.00000000E+00  0.00000000E+00  0.00000000E+00
  0.00000000E+00  0.00000000E+00  0.00000000E+00
  0.00000000E+00  0.00000000E+00  0.00000000E+00
  0.00000000E+00  0.00000000E+00  0.00000000E+00
  0.00000000E+00  0.00000000E+00  0.00000000E+00
  0.00000000E+00  0.00000000E+00  0.00000000E+00
  0.00000000E+00  0.00000000E+00  0.00000000E+00
  0.00000000E+00  0.00000000E+00  0.00000000E+00
  0.00000000E+00  0.00000000E+00  0.00000000E+00
  0.00000000E+00  0.00000000E+00  0.00000000E+00
  0.00000000E+00  0.00000000E+00  0.00000000E+00
  0.00000000E+00  0.00000000E+00  0.00000000E+00
