Title                                   
   1.00000000000000     
     4.9440799999999996    0.0000000000000000    0.0000000000000000
     0.0000000000000000    8.5647549999999999    0.0000000000000000
     0.0000000000000000    0.0000000000000000   20.0000000000000000
    12     2     1
Selective dynamics
Direct
  0.0033264684646387  0.2895060625870741  0.0917626423244733   T   T   T
  0.2580747410800958  0.0401480885278317  0.0968497605394993   T   T   T
  0.0085772875277680  0.9598186495083306  0.0907861726715593   T   T   T
  0.7497698510062832  0.2077137618430063  0.0933694712045117   T   T   T
  0.4988655173400137  0.2962211459805493  0.1002759130870990   T   T   T
  0.7521900140243796  0.0393912556466943  0.0934504200190215   T   T   T
  0.7536594514838199  0.7122457654666665  0.1006507199329881   T   T   T
  0.7489108633465236  0.5401335822638189  0.0998368990983057   T   T   T
  0.5072219330650635  0.9531990140002957  0.1025211542222231   T   T   T
  0.4997926366770021  0.4626422433303003  0.1113116981353608   T   T   T
 -0.0045285765286093  0.4547570238937471  0.0935820775767231   T   T   T
 -0.0026683512451992  0.7932296523372651  0.0898884477684199   T   T   T
  0.5137381277162493  0.7900656142032564  0.1182355391345592   T   T   T
  0.2559159849158833  0.2076164392529440  0.0960825421421636   T   T   T
  0.2071540511260869  0.6249927011582215  0.1293765421430958   T   T   T
 
  0.00000000E+00  0.00000000E+00  0.00000000E+00
  0.00000000E+00  0.00000000E+00  0.00000000E+00
  0.00000000E+00  0.00000000E+00  0.00000000E+00
  0.00000000E+00  0.00000000E+00  0.00000000E+00
  0.00000000E+00  0.00000000E+00  0.00000000E+00
  0.00000000E+00  0.00000000E+00  0.00000000E+00
  0.00000000E+00  0.00000000E+00  0.00000000E+00
  0.00000000E+00  0.00000000E+00  0.00000000E+00
  0.00000000E+00  0.00000000E+00  0.00000000E+00
  0.00000000E+00  0.00000000E+00  0.00000000E+00
  0.00000000E+00  0.00000000E+00  0.00000000E+00
  0.00000000E+00  0.00000000E+00  0.00000000E+00
  0.00000000E+00  0.00000000E+00  0.00000000E+00
  0.00000000E+00  0.00000000E+00  0.00000000E+00
  0.00000000E+00  0.00000000E+00  0.00000000E+00
