Title                                   
   1.00000000000000     
     9.8694509999999998    0.0000000000000000    0.0000000000000000
     0.0000000000000000    8.5490480000000009    0.0000000000000000
     0.0000000000000000    0.0000000000000000   20.0000000000000000
    25     5     1
Selective dynamics
Direct
  0.0551060486644393  0.0907931967220196  0.0874248217032986   T   T   T
  0.9300160763706115  0.1731132832022821  0.0880875779610609   T   T   T
  0.0574414525538515  0.9239211050255832  0.0874379210468971   T   T   T
  0.9331394151418760  0.3408581690113273  0.0871547646632391   T   T   T
  0.0576686818961152  0.5899451045244490  0.0838095842381934   T   T   T
  0.9339442764623346  0.6745505827251197  0.0875904481080319   T   T   T
  0.0577644033503104  0.4235149898803557  0.0841122854799170   T   T   T
  0.9321945359097841  0.8411377015963545  0.0888991239932247   T   T   T
  0.3067613157810772  0.0882966965044365  0.0947472324257849   T   T   T
  0.1812846193394933  0.1714941122794689  0.0895958191087018   T   T   T
  0.1813935385724983  0.3390873641684423  0.0882891860701291   T   T   T
  0.3033177598475868  0.5901072878318016  0.0961176261651213   T   T   T
  0.1814933487248355  0.6734398076440853  0.0871166866473436   T   T   T
  0.3034088099898685  0.4206679188583285  0.0972379074336224   T   T   T
  0.1816519503165240  0.8409650302755388  0.0887931056543886   T   T   T
  0.4287321135433513  0.1746196513843109  0.1035322355647797   T   T   T
  0.5539743143840056  0.9181042789768510  0.1051945860384649   T   T   T
  0.4282132656666879  0.8353626115748147  0.1029477577248932   T   T   T
  0.8027607119128425  0.0902018949820155  0.0928081838854650   T   T   T
  0.6799859240335475  0.1763620829805929  0.1003837652535829   T   T   T
  0.8056700731971782  0.9217254911736446  0.0938123873138407   T   T   T
  0.6866888138733140  0.3434005303712685  0.1075379355922814   T   T   T
  0.8129285892523986  0.5929676575876063  0.0969078812116799   T   T   T
  0.8116047284892383  0.4241930580780803  0.0954099587363147   T   T   T
  0.6834591628347325  0.8338432409381913  0.1036349369044895   T   T   T
  0.5547190181708747  0.0913695097917012  0.1042933122684745   T   T   T
  0.4219934215272060  0.3359574594945329  0.1117193393220671   T   T   T
  0.6929420639314481  0.6718403816597422  0.1113221236139073   T   T   T
  0.4198595172460377  0.6749428250219242  0.1094526101591683   T   T   T
  0.3059402343835199  0.9224726190257364  0.0936606021829451   T   T   T
  0.5570768146324194  0.5016193567094052  0.1319332935287274   T   T   T
 
  0.00000000E+00  0.00000000E+00  0.00000000E+00
  0.00000000E+00  0.00000000E+00  0.00000000E+00
  0.00000000E+00  0.00000000E+00  0.00000000E+00
  0.00000000E+00  0.00000000E+00  0.00000000E+00
  0.00000000E+00  0.00000000E+00  0.00000000E+00
  0.00000000E+00  0.00000000E+00  0.00000000E+00
  0.00000000E+00  0.00000000E+00  0.00000000E+00
  0.00000000E+00  0.00000000E+00  0.00000000E+00
  0.00000000E+00  0.00000000E+00  0.00000000E+00
  0.00000000E+00  0.00000000E+00  0.00000000E+00
  0.00000000E+00  0.00000000E+00  0.00000000E+00
  0.00000000E+00  0.00000000E+00  0.00000000E+00
  0.00000000E+00  0.00000000E+00  0.00000000E+00
  0.00000000E+00  0.00000000E+00  0.00000000E+00
  0.00000000E+00  0.00000000E+00  0.00000000E+00
  0.00000000E+00  0.00000000E+00  0.00000000E+00
  0.00000000E+00  0.00000000E+00  0.00000000E+00
  0.00000000E+00  0.00000000E+00  0.00000000E+00
  0.00000000E+00  0.00000000E+00  0.00000000E+00
  0.00000000E+00  0.00000000E+00  0.00000000E+00
  0.00000000E+00  0.00000000E+00  0.00000000E+00
  0.00000000E+00  0.00000000E+00  0.00000000E+00
  0.00000000E+00  0.00000000E+00  0.00000000E+00
  0.00000000E+00  0.00000000E+00  0.00000000E+00
  0.00000000E+00  0.00000000E+00  0.00000000E+00
  0.00000000E+00  0.00000000E+00  0.00000000E+00
  0.00000000E+00  0.00000000E+00  0.00000000E+00
  0.00000000E+00  0.00000000E+00  0.00000000E+00
  0.00000000E+00  0.00000000E+00  0.00000000E+00
  0.00000000E+00  0.00000000E+00  0.00000000E+00
  0.00000000E+00  0.00000000E+00  0.00000000E+00
