Title                                   
   1.00000000000000     
     4.9440799999999996    0.0000000000000000    0.0000000000000000
     0.0000000000000000   17.1295089999999988    0.0000000000000000
     0.0000000000000000    0.0000000000000000   20.0000000000000000
    27     4     1
Selective dynamics
Direct
  0.0035922600819346  0.1042204754738519  0.2931666005089145   T   T   T
  0.2531772210197439  0.1464316978067375  0.2931823868421791   T   T   T
  0.2526695182775098  0.2304560893246194  0.2934976373942088   T   T   T
  0.0109877144422243  0.3553790213937973  0.2942227155004496   T   T   T
  0.0006395065761845  0.2719693153324679  0.2940723074556653   T   T   T
 -0.0005038889896788  0.6013589333996557  0.3109796639000152   T   T   T
  0.2551502153745570  0.7253315781201861  0.2997195531983448   T   T   T
  0.0054566208123412  0.8524835345252703  0.2957472493601765   T   T   T
  0.2546430833550499  0.8946735521643093  0.2946292184661141   T   T   T
  0.2540995806023066  0.9783428971494733  0.2935211417744482   T   T   T
  0.0063987619165812  0.7687527479147979  0.2983504487756864   T   T   T
  0.5029344756197763  0.1041782888576799  0.2930714404019590   T   T   T
  0.7529736247382863  0.1462157815736751  0.2933863738780916   T   T   T
  0.7522715235919667  0.2296474908568243  0.2940161733791821   T   T   T
  0.5038142090682639  0.0204297741458895  0.2931135752085489   T   T   T
  0.4924752201597524  0.3558719755276190  0.2937219363463021   T   T   T
  0.7504784802739186  0.4842659647231282  0.3040099054597416   T   T   T
  0.5039064818827331  0.2721877844322462  0.2938822781078247   T   T   T
  0.5108044794550023  0.6006991946772186  0.2997000181374153   T   T   T
  0.7560050148185641  0.7277024872683547  0.2982687362484088   T   T   T
  0.5041017319274658  0.8523156244339669  0.2948568308423982   T   T   T
  0.7545396652896691  0.8943836157640925  0.2944118703504582   T   T   T
  0.7540387492354591  0.9782654005372832  0.2934566548671683   T   T   T
  0.5043518275811565  0.7685020489183668  0.2966784012340965   T   T   T
  0.7556832010451531  0.6444281183228350  0.3015062528457494   T   T   T
  0.2548188693949754  0.6411454550978829  0.3043720270422088   T   T   T
  0.0039692083932285  0.0204403394875885  0.2932876818687234   T   T   T
  0.5259950744977933  0.5222427252711913  0.2895270564216753   T   T   T
  0.9761070216989184  0.5223085945385255  0.3285967423190392   T   T   T
  0.2510590609729391  0.3927443778547154  0.2924249383594641   T   T   T
  0.7527704820479257  0.3992496780881141  0.2961143533202683   T   T   T
  0.1374140048383055  0.4919264370176261  0.4130728301850238   T   T   T
 
  0.00000000E+00  0.00000000E+00  0.00000000E+00
  0.00000000E+00  0.00000000E+00  0.00000000E+00
  0.00000000E+00  0.00000000E+00  0.00000000E+00
  0.00000000E+00  0.00000000E+00  0.00000000E+00
  0.00000000E+00  0.00000000E+00  0.00000000E+00
  0.00000000E+00  0.00000000E+00  0.00000000E+00
  0.00000000E+00  0.00000000E+00  0.00000000E+00
  0.00000000E+00  0.00000000E+00  0.00000000E+00
  0.00000000E+00  0.00000000E+00  0.00000000E+00
  0.00000000E+00  0.00000000E+00  0.00000000E+00
  0.00000000E+00  0.00000000E+00  0.00000000E+00
  0.00000000E+00  0.00000000E+00  0.00000000E+00
  0.00000000E+00  0.00000000E+00  0.00000000E+00
  0.00000000E+00  0.00000000E+00  0.00000000E+00
  0.00000000E+00  0.00000000E+00  0.00000000E+00
  0.00000000E+00  0.00000000E+00  0.00000000E+00
  0.00000000E+00  0.00000000E+00  0.00000000E+00
  0.00000000E+00  0.00000000E+00  0.00000000E+00
  0.00000000E+00  0.00000000E+00  0.00000000E+00
  0.00000000E+00  0.00000000E+00  0.00000000E+00
  0.00000000E+00  0.00000000E+00  0.00000000E+00
  0.00000000E+00  0.00000000E+00  0.00000000E+00
  0.00000000E+00  0.00000000E+00  0.00000000E+00
  0.00000000E+00  0.00000000E+00  0.00000000E+00
  0.00000000E+00  0.00000000E+00  0.00000000E+00
  0.00000000E+00  0.00000000E+00  0.00000000E+00
  0.00000000E+00  0.00000000E+00  0.00000000E+00
  0.00000000E+00  0.00000000E+00  0.00000000E+00
  0.00000000E+00  0.00000000E+00  0.00000000E+00
  0.00000000E+00  0.00000000E+00  0.00000000E+00
  0.00000000E+00  0.00000000E+00  0.00000000E+00
  0.00000000E+00  0.00000000E+00  0.00000000E+00
