Title                                   
   1.00000000000000     
     9.8694509999999998    0.0000000000000000    0.0000000000000000
     0.0000000000000000    8.5490480000000009    0.0000000000000000
     0.0000000000000000    0.0000000000000000   20.0000000000000000
    29     1     1
Selective dynamics
Direct
  0.0556636331620064  0.0878766141695332  0.0794854706771711   T   T   T
  0.9311925618735206  0.1716855129153931  0.0845208255764692   T   T   T
  0.0560521484975819  0.9223754595157621  0.0796452988750911   T   T   T
  0.9333577556797438  0.3380859422192084  0.0836168718192510   T   T   T
  0.0566446756960292  0.5890089642425496  0.0768147341322207   T   T   T
  0.9333097386840679  0.6736134072114017  0.0836607736657899   T   T   T
  0.0561829368180093  0.4227089885917308  0.0764922622879919   T   T   T
  0.9306325131353562  0.8400069769545131  0.0834434265723934   T   T   T
  0.3046454314017242  0.0891236630002326  0.0894561970911399   T   T   T
  0.1803138973362793  0.1710380390793825  0.0808644792803823   T   T   T
  0.3050379723267141  0.9226873578837238  0.0911930507203398   T   T   T
  0.1792671466091748  0.3377408194750042  0.0796072157238198   T   T   T
  0.3029613350277012  0.5884704126644318  0.0925273031809258   T   T   T
  0.1808985993033422  0.6722063773123683  0.0800204988010390   T   T   T
  0.3016616340914303  0.4180456837063538  0.0899743324012902   T   T   T
  0.1812514574913715  0.8391539518242480  0.0823003392243087   T   T   T
  0.5548368504792975  0.0930593143319336  0.1083541220878876   T   T   T
  0.4265047170274545  0.1763546551983085  0.1005433537400695   T   T   T
  0.5544588631501030  0.9258815980991449  0.1079746165659594   T   T   T
  0.4156565479358872  0.6768304241146932  0.1146954116034399   T   T   T
  0.4276653061748913  0.8392411311273589  0.1057059889949072   T   T   T
  0.8069232491500996  0.0900806044913017  0.0942672078222496   T   T   T
  0.6848358507297663  0.1758340152334731  0.1096250199517058   T   T   T
  0.8066383428880936  0.9236107739653402  0.0927097938067704   T   T   T
  0.7004315963756367  0.3360934797122351  0.1223187788444740   T   T   T
  0.8126853601454069  0.5902501882805763  0.0972839118759576   T   T   T
  0.6930621831130862  0.6771773178323305  0.1057493150422628   T   T   T
  0.8147111618172437  0.4206412422929622  0.1006631611794978   T   T   T
  0.6819996116451515  0.8398913618817950  0.1038551671666310   T   T   T
  0.4184572936262086  0.3358004710809301  0.1004604502235811   T   T   T
  0.5551946286076282  0.5063002515917937  0.1431356210650237   T   T   T
 
  0.00000000E+00  0.00000000E+00  0.00000000E+00
  0.00000000E+00  0.00000000E+00  0.00000000E+00
  0.00000000E+00  0.00000000E+00  0.00000000E+00
  0.00000000E+00  0.00000000E+00  0.00000000E+00
  0.00000000E+00  0.00000000E+00  0.00000000E+00
  0.00000000E+00  0.00000000E+00  0.00000000E+00
  0.00000000E+00  0.00000000E+00  0.00000000E+00
  0.00000000E+00  0.00000000E+00  0.00000000E+00
  0.00000000E+00  0.00000000E+00  0.00000000E+00
  0.00000000E+00  0.00000000E+00  0.00000000E+00
  0.00000000E+00  0.00000000E+00  0.00000000E+00
  0.00000000E+00  0.00000000E+00  0.00000000E+00
  0.00000000E+00  0.00000000E+00  0.00000000E+00
  0.00000000E+00  0.00000000E+00  0.00000000E+00
  0.00000000E+00  0.00000000E+00  0.00000000E+00
  0.00000000E+00  0.00000000E+00  0.00000000E+00
  0.00000000E+00  0.00000000E+00  0.00000000E+00
  0.00000000E+00  0.00000000E+00  0.00000000E+00
  0.00000000E+00  0.00000000E+00  0.00000000E+00
  0.00000000E+00  0.00000000E+00  0.00000000E+00
  0.00000000E+00  0.00000000E+00  0.00000000E+00
  0.00000000E+00  0.00000000E+00  0.00000000E+00
  0.00000000E+00  0.00000000E+00  0.00000000E+00
  0.00000000E+00  0.00000000E+00  0.00000000E+00
  0.00000000E+00  0.00000000E+00  0.00000000E+00
  0.00000000E+00  0.00000000E+00  0.00000000E+00
  0.00000000E+00  0.00000000E+00  0.00000000E+00
  0.00000000E+00  0.00000000E+00  0.00000000E+00
  0.00000000E+00  0.00000000E+00  0.00000000E+00
  0.00000000E+00  0.00000000E+00  0.00000000E+00
  0.00000000E+00  0.00000000E+00  0.00000000E+00
