Title                                   
   1.00000000000000     
     9.8694509999999998    0.0000000000000000    0.0000000000000000
     0.0000000000000000    8.5490480000000009    0.0000000000000000
     0.0000000000000000    0.0000000000000000   20.0000000000000000
    27     4     1
Selective dynamics
Direct
  0.0540168966189091  0.0917612283319988  0.0952055380355470   T   T   T
  0.9279832740647291  0.1737671986620176  0.0945538968721695   T   T   T
  0.0548179684341785  0.9239478940591973  0.0952668536719536   T   T   T
  0.9266966325113709  0.3407287438790589  0.0922923993048551   T   T   T
  0.0541352601509482  0.5907761604341023  0.0948307509756956   T   T   T
  0.9309190809175634  0.6737974136307970  0.0904273112931104   T   T   T
  0.0545818708338314  0.4227902068927434  0.0943758914684984   T   T   T
  0.9302895594102522  0.8413595412431208  0.0938133069294984   T   T   T
  0.3026540259344138  0.0886725718800452  0.0934992914315394   T   T   T
  0.1797793949485921  0.1746923519747013  0.0949856055708478   T   T   T
  0.3039926391197537  0.9229131003081266  0.0961870070314434   T   T   T
  0.1800606580870066  0.3411282017858408  0.0970134658177602   T   T   T
  0.3075636382731932  0.5911625676669956  0.1069751499521527   T   T   T
  0.1808462609077035  0.6711883778958699  0.0995039420447190   T   T   T
  0.1801340615529318  0.8387452972536161  0.0975721237180336   T   T   T
  0.5528492087474738  0.0839357023508855  0.0927164840368703   T   T   T
  0.4278005033587527  0.1693372236395562  0.0929135721050416   T   T   T
  0.4300051521978604  0.3360386582209826  0.0960902283563561   T   T   T
  0.4281248078950610  0.8388128544770085  0.1026797345413032   T   T   T
  0.8039231464336675  0.0859391193422690  0.0953161748835036   T   T   T
  0.6772332237041979  0.1670239029964707  0.0928240691236586   T   T   T
  0.8044924448707110  0.9217857016562220  0.0972430877217872   T   T   T
  0.6734579740600232  0.3332176779060985  0.0902138926641151   T   T   T
  0.8033002432024561  0.5963823796842856  0.0784856488425868   T   T   T
  0.7978717513391934  0.4257315762889419  0.0863378598203391   T   T   T
  0.6789426648131084  0.8289248418388344  0.0998605165351035   T   T   T
  0.4294280086100540  0.6770430299250865  0.1181879395332714   T   T   T
  0.5497195600774047  0.4112214300826367  0.0956224984136032   T   T   T
  0.6845581722597625  0.6836834813496880  0.0590936026984181   T   T   T
  0.5517760313454262  0.9204909402059362  0.0948113420209671   T   T   T
  0.3072397529064522  0.4230319917199100  0.1017602205317980   T   T   T
  0.6304451324130266  0.6002146324169596  0.1550155940534693   T   T   T
 
  0.00000000E+00  0.00000000E+00  0.00000000E+00
  0.00000000E+00  0.00000000E+00  0.00000000E+00
  0.00000000E+00  0.00000000E+00  0.00000000E+00
  0.00000000E+00  0.00000000E+00  0.00000000E+00
  0.00000000E+00  0.00000000E+00  0.00000000E+00
  0.00000000E+00  0.00000000E+00  0.00000000E+00
  0.00000000E+00  0.00000000E+00  0.00000000E+00
  0.00000000E+00  0.00000000E+00  0.00000000E+00
  0.00000000E+00  0.00000000E+00  0.00000000E+00
  0.00000000E+00  0.00000000E+00  0.00000000E+00
  0.00000000E+00  0.00000000E+00  0.00000000E+00
  0.00000000E+00  0.00000000E+00  0.00000000E+00
  0.00000000E+00  0.00000000E+00  0.00000000E+00
  0.00000000E+00  0.00000000E+00  0.00000000E+00
  0.00000000E+00  0.00000000E+00  0.00000000E+00
  0.00000000E+00  0.00000000E+00  0.00000000E+00
  0.00000000E+00  0.00000000E+00  0.00000000E+00
  0.00000000E+00  0.00000000E+00  0.00000000E+00
  0.00000000E+00  0.00000000E+00  0.00000000E+00
  0.00000000E+00  0.00000000E+00  0.00000000E+00
  0.00000000E+00  0.00000000E+00  0.00000000E+00
  0.00000000E+00  0.00000000E+00  0.00000000E+00
  0.00000000E+00  0.00000000E+00  0.00000000E+00
  0.00000000E+00  0.00000000E+00  0.00000000E+00
  0.00000000E+00  0.00000000E+00  0.00000000E+00
  0.00000000E+00  0.00000000E+00  0.00000000E+00
  0.00000000E+00  0.00000000E+00  0.00000000E+00
  0.00000000E+00  0.00000000E+00  0.00000000E+00
  0.00000000E+00  0.00000000E+00  0.00000000E+00
  0.00000000E+00  0.00000000E+00  0.00000000E+00
  0.00000000E+00  0.00000000E+00  0.00000000E+00
  0.00000000E+00  0.00000000E+00  0.00000000E+00
