Title                                   
   1.00000000000000     
     9.8694509999999998    0.0000000000000000    0.0000000000000000
     0.0000000000000000    8.5490480000000009    0.0000000000000000
     0.0000000000000000    0.0000000000000000   20.0000000000000000
    25     5     1
Selective dynamics
Direct
  0.0551353981393600  0.0912931788574860  0.0954153018151794   T   T   T
  0.9292962835072112  0.1739759511590125  0.0908957533258425   T   T   T
  0.0571559332579498  0.9229952474063443  0.0950323784918035   T   T   T
  0.9312489215974576  0.3408136283891241  0.0912984341257061   T   T   T
  0.0562344502096785  0.5901067798647349  0.0956694840944691   T   T   T
  0.9326462477757883  0.6738302543323619  0.0914046740128948   T   T   T
  0.0558544555787836  0.4227014818780009  0.0959775897401141   T   T   T
  0.9318315170790002  0.8401549558564975  0.0911251913321589   T   T   T
  0.3075107355547528  0.0886361761367592  0.1015371468651343   T   T   T
  0.1801503611563002  0.1718391842979647  0.1002557446323596   T   T   T
  0.1805636717542320  0.3389905889674537  0.1008533585979380   T   T   T
  0.3042414881615204  0.5889556937689912  0.1064949814230205   T   T   T
  0.1809504117635370  0.6728276636718890  0.0997585245731368   T   T   T
  0.3047987416169696  0.4216158472478173  0.1073714554713255   T   T   T
  0.1806836470077391  0.8399338701402047  0.0988587408817898   T   T   T
  0.4288959114591682  0.1748493588452747  0.1034014454268765   T   T   T
  0.5526481461543521  0.9192643781119439  0.0952420368791716   T   T   T
  0.4289920218788267  0.8345890943113130  0.1033654023751998   T   T   T
  0.8031871710190052  0.0892035440245203  0.0875815254445530   T   T   T
  0.6772650823902221  0.1717704804825604  0.0857891789169718   T   T   T
  0.8056182632592352  0.9229609402420056  0.0881063083621503   T   T   T
  0.6804335612975971  0.3358748837291992  0.0805698949246567   T   T   T
  0.8076813557822280  0.5934705639335583  0.0846734512481434   T   T   T
  0.8049541777140878  0.4234877821728907  0.0838172562861215   T   T   T
  0.6806099460655678  0.8401398278783656  0.0875322863886317   T   T   T
  0.5534511104837408  0.0910519027065948  0.0949750828624583   T   T   T
  0.4271155249920213  0.3379954333753746  0.1144918062520794   T   T   T
  0.6856398844243208  0.6781603360865168  0.0834493118232480   T   T   T
  0.4250425669880888  0.6735322802253021  0.1137708025866310   T   T   T
  0.3060648740370446  0.9211040596153874  0.1007459644868400   T   T   T
  0.5872331378942234  0.5047496322845634  0.1315044863534302   T   T   T
 
  0.00000000E+00  0.00000000E+00  0.00000000E+00
  0.00000000E+00  0.00000000E+00  0.00000000E+00
  0.00000000E+00  0.00000000E+00  0.00000000E+00
  0.00000000E+00  0.00000000E+00  0.00000000E+00
  0.00000000E+00  0.00000000E+00  0.00000000E+00
  0.00000000E+00  0.00000000E+00  0.00000000E+00
  0.00000000E+00  0.00000000E+00  0.00000000E+00
  0.00000000E+00  0.00000000E+00  0.00000000E+00
  0.00000000E+00  0.00000000E+00  0.00000000E+00
  0.00000000E+00  0.00000000E+00  0.00000000E+00
  0.00000000E+00  0.00000000E+00  0.00000000E+00
  0.00000000E+00  0.00000000E+00  0.00000000E+00
  0.00000000E+00  0.00000000E+00  0.00000000E+00
  0.00000000E+00  0.00000000E+00  0.00000000E+00
  0.00000000E+00  0.00000000E+00  0.00000000E+00
  0.00000000E+00  0.00000000E+00  0.00000000E+00
  0.00000000E+00  0.00000000E+00  0.00000000E+00
  0.00000000E+00  0.00000000E+00  0.00000000E+00
  0.00000000E+00  0.00000000E+00  0.00000000E+00
  0.00000000E+00  0.00000000E+00  0.00000000E+00
  0.00000000E+00  0.00000000E+00  0.00000000E+00
  0.00000000E+00  0.00000000E+00  0.00000000E+00
  0.00000000E+00  0.00000000E+00  0.00000000E+00
  0.00000000E+00  0.00000000E+00  0.00000000E+00
  0.00000000E+00  0.00000000E+00  0.00000000E+00
  0.00000000E+00  0.00000000E+00  0.00000000E+00
  0.00000000E+00  0.00000000E+00  0.00000000E+00
  0.00000000E+00  0.00000000E+00  0.00000000E+00
  0.00000000E+00  0.00000000E+00  0.00000000E+00
  0.00000000E+00  0.00000000E+00  0.00000000E+00
  0.00000000E+00  0.00000000E+00  0.00000000E+00
