Title                                   
   1.00000000000000     
     9.8694509999999998    0.0000000000000000    0.0000000000000000
     0.0000000000000000    8.5490480000000009    0.0000000000000000
     0.0000000000000000    0.0000000000000000   20.0000000000000000
    26     4     1
Selective dynamics
Direct
  0.0557640173999934  0.0882212299343729  0.0915027642589174   T   T   T
  0.9312452050829033  0.1721863400912606  0.0943446199094933   T   T   T
  0.0577384285379626  0.9206809342537819  0.0917676320107535   T   T   T
  0.9331062157135298  0.3396252575260045  0.0965240746836139   T   T   T
  0.0573474937428516  0.5905840176114494  0.0941178308152906   T   T   T
  0.0570134978691912  0.4236141162403584  0.0938196455719750   T   T   T
  0.9324396094707692  0.8384035178820479  0.0951871702541383   T   T   T
  0.3076595586482689  0.0880245110796444  0.0879941096225469   T   T   T
  0.1811221810430107  0.1709939994529841  0.0896168621081592   T   T   T
  0.1807139936223241  0.3375362679203050  0.0904719662017748   T   T   T
  0.3077943243896895  0.5866214314320243  0.0859601241139841   T   T   T
  0.1819687313608314  0.6725585202678737  0.0906535909734747   T   T   T
  0.3058676802954886  0.4179910922111226  0.0867932602257640   T   T   T
  0.1837004302435979  0.8388850465568979  0.0895828330372072   T   T   T
  0.4302063242312287  0.1734361832069103  0.0884059118797722   T   T   T
  0.5560016546261662  0.9252712306174482  0.0944750584287878   T   T   T
  0.4311985813675308  0.6746164742258725  0.0840824565731822   T   T   T
  0.4322214280779765  0.8391272232254147  0.0875333767996535   T   T   T
  0.8052457571113601  0.0897278327809556  0.0952820627039339   T   T   T
  0.6807429559763555  0.1793250210087083  0.0981362190871546   T   T   T
  0.8065115352457725  0.9216475569092425  0.0961543424554181   T   T   T
  0.6837625105149294  0.3441297110708874  0.1057993322244460   T   T   T
  0.8098904067913961  0.5926457543981565  0.1039451278452216   T   T   T
  0.6849984808678966  0.6714255175276980  0.1089690687951324   T   T   T
  0.8105545669420993  0.4225495149156688  0.1026409806623962   T   T   T
  0.6801255313622224  0.8387252621535828  0.1000961872955192   T   T   T
  0.9335671051293364  0.6725756631924913  0.0971500968309181   T   T   T
  0.5563180104967046  0.0945259363698998  0.0933706479862861   T   T   T
  0.4276443691287317  0.3346465405069579  0.0861349321490974   T   T   T
  0.3064427942068024  0.9222304911269097  0.0871307178552276   T   T   T
  0.5342216205030964  0.5083428043030871  0.1333219966408083   T   T   T
 
  0.00000000E+00  0.00000000E+00  0.00000000E+00
  0.00000000E+00  0.00000000E+00  0.00000000E+00
  0.00000000E+00  0.00000000E+00  0.00000000E+00
  0.00000000E+00  0.00000000E+00  0.00000000E+00
  0.00000000E+00  0.00000000E+00  0.00000000E+00
  0.00000000E+00  0.00000000E+00  0.00000000E+00
  0.00000000E+00  0.00000000E+00  0.00000000E+00
  0.00000000E+00  0.00000000E+00  0.00000000E+00
  0.00000000E+00  0.00000000E+00  0.00000000E+00
  0.00000000E+00  0.00000000E+00  0.00000000E+00
  0.00000000E+00  0.00000000E+00  0.00000000E+00
  0.00000000E+00  0.00000000E+00  0.00000000E+00
  0.00000000E+00  0.00000000E+00  0.00000000E+00
  0.00000000E+00  0.00000000E+00  0.00000000E+00
  0.00000000E+00  0.00000000E+00  0.00000000E+00
  0.00000000E+00  0.00000000E+00  0.00000000E+00
  0.00000000E+00  0.00000000E+00  0.00000000E+00
  0.00000000E+00  0.00000000E+00  0.00000000E+00
  0.00000000E+00  0.00000000E+00  0.00000000E+00
  0.00000000E+00  0.00000000E+00  0.00000000E+00
  0.00000000E+00  0.00000000E+00  0.00000000E+00
  0.00000000E+00  0.00000000E+00  0.00000000E+00
  0.00000000E+00  0.00000000E+00  0.00000000E+00
  0.00000000E+00  0.00000000E+00  0.00000000E+00
  0.00000000E+00  0.00000000E+00  0.00000000E+00
  0.00000000E+00  0.00000000E+00  0.00000000E+00
  0.00000000E+00  0.00000000E+00  0.00000000E+00
  0.00000000E+00  0.00000000E+00  0.00000000E+00
  0.00000000E+00  0.00000000E+00  0.00000000E+00
  0.00000000E+00  0.00000000E+00  0.00000000E+00
  0.00000000E+00  0.00000000E+00  0.00000000E+00
