Title                                   
   1.00000000000000     
     9.8694509999999998    0.0000000000000000    0.0000000000000000
     0.0000000000000000    8.5490480000000009    0.0000000000000000
     0.0000000000000000    0.0000000000000000   20.0000000000000000
    28     3     1
Selective dynamics
Direct
  0.0561582571633048  0.0915489080533560  0.0842690688053845   T   T   T
  0.9308030415600012  0.1753260842399123  0.0878812528724073   T   T   T
  0.0578086649883464  0.9239084400981714  0.0832171680946861   T   T   T
  0.9291428160523552  0.3426337702462600  0.0919168781930537   T   T   T
  0.0556938094590902  0.5896956100143397  0.0864856478037997   T   T   T
  0.9325927391780731  0.6743028744708882  0.0882746379973442   T   T   T
  0.0559691759671627  0.4234350779257336  0.0891770568170624   T   T   T
  0.9327125567163775  0.8416963151975034  0.0856531494249320   T   T   T
  0.3057737351525039  0.0866379734927611  0.0865048948326059   T   T   T
  0.1821719745243162  0.1735472359861150  0.0859274494413296   T   T   T
  0.3084119054842407  0.9212239191041612  0.0875843723466404   T   T   T
  0.1811531048387782  0.3394149083407567  0.0896194411418236   T   T   T
  0.3042368567771632  0.5871809261508929  0.0976176428183429   T   T   T
  0.1814364629008621  0.6707822074006083  0.0870289150859973   T   T   T
  0.1830053927163245  0.8376678617151549  0.0850333747537914   T   T   T
  0.5563972748380791  0.0857022473131318  0.0957752130936579   T   T   T
  0.4301640724487976  0.1681464661796248  0.0926985641786189   T   T   T
  0.4284135028293197  0.3336382360451940  0.1008948722311996   T   T   T
  0.4313108255483138  0.8362502855294784  0.0989332526512468   T   T   T
  0.8068859824561332  0.0914703496959511  0.0888164736488230   T   T   T
  0.6804656693794591  0.1710927736676547  0.0957749936511592   T   T   T
  0.8079064568668270  0.9264354767742162  0.0879658515293678   T   T   T
  0.6779071549971223  0.3369456930443929  0.1051453329823195   T   T   T
  0.8082283069714030  0.5958028802741292  0.1001083065541147   T   T   T
  0.8030761683106216  0.4267240575372083  0.1005804734659013   T   T   T
  0.6860975246259270  0.8413599951900544  0.0985243822626550   T   T   T
  0.4219901844050568  0.6736339614862353  0.1142145256482270   T   T   T
  0.5492389586564931  0.4083320519171708  0.1184605114356894   T   T   T
  0.6946363807894819  0.6869949519710088  0.1136784330875701   T   T   T
  0.5582955089316846  0.9184208317810234  0.0987039674520714   T   T   T
  0.3047296096260704  0.4208470640203313  0.0960515553362349   T   T   T
  0.5568249248403155  0.5894465651365824  0.1631573403619589   T   T   T
 
  0.00000000E+00  0.00000000E+00  0.00000000E+00
  0.00000000E+00  0.00000000E+00  0.00000000E+00
  0.00000000E+00  0.00000000E+00  0.00000000E+00
  0.00000000E+00  0.00000000E+00  0.00000000E+00
  0.00000000E+00  0.00000000E+00  0.00000000E+00
  0.00000000E+00  0.00000000E+00  0.00000000E+00
  0.00000000E+00  0.00000000E+00  0.00000000E+00
  0.00000000E+00  0.00000000E+00  0.00000000E+00
  0.00000000E+00  0.00000000E+00  0.00000000E+00
  0.00000000E+00  0.00000000E+00  0.00000000E+00
  0.00000000E+00  0.00000000E+00  0.00000000E+00
  0.00000000E+00  0.00000000E+00  0.00000000E+00
  0.00000000E+00  0.00000000E+00  0.00000000E+00
  0.00000000E+00  0.00000000E+00  0.00000000E+00
  0.00000000E+00  0.00000000E+00  0.00000000E+00
  0.00000000E+00  0.00000000E+00  0.00000000E+00
  0.00000000E+00  0.00000000E+00  0.00000000E+00
  0.00000000E+00  0.00000000E+00  0.00000000E+00
  0.00000000E+00  0.00000000E+00  0.00000000E+00
  0.00000000E+00  0.00000000E+00  0.00000000E+00
  0.00000000E+00  0.00000000E+00  0.00000000E+00
  0.00000000E+00  0.00000000E+00  0.00000000E+00
  0.00000000E+00  0.00000000E+00  0.00000000E+00
  0.00000000E+00  0.00000000E+00  0.00000000E+00
  0.00000000E+00  0.00000000E+00  0.00000000E+00
  0.00000000E+00  0.00000000E+00  0.00000000E+00
  0.00000000E+00  0.00000000E+00  0.00000000E+00
  0.00000000E+00  0.00000000E+00  0.00000000E+00
  0.00000000E+00  0.00000000E+00  0.00000000E+00
  0.00000000E+00  0.00000000E+00  0.00000000E+00
  0.00000000E+00  0.00000000E+00  0.00000000E+00
  0.00000000E+00  0.00000000E+00  0.00000000E+00
