Title                                   
   1.00000000000000     
     9.8694509999999998    0.0000000000000000    0.0000000000000000
     0.0000000000000000    8.5490480000000009    0.0000000000000000
     0.0000000000000000    0.0000000000000000   20.0000000000000000
    30     1     1
Selective dynamics
Direct
  0.0562463886918963  0.0901286296083290  0.0804922873654990   T   T   T
  0.9308761545813334  0.1731496603153447  0.0839628126935400   T   T   T
  0.0562352702667880  0.9232532396072269  0.0790950756281490   T   T   T
  0.9301578274235206  0.3406972292941126  0.0897167137836309   T   T   T
  0.0562385805300721  0.5893477654390357  0.0853316865519649   T   T   T
  0.9312930190213735  0.6726442968069843  0.0863395027935326   T   T   T
  0.0562215166799387  0.4232953090195595  0.0879423206515062   T   T   T
  0.9308145948331128  0.8394355956941545  0.0817755843753080   T   T   T
  0.3053786771608588  0.0893019773063889  0.0843011237482057   T   T   T
  0.1816000549073012  0.1731400841256343  0.0839480235095259   T   T   T
  0.3066547222286530  0.9233315098379140  0.0837944077036823   T   T   T
  0.1822858467067971  0.3406792124150032  0.0897105428600308   T   T   T
  0.3047533214353369  0.5924206378535171  0.1001597125313770   T   T   T
  0.1811829774295220  0.6726438451786786  0.0863320120882904   T   T   T
  0.3060482589663004  0.4225439100375624  0.0997729526538001   T   T   T
  0.1816627013011273  0.8394369404562035  0.0817659745451944   T   T   T
  0.5562274149494327  0.0861678228719369  0.0926166553666902   T   T   T
  0.4311935544874541  0.1692206656923458  0.0916405255983686   T   T   T
  0.4320826137066581  0.3343351336594822  0.1031087197659091   T   T   T
  0.4235003224406395  0.6818846510997132  0.1144791830757007   T   T   T
  0.5562138064000307  0.4082089517758669  0.1174632439077958   T   T   T
  0.4295015313792411  0.8401133545246916  0.0971172552174824   T   T   T
  0.8071087799450202  0.0893202184828646  0.0843190258190279   T   T   T
  0.6812957848936874  0.1692049648546067  0.0916558904401671   T   T   T
  0.8058288249902493  0.9233327511047927  0.0838149980264433   T   T   T
  0.6803751518501118  0.3343284174698294  0.1031288549394922   T   T   T
  0.8077432266757232  0.5924120699665422  0.1001716489491746   T   T   T
  0.6890320010702519  0.6819165454891510  0.1144796078960612   T   T   T
  0.8064051883550362  0.4225423807356223  0.0997925932870472   T   T   T
  0.6829689292353719  0.8401278512754148  0.0971204690625895   T   T   T
  0.5562319351985745  0.9220985354830241  0.0966338438517879   T   T   T
  0.5562800222585907  0.5895818425184759  0.1936917513130594   T   T   T
 
  0.00000000E+00  0.00000000E+00  0.00000000E+00
  0.00000000E+00  0.00000000E+00  0.00000000E+00
  0.00000000E+00  0.00000000E+00  0.00000000E+00
  0.00000000E+00  0.00000000E+00  0.00000000E+00
  0.00000000E+00  0.00000000E+00  0.00000000E+00
  0.00000000E+00  0.00000000E+00  0.00000000E+00
  0.00000000E+00  0.00000000E+00  0.00000000E+00
  0.00000000E+00  0.00000000E+00  0.00000000E+00
  0.00000000E+00  0.00000000E+00  0.00000000E+00
  0.00000000E+00  0.00000000E+00  0.00000000E+00
  0.00000000E+00  0.00000000E+00  0.00000000E+00
  0.00000000E+00  0.00000000E+00  0.00000000E+00
  0.00000000E+00  0.00000000E+00  0.00000000E+00
  0.00000000E+00  0.00000000E+00  0.00000000E+00
  0.00000000E+00  0.00000000E+00  0.00000000E+00
  0.00000000E+00  0.00000000E+00  0.00000000E+00
  0.00000000E+00  0.00000000E+00  0.00000000E+00
  0.00000000E+00  0.00000000E+00  0.00000000E+00
  0.00000000E+00  0.00000000E+00  0.00000000E+00
  0.00000000E+00  0.00000000E+00  0.00000000E+00
  0.00000000E+00  0.00000000E+00  0.00000000E+00
  0.00000000E+00  0.00000000E+00  0.00000000E+00
  0.00000000E+00  0.00000000E+00  0.00000000E+00
  0.00000000E+00  0.00000000E+00  0.00000000E+00
  0.00000000E+00  0.00000000E+00  0.00000000E+00
  0.00000000E+00  0.00000000E+00  0.00000000E+00
  0.00000000E+00  0.00000000E+00  0.00000000E+00
  0.00000000E+00  0.00000000E+00  0.00000000E+00
  0.00000000E+00  0.00000000E+00  0.00000000E+00
  0.00000000E+00  0.00000000E+00  0.00000000E+00
  0.00000000E+00  0.00000000E+00  0.00000000E+00
  0.00000000E+00  0.00000000E+00  0.00000000E+00
