Title                                   
   1.00000000000000     
     9.8694509999999998    0.0000000000000000    0.0000000000000000
     0.0000000000000000    8.5490480000000009    0.0000000000000000
     0.0000000000000000    0.0000000000000000   20.0000000000000000
    28     2     1
Selective dynamics
Direct
  0.0550456823699323  0.0891122146249081  0.0841309588261132   T   T   T
  0.9292739869644496  0.1739487985464430  0.0851474144784608   T   T   T
  0.0573831353806449  0.9231745748007425  0.0841638469494143   T   T   T
  0.9315240754889563  0.3411795482625452  0.0836612804717221   T   T   T
  0.0564744468326805  0.5892148966915277  0.0806147738972552   T   T   T
  0.9336793493269262  0.6762976565756648  0.0857193288678099   T   T   T
  0.0559581583358779  0.4231069364509848  0.0805776169901652   T   T   T
  0.9328332788961281  0.8427869881847272  0.0876322601549830   T   T   T
  0.3057804302016772  0.0879667125975658  0.0938550775105102   T   T   T
  0.1796401243125499  0.1695339275741926  0.0870387102397434   T   T   T
  0.3089288902576608  0.9187944291030464  0.0916286467932859   T   T   T
  0.1788275076603655  0.3359801068675195  0.0850371497326713   T   T   T
  0.3026694112334020  0.5846670568317501  0.0901559864764387   T   T   T
  0.1809697207917328  0.6711601134692745  0.0830380663632374   T   T   T
  0.2997107316913460  0.4162778102043240  0.0950987964050608   T   T   T
  0.1832021479932784  0.8383529186852053  0.0846164059926392   T   T   T
  0.5546920342548487  0.0912083938718649  0.1060125654515373   T   T   T
  0.4261356482080518  0.1759361144373758  0.1052558088083123   T   T   T
  0.5576655257959829  0.9210822987485345  0.1059064755547092   T   T   T
  0.4280421449889745  0.6620380862199936  0.0984762144126447   T   T   T
  0.4336651639567329  0.8311427522393878  0.0989908418535677   T   T   T
  0.8036029452525436  0.0935092407619152  0.0923667589398423   T   T   T
  0.6788562015883485  0.1811019803642340  0.0996697240899532   T   T   T
  0.8067166243796638  0.9243417621658762  0.0945127290119209   T   T   T
  0.6845905741740074  0.3502268918655637  0.0993279425516856   T   T   T
  0.8128367205491815  0.5960359195488639  0.0959398014300111   T   T   T
  0.8099526349495088  0.4276237481368809  0.0911221822987414   T   T   T
  0.6862713459866355  0.8364165133536813  0.1056073085340675   T   T   T
  0.4175335368435640  0.3389303858141653  0.1140487307862898   T   T   T
  0.6947867731548241  0.6734793499707316  0.1145272494604909   T   T   T
  0.5558860481795346  0.5062468730305216  0.1370843466667565   T   T   T
 
  0.00000000E+00  0.00000000E+00  0.00000000E+00
  0.00000000E+00  0.00000000E+00  0.00000000E+00
  0.00000000E+00  0.00000000E+00  0.00000000E+00
  0.00000000E+00  0.00000000E+00  0.00000000E+00
  0.00000000E+00  0.00000000E+00  0.00000000E+00
  0.00000000E+00  0.00000000E+00  0.00000000E+00
  0.00000000E+00  0.00000000E+00  0.00000000E+00
  0.00000000E+00  0.00000000E+00  0.00000000E+00
  0.00000000E+00  0.00000000E+00  0.00000000E+00
  0.00000000E+00  0.00000000E+00  0.00000000E+00
  0.00000000E+00  0.00000000E+00  0.00000000E+00
  0.00000000E+00  0.00000000E+00  0.00000000E+00
  0.00000000E+00  0.00000000E+00  0.00000000E+00
  0.00000000E+00  0.00000000E+00  0.00000000E+00
  0.00000000E+00  0.00000000E+00  0.00000000E+00
  0.00000000E+00  0.00000000E+00  0.00000000E+00
  0.00000000E+00  0.00000000E+00  0.00000000E+00
  0.00000000E+00  0.00000000E+00  0.00000000E+00
  0.00000000E+00  0.00000000E+00  0.00000000E+00
  0.00000000E+00  0.00000000E+00  0.00000000E+00
  0.00000000E+00  0.00000000E+00  0.00000000E+00
  0.00000000E+00  0.00000000E+00  0.00000000E+00
  0.00000000E+00  0.00000000E+00  0.00000000E+00
  0.00000000E+00  0.00000000E+00  0.00000000E+00
  0.00000000E+00  0.00000000E+00  0.00000000E+00
  0.00000000E+00  0.00000000E+00  0.00000000E+00
  0.00000000E+00  0.00000000E+00  0.00000000E+00
  0.00000000E+00  0.00000000E+00  0.00000000E+00
  0.00000000E+00  0.00000000E+00  0.00000000E+00
  0.00000000E+00  0.00000000E+00  0.00000000E+00
  0.00000000E+00  0.00000000E+00  0.00000000E+00
