Title                                   
   1.00000000000000     
     9.8694509999999998    0.0000000000000000    0.0000000000000000
     0.0000000000000000    8.5490480000000009    0.0000000000000000
     0.0000000000000000    0.0000000000000000   20.0000000000000000
    31     1
Selective dynamics
Direct
  0.0562582515360839  0.0898260825954831  0.0830695734835816   T   T   T
  0.9312792344436057  0.1728940711794843  0.0851564321182587   T   T   T
  0.0562447161535049  0.9229922772324657  0.0832897473263315   T   T   T
  0.9308833217859755  0.3397711499276836  0.0881137210760875   T   T   T
  0.0562225670015073  0.5890752111352752  0.0861655712153618   T   T   T
  0.9320182941435836  0.6727416705029492  0.0883069940133628   T   T   T
  0.0562222548699132  0.4228952279964909  0.0866961148922765   T   T   T
  0.9315772881824564  0.8395995747882499  0.0861502669421704   T   T   T
  0.3055641323913335  0.0894598089390480  0.0876112548458567   T   T   T
  0.1812296616410872  0.1729027333164688  0.0851223867964525   T   T   T
  0.3053441711231877  0.9232868031046839  0.0892065146061780   T   T   T
  0.1815763803879338  0.3397781551406755  0.0880755311445288   T   T   T
  0.3036215105485982  0.5899508138159237  0.0985673128748450   T   T   T
  0.1804380174981331  0.6727227588290901  0.0882442620449065   T   T   T
  0.3053989836427622  0.4220649957866884  0.0968023167875468   T   T   T
  0.1808937447891113  0.8395741748735815  0.0860955630076045   T   T   T
  0.5562467674472009  0.0879465025349269  0.0944752898969011   T   T   T
  0.4305523111288107  0.1712197524751492  0.0931246515658655   T   T   T
  0.5562387066788055  0.9227863103217728  0.0990744766152399   T   T   T
  0.4304258045515726  0.3363088727957566  0.1008968525582252   T   T   T
  0.4217561810578039  0.6783274894388223  0.1122650288672311   T   T   T
  0.5562324956124794  0.4106834524587479  0.1140931369519399   T   T   T
  0.4290160108517655  0.8409517733457788  0.0999124747218824   T   T   T
  0.8069350632426644  0.0894691599672542  0.0876659263862558   T   T   T
  0.6819493860631848  0.1712327492984722  0.0931664726047838   T   T   T
  0.8071333257719664  0.9233023375183226  0.0892863436630724   T   T   T
  0.6820532046950984  0.3363114143058529  0.1009446005125353   T   T   T
  0.8088736232710494  0.5899538316201322  0.0986925776214661   T   T   T
  0.6907703793422029  0.6783324138332284  0.1124006966805061   T   T   T
  0.8070776410962881  0.4220595155297173  0.0968817632410458   T   T   T
  0.6834593559032754  0.8409275676312528  0.0999919070813195   T   T   T
  0.5561462131470611  0.5908973477605811  0.1661292378564147   T   T   T
 
  0.00000000E+00  0.00000000E+00  0.00000000E+00
  0.00000000E+00  0.00000000E+00  0.00000000E+00
  0.00000000E+00  0.00000000E+00  0.00000000E+00
  0.00000000E+00  0.00000000E+00  0.00000000E+00
  0.00000000E+00  0.00000000E+00  0.00000000E+00
  0.00000000E+00  0.00000000E+00  0.00000000E+00
  0.00000000E+00  0.00000000E+00  0.00000000E+00
  0.00000000E+00  0.00000000E+00  0.00000000E+00
  0.00000000E+00  0.00000000E+00  0.00000000E+00
  0.00000000E+00  0.00000000E+00  0.00000000E+00
  0.00000000E+00  0.00000000E+00  0.00000000E+00
  0.00000000E+00  0.00000000E+00  0.00000000E+00
  0.00000000E+00  0.00000000E+00  0.00000000E+00
  0.00000000E+00  0.00000000E+00  0.00000000E+00
  0.00000000E+00  0.00000000E+00  0.00000000E+00
  0.00000000E+00  0.00000000E+00  0.00000000E+00
  0.00000000E+00  0.00000000E+00  0.00000000E+00
  0.00000000E+00  0.00000000E+00  0.00000000E+00
  0.00000000E+00  0.00000000E+00  0.00000000E+00
  0.00000000E+00  0.00000000E+00  0.00000000E+00
  0.00000000E+00  0.00000000E+00  0.00000000E+00
  0.00000000E+00  0.00000000E+00  0.00000000E+00
  0.00000000E+00  0.00000000E+00  0.00000000E+00
  0.00000000E+00  0.00000000E+00  0.00000000E+00
  0.00000000E+00  0.00000000E+00  0.00000000E+00
  0.00000000E+00  0.00000000E+00  0.00000000E+00
  0.00000000E+00  0.00000000E+00  0.00000000E+00
  0.00000000E+00  0.00000000E+00  0.00000000E+00
  0.00000000E+00  0.00000000E+00  0.00000000E+00
  0.00000000E+00  0.00000000E+00  0.00000000E+00
  0.00000000E+00  0.00000000E+00  0.00000000E+00
  0.00000000E+00  0.00000000E+00  0.00000000E+00
