Title                                   
   1.00000000000000     
     9.8694509999999998    0.0000000000000000    0.0000000000000000
     0.0000000000000000    8.5490480000000009    0.0000000000000000
     0.0000000000000000    0.0000000000000000   20.0000000000000000
    27     3     1
Selective dynamics
Direct
  0.0561408840387328  0.0897487842044050  0.0914033322488422   T   T   T
  0.9312261886541489  0.1717559829254860  0.0922940686400443   T   T   T
  0.0576814326613270  0.9231429917217772  0.0915711337664309   T   T   T
  0.9342257325847052  0.3384403911093686  0.0916608889499644   T   T   T
  0.0577739590987884  0.5899395656186244  0.0899201133263166   T   T   T
  0.9343093691366631  0.6742177224936315  0.0916725005184253   T   T   T
  0.0578826457676867  0.4229261465719866  0.0899137894447078   T   T   T
  0.9316736410472115  0.8403131246475462  0.0923650590871384   T   T   T
  0.3059758849030034  0.0887370814760180  0.0941119260229310   T   T   T
  0.1805353961158595  0.1708164497009695  0.0917265049627621   T   T   T
  0.1808173220142225  0.3392293436511261  0.0910869319582940   T   T   T
  0.3032460493884239  0.5901894972789865  0.0939483436362749   T   T   T
  0.1812620489551028  0.6730533188138766  0.0911447243767720   T   T   T
  0.3037935583543988  0.4217823580290304  0.0939653810993592   T   T   T
  0.1811356918460687  0.8410771987525399  0.0919998700719840   T   T   T
  0.5543495783427617  0.0911578976452537  0.0987234031265929   T   T   T
  0.4286031059021568  0.1761897725523902  0.0973794728375992   T   T   T
  0.5532420986608690  0.9216115177310816  0.0986107046717860   T   T   T
  0.4279419895270957  0.8353832271038105  0.0973001159520215   T   T   T
  0.8052746424498818  0.0901371756197480  0.0950931359891115   T   T   T
  0.6808923578225985  0.1769334123139740  0.0983123678110474   T   T   T
  0.8054208140183263  0.9217977548607964  0.0950602700242742   T   T   T
  0.6868965165698018  0.3439435583120364  0.0996872967085925   T   T   T
  0.8126678109401586  0.5906845567168502  0.0952536609644501   T   T   T
  0.6869318676944568  0.6684880966328192  0.0996751539698318   T   T   T
  0.8127652993839030  0.4219145711797945  0.0952712311421027   T   T   T
  0.6803888531502731  0.8349494541867776  0.0981869067759870   T   T   T
  0.4244192422140725  0.3391368622399553  0.0983616358360533   T   T   T
  0.4235818830174679  0.6749194019394015  0.0984235090046750   T   T   T
  0.3061195387453812  0.9224416253095621  0.0940781223987921   T   T   T
  0.5559595969944697  0.5058161586603835  0.1027634446768839   T   T   T
 
  0.00000000E+00  0.00000000E+00  0.00000000E+00
  0.00000000E+00  0.00000000E+00  0.00000000E+00
  0.00000000E+00  0.00000000E+00  0.00000000E+00
  0.00000000E+00  0.00000000E+00  0.00000000E+00
  0.00000000E+00  0.00000000E+00  0.00000000E+00
  0.00000000E+00  0.00000000E+00  0.00000000E+00
  0.00000000E+00  0.00000000E+00  0.00000000E+00
  0.00000000E+00  0.00000000E+00  0.00000000E+00
  0.00000000E+00  0.00000000E+00  0.00000000E+00
  0.00000000E+00  0.00000000E+00  0.00000000E+00
  0.00000000E+00  0.00000000E+00  0.00000000E+00
  0.00000000E+00  0.00000000E+00  0.00000000E+00
  0.00000000E+00  0.00000000E+00  0.00000000E+00
  0.00000000E+00  0.00000000E+00  0.00000000E+00
  0.00000000E+00  0.00000000E+00  0.00000000E+00
  0.00000000E+00  0.00000000E+00  0.00000000E+00
  0.00000000E+00  0.00000000E+00  0.00000000E+00
  0.00000000E+00  0.00000000E+00  0.00000000E+00
  0.00000000E+00  0.00000000E+00  0.00000000E+00
  0.00000000E+00  0.00000000E+00  0.00000000E+00
  0.00000000E+00  0.00000000E+00  0.00000000E+00
  0.00000000E+00  0.00000000E+00  0.00000000E+00
  0.00000000E+00  0.00000000E+00  0.00000000E+00
  0.00000000E+00  0.00000000E+00  0.00000000E+00
  0.00000000E+00  0.00000000E+00  0.00000000E+00
  0.00000000E+00  0.00000000E+00  0.00000000E+00
  0.00000000E+00  0.00000000E+00  0.00000000E+00
  0.00000000E+00  0.00000000E+00  0.00000000E+00
  0.00000000E+00  0.00000000E+00  0.00000000E+00
  0.00000000E+00  0.00000000E+00  0.00000000E+00
  0.00000000E+00  0.00000000E+00  0.00000000E+00
