Title                                   
   1.00000000000000     
     9.8694509999999998    0.0000000000000000    0.0000000000000000
     0.0000000000000000    8.5490480000000009    0.0000000000000000
     0.0000000000000000    0.0000000000000000   20.0000000000000000
    27     3     1
Selective dynamics
Direct
  0.0546944633950781  0.0887424239108813  0.0925278747130192   T   T   T
  0.9299412788682068  0.1728652369780049  0.0891820136867457   T   T   T
  0.0566351776620066  0.9223766124310995  0.0929146692182061   T   T   T
  0.9318981671053181  0.3400120327446520  0.0901749423876406   T   T   T
  0.0560761010487088  0.5899896442253547  0.0951582275464651   T   T   T
  0.9317559417642178  0.6728029808043526  0.0918602988413104   T   T   T
  0.0561267262674804  0.4224962040138170  0.0947704420467700   T   T   T
  0.9308923198583653  0.8396101126421350  0.0905863345612357   T   T   T
  0.3060427667784675  0.0874347099025653  0.0977833076333759   T   T   T
  0.1805762307887213  0.1701478099926043  0.0964171147469264   T   T   T
  0.1803695070467084  0.3373565351064676  0.0979718967009986   T   T   T
  0.3061808607784864  0.5871668064961723  0.1033889592701852   T   T   T
  0.1820130735060623  0.6721879586829043  0.0978473921394884   T   T   T
  0.3039413177635851  0.4183359509589072  0.1038091459347099   T   T   T
  0.1821285420336217  0.8391216515055214  0.0962306420683387   T   T   T
  0.4291254081645368  0.1773264867943008  0.1001255042466484   T   T   T
  0.5529646893717293  0.9258279866686150  0.0939913745243883   T   T   T
  0.4313154925116355  0.6687345967961189  0.1073922384272463   T   T   T
  0.4310004739716259  0.8360981897336589  0.1003681812779088   T   T   T
  0.8036887159415573  0.0897492914570516  0.0866725806417366   T   T   T
  0.6780010693559089  0.1756826188084057  0.0851917300304839   T   T   T
  0.8052526355259092  0.9240864869381792  0.0874662092255203   T   T   T
  0.6813602409202865  0.3385554916475557  0.0805891528222330   T   T   T
  0.8057599620172066  0.5916336787976825  0.0865281691725763   T   T   T
  0.6812084342677223  0.6770464232281299  0.0858968058607392   T   T   T
  0.8066816298407511  0.4215876440567077  0.0844528474047772   T   T   T
  0.6781942232924603  0.8427183169909399  0.0873644392471585   T   T   T
  0.5530168231376847  0.0941974790139731  0.0933038763803350   T   T   T
  0.4260793914549383  0.3376187778574204  0.1080821908101455   T   T   T
  0.3061413461976095  0.9219504920052938  0.0974771778382920   T   T   T
  0.5840719893634191  0.5074143688105498  0.1254392605944433   T   T   T
 
  0.00000000E+00  0.00000000E+00  0.00000000E+00
  0.00000000E+00  0.00000000E+00  0.00000000E+00
  0.00000000E+00  0.00000000E+00  0.00000000E+00
  0.00000000E+00  0.00000000E+00  0.00000000E+00
  0.00000000E+00  0.00000000E+00  0.00000000E+00
  0.00000000E+00  0.00000000E+00  0.00000000E+00
  0.00000000E+00  0.00000000E+00  0.00000000E+00
  0.00000000E+00  0.00000000E+00  0.00000000E+00
  0.00000000E+00  0.00000000E+00  0.00000000E+00
  0.00000000E+00  0.00000000E+00  0.00000000E+00
  0.00000000E+00  0.00000000E+00  0.00000000E+00
  0.00000000E+00  0.00000000E+00  0.00000000E+00
  0.00000000E+00  0.00000000E+00  0.00000000E+00
  0.00000000E+00  0.00000000E+00  0.00000000E+00
  0.00000000E+00  0.00000000E+00  0.00000000E+00
  0.00000000E+00  0.00000000E+00  0.00000000E+00
  0.00000000E+00  0.00000000E+00  0.00000000E+00
  0.00000000E+00  0.00000000E+00  0.00000000E+00
  0.00000000E+00  0.00000000E+00  0.00000000E+00
  0.00000000E+00  0.00000000E+00  0.00000000E+00
  0.00000000E+00  0.00000000E+00  0.00000000E+00
  0.00000000E+00  0.00000000E+00  0.00000000E+00
  0.00000000E+00  0.00000000E+00  0.00000000E+00
  0.00000000E+00  0.00000000E+00  0.00000000E+00
  0.00000000E+00  0.00000000E+00  0.00000000E+00
  0.00000000E+00  0.00000000E+00  0.00000000E+00
  0.00000000E+00  0.00000000E+00  0.00000000E+00
  0.00000000E+00  0.00000000E+00  0.00000000E+00
  0.00000000E+00  0.00000000E+00  0.00000000E+00
  0.00000000E+00  0.00000000E+00  0.00000000E+00
  0.00000000E+00  0.00000000E+00  0.00000000E+00
