Title                                   
   1.00000000000000     
     9.8694509999999998    0.0000000000000000    0.0000000000000000
     0.0000000000000000    8.5490480000000009    0.0000000000000000
     0.0000000000000000    0.0000000000000000   20.0000000000000000
    28     3     1
Selective dynamics
Direct
  0.0559857774042285  0.0917913776968545  0.0822567694563538   T   T   T
  0.9314189279512630  0.1736764740489053  0.0834162691499478   T   T   T
  0.0568845416434688  0.9244465948481631  0.0831243077326821   T   T   T
  0.9308163792532925  0.3406927849690025  0.0868183752879194   T   T   T
  0.0572072325569553  0.5902073255540876  0.0843416643942271   T   T   T
  0.9327370167373139  0.6728029989098085  0.0882335510843835   T   T   T
  0.0574938408355269  0.4233011559474219  0.0852232722314646   T   T   T
  0.9321927259838207  0.8398223464157250  0.0858943357300478   T   T   T
  0.3053153091186596  0.0885111133730621  0.0870085926542391   T   T   T
  0.1821642010577088  0.1735323411765448  0.0843863738774482   T   T   T
  0.1842992750754573  0.3411324540961702  0.0865881860578144   T   T   T
  0.3033822349899051  0.5929613885603361  0.0979392157375761   T   T   T
  0.1812991520931626  0.6749880818871996  0.0869210218422440   T   T   T
  0.3101560066430372  0.4255995005161002  0.0953451421891483   T   T   T
  0.1805748185190662  0.8416301416571292  0.0862133594430212   T   T   T
  0.5560161067585393  0.0850141904144681  0.0926738042164320   T   T   T
  0.4307498478212102  0.1688600463083878  0.0918759689007011   T   T   T
  0.5543428857866843  0.9193593907957391  0.0984104943845565   T   T   T
  0.4323890109530488  0.3328809207855483  0.0999065580407588   T   T   T
  0.4253592496011661  0.8416760910602719  0.1009923741392104   T   T   T
  0.8067650650729421  0.0890753294204613  0.0849038375538955   T   T   T
  0.6811180471735163  0.1688202147636591  0.0905257832255836   T   T   T
  0.8067010360757337  0.9232645614196453  0.0880930690021395   T   T   T
  0.6810381711676624  0.3332678960403354  0.0999155614510080   T   T   T
  0.8106348348151833  0.5901275683215325  0.1011966670255544   T   T   T
  0.6952764131751517  0.6809291338628598  0.1203351116348686   T   T   T
  0.8054200575305911  0.4225707612986032  0.0967408535729383   T   T   T
  0.6837485862826076  0.8410260855253859  0.1012238526787632   T   T   T
  0.4135513594404315  0.6860810539639822  0.1182593046415926   T   T   T
  0.5573226922193326  0.4010574966160175  0.1170790857132965   T   T   T
  0.3046157351485747  0.9246037726805324  0.0892354921621352   T   T   T
  0.5526624611147650  0.5865354070660690  0.1705967447880827   T   T   T
 
  0.00000000E+00  0.00000000E+00  0.00000000E+00
  0.00000000E+00  0.00000000E+00  0.00000000E+00
  0.00000000E+00  0.00000000E+00  0.00000000E+00
  0.00000000E+00  0.00000000E+00  0.00000000E+00
  0.00000000E+00  0.00000000E+00  0.00000000E+00
  0.00000000E+00  0.00000000E+00  0.00000000E+00
  0.00000000E+00  0.00000000E+00  0.00000000E+00
  0.00000000E+00  0.00000000E+00  0.00000000E+00
  0.00000000E+00  0.00000000E+00  0.00000000E+00
  0.00000000E+00  0.00000000E+00  0.00000000E+00
  0.00000000E+00  0.00000000E+00  0.00000000E+00
  0.00000000E+00  0.00000000E+00  0.00000000E+00
  0.00000000E+00  0.00000000E+00  0.00000000E+00
  0.00000000E+00  0.00000000E+00  0.00000000E+00
  0.00000000E+00  0.00000000E+00  0.00000000E+00
  0.00000000E+00  0.00000000E+00  0.00000000E+00
  0.00000000E+00  0.00000000E+00  0.00000000E+00
  0.00000000E+00  0.00000000E+00  0.00000000E+00
  0.00000000E+00  0.00000000E+00  0.00000000E+00
  0.00000000E+00  0.00000000E+00  0.00000000E+00
  0.00000000E+00  0.00000000E+00  0.00000000E+00
  0.00000000E+00  0.00000000E+00  0.00000000E+00
  0.00000000E+00  0.00000000E+00  0.00000000E+00
  0.00000000E+00  0.00000000E+00  0.00000000E+00
  0.00000000E+00  0.00000000E+00  0.00000000E+00
  0.00000000E+00  0.00000000E+00  0.00000000E+00
  0.00000000E+00  0.00000000E+00  0.00000000E+00
  0.00000000E+00  0.00000000E+00  0.00000000E+00
  0.00000000E+00  0.00000000E+00  0.00000000E+00
  0.00000000E+00  0.00000000E+00  0.00000000E+00
  0.00000000E+00  0.00000000E+00  0.00000000E+00
  0.00000000E+00  0.00000000E+00  0.00000000E+00
