Title                                   
   1.00000000000000     
     4.9440799999999996    0.0000000000000000    0.0000000000000000
     0.0000000000000000    8.5647549999999999    0.0000000000000000
     0.0000000000000000    0.0000000000000000   20.0000000000000000
    10     4     1
Selective dynamics
Direct
 -0.0028930923768112  0.2937969464982359  0.1003783937406872   T   T   T
  0.2477992894468816  0.0395250928987992  0.1005333823255875   T   T   T
 -0.0041751408249655  0.9580938640598593  0.1006106165168027   T   T   T
  0.7470614087547278  0.2073654758113904  0.1003003684858694   T   T   T
  0.4989819675985928  0.2917103496472342  0.1003436019504627   T   T   T
  0.7484051736789180  0.0414178787954300  0.1004495770120612   T   T   T
  0.7550747451955202  0.7158639769556069  0.1006618338328470   T   T   T
  0.7544420266191588  0.5355953441622994  0.1004738773979008   T   T   T
  0.5017777038554334  0.9557114894823094  0.1006123036933395   T   T   T
  0.5094062557252531  0.4573397907047775  0.1004253366874651   T   T   T
 -0.0074874168468807  0.4534141413264967  0.1005124595215998   T   T   T
 -0.0142295320626393  0.7965427753243761  0.1007605871425579   T   T   T
  0.5146375749264274  0.7935518359975702  0.1007406774569905   T   T   T
  0.2483849140812306  0.2082641299603650  0.1004424668486117   T   T   T
  0.2528141222291533  0.6234879083752518  0.1007345173872201   T   T   T
 
  0.00000000E+00  0.00000000E+00  0.00000000E+00
  0.00000000E+00  0.00000000E+00  0.00000000E+00
  0.00000000E+00  0.00000000E+00  0.00000000E+00
  0.00000000E+00  0.00000000E+00  0.00000000E+00
  0.00000000E+00  0.00000000E+00  0.00000000E+00
  0.00000000E+00  0.00000000E+00  0.00000000E+00
  0.00000000E+00  0.00000000E+00  0.00000000E+00
  0.00000000E+00  0.00000000E+00  0.00000000E+00
  0.00000000E+00  0.00000000E+00  0.00000000E+00
  0.00000000E+00  0.00000000E+00  0.00000000E+00
  0.00000000E+00  0.00000000E+00  0.00000000E+00
  0.00000000E+00  0.00000000E+00  0.00000000E+00
  0.00000000E+00  0.00000000E+00  0.00000000E+00
  0.00000000E+00  0.00000000E+00  0.00000000E+00
  0.00000000E+00  0.00000000E+00  0.00000000E+00
