Title                                   
   1.00000000000000     
     9.8694509999999998    0.0000000000000000    0.0000000000000000
     0.0000000000000000    8.5490480000000009    0.0000000000000000
     0.0000000000000000    0.0000000000000000   20.0000000000000000
    28     3     1
Selective dynamics
Direct
  0.0559762128733605  0.0915674299694889  0.0854171696424542   T   T   T
  0.9306471902241997  0.1754660392457530  0.0888569262161972   T   T   T
  0.0578405868141132  0.9240990659300423  0.0841305102072136   T   T   T
  0.9289047791185546  0.3428763094711395  0.0927639202766487   T   T   T
  0.0557324960263478  0.5898340336578618  0.0870240443089747   T   T   T
  0.9328792884518365  0.6746759282779663  0.0889558669350367   T   T   T
  0.0558122189260789  0.4233850481052270  0.0898792499305059   T   T   T
  0.9329803733747961  0.8419528511731674  0.0863863925785596   T   T   T
  0.3056737647146043  0.0861274244643025  0.0876184269820965   T   T   T
  0.1820378003078219  0.1732261924333275  0.0869694779868828   T   T   T
  0.3085137067039377  0.9207680705506102  0.0882597940918165   T   T   T
  0.1808020502176065  0.3391675434763705  0.0900852487535129   T   T   T
  0.3044977763993451  0.5867590893992320  0.0963185150173527   T   T   T
  0.1813363025375939  0.6709467557245784  0.0870439852694272   T   T   T
  0.1830533397158257  0.8375798028673113  0.0855382407526606   T   T   T
  0.5563694583150650  0.0857126404026762  0.0961512680065505   T   T   T
  0.4301831678937749  0.1676161304290263  0.0930890624672040   T   T   T
  0.4282168121801281  0.3336436140122694  0.0997786246296275   T   T   T
  0.4317821624028217  0.8352295149386176  0.0982920939032213   T   T   T
  0.8067527659000823  0.0916304600247495  0.0896353213959471   T   T   T
  0.6800940576199693  0.1713575573096469  0.0961318825318816   T   T   T
  0.8082128643215692  0.9267485897352039  0.0885684356135926   T   T   T
  0.6773854732402115  0.3378097465520479  0.1044390485328854   T   T   T
  0.8083910348411064  0.5962971554222064  0.1008199021205028   T   T   T
  0.8030924691037886  0.4271862368978577  0.1009041448066942   T   T   T
  0.6864491020545325  0.8413498892084327  0.0989965993400746   T   T   T
  0.4230929995694336  0.6718723451418490  0.1112267884354420   T   T   T
  0.5485171105780727  0.4097727378242198  0.1152618341939728   T   T   T
  0.6951930777355821  0.6876559657871736  0.1141426790847881   T   T   T
  0.5586457612516745  0.9184735686398533  0.0988777586741279   T   T   T
  0.3042334142401849  0.4204163218350506  0.0950644398915323   T   T   T
  0.5563393823459880  0.5890419410927422  0.1590473474226318   T   T   T
 
  0.00000000E+00  0.00000000E+00  0.00000000E+00
  0.00000000E+00  0.00000000E+00  0.00000000E+00
  0.00000000E+00  0.00000000E+00  0.00000000E+00
  0.00000000E+00  0.00000000E+00  0.00000000E+00
  0.00000000E+00  0.00000000E+00  0.00000000E+00
  0.00000000E+00  0.00000000E+00  0.00000000E+00
  0.00000000E+00  0.00000000E+00  0.00000000E+00
  0.00000000E+00  0.00000000E+00  0.00000000E+00
  0.00000000E+00  0.00000000E+00  0.00000000E+00
  0.00000000E+00  0.00000000E+00  0.00000000E+00
  0.00000000E+00  0.00000000E+00  0.00000000E+00
  0.00000000E+00  0.00000000E+00  0.00000000E+00
  0.00000000E+00  0.00000000E+00  0.00000000E+00
  0.00000000E+00  0.00000000E+00  0.00000000E+00
  0.00000000E+00  0.00000000E+00  0.00000000E+00
  0.00000000E+00  0.00000000E+00  0.00000000E+00
  0.00000000E+00  0.00000000E+00  0.00000000E+00
  0.00000000E+00  0.00000000E+00  0.00000000E+00
  0.00000000E+00  0.00000000E+00  0.00000000E+00
  0.00000000E+00  0.00000000E+00  0.00000000E+00
  0.00000000E+00  0.00000000E+00  0.00000000E+00
  0.00000000E+00  0.00000000E+00  0.00000000E+00
  0.00000000E+00  0.00000000E+00  0.00000000E+00
  0.00000000E+00  0.00000000E+00  0.00000000E+00
  0.00000000E+00  0.00000000E+00  0.00000000E+00
  0.00000000E+00  0.00000000E+00  0.00000000E+00
  0.00000000E+00  0.00000000E+00  0.00000000E+00
  0.00000000E+00  0.00000000E+00  0.00000000E+00
  0.00000000E+00  0.00000000E+00  0.00000000E+00
  0.00000000E+00  0.00000000E+00  0.00000000E+00
  0.00000000E+00  0.00000000E+00  0.00000000E+00
  0.00000000E+00  0.00000000E+00  0.00000000E+00
