Title                                   
   1.00000000000000     
     9.8694509999999998    0.0000000000000000    0.0000000000000000
     0.0000000000000000    8.5490480000000009    0.0000000000000000
     0.0000000000000000    0.0000000000000000   20.0000000000000000
    30     1     1
Selective dynamics
Direct
  0.0566255203509762  0.0905537143051163  0.0827694431763526   T   T   T
  0.9314625825296616  0.1725892471206046  0.0847978168628210   T   T   T
  0.0557417665056213  0.9234253156765891  0.0828719973538044   T   T   T
  0.9316170606591168  0.3392245467324382  0.0879502681819123   T   T   T
  0.0567202340909399  0.5889871208259952  0.0855394403219517   T   T   T
  0.9324663865373807  0.6721954754482989  0.0878710534803538   T   T   T
  0.0570905856967473  0.4228640898248983  0.0864587622771151   T   T   T
  0.9312661230866722  0.8390643138817819  0.0855694015766002   T   T   T
  0.3059632417446650  0.0901878191833107  0.0870995847954594   T   T   T
  0.1817739604113321  0.1741455303105027  0.0850500543444092   T   T   T
  0.3045220411203330  0.9238462881727070  0.0887032507769121   T   T   T
  0.1828466436922504  0.3415017082109385  0.0882001158133037   T   T   T
  0.3035925964077162  0.5933831396301368  0.0984617683197713   T   T   T
  0.1802763537828732  0.6738013450244541  0.0877683791953815   T   T   T
  0.3076907039632686  0.4249860358987826  0.0969960455550144   T   T   T
  0.1798362844686478  0.8405692869220025  0.0858709943761080   T   T   T
  0.5556764092124546  0.0863278227962469  0.0942059891250376   T   T   T
  0.4310651840019913  0.1714816168333988  0.0925956642088794   T   T   T
  0.5549733547135761  0.9196622138090201  0.0988947419642817   T   T   T
  0.4321237225883091  0.3371687098308659  0.1010895605811019   T   T   T
  0.5579853596454321  0.4096746071987261  0.1154968216704924   T   T   T
  0.4263945995716927  0.8401187486833701  0.0995544074430523   T   T   T
  0.8069125833067118  0.0883473920619593  0.0870489218838479   T   T   T
  0.6819349340187344  0.1695159290658584  0.0929001772973145   T   T   T
  0.8064617352063808  0.9221172187912225  0.0885269090380872   T   T   T
  0.6829553735272044  0.3345892696714744  0.1015088570165521   T   T   T
  0.8098403849277978  0.5890393524729124  0.0991658035521230   T   T   T
  0.6919341897791350  0.6768337121953044  0.1136361313406349   T   T   T
  0.8077625439505119  0.4210189924181808  0.0972459381373205   T   T   T
  0.6831234483005124  0.8387917734044421  0.0998296927373670   T   T   T
  0.4179366699652078  0.6813740443381179  0.1132216064703474   T   T   T
  0.5530664222361524  0.5928596192603518  0.1687754011263237   T   T   T
 
  0.00000000E+00  0.00000000E+00  0.00000000E+00
  0.00000000E+00  0.00000000E+00  0.00000000E+00
  0.00000000E+00  0.00000000E+00  0.00000000E+00
  0.00000000E+00  0.00000000E+00  0.00000000E+00
  0.00000000E+00  0.00000000E+00  0.00000000E+00
  0.00000000E+00  0.00000000E+00  0.00000000E+00
  0.00000000E+00  0.00000000E+00  0.00000000E+00
  0.00000000E+00  0.00000000E+00  0.00000000E+00
  0.00000000E+00  0.00000000E+00  0.00000000E+00
  0.00000000E+00  0.00000000E+00  0.00000000E+00
  0.00000000E+00  0.00000000E+00  0.00000000E+00
  0.00000000E+00  0.00000000E+00  0.00000000E+00
  0.00000000E+00  0.00000000E+00  0.00000000E+00
  0.00000000E+00  0.00000000E+00  0.00000000E+00
  0.00000000E+00  0.00000000E+00  0.00000000E+00
  0.00000000E+00  0.00000000E+00  0.00000000E+00
  0.00000000E+00  0.00000000E+00  0.00000000E+00
  0.00000000E+00  0.00000000E+00  0.00000000E+00
  0.00000000E+00  0.00000000E+00  0.00000000E+00
  0.00000000E+00  0.00000000E+00  0.00000000E+00
  0.00000000E+00  0.00000000E+00  0.00000000E+00
  0.00000000E+00  0.00000000E+00  0.00000000E+00
  0.00000000E+00  0.00000000E+00  0.00000000E+00
  0.00000000E+00  0.00000000E+00  0.00000000E+00
  0.00000000E+00  0.00000000E+00  0.00000000E+00
  0.00000000E+00  0.00000000E+00  0.00000000E+00
  0.00000000E+00  0.00000000E+00  0.00000000E+00
  0.00000000E+00  0.00000000E+00  0.00000000E+00
  0.00000000E+00  0.00000000E+00  0.00000000E+00
  0.00000000E+00  0.00000000E+00  0.00000000E+00
  0.00000000E+00  0.00000000E+00  0.00000000E+00
  0.00000000E+00  0.00000000E+00  0.00000000E+00
