Title                                   
   1.00000000000000     
     4.9440799999999996    0.0000000000000000    0.0000000000000000
     0.0000000000000000   17.1295089999999988    0.0000000000000000
     0.0000000000000000    0.0000000000000000   20.0000000000000000
    27     3     1
Selective dynamics
Direct
  0.0012070698464100  0.1060723985716064  0.2979285708487457   T   T   T
  0.2503137013393473  0.1487894724551781  0.2985647161527831   T   T   T
  0.2503110805784082  0.2336312062731753  0.2999975795799108   T   T   T
 -0.0012091404949759  0.2750711222029204  0.3007336695321646   T   T   T
  0.0033132725483782  0.6007955993894822  0.3010154943760580   T   T   T
  0.2503120073331564  0.7267823781563147  0.2989225333860428   T   T   T
  0.0014623929849375  0.8529526994324557  0.2974482759631730   T   T   T
  0.2503535068615124  0.8953370014158630  0.2972416798323378   T   T   T
  0.2503473942963949  0.9796585565384627  0.2971093490587275   T   T   T
  0.0014767224805168  0.7686324259546546  0.2983707461732952   T   T   T
  0.4994360097195161  0.1060700427400534  0.2979318830951662   T   T   T
  0.7503264493597358  0.1481925678951749  0.2985345811466910   T   T   T
  0.7503147981779882  0.2317398925964719  0.2999848237954525   T   T   T
  0.4998661808489036  0.0219020907885882  0.2971857666607707   T   T   T
  0.7503058182993059  0.3934036307166459  0.3024236203353730   T   T   T
  0.7503119828203810  0.4776440371275321  0.3026328198502540   T   T   T
  0.5018233252159537  0.2750778611990702  0.3007350107864041   T   T   T
  0.4972797662730413  0.6007917105951083  0.3010177059139807   T   T   T
  0.7503249406842813  0.7266362015572149  0.2990102805039525   T   T   T
  0.4992521790375353  0.8529535795385560  0.2974455357502709   T   T   T
  0.7503695274812900  0.8952518408052634  0.2971263317933198   T   T   T
  0.7503777164796656  0.9793583880870913  0.2969838171309899   T   T   T
  0.4991705814537828  0.7686301307843885  0.2983717180594725   T   T   T
  0.7503056215154248  0.6436392771761310  0.3003594984832202   T   T   T
  0.0008465545691202  0.0219087693053902  0.2971859600969917   T   T   T
  0.5005458401024211  0.5190888651006862  0.3021475220490338   T   T   T
  0.0000642429671727  0.5190956892695114  0.3021525467225858   T   T   T
  0.5112431955473311  0.3553062463065175  0.3020384168645220   T   T   T
 -0.0106521301641338  0.3553016090515824  0.3020227668749654   T   T   T
  0.2502970841769905  0.6438787362838195  0.3002349527188555   T   T   T
  0.2503093076602094  0.4377479726850852  0.3022018264644411   T   T   T
 
  0.00000000E+00  0.00000000E+00  0.00000000E+00
  0.00000000E+00  0.00000000E+00  0.00000000E+00
  0.00000000E+00  0.00000000E+00  0.00000000E+00
  0.00000000E+00  0.00000000E+00  0.00000000E+00
  0.00000000E+00  0.00000000E+00  0.00000000E+00
  0.00000000E+00  0.00000000E+00  0.00000000E+00
  0.00000000E+00  0.00000000E+00  0.00000000E+00
  0.00000000E+00  0.00000000E+00  0.00000000E+00
  0.00000000E+00  0.00000000E+00  0.00000000E+00
  0.00000000E+00  0.00000000E+00  0.00000000E+00
  0.00000000E+00  0.00000000E+00  0.00000000E+00
  0.00000000E+00  0.00000000E+00  0.00000000E+00
  0.00000000E+00  0.00000000E+00  0.00000000E+00
  0.00000000E+00  0.00000000E+00  0.00000000E+00
  0.00000000E+00  0.00000000E+00  0.00000000E+00
  0.00000000E+00  0.00000000E+00  0.00000000E+00
  0.00000000E+00  0.00000000E+00  0.00000000E+00
  0.00000000E+00  0.00000000E+00  0.00000000E+00
  0.00000000E+00  0.00000000E+00  0.00000000E+00
  0.00000000E+00  0.00000000E+00  0.00000000E+00
  0.00000000E+00  0.00000000E+00  0.00000000E+00
  0.00000000E+00  0.00000000E+00  0.00000000E+00
  0.00000000E+00  0.00000000E+00  0.00000000E+00
  0.00000000E+00  0.00000000E+00  0.00000000E+00
  0.00000000E+00  0.00000000E+00  0.00000000E+00
  0.00000000E+00  0.00000000E+00  0.00000000E+00
  0.00000000E+00  0.00000000E+00  0.00000000E+00
  0.00000000E+00  0.00000000E+00  0.00000000E+00
  0.00000000E+00  0.00000000E+00  0.00000000E+00
  0.00000000E+00  0.00000000E+00  0.00000000E+00
  0.00000000E+00  0.00000000E+00  0.00000000E+00
