Title                                   
   1.00000000000000     
     4.9440799999999996    0.0000000000000000    0.0000000000000000
     0.0000000000000000    8.5647549999999999    0.0000000000000000
     0.0000000000000000    0.0000000000000000   20.0000000000000000
    11     3     1
Selective dynamics
Direct
  0.0017266277936959  0.2930127438382531  0.0958558516304662   T   T   T
  0.2500000000000000  0.0378087994387278  0.0955450642164670   T   T   T
 -0.0008866087229877  0.9558225205003428  0.0959237628629343   T   T   T
  0.7500000000000000  0.2071055173721579  0.0930875613989881   T   T   T
  0.4982733722063041  0.2930127438382531  0.0958558516304662   T   T   T
  0.7500000000000000  0.0401162863129602  0.0938125827388326   T   T   T
  0.7500000000000000  0.7136437262924057  0.0988102835043571   T   T   T
  0.7500000000000000  0.5427662733245400  0.1010152196994636   T   T   T
  0.5008866087229876  0.9558225205003428  0.0959237628629343   T   T   T
  0.4983413003291017  0.4578583865378652  0.1022307838378684   T   T   T
  0.0016586996708985  0.4578583865378652  0.1022307838378684   T   T   T
 -0.0073463058864270  0.7921883623660715  0.0996873086426231   T   T   T
  0.5073463058864268  0.7921883623660715  0.0996873086426231   T   T   T
  0.2500000000000000  0.2075224973738205  0.0952410745435667   T   T   T
  0.2500000000000000  0.6249538734003257  0.1430727999505446   T   T   T
 
  0.00000000E+00  0.00000000E+00  0.00000000E+00
  0.00000000E+00  0.00000000E+00  0.00000000E+00
  0.00000000E+00  0.00000000E+00  0.00000000E+00
  0.00000000E+00  0.00000000E+00  0.00000000E+00
  0.00000000E+00  0.00000000E+00  0.00000000E+00
  0.00000000E+00  0.00000000E+00  0.00000000E+00
  0.00000000E+00  0.00000000E+00  0.00000000E+00
  0.00000000E+00  0.00000000E+00  0.00000000E+00
  0.00000000E+00  0.00000000E+00  0.00000000E+00
  0.00000000E+00  0.00000000E+00  0.00000000E+00
  0.00000000E+00  0.00000000E+00  0.00000000E+00
  0.00000000E+00  0.00000000E+00  0.00000000E+00
  0.00000000E+00  0.00000000E+00  0.00000000E+00
  0.00000000E+00  0.00000000E+00  0.00000000E+00
  0.00000000E+00  0.00000000E+00  0.00000000E+00
