Title                                   
   1.00000000000000     
     8.5490480000000009    0.0000000000000000    0.0000000000000000
     0.0000000000000000    8.5490480000000009    0.0000000000000000
     0.0000000000000000    0.0000000000000000   20.0000000000000000
    17     7     1
Selective dynamics
Direct
  0.9078878516265602  0.2051126038169843  0.0972926919442885   T   T   T
  0.9108967547824953  0.8012462339481097  0.0973299095136175   T   T   T
  0.1966812340906189  0.0829297007163793  0.0974467839615914   T   T   T
  0.0766162476540029  0.2005160471577216  0.0973943568556135   T   T   T
  0.1568093439030520  0.6522173422015755  0.0978024561729688   T   T   T
  0.0785078790903938  0.5005487213569105  0.0978529859594864   T   T   T
  0.1568992665122663  0.3490613279979801  0.0977752811294310   T   T   T
  0.0786223061566829  0.7995852379546972  0.0974288566589139   T   T   T
  0.3436807686336261  0.1648132356241852  0.0978726804997773   T   T   T
  0.4925733327949368  0.9173835016579952  0.0978848587539940   T   T   T
  0.3431802983947633  0.8379979373060058  0.0978891558151297   T   T   T
  0.7881749553736747  0.0868778870550540  0.0972794059307200   T   T   T
  0.6420130185562980  0.1683905854184208  0.0977616774932305   T   T   T
  0.7902795640531013  0.9184585507955786  0.0973236914235157   T   T   T
  0.8298030542636291  0.6517634851472021  0.0977464820181811   T   T   T
  0.8275744726022866  0.3526114650021269  0.0977476478714917   T   T   T
  0.6436248349773019  0.8372798050058246  0.0977506159892899   T   T   T
  0.4933733622472923  0.0895829179213474  0.0979564881967872   T   T   T
  0.9064688447737428  0.5021185833722372  0.0978706701406904   T   T   T
  0.3196760544883015  0.3242282475398014  0.0981344449128742   T   T   T
  0.3185945275309613  0.6792494907368254  0.0982188940379058   T   T   T
  0.6659045488616342  0.3296711599250066  0.0980578982864964   T   T   T
  0.6699482823305017  0.6744885145106179  0.0980653859350562   T   T   T
  0.1961224766748885  0.9157740736851545  0.0975011150656436   T   T   T
  0.4914987196269806  0.5028833441462595  0.0983205654332852   T   T   T
 
  0.00000000E+00  0.00000000E+00  0.00000000E+00
  0.00000000E+00  0.00000000E+00  0.00000000E+00
  0.00000000E+00  0.00000000E+00  0.00000000E+00
  0.00000000E+00  0.00000000E+00  0.00000000E+00
  0.00000000E+00  0.00000000E+00  0.00000000E+00
  0.00000000E+00  0.00000000E+00  0.00000000E+00
  0.00000000E+00  0.00000000E+00  0.00000000E+00
  0.00000000E+00  0.00000000E+00  0.00000000E+00
  0.00000000E+00  0.00000000E+00  0.00000000E+00
  0.00000000E+00  0.00000000E+00  0.00000000E+00
  0.00000000E+00  0.00000000E+00  0.00000000E+00
  0.00000000E+00  0.00000000E+00  0.00000000E+00
  0.00000000E+00  0.00000000E+00  0.00000000E+00
  0.00000000E+00  0.00000000E+00  0.00000000E+00
  0.00000000E+00  0.00000000E+00  0.00000000E+00
  0.00000000E+00  0.00000000E+00  0.00000000E+00
  0.00000000E+00  0.00000000E+00  0.00000000E+00
  0.00000000E+00  0.00000000E+00  0.00000000E+00
  0.00000000E+00  0.00000000E+00  0.00000000E+00
  0.00000000E+00  0.00000000E+00  0.00000000E+00
  0.00000000E+00  0.00000000E+00  0.00000000E+00
  0.00000000E+00  0.00000000E+00  0.00000000E+00
  0.00000000E+00  0.00000000E+00  0.00000000E+00
  0.00000000E+00  0.00000000E+00  0.00000000E+00
  0.00000000E+00  0.00000000E+00  0.00000000E+00
