Title                                   
   1.00000000000000     
     9.8694509999999998    0.0000000000000000    0.0000000000000000
     0.0000000000000000    8.5490480000000009    0.0000000000000000
     0.0000000000000000    0.0000000000000000   20.0000000000000000
    26     4     1
Selective dynamics
Direct
  0.0562291825292387  0.0893617347050308  0.0939097264673738   T   T   T
  0.9314030615374718  0.1717701494419255  0.0941555078200802   T   T   T
  0.0562174541540701  0.9229640439733996  0.0939121085136865   T   T   T
  0.9328413221893936  0.3391738827989493  0.0940541252836209   T   T   T
  0.0562471625698966  0.5890675679060347  0.0937101451222035   T   T   T
  0.9328598782399760  0.6731398158383946  0.0940519927967012   T   T   T
  0.0562419588357452  0.4232614877042661  0.0937074615901658   T   T   T
  0.9313846245088911  0.8405419648813760  0.0941511700962001   T   T   T
  0.3071238529034944  0.0907774168740819  0.0948765943530969   T   T   T
  0.1810573912136235  0.1717804284642737  0.0941920624268047   T   T   T
  0.3071063836930285  0.9215277128564788  0.0948925505528011   T   T   T
  0.1796218649096549  0.3391845150786095  0.0941207282542582   T   T   T
  0.3022122028935164  0.5907762098057272  0.0949532546509496   T   T   T
  0.1796308989292953  0.6731542756678265  0.0941410007785019   T   T   T
  0.3022024616063350  0.4215383325120127  0.0949276837636635   T   T   T
  0.1810449139504907  0.8405520820178647  0.0942088508697656   T   T   T
  0.5562101295905960  0.0937640282046315  0.0958867581958270   T   T   T
  0.4303435764468278  0.1795857303878574  0.0956231849519298   T   T   T
  0.5562025464005761  0.9185504313754387  0.0958844331031707   T   T   T
  0.4303418254850904  0.8327274100390771  0.0956291601593312   T   T   T
  0.8053192855681921  0.0907657194118264  0.0948565865430987   T   T   T
  0.6820936718971113  0.1795803931167446  0.0955935141760379   T   T   T
  0.8053123605063579  0.9215160002825399  0.0948386039266983   T   T   T
  0.8102819266548416  0.5907720334835261  0.0948212847383886   T   T   T
  0.8102749887550578  0.4215358742974704  0.0948356781988885   T   T   T
  0.6820776950275538  0.8327239251899649  0.0955639664879933   T   T   T
  0.4247566030248467  0.3438954078395403  0.0957650425893780   T   T   T
  0.4247635211381313  0.6684285528440336  0.0957830049741515   T   T   T
  0.6877417416025251  0.3438930886281488  0.0957029137832746   T   T   T
  0.6877391285993095  0.6684234391136662  0.0956838647606121   T   T   T
  0.5562523846388676  0.5061413452592810  0.0965320400713874   T   T   T
 
  0.00000000E+00  0.00000000E+00  0.00000000E+00
  0.00000000E+00  0.00000000E+00  0.00000000E+00
  0.00000000E+00  0.00000000E+00  0.00000000E+00
  0.00000000E+00  0.00000000E+00  0.00000000E+00
  0.00000000E+00  0.00000000E+00  0.00000000E+00
  0.00000000E+00  0.00000000E+00  0.00000000E+00
  0.00000000E+00  0.00000000E+00  0.00000000E+00
  0.00000000E+00  0.00000000E+00  0.00000000E+00
  0.00000000E+00  0.00000000E+00  0.00000000E+00
  0.00000000E+00  0.00000000E+00  0.00000000E+00
  0.00000000E+00  0.00000000E+00  0.00000000E+00
  0.00000000E+00  0.00000000E+00  0.00000000E+00
  0.00000000E+00  0.00000000E+00  0.00000000E+00
  0.00000000E+00  0.00000000E+00  0.00000000E+00
  0.00000000E+00  0.00000000E+00  0.00000000E+00
  0.00000000E+00  0.00000000E+00  0.00000000E+00
  0.00000000E+00  0.00000000E+00  0.00000000E+00
  0.00000000E+00  0.00000000E+00  0.00000000E+00
  0.00000000E+00  0.00000000E+00  0.00000000E+00
  0.00000000E+00  0.00000000E+00  0.00000000E+00
  0.00000000E+00  0.00000000E+00  0.00000000E+00
  0.00000000E+00  0.00000000E+00  0.00000000E+00
  0.00000000E+00  0.00000000E+00  0.00000000E+00
  0.00000000E+00  0.00000000E+00  0.00000000E+00
  0.00000000E+00  0.00000000E+00  0.00000000E+00
  0.00000000E+00  0.00000000E+00  0.00000000E+00
  0.00000000E+00  0.00000000E+00  0.00000000E+00
  0.00000000E+00  0.00000000E+00  0.00000000E+00
  0.00000000E+00  0.00000000E+00  0.00000000E+00
  0.00000000E+00  0.00000000E+00  0.00000000E+00
  0.00000000E+00  0.00000000E+00  0.00000000E+00
