Title                                   
   1.00000000000000     
     9.8694509999999998    0.0000000000000000    0.0000000000000000
     0.0000000000000000    8.5490480000000009    0.0000000000000000
     0.0000000000000000    0.0000000000000000   20.0000000000000000
    29     2     1
Selective dynamics
Direct
  0.0569357269593257  0.0907734404101114  0.0844828277836029   T   T   T
  0.9316922587413575  0.1727550471279327  0.0881308542259038   T   T   T
  0.0560361927408875  0.9234033517439481  0.0836311536796975   T   T   T
  0.9317949082499845  0.3398684870917217  0.0933249797959309   T   T   T
  0.0566294801963478  0.5893878283724261  0.0889877911147516   T   T   T
  0.9318318173937182  0.6722490789366047  0.0922467697927624   T   T   T
  0.0574387228287847  0.4229903639325732  0.0907410132980542   T   T   T
  0.9311626709929028  0.8386986769325876  0.0877153892678020   T   T   T
  0.3062424836379778  0.0899851747812112  0.0862603086391408   T   T   T
  0.1823483086371628  0.1748792985858895  0.0865021823355534   T   T   T
  0.3061387203024044  0.9251742286640761  0.0848979181306680   T   T   T
  0.1836039309923247  0.3417633788636459  0.0905041979144975   T   T   T
  0.3062434936644050  0.5940766820759983  0.0949124786180744   T   T   T
  0.1805637483303835  0.6741038273676656  0.0871696482739762   T   T   T
  0.3095510348260400  0.4259328661944002  0.0967054769256532   T   T   T
  0.1808010884677729  0.8399416866417380  0.0841037118417263   T   T   T
  0.5563985462535981  0.0856905922080606  0.0948041642919375   T   T   T
  0.4321283769847301  0.1694283072226941  0.0925861221333224   T   T   T
  0.4341432972793586  0.3356824408496905  0.1012683866257179   T   T   T
  0.5582901852199221  0.4086718056026907  0.1148979170739780   T   T   T
  0.4284448536486264  0.8404945311211338  0.0935436650783642   T   T   T
  0.8077373476030981  0.0875621708962817  0.0888249438303063   T   T   T
  0.6820819840016412  0.1675620999610547  0.0950851634587473   T   T   T
  0.8058477538318166  0.9223859445091430  0.0891481718472951   T   T   T
  0.6826862072422997  0.3332439892354280  0.1048262357528208   T   T   T
  0.8084033098169413  0.5905628979749050  0.1055169243370644   T   T   T
  0.6888640860974327  0.6799773389070735  0.1186990300889120   T   T   T
  0.8077026160698206  0.4218964350778479  0.1032904288610279   T   T   T
  0.6830222176836912  0.8376342101429616  0.1008157584925309   T   T   T
  0.4233254231260342  0.6839256827302747  0.1035263910233018   T   T   T
  0.5550268671061880  0.9193264505659878  0.0972219230492509   T   T   T
  0.5365213410730287  0.5902176852722318  0.1793030724176726   T   T   T
 
  0.00000000E+00  0.00000000E+00  0.00000000E+00
  0.00000000E+00  0.00000000E+00  0.00000000E+00
  0.00000000E+00  0.00000000E+00  0.00000000E+00
  0.00000000E+00  0.00000000E+00  0.00000000E+00
  0.00000000E+00  0.00000000E+00  0.00000000E+00
  0.00000000E+00  0.00000000E+00  0.00000000E+00
  0.00000000E+00  0.00000000E+00  0.00000000E+00
  0.00000000E+00  0.00000000E+00  0.00000000E+00
  0.00000000E+00  0.00000000E+00  0.00000000E+00
  0.00000000E+00  0.00000000E+00  0.00000000E+00
  0.00000000E+00  0.00000000E+00  0.00000000E+00
  0.00000000E+00  0.00000000E+00  0.00000000E+00
  0.00000000E+00  0.00000000E+00  0.00000000E+00
  0.00000000E+00  0.00000000E+00  0.00000000E+00
  0.00000000E+00  0.00000000E+00  0.00000000E+00
  0.00000000E+00  0.00000000E+00  0.00000000E+00
  0.00000000E+00  0.00000000E+00  0.00000000E+00
  0.00000000E+00  0.00000000E+00  0.00000000E+00
  0.00000000E+00  0.00000000E+00  0.00000000E+00
  0.00000000E+00  0.00000000E+00  0.00000000E+00
  0.00000000E+00  0.00000000E+00  0.00000000E+00
  0.00000000E+00  0.00000000E+00  0.00000000E+00
  0.00000000E+00  0.00000000E+00  0.00000000E+00
  0.00000000E+00  0.00000000E+00  0.00000000E+00
  0.00000000E+00  0.00000000E+00  0.00000000E+00
  0.00000000E+00  0.00000000E+00  0.00000000E+00
  0.00000000E+00  0.00000000E+00  0.00000000E+00
  0.00000000E+00  0.00000000E+00  0.00000000E+00
  0.00000000E+00  0.00000000E+00  0.00000000E+00
  0.00000000E+00  0.00000000E+00  0.00000000E+00
  0.00000000E+00  0.00000000E+00  0.00000000E+00
  0.00000000E+00  0.00000000E+00  0.00000000E+00
