Title                                   
   1.00000000000000     
     9.8694509999999998    0.0000000000000000    0.0000000000000000
     0.0000000000000000    8.5490480000000009    0.0000000000000000
     0.0000000000000000    0.0000000000000000   20.0000000000000000
    25     5     1
Selective dynamics
Direct
  0.0553939216876289  0.0885319543414090  0.0884488851167935   T   T   T
  0.9313685626328754  0.1718608265083390  0.0882058011262567   T   T   T
  0.0567444262812077  0.9221551095755579  0.0891737746584549   T   T   T
  0.9348186595138024  0.3394662605669336  0.0873060662539225   T   T   T
  0.0552621390120442  0.5910080146868101  0.0878019003327971   T   T   T
  0.0565489367468303  0.4243911208058408  0.0867353129463967   T   T   T
  0.9326285967667831  0.8394863173109486  0.0898973374924763   T   T   T
  0.3060307649878750  0.0887432148803744  0.0949388215465921   T   T   T
  0.1806128777345748  0.1703991063014101  0.0906572166527864   T   T   T
  0.1791894235160950  0.3376672376815388  0.0904843072220244   T   T   T
  0.2987207875563692  0.5882966178977289  0.0983552842774136   T   T   T
  0.1780194768514158  0.6747450197238188  0.0915868017991830   T   T   T
  0.2993206157533531  0.4188134102443560  0.0977654371344012   T   T   T
  0.1821747914227609  0.8410055129213769  0.0914803828161767   T   T   T
  0.4297751050886141  0.1756828801315133  0.1001096037669624   T   T   T
  0.5556692007463085  0.9207690377810130  0.1005334131733669   T   T   T
  0.4199691103361570  0.6736411269871083  0.1053323074125584   T   T   T
  0.4278422149955492  0.8374510006842997  0.1012747474504859   T   T   T
  0.8059814976210624  0.0877341907434806  0.0918759490275689   T   T   T
  0.6828622647917859  0.1768058492130719  0.0967360654043352   T   T   T
  0.8069114470893738  0.9212662888020035  0.0929220371715146   T   T   T
  0.6909025493476655  0.3400775791333619  0.0988313297257391   T   T   T
  0.8134689092216700  0.5935707756137878  0.0934621364811117   T   T   T
  0.8141410377491123  0.4228482657956458  0.0921040255209137   T   T   T
  0.6816797978989989  0.8369724128712955  0.0984375757842397   T   T   T
  0.9338922506805319  0.6740034142374048  0.0891001314932195   T   T   T
  0.5559898082854708  0.0933727015052994  0.0999876945248710   T   T   T
  0.4207011361289555  0.3369218800545454  0.1040866013283032   T   T   T
  0.6948188013470519  0.6726578871151891  0.1006943311770798   T   T   T
  0.3048212834188861  0.9237477183041084  0.0950793326817368   T   T   T
  0.5568746047891946  0.5067822675804542  0.1075603885003524   T   T   T
 
  0.00000000E+00  0.00000000E+00  0.00000000E+00
  0.00000000E+00  0.00000000E+00  0.00000000E+00
  0.00000000E+00  0.00000000E+00  0.00000000E+00
  0.00000000E+00  0.00000000E+00  0.00000000E+00
  0.00000000E+00  0.00000000E+00  0.00000000E+00
  0.00000000E+00  0.00000000E+00  0.00000000E+00
  0.00000000E+00  0.00000000E+00  0.00000000E+00
  0.00000000E+00  0.00000000E+00  0.00000000E+00
  0.00000000E+00  0.00000000E+00  0.00000000E+00
  0.00000000E+00  0.00000000E+00  0.00000000E+00
  0.00000000E+00  0.00000000E+00  0.00000000E+00
  0.00000000E+00  0.00000000E+00  0.00000000E+00
  0.00000000E+00  0.00000000E+00  0.00000000E+00
  0.00000000E+00  0.00000000E+00  0.00000000E+00
  0.00000000E+00  0.00000000E+00  0.00000000E+00
  0.00000000E+00  0.00000000E+00  0.00000000E+00
  0.00000000E+00  0.00000000E+00  0.00000000E+00
  0.00000000E+00  0.00000000E+00  0.00000000E+00
  0.00000000E+00  0.00000000E+00  0.00000000E+00
  0.00000000E+00  0.00000000E+00  0.00000000E+00
  0.00000000E+00  0.00000000E+00  0.00000000E+00
  0.00000000E+00  0.00000000E+00  0.00000000E+00
  0.00000000E+00  0.00000000E+00  0.00000000E+00
  0.00000000E+00  0.00000000E+00  0.00000000E+00
  0.00000000E+00  0.00000000E+00  0.00000000E+00
  0.00000000E+00  0.00000000E+00  0.00000000E+00
  0.00000000E+00  0.00000000E+00  0.00000000E+00
  0.00000000E+00  0.00000000E+00  0.00000000E+00
  0.00000000E+00  0.00000000E+00  0.00000000E+00
  0.00000000E+00  0.00000000E+00  0.00000000E+00
  0.00000000E+00  0.00000000E+00  0.00000000E+00
