Title                                   
   1.00000000000000     
     9.8694509999999998    0.0000000000000000    0.0000000000000000
     0.0000000000000000    8.5490480000000009    0.0000000000000000
     0.0000000000000000    0.0000000000000000   20.0000000000000000
    25     6     1
Selective dynamics
Direct
  0.0562617801594341  0.0931830474661539  0.0903949438165602   T   T   T
  0.9299594852995245  0.1756487024030561  0.0918161250538187   T   T   T
  0.0562794077805221  0.9242868737060431  0.0888933997123202   T   T   T
  0.9294877139203039  0.3417751165958310  0.0940410457830258   T   T   T
  0.0562435917206283  0.5900112363150415  0.0895611967242731   T   T   T
  0.9317144034206502  0.6715940347150595  0.0898864641561390   T   T   T
  0.0562765586680047  0.4232303615905498  0.0928035103037650   T   T   T
  0.9313226267678467  0.8397906218048991  0.0894268332223718   T   T   T
  0.3057039073504548  0.0893271762897140  0.0900843611352080   T   T   T
  0.1825811881592877  0.1756286222522859  0.0913390421258277   T   T   T
  0.3061922366804785  0.9235436155083311  0.0898901449922395   T   T   T
  0.1830561585943969  0.3417557648207901  0.0934645425009075   T   T   T
  0.3074785014381906  0.5937565254171469  0.0947789275359053   T   T   T
  0.1807701989592197  0.6716076228624760  0.0894679429461726   T   T   T
  0.1812169314270454  0.8397985678853018  0.0890421482713310   T   T   T
  0.5562589587808298  0.0847277235639767  0.0945751238080482   T   T   T
  0.4316101405122688  0.1691507599425444  0.0930324007870049   T   T   T
  0.4358579556569889  0.3354795854591664  0.0971883278581499   T   T   T
  0.4277705506407093  0.8357226961099552  0.0949877236002587   T   T   T
  0.8068514559274530  0.0893470680389690  0.0906650013158082   T   T   T
  0.6809285604932170  0.1691782050773785  0.0933898622554414   T   T   T
  0.8063518527261668  0.9235738486532096  0.0903781372297656   T   T   T
  0.6766766612511721  0.3355088232928730  0.0976715627412350   T   T   T
  0.8050387877533596  0.5937705303942784  0.0955479723218067   T   T   T
  0.6847617667446945  0.8357401616077512  0.0953606849456375   T   T   T
  0.4233797381409355  0.6775936389175066  0.1025001431794379   T   T   T
  0.5561852292674945  0.4106369141560796  0.1056222152670092   T   T   T
  0.6892616669570730  0.6777279166960115  0.1033450076187312   T   T   T
  0.5562524894447657  0.9150513066998527  0.0955632526032824   T   T   T
  0.3118667339770785  0.4249542484375821  0.0957108361275328   T   T   T
  0.8006743139936868  0.4249962210325764  0.0966207449738804   T   T   T
  0.5553674473861231  0.5921484622876116  0.1786253750871203   T   T   T
 
  0.00000000E+00  0.00000000E+00  0.00000000E+00
  0.00000000E+00  0.00000000E+00  0.00000000E+00
  0.00000000E+00  0.00000000E+00  0.00000000E+00
  0.00000000E+00  0.00000000E+00  0.00000000E+00
  0.00000000E+00  0.00000000E+00  0.00000000E+00
  0.00000000E+00  0.00000000E+00  0.00000000E+00
  0.00000000E+00  0.00000000E+00  0.00000000E+00
  0.00000000E+00  0.00000000E+00  0.00000000E+00
  0.00000000E+00  0.00000000E+00  0.00000000E+00
  0.00000000E+00  0.00000000E+00  0.00000000E+00
  0.00000000E+00  0.00000000E+00  0.00000000E+00
  0.00000000E+00  0.00000000E+00  0.00000000E+00
  0.00000000E+00  0.00000000E+00  0.00000000E+00
  0.00000000E+00  0.00000000E+00  0.00000000E+00
  0.00000000E+00  0.00000000E+00  0.00000000E+00
  0.00000000E+00  0.00000000E+00  0.00000000E+00
  0.00000000E+00  0.00000000E+00  0.00000000E+00
  0.00000000E+00  0.00000000E+00  0.00000000E+00
  0.00000000E+00  0.00000000E+00  0.00000000E+00
  0.00000000E+00  0.00000000E+00  0.00000000E+00
  0.00000000E+00  0.00000000E+00  0.00000000E+00
  0.00000000E+00  0.00000000E+00  0.00000000E+00
  0.00000000E+00  0.00000000E+00  0.00000000E+00
  0.00000000E+00  0.00000000E+00  0.00000000E+00
  0.00000000E+00  0.00000000E+00  0.00000000E+00
  0.00000000E+00  0.00000000E+00  0.00000000E+00
  0.00000000E+00  0.00000000E+00  0.00000000E+00
  0.00000000E+00  0.00000000E+00  0.00000000E+00
  0.00000000E+00  0.00000000E+00  0.00000000E+00
  0.00000000E+00  0.00000000E+00  0.00000000E+00
  0.00000000E+00  0.00000000E+00  0.00000000E+00
  0.00000000E+00  0.00000000E+00  0.00000000E+00
