Title                                   
   1.00000000000000     
     4.9440799999999996    0.0000000000000000    0.0000000000000000
     0.0000000000000000   17.1295089999999988    0.0000000000000000
     0.0000000000000000    0.0000000000000000   20.0000000000000000
    29     2     1
Selective dynamics
Direct
  0.0001610259242072  0.1038129434480141  0.2851883297874861   T   T   T
  0.2499164526002517  0.1456834193184546  0.2845695984698819   T   T   T
  0.2499155133537125  0.2292294105819795  0.2844599670481352   T   T   T
  0.0091000792530091  0.3535410072640998  0.2880777247193687   T   T   T
 -0.0011099816281763  0.2706750005345859  0.2858791401563741   T   T   T
 -0.0047655862803649  0.6047770464340165  0.3204950938664392   T   T   T
  0.2499201079279987  0.7282637194514017  0.3060245995213959   T   T   T
  0.0004301013913296  0.8537281785171021  0.2946545893929901   T   T   T
  0.2499411965186727  0.8955867733963467  0.2923322807164466   T   T   T
  0.2499278167056675  0.9787829477840166  0.2883227966420747   T   T   T
  0.0006999119746511  0.7706828142311281  0.3008412764466166   T   T   T
  0.4996826355997450  0.1038078940728426  0.2851875970766145   T   T   T
  0.7499177628591941  0.1456843167002763  0.2851575436782632   T   T   T
  0.7499166936444316  0.2285690168505206  0.2859463034537461   T   T   T
  0.4999174980818479  0.0205172383698354  0.2868916627702222   T   T   T
  0.4907447705750286  0.3535392496187130  0.2880779439778537   T   T   T
  0.7498483431725219  0.4761761051173377  0.3132633998379847   T   T   T
  0.5009295261099670  0.2706716496559284  0.2858799739907734   T   T   T
  0.5044825598389628  0.6047714002218212  0.3205176031078238   T   T   T
  0.7498922009389402  0.7298807863727040  0.3036276300565273   T   T   T
  0.4993785001971180  0.8537279953270243  0.2946528096280046   T   T   T
  0.7499302538487159  0.8953805092183519  0.2919939532603819   T   T   T
  0.7499276262347971  0.9786227278967954  0.2882368680285181   T   T   T
  0.4990804579011371  0.7706817220505967  0.3008457137451598   T   T   T
  0.7498749499499503  0.6478259462422801  0.3131148908063692   T   T   T
  0.2498927327632554  0.6454679809293267  0.3169437219243338   T   T   T
 -0.0000656397490078  0.0205196054808707  0.2868934676645444   T   T   T
  0.5257168061218203  0.5227415579125465  0.3290961174907500   T   T   T
  0.9740313127476216  0.5227422741988567  0.3290457091304806   T   T   T
  0.2499154032390462  0.3918746755897790  0.2861653569402638   T   T   T
  0.7498494673070745  0.3956159203061360  0.2952224852481635   T   T   T
  0.2498225008768790  0.4849691669063043  0.4049588514159646   T   T   T
 
  0.00000000E+00  0.00000000E+00  0.00000000E+00
  0.00000000E+00  0.00000000E+00  0.00000000E+00
  0.00000000E+00  0.00000000E+00  0.00000000E+00
  0.00000000E+00  0.00000000E+00  0.00000000E+00
  0.00000000E+00  0.00000000E+00  0.00000000E+00
  0.00000000E+00  0.00000000E+00  0.00000000E+00
  0.00000000E+00  0.00000000E+00  0.00000000E+00
  0.00000000E+00  0.00000000E+00  0.00000000E+00
  0.00000000E+00  0.00000000E+00  0.00000000E+00
  0.00000000E+00  0.00000000E+00  0.00000000E+00
  0.00000000E+00  0.00000000E+00  0.00000000E+00
  0.00000000E+00  0.00000000E+00  0.00000000E+00
  0.00000000E+00  0.00000000E+00  0.00000000E+00
  0.00000000E+00  0.00000000E+00  0.00000000E+00
  0.00000000E+00  0.00000000E+00  0.00000000E+00
  0.00000000E+00  0.00000000E+00  0.00000000E+00
  0.00000000E+00  0.00000000E+00  0.00000000E+00
  0.00000000E+00  0.00000000E+00  0.00000000E+00
  0.00000000E+00  0.00000000E+00  0.00000000E+00
  0.00000000E+00  0.00000000E+00  0.00000000E+00
  0.00000000E+00  0.00000000E+00  0.00000000E+00
  0.00000000E+00  0.00000000E+00  0.00000000E+00
  0.00000000E+00  0.00000000E+00  0.00000000E+00
  0.00000000E+00  0.00000000E+00  0.00000000E+00
  0.00000000E+00  0.00000000E+00  0.00000000E+00
  0.00000000E+00  0.00000000E+00  0.00000000E+00
  0.00000000E+00  0.00000000E+00  0.00000000E+00
  0.00000000E+00  0.00000000E+00  0.00000000E+00
  0.00000000E+00  0.00000000E+00  0.00000000E+00
  0.00000000E+00  0.00000000E+00  0.00000000E+00
  0.00000000E+00  0.00000000E+00  0.00000000E+00
  0.00000000E+00  0.00000000E+00  0.00000000E+00
