Title                                   
   1.00000000000000     
     4.9440799999999996    0.0000000000000000    0.0000000000000000
     0.0000000000000000   17.1295089999999988    0.0000000000000000
     0.0000000000000000    0.0000000000000000   20.0000000000000000
    28     2     1
Selective dynamics
Direct
 -0.0066147895895132  0.1054488379295382  0.2974170056163954   T   T   T
  0.2412524834536525  0.1480204988338032  0.2974609983657770   T   T   T
  0.2376308762683721  0.2320149484371707  0.2985768129899795   T   T   T
 -0.0148411008751916  0.2740026254918279  0.3014289195657039   T   T   T
  0.0139463238999340  0.6012404713792601  0.2968322756194131   T   T   T
  0.2594102017031030  0.7269267025885063  0.2979176185492435   T   T   T
  0.0038620742088293  0.8533107580960931  0.2972453743156765   T   T   T
  0.2523189839255096  0.8955245854446156  0.2974923473259145   T   T   T
  0.2482863678563385  0.9794208483028416  0.2973798583863779   T   T   T
  0.0079949407433183  0.7692681661842883  0.2970414719986442   T   T   T
  0.4926594536702186  0.1056623072447784  0.2966958976541251   T   T   T
  0.7422566529595342  0.1473670165860314  0.2966562243697287   T   T   T
  0.7375453370054266  0.2312919445122357  0.2970374182117584   T   T   T
  0.4967293989297148  0.0216345840120245  0.2970456451800812   T   T   T
  0.7425139481974541  0.3939899876200570  0.3016814605301900   T   T   T
  0.7581235475590367  0.4809308627698514  0.3019808344492073   T   T   T
  0.4867170131455459  0.2736977357067479  0.2960906624377005   T   T   T
  0.5154466384786270  0.6009355076153197  0.3019494656867859   T   T   T
  0.7584031943808004  0.7275577446044261  0.2971046552204346   T   T   T
  0.5033592952261859  0.8534143791326441  0.2975200647556816   T   T   T
  0.7523387234764047  0.8954324369330788  0.2972639258617077   T   T   T
  0.7482045285575142  0.9795059606806071  0.2971496691300451   T   T   T
  0.5072852606066725  0.7694852702164252  0.2977176826839419   T   T   T
  0.7630794677592985  0.6436373736007052  0.2976718989236230   T   T   T
  0.2629884621822697  0.6429339088060775  0.2991888271434680   T   T   T
 -0.0027752160029951  0.0215234751111221  0.2973385819972959   T   T   T
  0.0044032093450803  0.5180167537660921  0.2950494135378781   T   T   T
  0.4963451609695891  0.3569338044932928  0.2942876492171990   T   T   T
  0.5205229409044458  0.5209269677055944  0.3097684011177158   T   T   T
 -0.0199265144464990  0.3539551863249011  0.3095110597401623   T   T   T
  0.2505401355013247  0.4373303498700384  0.3275578794180953   T   T   T
 
  0.00000000E+00  0.00000000E+00  0.00000000E+00
  0.00000000E+00  0.00000000E+00  0.00000000E+00
  0.00000000E+00  0.00000000E+00  0.00000000E+00
  0.00000000E+00  0.00000000E+00  0.00000000E+00
  0.00000000E+00  0.00000000E+00  0.00000000E+00
  0.00000000E+00  0.00000000E+00  0.00000000E+00
  0.00000000E+00  0.00000000E+00  0.00000000E+00
  0.00000000E+00  0.00000000E+00  0.00000000E+00
  0.00000000E+00  0.00000000E+00  0.00000000E+00
  0.00000000E+00  0.00000000E+00  0.00000000E+00
  0.00000000E+00  0.00000000E+00  0.00000000E+00
  0.00000000E+00  0.00000000E+00  0.00000000E+00
  0.00000000E+00  0.00000000E+00  0.00000000E+00
  0.00000000E+00  0.00000000E+00  0.00000000E+00
  0.00000000E+00  0.00000000E+00  0.00000000E+00
  0.00000000E+00  0.00000000E+00  0.00000000E+00
  0.00000000E+00  0.00000000E+00  0.00000000E+00
  0.00000000E+00  0.00000000E+00  0.00000000E+00
  0.00000000E+00  0.00000000E+00  0.00000000E+00
  0.00000000E+00  0.00000000E+00  0.00000000E+00
  0.00000000E+00  0.00000000E+00  0.00000000E+00
  0.00000000E+00  0.00000000E+00  0.00000000E+00
  0.00000000E+00  0.00000000E+00  0.00000000E+00
  0.00000000E+00  0.00000000E+00  0.00000000E+00
  0.00000000E+00  0.00000000E+00  0.00000000E+00
  0.00000000E+00  0.00000000E+00  0.00000000E+00
  0.00000000E+00  0.00000000E+00  0.00000000E+00
  0.00000000E+00  0.00000000E+00  0.00000000E+00
  0.00000000E+00  0.00000000E+00  0.00000000E+00
  0.00000000E+00  0.00000000E+00  0.00000000E+00
  0.00000000E+00  0.00000000E+00  0.00000000E+00
