Title                                   
   1.00000000000000     
     4.9440799999999996    0.0000000000000000    0.0000000000000000
     0.0000000000000000   17.1295089999999988    0.0000000000000000
     0.0000000000000000    0.0000000000000000   20.0000000000000000
    30     1     1
Selective dynamics
Direct
  0.0003423652964870  0.1049096782155492  0.2840439848421987   T   T   T
  0.2498815632775469  0.1468402704856643  0.2878030943937551   T   T   T
  0.2498541509838693  0.2297996383034415  0.2981003131606947   T   T   T
 -0.0010783096467030  0.3515760060199709  0.3203812564543705   T   T   T
 -0.0016330779004688  0.2706939533227669  0.3034970355701902   T   T   T
 -0.0025742486061084  0.6047341746953903  0.3084360574546487   T   T   T
  0.2499370300234585  0.7284611711673005  0.2923197722889623   T   T   T
  0.0002180209385619  0.8540097294215339  0.2820632892176112   T   T   T
  0.2499119589144922  0.8960641459530281  0.2806796597976047   T   T   T
  0.2498821051688062  0.9795310486699048  0.2796884931655004   T   T   T
  0.0002233426270959  0.7707686156240467  0.2873858464714851   T   T   T
  0.4993931545141970  0.1049135378886558  0.2840471404581074   T   T   T
  0.7498805041558940  0.1466854807989314  0.2869961064974045   T   T   T
  0.7498693639258958  0.2290558977635240  0.2959346140432551   T   T   T
  0.4996961942333437  0.0215392479157009  0.2801900681874689   T   T   T
  0.5008648554750933  0.3515758526198329  0.3203844371609990   T   T   T
  0.7499397109787349  0.4775581966645870  0.3208104365965997   T   T   T
  0.5013475908062506  0.2706941784009124  0.3035045009902924   T   T   T
  0.5024152646321637  0.6047398493778099  0.3084277178229430   T   T   T
  0.7499346020054503  0.7294212172119137  0.2902601484568421   T   T   T
  0.4995967053786400  0.8540074120216694  0.2820564689385720   T   T   T
  0.7499053407728880  0.8959586032806987  0.2803165733155953   T   T   T
  0.7498710038918666  0.9795090959273336  0.2793828328485164   T   T   T
  0.4996535994940152  0.7707683178912488  0.2873821153617769   T   T   T
  0.7499206896570043  0.6467214318030176  0.2998753652395066   T   T   T
  0.2499086577546017  0.6461790972272012  0.3035280660722526   T   T   T
  0.0000407338364845  0.0215352523889053  0.2801932277135492   T   T   T
  0.5161968281757218  0.5235972208822194  0.3228870545691926   T   T   T
  0.9836985904662849  0.5235877775052437  0.3229058571605348   T   T   T
  0.2498990594557795  0.3866979416182834  0.3363102369491590   T   T   T
  0.7499040088894514  0.3936780291367515  0.3233536619483521   T   T   T
  0.2499216404232066  0.4827389297969564  0.3894195668520093   T   T   T
 
  0.00000000E+00  0.00000000E+00  0.00000000E+00
  0.00000000E+00  0.00000000E+00  0.00000000E+00
  0.00000000E+00  0.00000000E+00  0.00000000E+00
  0.00000000E+00  0.00000000E+00  0.00000000E+00
  0.00000000E+00  0.00000000E+00  0.00000000E+00
  0.00000000E+00  0.00000000E+00  0.00000000E+00
  0.00000000E+00  0.00000000E+00  0.00000000E+00
  0.00000000E+00  0.00000000E+00  0.00000000E+00
  0.00000000E+00  0.00000000E+00  0.00000000E+00
  0.00000000E+00  0.00000000E+00  0.00000000E+00
  0.00000000E+00  0.00000000E+00  0.00000000E+00
  0.00000000E+00  0.00000000E+00  0.00000000E+00
  0.00000000E+00  0.00000000E+00  0.00000000E+00
  0.00000000E+00  0.00000000E+00  0.00000000E+00
  0.00000000E+00  0.00000000E+00  0.00000000E+00
  0.00000000E+00  0.00000000E+00  0.00000000E+00
  0.00000000E+00  0.00000000E+00  0.00000000E+00
  0.00000000E+00  0.00000000E+00  0.00000000E+00
  0.00000000E+00  0.00000000E+00  0.00000000E+00
  0.00000000E+00  0.00000000E+00  0.00000000E+00
  0.00000000E+00  0.00000000E+00  0.00000000E+00
  0.00000000E+00  0.00000000E+00  0.00000000E+00
  0.00000000E+00  0.00000000E+00  0.00000000E+00
  0.00000000E+00  0.00000000E+00  0.00000000E+00
  0.00000000E+00  0.00000000E+00  0.00000000E+00
  0.00000000E+00  0.00000000E+00  0.00000000E+00
  0.00000000E+00  0.00000000E+00  0.00000000E+00
  0.00000000E+00  0.00000000E+00  0.00000000E+00
  0.00000000E+00  0.00000000E+00  0.00000000E+00
  0.00000000E+00  0.00000000E+00  0.00000000E+00
  0.00000000E+00  0.00000000E+00  0.00000000E+00
  0.00000000E+00  0.00000000E+00  0.00000000E+00
