Title                                   
   1.00000000000000     
     9.8694509999999998    0.0000000000000000    0.0000000000000000
     0.0000000000000000    8.5490480000000009    0.0000000000000000
     0.0000000000000000    0.0000000000000000   20.0000000000000000
    27     3     1
Selective dynamics
Direct
  0.0556516524761715  0.0897616588162767  0.0873393759709242   T   T   T
  0.9311220527313095  0.1715365927323236  0.0888346592685210   T   T   T
  0.0568226719984910  0.9232095663089395  0.0874852424029438   T   T   T
  0.9340574521169034  0.3386759306609717  0.0878761099617324   T   T   T
  0.0577696089544745  0.5902031614393956  0.0842116855739293   T   T   T
  0.9335645008210072  0.6734410326192255  0.0875373875367120   T   T   T
  0.0581972563525934  0.4230367245925783  0.0841850910023078   T   T   T
  0.9310361302463502  0.8397155980062708  0.0885346855993897   T   T   T
  0.3066449464637686  0.0897478483774337  0.0922742626583597   T   T   T
  0.1811352443683269  0.1719172397247822  0.0877001425082410   T   T   T
  0.1818973015462343  0.3391361063869862  0.0858813887431105   T   T   T
  0.3043750283136161  0.5905268485650740  0.0913969209366280   T   T   T
  0.1815466186489002  0.6745154870555656  0.0858657725272060   T   T   T
  0.3052090130743182  0.4234672538813955  0.0914889906066109   T   T   T
  0.1809595488582058  0.8407824136482923  0.0880034762128602   T   T   T
  0.5540913366112187  0.0913003611471556  0.1005138264360513   T   T   T
  0.4292985082136936  0.1770977689212765  0.0987352617883004   T   T   T
  0.5524337812366424  0.9211569328686914  0.0997571619109732   T   T   T
  0.4276547047909223  0.8358127692038885  0.0983745969670821   T   T   T
  0.8043939243498672  0.0889907455887132  0.0929012973500774   T   T   T
  0.6804869574685742  0.1750833234326796  0.0998626079233287   T   T   T
  0.8041085303727438  0.9213466983066151  0.0925474613269939   T   T   T
  0.6881853741235432  0.3414167268371297  0.1074155872465347   T   T   T
  0.8112746798695480  0.5892596187971336  0.0940031843563426   T   T   T
  0.6860869030601168  0.6681515093073923  0.1030291191893734   T   T   T
  0.8120810719037793  0.4215812218556785  0.0950168483692965   T   T   T
  0.6788413087918737  0.8347352835181506  0.0982444724915896   T   T   T
  0.4251865724519523  0.3417786743961628  0.1025146370211204   T   T   T
  0.4227159969876247  0.6750256599323351  0.1029907841027840   T   T   T
  0.3065632292285385  0.9236914541588311  0.0920364606053528   T   T   T
  0.5597430935687077  0.5047727889126622  0.1444065014053708   T   T   T
 
  0.00000000E+00  0.00000000E+00  0.00000000E+00
  0.00000000E+00  0.00000000E+00  0.00000000E+00
  0.00000000E+00  0.00000000E+00  0.00000000E+00
  0.00000000E+00  0.00000000E+00  0.00000000E+00
  0.00000000E+00  0.00000000E+00  0.00000000E+00
  0.00000000E+00  0.00000000E+00  0.00000000E+00
  0.00000000E+00  0.00000000E+00  0.00000000E+00
  0.00000000E+00  0.00000000E+00  0.00000000E+00
  0.00000000E+00  0.00000000E+00  0.00000000E+00
  0.00000000E+00  0.00000000E+00  0.00000000E+00
  0.00000000E+00  0.00000000E+00  0.00000000E+00
  0.00000000E+00  0.00000000E+00  0.00000000E+00
  0.00000000E+00  0.00000000E+00  0.00000000E+00
  0.00000000E+00  0.00000000E+00  0.00000000E+00
  0.00000000E+00  0.00000000E+00  0.00000000E+00
  0.00000000E+00  0.00000000E+00  0.00000000E+00
  0.00000000E+00  0.00000000E+00  0.00000000E+00
  0.00000000E+00  0.00000000E+00  0.00000000E+00
  0.00000000E+00  0.00000000E+00  0.00000000E+00
  0.00000000E+00  0.00000000E+00  0.00000000E+00
  0.00000000E+00  0.00000000E+00  0.00000000E+00
  0.00000000E+00  0.00000000E+00  0.00000000E+00
  0.00000000E+00  0.00000000E+00  0.00000000E+00
  0.00000000E+00  0.00000000E+00  0.00000000E+00
  0.00000000E+00  0.00000000E+00  0.00000000E+00
  0.00000000E+00  0.00000000E+00  0.00000000E+00
  0.00000000E+00  0.00000000E+00  0.00000000E+00
  0.00000000E+00  0.00000000E+00  0.00000000E+00
  0.00000000E+00  0.00000000E+00  0.00000000E+00
  0.00000000E+00  0.00000000E+00  0.00000000E+00
  0.00000000E+00  0.00000000E+00  0.00000000E+00
