Title                                   
   1.00000000000000     
     4.9440799999999996    0.0000000000000000    0.0000000000000000
     0.0000000000000000   17.1295089999999988    0.0000000000000000
     0.0000000000000000    0.0000000000000000   20.0000000000000000
    31     1
Selective dynamics
Direct
  0.0000307630823442  0.1042828595105264  0.2786286517197716   T   T   T
  0.2498276410234452  0.1460829748306292  0.2826837953305542   T   T   T
  0.2498197130272504  0.2287492969144155  0.2938728783494121   T   T   T
 -0.0024927549675409  0.3505031189906962  0.3188043536089794   T   T   T
 -0.0018397730766640  0.2695162507312209  0.3003383721020302   T   T   T
 -0.0023348791952049  0.6077048351113030  0.3174731597226159   T   T   T
  0.2499118517236615  0.7291759857022413  0.2927380456574586   T   T   T
  0.0000662764282317  0.8537700664298256  0.2781385462374059   T   T   T
  0.2498582983930027  0.8955249095045229  0.2757616934411694   T   T   T
  0.2498478146592601  0.9790470485030229  0.2738168590491621   T   T   T
  0.0001999732015605  0.7707069781784294  0.2862548355584442   T   T   T
  0.4996315649955348  0.1042878866902350  0.2786220907105658   T   T   T
  0.7498300701884432  0.1457108407821182  0.2821106711039891   T   T   T
  0.7498429696691112  0.2282062217111983  0.2925035837602810   T   T   T
  0.4997962962429009  0.0208692830709779  0.2743537599161475   T   T   T
  0.5022394618844693  0.3505066476720712  0.3187890770261867   T   T   T
  0.7498987917890003  0.3941620945645056  0.3258250761744156   T   T   T
  0.7500054351272039  0.4796930831112393  0.3339583387399624   T   T   T
  0.5015327620425357  0.2695068203945947  0.3003314687680056   T   T   T
  0.5022605931550760  0.6077324677162386  0.3174109818289507   T   T   T
  0.7499374458883189  0.7298195217086880  0.2913433529726949   T   T   T
  0.4996962009590912  0.8537772542240960  0.2781291366841417   T   T   T
  0.7498752343236360  0.8954306391515976  0.2755803310483780   T   T   T
  0.7498391847444800  0.9790421913655183  0.2736922930596031   T   T   T
  0.4996562613552854  0.7707075646456283  0.2862439722111202   T   T   T
  0.7499886865640618  0.6479885048684011  0.3059892266159435   T   T   T
  0.2499185961874377  0.6477556701956561  0.3096021909859483   T   T   T
 -0.0000930548957543  0.0208684292023495  0.2743550562668559   T   T   T
  0.5124336905467922  0.5278432800222127  0.3387751859820228   T   T   T
  0.9875614762033007  0.5278356459735343  0.3389166135871828   T   T   T
  0.2498900322747551  0.3855526491805408  0.3352368269554542   T   T   T
  0.2501863764549793  0.4761899793417578  0.3922845748250986   T   T   T
 
  0.00000000E+00  0.00000000E+00  0.00000000E+00
  0.00000000E+00  0.00000000E+00  0.00000000E+00
  0.00000000E+00  0.00000000E+00  0.00000000E+00
  0.00000000E+00  0.00000000E+00  0.00000000E+00
  0.00000000E+00  0.00000000E+00  0.00000000E+00
  0.00000000E+00  0.00000000E+00  0.00000000E+00
  0.00000000E+00  0.00000000E+00  0.00000000E+00
  0.00000000E+00  0.00000000E+00  0.00000000E+00
  0.00000000E+00  0.00000000E+00  0.00000000E+00
  0.00000000E+00  0.00000000E+00  0.00000000E+00
  0.00000000E+00  0.00000000E+00  0.00000000E+00
  0.00000000E+00  0.00000000E+00  0.00000000E+00
  0.00000000E+00  0.00000000E+00  0.00000000E+00
  0.00000000E+00  0.00000000E+00  0.00000000E+00
  0.00000000E+00  0.00000000E+00  0.00000000E+00
  0.00000000E+00  0.00000000E+00  0.00000000E+00
  0.00000000E+00  0.00000000E+00  0.00000000E+00
  0.00000000E+00  0.00000000E+00  0.00000000E+00
  0.00000000E+00  0.00000000E+00  0.00000000E+00
  0.00000000E+00  0.00000000E+00  0.00000000E+00
  0.00000000E+00  0.00000000E+00  0.00000000E+00
  0.00000000E+00  0.00000000E+00  0.00000000E+00
  0.00000000E+00  0.00000000E+00  0.00000000E+00
  0.00000000E+00  0.00000000E+00  0.00000000E+00
  0.00000000E+00  0.00000000E+00  0.00000000E+00
  0.00000000E+00  0.00000000E+00  0.00000000E+00
  0.00000000E+00  0.00000000E+00  0.00000000E+00
  0.00000000E+00  0.00000000E+00  0.00000000E+00
  0.00000000E+00  0.00000000E+00  0.00000000E+00
  0.00000000E+00  0.00000000E+00  0.00000000E+00
  0.00000000E+00  0.00000000E+00  0.00000000E+00
  0.00000000E+00  0.00000000E+00  0.00000000E+00
