Title                                   
   1.00000000000000     
     9.8694509999999998    0.0000000000000000    0.0000000000000000
     0.0000000000000000    8.5490480000000009    0.0000000000000000
     0.0000000000000000    0.0000000000000000   20.0000000000000000
    27     4     1
Selective dynamics
Direct
  0.0554112260445879  0.0898779664757324  0.0827709725690874   T   T   T
  0.9305888772334906  0.1746781350491923  0.0833774486328997   T   T   T
  0.0577225189038425  0.9225297036247452  0.0838640963806469   T   T   T
  0.9297237398102194  0.3414852297290589  0.0855013712641161   T   T   T
  0.0561723134063245  0.5908475468053065  0.0852204895401328   T   T   T
  0.0553340393796778  0.4236330621755405  0.0850028345706346   T   T   T
  0.9331872905978638  0.8395818933908634  0.0863365855246843   T   T   T
  0.3056317725097230  0.0878603438189472  0.0873624270532289   T   T   T
  0.1815204447001443  0.1719040332525876  0.0849805588172711   T   T   T
  0.1804431001489638  0.3390768879596786  0.0872742123009912   T   T   T
  0.3022059773081345  0.5875493579488847  0.1012402443212451   T   T   T
  0.1805370226127950  0.6732347169208326  0.0889350387028982   T   T   T
  0.3055292474230067  0.4195860185610745  0.0981990933463505   T   T   T
  0.1828486963960132  0.8407345234909123  0.0868723187990615   T   T   T
  0.5559755313219837  0.0870905741050753  0.0920956550710071   T   T   T
  0.5560737834311239  0.9200202105419694  0.0983495949529244   T   T   T
  0.4285653509377318  0.3309768770900939  0.1038785594616534   T   T   T
  0.4273927276527045  0.8400248666753444  0.1027742377160709   T   T   T
  0.8059866818916458  0.0895201957615135  0.0849694704419776   T   T   T
  0.6800466692015645  0.1722196683157564  0.0895493793120088   T   T   T
  0.8080729436364911  0.9234634106577587  0.0880792129062157   T   T   T
  0.6807401168775346  0.3384996934512999  0.0993974249355363   T   T   T
  0.8108082008171658  0.5948533204881524  0.0989871075532184   T   T   T
  0.8046172289903742  0.4267003360716139  0.0946842776542906   T   T   T
  0.6851512007492037  0.8416175977889426  0.0997626180088423   T   T   T
  0.4167690370326018  0.6801275640553422  0.1193471541001589   T   T   T
  0.5535779183748806  0.4038331325307093  0.1191832527015055   T   T   T
  0.7005785336921716  0.6839071468886643  0.1183218179559219   T   T   T
  0.3068687985262168  0.9241490055728596  0.0893239171627132   T   T   T
  0.4290130469729959  0.1667875757559559  0.0924976969931957   T   T   T
  0.9326531886016660  0.6734839122395991  0.0876409511825495   T   T   T
  0.5598917748171608  0.5903914928059932  0.1798949800669778   T   T   T
 
  0.00000000E+00  0.00000000E+00  0.00000000E+00
  0.00000000E+00  0.00000000E+00  0.00000000E+00
  0.00000000E+00  0.00000000E+00  0.00000000E+00
  0.00000000E+00  0.00000000E+00  0.00000000E+00
  0.00000000E+00  0.00000000E+00  0.00000000E+00
  0.00000000E+00  0.00000000E+00  0.00000000E+00
  0.00000000E+00  0.00000000E+00  0.00000000E+00
  0.00000000E+00  0.00000000E+00  0.00000000E+00
  0.00000000E+00  0.00000000E+00  0.00000000E+00
  0.00000000E+00  0.00000000E+00  0.00000000E+00
  0.00000000E+00  0.00000000E+00  0.00000000E+00
  0.00000000E+00  0.00000000E+00  0.00000000E+00
  0.00000000E+00  0.00000000E+00  0.00000000E+00
  0.00000000E+00  0.00000000E+00  0.00000000E+00
  0.00000000E+00  0.00000000E+00  0.00000000E+00
  0.00000000E+00  0.00000000E+00  0.00000000E+00
  0.00000000E+00  0.00000000E+00  0.00000000E+00
  0.00000000E+00  0.00000000E+00  0.00000000E+00
  0.00000000E+00  0.00000000E+00  0.00000000E+00
  0.00000000E+00  0.00000000E+00  0.00000000E+00
  0.00000000E+00  0.00000000E+00  0.00000000E+00
  0.00000000E+00  0.00000000E+00  0.00000000E+00
  0.00000000E+00  0.00000000E+00  0.00000000E+00
  0.00000000E+00  0.00000000E+00  0.00000000E+00
  0.00000000E+00  0.00000000E+00  0.00000000E+00
  0.00000000E+00  0.00000000E+00  0.00000000E+00
  0.00000000E+00  0.00000000E+00  0.00000000E+00
  0.00000000E+00  0.00000000E+00  0.00000000E+00
  0.00000000E+00  0.00000000E+00  0.00000000E+00
  0.00000000E+00  0.00000000E+00  0.00000000E+00
  0.00000000E+00  0.00000000E+00  0.00000000E+00
  0.00000000E+00  0.00000000E+00  0.00000000E+00
