Title                                   
   1.00000000000000     
     8.5490480000000009    0.0000000000000000    0.0000000000000000
     0.0000000000000000    8.5490480000000009    0.0000000000000000
     0.0000000000000000    0.0000000000000000   20.0000000000000000
    21     3     1
Selective dynamics
Direct
  0.9068034513763478  0.2066234561348415  0.0947551205831599   T   T   T
  0.9093748164435864  0.5040551083980137  0.0966301820297110   T   T   T
  0.9118672893467199  0.8019084769802121  0.0973620825253856   T   T   T
  0.1958875563928852  0.0819337124120259  0.0970412621360914   T   T   T
  0.0740016225629854  0.2015817720591967  0.0968993786423648   T   T   T
  0.1599072096272235  0.6481138100577423  0.0946962243121873   T   T   T
  0.0783228054785630  0.5006419142080297  0.0967418866315598   T   T   T
  0.1552875946570715  0.3504348175231725  0.0991171133521064   T   T   T
  0.0802982674270350  0.7970975902730304  0.0955035954344911   T   T   T
  0.4919298006712594  0.0868159995766002  0.0966088061074673   T   T   T
  0.3418768090718243  0.1621506936078868  0.0992028452467569   T   T   T
  0.4935580394915439  0.9177982377215171  0.0968685503620731   T   T   T
  0.3473454806141138  0.8361549766039893  0.0940302575011796   T   T   T
  0.7862145317780259  0.0876816815964316  0.0949307182570315   T   T   T
  0.6368860197209618  0.1683600137253307  0.0940452991725051   T   T   T
  0.7892596646275041  0.9207917970875564  0.0971394641352745   T   T   T
  0.8318545828534789  0.6531114776287573  0.0996698979176176   T   T   T
  0.8280781664889816  0.3575636299870499  0.0936161264797486   T   T   T
  0.6419043625768490  0.8385277556577231  0.0995836357802180   T   T   T
  0.3265528243615354  0.6721851779957193  0.0919529336634034   T   T   T
  0.6611922349197178  0.3365711886984278  0.0914992181150921   T   T   T
  0.3184137751517795  0.3262683337810678  0.1039246749588817   T   T   T
  0.6668739443622619  0.6747894008060935  0.1048439775018116   T   T   T
  0.1988393930512415  0.9153114611600081  0.0949093998379225   T   T   T
  0.4928817569464888  0.4983175163195894  0.1221323493159392   T   T   T
 
  0.00000000E+00  0.00000000E+00  0.00000000E+00
  0.00000000E+00  0.00000000E+00  0.00000000E+00
  0.00000000E+00  0.00000000E+00  0.00000000E+00
  0.00000000E+00  0.00000000E+00  0.00000000E+00
  0.00000000E+00  0.00000000E+00  0.00000000E+00
  0.00000000E+00  0.00000000E+00  0.00000000E+00
  0.00000000E+00  0.00000000E+00  0.00000000E+00
  0.00000000E+00  0.00000000E+00  0.00000000E+00
  0.00000000E+00  0.00000000E+00  0.00000000E+00
  0.00000000E+00  0.00000000E+00  0.00000000E+00
  0.00000000E+00  0.00000000E+00  0.00000000E+00
  0.00000000E+00  0.00000000E+00  0.00000000E+00
  0.00000000E+00  0.00000000E+00  0.00000000E+00
  0.00000000E+00  0.00000000E+00  0.00000000E+00
  0.00000000E+00  0.00000000E+00  0.00000000E+00
  0.00000000E+00  0.00000000E+00  0.00000000E+00
  0.00000000E+00  0.00000000E+00  0.00000000E+00
  0.00000000E+00  0.00000000E+00  0.00000000E+00
  0.00000000E+00  0.00000000E+00  0.00000000E+00
  0.00000000E+00  0.00000000E+00  0.00000000E+00
  0.00000000E+00  0.00000000E+00  0.00000000E+00
  0.00000000E+00  0.00000000E+00  0.00000000E+00
  0.00000000E+00  0.00000000E+00  0.00000000E+00
  0.00000000E+00  0.00000000E+00  0.00000000E+00
  0.00000000E+00  0.00000000E+00  0.00000000E+00
