Title                                   
   1.00000000000000     
     9.8694509999999998    0.0000000000000000    0.0000000000000000
     0.0000000000000000    8.5490480000000009    0.0000000000000000
     0.0000000000000000    0.0000000000000000   20.0000000000000000
    26     4     1
Selective dynamics
Direct
  0.0562990822742194  0.0894468271794020  0.0882383860644157   T   T   T
  0.9313627168414081  0.1722237450510904  0.0930390329239312   T   T   T
  0.0576797368904049  0.9229540739987180  0.0885336032230605   T   T   T
  0.9336380268857767  0.3393853669433377  0.0960829193764518   T   T   T
  0.0582459031763199  0.5897103624813538  0.0913079001109486   T   T   T
  0.9338405210526534  0.6726170446134484  0.0963045687358541   T   T   T
  0.0581245656595626  0.4227052419047546  0.0909553643487429   T   T   T
  0.9322613445647986  0.8395521131307404  0.0934193568772089   T   T   T
  0.3079793546842776  0.0880376448868629  0.0849670806600130   T   T   T
  0.1824071769409095  0.1722586346147215  0.0856592461507943   T   T   T
  0.1817588219062259  0.3385872332548972  0.0863799651234625   T   T   T
  0.3075782008070724  0.5901170263486323  0.0848753259279958   T   T   T
  0.1821335727090280  0.6734672523795839  0.0872516201943639   T   T   T
  0.3075046438700473  0.4211709968974461  0.0843347360139992   T   T   T
  0.1821576906050818  0.8391415677956955  0.0863063511643667   T   T   T
  0.4307555406734204  0.1732979231981116  0.0883175297975684   T   T   T
  0.5538666276683681  0.9224017292926453  0.0963734708153396   T   T   T
  0.4303599799785214  0.8395026035669420  0.0887836928956576   T   T   T
  0.8050204149927634  0.0890956178634641  0.0951654300948771   T   T   T
  0.6805814196561072  0.1767349733404187  0.1012509560222318   T   T   T
  0.8062482292425505  0.9224453799225175  0.0956220204083122   T   T   T
  0.6850360491013253  0.3395351065760476  0.1125570432046017   T   T   T
  0.8109395050429123  0.5906612603392013  0.1059561683683217   T   T   T
  0.6861376767493924  0.6722981343319711  0.1126941763624375   T   T   T
  0.8107570020692295  0.4207847338257753  0.1060327097727943   T   T   T
  0.6807668797739683  0.8368055537921510  0.1021242590846752   T   T   T
  0.5553871276121606  0.0928836267678902  0.0954055132919546   T   T   T
  0.4283991388639497  0.3348420656855862  0.0872722134676070   T   T   T
  0.4274528522553519  0.6781559351715418  0.0874072020222070   T   T   T
  0.3064912857681333  0.9225543844277508  0.0843713492046359   T   T   T
  0.5319639116840759  0.5075008404173057  0.1439758082912171   T   T   T
 
  0.00000000E+00  0.00000000E+00  0.00000000E+00
  0.00000000E+00  0.00000000E+00  0.00000000E+00
  0.00000000E+00  0.00000000E+00  0.00000000E+00
  0.00000000E+00  0.00000000E+00  0.00000000E+00
  0.00000000E+00  0.00000000E+00  0.00000000E+00
  0.00000000E+00  0.00000000E+00  0.00000000E+00
  0.00000000E+00  0.00000000E+00  0.00000000E+00
  0.00000000E+00  0.00000000E+00  0.00000000E+00
  0.00000000E+00  0.00000000E+00  0.00000000E+00
  0.00000000E+00  0.00000000E+00  0.00000000E+00
  0.00000000E+00  0.00000000E+00  0.00000000E+00
  0.00000000E+00  0.00000000E+00  0.00000000E+00
  0.00000000E+00  0.00000000E+00  0.00000000E+00
  0.00000000E+00  0.00000000E+00  0.00000000E+00
  0.00000000E+00  0.00000000E+00  0.00000000E+00
  0.00000000E+00  0.00000000E+00  0.00000000E+00
  0.00000000E+00  0.00000000E+00  0.00000000E+00
  0.00000000E+00  0.00000000E+00  0.00000000E+00
  0.00000000E+00  0.00000000E+00  0.00000000E+00
  0.00000000E+00  0.00000000E+00  0.00000000E+00
  0.00000000E+00  0.00000000E+00  0.00000000E+00
  0.00000000E+00  0.00000000E+00  0.00000000E+00
  0.00000000E+00  0.00000000E+00  0.00000000E+00
  0.00000000E+00  0.00000000E+00  0.00000000E+00
  0.00000000E+00  0.00000000E+00  0.00000000E+00
  0.00000000E+00  0.00000000E+00  0.00000000E+00
  0.00000000E+00  0.00000000E+00  0.00000000E+00
  0.00000000E+00  0.00000000E+00  0.00000000E+00
  0.00000000E+00  0.00000000E+00  0.00000000E+00
  0.00000000E+00  0.00000000E+00  0.00000000E+00
  0.00000000E+00  0.00000000E+00  0.00000000E+00
