Title                                   
   1.00000000000000     
     9.8694509999999998    0.0000000000000000    0.0000000000000000
     0.0000000000000000    8.5490480000000009    0.0000000000000000
     0.0000000000000000    0.0000000000000000   20.0000000000000000
    24     6     1
Selective dynamics
Direct
  0.0557161840803806  0.0895431034602802  0.0935855640186972   T   T   T
  0.9316528055543887  0.1715851171209312  0.0942128664130511   T   T   T
  0.0570902209973991  0.9232418138319693  0.0936627132261152   T   T   T
  0.9337758024135325  0.3390187786041362  0.0935537170993392   T   T   T
  0.0567197778984986  0.5896115552940975  0.0918274736830166   T   T   T
  0.9340162409668581  0.6731820671981594  0.0935583212683906   T   T   T
  0.0567323274763518  0.4229164049305419  0.0918051490687832   T   T   T
  0.9323559373834877  0.8401564022416733  0.0942910940116620   T   T   T
  0.3067106889229415  0.0879056178478128  0.0962884738041103   T   T   T
  0.1813214120879423  0.1708627794951783  0.0940394705407109   T   T   T
  0.1794217589532186  0.3380347550013836  0.0933787854785708   T   T   T
  0.3008908673212124  0.5906663154109447  0.0967942073643695   T   T   T
  0.1795384505765782  0.6745296452673580  0.0933749406281092   T   T   T
  0.3007628959736137  0.4209127332766085  0.0967477713994757   T   T   T
  0.1809852023444759  0.8408195115486130  0.0941618231385847   T   T   T
  0.4290214053742923  0.1768245575883511  0.0993372680136210   T   T   T
  0.5547700787050857  0.9195467989799252  0.1003582792328975   T   T   T
  0.4285788774532860  0.8365932002883043  0.0996252414780101   T   T   T
  0.8052791863490115  0.0892870110792698  0.0963319850777416   T   T   T
  0.6828234122190792  0.1781769221575365  0.0991778899669740   T   T   T
  0.8063485348656058  0.9222318427485304  0.0964709713577899   T   T   T
  0.8119770518981160  0.5907965645335578  0.0968704994847201   T   T   T
  0.8121122257935477  0.4207304284341029  0.0967696666757426   T   T   T
  0.6829983175811891  0.8348433090958667  0.0995882150657343   T   T   T
  0.5566836191208143  0.0954345993705682  0.1003415121699370   T   T   T
  0.4216044673708989  0.3375639718137544  0.1010402070006582   T   T   T
  0.4201978673451592  0.6745579194828805  0.1013729451520738   T   T   T
  0.6900650979630236  0.3389390384587238  0.1008612880255395   T   T   T
  0.6915082488243157  0.6724147084121180  0.1011611954668798   T   T   T
  0.3054968580916153  0.9230549664351767  0.0963260433809065   T   T   T
  0.5559801780940798  0.5068925605916453  0.1040494213078455   T   T   T
 
  0.00000000E+00  0.00000000E+00  0.00000000E+00
  0.00000000E+00  0.00000000E+00  0.00000000E+00
  0.00000000E+00  0.00000000E+00  0.00000000E+00
  0.00000000E+00  0.00000000E+00  0.00000000E+00
  0.00000000E+00  0.00000000E+00  0.00000000E+00
  0.00000000E+00  0.00000000E+00  0.00000000E+00
  0.00000000E+00  0.00000000E+00  0.00000000E+00
  0.00000000E+00  0.00000000E+00  0.00000000E+00
  0.00000000E+00  0.00000000E+00  0.00000000E+00
  0.00000000E+00  0.00000000E+00  0.00000000E+00
  0.00000000E+00  0.00000000E+00  0.00000000E+00
  0.00000000E+00  0.00000000E+00  0.00000000E+00
  0.00000000E+00  0.00000000E+00  0.00000000E+00
  0.00000000E+00  0.00000000E+00  0.00000000E+00
  0.00000000E+00  0.00000000E+00  0.00000000E+00
  0.00000000E+00  0.00000000E+00  0.00000000E+00
  0.00000000E+00  0.00000000E+00  0.00000000E+00
  0.00000000E+00  0.00000000E+00  0.00000000E+00
  0.00000000E+00  0.00000000E+00  0.00000000E+00
  0.00000000E+00  0.00000000E+00  0.00000000E+00
  0.00000000E+00  0.00000000E+00  0.00000000E+00
  0.00000000E+00  0.00000000E+00  0.00000000E+00
  0.00000000E+00  0.00000000E+00  0.00000000E+00
  0.00000000E+00  0.00000000E+00  0.00000000E+00
  0.00000000E+00  0.00000000E+00  0.00000000E+00
  0.00000000E+00  0.00000000E+00  0.00000000E+00
  0.00000000E+00  0.00000000E+00  0.00000000E+00
  0.00000000E+00  0.00000000E+00  0.00000000E+00
  0.00000000E+00  0.00000000E+00  0.00000000E+00
  0.00000000E+00  0.00000000E+00  0.00000000E+00
  0.00000000E+00  0.00000000E+00  0.00000000E+00
