Title                                   
   1.00000000000000     
     8.5490480000000009    0.0000000000000000    0.0000000000000000
     0.0000000000000000    8.5490480000000009    0.0000000000000000
     0.0000000000000000    0.0000000000000000   20.0000000000000000
    22     2     1
Selective dynamics
Direct
  0.9100378752338359  0.2044085777769514  0.0915683277266809   T   T   T
  0.9071099386414034  0.5043869650319249  0.0959180337574698   T   T   T
  0.9125688519201003  0.8034893360781020  0.0933097119445888   T   T   T
  0.1962956142962951  0.0795721517355040  0.0932691849136022   T   T   T
  0.0722756813539973  0.2011707241009459  0.0921284625791017   T   T   T
  0.1569619519397084  0.6500631996555097  0.0955793333936325   T   T   T
  0.0754003429410989  0.5023983372688023  0.0962331912124365   T   T   T
  0.1550100107493687  0.3527783602448053  0.0969626214535669   T   T   T
  0.0786321303442007  0.7994016946812009  0.0927454073199484   T   T   T
  0.4929738088381934  0.0830584471836341  0.0968307829915200   T   T   T
  0.3427180869003339  0.1599772603073431  0.0979017203039364   T   T   T
  0.4935037985458710  0.9155824626587160  0.0961358060751820   T   T   T
  0.3462341322351662  0.8341683517215266  0.0956266378479980   T   T   T
  0.7880374335191348  0.0847765356314942  0.0925678883479235   T   T   T
  0.6394883033499963  0.1645734697161012  0.0960586219341141   T   T   T
  0.7913780021340563  0.9212837822495246  0.0931432026701236   T   T   T
  0.8311157645256213  0.6555778149440363  0.0965979317505968   T   T   T
  0.8272486159086683  0.3567172994732092  0.0948691046749572   T   T   T
  0.6433345996192179  0.8375100071864945  0.0965049365648682   T   T   T
  0.3170400502497000  0.3265664871175412  0.1047255898345539   T   T   T
  0.3220522565278819  0.6734592757782213  0.0981535887513590   T   T   T
  0.6643528786684917  0.3311474325927470  0.0999325415327233   T   T   T
  0.6703646978993147  0.6791345044653310  0.1002423995153938   T   T   T
  0.1958145542308732  0.9166898154426386  0.0923682160487527   T   T   T
  0.4954626194274637  0.5068977069577080  0.1493317568549528   T   T   T
 
  0.00000000E+00  0.00000000E+00  0.00000000E+00
  0.00000000E+00  0.00000000E+00  0.00000000E+00
  0.00000000E+00  0.00000000E+00  0.00000000E+00
  0.00000000E+00  0.00000000E+00  0.00000000E+00
  0.00000000E+00  0.00000000E+00  0.00000000E+00
  0.00000000E+00  0.00000000E+00  0.00000000E+00
  0.00000000E+00  0.00000000E+00  0.00000000E+00
  0.00000000E+00  0.00000000E+00  0.00000000E+00
  0.00000000E+00  0.00000000E+00  0.00000000E+00
  0.00000000E+00  0.00000000E+00  0.00000000E+00
  0.00000000E+00  0.00000000E+00  0.00000000E+00
  0.00000000E+00  0.00000000E+00  0.00000000E+00
  0.00000000E+00  0.00000000E+00  0.00000000E+00
  0.00000000E+00  0.00000000E+00  0.00000000E+00
  0.00000000E+00  0.00000000E+00  0.00000000E+00
  0.00000000E+00  0.00000000E+00  0.00000000E+00
  0.00000000E+00  0.00000000E+00  0.00000000E+00
  0.00000000E+00  0.00000000E+00  0.00000000E+00
  0.00000000E+00  0.00000000E+00  0.00000000E+00
  0.00000000E+00  0.00000000E+00  0.00000000E+00
  0.00000000E+00  0.00000000E+00  0.00000000E+00
  0.00000000E+00  0.00000000E+00  0.00000000E+00
  0.00000000E+00  0.00000000E+00  0.00000000E+00
  0.00000000E+00  0.00000000E+00  0.00000000E+00
  0.00000000E+00  0.00000000E+00  0.00000000E+00
