Title                                   
   1.00000000000000     
     9.8694509999999998    0.0000000000000000    0.0000000000000000
     0.0000000000000000    8.5490480000000009    0.0000000000000000
     0.0000000000000000    0.0000000000000000   20.0000000000000000
    27     3     1
Selective dynamics
Direct
  0.0552128136414366  0.0897407589079105  0.0904730639592405   T   T   T
  0.9305445018592955  0.1735953179599170  0.0901560174662041   T   T   T
  0.0577825600522281  0.9232494331401512  0.0905764777906299   T   T   T
  0.9320326958586082  0.3412043154792931  0.0912475594192575   T   T   T
  0.0570312032062363  0.5903166528841910  0.0921127330010457   T   T   T
  0.9335895382929302  0.6750186012926962  0.0924345651833579   T   T   T
  0.0564761637352480  0.4229416723906215  0.0920538162874176   T   T   T
  0.9329265279223653  0.8413539633039812  0.0915140166219824   T   T   T
  0.3058811321149231  0.0869193167517742  0.0934374660322507   T   T   T
  0.1801563767817989  0.1701970322465136  0.0923946977604200   T   T   T
  0.1797789090075075  0.3366863979400577  0.0933883424750194   T   T   T
  0.3052747025554223  0.5858462672933037  0.0943705653855316   T   T   T
  0.1818369378413299  0.6727391511539237  0.0924120354926414   T   T   T
  0.3033151542814569  0.4181070887502920  0.0964093784518281   T   T   T
  0.1828043974986955  0.8390904214761828  0.0912926943028561   T   T   T
  0.5555150420304776  0.0908252401155058  0.0953336017097250   T   T   T
  0.4287604954990413  0.1735925696606703  0.0967124285320925   T   T   T
  0.5559959901559201  0.9214584076774278  0.0956188808026278   T   T   T
  0.4286940645785332  0.6702148153742020  0.0957439109071348   T   T   T
  0.4310125460239305  0.8346666417504018  0.0945518831396314   T   T   T
  0.8046223301451391  0.0910174404960286  0.0905765671029688   T   T   T
  0.6797994065288177  0.1781327256567178  0.0926208284558508   T   T   T
  0.8061458012688091  0.9238628095943026  0.0918878577382062   T   T   T
  0.6823244247949409  0.3448435322814765  0.0933508353243663   T   T   T
  0.8095565129425941  0.5945452160471867  0.0946138698516778   T   T   T
  0.8073502376704742  0.4259514525004269  0.0923985389914412   T   T   T
  0.6825153478242105  0.8365257926476996  0.0954389662142325   T   T   T
  0.4243441141735129  0.3363882487306012  0.1014793554549314   T   T   T
  0.6877754511293118  0.6739853786747066  0.0993954283716113   T   T   T
  0.3071620543122525  0.9222968209725251  0.0921292766196501   T   T   T
  0.5569175662725555  0.5055615168493378  0.1348393411542030   T   T   T
 
  0.00000000E+00  0.00000000E+00  0.00000000E+00
  0.00000000E+00  0.00000000E+00  0.00000000E+00
  0.00000000E+00  0.00000000E+00  0.00000000E+00
  0.00000000E+00  0.00000000E+00  0.00000000E+00
  0.00000000E+00  0.00000000E+00  0.00000000E+00
  0.00000000E+00  0.00000000E+00  0.00000000E+00
  0.00000000E+00  0.00000000E+00  0.00000000E+00
  0.00000000E+00  0.00000000E+00  0.00000000E+00
  0.00000000E+00  0.00000000E+00  0.00000000E+00
  0.00000000E+00  0.00000000E+00  0.00000000E+00
  0.00000000E+00  0.00000000E+00  0.00000000E+00
  0.00000000E+00  0.00000000E+00  0.00000000E+00
  0.00000000E+00  0.00000000E+00  0.00000000E+00
  0.00000000E+00  0.00000000E+00  0.00000000E+00
  0.00000000E+00  0.00000000E+00  0.00000000E+00
  0.00000000E+00  0.00000000E+00  0.00000000E+00
  0.00000000E+00  0.00000000E+00  0.00000000E+00
  0.00000000E+00  0.00000000E+00  0.00000000E+00
  0.00000000E+00  0.00000000E+00  0.00000000E+00
  0.00000000E+00  0.00000000E+00  0.00000000E+00
  0.00000000E+00  0.00000000E+00  0.00000000E+00
  0.00000000E+00  0.00000000E+00  0.00000000E+00
  0.00000000E+00  0.00000000E+00  0.00000000E+00
  0.00000000E+00  0.00000000E+00  0.00000000E+00
  0.00000000E+00  0.00000000E+00  0.00000000E+00
  0.00000000E+00  0.00000000E+00  0.00000000E+00
  0.00000000E+00  0.00000000E+00  0.00000000E+00
  0.00000000E+00  0.00000000E+00  0.00000000E+00
  0.00000000E+00  0.00000000E+00  0.00000000E+00
  0.00000000E+00  0.00000000E+00  0.00000000E+00
  0.00000000E+00  0.00000000E+00  0.00000000E+00
