Title                                   
   1.00000000000000     
     9.8694509999999998    0.0000000000000000    0.0000000000000000
     0.0000000000000000    8.5490480000000009    0.0000000000000000
     0.0000000000000000    0.0000000000000000   20.0000000000000000
    28     3     1
Selective dynamics
Direct
  0.0560091191499614  0.0911510052842099  0.0822765152845478   T   T   T
  0.9306429797067827  0.1744599161159903  0.0829714111228050   T   T   T
  0.0577545498271434  0.9242647179523223  0.0829703529537833   T   T   T
  0.9299664415571877  0.3422003122401918  0.0854726136565681   T   T   T
  0.0568418826749023  0.5906742128780180  0.0841524439280802   T   T   T
  0.9325256214633644  0.6740682018726053  0.0866743091900665   T   T   T
  0.0565216828793838  0.4233665394578968  0.0844027933196745   T   T   T
  0.9330503940789970  0.8408069311044690  0.0852577744280050   T   T   T
  0.3057150596241048  0.0876172404303448  0.0883748699606251   T   T   T
  0.1823319671043393  0.1726557790673316  0.0849224756032156   T   T   T
  0.1820230155436011  0.3395521165890686  0.0870860288122865   T   T   T
  0.3032249968494155  0.5883838209106449  0.1022722125949103   T   T   T
  0.1821874921541963  0.6736136920559561  0.0884318244595861   T   T   T
  0.3063111011437902  0.4206198364721370  0.0990092926120670   T   T   T
  0.1823741972710427  0.8408525611194905  0.0863818981754641   T   T   T
  0.5558256283104678  0.0859058357018631  0.0933278981604698   T   T   T
  0.5553672205439451  0.9202998461611158  0.0996222953914192   T   T   T
  0.4292642158300398  0.3306453391669011  0.1060418867707591   T   T   T
  0.4269615004455307  0.8405606311076796  0.1046590667161440   T   T   T
  0.8057232662753001  0.0895973411645865  0.0844445938713356   T   T   T
  0.6796852505711884  0.1714633688261595  0.0899518792882163   T   T   T
  0.8073624147072715  0.9239928302265105  0.0874251489470336   T   T   T
  0.6809180282954609  0.3359280870703099  0.1003699227647490   T   T   T
  0.8087540526789952  0.5936871218909832  0.0977091959344064   T   T   T
  0.8042465781676214  0.4250531705018615  0.0948872339437412   T   T   T
  0.6848059723844634  0.8407212210638898  0.0993682440088325   T   T   T
  0.4167156794601150  0.6813010284431621  0.1223003407740582   T   T   T
  0.5555006788291378  0.4024901238436688  0.1218739017098713   T   T   T
  0.6955334178322037  0.6822115493131304  0.1152812498870200   T   T   T
  0.3063240739061766  0.9249049393080520  0.0901829288528651   T   T   T
  0.4290503143001071  0.1669769458800508  0.0946402036989373   T   T   T
  0.5601202064337701  0.5902197367793995  0.1729321931784727   T   T   T
 
  0.00000000E+00  0.00000000E+00  0.00000000E+00
  0.00000000E+00  0.00000000E+00  0.00000000E+00
  0.00000000E+00  0.00000000E+00  0.00000000E+00
  0.00000000E+00  0.00000000E+00  0.00000000E+00
  0.00000000E+00  0.00000000E+00  0.00000000E+00
  0.00000000E+00  0.00000000E+00  0.00000000E+00
  0.00000000E+00  0.00000000E+00  0.00000000E+00
  0.00000000E+00  0.00000000E+00  0.00000000E+00
  0.00000000E+00  0.00000000E+00  0.00000000E+00
  0.00000000E+00  0.00000000E+00  0.00000000E+00
  0.00000000E+00  0.00000000E+00  0.00000000E+00
  0.00000000E+00  0.00000000E+00  0.00000000E+00
  0.00000000E+00  0.00000000E+00  0.00000000E+00
  0.00000000E+00  0.00000000E+00  0.00000000E+00
  0.00000000E+00  0.00000000E+00  0.00000000E+00
  0.00000000E+00  0.00000000E+00  0.00000000E+00
  0.00000000E+00  0.00000000E+00  0.00000000E+00
  0.00000000E+00  0.00000000E+00  0.00000000E+00
  0.00000000E+00  0.00000000E+00  0.00000000E+00
  0.00000000E+00  0.00000000E+00  0.00000000E+00
  0.00000000E+00  0.00000000E+00  0.00000000E+00
  0.00000000E+00  0.00000000E+00  0.00000000E+00
  0.00000000E+00  0.00000000E+00  0.00000000E+00
  0.00000000E+00  0.00000000E+00  0.00000000E+00
  0.00000000E+00  0.00000000E+00  0.00000000E+00
  0.00000000E+00  0.00000000E+00  0.00000000E+00
  0.00000000E+00  0.00000000E+00  0.00000000E+00
  0.00000000E+00  0.00000000E+00  0.00000000E+00
  0.00000000E+00  0.00000000E+00  0.00000000E+00
  0.00000000E+00  0.00000000E+00  0.00000000E+00
  0.00000000E+00  0.00000000E+00  0.00000000E+00
  0.00000000E+00  0.00000000E+00  0.00000000E+00
