Title                                   
   1.00000000000000     
     9.8694509999999998    0.0000000000000000    0.0000000000000000
     0.0000000000000000    8.5490480000000009    0.0000000000000000
     0.0000000000000000    0.0000000000000000   20.0000000000000000
    25     5     1
Selective dynamics
Direct
  0.0552030163809753  0.0890615874657396  0.0847420778796620   T   T   T
  0.9304734146888390  0.1713716392742366  0.0870315518994879   T   T   T
  0.0569628551173967  0.9212448729206840  0.0856906794266909   T   T   T
  0.9335069244281854  0.3388484081565391  0.0872490991536595   T   T   T
  0.0567515140744997  0.5904894153714771  0.0836911714057492   T   T   T
  0.0568358425004019  0.4237546920226097  0.0825754590816655   T   T   T
  0.9314909338140018  0.8383234364883487  0.0883828613256621   T   T   T
  0.3066816937968524  0.0886932949507676  0.0894389140435332   T   T   T
  0.1807903124042489  0.1717733820970550  0.0850430556728974   T   T   T
  0.1809692103769525  0.3395215269196685  0.0834518922560918   T   T   T
  0.3042120329236127  0.5900910247210004  0.0897419793448892   T   T   T
  0.1804735720217205  0.6735292067546877  0.0847763121189501   T   T   T
  0.3051583786619422  0.4213051531469452  0.0893658784741659   T   T   T
  0.1813860544805846  0.8402257165621804  0.0865133856163178   T   T   T
  0.4285430458936371  0.1741991700109095  0.0968347193148074   T   T   T
  0.5532189066838650  0.9219231003076341  0.1021999102640604   T   T   T
  0.4276380077953449  0.8385913712407063  0.0984724493146538   T   T   T
  0.8043467543994901  0.0888304490753132  0.0921029707583423   T   T   T
  0.6812970919581135  0.1765045178718177  0.1015512821432403   T   T   T
  0.8053859885599880  0.9204096064351385  0.0928948433800833   T   T   T
  0.6897753559562548  0.3408658007141438  0.1124394317464708   T   T   T
  0.8142631501594162  0.5913862445235905  0.1005404652117593   T   T   T
  0.6917387666727826  0.6717564242045172  0.1137394075985687   T   T   T
  0.8141506888136937  0.4217937288572242  0.0992495565694149   T   T   T
  0.6805959688069431  0.8375389562347891  0.1030569780903360   T   T   T
  0.9340788222992670  0.6725585890961466  0.0888865841111125   T   T   T
  0.5543393222116667  0.0934936451582304  0.1014520098264911   T   T   T
  0.4233274944605399  0.3349730792235067  0.1009350741580354   T   T   T
  0.4209297757806247  0.6782265708587172  0.1027548369196112   T   T   T
  0.3052932415078781  0.9226963898508972  0.0898019392965971   T   T   T
  0.5533168623702986  0.5068939994847828  0.1363582235970411   T   T   T
 
  0.00000000E+00  0.00000000E+00  0.00000000E+00
  0.00000000E+00  0.00000000E+00  0.00000000E+00
  0.00000000E+00  0.00000000E+00  0.00000000E+00
  0.00000000E+00  0.00000000E+00  0.00000000E+00
  0.00000000E+00  0.00000000E+00  0.00000000E+00
  0.00000000E+00  0.00000000E+00  0.00000000E+00
  0.00000000E+00  0.00000000E+00  0.00000000E+00
  0.00000000E+00  0.00000000E+00  0.00000000E+00
  0.00000000E+00  0.00000000E+00  0.00000000E+00
  0.00000000E+00  0.00000000E+00  0.00000000E+00
  0.00000000E+00  0.00000000E+00  0.00000000E+00
  0.00000000E+00  0.00000000E+00  0.00000000E+00
  0.00000000E+00  0.00000000E+00  0.00000000E+00
  0.00000000E+00  0.00000000E+00  0.00000000E+00
  0.00000000E+00  0.00000000E+00  0.00000000E+00
  0.00000000E+00  0.00000000E+00  0.00000000E+00
  0.00000000E+00  0.00000000E+00  0.00000000E+00
  0.00000000E+00  0.00000000E+00  0.00000000E+00
  0.00000000E+00  0.00000000E+00  0.00000000E+00
  0.00000000E+00  0.00000000E+00  0.00000000E+00
  0.00000000E+00  0.00000000E+00  0.00000000E+00
  0.00000000E+00  0.00000000E+00  0.00000000E+00
  0.00000000E+00  0.00000000E+00  0.00000000E+00
  0.00000000E+00  0.00000000E+00  0.00000000E+00
  0.00000000E+00  0.00000000E+00  0.00000000E+00
  0.00000000E+00  0.00000000E+00  0.00000000E+00
  0.00000000E+00  0.00000000E+00  0.00000000E+00
  0.00000000E+00  0.00000000E+00  0.00000000E+00
  0.00000000E+00  0.00000000E+00  0.00000000E+00
  0.00000000E+00  0.00000000E+00  0.00000000E+00
  0.00000000E+00  0.00000000E+00  0.00000000E+00
