Title                                   
   1.00000000000000     
     4.9440799999999996    0.0000000000000000    0.0000000000000000
     0.0000000000000000   17.1295089999999988    0.0000000000000000
     0.0000000000000000    0.0000000000000000   20.0000000000000000
    26     4     1
Selective dynamics
Direct
  0.0014259626681359  0.1057001398803328  0.2967069216073071   T   T   T
  0.2506018342163502  0.1486838276837388  0.2972930564033731   T   T   T
  0.2510831138760594  0.2334157862998030  0.3002087323134293   T   T   T
  0.0002651956956487  0.2756058609695731  0.3049154219400950   T   T   T
 -0.0079278636793211  0.6000125405809786  0.3028728307585801   T   T   T
  0.2442944851858800  0.7260848968603937  0.2963215213115467   T   T   T
 -0.0016388172315738  0.8530043180144244  0.2957692098691626   T   T   T
  0.2480416193977198  0.8951189904566947  0.2955934754995697   T   T   T
  0.2494176165132898  0.9794039411601106  0.2956573132050038   T   T   T
 -0.0028895944966961  0.7685218851482276  0.2960751437148173   T   T   T
  0.5004534386394124  0.1061556440991804  0.2956108791627873   T   T   T
  0.7521687633784618  0.1477066077696512  0.2960229133151447   T   T   T
  0.7538215352012519  0.2317529892296975  0.2972004558629898   T   T   T
  0.4993335645990039  0.0217261860220512  0.2953036946910965   T   T   T
  0.7539745527789647  0.3951104489751361  0.3022204975776830   T   T   T
  0.7475394580646011  0.4793445276352488  0.3009106279049578   T   T   T
  0.5049662276933206  0.2731486979211677  0.2966040182865634   T   T   T
  0.4923040552067288  0.6021261017206113  0.2923499137963843   T   T   T
  0.7471184375187936  0.7271068295805206  0.2948114044714882   T   T   T
  0.4962835476923775  0.8525418164016596  0.2951241592194524   T   T   T
  0.7474696186907966  0.8947525162538360  0.2952881119281907   T   T   T
  0.7488246769697006  0.9792162476156463  0.2953427109293261   T   T   T
  0.4951883466091752  0.7679145431831730  0.2949269965269871   T   T   T
  0.7456205401956173  0.6437263819822849  0.2949443808014253   T   T   T
 -0.0002504663176865  0.0214486089253282  0.2959251393619418   T   T   T
  0.5009134518968039  0.5207697794954461  0.2900268086153609   T   T   T
  0.9911397274771775  0.5202887582010569  0.3184463048232458   T   T   T
  0.5128713730030647  0.3536335554176582  0.2955517929994032   T   T   T
 -0.0083661347530687  0.3559490653570226  0.3178079750242027   T   T   T
  0.2411943364437947  0.6422309025385224  0.2977146266492952   T   T   T
  0.3047643968662163  0.4391396046208213  0.3415129614291409   T   T   T
 
  0.00000000E+00  0.00000000E+00  0.00000000E+00
  0.00000000E+00  0.00000000E+00  0.00000000E+00
  0.00000000E+00  0.00000000E+00  0.00000000E+00
  0.00000000E+00  0.00000000E+00  0.00000000E+00
  0.00000000E+00  0.00000000E+00  0.00000000E+00
  0.00000000E+00  0.00000000E+00  0.00000000E+00
  0.00000000E+00  0.00000000E+00  0.00000000E+00
  0.00000000E+00  0.00000000E+00  0.00000000E+00
  0.00000000E+00  0.00000000E+00  0.00000000E+00
  0.00000000E+00  0.00000000E+00  0.00000000E+00
  0.00000000E+00  0.00000000E+00  0.00000000E+00
  0.00000000E+00  0.00000000E+00  0.00000000E+00
  0.00000000E+00  0.00000000E+00  0.00000000E+00
  0.00000000E+00  0.00000000E+00  0.00000000E+00
  0.00000000E+00  0.00000000E+00  0.00000000E+00
  0.00000000E+00  0.00000000E+00  0.00000000E+00
  0.00000000E+00  0.00000000E+00  0.00000000E+00
  0.00000000E+00  0.00000000E+00  0.00000000E+00
  0.00000000E+00  0.00000000E+00  0.00000000E+00
  0.00000000E+00  0.00000000E+00  0.00000000E+00
  0.00000000E+00  0.00000000E+00  0.00000000E+00
  0.00000000E+00  0.00000000E+00  0.00000000E+00
  0.00000000E+00  0.00000000E+00  0.00000000E+00
  0.00000000E+00  0.00000000E+00  0.00000000E+00
  0.00000000E+00  0.00000000E+00  0.00000000E+00
  0.00000000E+00  0.00000000E+00  0.00000000E+00
  0.00000000E+00  0.00000000E+00  0.00000000E+00
  0.00000000E+00  0.00000000E+00  0.00000000E+00
  0.00000000E+00  0.00000000E+00  0.00000000E+00
  0.00000000E+00  0.00000000E+00  0.00000000E+00
  0.00000000E+00  0.00000000E+00  0.00000000E+00
