Title                                   
   1.00000000000000     
     9.8694509999999998    0.0000000000000000    0.0000000000000000
     0.0000000000000000    8.5490480000000009    0.0000000000000000
     0.0000000000000000    0.0000000000000000   20.0000000000000000
    26     4     1
Selective dynamics
Direct
  0.0561546415986986  0.0904529024878373  0.0925377188792251   T   T   T
  0.9314716830101579  0.1723771641945792  0.0934011986606089   T   T   T
  0.0576162168934985  0.9242029850017468  0.0926624953368558   T   T   T
  0.9350694308122065  0.3395059018069434  0.0928478776314787   T   T   T
  0.0570166169847597  0.5903506733487601  0.0906042580200840   T   T   T
  0.9349931605663062  0.6755302247393750  0.0926926449424493   T   T   T
  0.0576689721261275  0.4232130718676732  0.0906817844107763   T   T   T
  0.9325884710333647  0.8413274343752168  0.0934625408262047   T   T   T
  0.3058601879417423  0.0886316969884745  0.0964534334403476   T   T   T
  0.1803124917503284  0.1707702628583327  0.0934072854977708   T   T   T
  0.1795566128720093  0.3388640062420599  0.0927390034996144   T   T   T
  0.2998536376174327  0.5908339870642537  0.0966936072719708   T   T   T
  0.1789621978748899  0.6740234977648267  0.0926761121522069   T   T   T
  0.3011284338644069  0.4210186448214975  0.0968637111788578   T   T   T
  0.1805277361752095  0.8417094996037797  0.0935334719577172   T   T   T
  0.5551612631354343  0.0896962670301326  0.1012400920987002   T   T   T
  0.4286766700993676  0.1745490149445011  0.1003761194955271   T   T   T
  0.5541876858848210  0.9179824449773373  0.1010468448706235   T   T   T
  0.4267364968691015  0.8346447617835651  0.0999578497702152   T   T   T
  0.8057453043859553  0.0899350157733944  0.0964211473549642   T   T   T
  0.6818936540059202  0.1755057031173693  0.1003122383246924   T   T   T
  0.8064289806850239  0.9215298856979777  0.0963583033532760   T   T   T
  0.6905371845790742  0.3425836349579311  0.1020458418583757   T   T   T
  0.8144232652065463  0.5933272952949799  0.0970572156392409   T   T   T
  0.8140922673969859  0.4231230322971519  0.0971009501095886   T   T   T
  0.6832523154066524  0.8332511206991264  0.1000868842073574   T   T   T
  0.4200933800476823  0.3382155113392385  0.1021772800573888   T   T   T
  0.6939201323242432  0.6711359618744407  0.1020459210452290   T   T   T
  0.4174372227132092  0.6761423187126842  0.1018312268375670   T   T   T
  0.3053714847774975  0.9228678310702183  0.0961737765658209   T   T   T
  0.5563972013613554  0.5035732472646078  0.1054761647053011   T   T   T
 
  0.00000000E+00  0.00000000E+00  0.00000000E+00
  0.00000000E+00  0.00000000E+00  0.00000000E+00
  0.00000000E+00  0.00000000E+00  0.00000000E+00
  0.00000000E+00  0.00000000E+00  0.00000000E+00
  0.00000000E+00  0.00000000E+00  0.00000000E+00
  0.00000000E+00  0.00000000E+00  0.00000000E+00
  0.00000000E+00  0.00000000E+00  0.00000000E+00
  0.00000000E+00  0.00000000E+00  0.00000000E+00
  0.00000000E+00  0.00000000E+00  0.00000000E+00
  0.00000000E+00  0.00000000E+00  0.00000000E+00
  0.00000000E+00  0.00000000E+00  0.00000000E+00
  0.00000000E+00  0.00000000E+00  0.00000000E+00
  0.00000000E+00  0.00000000E+00  0.00000000E+00
  0.00000000E+00  0.00000000E+00  0.00000000E+00
  0.00000000E+00  0.00000000E+00  0.00000000E+00
  0.00000000E+00  0.00000000E+00  0.00000000E+00
  0.00000000E+00  0.00000000E+00  0.00000000E+00
  0.00000000E+00  0.00000000E+00  0.00000000E+00
  0.00000000E+00  0.00000000E+00  0.00000000E+00
  0.00000000E+00  0.00000000E+00  0.00000000E+00
  0.00000000E+00  0.00000000E+00  0.00000000E+00
  0.00000000E+00  0.00000000E+00  0.00000000E+00
  0.00000000E+00  0.00000000E+00  0.00000000E+00
  0.00000000E+00  0.00000000E+00  0.00000000E+00
  0.00000000E+00  0.00000000E+00  0.00000000E+00
  0.00000000E+00  0.00000000E+00  0.00000000E+00
  0.00000000E+00  0.00000000E+00  0.00000000E+00
  0.00000000E+00  0.00000000E+00  0.00000000E+00
  0.00000000E+00  0.00000000E+00  0.00000000E+00
  0.00000000E+00  0.00000000E+00  0.00000000E+00
  0.00000000E+00  0.00000000E+00  0.00000000E+00
