Title                                   
   1.00000000000000     
     8.5490480000000009    0.0000000000000000    0.0000000000000000
     0.0000000000000000    8.5490480000000009    0.0000000000000000
     0.0000000000000000    0.0000000000000000   20.0000000000000000
    19     5     1
Selective dynamics
Direct
  0.9082290399143532  0.2057460553623803  0.0954575321701842   T   T   T
  0.9110089972767483  0.8010370090187232  0.0955809947025873   T   T   T
  0.1968167479013221  0.0834704368412439  0.0955501870487998   T   T   T
  0.0767446986860593  0.2013335559313190  0.0956163694395270   T   T   T
  0.1555161887964734  0.6500831323913195  0.0970891281840450   T   T   T
  0.0735733405655330  0.5001648791858445  0.0973386770193480   T   T   T
  0.1553403395769773  0.3531097154690356  0.0975249169179755   T   T   T
  0.0792494756986259  0.7995465231963671  0.0955054478337035   T   T   T
  0.3465015996312045  0.1652996435954770  0.0974583281150082   T   T   T
  0.4943765385894899  0.9192013860453107  0.0972942556843918   T   T   T
  0.3448841234968277  0.8377835502855172  0.0971686099668819   T   T   T
  0.7880286754581727  0.0865252406429425  0.0955623656989290   T   T   T
  0.6416104416989563  0.1668909489268691  0.0969308421043958   T   T   T
  0.7901372285857475  0.9186957944323721  0.0957262676575271   T   T   T
  0.8287631363435721  0.6525180218789650  0.0970785361335064   T   T   T
  0.8264881813118268  0.3521488290214016  0.0966969196221181   T   T   T
  0.6430174542841719  0.8379520469825159  0.0972651195542952   T   T   T
  0.3246534150845771  0.3299925284773050  0.0998499132320088   T   T   T
  0.3223274855809685  0.6741339150209745  0.0984476030090866   T   T   T
  0.4954642643304654  0.0864347927891321  0.0972349248926892   T   T   T
  0.9043046672001569  0.5018230257769125  0.0969972239136167   T   T   T
  0.6640934899172628  0.3289642937865820  0.0984301965772732   T   T   T
  0.6688101733012567  0.6741233463360857  0.0989008863871761   T   T   T
  0.1959115293582623  0.9165711923173269  0.0953317019432879   T   T   T
  0.4895607674109808  0.5012401362880984  0.1176680521916108   T   T   T
 
  0.00000000E+00  0.00000000E+00  0.00000000E+00
  0.00000000E+00  0.00000000E+00  0.00000000E+00
  0.00000000E+00  0.00000000E+00  0.00000000E+00
  0.00000000E+00  0.00000000E+00  0.00000000E+00
  0.00000000E+00  0.00000000E+00  0.00000000E+00
  0.00000000E+00  0.00000000E+00  0.00000000E+00
  0.00000000E+00  0.00000000E+00  0.00000000E+00
  0.00000000E+00  0.00000000E+00  0.00000000E+00
  0.00000000E+00  0.00000000E+00  0.00000000E+00
  0.00000000E+00  0.00000000E+00  0.00000000E+00
  0.00000000E+00  0.00000000E+00  0.00000000E+00
  0.00000000E+00  0.00000000E+00  0.00000000E+00
  0.00000000E+00  0.00000000E+00  0.00000000E+00
  0.00000000E+00  0.00000000E+00  0.00000000E+00
  0.00000000E+00  0.00000000E+00  0.00000000E+00
  0.00000000E+00  0.00000000E+00  0.00000000E+00
  0.00000000E+00  0.00000000E+00  0.00000000E+00
  0.00000000E+00  0.00000000E+00  0.00000000E+00
  0.00000000E+00  0.00000000E+00  0.00000000E+00
  0.00000000E+00  0.00000000E+00  0.00000000E+00
  0.00000000E+00  0.00000000E+00  0.00000000E+00
  0.00000000E+00  0.00000000E+00  0.00000000E+00
  0.00000000E+00  0.00000000E+00  0.00000000E+00
  0.00000000E+00  0.00000000E+00  0.00000000E+00
  0.00000000E+00  0.00000000E+00  0.00000000E+00
