Title                                   
   1.00000000000000     
     9.8694509999999998    0.0000000000000000    0.0000000000000000
     0.0000000000000000    8.5490480000000009    0.0000000000000000
     0.0000000000000000    0.0000000000000000   20.0000000000000000
    29     2     1
Selective dynamics
Direct
  0.0564878010644265  0.0913630409129887  0.0818911130471811   T   T   T
  0.9310520803630239  0.1734989183825306  0.0842343220311585   T   T   T
  0.0558796745533766  0.9242912773756397  0.0817003809498569   T   T   T
  0.9301958526296684  0.3398526315853306  0.0885062204335511   T   T   T
  0.0565862614045315  0.5891964135679859  0.0851155939713820   T   T   T
  0.9325592452223250  0.6729567964291199  0.0879213999036854   T   T   T
  0.0567995616334056  0.4231737903183944  0.0869307226378239   T   T   T
  0.9316635007517606  0.8397841570545359  0.0848956979031138   T   T   T
  0.3056892017878325  0.0902655271206415  0.0853934691355921   T   T   T
  0.1817578250323770  0.1746049452461394  0.0841304846014288   T   T   T
  0.3044550238903074  0.9243482849825573  0.0878349020093353   T   T   T
  0.1834386380629320  0.3417366129553926  0.0881489670707879   T   T   T
  0.3035063935093147  0.5937913785465386  0.0984823779600925   T   T   T
  0.1803675755562818  0.6741705806124639  0.0869320716830335   T   T   T
  0.3094622238877057  0.4250910295391927  0.0965210782212649   T   T   T
  0.1799738302637703  0.8410315731498220  0.0848393756826250   T   T   T
  0.5556728185743539  0.0848075290706418  0.0937486066183524   T   T   T
  0.4313215458815560  0.1702904603171518  0.0909801750921992   T   T   T
  0.5552664830414569  0.9196785183062202  0.0997596033348438   T   T   T
  0.4334560246946743  0.3341344458420125  0.0996683197113867   T   T   T
  0.4259474484814466  0.8410777534881834  0.1003796126381707   T   T   T
  0.8070476083043736  0.0890684235257154  0.0859005240613285   T   T   T
  0.6813978365097326  0.1687009088313423  0.0919981727872144   T   T   T
  0.8069710387641407  0.9230438404411168  0.0882185453548038   T   T   T
  0.6808399867855514  0.3325341143561963  0.1011153739284368   T   T   T
  0.8103639804814027  0.5902913209784886  0.1013526207342346   T   T   T
  0.6956898884077120  0.6811457785048345  0.1192168482763057   T   T   T
  0.8054304058841469  0.4218777263235124  0.0981912523946328   T   T   T
  0.6845754159994056  0.8411345577783619  0.1018105037425658   T   T   T
  0.4150338442331514  0.6840324291473385  0.1153786225909125   T   T   T
  0.5569442258395054  0.4013270199218069  0.1156216197219561   T   T   T
  0.5538057585043565  0.5879442153878126  0.1688564217707779   T   T   T
 
  0.00000000E+00  0.00000000E+00  0.00000000E+00
  0.00000000E+00  0.00000000E+00  0.00000000E+00
  0.00000000E+00  0.00000000E+00  0.00000000E+00
  0.00000000E+00  0.00000000E+00  0.00000000E+00
  0.00000000E+00  0.00000000E+00  0.00000000E+00
  0.00000000E+00  0.00000000E+00  0.00000000E+00
  0.00000000E+00  0.00000000E+00  0.00000000E+00
  0.00000000E+00  0.00000000E+00  0.00000000E+00
  0.00000000E+00  0.00000000E+00  0.00000000E+00
  0.00000000E+00  0.00000000E+00  0.00000000E+00
  0.00000000E+00  0.00000000E+00  0.00000000E+00
  0.00000000E+00  0.00000000E+00  0.00000000E+00
  0.00000000E+00  0.00000000E+00  0.00000000E+00
  0.00000000E+00  0.00000000E+00  0.00000000E+00
  0.00000000E+00  0.00000000E+00  0.00000000E+00
  0.00000000E+00  0.00000000E+00  0.00000000E+00
  0.00000000E+00  0.00000000E+00  0.00000000E+00
  0.00000000E+00  0.00000000E+00  0.00000000E+00
  0.00000000E+00  0.00000000E+00  0.00000000E+00
  0.00000000E+00  0.00000000E+00  0.00000000E+00
  0.00000000E+00  0.00000000E+00  0.00000000E+00
  0.00000000E+00  0.00000000E+00  0.00000000E+00
  0.00000000E+00  0.00000000E+00  0.00000000E+00
  0.00000000E+00  0.00000000E+00  0.00000000E+00
  0.00000000E+00  0.00000000E+00  0.00000000E+00
  0.00000000E+00  0.00000000E+00  0.00000000E+00
  0.00000000E+00  0.00000000E+00  0.00000000E+00
  0.00000000E+00  0.00000000E+00  0.00000000E+00
  0.00000000E+00  0.00000000E+00  0.00000000E+00
  0.00000000E+00  0.00000000E+00  0.00000000E+00
  0.00000000E+00  0.00000000E+00  0.00000000E+00
  0.00000000E+00  0.00000000E+00  0.00000000E+00
