Title                                   
   1.00000000000000     
     9.8694509999999998    0.0000000000000000    0.0000000000000000
     0.0000000000000000    8.5490480000000009    0.0000000000000000
     0.0000000000000000    0.0000000000000000   20.0000000000000000
    28     2     1
Selective dynamics
Direct
  0.0556295406234967  0.0896178371965515  0.0938653054096868   T   T   T
  0.9305772985487418  0.1726891174537227  0.0889245732788485   T   T   T
  0.0556144668691358  0.9227372116972677  0.0938570994092270   T   T   T
  0.9325761493145138  0.3385768801784461  0.0910036057293482   T   T   T
  0.0557271226001703  0.5896535666851153  0.0966113975157504   T   T   T
  0.9325730082114337  0.6737350723978929  0.0909787137813664   T   T   T
  0.0557165265633833  0.4226895967404821  0.0966235409241333   T   T   T
  0.9305776713093427  0.8396312631467175  0.0888973743278302   T   T   T
  0.3066859945239502  0.0907987985186587  0.1005512821696011   T   T   T
  0.1798903619531226  0.1720706938096374  0.0990495429458149   T   T   T
  0.3066823323432771  0.9215392359057779  0.1005337275812833   T   T   T
  0.1796353909974276  0.3393091623587162  0.1004756185077906   T   T   T
  0.3030400775417070  0.5900219957679425  0.1059438597420221   T   T   T
  0.1796376226709205  0.6730531253715415  0.1004611247078191   T   T   T
  0.3030215633249714  0.4223332219905757  0.1059527312788320   T   T   T
  0.1799008969140708  0.8402901885758489  0.0990387093214579   T   T   T
  0.5523157004029476  0.0911171883448493  0.0921614636871848   T   T   T
  0.4296357625963746  0.1796158355531367  0.1013205350053501   T   T   T
  0.5523114616140123  0.9211551493019908  0.0921280463258585   T   T   T
  0.4296466347665298  0.8327014451058468  0.1012773502584934   T   T   T
  0.8048244246167428  0.0893108754830133  0.0838642008841781   T   T   T
  0.6788869120867023  0.1713146902105518  0.0824666245765277   T   T   T
  0.8048108364923635  0.9229644804987946  0.0838400846173041   T   T   T
  0.6840567894850552  0.3363805459765205  0.0791320825764229   T   T   T
  0.8080340700898202  0.5911589534847477  0.0832062150492906   T   T   T
  0.6840440614295609  0.6758666550765231  0.0791543687847698   T   T   T
  0.8080491336702721  0.4211325636581053  0.0832088643110820   T   T   T
  0.6788618328934188  0.8409775822102908  0.0824305543517115   T   T   T
  0.4264622557783489  0.3448589217510537  0.1094883310106415   T   T   T
  0.4264879582282503  0.6674751239306970  0.1094546811930362   T   T   T
  0.5872211415399450  0.5060980216189979  0.1250633907373779   T   T   T
 
  0.00000000E+00  0.00000000E+00  0.00000000E+00
  0.00000000E+00  0.00000000E+00  0.00000000E+00
  0.00000000E+00  0.00000000E+00  0.00000000E+00
  0.00000000E+00  0.00000000E+00  0.00000000E+00
  0.00000000E+00  0.00000000E+00  0.00000000E+00
  0.00000000E+00  0.00000000E+00  0.00000000E+00
  0.00000000E+00  0.00000000E+00  0.00000000E+00
  0.00000000E+00  0.00000000E+00  0.00000000E+00
  0.00000000E+00  0.00000000E+00  0.00000000E+00
  0.00000000E+00  0.00000000E+00  0.00000000E+00
  0.00000000E+00  0.00000000E+00  0.00000000E+00
  0.00000000E+00  0.00000000E+00  0.00000000E+00
  0.00000000E+00  0.00000000E+00  0.00000000E+00
  0.00000000E+00  0.00000000E+00  0.00000000E+00
  0.00000000E+00  0.00000000E+00  0.00000000E+00
  0.00000000E+00  0.00000000E+00  0.00000000E+00
  0.00000000E+00  0.00000000E+00  0.00000000E+00
  0.00000000E+00  0.00000000E+00  0.00000000E+00
  0.00000000E+00  0.00000000E+00  0.00000000E+00
  0.00000000E+00  0.00000000E+00  0.00000000E+00
  0.00000000E+00  0.00000000E+00  0.00000000E+00
  0.00000000E+00  0.00000000E+00  0.00000000E+00
  0.00000000E+00  0.00000000E+00  0.00000000E+00
  0.00000000E+00  0.00000000E+00  0.00000000E+00
  0.00000000E+00  0.00000000E+00  0.00000000E+00
  0.00000000E+00  0.00000000E+00  0.00000000E+00
  0.00000000E+00  0.00000000E+00  0.00000000E+00
  0.00000000E+00  0.00000000E+00  0.00000000E+00
  0.00000000E+00  0.00000000E+00  0.00000000E+00
  0.00000000E+00  0.00000000E+00  0.00000000E+00
  0.00000000E+00  0.00000000E+00  0.00000000E+00
