Title                                   
   1.00000000000000     
     8.5490480000000009    0.0000000000000000    0.0000000000000000
     0.0000000000000000    8.5490480000000009    0.0000000000000000
     0.0000000000000000    0.0000000000000000   20.0000000000000000
    23     1     1
Selective dynamics
Direct
  0.9104238160541991  0.2052986626369473  0.0973726231770820   T   T   T
  0.9103417534631679  0.5030052517060954  0.0975129203986004   T   T   T
  0.9121435262795149  0.8008231769874130  0.0972741200812024   T   T   T
  0.1979291551428615  0.0818408114829314  0.0974998977422226   T   T   T
  0.0740891430336127  0.2033982981433725  0.0973796932542415   T   T   T
  0.1585679369500266  0.6502452536674100  0.0976087550554136   T   T   T
  0.0778327288951316  0.5018823325061220  0.0975008446618654   T   T   T
  0.1556194657084735  0.3535407485317906  0.0975919956947635   T   T   T
  0.0775188456544174  0.7986432869325163  0.0973685524041674   T   T   T
  0.4928682269780176  0.0859447546563910  0.0977079380518763   T   T   T
  0.3446052798539559  0.1625523484316903  0.0977768973301777   T   T   T
  0.4919771104416106  0.9186813700075517  0.0977160971740302   T   T   T
  0.3451000035773306  0.8382043618354010  0.0979081274134233   T   T   T
  0.7876170149808627  0.0842020321098009  0.0973800469674664   T   T   T
  0.6389505275184506  0.1665339617641157  0.0977509228722775   T   T   T
  0.7881013170867998  0.9208703617561611  0.0973180415158320   T   T   T
  0.8311142172670055  0.6506942709681609  0.0975487805455107   T   T   T
  0.8305318618393641  0.3552570851877341  0.0976490479532420   T   T   T
  0.6388906619049444  0.8375711315969508  0.0976584739955078   T   T   T
  0.3211880318768415  0.3305562373500260  0.0982618831995690   T   T   T
  0.3238367254572239  0.6742224004057759  0.0982785033860589   T   T   T
  0.6640881880410472  0.3335316292718225  0.0983205517834654   T   T   T
  0.6627808973830025  0.6717602488996324  0.0981774328783391   T   T   T
  0.1975821235882523  0.9187793694656743  0.0975682470911544   T   T   T
  0.4917134410238714  0.4967506136985189  0.0995746053724905   T   T   T
 
  0.00000000E+00  0.00000000E+00  0.00000000E+00
  0.00000000E+00  0.00000000E+00  0.00000000E+00
  0.00000000E+00  0.00000000E+00  0.00000000E+00
  0.00000000E+00  0.00000000E+00  0.00000000E+00
  0.00000000E+00  0.00000000E+00  0.00000000E+00
  0.00000000E+00  0.00000000E+00  0.00000000E+00
  0.00000000E+00  0.00000000E+00  0.00000000E+00
  0.00000000E+00  0.00000000E+00  0.00000000E+00
  0.00000000E+00  0.00000000E+00  0.00000000E+00
  0.00000000E+00  0.00000000E+00  0.00000000E+00
  0.00000000E+00  0.00000000E+00  0.00000000E+00
  0.00000000E+00  0.00000000E+00  0.00000000E+00
  0.00000000E+00  0.00000000E+00  0.00000000E+00
  0.00000000E+00  0.00000000E+00  0.00000000E+00
  0.00000000E+00  0.00000000E+00  0.00000000E+00
  0.00000000E+00  0.00000000E+00  0.00000000E+00
  0.00000000E+00  0.00000000E+00  0.00000000E+00
  0.00000000E+00  0.00000000E+00  0.00000000E+00
  0.00000000E+00  0.00000000E+00  0.00000000E+00
  0.00000000E+00  0.00000000E+00  0.00000000E+00
  0.00000000E+00  0.00000000E+00  0.00000000E+00
  0.00000000E+00  0.00000000E+00  0.00000000E+00
  0.00000000E+00  0.00000000E+00  0.00000000E+00
  0.00000000E+00  0.00000000E+00  0.00000000E+00
  0.00000000E+00  0.00000000E+00  0.00000000E+00
