Title                                   
   1.00000000000000     
     4.9440799999999996    0.0000000000000000    0.0000000000000000
     0.0000000000000000   17.1295089999999988    0.0000000000000000
     0.0000000000000000    0.0000000000000000   20.0000000000000000
    29     1     1
Selective dynamics
Direct
 -0.0023519035782395  0.1050404426064329  0.2910334252155226   T   T   T
  0.2462534594106933  0.1474644383809705  0.2940216061333870   T   T   T
  0.2452071470711394  0.2307688318700753  0.3008595112344967   T   T   T
 -0.0066294195872993  0.2725908085848303  0.3021141962352963   T   T   T
  0.0066113596618983  0.6023291050629533  0.2989212192714710   T   T   T
  0.2544683473037114  0.7278546695655055  0.2930336808642093   T   T   T
  0.0020823137445578  0.8537597801211412  0.2879091723701454   T   T   T
  0.2514337601996585  0.8958585830538484  0.2878519642055357   T   T   T
  0.2495884576058747  0.9793749152781654  0.2880660058956149   T   T   T
  0.0039022785091801  0.7701147894128763  0.2899033230911128   T   T   T
  0.4970595612754228  0.1051878176832369  0.2916987616234060   T   T   T
  0.7474318141571060  0.1467297211944403  0.2929696129606491   T   T   T
  0.7452246474768957  0.2301223797511736  0.2985333083750460   T   T   T
  0.4988566710709492  0.0215750550760800  0.2888694943977614   T   T   T
  0.7493821427607423  0.3920825461728766  0.3136037360009028   T   T   T
  0.7576145855783608  0.4799406487594901  0.3130455245974531   T   T   T
  0.4961437792570453  0.2720839040105307  0.3055789861802168   T   T   T
  0.5081072411186800  0.6030449538365485  0.3062476135928577   T   T   T
  0.7544767543250772  0.7284301355373577  0.2919485609477490   T   T   T
  0.5020074508431029  0.8537623667868914  0.2884878484169241   T   T   T
  0.7515258121711136  0.8957532050863215  0.2876134937689433   T   T   T
  0.7495670590722020  0.9795630240265317  0.2878723048259076   T   T   T
  0.5039917482695582  0.7702652977192365  0.2911029148263248   T   T   T
  0.7563220545076067  0.6448952730395248  0.2972953111138043   T   T   T
  0.2564939015564066  0.6448969959579673  0.2996608063619721   T   T   T
 -0.0007467628500412  0.0214219798059179  0.2884744924511692   T   T   T
  0.5132235128852832  0.5220778793225740  0.3223904446633767   T   T   T
  0.0014989472357189  0.5192171748762702  0.3014881871905656   T   T   T
  0.5032123018637804  0.3535373654973112  0.3183818097598291   T   T   T
 -0.0113790410064284  0.3530078868259901  0.3072742503967417   T   T   T
  0.2294270180902452  0.4385900250969264  0.3588084330315594   T   T   T
 
  0.00000000E+00  0.00000000E+00  0.00000000E+00
  0.00000000E+00  0.00000000E+00  0.00000000E+00
  0.00000000E+00  0.00000000E+00  0.00000000E+00
  0.00000000E+00  0.00000000E+00  0.00000000E+00
  0.00000000E+00  0.00000000E+00  0.00000000E+00
  0.00000000E+00  0.00000000E+00  0.00000000E+00
  0.00000000E+00  0.00000000E+00  0.00000000E+00
  0.00000000E+00  0.00000000E+00  0.00000000E+00
  0.00000000E+00  0.00000000E+00  0.00000000E+00
  0.00000000E+00  0.00000000E+00  0.00000000E+00
  0.00000000E+00  0.00000000E+00  0.00000000E+00
  0.00000000E+00  0.00000000E+00  0.00000000E+00
  0.00000000E+00  0.00000000E+00  0.00000000E+00
  0.00000000E+00  0.00000000E+00  0.00000000E+00
  0.00000000E+00  0.00000000E+00  0.00000000E+00
  0.00000000E+00  0.00000000E+00  0.00000000E+00
  0.00000000E+00  0.00000000E+00  0.00000000E+00
  0.00000000E+00  0.00000000E+00  0.00000000E+00
  0.00000000E+00  0.00000000E+00  0.00000000E+00
  0.00000000E+00  0.00000000E+00  0.00000000E+00
  0.00000000E+00  0.00000000E+00  0.00000000E+00
  0.00000000E+00  0.00000000E+00  0.00000000E+00
  0.00000000E+00  0.00000000E+00  0.00000000E+00
  0.00000000E+00  0.00000000E+00  0.00000000E+00
  0.00000000E+00  0.00000000E+00  0.00000000E+00
  0.00000000E+00  0.00000000E+00  0.00000000E+00
  0.00000000E+00  0.00000000E+00  0.00000000E+00
  0.00000000E+00  0.00000000E+00  0.00000000E+00
  0.00000000E+00  0.00000000E+00  0.00000000E+00
  0.00000000E+00  0.00000000E+00  0.00000000E+00
  0.00000000E+00  0.00000000E+00  0.00000000E+00
