Title                                   
   1.00000000000000     
     8.5490480000000009    0.0000000000000000    0.0000000000000000
     0.0000000000000000    8.5490480000000009    0.0000000000000000
     0.0000000000000000    0.0000000000000000   20.0000000000000000
    20     4     1
Selective dynamics
Direct
  0.9085827891707500  0.2060578215554228  0.0976638826398325   T   T   T
  0.9062719880883161  0.5036339675064259  0.0976748068147041   T   T   T
  0.9102152116444311  0.8019386470470509  0.0973704356235581   T   T   T
  0.1983684712558267  0.0837071103203252  0.0975946266137703   T   T   T
  0.0754336813444562  0.2040296137992856  0.0975581592977830   T   T   T
  0.1565731030543289  0.6521791298517036  0.0977316567567083   T   T   T
  0.0757436413880697  0.5023831144819569  0.0976634244844420   T   T   T
  0.1556982342713691  0.3542734162082170  0.0976168139568481   T   T   T
  0.0784174002045599  0.7988240686220742  0.0975368860186904   T   T   T
  0.4935748937902705  0.0843381848600391  0.0977883889113445   T   T   T
  0.3460132650878062  0.1630923974315008  0.0977039180282759   T   T   T
  0.4929441243343670  0.9151521094452427  0.0976940600528970   T   T   T
  0.3436213324773817  0.8359972871440660  0.0978327160600215   T   T   T
  0.7877075952775242  0.0862804133997249  0.0976357399562878   T   T   T
  0.6410789494488069  0.1650179438088920  0.0979115006209476   T   T   T
  0.7888862414864088  0.9195964735166525  0.0974009052529358   T   T   T
  0.8293352665201360  0.6534230610264316  0.0974731866793853   T   T   T
  0.8280095006188726  0.3538069235538966  0.0978698390161844   T   T   T
  0.6420069798353433  0.8365571115523091  0.0974934321232741   T   T   T
  0.3233156605015733  0.3321032990163887  0.0978292636616788   T   T   T
  0.3195458737711325  0.6768171854769114  0.0980756951760557   T   T   T
  0.6646579484504841  0.3294345370108087  0.0982364468092395   T   T   T
  0.6670778814842264  0.6758302816470002  0.0975776342493682   T   T   T
  0.1983702925569061  0.9168003865418801  0.0976747163004276   T   T   T
  0.4939616739366469  0.4935155151758149  0.0990968648953124   T   T   T
 
  0.00000000E+00  0.00000000E+00  0.00000000E+00
  0.00000000E+00  0.00000000E+00  0.00000000E+00
  0.00000000E+00  0.00000000E+00  0.00000000E+00
  0.00000000E+00  0.00000000E+00  0.00000000E+00
  0.00000000E+00  0.00000000E+00  0.00000000E+00
  0.00000000E+00  0.00000000E+00  0.00000000E+00
  0.00000000E+00  0.00000000E+00  0.00000000E+00
  0.00000000E+00  0.00000000E+00  0.00000000E+00
  0.00000000E+00  0.00000000E+00  0.00000000E+00
  0.00000000E+00  0.00000000E+00  0.00000000E+00
  0.00000000E+00  0.00000000E+00  0.00000000E+00
  0.00000000E+00  0.00000000E+00  0.00000000E+00
  0.00000000E+00  0.00000000E+00  0.00000000E+00
  0.00000000E+00  0.00000000E+00  0.00000000E+00
  0.00000000E+00  0.00000000E+00  0.00000000E+00
  0.00000000E+00  0.00000000E+00  0.00000000E+00
  0.00000000E+00  0.00000000E+00  0.00000000E+00
  0.00000000E+00  0.00000000E+00  0.00000000E+00
  0.00000000E+00  0.00000000E+00  0.00000000E+00
  0.00000000E+00  0.00000000E+00  0.00000000E+00
  0.00000000E+00  0.00000000E+00  0.00000000E+00
  0.00000000E+00  0.00000000E+00  0.00000000E+00
  0.00000000E+00  0.00000000E+00  0.00000000E+00
  0.00000000E+00  0.00000000E+00  0.00000000E+00
  0.00000000E+00  0.00000000E+00  0.00000000E+00
