Title                                   
   1.00000000000000     
     4.9440799999999996    0.0000000000000000    0.0000000000000000
     0.0000000000000000    8.5647549999999999    0.0000000000000000
     0.0000000000000000    0.0000000000000000   20.0000000000000000
    12     2     1
Selective dynamics
Direct
  0.2491424084344296  0.2093717220587481  0.0997720470056926   T   T   T
 -0.0031325604148787  0.2961039887704351  0.1001879178032008   T   T   T
  0.2507927180112937  0.0401963803603403  0.0998046055161858   T   T   T
  0.0009931856472851  0.9563111827404422  0.0991150131989378   T   T   T
  0.7484374383385962  0.2092693528953510  0.0989283363037191   T   T   T
  0.4990088439141753  0.2931561302125398  0.0990036599867358   T   T   T
  0.7516267373339559  0.0402337828186481  0.0989589754392625   T   T   T
  0.7524818976321990  0.7125713187083428  0.1005773388370516   T   T   T
  0.7474577347479220  0.5369498270992455  0.1005352935237454   T   T   T
  0.5030966248053428  0.9535190373935413  0.1001935989450011   T   T   T
  0.5041128310086790  0.4591409617564839  0.0989983769286317   T   T   T
 -0.0040903215193652  0.7903788678034915  0.0991818502899168   T   T   T
 -0.0094568145592178  0.4594230797892377  0.1023759462188233   T   T   T
  0.5094881127198182  0.7901906973160553  0.1022902420229482   T   T   T
  0.2500411638997646  0.6248646702770989  0.1080567979801508   T   T   T
 
  0.00000000E+00  0.00000000E+00  0.00000000E+00
  0.00000000E+00  0.00000000E+00  0.00000000E+00
  0.00000000E+00  0.00000000E+00  0.00000000E+00
  0.00000000E+00  0.00000000E+00  0.00000000E+00
  0.00000000E+00  0.00000000E+00  0.00000000E+00
  0.00000000E+00  0.00000000E+00  0.00000000E+00
  0.00000000E+00  0.00000000E+00  0.00000000E+00
  0.00000000E+00  0.00000000E+00  0.00000000E+00
  0.00000000E+00  0.00000000E+00  0.00000000E+00
  0.00000000E+00  0.00000000E+00  0.00000000E+00
  0.00000000E+00  0.00000000E+00  0.00000000E+00
  0.00000000E+00  0.00000000E+00  0.00000000E+00
  0.00000000E+00  0.00000000E+00  0.00000000E+00
  0.00000000E+00  0.00000000E+00  0.00000000E+00
  0.00000000E+00  0.00000000E+00  0.00000000E+00
