Title                                   
   1.00000000000000     
     4.9440799999999996    0.0000000000000000    0.0000000000000000
     0.0000000000000000   17.1295089999999988    0.0000000000000000
     0.0000000000000000    0.0000000000000000   20.0000000000000000
    31     1
Selective dynamics
Direct
  0.0005197873867854  0.1043123724916335  0.2787614811665198   T   T   T
  0.2502297370348064  0.1459585785710534  0.2838430101117226   T   T   T
  0.2502554505213612  0.2282497897766294  0.2969509564373199   T   T   T
 -0.0021855600549168  0.3495594336715815  0.3230350139097246   T   T   T
 -0.0018208893452002  0.2686107384428407  0.3041701269894818   T   T   T
 -0.0028727820741878  0.6076741043577434  0.3147959247579206   T   T   T
  0.2498964850114258  0.7295866535200984  0.2911223576921478   T   T   T
  0.0002228161153805  0.8540404056851069  0.2756244224733650   T   T   T
  0.2499812853107824  0.8958656069618725  0.2734010288172700   T   T   T
  0.2500620675889289  0.9792397799114086  0.2720504105166031   T   T   T
  0.0002531722664538  0.7711480853065552  0.2839361085666308   T   T   T
  0.4998704683487539  0.1042912921386122  0.2787841556580052   T   T   T
  0.7502108996026339  0.1455083031227815  0.2830804195216087   T   T   T
  0.7502540278138166  0.2275288160679382  0.2955946025388680   T   T   T
  0.4999270048267392  0.0210746757439251  0.2730471345028305   T   T   T
  0.5025563166426615  0.3495202261957266  0.3231233134431862   T   T   T
  0.7501234928859744  0.3938845726188235  0.3296741477863903   T   T   T
  0.7497449405520106  0.4805072314100247  0.3343640509645211   T   T   T
  0.5023306426531242  0.2686144225109345  0.3041884005652191   T   T   T
  0.5024662304505746  0.6076708577860994  0.3152128854256396   T   T   T
  0.7498132465126286  0.7301528898782412  0.2888996939130111   T   T   T
  0.4997007620503834  0.8540613088805240  0.2756610863031683   T   T   T
  0.7500023227854600  0.8957288110385138  0.2730732126590257   T   T   T
  0.7500863020835498  0.9793067982935151  0.2718719606603484   T   T   T
  0.4995207081302540  0.7711919233646408  0.2840180066301459   T   T   T
  0.7496838802163148  0.6484570064127338  0.3030455352383066   T   T   T
  0.2498661019625451  0.6484811067687102  0.3079596274175047   T   T   T
  0.0002501475078826  0.0210855604252679  0.2730308840321830   T   T   T
  0.5097065297252884  0.5278542659502724  0.3354295265700082   T   T   T
  0.9896506976269256  0.5276912861972196  0.3341006454947837   T   T   T
  0.2501959631084230  0.3841158042737529  0.3371458340981004   T   T   T
  0.2463207447524415  0.4775782922252089  0.4035690351383930   T   T   T
 
  0.00000000E+00  0.00000000E+00  0.00000000E+00
  0.00000000E+00  0.00000000E+00  0.00000000E+00
  0.00000000E+00  0.00000000E+00  0.00000000E+00
  0.00000000E+00  0.00000000E+00  0.00000000E+00
  0.00000000E+00  0.00000000E+00  0.00000000E+00
  0.00000000E+00  0.00000000E+00  0.00000000E+00
  0.00000000E+00  0.00000000E+00  0.00000000E+00
  0.00000000E+00  0.00000000E+00  0.00000000E+00
  0.00000000E+00  0.00000000E+00  0.00000000E+00
  0.00000000E+00  0.00000000E+00  0.00000000E+00
  0.00000000E+00  0.00000000E+00  0.00000000E+00
  0.00000000E+00  0.00000000E+00  0.00000000E+00
  0.00000000E+00  0.00000000E+00  0.00000000E+00
  0.00000000E+00  0.00000000E+00  0.00000000E+00
  0.00000000E+00  0.00000000E+00  0.00000000E+00
  0.00000000E+00  0.00000000E+00  0.00000000E+00
  0.00000000E+00  0.00000000E+00  0.00000000E+00
  0.00000000E+00  0.00000000E+00  0.00000000E+00
  0.00000000E+00  0.00000000E+00  0.00000000E+00
  0.00000000E+00  0.00000000E+00  0.00000000E+00
  0.00000000E+00  0.00000000E+00  0.00000000E+00
  0.00000000E+00  0.00000000E+00  0.00000000E+00
  0.00000000E+00  0.00000000E+00  0.00000000E+00
  0.00000000E+00  0.00000000E+00  0.00000000E+00
  0.00000000E+00  0.00000000E+00  0.00000000E+00
  0.00000000E+00  0.00000000E+00  0.00000000E+00
  0.00000000E+00  0.00000000E+00  0.00000000E+00
  0.00000000E+00  0.00000000E+00  0.00000000E+00
  0.00000000E+00  0.00000000E+00  0.00000000E+00
  0.00000000E+00  0.00000000E+00  0.00000000E+00
  0.00000000E+00  0.00000000E+00  0.00000000E+00
  0.00000000E+00  0.00000000E+00  0.00000000E+00
