Title                                   
   1.00000000000000     
     9.8694509999999998    0.0000000000000000    0.0000000000000000
     0.0000000000000000    8.5490480000000009    0.0000000000000000
     0.0000000000000000    0.0000000000000000   20.0000000000000000
    25     5     1
Selective dynamics
Direct
  0.0555241016657111  0.0886768597938703  0.0894910613543528   T   T   T
  0.9311809648872995  0.1710603109598761  0.0916053662268371   T   T   T
  0.0569674342902073  0.9216075838856955  0.0899936179389482   T   T   T
  0.9357393654546502  0.3377805506717566  0.0915273385522357   T   T   T
  0.0567282380209990  0.5907066885851223  0.0882338967405958   T   T   T
  0.0570333933659161  0.4235948402192069  0.0875607680868934   T   T   T
  0.9319692110281131  0.8388799573586549  0.0922615972935448   T   T   T
  0.3063410814717816  0.0881570888280676  0.0921432183776322   T   T   T
  0.1802771598686623  0.1715843506291828  0.0891690125467861   T   T   T
  0.1794571607935464  0.3383440740868834  0.0878406019351609   T   T   T
  0.3007519236134245  0.5894049439817248  0.0917096451591544   T   T   T
  0.1789411417600048  0.6741443440468048  0.0885833065253419   T   T   T
  0.3018513734361522  0.4213534542522185  0.0916161575438042   T   T   T
  0.1809432749362642  0.8402442173450664  0.0899951812139419   T   T   T
  0.4279546276266730  0.1739627069153049  0.0968280431851806   T   T   T
  0.5529410331279822  0.9214780683130439  0.0998098223176102   T   T   T
  0.4272094313746977  0.8379770092944627  0.0973731198791470   T   T   T
  0.8050790760617325  0.0885815536919318  0.0953456205584549   T   T   T
  0.6807748399245854  0.1767664013683522  0.1000161562487522   T   T   T
  0.8061186127313474  0.9210496343175417  0.0957002986164772   T   T   T
  0.6928781539341694  0.3407553784620542  0.1038948112969832   T   T   T
  0.8161836760150710  0.5917790326851461  0.0988002114474111   T   T   T
  0.6942503039405561  0.6725253234706972  0.1043242931231931   T   T   T
  0.8165214862501560  0.4216428279697659  0.0984591555692782   T   T   T
  0.6798620491441982  0.8376063827234703  0.1005103435178866   T   T   T
  0.9359732871466001  0.6736535999730406  0.0922150854100725   T   T   T
  0.5540565215649060  0.0942856656730758  0.0998464939065213   T   T   T
  0.4200678253808935  0.3346549832744863  0.0984652804502704   T   T   T
  0.4179986036541453  0.6787102970418217  0.0992007486419211   T   T   T
  0.3045203277157765  0.9226125319072049  0.0922058069336020   T   T   T
  0.5570393198137943  0.5072943382744725  0.1062389394020582   T   T   T
 
  0.00000000E+00  0.00000000E+00  0.00000000E+00
  0.00000000E+00  0.00000000E+00  0.00000000E+00
  0.00000000E+00  0.00000000E+00  0.00000000E+00
  0.00000000E+00  0.00000000E+00  0.00000000E+00
  0.00000000E+00  0.00000000E+00  0.00000000E+00
  0.00000000E+00  0.00000000E+00  0.00000000E+00
  0.00000000E+00  0.00000000E+00  0.00000000E+00
  0.00000000E+00  0.00000000E+00  0.00000000E+00
  0.00000000E+00  0.00000000E+00  0.00000000E+00
  0.00000000E+00  0.00000000E+00  0.00000000E+00
  0.00000000E+00  0.00000000E+00  0.00000000E+00
  0.00000000E+00  0.00000000E+00  0.00000000E+00
  0.00000000E+00  0.00000000E+00  0.00000000E+00
  0.00000000E+00  0.00000000E+00  0.00000000E+00
  0.00000000E+00  0.00000000E+00  0.00000000E+00
  0.00000000E+00  0.00000000E+00  0.00000000E+00
  0.00000000E+00  0.00000000E+00  0.00000000E+00
  0.00000000E+00  0.00000000E+00  0.00000000E+00
  0.00000000E+00  0.00000000E+00  0.00000000E+00
  0.00000000E+00  0.00000000E+00  0.00000000E+00
  0.00000000E+00  0.00000000E+00  0.00000000E+00
  0.00000000E+00  0.00000000E+00  0.00000000E+00
  0.00000000E+00  0.00000000E+00  0.00000000E+00
  0.00000000E+00  0.00000000E+00  0.00000000E+00
  0.00000000E+00  0.00000000E+00  0.00000000E+00
  0.00000000E+00  0.00000000E+00  0.00000000E+00
  0.00000000E+00  0.00000000E+00  0.00000000E+00
  0.00000000E+00  0.00000000E+00  0.00000000E+00
  0.00000000E+00  0.00000000E+00  0.00000000E+00
  0.00000000E+00  0.00000000E+00  0.00000000E+00
  0.00000000E+00  0.00000000E+00  0.00000000E+00
