Title                                   
   1.00000000000000     
     8.5490480000000009    0.0000000000000000    0.0000000000000000
     0.0000000000000000    8.5490480000000009    0.0000000000000000
     0.0000000000000000    0.0000000000000000   20.0000000000000000
    23     1     1
Selective dynamics
Direct
  0.9101812914408218  0.2069268175937043  0.0954147770728705   T   T   T
  0.9058210516287745  0.5041943403469962  0.0952717509386875   T   T   T
  0.9122286886551966  0.8002807546701707  0.0954252651749894   T   T   T
  0.1965609223536992  0.0814613803330603  0.0954548903895346   T   T   T
  0.0726541120880746  0.2053198071508741  0.0954293199520598   T   T   T
  0.1982163530199590  0.9189777346386041  0.0954623541706526   T   T   T
  0.1565895679447361  0.6479031286746372  0.0953609309627858   T   T   T
  0.0743363575235336  0.5030051711166016  0.0953096759291386   T   T   T
  0.1553285014371259  0.3558473469722729  0.0953513555121670   T   T   T
  0.0761078112263950  0.7970606941405349  0.0954402068959996   T   T   T
  0.4941634748166538  0.0831240681561574  0.0953651473686119   T   T   T
  0.3470391417885096  0.1641587740505404  0.0953872158078179   T   T   T
  0.4954126402955074  0.9145944275100553  0.0953528583881710   T   T   T
  0.3491023452873626  0.8341177605915240  0.0953813297058849   T   T   T
  0.7882485192761222  0.0848453581238385  0.0954324713160325   T   T   T
  0.6390767799714930  0.1653462051411010  0.0953399119056221   T   T   T
  0.7915263239572258  0.9209516217229038  0.0954268632363851   T   T   T
  0.8279811979704685  0.6524632106817114  0.0952713867931388   T   T   T
  0.8253508026675122  0.3578523173493409  0.0953022962228229   T   T   T
  0.6437072147854294  0.8367224188883009  0.0952883192964833   T   T   T
  0.3188504310206486  0.3276762610481405  0.0953233562464621   T   T   T
  0.3229997158715289  0.6707855379143118  0.0953328363160483   T   T   T
  0.6620021709051723  0.3317462283061511  0.0952552245007135   T   T   T
  0.6684994429782063  0.6772330478686752  0.0951262422233090   T   T   T
  0.4934271410898367  0.5021955870098054  0.0951990136735891   T   T   T
 
  0.00000000E+00  0.00000000E+00  0.00000000E+00
  0.00000000E+00  0.00000000E+00  0.00000000E+00
  0.00000000E+00  0.00000000E+00  0.00000000E+00
  0.00000000E+00  0.00000000E+00  0.00000000E+00
  0.00000000E+00  0.00000000E+00  0.00000000E+00
  0.00000000E+00  0.00000000E+00  0.00000000E+00
  0.00000000E+00  0.00000000E+00  0.00000000E+00
  0.00000000E+00  0.00000000E+00  0.00000000E+00
  0.00000000E+00  0.00000000E+00  0.00000000E+00
  0.00000000E+00  0.00000000E+00  0.00000000E+00
  0.00000000E+00  0.00000000E+00  0.00000000E+00
  0.00000000E+00  0.00000000E+00  0.00000000E+00
  0.00000000E+00  0.00000000E+00  0.00000000E+00
  0.00000000E+00  0.00000000E+00  0.00000000E+00
  0.00000000E+00  0.00000000E+00  0.00000000E+00
  0.00000000E+00  0.00000000E+00  0.00000000E+00
  0.00000000E+00  0.00000000E+00  0.00000000E+00
  0.00000000E+00  0.00000000E+00  0.00000000E+00
  0.00000000E+00  0.00000000E+00  0.00000000E+00
  0.00000000E+00  0.00000000E+00  0.00000000E+00
  0.00000000E+00  0.00000000E+00  0.00000000E+00
  0.00000000E+00  0.00000000E+00  0.00000000E+00
  0.00000000E+00  0.00000000E+00  0.00000000E+00
  0.00000000E+00  0.00000000E+00  0.00000000E+00
  0.00000000E+00  0.00000000E+00  0.00000000E+00
