Title                                   
   1.00000000000000     
     9.8694509999999998    0.0000000000000000    0.0000000000000000
     0.0000000000000000    8.5490480000000009    0.0000000000000000
     0.0000000000000000    0.0000000000000000   20.0000000000000000
    26     4     1
Selective dynamics
Direct
  0.0562354275659869  0.0893252150636731  0.0938978471588492   T   T   T
  0.9311670450498318  0.1717739836806248  0.0941622381608410   T   T   T
  0.0562216460006685  0.9229626962088551  0.0939005952368979   T   T   T
  0.9323268762877563  0.3392115408032898  0.0940777694295410   T   T   T
  0.0562420065720477  0.5890300859577302  0.0937322671796563   T   T   T
  0.9323268936026818  0.6730626065461293  0.0940718245942190   T   T   T
  0.0562472846114303  0.4232490321029566  0.0937304786908385   T   T   T
  0.9311560347233827  0.8405159139495245  0.0941531355773901   T   T   T
  0.3075269810393427  0.0910162002818088  0.0948786777571406   T   T   T
  0.1813099109586079  0.1717743079096289  0.0941809207212475   T   T   T
  0.3075040826815086  0.9212688534919806  0.0948986320852537   T   T   T
  0.1801591749515732  0.3392145428643764  0.0941383184537223   T   T   T
  0.3030500798352257  0.5906078141696912  0.0949743897301998   T   T   T
  0.1801451971611130  0.6730719040865250  0.0941552914063228   T   T   T
  0.3030673611997129  0.4216775598619849  0.0949548682225592   T   T   T
  0.1812845195746148  0.8405190044034747  0.0942035812058456   T   T   T
  0.5562094215663311  0.0936899224458223  0.0958910048226616   T   T   T
  0.4307509353330648  0.1805012628308228  0.0956335508476240   T   T   T
  0.5562097331693042  0.9186267144874849  0.0958883782732337   T   T   T
  0.4307327810048102  0.8318268765527542  0.0956359704018518   T   T   T
  0.8049267728775032  0.0910228587464724  0.0948598537330444   T   T   T
  0.6816879352790356  0.1804981946691535  0.0956004103125311   T   T   T
  0.8049285466783812  0.9212659031751034  0.0948418783109034   T   T   T
  0.8094141373262107  0.5906085925979823  0.0948368577988967   T   T   T
  0.8094093780120030  0.4216750325850492  0.0948529741641671   T   T   T
  0.6816925486306709  0.8318283990803328  0.0955700727976977   T   T   T
  0.4262371357118689  0.3451173661538067  0.0957657456262779   T   T   T
  0.4262139045508877  0.6672411024254529  0.0957779273078852   T   T   T
  0.6862437047884631  0.3451142825959695  0.0957066954180399   T   T   T
  0.6862576463266483  0.6672433742220536  0.0956768581982159   T   T   T
  0.5562508969293392  0.5063338560494844  0.0963159863764862   T   T   T
 
  0.00000000E+00  0.00000000E+00  0.00000000E+00
  0.00000000E+00  0.00000000E+00  0.00000000E+00
  0.00000000E+00  0.00000000E+00  0.00000000E+00
  0.00000000E+00  0.00000000E+00  0.00000000E+00
  0.00000000E+00  0.00000000E+00  0.00000000E+00
  0.00000000E+00  0.00000000E+00  0.00000000E+00
  0.00000000E+00  0.00000000E+00  0.00000000E+00
  0.00000000E+00  0.00000000E+00  0.00000000E+00
  0.00000000E+00  0.00000000E+00  0.00000000E+00
  0.00000000E+00  0.00000000E+00  0.00000000E+00
  0.00000000E+00  0.00000000E+00  0.00000000E+00
  0.00000000E+00  0.00000000E+00  0.00000000E+00
  0.00000000E+00  0.00000000E+00  0.00000000E+00
  0.00000000E+00  0.00000000E+00  0.00000000E+00
  0.00000000E+00  0.00000000E+00  0.00000000E+00
  0.00000000E+00  0.00000000E+00  0.00000000E+00
  0.00000000E+00  0.00000000E+00  0.00000000E+00
  0.00000000E+00  0.00000000E+00  0.00000000E+00
  0.00000000E+00  0.00000000E+00  0.00000000E+00
  0.00000000E+00  0.00000000E+00  0.00000000E+00
  0.00000000E+00  0.00000000E+00  0.00000000E+00
  0.00000000E+00  0.00000000E+00  0.00000000E+00
  0.00000000E+00  0.00000000E+00  0.00000000E+00
  0.00000000E+00  0.00000000E+00  0.00000000E+00
  0.00000000E+00  0.00000000E+00  0.00000000E+00
  0.00000000E+00  0.00000000E+00  0.00000000E+00
  0.00000000E+00  0.00000000E+00  0.00000000E+00
  0.00000000E+00  0.00000000E+00  0.00000000E+00
  0.00000000E+00  0.00000000E+00  0.00000000E+00
  0.00000000E+00  0.00000000E+00  0.00000000E+00
  0.00000000E+00  0.00000000E+00  0.00000000E+00
