Title                                   
   1.00000000000000     
     4.9440799999999996    0.0000000000000000    0.0000000000000000
     0.0000000000000000    8.5647549999999999    0.0000000000000000
     0.0000000000000000    0.0000000000000000   20.0000000000000000
    15     1
Selective dynamics
Direct
  0.2500000000000000  0.2074154096891781  0.0925951044014857   T   T   T
 -0.0026908112547076  0.2887992233424135  0.0959055967605118   T   T   T
  0.2500000000000000  0.0423309164784623  0.0867413195041360   T   T   T
 -0.0009033448445274  0.7949792536964325  0.0987784797725552   T   T   T
 -0.0005775372144640  0.9593992414018537  0.0869632946809397   T   T   T
  0.7500000000000000  0.2064445239253412  0.0871412390696465   T   T   T
  0.5026908112547075  0.2887992233424135  0.0959055967605118   T   T   T
  0.7500000000000000  0.0410644759016760  0.0832643437233239   T   T   T
  0.7500000000000000  0.7107627379720789  0.1020599741687329   T   T   T
  0.5009033448445276  0.7949792536964325  0.0987784797725552   T   T   T
  0.7500000000000000  0.5429468895213662  0.1047255750264374   T   T   T
  0.5005775372144639  0.9593992414018537  0.0869632946809397   T   T   T
  0.5169715055794583  0.4493519946391449  0.1113153371599657   T   T   T
 -0.0169715055794585  0.4493519946391449  0.1113153371599657   T   T   T
  0.2500000000000000  0.7248910174505984  0.1131496083587250   T   T   T
  0.2500000000000000  0.5390846029016098  0.1669094189995753   T   T   T
 
  0.00000000E+00  0.00000000E+00  0.00000000E+00
  0.00000000E+00  0.00000000E+00  0.00000000E+00
  0.00000000E+00  0.00000000E+00  0.00000000E+00
  0.00000000E+00  0.00000000E+00  0.00000000E+00
  0.00000000E+00  0.00000000E+00  0.00000000E+00
  0.00000000E+00  0.00000000E+00  0.00000000E+00
  0.00000000E+00  0.00000000E+00  0.00000000E+00
  0.00000000E+00  0.00000000E+00  0.00000000E+00
  0.00000000E+00  0.00000000E+00  0.00000000E+00
  0.00000000E+00  0.00000000E+00  0.00000000E+00
  0.00000000E+00  0.00000000E+00  0.00000000E+00
  0.00000000E+00  0.00000000E+00  0.00000000E+00
  0.00000000E+00  0.00000000E+00  0.00000000E+00
  0.00000000E+00  0.00000000E+00  0.00000000E+00
  0.00000000E+00  0.00000000E+00  0.00000000E+00
  0.00000000E+00  0.00000000E+00  0.00000000E+00
