Title                                   
   1.00000000000000     
     9.8694509999999998    0.0000000000000000    0.0000000000000000
     0.0000000000000000    8.5490480000000009    0.0000000000000000
     0.0000000000000000    0.0000000000000000   20.0000000000000000
    28     2     1
Selective dynamics
Direct
  0.0545126442834322  0.0888357692903287  0.0844127677413977   T   T   T
  0.9294586426656347  0.1736642605097035  0.0846833572468698   T   T   T
  0.0576254360802930  0.9226256546089836  0.0856526837712324   T   T   T
  0.9322018561991788  0.3405031413904982  0.0834275511920612   T   T   T
  0.0582000788267903  0.5900444037008846  0.0823615496974307   T   T   T
  0.9345891771417466  0.6754318747849786  0.0867699212867888   T   T   T
  0.0569503680342044  0.4227868893569329  0.0814976149314155   T   T   T
  0.9325466795516602  0.8421069793216507  0.0882365810046870   T   T   T
  0.3046312177709084  0.0851806017672631  0.0935108391654474   T   T   T
  0.1792763923591560  0.1680175116077706  0.0868520905572650   T   T   T
  0.1796248094025630  0.3354299088350423  0.0851790486263382   T   T   T
  0.3056420337588613  0.5840525611030151  0.0918812849184996   T   T   T
  0.1834765742849148  0.6711759296581069  0.0850451692876490   T   T   T
  0.3019534937258881  0.4150193563341139  0.0950451301847165   T   T   T
  0.1837686631459758  0.8382980335387037  0.0866522186847886   T   T   T
  0.5536656265534639  0.0927428408556329  0.1035107023653416   T   T   T
  0.4247129024889034  0.1740832426636137  0.1035173685937406   T   T   T
  0.5555526469074308  0.9246276755629163  0.1042529013677072   T   T   T
  0.4299501385682387  0.6634364498741551  0.1003776145091292   T   T   T
  0.4323246156104559  0.8325682453814675  0.0996866557346077   T   T   T
  0.8030196413638132  0.0941472716467421  0.0910540883002766   T   T   T
  0.6775887851722405  0.1827171214681615  0.0975424754874561   T   T   T
  0.8051231266444207  0.9254128526025769  0.0935125280214487   T   T   T
  0.6833943322208665  0.3517214569208599  0.0980200603930554   T   T   T
  0.8131100072527964  0.5940986466457303  0.0954464579094952   T   T   T
  0.6909204911175293  0.6722638251721573  0.1143383691724486   T   T   T
  0.8102906810655969  0.4264696029899922  0.0903846559936765   T   T   T
  0.6829098978680136  0.8390923356115253  0.1039332846338179   T   T   T
  0.4175199758090878  0.3345034098936404  0.1112923634220802   T   T   T
  0.3076594915029693  0.9184580503351479  0.0924517701851741   T   T   T
  0.5609345726229806  0.5113590965677247  0.1404358956140054   T   T   T
 
  0.00000000E+00  0.00000000E+00  0.00000000E+00
  0.00000000E+00  0.00000000E+00  0.00000000E+00
  0.00000000E+00  0.00000000E+00  0.00000000E+00
  0.00000000E+00  0.00000000E+00  0.00000000E+00
  0.00000000E+00  0.00000000E+00  0.00000000E+00
  0.00000000E+00  0.00000000E+00  0.00000000E+00
  0.00000000E+00  0.00000000E+00  0.00000000E+00
  0.00000000E+00  0.00000000E+00  0.00000000E+00
  0.00000000E+00  0.00000000E+00  0.00000000E+00
  0.00000000E+00  0.00000000E+00  0.00000000E+00
  0.00000000E+00  0.00000000E+00  0.00000000E+00
  0.00000000E+00  0.00000000E+00  0.00000000E+00
  0.00000000E+00  0.00000000E+00  0.00000000E+00
  0.00000000E+00  0.00000000E+00  0.00000000E+00
  0.00000000E+00  0.00000000E+00  0.00000000E+00
  0.00000000E+00  0.00000000E+00  0.00000000E+00
  0.00000000E+00  0.00000000E+00  0.00000000E+00
  0.00000000E+00  0.00000000E+00  0.00000000E+00
  0.00000000E+00  0.00000000E+00  0.00000000E+00
  0.00000000E+00  0.00000000E+00  0.00000000E+00
  0.00000000E+00  0.00000000E+00  0.00000000E+00
  0.00000000E+00  0.00000000E+00  0.00000000E+00
  0.00000000E+00  0.00000000E+00  0.00000000E+00
  0.00000000E+00  0.00000000E+00  0.00000000E+00
  0.00000000E+00  0.00000000E+00  0.00000000E+00
  0.00000000E+00  0.00000000E+00  0.00000000E+00
  0.00000000E+00  0.00000000E+00  0.00000000E+00
  0.00000000E+00  0.00000000E+00  0.00000000E+00
  0.00000000E+00  0.00000000E+00  0.00000000E+00
  0.00000000E+00  0.00000000E+00  0.00000000E+00
  0.00000000E+00  0.00000000E+00  0.00000000E+00
