Title                                   
   1.00000000000000     
     8.5490480000000009    0.0000000000000000    0.0000000000000000
     0.0000000000000000    8.5490480000000009    0.0000000000000000
     0.0000000000000000    0.0000000000000000   20.0000000000000000
    20     4     1
Selective dynamics
Direct
  0.9091982310955227  0.2032630580341124  0.0957844627261291   T   T   T
  0.9066154872535047  0.5032479740490553  0.0969758181576913   T   T   T
  0.9098808830410593  0.8026005389824417  0.0952753992873277   T   T   T
  0.1962802798229805  0.0834525749334641  0.0951695493434091   T   T   T
  0.0756324420897272  0.2010476057022457  0.0951916038113159   T   T   T
  0.1560073140607386  0.6526209114053015  0.0975731736626452   T   T   T
  0.0763218078324038  0.5023199055945242  0.0970917797325180   T   T   T
  0.1573613687540527  0.3537902103525963  0.0965464229387499   T   T   T
  0.0775461610079593  0.7998501894571496  0.0957391828191760   T   T   T
  0.4936015170633330  0.0853173489623893  0.0970961462794698   T   T   T
  0.3456290277569619  0.1636988736115220  0.0965407019629777   T   T   T
  0.4926182895041522  0.9151736656429457  0.0967189451691898   T   T   T
  0.3421261598889743  0.8368028208785487  0.0973147464288648   T   T   T
  0.7889387975857480  0.0856031415662371  0.0959685981511924   T   T   T
  0.6420351419040282  0.1654271070941021  0.0977933238248437   T   T   T
  0.7892861973421097  0.9190744021845515  0.0952619470513935   T   T   T
  0.8293907754161994  0.6527209627903633  0.0962213865006273   T   T   T
  0.8281846422094601  0.3523455517597645  0.0975028556413465   T   T   T
  0.6416542061393853  0.8363185554680451  0.0960307403025211   T   T   T
  0.3219291972593189  0.3304852593777715  0.0978184906550157   T   T   T
  0.3174253399088249  0.6788880307013726  0.0996525216201433   T   T   T
  0.6675540703113461  0.3278892441364205  0.0999055487344118   T   T   T
  0.6681065244493631  0.6756913492689989  0.0966800245029478   T   T   T
  0.1965002099198881  0.9168087567101074  0.0955182005670043   T   T   T
  0.4955879283829503  0.5003519613359896  0.1223334301290610   T   T   T
 
  0.00000000E+00  0.00000000E+00  0.00000000E+00
  0.00000000E+00  0.00000000E+00  0.00000000E+00
  0.00000000E+00  0.00000000E+00  0.00000000E+00
  0.00000000E+00  0.00000000E+00  0.00000000E+00
  0.00000000E+00  0.00000000E+00  0.00000000E+00
  0.00000000E+00  0.00000000E+00  0.00000000E+00
  0.00000000E+00  0.00000000E+00  0.00000000E+00
  0.00000000E+00  0.00000000E+00  0.00000000E+00
  0.00000000E+00  0.00000000E+00  0.00000000E+00
  0.00000000E+00  0.00000000E+00  0.00000000E+00
  0.00000000E+00  0.00000000E+00  0.00000000E+00
  0.00000000E+00  0.00000000E+00  0.00000000E+00
  0.00000000E+00  0.00000000E+00  0.00000000E+00
  0.00000000E+00  0.00000000E+00  0.00000000E+00
  0.00000000E+00  0.00000000E+00  0.00000000E+00
  0.00000000E+00  0.00000000E+00  0.00000000E+00
  0.00000000E+00  0.00000000E+00  0.00000000E+00
  0.00000000E+00  0.00000000E+00  0.00000000E+00
  0.00000000E+00  0.00000000E+00  0.00000000E+00
  0.00000000E+00  0.00000000E+00  0.00000000E+00
  0.00000000E+00  0.00000000E+00  0.00000000E+00
  0.00000000E+00  0.00000000E+00  0.00000000E+00
  0.00000000E+00  0.00000000E+00  0.00000000E+00
  0.00000000E+00  0.00000000E+00  0.00000000E+00
  0.00000000E+00  0.00000000E+00  0.00000000E+00
