Title                                   
   1.00000000000000     
     8.5490480000000009    0.0000000000000000    0.0000000000000000
     0.0000000000000000    8.5490480000000009    0.0000000000000000
     0.0000000000000000    0.0000000000000000   20.0000000000000000
    21     3     1
Selective dynamics
Direct
  0.9097048128671348  0.2060698751957065  0.0954569393191363   T   T   T
  0.9047652308078344  0.5032714404398015  0.0953032463310111   T   T   T
  0.9094363108239669  0.7990155757111235  0.0954727987772086   T   T   T
  0.1982099411050632  0.0846270689149009  0.0954829635658536   T   T   T
  0.0758723778307724  0.2069361497239945  0.0954586828092501   T   T   T
  0.1973425318269627  0.9184637978778463  0.0954904532811995   T   T   T
  0.1562452520272687  0.6504797820436284  0.0953315816958671   T   T   T
  0.0756781134147562  0.5032484383943908  0.0953201703695789   T   T   T
  0.1567240113392106  0.3573039908732191  0.0953535787413620   T   T   T
  0.0767938963282317  0.7983053167894694  0.0954780228120584   T   T   T
  0.4944363588925691  0.0844775111669968  0.0953604350161253   T   T   T
  0.3485172501525965  0.1655390646242165  0.0953854614154853   T   T   T
  0.4944656690122421  0.9135415310979039  0.0953567432093697   T   T   T
  0.3465591335027882  0.8344383668189113  0.0953515380556909   T   T   T
  0.7895071281248019  0.0855634086328146  0.0954701642876267   T   T   T
  0.6416706122868471  0.1650473087617866  0.0953110502508092   T   T   T
  0.7902204515708088  0.9182079628454789  0.0954772354455854   T   T   T
  0.8271061824521234  0.6511973113668766  0.0953054802557798   T   T   T
  0.8256926382078768  0.3553308298912141  0.0952931999717991   T   T   T
  0.6423906441100352  0.8358480536367098  0.0953187757122849   T   T   T
  0.3220358316418687  0.3308266024226878  0.0953075391920325   T   T   T
  0.3190703438253671  0.6739259648167262  0.0951747905374097   T   T   T
  0.6651658567958584  0.3278235126633633  0.0951356217059669   T   T   T
  0.6667838717134222  0.6755346153902689  0.0951560205409175   T   T   T
  0.4910175493395850  0.4997665198999762  0.0951525067005694   T   T   T
 
  0.00000000E+00  0.00000000E+00  0.00000000E+00
  0.00000000E+00  0.00000000E+00  0.00000000E+00
  0.00000000E+00  0.00000000E+00  0.00000000E+00
  0.00000000E+00  0.00000000E+00  0.00000000E+00
  0.00000000E+00  0.00000000E+00  0.00000000E+00
  0.00000000E+00  0.00000000E+00  0.00000000E+00
  0.00000000E+00  0.00000000E+00  0.00000000E+00
  0.00000000E+00  0.00000000E+00  0.00000000E+00
  0.00000000E+00  0.00000000E+00  0.00000000E+00
  0.00000000E+00  0.00000000E+00  0.00000000E+00
  0.00000000E+00  0.00000000E+00  0.00000000E+00
  0.00000000E+00  0.00000000E+00  0.00000000E+00
  0.00000000E+00  0.00000000E+00  0.00000000E+00
  0.00000000E+00  0.00000000E+00  0.00000000E+00
  0.00000000E+00  0.00000000E+00  0.00000000E+00
  0.00000000E+00  0.00000000E+00  0.00000000E+00
  0.00000000E+00  0.00000000E+00  0.00000000E+00
  0.00000000E+00  0.00000000E+00  0.00000000E+00
  0.00000000E+00  0.00000000E+00  0.00000000E+00
  0.00000000E+00  0.00000000E+00  0.00000000E+00
  0.00000000E+00  0.00000000E+00  0.00000000E+00
  0.00000000E+00  0.00000000E+00  0.00000000E+00
  0.00000000E+00  0.00000000E+00  0.00000000E+00
  0.00000000E+00  0.00000000E+00  0.00000000E+00
  0.00000000E+00  0.00000000E+00  0.00000000E+00
