Title                                   
   1.00000000000000     
     8.5490480000000009    0.0000000000000000    0.0000000000000000
     0.0000000000000000    8.5490480000000009    0.0000000000000000
     0.0000000000000000    0.0000000000000000   20.0000000000000000
    22     2     1
Selective dynamics
Direct
  0.9065946826584189  0.2075352523477522  0.0947684837786535   T   T   T
  0.9074690610207453  0.5054563190588216  0.0964423062807357   T   T   T
  0.9133317431067979  0.8039038649513981  0.0961589192396831   T   T   T
  0.1966006568318481  0.0816420241824410  0.0953182623169879   T   T   T
  0.0732545646841396  0.2021528327394196  0.0957041619178913   T   T   T
  0.1598394508162558  0.6474306584209149  0.0960513105961838   T   T   T
  0.0758381114372761  0.5016138322419637  0.0966893195207325   T   T   T
  0.1542609345694272  0.3529900080069487  0.0979226962880098   T   T   T
  0.0811093445884806  0.7976429968842170  0.0953335730088635   T   T   T
  0.4928841241311085  0.0841525988969441  0.0962683101538021   T   T   T
  0.3439583326712052  0.1606441280048660  0.0971727381554231   T   T   T
  0.4948589999040959  0.9154408315719120  0.0963199758498547   T   T   T
  0.3487552230195386  0.8345662932856551  0.0944956808794010   T   T   T
  0.7862864918710930  0.0886542523865739  0.0952980390800410   T   T   T
  0.6361958606006366  0.1679901408429087  0.0958522103546931   T   T   T
  0.7907659395753738  0.9219084193244044  0.0960907580447652   T   T   T
  0.8310110433697148  0.6546197846004898  0.0985742932453412   T   T   T
  0.8259790404752255  0.3594803092657441  0.0944942049687845   T   T   T
  0.6437989601108011  0.8373387193582982  0.0984263520474762   T   T   T
  0.3213031439222517  0.3292116907060317  0.1026747922577861   T   T   T
  0.3272043192793477  0.6697758530273656  0.0952236970348845   T   T   T
  0.6589395639223261  0.3379898711682904  0.0954182029829661   T   T   T
  0.6692004583700332  0.6759521874180883  0.1028898971789596   T   T   T
  0.1998680845878633  0.9148867377260761  0.0943885216039808   T   T   T
  0.4861038644759893  0.4918103935824878  0.1307282932140821   T   T   T
 
  0.00000000E+00  0.00000000E+00  0.00000000E+00
  0.00000000E+00  0.00000000E+00  0.00000000E+00
  0.00000000E+00  0.00000000E+00  0.00000000E+00
  0.00000000E+00  0.00000000E+00  0.00000000E+00
  0.00000000E+00  0.00000000E+00  0.00000000E+00
  0.00000000E+00  0.00000000E+00  0.00000000E+00
  0.00000000E+00  0.00000000E+00  0.00000000E+00
  0.00000000E+00  0.00000000E+00  0.00000000E+00
  0.00000000E+00  0.00000000E+00  0.00000000E+00
  0.00000000E+00  0.00000000E+00  0.00000000E+00
  0.00000000E+00  0.00000000E+00  0.00000000E+00
  0.00000000E+00  0.00000000E+00  0.00000000E+00
  0.00000000E+00  0.00000000E+00  0.00000000E+00
  0.00000000E+00  0.00000000E+00  0.00000000E+00
  0.00000000E+00  0.00000000E+00  0.00000000E+00
  0.00000000E+00  0.00000000E+00  0.00000000E+00
  0.00000000E+00  0.00000000E+00  0.00000000E+00
  0.00000000E+00  0.00000000E+00  0.00000000E+00
  0.00000000E+00  0.00000000E+00  0.00000000E+00
  0.00000000E+00  0.00000000E+00  0.00000000E+00
  0.00000000E+00  0.00000000E+00  0.00000000E+00
  0.00000000E+00  0.00000000E+00  0.00000000E+00
  0.00000000E+00  0.00000000E+00  0.00000000E+00
  0.00000000E+00  0.00000000E+00  0.00000000E+00
  0.00000000E+00  0.00000000E+00  0.00000000E+00
