Title                                   
   1.00000000000000     
     4.9440799999999996    0.0000000000000000    0.0000000000000000
     0.0000000000000000    8.5647549999999999    0.0000000000000000
     0.0000000000000000    0.0000000000000000   20.0000000000000000
    13     1     1
Selective dynamics
Direct
  0.2514620817647591  0.2058048568473386  0.1003641341227414   T   T   T
  0.0007934118785817  0.2948861003286461  0.1010102096316541   T   T   T
  0.2523403005110488  0.0400347300716708  0.1005265699809197   T   T   T
  0.0010880166932144  0.9541189510018175  0.1016642287108291   T   T   T
  0.7509455834691070  0.2090461270094196  0.1005493829457028   T   T   T
  0.5008301028452824  0.2931613611744064  0.0996131892627683   T   T   T
  0.7525663864708364  0.0401403490579069  0.1008505805082958   T   T   T
  0.7464381556082803  0.7146283760807493  0.1007486367434445   T   T   T
  0.7437294328724402  0.5409689552563303  0.1002888166202804   T   T   T
  0.5050501644207943  0.9536926294098497  0.0998773079660126   T   T   T
  0.5011935881755080  0.4581328497230879  0.0987923441321903   T   T   T
 -0.0081215293941381  0.4609617078186782  0.1015429042358792   T   T   T
 -0.0069245939742332  0.7893882608742488  0.1031797835648520   T   T   T
  0.5096225525861979  0.7928519776930165  0.0984627582792548   T   T   T
  0.2489863460723204  0.6238637676528364  0.1005091532951785   T   T   T
 
  0.00000000E+00  0.00000000E+00  0.00000000E+00
  0.00000000E+00  0.00000000E+00  0.00000000E+00
  0.00000000E+00  0.00000000E+00  0.00000000E+00
  0.00000000E+00  0.00000000E+00  0.00000000E+00
  0.00000000E+00  0.00000000E+00  0.00000000E+00
  0.00000000E+00  0.00000000E+00  0.00000000E+00
  0.00000000E+00  0.00000000E+00  0.00000000E+00
  0.00000000E+00  0.00000000E+00  0.00000000E+00
  0.00000000E+00  0.00000000E+00  0.00000000E+00
  0.00000000E+00  0.00000000E+00  0.00000000E+00
  0.00000000E+00  0.00000000E+00  0.00000000E+00
  0.00000000E+00  0.00000000E+00  0.00000000E+00
  0.00000000E+00  0.00000000E+00  0.00000000E+00
  0.00000000E+00  0.00000000E+00  0.00000000E+00
  0.00000000E+00  0.00000000E+00  0.00000000E+00
