Title                                   
   1.00000000000000     
     9.8694509999999998    0.0000000000000000    0.0000000000000000
     0.0000000000000000    8.5490480000000009    0.0000000000000000
     0.0000000000000000    0.0000000000000000   20.0000000000000000
    28     3     1
Selective dynamics
Direct
  0.0565566153845619  0.0911104272958756  0.0831141663135293   T   T   T
  0.9310294654582250  0.1732682687908556  0.0855654430906012   T   T   T
  0.0558090939591655  0.9241317713439317  0.0828074495282954   T   T   T
  0.9303113717448447  0.3398927279244722  0.0903195536410098   T   T   T
  0.0566983019896485  0.5893783634104961  0.0870173889435556   T   T   T
  0.9314729417223789  0.6726533718409251  0.0894139195434360   T   T   T
  0.0569921804256776  0.4230820017129555  0.0888668824670137   T   T   T
  0.9305848173083524  0.8393659663134105  0.0857212408346348   T   T   T
  0.3056117381920969  0.0901445645762635  0.0859313289719719   T   T   T
  0.1821615608813764  0.1747866053915255  0.0854964235772625   T   T   T
  0.3055410814659978  0.9246424034541544  0.0861502880557957   T   T   T
  0.1839628558419055  0.3420948122765600  0.0895734630681808   T   T   T
  0.3058554345565173  0.5946064518780583  0.0974032167456682   T   T   T
  0.1809023987113564  0.6737582848253546  0.0876482981148515   T   T   T
  0.3106098260897967  0.4257870852502854  0.0965463813890650   T   T   T
  0.1806880547585422  0.8407493972097080  0.0848999145632943   T   T   T
  0.5555911153675115  0.0845711313873751  0.0946968004024819   T   T   T
  0.4318685351762234  0.1695997769822489  0.0922697832511787   T   T   T
  0.4345098531768099  0.3344660902508726  0.0997565850524117   T   T   T
  0.4282777942502772  0.8404181200936885  0.0965203304853450   T   T   T
  0.8070471828806342  0.0886022057755976  0.0863014668422493   T   T   T
  0.6808179178510062  0.1673767947291263  0.0928312728985046   T   T   T
  0.8052956429202068  0.9226786235280754  0.0872472569989870   T   T   T
  0.6799567754254525  0.3328702150006457  0.1010028745117923   T   T   T
  0.8081991131495857  0.5908811310807973  0.1016049291054605   T   T   T
  0.6912862123687213  0.6816408622172518  0.1177396100602596   T   T   T
  0.8047757316956565  0.4218326862738977  0.0989520290712760   T   T   T
  0.6823380332225996  0.8391697843324121  0.0988440912164010   T   T   T
  0.4206527635046253  0.6850809693043313  0.1108402913432272   T   T   T
  0.5574571023556020  0.4040747973966495  0.1134042464747688   T   T   T
  0.5540092158476522  0.9198262463320602  0.0977433553291867   T   T   T
  0.5527682723169983  0.5877040618201458  0.1694447181083381   T   T   T
 
  0.00000000E+00  0.00000000E+00  0.00000000E+00
  0.00000000E+00  0.00000000E+00  0.00000000E+00
  0.00000000E+00  0.00000000E+00  0.00000000E+00
  0.00000000E+00  0.00000000E+00  0.00000000E+00
  0.00000000E+00  0.00000000E+00  0.00000000E+00
  0.00000000E+00  0.00000000E+00  0.00000000E+00
  0.00000000E+00  0.00000000E+00  0.00000000E+00
  0.00000000E+00  0.00000000E+00  0.00000000E+00
  0.00000000E+00  0.00000000E+00  0.00000000E+00
  0.00000000E+00  0.00000000E+00  0.00000000E+00
  0.00000000E+00  0.00000000E+00  0.00000000E+00
  0.00000000E+00  0.00000000E+00  0.00000000E+00
  0.00000000E+00  0.00000000E+00  0.00000000E+00
  0.00000000E+00  0.00000000E+00  0.00000000E+00
  0.00000000E+00  0.00000000E+00  0.00000000E+00
  0.00000000E+00  0.00000000E+00  0.00000000E+00
  0.00000000E+00  0.00000000E+00  0.00000000E+00
  0.00000000E+00  0.00000000E+00  0.00000000E+00
  0.00000000E+00  0.00000000E+00  0.00000000E+00
  0.00000000E+00  0.00000000E+00  0.00000000E+00
  0.00000000E+00  0.00000000E+00  0.00000000E+00
  0.00000000E+00  0.00000000E+00  0.00000000E+00
  0.00000000E+00  0.00000000E+00  0.00000000E+00
  0.00000000E+00  0.00000000E+00  0.00000000E+00
  0.00000000E+00  0.00000000E+00  0.00000000E+00
  0.00000000E+00  0.00000000E+00  0.00000000E+00
  0.00000000E+00  0.00000000E+00  0.00000000E+00
  0.00000000E+00  0.00000000E+00  0.00000000E+00
  0.00000000E+00  0.00000000E+00  0.00000000E+00
  0.00000000E+00  0.00000000E+00  0.00000000E+00
  0.00000000E+00  0.00000000E+00  0.00000000E+00
  0.00000000E+00  0.00000000E+00  0.00000000E+00
