Title                                   
   1.00000000000000     
     9.8694509999999998    0.0000000000000000    0.0000000000000000
     0.0000000000000000    8.5490480000000009    0.0000000000000000
     0.0000000000000000    0.0000000000000000   20.0000000000000000
    27     4     1
Selective dynamics
Direct
  0.0567625672903291  0.0914941976677356  0.0862013578698572   T   T   T
  0.9313557013622330  0.1748133324368680  0.0858530601701870   T   T   T
  0.0586630100981242  0.9246322441830238  0.0865897034437140   T   T   T
  0.9287876347918979  0.3428725043555731  0.0859695151096228   T   T   T
  0.0580932983474323  0.5908582755042289  0.0879957961053891   T   T   T
  0.9332895084744155  0.6741300400937018  0.0860310662535002   T   T   T
  0.0568378306913283  0.4233430875457457  0.0885016253648128   T   T   T
  0.9337497754511989  0.8404282558421867  0.0863116218544580   T   T   T
  0.3067767351965222  0.0864100363718485  0.0911966432438505   T   T   T
  0.1837087433041286  0.1726636640027414  0.0884322409148037   T   T   T
  0.1834712588460069  0.3401444276388476  0.0915885126512243   T   T   T
  0.3067786433556418  0.5895975598019665  0.1077718979758447   T   T   T
  0.1837500612016739  0.6738604398855861  0.0931344219337734   T   T   T
  0.3088566673340010  0.4218305038403882  0.1003382141185654   T   T   T
  0.1830198977058694  0.8406940592948373  0.0904290466813043   T   T   T
  0.5568007980005087  0.0829931852117873  0.0949320281272995   T   T   T
  0.5562744055426855  0.9192468924967533  0.1022400758122398   T   T   T
  0.4355497936099214  0.3337019050951615  0.0958837083906594   T   T   T
  0.4282069984081520  0.8377958837812683  0.1109611028387934   T   T   T
  0.8065664508881059  0.0891874013293969  0.0873080368851652   T   T   T
  0.6798547437704969  0.1696392870474888  0.0888311005132723   T   T   T
  0.8082452105062772  0.9237557983105811  0.0883096781123297   T   T   T
  0.6755898400676288  0.3364867520508342  0.0874730026883587   T   T   T
  0.8041420852203187  0.5962121561730580  0.0870757565142755   T   T   T
  0.8009015900416580  0.4255208238093693  0.0858119162272693   T   T   T
  0.6853127629715402  0.8358967349736233  0.0943233691893608   T   T   T
  0.4177221261444417  0.6822638783206880  0.1300102524552151   T   T   T
  0.5522726302160038  0.4077421875495012  0.0914722767690093   T   T   T
  0.6876227863779322  0.6782087506562374  0.0927677663559426   T   T   T
  0.3070802546406119  0.9234647590076073  0.0928536814393072   T   T   T
  0.4302938225621805  0.1652356094839969  0.0947508916959062   T   T   T
  0.5533013675807396  0.5951213662373692  0.2043256322947047   T   T   T
 
  0.00000000E+00  0.00000000E+00  0.00000000E+00
  0.00000000E+00  0.00000000E+00  0.00000000E+00
  0.00000000E+00  0.00000000E+00  0.00000000E+00
  0.00000000E+00  0.00000000E+00  0.00000000E+00
  0.00000000E+00  0.00000000E+00  0.00000000E+00
  0.00000000E+00  0.00000000E+00  0.00000000E+00
  0.00000000E+00  0.00000000E+00  0.00000000E+00
  0.00000000E+00  0.00000000E+00  0.00000000E+00
  0.00000000E+00  0.00000000E+00  0.00000000E+00
  0.00000000E+00  0.00000000E+00  0.00000000E+00
  0.00000000E+00  0.00000000E+00  0.00000000E+00
  0.00000000E+00  0.00000000E+00  0.00000000E+00
  0.00000000E+00  0.00000000E+00  0.00000000E+00
  0.00000000E+00  0.00000000E+00  0.00000000E+00
  0.00000000E+00  0.00000000E+00  0.00000000E+00
  0.00000000E+00  0.00000000E+00  0.00000000E+00
  0.00000000E+00  0.00000000E+00  0.00000000E+00
  0.00000000E+00  0.00000000E+00  0.00000000E+00
  0.00000000E+00  0.00000000E+00  0.00000000E+00
  0.00000000E+00  0.00000000E+00  0.00000000E+00
  0.00000000E+00  0.00000000E+00  0.00000000E+00
  0.00000000E+00  0.00000000E+00  0.00000000E+00
  0.00000000E+00  0.00000000E+00  0.00000000E+00
  0.00000000E+00  0.00000000E+00  0.00000000E+00
  0.00000000E+00  0.00000000E+00  0.00000000E+00
  0.00000000E+00  0.00000000E+00  0.00000000E+00
  0.00000000E+00  0.00000000E+00  0.00000000E+00
  0.00000000E+00  0.00000000E+00  0.00000000E+00
  0.00000000E+00  0.00000000E+00  0.00000000E+00
  0.00000000E+00  0.00000000E+00  0.00000000E+00
  0.00000000E+00  0.00000000E+00  0.00000000E+00
  0.00000000E+00  0.00000000E+00  0.00000000E+00
