Title                                   
   1.00000000000000     
     8.5490480000000009    0.0000000000000000    0.0000000000000000
     0.0000000000000000    8.5490480000000009    0.0000000000000000
     0.0000000000000000    0.0000000000000000   20.0000000000000000
    19     5     1
Selective dynamics
Direct
  0.9080008679574012  0.2056765786741335  0.0943219955136351   T   T   T
  0.9109582189425512  0.8010973358660500  0.0941351126900754   T   T   T
  0.1960436365735491  0.0832937186805649  0.0940522852939650   T   T   T
  0.0766133568871111  0.2006556534517445  0.0945456276972668   T   T   T
  0.1553724880982265  0.6500981530227361  0.0966909062733809   T   T   T
  0.0739065934856827  0.5000090522776216  0.0972043618921613   T   T   T
  0.1552774309247274  0.3526012906987543  0.0975941630112294   T   T   T
  0.0791932758977830  0.7995178165627089  0.0940032239080297   T   T   T
  0.3460232011424388  0.1647740946341053  0.0968731877190603   T   T   T
  0.4940197093795722  0.9193305904686636  0.0969982174448180   T   T   T
  0.3443643744857046  0.8384604998884216  0.0967956876117159   T   T   T
  0.7876849350369803  0.0866996004288318  0.0944766843226221   T   T   T
  0.6413359167892254  0.1667000083335081  0.0964500130295875   T   T   T
  0.7899791526561883  0.9186210306323384  0.0946780222850883   T   T   T
  0.8298316794233283  0.6524379722469618  0.0962375714191753   T   T   T
  0.8273094632067495  0.3521436981037286  0.0961625049989635   T   T   T
  0.6429188934933648  0.8383212905304546  0.0969322728890368   T   T   T
  0.3239834049136311  0.3290591375811171  0.1004441911703667   T   T   T
  0.3218880277649283  0.6749331032478998  0.0991384466701566   T   T   T
  0.4948323610244688  0.0864680702288537  0.0967315747140623   T   T   T
  0.9048495723482598  0.5020746007504076  0.0963990642791632   T   T   T
  0.6643901463166411  0.3291019963349713  0.0982605941711176   T   T   T
  0.6692387869770083  0.6742228360935909  0.0987842660990640   T   T   T
  0.1955600580523136  0.9163871381449243  0.0937722290460358   T   T   T
  0.4918364482221569  0.5021047331169273  0.1320227958501955   T   T   T
 
  0.00000000E+00  0.00000000E+00  0.00000000E+00
  0.00000000E+00  0.00000000E+00  0.00000000E+00
  0.00000000E+00  0.00000000E+00  0.00000000E+00
  0.00000000E+00  0.00000000E+00  0.00000000E+00
  0.00000000E+00  0.00000000E+00  0.00000000E+00
  0.00000000E+00  0.00000000E+00  0.00000000E+00
  0.00000000E+00  0.00000000E+00  0.00000000E+00
  0.00000000E+00  0.00000000E+00  0.00000000E+00
  0.00000000E+00  0.00000000E+00  0.00000000E+00
  0.00000000E+00  0.00000000E+00  0.00000000E+00
  0.00000000E+00  0.00000000E+00  0.00000000E+00
  0.00000000E+00  0.00000000E+00  0.00000000E+00
  0.00000000E+00  0.00000000E+00  0.00000000E+00
  0.00000000E+00  0.00000000E+00  0.00000000E+00
  0.00000000E+00  0.00000000E+00  0.00000000E+00
  0.00000000E+00  0.00000000E+00  0.00000000E+00
  0.00000000E+00  0.00000000E+00  0.00000000E+00
  0.00000000E+00  0.00000000E+00  0.00000000E+00
  0.00000000E+00  0.00000000E+00  0.00000000E+00
  0.00000000E+00  0.00000000E+00  0.00000000E+00
  0.00000000E+00  0.00000000E+00  0.00000000E+00
  0.00000000E+00  0.00000000E+00  0.00000000E+00
  0.00000000E+00  0.00000000E+00  0.00000000E+00
  0.00000000E+00  0.00000000E+00  0.00000000E+00
  0.00000000E+00  0.00000000E+00  0.00000000E+00
