Title                                   
   1.00000000000000     
     4.9440799999999996    0.0000000000000000    0.0000000000000000
     0.0000000000000000   17.1295089999999988    0.0000000000000000
     0.0000000000000000    0.0000000000000000   20.0000000000000000
    29     2     1
Selective dynamics
Direct
 -0.0000037733824283  0.1050662281214219  0.2826150555931554   T   T   T
  0.2498728615680028  0.1468303249096398  0.2872670791385417   T   T   T
  0.2498595893788274  0.2291998301613816  0.2992767130480376   T   T   T
  0.0028128420897051  0.3499285500199976  0.3241876951230832   T   T   T
 -0.0014607086607192  0.2705130298214554  0.3052985018092677   T   T   T
 -0.0032212133725345  0.6052027225633825  0.3087496512517879   T   T   T
  0.2499601077456340  0.7285045426156449  0.2893735662158298   T   T   T
  0.0001615880043215  0.8540066286728411  0.2779038502575988   T   T   T
  0.2499251899819823  0.8959901914486034  0.2764273119311500   T   T   T
  0.2498833300748105  0.9797078215176466  0.2760032298292386   T   T   T
  0.0002670942352846  0.7705006749343902  0.2840058045196032   T   T   T
  0.4997238923599103  0.1050657427184944  0.2826178479919327   T   T   T
  0.7498740218137911  0.1469152895545301  0.2863487706645914   T   T   T
  0.7498674831726884  0.2292374783760267  0.2965864526231993   T   T   T
  0.4998987651105652  0.0216861819993267  0.2771420371832487   T   T   T
  0.4968903975335723  0.3499278835263374  0.3241814370870965   T   T   T
  0.7498875256236651  0.4790326891622053  0.3248830161846679   T   T   T
  0.5011666447894956  0.2705144929655350  0.3052955593782339   T   T   T
  0.5031412416744975  0.6052132946555939  0.3087495414528271   T   T   T
  0.7499714269998888  0.7292253620687235  0.2875434018765900   T   T   T
  0.4997114133453730  0.8540030397058652  0.2779041537711586   T   T   T
  0.7499071632767851  0.8958903086377534  0.2760763785041560   T   T   T
  0.7498851641457702  0.9796630127894181  0.2756778837630316   T   T   T
  0.4995834545011101  0.7704972481514145  0.2840056319483690   T   T   T
  0.7499363992024920  0.6465348686418403  0.2985554172495607   T   T   T
  0.2499321563618607  0.6459366561638314  0.3029916404730830   T   T   T
 -0.0001107336760759  0.0216859847098162  0.2771396689775454   T   T   T
  0.5104201746261376  0.5240076036028554  0.3276728322439549   T   T   T
  0.9894118485381548  0.5239908101822139  0.3276683313812947   T   T   T
  0.2498550062529873  0.3838992267669005  0.3428309599231602   T   T   T
  0.7498452884525502  0.3937463369066789  0.3299169078118524   T   T   T
  0.2499673582318999  0.4864269439282258  0.3976686707931032   T   T   T
 
  0.00000000E+00  0.00000000E+00  0.00000000E+00
  0.00000000E+00  0.00000000E+00  0.00000000E+00
  0.00000000E+00  0.00000000E+00  0.00000000E+00
  0.00000000E+00  0.00000000E+00  0.00000000E+00
  0.00000000E+00  0.00000000E+00  0.00000000E+00
  0.00000000E+00  0.00000000E+00  0.00000000E+00
  0.00000000E+00  0.00000000E+00  0.00000000E+00
  0.00000000E+00  0.00000000E+00  0.00000000E+00
  0.00000000E+00  0.00000000E+00  0.00000000E+00
  0.00000000E+00  0.00000000E+00  0.00000000E+00
  0.00000000E+00  0.00000000E+00  0.00000000E+00
  0.00000000E+00  0.00000000E+00  0.00000000E+00
  0.00000000E+00  0.00000000E+00  0.00000000E+00
  0.00000000E+00  0.00000000E+00  0.00000000E+00
  0.00000000E+00  0.00000000E+00  0.00000000E+00
  0.00000000E+00  0.00000000E+00  0.00000000E+00
  0.00000000E+00  0.00000000E+00  0.00000000E+00
  0.00000000E+00  0.00000000E+00  0.00000000E+00
  0.00000000E+00  0.00000000E+00  0.00000000E+00
  0.00000000E+00  0.00000000E+00  0.00000000E+00
  0.00000000E+00  0.00000000E+00  0.00000000E+00
  0.00000000E+00  0.00000000E+00  0.00000000E+00
  0.00000000E+00  0.00000000E+00  0.00000000E+00
  0.00000000E+00  0.00000000E+00  0.00000000E+00
  0.00000000E+00  0.00000000E+00  0.00000000E+00
  0.00000000E+00  0.00000000E+00  0.00000000E+00
  0.00000000E+00  0.00000000E+00  0.00000000E+00
  0.00000000E+00  0.00000000E+00  0.00000000E+00
  0.00000000E+00  0.00000000E+00  0.00000000E+00
  0.00000000E+00  0.00000000E+00  0.00000000E+00
  0.00000000E+00  0.00000000E+00  0.00000000E+00
  0.00000000E+00  0.00000000E+00  0.00000000E+00
