Title                                   
   1.00000000000000     
     8.5490480000000009    0.0000000000000000    0.0000000000000000
     0.0000000000000000    8.5490480000000009    0.0000000000000000
     0.0000000000000000    0.0000000000000000   20.0000000000000000
    23     1     1
Selective dynamics
Direct
  0.9099751572316170  0.2064760903437016  0.0976805728003839   T   T   T
  0.9095436810729050  0.5027365218861579  0.0976863714886762   T   T   T
  0.9121786868507654  0.8000801764325662  0.0976943257157187   T   T   T
  0.1988327655225915  0.0823006889345572  0.0978048006280312   T   T   T
  0.0746024107425205  0.2043586859338924  0.0977505211987950   T   T   T
  0.1605478567613928  0.6485966358616581  0.0977595305054452   T   T   T
  0.0779533699340724  0.5016036233222056  0.0977204268890716   T   T   T
  0.1594957204990971  0.3554001729365809  0.0977814193863527   T   T   T
  0.0779168722539916  0.7977361774178893  0.0977710285815020   T   T   T
  0.4923417731693798  0.0855663305941982  0.0977790033891928   T   T   T
  0.3460837467924107  0.1654122781041719  0.0978143753754625   T   T   T
  0.4916549572820625  0.9175793109624351  0.0977356627338837   T   T   T
  0.3464882616455138  0.8346430814976680  0.0977719445197955   T   T   T
  0.7867233441086465  0.0843902039230778  0.0976968835037048   T   T   T
  0.6374116900573140  0.1687251791791805  0.0977730317281158   T   T   T
  0.7874705849797080  0.9205681607621090  0.0976932629353447   T   T   T
  0.8290404858207723  0.6492945097909189  0.0976809491958787   T   T   T
  0.8264596810699368  0.3566847358112135  0.0977135020531319   T   T   T
  0.6377568138489990  0.8347554680491651  0.0977024308508406   T   T   T
  0.3261974654328422  0.3353570088700025  0.0978242979586585   T   T   T
  0.3264589741342231  0.6686398265419419  0.0977666320841767   T   T   T
  0.6581065915542402  0.3366206964658226  0.0977719573888650   T   T   T
  0.6596099423104219  0.6682762721254396  0.0977048740929812   T   T   T
  0.1988084692373362  0.9180114187207002  0.0978493785370845   T   T   T
  0.4937526976872249  0.5009767455327540  0.0977778164588864   T   T   T
 
  0.00000000E+00  0.00000000E+00  0.00000000E+00
  0.00000000E+00  0.00000000E+00  0.00000000E+00
  0.00000000E+00  0.00000000E+00  0.00000000E+00
  0.00000000E+00  0.00000000E+00  0.00000000E+00
  0.00000000E+00  0.00000000E+00  0.00000000E+00
  0.00000000E+00  0.00000000E+00  0.00000000E+00
  0.00000000E+00  0.00000000E+00  0.00000000E+00
  0.00000000E+00  0.00000000E+00  0.00000000E+00
  0.00000000E+00  0.00000000E+00  0.00000000E+00
  0.00000000E+00  0.00000000E+00  0.00000000E+00
  0.00000000E+00  0.00000000E+00  0.00000000E+00
  0.00000000E+00  0.00000000E+00  0.00000000E+00
  0.00000000E+00  0.00000000E+00  0.00000000E+00
  0.00000000E+00  0.00000000E+00  0.00000000E+00
  0.00000000E+00  0.00000000E+00  0.00000000E+00
  0.00000000E+00  0.00000000E+00  0.00000000E+00
  0.00000000E+00  0.00000000E+00  0.00000000E+00
  0.00000000E+00  0.00000000E+00  0.00000000E+00
  0.00000000E+00  0.00000000E+00  0.00000000E+00
  0.00000000E+00  0.00000000E+00  0.00000000E+00
  0.00000000E+00  0.00000000E+00  0.00000000E+00
  0.00000000E+00  0.00000000E+00  0.00000000E+00
  0.00000000E+00  0.00000000E+00  0.00000000E+00
  0.00000000E+00  0.00000000E+00  0.00000000E+00
  0.00000000E+00  0.00000000E+00  0.00000000E+00
