Title                                   
   1.00000000000000     
     8.5490480000000009    0.0000000000000000    0.0000000000000000
     0.0000000000000000    8.5490480000000009    0.0000000000000000
     0.0000000000000000    0.0000000000000000   20.0000000000000000
    24     1
Selective dynamics
Direct
  0.9113048785140025  0.2061341719455239  0.0954490442372362   T   T   T
  0.9091043751837805  0.5018049872338564  0.0953106972012543   T   T   T
  0.9113245366175722  0.7974445171104786  0.0954659243071865   T   T   T
  0.1973609797367974  0.0834715467978235  0.0954779407182702   T   T   T
  0.0746996722448307  0.2061111828923931  0.0954594689028017   T   T   T
  0.1973603601208532  0.9200714708578230  0.0954851753972099   T   T   T
  0.1574348891507892  0.6485635545045269  0.0953568248962492   T   T   T
  0.0769215800057185  0.5017936667436459  0.0953314383254043   T   T   T
  0.1574190062675461  0.3549957509792609  0.0953460601608958   T   T   T
  0.0747104706697842  0.7974275007336332  0.0954741762769220   T   T   T
  0.4929857640541367  0.0856957661794306  0.0953592891107120   T   T   T
  0.3462157019038633  0.1662006955545673  0.0953649635162470   T   T   T
  0.4929923265264909  0.9178814579998850  0.0953669586550207   T   T   T
  0.3462158759522592  0.8373844147369587  0.0953743849618760   T   T   T
  0.7886410365860381  0.0834971930686778  0.0954619906349360   T   T   T
  0.6397630766245066  0.1662081864121731  0.0953388968053314   T   T   T
  0.7886638631640125  0.9200904263658796  0.0954680304875555   T   T   T
  0.8286035113655116  0.6485901583817254  0.0953233592666313   T   T   T
  0.8286049542436669  0.3550114108038754  0.0953077684257354   T   T   T
  0.6397812826236022  0.8373796669874606  0.0953423065922146   T   T   T
  0.3244661637627759  0.3332281575459158  0.0952369610429298   T   T   T
  0.3244756352919994  0.6703689438788942  0.0952567926264019   T   T   T
  0.6615894449124090  0.3332334377004738  0.0951969240800597   T   T   T
  0.6615922745526943  0.6703701828796778  0.0952061226290709   T   T   T
  0.4931803399243518  0.5018315517054527  0.0949435007418256   T   T   T
 
  0.00000000E+00  0.00000000E+00  0.00000000E+00
  0.00000000E+00  0.00000000E+00  0.00000000E+00
  0.00000000E+00  0.00000000E+00  0.00000000E+00
  0.00000000E+00  0.00000000E+00  0.00000000E+00
  0.00000000E+00  0.00000000E+00  0.00000000E+00
  0.00000000E+00  0.00000000E+00  0.00000000E+00
  0.00000000E+00  0.00000000E+00  0.00000000E+00
  0.00000000E+00  0.00000000E+00  0.00000000E+00
  0.00000000E+00  0.00000000E+00  0.00000000E+00
  0.00000000E+00  0.00000000E+00  0.00000000E+00
  0.00000000E+00  0.00000000E+00  0.00000000E+00
  0.00000000E+00  0.00000000E+00  0.00000000E+00
  0.00000000E+00  0.00000000E+00  0.00000000E+00
  0.00000000E+00  0.00000000E+00  0.00000000E+00
  0.00000000E+00  0.00000000E+00  0.00000000E+00
  0.00000000E+00  0.00000000E+00  0.00000000E+00
  0.00000000E+00  0.00000000E+00  0.00000000E+00
  0.00000000E+00  0.00000000E+00  0.00000000E+00
  0.00000000E+00  0.00000000E+00  0.00000000E+00
  0.00000000E+00  0.00000000E+00  0.00000000E+00
  0.00000000E+00  0.00000000E+00  0.00000000E+00
  0.00000000E+00  0.00000000E+00  0.00000000E+00
  0.00000000E+00  0.00000000E+00  0.00000000E+00
  0.00000000E+00  0.00000000E+00  0.00000000E+00
  0.00000000E+00  0.00000000E+00  0.00000000E+00
