Title                                   
   1.00000000000000     
     4.9440799999999996    0.0000000000000000    0.0000000000000000
     0.0000000000000000   17.1295089999999988    0.0000000000000000
     0.0000000000000000    0.0000000000000000   20.0000000000000000
    30     1     1
Selective dynamics
Direct
 -0.0003094889301390  0.1040543924647735  0.2818428139002920   T   T   T
  0.2498222584087053  0.1456421257330207  0.2852292281457227   T   T   T
  0.2498748936979951  0.2281748472232335  0.2947067092584973   T   T   T
  0.0008177956269386  0.3510159731103152  0.3143003397335360   T   T   T
 -0.0005653474984383  0.2692379601514752  0.3001418760499991   T   T   T
 -0.0013487305338017  0.6071692730844427  0.3166600483869293   T   T   T
  0.2498766583925927  0.7295484848057997  0.2964159524322693   T   T   T
 -0.0000340216699169  0.8540931969147090  0.2827442402700870   T   T   T
  0.2498349014685709  0.8958812380249267  0.2802306063804661   T   T   T
  0.2497906011114650  0.9790357712375786  0.2779403249839531   T   T   T
  0.0000039635563221  0.7712940172343622  0.2905230135583551   T   T   T
  0.4999381909170653  0.1040598716992337  0.2818411696199823   T   T   T
  0.7498367050078393  0.1455670076269512  0.2849038155911273   T   T   T
  0.7498819992472701  0.2283544945495485  0.2938740723017909   T   T   T
  0.4999589905488715  0.0208175902134312  0.2781866535342129   T   T   T
  0.4990365015147183  0.3510184108120908  0.3142924991074465   T   T   T
  0.7499539998729314  0.3943201865394879  0.3204280528109950   T   T   T
  0.7500614169880240  0.4798261011420841  0.3278388992868552   T   T   T
  0.5003771711912411  0.2692385796104811  0.3001346100513032   T   T   T
  0.5012582487913181  0.6071795706543093  0.3166217479070932   T   T   T
  0.7499000640702697  0.7303586405814165  0.2952558044662734   T   T   T
  0.4996990600265577  0.8540872554881814  0.2827420228832728   T   T   T
  0.7498316018319320  0.8956356892379208  0.2800669353595621   T   T   T
  0.7497880302836527  0.9790876311900989  0.2777949235399640   T   T   T
  0.4997453307466029  0.7712838005985915  0.2905186156292289   T   T   T
  0.7499475666994083  0.6482479358215600  0.3079904478228120   T   T   T
  0.2499098279672576  0.6481134519710610  0.3100140092433559   T   T   T
 -0.0003875728885218  0.0208142798279643  0.2781856698734547   T   T   T
  0.5135799590984443  0.5263502524553928  0.3321408952578948   T   T   T
  0.9865278809966864  0.5263414243231116  0.3322415091005267   T   T   T
  0.2499359641412457  0.3867614439614661  0.3241284252143324   T   T   T
  0.2502785793168976  0.4759401017109728  0.3726290682983601   T   T   T
 
  0.00000000E+00  0.00000000E+00  0.00000000E+00
  0.00000000E+00  0.00000000E+00  0.00000000E+00
  0.00000000E+00  0.00000000E+00  0.00000000E+00
  0.00000000E+00  0.00000000E+00  0.00000000E+00
  0.00000000E+00  0.00000000E+00  0.00000000E+00
  0.00000000E+00  0.00000000E+00  0.00000000E+00
  0.00000000E+00  0.00000000E+00  0.00000000E+00
  0.00000000E+00  0.00000000E+00  0.00000000E+00
  0.00000000E+00  0.00000000E+00  0.00000000E+00
  0.00000000E+00  0.00000000E+00  0.00000000E+00
  0.00000000E+00  0.00000000E+00  0.00000000E+00
  0.00000000E+00  0.00000000E+00  0.00000000E+00
  0.00000000E+00  0.00000000E+00  0.00000000E+00
  0.00000000E+00  0.00000000E+00  0.00000000E+00
  0.00000000E+00  0.00000000E+00  0.00000000E+00
  0.00000000E+00  0.00000000E+00  0.00000000E+00
  0.00000000E+00  0.00000000E+00  0.00000000E+00
  0.00000000E+00  0.00000000E+00  0.00000000E+00
  0.00000000E+00  0.00000000E+00  0.00000000E+00
  0.00000000E+00  0.00000000E+00  0.00000000E+00
  0.00000000E+00  0.00000000E+00  0.00000000E+00
  0.00000000E+00  0.00000000E+00  0.00000000E+00
  0.00000000E+00  0.00000000E+00  0.00000000E+00
  0.00000000E+00  0.00000000E+00  0.00000000E+00
  0.00000000E+00  0.00000000E+00  0.00000000E+00
  0.00000000E+00  0.00000000E+00  0.00000000E+00
  0.00000000E+00  0.00000000E+00  0.00000000E+00
  0.00000000E+00  0.00000000E+00  0.00000000E+00
  0.00000000E+00  0.00000000E+00  0.00000000E+00
  0.00000000E+00  0.00000000E+00  0.00000000E+00
  0.00000000E+00  0.00000000E+00  0.00000000E+00
  0.00000000E+00  0.00000000E+00  0.00000000E+00
