Title                                   
   1.00000000000000     
     4.9440799999999996    0.0000000000000000    0.0000000000000000
     0.0000000000000000   17.1295089999999988    0.0000000000000000
     0.0000000000000000    0.0000000000000000   20.0000000000000000
    26     4     1
Selective dynamics
Direct
  0.0014587735609350  0.1056675142973432  0.2977251058599618   T   T   T
  0.2503249593226885  0.1484184449655452  0.2984979165904784   T   T   T
  0.2503342644888000  0.2331398656815504  0.3001898248795119   T   T   T
 -0.0026109997190025  0.2739572716841558  0.3009300108527013   T   T   T
 -0.0026360760870074  0.6009650650603258  0.3012074410588557   T   T   T
  0.2503361407583461  0.7265165819929681  0.2987987136182034   T   T   T
  0.0009012751968742  0.8532425096032223  0.2969773285351436   T   T   T
  0.2503199056152718  0.8954701030153596  0.2966902739611470   T   T   T
  0.2503122274028353  0.9794637740946714  0.2965786427241848   T   T   T
  0.0014642251893328  0.7692583561807902  0.2979990415661337   T   T   T
  0.4991744390958922  0.1056607756621824  0.2977243928204428   T   T   T
  0.7503072268210775  0.1473973105428077  0.2983351494767651   T   T   T
  0.7503186263852019  0.2306157598456367  0.2999135366026254   T   T   T
  0.4996759441552631  0.0217012511072480  0.2967982975115761   T   T   T
  0.7503504289901981  0.3939815715504135  0.3025608729679824   T   T   T
  0.7503506926621747  0.4809355417726889  0.3026440147692054   T   T   T
  0.5032888573521963  0.2739667380352160  0.3009243851972399   T   T   T
  0.5033097732547068  0.6009653549127061  0.3012076537990352   T   T   T
  0.7502918734567168  0.7275252474836560  0.2986374060308928   T   T   T
  0.4996818796796370  0.8532343180508513  0.2969769076894553   T   T   T
  0.7502690610321132  0.8954827308549645  0.2966658972430371   T   T   T
  0.7502518725935095  0.9794473424898064  0.2965543306016636   T   T   T
  0.4991640019249349  0.7692660642579574  0.2979953626265670   T   T   T
  0.7503129562288096  0.6443101611215685  0.3001830952037036   T   T   T
  0.2503410303745225  0.6417900724834119  0.3004712447857074   T   T   T
  0.0008889335327099  0.0216919764737725  0.2967998971401352   T   T   T
  0.5129767674084652  0.5207269289499743  0.3027084572724567   T   T   T
  0.9877407641156377  0.5207216008759543  0.3026961718814982   T   T   T
  0.5129727309180084  0.3541849275433512  0.3024905352558431   T   T   T
 -0.0122718445632378  0.3541846896380875  0.3024887768456259   T   T   T
  0.2504062888523912  0.4374521497718080  0.3046893146321718   T   T   T
 
  0.00000000E+00  0.00000000E+00  0.00000000E+00
  0.00000000E+00  0.00000000E+00  0.00000000E+00
  0.00000000E+00  0.00000000E+00  0.00000000E+00
  0.00000000E+00  0.00000000E+00  0.00000000E+00
  0.00000000E+00  0.00000000E+00  0.00000000E+00
  0.00000000E+00  0.00000000E+00  0.00000000E+00
  0.00000000E+00  0.00000000E+00  0.00000000E+00
  0.00000000E+00  0.00000000E+00  0.00000000E+00
  0.00000000E+00  0.00000000E+00  0.00000000E+00
  0.00000000E+00  0.00000000E+00  0.00000000E+00
  0.00000000E+00  0.00000000E+00  0.00000000E+00
  0.00000000E+00  0.00000000E+00  0.00000000E+00
  0.00000000E+00  0.00000000E+00  0.00000000E+00
  0.00000000E+00  0.00000000E+00  0.00000000E+00
  0.00000000E+00  0.00000000E+00  0.00000000E+00
  0.00000000E+00  0.00000000E+00  0.00000000E+00
  0.00000000E+00  0.00000000E+00  0.00000000E+00
  0.00000000E+00  0.00000000E+00  0.00000000E+00
  0.00000000E+00  0.00000000E+00  0.00000000E+00
  0.00000000E+00  0.00000000E+00  0.00000000E+00
  0.00000000E+00  0.00000000E+00  0.00000000E+00
  0.00000000E+00  0.00000000E+00  0.00000000E+00
  0.00000000E+00  0.00000000E+00  0.00000000E+00
  0.00000000E+00  0.00000000E+00  0.00000000E+00
  0.00000000E+00  0.00000000E+00  0.00000000E+00
  0.00000000E+00  0.00000000E+00  0.00000000E+00
  0.00000000E+00  0.00000000E+00  0.00000000E+00
  0.00000000E+00  0.00000000E+00  0.00000000E+00
  0.00000000E+00  0.00000000E+00  0.00000000E+00
  0.00000000E+00  0.00000000E+00  0.00000000E+00
  0.00000000E+00  0.00000000E+00  0.00000000E+00
