Title                                   
   1.00000000000000     
     9.8694509999999998    0.0000000000000000    0.0000000000000000
     0.0000000000000000    8.5490480000000009    0.0000000000000000
     0.0000000000000000    0.0000000000000000   20.0000000000000000
    28     3     1
Selective dynamics
Direct
  0.0566017059858804  0.0916872918547015  0.0881779383723110   T   T   T
  0.9310881922710357  0.1753811227447740  0.0897994447443405   T   T   T
  0.0583348587342260  0.9243853571683671  0.0864792439828614   T   T   T
  0.9290842966958800  0.3431149443617532  0.0918257452347261   T   T   T
  0.0560563373137362  0.5902887584110148  0.0899281830315111   T   T   T
  0.9325023134202962  0.6747354609036436  0.0876435441223017   T   T   T
  0.0563800773782631  0.4238748340577677  0.0920018175798332   T   T   T
  0.9331017488948165  0.8418016546056685  0.0860022746450343   T   T   T
  0.3063911576782077  0.0871298173545915  0.0890510945025411   T   T   T
  0.1827214810738947  0.1739791129622748  0.0903692269242741   T   T   T
  0.3088762572970135  0.9212978143256934  0.0888497773203150   T   T   T
  0.1816759497969186  0.3399211643751190  0.0944920279551843   T   T   T
  0.3063143994040249  0.5880302991805813  0.1002952139416697   T   T   T
  0.1818059828180300  0.6713126321963101  0.0909314241451976   T   T   T
  0.1834053865532685  0.8378594507902219  0.0883203986236145   T   T   T
  0.5567145013302327  0.0854077274882107  0.0927323783414466   T   T   T
  0.4311495502962089  0.1687541704309882  0.0931801687926908   T   T   T
  0.4306950427694953  0.3350931552188319  0.1038829937618800   T   T   T
  0.4327809224552632  0.8346346066977992  0.0956794541663258   T   T   T
  0.8070962965263062  0.0913926130992668  0.0887314852668265   T   T   T
  0.6801033451150942  0.1717268066330439  0.0926856826866980   T   T   T
  0.8083131747699541  0.9264422190909063  0.0867120217131692   T   T   T
  0.6772136559959938  0.3388416397587810  0.1010868835014816   T   T   T
  0.8045866226062469  0.5965404753446046  0.0897765149790829   T   T   T
  0.8025230623146155  0.4271337742114254  0.0947459897579948   T   T   T
  0.6861314496112024  0.8367607482007479  0.0881756717534594   T   T   T
  0.4260392385383936  0.6732629177002928  0.1093864253726464   T   T   T
  0.5516585438283200  0.4108324475202800  0.1173527803351184   T   T   T
  0.6873014009157551  0.6818094470779117  0.0882997123538310   T   T   T
  0.5584711913259750  0.9181073077830231  0.0921041027881861   T   T   T
  0.3052967004259365  0.4213592497366905  0.1010924571015952   T   T   T
  0.5492241558595223  0.5873469787147167  0.1958829222018676   T   T   T
 
  0.00000000E+00  0.00000000E+00  0.00000000E+00
  0.00000000E+00  0.00000000E+00  0.00000000E+00
  0.00000000E+00  0.00000000E+00  0.00000000E+00
  0.00000000E+00  0.00000000E+00  0.00000000E+00
  0.00000000E+00  0.00000000E+00  0.00000000E+00
  0.00000000E+00  0.00000000E+00  0.00000000E+00
  0.00000000E+00  0.00000000E+00  0.00000000E+00
  0.00000000E+00  0.00000000E+00  0.00000000E+00
  0.00000000E+00  0.00000000E+00  0.00000000E+00
  0.00000000E+00  0.00000000E+00  0.00000000E+00
  0.00000000E+00  0.00000000E+00  0.00000000E+00
  0.00000000E+00  0.00000000E+00  0.00000000E+00
  0.00000000E+00  0.00000000E+00  0.00000000E+00
  0.00000000E+00  0.00000000E+00  0.00000000E+00
  0.00000000E+00  0.00000000E+00  0.00000000E+00
  0.00000000E+00  0.00000000E+00  0.00000000E+00
  0.00000000E+00  0.00000000E+00  0.00000000E+00
  0.00000000E+00  0.00000000E+00  0.00000000E+00
  0.00000000E+00  0.00000000E+00  0.00000000E+00
  0.00000000E+00  0.00000000E+00  0.00000000E+00
  0.00000000E+00  0.00000000E+00  0.00000000E+00
  0.00000000E+00  0.00000000E+00  0.00000000E+00
  0.00000000E+00  0.00000000E+00  0.00000000E+00
  0.00000000E+00  0.00000000E+00  0.00000000E+00
  0.00000000E+00  0.00000000E+00  0.00000000E+00
  0.00000000E+00  0.00000000E+00  0.00000000E+00
  0.00000000E+00  0.00000000E+00  0.00000000E+00
  0.00000000E+00  0.00000000E+00  0.00000000E+00
  0.00000000E+00  0.00000000E+00  0.00000000E+00
  0.00000000E+00  0.00000000E+00  0.00000000E+00
  0.00000000E+00  0.00000000E+00  0.00000000E+00
  0.00000000E+00  0.00000000E+00  0.00000000E+00
