Title                                   
   1.00000000000000     
     8.5490480000000009    0.0000000000000000    0.0000000000000000
     0.0000000000000000    8.5490480000000009    0.0000000000000000
     0.0000000000000000    0.0000000000000000   20.0000000000000000
    21     3     1
Selective dynamics
Direct
  0.9091976430562616  0.2047026607161370  0.0974961563916051   T   T   T
  0.9036848029897930  0.5026403890772061  0.0977109510509505   T   T   T
  0.9111333399201849  0.8019860551159267  0.0974572879298946   T   T   T
  0.1996419926543700  0.0827153334449904  0.0977519244019806   T   T   T
  0.0752251713046754  0.2043882024841847  0.0975867947470344   T   T   T
  0.1550926626166263  0.6497305433104912  0.0976848938923536   T   T   T
  0.0724199536273280  0.5015341044530786  0.0976669876921291   T   T   T
  0.1535050386541407  0.3542059324053696  0.0977175976629436   T   T   T
  0.0782990014501533  0.7977107854653123  0.0975800021069208   T   T   T
  0.4947534816568905  0.0863779554307009  0.0978240508875335   T   T   T
  0.3469996826720153  0.1637143309378734  0.0978966535126250   T   T   T
  0.4939032049892861  0.9171356602303732  0.0977348442864084   T   T   T
  0.3469982952516517  0.8370461088566147  0.0978085675324143   T   T   T
  0.7891026262327536  0.0856870865688124  0.0974234195686228   T   T   T
  0.6426912764928056  0.1658474716811203  0.0977833996829665   T   T   T
  0.7898588905510536  0.9193737660162682  0.0973718132000513   T   T   T
  0.8281153131649203  0.6528937060467415  0.0976929389482855   T   T   T
  0.8263111312924108  0.3528946985500448  0.0977319118515590   T   T   T
  0.6430102258688022  0.8375785912199669  0.0976466081271568   T   T   T
  0.3223088627884008  0.3333280165606451  0.0980103656717548   T   T   T
  0.3224527775560424  0.6709647248607851  0.0978756388665735   T   T   T
  0.6659434180597028  0.3277393559348738  0.0980329479957047   T   T   T
  0.6674321782700429  0.6768921736077202  0.0979178976480264   T   T   T
  0.1998181695752496  0.9181902558498127  0.0977509118648475   T   T   T
  0.4875128593044332  0.4995120911749705  0.0985504344796306   T   T   T
 
  0.00000000E+00  0.00000000E+00  0.00000000E+00
  0.00000000E+00  0.00000000E+00  0.00000000E+00
  0.00000000E+00  0.00000000E+00  0.00000000E+00
  0.00000000E+00  0.00000000E+00  0.00000000E+00
  0.00000000E+00  0.00000000E+00  0.00000000E+00
  0.00000000E+00  0.00000000E+00  0.00000000E+00
  0.00000000E+00  0.00000000E+00  0.00000000E+00
  0.00000000E+00  0.00000000E+00  0.00000000E+00
  0.00000000E+00  0.00000000E+00  0.00000000E+00
  0.00000000E+00  0.00000000E+00  0.00000000E+00
  0.00000000E+00  0.00000000E+00  0.00000000E+00
  0.00000000E+00  0.00000000E+00  0.00000000E+00
  0.00000000E+00  0.00000000E+00  0.00000000E+00
  0.00000000E+00  0.00000000E+00  0.00000000E+00
  0.00000000E+00  0.00000000E+00  0.00000000E+00
  0.00000000E+00  0.00000000E+00  0.00000000E+00
  0.00000000E+00  0.00000000E+00  0.00000000E+00
  0.00000000E+00  0.00000000E+00  0.00000000E+00
  0.00000000E+00  0.00000000E+00  0.00000000E+00
  0.00000000E+00  0.00000000E+00  0.00000000E+00
  0.00000000E+00  0.00000000E+00  0.00000000E+00
  0.00000000E+00  0.00000000E+00  0.00000000E+00
  0.00000000E+00  0.00000000E+00  0.00000000E+00
  0.00000000E+00  0.00000000E+00  0.00000000E+00
  0.00000000E+00  0.00000000E+00  0.00000000E+00
