Title                                   
   1.00000000000000     
     4.9440799999999996    0.0000000000000000    0.0000000000000000
     0.0000000000000000    8.5647549999999999    0.0000000000000000
     0.0000000000000000    0.0000000000000000   20.0000000000000000
    12     2     1
Selective dynamics
Direct
  0.2500000000000000  0.2060575804418746  0.1004005454433157   T   T   T
  0.0006986153726338  0.2940983875907677  0.1003940437656962   T   T   T
  0.2500000000000000  0.0367523158501342  0.1004356761089148   T   T   T
 -0.0031685618891968  0.9529189205385531  0.1005043459242004   T   T   T
  0.7500000000000000  0.2097522627258271  0.1003557569440653   T   T   T
  0.4993013846273661  0.2940983875907677  0.1003940437656962   T   T   T
  0.7500000000000000  0.0400030047881280  0.1003970086237493   T   T   T
  0.7500000000000000  0.7170370868352438  0.1007354051076578   T   T   T
  0.7500000000000000  0.5418758791119122  0.1006400164964707   T   T   T
  0.5031685618891966  0.9529189205385531  0.1005043459242004   T   T   T
  0.5010875665769088  0.4624188839630252  0.1005433303835198   T   T   T
 -0.0010875665769090  0.4624188839630252  0.1005433303835198   T   T   T
 -0.0114025938383135  0.7910741936117990  0.1006981471877792   T   T   T
  0.5114025938383133  0.7910741936117990  0.1006981471877792   T   T   T
  0.2500000000000000  0.6191820988385922  0.1007358567534389   T   T   T
 
  0.00000000E+00  0.00000000E+00  0.00000000E+00
  0.00000000E+00  0.00000000E+00  0.00000000E+00
  0.00000000E+00  0.00000000E+00  0.00000000E+00
  0.00000000E+00  0.00000000E+00  0.00000000E+00
  0.00000000E+00  0.00000000E+00  0.00000000E+00
  0.00000000E+00  0.00000000E+00  0.00000000E+00
  0.00000000E+00  0.00000000E+00  0.00000000E+00
  0.00000000E+00  0.00000000E+00  0.00000000E+00
  0.00000000E+00  0.00000000E+00  0.00000000E+00
  0.00000000E+00  0.00000000E+00  0.00000000E+00
  0.00000000E+00  0.00000000E+00  0.00000000E+00
  0.00000000E+00  0.00000000E+00  0.00000000E+00
  0.00000000E+00  0.00000000E+00  0.00000000E+00
  0.00000000E+00  0.00000000E+00  0.00000000E+00
  0.00000000E+00  0.00000000E+00  0.00000000E+00
