Title                                   
   1.00000000000000     
     9.8694509999999998    0.0000000000000000    0.0000000000000000
     0.0000000000000000    8.5490480000000009    0.0000000000000000
     0.0000000000000000    0.0000000000000000   20.0000000000000000
    25     5     1
Selective dynamics
Direct
  0.0558337011150239  0.0898166232323652  0.0869295373140941   T   T   T
  0.9316914306625449  0.1726167818425717  0.0881324315812916   T   T   T
  0.0572618865792968  0.9230247906151438  0.0873117624293875   T   T   T
  0.9321045982385394  0.3402615526801395  0.0866768276900977   T   T   T
  0.0567592664243901  0.5900609869199183  0.0837090622291515   T   T   T
  0.9319302801305596  0.6724527556364152  0.0869046273404098   T   T   T
  0.0567220789595325  0.4232305231970779  0.0836222784917983   T   T   T
  0.9319343566317622  0.8392048649962365  0.0884527973180030   T   T   T
  0.3052012348644449  0.0884979978229242  0.0938192654171066   T   T   T
  0.1809871948227785  0.1720970257324592  0.0883572077269207   T   T   T
  0.1811712080440915  0.3397079862360798  0.0869828874321726   T   T   T
  0.3063130501743710  0.5921755030587358  0.0950671558975557   T   T   T
  0.1815497250925188  0.6731159262584986  0.0870937794818604   T   T   T
  0.3065883386850067  0.4198457005068699  0.0953261447596863   T   T   T
  0.1814635984867461  0.8403124029494509  0.0887638580293272   T   T   T
  0.5565229539080828  0.0920170569664154  0.1035654265063043   T   T   T
  0.4275166278581814  0.1763128243802593  0.1019400887308216   T   T   T
  0.5550263681226962  0.9209085713272899  0.1031342347665682   T   T   T
  0.4270635686554138  0.8351547169434340  0.1014513391813293   T   T   T
  0.8067563173126110  0.0892721404275219  0.0933967224121132   T   T   T
  0.6846362515838154  0.1775032049457130  0.1012608257225060   T   T   T
  0.8067432128517664  0.9223003032469151  0.0933866069491664   T   T   T
  0.8061937480538964  0.5929046434252754  0.0947177150336549   T   T   T
  0.8062947162748179  0.4192161485798307  0.0947691950038030   T   T   T
  0.6838696778447430  0.8337350931810246  0.1008849141057220   T   T   T
  0.4216112157643207  0.3359153315507803  0.1060297879394178   T   T   T
  0.4208581319581619  0.6786007090672508  0.1054323473102112   T   T   T
  0.6904031695076833  0.3376016010324684  0.1049637276840435   T   T   T
  0.6898310378431837  0.6743118034226891  0.1045329206271781   T   T   T
  0.3050199356243175  0.9237397763185279  0.0935696989828528   T   T   T
  0.5572771179247022  0.5049596534997163  0.1707798259055023   T   T   T
 
  0.00000000E+00  0.00000000E+00  0.00000000E+00
  0.00000000E+00  0.00000000E+00  0.00000000E+00
  0.00000000E+00  0.00000000E+00  0.00000000E+00
  0.00000000E+00  0.00000000E+00  0.00000000E+00
  0.00000000E+00  0.00000000E+00  0.00000000E+00
  0.00000000E+00  0.00000000E+00  0.00000000E+00
  0.00000000E+00  0.00000000E+00  0.00000000E+00
  0.00000000E+00  0.00000000E+00  0.00000000E+00
  0.00000000E+00  0.00000000E+00  0.00000000E+00
  0.00000000E+00  0.00000000E+00  0.00000000E+00
  0.00000000E+00  0.00000000E+00  0.00000000E+00
  0.00000000E+00  0.00000000E+00  0.00000000E+00
  0.00000000E+00  0.00000000E+00  0.00000000E+00
  0.00000000E+00  0.00000000E+00  0.00000000E+00
  0.00000000E+00  0.00000000E+00  0.00000000E+00
  0.00000000E+00  0.00000000E+00  0.00000000E+00
  0.00000000E+00  0.00000000E+00  0.00000000E+00
  0.00000000E+00  0.00000000E+00  0.00000000E+00
  0.00000000E+00  0.00000000E+00  0.00000000E+00
  0.00000000E+00  0.00000000E+00  0.00000000E+00
  0.00000000E+00  0.00000000E+00  0.00000000E+00
  0.00000000E+00  0.00000000E+00  0.00000000E+00
  0.00000000E+00  0.00000000E+00  0.00000000E+00
  0.00000000E+00  0.00000000E+00  0.00000000E+00
  0.00000000E+00  0.00000000E+00  0.00000000E+00
  0.00000000E+00  0.00000000E+00  0.00000000E+00
  0.00000000E+00  0.00000000E+00  0.00000000E+00
  0.00000000E+00  0.00000000E+00  0.00000000E+00
  0.00000000E+00  0.00000000E+00  0.00000000E+00
  0.00000000E+00  0.00000000E+00  0.00000000E+00
  0.00000000E+00  0.00000000E+00  0.00000000E+00
