Title                                   
   1.00000000000000     
     9.8694509999999998    0.0000000000000000    0.0000000000000000
     0.0000000000000000    8.5490480000000009    0.0000000000000000
     0.0000000000000000    0.0000000000000000   20.0000000000000000
    30     1     1
Selective dynamics
Direct
  0.0558365435085486  0.0898120531350115  0.0850558506809761   T   T   T
  0.9314572483282717  0.1726381040202465  0.0863064917237665   T   T   T
  0.0570587933605857  0.9232076974821706  0.0853604074767112   T   T   T
  0.9314443085655333  0.3397973640038892  0.0880086996880716   T   T   T
  0.0568064450640195  0.5898044954920895  0.0858154759227919   T   T   T
  0.9323291659197053  0.6724695973633222  0.0883592514791722   T   T   T
  0.0568328875814227  0.4225164430535224  0.0862692429935818   T   T   T
  0.9320563038843184  0.8392976883372987  0.0874115711363821   T   T   T
  0.3055043370931214  0.0882401448298683  0.0896242849214477   T   T   T
  0.1811713807647030  0.1718365766204225  0.0867529480120760   T   T   T
  0.1818819374782593  0.3388134309287598  0.0880802428580842   T   T   T
  0.3044055670425343  0.5891513004547740  0.0969062388693509   T   T   T
  0.1815976213599919  0.6736693961134065  0.0878114691345197   T   T   T
  0.3057544895019091  0.4221817141217450  0.0957450496699509   T   T   T
  0.1819110197058788  0.8403720329908791  0.0873278280378195   T   T   T
  0.5563180661597494  0.0884033745300670  0.0950318576342142   T   T   T
  0.4302761187440983  0.1700877136378887  0.0944967428876854   T   T   T
  0.5549588890566369  0.9231320340685513  0.0980921323134392   T   T   T
  0.4299481268977313  0.3363306259567210  0.1012778494719127   T   T   T
  0.4214744175057594  0.6791530971764199  0.1104536756074147   T   T   T
  0.5560815291882328  0.4109707197087824  0.1134667802970328   T   T   T
  0.4278623452946993  0.8416167208493628  0.0998102833036502   T   T   T
  0.8066100938284110  0.0890389306104235  0.0886391033292131   T   T   T
  0.6816395276318772  0.1713414956174437  0.0936256256486016   T   T   T
  0.8068004918156896  0.9232153382859931  0.0901879887803787   T   T   T
  0.6821879291351555  0.3370673540758059  0.1005666134209364   T   T   T
  0.8086474162412891  0.5892779081167274  0.0973149767356582   T   T   T
  0.6900256220590060  0.6773117575946879  0.1101892600772370   T   T   T
  0.8071525099570764  0.4219751596107494  0.0956085008945408   T   T   T
  0.6819483367157854  0.8403392089659261  0.0991854389824872   T   T   T
  0.3052131258235117  0.9243150359528777  0.0904201236003979   T   T   T
  0.5564464047864932  0.5928614862941747  0.1624729944105322   T   T   T
 
  0.00000000E+00  0.00000000E+00  0.00000000E+00
  0.00000000E+00  0.00000000E+00  0.00000000E+00
  0.00000000E+00  0.00000000E+00  0.00000000E+00
  0.00000000E+00  0.00000000E+00  0.00000000E+00
  0.00000000E+00  0.00000000E+00  0.00000000E+00
  0.00000000E+00  0.00000000E+00  0.00000000E+00
  0.00000000E+00  0.00000000E+00  0.00000000E+00
  0.00000000E+00  0.00000000E+00  0.00000000E+00
  0.00000000E+00  0.00000000E+00  0.00000000E+00
  0.00000000E+00  0.00000000E+00  0.00000000E+00
  0.00000000E+00  0.00000000E+00  0.00000000E+00
  0.00000000E+00  0.00000000E+00  0.00000000E+00
  0.00000000E+00  0.00000000E+00  0.00000000E+00
  0.00000000E+00  0.00000000E+00  0.00000000E+00
  0.00000000E+00  0.00000000E+00  0.00000000E+00
  0.00000000E+00  0.00000000E+00  0.00000000E+00
  0.00000000E+00  0.00000000E+00  0.00000000E+00
  0.00000000E+00  0.00000000E+00  0.00000000E+00
  0.00000000E+00  0.00000000E+00  0.00000000E+00
  0.00000000E+00  0.00000000E+00  0.00000000E+00
  0.00000000E+00  0.00000000E+00  0.00000000E+00
  0.00000000E+00  0.00000000E+00  0.00000000E+00
  0.00000000E+00  0.00000000E+00  0.00000000E+00
  0.00000000E+00  0.00000000E+00  0.00000000E+00
  0.00000000E+00  0.00000000E+00  0.00000000E+00
  0.00000000E+00  0.00000000E+00  0.00000000E+00
  0.00000000E+00  0.00000000E+00  0.00000000E+00
  0.00000000E+00  0.00000000E+00  0.00000000E+00
  0.00000000E+00  0.00000000E+00  0.00000000E+00
  0.00000000E+00  0.00000000E+00  0.00000000E+00
  0.00000000E+00  0.00000000E+00  0.00000000E+00
  0.00000000E+00  0.00000000E+00  0.00000000E+00
