Title                                   
   1.00000000000000     
     9.8694509999999998    0.0000000000000000    0.0000000000000000
     0.0000000000000000    8.5490480000000009    0.0000000000000000
     0.0000000000000000    0.0000000000000000   20.0000000000000000
    27     3     1
Selective dynamics
Direct
  0.0562382081735053  0.0895480556428985  0.0914720351346210   T   T   T
  0.9317454816765045  0.1716847896802872  0.0943080546728041   T   T   T
  0.0574801554954811  0.9234071229532786  0.0916231027849586   T   T   T
  0.9344065783332339  0.3380700627089948  0.0931463384842829   T   T   T
  0.0576179466453684  0.5902898076737866  0.0901517435983784   T   T   T
  0.9346444263557393  0.6742917977052429  0.0930990256767296   T   T   T
  0.0575141964204908  0.4226853249114083  0.0900080117499353   T   T   T
  0.9318802090728444  0.8401578313994226  0.0924128792909108   T   T   T
  0.3058354744423925  0.0885764047561747  0.0917920059077531   T   T   T
  0.1805087980725064  0.1711042096412634  0.0898598485865471   T   T   T
  0.1800183571657390  0.3388989638125334  0.0897257658164306   T   T   T
  0.3026653208341211  0.5908708849385034  0.0935146523631255   T   T   T
  0.1802893569077075  0.6739342920512021  0.0899015122594386   T   T   T
  0.3035032856444691  0.4216244808367162  0.0903423369093165   T   T   T
  0.1807342819926324  0.8411518749686764  0.0918325082085972   T   T   T
  0.5541947369859542  0.0916490527810708  0.0986693937065435   T   T   T
  0.4286255337734428  0.1765777375617659  0.0931357778338164   T   T   T
  0.5527479274903562  0.9213344412902602  0.0979015772037377   T   T   T
  0.4270644203957159  0.8356234317608960  0.0989390703065755   T   T   T
  0.8060573125166988  0.0893821600637798  0.0975055497672375   T   T   T
  0.6820075852623070  0.1756191303752746  0.1032061183231356   T   T   T
  0.8058754968383668  0.9221874419654209  0.0947984248654815   T   T   T
  0.6919876315866852  0.3398875118637040  0.1124598951361696   T   T   T
  0.8123070614508716  0.5909265087809915  0.0954749871342604   T   T   T
  0.6897319579522357  0.6710171466719987  0.0905885280355425   T   T   T
  0.8124725836416472  0.4209170035509953  0.0999055062308973   T   T   T
  0.6808441241452953  0.8356642615417773  0.0950346987074632   T   T   T
  0.4225508592812522  0.3390319170697799  0.0878122224364313   T   T   T
  0.4189129389978243  0.6757890262485076  0.1052814923468117   T   T   T
  0.3056678287322580  0.9233280399984480  0.0935590616061607   T   T   T
  0.5570049237163697  0.5056442847949471  0.1035028749159542   T   T   T
 
  0.00000000E+00  0.00000000E+00  0.00000000E+00
  0.00000000E+00  0.00000000E+00  0.00000000E+00
  0.00000000E+00  0.00000000E+00  0.00000000E+00
  0.00000000E+00  0.00000000E+00  0.00000000E+00
  0.00000000E+00  0.00000000E+00  0.00000000E+00
  0.00000000E+00  0.00000000E+00  0.00000000E+00
  0.00000000E+00  0.00000000E+00  0.00000000E+00
  0.00000000E+00  0.00000000E+00  0.00000000E+00
  0.00000000E+00  0.00000000E+00  0.00000000E+00
  0.00000000E+00  0.00000000E+00  0.00000000E+00
  0.00000000E+00  0.00000000E+00  0.00000000E+00
  0.00000000E+00  0.00000000E+00  0.00000000E+00
  0.00000000E+00  0.00000000E+00  0.00000000E+00
  0.00000000E+00  0.00000000E+00  0.00000000E+00
  0.00000000E+00  0.00000000E+00  0.00000000E+00
  0.00000000E+00  0.00000000E+00  0.00000000E+00
  0.00000000E+00  0.00000000E+00  0.00000000E+00
  0.00000000E+00  0.00000000E+00  0.00000000E+00
  0.00000000E+00  0.00000000E+00  0.00000000E+00
  0.00000000E+00  0.00000000E+00  0.00000000E+00
  0.00000000E+00  0.00000000E+00  0.00000000E+00
  0.00000000E+00  0.00000000E+00  0.00000000E+00
  0.00000000E+00  0.00000000E+00  0.00000000E+00
  0.00000000E+00  0.00000000E+00  0.00000000E+00
  0.00000000E+00  0.00000000E+00  0.00000000E+00
  0.00000000E+00  0.00000000E+00  0.00000000E+00
  0.00000000E+00  0.00000000E+00  0.00000000E+00
  0.00000000E+00  0.00000000E+00  0.00000000E+00
  0.00000000E+00  0.00000000E+00  0.00000000E+00
  0.00000000E+00  0.00000000E+00  0.00000000E+00
  0.00000000E+00  0.00000000E+00  0.00000000E+00
