Title                                   
   1.00000000000000     
     8.5490480000000009    0.0000000000000000    0.0000000000000000
     0.0000000000000000    8.5490480000000009    0.0000000000000000
     0.0000000000000000    0.0000000000000000   20.0000000000000000
    17     7     1
Selective dynamics
Direct
  0.9084531604237659  0.2042279313094635  0.0974246807018263   T   T   T
  0.9114878039644162  0.8025856316498363  0.0973513783338177   T   T   T
  0.1954061194199810  0.0823284089739549  0.0975520282205466   T   T   T
  0.0760547439368209  0.1991789015636719  0.0975196188389566   T   T   T
  0.1562825820877927  0.6530912594836693  0.0978465863221991   T   T   T
  0.0783456994028005  0.5001470820239368  0.0978420313745744   T   T   T
  0.1563485669388469  0.3483615925262904  0.0978124700186613   T   T   T
  0.0781727518730504  0.8005325695225424  0.0974815679640173   T   T   T
  0.3428742122768824  0.1641220019617451  0.0978498970356919   T   T   T
  0.4931968566235467  0.9178391154085619  0.0978554991835690   T   T   T
  0.3419502612990620  0.8384175157689063  0.0979685023757068   T   T   T
  0.7891235979456920  0.0862558628466651  0.0974170235581533   T   T   T
  0.6426410349716476  0.1677048753634230  0.0976268640421675   T   T   T
  0.7915772275481305  0.9192924221867992  0.0974033831859377   T   T   T
  0.8303749537756334  0.6526924098735603  0.0976378197170401   T   T   T
  0.8281305938820696  0.3516701608147162  0.0975879670238477   T   T   T
  0.6441182381860894  0.8381554260489308  0.0976949902998735   T   T   T
  0.4930875397230512  0.0889167074370922  0.0978086375917295   T   T   T
  0.9068446720468957  0.5023037157406276  0.0977149077354833   T   T   T
  0.3170389379557630  0.3215749798873318  0.0981034383158113   T   T   T
  0.3157170089664270  0.6821073352553981  0.0983315376097823   T   T   T
  0.6686163776139296  0.3267050204466783  0.0976424056382597   T   T   T
  0.6726536296841137  0.6773041174141018  0.0978855364408125   T   T   T
  0.1952805867642226  0.9162476291985001  0.0976101198138940   T   T   T
  0.4916348426893619  0.5030273272935958  0.0987361086576209   T   T   T
 
  0.00000000E+00  0.00000000E+00  0.00000000E+00
  0.00000000E+00  0.00000000E+00  0.00000000E+00
  0.00000000E+00  0.00000000E+00  0.00000000E+00
  0.00000000E+00  0.00000000E+00  0.00000000E+00
  0.00000000E+00  0.00000000E+00  0.00000000E+00
  0.00000000E+00  0.00000000E+00  0.00000000E+00
  0.00000000E+00  0.00000000E+00  0.00000000E+00
  0.00000000E+00  0.00000000E+00  0.00000000E+00
  0.00000000E+00  0.00000000E+00  0.00000000E+00
  0.00000000E+00  0.00000000E+00  0.00000000E+00
  0.00000000E+00  0.00000000E+00  0.00000000E+00
  0.00000000E+00  0.00000000E+00  0.00000000E+00
  0.00000000E+00  0.00000000E+00  0.00000000E+00
  0.00000000E+00  0.00000000E+00  0.00000000E+00
  0.00000000E+00  0.00000000E+00  0.00000000E+00
  0.00000000E+00  0.00000000E+00  0.00000000E+00
  0.00000000E+00  0.00000000E+00  0.00000000E+00
  0.00000000E+00  0.00000000E+00  0.00000000E+00
  0.00000000E+00  0.00000000E+00  0.00000000E+00
  0.00000000E+00  0.00000000E+00  0.00000000E+00
  0.00000000E+00  0.00000000E+00  0.00000000E+00
  0.00000000E+00  0.00000000E+00  0.00000000E+00
  0.00000000E+00  0.00000000E+00  0.00000000E+00
  0.00000000E+00  0.00000000E+00  0.00000000E+00
  0.00000000E+00  0.00000000E+00  0.00000000E+00
