Title                                   
   1.00000000000000     
     9.8694509999999998    0.0000000000000000    0.0000000000000000
     0.0000000000000000    8.5490480000000009    0.0000000000000000
     0.0000000000000000    0.0000000000000000   20.0000000000000000
    29     2     1
Selective dynamics
Direct
  0.0563541374742131  0.0911864182706360  0.0849447881137836   T   T   T
  0.9314807370329172  0.1710738797646891  0.0863713032429350   T   T   T
  0.0557263074837052  0.9244938365373896  0.0847345163039164   T   T   T
  0.9331756717391566  0.3383691739842718  0.0880082737785722   T   T   T
  0.0571225728963825  0.5900393722694788  0.0847747510481316   T   T   T
  0.9326408371596893  0.6717091381793276  0.0874243613200233   T   T   T
  0.0586238492559392  0.4230486271482383  0.0864105056605246   T   T   T
  0.9308049247074618  0.8382217524590724  0.0868371710374511   T   T   T
  0.3055680702909334  0.0912422800376527  0.0905355834643921   T   T   T
  0.1819847105585969  0.1752251719074982  0.0874780195381690   T   T   T
  0.1847036621226718  0.3425381992206827  0.0898185220929148   T   T   T
  0.3026812843987556  0.5964368075410743  0.1007608428855950   T   T   T
  0.1800465063727917  0.6763995580870135  0.0874132250087526   T   T   T
  0.3087811973236719  0.4287100994627908  0.0994782703808998   T   T   T
  0.1794901282183735  0.8426651459481217  0.0870295053286759   T   T   T
  0.5553472377163881  0.0858277840013470  0.0967586697058084   T   T   T
  0.4312862797342248  0.1721072822869912  0.0962070955928382   T   T   T
  0.5513170961976201  0.9190521747000362  0.1007238997411472   T   T   T
  0.4337028412313618  0.3403136930712981  0.1040818163042746   T   T   T
  0.5629100965216569  0.4072265720730672  0.1159552108529075   T   T   T
  0.4220092399891264  0.8419836419778362  0.1032516942592355   T   T   T
  0.8065438248017543  0.0854200093188194  0.0890561128901208   T   T   T
  0.6819657866508162  0.1672480184211192  0.0942586039513582   T   T   T
  0.8048826113964398  0.9195893348885137  0.0905373469196007   T   T   T
  0.6849422298636298  0.3328136479316330  0.1012106866725364   T   T   T
  0.8101516484169310  0.5864621824202495  0.0972900562383806   T   T   T
  0.6929984307110977  0.6717832368524899  0.1109371847809601   T   T   T
  0.8096420367421041  0.4190698237197378  0.0955235842919879   T   T   T
  0.6792488224616703  0.8341865475688627  0.1006355909913213   T   T   T
  0.4108429685555186  0.6891666907185592  0.1177481612275847   T   T   T
  0.3028123513914524  0.9279355856176233  0.0907941368184978   T   T   T
  0.5598509005829553  0.5887003136138665  0.1666855095567485   T   T   T
 
  0.00000000E+00  0.00000000E+00  0.00000000E+00
  0.00000000E+00  0.00000000E+00  0.00000000E+00
  0.00000000E+00  0.00000000E+00  0.00000000E+00
  0.00000000E+00  0.00000000E+00  0.00000000E+00
  0.00000000E+00  0.00000000E+00  0.00000000E+00
  0.00000000E+00  0.00000000E+00  0.00000000E+00
  0.00000000E+00  0.00000000E+00  0.00000000E+00
  0.00000000E+00  0.00000000E+00  0.00000000E+00
  0.00000000E+00  0.00000000E+00  0.00000000E+00
  0.00000000E+00  0.00000000E+00  0.00000000E+00
  0.00000000E+00  0.00000000E+00  0.00000000E+00
  0.00000000E+00  0.00000000E+00  0.00000000E+00
  0.00000000E+00  0.00000000E+00  0.00000000E+00
  0.00000000E+00  0.00000000E+00  0.00000000E+00
  0.00000000E+00  0.00000000E+00  0.00000000E+00
  0.00000000E+00  0.00000000E+00  0.00000000E+00
  0.00000000E+00  0.00000000E+00  0.00000000E+00
  0.00000000E+00  0.00000000E+00  0.00000000E+00
  0.00000000E+00  0.00000000E+00  0.00000000E+00
  0.00000000E+00  0.00000000E+00  0.00000000E+00
  0.00000000E+00  0.00000000E+00  0.00000000E+00
  0.00000000E+00  0.00000000E+00  0.00000000E+00
  0.00000000E+00  0.00000000E+00  0.00000000E+00
  0.00000000E+00  0.00000000E+00  0.00000000E+00
  0.00000000E+00  0.00000000E+00  0.00000000E+00
  0.00000000E+00  0.00000000E+00  0.00000000E+00
  0.00000000E+00  0.00000000E+00  0.00000000E+00
  0.00000000E+00  0.00000000E+00  0.00000000E+00
  0.00000000E+00  0.00000000E+00  0.00000000E+00
  0.00000000E+00  0.00000000E+00  0.00000000E+00
  0.00000000E+00  0.00000000E+00  0.00000000E+00
  0.00000000E+00  0.00000000E+00  0.00000000E+00
