Title                                   
   1.00000000000000     
     8.5490480000000009    0.0000000000000000    0.0000000000000000
     0.0000000000000000    8.5490480000000009    0.0000000000000000
     0.0000000000000000    0.0000000000000000   20.0000000000000000
    22     2     1
Selective dynamics
Direct
  0.9098730378286319  0.2061538972751116  0.0986638419301168   T   T   T
  0.9081720466090211  0.5025928373717805  0.0961072254441764   T   T   T
  0.9122580083363877  0.7995808648190919  0.0974459454937372   T   T   T
  0.1952138943461646  0.0825242665030224  0.0975015818288656   T   T   T
  0.0737650497601991  0.2039674952895523  0.0974623940666794   T   T   T
  0.1973972246205830  0.9186623861537595  0.0987503645469087   T   T   T
  0.1576533778782568  0.6477200056315379  0.0979331006684686   T   T   T
  0.0779178491932300  0.5009993301742177  0.0961377101470427   T   T   T
  0.1563160860196948  0.3514614442890621  0.0949098266589841   T   T   T
  0.0761499411451748  0.7974300352339881  0.0987331328078207   T   T   T
  0.4922114536118909  0.0866618874146863  0.0961634968735174   T   T   T
  0.3426820023721874  0.1650681479213944  0.0949372599443681   T   T   T
  0.4938130416355734  0.9169360742054233  0.0961618763230946   T   T   T
  0.3471292077680950  0.8371732962327020  0.0979596893139872   T   T   T
  0.7886217944303394  0.0849213986132043  0.0986621822734526   T   T   T
  0.6389041696303664  0.1664520989140491  0.0978991106054269   T   T   T
  0.7908215450354960  0.9210017421372618  0.0974297898635759   T   T   T
  0.8297457149379104  0.6521109062569621  0.0948859590908903   T   T   T
  0.8283578225914758  0.3558974643397180  0.0978753544233253   T   T   T
  0.6433278634960025  0.8384842640563488  0.0948861847018685   T   T   T
  0.3229046717981368  0.6719351380000694  0.0981061697551227   T   T   T
  0.6631095786865333  0.3316889149773153  0.0980750966877081   T   T   T
  0.3170203210620988  0.3257747125464958  0.0914936347467337   T   T   T
  0.6690223482148034  0.6777699832593808  0.0914581023531547   T   T   T
  0.4930239489917393  0.5018214083838770  0.0640659694509516   T   T   T
 
  0.00000000E+00  0.00000000E+00  0.00000000E+00
  0.00000000E+00  0.00000000E+00  0.00000000E+00
  0.00000000E+00  0.00000000E+00  0.00000000E+00
  0.00000000E+00  0.00000000E+00  0.00000000E+00
  0.00000000E+00  0.00000000E+00  0.00000000E+00
  0.00000000E+00  0.00000000E+00  0.00000000E+00
  0.00000000E+00  0.00000000E+00  0.00000000E+00
  0.00000000E+00  0.00000000E+00  0.00000000E+00
  0.00000000E+00  0.00000000E+00  0.00000000E+00
  0.00000000E+00  0.00000000E+00  0.00000000E+00
  0.00000000E+00  0.00000000E+00  0.00000000E+00
  0.00000000E+00  0.00000000E+00  0.00000000E+00
  0.00000000E+00  0.00000000E+00  0.00000000E+00
  0.00000000E+00  0.00000000E+00  0.00000000E+00
  0.00000000E+00  0.00000000E+00  0.00000000E+00
  0.00000000E+00  0.00000000E+00  0.00000000E+00
  0.00000000E+00  0.00000000E+00  0.00000000E+00
  0.00000000E+00  0.00000000E+00  0.00000000E+00
  0.00000000E+00  0.00000000E+00  0.00000000E+00
  0.00000000E+00  0.00000000E+00  0.00000000E+00
  0.00000000E+00  0.00000000E+00  0.00000000E+00
  0.00000000E+00  0.00000000E+00  0.00000000E+00
  0.00000000E+00  0.00000000E+00  0.00000000E+00
  0.00000000E+00  0.00000000E+00  0.00000000E+00
  0.00000000E+00  0.00000000E+00  0.00000000E+00
