Title                                   
   1.00000000000000     
     9.8694509999999998    0.0000000000000000    0.0000000000000000
     0.0000000000000000    8.5490480000000009    0.0000000000000000
     0.0000000000000000    0.0000000000000000   20.0000000000000000
    30     1
Selective dynamics
Direct
  0.0562375782629231  0.0886996438383580  0.0801412639527223   T   T   T
  0.9309803188058804  0.1718900317751849  0.0830806869454216   T   T   T
  0.0562342464673900  0.9236250169960479  0.0801371752099897   T   T   T
  0.9324988117551348  0.3385354160359924  0.0825773043751751   T   T   T
  0.0562250901497707  0.5892432027448242  0.0784668503643287   T   T   T
  0.9324948900525206  0.6737620686141987  0.0825518177915897   T   T   T
  0.0562307465588570  0.4230416315720402  0.0784950638439062   T   T   T
  0.9309650621282244  0.8404328605424615  0.0830454992090798   T   T   T
  0.3060907928896847  0.0897840897306637  0.0912894445289182   T   T   T
  0.1814924102842265  0.1719010145866569  0.0832428711798915   T   T   T
  0.3060889893182092  0.9225127778433763  0.0912622745196794   T   T   T
  0.1799603697857464  0.3385638017323955  0.0828072761689393   T   T   T
  0.3012508294483666  0.5912596557428101  0.0945522744489774   T   T   T
  0.1799479111692012  0.6737270753704711  0.0827890643107325   T   T   T
  0.3012608635072094  0.4210185836629305  0.0945438525268135   T   T   T
  0.1814732277699338  0.8403949487247528  0.0832245415873696   T   T   T
  0.5562610494272756  0.0889207319448053  0.1070051754270534   T   T   T
  0.4289541713755441  0.1757504530598700  0.1033682981656271   T   T   T
  0.5562642214342385  0.9233852990966485  0.1069902102246131   T   T   T
  0.4228600940204811  0.3407111084479685  0.1086355921116954   T   T   T
  0.4228580154023261  0.6716240225887684  0.1086155967343604   T   T   T
  0.4289668055652026  0.8365736292469699  0.1033378689375523   T   T   T
  0.8063363120708301  0.0898153837717716  0.0910548575821140   T   T   T
  0.6834937530956052  0.1758258719865672  0.1031356859395741   T   T   T
  0.8063297560697684  0.9225358761261231  0.0910060104996314   T   T   T
  0.6895784613912326  0.3408241044085645  0.1082657763570386   T   T   T
  0.8111660551504360  0.5912447417432044  0.0941042631953491   T   T   T
  0.6895576786484455  0.6715071328702762  0.1082067744630294   T   T   T
  0.8111646339334568  0.4210509082912740  0.0941136338968465   T   T   T
  0.6834930912801597  0.8365014243498340  0.1030764442844661   T   T   T
  0.5564187627817277  0.5062124925542012  0.1578415512175559   T   T   T
 
  0.00000000E+00  0.00000000E+00  0.00000000E+00
  0.00000000E+00  0.00000000E+00  0.00000000E+00
  0.00000000E+00  0.00000000E+00  0.00000000E+00
  0.00000000E+00  0.00000000E+00  0.00000000E+00
  0.00000000E+00  0.00000000E+00  0.00000000E+00
  0.00000000E+00  0.00000000E+00  0.00000000E+00
  0.00000000E+00  0.00000000E+00  0.00000000E+00
  0.00000000E+00  0.00000000E+00  0.00000000E+00
  0.00000000E+00  0.00000000E+00  0.00000000E+00
  0.00000000E+00  0.00000000E+00  0.00000000E+00
  0.00000000E+00  0.00000000E+00  0.00000000E+00
  0.00000000E+00  0.00000000E+00  0.00000000E+00
  0.00000000E+00  0.00000000E+00  0.00000000E+00
  0.00000000E+00  0.00000000E+00  0.00000000E+00
  0.00000000E+00  0.00000000E+00  0.00000000E+00
  0.00000000E+00  0.00000000E+00  0.00000000E+00
  0.00000000E+00  0.00000000E+00  0.00000000E+00
  0.00000000E+00  0.00000000E+00  0.00000000E+00
  0.00000000E+00  0.00000000E+00  0.00000000E+00
  0.00000000E+00  0.00000000E+00  0.00000000E+00
  0.00000000E+00  0.00000000E+00  0.00000000E+00
  0.00000000E+00  0.00000000E+00  0.00000000E+00
  0.00000000E+00  0.00000000E+00  0.00000000E+00
  0.00000000E+00  0.00000000E+00  0.00000000E+00
  0.00000000E+00  0.00000000E+00  0.00000000E+00
  0.00000000E+00  0.00000000E+00  0.00000000E+00
  0.00000000E+00  0.00000000E+00  0.00000000E+00
  0.00000000E+00  0.00000000E+00  0.00000000E+00
  0.00000000E+00  0.00000000E+00  0.00000000E+00
  0.00000000E+00  0.00000000E+00  0.00000000E+00
  0.00000000E+00  0.00000000E+00  0.00000000E+00
