Title                                   
   1.00000000000000     
     4.9440799999999996    0.0000000000000000    0.0000000000000000
     0.0000000000000000   17.1295089999999988    0.0000000000000000
     0.0000000000000000    0.0000000000000000   20.0000000000000000
    28     2     1
Selective dynamics
Direct
  0.0013572903463403  0.1058155554406942  0.2912698632130763   T   T   T
  0.2504429042826160  0.1481523790118752  0.2933237997329581   T   T   T
  0.2502651082183148  0.2324682759807188  0.2989503495415403   T   T   T
 -0.0015355110064950  0.2732264046388689  0.3016980941349507   T   T   T
  0.0000770243953343  0.6020803259461049  0.3029315858142884   T   T   T
  0.2503609723792379  0.7277367147335508  0.2936279633801801   T   T   T
  0.0006769831928836  0.8538286353901245  0.2892158149885456   T   T   T
  0.2505892789387721  0.8959059325203449  0.2887504812475823   T   T   T
  0.2506217551697817  0.9797389826112455  0.2887429874640683   T   T   T
  0.0005520617623451  0.7700122474771539  0.2914422070865803   T   T   T
  0.4996294604439588  0.1058213445234727  0.2912682445338675   T   T   T
  0.7504581193526285  0.1474652637837301  0.2926539823756329   T   T   T
  0.7502820929242698  0.2307994714799826  0.2973758612176257   T   T   T
  0.5001943635591295  0.0219167690058619  0.2891395644640980   T   T   T
  0.7500679351505979  0.3917223181695758  0.3129372232240890   T   T   T
  0.7499969528338297  0.4778385591699795  0.3148719792186438   T   T   T
  0.5019791621506143  0.2732106468951770  0.3017106202702760   T   T   T
  0.5001689462717561  0.6020835591817782  0.3029329369555753   T   T   T
  0.7503596621544397  0.7280468595911376  0.2929410922919075   T   T   T
  0.5004427744667419  0.8538221375168592  0.2892177211827723   T   T   T
  0.7505866312089694  0.8959399975235791  0.2885909780016525   T   T   T
  0.7506272216275935  0.9799195012053316  0.2885771304430775   T   T   T
  0.5002713918695775  0.7700140199840353  0.2914494254883632   T   T   T
  0.7501774749829365  0.6443653784674521  0.2979523784473457   T   T   T
  0.2501659040775394  0.6444364136169228  0.2997820034324059   T   T   T
  0.0010400150755192  0.0219093641292350  0.2891437569670268   T   T   T
  0.5020727298348983  0.5197461710486361  0.3132879723460096   T   T   T
  0.9979467535309213  0.5197410291555380  0.3132686533325349   T   T   T
  0.5087909650679824  0.3533026664866701  0.3102464796113482   T   T   T
 -0.0086046069039387  0.3533248381849407  0.3101930298421786   T   T   T
  0.2499451826409052  0.4369502371294191  0.3575658197497503   T   T   T
 
  0.00000000E+00  0.00000000E+00  0.00000000E+00
  0.00000000E+00  0.00000000E+00  0.00000000E+00
  0.00000000E+00  0.00000000E+00  0.00000000E+00
  0.00000000E+00  0.00000000E+00  0.00000000E+00
  0.00000000E+00  0.00000000E+00  0.00000000E+00
  0.00000000E+00  0.00000000E+00  0.00000000E+00
  0.00000000E+00  0.00000000E+00  0.00000000E+00
  0.00000000E+00  0.00000000E+00  0.00000000E+00
  0.00000000E+00  0.00000000E+00  0.00000000E+00
  0.00000000E+00  0.00000000E+00  0.00000000E+00
  0.00000000E+00  0.00000000E+00  0.00000000E+00
  0.00000000E+00  0.00000000E+00  0.00000000E+00
  0.00000000E+00  0.00000000E+00  0.00000000E+00
  0.00000000E+00  0.00000000E+00  0.00000000E+00
  0.00000000E+00  0.00000000E+00  0.00000000E+00
  0.00000000E+00  0.00000000E+00  0.00000000E+00
  0.00000000E+00  0.00000000E+00  0.00000000E+00
  0.00000000E+00  0.00000000E+00  0.00000000E+00
  0.00000000E+00  0.00000000E+00  0.00000000E+00
  0.00000000E+00  0.00000000E+00  0.00000000E+00
  0.00000000E+00  0.00000000E+00  0.00000000E+00
  0.00000000E+00  0.00000000E+00  0.00000000E+00
  0.00000000E+00  0.00000000E+00  0.00000000E+00
  0.00000000E+00  0.00000000E+00  0.00000000E+00
  0.00000000E+00  0.00000000E+00  0.00000000E+00
  0.00000000E+00  0.00000000E+00  0.00000000E+00
  0.00000000E+00  0.00000000E+00  0.00000000E+00
  0.00000000E+00  0.00000000E+00  0.00000000E+00
  0.00000000E+00  0.00000000E+00  0.00000000E+00
  0.00000000E+00  0.00000000E+00  0.00000000E+00
  0.00000000E+00  0.00000000E+00  0.00000000E+00
