Title                                   
   1.00000000000000     
     8.5490480000000009    0.0000000000000000    0.0000000000000000
     0.0000000000000000    8.5490480000000009    0.0000000000000000
     0.0000000000000000    0.0000000000000000   20.0000000000000000
    21     3     1
Selective dynamics
Direct
  0.9104663177554765  0.2060376598553219  0.0931075349330624   T   T   T
  0.9129349921321053  0.8007582960719081  0.0931607158396025   T   T   T
  0.1971812957272732  0.0818046262939221  0.0933650801114270   T   T   T
  0.0751850738295682  0.2009087524934161  0.0935139867996501   T   T   T
  0.1571023643993717  0.6500792630238985  0.0962151364208763   T   T   T
  0.0766236077097890  0.5003450021992234  0.0966126134455258   T   T   T
  0.1570948422374199  0.3527083371445736  0.0969183339692919   T   T   T
  0.0778562761388387  0.8000918902781060  0.0931794994392890   T   T   T
  0.3451933166797350  0.1638010311333057  0.0964206146072800   T   T   T
  0.4930939681355039  0.9196131626086692  0.0966167840653907   T   T   T
  0.3441504469145735  0.8377322788860549  0.0964265660408988   T   T   T
  0.7877535347439857  0.0842903233228265  0.0930939215463580   T   T   T
  0.6382865327859367  0.1673305204066557  0.0961877445038713   T   T   T
  0.7901538345702745  0.9208455048768409  0.0934623776307500   T   T   T
  0.8308631277619247  0.6500603820589382  0.0962779881883506   T   T   T
  0.8284819942150659  0.3552872641229560  0.0961801160154230   T   T   T
  0.6399835345602328  0.8379031998860814  0.0968563970308742   T   T   T
  0.3232898822420478  0.3286483845502735  0.1007043896377696   T   T   T
  0.3218372550357256  0.6745203081715286  0.0991150870932484   T   T   T
  0.6620124790172264  0.3329176370707370  0.1008806364621557   T   T   T
  0.6661137077031939  0.6715359819268324  0.1009892449021624   T   T   T
  0.4937734818250205  0.0855376123311813  0.0963126602558564   T   T   T
  0.9097020104224812  0.5016065249396767  0.0963374633183808   T   T   T
  0.1957200752685598  0.9174277739801183  0.0931427515872498   T   T   T
  0.4905580481886556  0.5029982823669610  0.1386273561552351   T   T   T
 
  0.00000000E+00  0.00000000E+00  0.00000000E+00
  0.00000000E+00  0.00000000E+00  0.00000000E+00
  0.00000000E+00  0.00000000E+00  0.00000000E+00
  0.00000000E+00  0.00000000E+00  0.00000000E+00
  0.00000000E+00  0.00000000E+00  0.00000000E+00
  0.00000000E+00  0.00000000E+00  0.00000000E+00
  0.00000000E+00  0.00000000E+00  0.00000000E+00
  0.00000000E+00  0.00000000E+00  0.00000000E+00
  0.00000000E+00  0.00000000E+00  0.00000000E+00
  0.00000000E+00  0.00000000E+00  0.00000000E+00
  0.00000000E+00  0.00000000E+00  0.00000000E+00
  0.00000000E+00  0.00000000E+00  0.00000000E+00
  0.00000000E+00  0.00000000E+00  0.00000000E+00
  0.00000000E+00  0.00000000E+00  0.00000000E+00
  0.00000000E+00  0.00000000E+00  0.00000000E+00
  0.00000000E+00  0.00000000E+00  0.00000000E+00
  0.00000000E+00  0.00000000E+00  0.00000000E+00
  0.00000000E+00  0.00000000E+00  0.00000000E+00
  0.00000000E+00  0.00000000E+00  0.00000000E+00
  0.00000000E+00  0.00000000E+00  0.00000000E+00
  0.00000000E+00  0.00000000E+00  0.00000000E+00
  0.00000000E+00  0.00000000E+00  0.00000000E+00
  0.00000000E+00  0.00000000E+00  0.00000000E+00
  0.00000000E+00  0.00000000E+00  0.00000000E+00
  0.00000000E+00  0.00000000E+00  0.00000000E+00
