Title                                   
   1.00000000000000     
     9.8694509999999998    0.0000000000000000    0.0000000000000000
     0.0000000000000000    8.5490480000000009    0.0000000000000000
     0.0000000000000000    0.0000000000000000   20.0000000000000000
    30     1     1
Selective dynamics
Direct
  0.0562457898996426  0.0897117134328659  0.0838649660642258   T   T   T
  0.9309856007233278  0.1729003391728480  0.0858536310302364   T   T   T
  0.0562297712196377  0.9230337939959684  0.0842297415244472   T   T   T
  0.9305148933222164  0.3403878914599874  0.0888139020952887   T   T   T
  0.0562293454256123  0.5892502827643989  0.0871367933742389   T   T   T
  0.9312718396942525  0.6726480728226736  0.0893130090492434   T   T   T
  0.0562272350661000  0.4232192431134685  0.0875072963449476   T   T   T
  0.9308479961715335  0.8395653956747644  0.0867501082564214   T   T   T
  0.3054075506716066  0.0893790298367102  0.0877450665388466   T   T   T
  0.1814887938108000  0.1729078390267427  0.0858475607023848   T   T   T
  0.3066288957882379  0.9233956037665726  0.0885971237422192   T   T   T
  0.1819522188519291  0.3403932334628605  0.0888035102149262   T   T   T
  0.3049077365793479  0.5908136478396926  0.0991354248122541   T   T   T
  0.1811961027817220  0.6726455849626140  0.0893074533854322   T   T   T
  0.3060523051143008  0.4224450839579725  0.0971195605120699   T   T   T
  0.1816144590578775  0.8395673469218727  0.0867673574145874   T   T   T
  0.5562473367514300  0.0869971430913097  0.0946388682393290   T   T   T
  0.4310900980427938  0.1698780860630886  0.0936601061478428   T   T   T
  0.4309577326009251  0.3355992005536183  0.1013528834955625   T   T   T
  0.4250876123963568  0.6797178527566213  0.1123417029176136   T   T   T
  0.5562477633011315  0.4104291778696807  0.1141097641627840   T   T   T
  0.4309678044496614  0.8412792773777826  0.0981269925659040   T   T   T
  0.8070687547764273  0.0893642038743572  0.0877351379021886   T   T   T
  0.6814206761186582  0.1698807292740279  0.0936605640821154   T   T   T
  0.8058263465879941  0.9233911927939130  0.0885851515165906   T   T   T
  0.6815320475551029  0.3356063073782130  0.1013484525629630   T   T   T
  0.8075790517979532  0.5908258609869731  0.0991562793628757   T   T   T
  0.6874093588087966  0.6797396448247625  0.1123402369762204   T   T   T
  0.8064292508458774  0.4224551309594632  0.0971302983247418   T   T   T
  0.6814847869613143  0.8412886009102016  0.0981125934969898   T   T   T
  0.5562310017907318  0.9228728539058155  0.0970760815585970   T   T   T
  0.5562588430367079  0.5886566351681680  0.1595073816259465   T   T   T
 
  0.00000000E+00  0.00000000E+00  0.00000000E+00
  0.00000000E+00  0.00000000E+00  0.00000000E+00
  0.00000000E+00  0.00000000E+00  0.00000000E+00
  0.00000000E+00  0.00000000E+00  0.00000000E+00
  0.00000000E+00  0.00000000E+00  0.00000000E+00
  0.00000000E+00  0.00000000E+00  0.00000000E+00
  0.00000000E+00  0.00000000E+00  0.00000000E+00
  0.00000000E+00  0.00000000E+00  0.00000000E+00
  0.00000000E+00  0.00000000E+00  0.00000000E+00
  0.00000000E+00  0.00000000E+00  0.00000000E+00
  0.00000000E+00  0.00000000E+00  0.00000000E+00
  0.00000000E+00  0.00000000E+00  0.00000000E+00
  0.00000000E+00  0.00000000E+00  0.00000000E+00
  0.00000000E+00  0.00000000E+00  0.00000000E+00
  0.00000000E+00  0.00000000E+00  0.00000000E+00
  0.00000000E+00  0.00000000E+00  0.00000000E+00
  0.00000000E+00  0.00000000E+00  0.00000000E+00
  0.00000000E+00  0.00000000E+00  0.00000000E+00
  0.00000000E+00  0.00000000E+00  0.00000000E+00
  0.00000000E+00  0.00000000E+00  0.00000000E+00
  0.00000000E+00  0.00000000E+00  0.00000000E+00
  0.00000000E+00  0.00000000E+00  0.00000000E+00
  0.00000000E+00  0.00000000E+00  0.00000000E+00
  0.00000000E+00  0.00000000E+00  0.00000000E+00
  0.00000000E+00  0.00000000E+00  0.00000000E+00
  0.00000000E+00  0.00000000E+00  0.00000000E+00
  0.00000000E+00  0.00000000E+00  0.00000000E+00
  0.00000000E+00  0.00000000E+00  0.00000000E+00
  0.00000000E+00  0.00000000E+00  0.00000000E+00
  0.00000000E+00  0.00000000E+00  0.00000000E+00
  0.00000000E+00  0.00000000E+00  0.00000000E+00
  0.00000000E+00  0.00000000E+00  0.00000000E+00
