Title                                   
   1.00000000000000     
     8.5490480000000009    0.0000000000000000    0.0000000000000000
     0.0000000000000000    8.5490480000000009    0.0000000000000000
     0.0000000000000000    0.0000000000000000   20.0000000000000000
    21     3     1
Selective dynamics
Direct
  0.9083822444628307  0.2067272955805210  0.0937704863934569   T   T   T
  0.9128049380975835  0.8023893145202841  0.0944091634784666   T   T   T
  0.1956465342567658  0.0822874431880128  0.0948051041186314   T   T   T
  0.0737679054434288  0.2006564581530802  0.0945770293270743   T   T   T
  0.1559396099830666  0.6486267739942998  0.0952226046706271   T   T   T
  0.0739811016546658  0.5017079573124158  0.0962737598640659   T   T   T
  0.1535566629797595  0.3534179978571614  0.0977294851983733   T   T   T
  0.0798882203809102  0.7989404650248192  0.0937354171708889   T   T   T
  0.4937153773031531  0.0843020022536629  0.0971079001623324   T   T   T
  0.3437297840287545  0.1622836113662125  0.0979303755000528   T   T   T
  0.4948357563578324  0.9150131679616975  0.0969634837084801   T   T   T
  0.3464626240090581  0.8338289345192210  0.0956478976328549   T   T   T
  0.7877263700241609  0.0878808409901423  0.0946399152534974   T   T   T
  0.6387680130086678  0.1675320669003063  0.0963487919977234   T   T   T
  0.7908788411042934  0.9202350576444982  0.0953241272011672   T   T   T
  0.8319965010280644  0.6529299416667845  0.0966161147583899   T   T   T
  0.8268346828894972  0.3586643231596565  0.0949105424943546   T   T   T
  0.6443601512253117  0.8364913842291636  0.0979972716594650   T   T   T
  0.3192972008948740  0.3298245623609617  0.1025358926437129   T   T   T
  0.3224311581089339  0.6707585471473659  0.0963963430565623   T   T   T
  0.6627948985660879  0.3371098937102582  0.0971656713761924   T   T   T
  0.9075794843201443  0.5051387884128126  0.0957126931096416   T   T   T
  0.6719466119933601  0.6730259035051627  0.1009731688671940   T   T   T
  0.1975636545379472  0.9150515468379742  0.0937564754116266   T   T   T
  0.4905236733408410  0.4999657217035380  0.1381552849451505   T   T   T
 
  0.00000000E+00  0.00000000E+00  0.00000000E+00
  0.00000000E+00  0.00000000E+00  0.00000000E+00
  0.00000000E+00  0.00000000E+00  0.00000000E+00
  0.00000000E+00  0.00000000E+00  0.00000000E+00
  0.00000000E+00  0.00000000E+00  0.00000000E+00
  0.00000000E+00  0.00000000E+00  0.00000000E+00
  0.00000000E+00  0.00000000E+00  0.00000000E+00
  0.00000000E+00  0.00000000E+00  0.00000000E+00
  0.00000000E+00  0.00000000E+00  0.00000000E+00
  0.00000000E+00  0.00000000E+00  0.00000000E+00
  0.00000000E+00  0.00000000E+00  0.00000000E+00
  0.00000000E+00  0.00000000E+00  0.00000000E+00
  0.00000000E+00  0.00000000E+00  0.00000000E+00
  0.00000000E+00  0.00000000E+00  0.00000000E+00
  0.00000000E+00  0.00000000E+00  0.00000000E+00
  0.00000000E+00  0.00000000E+00  0.00000000E+00
  0.00000000E+00  0.00000000E+00  0.00000000E+00
  0.00000000E+00  0.00000000E+00  0.00000000E+00
  0.00000000E+00  0.00000000E+00  0.00000000E+00
  0.00000000E+00  0.00000000E+00  0.00000000E+00
  0.00000000E+00  0.00000000E+00  0.00000000E+00
  0.00000000E+00  0.00000000E+00  0.00000000E+00
  0.00000000E+00  0.00000000E+00  0.00000000E+00
  0.00000000E+00  0.00000000E+00  0.00000000E+00
  0.00000000E+00  0.00000000E+00  0.00000000E+00
