Title                                   
   1.00000000000000     
     8.5490480000000009    0.0000000000000000    0.0000000000000000
     0.0000000000000000    8.5490480000000009    0.0000000000000000
     0.0000000000000000    0.0000000000000000   20.0000000000000000
    21     3     1
Selective dynamics
Direct
  0.9092505861605571  0.2074863571144218  0.0954209039708108   T   T   T
  0.9039794760728395  0.5031328165990445  0.0953040485752178   T   T   T
  0.9100350419573048  0.7988833440345573  0.0954650616803438   T   T   T
  0.1993457118191978  0.0844121534478336  0.0954796476713572   T   T   T
  0.0756524311829385  0.2080756683454680  0.0954431738998745   T   T   T
  0.1987583765376295  0.9180050121705656  0.0954782096689962   T   T   T
  0.1572379906253240  0.6499291711416143  0.0953348324243185   T   T   T
  0.0754691527539359  0.5023734912009001  0.0953229203280612   T   T   T
  0.1565285935092374  0.3570705371767661  0.0953559029365993   T   T   T
  0.0773693503365555  0.7971447517379270  0.0954627677107816   T   T   T
  0.4935625668837984  0.0842822950196534  0.0953610995271927   T   T   T
  0.3482815526688999  0.1653558646246562  0.0953910673636745   T   T   T
  0.4943403458942588  0.9127817240901414  0.0953500638587264   T   T   T
  0.3465583794206159  0.8335033065017878  0.0953500501954596   T   T   T
  0.7883673271994062  0.0861214752655018  0.0954495920601202   T   T   T
  0.6411296518331978  0.1660146201661561  0.0953209984517643   T   T   T
  0.7901307465810159  0.9187945715118172  0.0954647995662408   T   T   T
  0.8264165631823925  0.6512568344413744  0.0953093905632525   T   T   T
  0.8247388384688046  0.3553128194380380  0.0952947072089683   T   T   T
  0.6424615347509534  0.8351890139438466  0.0953188538311425   T   T   T
  0.3273734030174305  0.3361825230643275  0.0952903003535261   T   T   T
  0.3219041444486164  0.6700552092516101  0.0952188411514279   T   T   T
  0.6612620587048135  0.3306326646180417  0.0951897974001173   T   T   T
  0.6655565638500788  0.6743311382211449  0.0951789837969216   T   T   T
  0.4897016121401904  0.4984626368728171  0.0951489858050819   T   T   T
 
  0.00000000E+00  0.00000000E+00  0.00000000E+00
  0.00000000E+00  0.00000000E+00  0.00000000E+00
  0.00000000E+00  0.00000000E+00  0.00000000E+00
  0.00000000E+00  0.00000000E+00  0.00000000E+00
  0.00000000E+00  0.00000000E+00  0.00000000E+00
  0.00000000E+00  0.00000000E+00  0.00000000E+00
  0.00000000E+00  0.00000000E+00  0.00000000E+00
  0.00000000E+00  0.00000000E+00  0.00000000E+00
  0.00000000E+00  0.00000000E+00  0.00000000E+00
  0.00000000E+00  0.00000000E+00  0.00000000E+00
  0.00000000E+00  0.00000000E+00  0.00000000E+00
  0.00000000E+00  0.00000000E+00  0.00000000E+00
  0.00000000E+00  0.00000000E+00  0.00000000E+00
  0.00000000E+00  0.00000000E+00  0.00000000E+00
  0.00000000E+00  0.00000000E+00  0.00000000E+00
  0.00000000E+00  0.00000000E+00  0.00000000E+00
  0.00000000E+00  0.00000000E+00  0.00000000E+00
  0.00000000E+00  0.00000000E+00  0.00000000E+00
  0.00000000E+00  0.00000000E+00  0.00000000E+00
  0.00000000E+00  0.00000000E+00  0.00000000E+00
  0.00000000E+00  0.00000000E+00  0.00000000E+00
  0.00000000E+00  0.00000000E+00  0.00000000E+00
  0.00000000E+00  0.00000000E+00  0.00000000E+00
  0.00000000E+00  0.00000000E+00  0.00000000E+00
  0.00000000E+00  0.00000000E+00  0.00000000E+00
