Title                                   
   1.00000000000000     
     8.5490480000000009    0.0000000000000000    0.0000000000000000
     0.0000000000000000    8.5490480000000009    0.0000000000000000
     0.0000000000000000    0.0000000000000000   20.0000000000000000
    21     3     1
Selective dynamics
Direct
  0.9092257532647620  0.2076706312809050  0.0946404802120441   T   T   T
  0.9108095370631091  0.7984981472778032  0.0946509353851475   T   T   T
  0.1996447102987101  0.0832562168688773  0.0946031404162247   T   T   T
  0.0762975475452765  0.2038879891361455  0.0949620979216293   T   T   T
  0.1577223863525998  0.6494975539619997  0.0970054261635162   T   T   T
  0.0763965055734767  0.5009018529715690  0.0965955488570073   T   T   T
  0.1575524454870903  0.3545964857276548  0.0968231907598923   T   T   T
  0.0782595237357683  0.7982591877419509  0.0949063350797563   T   T   T
  0.3475190444029909  0.1653104728471555  0.0961437330581396   T   T   T
  0.4929151503027783  0.9194893471695834  0.0964688960749121   T   T   T
  0.3454989728868420  0.8369004571594026  0.0973399636908152   T   T   T
  0.7859182632131095  0.0852476170882939  0.0946489339641008   T   T   T
  0.6373345774482140  0.1673818972781271  0.0961671536459054   T   T   T
  0.7876587636946926  0.9190572061432581  0.0948772595567552   T   T   T
  0.8290326001326694  0.6479342945550227  0.0961404683356931   T   T   T
  0.8278369327451958  0.3567764248935122  0.0962183126152402   T   T   T
  0.6380999394031065  0.8369730633280451  0.0965761175958283   T   T   T
  0.3272037955872861  0.3331883231671983  0.1014798731885121   T   T   T
  0.3250036519046636  0.6714708756330761  0.1013563276742025   T   T   T
  0.6588100095121715  0.3364049260143032  0.1018390083766850   T   T   T
  0.6609614337135395  0.6672716528910657  0.1012814615726212   T   T   T
  0.4942070738945515  0.0859641595869047  0.0959297620057900   T   T   T
  0.9093110424753827  0.5016032345685210  0.0960258814971181   T   T   T
  0.1974198076900897  0.9171570757695576  0.0949330399966794   T   T   T
  0.4947725316719096  0.5000909069400740  0.1220916523557643   T   T   T
 
  0.00000000E+00  0.00000000E+00  0.00000000E+00
  0.00000000E+00  0.00000000E+00  0.00000000E+00
  0.00000000E+00  0.00000000E+00  0.00000000E+00
  0.00000000E+00  0.00000000E+00  0.00000000E+00
  0.00000000E+00  0.00000000E+00  0.00000000E+00
  0.00000000E+00  0.00000000E+00  0.00000000E+00
  0.00000000E+00  0.00000000E+00  0.00000000E+00
  0.00000000E+00  0.00000000E+00  0.00000000E+00
  0.00000000E+00  0.00000000E+00  0.00000000E+00
  0.00000000E+00  0.00000000E+00  0.00000000E+00
  0.00000000E+00  0.00000000E+00  0.00000000E+00
  0.00000000E+00  0.00000000E+00  0.00000000E+00
  0.00000000E+00  0.00000000E+00  0.00000000E+00
  0.00000000E+00  0.00000000E+00  0.00000000E+00
  0.00000000E+00  0.00000000E+00  0.00000000E+00
  0.00000000E+00  0.00000000E+00  0.00000000E+00
  0.00000000E+00  0.00000000E+00  0.00000000E+00
  0.00000000E+00  0.00000000E+00  0.00000000E+00
  0.00000000E+00  0.00000000E+00  0.00000000E+00
  0.00000000E+00  0.00000000E+00  0.00000000E+00
  0.00000000E+00  0.00000000E+00  0.00000000E+00
  0.00000000E+00  0.00000000E+00  0.00000000E+00
  0.00000000E+00  0.00000000E+00  0.00000000E+00
  0.00000000E+00  0.00000000E+00  0.00000000E+00
  0.00000000E+00  0.00000000E+00  0.00000000E+00
