Title                                   
   1.00000000000000     
     8.5490480000000009    0.0000000000000000    0.0000000000000000
     0.0000000000000000    8.5490480000000009    0.0000000000000000
     0.0000000000000000    0.0000000000000000   20.0000000000000000
    21     3     1
Selective dynamics
Direct
  0.9089050655741717  0.2067795702164683  0.0949812034950621   T   T   T
  0.9116068657575882  0.8004191566204245  0.0946278160224878   T   T   T
  0.1976912386505596  0.0825857247201686  0.0946632000970183   T   T   T
  0.0757814162922064  0.2014965590210222  0.0953056216117036   T   T   T
  0.1576375968042613  0.6494100648029987  0.0959251118562827   T   T   T
  0.0764827921175785  0.5002494662057121  0.0965654003737832   T   T   T
  0.1576111156600980  0.3534298876603748  0.0975459305236721   T   T   T
  0.0786899141513295  0.7988424726233677  0.0944351453229841   T   T   T
  0.3466042591411405  0.1644661520029978  0.0965123886431608   T   T   T
  0.4935732295534013  0.9196037208975177  0.0965961152100805   T   T   T
  0.3453975820286144  0.8371082581775928  0.0961105362846503   T   T   T
  0.7866425683899017  0.0857720259721796  0.0950199660100875   T   T   T
  0.6375897521955293  0.1681016019091761  0.0964138123861350   T   T   T
  0.7895808066188206  0.9196513544637547  0.0952646622704771   T   T   T
  0.8297620449568489  0.6487384199994466  0.0964894708076760   T   T   T
  0.8273965876950454  0.3567433443353519  0.0963196076355548   T   T   T
  0.6393004833973275  0.8370925945528165  0.0975031496826957   T   T   T
  0.3261017812214497  0.3306448785756915  0.1005214780742113   T   T   T
  0.3242982250540090  0.6726196111532853  0.0974617714789387   T   T   T
  0.6594272117170646  0.3362787957216413  0.0988625526021359   T   T   T
  0.6635712579802343  0.6681458530249206  0.1006359327966753   T   T   T
  0.4938114118253430  0.0858688202681572  0.0962625748146610   T   T   T
  0.9095659824582282  0.5018979434659235  0.0962317166885980   T   T   T
  0.1969072342434396  0.9163622036351998  0.0944009048619605   T   T   T
  0.4914755765157958  0.5024815199738162  0.1290489304492877   T   T   T
 
  0.00000000E+00  0.00000000E+00  0.00000000E+00
  0.00000000E+00  0.00000000E+00  0.00000000E+00
  0.00000000E+00  0.00000000E+00  0.00000000E+00
  0.00000000E+00  0.00000000E+00  0.00000000E+00
  0.00000000E+00  0.00000000E+00  0.00000000E+00
  0.00000000E+00  0.00000000E+00  0.00000000E+00
  0.00000000E+00  0.00000000E+00  0.00000000E+00
  0.00000000E+00  0.00000000E+00  0.00000000E+00
  0.00000000E+00  0.00000000E+00  0.00000000E+00
  0.00000000E+00  0.00000000E+00  0.00000000E+00
  0.00000000E+00  0.00000000E+00  0.00000000E+00
  0.00000000E+00  0.00000000E+00  0.00000000E+00
  0.00000000E+00  0.00000000E+00  0.00000000E+00
  0.00000000E+00  0.00000000E+00  0.00000000E+00
  0.00000000E+00  0.00000000E+00  0.00000000E+00
  0.00000000E+00  0.00000000E+00  0.00000000E+00
  0.00000000E+00  0.00000000E+00  0.00000000E+00
  0.00000000E+00  0.00000000E+00  0.00000000E+00
  0.00000000E+00  0.00000000E+00  0.00000000E+00
  0.00000000E+00  0.00000000E+00  0.00000000E+00
  0.00000000E+00  0.00000000E+00  0.00000000E+00
  0.00000000E+00  0.00000000E+00  0.00000000E+00
  0.00000000E+00  0.00000000E+00  0.00000000E+00
  0.00000000E+00  0.00000000E+00  0.00000000E+00
  0.00000000E+00  0.00000000E+00  0.00000000E+00
