Title                                   
   1.00000000000000     
     4.9440799999999996    0.0000000000000000    0.0000000000000000
     0.0000000000000000   17.1295089999999988    0.0000000000000000
     0.0000000000000000    0.0000000000000000   20.0000000000000000
    30     1     1
Selective dynamics
Direct
 -0.0002314610647426  0.1040765554872066  0.2793969206947822   T   T   T
  0.2498736495862108  0.1454942212045576  0.2839628473950257   T   T   T
  0.2498733519046637  0.2275304657098354  0.2963955355117706   T   T   T
  0.0011374957760284  0.3487636805674318  0.3218373562664421   T   T   T
 -0.0011737695377508  0.2681412209224586  0.3032306783351071   T   T   T
 -0.0024485326349045  0.6081699255433159  0.3161181951365900   T   T   T
  0.2499215451716891  0.7300042286094347  0.2937076702355104   T   T   T
  0.0001616561073452  0.8543823524800415  0.2787294126518610   T   T   T
  0.2499044728260594  0.8961280592208687  0.2761360070895016   T   T   T
  0.2499056461156664  0.9792364928560064  0.2740417962696573   T   T   T
  0.0002080528335566  0.7717334073484592  0.2871572654815419   T   T   T
  0.4999647913424685  0.1040765915540799  0.2793956271532258   T   T   T
  0.7498647938968058  0.1454057498236242  0.2832806098156434   T   T   T
  0.7498710230860548  0.2276792075260630  0.2948496858849645   T   T   T
  0.5000538165957570  0.0209350983208562  0.2745593219973285   T   T   T
  0.4986620547530510  0.3487666320931237  0.3218317432076789   T   T   T
  0.7499028150931227  0.3930811792834654  0.3279285307183054   T   T   T
  0.7498896020218651  0.4798063961515416  0.3321339234717776   T   T   T
  0.5009428906061280  0.2681438802052705  0.3032243554414344   T   T   T
  0.5022984819125944  0.6081722767017032  0.3161143189520824   T   T   T
  0.7499365922052031  0.7310247391272280  0.2923476113619071   T   T   T
  0.4996298491751355  0.8543776158861208  0.2787273346642536   T   T   T
  0.7498985011890734  0.8958405018712068  0.2759485915115867   T   T   T
  0.7498979656757057  0.9792449295542855  0.2738456660216976   T   T   T
  0.4996506949285491  0.7717250497627927  0.2871561135169601   T   T   T
  0.7499324805688488  0.6494373874179523  0.3063445517543402   T   T   T
  0.2499259713553555  0.6488719539661895  0.3086230098915961   T   T   T
 -0.0002562615751133  0.0209348256728707  0.2745623402986427   T   T   T
  0.5149456338448927  0.5284636288524143  0.3336853279170470   T   T   T
  0.9848668425434841  0.5284657812187308  0.3336859224508918   T   T   T
  0.2498957172061155  0.3817477551074434  0.3356627157274816   T   T   T
  0.2499166364910879  0.4786892099534130  0.3779440131733163   T   T   T
 
  0.00000000E+00  0.00000000E+00  0.00000000E+00
  0.00000000E+00  0.00000000E+00  0.00000000E+00
  0.00000000E+00  0.00000000E+00  0.00000000E+00
  0.00000000E+00  0.00000000E+00  0.00000000E+00
  0.00000000E+00  0.00000000E+00  0.00000000E+00
  0.00000000E+00  0.00000000E+00  0.00000000E+00
  0.00000000E+00  0.00000000E+00  0.00000000E+00
  0.00000000E+00  0.00000000E+00  0.00000000E+00
  0.00000000E+00  0.00000000E+00  0.00000000E+00
  0.00000000E+00  0.00000000E+00  0.00000000E+00
  0.00000000E+00  0.00000000E+00  0.00000000E+00
  0.00000000E+00  0.00000000E+00  0.00000000E+00
  0.00000000E+00  0.00000000E+00  0.00000000E+00
  0.00000000E+00  0.00000000E+00  0.00000000E+00
  0.00000000E+00  0.00000000E+00  0.00000000E+00
  0.00000000E+00  0.00000000E+00  0.00000000E+00
  0.00000000E+00  0.00000000E+00  0.00000000E+00
  0.00000000E+00  0.00000000E+00  0.00000000E+00
  0.00000000E+00  0.00000000E+00  0.00000000E+00
  0.00000000E+00  0.00000000E+00  0.00000000E+00
  0.00000000E+00  0.00000000E+00  0.00000000E+00
  0.00000000E+00  0.00000000E+00  0.00000000E+00
  0.00000000E+00  0.00000000E+00  0.00000000E+00
  0.00000000E+00  0.00000000E+00  0.00000000E+00
  0.00000000E+00  0.00000000E+00  0.00000000E+00
  0.00000000E+00  0.00000000E+00  0.00000000E+00
  0.00000000E+00  0.00000000E+00  0.00000000E+00
  0.00000000E+00  0.00000000E+00  0.00000000E+00
  0.00000000E+00  0.00000000E+00  0.00000000E+00
  0.00000000E+00  0.00000000E+00  0.00000000E+00
  0.00000000E+00  0.00000000E+00  0.00000000E+00
  0.00000000E+00  0.00000000E+00  0.00000000E+00
