Title                                   
   1.00000000000000     
     9.8694509999999998    0.0000000000000000    0.0000000000000000
     0.0000000000000000    8.5490480000000009    0.0000000000000000
     0.0000000000000000    0.0000000000000000   20.0000000000000000
    26     4     1
Selective dynamics
Direct
  0.0548890885826576  0.0909004002339007  0.0877163617143443   T   T   T
  0.9301111217604563  0.1737810097514175  0.0889513431311301   T   T   T
  0.0578827393864307  0.9238005760977409  0.0877566272812293   T   T   T
  0.9321890179446166  0.3415920478670632  0.0883673602514845   T   T   T
  0.0576461932947551  0.5903225968593381  0.0846501035039630   T   T   T
  0.9342938811953079  0.6754069532624308  0.0883132655920856   T   T   T
  0.0569811189235955  0.4233421825682290  0.0849421906355099   T   T   T
  0.9329732304716434  0.8415998936251168  0.0895350360102775   T   T   T
  0.3060049330371076  0.0870789169370326  0.0944788668936238   T   T   T
  0.1803624756921779  0.1710886232018311  0.0894459240649373   T   T   T
  0.1805227278451456  0.3379934603739996  0.0879755655881218   T   T   T
  0.3042883635662219  0.5877749264923204  0.0927999077639613   T   T   T
  0.1817586865475371  0.6733488633970240  0.0867259078658494   T   T   T
  0.3035721108039275  0.4204344026720025  0.0957732731036285   T   T   T
  0.1819171159808844  0.8395740020596173  0.0882965401944774   T   T   T
  0.5545363950480865  0.0894445740892507  0.1040286138778760   T   T   T
  0.4271784223298284  0.1727359403259204  0.1036488837017236   T   T   T
  0.5549684181457468  0.9181558278133134  0.1035289551589975   T   T   T
  0.4291186405525493  0.8333489228177792  0.0997718167462370   T   T   T
  0.8037533369705907  0.0910746160072642  0.0935665336751406   T   T   T
  0.6791859714687404  0.1762224083014621  0.1012335914452305   T   T   T
  0.8061226683041507  0.9236894304408605  0.0941224381791952   T   T   T
  0.6855140554593858  0.3443017203025935  0.1069865907357798   T   T   T
  0.8122973475460643  0.5943705815921405  0.0973080184360700   T   T   T
  0.8096009457146716  0.4264710527675387  0.0961614632300582   T   T   T
  0.6842155279900974  0.8354024570606292  0.1030256601718604   T   T   T
  0.4201059985800961  0.3352424370528610  0.1122427123003102   T   T   T
  0.6938043044131899  0.6750467043010587  0.1116501687061253   T   T   T
  0.4235712232616892  0.6727339019048935  0.1013311433355177   T   T   T
  0.3075369460253320  0.9213027083684219  0.0929526516835460   T   T   T
  0.5562319931573272  0.5032928614549604  0.1436774850217449   T   T   T
 
  0.00000000E+00  0.00000000E+00  0.00000000E+00
  0.00000000E+00  0.00000000E+00  0.00000000E+00
  0.00000000E+00  0.00000000E+00  0.00000000E+00
  0.00000000E+00  0.00000000E+00  0.00000000E+00
  0.00000000E+00  0.00000000E+00  0.00000000E+00
  0.00000000E+00  0.00000000E+00  0.00000000E+00
  0.00000000E+00  0.00000000E+00  0.00000000E+00
  0.00000000E+00  0.00000000E+00  0.00000000E+00
  0.00000000E+00  0.00000000E+00  0.00000000E+00
  0.00000000E+00  0.00000000E+00  0.00000000E+00
  0.00000000E+00  0.00000000E+00  0.00000000E+00
  0.00000000E+00  0.00000000E+00  0.00000000E+00
  0.00000000E+00  0.00000000E+00  0.00000000E+00
  0.00000000E+00  0.00000000E+00  0.00000000E+00
  0.00000000E+00  0.00000000E+00  0.00000000E+00
  0.00000000E+00  0.00000000E+00  0.00000000E+00
  0.00000000E+00  0.00000000E+00  0.00000000E+00
  0.00000000E+00  0.00000000E+00  0.00000000E+00
  0.00000000E+00  0.00000000E+00  0.00000000E+00
  0.00000000E+00  0.00000000E+00  0.00000000E+00
  0.00000000E+00  0.00000000E+00  0.00000000E+00
  0.00000000E+00  0.00000000E+00  0.00000000E+00
  0.00000000E+00  0.00000000E+00  0.00000000E+00
  0.00000000E+00  0.00000000E+00  0.00000000E+00
  0.00000000E+00  0.00000000E+00  0.00000000E+00
  0.00000000E+00  0.00000000E+00  0.00000000E+00
  0.00000000E+00  0.00000000E+00  0.00000000E+00
  0.00000000E+00  0.00000000E+00  0.00000000E+00
  0.00000000E+00  0.00000000E+00  0.00000000E+00
  0.00000000E+00  0.00000000E+00  0.00000000E+00
  0.00000000E+00  0.00000000E+00  0.00000000E+00
