Title                                   
   1.00000000000000     
     8.5490480000000009    0.0000000000000000    0.0000000000000000
     0.0000000000000000    8.5490480000000009    0.0000000000000000
     0.0000000000000000    0.0000000000000000   20.0000000000000000
    18     6     1
Selective dynamics
Direct
  0.9094409889665951  0.2040664642696840  0.0975056412206600   T   T   T
  0.9106175323041165  0.8017776899257739  0.0973431352164693   T   T   T
  0.1959367735896343  0.0841569970359655  0.0977348709530637   T   T   T
  0.0772598218055989  0.1996872373297081  0.0976128570559877   T   T   T
  0.1549908466475550  0.6537620483597754  0.0978671877079685   T   T   T
  0.0754943648117047  0.5009149666450036  0.0978142176407187   T   T   T
  0.1565084855296855  0.3537104789433287  0.0977473801870126   T   T   T
  0.0776791299328443  0.8012043496943388  0.0975990299102071   T   T   T
  0.3480226564984378  0.1657519902401824  0.0978774574700479   T   T   T
  0.4939130750506647  0.9169607294549564  0.0978152065009380   T   T   T
  0.3410313865194429  0.8382193514937094  0.0979823297071679   T   T   T
  0.7900759621804827  0.0853021968586412  0.0974537157677772   T   T   T
  0.6427734924844778  0.1655173007486479  0.0978769647879329   T   T   T
  0.7909883408900789  0.9186808644881671  0.0973053105454798   T   T   T
  0.8287197531902150  0.6523930063440156  0.0975141672449925   T   T   T
  0.8276665529143897  0.3509013716291185  0.0978164371385001   T   T   T
  0.6432847356532813  0.8369584687307785  0.0974843583797610   T   T   T
  0.3222843366166181  0.3276832890045786  0.0978387981623049   T   T   T
  0.4954468370330646  0.0855302751208304  0.0979242947122601   T   T   T
  0.9051489760984014  0.5022059292643269  0.0977758292229200   T   T   T
  0.3146274072121519  0.6814180227945821  0.0982290934483917   T   T   T
  0.6671632747309064  0.3249424352550632  0.0981682831773856   T   T   T
  0.6708011813572294  0.6757150395515914  0.0975453131839034   T   T   T
  0.1951946465744159  0.9173365126213078  0.0977671872497236   T   T   T
  0.4903414414080002  0.4999929841959437  0.0981059334083987   T   T   T
 
  0.00000000E+00  0.00000000E+00  0.00000000E+00
  0.00000000E+00  0.00000000E+00  0.00000000E+00
  0.00000000E+00  0.00000000E+00  0.00000000E+00
  0.00000000E+00  0.00000000E+00  0.00000000E+00
  0.00000000E+00  0.00000000E+00  0.00000000E+00
  0.00000000E+00  0.00000000E+00  0.00000000E+00
  0.00000000E+00  0.00000000E+00  0.00000000E+00
  0.00000000E+00  0.00000000E+00  0.00000000E+00
  0.00000000E+00  0.00000000E+00  0.00000000E+00
  0.00000000E+00  0.00000000E+00  0.00000000E+00
  0.00000000E+00  0.00000000E+00  0.00000000E+00
  0.00000000E+00  0.00000000E+00  0.00000000E+00
  0.00000000E+00  0.00000000E+00  0.00000000E+00
  0.00000000E+00  0.00000000E+00  0.00000000E+00
  0.00000000E+00  0.00000000E+00  0.00000000E+00
  0.00000000E+00  0.00000000E+00  0.00000000E+00
  0.00000000E+00  0.00000000E+00  0.00000000E+00
  0.00000000E+00  0.00000000E+00  0.00000000E+00
  0.00000000E+00  0.00000000E+00  0.00000000E+00
  0.00000000E+00  0.00000000E+00  0.00000000E+00
  0.00000000E+00  0.00000000E+00  0.00000000E+00
  0.00000000E+00  0.00000000E+00  0.00000000E+00
  0.00000000E+00  0.00000000E+00  0.00000000E+00
  0.00000000E+00  0.00000000E+00  0.00000000E+00
  0.00000000E+00  0.00000000E+00  0.00000000E+00
