Title                                   
   1.00000000000000     
     9.8694509999999998    0.0000000000000000    0.0000000000000000
     0.0000000000000000    8.5490480000000009    0.0000000000000000
     0.0000000000000000    0.0000000000000000   20.0000000000000000
    31     1
Selective dynamics
Direct
  0.0562445977630783  0.0897637492400800  0.0818263689708341   T   T   T
  0.9313558915192347  0.1728790261581119  0.0844245273876588   T   T   T
  0.0562433224797632  0.9229174130689010  0.0810873001281614   T   T   T
  0.9309725490469242  0.3395366771995583  0.0880190903801736   T   T   T
  0.0562389014324182  0.5888415357324610  0.0842540256035225   T   T   T
  0.9322976990707379  0.6724883869087497  0.0861919006249530   T   T   T
  0.0562313384392272  0.4225390730026696  0.0859688227943787   T   T   T
  0.9315695191992097  0.8394404235589031  0.0838442920618121   T   T   T
  0.3054788640473430  0.0894621570393008  0.0865203528837482   T   T   T
  0.1811069937903609  0.1728934599461482  0.0844067607145843   T   T   T
  0.3051826315636607  0.9235414623095185  0.0875219260723458   T   T   T
  0.1814869422666993  0.3395512342595345  0.0879899595875113   T   T   T
  0.3027878089874577  0.5899349627666354  0.0984338996742279   T   T   T
  0.1801858038180755  0.6724773463633645  0.0861615181911603   T   T   T
  0.3052099315303158  0.4218228014377348  0.0975150661652042   T   T   T
  0.1809095012424456  0.8394252483729095  0.0838250892195201   T   T   T
  0.5562419423880556  0.0878193747177597  0.0941890914081525   T   T   T
  0.4304944900546390  0.1709014231426567  0.0928217567893242   T   T   T
  0.5562351113656144  0.9223766557040807  0.0990634130879100   T   T   T
  0.4303772674457479  0.3356622346587073  0.1021891413266548   T   T   T
  0.4196847714503535  0.6791955668611753  0.1126929801114930   T   T   T
  0.5562173030304555  0.4088802713602668  0.1162393181007766   T   T   T
  0.4284280195305745  0.8411901628727665  0.0996633043316379   T   T   T
  0.8069947720808304  0.0894500685871936  0.0865594847552951   T   T   T
  0.6819943969492096  0.1709195381733154  0.0928619452454196   T   T   T
  0.8072819818624805  0.9235334571036056  0.0875521342520997   T   T   T
  0.6821048989846632  0.3356904329727545  0.1022270507976298   T   T   T
  0.8097464873497892  0.5899401319693534  0.0985307133195807   T   T   T
  0.6928946423280774  0.6791901322796169  0.1128369418945773   T   T   T
  0.8072806968411436  0.4218396686670265  0.0975888790550905   T   T   T
  0.6840544038069808  0.8411562693657979  0.0997215527710372   T   T   T
  0.5561055183344407  0.5949856541993505  0.1829463922935593   T   T   T
 
  0.00000000E+00  0.00000000E+00  0.00000000E+00
  0.00000000E+00  0.00000000E+00  0.00000000E+00
  0.00000000E+00  0.00000000E+00  0.00000000E+00
  0.00000000E+00  0.00000000E+00  0.00000000E+00
  0.00000000E+00  0.00000000E+00  0.00000000E+00
  0.00000000E+00  0.00000000E+00  0.00000000E+00
  0.00000000E+00  0.00000000E+00  0.00000000E+00
  0.00000000E+00  0.00000000E+00  0.00000000E+00
  0.00000000E+00  0.00000000E+00  0.00000000E+00
  0.00000000E+00  0.00000000E+00  0.00000000E+00
  0.00000000E+00  0.00000000E+00  0.00000000E+00
  0.00000000E+00  0.00000000E+00  0.00000000E+00
  0.00000000E+00  0.00000000E+00  0.00000000E+00
  0.00000000E+00  0.00000000E+00  0.00000000E+00
  0.00000000E+00  0.00000000E+00  0.00000000E+00
  0.00000000E+00  0.00000000E+00  0.00000000E+00
  0.00000000E+00  0.00000000E+00  0.00000000E+00
  0.00000000E+00  0.00000000E+00  0.00000000E+00
  0.00000000E+00  0.00000000E+00  0.00000000E+00
  0.00000000E+00  0.00000000E+00  0.00000000E+00
  0.00000000E+00  0.00000000E+00  0.00000000E+00
  0.00000000E+00  0.00000000E+00  0.00000000E+00
  0.00000000E+00  0.00000000E+00  0.00000000E+00
  0.00000000E+00  0.00000000E+00  0.00000000E+00
  0.00000000E+00  0.00000000E+00  0.00000000E+00
  0.00000000E+00  0.00000000E+00  0.00000000E+00
  0.00000000E+00  0.00000000E+00  0.00000000E+00
  0.00000000E+00  0.00000000E+00  0.00000000E+00
  0.00000000E+00  0.00000000E+00  0.00000000E+00
  0.00000000E+00  0.00000000E+00  0.00000000E+00
  0.00000000E+00  0.00000000E+00  0.00000000E+00
  0.00000000E+00  0.00000000E+00  0.00000000E+00
