Title                                   
   1.00000000000000     
     8.5490480000000009    0.0000000000000000    0.0000000000000000
     0.0000000000000000    8.5490480000000009    0.0000000000000000
     0.0000000000000000    0.0000000000000000   20.0000000000000000
    22     2     1
Selective dynamics
Direct
  0.9101815823871086  0.2050398760379924  0.0954372064698334   T   T   T
  0.9027494962916851  0.5018077468158997  0.0952794865266396   T   T   T
  0.9101983374230255  0.7985425466343112  0.0954552520924151   T   T   T
  0.1996326749490384  0.0843576926833229  0.0954736764889401   T   T   T
  0.0759383611923219  0.2070404405289515  0.0954424256843286   T   T   T
  0.1996464576231655  0.9192037698694475  0.0954845345567349   T   T   T
  0.1540663126428868  0.6477546877978274  0.0953626502404535   T   T   T
  0.0721876125096482  0.5017966159537905  0.0953238102731183   T   T   T
  0.1540443574637028  0.3558276822811907  0.0953549403012050   T   T   T
  0.0759512247940823  0.7965187115677567  0.0954601291852647   T   T   T
  0.4949605396590824  0.0870368051229886  0.0953612331880930   T   T   T
  0.3484156179378921  0.1659594769653346  0.0953994054130363   T   T   T
  0.4949687899302909  0.9165474360718574  0.0953578267510781   T   T   T
  0.3484288571033587  0.8376369459722454  0.0954047943618562   T   T   T
  0.7899037392023406  0.0854558560265234  0.0954621131763036   T   T   T
  0.6434807127160987  0.1658071539581049  0.0953177050682921   T   T   T
  0.7899090314467371  0.9181311537447046  0.0954645163814741   T   T   T
  0.8258253557968652  0.6503627618419613  0.0952956970297509   T   T   T
  0.8258339440361513  0.3532327453579966  0.0952699045622225   T   T   T
  0.6434886814206906  0.8377765740024218  0.0953187181975716   T   T   T
  0.3239469655388354  0.3362524422077681  0.0952998673761145   T   T   T
  0.3239661826947453  0.6673417618513339  0.0953040943945217   T   T   T
  0.6657932547945978  0.3285677376701283  0.0951526805521067   T   T   T
  0.6657924131979849  0.6750000881112231  0.0951629132740280   T   T   T
  0.4861014972476566  0.5017912909249308  0.0950594184545952   T   T   T
 
  0.00000000E+00  0.00000000E+00  0.00000000E+00
  0.00000000E+00  0.00000000E+00  0.00000000E+00
  0.00000000E+00  0.00000000E+00  0.00000000E+00
  0.00000000E+00  0.00000000E+00  0.00000000E+00
  0.00000000E+00  0.00000000E+00  0.00000000E+00
  0.00000000E+00  0.00000000E+00  0.00000000E+00
  0.00000000E+00  0.00000000E+00  0.00000000E+00
  0.00000000E+00  0.00000000E+00  0.00000000E+00
  0.00000000E+00  0.00000000E+00  0.00000000E+00
  0.00000000E+00  0.00000000E+00  0.00000000E+00
  0.00000000E+00  0.00000000E+00  0.00000000E+00
  0.00000000E+00  0.00000000E+00  0.00000000E+00
  0.00000000E+00  0.00000000E+00  0.00000000E+00
  0.00000000E+00  0.00000000E+00  0.00000000E+00
  0.00000000E+00  0.00000000E+00  0.00000000E+00
  0.00000000E+00  0.00000000E+00  0.00000000E+00
  0.00000000E+00  0.00000000E+00  0.00000000E+00
  0.00000000E+00  0.00000000E+00  0.00000000E+00
  0.00000000E+00  0.00000000E+00  0.00000000E+00
  0.00000000E+00  0.00000000E+00  0.00000000E+00
  0.00000000E+00  0.00000000E+00  0.00000000E+00
  0.00000000E+00  0.00000000E+00  0.00000000E+00
  0.00000000E+00  0.00000000E+00  0.00000000E+00
  0.00000000E+00  0.00000000E+00  0.00000000E+00
  0.00000000E+00  0.00000000E+00  0.00000000E+00
