Title                                   
   1.00000000000000     
     4.9440799999999996    0.0000000000000000    0.0000000000000000
     0.0000000000000000   17.1295089999999988    0.0000000000000000
     0.0000000000000000    0.0000000000000000   20.0000000000000000
    27     3     1
Selective dynamics
Direct
  0.0012404778356250  0.1055830394909750  0.2932759587324077   T   T   T
  0.2503586688000344  0.1480480262883068  0.2947667067041994   T   T   T
  0.2502287058128119  0.2327148294125367  0.2987877619500318   T   T   T
 -0.0017428898680355  0.2737462637198448  0.3004654469103686   T   T   T
  0.0013886947453626  0.6019692435278673  0.3002031729517362   T   T   T
  0.2502485859720151  0.7271379708098368  0.2948747935114841   T   T   T
  0.0015638935474245  0.8532238847789952  0.2924162761188897   T   T   T
  0.2504166332100781  0.8954377903984977  0.2922814920893990   T   T   T
  0.2504817192168098  0.9795643073427051  0.2921160878614880   T   T   T
  0.0015654529367863  0.7691208714171525  0.2933491106886670   T   T   T
  0.4995786409103428  0.1055930456275955  0.2932659812001726   T   T   T
  0.7504082068322209  0.1474349962476295  0.2937450428114571   T   T   T
  0.7502936814221244  0.2308215396630537  0.2966252129130904   T   T   T
  0.5000813293793396  0.0215660599575370  0.2921930497941370   T   T   T
  0.7501285610741526  0.3933951010801614  0.3071618734597977   T   T   T
  0.7501086491108068  0.4787558522973202  0.3084897917867679   T   T   T
  0.5022103121947080  0.2737016679704380  0.3004175442580695   T   T   T
  0.4990631771847157  0.6020226472285414  0.3001782058951247   T   T   T
  0.7503291796419795  0.7275882288675205  0.2933816138199584   T   T   T
  0.4992238469100145  0.8532155009680475  0.2924150607891527   T   T   T
  0.7504229837226509  0.8952742260100959  0.2920609787522325   T   T   T
  0.7504995464670889  0.9792417564185997  0.2919351527589680   T   T   T
  0.4990608896675732  0.7691039389191424  0.2933461571303096   T   T   T
  0.7502814977932531  0.6450277444370771  0.2956444109353072   T   T   T
  0.0009115162496523  0.0215647838270314  0.2922045841060993   T   T   T
  0.4991572085105793  0.5207868016695255  0.3090532458175220   T   T   T
  0.0012400421172915  0.5207246698378099  0.3091498426178638   T   T   T
  0.5089648373518143  0.3538442835926556  0.3069145809355590   T   T   T
 -0.0086251828167797  0.3538854966198496  0.3070672601823968   T   T   T
  0.2502102826808165  0.6445200290201464  0.2984648604368200   T   T   T
  0.2507078513867458  0.4367274025535007  0.3588087420804742   T   T   T
 
  0.00000000E+00  0.00000000E+00  0.00000000E+00
  0.00000000E+00  0.00000000E+00  0.00000000E+00
  0.00000000E+00  0.00000000E+00  0.00000000E+00
  0.00000000E+00  0.00000000E+00  0.00000000E+00
  0.00000000E+00  0.00000000E+00  0.00000000E+00
  0.00000000E+00  0.00000000E+00  0.00000000E+00
  0.00000000E+00  0.00000000E+00  0.00000000E+00
  0.00000000E+00  0.00000000E+00  0.00000000E+00
  0.00000000E+00  0.00000000E+00  0.00000000E+00
  0.00000000E+00  0.00000000E+00  0.00000000E+00
  0.00000000E+00  0.00000000E+00  0.00000000E+00
  0.00000000E+00  0.00000000E+00  0.00000000E+00
  0.00000000E+00  0.00000000E+00  0.00000000E+00
  0.00000000E+00  0.00000000E+00  0.00000000E+00
  0.00000000E+00  0.00000000E+00  0.00000000E+00
  0.00000000E+00  0.00000000E+00  0.00000000E+00
  0.00000000E+00  0.00000000E+00  0.00000000E+00
  0.00000000E+00  0.00000000E+00  0.00000000E+00
  0.00000000E+00  0.00000000E+00  0.00000000E+00
  0.00000000E+00  0.00000000E+00  0.00000000E+00
  0.00000000E+00  0.00000000E+00  0.00000000E+00
  0.00000000E+00  0.00000000E+00  0.00000000E+00
  0.00000000E+00  0.00000000E+00  0.00000000E+00
  0.00000000E+00  0.00000000E+00  0.00000000E+00
  0.00000000E+00  0.00000000E+00  0.00000000E+00
  0.00000000E+00  0.00000000E+00  0.00000000E+00
  0.00000000E+00  0.00000000E+00  0.00000000E+00
  0.00000000E+00  0.00000000E+00  0.00000000E+00
  0.00000000E+00  0.00000000E+00  0.00000000E+00
  0.00000000E+00  0.00000000E+00  0.00000000E+00
  0.00000000E+00  0.00000000E+00  0.00000000E+00
