Title                                   
   1.00000000000000     
     8.5490480000000009    0.0000000000000000    0.0000000000000000
     0.0000000000000000    8.5490480000000009    0.0000000000000000
     0.0000000000000000    0.0000000000000000   20.0000000000000000
    22     2     1
Selective dynamics
Direct
  0.9097127410918971  0.2072484395386101  0.0946078274799118   T   T   T
  0.9122835619051086  0.7997645775341358  0.0945229002350980   T   T   T
  0.1977110869591208  0.0832495884016625  0.0946711122773117   T   T   T
  0.0748948410948595  0.2023132633032983  0.0947292628986451   T   T   T
  0.1576037603363445  0.6479499758409969  0.0957639107536138   T   T   T
  0.0756066826322946  0.5015238015007362  0.0956239083902558   T   T   T
  0.1564117898639461  0.3552255948759246  0.0964818639806808   T   T   T
  0.0786227414026258  0.7984631714284536  0.0943812634573029   T   T   T
  0.4934727852759818  0.0863514688019736  0.0961480112719212   T   T   T
  0.3450285939138931  0.1648848102820696  0.0965033435193940   T   T   T
  0.4931637830913148  0.9174446637704777  0.0961781770652200   T   T   T
  0.3463720180931517  0.8348338585541751  0.0963125535098732   T   T   T
  0.7870858522204376  0.0863414834493959  0.0953204263346206   T   T   T
  0.6381604595497328  0.1689783492882664  0.0965298917670326   T   T   T
  0.7883571997592657  0.9195736647768701  0.0953616624705471   T   T   T
  0.8304452364305024  0.6478714068884778  0.0958010677101329   T   T   T
  0.8282677110635982  0.3588410448124595  0.0953562941799752   T   T   T
  0.6390944396977579  0.8351133954876173  0.0970392162768768   T   T   T
  0.3223747075593695  0.3337654656364621  0.1006227950643458   T   T   T
  0.3241501859657926  0.6695513830534756  0.0987853483665314   T   T   T
  0.6624545601550470  0.3390821840785682  0.0989244323980858   T   T   T
  0.6638924875945071  0.6666611842174039  0.1005329399585287   T   T   T
  0.9101261401388866  0.5031323885859679  0.0951315646342941   T   T   T
  0.1982703963317364  0.9158960822892754  0.0945201337192088   T   T   T
  0.4918482378728133  0.5007287536032523  0.1338550922805723   T   T   T
 
  0.00000000E+00  0.00000000E+00  0.00000000E+00
  0.00000000E+00  0.00000000E+00  0.00000000E+00
  0.00000000E+00  0.00000000E+00  0.00000000E+00
  0.00000000E+00  0.00000000E+00  0.00000000E+00
  0.00000000E+00  0.00000000E+00  0.00000000E+00
  0.00000000E+00  0.00000000E+00  0.00000000E+00
  0.00000000E+00  0.00000000E+00  0.00000000E+00
  0.00000000E+00  0.00000000E+00  0.00000000E+00
  0.00000000E+00  0.00000000E+00  0.00000000E+00
  0.00000000E+00  0.00000000E+00  0.00000000E+00
  0.00000000E+00  0.00000000E+00  0.00000000E+00
  0.00000000E+00  0.00000000E+00  0.00000000E+00
  0.00000000E+00  0.00000000E+00  0.00000000E+00
  0.00000000E+00  0.00000000E+00  0.00000000E+00
  0.00000000E+00  0.00000000E+00  0.00000000E+00
  0.00000000E+00  0.00000000E+00  0.00000000E+00
  0.00000000E+00  0.00000000E+00  0.00000000E+00
  0.00000000E+00  0.00000000E+00  0.00000000E+00
  0.00000000E+00  0.00000000E+00  0.00000000E+00
  0.00000000E+00  0.00000000E+00  0.00000000E+00
  0.00000000E+00  0.00000000E+00  0.00000000E+00
  0.00000000E+00  0.00000000E+00  0.00000000E+00
  0.00000000E+00  0.00000000E+00  0.00000000E+00
  0.00000000E+00  0.00000000E+00  0.00000000E+00
  0.00000000E+00  0.00000000E+00  0.00000000E+00
