Title                                   
   1.00000000000000     
     4.9440799999999996    0.0000000000000000    0.0000000000000000
     0.0000000000000000    8.5647549999999999    0.0000000000000000
     0.0000000000000000    0.0000000000000000   20.0000000000000000
    12     2     1
Selective dynamics
Direct
  0.2500000000000000  0.2062590942119779  0.0944888056036328   T   T   T
  0.0014059159029345  0.2927717647534167  0.0955124160376360   T   T   T
  0.2500000000000000  0.0369176411717184  0.0943148403025855   T   T   T
 -0.0013969746719890  0.9539886497476082  0.0947063943430277   T   T   T
  0.7500000000000000  0.2079697228046922  0.0924892192108812   T   T   T
  0.4985940840970653  0.2927717647534167  0.0955124160376360   T   T   T
  0.7500000000000000  0.0402918852215137  0.0920552887116709   T   T   T
  0.7500000000000000  0.7148634927408757  0.1004268937009751   T   T   T
  0.7500000000000000  0.5442942735746330  0.1033520893620903   T   T   T
  0.5013969746719888  0.9539886497476082  0.0947063943430277   T   T   T
  0.4992729493818564  0.4590097086234692  0.1033210363986975   T   T   T
  0.0007270506181436  0.4590097086234692  0.1033210363986975   T   T   T
 -0.0085770899928432  0.7927980071516642  0.0997191735805777   T   T   T
  0.5085770899928435  0.7927980071516642  0.0997191735805777   T   T   T
  0.2500000000000000  0.6239486297222752  0.1443348223882899   T   T   T
 
  0.00000000E+00  0.00000000E+00  0.00000000E+00
  0.00000000E+00  0.00000000E+00  0.00000000E+00
  0.00000000E+00  0.00000000E+00  0.00000000E+00
  0.00000000E+00  0.00000000E+00  0.00000000E+00
  0.00000000E+00  0.00000000E+00  0.00000000E+00
  0.00000000E+00  0.00000000E+00  0.00000000E+00
  0.00000000E+00  0.00000000E+00  0.00000000E+00
  0.00000000E+00  0.00000000E+00  0.00000000E+00
  0.00000000E+00  0.00000000E+00  0.00000000E+00
  0.00000000E+00  0.00000000E+00  0.00000000E+00
  0.00000000E+00  0.00000000E+00  0.00000000E+00
  0.00000000E+00  0.00000000E+00  0.00000000E+00
  0.00000000E+00  0.00000000E+00  0.00000000E+00
  0.00000000E+00  0.00000000E+00  0.00000000E+00
  0.00000000E+00  0.00000000E+00  0.00000000E+00
