Title                                   
   1.00000000000000     
     9.8694509999999998    0.0000000000000000    0.0000000000000000
     0.0000000000000000    8.5490480000000009    0.0000000000000000
     0.0000000000000000    0.0000000000000000   20.0000000000000000
    29     1     1
Selective dynamics
Direct
  0.0557684094134610  0.0880377173728368  0.0885494903744919   T   T   T
  0.9309173382448269  0.1717894350313779  0.0891092045823336   T   T   T
  0.0564051277265588  0.9226314171068809  0.0888174014355773   T   T   T
  0.9335342370323227  0.3383711873862285  0.0883067181612470   T   T   T
  0.0569082600246499  0.5893303255546923  0.0875805037595541   T   T   T
  0.9331060394777387  0.6742364493904892  0.0892480851525256   T   T   T
  0.0569395004142373  0.4229598204588704  0.0871949460193009   T   T   T
  0.9311340854598532  0.8404661436353927  0.0898854022543202   T   T   T
  0.3058352464329532  0.0899065150931703  0.0942225632453527   T   T   T
  0.1803960004809908  0.1709667179434746  0.0902303440635805   T   T   T
  0.3069601685941575  0.9217128037119880  0.0940956320806441   T   T   T
  0.1800176661922109  0.3374063114872768  0.0894750712465671   T   T   T
  0.3045893988452749  0.5882487158166089  0.0944911417220563   T   T   T
  0.1810555989833743  0.6722924293567595  0.0897742501353964   T   T   T
  0.3029257623728684  0.4186418464715176  0.0949825846750022   T   T   T
  0.1818144471823822  0.8392800125721651  0.0903084827870538   T   T   T
  0.5551484749621576  0.0928439901722648  0.1005048273317312   T   T   T
  0.4282703910310973  0.1793752117726767  0.0995048535823592   T   T   T
  0.5553882485626170  0.9247983843446226  0.1005725542856246   T   T   T
  0.4288967312497436  0.6682024907637951  0.1011349432865875   T   T   T
  0.4311212309478317  0.8351591541144424  0.0989249278183787   T   T   T
  0.8050982666198337  0.0906732790281268  0.0928529453888714   T   T   T
  0.6811363791044288  0.1794685856031586  0.0977604645088455   T   T   T
  0.8051892508497489  0.9225566999946743  0.0934196950003911   T   T   T
  0.6864171590292032  0.3455238037783726  0.0997167449010881   T   T   T
  0.8104751406056320  0.5909619481033270  0.0936370934725787   T   T   T
  0.6845713644707924  0.6684622594465800  0.1014213146311297   T   T   T
  0.8113205341996688  0.4224018674546636  0.0927754844916459   T   T   T
  0.6807840373183772  0.8357825324204106  0.0988349960500580   T   T   T
  0.4233633253340924  0.3410696472839847  0.1022033446614026   T   T   T
  0.5576471788369253  0.5073172973291834  0.1214289888943451   T   T   T
 
  0.00000000E+00  0.00000000E+00  0.00000000E+00
  0.00000000E+00  0.00000000E+00  0.00000000E+00
  0.00000000E+00  0.00000000E+00  0.00000000E+00
  0.00000000E+00  0.00000000E+00  0.00000000E+00
  0.00000000E+00  0.00000000E+00  0.00000000E+00
  0.00000000E+00  0.00000000E+00  0.00000000E+00
  0.00000000E+00  0.00000000E+00  0.00000000E+00
  0.00000000E+00  0.00000000E+00  0.00000000E+00
  0.00000000E+00  0.00000000E+00  0.00000000E+00
  0.00000000E+00  0.00000000E+00  0.00000000E+00
  0.00000000E+00  0.00000000E+00  0.00000000E+00
  0.00000000E+00  0.00000000E+00  0.00000000E+00
  0.00000000E+00  0.00000000E+00  0.00000000E+00
  0.00000000E+00  0.00000000E+00  0.00000000E+00
  0.00000000E+00  0.00000000E+00  0.00000000E+00
  0.00000000E+00  0.00000000E+00  0.00000000E+00
  0.00000000E+00  0.00000000E+00  0.00000000E+00
  0.00000000E+00  0.00000000E+00  0.00000000E+00
  0.00000000E+00  0.00000000E+00  0.00000000E+00
  0.00000000E+00  0.00000000E+00  0.00000000E+00
  0.00000000E+00  0.00000000E+00  0.00000000E+00
  0.00000000E+00  0.00000000E+00  0.00000000E+00
  0.00000000E+00  0.00000000E+00  0.00000000E+00
  0.00000000E+00  0.00000000E+00  0.00000000E+00
  0.00000000E+00  0.00000000E+00  0.00000000E+00
  0.00000000E+00  0.00000000E+00  0.00000000E+00
  0.00000000E+00  0.00000000E+00  0.00000000E+00
  0.00000000E+00  0.00000000E+00  0.00000000E+00
  0.00000000E+00  0.00000000E+00  0.00000000E+00
  0.00000000E+00  0.00000000E+00  0.00000000E+00
  0.00000000E+00  0.00000000E+00  0.00000000E+00
