Title                                   
   1.00000000000000     
     8.5490480000000009    0.0000000000000000    0.0000000000000000
     0.0000000000000000    8.5490480000000009    0.0000000000000000
     0.0000000000000000    0.0000000000000000   20.0000000000000000
    21     3     1
Selective dynamics
Direct
  0.9079895937083409  0.2079045072141677  0.0975577741848205   T   T   T
  0.9089452146635629  0.5030610075238768  0.0977421252984731   T   T   T
  0.9126559573343567  0.8013773551954229  0.0976802407533642   T   T   T
  0.1967063145825754  0.0824847362897478  0.0977123119261778   T   T   T
  0.0745550611616285  0.2023598205437487  0.0976809937208836   T   T   T
  0.1621060993879927  0.6467918216864709  0.0977402823161023   T   T   T
  0.0786604719707726  0.5009243052746063  0.0977862585256575   T   T   T
  0.1600174380048249  0.3524329001777047  0.0978841387602564   T   T   T
  0.0800137627784605  0.7974067679871489  0.0976732009877475   T   T   T
  0.4915079083818186  0.0866522368888362  0.0977512147229182   T   T   T
  0.3423406937087038  0.1659350654622299  0.0978650155958488   T   T   T
  0.4919591794223141  0.9166565981305089  0.0977226660139049   T   T   T
  0.3473919657089342  0.8332971772368780  0.0976766477455803   T   T   T
  0.7855867638504178  0.0862544526139793  0.0975723512796559   T   T   T
  0.6352607415149353  0.1693387516141143  0.0976808575787553   T   T   T
  0.7890214030692282  0.9213248068264115  0.0976670432559537   T   T   T
  0.8291085046285800  0.6525080945174055  0.0977860696452507   T   T   T
  0.8262720634651921  0.3577044477821427  0.0976576501459537   T   T   T
  0.6404762870604733  0.8349915943143207  0.0977978738714623   T   T   T
  0.3276528790597147  0.6675678773496155  0.0977444889800624   T   T   T
  0.6569843857985447  0.3374990339791076  0.0977206669478485   T   T   T
  0.3206138890341620  0.3296488358382614  0.0980806439157042   T   T   T
  0.6655708523396583  0.6741629244244128  0.0979128659104654   T   T   T
  0.1988937186145278  0.9154807639876303  0.0976677409847336   T   T   T
  0.4951208507502660  0.5010241171412642  0.0979438769323996   T   T   T
 
  0.00000000E+00  0.00000000E+00  0.00000000E+00
  0.00000000E+00  0.00000000E+00  0.00000000E+00
  0.00000000E+00  0.00000000E+00  0.00000000E+00
  0.00000000E+00  0.00000000E+00  0.00000000E+00
  0.00000000E+00  0.00000000E+00  0.00000000E+00
  0.00000000E+00  0.00000000E+00  0.00000000E+00
  0.00000000E+00  0.00000000E+00  0.00000000E+00
  0.00000000E+00  0.00000000E+00  0.00000000E+00
  0.00000000E+00  0.00000000E+00  0.00000000E+00
  0.00000000E+00  0.00000000E+00  0.00000000E+00
  0.00000000E+00  0.00000000E+00  0.00000000E+00
  0.00000000E+00  0.00000000E+00  0.00000000E+00
  0.00000000E+00  0.00000000E+00  0.00000000E+00
  0.00000000E+00  0.00000000E+00  0.00000000E+00
  0.00000000E+00  0.00000000E+00  0.00000000E+00
  0.00000000E+00  0.00000000E+00  0.00000000E+00
  0.00000000E+00  0.00000000E+00  0.00000000E+00
  0.00000000E+00  0.00000000E+00  0.00000000E+00
  0.00000000E+00  0.00000000E+00  0.00000000E+00
  0.00000000E+00  0.00000000E+00  0.00000000E+00
  0.00000000E+00  0.00000000E+00  0.00000000E+00
  0.00000000E+00  0.00000000E+00  0.00000000E+00
  0.00000000E+00  0.00000000E+00  0.00000000E+00
  0.00000000E+00  0.00000000E+00  0.00000000E+00
  0.00000000E+00  0.00000000E+00  0.00000000E+00
