Title                                   
   1.00000000000000     
     4.9440799999999996    0.0000000000000000    0.0000000000000000
     0.0000000000000000    8.5647549999999999    0.0000000000000000
     0.0000000000000000    0.0000000000000000   20.0000000000000000
    11     4     1
Selective dynamics
Direct
 -0.0055329660354103  0.2920317829648258  0.0915068673853641   T   T   T
  0.2500000000000000  0.0447759575901126  0.0893515398809127   T   T   T
  0.0037646894650533  0.7965671178393248  0.1030016155102611   T   T   T
  0.0005641176738106  0.9611885637842899  0.0896105661756883   T   T   T
  0.7500000000000000  0.2055080986169704  0.0839971992939795   T   T   T
  0.5055329660354102  0.2920317829648258  0.0915068673853641   T   T   T
  0.7500000000000000  0.0409341772195729  0.0831454432941064   T   T   T
  0.7500000000000000  0.7046130011479571  0.1050609319027605   T   T   T
  0.4962353105349467  0.7965671178393248  0.1030016155102611   T   T   T
  0.7500000000000000  0.5315205607676741  0.1048966121538020   T   T   T
  0.4994358823261893  0.9611885637842899  0.0896105661756883   T   T   T
  0.5138389920589584  0.4462953671165053  0.1057442987768894   T   T   T
 -0.0138389920589585  0.4462953671165053  0.1057442987768894   T   T   T
  0.2500000000000000  0.7305709796559572  0.1178991206280168   T   T   T
  0.2500000000000000  0.2127368688404739  0.0889424369088773   T   T   T
  0.2500000000000000  0.5371746927513891  0.1594920202411483   T   T   T
 
  0.00000000E+00  0.00000000E+00  0.00000000E+00
  0.00000000E+00  0.00000000E+00  0.00000000E+00
  0.00000000E+00  0.00000000E+00  0.00000000E+00
  0.00000000E+00  0.00000000E+00  0.00000000E+00
  0.00000000E+00  0.00000000E+00  0.00000000E+00
  0.00000000E+00  0.00000000E+00  0.00000000E+00
  0.00000000E+00  0.00000000E+00  0.00000000E+00
  0.00000000E+00  0.00000000E+00  0.00000000E+00
  0.00000000E+00  0.00000000E+00  0.00000000E+00
  0.00000000E+00  0.00000000E+00  0.00000000E+00
  0.00000000E+00  0.00000000E+00  0.00000000E+00
  0.00000000E+00  0.00000000E+00  0.00000000E+00
  0.00000000E+00  0.00000000E+00  0.00000000E+00
  0.00000000E+00  0.00000000E+00  0.00000000E+00
  0.00000000E+00  0.00000000E+00  0.00000000E+00
  0.00000000E+00  0.00000000E+00  0.00000000E+00
