Title                                   
   1.00000000000000     
     8.5490480000000009    0.0000000000000000    0.0000000000000000
     0.0000000000000000    8.5490480000000009    0.0000000000000000
     0.0000000000000000    0.0000000000000000   20.0000000000000000
    20     4     1
Selective dynamics
Direct
  0.9098621145374892  0.2054137586783786  0.0954668411756496   T   T   T
  0.9068026497794093  0.5018259545155261  0.0953097644839478   T   T   T
  0.9098777174035506  0.7982027312246992  0.0954778759355482   T   T   T
  0.1966325105570506  0.0849189996631773  0.0954934339624416   T   T   T
  0.0761764047959012  0.2053822411959466  0.0954758429555636   T   T   T
  0.1966493558614647  0.9186116668452468  0.0954998237391119   T   T   T
  0.1594838108902723  0.6498574782916324  0.0953377207721811   T   T   T
  0.0792715167820902  0.5017916357810364  0.0953295059102822   T   T   T
  0.1594643913339068  0.3537027254107504  0.0953216856919753   T   T   T
  0.0761864084792118  0.7981701610615644  0.0954817152327535   T   T   T
  0.4929893688393404  0.0880313698750261  0.0953547386272526   T   T   T
  0.3449331359726972  0.1682325579664228  0.0953556263764276   T   T   T
  0.4929954003773330  0.9155778746845066  0.0953624812872714   T   T   T
  0.3449623283420703  0.8353118124547398  0.0953639484154098   T   T   T
  0.7893916142378885  0.0849671780610414  0.0954752684439354   T   T   T
  0.6410572434283457  0.1682821430215286  0.0953194951921509   T   T   T
  0.7894086251116126  0.9186636269037096  0.0954831544717637   T   T   T
  0.8265722097179278  0.6498935630525744  0.0953155229611967   T   T   T
  0.8265809582042181  0.3537464350186664  0.0952985348853421   T   T   T
  0.6410601228726471  0.8353524874902787  0.0953310100381943   T   T   T
  0.3207515042665405  0.3294884672224860  0.0951946323288343   T   T   T
  0.3207791241893222  0.6740409729095395  0.0952043129141187   T   T   T
  0.6652916940225040  0.3295312056982391  0.0951635985767775   T   T   T
  0.6652874374887733  0.6740887504513151  0.0951807267657325   T   T   T
  0.4929443525084255  0.5017042025219799  0.0951077388561153   T   T   T
 
  0.00000000E+00  0.00000000E+00  0.00000000E+00
  0.00000000E+00  0.00000000E+00  0.00000000E+00
  0.00000000E+00  0.00000000E+00  0.00000000E+00
  0.00000000E+00  0.00000000E+00  0.00000000E+00
  0.00000000E+00  0.00000000E+00  0.00000000E+00
  0.00000000E+00  0.00000000E+00  0.00000000E+00
  0.00000000E+00  0.00000000E+00  0.00000000E+00
  0.00000000E+00  0.00000000E+00  0.00000000E+00
  0.00000000E+00  0.00000000E+00  0.00000000E+00
  0.00000000E+00  0.00000000E+00  0.00000000E+00
  0.00000000E+00  0.00000000E+00  0.00000000E+00
  0.00000000E+00  0.00000000E+00  0.00000000E+00
  0.00000000E+00  0.00000000E+00  0.00000000E+00
  0.00000000E+00  0.00000000E+00  0.00000000E+00
  0.00000000E+00  0.00000000E+00  0.00000000E+00
  0.00000000E+00  0.00000000E+00  0.00000000E+00
  0.00000000E+00  0.00000000E+00  0.00000000E+00
  0.00000000E+00  0.00000000E+00  0.00000000E+00
  0.00000000E+00  0.00000000E+00  0.00000000E+00
  0.00000000E+00  0.00000000E+00  0.00000000E+00
  0.00000000E+00  0.00000000E+00  0.00000000E+00
  0.00000000E+00  0.00000000E+00  0.00000000E+00
  0.00000000E+00  0.00000000E+00  0.00000000E+00
  0.00000000E+00  0.00000000E+00  0.00000000E+00
  0.00000000E+00  0.00000000E+00  0.00000000E+00
