Title                                   
   1.00000000000000     
     4.9440799999999996    0.0000000000000000    0.0000000000000000
     0.0000000000000000    8.5647549999999999    0.0000000000000000
     0.0000000000000000    0.0000000000000000   20.0000000000000000
    11     3     1
Selective dynamics
Direct
  0.2498630248381687  0.2086064707111509  0.0987894242003805   T   T   T
 -0.0042415865716498  0.2907310930006224  0.0943969091342352   T   T   T
  0.2525891742126583  0.0372798399533446  0.0977947893006976   T   T   T
 -0.0003764864449809  0.9575266561084913  0.0916986440742235   T   T   T
  0.7448730734305409  0.2088720291323825  0.0960534252606490   T   T   T
  0.4978115768147418  0.2961981273234603  0.1033495221242571   T   T   T
  0.7491845860389240  0.0403574970631401  0.0946858366145063   T   T   T
  0.7627853454531841  0.7144173766081580  0.0975739373063952   T   T   T
  0.7589241242562611  0.5395061920301041  0.0998608220089385   T   T   T
  0.5054851577394200  0.9514507232167235  0.1016981968369403   T   T   T
  0.5078835128447899  0.4645282053793503  0.1151075221220225   T   T   T
 -0.0089216563895766  0.4521935720065684  0.0911573906249107   T   T   T
 -0.0066576410490126  0.7967846354392526  0.0842752934377316   T   T   T
  0.5229079439567897  0.7898318277378225  0.1137996242027324   T   T   T
  0.2178898508697419  0.6233967542894314  0.1277386627513830   T   T   T
 
  0.00000000E+00  0.00000000E+00  0.00000000E+00
  0.00000000E+00  0.00000000E+00  0.00000000E+00
  0.00000000E+00  0.00000000E+00  0.00000000E+00
  0.00000000E+00  0.00000000E+00  0.00000000E+00
  0.00000000E+00  0.00000000E+00  0.00000000E+00
  0.00000000E+00  0.00000000E+00  0.00000000E+00
  0.00000000E+00  0.00000000E+00  0.00000000E+00
  0.00000000E+00  0.00000000E+00  0.00000000E+00
  0.00000000E+00  0.00000000E+00  0.00000000E+00
  0.00000000E+00  0.00000000E+00  0.00000000E+00
  0.00000000E+00  0.00000000E+00  0.00000000E+00
  0.00000000E+00  0.00000000E+00  0.00000000E+00
  0.00000000E+00  0.00000000E+00  0.00000000E+00
  0.00000000E+00  0.00000000E+00  0.00000000E+00
  0.00000000E+00  0.00000000E+00  0.00000000E+00
