Title                                   
   1.00000000000000     
     9.8694509999999998    0.0000000000000000    0.0000000000000000
     0.0000000000000000    8.5490480000000009    0.0000000000000000
     0.0000000000000000    0.0000000000000000   20.0000000000000000
    29     2     1
Selective dynamics
Direct
  0.0560980704941093  0.0911431827530430  0.0830631269364530   T   T   T
  0.9312401550285623  0.1729818857964414  0.0847707245170113   T   T   T
  0.0568024764901317  0.9242634553300177  0.0836845564602690   T   T   T
  0.9313733538831073  0.3402026255077369  0.0881818232436505   T   T   T
  0.0572313929659974  0.5899681600012175  0.0851016737117691   T   T   T
  0.9328485827242586  0.6725729483875051  0.0893052469252574   T   T   T
  0.0573721904184329  0.4231363154558773  0.0857296327165398   T   T   T
  0.9321856667404435  0.8393096533964891  0.0864473313859178   T   T   T
  0.3054992155178681  0.0883536816430376  0.0879753980989606   T   T   T
  0.1818593439115947  0.1733776064851820  0.0851556923663750   T   T   T
  0.1834139073273159  0.3409933466523686  0.0872824148088636   T   T   T
  0.3034068687635145  0.5925571719486517  0.0986170418300454   T   T   T
  0.1811870799535034  0.6750778190861353  0.0873574966921797   T   T   T
  0.3079835461467451  0.4252174796512286  0.0968528794215184   T   T   T
  0.1807175995155680  0.8413733406108517  0.0866173562279079   T   T   T
  0.5559099001059825  0.0857561429911071  0.0942469600933232   T   T   T
  0.4305976895336580  0.1695240974961245  0.0935439224243055   T   T   T
  0.5539199880030402  0.9194955969625713  0.0986560643396184   T   T   T
  0.4308086893189979  0.3343511278749520  0.1031416049708708   T   T   T
  0.5568322821538629  0.4041306682242903  0.1216986029808156   T   T   T
  0.4254321076762397  0.8411590602930757  0.1006910386779874   T   T   T
  0.8067982692118836  0.0882725014371665  0.0866981687058019   T   T   T
  0.6816688203994496  0.1690912847528232  0.0935082388830839   T   T   T
  0.8066333860165842  0.9223239981448874  0.0886860715130075   T   T   T
  0.6830988172704076  0.3333953654192471  0.1046711044002785   T   T   T
  0.8110698704103040  0.5894508969074619  0.1028415829974141   T   T   T
  0.6948022201320428  0.6800139842466657  0.1200882099044511   T   T   T
  0.8075009708685459  0.4215359377640020  0.0996483341122368   T   T   T
  0.6832909302560110  0.8395865328744536  0.1010889087801158   T   T   T
  0.4141708966020506  0.6850840937479517  0.1164113936824205   T   T   T
  0.3044558533280817  0.9248859053144862  0.0897828904184047   T   T   T
  0.5534288588317109  0.5916601328429353  0.1721295077731914   T   T   T
 
  0.00000000E+00  0.00000000E+00  0.00000000E+00
  0.00000000E+00  0.00000000E+00  0.00000000E+00
  0.00000000E+00  0.00000000E+00  0.00000000E+00
  0.00000000E+00  0.00000000E+00  0.00000000E+00
  0.00000000E+00  0.00000000E+00  0.00000000E+00
  0.00000000E+00  0.00000000E+00  0.00000000E+00
  0.00000000E+00  0.00000000E+00  0.00000000E+00
  0.00000000E+00  0.00000000E+00  0.00000000E+00
  0.00000000E+00  0.00000000E+00  0.00000000E+00
  0.00000000E+00  0.00000000E+00  0.00000000E+00
  0.00000000E+00  0.00000000E+00  0.00000000E+00
  0.00000000E+00  0.00000000E+00  0.00000000E+00
  0.00000000E+00  0.00000000E+00  0.00000000E+00
  0.00000000E+00  0.00000000E+00  0.00000000E+00
  0.00000000E+00  0.00000000E+00  0.00000000E+00
  0.00000000E+00  0.00000000E+00  0.00000000E+00
  0.00000000E+00  0.00000000E+00  0.00000000E+00
  0.00000000E+00  0.00000000E+00  0.00000000E+00
  0.00000000E+00  0.00000000E+00  0.00000000E+00
  0.00000000E+00  0.00000000E+00  0.00000000E+00
  0.00000000E+00  0.00000000E+00  0.00000000E+00
  0.00000000E+00  0.00000000E+00  0.00000000E+00
  0.00000000E+00  0.00000000E+00  0.00000000E+00
  0.00000000E+00  0.00000000E+00  0.00000000E+00
  0.00000000E+00  0.00000000E+00  0.00000000E+00
  0.00000000E+00  0.00000000E+00  0.00000000E+00
  0.00000000E+00  0.00000000E+00  0.00000000E+00
  0.00000000E+00  0.00000000E+00  0.00000000E+00
  0.00000000E+00  0.00000000E+00  0.00000000E+00
  0.00000000E+00  0.00000000E+00  0.00000000E+00
  0.00000000E+00  0.00000000E+00  0.00000000E+00
  0.00000000E+00  0.00000000E+00  0.00000000E+00
