Title                                   
   1.00000000000000     
     4.9440799999999996    0.0000000000000000    0.0000000000000000
     0.0000000000000000   17.1295089999999988    0.0000000000000000
     0.0000000000000000    0.0000000000000000   20.0000000000000000
    30     1     1
Selective dynamics
Direct
 -0.0001966091188248  0.1044344688648798  0.2775267825486566   T   T   T
  0.2499286386840668  0.1458792101747605  0.2826607803032721   T   T   T
  0.2499230906441458  0.2278987672761791  0.2962007457645918   T   T   T
  0.0008169291385807  0.3488289054168236  0.3232218192479128   T   T   T
 -0.0009300301282474  0.2687215257390048  0.3034762979637681   T   T   T
 -0.0031777201422797  0.6081851908733971  0.3175913236882438   T   T   T
  0.2498813694622757  0.7296325814087518  0.2922064219581304   T   T   T
  0.0001650938732303  0.8540015165573203  0.2752167558491719   T   T   T
  0.2498969440833055  0.8958021851044463  0.2725653347209050   T   T   T
  0.2499136539466621  0.9793411728124219  0.2708123345442822   T   T   T
  0.0002863582253402  0.7711121689867162  0.2846772457368664   T   T   T
  0.5000423362520381  0.1044336568220720  0.2775249243368957   T   T   T
  0.7499346086926635  0.1460017125501025  0.2819436823146317   T   T   T
  0.7499248842933326  0.2281532790942637  0.2943560943957768   T   T   T
  0.5000752939794371  0.0211429870059664  0.2717152485883162   T   T   T
  0.4989836040521153  0.3488299031745520  0.3232239740982661   T   T   T
  0.7498989052206169  0.3937572372587748  0.3296144657566490   T   T   T
  0.7498857220853656  0.4798790461952970  0.3343274832941815   T   T   T
  0.5007887216380064  0.2687217079677667  0.3034755774269606   T   T   T
  0.5029207080209812  0.6081965230779013  0.3176118714681838   T   T   T
  0.7498895646195902  0.7303472565364714  0.2903335072862954   T   T   T
  0.4996486572041575  0.8540043004744859  0.2752166664494921   T   T   T
  0.7499113928319394  0.8956237548613923  0.2722160652253345   T   T   T
  0.7499185488168558  0.9792551749375363  0.2705082995633510   T   T   T
  0.4994825807655178  0.7711182082437898  0.2846771429131482   T   T   T
  0.7498607170357068  0.6488551903621511  0.3057972466195381   T   T   T
  0.2498599861852341  0.6483870289648408  0.3100615103349388   T   T   T
 -0.0002261294745977  0.0211420399097876  0.2717159883091206   T   T   T
  0.5132436944341183  0.5280056182752696  0.3380642153329533   T   T   T
  0.9865395107569016  0.5279979525352885  0.3380323769579255   T   T   T
  0.2498963808732420  0.3820560389492390  0.3389258721160055   T   T   T
  0.2498355930485282  0.4788046895883418  0.3970669448861863   T   T   T
 
  0.00000000E+00  0.00000000E+00  0.00000000E+00
  0.00000000E+00  0.00000000E+00  0.00000000E+00
  0.00000000E+00  0.00000000E+00  0.00000000E+00
  0.00000000E+00  0.00000000E+00  0.00000000E+00
  0.00000000E+00  0.00000000E+00  0.00000000E+00
  0.00000000E+00  0.00000000E+00  0.00000000E+00
  0.00000000E+00  0.00000000E+00  0.00000000E+00
  0.00000000E+00  0.00000000E+00  0.00000000E+00
  0.00000000E+00  0.00000000E+00  0.00000000E+00
  0.00000000E+00  0.00000000E+00  0.00000000E+00
  0.00000000E+00  0.00000000E+00  0.00000000E+00
  0.00000000E+00  0.00000000E+00  0.00000000E+00
  0.00000000E+00  0.00000000E+00  0.00000000E+00
  0.00000000E+00  0.00000000E+00  0.00000000E+00
  0.00000000E+00  0.00000000E+00  0.00000000E+00
  0.00000000E+00  0.00000000E+00  0.00000000E+00
  0.00000000E+00  0.00000000E+00  0.00000000E+00
  0.00000000E+00  0.00000000E+00  0.00000000E+00
  0.00000000E+00  0.00000000E+00  0.00000000E+00
  0.00000000E+00  0.00000000E+00  0.00000000E+00
  0.00000000E+00  0.00000000E+00  0.00000000E+00
  0.00000000E+00  0.00000000E+00  0.00000000E+00
  0.00000000E+00  0.00000000E+00  0.00000000E+00
  0.00000000E+00  0.00000000E+00  0.00000000E+00
  0.00000000E+00  0.00000000E+00  0.00000000E+00
  0.00000000E+00  0.00000000E+00  0.00000000E+00
  0.00000000E+00  0.00000000E+00  0.00000000E+00
  0.00000000E+00  0.00000000E+00  0.00000000E+00
  0.00000000E+00  0.00000000E+00  0.00000000E+00
  0.00000000E+00  0.00000000E+00  0.00000000E+00
  0.00000000E+00  0.00000000E+00  0.00000000E+00
  0.00000000E+00  0.00000000E+00  0.00000000E+00
