Title                                   
   1.00000000000000     
     8.5490480000000009    0.0000000000000000    0.0000000000000000
     0.0000000000000000    8.5490480000000009    0.0000000000000000
     0.0000000000000000    0.0000000000000000   20.0000000000000000
    22     2     1
Selective dynamics
Direct
  0.9115472201057199  0.2065985221889048  0.0976461864578034   T   T   T
  0.9133442762778923  0.7998405341232416  0.0976360891764397   T   T   T
  0.1976002455013544  0.0823405660975516  0.0978215588701851   T   T   T
  0.0743362355110429  0.2020158926715422  0.0978025078432677   T   T   T
  0.1570095008468335  0.6491315924738665  0.0977955823960144   T   T   T
  0.0754727241834720  0.5018287998038597  0.0978538959749825   T   T   T
  0.1563145344416582  0.3548088251621106  0.0978757504207777   T   T   T
  0.0776829814132825  0.7996162998013443  0.0977593478349947   T   T   T
  0.4932836128712208  0.0859620137122143  0.0977705115946703   T   T   T
  0.3440471780679980  0.1644783944499019  0.0978755540747766   T   T   T
  0.4925021197985554  0.9175275891808816  0.0977262530285787   T   T   T
  0.3449579599572151  0.8352461742546070  0.0978016190317241   T   T   T
  0.7879019526897471  0.0843492945770057  0.0975981950494221   T   T   T
  0.6390732658445832  0.1677218378658356  0.0976857675308824   T   T   T
  0.7887790058833042  0.9205134089214005  0.0976006870641457   T   T   T
  0.8311539889559276  0.6491575107513252  0.0976770236242928   T   T   T
  0.8291574957797652  0.3571141849063472  0.0976973590441203   T   T   T
  0.6393757652464473  0.8355435596382361  0.0976373207430658   T   T   T
  0.3206970894105965  0.3327962783735249  0.0978975028590182   T   T   T
  0.3218695085674352  0.6712576309104320  0.0977969452322269   T   T   T
  0.6645482122062790  0.3354992193736918  0.0976805831099040   T   T   T
  0.6651512031577881  0.6693113543048074  0.0976218423490666   T   T   T
  0.9103750076737742  0.5030555323126280  0.0978045243513846   T   T   T
  0.1972860468261776  0.9172658179908389  0.0978267988431233   T   T   T
  0.4919448687819152  0.5018091661539059  0.0978155934951121   T   T   T
 
  0.00000000E+00  0.00000000E+00  0.00000000E+00
  0.00000000E+00  0.00000000E+00  0.00000000E+00
  0.00000000E+00  0.00000000E+00  0.00000000E+00
  0.00000000E+00  0.00000000E+00  0.00000000E+00
  0.00000000E+00  0.00000000E+00  0.00000000E+00
  0.00000000E+00  0.00000000E+00  0.00000000E+00
  0.00000000E+00  0.00000000E+00  0.00000000E+00
  0.00000000E+00  0.00000000E+00  0.00000000E+00
  0.00000000E+00  0.00000000E+00  0.00000000E+00
  0.00000000E+00  0.00000000E+00  0.00000000E+00
  0.00000000E+00  0.00000000E+00  0.00000000E+00
  0.00000000E+00  0.00000000E+00  0.00000000E+00
  0.00000000E+00  0.00000000E+00  0.00000000E+00
  0.00000000E+00  0.00000000E+00  0.00000000E+00
  0.00000000E+00  0.00000000E+00  0.00000000E+00
  0.00000000E+00  0.00000000E+00  0.00000000E+00
  0.00000000E+00  0.00000000E+00  0.00000000E+00
  0.00000000E+00  0.00000000E+00  0.00000000E+00
  0.00000000E+00  0.00000000E+00  0.00000000E+00
  0.00000000E+00  0.00000000E+00  0.00000000E+00
  0.00000000E+00  0.00000000E+00  0.00000000E+00
  0.00000000E+00  0.00000000E+00  0.00000000E+00
  0.00000000E+00  0.00000000E+00  0.00000000E+00
  0.00000000E+00  0.00000000E+00  0.00000000E+00
  0.00000000E+00  0.00000000E+00  0.00000000E+00
