Title                                   
   1.00000000000000     
     4.9440799999999996    0.0000000000000000    0.0000000000000000
     0.0000000000000000   17.1295089999999988    0.0000000000000000
     0.0000000000000000    0.0000000000000000   20.0000000000000000
    28     3     1
Selective dynamics
Direct
  0.0021863710246511  0.1038583169210637  0.2928395925322157   T   T   T
  0.2524711034242529  0.1454366220578276  0.2962613901066214   T   T   T
  0.2523258138506450  0.2284948451915771  0.3043256006441932   T   T   T
  0.0049909294683621  0.3522479739940190  0.3164481128231578   T   T   T
  0.0014030797506497  0.2698370596609826  0.3072397385049186   T   T   T
 -0.0031050115596306  0.6016532898660600  0.2964239770796053   T   T   T
  0.2527336718755866  0.7271135062095794  0.2933391937583277   T   T   T
  0.0033922180857802  0.8531734378495783  0.2884443966914298   T   T   T
  0.2527379872055037  0.8951338499834114  0.2878919196371408   T   T   T
  0.2526104058825263  0.9787323105759879  0.2880448973912387   T   T   T
  0.0042220241389165  0.7696179408496459  0.2910114172603961   T   T   T
  0.5024342395207019  0.1037881835371347  0.2930321604666123   T   T   T
  0.7520227744266741  0.1456790388388457  0.2954690937572723   T   T   T
  0.7516098083328316  0.2285713540600942  0.3023859446546856   T   T   T
  0.5027107108227984  0.0203800460911446  0.2890368543293553   T   T   T
  0.4977592376123671  0.3530199158867197  0.3185342778630724   T   T   T
  0.7521885072742004  0.3975960585363630  0.3164916906368552   T   T   T
  0.7517702957547604  0.4820732239043137  0.3061573670425271   T   T   T
  0.5024009721256083  0.2702493832348146  0.3083360901311640   T   T   T
  0.5087314369921466  0.6038021632399506  0.3011019921484756   T   T   T
  0.7528824713380090  0.7287774987691046  0.2931369371682631   T   T   T
  0.5019892077025054  0.8532354181065468  0.2888174233263492   T   T   T
  0.7525766272685807  0.8948763645098620  0.2878056578915704   T   T   T
  0.7525563426036539  0.9784208978816873  0.2878789403581107   T   T   T
  0.5014444500799607  0.7695463671979761  0.2918400850194585   T   T   T
  0.7528071817131595  0.6461392493687237  0.2972282006525124   T   T   T
  0.2533111082230678  0.6420808761262847  0.2964996650362138   T   T   T
  0.0023887555568897  0.0204561075026296  0.2888934334149413   T   T   T
  0.5249409972504823  0.5249304211127259  0.3201730984324221   T   T   T
  0.9807009210739195  0.5198049006466050  0.2810216708182271   T   T   T
  0.2504882145806379  0.3890212648401332  0.3277977706183324   T   T   T
  0.1731401465998068  0.5008031134485990  0.3686564098042873   T   T   T
 
  0.00000000E+00  0.00000000E+00  0.00000000E+00
  0.00000000E+00  0.00000000E+00  0.00000000E+00
  0.00000000E+00  0.00000000E+00  0.00000000E+00
  0.00000000E+00  0.00000000E+00  0.00000000E+00
  0.00000000E+00  0.00000000E+00  0.00000000E+00
  0.00000000E+00  0.00000000E+00  0.00000000E+00
  0.00000000E+00  0.00000000E+00  0.00000000E+00
  0.00000000E+00  0.00000000E+00  0.00000000E+00
  0.00000000E+00  0.00000000E+00  0.00000000E+00
  0.00000000E+00  0.00000000E+00  0.00000000E+00
  0.00000000E+00  0.00000000E+00  0.00000000E+00
  0.00000000E+00  0.00000000E+00  0.00000000E+00
  0.00000000E+00  0.00000000E+00  0.00000000E+00
  0.00000000E+00  0.00000000E+00  0.00000000E+00
  0.00000000E+00  0.00000000E+00  0.00000000E+00
  0.00000000E+00  0.00000000E+00  0.00000000E+00
  0.00000000E+00  0.00000000E+00  0.00000000E+00
  0.00000000E+00  0.00000000E+00  0.00000000E+00
  0.00000000E+00  0.00000000E+00  0.00000000E+00
  0.00000000E+00  0.00000000E+00  0.00000000E+00
  0.00000000E+00  0.00000000E+00  0.00000000E+00
  0.00000000E+00  0.00000000E+00  0.00000000E+00
  0.00000000E+00  0.00000000E+00  0.00000000E+00
  0.00000000E+00  0.00000000E+00  0.00000000E+00
  0.00000000E+00  0.00000000E+00  0.00000000E+00
  0.00000000E+00  0.00000000E+00  0.00000000E+00
  0.00000000E+00  0.00000000E+00  0.00000000E+00
  0.00000000E+00  0.00000000E+00  0.00000000E+00
  0.00000000E+00  0.00000000E+00  0.00000000E+00
  0.00000000E+00  0.00000000E+00  0.00000000E+00
  0.00000000E+00  0.00000000E+00  0.00000000E+00
  0.00000000E+00  0.00000000E+00  0.00000000E+00
