Title                                   
   1.00000000000000     
     9.8694509999999998    0.0000000000000000    0.0000000000000000
     0.0000000000000000    8.5490480000000009    0.0000000000000000
     0.0000000000000000    0.0000000000000000   20.0000000000000000
    25     5     1
Selective dynamics
Direct
  0.0543424059407032  0.0891508444003287  0.0878188437287623   T   T   T
  0.9291403171099314  0.1747134818319687  0.0863503800773755   T   T   T
  0.0579907362600726  0.9219303613799699  0.0883676796613607   T   T   T
  0.9314558742168808  0.3422023545317190  0.0861800583785102   T   T   T
  0.0560570276947630  0.5910085852048158  0.0878063587475761   T   T   T
  0.0553283409110290  0.4243473402182468  0.0871278319953579   T   T   T
  0.9331026618447535  0.8416407040854830  0.0903818018463212   T   T   T
  0.3063206072028534  0.0853977411024561  0.0943932239034468   T   T   T
  0.1797288098062811  0.1683746531525244  0.0911249994756369   T   T   T
  0.1791262225125003  0.3360890203659092  0.0908785481074701   T   T   T
  0.3034310579269124  0.5829696472695616  0.0937155205664812   T   T   T
  0.1809947556435392  0.6720216288828342  0.0893948077375042   T   T   T
  0.3009474789382458  0.4148590285113642  0.0986459696829885   T   T   T
  0.1839712617181630  0.8385486047349187  0.0890998350893472   T   T   T
  0.4277346512373708  0.1730921696565260  0.1021223962421442   T   T   T
  0.5573819739810869  0.9204590528242897  0.0997356977505784   T   T   T
  0.4286076691266622  0.6634271565405212  0.0956446425852807   T   T   T
  0.4334769892903035  0.8317330040873926  0.0954867523088840   T   T   T
  0.8027163603528834  0.0929936022904681  0.0893252859424126   T   T   T
  0.6770855954853604  0.1819311790478404  0.0918169201052997   T   T   T
  0.8070257939594462  0.9247482504549259  0.0929336457183841   T   T   T
  0.6816001725368813  0.3504566406688780  0.0902942186688000   T   T   T
  0.8119440725797734  0.5975133082024549  0.0958192969911981   T   T   T
  0.8090318181277092  0.4289273042414785  0.0888906446465898   T   T   T
  0.6839890749018565  0.8393129921753982  0.1014649135110494   T   T   T
  0.9339092124575524  0.6757862728904575  0.0895376609053304   T   T   T
  0.5544419012367130  0.0937161046032562  0.0987471592361128   T   T   T
  0.4205880173399572  0.3331814836290561  0.1137301355895440   T   T   T
  0.6957199285995695  0.6764728686294417  0.1117704801342240   T   T   T
  0.3077740189708881  0.9187566434343124  0.0917595081770710   T   T   T
  0.5581701920893595  0.5051129709512285  0.1305997824889917   T   T   T
 
  0.00000000E+00  0.00000000E+00  0.00000000E+00
  0.00000000E+00  0.00000000E+00  0.00000000E+00
  0.00000000E+00  0.00000000E+00  0.00000000E+00
  0.00000000E+00  0.00000000E+00  0.00000000E+00
  0.00000000E+00  0.00000000E+00  0.00000000E+00
  0.00000000E+00  0.00000000E+00  0.00000000E+00
  0.00000000E+00  0.00000000E+00  0.00000000E+00
  0.00000000E+00  0.00000000E+00  0.00000000E+00
  0.00000000E+00  0.00000000E+00  0.00000000E+00
  0.00000000E+00  0.00000000E+00  0.00000000E+00
  0.00000000E+00  0.00000000E+00  0.00000000E+00
  0.00000000E+00  0.00000000E+00  0.00000000E+00
  0.00000000E+00  0.00000000E+00  0.00000000E+00
  0.00000000E+00  0.00000000E+00  0.00000000E+00
  0.00000000E+00  0.00000000E+00  0.00000000E+00
  0.00000000E+00  0.00000000E+00  0.00000000E+00
  0.00000000E+00  0.00000000E+00  0.00000000E+00
  0.00000000E+00  0.00000000E+00  0.00000000E+00
  0.00000000E+00  0.00000000E+00  0.00000000E+00
  0.00000000E+00  0.00000000E+00  0.00000000E+00
  0.00000000E+00  0.00000000E+00  0.00000000E+00
  0.00000000E+00  0.00000000E+00  0.00000000E+00
  0.00000000E+00  0.00000000E+00  0.00000000E+00
  0.00000000E+00  0.00000000E+00  0.00000000E+00
  0.00000000E+00  0.00000000E+00  0.00000000E+00
  0.00000000E+00  0.00000000E+00  0.00000000E+00
  0.00000000E+00  0.00000000E+00  0.00000000E+00
  0.00000000E+00  0.00000000E+00  0.00000000E+00
  0.00000000E+00  0.00000000E+00  0.00000000E+00
  0.00000000E+00  0.00000000E+00  0.00000000E+00
  0.00000000E+00  0.00000000E+00  0.00000000E+00
