Title                                   
   1.00000000000000     
     4.9440799999999996    0.0000000000000000    0.0000000000000000
     0.0000000000000000    8.5647549999999999    0.0000000000000000
     0.0000000000000000    0.0000000000000000   20.0000000000000000
    12     2     1
Selective dynamics
Direct
  0.2468856257420415  0.2094265186377153  0.0978077908835937   T   T   T
 -0.0077016667327309  0.2946513125919438  0.0996413988580919   T   T   T
  0.2531775484587557  0.0400863350509426  0.0977910994790748   T   T   T
  0.0054690379972220  0.9557359250550418  0.0950101717475975   T   T   T
  0.7458703659533636  0.2090632312916476  0.0948266942381218   T   T   T
  0.4945692084380882  0.2938260293789473  0.0951002870456499   T   T   T
  0.7541625366496959  0.0404931730302753  0.0948184856362755   T   T   T
  0.7567441115925641  0.7126833814974781  0.1004900092580517   T   T   T
  0.7433001418571331  0.5368732251509126  0.1005052266177056   T   T   T
  0.5077657753536541  0.9548789258602760  0.0996803023207628   T   T   T
  0.4988928113257305  0.4609927861247105  0.0930842964161144   T   T   T
  0.0010467536313906  0.7885859779136151  0.0929062953542640   T   T   T
 -0.0157508461176130  0.4555996650168327  0.1089655500163155   T   T   T
  0.5157942106742865  0.7939458147627445  0.1090836604867089   T   T   T
  0.2497743851764187  0.6248386986369194  0.1282687316416754   T   T   T
 
  0.00000000E+00  0.00000000E+00  0.00000000E+00
  0.00000000E+00  0.00000000E+00  0.00000000E+00
  0.00000000E+00  0.00000000E+00  0.00000000E+00
  0.00000000E+00  0.00000000E+00  0.00000000E+00
  0.00000000E+00  0.00000000E+00  0.00000000E+00
  0.00000000E+00  0.00000000E+00  0.00000000E+00
  0.00000000E+00  0.00000000E+00  0.00000000E+00
  0.00000000E+00  0.00000000E+00  0.00000000E+00
  0.00000000E+00  0.00000000E+00  0.00000000E+00
  0.00000000E+00  0.00000000E+00  0.00000000E+00
  0.00000000E+00  0.00000000E+00  0.00000000E+00
  0.00000000E+00  0.00000000E+00  0.00000000E+00
  0.00000000E+00  0.00000000E+00  0.00000000E+00
  0.00000000E+00  0.00000000E+00  0.00000000E+00
  0.00000000E+00  0.00000000E+00  0.00000000E+00
