Title                                   
   1.00000000000000     
     4.9440799999999996    0.0000000000000000    0.0000000000000000
     0.0000000000000000   17.1295089999999988    0.0000000000000000
     0.0000000000000000    0.0000000000000000   20.0000000000000000
    29     2     1
Selective dynamics
Direct
  0.0006153017172223  0.1034558787721766  0.2866813505934716   T   T   T
  0.2514191925467578  0.1451241480413045  0.2871890468580848   T   T   T
  0.2545533247764146  0.2287964661928919  0.2896151765767672   T   T   T
  0.0157991657824966  0.3549023046526278  0.2965233693677890   T   T   T
  0.0057284526483055  0.2705978074225356  0.2915952921331428   T   T   T
 -0.0193489972472232  0.6034210070808377  0.3074161092778631   T   T   T
  0.2382216212298028  0.7274357004430351  0.3009119104108617   T   T   T
 -0.0075186175245681  0.8529112808292695  0.2915365595646174   T   T   T
  0.2430687830233960  0.8949043611138664  0.2901362122645226   T   T   T
  0.2463922819469927  0.9782628131782416  0.2875565517732381   T   T   T
 -0.0106363859216434  0.7696512636672103  0.2959687343119037   T   T   T
  0.5006245687327215  0.1035329419208663  0.2867707105191322   T   T   T
  0.7517748732018273  0.1452530231101206  0.2873873862475080   T   T   T
  0.7552147634141922  0.2287788735686166  0.2899893209399156   T   T   T
  0.4975152250593508  0.0199784012096573  0.2868793537968604   T   T   T
  0.5021656580862489  0.3538492356778568  0.2970950605397058   T   T   T
  0.7585102838658396  0.3970617231661168  0.3019755267488681   T   T   T
  0.7517242688821598  0.4817166603218369  0.3127366890456076   T   T   T
  0.5059677676931321  0.2700147488033419  0.2917616738169964   T   T   T
  0.4883159552439748  0.6036724783957080  0.3167895920244211   T   T   T
  0.7373694519900225  0.7288395708803674  0.2987554764964870   T   T   T
  0.4918503514820587  0.8531521483875798  0.2921939531055456   T   T   T
  0.7432344573428709  0.8946717235462538  0.2898424749212806   T   T   T
  0.7464618844360457  0.9781688868382675  0.2874613774355629   T   T   T
  0.4882520704703121  0.7700221760676704  0.2974399186808286   T   T   T
  0.7342529734710408  0.6462353803852877  0.3056338891602174   T   T   T
  0.2356825828386064  0.6445507146182380  0.3098227839776339   T   T   T
 -0.0027125948851259  0.0199619571186160  0.2867454697922008   T   T   T
  0.5190683303337154  0.5241242566695333  0.3367879541331673   T   T   T
  0.9760396111078374  0.5249828221330839  0.3027509916631915   T   T   T
  0.2611509396181755  0.3920763467743420  0.2979599790761907   T   T   T
  0.3360654546370456  0.4884438990126353  0.4206551047463685   T   T   T
 
  0.00000000E+00  0.00000000E+00  0.00000000E+00
  0.00000000E+00  0.00000000E+00  0.00000000E+00
  0.00000000E+00  0.00000000E+00  0.00000000E+00
  0.00000000E+00  0.00000000E+00  0.00000000E+00
  0.00000000E+00  0.00000000E+00  0.00000000E+00
  0.00000000E+00  0.00000000E+00  0.00000000E+00
  0.00000000E+00  0.00000000E+00  0.00000000E+00
  0.00000000E+00  0.00000000E+00  0.00000000E+00
  0.00000000E+00  0.00000000E+00  0.00000000E+00
  0.00000000E+00  0.00000000E+00  0.00000000E+00
  0.00000000E+00  0.00000000E+00  0.00000000E+00
  0.00000000E+00  0.00000000E+00  0.00000000E+00
  0.00000000E+00  0.00000000E+00  0.00000000E+00
  0.00000000E+00  0.00000000E+00  0.00000000E+00
  0.00000000E+00  0.00000000E+00  0.00000000E+00
  0.00000000E+00  0.00000000E+00  0.00000000E+00
  0.00000000E+00  0.00000000E+00  0.00000000E+00
  0.00000000E+00  0.00000000E+00  0.00000000E+00
  0.00000000E+00  0.00000000E+00  0.00000000E+00
  0.00000000E+00  0.00000000E+00  0.00000000E+00
  0.00000000E+00  0.00000000E+00  0.00000000E+00
  0.00000000E+00  0.00000000E+00  0.00000000E+00
  0.00000000E+00  0.00000000E+00  0.00000000E+00
  0.00000000E+00  0.00000000E+00  0.00000000E+00
  0.00000000E+00  0.00000000E+00  0.00000000E+00
  0.00000000E+00  0.00000000E+00  0.00000000E+00
  0.00000000E+00  0.00000000E+00  0.00000000E+00
  0.00000000E+00  0.00000000E+00  0.00000000E+00
  0.00000000E+00  0.00000000E+00  0.00000000E+00
  0.00000000E+00  0.00000000E+00  0.00000000E+00
  0.00000000E+00  0.00000000E+00  0.00000000E+00
  0.00000000E+00  0.00000000E+00  0.00000000E+00
