Title                                   
   1.00000000000000     
     9.8694509999999998    0.0000000000000000    0.0000000000000000
     0.0000000000000000    8.5490480000000009    0.0000000000000000
     0.0000000000000000    0.0000000000000000   20.0000000000000000
    27     4     1
Selective dynamics
Direct
  0.0559871965255719  0.0919958612311089  0.0858932926598844   T   T   T
  0.9305176535580563  0.1758429970323681  0.0885168757031672   T   T   T
  0.0576203458873493  0.9241119175801832  0.0851799752007730   T   T   T
  0.9281089318694885  0.3429790649654469  0.0931400028142393   T   T   T
  0.0556887467842022  0.5899916734396820  0.0891519489066277   T   T   T
  0.9323268547415084  0.6742677073168440  0.0901953257398960   T   T   T
  0.0560480623635922  0.4234699608282098  0.0916930725097896   T   T   T
  0.9326163206107723  0.8418031559551084  0.0870289398184018   T   T   T
  0.3050502870086858  0.0871514769084285  0.0866761015144144   T   T   T
  0.1819952711510526  0.1740892036900649  0.0874134029656406   T   T   T
  0.3078375440183276  0.9218406673345911  0.0884415332784980   T   T   T
  0.1818249158249072  0.3397545826647280  0.0916002020446524   T   T   T
  0.3060908003520659  0.5882243399721447  0.0987256267919078   T   T   T
  0.1819297811682058  0.6707426391530421  0.0896125248370869   T   T   T
  0.1827064091151262  0.8379311257230068  0.0872099975091748   T   T   T
  0.5561313373324379  0.0846583604067699  0.0936771835455212   T   T   T
  0.4304252249773339  0.1670345982058767  0.0910896422663030   T   T   T
  0.4311140225748773  0.3313714869035042  0.0992410335705374   T   T   T
  0.4310225504062234  0.8377996639915931  0.0980134655800489   T   T   T
  0.8070035062790905  0.0916129215927514  0.0878493667953688   T   T   T
  0.6800138710863586  0.1702122451324670  0.0934253540718679   T   T   T
  0.8079864523569691  0.9264860810718785  0.0876129705956006   T   T   T
  0.6755905237609352  0.3343888829746390  0.1024773847323271   T   T   T
  0.8066319124250627  0.5964285455697174  0.1007215503228208   T   T   T
  0.8001808760436065  0.4270290377478030  0.1003534911746487   T   T   T
  0.6856967972625106  0.8425198154793261  0.0970335729786563   T   T   T
  0.4244307743858792  0.6763191399339828  0.1133596995556251   T   T   T
  0.5491531080851286  0.4024041566459885  0.1155047489184904   T   T   T
  0.6928236372839587  0.6890491989401107  0.1131202948636949   T   T   T
  0.5581725786776972  0.9196688417423776  0.0962491125820124   T   T   T
  0.3078248311262397  0.4206995536964395  0.0968617309775456   T   T   T
  0.5590878749567850  0.5883670961698191  0.1586055751747930   T   T   T
 
  0.00000000E+00  0.00000000E+00  0.00000000E+00
  0.00000000E+00  0.00000000E+00  0.00000000E+00
  0.00000000E+00  0.00000000E+00  0.00000000E+00
  0.00000000E+00  0.00000000E+00  0.00000000E+00
  0.00000000E+00  0.00000000E+00  0.00000000E+00
  0.00000000E+00  0.00000000E+00  0.00000000E+00
  0.00000000E+00  0.00000000E+00  0.00000000E+00
  0.00000000E+00  0.00000000E+00  0.00000000E+00
  0.00000000E+00  0.00000000E+00  0.00000000E+00
  0.00000000E+00  0.00000000E+00  0.00000000E+00
  0.00000000E+00  0.00000000E+00  0.00000000E+00
  0.00000000E+00  0.00000000E+00  0.00000000E+00
  0.00000000E+00  0.00000000E+00  0.00000000E+00
  0.00000000E+00  0.00000000E+00  0.00000000E+00
  0.00000000E+00  0.00000000E+00  0.00000000E+00
  0.00000000E+00  0.00000000E+00  0.00000000E+00
  0.00000000E+00  0.00000000E+00  0.00000000E+00
  0.00000000E+00  0.00000000E+00  0.00000000E+00
  0.00000000E+00  0.00000000E+00  0.00000000E+00
  0.00000000E+00  0.00000000E+00  0.00000000E+00
  0.00000000E+00  0.00000000E+00  0.00000000E+00
  0.00000000E+00  0.00000000E+00  0.00000000E+00
  0.00000000E+00  0.00000000E+00  0.00000000E+00
  0.00000000E+00  0.00000000E+00  0.00000000E+00
  0.00000000E+00  0.00000000E+00  0.00000000E+00
  0.00000000E+00  0.00000000E+00  0.00000000E+00
  0.00000000E+00  0.00000000E+00  0.00000000E+00
  0.00000000E+00  0.00000000E+00  0.00000000E+00
  0.00000000E+00  0.00000000E+00  0.00000000E+00
  0.00000000E+00  0.00000000E+00  0.00000000E+00
  0.00000000E+00  0.00000000E+00  0.00000000E+00
  0.00000000E+00  0.00000000E+00  0.00000000E+00
