Title                                   
   1.00000000000000     
     9.8694509999999998    0.0000000000000000    0.0000000000000000
     0.0000000000000000    8.5490480000000009    0.0000000000000000
     0.0000000000000000    0.0000000000000000   20.0000000000000000
    25     5     1
Selective dynamics
Direct
  0.0563898412274950  0.0907112303316697  0.0931251085164088   T   T   T
  0.9307232379009763  0.1732738772861966  0.0981738322612952   T   T   T
  0.0581421146111908  0.9230832516913823  0.0932324610843410   T   T   T
  0.9329641775546221  0.3409541150198414  0.1000127200871228   T   T   T
  0.0583899577780115  0.5898138229932375  0.0951950572727969   T   T   T
  0.9341436210857526  0.6736646712308619  0.1002806111179498   T   T   T
  0.0579071660620363  0.4230229326629983  0.0951616869689657   T   T   T
  0.9332595144487338  0.8409929903129610  0.0987596034394680   T   T   T
  0.3082827346251264  0.0871134973340146  0.0868107437943019   T   T   T
  0.1818211044685617  0.1720080556161589  0.0896027361931473   T   T   T
  0.1815206659145996  0.3383429278832988  0.0906544392226233   T   T   T
  0.3079801495309577  0.5897145824227419  0.0828328610524956   T   T   T
  0.1825980525641194  0.6732235233279636  0.0900215779101899   T   T   T
  0.3072821379046929  0.4199538498119112  0.0851502411530474   T   T   T
  0.1822849672876245  0.8388254070814525  0.0891019672791006   T   T   T
  0.4304890895161776  0.1686066837662455  0.0894742927039084   T   T   T
  0.5555013535627266  0.9189645135586231  0.0972666009471520   T   T   T
  0.4308368486050589  0.8399709422116247  0.0868891663760786   T   T   T
  0.8039319004137579  0.0905854265624202  0.1003524618950274   T   T   T
  0.6795211813427710  0.1780870726625062  0.1041804361297333   T   T   T
  0.8061658290367679  0.9220251647756627  0.1009494173985689   T   T   T
  0.6828359229204269  0.3444020458366349  0.1136534253346085   T   T   T
  0.8117205968148361  0.5921901529463800  0.1081148980016336   T   T   T
  0.8097137394795123  0.4244713812922215  0.1076645165806901   T   T   T
  0.6825343421469636  0.8346147202179848  0.1048927078663071   T   T   T
  0.5567375725617573  0.0914244364467330  0.0975743003259713   T   T   T
  0.4276928309795222  0.3308373054199795  0.0887600157650488   T   T   T
  0.6883465459849195  0.6713504798873361  0.1157224490113483   T   T   T
  0.4284457561842647  0.6787960673712081  0.0794146162672632   T   T   T
  0.3068371395278687  0.9212299878408119  0.0851720812323691   T   T   T
  0.5281349079581805  0.5086198841969489  0.1327679668110735   T   T   T
 
  0.00000000E+00  0.00000000E+00  0.00000000E+00
  0.00000000E+00  0.00000000E+00  0.00000000E+00
  0.00000000E+00  0.00000000E+00  0.00000000E+00
  0.00000000E+00  0.00000000E+00  0.00000000E+00
  0.00000000E+00  0.00000000E+00  0.00000000E+00
  0.00000000E+00  0.00000000E+00  0.00000000E+00
  0.00000000E+00  0.00000000E+00  0.00000000E+00
  0.00000000E+00  0.00000000E+00  0.00000000E+00
  0.00000000E+00  0.00000000E+00  0.00000000E+00
  0.00000000E+00  0.00000000E+00  0.00000000E+00
  0.00000000E+00  0.00000000E+00  0.00000000E+00
  0.00000000E+00  0.00000000E+00  0.00000000E+00
  0.00000000E+00  0.00000000E+00  0.00000000E+00
  0.00000000E+00  0.00000000E+00  0.00000000E+00
  0.00000000E+00  0.00000000E+00  0.00000000E+00
  0.00000000E+00  0.00000000E+00  0.00000000E+00
  0.00000000E+00  0.00000000E+00  0.00000000E+00
  0.00000000E+00  0.00000000E+00  0.00000000E+00
  0.00000000E+00  0.00000000E+00  0.00000000E+00
  0.00000000E+00  0.00000000E+00  0.00000000E+00
  0.00000000E+00  0.00000000E+00  0.00000000E+00
  0.00000000E+00  0.00000000E+00  0.00000000E+00
  0.00000000E+00  0.00000000E+00  0.00000000E+00
  0.00000000E+00  0.00000000E+00  0.00000000E+00
  0.00000000E+00  0.00000000E+00  0.00000000E+00
  0.00000000E+00  0.00000000E+00  0.00000000E+00
  0.00000000E+00  0.00000000E+00  0.00000000E+00
  0.00000000E+00  0.00000000E+00  0.00000000E+00
  0.00000000E+00  0.00000000E+00  0.00000000E+00
  0.00000000E+00  0.00000000E+00  0.00000000E+00
  0.00000000E+00  0.00000000E+00  0.00000000E+00
