Title                                   
   1.00000000000000     
     4.9440799999999996    0.0000000000000000    0.0000000000000000
     0.0000000000000000   17.1295089999999988    0.0000000000000000
     0.0000000000000000    0.0000000000000000   20.0000000000000000
    30     1     1
Selective dynamics
Direct
 -0.0001746449622876  0.1043805770989587  0.2783438624107391   T   T   T
  0.2498859138174316  0.1454620572809342  0.2849584160087307   T   T   T
  0.2498805485404614  0.2264942673130609  0.3016396112543980   T   T   T
  0.0014569582538221  0.3465395732144874  0.3310920920436687   T   T   T
 -0.0012553683291741  0.2667940687552186  0.3099497977149180   T   T   T
 -0.0047312434744694  0.6087802129616788  0.3140417141982794   T   T   T
  0.2499147474426567  0.7303291647685186  0.2900276038134830   T   T   T
  0.0004291129344043  0.8548824591210286  0.2732730466923287   T   T   T
  0.2498971806428131  0.8966779644263775  0.2704153262979025   T   T   T
  0.2498840475028114  0.9798580894306023  0.2690470444019186   T   T   T
  0.0007521809442873  0.7723410393464881  0.2828609874687635   T   T   T
  0.4999493952400370  0.1043835546087427  0.2783418028936723   T   T   T
  0.7499014100548315  0.1454945306977980  0.2839545920710925   T   T   T
  0.7498940639607565  0.2269166772898105  0.2993120592726393   T   T   T
  0.4999918967821443  0.0215251980463657  0.2704972176129812   T   T   T
  0.4983755110960091  0.3465297867306389  0.3310905331727323   T   T   T
  0.7498981944242294  0.3917586208599418  0.3353568278992199   T   T   T
  0.7498744426232515  0.4790815912728594  0.3329421220610320   T   T   T
  0.5010452490874802  0.2667856933451236  0.3099528233092755   T   T   T
  0.5044987488867577  0.6088059938720494  0.3140471618332981   T   T   T
  0.7499260486563061  0.7320514533001085  0.2887577843718033   T   T   T
  0.4993588976120197  0.8548789731720327  0.2732665464012866   T   T   T
  0.7498909889525770  0.8963312601110608  0.2702345427971807   T   T   T
  0.7498858781231650  0.9797998542226964  0.2687797284275130   T   T   T
  0.4990931702996144  0.7723382926619986  0.2828580528639605   T   T   T
  0.7499060049079763  0.6511471558665499  0.3041774041492574   T   T   T
  0.2498661966492324  0.6488517593524382  0.3057056065369434   T   T   T
 -0.0002076182140647  0.0215231583733745  0.2704964418779443   T   T   T
  0.5202213204461580  0.5291164593639970  0.3314988392826148   T   T   T
  0.9795885409557769  0.5290895365916114  0.3315090717912074   T   T   T
  0.2499263623939886  0.3785731821689026  0.3472265596127424   T   T   T
  0.2499988637490037  0.4810287943745353  0.3869097794564242   T   T   T
 
  0.00000000E+00  0.00000000E+00  0.00000000E+00
  0.00000000E+00  0.00000000E+00  0.00000000E+00
  0.00000000E+00  0.00000000E+00  0.00000000E+00
  0.00000000E+00  0.00000000E+00  0.00000000E+00
  0.00000000E+00  0.00000000E+00  0.00000000E+00
  0.00000000E+00  0.00000000E+00  0.00000000E+00
  0.00000000E+00  0.00000000E+00  0.00000000E+00
  0.00000000E+00  0.00000000E+00  0.00000000E+00
  0.00000000E+00  0.00000000E+00  0.00000000E+00
  0.00000000E+00  0.00000000E+00  0.00000000E+00
  0.00000000E+00  0.00000000E+00  0.00000000E+00
  0.00000000E+00  0.00000000E+00  0.00000000E+00
  0.00000000E+00  0.00000000E+00  0.00000000E+00
  0.00000000E+00  0.00000000E+00  0.00000000E+00
  0.00000000E+00  0.00000000E+00  0.00000000E+00
  0.00000000E+00  0.00000000E+00  0.00000000E+00
  0.00000000E+00  0.00000000E+00  0.00000000E+00
  0.00000000E+00  0.00000000E+00  0.00000000E+00
  0.00000000E+00  0.00000000E+00  0.00000000E+00
  0.00000000E+00  0.00000000E+00  0.00000000E+00
  0.00000000E+00  0.00000000E+00  0.00000000E+00
  0.00000000E+00  0.00000000E+00  0.00000000E+00
  0.00000000E+00  0.00000000E+00  0.00000000E+00
  0.00000000E+00  0.00000000E+00  0.00000000E+00
  0.00000000E+00  0.00000000E+00  0.00000000E+00
  0.00000000E+00  0.00000000E+00  0.00000000E+00
  0.00000000E+00  0.00000000E+00  0.00000000E+00
  0.00000000E+00  0.00000000E+00  0.00000000E+00
  0.00000000E+00  0.00000000E+00  0.00000000E+00
  0.00000000E+00  0.00000000E+00  0.00000000E+00
  0.00000000E+00  0.00000000E+00  0.00000000E+00
  0.00000000E+00  0.00000000E+00  0.00000000E+00
