Title                                   
   1.00000000000000     
     8.5490480000000009    0.0000000000000000    0.0000000000000000
     0.0000000000000000    8.5490480000000009    0.0000000000000000
     0.0000000000000000    0.0000000000000000   20.0000000000000000
    19     5     1
Selective dynamics
Direct
  0.9082209612138133  0.2037517107289527  0.0976138128377777   T   T   T
  0.9074777292193638  0.5024292367891763  0.0977778798718577   T   T   T
  0.9103791918220521  0.8025864977147360  0.0975764346504388   T   T   T
  0.1956558382935734  0.0836694898588559  0.0976605931689235   T   T   T
  0.0757903597902058  0.2007467141814144  0.0975979575849799   T   T   T
  0.1586914306350699  0.6517349683382946  0.0977116941174333   T   T   T
  0.0791028375074607  0.5011736269798758  0.0977511323149064   T   T   T
  0.1586976412826752  0.3508590869495208  0.0977506113813406   T   T   T
  0.0781609958425259  0.7997005348379917  0.0975814552027309   T   T   T
  0.4927802464357594  0.0883593618780961  0.0978362116311656   T   T   T
  0.3432013702205142  0.1658836976994204  0.0978377397292554   T   T   T
  0.4922358987540305  0.9166066686366100  0.0977606516745553   T   T   T
  0.3432502574856393  0.8359453067459571  0.0977624862299311   T   T   T
  0.7892014600492673  0.0862430771803345  0.0976334121017367   T   T   T
  0.6410579038786466  0.1685370249604941  0.0978424643703403   T   T   T
  0.7897135474935713  0.9195621644907684  0.0975824038830552   T   T   T
  0.8287199982144100  0.6522113297121070  0.0977319954887004   T   T   T
  0.8271702759124242  0.3529039069289511  0.0978074937409714   T   T   T
  0.6415435689841505  0.8359646120681220  0.0977107604017398   T   T   T
  0.3189427906833084  0.3272078943207130  0.0979364584047073   T   T   T
  0.3192726900682390  0.6779778435909045  0.0978530312076567   T   T   T
  0.6662083197731903  0.3293310270596504  0.0980021860716974   T   T   T
  0.6674435833380484  0.6754330279502088  0.0978238241281878   T   T   T
  0.1967650861397431  0.9161835514947436  0.0976585009164814   T   T   T
  0.4957280169623105  0.4997876389040994  0.0979038088894093   T   T   T
 
  0.00000000E+00  0.00000000E+00  0.00000000E+00
  0.00000000E+00  0.00000000E+00  0.00000000E+00
  0.00000000E+00  0.00000000E+00  0.00000000E+00
  0.00000000E+00  0.00000000E+00  0.00000000E+00
  0.00000000E+00  0.00000000E+00  0.00000000E+00
  0.00000000E+00  0.00000000E+00  0.00000000E+00
  0.00000000E+00  0.00000000E+00  0.00000000E+00
  0.00000000E+00  0.00000000E+00  0.00000000E+00
  0.00000000E+00  0.00000000E+00  0.00000000E+00
  0.00000000E+00  0.00000000E+00  0.00000000E+00
  0.00000000E+00  0.00000000E+00  0.00000000E+00
  0.00000000E+00  0.00000000E+00  0.00000000E+00
  0.00000000E+00  0.00000000E+00  0.00000000E+00
  0.00000000E+00  0.00000000E+00  0.00000000E+00
  0.00000000E+00  0.00000000E+00  0.00000000E+00
  0.00000000E+00  0.00000000E+00  0.00000000E+00
  0.00000000E+00  0.00000000E+00  0.00000000E+00
  0.00000000E+00  0.00000000E+00  0.00000000E+00
  0.00000000E+00  0.00000000E+00  0.00000000E+00
  0.00000000E+00  0.00000000E+00  0.00000000E+00
  0.00000000E+00  0.00000000E+00  0.00000000E+00
  0.00000000E+00  0.00000000E+00  0.00000000E+00
  0.00000000E+00  0.00000000E+00  0.00000000E+00
  0.00000000E+00  0.00000000E+00  0.00000000E+00
  0.00000000E+00  0.00000000E+00  0.00000000E+00
