Title                                   
   1.00000000000000     
     9.8694509999999998    0.0000000000000000    0.0000000000000000
     0.0000000000000000    8.5490480000000009    0.0000000000000000
     0.0000000000000000    0.0000000000000000   20.0000000000000000
    27     3     1
Selective dynamics
Direct
  0.0556094097459864  0.0882465919860260  0.0806760800958176   T   T   T
  0.9309362789693268  0.1713330922469685  0.0823241667582248   T   T   T
  0.0571139429779825  0.9226874206896200  0.0820607024337820   T   T   T
  0.9334188253522027  0.3385720744902158  0.0815034552987349   T   T   T
  0.0556182076476854  0.5911555640037086  0.0797776957529175   T   T   T
  0.0558764932480101  0.4245513194760241  0.0778502263642655   T   T   T
  0.9318408822957072  0.8386120091586641  0.0847931589923075   T   T   T
  0.3065193526278859  0.0889818391406439  0.0915847209179269   T   T   T
  0.1814967511215453  0.1706549328106868  0.0832289779822816   T   T   T
  0.1791637042964994  0.3389251859085009  0.0826778609916061   T   T   T
  0.2973831032831024  0.5906539497198037  0.0976801045029958   T   T   T
  0.1789910766556654  0.6754554513299295  0.0852012295641972   T   T   T
  0.2979712747864484  0.4203798155587097  0.0966811919982117   T   T   T
  0.1823220138743399  0.8421646484026215  0.0857903689070863   T   T   T
  0.4293700005844659  0.1747501293358799  0.1030175979989147   T   T   T
  0.5554321162691856  0.9235333969970709  0.1068135185694822   T   T   T
  0.4204091699751347  0.3388070896093526  0.1114678342616331   T   T   T
  0.4186211930940912  0.6730293277876948  0.1133459802521080   T   T   T
  0.4273104382082210  0.8378095834210020  0.1056235177316750   T   T   T
  0.8060531270981492  0.0885836394492061  0.0904170080157542   T   T   T
  0.6834198281077720  0.1758234996820610  0.1015688635138976   T   T   T
  0.8068822508006925  0.9205763891713207  0.0917551626423449   T   T   T
  0.6922910090789873  0.3403813517883347  0.1094729774107153   T   T   T
  0.8150010945202272  0.5923225600474067  0.0967369791681602   T   T   T
  0.6938302446898034  0.6715567464160039  0.1114154683619777   T   T   T
  0.8151836662613429  0.4206180692564885  0.0948489878176728   T   T   T
  0.6824204963245429  0.8375688649424291  0.1039593162011182   T   T   T
  0.9341391479081843  0.6735677892942251  0.0842909500449984   T   T   T
  0.5569247616929531  0.0903601273807564  0.1054250112913837   T   T   T
  0.3047462130719053  0.9229549571979520  0.0926417894166999   T   T   T
  0.5568389254319555  0.5062575833007124  0.1263340967411354   T   T   T
 
  0.00000000E+00  0.00000000E+00  0.00000000E+00
  0.00000000E+00  0.00000000E+00  0.00000000E+00
  0.00000000E+00  0.00000000E+00  0.00000000E+00
  0.00000000E+00  0.00000000E+00  0.00000000E+00
  0.00000000E+00  0.00000000E+00  0.00000000E+00
  0.00000000E+00  0.00000000E+00  0.00000000E+00
  0.00000000E+00  0.00000000E+00  0.00000000E+00
  0.00000000E+00  0.00000000E+00  0.00000000E+00
  0.00000000E+00  0.00000000E+00  0.00000000E+00
  0.00000000E+00  0.00000000E+00  0.00000000E+00
  0.00000000E+00  0.00000000E+00  0.00000000E+00
  0.00000000E+00  0.00000000E+00  0.00000000E+00
  0.00000000E+00  0.00000000E+00  0.00000000E+00
  0.00000000E+00  0.00000000E+00  0.00000000E+00
  0.00000000E+00  0.00000000E+00  0.00000000E+00
  0.00000000E+00  0.00000000E+00  0.00000000E+00
  0.00000000E+00  0.00000000E+00  0.00000000E+00
  0.00000000E+00  0.00000000E+00  0.00000000E+00
  0.00000000E+00  0.00000000E+00  0.00000000E+00
  0.00000000E+00  0.00000000E+00  0.00000000E+00
  0.00000000E+00  0.00000000E+00  0.00000000E+00
  0.00000000E+00  0.00000000E+00  0.00000000E+00
  0.00000000E+00  0.00000000E+00  0.00000000E+00
  0.00000000E+00  0.00000000E+00  0.00000000E+00
  0.00000000E+00  0.00000000E+00  0.00000000E+00
  0.00000000E+00  0.00000000E+00  0.00000000E+00
  0.00000000E+00  0.00000000E+00  0.00000000E+00
  0.00000000E+00  0.00000000E+00  0.00000000E+00
  0.00000000E+00  0.00000000E+00  0.00000000E+00
  0.00000000E+00  0.00000000E+00  0.00000000E+00
  0.00000000E+00  0.00000000E+00  0.00000000E+00
