Title                                   
   1.00000000000000     
     8.5490480000000009    0.0000000000000000    0.0000000000000000
     0.0000000000000000    8.5490480000000009    0.0000000000000000
     0.0000000000000000    0.0000000000000000   20.0000000000000000
    21     3     1
Selective dynamics
Direct
  0.9101299940881611  0.2066485311034935  0.0954503446974253   T   T   T
  0.9043604840429593  0.5029167031218695  0.0953044024819426   T   T   T
  0.9102555352847967  0.7989452721575525  0.0954753306185152   T   T   T
  0.1991316108578937  0.0843969401807142  0.0954832653508292   T   T   T
  0.0756216213653481  0.2078974849007519  0.0954557251736980   T   T   T
  0.1978941948996713  0.9189137809065372  0.0954903822442221   T   T   T
  0.1566286841608305  0.6507489350677719  0.0953383550024864   T   T   T
  0.0752917599246216  0.5026620539199697  0.0953238316584018   T   T   T
  0.1562783228329772  0.3568535830961070  0.0953613681107167   T   T   T
  0.0764483336155491  0.7980978524463538  0.0954709134738250   T   T   T
  0.4938172668781792  0.0840919764599191  0.0953613846428053   T   T   T
  0.3480289857057657  0.1650948976611217  0.0953871892603207   T   T   T
  0.4940904688304141  0.9131515350815379  0.0953556027775424   T   T   T
  0.3455853984954596  0.8343705690752421  0.0953579457890594   T   T   T
  0.7892712689972489  0.0852130049237684  0.0954691168734663   T   T   T
  0.6419049338299974  0.1654070196964575  0.0953233535109468   T   T   T
  0.7901374649399686  0.9190282040707346  0.0954808148751424   T   T   T
  0.8269272774964050  0.6515783292890346  0.0953153144781776   T   T   T
  0.8256247297795154  0.3543643183688666  0.0952981158341594   T   T   T
  0.6427374663162368  0.8356548025431255  0.0953293199309111   T   T   T
  0.3259642052634685  0.3347248260720738  0.0952826227063182   T   T   T
  0.3198762880604085  0.6719869773908961  0.0952059068856205   T   T   T
  0.6632171100862457  0.3285860352591111  0.0951659907124704   T   T   T
  0.6663512563612423  0.6750989410832716  0.0951762565566934   T   T   T
  0.4898373378866285  0.4983574261237323  0.0950421463542816   T   T   T
 
  0.00000000E+00  0.00000000E+00  0.00000000E+00
  0.00000000E+00  0.00000000E+00  0.00000000E+00
  0.00000000E+00  0.00000000E+00  0.00000000E+00
  0.00000000E+00  0.00000000E+00  0.00000000E+00
  0.00000000E+00  0.00000000E+00  0.00000000E+00
  0.00000000E+00  0.00000000E+00  0.00000000E+00
  0.00000000E+00  0.00000000E+00  0.00000000E+00
  0.00000000E+00  0.00000000E+00  0.00000000E+00
  0.00000000E+00  0.00000000E+00  0.00000000E+00
  0.00000000E+00  0.00000000E+00  0.00000000E+00
  0.00000000E+00  0.00000000E+00  0.00000000E+00
  0.00000000E+00  0.00000000E+00  0.00000000E+00
  0.00000000E+00  0.00000000E+00  0.00000000E+00
  0.00000000E+00  0.00000000E+00  0.00000000E+00
  0.00000000E+00  0.00000000E+00  0.00000000E+00
  0.00000000E+00  0.00000000E+00  0.00000000E+00
  0.00000000E+00  0.00000000E+00  0.00000000E+00
  0.00000000E+00  0.00000000E+00  0.00000000E+00
  0.00000000E+00  0.00000000E+00  0.00000000E+00
  0.00000000E+00  0.00000000E+00  0.00000000E+00
  0.00000000E+00  0.00000000E+00  0.00000000E+00
  0.00000000E+00  0.00000000E+00  0.00000000E+00
  0.00000000E+00  0.00000000E+00  0.00000000E+00
  0.00000000E+00  0.00000000E+00  0.00000000E+00
  0.00000000E+00  0.00000000E+00  0.00000000E+00
