Title                                   
   1.00000000000000     
     4.9440799999999996    0.0000000000000000    0.0000000000000000
     0.0000000000000000    8.5647549999999999    0.0000000000000000
     0.0000000000000000    0.0000000000000000   20.0000000000000000
    12     3     1
Selective dynamics
Direct
 -0.0073279597833465  0.2922752463691622  0.0921135463408342   T   T   T
  0.2502676010925085  0.0459665590129287  0.0911908603804956   T   T   T
  0.0093229057674937  0.7949855459142670  0.0963632340027128   T   T   T
  0.0021572331397072  0.9617618814816196  0.0903259133809148   T   T   T
  0.7475424814974034  0.2070622956968689  0.0909985992165898   T   T   T
  0.4979631042974321  0.2909363740578892  0.0985193089719402   T   T   T
  0.7510123577158271  0.0421035892112250  0.0887728507998086   T   T   T
  0.7562383607989615  0.7066945476701673  0.0992243334834267   T   T   T
  0.5016150031529216  0.7951355945480615  0.0981954612316668   T   T   T
  0.7538002731322920  0.5343331087253229  0.1030103066659008   T   T   T
  0.5014074941509611  0.9618402174873680  0.0920333625858904   T   T   T
  0.5172787215477657  0.4482555013296874  0.1197544169953024   T   T   T
 -0.0064955462730057  0.4512369111741711  0.0881036353316504   T   T   T
  0.2562547870935978  0.7217045584327803  0.1038928652305079   T   T   T
  0.2473851532722277  0.2099814501257255  0.0924367244352200   T   T   T
  0.2215780293972518  0.5357266187627544  0.1675765809471479   T   T   T
 
  0.00000000E+00  0.00000000E+00  0.00000000E+00
  0.00000000E+00  0.00000000E+00  0.00000000E+00
  0.00000000E+00  0.00000000E+00  0.00000000E+00
  0.00000000E+00  0.00000000E+00  0.00000000E+00
  0.00000000E+00  0.00000000E+00  0.00000000E+00
  0.00000000E+00  0.00000000E+00  0.00000000E+00
  0.00000000E+00  0.00000000E+00  0.00000000E+00
  0.00000000E+00  0.00000000E+00  0.00000000E+00
  0.00000000E+00  0.00000000E+00  0.00000000E+00
  0.00000000E+00  0.00000000E+00  0.00000000E+00
  0.00000000E+00  0.00000000E+00  0.00000000E+00
  0.00000000E+00  0.00000000E+00  0.00000000E+00
  0.00000000E+00  0.00000000E+00  0.00000000E+00
  0.00000000E+00  0.00000000E+00  0.00000000E+00
  0.00000000E+00  0.00000000E+00  0.00000000E+00
  0.00000000E+00  0.00000000E+00  0.00000000E+00
