Title                                   
   1.00000000000000     
     4.9440799999999996    0.0000000000000000    0.0000000000000000
     0.0000000000000000   17.1295089999999988    0.0000000000000000
     0.0000000000000000    0.0000000000000000   20.0000000000000000
    31     1
Selective dynamics
Direct
 -0.0006332238467426  0.1042808453997024  0.2835124542737979   T   T   T
  0.2491610084178628  0.1457211259920122  0.2876218311925386   T   T   T
  0.2485460140433186  0.2284307815626831  0.2982670631425003   T   T   T
 -0.0042231177666928  0.3514862470076991  0.3184452019716931   T   T   T
 -0.0022078868054465  0.2691709820598895  0.3037380436312203   T   T   T
  0.0013212835975173  0.6059403240916874  0.3104233484200473   T   T   T
  0.2515545502358681  0.7293635681716406  0.2931550761860569   T   T   T
  0.0010432314233817  0.8540644778811247  0.2805147456834865   T   T   T
  0.2506622256702930  0.8958784097610354  0.2787873939607914   T   T   T
  0.2500576198679261  0.9792247065752407  0.2778171539880117   T   T   T
  0.0016015397722009  0.7710628065007751  0.2870917547536074   T   T   T
  0.4991678292943362  0.1042565560533522  0.2835485952430065   T   T   T
  0.7490479470307210  0.1457080829591922  0.2870415493376187   T   T   T
  0.7483862998567948  0.2283919043999910  0.2969816232293809   T   T   T
  0.4998871681573045  0.0209524360427387  0.2786977915437014   T   T   T
  0.4997170088000240  0.3516729144135354  0.3188434950995076   T   T   T
  0.7476968692196926  0.3940445218557256  0.3214813537240754   T   T   T
  0.7495197868794226  0.4784140552037303  0.3236615236353138   T   T   T
  0.4988299193758403  0.2692040596155990  0.3040548794510576   T   T   T
  0.5033638315571564  0.6067437726606996  0.3133925462977352   T   T   T
  0.7515134714649676  0.7299281436394048  0.2912651028476948   T   T   T
  0.5006587817967337  0.8541208706578889  0.2806460026973427   T   T   T
  0.7507120018992549  0.8957233588859159  0.2784694397857786   T   T   T
  0.7500718419390452  0.9792506126203008  0.2775718931542562   T   T   T
  0.5011964696667471  0.7711405482104325  0.2875826797240805   T   T   T
  0.7520701452576966  0.6476757082671102  0.3028330823658965   T   T   T
  0.2521215397718159  0.6477331934049358  0.3061118362903838   T   T   T
 -0.0001158064117382  0.0209779884112928  0.2786589293383359   T   T   T
  0.5211451945313276  0.5269784535277789  0.3308975426414011   T   T   T
  0.9864805447897507  0.5248778058099757  0.3219569575561667   T   T   T
  0.2472819345680303  0.3855641187416153  0.3321173348633153   T   T   T
  0.2411869759455955  0.4805676196152883  0.3873767739701532   T   T   T
 
  0.00000000E+00  0.00000000E+00  0.00000000E+00
  0.00000000E+00  0.00000000E+00  0.00000000E+00
  0.00000000E+00  0.00000000E+00  0.00000000E+00
  0.00000000E+00  0.00000000E+00  0.00000000E+00
  0.00000000E+00  0.00000000E+00  0.00000000E+00
  0.00000000E+00  0.00000000E+00  0.00000000E+00
  0.00000000E+00  0.00000000E+00  0.00000000E+00
  0.00000000E+00  0.00000000E+00  0.00000000E+00
  0.00000000E+00  0.00000000E+00  0.00000000E+00
  0.00000000E+00  0.00000000E+00  0.00000000E+00
  0.00000000E+00  0.00000000E+00  0.00000000E+00
  0.00000000E+00  0.00000000E+00  0.00000000E+00
  0.00000000E+00  0.00000000E+00  0.00000000E+00
  0.00000000E+00  0.00000000E+00  0.00000000E+00
  0.00000000E+00  0.00000000E+00  0.00000000E+00
  0.00000000E+00  0.00000000E+00  0.00000000E+00
  0.00000000E+00  0.00000000E+00  0.00000000E+00
  0.00000000E+00  0.00000000E+00  0.00000000E+00
  0.00000000E+00  0.00000000E+00  0.00000000E+00
  0.00000000E+00  0.00000000E+00  0.00000000E+00
  0.00000000E+00  0.00000000E+00  0.00000000E+00
  0.00000000E+00  0.00000000E+00  0.00000000E+00
  0.00000000E+00  0.00000000E+00  0.00000000E+00
  0.00000000E+00  0.00000000E+00  0.00000000E+00
  0.00000000E+00  0.00000000E+00  0.00000000E+00
  0.00000000E+00  0.00000000E+00  0.00000000E+00
  0.00000000E+00  0.00000000E+00  0.00000000E+00
  0.00000000E+00  0.00000000E+00  0.00000000E+00
  0.00000000E+00  0.00000000E+00  0.00000000E+00
  0.00000000E+00  0.00000000E+00  0.00000000E+00
  0.00000000E+00  0.00000000E+00  0.00000000E+00
  0.00000000E+00  0.00000000E+00  0.00000000E+00
