Title                                   
   1.00000000000000     
     9.8694509999999998    0.0000000000000000    0.0000000000000000
     0.0000000000000000    8.5490480000000009    0.0000000000000000
     0.0000000000000000    0.0000000000000000   20.0000000000000000
    26     4     1
Selective dynamics
Direct
  0.0552970686438193  0.0897627113414639  0.0849317744119567   T   T   T
  0.9305825576989583  0.1720355375237692  0.0872805721847956   T   T   T
  0.0568977143513192  0.9233489321313400  0.0855013112211312   T   T   T
  0.9343616725648310  0.3390812530392752  0.0870313789778433   T   T   T
  0.0581003755834229  0.5899121585351513  0.0825426138356889   T   T   T
  0.9345245998814367  0.6738042274070386  0.0879161706506560   T   T   T
  0.0581013800566478  0.4231619138122987  0.0821217378438784   T   T   T
  0.9313855082578595  0.8406828149355428  0.0882974738184825   T   T   T
  0.3056323821924651  0.0874070736891534  0.0903666535905665   T   T   T
  0.1811660480995615  0.1709374959463652  0.0853800285903201   T   T   T
  0.1814184675212973  0.3391983174502367  0.0840322256085385   T   T   T
  0.3043441754086628  0.5907000079819805  0.0920100425323465   T   T   T
  0.1819766175294615  0.6729487256185964  0.0845582637759954   T   T   T
  0.3041706218817675  0.4199653051183482  0.0918214002579307   T   T   T
  0.1813463134500255  0.8409469823335057  0.0863662413515561   T   T   T
  0.4280772339071753  0.1750424278391714  0.0988474833475774   T   T   T
  0.5528868466972989  0.9218319233062874  0.1037314973225002   T   T   T
  0.4275657420150946  0.8370908363750026  0.1001387425056953   T   T   T
  0.8036800558748598  0.0901089948687456  0.0931123610142678   T   T   T
  0.6810744073817446  0.1777652506880558  0.1012652526165007   T   T   T
  0.8051950597451721  0.9220164399915305  0.0940539605704290   T   T   T
  0.6887715823519100  0.3433680646328210  0.1093175063552545   T   T   T
  0.8148156240225018  0.5907939876662782  0.0989645299830730   T   T   T
  0.6897444021411391  0.6690458107181554  0.1123670142008734   T   T   T
  0.8147067120142559  0.4217710187165008  0.0978850003993977   T   T   T
  0.6811055386825450  0.8363975776470084  0.1039232286238077   T   T   T
  0.5535776843375821  0.0925575741454703  0.1026087808736708   T   T   T
  0.4212340222156307  0.3336981498249526  0.1040142418264336   T   T   T
  0.4205927627517039  0.6764104986697141  0.1048872405383967   T   T   T
  0.3047948497448869  0.9225502652909973  0.0907975642138367   T   T   T
  0.5560069729949806  0.5065327227552465  0.1248927069566477   T   T   T
 
  0.00000000E+00  0.00000000E+00  0.00000000E+00
  0.00000000E+00  0.00000000E+00  0.00000000E+00
  0.00000000E+00  0.00000000E+00  0.00000000E+00
  0.00000000E+00  0.00000000E+00  0.00000000E+00
  0.00000000E+00  0.00000000E+00  0.00000000E+00
  0.00000000E+00  0.00000000E+00  0.00000000E+00
  0.00000000E+00  0.00000000E+00  0.00000000E+00
  0.00000000E+00  0.00000000E+00  0.00000000E+00
  0.00000000E+00  0.00000000E+00  0.00000000E+00
  0.00000000E+00  0.00000000E+00  0.00000000E+00
  0.00000000E+00  0.00000000E+00  0.00000000E+00
  0.00000000E+00  0.00000000E+00  0.00000000E+00
  0.00000000E+00  0.00000000E+00  0.00000000E+00
  0.00000000E+00  0.00000000E+00  0.00000000E+00
  0.00000000E+00  0.00000000E+00  0.00000000E+00
  0.00000000E+00  0.00000000E+00  0.00000000E+00
  0.00000000E+00  0.00000000E+00  0.00000000E+00
  0.00000000E+00  0.00000000E+00  0.00000000E+00
  0.00000000E+00  0.00000000E+00  0.00000000E+00
  0.00000000E+00  0.00000000E+00  0.00000000E+00
  0.00000000E+00  0.00000000E+00  0.00000000E+00
  0.00000000E+00  0.00000000E+00  0.00000000E+00
  0.00000000E+00  0.00000000E+00  0.00000000E+00
  0.00000000E+00  0.00000000E+00  0.00000000E+00
  0.00000000E+00  0.00000000E+00  0.00000000E+00
  0.00000000E+00  0.00000000E+00  0.00000000E+00
  0.00000000E+00  0.00000000E+00  0.00000000E+00
  0.00000000E+00  0.00000000E+00  0.00000000E+00
  0.00000000E+00  0.00000000E+00  0.00000000E+00
  0.00000000E+00  0.00000000E+00  0.00000000E+00
  0.00000000E+00  0.00000000E+00  0.00000000E+00
