Title                                   
   1.00000000000000     
     9.8694509999999998    0.0000000000000000    0.0000000000000000
     0.0000000000000000    8.5490480000000009    0.0000000000000000
     0.0000000000000000    0.0000000000000000   20.0000000000000000
    25     6     1
Selective dynamics
Direct
  0.0558146535751207  0.0911157621540823  0.0851288155298922   T   T   T
  0.9309189375947970  0.1748411384573824  0.0848294743259226   T   T   T
  0.0573651892255881  0.9232368890184142  0.0867588881714017   T   T   T
  0.9301121711643621  0.3414755674682325  0.0866099120287788   T   T   T
  0.0566215417858884  0.5913311290323207  0.0867663487827101   T   T   T
  0.0560267818407907  0.4240650908919385  0.0864384060994360   T   T   T
  0.9328520481834135  0.8400276091928793  0.0880944876661286   T   T   T
  0.3058405621306141  0.0891474939895704  0.0891284101341254   T   T   T
  0.1820536816853418  0.1735948009973876  0.0867856106359963   T   T   T
  0.1823022860783234  0.3410270000699279  0.0877658226838129   T   T   T
  0.3036125567079832  0.5907833431349632  0.0984848977232628   T   T   T
  0.1807440419339437  0.6738959935191206  0.0899843027402134   T   T   T
  0.3103799900003413  0.4229334606054276  0.0949946650707700   T   T   T
  0.1819677040203734  0.8423705876805843  0.0899888340742447   T   T   T
  0.5558326582288179  0.0855719159643846  0.0938160969681890   T   T   T
  0.5544931121898823  0.9181477264301385  0.0975736495044036   T   T   T
  0.4313496119241519  0.3310308556227607  0.0996665674279779   T   T   T
  0.4260646647246699  0.8403890672817335  0.1000689141780494   T   T   T
  0.8065191191991592  0.0889224048677703  0.0857307333059427   T   T   T
  0.6803227591982181  0.1705341705848262  0.0902350920695335   T   T   T
  0.8076829081414566  0.9230545285129276  0.0887347451707235   T   T   T
  0.6806697324197023  0.3349157188169540  0.0975483402729955   T   T   T
  0.8102611856587590  0.5934361480133467  0.0973530059116523   T   T   T
  0.8030944144924844  0.4261911140508410  0.0937136039987220   T   T   T
  0.6838145334026917  0.8402660778782719  0.0979615986380211   T   T   T
  0.4146277527870182  0.6844457940872670  0.1179644890138638   T   T   T
  0.5546793909953478  0.3986217938998446  0.1177102578415451   T   T   T
  0.6972671939572128  0.6811632117492108  0.1135510940528169   T   T   T
  0.3060524116103776  0.9249587196767621  0.0915693670861094   T   T   T
  0.4296566473408754  0.1676574056597864  0.0934247694576261   T   T   T
  0.9329205439366972  0.6729669638349923  0.0889150721368034   T   T   T
  0.5577182138656027  0.5881265168559521  0.1783787272983457   T   T   T
 
  0.00000000E+00  0.00000000E+00  0.00000000E+00
  0.00000000E+00  0.00000000E+00  0.00000000E+00
  0.00000000E+00  0.00000000E+00  0.00000000E+00
  0.00000000E+00  0.00000000E+00  0.00000000E+00
  0.00000000E+00  0.00000000E+00  0.00000000E+00
  0.00000000E+00  0.00000000E+00  0.00000000E+00
  0.00000000E+00  0.00000000E+00  0.00000000E+00
  0.00000000E+00  0.00000000E+00  0.00000000E+00
  0.00000000E+00  0.00000000E+00  0.00000000E+00
  0.00000000E+00  0.00000000E+00  0.00000000E+00
  0.00000000E+00  0.00000000E+00  0.00000000E+00
  0.00000000E+00  0.00000000E+00  0.00000000E+00
  0.00000000E+00  0.00000000E+00  0.00000000E+00
  0.00000000E+00  0.00000000E+00  0.00000000E+00
  0.00000000E+00  0.00000000E+00  0.00000000E+00
  0.00000000E+00  0.00000000E+00  0.00000000E+00
  0.00000000E+00  0.00000000E+00  0.00000000E+00
  0.00000000E+00  0.00000000E+00  0.00000000E+00
  0.00000000E+00  0.00000000E+00  0.00000000E+00
  0.00000000E+00  0.00000000E+00  0.00000000E+00
  0.00000000E+00  0.00000000E+00  0.00000000E+00
  0.00000000E+00  0.00000000E+00  0.00000000E+00
  0.00000000E+00  0.00000000E+00  0.00000000E+00
  0.00000000E+00  0.00000000E+00  0.00000000E+00
  0.00000000E+00  0.00000000E+00  0.00000000E+00
  0.00000000E+00  0.00000000E+00  0.00000000E+00
  0.00000000E+00  0.00000000E+00  0.00000000E+00
  0.00000000E+00  0.00000000E+00  0.00000000E+00
  0.00000000E+00  0.00000000E+00  0.00000000E+00
  0.00000000E+00  0.00000000E+00  0.00000000E+00
  0.00000000E+00  0.00000000E+00  0.00000000E+00
  0.00000000E+00  0.00000000E+00  0.00000000E+00
