Title                                   
   1.00000000000000     
     9.8694509999999998    0.0000000000000000    0.0000000000000000
     0.0000000000000000    8.5490480000000009    0.0000000000000000
     0.0000000000000000    0.0000000000000000   20.0000000000000000
    29     2     1
Selective dynamics
Direct
  0.0563799424622083  0.0903709260589345  0.0858805597359558   T   T   T
  0.9312915506465629  0.1740572466946252  0.0891579472029507   T   T   T
  0.0573186856571963  0.9229574635230826  0.0850996356044986   T   T   T
  0.9298219670246423  0.3410287244945273  0.0944261610855702   T   T   T
  0.0562759712488165  0.5894180525549158  0.0908203364204515   T   T   T
  0.9319352035349794  0.6730999902297201  0.0926459901076144   T   T   T
  0.0565870609315476  0.4229964368152578  0.0924600156128208   T   T   T
  0.9318790861607996  0.8403286613828104  0.0879272365448268   T   T   T
  0.3055909074719625  0.0870249503466978  0.0856437787673511   T   T   T
  0.1821102383570760  0.1735635787934157  0.0870930163134004   T   T   T
  0.3078226501851857  0.9218946057196721  0.0861769996162279   T   T   T
  0.1814774989787550  0.3392649783575865  0.0913054166891368   T   T   T
  0.3076255915480751  0.5868967807588594  0.0960370903655291   T   T   T
  0.1822755165670639  0.6708642414887231  0.0892210855814435   T   T   T
  0.1830019435154744  0.8371907862578267  0.0861585856458845   T   T   T
  0.5557255807404191  0.0878731455626682  0.0925260166248575   T   T   T
  0.4300016124741064  0.1690678424376378  0.0901604014147225   T   T   T
  0.4293152635366958  0.3338311905092390  0.0999798644322645   T   T   T
  0.4329515273230966  0.8387460429043854  0.0938225428438004   T   T   T
  0.8072405848919195  0.0908011593902346  0.0885664977958953   T   T   T
  0.6805948585666307  0.1710350437730113  0.0943987361342586   T   T   T
  0.8072800973223903  0.9259550224637864  0.0879551670693355   T   T   T
  0.6783901665841752  0.3355563628965862  0.1056170191026582   T   T   T
  0.8065859522426850  0.5923839350300297  0.1038979114812932   T   T   T
  0.8044256794575591  0.4236268148620630  0.1032062806345724   T   T   T
  0.6827365040729156  0.8439335178819410  0.0970340689517626   T   T   T
  0.4279434826395251  0.6756691905999678  0.1051028869687357   T   T   T
  0.5495422357605559  0.4050749467359233  0.1185372903813747   T   T   T
  0.6895810864594165  0.6878337870962900  0.1149592118503035   T   T   T
  0.5566732934043882  0.9232853833742392  0.0937335614657678   T   T   T
  0.3058315487469593  0.4211288478981717  0.0958368466137599   T   T   T
  0.5534257114862231  0.5934863431071725  0.1602868409409921   T   T   T
 
  0.00000000E+00  0.00000000E+00  0.00000000E+00
  0.00000000E+00  0.00000000E+00  0.00000000E+00
  0.00000000E+00  0.00000000E+00  0.00000000E+00
  0.00000000E+00  0.00000000E+00  0.00000000E+00
  0.00000000E+00  0.00000000E+00  0.00000000E+00
  0.00000000E+00  0.00000000E+00  0.00000000E+00
  0.00000000E+00  0.00000000E+00  0.00000000E+00
  0.00000000E+00  0.00000000E+00  0.00000000E+00
  0.00000000E+00  0.00000000E+00  0.00000000E+00
  0.00000000E+00  0.00000000E+00  0.00000000E+00
  0.00000000E+00  0.00000000E+00  0.00000000E+00
  0.00000000E+00  0.00000000E+00  0.00000000E+00
  0.00000000E+00  0.00000000E+00  0.00000000E+00
  0.00000000E+00  0.00000000E+00  0.00000000E+00
  0.00000000E+00  0.00000000E+00  0.00000000E+00
  0.00000000E+00  0.00000000E+00  0.00000000E+00
  0.00000000E+00  0.00000000E+00  0.00000000E+00
  0.00000000E+00  0.00000000E+00  0.00000000E+00
  0.00000000E+00  0.00000000E+00  0.00000000E+00
  0.00000000E+00  0.00000000E+00  0.00000000E+00
  0.00000000E+00  0.00000000E+00  0.00000000E+00
  0.00000000E+00  0.00000000E+00  0.00000000E+00
  0.00000000E+00  0.00000000E+00  0.00000000E+00
  0.00000000E+00  0.00000000E+00  0.00000000E+00
  0.00000000E+00  0.00000000E+00  0.00000000E+00
  0.00000000E+00  0.00000000E+00  0.00000000E+00
  0.00000000E+00  0.00000000E+00  0.00000000E+00
  0.00000000E+00  0.00000000E+00  0.00000000E+00
  0.00000000E+00  0.00000000E+00  0.00000000E+00
  0.00000000E+00  0.00000000E+00  0.00000000E+00
  0.00000000E+00  0.00000000E+00  0.00000000E+00
  0.00000000E+00  0.00000000E+00  0.00000000E+00
