Title                                   
   1.00000000000000     
     8.5490480000000009    0.0000000000000000    0.0000000000000000
     0.0000000000000000    8.5490480000000009    0.0000000000000000
     0.0000000000000000    0.0000000000000000   20.0000000000000000
    19     5     1
Selective dynamics
Direct
  0.9120111516748589  0.2025086331231615  0.0976787445921131   T   T   T
  0.9086041686819885  0.8001251762416437  0.0974582618538440   T   T   T
  0.1966355797257490  0.0852402199710793  0.0978617768750766   T   T   T
  0.0771044218337293  0.2009702431511215  0.0977996723186919   T   T   T
  0.1551096513955156  0.6544507975634531  0.0977085911696879   T   T   T
  0.0760721582361453  0.5029931831349647  0.0978090960141127   T   T   T
  0.1572583299808994  0.3558680059072013  0.0978836479877454   T   T   T
  0.0762522481297854  0.8013971904886609  0.0976315898381650   T   T   T
  0.4955362061127072  0.0873095835016471  0.0978032722735807   T   T   T
  0.3466230350466997  0.1665443613536885  0.0978916330090944   T   T   T
  0.4928109325364992  0.9153253801169938  0.0977304878929973   T   T   T
  0.3404397988877683  0.8370451495757872  0.0978180414625798   T   T   T
  0.7907140778126810  0.0847200888923886  0.0975656359856726   T   T   T
  0.6450780589275457  0.1674497053316578  0.0977417544536063   T   T   T
  0.7884202011810425  0.9167321321640757  0.0974317927905531   T   T   T
  0.8269861409486250  0.6500039779666881  0.0976082376395953   T   T   T
  0.8299946175365108  0.3518745895167645  0.0978358230390830   T   T   T
  0.6407032324432497  0.8330912850382727  0.0975617278925283   T   T   T
  0.3222988216481794  0.3334065283758164  0.0979130184533299   T   T   T
  0.9065296877205615  0.5025870016224437  0.0978302020043302   T   T   T
  0.3158883921727624  0.6810997089314063  0.0978323354804003   T   T   T
  0.6730219125841937  0.3304493474611278  0.0979361629407096   T   T   T
  0.6671315529708531  0.6698930670769873  0.0976654330783790   T   T   T
  0.1940919815419636  0.9181947623657759  0.0978374258511605   T   T   T
  0.4900956402694781  0.4955098811272126  0.0978706351029364   T   T   T
 
  0.00000000E+00  0.00000000E+00  0.00000000E+00
  0.00000000E+00  0.00000000E+00  0.00000000E+00
  0.00000000E+00  0.00000000E+00  0.00000000E+00
  0.00000000E+00  0.00000000E+00  0.00000000E+00
  0.00000000E+00  0.00000000E+00  0.00000000E+00
  0.00000000E+00  0.00000000E+00  0.00000000E+00
  0.00000000E+00  0.00000000E+00  0.00000000E+00
  0.00000000E+00  0.00000000E+00  0.00000000E+00
  0.00000000E+00  0.00000000E+00  0.00000000E+00
  0.00000000E+00  0.00000000E+00  0.00000000E+00
  0.00000000E+00  0.00000000E+00  0.00000000E+00
  0.00000000E+00  0.00000000E+00  0.00000000E+00
  0.00000000E+00  0.00000000E+00  0.00000000E+00
  0.00000000E+00  0.00000000E+00  0.00000000E+00
  0.00000000E+00  0.00000000E+00  0.00000000E+00
  0.00000000E+00  0.00000000E+00  0.00000000E+00
  0.00000000E+00  0.00000000E+00  0.00000000E+00
  0.00000000E+00  0.00000000E+00  0.00000000E+00
  0.00000000E+00  0.00000000E+00  0.00000000E+00
  0.00000000E+00  0.00000000E+00  0.00000000E+00
  0.00000000E+00  0.00000000E+00  0.00000000E+00
  0.00000000E+00  0.00000000E+00  0.00000000E+00
  0.00000000E+00  0.00000000E+00  0.00000000E+00
  0.00000000E+00  0.00000000E+00  0.00000000E+00
  0.00000000E+00  0.00000000E+00  0.00000000E+00
