Title                                   
   1.00000000000000     
     9.8694509999999998    0.0000000000000000    0.0000000000000000
     0.0000000000000000    8.5490480000000009    0.0000000000000000
     0.0000000000000000    0.0000000000000000   20.0000000000000000
    29     2     1
Selective dynamics
Direct
  0.0557911491402228  0.0914796005913533  0.0874712108169585   T   T   T
  0.9304228407090774  0.1731454950324652  0.0898984522782142   T   T   T
  0.0544640924960874  0.9246957524433672  0.0875823240900825   T   T   T
  0.9304031961044138  0.3399845692030010  0.0926296916555906   T   T   T
  0.0558300755696032  0.5898599952297313  0.0890495459893439   T   T   T
  0.9312693457470145  0.6728170017200226  0.0943640647192801   T   T   T
  0.0567715596002855  0.4238996664091372  0.0895141498182526   T   T   T
  0.9304413381717309  0.8395962653892959  0.0926610757525233   T   T   T
  0.3050269104997709  0.0913358293157817  0.0868740664346902   T   T   T
  0.1813161903226958  0.1756928771097404  0.0870487155673888   T   T   T
  0.3033152269790711  0.9251642950575000  0.0858529690705601   T   T   T
  0.1839315109592003  0.3430515529577904  0.0876733528559934   T   T   T
  0.3073577489871361  0.5967239449514127  0.0857618438914374   T   T   T
  0.1798384377290348  0.6749892473205411  0.0860660718482597   T   T   T
  0.3107889465946834  0.4269557834984904  0.0882145067998116   T   T   T
  0.1789223579637936  0.8414800085733527  0.0854506450820565   T   T   T
  0.5550273346319922  0.0849214910868557  0.0938400873527971   T   T   T
  0.4312472728236676  0.1716263227334485  0.0905953632069856   T   T   T
  0.5535403475210270  0.9193533800783875  0.0959279322091410   T   T   T
  0.4349942004686183  0.3377857136683797  0.0941184426648331   T   T   T
  0.4257904204045938  0.8380058512660505  0.0885321864146354   T   T   T
  0.8062973408154323  0.0880208306901165  0.0922495645682867   T   T   T
  0.6807687311979933  0.1688972908767960  0.0953128584710837   T   T   T
  0.8054505435911433  0.9217004423182878  0.0951976269880194   T   T   T
  0.6800079503962482  0.3336248748377697  0.1005138075388151   T   T   T
  0.8079901314572480  0.5890969032171707  0.1059833808240120   T   T   T
  0.6929742551271731  0.6793436238118752  0.1237152030743296   T   T   T
  0.8054478308163389  0.4212570056346058  0.1007008171233863   T   T   T
  0.6801905033563314  0.8383411607706380  0.1046193045416528   T   T   T
  0.4252385895844591  0.6800032204343244  0.0858429521559887   T   T   T
  0.5583269765451465  0.4111254055148224  0.1038735800347029   T   T   T
  0.5604556436887709  0.5762705982574972  0.1785392061609213   T   T   T
 
  0.00000000E+00  0.00000000E+00  0.00000000E+00
  0.00000000E+00  0.00000000E+00  0.00000000E+00
  0.00000000E+00  0.00000000E+00  0.00000000E+00
  0.00000000E+00  0.00000000E+00  0.00000000E+00
  0.00000000E+00  0.00000000E+00  0.00000000E+00
  0.00000000E+00  0.00000000E+00  0.00000000E+00
  0.00000000E+00  0.00000000E+00  0.00000000E+00
  0.00000000E+00  0.00000000E+00  0.00000000E+00
  0.00000000E+00  0.00000000E+00  0.00000000E+00
  0.00000000E+00  0.00000000E+00  0.00000000E+00
  0.00000000E+00  0.00000000E+00  0.00000000E+00
  0.00000000E+00  0.00000000E+00  0.00000000E+00
  0.00000000E+00  0.00000000E+00  0.00000000E+00
  0.00000000E+00  0.00000000E+00  0.00000000E+00
  0.00000000E+00  0.00000000E+00  0.00000000E+00
  0.00000000E+00  0.00000000E+00  0.00000000E+00
  0.00000000E+00  0.00000000E+00  0.00000000E+00
  0.00000000E+00  0.00000000E+00  0.00000000E+00
  0.00000000E+00  0.00000000E+00  0.00000000E+00
  0.00000000E+00  0.00000000E+00  0.00000000E+00
  0.00000000E+00  0.00000000E+00  0.00000000E+00
  0.00000000E+00  0.00000000E+00  0.00000000E+00
  0.00000000E+00  0.00000000E+00  0.00000000E+00
  0.00000000E+00  0.00000000E+00  0.00000000E+00
  0.00000000E+00  0.00000000E+00  0.00000000E+00
  0.00000000E+00  0.00000000E+00  0.00000000E+00
  0.00000000E+00  0.00000000E+00  0.00000000E+00
  0.00000000E+00  0.00000000E+00  0.00000000E+00
  0.00000000E+00  0.00000000E+00  0.00000000E+00
  0.00000000E+00  0.00000000E+00  0.00000000E+00
  0.00000000E+00  0.00000000E+00  0.00000000E+00
  0.00000000E+00  0.00000000E+00  0.00000000E+00
