Title                                   
   1.00000000000000     
     8.5490480000000009    0.0000000000000000    0.0000000000000000
     0.0000000000000000    8.5490480000000009    0.0000000000000000
     0.0000000000000000    0.0000000000000000   20.0000000000000000
    21     3     1
Selective dynamics
Direct
  0.9105310159446699  0.2065691426965042  0.0974632776535789   T   T   T
  0.9122728216658941  0.7990145535599126  0.0975730487635602   T   T   T
  0.1993855425301879  0.0818172249776925  0.0977437237120890   T   T   T
  0.0749279063456389  0.2032075002234650  0.0975877953193618   T   T   T
  0.1576194613798517  0.6495099518723390  0.0979212766502948   T   T   T
  0.0762783777779297  0.5007599126227130  0.0977702526690763   T   T   T
  0.1566573140134838  0.3540475087440628  0.0977793931035633   T   T   T
  0.0775661733054843  0.7990997574781804  0.0977082975154860   T   T   T
  0.3466049799329038  0.1649658075731760  0.0978884249714543   T   T   T
  0.4930415489118338  0.9192640430372275  0.0977806287626599   T   T   T
  0.3455152432314860  0.8370279650791246  0.0979528765881019   T   T   T
  0.7869246904895117  0.0838217613949417  0.0974698018454559   T   T   T
  0.6378538795211985  0.1669310093153415  0.0976296346227831   T   T   T
  0.7884227138419609  0.9201978328591669  0.0974939809055936   T   T   T
  0.8295069913818329  0.6486984299532909  0.0976993828218873   T   T   T
  0.8278197691699875  0.3561588126431190  0.0975608554942767   T   T   T
  0.6388037216905648  0.8377034949156217  0.0976974504480392   T   T   T
  0.3249321746351435  0.3322947571959263  0.0979581834151226   T   T   T
  0.3239318334246357  0.6718564126088431  0.0981075883318426   T   T   T
  0.6604578539060663  0.3348752567019495  0.0977094400312813   T   T   T
  0.6623728756673547  0.6693384761584922  0.0978413467682878   T   T   T
  0.4944560312948800  0.0863116438699704  0.0978049704232345   T   T   T
  0.9088935586979668  0.5016816490994195  0.0976810460106707   T   T   T
  0.1968614419842363  0.9181780474254768  0.0977919198840296   T   T   T
  0.4937740792552823  0.5014590479940496  0.0980904032882489   T   T   T
 
  0.00000000E+00  0.00000000E+00  0.00000000E+00
  0.00000000E+00  0.00000000E+00  0.00000000E+00
  0.00000000E+00  0.00000000E+00  0.00000000E+00
  0.00000000E+00  0.00000000E+00  0.00000000E+00
  0.00000000E+00  0.00000000E+00  0.00000000E+00
  0.00000000E+00  0.00000000E+00  0.00000000E+00
  0.00000000E+00  0.00000000E+00  0.00000000E+00
  0.00000000E+00  0.00000000E+00  0.00000000E+00
  0.00000000E+00  0.00000000E+00  0.00000000E+00
  0.00000000E+00  0.00000000E+00  0.00000000E+00
  0.00000000E+00  0.00000000E+00  0.00000000E+00
  0.00000000E+00  0.00000000E+00  0.00000000E+00
  0.00000000E+00  0.00000000E+00  0.00000000E+00
  0.00000000E+00  0.00000000E+00  0.00000000E+00
  0.00000000E+00  0.00000000E+00  0.00000000E+00
  0.00000000E+00  0.00000000E+00  0.00000000E+00
  0.00000000E+00  0.00000000E+00  0.00000000E+00
  0.00000000E+00  0.00000000E+00  0.00000000E+00
  0.00000000E+00  0.00000000E+00  0.00000000E+00
  0.00000000E+00  0.00000000E+00  0.00000000E+00
  0.00000000E+00  0.00000000E+00  0.00000000E+00
  0.00000000E+00  0.00000000E+00  0.00000000E+00
  0.00000000E+00  0.00000000E+00  0.00000000E+00
  0.00000000E+00  0.00000000E+00  0.00000000E+00
  0.00000000E+00  0.00000000E+00  0.00000000E+00
