Title                                   
   1.00000000000000     
     9.8694509999999998    0.0000000000000000    0.0000000000000000
     0.0000000000000000    8.5490480000000009    0.0000000000000000
     0.0000000000000000    0.0000000000000000   20.0000000000000000
    30     1     1
Selective dynamics
Direct
  0.0565161818970719  0.0903644462888856  0.0868403051584345   T   T   T
  0.9314317771433490  0.1723865118275821  0.0884895247628466   T   T   T
  0.0560716761087834  0.9234654866346559  0.0866071136037771   T   T   T
  0.9314398709980573  0.3392646286155196  0.0905508566788704   T   T   T
  0.0565038248112627  0.5890467220049291  0.0881017751793659   T   T   T
  0.9324209235068750  0.6726137524874757  0.0907026130936921   T   T   T
  0.0569452638488555  0.4229112831660377  0.0886778754043747   T   T   T
  0.9313720160809880  0.8391507574550577  0.0891493285185862   T   T   T
  0.3058440263043942  0.0901848103272052  0.0893083414781495   T   T   T
  0.1815945975372558  0.1737642353858334  0.0881483055028745   T   T   T
  0.3047547922559254  0.9237456396926338  0.0896191870524937   T   T   T
  0.1823240134470690  0.3414375606175927  0.0896852969831453   T   T   T
  0.3047041523529002  0.5925929079737106  0.0946677540800108   T   T   T
  0.1803333022166419  0.6737605807299790  0.0887185048974637   T   T   T
  0.3072127304320558  0.4247957984276849  0.0950100265250867   T   T   T
  0.1800293024629048  0.8405829649499749  0.0877241820172427   T   T   T
  0.5556055779535000  0.0868427625297776  0.0948625446183936   T   T   T
  0.4312299109960271  0.1714348611082648  0.0936356807760324   T   T   T
  0.5549236983998959  0.9201636384898779  0.0967618005972755   T   T   T
  0.4316986422749621  0.3378269231920706  0.1000481656183293   T   T   T
  0.5573377688415295  0.4097959035652333  0.1126373500572052   T   T   T
  0.4278348254130165  0.8395334165273720  0.0956486183234061   T   T   T
  0.8068703919888760  0.0887101661927990  0.0902856832552330   T   T   T
  0.6816608373863152  0.1697696560974102  0.0947355894713973   T   T   T
  0.8069240849092043  0.9222644087034497  0.0915167597350627   T   T   T
  0.6828643590689506  0.3358129265046617  0.1014323699672413   T   T   T
  0.8088101990592921  0.5885121980833191  0.0993806172755908   T   T   T
  0.6911924354539699  0.6771227137073600  0.1107959638880968   T   T   T
  0.8079258731189002  0.4207915373018999  0.0977172778182391   T   T   T
  0.6823629657347768  0.8390751985470176  0.0993672350460789   T   T   T
  0.4220573846244656  0.6788545333569195  0.1018693341720845   T   T   T
  0.5508415933719331  0.5936670695078180  0.1529790184439535   T   T   T
 
  0.00000000E+00  0.00000000E+00  0.00000000E+00
  0.00000000E+00  0.00000000E+00  0.00000000E+00
  0.00000000E+00  0.00000000E+00  0.00000000E+00
  0.00000000E+00  0.00000000E+00  0.00000000E+00
  0.00000000E+00  0.00000000E+00  0.00000000E+00
  0.00000000E+00  0.00000000E+00  0.00000000E+00
  0.00000000E+00  0.00000000E+00  0.00000000E+00
  0.00000000E+00  0.00000000E+00  0.00000000E+00
  0.00000000E+00  0.00000000E+00  0.00000000E+00
  0.00000000E+00  0.00000000E+00  0.00000000E+00
  0.00000000E+00  0.00000000E+00  0.00000000E+00
  0.00000000E+00  0.00000000E+00  0.00000000E+00
  0.00000000E+00  0.00000000E+00  0.00000000E+00
  0.00000000E+00  0.00000000E+00  0.00000000E+00
  0.00000000E+00  0.00000000E+00  0.00000000E+00
  0.00000000E+00  0.00000000E+00  0.00000000E+00
  0.00000000E+00  0.00000000E+00  0.00000000E+00
  0.00000000E+00  0.00000000E+00  0.00000000E+00
  0.00000000E+00  0.00000000E+00  0.00000000E+00
  0.00000000E+00  0.00000000E+00  0.00000000E+00
  0.00000000E+00  0.00000000E+00  0.00000000E+00
  0.00000000E+00  0.00000000E+00  0.00000000E+00
  0.00000000E+00  0.00000000E+00  0.00000000E+00
  0.00000000E+00  0.00000000E+00  0.00000000E+00
  0.00000000E+00  0.00000000E+00  0.00000000E+00
  0.00000000E+00  0.00000000E+00  0.00000000E+00
  0.00000000E+00  0.00000000E+00  0.00000000E+00
  0.00000000E+00  0.00000000E+00  0.00000000E+00
  0.00000000E+00  0.00000000E+00  0.00000000E+00
  0.00000000E+00  0.00000000E+00  0.00000000E+00
  0.00000000E+00  0.00000000E+00  0.00000000E+00
  0.00000000E+00  0.00000000E+00  0.00000000E+00
