Title                                   
   1.00000000000000     
     9.8694509999999998    0.0000000000000000    0.0000000000000000
     0.0000000000000000    8.5490480000000009    0.0000000000000000
     0.0000000000000000    0.0000000000000000   20.0000000000000000
    28     3     1
Selective dynamics
Direct
  0.0562786878838836  0.0907262136953956  0.0898598449521861   T   T   T
  0.9304588584454523  0.1738413049687452  0.0909154924058512   T   T   T
  0.0562586580856413  0.9228256596267057  0.0889202271278441   T   T   T
  0.9306630613377005  0.3401732886449902  0.0927342940910673   T   T   T
  0.0562387534145095  0.5899359634103871  0.0898029385787902   T   T   T
  0.9313607992906435  0.6712207650848288  0.0902722261469924   T   T   T
  0.0562493693788293  0.4227237372794564  0.0918431216004919   T   T   T
  0.9305621960927163  0.8387226168155710  0.0896046637802589   T   T   T
  0.3057292352360721  0.0889062276022456  0.0903821020638945   T   T   T
  0.1821035896832479  0.1737866870130745  0.0908537196299278   T   T   T
  0.3069957329119021  0.9234461063971536  0.0901381881190270   T   T   T
  0.1818656264752659  0.3401183240885744  0.0924354369748564   T   T   T
  0.3075014369904278  0.5891635371301519  0.0945323155707224   T   T   T
  0.1811518353951072  0.6712047593230908  0.0897988381218546   T   T   T
  0.1819915281149328  0.8387092410931513  0.0892724328546780   T   T   T
  0.5563009472205663  0.0889447605429785  0.0936163932058926   T   T   T
  0.4310022507123296  0.1716465135547041  0.0927016364553511   T   T   T
  0.4322093033546432  0.3386447466122614  0.0965853842475877   T   T   T
  0.4316253004483231  0.8387249304146149  0.0946754398073946   T   T   T
  0.8068596339713159  0.0889595527178966  0.0905282877733695   T   T   T
  0.6815744302825499  0.1716590838304863  0.0929812386217492   T   T   T
  0.8055916427566333  0.9234920771091434  0.0905268330121496   T   T   T
  0.6802719885998861  0.3386869848279406  0.0970449424780516   T   T   T
  0.8050814636229845  0.5892372231527435  0.0956070698157960   T   T   T
  0.6809961441541308  0.8388176388735324  0.0954927842156840   T   T   T
  0.4272205927065358  0.6755208731812368  0.1015268193780605   T   T   T
  0.5561526211102875  0.4165353278334458  0.1041769389994608   T   T   T
  0.6855292332753108  0.6757323839506967  0.1031589712912871   T   T   T
  0.5563115859760198  0.9222070338827737  0.0946320990114434   T   T   T
  0.3068827199817259  0.4225414872483851  0.0944548644498269   T   T   T
  0.8056344980420698  0.4226067810945106  0.0952667698368590   T   T   T
  0.5549852750483621  0.5907841689991306  0.1913326853816101   T   T   T
 
  0.00000000E+00  0.00000000E+00  0.00000000E+00
  0.00000000E+00  0.00000000E+00  0.00000000E+00
  0.00000000E+00  0.00000000E+00  0.00000000E+00
  0.00000000E+00  0.00000000E+00  0.00000000E+00
  0.00000000E+00  0.00000000E+00  0.00000000E+00
  0.00000000E+00  0.00000000E+00  0.00000000E+00
  0.00000000E+00  0.00000000E+00  0.00000000E+00
  0.00000000E+00  0.00000000E+00  0.00000000E+00
  0.00000000E+00  0.00000000E+00  0.00000000E+00
  0.00000000E+00  0.00000000E+00  0.00000000E+00
  0.00000000E+00  0.00000000E+00  0.00000000E+00
  0.00000000E+00  0.00000000E+00  0.00000000E+00
  0.00000000E+00  0.00000000E+00  0.00000000E+00
  0.00000000E+00  0.00000000E+00  0.00000000E+00
  0.00000000E+00  0.00000000E+00  0.00000000E+00
  0.00000000E+00  0.00000000E+00  0.00000000E+00
  0.00000000E+00  0.00000000E+00  0.00000000E+00
  0.00000000E+00  0.00000000E+00  0.00000000E+00
  0.00000000E+00  0.00000000E+00  0.00000000E+00
  0.00000000E+00  0.00000000E+00  0.00000000E+00
  0.00000000E+00  0.00000000E+00  0.00000000E+00
  0.00000000E+00  0.00000000E+00  0.00000000E+00
  0.00000000E+00  0.00000000E+00  0.00000000E+00
  0.00000000E+00  0.00000000E+00  0.00000000E+00
  0.00000000E+00  0.00000000E+00  0.00000000E+00
  0.00000000E+00  0.00000000E+00  0.00000000E+00
  0.00000000E+00  0.00000000E+00  0.00000000E+00
  0.00000000E+00  0.00000000E+00  0.00000000E+00
  0.00000000E+00  0.00000000E+00  0.00000000E+00
  0.00000000E+00  0.00000000E+00  0.00000000E+00
  0.00000000E+00  0.00000000E+00  0.00000000E+00
  0.00000000E+00  0.00000000E+00  0.00000000E+00
