Title                                   
   1.00000000000000     
     8.5490480000000009    0.0000000000000000    0.0000000000000000
     0.0000000000000000    8.5490480000000009    0.0000000000000000
     0.0000000000000000    0.0000000000000000   20.0000000000000000
    20     4     1
Selective dynamics
Direct
  0.9084530182370233  0.2057110243294472  0.0965850109620116   T   T   T
  0.9065351568398913  0.5036988536940646  0.0971949862976839   T   T   T
  0.9103383168942158  0.8017646660982117  0.0963343536485995   T   T   T
  0.1978341123023126  0.0835537235587701  0.0964622917248960   T   T   T
  0.0751987719735363  0.2031083765468121  0.0960314952310202   T   T   T
  0.1562871349036306  0.6518507614848333  0.0976550529639193   T   T   T
  0.0754690879522491  0.5022859061575059  0.0969913210907259   T   T   T
  0.1538822552299764  0.3532446516831613  0.0964355614126397   T   T   T
  0.0786441027075813  0.7984360803810181  0.0966768144853518   T   T   T
  0.4932188456033388  0.0848081835360631  0.0976829684692623   T   T   T
  0.3453350999406994  0.1630447172024852  0.0974080801016786   T   T   T
  0.4927240132254214  0.9161348848480294  0.0973956705332405   T   T   T
  0.3435434908157768  0.8372303396919838  0.0979151669269188   T   T   T
  0.7877452312985322  0.0863609260980214  0.0968507017590420   T   T   T
  0.6412095367356029  0.1639439730285352  0.0981296169343916   T   T   T
  0.7890734489683844  0.9197653780281967  0.0962949965974676   T   T   T
  0.8298504738451837  0.6536266072882558  0.0970290352037735   T   T   T
  0.8299554409189405  0.3532797537326537  0.0976117419203107   T   T   T
  0.6422961923864359  0.8383808334759926  0.0968679882505070   T   T   T
  0.3205793151179728  0.3316264638905859  0.0982268644348162   T   T   T
  0.3198384282244231  0.6774993209078364  0.0994785727255922   T   T   T
  0.6663918582639419  0.3286382271771678  0.0998391316923132   T   T   T
  0.6670623982030132  0.6776370230388902  0.0977365002673733   T   T   T
  0.1985074078793918  0.9166080363589594  0.0968118396312198   T   T   T
  0.4954388615325164  0.4925512877625395  0.1080592367352176   T   T   T
 
  0.00000000E+00  0.00000000E+00  0.00000000E+00
  0.00000000E+00  0.00000000E+00  0.00000000E+00
  0.00000000E+00  0.00000000E+00  0.00000000E+00
  0.00000000E+00  0.00000000E+00  0.00000000E+00
  0.00000000E+00  0.00000000E+00  0.00000000E+00
  0.00000000E+00  0.00000000E+00  0.00000000E+00
  0.00000000E+00  0.00000000E+00  0.00000000E+00
  0.00000000E+00  0.00000000E+00  0.00000000E+00
  0.00000000E+00  0.00000000E+00  0.00000000E+00
  0.00000000E+00  0.00000000E+00  0.00000000E+00
  0.00000000E+00  0.00000000E+00  0.00000000E+00
  0.00000000E+00  0.00000000E+00  0.00000000E+00
  0.00000000E+00  0.00000000E+00  0.00000000E+00
  0.00000000E+00  0.00000000E+00  0.00000000E+00
  0.00000000E+00  0.00000000E+00  0.00000000E+00
  0.00000000E+00  0.00000000E+00  0.00000000E+00
  0.00000000E+00  0.00000000E+00  0.00000000E+00
  0.00000000E+00  0.00000000E+00  0.00000000E+00
  0.00000000E+00  0.00000000E+00  0.00000000E+00
  0.00000000E+00  0.00000000E+00  0.00000000E+00
  0.00000000E+00  0.00000000E+00  0.00000000E+00
  0.00000000E+00  0.00000000E+00  0.00000000E+00
  0.00000000E+00  0.00000000E+00  0.00000000E+00
  0.00000000E+00  0.00000000E+00  0.00000000E+00
  0.00000000E+00  0.00000000E+00  0.00000000E+00
