Title                                   
   1.00000000000000     
     4.9440799999999996    0.0000000000000000    0.0000000000000000
     0.0000000000000000   17.1295089999999988    0.0000000000000000
     0.0000000000000000    0.0000000000000000   20.0000000000000000
    29     1     1
Selective dynamics
Direct
 -0.0000080270346282  0.1047230598426910  0.2966616740579805   T   T   T
  0.2503356934070384  0.1468971812414605  0.2969032238939413   T   T   T
  0.2502983231938044  0.2302093177766173  0.2983695677603286   T   T   T
  0.0013900952311641  0.2731777551082607  0.2997624281576771   T   T   T
  0.0025530345351087  0.6022576398641265  0.2992468923602628   T   T   T
  0.2503562373005075  0.7268567896486166  0.2977445895492827   T   T   T
  0.0012401384324148  0.8529496633695474  0.2973224775547494   T   T   T
  0.2503653398174553  0.8952049590982984  0.2972407889848636   T   T   T
  0.2503694130594221  0.9789551999867311  0.2968748926631565   T   T   T
  0.0008618996739756  0.7689871300571959  0.2974800412980121   T   T   T
  0.5007236031305066  0.1047269266516855  0.2966595845935253   T   T   T
  0.7503412349415782  0.1468746464021598  0.2969481145370172   T   T   T
  0.7503078977809008  0.2308928197772123  0.2986061345542966   T   T   T
  0.5005761376481348  0.0209255734435571  0.2966929927066597   T   T   T
  0.7502437677805622  0.3962368105168929  0.3022360346096341   T   T   T
  0.7502582717806747  0.4815292364360499  0.3020949341720220   T   T   T
  0.4991903883965881  0.2731728653442769  0.2997614092297629   T   T   T
  0.4980441428925046  0.6022603471345095  0.2992363089731911   T   T   T
  0.7503631190776033  0.7277101530155418  0.2974120364374965   T   T   T
  0.4994858302550908  0.8529479023518723  0.2973138257061507   T   T   T
  0.7503624971861043  0.8947419857388699  0.2971492239889241   T   T   T
  0.7503679051057888  0.9787261210925388  0.2968196132524895   T   T   T
  0.4998736758685789  0.7689839298960680  0.2974702467111050   T   T   T
  0.7503071471916972  0.6446259946943420  0.2980194438546345   T   T   T
  0.0001521006656787  0.0209207699937981  0.2966986528490026   T   T   T
  0.4979055194828785  0.5202477456191821  0.3023792883736562   T   T   T
  0.0026201953363746  0.5202437686770194  0.3023944148581572   T   T   T
  0.5013892781195437  0.3560095894813696  0.3034546881937726   T   T   T
 -0.0008843861509914  0.3560154575281704  0.3034586109453441   T   T   T
  0.2503076961287912  0.6450869022346066  0.2984793805732357   T   T   T
  0.2503088297651494  0.4382437579767291  0.3241684845996193   T   T   T
 
  0.00000000E+00  0.00000000E+00  0.00000000E+00
  0.00000000E+00  0.00000000E+00  0.00000000E+00
  0.00000000E+00  0.00000000E+00  0.00000000E+00
  0.00000000E+00  0.00000000E+00  0.00000000E+00
  0.00000000E+00  0.00000000E+00  0.00000000E+00
  0.00000000E+00  0.00000000E+00  0.00000000E+00
  0.00000000E+00  0.00000000E+00  0.00000000E+00
  0.00000000E+00  0.00000000E+00  0.00000000E+00
  0.00000000E+00  0.00000000E+00  0.00000000E+00
  0.00000000E+00  0.00000000E+00  0.00000000E+00
  0.00000000E+00  0.00000000E+00  0.00000000E+00
  0.00000000E+00  0.00000000E+00  0.00000000E+00
  0.00000000E+00  0.00000000E+00  0.00000000E+00
  0.00000000E+00  0.00000000E+00  0.00000000E+00
  0.00000000E+00  0.00000000E+00  0.00000000E+00
  0.00000000E+00  0.00000000E+00  0.00000000E+00
  0.00000000E+00  0.00000000E+00  0.00000000E+00
  0.00000000E+00  0.00000000E+00  0.00000000E+00
  0.00000000E+00  0.00000000E+00  0.00000000E+00
  0.00000000E+00  0.00000000E+00  0.00000000E+00
  0.00000000E+00  0.00000000E+00  0.00000000E+00
  0.00000000E+00  0.00000000E+00  0.00000000E+00
  0.00000000E+00  0.00000000E+00  0.00000000E+00
  0.00000000E+00  0.00000000E+00  0.00000000E+00
  0.00000000E+00  0.00000000E+00  0.00000000E+00
  0.00000000E+00  0.00000000E+00  0.00000000E+00
  0.00000000E+00  0.00000000E+00  0.00000000E+00
  0.00000000E+00  0.00000000E+00  0.00000000E+00
  0.00000000E+00  0.00000000E+00  0.00000000E+00
  0.00000000E+00  0.00000000E+00  0.00000000E+00
  0.00000000E+00  0.00000000E+00  0.00000000E+00
