Title                                   
   1.00000000000000     
     8.5490480000000009    0.0000000000000000    0.0000000000000000
     0.0000000000000000    8.5490480000000009    0.0000000000000000
     0.0000000000000000    0.0000000000000000   20.0000000000000000
    22     2     1
Selective dynamics
Direct
  0.9111868463471893  0.2067569633979251  0.0976018778338949   T   T   T
  0.9132769899048245  0.7995486306388682  0.0976310763344159   T   T   T
  0.1981187245907232  0.0823860722501449  0.0978003190254038   T   T   T
  0.0739251492920468  0.2030515569076455  0.0976935793369738   T   T   T
  0.1571318670308453  0.6495398362373993  0.0978710330432207   T   T   T
  0.0753213675936209  0.5013731368201813  0.0978048011139351   T   T   T
  0.1555544609916522  0.3546296772583322  0.0978085483837220   T   T   T
  0.0772971310603238  0.7995015307085229  0.0977613287535282   T   T   T
  0.4934474905487240  0.0859385917241136  0.0977678341903452   T   T   T
  0.3445296494574417  0.1647920023477874  0.0978941594472019   T   T   T
  0.4926391978885711  0.9174674368033627  0.0977082026455214   T   T   T
  0.3450328042209805  0.8352450710917652  0.0978277500416262   T   T   T
  0.7877777959587030  0.0844800331537332  0.0975797102153512   T   T   T
  0.6395111142396112  0.1677495240228655  0.0976934391133659   T   T   T
  0.7882744853317550  0.9204150393352124  0.0975581512806085   T   T   T
  0.8309397189545954  0.6487766707448469  0.0976467213061562   T   T   T
  0.8287394232252773  0.3569750144155658  0.0976487574170165   T   T   T
  0.6398809256922329  0.8358410097525752  0.0976135973359445   T   T   T
  0.3217238570857057  0.3332318975920062  0.0979413273468581   T   T   T
  0.3219917385749761  0.6705996023960200  0.0979238462727383   T   T   T
  0.6632544695997784  0.3358644760270689  0.0977364365639304   T   T   T
  0.6645921699872226  0.6686302163661274  0.0976783507745448   T   T   T
  0.9098898490986554  0.5027078706294613  0.0977452639314886   T   T   T
  0.1975080895711696  0.9180950849438764  0.0978257282655901   T   T   T
  0.4938666837533598  0.5011930544345984  0.0979431600265979   T   T   T
 
  0.00000000E+00  0.00000000E+00  0.00000000E+00
  0.00000000E+00  0.00000000E+00  0.00000000E+00
  0.00000000E+00  0.00000000E+00  0.00000000E+00
  0.00000000E+00  0.00000000E+00  0.00000000E+00
  0.00000000E+00  0.00000000E+00  0.00000000E+00
  0.00000000E+00  0.00000000E+00  0.00000000E+00
  0.00000000E+00  0.00000000E+00  0.00000000E+00
  0.00000000E+00  0.00000000E+00  0.00000000E+00
  0.00000000E+00  0.00000000E+00  0.00000000E+00
  0.00000000E+00  0.00000000E+00  0.00000000E+00
  0.00000000E+00  0.00000000E+00  0.00000000E+00
  0.00000000E+00  0.00000000E+00  0.00000000E+00
  0.00000000E+00  0.00000000E+00  0.00000000E+00
  0.00000000E+00  0.00000000E+00  0.00000000E+00
  0.00000000E+00  0.00000000E+00  0.00000000E+00
  0.00000000E+00  0.00000000E+00  0.00000000E+00
  0.00000000E+00  0.00000000E+00  0.00000000E+00
  0.00000000E+00  0.00000000E+00  0.00000000E+00
  0.00000000E+00  0.00000000E+00  0.00000000E+00
  0.00000000E+00  0.00000000E+00  0.00000000E+00
  0.00000000E+00  0.00000000E+00  0.00000000E+00
  0.00000000E+00  0.00000000E+00  0.00000000E+00
  0.00000000E+00  0.00000000E+00  0.00000000E+00
  0.00000000E+00  0.00000000E+00  0.00000000E+00
  0.00000000E+00  0.00000000E+00  0.00000000E+00
