Title                                   
   1.00000000000000     
     9.8694509999999998    0.0000000000000000    0.0000000000000000
     0.0000000000000000    8.5490480000000009    0.0000000000000000
     0.0000000000000000    0.0000000000000000   20.0000000000000000
    31     1
Selective dynamics
Direct
  0.0562435843055606  0.0894659270488669  0.0840332777923882   T   T   T
  0.9313689425788647  0.1725268926077450  0.0860674280853816   T   T   T
  0.0562404535199177  0.9230145228207006  0.0839389711316639   T   T   T
  0.9311612024124086  0.3393756889628336  0.0889144717337406   T   T   T
  0.0562261058599913  0.5886977674025757  0.0864912411069800   T   T   T
  0.9320664469815598  0.6729112480689430  0.0884456148247113   T   T   T
  0.0562301254000713  0.4225232952723012  0.0873182316800527   T   T   T
  0.9314541972617950  0.8394969368880852  0.0865440936587486   T   T   T
  0.3056815353084411  0.0896306479711835  0.0881114819660603   T   T   T
  0.1811316626218127  0.1725192057907295  0.0860493586146150   T   T   T
  0.3053445576008325  0.9233010293415751  0.0893330643072725   T   T   T
  0.1813007748314167  0.3393710668785762  0.0888817279974829   T   T   T
  0.3041739343563890  0.5889048077252902  0.0980036851107943   T   T   T
  0.1803989226781679  0.6729026016845340  0.0883814269646024   T   T   T
  0.3047449419760435  0.4215723424944305  0.0964407904320427   T   T   T
  0.1810236706187635  0.8394870421982423  0.0864850646230534   T   T   T
  0.5562444301015793  0.0887247961395304  0.0945553673817064   T   T   T
  0.4307492582115657  0.1715188005665873  0.0932575362930352   T   T   T
  0.5562301895120502  0.9237219870423935  0.0980547426049195   T   T   T
  0.4299379493158547  0.3374156421875822  0.1005045021062407   T   T   T
  0.4196626032106860  0.6799439380655997  0.1098816831794018   T   T   T
  0.5562374949612138  0.4072620672400634  0.1125165327791649   T   T   T
  0.4302022090978653  0.8411835274940960  0.0989998395491735   T   T   T
  0.8068117998020223  0.0896354495446680  0.0881434553494655   T   T   T
  0.6817471028975312  0.1715200818218569  0.0932660900873666   T   T   T
  0.8071472693703919  0.9233217663801909  0.0894008637798178   T   T   T
  0.6825449901149833  0.3374166676245712  0.1005205520145575   T   T   T
  0.8083050375995133  0.5889088692943876  0.0980884042645176   T   T   T
  0.6928527207357246  0.6799794412923684  0.1099710030574624   T   T   T
  0.8077277239248072  0.4215858969969435  0.0965021580375700   T   T   T
  0.6822728747427577  0.8411986419965548  0.0990479805284374   T   T   T
  0.5561742880894244  0.5912074031560034  0.1695243589576073   T   T   T
 
  0.00000000E+00  0.00000000E+00  0.00000000E+00
  0.00000000E+00  0.00000000E+00  0.00000000E+00
  0.00000000E+00  0.00000000E+00  0.00000000E+00
  0.00000000E+00  0.00000000E+00  0.00000000E+00
  0.00000000E+00  0.00000000E+00  0.00000000E+00
  0.00000000E+00  0.00000000E+00  0.00000000E+00
  0.00000000E+00  0.00000000E+00  0.00000000E+00
  0.00000000E+00  0.00000000E+00  0.00000000E+00
  0.00000000E+00  0.00000000E+00  0.00000000E+00
  0.00000000E+00  0.00000000E+00  0.00000000E+00
  0.00000000E+00  0.00000000E+00  0.00000000E+00
  0.00000000E+00  0.00000000E+00  0.00000000E+00
  0.00000000E+00  0.00000000E+00  0.00000000E+00
  0.00000000E+00  0.00000000E+00  0.00000000E+00
  0.00000000E+00  0.00000000E+00  0.00000000E+00
  0.00000000E+00  0.00000000E+00  0.00000000E+00
  0.00000000E+00  0.00000000E+00  0.00000000E+00
  0.00000000E+00  0.00000000E+00  0.00000000E+00
  0.00000000E+00  0.00000000E+00  0.00000000E+00
  0.00000000E+00  0.00000000E+00  0.00000000E+00
  0.00000000E+00  0.00000000E+00  0.00000000E+00
  0.00000000E+00  0.00000000E+00  0.00000000E+00
  0.00000000E+00  0.00000000E+00  0.00000000E+00
  0.00000000E+00  0.00000000E+00  0.00000000E+00
  0.00000000E+00  0.00000000E+00  0.00000000E+00
  0.00000000E+00  0.00000000E+00  0.00000000E+00
  0.00000000E+00  0.00000000E+00  0.00000000E+00
  0.00000000E+00  0.00000000E+00  0.00000000E+00
  0.00000000E+00  0.00000000E+00  0.00000000E+00
  0.00000000E+00  0.00000000E+00  0.00000000E+00
  0.00000000E+00  0.00000000E+00  0.00000000E+00
  0.00000000E+00  0.00000000E+00  0.00000000E+00
