Title                                   
   1.00000000000000     
     9.8694509999999998    0.0000000000000000    0.0000000000000000
     0.0000000000000000    8.5490480000000009    0.0000000000000000
     0.0000000000000000    0.0000000000000000   20.0000000000000000
    27     3     1
Selective dynamics
Direct
  0.0564758510159228  0.0899689856492708  0.0936531096075357   T   T   T
  0.9313666668068462  0.1723866516648491  0.0940088999418302   T   T   T
  0.0562572611356697  0.9240904259294526  0.0936267170932028   T   T   T
  0.9352605988299039  0.3390304928161229  0.0939147438125310   T   T   T
  0.0566065039375609  0.5894909322933983  0.0932388137477538   T   T   T
  0.9350302076413477  0.6753575604437253  0.0938293640161420   T   T   T
  0.0571086730427177  0.4233572584231647  0.0932655672647101   T   T   T
  0.9320935406161054  0.8416348341375123  0.0939837529245267   T   T   T
  0.3057479990718484  0.0900699132270042  0.0948351067954424   T   T   T
  0.1802640719017539  0.1719872512874525  0.0939868983447645   T   T   T
  0.3052584342359840  0.9227003739919544  0.0948011487775157   T   T   T
  0.1790235688143705  0.3393043228827313  0.0938238429788659   T   T   T
  0.2995398110254970  0.5912041951173685  0.0948879652418632   T   T   T
  0.1777912691568814  0.6737230791948946  0.0938110365933927   T   T   T
  0.3003293749244509  0.4217905015151450  0.0949119003234001   T   T   T
  0.1799805425089036  0.8409429891880355  0.0939678209412121   T   T   T
  0.5546193489221192  0.0899609698180561  0.0958813487229487   T   T   T
  0.4297336730736752  0.1750923938454084  0.0957357596441033   T   T   T
  0.5550698090307584  0.9171531125936628  0.0958783233630018   T   T   T
  0.4280471907211187  0.8347386639492662  0.0956636592387430   T   T   T
  0.8060098177091722  0.0899906764276852  0.0948306547725553   T   T   T
  0.6813285216268810  0.1753570056242355  0.0958087754465930   T   T   T
  0.8063033086991886  0.9219651629296145  0.0948182709326966   T   T   T
  0.6926495663176887  0.3399147811452246  0.0963603026060120   T   T   T
  0.8148161636867739  0.5929175334006510  0.0950570755548157   T   T   T
  0.8141397135674359  0.4235767575831862  0.0951402725944554   T   T   T
  0.6828939974193932  0.8344110768764257  0.0957609316114107   T   T   T
  0.4202301210165236  0.3385835029798685  0.0961493660417234   T   T   T
  0.6944678643020884  0.6723093179879114  0.0962740833316083   T   T   T
  0.4180943451719393  0.6742929851897478  0.0960252174933810   T   T   T
  0.5565971840694894  0.5035712918869861  0.0970342702413039   T   T   T
 
  0.00000000E+00  0.00000000E+00  0.00000000E+00
  0.00000000E+00  0.00000000E+00  0.00000000E+00
  0.00000000E+00  0.00000000E+00  0.00000000E+00
  0.00000000E+00  0.00000000E+00  0.00000000E+00
  0.00000000E+00  0.00000000E+00  0.00000000E+00
  0.00000000E+00  0.00000000E+00  0.00000000E+00
  0.00000000E+00  0.00000000E+00  0.00000000E+00
  0.00000000E+00  0.00000000E+00  0.00000000E+00
  0.00000000E+00  0.00000000E+00  0.00000000E+00
  0.00000000E+00  0.00000000E+00  0.00000000E+00
  0.00000000E+00  0.00000000E+00  0.00000000E+00
  0.00000000E+00  0.00000000E+00  0.00000000E+00
  0.00000000E+00  0.00000000E+00  0.00000000E+00
  0.00000000E+00  0.00000000E+00  0.00000000E+00
  0.00000000E+00  0.00000000E+00  0.00000000E+00
  0.00000000E+00  0.00000000E+00  0.00000000E+00
  0.00000000E+00  0.00000000E+00  0.00000000E+00
  0.00000000E+00  0.00000000E+00  0.00000000E+00
  0.00000000E+00  0.00000000E+00  0.00000000E+00
  0.00000000E+00  0.00000000E+00  0.00000000E+00
  0.00000000E+00  0.00000000E+00  0.00000000E+00
  0.00000000E+00  0.00000000E+00  0.00000000E+00
  0.00000000E+00  0.00000000E+00  0.00000000E+00
  0.00000000E+00  0.00000000E+00  0.00000000E+00
  0.00000000E+00  0.00000000E+00  0.00000000E+00
  0.00000000E+00  0.00000000E+00  0.00000000E+00
  0.00000000E+00  0.00000000E+00  0.00000000E+00
  0.00000000E+00  0.00000000E+00  0.00000000E+00
  0.00000000E+00  0.00000000E+00  0.00000000E+00
  0.00000000E+00  0.00000000E+00  0.00000000E+00
  0.00000000E+00  0.00000000E+00  0.00000000E+00
