Title                                   
   1.00000000000000     
     4.9440799999999996    0.0000000000000000    0.0000000000000000
     0.0000000000000000   17.1295089999999988    0.0000000000000000
     0.0000000000000000    0.0000000000000000   20.0000000000000000
    28     2     1
Selective dynamics
Direct
 -0.0019557164050588  0.1040346826326086  0.2970640864623977   T   T   T
  0.2469610462135648  0.1467125628271152  0.2979010399523738   T   T   T
  0.2463747193831937  0.2299583289855781  0.3000302855974173   T   T   T
 -0.0065397557819518  0.2717693013291632  0.3008155895490882   T   T   T
  0.0020121192157866  0.6048837717503464  0.2997477981574098   T   T   T
  0.2516521385760513  0.7276648838144816  0.2984527644838450   T   T   T
  0.0011842164802572  0.8535847418564930  0.2970656572816079   T   T   T
  0.2498282347758883  0.8956942880218007  0.2970434023115017   T   T   T
  0.2489646664809546  0.9789331981583010  0.2968161592882196   T   T   T
  0.0017846600494087  0.7699824086067865  0.2975767051786465   T   T   T
  0.4976629380870057  0.1042776202813325  0.2971127138014252   T   T   T
  0.7482363875211218  0.1453754315740462  0.2972922257703173   T   T   T
  0.7466748387541056  0.2286764946582067  0.2988670508341001   T   T   T
  0.4985609407861197  0.0208426418115101  0.2967295798888898   T   T   T
  0.7546714086575688  0.3927584807041803  0.3018665906019628   T   T   T
  0.7578378357697561  0.4816607746910566  0.3014855946267543   T   T   T
  0.4988373059136458  0.2711394591647316  0.3006061433465654   T   T   T
  0.5030163765838006  0.6037843534207571  0.3014474380075425   T   T   T
  0.7510233593864007  0.7294839990208923  0.2978115108108999   T   T   T
  0.4990836849565520  0.8536447879144763  0.2971864816942248   T   T   T
  0.7499042491075868  0.8951524521853037  0.2968104624871172   T   T   T
  0.7488808460214106  0.9788730832026584  0.2966006693345191   T   T   T
  0.5003711551473247  0.7701761856371094  0.2978279607204561   T   T   T
  0.7515580535307163  0.6469009573585829  0.2989896337380516   T   T   T
 -0.0012138268409654  0.0206548196598733  0.2966903486415637   T   T   T
  0.5110106538801794  0.5219735185862390  0.3052073455664532   T   T   T
 -0.0018174200465563  0.5237137775490949  0.3011319503264870   T   T   T
  0.5127177137063991  0.3529273461475901  0.3035596349008449   T   T   T
 -0.0136277793527339  0.3513558762590759  0.3030633495750504   T   T   T
  0.2525049866633021  0.6463831222492021  0.3001404369511232   T   T   T
  0.2538469627791679  0.4383686499414023  0.3121193901130956   T   T   T
 
  0.00000000E+00  0.00000000E+00  0.00000000E+00
  0.00000000E+00  0.00000000E+00  0.00000000E+00
  0.00000000E+00  0.00000000E+00  0.00000000E+00
  0.00000000E+00  0.00000000E+00  0.00000000E+00
  0.00000000E+00  0.00000000E+00  0.00000000E+00
  0.00000000E+00  0.00000000E+00  0.00000000E+00
  0.00000000E+00  0.00000000E+00  0.00000000E+00
  0.00000000E+00  0.00000000E+00  0.00000000E+00
  0.00000000E+00  0.00000000E+00  0.00000000E+00
  0.00000000E+00  0.00000000E+00  0.00000000E+00
  0.00000000E+00  0.00000000E+00  0.00000000E+00
  0.00000000E+00  0.00000000E+00  0.00000000E+00
  0.00000000E+00  0.00000000E+00  0.00000000E+00
  0.00000000E+00  0.00000000E+00  0.00000000E+00
  0.00000000E+00  0.00000000E+00  0.00000000E+00
  0.00000000E+00  0.00000000E+00  0.00000000E+00
  0.00000000E+00  0.00000000E+00  0.00000000E+00
  0.00000000E+00  0.00000000E+00  0.00000000E+00
  0.00000000E+00  0.00000000E+00  0.00000000E+00
  0.00000000E+00  0.00000000E+00  0.00000000E+00
  0.00000000E+00  0.00000000E+00  0.00000000E+00
  0.00000000E+00  0.00000000E+00  0.00000000E+00
  0.00000000E+00  0.00000000E+00  0.00000000E+00
  0.00000000E+00  0.00000000E+00  0.00000000E+00
  0.00000000E+00  0.00000000E+00  0.00000000E+00
  0.00000000E+00  0.00000000E+00  0.00000000E+00
  0.00000000E+00  0.00000000E+00  0.00000000E+00
  0.00000000E+00  0.00000000E+00  0.00000000E+00
  0.00000000E+00  0.00000000E+00  0.00000000E+00
  0.00000000E+00  0.00000000E+00  0.00000000E+00
  0.00000000E+00  0.00000000E+00  0.00000000E+00
