Title                                   
   1.00000000000000     
     9.8694509999999998    0.0000000000000000    0.0000000000000000
     0.0000000000000000    8.5490480000000009    0.0000000000000000
     0.0000000000000000    0.0000000000000000   20.0000000000000000
    27     4     1
Selective dynamics
Direct
  0.0555947451855077  0.0898948813038726  0.0853200330102034   T   T   T
  0.9310245672127679  0.1745044697329871  0.0856972054788264   T   T   T
  0.0573629804930150  0.9222267595061160  0.0860438664578671   T   T   T
  0.9305125102704973  0.3413085490440526  0.0875016858316554   T   T   T
  0.0562555397343564  0.5909441429005605  0.0877821183961504   T   T   T
  0.0554042269813321  0.4237187157496479  0.0875071612654564   T   T   T
  0.9330122901763415  0.8396164857702063  0.0875766538810716   T   T   T
  0.3059270991573689  0.0879199893073365  0.0893610368724480   T   T   T
  0.1815160285652991  0.1719978131146127  0.0874296663489684   T   T   T
  0.1806397860662873  0.3390856145281267  0.0897210921923415   T   T   T
  0.3027518810115503  0.5874618176286189  0.1018644478335717   T   T   T
  0.1801274072750459  0.6735357584534479  0.0913903307489748   T   T   T
  0.3053125029281076  0.4201178039387391  0.0989991367906194   T   T   T
  0.1825905682567144  0.8406964586553909  0.0890250188269632   T   T   T
  0.5562336779842146  0.0875950453898390  0.0927307820486038   T   T   T
  0.5559594433177267  0.9205109757972646  0.0978148820662557   T   T   T
  0.4292150245524101  0.3324545239022673  0.1032410511880149   T   T   T
  0.4279152954358351  0.8397470404113996  0.1026834392679584   T   T   T
  0.8061386348210012  0.0892214959219773  0.0867504003439225   T   T   T
  0.6800394689203257  0.1715602864831878  0.0906031906209349   T   T   T
  0.8079654430061753  0.9234048702146900  0.0889802017184886   T   T   T
  0.6811411083099941  0.3388259155289997  0.0989326018805819   T   T   T
  0.8098605129635649  0.5943115427997283  0.0970402559351080   T   T   T
  0.8049780654772231  0.4263407764362889  0.0944831265482237   T   T   T
  0.6840628905297671  0.8412054064987057  0.0979995865861437   T   T   T
  0.4188831278409400  0.6799892774710151  0.1160576855267457   T   T   T
  0.5539267355725819  0.4059626369182058  0.1143689857412425   T   T   T
  0.6960060980124070  0.6811780309744929  0.1106173495376811   T   T   T
  0.3061340004741049  0.9246391839194454  0.0908495546321488   T   T   T
  0.4290701809549889  0.1669096202073262  0.0932988979057100   T   T   T
  0.9321675750630355  0.6733653423516370  0.0885338510004963   T   T   T
  0.5619095834495184  0.5899947691398172  0.1654697035166379   T   T   T
 
  0.00000000E+00  0.00000000E+00  0.00000000E+00
  0.00000000E+00  0.00000000E+00  0.00000000E+00
  0.00000000E+00  0.00000000E+00  0.00000000E+00
  0.00000000E+00  0.00000000E+00  0.00000000E+00
  0.00000000E+00  0.00000000E+00  0.00000000E+00
  0.00000000E+00  0.00000000E+00  0.00000000E+00
  0.00000000E+00  0.00000000E+00  0.00000000E+00
  0.00000000E+00  0.00000000E+00  0.00000000E+00
  0.00000000E+00  0.00000000E+00  0.00000000E+00
  0.00000000E+00  0.00000000E+00  0.00000000E+00
  0.00000000E+00  0.00000000E+00  0.00000000E+00
  0.00000000E+00  0.00000000E+00  0.00000000E+00
  0.00000000E+00  0.00000000E+00  0.00000000E+00
  0.00000000E+00  0.00000000E+00  0.00000000E+00
  0.00000000E+00  0.00000000E+00  0.00000000E+00
  0.00000000E+00  0.00000000E+00  0.00000000E+00
  0.00000000E+00  0.00000000E+00  0.00000000E+00
  0.00000000E+00  0.00000000E+00  0.00000000E+00
  0.00000000E+00  0.00000000E+00  0.00000000E+00
  0.00000000E+00  0.00000000E+00  0.00000000E+00
  0.00000000E+00  0.00000000E+00  0.00000000E+00
  0.00000000E+00  0.00000000E+00  0.00000000E+00
  0.00000000E+00  0.00000000E+00  0.00000000E+00
  0.00000000E+00  0.00000000E+00  0.00000000E+00
  0.00000000E+00  0.00000000E+00  0.00000000E+00
  0.00000000E+00  0.00000000E+00  0.00000000E+00
  0.00000000E+00  0.00000000E+00  0.00000000E+00
  0.00000000E+00  0.00000000E+00  0.00000000E+00
  0.00000000E+00  0.00000000E+00  0.00000000E+00
  0.00000000E+00  0.00000000E+00  0.00000000E+00
  0.00000000E+00  0.00000000E+00  0.00000000E+00
  0.00000000E+00  0.00000000E+00  0.00000000E+00
