Title                                   
   1.00000000000000     
     4.9440799999999996    0.0000000000000000    0.0000000000000000
     0.0000000000000000   17.1295089999999988    0.0000000000000000
     0.0000000000000000    0.0000000000000000   20.0000000000000000
    30     1
Selective dynamics
Direct
  0.0001553516182088  0.1038621114579794  0.2869425665615618   T   T   T
  0.2502613945645959  0.1458841776788979  0.2911661674340978   T   T   T
  0.2502955142592135  0.2278311806349322  0.3013825814823209   T   T   T
 -0.0010603376133871  0.2698605032261350  0.3059896450759694   T   T   T
 -0.0006584915507423  0.6049960060164137  0.3061892684834703   T   T   T
  0.2505839445576558  0.7291306416376100  0.2921402085887862   T   T   T
  0.0003771054849278  0.8541424062994665  0.2833110765339062   T   T   T
  0.2503968699052700  0.8960057018485880  0.2821679927831566   T   T   T
  0.2502942650592295  0.9789763527928430  0.2817775029079246   T   T   T
  0.0004624955362043  0.7711616780162491  0.2880175524121870   T   T   T
  0.5003535203194839  0.1038531785037150  0.2870376905284110   T   T   T
  0.7502630221586685  0.1451476778571692  0.2899751398007448   T   T   T
  0.7502478923547530  0.2277398704491444  0.2994040268097887   T   T   T
  0.5003910407502310  0.0208389969101174  0.2826078011765655   T   T   T
  0.7500543768248289  0.3937338879992784  0.3172073440342130   T   T   T
  0.7502461783102743  0.4810327344273134  0.3171239300037954   T   T   T
  0.5017232672777001  0.2697666213933712  0.3065339892979045   T   T   T
  0.5020365232485834  0.6051413641226044  0.3068301058365392   T   T   T
  0.7505896411608705  0.7298697148945325  0.2910324786336228   T   T   T
  0.5005258832327714  0.8541516215197151  0.2833545076728143   T   T   T
  0.7504407008462187  0.8957969883573357  0.2819034912807123   T   T   T
  0.7503550217778757  0.9792021372745008  0.2814830851701153   T   T   T
  0.5006724384499062  0.7711647477180464  0.2881353497159183   T   T   T
  0.7506127296959696  0.6471909910149829  0.3000294653448840   T   T   T
  0.2506446873054136  0.6470891683377685  0.3018223092270379   T   T   T
  0.0002659590555573  0.0208560325272786  0.2825726909828298   T   T   T
  0.5060726741079979  0.5238244765703665  0.3181346781039453   T   T   T
  0.9950836447688117  0.5234858311203087  0.3163471207251014   T   T   T
  0.5057467127632669  0.3510221828418499  0.3181726120343913   T   T   T
 -0.0052978772309828  0.3512776775669060  0.3166066795528090   T   T   T
  0.2478708510006256  0.4373053389845762  0.3796609418044269   T   T   T
 
  0.00000000E+00  0.00000000E+00  0.00000000E+00
  0.00000000E+00  0.00000000E+00  0.00000000E+00
  0.00000000E+00  0.00000000E+00  0.00000000E+00
  0.00000000E+00  0.00000000E+00  0.00000000E+00
  0.00000000E+00  0.00000000E+00  0.00000000E+00
  0.00000000E+00  0.00000000E+00  0.00000000E+00
  0.00000000E+00  0.00000000E+00  0.00000000E+00
  0.00000000E+00  0.00000000E+00  0.00000000E+00
  0.00000000E+00  0.00000000E+00  0.00000000E+00
  0.00000000E+00  0.00000000E+00  0.00000000E+00
  0.00000000E+00  0.00000000E+00  0.00000000E+00
  0.00000000E+00  0.00000000E+00  0.00000000E+00
  0.00000000E+00  0.00000000E+00  0.00000000E+00
  0.00000000E+00  0.00000000E+00  0.00000000E+00
  0.00000000E+00  0.00000000E+00  0.00000000E+00
  0.00000000E+00  0.00000000E+00  0.00000000E+00
  0.00000000E+00  0.00000000E+00  0.00000000E+00
  0.00000000E+00  0.00000000E+00  0.00000000E+00
  0.00000000E+00  0.00000000E+00  0.00000000E+00
  0.00000000E+00  0.00000000E+00  0.00000000E+00
  0.00000000E+00  0.00000000E+00  0.00000000E+00
  0.00000000E+00  0.00000000E+00  0.00000000E+00
  0.00000000E+00  0.00000000E+00  0.00000000E+00
  0.00000000E+00  0.00000000E+00  0.00000000E+00
  0.00000000E+00  0.00000000E+00  0.00000000E+00
  0.00000000E+00  0.00000000E+00  0.00000000E+00
  0.00000000E+00  0.00000000E+00  0.00000000E+00
  0.00000000E+00  0.00000000E+00  0.00000000E+00
  0.00000000E+00  0.00000000E+00  0.00000000E+00
  0.00000000E+00  0.00000000E+00  0.00000000E+00
  0.00000000E+00  0.00000000E+00  0.00000000E+00
