Title                                   
   1.00000000000000     
     4.9440799999999996    0.0000000000000000    0.0000000000000000
     0.0000000000000000   17.1295089999999988    0.0000000000000000
     0.0000000000000000    0.0000000000000000   20.0000000000000000
    27     3     1
Selective dynamics
Direct
  0.0010570787825737  0.1069293050974486  0.2977983733050409   T   T   T
  0.2509315681940339  0.1497815644147503  0.2984838521857998   T   T   T
  0.2512567787145836  0.2346084922343739  0.2999523457761781   T   T   T
 -0.0007518779076421  0.2755134654838470  0.3006823853856369   T   T   T
 -0.0017926954857515  0.5983775043490678  0.3013106491360503   T   T   T
  0.2479966595776713  0.7256347504406013  0.2992297513488172   T   T   T
 -0.0005916579479915  0.8529203862232672  0.2973600363316944   T   T   T
  0.2495698803773008  0.8953589736337686  0.2969799159901596   T   T   T
  0.2498391845947699  0.9797400193149357  0.2967413398541423   T   T   T
 -0.0010165009961399  0.7685974812655076  0.2985223098495831   T   T   T
  0.4997168998312446  0.1067360161326183  0.2977754677706428   T   T   T
  0.7501911595703415  0.1488187136490741  0.2984126280773235   T   T   T
  0.7503857104471648  0.2330348261500738  0.2998669984788713   T   T   T
  0.4996542551215128  0.0222934244799574  0.2968986790426345   T   T   T
  0.7555117159246817  0.3932977162076017  0.3024719439080592   T   T   T
  0.7540767468289196  0.4793444180059901  0.3026213407988192   T   T   T
  0.5026814298974658  0.2766870353720972  0.3006981013495277   T   T   T
  0.4976711169796213  0.5994941498461297  0.3011732998447715   T   T   T
  0.7495228421019917  0.7261246413469220  0.2991941773271103   T   T   T
  0.4991834872535717  0.8527487512814724  0.2973471409062041   T   T   T
  0.7494195908175290  0.8953353702399121  0.2969710008117890   T   T   T
  0.7498478162733055  0.9799220693942922  0.2967269383165635   T   T   T
  0.4989117551235245  0.7682284221370004  0.2985030239657440   T   T   T
  0.7484241026767029  0.6415473634640823  0.3005467492330763   T   T   T
  0.2481865849980232  0.6415853396239694  0.3006077416784752   T   T   T
  0.0004142082482443  0.0223744716009838  0.2969027595845684   T   T   T
  0.5064440344691182  0.5162099282921553  0.3021936641837707   T   T   T
  0.9959647737311247  0.5176468963399342  0.3024112212294324   T   T   T
  0.5131997729200307  0.3575790233684887  0.3020374078845653   T   T   T
 -0.0079403922175137  0.3561954788458939  0.3020921802667529   T   T   T
  0.2520409710999899  0.4386760017637796  0.3025465761781475   T   T   T
 
  0.00000000E+00  0.00000000E+00  0.00000000E+00
  0.00000000E+00  0.00000000E+00  0.00000000E+00
  0.00000000E+00  0.00000000E+00  0.00000000E+00
  0.00000000E+00  0.00000000E+00  0.00000000E+00
  0.00000000E+00  0.00000000E+00  0.00000000E+00
  0.00000000E+00  0.00000000E+00  0.00000000E+00
  0.00000000E+00  0.00000000E+00  0.00000000E+00
  0.00000000E+00  0.00000000E+00  0.00000000E+00
  0.00000000E+00  0.00000000E+00  0.00000000E+00
  0.00000000E+00  0.00000000E+00  0.00000000E+00
  0.00000000E+00  0.00000000E+00  0.00000000E+00
  0.00000000E+00  0.00000000E+00  0.00000000E+00
  0.00000000E+00  0.00000000E+00  0.00000000E+00
  0.00000000E+00  0.00000000E+00  0.00000000E+00
  0.00000000E+00  0.00000000E+00  0.00000000E+00
  0.00000000E+00  0.00000000E+00  0.00000000E+00
  0.00000000E+00  0.00000000E+00  0.00000000E+00
  0.00000000E+00  0.00000000E+00  0.00000000E+00
  0.00000000E+00  0.00000000E+00  0.00000000E+00
  0.00000000E+00  0.00000000E+00  0.00000000E+00
  0.00000000E+00  0.00000000E+00  0.00000000E+00
  0.00000000E+00  0.00000000E+00  0.00000000E+00
  0.00000000E+00  0.00000000E+00  0.00000000E+00
  0.00000000E+00  0.00000000E+00  0.00000000E+00
  0.00000000E+00  0.00000000E+00  0.00000000E+00
  0.00000000E+00  0.00000000E+00  0.00000000E+00
  0.00000000E+00  0.00000000E+00  0.00000000E+00
  0.00000000E+00  0.00000000E+00  0.00000000E+00
  0.00000000E+00  0.00000000E+00  0.00000000E+00
  0.00000000E+00  0.00000000E+00  0.00000000E+00
  0.00000000E+00  0.00000000E+00  0.00000000E+00
