Title                                   
   1.00000000000000     
     8.5490480000000009    0.0000000000000000    0.0000000000000000
     0.0000000000000000    8.5490480000000009    0.0000000000000000
     0.0000000000000000    0.0000000000000000   20.0000000000000000
    20     4     1
Selective dynamics
Direct
  0.9097669805498825  0.2081617182409473  0.0974687103661851   T   T   T
  0.9112985150653623  0.7995509277586480  0.0976632823453862   T   T   T
  0.1968908238175678  0.0838784407447781  0.0977250031162308   T   T   T
  0.0757900462063110  0.2031262506574744  0.0977358404576965   T   T   T
  0.1560826947569108  0.6499341869398092  0.0976150495099868   T   T   T
  0.0766608721506056  0.5021548783623280  0.0978341280059074   T   T   T
  0.1567151213238105  0.3529030013170763  0.0980183256926271   T   T   T
  0.0779884588081581  0.7989589680222678  0.0975878190320083   T   T   T
  0.4937679445429395  0.0864460764073422  0.0975473767841750   T   T   T
  0.3430220930254539  0.1655791674998556  0.0978428417174773   T   T   T
  0.4925380429251117  0.9163461567486821  0.0976146795693830   T   T   T
  0.3448128309808869  0.8353979337425379  0.0975723347319584   T   T   T
  0.7871896535112274  0.0856017549447233  0.0973323408540536   T   T   T
  0.6397750486971231  0.1663624957400542  0.0973840408043998   T   T   T
  0.7884974134070905  0.9187691385790139  0.0975331460437619   T   T   T
  0.8305951849909722  0.6502826888994194  0.0978474550903107   T   T   T
  0.8295239500067261  0.3565986753867391  0.0975570702317986   T   T   T
  0.6414487765043348  0.8355107389262427  0.0977499228850574   T   T   T
  0.3226806046195959  0.6711083697019709  0.0976459152776570   T   T   T
  0.6621354696678886  0.3364511241869866  0.0977908298130220   T   T   T
  0.9089382426862277  0.5029230733546258  0.0978323133640093   T   T   T
  0.3195066485057235  0.3296934566932731  0.0982537178093056   T   T   T
  0.6677069052885640  0.6709838458811819  0.0981718843567988   T   T   T
  0.1970883573097333  0.9170958173962538  0.0976564387913631   T   T   T
  0.4949913206517784  0.5009711138677821  0.0987245333494204   T   T   T
 
  0.00000000E+00  0.00000000E+00  0.00000000E+00
  0.00000000E+00  0.00000000E+00  0.00000000E+00
  0.00000000E+00  0.00000000E+00  0.00000000E+00
  0.00000000E+00  0.00000000E+00  0.00000000E+00
  0.00000000E+00  0.00000000E+00  0.00000000E+00
  0.00000000E+00  0.00000000E+00  0.00000000E+00
  0.00000000E+00  0.00000000E+00  0.00000000E+00
  0.00000000E+00  0.00000000E+00  0.00000000E+00
  0.00000000E+00  0.00000000E+00  0.00000000E+00
  0.00000000E+00  0.00000000E+00  0.00000000E+00
  0.00000000E+00  0.00000000E+00  0.00000000E+00
  0.00000000E+00  0.00000000E+00  0.00000000E+00
  0.00000000E+00  0.00000000E+00  0.00000000E+00
  0.00000000E+00  0.00000000E+00  0.00000000E+00
  0.00000000E+00  0.00000000E+00  0.00000000E+00
  0.00000000E+00  0.00000000E+00  0.00000000E+00
  0.00000000E+00  0.00000000E+00  0.00000000E+00
  0.00000000E+00  0.00000000E+00  0.00000000E+00
  0.00000000E+00  0.00000000E+00  0.00000000E+00
  0.00000000E+00  0.00000000E+00  0.00000000E+00
  0.00000000E+00  0.00000000E+00  0.00000000E+00
  0.00000000E+00  0.00000000E+00  0.00000000E+00
  0.00000000E+00  0.00000000E+00  0.00000000E+00
  0.00000000E+00  0.00000000E+00  0.00000000E+00
  0.00000000E+00  0.00000000E+00  0.00000000E+00
