Title                                   
   1.00000000000000     
     4.9440799999999996    0.0000000000000000    0.0000000000000000
     0.0000000000000000    8.5647549999999999    0.0000000000000000
     0.0000000000000000    0.0000000000000000   20.0000000000000000
    12     2     1
Selective dynamics
Direct
  0.2500000000000000  0.2059896495417660  0.1004013730779898   T   T   T
  0.0004257073980036  0.2916826732564954  0.1004437979113843   T   T   T
  0.2500000000000000  0.0368652530513853  0.1004434937695088   T   T   T
 -0.0022670375271063  0.9550332974195790  0.1005103892483400   T   T   T
  0.7500000000000000  0.2068162911509406  0.1003977012765567   T   T   T
  0.4995742926019963  0.2916826732564954  0.1004437979113843   T   T   T
  0.7500000000000000  0.0405243967596250  0.1004243156683347   T   T   T
  0.7500000000000000  0.7189969154050080  0.1008934453633521   T   T   T
  0.7500000000000000  0.5444929368999682  0.1009009539382021   T   T   T
  0.5022670375271064  0.9550332974195790  0.1005103892483400   T   T   T
  0.5126504164507170  0.4561286433597823  0.1006411376950710   T   T   T
 -0.0126504164507169  0.4561286433597823  0.1006411376950710   T   T   T
 -0.0141486663936153  0.7940178638141938  0.1007578000988131   T   T   T
  0.5141486663936152  0.7940178638141938  0.1007578000988131   T   T   T
  0.2500000000000000  0.6242706014912065  0.0998124669988423   T   T   T
 
  0.00000000E+00  0.00000000E+00  0.00000000E+00
  0.00000000E+00  0.00000000E+00  0.00000000E+00
  0.00000000E+00  0.00000000E+00  0.00000000E+00
  0.00000000E+00  0.00000000E+00  0.00000000E+00
  0.00000000E+00  0.00000000E+00  0.00000000E+00
  0.00000000E+00  0.00000000E+00  0.00000000E+00
  0.00000000E+00  0.00000000E+00  0.00000000E+00
  0.00000000E+00  0.00000000E+00  0.00000000E+00
  0.00000000E+00  0.00000000E+00  0.00000000E+00
  0.00000000E+00  0.00000000E+00  0.00000000E+00
  0.00000000E+00  0.00000000E+00  0.00000000E+00
  0.00000000E+00  0.00000000E+00  0.00000000E+00
  0.00000000E+00  0.00000000E+00  0.00000000E+00
  0.00000000E+00  0.00000000E+00  0.00000000E+00
  0.00000000E+00  0.00000000E+00  0.00000000E+00
