Title                                   
   1.00000000000000     
     8.5490480000000009    0.0000000000000000    0.0000000000000000
     0.0000000000000000    8.5490480000000009    0.0000000000000000
     0.0000000000000000    0.0000000000000000   20.0000000000000000
    17     7     1
Selective dynamics
Direct
  0.9078759744189354  0.2054511173571952  0.0973999847714425   T   T   T
  0.9106267589218582  0.8005013600500221  0.0974750155031479   T   T   T
  0.1970615643529025  0.0832579952729305  0.0975736251393237   T   T   T
  0.0768481582820081  0.2010768154257075  0.0975050670659042   T   T   T
  0.1566029272781828  0.6519438113540863  0.0977946240670796   T   T   T
  0.0786338538886180  0.5008678671481688  0.0978043615026127   T   T   T
  0.1566167222576487  0.3498835606833386  0.0977339425952951   T   T   T
  0.0787918435589359  0.7993232362328238  0.0975727812038115   T   T   T
  0.3440249987959022  0.1645451003642745  0.0978056638753264   T   T   T
  0.4918654251711048  0.9171168537372100  0.0977611180965016   T   T   T
  0.3438512175701349  0.8385541542552343  0.0978601884497524   T   T   T
  0.7877959908351624  0.0868930401533436  0.0973921180050448   T   T   T
  0.6416620909554253  0.1679724747067952  0.0977033576959775   T   T   T
  0.7896170235703599  0.9180155941968523  0.0974400614082698   T   T   T
  0.8301678155587222  0.6511326399475204  0.0977543386333400   T   T   T
  0.8281114640317896  0.3530006619291441  0.0977189743549492   T   T   T
  0.6431103277563837  0.8374285564413714  0.0976923130529237   T   T   T
  0.4933503607096508  0.0900724124328138  0.0978078100154494   T   T   T
  0.9062535061638420  0.5021746281312840  0.0978591663236778   T   T   T
  0.3202379938043259  0.3249589203647026  0.0979846008473596   T   T   T
  0.3195595824658374  0.6782282972027978  0.0980967268185670   T   T   T
  0.6656076865931884  0.3301678081270960  0.0979327377945343   T   T   T
  0.6692340563100591  0.6738166639854066  0.0979276083387193   T   T   T
  0.1959227421017211  0.9157299411469744  0.0976767232135526   T   T   T
  0.4919819146472937  0.5026764893529048  0.0984320912274173   T   T   T
 
  0.00000000E+00  0.00000000E+00  0.00000000E+00
  0.00000000E+00  0.00000000E+00  0.00000000E+00
  0.00000000E+00  0.00000000E+00  0.00000000E+00
  0.00000000E+00  0.00000000E+00  0.00000000E+00
  0.00000000E+00  0.00000000E+00  0.00000000E+00
  0.00000000E+00  0.00000000E+00  0.00000000E+00
  0.00000000E+00  0.00000000E+00  0.00000000E+00
  0.00000000E+00  0.00000000E+00  0.00000000E+00
  0.00000000E+00  0.00000000E+00  0.00000000E+00
  0.00000000E+00  0.00000000E+00  0.00000000E+00
  0.00000000E+00  0.00000000E+00  0.00000000E+00
  0.00000000E+00  0.00000000E+00  0.00000000E+00
  0.00000000E+00  0.00000000E+00  0.00000000E+00
  0.00000000E+00  0.00000000E+00  0.00000000E+00
  0.00000000E+00  0.00000000E+00  0.00000000E+00
  0.00000000E+00  0.00000000E+00  0.00000000E+00
  0.00000000E+00  0.00000000E+00  0.00000000E+00
  0.00000000E+00  0.00000000E+00  0.00000000E+00
  0.00000000E+00  0.00000000E+00  0.00000000E+00
  0.00000000E+00  0.00000000E+00  0.00000000E+00
  0.00000000E+00  0.00000000E+00  0.00000000E+00
  0.00000000E+00  0.00000000E+00  0.00000000E+00
  0.00000000E+00  0.00000000E+00  0.00000000E+00
  0.00000000E+00  0.00000000E+00  0.00000000E+00
  0.00000000E+00  0.00000000E+00  0.00000000E+00
