Title                                   
   1.00000000000000     
     4.9440799999999996    0.0000000000000000    0.0000000000000000
     0.0000000000000000   17.1295089999999988    0.0000000000000000
     0.0000000000000000    0.0000000000000000   20.0000000000000000
    28     2     1
Selective dynamics
Direct
 -0.0005607368186883  0.1042136133781644  0.2974783378377941   T   T   T
  0.2482020465845368  0.1468843941391040  0.2985407676865561   T   T   T
  0.2483162802111319  0.2303409069614025  0.3002018440087216   T   T   T
 -0.0044587245156365  0.2718450915137556  0.2982816889709458   T   T   T
 -0.0000127003775155  0.6046744343971031  0.2972415824462128   T   T   T
  0.2506423434273773  0.7277632485647145  0.2988445004456139   T   T   T
  0.0010705284286577  0.8536571405670365  0.2976295828003453   T   T   T
  0.2498220990037444  0.8956128236630235  0.2976357782308041   T   T   T
  0.2495521182891624  0.9790696767206492  0.2973711219368694   T   T   T
  0.0010381361020693  0.7698101568563535  0.2980167653250649   T   T   T
  0.4986178694734500  0.1044523241197293  0.2985412080010921   T   T   T
  0.7494772899712007  0.1455073207628213  0.2987244667758005   T   T   T
  0.7483607277111811  0.2288798929951716  0.3006493515029771   T   T   T
  0.4990556593505015  0.0208735330569027  0.2976962065921381   T   T   T
  0.7536945119766976  0.3923399804080487  0.3023744620764271   T   T   T
  0.7561764193760071  0.4817717169503782  0.3008827309479055   T   T   T
  0.5005200025023173  0.2711950715226489  0.3046293701885631   T   T   T
  0.5010117276805622  0.6035754128192677  0.3025331560448146   T   T   T
  0.7499075234965572  0.7293695803811654  0.2986832404327323   T   T   T
  0.4988039918497003  0.8537151948367347  0.2981171272045590   T   T   T
  0.7498126809930835  0.8951614476072531  0.2975995844568201   T   T   T
  0.7494605203124984  0.9789520737106151  0.2973614163772326   T   T   T
  0.4993293034661392  0.7699992929359136  0.2989269904853143   T   T   T
  0.7502317134289993  0.6465589465912386  0.2993106970714503   T   T   T
 -0.0003304447229608  0.0207202588113229  0.2971242364553692   T   T   T
  0.5135983188228473  0.5222634252020470  0.3078389716643896   T   T   T
  0.9935969494451095  0.5237143835474996  0.2937520431429798   T   T   T
  0.5167122236522258  0.3527517102093147  0.3121926062650168   T   T   T
 -0.0153044164333381  0.3513855866261775  0.2933580307627134   T   T   T
  0.2509038525558996  0.6460009306910104  0.2996337847300120   T   T   T
  0.2527591847564843  0.4382824294534259  0.3038883491327166   T   T   T
 
  0.00000000E+00  0.00000000E+00  0.00000000E+00
  0.00000000E+00  0.00000000E+00  0.00000000E+00
  0.00000000E+00  0.00000000E+00  0.00000000E+00
  0.00000000E+00  0.00000000E+00  0.00000000E+00
  0.00000000E+00  0.00000000E+00  0.00000000E+00
  0.00000000E+00  0.00000000E+00  0.00000000E+00
  0.00000000E+00  0.00000000E+00  0.00000000E+00
  0.00000000E+00  0.00000000E+00  0.00000000E+00
  0.00000000E+00  0.00000000E+00  0.00000000E+00
  0.00000000E+00  0.00000000E+00  0.00000000E+00
  0.00000000E+00  0.00000000E+00  0.00000000E+00
  0.00000000E+00  0.00000000E+00  0.00000000E+00
  0.00000000E+00  0.00000000E+00  0.00000000E+00
  0.00000000E+00  0.00000000E+00  0.00000000E+00
  0.00000000E+00  0.00000000E+00  0.00000000E+00
  0.00000000E+00  0.00000000E+00  0.00000000E+00
  0.00000000E+00  0.00000000E+00  0.00000000E+00
  0.00000000E+00  0.00000000E+00  0.00000000E+00
  0.00000000E+00  0.00000000E+00  0.00000000E+00
  0.00000000E+00  0.00000000E+00  0.00000000E+00
  0.00000000E+00  0.00000000E+00  0.00000000E+00
  0.00000000E+00  0.00000000E+00  0.00000000E+00
  0.00000000E+00  0.00000000E+00  0.00000000E+00
  0.00000000E+00  0.00000000E+00  0.00000000E+00
  0.00000000E+00  0.00000000E+00  0.00000000E+00
  0.00000000E+00  0.00000000E+00  0.00000000E+00
  0.00000000E+00  0.00000000E+00  0.00000000E+00
  0.00000000E+00  0.00000000E+00  0.00000000E+00
  0.00000000E+00  0.00000000E+00  0.00000000E+00
  0.00000000E+00  0.00000000E+00  0.00000000E+00
  0.00000000E+00  0.00000000E+00  0.00000000E+00
