Title                                   
   1.00000000000000     
     8.5490480000000009    0.0000000000000000    0.0000000000000000
     0.0000000000000000    8.5490480000000009    0.0000000000000000
     0.0000000000000000    0.0000000000000000   20.0000000000000000
    22     2     1
Selective dynamics
Direct
  0.9099324152359183  0.2067374208254618  0.0978977733952347   T   T   T
  0.9059971652010109  0.5047009229292599  0.0979284080834851   T   T   T
  0.9118358472722223  0.8021302068753225  0.0978258654088166   T   T   T
  0.1990822592954588  0.0817972761764316  0.0980535985453587   T   T   T
  0.0742227765022312  0.2037945166917772  0.0980384829737704   T   T   T
  0.1583419038592095  0.6486020303284887  0.0979098457514854   T   T   T
  0.0748701380868285  0.5033352942546054  0.0979427307365024   T   T   T
  0.1585500168544801  0.3572377983727233  0.0980694763600902   T   T   T
  0.0794807308915181  0.7987670176793585  0.0979086574277120   T   T   T
  0.4935075523424777  0.0826579160901159  0.0979055787873085   T   T   T
  0.3464337365361511  0.1634097598204758  0.0980279427671205   T   T   T
  0.4934535921428775  0.9144331763929207  0.0979250563293332   T   T   T
  0.3484186413168810  0.8310769091879537  0.0980107659771625   T   T   T
  0.7874831720228269  0.0854068139104719  0.0977870496681623   T   T   T
  0.6378792527529129  0.1658122910108496  0.0978494852392869   T   T   T
  0.7900863965031957  0.9206186420905067  0.0978016032367641   T   T   T
  0.8283781915356957  0.6538458012879413  0.0979346408028238   T   T   T
  0.8240493910902231  0.3590926042292414  0.0979313551111696   T   T   T
  0.6413523030347132  0.8348278437803264  0.0979452343832535   T   T   T
  0.3222359863162944  0.3326643223820356  0.0980582666121009   T   T   T
  0.3240489503113232  0.6681940999289170  0.0979454016735588   T   T   T
  0.6591366366848200  0.3333613881768600  0.0978955283000624   T   T   T
  0.6661219053289409  0.6754402651284823  0.0980940728692294   T   T   T
  0.1985321547053003  0.9160041196026413  0.0980910857076651   T   T   T
  0.4919808841764821  0.5008415628468434  0.0979270938525255   T   T   T
 
  0.00000000E+00  0.00000000E+00  0.00000000E+00
  0.00000000E+00  0.00000000E+00  0.00000000E+00
  0.00000000E+00  0.00000000E+00  0.00000000E+00
  0.00000000E+00  0.00000000E+00  0.00000000E+00
  0.00000000E+00  0.00000000E+00  0.00000000E+00
  0.00000000E+00  0.00000000E+00  0.00000000E+00
  0.00000000E+00  0.00000000E+00  0.00000000E+00
  0.00000000E+00  0.00000000E+00  0.00000000E+00
  0.00000000E+00  0.00000000E+00  0.00000000E+00
  0.00000000E+00  0.00000000E+00  0.00000000E+00
  0.00000000E+00  0.00000000E+00  0.00000000E+00
  0.00000000E+00  0.00000000E+00  0.00000000E+00
  0.00000000E+00  0.00000000E+00  0.00000000E+00
  0.00000000E+00  0.00000000E+00  0.00000000E+00
  0.00000000E+00  0.00000000E+00  0.00000000E+00
  0.00000000E+00  0.00000000E+00  0.00000000E+00
  0.00000000E+00  0.00000000E+00  0.00000000E+00
  0.00000000E+00  0.00000000E+00  0.00000000E+00
  0.00000000E+00  0.00000000E+00  0.00000000E+00
  0.00000000E+00  0.00000000E+00  0.00000000E+00
  0.00000000E+00  0.00000000E+00  0.00000000E+00
  0.00000000E+00  0.00000000E+00  0.00000000E+00
  0.00000000E+00  0.00000000E+00  0.00000000E+00
  0.00000000E+00  0.00000000E+00  0.00000000E+00
  0.00000000E+00  0.00000000E+00  0.00000000E+00
