Title                                   
   1.00000000000000     
     9.8694509999999998    0.0000000000000000    0.0000000000000000
     0.0000000000000000    8.5490480000000009    0.0000000000000000
     0.0000000000000000    0.0000000000000000   20.0000000000000000
    28     3     1
Selective dynamics
Direct
  0.0557281853613207  0.0891795486038705  0.0816163362599015   T   T   T
  0.9310616699629973  0.1735315768703339  0.0819928892747485   T   T   T
  0.0573173941442892  0.9220539652856768  0.0835776896313338   T   T   T
  0.9308117325469815  0.3403146038430335  0.0840074753204192   T   T   T
  0.0564891758693484  0.5907580416712525  0.0848553715814322   T   T   T
  0.0560664326986588  0.4237504483733411  0.0835049304557032   T   T   T
  0.9323622236048867  0.8382793987038697  0.0862915052293389   T   T   T
  0.3054154302543852  0.0888586964187273  0.0867264822755787   T   T   T
  0.1817956147106390  0.1722614333565141  0.0835263020640001   T   T   T
  0.1815333699450205  0.3397989636956603  0.0852990549147256   T   T   T
  0.3027297607338088  0.5884510915134418  0.1013508888026728   T   T   T
  0.1812059684964283  0.6736212441829662  0.0891734543540659   T   T   T
  0.3065008790061979  0.4208710851732843  0.0967310204723002   T   T   T
  0.1827164542346705  0.8410693051832602  0.0873176120775676   T   T   T
  0.5555886909320003  0.0886843941386555  0.0916952931375772   T   T   T
  0.5545474478539759  0.9232398005348283  0.0991156648365019   T   T   T
  0.4291460395024729  0.3318302015932429  0.1030718343404984   T   T   T
  0.4268194751100690  0.8428697019391928  0.1042396453099698   T   T   T
  0.8065806006220780  0.0888397029655036  0.0844420911335591   T   T   T
  0.6808036167608139  0.1720128825349060  0.0893738921601521   T   T   T
  0.8068603878724241  0.9225387564014178  0.0884127584721416   T   T   T
  0.6828598046051100  0.3369691047208477  0.0996827578476116   T   T   T
  0.8116992137968253  0.5920533599010108  0.1011725131478767   T   T   T
  0.8067699278022031  0.4241941948681610  0.0947960645194969   T   T   T
  0.6827450406072694  0.8430806093823295  0.1014930504723278   T   T   T
  0.4162685831145834  0.6822435978488414  0.1222771267883660   T   T   T
  0.5556452886922479  0.4029357099432155  0.1207478428513887   T   T   T
  0.6961370753202811  0.6817838702885490  0.1210593023875347   T   T   T
  0.3064516618296641  0.9251360248849624  0.0902545758433406   T   T   T
  0.4291446068135610  0.1693072558523610  0.0920912943523509   T   T   T
  0.9327928488617734  0.6723988271467235  0.0882774614496992   T   T   T
  0.5570443983330202  0.5873286021800211  0.1775008182358346   T   T   T
 
  0.00000000E+00  0.00000000E+00  0.00000000E+00
  0.00000000E+00  0.00000000E+00  0.00000000E+00
  0.00000000E+00  0.00000000E+00  0.00000000E+00
  0.00000000E+00  0.00000000E+00  0.00000000E+00
  0.00000000E+00  0.00000000E+00  0.00000000E+00
  0.00000000E+00  0.00000000E+00  0.00000000E+00
  0.00000000E+00  0.00000000E+00  0.00000000E+00
  0.00000000E+00  0.00000000E+00  0.00000000E+00
  0.00000000E+00  0.00000000E+00  0.00000000E+00
  0.00000000E+00  0.00000000E+00  0.00000000E+00
  0.00000000E+00  0.00000000E+00  0.00000000E+00
  0.00000000E+00  0.00000000E+00  0.00000000E+00
  0.00000000E+00  0.00000000E+00  0.00000000E+00
  0.00000000E+00  0.00000000E+00  0.00000000E+00
  0.00000000E+00  0.00000000E+00  0.00000000E+00
  0.00000000E+00  0.00000000E+00  0.00000000E+00
  0.00000000E+00  0.00000000E+00  0.00000000E+00
  0.00000000E+00  0.00000000E+00  0.00000000E+00
  0.00000000E+00  0.00000000E+00  0.00000000E+00
  0.00000000E+00  0.00000000E+00  0.00000000E+00
  0.00000000E+00  0.00000000E+00  0.00000000E+00
  0.00000000E+00  0.00000000E+00  0.00000000E+00
  0.00000000E+00  0.00000000E+00  0.00000000E+00
  0.00000000E+00  0.00000000E+00  0.00000000E+00
  0.00000000E+00  0.00000000E+00  0.00000000E+00
  0.00000000E+00  0.00000000E+00  0.00000000E+00
  0.00000000E+00  0.00000000E+00  0.00000000E+00
  0.00000000E+00  0.00000000E+00  0.00000000E+00
  0.00000000E+00  0.00000000E+00  0.00000000E+00
  0.00000000E+00  0.00000000E+00  0.00000000E+00
  0.00000000E+00  0.00000000E+00  0.00000000E+00
  0.00000000E+00  0.00000000E+00  0.00000000E+00
