Title                                   
   1.00000000000000     
     8.5490480000000009    0.0000000000000000    0.0000000000000000
     0.0000000000000000    8.5490480000000009    0.0000000000000000
     0.0000000000000000    0.0000000000000000   20.0000000000000000
    22     2     1
Selective dynamics
Direct
  0.9092586336146989  0.2081193296264390  0.0978866367448159   T   T   T
  0.9057090939601529  0.5040172950317143  0.0979119173845792   T   T   T
  0.9124440978355242  0.8024493327096707  0.0978538124732280   T   T   T
  0.1995787724702818  0.0822232243297017  0.0980754249320222   T   T   T
  0.0740920828017249  0.2053398670953765  0.0980217335204917   T   T   T
  0.1589311978159648  0.6487068872037286  0.0979029948425747   T   T   T
  0.0752595357879495  0.5023960569041898  0.0979201633329601   T   T   T
  0.1583809790289134  0.3566964376251375  0.0980296467636359   T   T   T
  0.0794921140341347  0.7981308493704014  0.0979362041453570   T   T   T
  0.4933443379388989  0.0826717705889465  0.0979579565413996   T   T   T
  0.3466595839342376  0.1643592702490084  0.0980562493771360   T   T   T
  0.4931500961668613  0.9141567398583655  0.0979514966291222   T   T   T
  0.3482953110954031  0.8313515037983286  0.0980132770454472   T   T   T
  0.7867731217873172  0.0858616585802260  0.0978178224156491   T   T   T
  0.6373591433859246  0.1664403848776446  0.0978786889468037   T   T   T
  0.7901468102427903  0.9209403752681697  0.0978375637552750   T   T   T
  0.8282467474876715  0.6535422692417627  0.0979236523252223   T   T   T
  0.8235086699454542  0.3586819463242338  0.0979028059339737   T   T   T
  0.6420742418935300  0.8342759512131397  0.0979511221769579   T   T   T
  0.3259792581942860  0.3350034127551035  0.0980026606244390   T   T   T
  0.3253148803620234  0.6661021893131229  0.0979321287391893   T   T   T
  0.6553357550119944  0.3351107510006892  0.0978732655914544   T   T   T
  0.6663703473729760  0.6747720352397510  0.0980398273596833   T   T   T
  0.1997381588829095  0.9170235273336550  0.0981146361043894   T   T   T
  0.4899690289483707  0.4964169344615064  0.0979133122941761   T   T   T
 
  0.00000000E+00  0.00000000E+00  0.00000000E+00
  0.00000000E+00  0.00000000E+00  0.00000000E+00
  0.00000000E+00  0.00000000E+00  0.00000000E+00
  0.00000000E+00  0.00000000E+00  0.00000000E+00
  0.00000000E+00  0.00000000E+00  0.00000000E+00
  0.00000000E+00  0.00000000E+00  0.00000000E+00
  0.00000000E+00  0.00000000E+00  0.00000000E+00
  0.00000000E+00  0.00000000E+00  0.00000000E+00
  0.00000000E+00  0.00000000E+00  0.00000000E+00
  0.00000000E+00  0.00000000E+00  0.00000000E+00
  0.00000000E+00  0.00000000E+00  0.00000000E+00
  0.00000000E+00  0.00000000E+00  0.00000000E+00
  0.00000000E+00  0.00000000E+00  0.00000000E+00
  0.00000000E+00  0.00000000E+00  0.00000000E+00
  0.00000000E+00  0.00000000E+00  0.00000000E+00
  0.00000000E+00  0.00000000E+00  0.00000000E+00
  0.00000000E+00  0.00000000E+00  0.00000000E+00
  0.00000000E+00  0.00000000E+00  0.00000000E+00
  0.00000000E+00  0.00000000E+00  0.00000000E+00
  0.00000000E+00  0.00000000E+00  0.00000000E+00
  0.00000000E+00  0.00000000E+00  0.00000000E+00
  0.00000000E+00  0.00000000E+00  0.00000000E+00
  0.00000000E+00  0.00000000E+00  0.00000000E+00
  0.00000000E+00  0.00000000E+00  0.00000000E+00
  0.00000000E+00  0.00000000E+00  0.00000000E+00
