Title                                   
   1.00000000000000     
     9.8694509999999998    0.0000000000000000    0.0000000000000000
     0.0000000000000000    8.5490480000000009    0.0000000000000000
     0.0000000000000000    0.0000000000000000   20.0000000000000000
    28     3     1
Selective dynamics
Direct
  0.0561189241170810  0.0914358048035499  0.0838041928131023   T   T   T
  0.9305758939199613  0.1743239990783738  0.0868267259727608   T   T   T
  0.0572282317903103  0.9238099588240827  0.0825766576339376   T   T   T
  0.9294989849001080  0.3419171746287293  0.0909875709089052   T   T   T
  0.0557125260865280  0.5896432165476252  0.0866968460681617   T   T   T
  0.9322157197788217  0.6737835434522973  0.0878719777606900   T   T   T
  0.0563790549492268  0.4232736872329004  0.0895350996808172   T   T   T
  0.9320954814537864  0.8409813321849726  0.0847213171041585   T   T   T
  0.3058423955448684  0.0877218871380798  0.0864799296578149   T   T   T
  0.1822865650185567  0.1739982686110551  0.0863896965002211   T   T   T
  0.3077943095102715  0.9221574163427041  0.0866267570250566   T   T   T
  0.1817818063441749  0.3400186071329795  0.0911129565040058   T   T   T
  0.3045159843376111  0.5886903691698214  0.0991771291340178   T   T   T
  0.1814591464638506  0.6714650385252170  0.0872628617758548   T   T   T
  0.1823639169949091  0.8381704504832086  0.0845090193710045   T   T   T
  0.5562040012490490  0.0856548923668385  0.0948374240590933   T   T   T
  0.4307476421922571  0.1689866264728767  0.0931708537775970   T   T   T
  0.4298536760536477  0.3346907877936878  0.1026310324349676   T   T   T
  0.4297957660446002  0.8371790078397555  0.0980217674302640   T   T   T
  0.8065973558167704  0.0899872890697066  0.0871149757959663   T   T   T
  0.6804174757914916  0.1700630759156071  0.0940833555353486   T   T   T
  0.8069428915137007  0.9247472179404801  0.0863589532301236   T   T   T
  0.6787279453586526  0.3350659781447428  0.1038890271512853   T   T   T
  0.8075412113315713  0.5942056066902758  0.0988953291141049   T   T   T
  0.8036182457527383  0.4254021710494905  0.0991754490456707   T   T   T
  0.6840986891529638  0.8400174519008768  0.0965423018125379   T   T   T
  0.4210212301532402  0.6774946626995062  0.1170448107882109   T   T   T
  0.5525444321730026  0.4076734462367611  0.1198673515884044   T   T   T
  0.6928252873892031  0.6849374107688254  0.1116450163804532   T   T   T
  0.5574966213115499  0.9185822691351770  0.0974270536871588   T   T   T
  0.3050140858698223  0.4217396948095662  0.0989074566109968   T   T   T
  0.5603235016356788  0.5924276570102313  0.1714841036473239   T   T   T
 
  0.00000000E+00  0.00000000E+00  0.00000000E+00
  0.00000000E+00  0.00000000E+00  0.00000000E+00
  0.00000000E+00  0.00000000E+00  0.00000000E+00
  0.00000000E+00  0.00000000E+00  0.00000000E+00
  0.00000000E+00  0.00000000E+00  0.00000000E+00
  0.00000000E+00  0.00000000E+00  0.00000000E+00
  0.00000000E+00  0.00000000E+00  0.00000000E+00
  0.00000000E+00  0.00000000E+00  0.00000000E+00
  0.00000000E+00  0.00000000E+00  0.00000000E+00
  0.00000000E+00  0.00000000E+00  0.00000000E+00
  0.00000000E+00  0.00000000E+00  0.00000000E+00
  0.00000000E+00  0.00000000E+00  0.00000000E+00
  0.00000000E+00  0.00000000E+00  0.00000000E+00
  0.00000000E+00  0.00000000E+00  0.00000000E+00
  0.00000000E+00  0.00000000E+00  0.00000000E+00
  0.00000000E+00  0.00000000E+00  0.00000000E+00
  0.00000000E+00  0.00000000E+00  0.00000000E+00
  0.00000000E+00  0.00000000E+00  0.00000000E+00
  0.00000000E+00  0.00000000E+00  0.00000000E+00
  0.00000000E+00  0.00000000E+00  0.00000000E+00
  0.00000000E+00  0.00000000E+00  0.00000000E+00
  0.00000000E+00  0.00000000E+00  0.00000000E+00
  0.00000000E+00  0.00000000E+00  0.00000000E+00
  0.00000000E+00  0.00000000E+00  0.00000000E+00
  0.00000000E+00  0.00000000E+00  0.00000000E+00
  0.00000000E+00  0.00000000E+00  0.00000000E+00
  0.00000000E+00  0.00000000E+00  0.00000000E+00
  0.00000000E+00  0.00000000E+00  0.00000000E+00
  0.00000000E+00  0.00000000E+00  0.00000000E+00
  0.00000000E+00  0.00000000E+00  0.00000000E+00
  0.00000000E+00  0.00000000E+00  0.00000000E+00
  0.00000000E+00  0.00000000E+00  0.00000000E+00
