Title                                   
   1.00000000000000     
     8.5490480000000009    0.0000000000000000    0.0000000000000000
     0.0000000000000000    8.5490480000000009    0.0000000000000000
     0.0000000000000000    0.0000000000000000   20.0000000000000000
    22     2     1
Selective dynamics
Direct
  0.9105205631660003  0.2070181562242072  0.0954415767752035   T   T   T
  0.9080172593832867  0.5019797635090070  0.0952957833654083   T   T   T
  0.9114288855131950  0.7987085398073536  0.0954501978240365   T   T   T
  0.1961204276143051  0.0833944601524627  0.0954645661612265   T   T   T
  0.0746114396051343  0.2048636558735278  0.0954455431481804   T   T   T
  0.1982793589308499  0.9193150657883351  0.0954840345696224   T   T   T
  0.1577057956365970  0.6477292844919720  0.0953862552936892   T   T   T
  0.0780450904742238  0.5016145408189782  0.0953192350603833   T   T   T
  0.1584386433761003  0.3528501741133789  0.0953083953446207   T   T   T
  0.0755080659582458  0.7965661359669738  0.0954716443553906   T   T   T
  0.4928115653240359  0.0867999478071576  0.0953427706827457   T   T   T
  0.3440887918778472  0.1672250484719553  0.0953315209310849   T   T   T
  0.4931620013398291  0.9167786418493933  0.0953485478387357   T   T   T
  0.3470846826662923  0.8371054246823857  0.0953954391219003   T   T   T
  0.7877434860574678  0.0842690401722251  0.0954608667326181   T   T   T
  0.6389021922898810  0.1664921943201701  0.0953497331376262   T   T   T
  0.7899215413189951  0.9201794865129205  0.0954530825159439   T   T   T
  0.8276101197749602  0.6507263924784155  0.0953000631096066   T   T   T
  0.8283179923550587  0.3558684608358942  0.0953170809543194   T   T   T
  0.6419106817111057  0.8363509732530315  0.0953136685066062   T   T   T
  0.3240590476237899  0.6707640307981175  0.0953248869862797   T   T   T
  0.6619716280600112  0.3328248784680443  0.0952390048891227   T   T   T
  0.3191624567386934  0.3279086789363984  0.0951839891647335   T   T   T
  0.6669080100954278  0.6756573943418165  0.0951622390864221   T   T   T
  0.4930822731086599  0.5017996303258917  0.0951148744444714   T   T   T
 
  0.00000000E+00  0.00000000E+00  0.00000000E+00
  0.00000000E+00  0.00000000E+00  0.00000000E+00
  0.00000000E+00  0.00000000E+00  0.00000000E+00
  0.00000000E+00  0.00000000E+00  0.00000000E+00
  0.00000000E+00  0.00000000E+00  0.00000000E+00
  0.00000000E+00  0.00000000E+00  0.00000000E+00
  0.00000000E+00  0.00000000E+00  0.00000000E+00
  0.00000000E+00  0.00000000E+00  0.00000000E+00
  0.00000000E+00  0.00000000E+00  0.00000000E+00
  0.00000000E+00  0.00000000E+00  0.00000000E+00
  0.00000000E+00  0.00000000E+00  0.00000000E+00
  0.00000000E+00  0.00000000E+00  0.00000000E+00
  0.00000000E+00  0.00000000E+00  0.00000000E+00
  0.00000000E+00  0.00000000E+00  0.00000000E+00
  0.00000000E+00  0.00000000E+00  0.00000000E+00
  0.00000000E+00  0.00000000E+00  0.00000000E+00
  0.00000000E+00  0.00000000E+00  0.00000000E+00
  0.00000000E+00  0.00000000E+00  0.00000000E+00
  0.00000000E+00  0.00000000E+00  0.00000000E+00
  0.00000000E+00  0.00000000E+00  0.00000000E+00
  0.00000000E+00  0.00000000E+00  0.00000000E+00
  0.00000000E+00  0.00000000E+00  0.00000000E+00
  0.00000000E+00  0.00000000E+00  0.00000000E+00
  0.00000000E+00  0.00000000E+00  0.00000000E+00
  0.00000000E+00  0.00000000E+00  0.00000000E+00
