Title                                   
   1.00000000000000     
     4.9440799999999996    0.0000000000000000    0.0000000000000000
     0.0000000000000000    8.5647549999999999    0.0000000000000000
     0.0000000000000000    0.0000000000000000   20.0000000000000000
    11     4     1
Selective dynamics
Direct
 -0.0035350530167987  0.2913345311537415  0.0915215466626896   T   T   T
  0.2500000000000000  0.0445167022262974  0.0887751647903710   T   T   T
  0.0027579638578368  0.7951701282285171  0.0990393075508006   T   T   T
  0.0004312332766419  0.9606759835720735  0.0886083434123848   T   T   T
  0.7500000000000000  0.2063989364561406  0.0859117368556950   T   T   T
  0.5035350530167986  0.2913345311537415  0.0915215466626896   T   T   T
  0.7500000000000000  0.0411625985821363  0.0837974410963348   T   T   T
  0.7500000000000000  0.7045219003565651  0.1025242855246797   T   T   T
  0.4972420361421632  0.7951701282285171  0.0990393075508006   T   T   T
  0.7500000000000000  0.5329385598505189  0.1045088954722910   T   T   T
  0.4995687667233582  0.9606759835720735  0.0886083434123848   T   T   T
  0.5100531599939540  0.4491145018474311  0.1055231375333994   T   T   T
 -0.0100531599939539  0.4491145018474311  0.1055231375333994   T   T   T
  0.2500000000000000  0.7255444267713616  0.1122346342515074   T   T   T
  0.2500000000000000  0.2125648855718842  0.0894576526041099   T   T   T
  0.2500000000000000  0.5397617005815688  0.1759175190864722   T   T   T
 
  0.00000000E+00  0.00000000E+00  0.00000000E+00
  0.00000000E+00  0.00000000E+00  0.00000000E+00
  0.00000000E+00  0.00000000E+00  0.00000000E+00
  0.00000000E+00  0.00000000E+00  0.00000000E+00
  0.00000000E+00  0.00000000E+00  0.00000000E+00
  0.00000000E+00  0.00000000E+00  0.00000000E+00
  0.00000000E+00  0.00000000E+00  0.00000000E+00
  0.00000000E+00  0.00000000E+00  0.00000000E+00
  0.00000000E+00  0.00000000E+00  0.00000000E+00
  0.00000000E+00  0.00000000E+00  0.00000000E+00
  0.00000000E+00  0.00000000E+00  0.00000000E+00
  0.00000000E+00  0.00000000E+00  0.00000000E+00
  0.00000000E+00  0.00000000E+00  0.00000000E+00
  0.00000000E+00  0.00000000E+00  0.00000000E+00
  0.00000000E+00  0.00000000E+00  0.00000000E+00
  0.00000000E+00  0.00000000E+00  0.00000000E+00
