Title                                   
   1.00000000000000     
     9.8694509999999998    0.0000000000000000    0.0000000000000000
     0.0000000000000000    8.5490480000000009    0.0000000000000000
     0.0000000000000000    0.0000000000000000   20.0000000000000000
    28     2     1
Selective dynamics
Direct
  0.0556031215770653  0.0883183203218926  0.0929622245838271   T   T   T
  0.9314492963063262  0.1715351753449713  0.0930979673464787   T   T   T
  0.0573060657218107  0.9229307257515768  0.0931493670574762   T   T   T
  0.9344349757585430  0.3384326914774431  0.0924981686944331   T   T   T
  0.0572952715366280  0.5900168519291118  0.0921318658706134   T   T   T
  0.9338420794372234  0.6742726105867546  0.0927603993593249   T   T   T
  0.0575134919854756  0.4230632809992673  0.0920057685576680   T   T   T
  0.9319447356859306  0.8403694375724393  0.0933524558581606   T   T   T
  0.3053621581798840  0.0885140705423415  0.0951867326635562   T   T   T
  0.1802920466462037  0.1696884116180377  0.0935240828013087   T   T   T
  0.1800790900526130  0.3370501834947167  0.0931376157800076   T   T   T
  0.3036339246304004  0.5884507264976965  0.0952277219354810   T   T   T
  0.1815819038730713  0.6731954173372986  0.0932807030721605   T   T   T
  0.3023754456523591  0.4185152587515079  0.0952546879885896   T   T   T
  0.1824402375004225  0.8405793498031402  0.0936870380355701   T   T   T
  0.5555815986630681  0.0927162147581339  0.0972001364969087   T   T   T
  0.4281429505541597  0.1783901640337857  0.0969592303973316   T   T   T
  0.5542190881074955  0.9252544038800353  0.0970552745636931   T   T   T
  0.4278725731963383  0.6698166709399077  0.0974425103514616   T   T   T
  0.4293888363295276  0.8357946862209600  0.0967740768705150   T   T   T
  0.8053965848667619  0.0902737596726025  0.0946585335367708   T   T   T
  0.6818419027530298  0.1799409083615593  0.0962938240557469   T   T   T
  0.8053466503886236  0.9219986311780389  0.0947259831181686   T   T   T
  0.6861538669091617  0.3465754505905274  0.0964770652972256   T   T   T
  0.8118703653514612  0.5907368603704986  0.0941034588211160   T   T   T
  0.6842637619149993  0.6667199217934896  0.0964109150560152   T   T   T
  0.8127774311744586  0.4222077044270154  0.0940231776706433   T   T   T
  0.6802706295368058  0.8343455136697028  0.0962376530826605   T   T   T
  0.4229057335688642  0.3398368461608097  0.0975810451085903   T   T   T
  0.3059710918978890  0.9225265146151844  0.0951187001877254   T   T   T
  0.5559780902434144  0.5088082372995710  0.0986466157808202   T   T   T
 
  0.00000000E+00  0.00000000E+00  0.00000000E+00
  0.00000000E+00  0.00000000E+00  0.00000000E+00
  0.00000000E+00  0.00000000E+00  0.00000000E+00
  0.00000000E+00  0.00000000E+00  0.00000000E+00
  0.00000000E+00  0.00000000E+00  0.00000000E+00
  0.00000000E+00  0.00000000E+00  0.00000000E+00
  0.00000000E+00  0.00000000E+00  0.00000000E+00
  0.00000000E+00  0.00000000E+00  0.00000000E+00
  0.00000000E+00  0.00000000E+00  0.00000000E+00
  0.00000000E+00  0.00000000E+00  0.00000000E+00
  0.00000000E+00  0.00000000E+00  0.00000000E+00
  0.00000000E+00  0.00000000E+00  0.00000000E+00
  0.00000000E+00  0.00000000E+00  0.00000000E+00
  0.00000000E+00  0.00000000E+00  0.00000000E+00
  0.00000000E+00  0.00000000E+00  0.00000000E+00
  0.00000000E+00  0.00000000E+00  0.00000000E+00
  0.00000000E+00  0.00000000E+00  0.00000000E+00
  0.00000000E+00  0.00000000E+00  0.00000000E+00
  0.00000000E+00  0.00000000E+00  0.00000000E+00
  0.00000000E+00  0.00000000E+00  0.00000000E+00
  0.00000000E+00  0.00000000E+00  0.00000000E+00
  0.00000000E+00  0.00000000E+00  0.00000000E+00
  0.00000000E+00  0.00000000E+00  0.00000000E+00
  0.00000000E+00  0.00000000E+00  0.00000000E+00
  0.00000000E+00  0.00000000E+00  0.00000000E+00
  0.00000000E+00  0.00000000E+00  0.00000000E+00
  0.00000000E+00  0.00000000E+00  0.00000000E+00
  0.00000000E+00  0.00000000E+00  0.00000000E+00
  0.00000000E+00  0.00000000E+00  0.00000000E+00
  0.00000000E+00  0.00000000E+00  0.00000000E+00
  0.00000000E+00  0.00000000E+00  0.00000000E+00
