Title                                   
   1.00000000000000     
     4.9440799999999996    0.0000000000000000    0.0000000000000000
     0.0000000000000000   17.1295089999999988    0.0000000000000000
     0.0000000000000000    0.0000000000000000   20.0000000000000000
    27     3     1
Selective dynamics
Direct
  0.0015900983885292  0.1046051427489473  0.2975329564300506   T   T   T
  0.2503179710999539  0.1471817356283370  0.2982440049541894   T   T   T
  0.2503000422402378  0.2315277184306005  0.2999496092495479   T   T   T
 -0.0030181490376205  0.2720425774109948  0.3007984176245789   T   T   T
  0.0009097878296162  0.6037419581902879  0.3014555788422468   T   T   T
  0.2503593490795695  0.7282600405309614  0.2991021769761449   T   T   T
  0.0016302592591214  0.8536844158181051  0.2972366115202191   T   T   T
  0.2502934276328536  0.8955972282069986  0.2968339716016252   T   T   T
  0.2503004912166527  0.9792479974082807  0.2965627143518378   T   T   T
  0.0018533906469392  0.7700493898598029  0.2983727516695164   T   T   T
  0.4990727731427051  0.1046162027325320  0.2975372685711870   T   T   T
  0.7503439833262512  0.1459897256992267  0.2981722467061039   T   T   T
  0.7502892786367780  0.2286534640239411  0.2998074018982669   T   T   T
  0.4995807335304711  0.0210688061855820  0.2967323693374596   T   T   T
  0.7502790174060836  0.3918405079619114  0.3028179114348133   T   T   T
  0.7502851621236617  0.4785747098004338  0.3029764509781484   T   T   T
  0.5036112011208014  0.2720515204931654  0.3008023966903324   T   T   T
  0.4998002858711810  0.6037407038999464  0.3014549943188715   T   T   T
  0.7503634312489889  0.7288675892664161  0.2991436778863312   T   T   T
  0.4989814177816559  0.8536757409566151  0.2972289628938782   T   T   T
  0.7503295000089746  0.8955096226371417  0.2969156214863952   T   T   T
  0.7503517322862170  0.9789877831709132  0.2966364572082328   T   T   T
  0.4988542363446771  0.7700339337458411  0.2983652356636488   T   T   T
  0.7503378602080395  0.6467209478409905  0.3007911364093332   T   T   T
  0.0010688048929025  0.0210771627609281  0.2967242330331360   T   T   T
  0.5094280890935134  0.5229342733503669  0.3025023755819373   T   T   T
  0.9911966409433510  0.5229325367241981  0.3025212279461750   T   T   T
  0.5168229182041200  0.3514013871242924  0.3024204109394209   T   T   T
 -0.0162293540331613  0.3514122192739956  0.3024174377537026   T   T   T
  0.2503587175874946  0.6458626997988902  0.3006071178490842   T   T   T
  0.2503439019194423  0.4394522583193554  0.3023962721935365   T   T   T
 
  0.00000000E+00  0.00000000E+00  0.00000000E+00
  0.00000000E+00  0.00000000E+00  0.00000000E+00
  0.00000000E+00  0.00000000E+00  0.00000000E+00
  0.00000000E+00  0.00000000E+00  0.00000000E+00
  0.00000000E+00  0.00000000E+00  0.00000000E+00
  0.00000000E+00  0.00000000E+00  0.00000000E+00
  0.00000000E+00  0.00000000E+00  0.00000000E+00
  0.00000000E+00  0.00000000E+00  0.00000000E+00
  0.00000000E+00  0.00000000E+00  0.00000000E+00
  0.00000000E+00  0.00000000E+00  0.00000000E+00
  0.00000000E+00  0.00000000E+00  0.00000000E+00
  0.00000000E+00  0.00000000E+00  0.00000000E+00
  0.00000000E+00  0.00000000E+00  0.00000000E+00
  0.00000000E+00  0.00000000E+00  0.00000000E+00
  0.00000000E+00  0.00000000E+00  0.00000000E+00
  0.00000000E+00  0.00000000E+00  0.00000000E+00
  0.00000000E+00  0.00000000E+00  0.00000000E+00
  0.00000000E+00  0.00000000E+00  0.00000000E+00
  0.00000000E+00  0.00000000E+00  0.00000000E+00
  0.00000000E+00  0.00000000E+00  0.00000000E+00
  0.00000000E+00  0.00000000E+00  0.00000000E+00
  0.00000000E+00  0.00000000E+00  0.00000000E+00
  0.00000000E+00  0.00000000E+00  0.00000000E+00
  0.00000000E+00  0.00000000E+00  0.00000000E+00
  0.00000000E+00  0.00000000E+00  0.00000000E+00
  0.00000000E+00  0.00000000E+00  0.00000000E+00
  0.00000000E+00  0.00000000E+00  0.00000000E+00
  0.00000000E+00  0.00000000E+00  0.00000000E+00
  0.00000000E+00  0.00000000E+00  0.00000000E+00
  0.00000000E+00  0.00000000E+00  0.00000000E+00
  0.00000000E+00  0.00000000E+00  0.00000000E+00
