Title                                   
   1.00000000000000     
     4.9440799999999996    0.0000000000000000    0.0000000000000000
     0.0000000000000000    8.5647549999999999    0.0000000000000000
     0.0000000000000000    0.0000000000000000   20.0000000000000000
    13     2     1
Selective dynamics
Direct
 -0.0009416266483911  0.2876148379845881  0.0918334726771408   T   T   T
  0.2500000000000000  0.0434066675808476  0.0816326973573757   T   T   T
  0.0002377722398914  0.7980345155175114  0.0966473462982899   T   T   T
 -0.0005525170855996  0.9602859491422047  0.0815520882278908   T   T   T
  0.7500000000000000  0.2064960673634365  0.0809136032398626   T   T   T
  0.5009416266483913  0.2876148379845881  0.0918334726771408   T   T   T
  0.7500000000000000  0.0416072273797755  0.0757950783453606   T   T   T
  0.7500000000000000  0.7084198478251227  0.1037147665367182   T   T   T
  0.4997622277601086  0.7980345155175114  0.0966473462982899   T   T   T
  0.7500000000000000  0.5394370904528462  0.1190300267003186   T   T   T
  0.5005525170855993  0.9602859491422047  0.0815520882278908   T   T   T
  0.5067150272719363  0.4401109783263686  0.1191782836585945   T   T   T
 -0.0067150272719366  0.4401109783263686  0.1191782836585945   T   T   T
  0.2500000000000000  0.7317492676628226  0.1139504937265222   T   T   T
  0.2500000000000000  0.2067255927464726  0.0853439600916494   T   T   T
  0.2500000000000000  0.5500656770473311  0.1737089922783700   T   T   T
 
  0.00000000E+00  0.00000000E+00  0.00000000E+00
  0.00000000E+00  0.00000000E+00  0.00000000E+00
  0.00000000E+00  0.00000000E+00  0.00000000E+00
  0.00000000E+00  0.00000000E+00  0.00000000E+00
  0.00000000E+00  0.00000000E+00  0.00000000E+00
  0.00000000E+00  0.00000000E+00  0.00000000E+00
  0.00000000E+00  0.00000000E+00  0.00000000E+00
  0.00000000E+00  0.00000000E+00  0.00000000E+00
  0.00000000E+00  0.00000000E+00  0.00000000E+00
  0.00000000E+00  0.00000000E+00  0.00000000E+00
  0.00000000E+00  0.00000000E+00  0.00000000E+00
  0.00000000E+00  0.00000000E+00  0.00000000E+00
  0.00000000E+00  0.00000000E+00  0.00000000E+00
  0.00000000E+00  0.00000000E+00  0.00000000E+00
  0.00000000E+00  0.00000000E+00  0.00000000E+00
  0.00000000E+00  0.00000000E+00  0.00000000E+00
