Title                                   
   1.00000000000000     
     4.9440799999999996    0.0000000000000000    0.0000000000000000
     0.0000000000000000   17.1295089999999988    0.0000000000000000
     0.0000000000000000    0.0000000000000000   20.0000000000000000
    28     3     1
Selective dynamics
Direct
 -0.0006595980262866  0.1044052234101971  0.2831764073391680   T   T   T
  0.2492759880548308  0.1461464488782060  0.2871028671355938   T   T   T
  0.2490500510961180  0.2289718467963001  0.2976752078340210   T   T   T
  0.0005993654881424  0.3511794985293620  0.3207520557370604   T   T   T
 -0.0024320122611860  0.2700728160211164  0.3031247074404601   T   T   T
 -0.0031012007409808  0.6046959595365500  0.3090613251667126   T   T   T
  0.2517945722856603  0.7274861801188739  0.2925156435713049   T   T   T
  0.0012746544279683  0.8532482845101912  0.2804182268447542   T   T   T
  0.2504613298123492  0.8954059214542136  0.2790162429411482   T   T   T
  0.2498588319848879  0.9789799038632220  0.2781453436823657   T   T   T
  0.0022573052520410  0.7698658913699647  0.2863966161970820   T   T   T
  0.4992472198041089  0.1043824040227952  0.2832525430412438   T   T   T
  0.7490951817561764  0.1460909112612054  0.2862897944912697   T   T   T
  0.7486584818612684  0.2289890695770743  0.2956731460188849   T   T   T
  0.4997852879914290  0.0208344752826369  0.2789079139691120   T   T   T
  0.4962570968469477  0.3514142279024500  0.3213794659880285   T   T   T
  0.7483562801392875  0.3971863612869227  0.3254800332339666   T   T   T
  0.7506971020691133  0.4849540348898201  0.3272341411026126   T   T   T
  0.4999726289930466  0.2700831614082176  0.3035281181295686   T   T   T
  0.5082510874497084  0.6054801031216500  0.3137570845928156   T   T   T
  0.7511815747481104  0.7292047043950982  0.2900871509866500   T   T   T
  0.5000782432301324  0.8534248322081910  0.2807553827019605   T   T   T
  0.7505291388351698  0.8950788978114378  0.2786616352410062   T   T   T
  0.7499150011532786  0.9788740736237008  0.2778662478039341   T   T   T
  0.5004116423964933  0.7700582529808968  0.2870925879629886   T   T   T
  0.7515532434774234  0.6469608819486945  0.3013127861439979   T   T   T
  0.2529167879432042  0.6447664516779534  0.3058270843102772   T   T   T
 -0.0003211994156954  0.0208921481644263  0.2788317528693829   T   T   T
  0.5215464876308092  0.5286635231768257  0.3356057277633442   T   T   T
  0.9855887876216852  0.5258669766976581  0.3198736239620552   T   T   T
  0.2480458346409465  0.3835681082249184  0.3365945796356054   T   T   T
  0.2366778034538172  0.4813194258492219  0.3771695561615759   T   T   T
 
  0.00000000E+00  0.00000000E+00  0.00000000E+00
  0.00000000E+00  0.00000000E+00  0.00000000E+00
  0.00000000E+00  0.00000000E+00  0.00000000E+00
  0.00000000E+00  0.00000000E+00  0.00000000E+00
  0.00000000E+00  0.00000000E+00  0.00000000E+00
  0.00000000E+00  0.00000000E+00  0.00000000E+00
  0.00000000E+00  0.00000000E+00  0.00000000E+00
  0.00000000E+00  0.00000000E+00  0.00000000E+00
  0.00000000E+00  0.00000000E+00  0.00000000E+00
  0.00000000E+00  0.00000000E+00  0.00000000E+00
  0.00000000E+00  0.00000000E+00  0.00000000E+00
  0.00000000E+00  0.00000000E+00  0.00000000E+00
  0.00000000E+00  0.00000000E+00  0.00000000E+00
  0.00000000E+00  0.00000000E+00  0.00000000E+00
  0.00000000E+00  0.00000000E+00  0.00000000E+00
  0.00000000E+00  0.00000000E+00  0.00000000E+00
  0.00000000E+00  0.00000000E+00  0.00000000E+00
  0.00000000E+00  0.00000000E+00  0.00000000E+00
  0.00000000E+00  0.00000000E+00  0.00000000E+00
  0.00000000E+00  0.00000000E+00  0.00000000E+00
  0.00000000E+00  0.00000000E+00  0.00000000E+00
  0.00000000E+00  0.00000000E+00  0.00000000E+00
  0.00000000E+00  0.00000000E+00  0.00000000E+00
  0.00000000E+00  0.00000000E+00  0.00000000E+00
  0.00000000E+00  0.00000000E+00  0.00000000E+00
  0.00000000E+00  0.00000000E+00  0.00000000E+00
  0.00000000E+00  0.00000000E+00  0.00000000E+00
  0.00000000E+00  0.00000000E+00  0.00000000E+00
  0.00000000E+00  0.00000000E+00  0.00000000E+00
  0.00000000E+00  0.00000000E+00  0.00000000E+00
  0.00000000E+00  0.00000000E+00  0.00000000E+00
  0.00000000E+00  0.00000000E+00  0.00000000E+00
