Title                                   
   1.00000000000000     
     4.9440799999999996    0.0000000000000000    0.0000000000000000
     0.0000000000000000    8.5647549999999999    0.0000000000000000
     0.0000000000000000    0.0000000000000000   20.0000000000000000
    15     1
Selective dynamics
Direct
  0.2500000000000000  0.2079924719584340  0.0930961713122746   T   T   T
 -0.0013065032900329  0.2905575987375767  0.0961730597841820   T   T   T
  0.2500000000000000  0.0424622397814789  0.0898537621173161   T   T   T
  0.0000457868485166  0.7918572873498875  0.0956144979158725   T   T   T
  0.0008429880413927  0.9586442059743255  0.0895114900496729   T   T   T
  0.7500000000000000  0.2055043627554632  0.0911632163515750   T   T   T
  0.5013065032900327  0.2905575987375767  0.0961730597841820   T   T   T
  0.7500000000000000  0.0397161410011973  0.0876104501092559   T   T   T
  0.7500000000000000  0.7114309233302546  0.0964510104266407   T   T   T
  0.4999542131514834  0.7918572873498875  0.0956144979158725   T   T   T
  0.7500000000000000  0.5460298796719065  0.1004668729083774   T   T   T
  0.4991570119586074  0.9586442059743255  0.0895114900496729   T   T   T
  0.5192049428233179  0.4526636677452743  0.1050473558986646   T   T   T
 -0.0192049428233180  0.4526636677452743  0.1050473558986646   T   T   T
  0.2500000000000000  0.7168519782365309  0.1049841921743023   T   T   T
  0.2500000000000000  0.5425664836506072  0.1861935173034816   T   T   T
 
  0.00000000E+00  0.00000000E+00  0.00000000E+00
  0.00000000E+00  0.00000000E+00  0.00000000E+00
  0.00000000E+00  0.00000000E+00  0.00000000E+00
  0.00000000E+00  0.00000000E+00  0.00000000E+00
  0.00000000E+00  0.00000000E+00  0.00000000E+00
  0.00000000E+00  0.00000000E+00  0.00000000E+00
  0.00000000E+00  0.00000000E+00  0.00000000E+00
  0.00000000E+00  0.00000000E+00  0.00000000E+00
  0.00000000E+00  0.00000000E+00  0.00000000E+00
  0.00000000E+00  0.00000000E+00  0.00000000E+00
  0.00000000E+00  0.00000000E+00  0.00000000E+00
  0.00000000E+00  0.00000000E+00  0.00000000E+00
  0.00000000E+00  0.00000000E+00  0.00000000E+00
  0.00000000E+00  0.00000000E+00  0.00000000E+00
  0.00000000E+00  0.00000000E+00  0.00000000E+00
  0.00000000E+00  0.00000000E+00  0.00000000E+00
