Title                                   
   1.00000000000000     
     8.5490480000000009    0.0000000000000000    0.0000000000000000
     0.0000000000000000    8.5490480000000009    0.0000000000000000
     0.0000000000000000    0.0000000000000000   20.0000000000000000
    23     1     1
Selective dynamics
Direct
  0.9108508085533569  0.2052755590240925  0.0996070603408461   T   T   T
  0.9064199564592920  0.5033065940089639  0.0967874268834173   T   T   T
  0.9112968981436604  0.7998403086394404  0.0985384061727644   T   T   T
  0.1959952570506159  0.0817212322102448  0.0992934940095009   T   T   T
  0.0729163214950869  0.2047543042236718  0.0992712904052051   T   T   T
  0.1965472499247106  0.9196427178548030  0.0996753735590107   T   T   T
  0.1555575841059501  0.6490855331613760  0.0971190903297895   T   T   T
  0.0748502615474122  0.5027263275981276  0.0964444767948106   T   T   T
  0.1555090370867484  0.3542896380409306  0.0956843493076878   T   T   T
  0.0750470201280317  0.7975983658853864  0.0992102006464639   T   T   T
  0.4939074600089634  0.0836248547389035  0.0964412452987481   T   T   T
  0.3454942840121882  0.1643310722026765  0.0956991344251749   T   T   T
  0.4945439655291528  0.9151834632217589  0.0968062173057956   T   T   T
  0.3469904505816301  0.8357965472433938  0.0975737461380381   T   T   T
  0.7888101605425799  0.0837875322500462  0.0991435828980495   T   T   T
  0.6402599343848393  0.1642946133464230  0.0970525041439104   T   T   T
  0.7911006448125888  0.9200340604612920  0.0985154053064899   T   T   T
  0.8283237317713561  0.6521680922257349  0.0961261972292097   T   T   T
  0.8269948537462762  0.3557478652980501  0.0974921023899430   T   T   T
  0.6434111465864657  0.8370675405813540  0.0961142495882092   T   T   T
  0.3203570142134810  0.3291577012584724  0.0900849762696479   T   T   T
  0.3222917878221932  0.6725930382221738  0.0947679405463201   T   T   T
  0.6637801564193722  0.3310234845766921  0.0946586815719705   T   T   T
  0.6683251274918447  0.6770606405907175  0.0931360376376669   T   T   T
  0.4958308875821953  0.5046789131352868  0.0584618108013078   T   T   T
 
  0.00000000E+00  0.00000000E+00  0.00000000E+00
  0.00000000E+00  0.00000000E+00  0.00000000E+00
  0.00000000E+00  0.00000000E+00  0.00000000E+00
  0.00000000E+00  0.00000000E+00  0.00000000E+00
  0.00000000E+00  0.00000000E+00  0.00000000E+00
  0.00000000E+00  0.00000000E+00  0.00000000E+00
  0.00000000E+00  0.00000000E+00  0.00000000E+00
  0.00000000E+00  0.00000000E+00  0.00000000E+00
  0.00000000E+00  0.00000000E+00  0.00000000E+00
  0.00000000E+00  0.00000000E+00  0.00000000E+00
  0.00000000E+00  0.00000000E+00  0.00000000E+00
  0.00000000E+00  0.00000000E+00  0.00000000E+00
  0.00000000E+00  0.00000000E+00  0.00000000E+00
  0.00000000E+00  0.00000000E+00  0.00000000E+00
  0.00000000E+00  0.00000000E+00  0.00000000E+00
  0.00000000E+00  0.00000000E+00  0.00000000E+00
  0.00000000E+00  0.00000000E+00  0.00000000E+00
  0.00000000E+00  0.00000000E+00  0.00000000E+00
  0.00000000E+00  0.00000000E+00  0.00000000E+00
  0.00000000E+00  0.00000000E+00  0.00000000E+00
  0.00000000E+00  0.00000000E+00  0.00000000E+00
  0.00000000E+00  0.00000000E+00  0.00000000E+00
  0.00000000E+00  0.00000000E+00  0.00000000E+00
  0.00000000E+00  0.00000000E+00  0.00000000E+00
  0.00000000E+00  0.00000000E+00  0.00000000E+00
