Title                                   
   1.00000000000000     
     4.9440799999999996    0.0000000000000000    0.0000000000000000
     0.0000000000000000    8.5647549999999999    0.0000000000000000
     0.0000000000000000    0.0000000000000000   20.0000000000000000
    12     3     1
Selective dynamics
Direct
 -0.0110703631347248  0.2935604063301505  0.0921214687447514   T   T   T
  0.2479618509351037  0.0456541078995857  0.0905494197506833   T   T   T
  0.0094659956361185  0.7933491020377186  0.0938028978497103   T   T   T
  0.0004347036893316  0.9617429001351768  0.0888312609976739   T   T   T
  0.7441986879710363  0.2071014121213592  0.0901560443907262   T   T   T
  0.4959558596793694  0.2919430409896283  0.0994609923429744   T   T   T
  0.7486615175448597  0.0420874737243547  0.0877333825432824   T   T   T
  0.7554639609041567  0.7060974353880189  0.0967425347542979   T   T   T
  0.4981585159625394  0.7940942740574510  0.0951974213609193   T   T   T
  0.7535361633763645  0.5342047874704562  0.1020615785735434   T   T   T
  0.4989868925277033  0.9617244605772713  0.0903550000623740   T   T   T
  0.5167691812203042  0.4482782932491219  0.1195304926802562   T   T   T
 -0.0104349202293628  0.4494848182324870  0.0913606841675437   T   T   T
  0.2549406261531729  0.7194958635521507  0.0995675204297812   T   T   T
  0.2443535694074548  0.2106811338082835  0.0938319673262046   T   T   T
  0.2526177583565714  0.5405004904267863  0.1812093340252873   T   T   T
 
  0.00000000E+00  0.00000000E+00  0.00000000E+00
  0.00000000E+00  0.00000000E+00  0.00000000E+00
  0.00000000E+00  0.00000000E+00  0.00000000E+00
  0.00000000E+00  0.00000000E+00  0.00000000E+00
  0.00000000E+00  0.00000000E+00  0.00000000E+00
  0.00000000E+00  0.00000000E+00  0.00000000E+00
  0.00000000E+00  0.00000000E+00  0.00000000E+00
  0.00000000E+00  0.00000000E+00  0.00000000E+00
  0.00000000E+00  0.00000000E+00  0.00000000E+00
  0.00000000E+00  0.00000000E+00  0.00000000E+00
  0.00000000E+00  0.00000000E+00  0.00000000E+00
  0.00000000E+00  0.00000000E+00  0.00000000E+00
  0.00000000E+00  0.00000000E+00  0.00000000E+00
  0.00000000E+00  0.00000000E+00  0.00000000E+00
  0.00000000E+00  0.00000000E+00  0.00000000E+00
  0.00000000E+00  0.00000000E+00  0.00000000E+00
