Title                                   
   1.00000000000000     
     9.8694509999999998    0.0000000000000000    0.0000000000000000
     0.0000000000000000    8.5490480000000009    0.0000000000000000
     0.0000000000000000    0.0000000000000000   20.0000000000000000
    28     3     1
Selective dynamics
Direct
  0.0563688572327937  0.0912566146443511  0.0840383878352786   T   T   T
  0.9308553069959153  0.1735726591242008  0.0870081321897374   T   T   T
  0.0557329193291923  0.9239989072925466  0.0833821000775256   T   T   T
  0.9300011834292943  0.3402674959758167  0.0921653016851356   T   T   T
  0.0564001733676883  0.5894142351170053  0.0874531817167686   T   T   T
  0.9314149551115006  0.6726671413478363  0.0907128285824850   T   T   T
  0.0567292238656440  0.4230289788982288  0.0894832587225585   T   T   T
  0.9308611436394023  0.8392522530134500  0.0866392455784158   T   T   T
  0.3054391453628448  0.0897960857365780  0.0864910158033373   T   T   T
  0.1819257392383139  0.1747823903871279  0.0858513088975088   T   T   T
  0.3055343383534578  0.9247219987926903  0.0862066765146802   T   T   T
  0.1839233157052486  0.3420437488471864  0.0888243009797950   T   T   T
  0.3072045756067573  0.5946489622622309  0.0925596300757342   T   T   T
  0.1806392955023266  0.6735661513757677  0.0862025753879130   T   T   T
  0.3111211424830794  0.4255445399167152  0.0931500911271010   T   T   T
  0.1805864782633943  0.8403294611127039  0.0844034003322596   T   T   T
  0.5557702077077221  0.0840598507064393  0.0950560017008508   T   T   T
  0.4318255196009374  0.1687367839970100  0.0916459552953088   T   T   T
  0.4355446920012704  0.3343659293375724  0.0968441337345837   T   T   T
  0.4279203952093019  0.8389136014521463  0.0945662782276760   T   T   T
  0.8069797023036143  0.0884852791139891  0.0875666222627583   T   T   T
  0.6808656580919751  0.1672817570194194  0.0938029073691024   T   T   T
  0.8055395412380024  0.9227377205577513  0.0880217732370556   T   T   T
  0.6789043129997736  0.3333201722233839  0.1017024171472481   T   T   T
  0.8080823092600282  0.5917477972455776  0.1050527072262144   T   T   T
  0.6930189128539420  0.6839660022135202  0.1222013430163318   T   T   T
  0.8043346688330069  0.4225649213049099  0.1015878233356959   T   T   T
  0.6833941840541881  0.8390861546840718  0.1015669782930029   T   T   T
  0.4240973281749625  0.6824862526792799  0.1011730834041637   T   T   T
  0.5567205171512064  0.4066987922153507  0.1091520288495167   T   T   T
  0.5546628043043318  0.9194289156309042  0.0989160599267958   T   T   T
  0.5472404527288899  0.5874744457742471  0.1722474514674951   T   T   T
 
  0.00000000E+00  0.00000000E+00  0.00000000E+00
  0.00000000E+00  0.00000000E+00  0.00000000E+00
  0.00000000E+00  0.00000000E+00  0.00000000E+00
  0.00000000E+00  0.00000000E+00  0.00000000E+00
  0.00000000E+00  0.00000000E+00  0.00000000E+00
  0.00000000E+00  0.00000000E+00  0.00000000E+00
  0.00000000E+00  0.00000000E+00  0.00000000E+00
  0.00000000E+00  0.00000000E+00  0.00000000E+00
  0.00000000E+00  0.00000000E+00  0.00000000E+00
  0.00000000E+00  0.00000000E+00  0.00000000E+00
  0.00000000E+00  0.00000000E+00  0.00000000E+00
  0.00000000E+00  0.00000000E+00  0.00000000E+00
  0.00000000E+00  0.00000000E+00  0.00000000E+00
  0.00000000E+00  0.00000000E+00  0.00000000E+00
  0.00000000E+00  0.00000000E+00  0.00000000E+00
  0.00000000E+00  0.00000000E+00  0.00000000E+00
  0.00000000E+00  0.00000000E+00  0.00000000E+00
  0.00000000E+00  0.00000000E+00  0.00000000E+00
  0.00000000E+00  0.00000000E+00  0.00000000E+00
  0.00000000E+00  0.00000000E+00  0.00000000E+00
  0.00000000E+00  0.00000000E+00  0.00000000E+00
  0.00000000E+00  0.00000000E+00  0.00000000E+00
  0.00000000E+00  0.00000000E+00  0.00000000E+00
  0.00000000E+00  0.00000000E+00  0.00000000E+00
  0.00000000E+00  0.00000000E+00  0.00000000E+00
  0.00000000E+00  0.00000000E+00  0.00000000E+00
  0.00000000E+00  0.00000000E+00  0.00000000E+00
  0.00000000E+00  0.00000000E+00  0.00000000E+00
  0.00000000E+00  0.00000000E+00  0.00000000E+00
  0.00000000E+00  0.00000000E+00  0.00000000E+00
  0.00000000E+00  0.00000000E+00  0.00000000E+00
  0.00000000E+00  0.00000000E+00  0.00000000E+00
