Title                                   
   1.00000000000000     
     9.8694509999999998    0.0000000000000000    0.0000000000000000
     0.0000000000000000    8.5490480000000009    0.0000000000000000
     0.0000000000000000    0.0000000000000000   20.0000000000000000
    26     5     1
Selective dynamics
Direct
  0.0561082660669428  0.0901633002274087  0.0872128766748020   T   T   T
  0.9309283883310366  0.1742030579593917  0.0862956865322684   T   T   T
  0.0576677414740746  0.9220012224612233  0.0890807358596647   T   T   T
  0.9284541542580099  0.3419444839684068  0.0873345247862159   T   T   T
  0.0567867272143336  0.5905507465024530  0.0914887548405028   T   T   T
  0.0552029488711750  0.4235771554304121  0.0903688235526762   T   T   T
  0.9338425193940678  0.8386789697762074  0.0900859723120406   T   T   T
  0.3068676566892093  0.0865140726317014  0.0907043617827933   T   T   T
  0.1826459835771963  0.1716026894535615  0.0883169940406504   T   T   T
  0.1826243037355662  0.3394410238227414  0.0907775058038714   T   T   T
  0.3065105791076472  0.5865258324746734  0.1060703260868645   T   T   T
  0.1824502101417472  0.6731201288883613  0.0958327349583129   T   T   T
  0.3086779797137321  0.4205706250943266  0.0964633970864429   T   T   T
  0.1835388856446465  0.8398102101085921  0.0929598013246388   T   T   T
  0.5570337357497054  0.0842820126559037  0.0929806879383220   T   T   T
  0.5566595316607503  0.9197707018024066  0.1017778049052271   T   T   T
  0.4354537324352731  0.3330710828625240  0.0894876995774629   T   T   T
  0.4284258356941896  0.8381882355952501  0.1089083237169067   T   T   T
  0.8064894112609566  0.0884987698215733  0.0873839080406987   T   T   T
  0.6797129065278216  0.1702488675569331  0.0875828209516737   T   T   T
  0.8077650156188084  0.9223316373073542  0.0905868677937109   T   T   T
  0.6756003045046158  0.3380082150516359  0.0844131275206770   T   T   T
  0.8052891716070399  0.5951417770492136  0.0933543200000928   T   T   T
  0.8012482502545509  0.4261162901030859  0.0870729555427184   T   T   T
  0.6845293755882813  0.8387303478971674  0.0989832236161901   T   T   T
  0.4186048233745751  0.6811310689585167  0.1279947343337992   T   T   T
  0.5512472247283789  0.4085726367197829  0.0827697069527461   T   T   T
  0.6914157305790865  0.6780060999347064  0.1043353545734466   T   T   T
  0.3066080741513625  0.9221671483244360  0.0936706049690192   T   T   T
  0.4302256051187477  0.1651919152754522  0.0921041269291294   T   T   T
  0.9329976718001753  0.6731980215589457  0.0909067649416431   T   T   T
  0.5580262551263013  0.6088876527256537  0.1883694720548076   T   T   T
 
  0.00000000E+00  0.00000000E+00  0.00000000E+00
  0.00000000E+00  0.00000000E+00  0.00000000E+00
  0.00000000E+00  0.00000000E+00  0.00000000E+00
  0.00000000E+00  0.00000000E+00  0.00000000E+00
  0.00000000E+00  0.00000000E+00  0.00000000E+00
  0.00000000E+00  0.00000000E+00  0.00000000E+00
  0.00000000E+00  0.00000000E+00  0.00000000E+00
  0.00000000E+00  0.00000000E+00  0.00000000E+00
  0.00000000E+00  0.00000000E+00  0.00000000E+00
  0.00000000E+00  0.00000000E+00  0.00000000E+00
  0.00000000E+00  0.00000000E+00  0.00000000E+00
  0.00000000E+00  0.00000000E+00  0.00000000E+00
  0.00000000E+00  0.00000000E+00  0.00000000E+00
  0.00000000E+00  0.00000000E+00  0.00000000E+00
  0.00000000E+00  0.00000000E+00  0.00000000E+00
  0.00000000E+00  0.00000000E+00  0.00000000E+00
  0.00000000E+00  0.00000000E+00  0.00000000E+00
  0.00000000E+00  0.00000000E+00  0.00000000E+00
  0.00000000E+00  0.00000000E+00  0.00000000E+00
  0.00000000E+00  0.00000000E+00  0.00000000E+00
  0.00000000E+00  0.00000000E+00  0.00000000E+00
  0.00000000E+00  0.00000000E+00  0.00000000E+00
  0.00000000E+00  0.00000000E+00  0.00000000E+00
  0.00000000E+00  0.00000000E+00  0.00000000E+00
  0.00000000E+00  0.00000000E+00  0.00000000E+00
  0.00000000E+00  0.00000000E+00  0.00000000E+00
  0.00000000E+00  0.00000000E+00  0.00000000E+00
  0.00000000E+00  0.00000000E+00  0.00000000E+00
  0.00000000E+00  0.00000000E+00  0.00000000E+00
  0.00000000E+00  0.00000000E+00  0.00000000E+00
  0.00000000E+00  0.00000000E+00  0.00000000E+00
  0.00000000E+00  0.00000000E+00  0.00000000E+00
