Title                                   
   1.00000000000000     
     8.5490480000000009    0.0000000000000000    0.0000000000000000
     0.0000000000000000    8.5490480000000009    0.0000000000000000
     0.0000000000000000    0.0000000000000000   20.0000000000000000
    22     2     1
Selective dynamics
Direct
  0.9100315560851316  0.2043755727305220  0.0954469552038354   T   T   T
  0.9033265052090138  0.5017996494516925  0.0952837123653806   T   T   T
  0.9100286727403083  0.7992065851685791  0.0954575236196285   T   T   T
  0.1977142747005181  0.0834016722127167  0.0954661744749096   T   T   T
  0.0747356742232872  0.2063246933488495  0.0954504279388209   T   T   T
  0.1977163138976077  0.9201717599010590  0.0954777788298006   T   T   T
  0.1550678122691994  0.6484603650398902  0.0953698407921192   T   T   T
  0.0728304401243885  0.5018019004859015  0.0953244136236096   T   T   T
  0.1550639746703388  0.3551339245576609  0.0953612524109274   T   T   T
  0.0747303072572376  0.7972489558174518  0.0954655818494108   T   T   T
  0.4950082067861366  0.0868881879761512  0.0953538920778368   T   T   T
  0.3478220646931414  0.1670580175369048  0.0953787583298911   T   T   T
  0.4950139326498688  0.9166887385024191  0.0953543312622711   T   T   T
  0.3478237332132177  0.8365248952522061  0.0953943940611544   T   T   T
  0.7897538256031782  0.0852190509516780  0.0954641560007177   T   T   T
  0.6434480615501007  0.1664930222696964  0.0953143707670275   T   T   T
  0.7897558164218790  0.9183706470508882  0.0954656935993133   T   T   T
  0.8251772082722088  0.6503016366581919  0.0952994552883910   T   T   T
  0.8251844541066141  0.3532838900652570  0.0952848903097485   T   T   T
  0.6434612137061043  0.8370949431195154  0.0953197590288272   T   T   T
  0.3233231839713937  0.3335808767746456  0.0952933873137008   T   T   T
  0.3233225278628880  0.6699983851243216  0.0953111093112457   T   T   T
  0.6660450432470403  0.3291325455081406  0.0951488009002364   T   T   T
  0.6660478385666053  0.6744406774729743  0.0951640305303058   T   T   T
  0.4929793581725855  0.5017894070226998  0.0950543101108678   T   T   T
 
  0.00000000E+00  0.00000000E+00  0.00000000E+00
  0.00000000E+00  0.00000000E+00  0.00000000E+00
  0.00000000E+00  0.00000000E+00  0.00000000E+00
  0.00000000E+00  0.00000000E+00  0.00000000E+00
  0.00000000E+00  0.00000000E+00  0.00000000E+00
  0.00000000E+00  0.00000000E+00  0.00000000E+00
  0.00000000E+00  0.00000000E+00  0.00000000E+00
  0.00000000E+00  0.00000000E+00  0.00000000E+00
  0.00000000E+00  0.00000000E+00  0.00000000E+00
  0.00000000E+00  0.00000000E+00  0.00000000E+00
  0.00000000E+00  0.00000000E+00  0.00000000E+00
  0.00000000E+00  0.00000000E+00  0.00000000E+00
  0.00000000E+00  0.00000000E+00  0.00000000E+00
  0.00000000E+00  0.00000000E+00  0.00000000E+00
  0.00000000E+00  0.00000000E+00  0.00000000E+00
  0.00000000E+00  0.00000000E+00  0.00000000E+00
  0.00000000E+00  0.00000000E+00  0.00000000E+00
  0.00000000E+00  0.00000000E+00  0.00000000E+00
  0.00000000E+00  0.00000000E+00  0.00000000E+00
  0.00000000E+00  0.00000000E+00  0.00000000E+00
  0.00000000E+00  0.00000000E+00  0.00000000E+00
  0.00000000E+00  0.00000000E+00  0.00000000E+00
  0.00000000E+00  0.00000000E+00  0.00000000E+00
  0.00000000E+00  0.00000000E+00  0.00000000E+00
  0.00000000E+00  0.00000000E+00  0.00000000E+00
