Title                                   
   1.00000000000000     
     8.5490480000000009    0.0000000000000000    0.0000000000000000
     0.0000000000000000    8.5490480000000009    0.0000000000000000
     0.0000000000000000    0.0000000000000000   20.0000000000000000
    22     2     1
Selective dynamics
Direct
  0.9073067634638625  0.2074555772898649  0.0944953955420969   T   T   T
  0.9067508669157782  0.5052909662749323  0.0962476499753421   T   T   T
  0.9132026109770337  0.8036176715031500  0.0957032195886219   T   T   T
  0.1977129095137946  0.0812894179849320  0.0958246433273318   T   T   T
  0.0729670787787617  0.2025952035625926  0.0958575643470895   T   T   T
  0.1589117925435935  0.6472931686127572  0.0947523485882839   T   T   T
  0.0751050728408898  0.5016211356196549  0.0962363568420508   T   T   T
  0.1552961190307069  0.3539021680676734  0.0984684740141020   T   T   T
  0.0808067088537498  0.7973566676111872  0.0943492283161556   T   T   T
  0.4927061041332708  0.0834469387558165  0.0963622402150273   T   T   T
  0.3441781461045410  0.1614249832660241  0.0984028184425609   T   T   T
  0.4945150808510485  0.9148564321322713  0.0965301074168509   T   T   T
  0.3487511813622767  0.8331393807444109  0.0951197170344895   T   T   T
  0.7859349436648059  0.0876713712079887  0.0945917442028184   T   T   T
  0.6364889632264226  0.1666419241965098  0.0948994858545467   T   T   T
  0.7908475624476541  0.9216618608091087  0.0959309003976391   T   T   T
  0.8305741263422524  0.6547121641515812  0.0982783404730160   T   T   T
  0.8248085967544130  0.3595180572047561  0.0946459357918572   T   T   T
  0.6436214609638732  0.8369845664524712  0.0985658648792862   T   T   T
  0.3217714786459846  0.3309876145312650  0.1051665407576521   T   T   T
  0.3256483436167763  0.6684132249186056  0.0957369823924566   T   T   T
  0.6585496210087141  0.3362456514502193  0.0954033549336646   T   T   T
  0.6691446930562889  0.6764723717126786  0.1032563204666076   T   T   T
  0.2001400874055356  0.9147604319075943  0.0943668531570279   T   T   T
  0.4896716874979647  0.4974310500319684  0.1295129130434071   T   T   T
 
  0.00000000E+00  0.00000000E+00  0.00000000E+00
  0.00000000E+00  0.00000000E+00  0.00000000E+00
  0.00000000E+00  0.00000000E+00  0.00000000E+00
  0.00000000E+00  0.00000000E+00  0.00000000E+00
  0.00000000E+00  0.00000000E+00  0.00000000E+00
  0.00000000E+00  0.00000000E+00  0.00000000E+00
  0.00000000E+00  0.00000000E+00  0.00000000E+00
  0.00000000E+00  0.00000000E+00  0.00000000E+00
  0.00000000E+00  0.00000000E+00  0.00000000E+00
  0.00000000E+00  0.00000000E+00  0.00000000E+00
  0.00000000E+00  0.00000000E+00  0.00000000E+00
  0.00000000E+00  0.00000000E+00  0.00000000E+00
  0.00000000E+00  0.00000000E+00  0.00000000E+00
  0.00000000E+00  0.00000000E+00  0.00000000E+00
  0.00000000E+00  0.00000000E+00  0.00000000E+00
  0.00000000E+00  0.00000000E+00  0.00000000E+00
  0.00000000E+00  0.00000000E+00  0.00000000E+00
  0.00000000E+00  0.00000000E+00  0.00000000E+00
  0.00000000E+00  0.00000000E+00  0.00000000E+00
  0.00000000E+00  0.00000000E+00  0.00000000E+00
  0.00000000E+00  0.00000000E+00  0.00000000E+00
  0.00000000E+00  0.00000000E+00  0.00000000E+00
  0.00000000E+00  0.00000000E+00  0.00000000E+00
  0.00000000E+00  0.00000000E+00  0.00000000E+00
  0.00000000E+00  0.00000000E+00  0.00000000E+00
