Title                                   
   1.00000000000000     
     9.8694509999999998    0.0000000000000000    0.0000000000000000
     0.0000000000000000    8.5490480000000009    0.0000000000000000
     0.0000000000000000    0.0000000000000000   20.0000000000000000
    25     6     1
Selective dynamics
Direct
  0.0559340043675655  0.0918510265473906  0.0855429027949791   T   T   T
  0.9311550245232711  0.1746232111694464  0.0858982866858772   T   T   T
  0.0570383415428421  0.9237290537801138  0.0850862325454903   T   T   T
  0.9302045252967180  0.3417010756744809  0.0887672074260978   T   T   T
  0.0567857242547079  0.5915278288385581  0.0876284449157004   T   T   T
  0.0564068717089225  0.4241773728390670  0.0892253686594913   T   T   T
  0.9328176313241490  0.8397625409594009  0.0861479282872630   T   T   T
  0.3059715989558033  0.0893856557607491  0.0897150562627131   T   T   T
  0.1823005876815616  0.1746511097708167  0.0887558661933880   T   T   T
  0.1832048049222933  0.3417986961634791  0.0919374691382033   T   T   T
  0.3031626262735773  0.5931196045636271  0.1023011738847347   T   T   T
  0.1799074784944467  0.6748946766681745  0.0897629212339138   T   T   T
  0.3106014138980864  0.4236846844430224  0.1005395150635051   T   T   T
  0.1813760485823919  0.8424735077771540  0.0878308857680547   T   T   T
  0.5559402787377892  0.0839658292360449  0.0934160876077116   T   T   T
  0.5542475797176237  0.9167617811345042  0.0995051429855707   T   T   T
  0.4334781123430239  0.3320309265684943  0.1033389224348093   T   T   T
  0.4244467494196013  0.8397256478267676  0.1040477432321703   T   T   T
  0.8066169346398946  0.0882612041815009  0.0856482023094055   T   T   T
  0.6800242717669792  0.1679887000736431  0.0895192118647019   T   T   T
  0.8081535180533402  0.9222654680681537  0.0875273830973442   T   T   T
  0.6796452931863382  0.3342638923533655  0.0981304068516419   T   T   T
  0.8098590199395431  0.5943869983498051  0.0980010136216380   T   T   T
  0.8033466270594429  0.4249199074283179  0.0951633385522847   T   T   T
  0.6848104228546313  0.8383746714721897  0.0984570449867200   T   T   T
  0.4104830212888647  0.6876950403894848  0.1195777175322935   T   T   T
  0.5562828771294699  0.3975107602617174  0.1144205681982394   T   T   T
  0.6990456635247263  0.6811316152250082  0.1106807888762154   T   T   T
  0.3046084891600899  0.9261349926427054  0.0900367125715341   T   T   T
  0.4300765537399560  0.1661200717186242  0.0935058784442683   T   T   T
  0.9334025203734571  0.6727286427297329  0.0876019875795241   T   T   T
  0.5583043852388996  0.5885998053844627  0.1579575903945311   T   T   T
 
  0.00000000E+00  0.00000000E+00  0.00000000E+00
  0.00000000E+00  0.00000000E+00  0.00000000E+00
  0.00000000E+00  0.00000000E+00  0.00000000E+00
  0.00000000E+00  0.00000000E+00  0.00000000E+00
  0.00000000E+00  0.00000000E+00  0.00000000E+00
  0.00000000E+00  0.00000000E+00  0.00000000E+00
  0.00000000E+00  0.00000000E+00  0.00000000E+00
  0.00000000E+00  0.00000000E+00  0.00000000E+00
  0.00000000E+00  0.00000000E+00  0.00000000E+00
  0.00000000E+00  0.00000000E+00  0.00000000E+00
  0.00000000E+00  0.00000000E+00  0.00000000E+00
  0.00000000E+00  0.00000000E+00  0.00000000E+00
  0.00000000E+00  0.00000000E+00  0.00000000E+00
  0.00000000E+00  0.00000000E+00  0.00000000E+00
  0.00000000E+00  0.00000000E+00  0.00000000E+00
  0.00000000E+00  0.00000000E+00  0.00000000E+00
  0.00000000E+00  0.00000000E+00  0.00000000E+00
  0.00000000E+00  0.00000000E+00  0.00000000E+00
  0.00000000E+00  0.00000000E+00  0.00000000E+00
  0.00000000E+00  0.00000000E+00  0.00000000E+00
  0.00000000E+00  0.00000000E+00  0.00000000E+00
  0.00000000E+00  0.00000000E+00  0.00000000E+00
  0.00000000E+00  0.00000000E+00  0.00000000E+00
  0.00000000E+00  0.00000000E+00  0.00000000E+00
  0.00000000E+00  0.00000000E+00  0.00000000E+00
  0.00000000E+00  0.00000000E+00  0.00000000E+00
  0.00000000E+00  0.00000000E+00  0.00000000E+00
  0.00000000E+00  0.00000000E+00  0.00000000E+00
  0.00000000E+00  0.00000000E+00  0.00000000E+00
  0.00000000E+00  0.00000000E+00  0.00000000E+00
  0.00000000E+00  0.00000000E+00  0.00000000E+00
  0.00000000E+00  0.00000000E+00  0.00000000E+00
