Title                                   
   1.00000000000000     
     9.8694509999999998    0.0000000000000000    0.0000000000000000
     0.0000000000000000    8.5490480000000009    0.0000000000000000
     0.0000000000000000    0.0000000000000000   20.0000000000000000
    27     4     1
Selective dynamics
Direct
  0.0559860420108386  0.0905547026316396  0.0849851742146072   T   T   T
  0.9312232152708375  0.1746005203473358  0.0853569336572192   T   T   T
  0.0573142445822526  0.9226128113994552  0.0847272606664482   T   T   T
  0.9300439847085797  0.3420812904628066  0.0870508335270220   T   T   T
  0.0562292646197282  0.5913038766461522  0.0888764720277621   T   T   T
  0.0555670540764093  0.4245337923951434  0.0885622668692032   T   T   T
  0.9334553374764821  0.8396280974993133  0.0842961623393611   T   T   T
  0.3062492176716480  0.0877028150342884  0.0903273996904451   T   T   T
  0.1820695742862280  0.1722654245951245  0.0886200786104035   T   T   T
  0.1812619424760558  0.3397790068542577  0.0926381664950146   T   T   T
  0.3021562009056014  0.5874573468685430  0.1073888940364162   T   T   T
  0.1804860321022820  0.6740528290424632  0.0938966916536970   T   T   T
  0.3047860295522541  0.4203885871091921  0.1046952564764344   T   T   T
  0.1828875700143631  0.8404631743534985  0.0894897444871976   T   T   T
  0.5562820105016137  0.0863931878891793  0.0933647120475835   T   T   T
  0.5562218069879367  0.9197645253663952  0.0964420146184941   T   T   T
  0.4301445243056046  0.3319013158844982  0.1082559274683597   T   T   T
  0.4279510316466528  0.8381903465569357  0.1044955613626620   T   T   T
  0.8063611261121268  0.0895572644227312  0.0853139438140018   T   T   T
  0.6797714602388102  0.1718895915604689  0.0904496174399233   T   T   T
  0.8075714049694960  0.9234796637784314  0.0850410155020929   T   T   T
  0.6806907019285476  0.3387666109778921  0.0992605710667029   T   T   T
  0.8077473298864972  0.5954392768189051  0.0899300152822145   T   T   T
  0.8049472115871233  0.4260534522636590  0.0918709374417223   T   T   T
  0.6837542180702113  0.8396055904362507  0.0910281974891319   T   T   T
  0.4173034861573112  0.6811205523795838  0.1223731779222036   T   T   T
  0.5546192812460530  0.4043028162311988  0.1194232766589302   T   T   T
  0.6916908285379590  0.6781255827609887  0.0939252409160928   T   T   T
  0.3057558958463221  0.9236450424343841  0.0913470970374188   T   T   T
  0.4295392526331656  0.1664906254485313  0.0954461526358916   T   T   T
  0.9329467422819274  0.6741949912564257  0.0861275258942075   T   T   T
  0.5666249773090876  0.5939012882943289  0.1706686806511516   T   T   T
 
  0.00000000E+00  0.00000000E+00  0.00000000E+00
  0.00000000E+00  0.00000000E+00  0.00000000E+00
  0.00000000E+00  0.00000000E+00  0.00000000E+00
  0.00000000E+00  0.00000000E+00  0.00000000E+00
  0.00000000E+00  0.00000000E+00  0.00000000E+00
  0.00000000E+00  0.00000000E+00  0.00000000E+00
  0.00000000E+00  0.00000000E+00  0.00000000E+00
  0.00000000E+00  0.00000000E+00  0.00000000E+00
  0.00000000E+00  0.00000000E+00  0.00000000E+00
  0.00000000E+00  0.00000000E+00  0.00000000E+00
  0.00000000E+00  0.00000000E+00  0.00000000E+00
  0.00000000E+00  0.00000000E+00  0.00000000E+00
  0.00000000E+00  0.00000000E+00  0.00000000E+00
  0.00000000E+00  0.00000000E+00  0.00000000E+00
  0.00000000E+00  0.00000000E+00  0.00000000E+00
  0.00000000E+00  0.00000000E+00  0.00000000E+00
  0.00000000E+00  0.00000000E+00  0.00000000E+00
  0.00000000E+00  0.00000000E+00  0.00000000E+00
  0.00000000E+00  0.00000000E+00  0.00000000E+00
  0.00000000E+00  0.00000000E+00  0.00000000E+00
  0.00000000E+00  0.00000000E+00  0.00000000E+00
  0.00000000E+00  0.00000000E+00  0.00000000E+00
  0.00000000E+00  0.00000000E+00  0.00000000E+00
  0.00000000E+00  0.00000000E+00  0.00000000E+00
  0.00000000E+00  0.00000000E+00  0.00000000E+00
  0.00000000E+00  0.00000000E+00  0.00000000E+00
  0.00000000E+00  0.00000000E+00  0.00000000E+00
  0.00000000E+00  0.00000000E+00  0.00000000E+00
  0.00000000E+00  0.00000000E+00  0.00000000E+00
  0.00000000E+00  0.00000000E+00  0.00000000E+00
  0.00000000E+00  0.00000000E+00  0.00000000E+00
  0.00000000E+00  0.00000000E+00  0.00000000E+00
