Title                                   
   1.00000000000000     
     9.8694509999999998    0.0000000000000000    0.0000000000000000
     0.0000000000000000    8.5490480000000009    0.0000000000000000
     0.0000000000000000    0.0000000000000000   20.0000000000000000
    28     2     1
Selective dynamics
Direct
  0.0553444362463787  0.0896883231108509  0.0933366763248387   T   T   T
  0.9304310999961006  0.1727035039610212  0.0886248717703923   T   T   T
  0.0553380106880216  0.9226481844712716  0.0933278741321475   T   T   T
  0.9325908675034525  0.3385466402446740  0.0905643715498825   T   T   T
  0.0559794347369698  0.5897172833595768  0.0955830612029676   T   T   T
  0.9325888557268391  0.6737720039225330  0.0905470205178273   T   T   T
  0.0559857029664922  0.4226112585775981  0.0955870522024547   T   T   T
  0.9304396737364617  0.8396228044873761  0.0886006437262690   T   T   T
  0.3062538258661689  0.0906456879043177  0.1002606102226721   T   T   T
  0.1797337643704611  0.1722111178180637  0.0983472218612324   T   T   T
  0.3062486934007402  0.9216519115064965  0.1002475365970845   T   T   T
  0.1800463183866709  0.3393529516838342  0.0993302538062893   T   T   T
  0.3041893493086095  0.5903782733969360  0.1052005214924621   T   T   T
  0.1800388770037124  0.6729778963564852  0.0993258956501547   T   T   T
  0.3041983204112809  0.4219171392843474  0.1052142772171244   T   T   T
  0.1797390351807590  0.8401181364889428  0.0983416505138100   T   T   T
  0.5523955335810306  0.0908837400425662  0.0931362577109372   T   T   T
  0.4290052350269976  0.1796156329257696  0.1018398531404753   T   T   T
  0.5523935372863119  0.9214049949846157  0.0931096112986885   T   T   T
  0.4290211698662871  0.8326797533858736  0.1017907066527808   T   T   T
  0.8042005231765728  0.0895437073855056  0.0841807137043118   T   T   T
  0.6785123102840692  0.1715714825902840  0.0832765453701062   T   T   T
  0.8041959998601332  0.9227592810437487  0.0841577968046143   T   T   T
  0.6835765271099719  0.3373101285716747  0.0802517484391812   T   T   T
  0.8077981077609100  0.5909078548306705  0.0833928961394237   T   T   T
  0.6835743278316142  0.6749957440552268  0.0802164290450273   T   T   T
  0.8078034146564197  0.4214152937806611  0.0833974247954620   T   T   T
  0.6785027938375207  0.8407539058677940  0.0832267851151225   T   T   T
  0.4264404917084617  0.3437381020724741  0.1097136866503309   T   T   T
  0.4264284019455601  0.6685623325245130  0.1096670665689162   T   T   T
  0.5901403605390274  0.5061699293643093  0.1271679397770539   T   T   T
 
  0.00000000E+00  0.00000000E+00  0.00000000E+00
  0.00000000E+00  0.00000000E+00  0.00000000E+00
  0.00000000E+00  0.00000000E+00  0.00000000E+00
  0.00000000E+00  0.00000000E+00  0.00000000E+00
  0.00000000E+00  0.00000000E+00  0.00000000E+00
  0.00000000E+00  0.00000000E+00  0.00000000E+00
  0.00000000E+00  0.00000000E+00  0.00000000E+00
  0.00000000E+00  0.00000000E+00  0.00000000E+00
  0.00000000E+00  0.00000000E+00  0.00000000E+00
  0.00000000E+00  0.00000000E+00  0.00000000E+00
  0.00000000E+00  0.00000000E+00  0.00000000E+00
  0.00000000E+00  0.00000000E+00  0.00000000E+00
  0.00000000E+00  0.00000000E+00  0.00000000E+00
  0.00000000E+00  0.00000000E+00  0.00000000E+00
  0.00000000E+00  0.00000000E+00  0.00000000E+00
  0.00000000E+00  0.00000000E+00  0.00000000E+00
  0.00000000E+00  0.00000000E+00  0.00000000E+00
  0.00000000E+00  0.00000000E+00  0.00000000E+00
  0.00000000E+00  0.00000000E+00  0.00000000E+00
  0.00000000E+00  0.00000000E+00  0.00000000E+00
  0.00000000E+00  0.00000000E+00  0.00000000E+00
  0.00000000E+00  0.00000000E+00  0.00000000E+00
  0.00000000E+00  0.00000000E+00  0.00000000E+00
  0.00000000E+00  0.00000000E+00  0.00000000E+00
  0.00000000E+00  0.00000000E+00  0.00000000E+00
  0.00000000E+00  0.00000000E+00  0.00000000E+00
  0.00000000E+00  0.00000000E+00  0.00000000E+00
  0.00000000E+00  0.00000000E+00  0.00000000E+00
  0.00000000E+00  0.00000000E+00  0.00000000E+00
  0.00000000E+00  0.00000000E+00  0.00000000E+00
  0.00000000E+00  0.00000000E+00  0.00000000E+00
