Title                                   
   1.00000000000000     
     9.8694509999999998    0.0000000000000000    0.0000000000000000
     0.0000000000000000    8.5490480000000009    0.0000000000000000
     0.0000000000000000    0.0000000000000000   20.0000000000000000
    26     4     1
Selective dynamics
Direct
  0.0559176469789454  0.0896150343556922  0.0912106263214311   T   T   T
  0.9310490672096716  0.1735882361547550  0.0954898389732419   T   T   T
  0.0580573930529206  0.9227393155326319  0.0910888840493413   T   T   T
  0.9327154873745600  0.3411987951110624  0.0977813366572543   T   T   T
  0.0576558792284100  0.5899142087671047  0.0926699325925680   T   T   T
  0.9337806973384714  0.6737109222473670  0.0983292212830249   T   T   T
  0.0572113225896013  0.4226086942498591  0.0927617293629715   T   T   T
  0.9334209079094740  0.8408774837858262  0.0964127996029304   T   T   T
  0.3076487785718380  0.0864009938171583  0.0861409423089333   T   T   T
  0.1814845194228015  0.1708487025805116  0.0881645957095115   T   T   T
  0.1803505543518464  0.3366038030836486  0.0883932139890543   T   T   T
  0.3074521495188293  0.5864379622731156  0.0807372096414241   T   T   T
  0.1821478835896733  0.6722339345486256  0.0867205442819747   T   T   T
  0.3052944699606286  0.4172728880595539  0.0840918744494230   T   T   T
  0.1831806134099097  0.8382675332590142  0.0867366271625227   T   T   T
  0.4304297632055443  0.1709171918586204  0.0880794370561727   T   T   T
  0.5570389757642761  0.9217377928990235  0.0954251552969487   T   T   T
  0.4301599228555683  0.6748951237617355  0.0783135578596996   T   T   T
  0.4318986768100923  0.8377058746752268  0.0848518929179328   T   T   T
  0.8047266430311047  0.0902700881615767  0.0971167617254757   T   T   T
  0.6802586079608022  0.1783938132668451  0.1004068102431465   T   T   T
  0.8072235348826227  0.9236819295664935  0.0985245412368354   T   T   T
  0.6829803147641277  0.3423991796019218  0.1092729445501381   T   T   T
  0.8104893081709444  0.5936401291493607  0.1064531243421033   T   T   T
  0.8084991815323355  0.4243965025190808  0.1055069361743916   T   T   T
  0.6825221788096651  0.8377360580973040  0.1030010705473833   T   T   T
  0.5567861989597681  0.0919972417226362  0.0945349331603850   T   T   T
  0.4265796910731594  0.3321839356213089  0.0864340306533544   T   T   T
  0.6886344484370484  0.6752767660746438  0.1132822692349424   T   T   T
  0.3068699966095407  0.9220215327909254  0.0842576453079277   T   T   T
  0.5306701866258214  0.5113033324073973  0.1387745133075901   T   T   T
 
  0.00000000E+00  0.00000000E+00  0.00000000E+00
  0.00000000E+00  0.00000000E+00  0.00000000E+00
  0.00000000E+00  0.00000000E+00  0.00000000E+00
  0.00000000E+00  0.00000000E+00  0.00000000E+00
  0.00000000E+00  0.00000000E+00  0.00000000E+00
  0.00000000E+00  0.00000000E+00  0.00000000E+00
  0.00000000E+00  0.00000000E+00  0.00000000E+00
  0.00000000E+00  0.00000000E+00  0.00000000E+00
  0.00000000E+00  0.00000000E+00  0.00000000E+00
  0.00000000E+00  0.00000000E+00  0.00000000E+00
  0.00000000E+00  0.00000000E+00  0.00000000E+00
  0.00000000E+00  0.00000000E+00  0.00000000E+00
  0.00000000E+00  0.00000000E+00  0.00000000E+00
  0.00000000E+00  0.00000000E+00  0.00000000E+00
  0.00000000E+00  0.00000000E+00  0.00000000E+00
  0.00000000E+00  0.00000000E+00  0.00000000E+00
  0.00000000E+00  0.00000000E+00  0.00000000E+00
  0.00000000E+00  0.00000000E+00  0.00000000E+00
  0.00000000E+00  0.00000000E+00  0.00000000E+00
  0.00000000E+00  0.00000000E+00  0.00000000E+00
  0.00000000E+00  0.00000000E+00  0.00000000E+00
  0.00000000E+00  0.00000000E+00  0.00000000E+00
  0.00000000E+00  0.00000000E+00  0.00000000E+00
  0.00000000E+00  0.00000000E+00  0.00000000E+00
  0.00000000E+00  0.00000000E+00  0.00000000E+00
  0.00000000E+00  0.00000000E+00  0.00000000E+00
  0.00000000E+00  0.00000000E+00  0.00000000E+00
  0.00000000E+00  0.00000000E+00  0.00000000E+00
  0.00000000E+00  0.00000000E+00  0.00000000E+00
  0.00000000E+00  0.00000000E+00  0.00000000E+00
  0.00000000E+00  0.00000000E+00  0.00000000E+00
