Title                                   
   1.00000000000000     
     4.9440799999999996    0.0000000000000000    0.0000000000000000
     0.0000000000000000   17.1295089999999988    0.0000000000000000
     0.0000000000000000    0.0000000000000000   20.0000000000000000
    30     1
Selective dynamics
Direct
  0.0000250337482818  0.1046257756476898  0.2903648893152363   T   T   T
  0.2502783291645002  0.1466950951190428  0.2930385987977001   T   T   T
  0.2502836131579704  0.2294049477279539  0.3002120401575112   T   T   T
  0.0005183462005699  0.2716611771197414  0.3039308502755407   T   T   T
  0.0005764976131280  0.6032668512063369  0.3037676509969960   T   T   T
  0.2503711841385046  0.7282294065978275  0.2931028303516010   T   T   T
  0.0001754698504128  0.8537212332039863  0.2874567463944701   T   T   T
  0.2502771993754845  0.8957832904217620  0.2868163679933465   T   T   T
  0.2502781621595735  0.9791636850489004  0.2867848494800148   T   T   T
  0.0001319085060041  0.7702956755061071  0.2904426133041818   T   T   T
  0.5005189341817684  0.1046179115744161  0.2903444683347905   T   T   T
  0.7502678090977419  0.1464556262295750  0.2924041582909825   T   T   T
  0.7502514341230638  0.2298896834007042  0.2987483750089395   T   T   T
  0.5004323109038828  0.0211893995124142  0.2874048642603131   T   T   T
  0.7503737263965508  0.3940186266915207  0.3158681821084989   T   T   T
  0.7504039983625733  0.4809033051054766  0.3157692924614384   T   T   T
  0.5000070602721624  0.2716892182934162  0.3038569960929562   T   T   T
  0.5000742790711509  0.6032420307336706  0.3036844747015539   T   T   T
  0.7503566106554781  0.7284824698736339  0.2924609411900225   T   T   T
  0.5003934346236758  0.8537275590659190  0.2874412910800216   T   T   T
  0.7502700672802710  0.8956234699902884  0.2866314767328335   T   T   T
  0.7502798280860125  0.9792668585896527  0.2866549062831592   T   T   T
  0.5005982082400859  0.7703061007177012  0.2904222673941162   T   T   T
  0.7503120136723196  0.6450563361540300  0.2986549187730749   T   T   T
  0.2503430591695118  0.6455300412240181  0.3001180796268704   T   T   T
  0.0001345948392368  0.0211923495073322  0.2874260539033348   T   T   T
  0.5032249370869083  0.5209965291522594  0.3135151195505431   T   T   T
  0.9975594418935553  0.5210465292695460  0.3137598827827761   T   T   T
  0.5032209851188233  0.3539207199347750  0.3136803332601733   T   T   T
 -0.0025318576164106  0.3538578820659725  0.3139400937470614   T   T   T
  0.2506003806272100  0.4374822153143261  0.3563563873498929   T   T   T
 
  0.00000000E+00  0.00000000E+00  0.00000000E+00
  0.00000000E+00  0.00000000E+00  0.00000000E+00
  0.00000000E+00  0.00000000E+00  0.00000000E+00
  0.00000000E+00  0.00000000E+00  0.00000000E+00
  0.00000000E+00  0.00000000E+00  0.00000000E+00
  0.00000000E+00  0.00000000E+00  0.00000000E+00
  0.00000000E+00  0.00000000E+00  0.00000000E+00
  0.00000000E+00  0.00000000E+00  0.00000000E+00
  0.00000000E+00  0.00000000E+00  0.00000000E+00
  0.00000000E+00  0.00000000E+00  0.00000000E+00
  0.00000000E+00  0.00000000E+00  0.00000000E+00
  0.00000000E+00  0.00000000E+00  0.00000000E+00
  0.00000000E+00  0.00000000E+00  0.00000000E+00
  0.00000000E+00  0.00000000E+00  0.00000000E+00
  0.00000000E+00  0.00000000E+00  0.00000000E+00
  0.00000000E+00  0.00000000E+00  0.00000000E+00
  0.00000000E+00  0.00000000E+00  0.00000000E+00
  0.00000000E+00  0.00000000E+00  0.00000000E+00
  0.00000000E+00  0.00000000E+00  0.00000000E+00
  0.00000000E+00  0.00000000E+00  0.00000000E+00
  0.00000000E+00  0.00000000E+00  0.00000000E+00
  0.00000000E+00  0.00000000E+00  0.00000000E+00
  0.00000000E+00  0.00000000E+00  0.00000000E+00
  0.00000000E+00  0.00000000E+00  0.00000000E+00
  0.00000000E+00  0.00000000E+00  0.00000000E+00
  0.00000000E+00  0.00000000E+00  0.00000000E+00
  0.00000000E+00  0.00000000E+00  0.00000000E+00
  0.00000000E+00  0.00000000E+00  0.00000000E+00
  0.00000000E+00  0.00000000E+00  0.00000000E+00
  0.00000000E+00  0.00000000E+00  0.00000000E+00
  0.00000000E+00  0.00000000E+00  0.00000000E+00
