Title                                   
   1.00000000000000     
     4.9440799999999996    0.0000000000000000    0.0000000000000000
     0.0000000000000000    8.5647549999999999    0.0000000000000000
     0.0000000000000000    0.0000000000000000   20.0000000000000000
    11     3     1
Selective dynamics
Direct
  0.0021288398146066  0.2964130106020408  0.1003374954000305   T   T   T
  0.2439029452645861  0.0402354824017808  0.0965336503764255   T   T   T
 -0.0078965630437636  0.9542802663122639  0.1004658995944852   T   T   T
  0.7519556664557978  0.2079257111118054  0.0936314578220421   T   T   T
  0.5024216709445910  0.2917386338852002  0.0938303515222129   T   T   T
  0.7471989175415785  0.0401326861428761  0.0930597727147805   T   T   T
  0.7404063257113722  0.7092896257613309  0.0971829379568085   T   T   T
  0.7485852353853687  0.5375521047807804  0.0997604528477594   T   T   T
  0.4929708304857542  0.9587070215220256  0.0906416877942861   T   T   T
  0.4980371935246294  0.7923548078594284  0.0868876177476103   T   T   T
 -0.0010172435942735  0.4601235296534811  0.1101482529017477   T   T   T
  0.5044307627759458  0.4524804013979744  0.0948796974473928   T   T   T
 -0.0148558619716769  0.7901954176938262  0.1132834528762431   T   T   T
  0.2493783228116450  0.2102579233851910  0.0970984838255832   T   T   T
  0.2923529578938402  0.6299943774899976  0.1402387891725953   T   T   T
 
  0.00000000E+00  0.00000000E+00  0.00000000E+00
  0.00000000E+00  0.00000000E+00  0.00000000E+00
  0.00000000E+00  0.00000000E+00  0.00000000E+00
  0.00000000E+00  0.00000000E+00  0.00000000E+00
  0.00000000E+00  0.00000000E+00  0.00000000E+00
  0.00000000E+00  0.00000000E+00  0.00000000E+00
  0.00000000E+00  0.00000000E+00  0.00000000E+00
  0.00000000E+00  0.00000000E+00  0.00000000E+00
  0.00000000E+00  0.00000000E+00  0.00000000E+00
  0.00000000E+00  0.00000000E+00  0.00000000E+00
  0.00000000E+00  0.00000000E+00  0.00000000E+00
  0.00000000E+00  0.00000000E+00  0.00000000E+00
  0.00000000E+00  0.00000000E+00  0.00000000E+00
  0.00000000E+00  0.00000000E+00  0.00000000E+00
  0.00000000E+00  0.00000000E+00  0.00000000E+00
