Title                                   
   1.00000000000000     
     4.9440799999999996    0.0000000000000000    0.0000000000000000
     0.0000000000000000    8.5647549999999999    0.0000000000000000
     0.0000000000000000    0.0000000000000000   20.0000000000000000
    15     1
Selective dynamics
Direct
  0.2500000000000000  0.2063844220612233  0.0892088379064492   T   T   T
 -0.0019063581437090  0.2874186506140752  0.0956802584575215   T   T   T
  0.2500000000000000  0.0413761702383243  0.0808940074384735   T   T   T
 -0.0024773036763955  0.7958930550497190  0.0959498184838050   T   T   T
 -0.0018198994379701  0.9586954487064738  0.0814157405551590   T   T   T
  0.7500000000000000  0.2069795348540523  0.0847692110755471   T   T   T
  0.5019063581437092  0.2874186506140752  0.0956802584575215   T   T   T
  0.7500000000000000  0.0420071993512912  0.0782634016575538   T   T   T
  0.7500000000000000  0.7093796267274065  0.1040706718569344   T   T   T
  0.5024773036763949  0.7958930550497190  0.0959498184838050   T   T   T
  0.7500000000000000  0.5402694565588833  0.1157033301728559   T   T   T
  0.5018198994379701  0.9586954487064738  0.0814157405551590   T   T   T
  0.5088042694026468  0.4447690747699662  0.1178048412940018   T   T   T
 -0.0088042694026467  0.4447690747699662  0.1178048412940018   T   T   T
  0.2500000000000000  0.7264327281154204  0.1110064538658267   T   T   T
  0.2500000000000000  0.5536184038129310  0.1768947684453920   T   T   T
 
  0.00000000E+00  0.00000000E+00  0.00000000E+00
  0.00000000E+00  0.00000000E+00  0.00000000E+00
  0.00000000E+00  0.00000000E+00  0.00000000E+00
  0.00000000E+00  0.00000000E+00  0.00000000E+00
  0.00000000E+00  0.00000000E+00  0.00000000E+00
  0.00000000E+00  0.00000000E+00  0.00000000E+00
  0.00000000E+00  0.00000000E+00  0.00000000E+00
  0.00000000E+00  0.00000000E+00  0.00000000E+00
  0.00000000E+00  0.00000000E+00  0.00000000E+00
  0.00000000E+00  0.00000000E+00  0.00000000E+00
  0.00000000E+00  0.00000000E+00  0.00000000E+00
  0.00000000E+00  0.00000000E+00  0.00000000E+00
  0.00000000E+00  0.00000000E+00  0.00000000E+00
  0.00000000E+00  0.00000000E+00  0.00000000E+00
  0.00000000E+00  0.00000000E+00  0.00000000E+00
  0.00000000E+00  0.00000000E+00  0.00000000E+00
