Title                                   
   1.00000000000000     
     8.5490480000000009    0.0000000000000000    0.0000000000000000
     0.0000000000000000    8.5490480000000009    0.0000000000000000
     0.0000000000000000    0.0000000000000000   20.0000000000000000
    19     5     1
Selective dynamics
Direct
  0.9082682981428278  0.2050282492598269  0.0973664877949006   T   T   T
  0.9087540691917988  0.5023418801598429  0.0977336058492697   T   T   T
  0.9101398862570953  0.8012614082658926  0.0971974431782747   T   T   T
  0.1967564735375309  0.0832466525187354  0.0972638554865780   T   T   T
  0.0756518170155917  0.2025345247456075  0.0972843692908584   T   T   T
  0.1565816811983554  0.6525692117539083  0.0976474646635935   T   T   T
  0.0787661352829650  0.5012960907242092  0.0976979798429087   T   T   T
  0.1564598274764062  0.3501764174692289  0.0977014780564893   T   T   T
  0.0778194073230107  0.7987781653048756  0.0972513638027188   T   T   T
  0.4931833256915006  0.0869860846007880  0.0977255744258623   T   T   T
  0.3429282821556349  0.1631927968054623  0.0976717276416240   T   T   T
  0.4922606729230654  0.9173210447533290  0.0976446580316855   T   T   T
  0.3427472436393837  0.8385410672328016  0.0976882462293134   T   T   T
  0.7880904442395699  0.0859328327268818  0.0973509053718403   T   T   T
  0.6414685810402522  0.1658927983283112  0.0978338015319644   T   T   T
  0.7883544622030126  0.9194357415588076  0.0972181953229101   T   T   T
  0.8313917677323981  0.6526603655901920  0.0976040487659703   T   T   T
  0.8296859195837686  0.3525273473124007  0.0978459545232669   T   T   T
  0.6418709050317957  0.8380010552743858  0.0976272269552220   T   T   T
  0.3188970468825251  0.3254036024957110  0.0981582944067822   T   T   T
  0.3187092490922331  0.6795077995897315  0.0981294882504370   T   T   T
  0.6664985171138718  0.3288390482876322  0.0984129274657921   T   T   T
  0.6680162742282071  0.6756009582482996  0.0980891479752310   T   T   T
  0.1974543781085252  0.9171428182722744  0.0972916473975307   T   T   T
  0.4946573349086683  0.5005720387208625  0.1002691077389558   T   T   T
 
  0.00000000E+00  0.00000000E+00  0.00000000E+00
  0.00000000E+00  0.00000000E+00  0.00000000E+00
  0.00000000E+00  0.00000000E+00  0.00000000E+00
  0.00000000E+00  0.00000000E+00  0.00000000E+00
  0.00000000E+00  0.00000000E+00  0.00000000E+00
  0.00000000E+00  0.00000000E+00  0.00000000E+00
  0.00000000E+00  0.00000000E+00  0.00000000E+00
  0.00000000E+00  0.00000000E+00  0.00000000E+00
  0.00000000E+00  0.00000000E+00  0.00000000E+00
  0.00000000E+00  0.00000000E+00  0.00000000E+00
  0.00000000E+00  0.00000000E+00  0.00000000E+00
  0.00000000E+00  0.00000000E+00  0.00000000E+00
  0.00000000E+00  0.00000000E+00  0.00000000E+00
  0.00000000E+00  0.00000000E+00  0.00000000E+00
  0.00000000E+00  0.00000000E+00  0.00000000E+00
  0.00000000E+00  0.00000000E+00  0.00000000E+00
  0.00000000E+00  0.00000000E+00  0.00000000E+00
  0.00000000E+00  0.00000000E+00  0.00000000E+00
  0.00000000E+00  0.00000000E+00  0.00000000E+00
  0.00000000E+00  0.00000000E+00  0.00000000E+00
  0.00000000E+00  0.00000000E+00  0.00000000E+00
  0.00000000E+00  0.00000000E+00  0.00000000E+00
  0.00000000E+00  0.00000000E+00  0.00000000E+00
  0.00000000E+00  0.00000000E+00  0.00000000E+00
  0.00000000E+00  0.00000000E+00  0.00000000E+00
