Title                                   
   1.00000000000000     
     9.8694509999999998    0.0000000000000000    0.0000000000000000
     0.0000000000000000    8.5490480000000009    0.0000000000000000
     0.0000000000000000    0.0000000000000000   20.0000000000000000
    27     4     1
Selective dynamics
Direct
  0.0563030591920515  0.0921864225025035  0.0855706895968822   T   T   T
  0.9305946375220941  0.1751224821942580  0.0874919617110218   T   T   T
  0.0572228567338868  0.9245782050553419  0.0839083884028367   T   T   T
  0.9286760523430838  0.3425123487485184  0.0898362689481490   T   T   T
  0.0559905531366647  0.5900689493266723  0.0861722426195844   T   T   T
  0.9321752097548694  0.6738147432340843  0.0859383272230085   T   T   T
  0.0570144181499959  0.4236691906817807  0.0899478093169517   T   T   T
  0.9321054508364651  0.8412861818266627  0.0849103277897387   T   T   T
  0.3055407130116988  0.0879558576048704  0.0894930511311172   T   T   T
  0.1825250556557149  0.1750023376674519  0.0887612354026347   T   T   T
  0.3072214916663774  0.9224853608664911  0.0892237520465069   T   T   T
  0.1831915613537933  0.3407392202283921  0.0931383379665217   T   T   T
  0.3059475339079676  0.5919842800684387  0.1022393404137394   T   T   T
  0.1820099350634951  0.6716867068025197  0.0878317524164565   T   T   T
  0.1822332415351278  0.8386650665840848  0.0859318086836622   T   T   T
  0.5563128997570659  0.0835182103032505  0.0967572654162609   T   T   T
  0.4310307051979106  0.1674531967881051  0.0946609294782666   T   T   T
  0.4348837228730382  0.3343176259667894  0.0993646840700428   T   T   T
  0.4280970236267232  0.8366003441263904  0.1029610580053755   T   T   T
  0.8068419919463630  0.0899335183324577  0.0884729564337727   T   T   T
  0.6800897800994598  0.1689903167605776  0.0929511614320125   T   T   T
  0.8071338244238904  0.9249691100730344  0.0878892958423715   T   T   T
  0.6752383378431192  0.3351871277900361  0.0959118902486953   T   T   T
  0.8050083581068321  0.5955875423039142  0.0931894119646881   T   T   T
  0.8010141016572954  0.4260684323008788  0.0934144381070451   T   T   T
  0.6849498324528593  0.8373676646610768  0.0966587973784571   T   T   T
  0.4197769705686651  0.6794128051537877  0.1215976938746291   T   T   T
  0.5530686731809979  0.4093382988745711  0.1043296624317030   T   T   T
  0.6893262914520726  0.6818095236686248  0.1033279876477121   T   T   T
  0.5574523324085948  0.9184170572780540  0.1016651166351955   T   T   T
  0.3088165765488285  0.4225033955646853  0.1010330384854996   T   T   T
  0.5618458079930037  0.5870144766616959  0.1810943188794770   T   T   T
 
  0.00000000E+00  0.00000000E+00  0.00000000E+00
  0.00000000E+00  0.00000000E+00  0.00000000E+00
  0.00000000E+00  0.00000000E+00  0.00000000E+00
  0.00000000E+00  0.00000000E+00  0.00000000E+00
  0.00000000E+00  0.00000000E+00  0.00000000E+00
  0.00000000E+00  0.00000000E+00  0.00000000E+00
  0.00000000E+00  0.00000000E+00  0.00000000E+00
  0.00000000E+00  0.00000000E+00  0.00000000E+00
  0.00000000E+00  0.00000000E+00  0.00000000E+00
  0.00000000E+00  0.00000000E+00  0.00000000E+00
  0.00000000E+00  0.00000000E+00  0.00000000E+00
  0.00000000E+00  0.00000000E+00  0.00000000E+00
  0.00000000E+00  0.00000000E+00  0.00000000E+00
  0.00000000E+00  0.00000000E+00  0.00000000E+00
  0.00000000E+00  0.00000000E+00  0.00000000E+00
  0.00000000E+00  0.00000000E+00  0.00000000E+00
  0.00000000E+00  0.00000000E+00  0.00000000E+00
  0.00000000E+00  0.00000000E+00  0.00000000E+00
  0.00000000E+00  0.00000000E+00  0.00000000E+00
  0.00000000E+00  0.00000000E+00  0.00000000E+00
  0.00000000E+00  0.00000000E+00  0.00000000E+00
  0.00000000E+00  0.00000000E+00  0.00000000E+00
  0.00000000E+00  0.00000000E+00  0.00000000E+00
  0.00000000E+00  0.00000000E+00  0.00000000E+00
  0.00000000E+00  0.00000000E+00  0.00000000E+00
  0.00000000E+00  0.00000000E+00  0.00000000E+00
  0.00000000E+00  0.00000000E+00  0.00000000E+00
  0.00000000E+00  0.00000000E+00  0.00000000E+00
  0.00000000E+00  0.00000000E+00  0.00000000E+00
  0.00000000E+00  0.00000000E+00  0.00000000E+00
  0.00000000E+00  0.00000000E+00  0.00000000E+00
  0.00000000E+00  0.00000000E+00  0.00000000E+00
