Title                                   
   1.00000000000000     
     9.8694509999999998    0.0000000000000000    0.0000000000000000
     0.0000000000000000    8.5490480000000009    0.0000000000000000
     0.0000000000000000    0.0000000000000000   20.0000000000000000
    29     2     1
Selective dynamics
Direct
  0.0547731797022955  0.0906285120451782  0.0875166776768977   T   T   T
  0.9292970866533520  0.1719132526346945  0.0887879996027777   T   T   T
  0.0532220536619191  0.9235192660942280  0.0887274126275323   T   T   T
  0.9291470356316124  0.3394484912618893  0.0906204150766306   T   T   T
  0.0543545114018812  0.5889526981448442  0.0882751017973940   T   T   T
  0.9292845400242717  0.6715330318841931  0.0935021214967616   T   T   T
  0.0558670823531741  0.4229511755107138  0.0884258022632165   T   T   T
  0.9293529809559261  0.8385550821433932  0.0931010468240011   T   T   T
  0.3043073695117058  0.0903106496671249  0.0880234349217452   T   T   T
  0.1806973056451716  0.1745791078096109  0.0866342818090903   T   T   T
  0.3022049837701874  0.9238426395478621  0.0887044270936449   T   T   T
  0.1839494963818698  0.3425629027197022  0.0862826566497564   T   T   T
  0.3074527934188864  0.5959939472920515  0.0869889807832110   T   T   T
  0.1788403881889107  0.6738959363640732  0.0869011754187813   T   T   T
  0.3107035293211695  0.4258209201869898  0.0856634105088530   T   T   T
  0.1780655034446194  0.8402668979840637  0.0874986879135713   T   T   T
  0.5541942780920204  0.0837136869837258  0.0929207673839883   T   T   T
  0.4307818845986423  0.1703855927054284  0.0889423868537502   T   T   T
  0.5528086706242143  0.9176663320592816  0.0985565966839321   T   T   T
  0.4374440691467110  0.3377526528644726  0.0869969151563316   T   T   T
  0.4244085077661996  0.8357302722457587  0.0926622045643826   T   T   T
  0.8049705219798989  0.0866686888701370  0.0916991335281567   T   T   T
  0.6794728321699751  0.1672457984926333  0.0927603928786067   T   T   T
  0.8042122974471108  0.9203103365212827  0.0953592936755494   T   T   T
  0.6761934086014431  0.3336838460117705  0.0925947057625187   T   T   T
  0.8052845482385329  0.5872988803945038  0.1043031888598523   T   T   T
  0.6917483057732597  0.6776242349270225  0.1251286753174377   T   T   T
  0.8036021534765472  0.4205518096545132  0.0967132808010481   T   T   T
  0.6791221615669092  0.8372236644645014  0.1059831435175412   T   T   T
  0.4239527437394113  0.6789311172801340  0.0903621688313060   T   T   T
  0.5587865131740083  0.4125679153929807  0.0883091898084006   T   T   T
  0.5911362635381706  0.6081166598412500  0.2067293239133676   T   T   T
 
  0.00000000E+00  0.00000000E+00  0.00000000E+00
  0.00000000E+00  0.00000000E+00  0.00000000E+00
  0.00000000E+00  0.00000000E+00  0.00000000E+00
  0.00000000E+00  0.00000000E+00  0.00000000E+00
  0.00000000E+00  0.00000000E+00  0.00000000E+00
  0.00000000E+00  0.00000000E+00  0.00000000E+00
  0.00000000E+00  0.00000000E+00  0.00000000E+00
  0.00000000E+00  0.00000000E+00  0.00000000E+00
  0.00000000E+00  0.00000000E+00  0.00000000E+00
  0.00000000E+00  0.00000000E+00  0.00000000E+00
  0.00000000E+00  0.00000000E+00  0.00000000E+00
  0.00000000E+00  0.00000000E+00  0.00000000E+00
  0.00000000E+00  0.00000000E+00  0.00000000E+00
  0.00000000E+00  0.00000000E+00  0.00000000E+00
  0.00000000E+00  0.00000000E+00  0.00000000E+00
  0.00000000E+00  0.00000000E+00  0.00000000E+00
  0.00000000E+00  0.00000000E+00  0.00000000E+00
  0.00000000E+00  0.00000000E+00  0.00000000E+00
  0.00000000E+00  0.00000000E+00  0.00000000E+00
  0.00000000E+00  0.00000000E+00  0.00000000E+00
  0.00000000E+00  0.00000000E+00  0.00000000E+00
  0.00000000E+00  0.00000000E+00  0.00000000E+00
  0.00000000E+00  0.00000000E+00  0.00000000E+00
  0.00000000E+00  0.00000000E+00  0.00000000E+00
  0.00000000E+00  0.00000000E+00  0.00000000E+00
  0.00000000E+00  0.00000000E+00  0.00000000E+00
  0.00000000E+00  0.00000000E+00  0.00000000E+00
  0.00000000E+00  0.00000000E+00  0.00000000E+00
  0.00000000E+00  0.00000000E+00  0.00000000E+00
  0.00000000E+00  0.00000000E+00  0.00000000E+00
  0.00000000E+00  0.00000000E+00  0.00000000E+00
  0.00000000E+00  0.00000000E+00  0.00000000E+00
