Title                                   
   1.00000000000000     
     9.8694509999999998    0.0000000000000000    0.0000000000000000
     0.0000000000000000    8.5490480000000009    0.0000000000000000
     0.0000000000000000    0.0000000000000000   20.0000000000000000
    27     3     1
Selective dynamics
Direct
  0.0556580244812744  0.0883631248930442  0.0812121306560501   T   T   T
  0.9308960952284909  0.1715497527800714  0.0827199617207041   T   T   T
  0.0570933690122566  0.9226907532481340  0.0825569038677780   T   T   T
  0.9330255623109009  0.3387241165978073  0.0820451650835984   T   T   T
  0.0556043673759117  0.5912352341004483  0.0808789504977100   T   T   T
  0.0558687870384848  0.4244775123868172  0.0790409216661139   T   T   T
  0.9318439016362076  0.8384616809559835  0.0850855671121337   T   T   T
  0.3065622617967559  0.0889644220817549  0.0913815977480244   T   T   T
  0.1814952992437932  0.1709537966583777  0.0836784323971593   T   T   T
  0.1795394345664836  0.3391182536251391  0.0834686401264172   T   T   T
  0.2988464630389440  0.5907263494553924  0.0976975445379090   T   T   T
  0.1793269851302857  0.6753156984335748  0.0858566132641904   T   T   T
  0.2995510745412505  0.4203441366766458  0.0966543058944350   T   T   T
  0.1823536086302659  0.8419706243301888  0.0861751562588084   T   T   T
  0.4295039455204644  0.1745560909149770  0.1024212420037921   T   T   T
  0.5554794265246186  0.9237739828607334  0.1062847529692111   T   T   T
  0.4216914292444927  0.3380082081650789  0.1106257635781051   T   T   T
  0.4195707160903175  0.6739059899063815  0.1127253212038719   T   T   T
  0.4272702135243433  0.8378447756373586  0.1051674016849234   T   T   T
  0.8060940777626967  0.0884859573615184  0.0903197189649914   T   T   T
  0.6833234031932526  0.1757921855810353  0.1011164505961461   T   T   T
  0.8068830814009650  0.9207249525050183  0.0915864949114325   T   T   T
  0.6910817370826881  0.3398020350299940  0.1085712939586835   T   T   T
  0.8134107309555085  0.5923051326160541  0.0963876105002636   T   T   T
  0.6928095503493750  0.6719638782466210  0.1105521229633174   T   T   T
  0.8136129793648684  0.4205825726889825  0.0944810201962974   T   T   T
  0.6822903140232174  0.8375992262265696  0.1034351352260344   T   T   T
  0.9339001085331384  0.6735693731677083  0.0846527031490753   T   T   T
  0.5569987729422876  0.0899296735770962  0.1048494275309019   T   T   T
  0.3046576617064675  0.9231154610965123  0.0924184336405628   T   T   T
  0.5568916177499962  0.5060200481950022  0.1269182160913846   T   T   T
 
  0.00000000E+00  0.00000000E+00  0.00000000E+00
  0.00000000E+00  0.00000000E+00  0.00000000E+00
  0.00000000E+00  0.00000000E+00  0.00000000E+00
  0.00000000E+00  0.00000000E+00  0.00000000E+00
  0.00000000E+00  0.00000000E+00  0.00000000E+00
  0.00000000E+00  0.00000000E+00  0.00000000E+00
  0.00000000E+00  0.00000000E+00  0.00000000E+00
  0.00000000E+00  0.00000000E+00  0.00000000E+00
  0.00000000E+00  0.00000000E+00  0.00000000E+00
  0.00000000E+00  0.00000000E+00  0.00000000E+00
  0.00000000E+00  0.00000000E+00  0.00000000E+00
  0.00000000E+00  0.00000000E+00  0.00000000E+00
  0.00000000E+00  0.00000000E+00  0.00000000E+00
  0.00000000E+00  0.00000000E+00  0.00000000E+00
  0.00000000E+00  0.00000000E+00  0.00000000E+00
  0.00000000E+00  0.00000000E+00  0.00000000E+00
  0.00000000E+00  0.00000000E+00  0.00000000E+00
  0.00000000E+00  0.00000000E+00  0.00000000E+00
  0.00000000E+00  0.00000000E+00  0.00000000E+00
  0.00000000E+00  0.00000000E+00  0.00000000E+00
  0.00000000E+00  0.00000000E+00  0.00000000E+00
  0.00000000E+00  0.00000000E+00  0.00000000E+00
  0.00000000E+00  0.00000000E+00  0.00000000E+00
  0.00000000E+00  0.00000000E+00  0.00000000E+00
  0.00000000E+00  0.00000000E+00  0.00000000E+00
  0.00000000E+00  0.00000000E+00  0.00000000E+00
  0.00000000E+00  0.00000000E+00  0.00000000E+00
  0.00000000E+00  0.00000000E+00  0.00000000E+00
  0.00000000E+00  0.00000000E+00  0.00000000E+00
  0.00000000E+00  0.00000000E+00  0.00000000E+00
  0.00000000E+00  0.00000000E+00  0.00000000E+00
