Title                                   
   1.00000000000000     
     9.8694509999999998    0.0000000000000000    0.0000000000000000
     0.0000000000000000    8.5490480000000009    0.0000000000000000
     0.0000000000000000    0.0000000000000000   20.0000000000000000
    28     3     1
Selective dynamics
Direct
  0.0560823898381606  0.0916702330490989  0.0850169921770656   T   T   T
  0.9314952323347144  0.1727041625444104  0.0857959014865327   T   T   T
  0.0564641052769728  0.9242669285464226  0.0854413842275061   T   T   T
  0.9313036217535613  0.3398297290604277  0.0889310769269070   T   T   T
  0.0569226320256081  0.5901665233253003  0.0875177868912619   T   T   T
  0.9319777440649347  0.6722082291348361  0.0902392924968427   T   T   T
  0.0579408867015580  0.4230620950100561  0.0884616281610330   T   T   T
  0.9314980964896903  0.8389421882801973  0.0881157406834259   T   T   T
  0.3053173500296706  0.0897926440963762  0.0883140641028814   T   T   T
  0.1820471487124354  0.1744196372601014  0.0871566686640000   T   T   T
  0.1847815778576825  0.3417787890955590  0.0898608687283504   T   T   T
  0.3048564041215112  0.5947206583914432  0.0983443935288656   T   T   T
  0.1808193936212441  0.6753126656689188  0.0889302276734608   T   T   T
  0.3112864377776355  0.4269277439565850  0.0967854172946359   T   T   T
  0.1799690686859170  0.8419124265183088  0.0875362639433050   T   T   T
  0.5558560716517918  0.0852900384448115  0.0924147533899796   T   T   T
  0.4310203813818869  0.1697799493987157  0.0920613252544961   T   T   T
  0.5532895182605606  0.9201336202512216  0.0975158097222603   T   T   T
  0.4347600500975174  0.3349184794890402  0.0993293931702810   T   T   T
  0.4245406085845069  0.8423665137054140  0.0992615255791281   T   T   T
  0.8068211288024900  0.0874705419542636  0.0867332300121911   T   T   T
  0.6814966111063209  0.1676590989046499  0.0903116745940972   T   T   T
  0.8061116023444298  0.9217880116517676  0.0898640724251785   T   T   T
  0.6810371022076387  0.3323120204312811  0.0978691676055233   T   T   T
  0.8083664864036367  0.5886314402769958  0.1003467140177595   T   T   T
  0.6914831793915598  0.6778093952460892  0.1157176190219711   T   T   T
  0.8057507146630565  0.4209483294406280  0.0962902763722795   T   T   T
  0.6814952830003631  0.8388018585500291  0.1004857707250461   T   T   T
  0.4167609422643760  0.6876565962314894  0.1123665887490899   T   T   T
  0.5597946957535006  0.4040098114254991  0.1105409175955427   T   T   T
  0.3039828722224098  0.9261134257264034  0.0890916365888173   T   T   T
  0.5543096625726652  0.5868422149336675  0.1590268181903186   T   T   T
 
  0.00000000E+00  0.00000000E+00  0.00000000E+00
  0.00000000E+00  0.00000000E+00  0.00000000E+00
  0.00000000E+00  0.00000000E+00  0.00000000E+00
  0.00000000E+00  0.00000000E+00  0.00000000E+00
  0.00000000E+00  0.00000000E+00  0.00000000E+00
  0.00000000E+00  0.00000000E+00  0.00000000E+00
  0.00000000E+00  0.00000000E+00  0.00000000E+00
  0.00000000E+00  0.00000000E+00  0.00000000E+00
  0.00000000E+00  0.00000000E+00  0.00000000E+00
  0.00000000E+00  0.00000000E+00  0.00000000E+00
  0.00000000E+00  0.00000000E+00  0.00000000E+00
  0.00000000E+00  0.00000000E+00  0.00000000E+00
  0.00000000E+00  0.00000000E+00  0.00000000E+00
  0.00000000E+00  0.00000000E+00  0.00000000E+00
  0.00000000E+00  0.00000000E+00  0.00000000E+00
  0.00000000E+00  0.00000000E+00  0.00000000E+00
  0.00000000E+00  0.00000000E+00  0.00000000E+00
  0.00000000E+00  0.00000000E+00  0.00000000E+00
  0.00000000E+00  0.00000000E+00  0.00000000E+00
  0.00000000E+00  0.00000000E+00  0.00000000E+00
  0.00000000E+00  0.00000000E+00  0.00000000E+00
  0.00000000E+00  0.00000000E+00  0.00000000E+00
  0.00000000E+00  0.00000000E+00  0.00000000E+00
  0.00000000E+00  0.00000000E+00  0.00000000E+00
  0.00000000E+00  0.00000000E+00  0.00000000E+00
  0.00000000E+00  0.00000000E+00  0.00000000E+00
  0.00000000E+00  0.00000000E+00  0.00000000E+00
  0.00000000E+00  0.00000000E+00  0.00000000E+00
  0.00000000E+00  0.00000000E+00  0.00000000E+00
  0.00000000E+00  0.00000000E+00  0.00000000E+00
  0.00000000E+00  0.00000000E+00  0.00000000E+00
  0.00000000E+00  0.00000000E+00  0.00000000E+00
