Title                                   
   1.00000000000000     
     9.8694509999999998    0.0000000000000000    0.0000000000000000
     0.0000000000000000    8.5490480000000009    0.0000000000000000
     0.0000000000000000    0.0000000000000000   20.0000000000000000
    25     5     1
Selective dynamics
Direct
  0.0557163153119100  0.0894134381653811  0.0929972299761446   T   T   T
  0.9320228602944768  0.1714455447446065  0.0937657815775313   T   T   T
  0.0573317799643519  0.9233801651383569  0.0932321789468838   T   T   T
  0.9340524664229971  0.3389517719477372  0.0931909994537364   T   T   T
  0.0566865955914866  0.5897736808893048  0.0914494746762221   T   T   T
  0.9342921263858538  0.6737573752790650  0.0932972451701898   T   T   T
  0.0567321000042863  0.4231966030443556  0.0913854203755468   T   T   T
  0.9324770099887603  0.8405320994145621  0.0939469452797469   T   T   T
  0.3058800727936810  0.0885650556388721  0.0964721755508053   T   T   T
  0.1805821739323484  0.1703196383317026  0.0937487289855160   T   T   T
  0.1788419088232930  0.3380612638213419  0.0931553473679986   T   T   T
  0.2993957526130526  0.5905615499721274  0.0969288958789348   T   T   T
  0.1793668995016589  0.6743659278446263  0.0932936280803087   T   T   T
  0.2997016505838317  0.4211670857013366  0.0969652011454188   T   T   T
  0.1811004824604397  0.8413812562193527  0.0939889793415653   T   T   T
  0.5563227990376992  0.0932658184388716  0.1006777398921490   T   T   T
  0.4286540958842499  0.1766700423890432  0.0999349551735928   T   T   T
  0.5551645303697483  0.9195770806319690  0.1005451027512884   T   T   T
  0.4280072778676850  0.8350442794681774  0.0997755485346356   T   T   T
  0.8060578195710578  0.0900098633674131  0.0963209917298626   T   T   T
  0.6834543712589616  0.1781241788599608  0.0997095662011647   T   T   T
  0.8062644227430674  0.9219780968986619  0.0963248286807251   T   T   T
  0.8130746076868280  0.5913267741249256  0.0968629939806931   T   T   T
  0.8129964952731135  0.4211231117430371  0.0968707811090185   T   T   T
  0.6831016901781490  0.8337882455365405  0.0995910246002649   T   T   T
  0.4200530335731191  0.3398641251061765  0.1015572251002464   T   T   T
  0.4196858602212722  0.6736085530390622  0.1015574610307493   T   T   T
  0.6917138729046916  0.3414533396202192  0.1012887411129076   T   T   T
  0.6920870007922973  0.6711259914121399  0.1012059591904848   T   T   T
  0.3062168550448183  0.9224939015431066  0.0964343123673841   T   T   T
  0.5561010729208128  0.5065491416679657  0.1044895367383417   T   T   T
 
  0.00000000E+00  0.00000000E+00  0.00000000E+00
  0.00000000E+00  0.00000000E+00  0.00000000E+00
  0.00000000E+00  0.00000000E+00  0.00000000E+00
  0.00000000E+00  0.00000000E+00  0.00000000E+00
  0.00000000E+00  0.00000000E+00  0.00000000E+00
  0.00000000E+00  0.00000000E+00  0.00000000E+00
  0.00000000E+00  0.00000000E+00  0.00000000E+00
  0.00000000E+00  0.00000000E+00  0.00000000E+00
  0.00000000E+00  0.00000000E+00  0.00000000E+00
  0.00000000E+00  0.00000000E+00  0.00000000E+00
  0.00000000E+00  0.00000000E+00  0.00000000E+00
  0.00000000E+00  0.00000000E+00  0.00000000E+00
  0.00000000E+00  0.00000000E+00  0.00000000E+00
  0.00000000E+00  0.00000000E+00  0.00000000E+00
  0.00000000E+00  0.00000000E+00  0.00000000E+00
  0.00000000E+00  0.00000000E+00  0.00000000E+00
  0.00000000E+00  0.00000000E+00  0.00000000E+00
  0.00000000E+00  0.00000000E+00  0.00000000E+00
  0.00000000E+00  0.00000000E+00  0.00000000E+00
  0.00000000E+00  0.00000000E+00  0.00000000E+00
  0.00000000E+00  0.00000000E+00  0.00000000E+00
  0.00000000E+00  0.00000000E+00  0.00000000E+00
  0.00000000E+00  0.00000000E+00  0.00000000E+00
  0.00000000E+00  0.00000000E+00  0.00000000E+00
  0.00000000E+00  0.00000000E+00  0.00000000E+00
  0.00000000E+00  0.00000000E+00  0.00000000E+00
  0.00000000E+00  0.00000000E+00  0.00000000E+00
  0.00000000E+00  0.00000000E+00  0.00000000E+00
  0.00000000E+00  0.00000000E+00  0.00000000E+00
  0.00000000E+00  0.00000000E+00  0.00000000E+00
  0.00000000E+00  0.00000000E+00  0.00000000E+00
