Title                                   
   1.00000000000000     
     9.8694509999999998    0.0000000000000000    0.0000000000000000
     0.0000000000000000    8.5490480000000009    0.0000000000000000
     0.0000000000000000    0.0000000000000000   20.0000000000000000
    28     2     1
Selective dynamics
Direct
  0.0558888244594043  0.0891043313023298  0.0875878540234275   T   T   T
  0.9306222120909377  0.1719600571543779  0.0885085410306931   T   T   T
  0.0570296754563616  0.9238339818857249  0.0878753264569840   T   T   T
  0.9323412888497536  0.3392054920813902  0.0872553756756538   T   T   T
  0.0566584187019811  0.5902641073089151  0.0851779394267027   T   T   T
  0.9325827707734391  0.6733286717232255  0.0876760605744150   T   T   T
  0.0567620329211593  0.4228273177751199  0.0849701422361033   T   T   T
  0.9314268589256104  0.8400575609091385  0.0890066741721034   T   T   T
  0.3073656767554666  0.0883188954431825  0.0929055943746781   T   T   T
  0.1824088023628269  0.1709185029363360  0.0885214511249190   T   T   T
  0.1810441723950066  0.3384700271085351  0.0874370848676383   T   T   T
  0.3039940125533243  0.5904506664852833  0.0941945668596585   T   T   T
  0.1813797013224094  0.6744238830775665  0.0877066285421553   T   T   T
  0.3039077291746655  0.4208714676552742  0.0938694527628427   T   T   T
  0.1824259798830175  0.8410956754889058  0.0890737426474925   T   T   T
  0.4318785018715298  0.1747432087198169  0.0993189129035365   T   T   T
  0.5550800215976112  0.9237783827603103  0.1019945389445272   T   T   T
  0.4283421161454322  0.3398425207736780  0.1031142173279186   T   T   T
  0.4267104372703809  0.6719661029422501  0.1044323873494832   T   T   T
  0.4299303581174565  0.8379987720393630  0.1007749564213540   T   T   T
  0.8046963646846940  0.0892506087412571  0.0928195882692602   T   T   T
  0.6799872972503991  0.1765533035647465  0.0987441644986889   T   T   T
  0.8056988361768807  0.9221407811198352  0.0933198458358902   T   T   T
  0.6832811372562428  0.3418828826864930  0.1020117734156818   T   T   T
  0.8090430646373754  0.5904216897258385  0.0934483042364793   T   T   T
  0.6845615579617670  0.6695267980322506  0.1030107975559362   T   T   T
  0.8090753500826322  0.4211129544049217  0.0930966518045840   T   T   T
  0.6801497859944958  0.8364459115504643  0.1000275093954138   T   T   T
  0.5566324600546769  0.0903003529814994  0.1011961256905630   T   T   T
  0.3057888731801555  0.9227343208851922  0.0932522063395862   T   T   T
  0.5564406810929095  0.5070457707367985  0.1286365852356565   T   T   T
 
  0.00000000E+00  0.00000000E+00  0.00000000E+00
  0.00000000E+00  0.00000000E+00  0.00000000E+00
  0.00000000E+00  0.00000000E+00  0.00000000E+00
  0.00000000E+00  0.00000000E+00  0.00000000E+00
  0.00000000E+00  0.00000000E+00  0.00000000E+00
  0.00000000E+00  0.00000000E+00  0.00000000E+00
  0.00000000E+00  0.00000000E+00  0.00000000E+00
  0.00000000E+00  0.00000000E+00  0.00000000E+00
  0.00000000E+00  0.00000000E+00  0.00000000E+00
  0.00000000E+00  0.00000000E+00  0.00000000E+00
  0.00000000E+00  0.00000000E+00  0.00000000E+00
  0.00000000E+00  0.00000000E+00  0.00000000E+00
  0.00000000E+00  0.00000000E+00  0.00000000E+00
  0.00000000E+00  0.00000000E+00  0.00000000E+00
  0.00000000E+00  0.00000000E+00  0.00000000E+00
  0.00000000E+00  0.00000000E+00  0.00000000E+00
  0.00000000E+00  0.00000000E+00  0.00000000E+00
  0.00000000E+00  0.00000000E+00  0.00000000E+00
  0.00000000E+00  0.00000000E+00  0.00000000E+00
  0.00000000E+00  0.00000000E+00  0.00000000E+00
  0.00000000E+00  0.00000000E+00  0.00000000E+00
  0.00000000E+00  0.00000000E+00  0.00000000E+00
  0.00000000E+00  0.00000000E+00  0.00000000E+00
  0.00000000E+00  0.00000000E+00  0.00000000E+00
  0.00000000E+00  0.00000000E+00  0.00000000E+00
  0.00000000E+00  0.00000000E+00  0.00000000E+00
  0.00000000E+00  0.00000000E+00  0.00000000E+00
  0.00000000E+00  0.00000000E+00  0.00000000E+00
  0.00000000E+00  0.00000000E+00  0.00000000E+00
  0.00000000E+00  0.00000000E+00  0.00000000E+00
  0.00000000E+00  0.00000000E+00  0.00000000E+00
