Title                                   
   1.00000000000000     
     8.5490480000000009    0.0000000000000000    0.0000000000000000
     0.0000000000000000    8.5490480000000009    0.0000000000000000
     0.0000000000000000    0.0000000000000000   20.0000000000000000
    21     3     1
Selective dynamics
Direct
  0.9106302583563611  0.2042950389487493  0.0976053538897992   T   T   T
  0.9054691261822589  0.5019491415518842  0.0964051711182860   T   T   T
  0.9081788173194867  0.7983038389004098  0.0985981196533630   T   T   T
  0.1975282682202895  0.0865534029091037  0.0988654213170938   T   T   T
  0.0777971524196452  0.2062656752251374  0.0988644894074451   T   T   T
  0.1955540092255293  0.9193844405216883  0.0976257481946046   T   T   T
  0.1548002262920918  0.6521818694278728  0.0952641746497255   T   T   T
  0.0759980796477504  0.5033409383703645  0.0963918890556459   T   T   T
  0.1570910383989657  0.3568927232310449  0.0979148419409674   T   T   T
  0.0757431782094597  0.7996013592838676  0.0975368343812132   T   T   T
  0.4945418225948759  0.0848176960228304  0.0963882038158578   T   T   T
  0.3481105613058027  0.1659257274295952  0.0979090308935081   T   T   T
  0.4931385306816386  0.9142709089539085  0.0964606643290555   T   T   T
  0.3430470287329513  0.8377974156744349  0.0953189417041475   T   T   T
  0.7908409827027326  0.0845037905207034  0.0975454807028718   T   T   T
  0.6434088220096780  0.1635649399510354  0.0952373786213071   T   T   T
  0.7895236075801814  0.9169456376203075  0.0986296270428715   T   T   T
  0.8273339441856771  0.6502315424244818  0.0979246943299057   T   T   T
  0.8290405792296384  0.3518072464613763  0.0952547466218532   T   T   T
  0.6414153225782161  0.8361181457072259  0.0979849458641834   T   T   T
  0.3245055535838550  0.3333310432962078  0.0966798204702051   T   T   T
  0.3179063119294487  0.6756370207874424  0.0915166689085053   T   T   T
  0.6668998840492825  0.3266325990249796  0.0914622699343538   T   T   T
  0.6651643108427160  0.6739654464320985  0.0977913325067051   T   T   T
  0.4917445837214592  0.5004724113232646  0.0625291506465032   T   T   T
 
  0.00000000E+00  0.00000000E+00  0.00000000E+00
  0.00000000E+00  0.00000000E+00  0.00000000E+00
  0.00000000E+00  0.00000000E+00  0.00000000E+00
  0.00000000E+00  0.00000000E+00  0.00000000E+00
  0.00000000E+00  0.00000000E+00  0.00000000E+00
  0.00000000E+00  0.00000000E+00  0.00000000E+00
  0.00000000E+00  0.00000000E+00  0.00000000E+00
  0.00000000E+00  0.00000000E+00  0.00000000E+00
  0.00000000E+00  0.00000000E+00  0.00000000E+00
  0.00000000E+00  0.00000000E+00  0.00000000E+00
  0.00000000E+00  0.00000000E+00  0.00000000E+00
  0.00000000E+00  0.00000000E+00  0.00000000E+00
  0.00000000E+00  0.00000000E+00  0.00000000E+00
  0.00000000E+00  0.00000000E+00  0.00000000E+00
  0.00000000E+00  0.00000000E+00  0.00000000E+00
  0.00000000E+00  0.00000000E+00  0.00000000E+00
  0.00000000E+00  0.00000000E+00  0.00000000E+00
  0.00000000E+00  0.00000000E+00  0.00000000E+00
  0.00000000E+00  0.00000000E+00  0.00000000E+00
  0.00000000E+00  0.00000000E+00  0.00000000E+00
  0.00000000E+00  0.00000000E+00  0.00000000E+00
  0.00000000E+00  0.00000000E+00  0.00000000E+00
  0.00000000E+00  0.00000000E+00  0.00000000E+00
  0.00000000E+00  0.00000000E+00  0.00000000E+00
  0.00000000E+00  0.00000000E+00  0.00000000E+00
