Title                                   
   1.00000000000000     
     9.8694509999999998    0.0000000000000000    0.0000000000000000
     0.0000000000000000    8.5490480000000009    0.0000000000000000
     0.0000000000000000    0.0000000000000000   20.0000000000000000
    26     5     1
Selective dynamics
Direct
  0.0556810701812709  0.0911389054827997  0.0833558952327118   T   T   T
  0.9308093592082173  0.1751733966756285  0.0834978674735540   T   T   T
  0.0573754841675205  0.9230749535717708  0.0842873269439415   T   T   T
  0.9293333098152352  0.3422229805635361  0.0864972470426891   T   T   T
  0.0559807867562841  0.5918214201111645  0.0868589611039268   T   T   T
  0.0554181507537819  0.4243728763389558  0.0870435260735851   T   T   T
  0.9331783038987402  0.8400319965306947  0.0864408750416031   T   T   T
  0.3055684956460674  0.0884179929980822  0.0881659637174311   T   T   T
  0.1816395634032018  0.1729958174449968  0.0858739498494220   T   T   T
  0.1817632134798940  0.3402992407967758  0.0890436542402664   T   T   T
  0.3023265415243135  0.5889677842298261  0.1030597734170919   T   T   T
  0.1806737670156969  0.6744344426038228  0.0905508871044914   T   T   T
  0.3077727268008639  0.4209083292281317  0.0989703951534005   T   T   T
  0.1826060138496276  0.8418578737460229  0.0878901475724050   T   T   T
  0.5568349144121544  0.0854481907871860  0.0924137017367152   T   T   T
  0.5559317862797003  0.9205960278698647  0.0998003726419853   T   T   T
  0.4308826007193403  0.3307132350176904  0.1021253929160015   T   T   T
  0.4267790222310476  0.8416094966649242  0.1057230414635299   T   T   T
  0.8064513987236073  0.0890684891268363  0.0840450802276953   T   T   T
  0.6799324813890154  0.1700218589089895  0.0882185412680740   T   T   T
  0.8082497969254827  0.9233107262296969  0.0875952865178862   T   T   T
  0.6797965150452216  0.3353353353641778  0.0970831319183969   T   T   T
  0.8098826629002859  0.5950416791119404  0.0986489500646693   T   T   T
  0.8024531988686413  0.4263756819198571  0.0941648750655920   T   T   T
  0.6847265414205536  0.8420636306498683  0.0997295689366602   T   T   T
  0.4159298091161223  0.6828500316608951  0.1218858261453510   T   T   T
  0.5542602507757199  0.3967995766460144  0.1159172435850156   T   T   T
  0.6995712955525416  0.6847917566932508  0.1161252727548424   T   T   T
  0.3053962847680857  0.9254934226184512  0.0907596660551221   T   T   T
  0.4292838532239005  0.1665130842171111  0.0925923872497561   T   T   T
  0.9328357344178958  0.6734514924257046  0.0883618338346626   T   T   T
  0.5603140667299749  0.5850442737653345  0.1689483576515408   T   T   T
 
  0.00000000E+00  0.00000000E+00  0.00000000E+00
  0.00000000E+00  0.00000000E+00  0.00000000E+00
  0.00000000E+00  0.00000000E+00  0.00000000E+00
  0.00000000E+00  0.00000000E+00  0.00000000E+00
  0.00000000E+00  0.00000000E+00  0.00000000E+00
  0.00000000E+00  0.00000000E+00  0.00000000E+00
  0.00000000E+00  0.00000000E+00  0.00000000E+00
  0.00000000E+00  0.00000000E+00  0.00000000E+00
  0.00000000E+00  0.00000000E+00  0.00000000E+00
  0.00000000E+00  0.00000000E+00  0.00000000E+00
  0.00000000E+00  0.00000000E+00  0.00000000E+00
  0.00000000E+00  0.00000000E+00  0.00000000E+00
  0.00000000E+00  0.00000000E+00  0.00000000E+00
  0.00000000E+00  0.00000000E+00  0.00000000E+00
  0.00000000E+00  0.00000000E+00  0.00000000E+00
  0.00000000E+00  0.00000000E+00  0.00000000E+00
  0.00000000E+00  0.00000000E+00  0.00000000E+00
  0.00000000E+00  0.00000000E+00  0.00000000E+00
  0.00000000E+00  0.00000000E+00  0.00000000E+00
  0.00000000E+00  0.00000000E+00  0.00000000E+00
  0.00000000E+00  0.00000000E+00  0.00000000E+00
  0.00000000E+00  0.00000000E+00  0.00000000E+00
  0.00000000E+00  0.00000000E+00  0.00000000E+00
  0.00000000E+00  0.00000000E+00  0.00000000E+00
  0.00000000E+00  0.00000000E+00  0.00000000E+00
  0.00000000E+00  0.00000000E+00  0.00000000E+00
  0.00000000E+00  0.00000000E+00  0.00000000E+00
  0.00000000E+00  0.00000000E+00  0.00000000E+00
  0.00000000E+00  0.00000000E+00  0.00000000E+00
  0.00000000E+00  0.00000000E+00  0.00000000E+00
  0.00000000E+00  0.00000000E+00  0.00000000E+00
  0.00000000E+00  0.00000000E+00  0.00000000E+00
