Title                                   
   1.00000000000000     
     9.8694509999999998    0.0000000000000000    0.0000000000000000
     0.0000000000000000    8.5490480000000009    0.0000000000000000
     0.0000000000000000    0.0000000000000000   20.0000000000000000
    27     4     1
Selective dynamics
Direct
  0.0561281504424520  0.0917700816349091  0.0835925773074963   T   T   T
  0.9305570996591638  0.1750791589489192  0.0865887875482572   T   T   T
  0.0571066531473716  0.9239644165802477  0.0831237410019683   T   T   T
  0.9287704646419708  0.3419571361406608  0.0907490104604522   T   T   T
  0.0557695012501515  0.5896656597326904  0.0870790543330169   T   T   T
  0.9321351914221624  0.6736794688478965  0.0886735730763780   T   T   T
  0.0566374250196938  0.4230954501952026  0.0898991626952386   T   T   T
  0.9321206633898105  0.8413351410140218  0.0858306057768473   T   T   T
  0.3055623079167554  0.0883132559116472  0.0848867783333947   T   T   T
  0.1821742644704139  0.1742070759102017  0.0854412213678510   T   T   T
  0.3074189667702497  0.9226038941038126  0.0867275196011359   T   T   T
  0.1818519703183658  0.3396534918997621  0.0907022276108436   T   T   T
  0.3049440357707408  0.5893301269707941  0.0994772392810522   T   T   T
  0.1815594576686370  0.6709850647721067  0.0880697707046370   T   T   T
  0.1824638309293910  0.8385590921756610  0.0852704411564384   T   T   T
  0.5561454450105635  0.0854953034263679  0.0957678568629597   T   T   T
  0.4307211580948230  0.1685152873834445  0.0918630045194084   T   T   T
  0.4310826210227633  0.3330752365459534  0.1001599934979075   T   T   T
  0.4293666532270293  0.8385458883972517  0.0989013781770007   T   T   T
  0.8067327938690916  0.0904346170420455  0.0872147563251151   T   T   T
  0.6803536102078316  0.1698453143078054  0.0941392282248151   T   T   T
  0.8071366529994818  0.9252630693593036  0.0874780665265147   T   T   T
  0.6777056795696574  0.3338659618230416  0.1018699284182925   T   T   T
  0.8076603387350223  0.5947983025139260  0.0993411680260075   T   T   T
  0.8012820277793805  0.4258589708422009  0.0980603727438116   T   T   T
  0.6840717476086210  0.8419229559150156  0.0979082449360538   T   T   T
  0.4202265408553564  0.6797317198785824  0.1185579285052796   T   T   T
  0.5516786226272792  0.4025011176870197  0.1170811802902518   T   T   T
  0.6936287785799389  0.6867066051079626  0.1140817776375537   T   T   T
  0.5577610782216759  0.9199868444970620  0.0983263835189728   T   T   T
  0.3083487792976128  0.4212918303939106  0.0975159580664966   T   T   T
  0.5605364894765489  0.5882084600405767  0.1712960634685674   T   T   T
 
  0.00000000E+00  0.00000000E+00  0.00000000E+00
  0.00000000E+00  0.00000000E+00  0.00000000E+00
  0.00000000E+00  0.00000000E+00  0.00000000E+00
  0.00000000E+00  0.00000000E+00  0.00000000E+00
  0.00000000E+00  0.00000000E+00  0.00000000E+00
  0.00000000E+00  0.00000000E+00  0.00000000E+00
  0.00000000E+00  0.00000000E+00  0.00000000E+00
  0.00000000E+00  0.00000000E+00  0.00000000E+00
  0.00000000E+00  0.00000000E+00  0.00000000E+00
  0.00000000E+00  0.00000000E+00  0.00000000E+00
  0.00000000E+00  0.00000000E+00  0.00000000E+00
  0.00000000E+00  0.00000000E+00  0.00000000E+00
  0.00000000E+00  0.00000000E+00  0.00000000E+00
  0.00000000E+00  0.00000000E+00  0.00000000E+00
  0.00000000E+00  0.00000000E+00  0.00000000E+00
  0.00000000E+00  0.00000000E+00  0.00000000E+00
  0.00000000E+00  0.00000000E+00  0.00000000E+00
  0.00000000E+00  0.00000000E+00  0.00000000E+00
  0.00000000E+00  0.00000000E+00  0.00000000E+00
  0.00000000E+00  0.00000000E+00  0.00000000E+00
  0.00000000E+00  0.00000000E+00  0.00000000E+00
  0.00000000E+00  0.00000000E+00  0.00000000E+00
  0.00000000E+00  0.00000000E+00  0.00000000E+00
  0.00000000E+00  0.00000000E+00  0.00000000E+00
  0.00000000E+00  0.00000000E+00  0.00000000E+00
  0.00000000E+00  0.00000000E+00  0.00000000E+00
  0.00000000E+00  0.00000000E+00  0.00000000E+00
  0.00000000E+00  0.00000000E+00  0.00000000E+00
  0.00000000E+00  0.00000000E+00  0.00000000E+00
  0.00000000E+00  0.00000000E+00  0.00000000E+00
  0.00000000E+00  0.00000000E+00  0.00000000E+00
  0.00000000E+00  0.00000000E+00  0.00000000E+00
