Title                                   
   1.00000000000000     
     9.8694509999999998    0.0000000000000000    0.0000000000000000
     0.0000000000000000    8.5490480000000009    0.0000000000000000
     0.0000000000000000    0.0000000000000000   20.0000000000000000
    30     1     1
Selective dynamics
Direct
  0.0557141049393838  0.0905402515251678  0.0804639398464505   T   T   T
  0.9312099901470776  0.1729799256520677  0.0830007342208437   T   T   T
  0.0570603543947218  0.9237218372625032  0.0797819616625631   T   T   T
  0.9307869384996460  0.3403810211574210  0.0876875842803109   T   T   T
  0.0568393753849364  0.5899740082224417  0.0833505630627512   T   T   T
  0.9323981884639168  0.6725659569498954  0.0852704966077397   T   T   T
  0.0569081195980335  0.4230983997537388  0.0854939705797087   T   T   T
  0.9319212917945695  0.8392743061010373  0.0822124778905697   T   T   T
  0.3052459498929627  0.0883704712664948  0.0853776054231424   T   T   T
  0.1814402515939267  0.1724353299378779  0.0833737369095188   T   T   T
  0.1825410520030431  0.3399565826905696  0.0875673608763734   T   T   T
  0.3037237347137621  0.5914423438997005  0.1002765635615432   T   T   T
  0.1820164727033362  0.6739612609190937  0.0854339630559553   T   T   T
  0.3058891668661632  0.4227248024415733  0.0983563460306875   T   T   T
  0.1818228218768276  0.8407958631701855  0.0827069526263435   T   T   T
  0.5560574788335177  0.0866206938364888  0.0919066304567358   T   T   T
  0.4302428344552476  0.1696620090340302  0.0914012262316739   T   T   T
  0.5547020074911806  0.9219832360499154  0.0982245082521250   T   T   T
  0.4310317779943970  0.3349132884666066  0.1025747147967145   T   T   T
  0.4180699501611930  0.6823520083969036  0.1184735895395903   T   T   T
  0.5561339543018413  0.4086243904125202  0.1176484994317066   T   T   T
  0.4259542459057128  0.8411029573426706  0.1017275943923692   T   T   T
  0.8064588477034188  0.0887324919360234  0.0841416710620081   T   T   T
  0.6815109495351949  0.1706077582903854  0.0903052188856157   T   T   T
  0.8064778886383203  0.9226507562040568  0.0852554438821985   T   T   T
  0.6807139022539522  0.3352004880682529  0.1018484153053040   T   T   T
  0.8091060400421147  0.5909611091502176  0.0991870989711501   T   T   T
  0.6918675870606347  0.6786892405803689  0.1149238274082806   T   T   T
  0.8072502619330206  0.4220134142504781  0.0980347251793516   T   T   T
  0.6829663014034478  0.8390747167749344  0.0988867902269050   T   T   T
  0.3050544901705245  0.9242856459065913  0.0860545585713018   T   T   T
  0.5605226692439810  0.5905494343497969  0.1947262307725029   T   T   T
 
  0.00000000E+00  0.00000000E+00  0.00000000E+00
  0.00000000E+00  0.00000000E+00  0.00000000E+00
  0.00000000E+00  0.00000000E+00  0.00000000E+00
  0.00000000E+00  0.00000000E+00  0.00000000E+00
  0.00000000E+00  0.00000000E+00  0.00000000E+00
  0.00000000E+00  0.00000000E+00  0.00000000E+00
  0.00000000E+00  0.00000000E+00  0.00000000E+00
  0.00000000E+00  0.00000000E+00  0.00000000E+00
  0.00000000E+00  0.00000000E+00  0.00000000E+00
  0.00000000E+00  0.00000000E+00  0.00000000E+00
  0.00000000E+00  0.00000000E+00  0.00000000E+00
  0.00000000E+00  0.00000000E+00  0.00000000E+00
  0.00000000E+00  0.00000000E+00  0.00000000E+00
  0.00000000E+00  0.00000000E+00  0.00000000E+00
  0.00000000E+00  0.00000000E+00  0.00000000E+00
  0.00000000E+00  0.00000000E+00  0.00000000E+00
  0.00000000E+00  0.00000000E+00  0.00000000E+00
  0.00000000E+00  0.00000000E+00  0.00000000E+00
  0.00000000E+00  0.00000000E+00  0.00000000E+00
  0.00000000E+00  0.00000000E+00  0.00000000E+00
  0.00000000E+00  0.00000000E+00  0.00000000E+00
  0.00000000E+00  0.00000000E+00  0.00000000E+00
  0.00000000E+00  0.00000000E+00  0.00000000E+00
  0.00000000E+00  0.00000000E+00  0.00000000E+00
  0.00000000E+00  0.00000000E+00  0.00000000E+00
  0.00000000E+00  0.00000000E+00  0.00000000E+00
  0.00000000E+00  0.00000000E+00  0.00000000E+00
  0.00000000E+00  0.00000000E+00  0.00000000E+00
  0.00000000E+00  0.00000000E+00  0.00000000E+00
  0.00000000E+00  0.00000000E+00  0.00000000E+00
  0.00000000E+00  0.00000000E+00  0.00000000E+00
  0.00000000E+00  0.00000000E+00  0.00000000E+00
