Title                                   
   1.00000000000000     
     8.5490480000000009    0.0000000000000000    0.0000000000000000
     0.0000000000000000    8.5490480000000009    0.0000000000000000
     0.0000000000000000    0.0000000000000000   20.0000000000000000
    21     3     1
Selective dynamics
Direct
  0.9087696161609791  0.2055025826113091  0.0976057355546838   T   T   T
  0.9025426635638701  0.5025806672414441  0.0976650522579474   T   T   T
  0.9107730731993542  0.8011644706178657  0.0976401745967084   T   T   T
  0.2012447568551293  0.0829186845024914  0.0978190194774208   T   T   T
  0.0755225433251730  0.2055227206946796  0.0976784437488561   T   T   T
  0.1556446794294827  0.6485314836543500  0.0976674127369434   T   T   T
  0.0717934765634450  0.5013411326161364  0.0976477409088942   T   T   T
  0.1542600128104928  0.3552086071927871  0.0976939580326987   T   T   T
  0.0787516253038309  0.7959381552353471  0.0976935152740952   T   T   T
  0.4945680925106261  0.0868320684240211  0.0978336356474552   T   T   T
  0.3483088801278059  0.1653550592369235  0.0978914574725241   T   T   T
  0.4938312202065802  0.9165689430017366  0.0977629427236535   T   T   T
  0.3485666544154025  0.8356215692893568  0.0978270643795226   T   T   T
  0.7883479048543925  0.0861906925018495  0.0976214251793810   T   T   T
  0.6420357662840680  0.1669302905198466  0.0978035522485491   T   T   T
  0.7893457360122981  0.9189053049813167  0.0976112103382420   T   T   T
  0.8264939051112596  0.6521120833048456  0.0977418689766182   T   T   T
  0.8243478873355706  0.3537610573926096  0.0977430635079298   T   T   T
  0.6426025856967030  0.8365480006341748  0.0977248053912056   T   T   T
  0.3248880337138423  0.3378489386727111  0.0978043457886540   T   T   T
  0.3248961640524969  0.6660269822177581  0.0977344835671921   T   T   T
  0.6634162740183408  0.3293451465274211  0.0979260908988080   T   T   T
  0.6652697460950153  0.6755750652714810  0.0978789631511839   T   T   T
  0.2019206362022636  0.9178405558519136  0.0978565372255271   T   T   T
  0.4872700661515705  0.5006197378056456  0.0978325009152789   T   T   T
 
  0.00000000E+00  0.00000000E+00  0.00000000E+00
  0.00000000E+00  0.00000000E+00  0.00000000E+00
  0.00000000E+00  0.00000000E+00  0.00000000E+00
  0.00000000E+00  0.00000000E+00  0.00000000E+00
  0.00000000E+00  0.00000000E+00  0.00000000E+00
  0.00000000E+00  0.00000000E+00  0.00000000E+00
  0.00000000E+00  0.00000000E+00  0.00000000E+00
  0.00000000E+00  0.00000000E+00  0.00000000E+00
  0.00000000E+00  0.00000000E+00  0.00000000E+00
  0.00000000E+00  0.00000000E+00  0.00000000E+00
  0.00000000E+00  0.00000000E+00  0.00000000E+00
  0.00000000E+00  0.00000000E+00  0.00000000E+00
  0.00000000E+00  0.00000000E+00  0.00000000E+00
  0.00000000E+00  0.00000000E+00  0.00000000E+00
  0.00000000E+00  0.00000000E+00  0.00000000E+00
  0.00000000E+00  0.00000000E+00  0.00000000E+00
  0.00000000E+00  0.00000000E+00  0.00000000E+00
  0.00000000E+00  0.00000000E+00  0.00000000E+00
  0.00000000E+00  0.00000000E+00  0.00000000E+00
  0.00000000E+00  0.00000000E+00  0.00000000E+00
  0.00000000E+00  0.00000000E+00  0.00000000E+00
  0.00000000E+00  0.00000000E+00  0.00000000E+00
  0.00000000E+00  0.00000000E+00  0.00000000E+00
  0.00000000E+00  0.00000000E+00  0.00000000E+00
  0.00000000E+00  0.00000000E+00  0.00000000E+00
