Title                                   
   1.00000000000000     
     9.8694509999999998    0.0000000000000000    0.0000000000000000
     0.0000000000000000    8.5490480000000009    0.0000000000000000
     0.0000000000000000    0.0000000000000000   20.0000000000000000
    29     2     1
Selective dynamics
Direct
  0.0565301525923033  0.0905753410774216  0.0828593253560449   T   T   T
  0.9309985594760191  0.1728725228796323  0.0860589863630883   T   T   T
  0.0566551368470118  0.9231678460876800  0.0819164284364114   T   T   T
  0.9306153203541182  0.3400511047506282  0.0905367137894822   T   T   T
  0.0562855179760321  0.5894370778009776  0.0860968022088821   T   T   T
  0.9318291856890396  0.6728030627828062  0.0886415957602260   T   T   T
  0.0571380068686161  0.4231595912375439  0.0886294334251616   T   T   T
  0.9311845865173981  0.8398284440246748  0.0848868646312428   T   T   T
  0.3059569359265893  0.0889189377030446  0.0855658301635628   T   T   T
  0.1824340479946851  0.1739285958973468  0.0852621987174177   T   T   T
  0.3072297193089492  0.9229553924151194  0.0860207548362032   T   T   T
  0.1827953787970548  0.3408277377378482  0.0898623034933333   T   T   T
  0.3051742712552563  0.5900951060818648  0.0980448648196840   T   T   T
  0.1816212337287898  0.6715458525903938  0.0861875779341133   T   T   T
  0.1820414640256796  0.8386813538327742  0.0836797216542573   T   T   T
  0.5556035398092413  0.0868731376093660  0.0940762227977559   T   T   T
  0.4306530384722846  0.1708983760531082  0.0917623226767227   T   T   T
  0.4307511875790317  0.3364015831401574  0.1013514728909201   T   T   T
  0.4296817862100882  0.8395949281776646  0.0980645577155172   T   T   T
  0.8068706952595801  0.0894374144493235  0.0870707824125165   T   T   T
  0.6809056502000054  0.1697657021749659  0.0939595232015752   T   T   T
  0.8055840184740106  0.9234326157715621  0.0872114231996984   T   T   T
  0.6801546694685159  0.3346140297136816  0.1043478781676968   T   T   T
  0.8086426091617340  0.5914968538257335  0.1018668732600626   T   T   T
  0.8060459020965666  0.4223494286842590  0.1003515152407339   T   T   T
  0.6822399153723903  0.8410623416643579  0.0989031665106223   T   T   T
  0.4216074949125460  0.6788999326510904  0.1164664148572400   T   T   T
  0.5537588223837038  0.4085583982344112  0.1197541316681985   T   T   T
  0.6909732893402387  0.6821523079477029  0.1176311035873426   T   T   T
  0.5552488773406863  0.9218055544341868  0.0978082163346299   T   T   T
  0.3056306239018905  0.4226939584720675  0.0976426880448558   T   T   T
  0.5567973626599481  0.5913614700966071  0.1731573058448166   T   T   T
 
  0.00000000E+00  0.00000000E+00  0.00000000E+00
  0.00000000E+00  0.00000000E+00  0.00000000E+00
  0.00000000E+00  0.00000000E+00  0.00000000E+00
  0.00000000E+00  0.00000000E+00  0.00000000E+00
  0.00000000E+00  0.00000000E+00  0.00000000E+00
  0.00000000E+00  0.00000000E+00  0.00000000E+00
  0.00000000E+00  0.00000000E+00  0.00000000E+00
  0.00000000E+00  0.00000000E+00  0.00000000E+00
  0.00000000E+00  0.00000000E+00  0.00000000E+00
  0.00000000E+00  0.00000000E+00  0.00000000E+00
  0.00000000E+00  0.00000000E+00  0.00000000E+00
  0.00000000E+00  0.00000000E+00  0.00000000E+00
  0.00000000E+00  0.00000000E+00  0.00000000E+00
  0.00000000E+00  0.00000000E+00  0.00000000E+00
  0.00000000E+00  0.00000000E+00  0.00000000E+00
  0.00000000E+00  0.00000000E+00  0.00000000E+00
  0.00000000E+00  0.00000000E+00  0.00000000E+00
  0.00000000E+00  0.00000000E+00  0.00000000E+00
  0.00000000E+00  0.00000000E+00  0.00000000E+00
  0.00000000E+00  0.00000000E+00  0.00000000E+00
  0.00000000E+00  0.00000000E+00  0.00000000E+00
  0.00000000E+00  0.00000000E+00  0.00000000E+00
  0.00000000E+00  0.00000000E+00  0.00000000E+00
  0.00000000E+00  0.00000000E+00  0.00000000E+00
  0.00000000E+00  0.00000000E+00  0.00000000E+00
  0.00000000E+00  0.00000000E+00  0.00000000E+00
  0.00000000E+00  0.00000000E+00  0.00000000E+00
  0.00000000E+00  0.00000000E+00  0.00000000E+00
  0.00000000E+00  0.00000000E+00  0.00000000E+00
  0.00000000E+00  0.00000000E+00  0.00000000E+00
  0.00000000E+00  0.00000000E+00  0.00000000E+00
  0.00000000E+00  0.00000000E+00  0.00000000E+00
