Title                                   
   1.00000000000000     
     9.8694509999999998    0.0000000000000000    0.0000000000000000
     0.0000000000000000    8.5490480000000009    0.0000000000000000
     0.0000000000000000    0.0000000000000000   20.0000000000000000
    29     1     1
Selective dynamics
Direct
  0.0554447135368056  0.0893506982853103  0.0909299783660342   T   T   T
  0.9310000827205727  0.1722569484568887  0.0883504591316606   T   T   T
  0.0568050380107700  0.9237451065141000  0.0909312688875575   T   T   T
  0.9321068077700245  0.3393177282029204  0.0896623837041978   T   T   T
  0.0557777285576363  0.5903461964712988  0.0927811677407196   T   T   T
  0.9321138174852283  0.6733105266170155  0.0897090855864315   T   T   T
  0.0558756191889036  0.4229017714689179  0.0927783131276442   T   T   T
  0.9313527908606347  0.8396389447262859  0.0884114821708944   T   T   T
  0.3060954495028045  0.0894184057322129  0.0978201192341973   T   T   T
  0.1807378525619308  0.1711017477552186  0.0949802703189953   T   T   T
  0.1798555729110892  0.3384547862446115  0.0961175742607138   T   T   T
  0.3025397143417520  0.5910360294560861  0.1029711333566992   T   T   T
  0.1803141647305275  0.6747282044816050  0.0960053545088070   T   T   T
  0.3027742921240733  0.4215728658724252  0.1027743238115247   T   T   T
  0.1815981981833248  0.8414290329099053  0.0947551642822459   T   T   T
  0.5549385643698596  0.0886119146466247  0.0950046827827095   T   T   T
  0.4302774965343684  0.1764878375173916  0.1011245994299662   T   T   T
  0.5536505371369908  0.9236445006359995  0.0949438574844507   T   T   T
  0.4278547680056230  0.3433625612348689  0.1076087100645998   T   T   T
  0.4268917539105551  0.6704507193312657  0.1084821613636516   T   T   T
  0.4291033483599960  0.8351316100424294  0.1011723154176006   T   T   T
  0.8058155338200763  0.0889200228342621  0.0862899517059507   T   T   T
  0.6803913287214608  0.1725294159906625  0.0881922826675744   T   T   T
  0.8058181751590078  0.9224076411558624  0.0863402338053007   T   T   T
  0.6835610502408394  0.3368316869309897  0.0888120027567091   T   T   T
  0.8067242213963960  0.5913128222281651  0.0872082451127252   T   T   T
  0.6832516158170931  0.6746451584757756  0.0875734725412996   T   T   T
  0.8069118833269578  0.4207026603238968  0.0874295744724014   T   T   T
  0.6794970058536266  0.8385817368093982  0.0880483019587268   T   T   T
  0.3056827938653577  0.9226529672881598  0.0974334277244537   T   T   T
  0.5783730809957145  0.5059927513594653  0.1263231022235844   T   T   T
 
  0.00000000E+00  0.00000000E+00  0.00000000E+00
  0.00000000E+00  0.00000000E+00  0.00000000E+00
  0.00000000E+00  0.00000000E+00  0.00000000E+00
  0.00000000E+00  0.00000000E+00  0.00000000E+00
  0.00000000E+00  0.00000000E+00  0.00000000E+00
  0.00000000E+00  0.00000000E+00  0.00000000E+00
  0.00000000E+00  0.00000000E+00  0.00000000E+00
  0.00000000E+00  0.00000000E+00  0.00000000E+00
  0.00000000E+00  0.00000000E+00  0.00000000E+00
  0.00000000E+00  0.00000000E+00  0.00000000E+00
  0.00000000E+00  0.00000000E+00  0.00000000E+00
  0.00000000E+00  0.00000000E+00  0.00000000E+00
  0.00000000E+00  0.00000000E+00  0.00000000E+00
  0.00000000E+00  0.00000000E+00  0.00000000E+00
  0.00000000E+00  0.00000000E+00  0.00000000E+00
  0.00000000E+00  0.00000000E+00  0.00000000E+00
  0.00000000E+00  0.00000000E+00  0.00000000E+00
  0.00000000E+00  0.00000000E+00  0.00000000E+00
  0.00000000E+00  0.00000000E+00  0.00000000E+00
  0.00000000E+00  0.00000000E+00  0.00000000E+00
  0.00000000E+00  0.00000000E+00  0.00000000E+00
  0.00000000E+00  0.00000000E+00  0.00000000E+00
  0.00000000E+00  0.00000000E+00  0.00000000E+00
  0.00000000E+00  0.00000000E+00  0.00000000E+00
  0.00000000E+00  0.00000000E+00  0.00000000E+00
  0.00000000E+00  0.00000000E+00  0.00000000E+00
  0.00000000E+00  0.00000000E+00  0.00000000E+00
  0.00000000E+00  0.00000000E+00  0.00000000E+00
  0.00000000E+00  0.00000000E+00  0.00000000E+00
  0.00000000E+00  0.00000000E+00  0.00000000E+00
  0.00000000E+00  0.00000000E+00  0.00000000E+00
