Title                                   
   1.00000000000000     
     8.5490480000000009    0.0000000000000000    0.0000000000000000
     0.0000000000000000    8.5490480000000009    0.0000000000000000
     0.0000000000000000    0.0000000000000000   20.0000000000000000
    19     5     1
Selective dynamics
Direct
  0.9084497787488941  0.2066711095375100  0.0974780220289619   T   T   T
  0.9114644382974041  0.8008225320518744  0.0976351703079017   T   T   T
  0.1966442534388047  0.0827789682754363  0.0976932496165998   T   T   T
  0.0761077952582488  0.2014908735365933  0.0976896140115559   T   T   T
  0.1580152213179760  0.6498110864418540  0.0977167017367715   T   T   T
  0.0776787910318158  0.5008870684688250  0.0978324846791724   T   T   T
  0.1578664056119619  0.3507087579258913  0.0979367239466816   T   T   T
  0.0789551081867562  0.7994680815152433  0.0975521315110912   T   T   T
  0.3433963855895149  0.1649236692301491  0.0979022941677773   T   T   T
  0.4928250657103554  0.9182954295084114  0.0978100210418481   T   T   T
  0.3450559744725982  0.8363888395328261  0.0976891993479926   T   T   T
  0.7869902353060291  0.0860054385639022  0.0975069148100635   T   T   T
  0.6381063951187760  0.1683301085619251  0.0975858860686735   T   T   T
  0.7897042241994857  0.9195680824987809  0.0976854791125036   T   T   T
  0.8296230779739331  0.6517995381162343  0.0978026809556995   T   T   T
  0.8269962221313061  0.3556888581469008  0.0975493917447951   T   T   T
  0.6420379796007573  0.8369918637589081  0.0978767192285983   T   T   T
  0.3241410216482743  0.6727983995003369  0.0977849700315905   T   T   T
  0.6598362636534170  0.3352847841183171  0.0976026335747545   T   T   T
  0.4932721237247452  0.0868932897046652  0.0978595751327812   T   T   T
  0.9084616570111609  0.5024278083238483  0.0978059771240851   T   T   T
  0.3215761219591279  0.3263053377651986  0.0981096224283589   T   T   T
  0.6680791181556158  0.6729495201806467  0.0979615245559859   T   T   T
  0.1956965243070610  0.9162298536630465  0.0975632007108342   T   T   T
  0.4944318175459660  0.5012707010726886  0.0980748121249021   T   T   T
 
  0.00000000E+00  0.00000000E+00  0.00000000E+00
  0.00000000E+00  0.00000000E+00  0.00000000E+00
  0.00000000E+00  0.00000000E+00  0.00000000E+00
  0.00000000E+00  0.00000000E+00  0.00000000E+00
  0.00000000E+00  0.00000000E+00  0.00000000E+00
  0.00000000E+00  0.00000000E+00  0.00000000E+00
  0.00000000E+00  0.00000000E+00  0.00000000E+00
  0.00000000E+00  0.00000000E+00  0.00000000E+00
  0.00000000E+00  0.00000000E+00  0.00000000E+00
  0.00000000E+00  0.00000000E+00  0.00000000E+00
  0.00000000E+00  0.00000000E+00  0.00000000E+00
  0.00000000E+00  0.00000000E+00  0.00000000E+00
  0.00000000E+00  0.00000000E+00  0.00000000E+00
  0.00000000E+00  0.00000000E+00  0.00000000E+00
  0.00000000E+00  0.00000000E+00  0.00000000E+00
  0.00000000E+00  0.00000000E+00  0.00000000E+00
  0.00000000E+00  0.00000000E+00  0.00000000E+00
  0.00000000E+00  0.00000000E+00  0.00000000E+00
  0.00000000E+00  0.00000000E+00  0.00000000E+00
  0.00000000E+00  0.00000000E+00  0.00000000E+00
  0.00000000E+00  0.00000000E+00  0.00000000E+00
  0.00000000E+00  0.00000000E+00  0.00000000E+00
  0.00000000E+00  0.00000000E+00  0.00000000E+00
  0.00000000E+00  0.00000000E+00  0.00000000E+00
  0.00000000E+00  0.00000000E+00  0.00000000E+00
