Title                                   
   1.00000000000000     
     9.8694509999999998    0.0000000000000000    0.0000000000000000
     0.0000000000000000    8.5490480000000009    0.0000000000000000
     0.0000000000000000    0.0000000000000000   20.0000000000000000
    27     3     1
Selective dynamics
Direct
  0.0554694466359284  0.0906148138960358  0.0920140651943434   T   T   T
  0.9300212276231957  0.1739838540809452  0.0870961733528310   T   T   T
  0.0561008451159881  0.9233347784844653  0.0920955945836941   T   T   T
  0.9315996306265623  0.3401910885925734  0.0880811778290744   T   T   T
  0.0558677104740812  0.5896906487731781  0.0934798052306703   T   T   T
  0.9329585859341550  0.6749032008089150  0.0888032868696744   T   T   T
  0.0556238245284027  0.4229206033860684  0.0933311740370411   T   T   T
  0.9316269783384634  0.8404981062645992  0.0878355723983757   T   T   T
  0.3064411309817474  0.0897560215225384  0.1003020068477145   T   T   T
  0.1797613160346222  0.1721823683610923  0.0975522539240730   T   T   T
  0.3067067538774249  0.9213081703331660  0.0999623016605476   T   T   T
  0.1797048526338277  0.3393120293018050  0.0984225397580036   T   T   T
  0.3031309890427532  0.5892343976075091  0.1046921936238935   T   T   T
  0.1796398946637086  0.6727368860627372  0.0981282868177580   T   T   T
  0.3034516108037193  0.4214304844204618  0.1055068768029807   T   T   T
  0.1801430089571406  0.8398971344044549  0.0972136698409077   T   T   T
  0.5531057831916282  0.0893602734814913  0.0944979789357863   T   T   T
  0.4295120630683478  0.1771548553988299  0.1028974181533462   T   T   T
  0.5539658238590006  0.9182529408221758  0.0947193416680676   T   T   T
  0.4292965063683506  0.8317782664249451  0.1022409627958204   T   T   T
  0.8041474536868473  0.0897736554354709  0.0840018056150728   T   T   T
  0.6784755134355048  0.1724604735134737  0.0842758813845256   T   T   T
  0.8052778841397301  0.9232236809706258  0.0847569162437797   T   T   T
  0.6817570877098907  0.3380462022816820  0.0807674012393702   T   T   T
  0.8081833344871427  0.5937982349590021  0.0832206855884236   T   T   T
  0.8057283288995052  0.4242017091689028  0.0823048595572349   T   T   T
  0.6814281718375053  0.8386475706749584  0.0858613714814697   T   T   T
  0.4262039723290484  0.3417756027721492  0.1121850905019176   T   T   T
  0.6865736612898192  0.6766559246301929  0.0825894698008560   T   T   T
  0.4251630091758565  0.6684994487442336  0.1098966945108116   T   T   T
  0.5860686002501110  0.5052515744213353  0.1322321437519758   T   T   T
 
  0.00000000E+00  0.00000000E+00  0.00000000E+00
  0.00000000E+00  0.00000000E+00  0.00000000E+00
  0.00000000E+00  0.00000000E+00  0.00000000E+00
  0.00000000E+00  0.00000000E+00  0.00000000E+00
  0.00000000E+00  0.00000000E+00  0.00000000E+00
  0.00000000E+00  0.00000000E+00  0.00000000E+00
  0.00000000E+00  0.00000000E+00  0.00000000E+00
  0.00000000E+00  0.00000000E+00  0.00000000E+00
  0.00000000E+00  0.00000000E+00  0.00000000E+00
  0.00000000E+00  0.00000000E+00  0.00000000E+00
  0.00000000E+00  0.00000000E+00  0.00000000E+00
  0.00000000E+00  0.00000000E+00  0.00000000E+00
  0.00000000E+00  0.00000000E+00  0.00000000E+00
  0.00000000E+00  0.00000000E+00  0.00000000E+00
  0.00000000E+00  0.00000000E+00  0.00000000E+00
  0.00000000E+00  0.00000000E+00  0.00000000E+00
  0.00000000E+00  0.00000000E+00  0.00000000E+00
  0.00000000E+00  0.00000000E+00  0.00000000E+00
  0.00000000E+00  0.00000000E+00  0.00000000E+00
  0.00000000E+00  0.00000000E+00  0.00000000E+00
  0.00000000E+00  0.00000000E+00  0.00000000E+00
  0.00000000E+00  0.00000000E+00  0.00000000E+00
  0.00000000E+00  0.00000000E+00  0.00000000E+00
  0.00000000E+00  0.00000000E+00  0.00000000E+00
  0.00000000E+00  0.00000000E+00  0.00000000E+00
  0.00000000E+00  0.00000000E+00  0.00000000E+00
  0.00000000E+00  0.00000000E+00  0.00000000E+00
  0.00000000E+00  0.00000000E+00  0.00000000E+00
  0.00000000E+00  0.00000000E+00  0.00000000E+00
  0.00000000E+00  0.00000000E+00  0.00000000E+00
  0.00000000E+00  0.00000000E+00  0.00000000E+00
