Title                                   
   1.00000000000000     
     4.9440799999999996    0.0000000000000000    0.0000000000000000
     0.0000000000000000   17.1295089999999988    0.0000000000000000
     0.0000000000000000    0.0000000000000000   20.0000000000000000
    29     2     1
Selective dynamics
Direct
  0.0020677688734341  0.1043143493890076  0.2826336209429865   T   T   T
  0.2525313133646309  0.1460100621184593  0.2863303836806371   T   T   T
  0.2539688532102086  0.2285877334790791  0.2965735007660109   T   T   T
  0.0070709251759292  0.3505998112727691  0.3183268431134944   T   T   T
  0.0032339519808715  0.2696327863675491  0.3019721798690455   T   T   T
 -0.0086201712912219  0.6057477895556750  0.3112602166984174   T   T   T
  0.2464377770805594  0.7287067147912009  0.2931700326149571   T   T   T
 -0.0009660037586215  0.8539258295778007  0.2808057700838648   T   T   T
  0.2490399750211002  0.8957826880472992  0.2791829946712089   T   T   T
  0.2503097245442105  0.9792070129935452  0.2780333555472111   T   T   T
 -0.0020098921894436  0.7707993122439737  0.2872563833440983   T   T   T
  0.5020187934602823  0.1042883688312188  0.2826802504656792   T   T   T
  0.7523947854053860  0.1459650109417505  0.2856905971518536   T   T   T
  0.7537137975100160  0.2285510910811102  0.2948382861910614   T   T   T
  0.5007309200729797  0.0209880499888739  0.2786379701531989   T   T   T
  0.5041751215440705  0.3508145131803511  0.3190809825068107   T   T   T
  0.7569249948928608  0.3960279923884532  0.3237439604416976   T   T   T
  0.7499722996911219  0.4823232818862057  0.3264585484290252   T   T   T
  0.5053420454366171  0.2697240058919879  0.3023840860484481   T   T   T
  0.4989650346728299  0.6062621123501581  0.3134633468978547   T   T   T
  0.7474054009129162  0.7297319693681692  0.2911222594043756   T   T   T
  0.4982112815103515  0.8538472382371861  0.2809970961141445   T   T   T
  0.7489957802212112  0.8955856921394378  0.2787986215137264   T   T   T
  0.7502840718392019  0.9790853589459693  0.2777459275630499   T   T   T
  0.4967467625980089  0.7706597474346404  0.2876329287413694   T   T   T
  0.7454352730963180  0.6475019014913399  0.3022596320264406   T   T   T
  0.2457155170548554  0.6463686724923612  0.3068403689006892   T   T   T
  0.0006435369685515  0.0210183652620014  0.2785971207127320   T   T   T
  0.5103555538151595  0.5262302040689703  0.3323934887689826   T   T   T
  0.9853626829332058  0.5267487828974462  0.3253466549460624   T   T   T
  0.2557011466617543  0.3844817645257116  0.3327515429319485   T   T   T
  0.2346639776906519  0.4790327867602912  0.3855560487588701   T   T   T
 
  0.00000000E+00  0.00000000E+00  0.00000000E+00
  0.00000000E+00  0.00000000E+00  0.00000000E+00
  0.00000000E+00  0.00000000E+00  0.00000000E+00
  0.00000000E+00  0.00000000E+00  0.00000000E+00
  0.00000000E+00  0.00000000E+00  0.00000000E+00
  0.00000000E+00  0.00000000E+00  0.00000000E+00
  0.00000000E+00  0.00000000E+00  0.00000000E+00
  0.00000000E+00  0.00000000E+00  0.00000000E+00
  0.00000000E+00  0.00000000E+00  0.00000000E+00
  0.00000000E+00  0.00000000E+00  0.00000000E+00
  0.00000000E+00  0.00000000E+00  0.00000000E+00
  0.00000000E+00  0.00000000E+00  0.00000000E+00
  0.00000000E+00  0.00000000E+00  0.00000000E+00
  0.00000000E+00  0.00000000E+00  0.00000000E+00
  0.00000000E+00  0.00000000E+00  0.00000000E+00
  0.00000000E+00  0.00000000E+00  0.00000000E+00
  0.00000000E+00  0.00000000E+00  0.00000000E+00
  0.00000000E+00  0.00000000E+00  0.00000000E+00
  0.00000000E+00  0.00000000E+00  0.00000000E+00
  0.00000000E+00  0.00000000E+00  0.00000000E+00
  0.00000000E+00  0.00000000E+00  0.00000000E+00
  0.00000000E+00  0.00000000E+00  0.00000000E+00
  0.00000000E+00  0.00000000E+00  0.00000000E+00
  0.00000000E+00  0.00000000E+00  0.00000000E+00
  0.00000000E+00  0.00000000E+00  0.00000000E+00
  0.00000000E+00  0.00000000E+00  0.00000000E+00
  0.00000000E+00  0.00000000E+00  0.00000000E+00
  0.00000000E+00  0.00000000E+00  0.00000000E+00
  0.00000000E+00  0.00000000E+00  0.00000000E+00
  0.00000000E+00  0.00000000E+00  0.00000000E+00
  0.00000000E+00  0.00000000E+00  0.00000000E+00
  0.00000000E+00  0.00000000E+00  0.00000000E+00
