Title                                   
   1.00000000000000     
     4.9440799999999996    0.0000000000000000    0.0000000000000000
     0.0000000000000000   17.1295089999999988    0.0000000000000000
     0.0000000000000000    0.0000000000000000   20.0000000000000000
    27     3     1
Selective dynamics
Direct
  0.0000053300826276  0.1057619795586517  0.2961977426184759   T   T   T
  0.2489866555410350  0.1484554370804428  0.2967697724607082   T   T   T
  0.2484681390562959  0.2332074157457128  0.2993923768270932   T   T   T
 -0.0020954198059306  0.2751794914544617  0.3033875564789445   T   T   T
 -0.0007321554055325  0.6004118297632612  0.3030965549878123   T   T   T
  0.2479834034274576  0.7267431365604411  0.2971124852651317   T   T   T
 -0.0003347835920815  0.8531360527634091  0.2961013509068469   T   T   T
  0.2488922076357616  0.8953620039041490  0.2957155272425307   T   T   T
  0.2491577911650013  0.9795628028956976  0.2954320653281308   T   T   T
 -0.0003091438452535  0.7689539291068446  0.2968412683603853   T   T   T
  0.4990384192430865  0.1060148542355191  0.2951603361222471   T   T   T
  0.7503070878992802  0.1478059859230511  0.2955550315413393   T   T   T
  0.7510558432244776  0.2315884251531858  0.2967482869748057   T   T   T
  0.4988811451120868  0.0218244054286727  0.2949643589322514   T   T   T
  0.7486352557315762  0.3944312874895296  0.3007314730180941   T   T   T
  0.7464905845601102  0.4782799452381579  0.3013522299194828   T   T   T
  0.5014363270490680  0.2735310155244227  0.2959876907422317   T   T   T
  0.4958781095993602  0.6023168448731415  0.2948857344086666   T   T   T
  0.7492609248085469  0.7270280458651616  0.2957658256596394   T   T   T
  0.4977163388612502  0.8528910897842549  0.2954196584384469   T   T   T
  0.7486317460472967  0.8951498584274789  0.2954327759371614   T   T   T
  0.7489063254920835  0.9792964176752862  0.2951597190959293   T   T   T
  0.4975919979937167  0.7686848632682737  0.2955631824577600   T   T   T
  0.7493438214053144  0.6444400550025264  0.2958793458838052   T   T   T
 -0.0006420778185198  0.0215695733072334  0.2955690759298343   T   T   T
  0.4977039765664487  0.5209419519415205  0.2941280650793970   T   T   T
 -0.0011736834224766  0.5188043367125633  0.3153314064752217   T   T   T
  0.5088774292901757  0.3535077064103782  0.2925047099396536   T   T   T
 -0.0107379764104072  0.3555772266425278  0.3150670137094302   T   T   T
  0.2469697842881967  0.6440286064403500  0.2988952514607316   T   T   T
  0.2958135962199480  0.4368554258236891  0.3449121277977628   T   T   T
 
  0.00000000E+00  0.00000000E+00  0.00000000E+00
  0.00000000E+00  0.00000000E+00  0.00000000E+00
  0.00000000E+00  0.00000000E+00  0.00000000E+00
  0.00000000E+00  0.00000000E+00  0.00000000E+00
  0.00000000E+00  0.00000000E+00  0.00000000E+00
  0.00000000E+00  0.00000000E+00  0.00000000E+00
  0.00000000E+00  0.00000000E+00  0.00000000E+00
  0.00000000E+00  0.00000000E+00  0.00000000E+00
  0.00000000E+00  0.00000000E+00  0.00000000E+00
  0.00000000E+00  0.00000000E+00  0.00000000E+00
  0.00000000E+00  0.00000000E+00  0.00000000E+00
  0.00000000E+00  0.00000000E+00  0.00000000E+00
  0.00000000E+00  0.00000000E+00  0.00000000E+00
  0.00000000E+00  0.00000000E+00  0.00000000E+00
  0.00000000E+00  0.00000000E+00  0.00000000E+00
  0.00000000E+00  0.00000000E+00  0.00000000E+00
  0.00000000E+00  0.00000000E+00  0.00000000E+00
  0.00000000E+00  0.00000000E+00  0.00000000E+00
  0.00000000E+00  0.00000000E+00  0.00000000E+00
  0.00000000E+00  0.00000000E+00  0.00000000E+00
  0.00000000E+00  0.00000000E+00  0.00000000E+00
  0.00000000E+00  0.00000000E+00  0.00000000E+00
  0.00000000E+00  0.00000000E+00  0.00000000E+00
  0.00000000E+00  0.00000000E+00  0.00000000E+00
  0.00000000E+00  0.00000000E+00  0.00000000E+00
  0.00000000E+00  0.00000000E+00  0.00000000E+00
  0.00000000E+00  0.00000000E+00  0.00000000E+00
  0.00000000E+00  0.00000000E+00  0.00000000E+00
  0.00000000E+00  0.00000000E+00  0.00000000E+00
  0.00000000E+00  0.00000000E+00  0.00000000E+00
  0.00000000E+00  0.00000000E+00  0.00000000E+00
