Title                                   
   1.00000000000000     
     8.5490480000000009    0.0000000000000000    0.0000000000000000
     0.0000000000000000    8.5490480000000009    0.0000000000000000
     0.0000000000000000    0.0000000000000000   20.0000000000000000
    21     3     1
Selective dynamics
Direct
  0.9092239759236929  0.2050806350900622  0.0975722467733011   T   T   T
  0.9022812834470013  0.5028660404434310  0.0977546843757047   T   T   T
  0.9110368874978266  0.8013009680230965  0.0975947854760221   T   T   T
  0.2010809385582198  0.0826530114388493  0.0978134149972714   T   T   T
  0.0751490542955662  0.2052601053989869  0.0976728248243300   T   T   T
  0.1575720400982274  0.6478590593219312  0.0977177735740698   T   T   T
  0.0725214834148688  0.5017322131750049  0.0977178911266676   T   T   T
  0.1560760754429217  0.3561552132879325  0.0977320919226825   T   T   T
  0.0785217327212073  0.7968555127857195  0.0977157598860005   T   T   T
  0.4952950614198697  0.0865221229902962  0.0978394146719169   T   T   T
  0.3490907286523038  0.1674827447113149  0.0979003410511866   T   T   T
  0.4946412120754201  0.9166014354364140  0.0978028428222066   T   T   T
  0.3496748354020424  0.8322716035251639  0.0978652623219003   T   T   T
  0.7887010235417048  0.0859546437795479  0.0975021660491736   T   T   T
  0.6420721912954811  0.1679634891780453  0.0977361691566875   T   T   T
  0.7895477583126073  0.9191244791343883  0.0974996013047287   T   T   T
  0.8245838863208437  0.6513218689983682  0.0977538718864224   T   T   T
  0.8221744649018308  0.3551414805862185  0.0977842353111566   T   T   T
  0.6421523670204913  0.8355251122054352  0.0976849878795666   T   T   T
  0.3247185697621952  0.3377058603127301  0.0978054560311568   T   T   T
  0.3252451415073488  0.6662661299240434  0.0977504154996643   T   T   T
  0.6623225167845194  0.3314467438483563  0.0979310547172343   T   T   T
  0.6635640629789770  0.6737334701801598  0.0978738821722158   T   T   T
  0.2010592496934649  0.9176569118722346  0.0978993730320471   T   T   T
  0.4871054589313606  0.5003091443522890  0.0977844531366591   T   T   T
 
  0.00000000E+00  0.00000000E+00  0.00000000E+00
  0.00000000E+00  0.00000000E+00  0.00000000E+00
  0.00000000E+00  0.00000000E+00  0.00000000E+00
  0.00000000E+00  0.00000000E+00  0.00000000E+00
  0.00000000E+00  0.00000000E+00  0.00000000E+00
  0.00000000E+00  0.00000000E+00  0.00000000E+00
  0.00000000E+00  0.00000000E+00  0.00000000E+00
  0.00000000E+00  0.00000000E+00  0.00000000E+00
  0.00000000E+00  0.00000000E+00  0.00000000E+00
  0.00000000E+00  0.00000000E+00  0.00000000E+00
  0.00000000E+00  0.00000000E+00  0.00000000E+00
  0.00000000E+00  0.00000000E+00  0.00000000E+00
  0.00000000E+00  0.00000000E+00  0.00000000E+00
  0.00000000E+00  0.00000000E+00  0.00000000E+00
  0.00000000E+00  0.00000000E+00  0.00000000E+00
  0.00000000E+00  0.00000000E+00  0.00000000E+00
  0.00000000E+00  0.00000000E+00  0.00000000E+00
  0.00000000E+00  0.00000000E+00  0.00000000E+00
  0.00000000E+00  0.00000000E+00  0.00000000E+00
  0.00000000E+00  0.00000000E+00  0.00000000E+00
  0.00000000E+00  0.00000000E+00  0.00000000E+00
  0.00000000E+00  0.00000000E+00  0.00000000E+00
  0.00000000E+00  0.00000000E+00  0.00000000E+00
  0.00000000E+00  0.00000000E+00  0.00000000E+00
  0.00000000E+00  0.00000000E+00  0.00000000E+00
