Title                                   
   1.00000000000000     
     4.9440799999999996    0.0000000000000000    0.0000000000000000
     0.0000000000000000    8.5647549999999999    0.0000000000000000
     0.0000000000000000    0.0000000000000000   20.0000000000000000
    11     3     1
Selective dynamics
Direct
  0.0016844953418393  0.2921314232629084  0.1000154715288967   T   T   T
  0.2494023052156673  0.0409502546916051  0.1007579131336066   T   T   T
 -0.0023491556852101  0.9565604217283852  0.1003309300493072   T   T   T
  0.7523590433602376  0.2069207377139959  0.1005492379366714   T   T   T
  0.5029540011452188  0.2937862655877093  0.1007884824023501   T   T   T
  0.7494667282573959  0.0411688779989340  0.1007651163640905   T   T   T
  0.7466598326202493  0.7113042596810675  0.1005722229537737   T   T   T
  0.7512270117444936  0.5367339685175425  0.1001720532599640   T   T   T
  0.4979379148466910  0.9593936416686923  0.1013144871990179   T   T   T
  0.5113441882636739  0.7953286404291309  0.1020630653159214   T   T   T
 -0.0105924225328149  0.4537701066365960  0.0989804308825765   T   T   T
  0.5112331052905642  0.4522947263492558  0.1013164775705663   T   T   T
 -0.0128134949881936  0.7950862459620465  0.0993568372666759   T   T   T
  0.2518735747549479  0.2104469754675178  0.1005221467291193   T   T   T
  0.2496128723652399  0.6258044543046145  0.1004751274074660   T   T   T
 
  0.00000000E+00  0.00000000E+00  0.00000000E+00
  0.00000000E+00  0.00000000E+00  0.00000000E+00
  0.00000000E+00  0.00000000E+00  0.00000000E+00
  0.00000000E+00  0.00000000E+00  0.00000000E+00
  0.00000000E+00  0.00000000E+00  0.00000000E+00
  0.00000000E+00  0.00000000E+00  0.00000000E+00
  0.00000000E+00  0.00000000E+00  0.00000000E+00
  0.00000000E+00  0.00000000E+00  0.00000000E+00
  0.00000000E+00  0.00000000E+00  0.00000000E+00
  0.00000000E+00  0.00000000E+00  0.00000000E+00
  0.00000000E+00  0.00000000E+00  0.00000000E+00
  0.00000000E+00  0.00000000E+00  0.00000000E+00
  0.00000000E+00  0.00000000E+00  0.00000000E+00
  0.00000000E+00  0.00000000E+00  0.00000000E+00
  0.00000000E+00  0.00000000E+00  0.00000000E+00
