Title                                   
   1.00000000000000     
     4.9440799999999996    0.0000000000000000    0.0000000000000000
     0.0000000000000000   17.1295089999999988    0.0000000000000000
     0.0000000000000000    0.0000000000000000   20.0000000000000000
    27     3     1
Selective dynamics
Direct
  0.0006689658374436  0.1054487045946563  0.2977819743627859   T   T   T
  0.2502824600093144  0.1480899031714128  0.2984773110719440   T   T   T
  0.2502831389182456  0.2324439130195601  0.2999663744128455   T   T   T
 -0.0036446948558879  0.2722510341774899  0.3006102399278968   T   T   T
 -0.0027212877942918  0.6015124564189375  0.3013894651276690   T   T   T
  0.2487484591212680  0.7272573273521689  0.2991963415354708   T   T   T
 -0.0001338684125622  0.8536770801025884  0.2971773776555941   T   T   T
  0.2497834114251298  0.8957044688063276  0.2967312598167503   T   T   T
  0.2496698104674522  0.9793841363976762  0.2965351191208632   T   T   T
 -0.0000778091836417  0.7700523363896489  0.2984228301686487   T   T   T
  0.4987879335496133  0.1052237440510819  0.2977977361393735   T   T   T
  0.7493447701089674  0.1466247771944782  0.2984183737937634   T   T   T
  0.7491560261809225  0.2299348040358479  0.2999027879681631   T   T   T
  0.4992402674908663  0.0214885395872040  0.2968177211861977   T   T   T
  0.7553842618754968  0.3919811584277446  0.3024898385654916   T   T   T
  0.7547330666647778  0.4809434373124340  0.3027743232690246   T   T   T
  0.5032830260675653  0.2736687908973017  0.3007887457178738   T   T   T
  0.5007247359707471  0.6026879881558902  0.3015474980972632   T   T   T
  0.7502365576711444  0.7283062832217351  0.2991835624570038   T   T   T
  0.4993500977226760  0.8535568741899279  0.2971910406058748   T   T   T
  0.7496368568083096  0.8956678228507855  0.2967571195383629   T   T   T
  0.7497011529989175  0.9796016260886204  0.2965549505074497   T   T   T
  0.4993221269134653  0.7696825765940176  0.2984572043971663   T   T   T
  0.7491351356694677  0.6446443842970566  0.3007726862211527   T   T   T
  0.2493602272916244  0.6436701595995423  0.3007571370126281   T   T   T
  0.0002696435181599  0.0215882715466134  0.2968094046292302   T   T   T
  0.5140729406364286  0.5200185369090972  0.3026569081045404   T   T   T
  0.9889771862815372  0.5217177965625738  0.3023449197911386   T   T   T
  0.5190498842756140  0.3537226369193440  0.3023385285107157   T   T   T
 -0.0155329744074458  0.3520394646271896  0.3018297630485622   T   T   T
  0.2529154911786763  0.4387509665010454  0.3025814572385072   T   T   T
 
  0.00000000E+00  0.00000000E+00  0.00000000E+00
  0.00000000E+00  0.00000000E+00  0.00000000E+00
  0.00000000E+00  0.00000000E+00  0.00000000E+00
  0.00000000E+00  0.00000000E+00  0.00000000E+00
  0.00000000E+00  0.00000000E+00  0.00000000E+00
  0.00000000E+00  0.00000000E+00  0.00000000E+00
  0.00000000E+00  0.00000000E+00  0.00000000E+00
  0.00000000E+00  0.00000000E+00  0.00000000E+00
  0.00000000E+00  0.00000000E+00  0.00000000E+00
  0.00000000E+00  0.00000000E+00  0.00000000E+00
  0.00000000E+00  0.00000000E+00  0.00000000E+00
  0.00000000E+00  0.00000000E+00  0.00000000E+00
  0.00000000E+00  0.00000000E+00  0.00000000E+00
  0.00000000E+00  0.00000000E+00  0.00000000E+00
  0.00000000E+00  0.00000000E+00  0.00000000E+00
  0.00000000E+00  0.00000000E+00  0.00000000E+00
  0.00000000E+00  0.00000000E+00  0.00000000E+00
  0.00000000E+00  0.00000000E+00  0.00000000E+00
  0.00000000E+00  0.00000000E+00  0.00000000E+00
  0.00000000E+00  0.00000000E+00  0.00000000E+00
  0.00000000E+00  0.00000000E+00  0.00000000E+00
  0.00000000E+00  0.00000000E+00  0.00000000E+00
  0.00000000E+00  0.00000000E+00  0.00000000E+00
  0.00000000E+00  0.00000000E+00  0.00000000E+00
  0.00000000E+00  0.00000000E+00  0.00000000E+00
  0.00000000E+00  0.00000000E+00  0.00000000E+00
  0.00000000E+00  0.00000000E+00  0.00000000E+00
  0.00000000E+00  0.00000000E+00  0.00000000E+00
  0.00000000E+00  0.00000000E+00  0.00000000E+00
  0.00000000E+00  0.00000000E+00  0.00000000E+00
  0.00000000E+00  0.00000000E+00  0.00000000E+00
