Title                                   
   1.00000000000000     
     9.8694509999999998    0.0000000000000000    0.0000000000000000
     0.0000000000000000    8.5490480000000009    0.0000000000000000
     0.0000000000000000    0.0000000000000000   20.0000000000000000
    29     2     1
Selective dynamics
Direct
  0.0565644100907676  0.0901560199175544  0.0852016014313390   T   T   T
  0.9314212654495555  0.1737419969498017  0.0884795723716885   T   T   T
  0.0574459171668065  0.9228286372570664  0.0841864412477813   T   T   T
  0.9300284962253865  0.3407023650075957  0.0938888801492786   T   T   T
  0.0562344863335345  0.5892560599681053  0.0897766816242462   T   T   T
  0.9319627542193291  0.6728737080262825  0.0913523714116402   T   T   T
  0.0567784464044441  0.4227623771527238  0.0919451193088175   T   T   T
  0.9317699076705453  0.8401320157281095  0.0867881005479108   T   T   T
  0.3058406709314203  0.0870507496298697  0.0854312827318191   T   T   T
  0.1823858938813037  0.1734209553831323  0.0867389594527508   T   T   T
  0.3079729329106708  0.9217827857455605  0.0860917461306308   T   T   T
  0.1815749655629019  0.3391108464128506  0.0911349098464510   T   T   T
  0.3075874750601067  0.5869459805670886  0.0964621223230675   T   T   T
  0.1826037155070723  0.6708228089321002  0.0883765202410507   T   T   T
  0.1831086901244802  0.8371595508027804  0.0855009123447721   T   T   T
  0.5557571347212268  0.0880597770027405  0.0919955451240225   T   T   T
  0.4302742533311816  0.1692405231506671  0.0898429643819617   T   T   T
  0.4296832283291953  0.3343093986202474  0.0997326804991007   T   T   T
  0.4328718503831799  0.8387834058775157  0.0947516158164304   T   T   T
  0.8072470703489296  0.0905033289197964  0.0877575566054465   T   T   T
  0.6807172690353097  0.1709404423654104  0.0934203826452591   T   T   T
  0.8073014359679761  0.9255459085739330  0.0871308208597154   T   T   T
  0.6786074316493071  0.3357970612294492  0.1045160874815668   T   T   T
  0.8062575987132380  0.5920288986065404  0.1027461520390193   T   T   T
  0.8047203404472490  0.4234009917819407  0.1024241616428488   T   T   T
  0.6824853468536680  0.8434501627121103  0.0967820548460852   T   T   T
  0.4272694483260001  0.6761363328460845  0.1069285048361560   T   T   T
  0.5503428626830600  0.4048085677429865  0.1170876708126833   T   T   T
  0.6898718157605148  0.6871146578635308  0.1134561629509911   T   T   T
  0.5566320247138828  0.9233022185119134  0.0939584064727800   T   T   T
  0.3059553604390322  0.4212050493592336  0.0961043065597114   T   T   T
  0.5503645007587298  0.5968724173552815  0.1756847052629942   T   T   T
 
  0.00000000E+00  0.00000000E+00  0.00000000E+00
  0.00000000E+00  0.00000000E+00  0.00000000E+00
  0.00000000E+00  0.00000000E+00  0.00000000E+00
  0.00000000E+00  0.00000000E+00  0.00000000E+00
  0.00000000E+00  0.00000000E+00  0.00000000E+00
  0.00000000E+00  0.00000000E+00  0.00000000E+00
  0.00000000E+00  0.00000000E+00  0.00000000E+00
  0.00000000E+00  0.00000000E+00  0.00000000E+00
  0.00000000E+00  0.00000000E+00  0.00000000E+00
  0.00000000E+00  0.00000000E+00  0.00000000E+00
  0.00000000E+00  0.00000000E+00  0.00000000E+00
  0.00000000E+00  0.00000000E+00  0.00000000E+00
  0.00000000E+00  0.00000000E+00  0.00000000E+00
  0.00000000E+00  0.00000000E+00  0.00000000E+00
  0.00000000E+00  0.00000000E+00  0.00000000E+00
  0.00000000E+00  0.00000000E+00  0.00000000E+00
  0.00000000E+00  0.00000000E+00  0.00000000E+00
  0.00000000E+00  0.00000000E+00  0.00000000E+00
  0.00000000E+00  0.00000000E+00  0.00000000E+00
  0.00000000E+00  0.00000000E+00  0.00000000E+00
  0.00000000E+00  0.00000000E+00  0.00000000E+00
  0.00000000E+00  0.00000000E+00  0.00000000E+00
  0.00000000E+00  0.00000000E+00  0.00000000E+00
  0.00000000E+00  0.00000000E+00  0.00000000E+00
  0.00000000E+00  0.00000000E+00  0.00000000E+00
  0.00000000E+00  0.00000000E+00  0.00000000E+00
  0.00000000E+00  0.00000000E+00  0.00000000E+00
  0.00000000E+00  0.00000000E+00  0.00000000E+00
  0.00000000E+00  0.00000000E+00  0.00000000E+00
  0.00000000E+00  0.00000000E+00  0.00000000E+00
  0.00000000E+00  0.00000000E+00  0.00000000E+00
  0.00000000E+00  0.00000000E+00  0.00000000E+00
