Title                                   
   1.00000000000000     
     4.9440799999999996    0.0000000000000000    0.0000000000000000
     0.0000000000000000    8.5647549999999999    0.0000000000000000
     0.0000000000000000    0.0000000000000000   20.0000000000000000
    11     4     1
Selective dynamics
Direct
 -0.0033839954807466  0.2908007710882210  0.0931468579367279   T   T   T
  0.2500000000000000  0.0437260791229095  0.0878562094180311   T   T   T
  0.0024571318708878  0.7951640842831937  0.0972251303812262   T   T   T
 -0.0004197599447631  0.9607486979521077  0.0876744770495655   T   T   T
  0.7500000000000000  0.2061116435657756  0.0865096486628621   T   T   T
  0.5033839954807467  0.2908007710882210  0.0931468579367279   T   T   T
  0.7500000000000000  0.0414679237294184  0.0835333081065732   T   T   T
  0.7500000000000000  0.7028538725418264  0.1018651427246547   T   T   T
  0.4975428681291122  0.7951640842831937  0.0972251303812262   T   T   T
  0.7500000000000000  0.5316164294649458  0.1076801886848695   T   T   T
  0.5004197599447631  0.9607486979521077  0.0876744770495655   T   T   T
  0.5094448418957295  0.4469573552913656  0.1086756413604586   T   T   T
 -0.0094448418957294  0.4469573552913656  0.1086756413604586   T   T   T
  0.2500000000000000  0.7253354201667429  0.1071419269206710   T   T   T
  0.2500000000000000  0.2123556400842488  0.0895598674447261   T   T   T
  0.2500000000000000  0.5491911740943572  0.1749214945816653   T   T   T
 
  0.00000000E+00  0.00000000E+00  0.00000000E+00
  0.00000000E+00  0.00000000E+00  0.00000000E+00
  0.00000000E+00  0.00000000E+00  0.00000000E+00
  0.00000000E+00  0.00000000E+00  0.00000000E+00
  0.00000000E+00  0.00000000E+00  0.00000000E+00
  0.00000000E+00  0.00000000E+00  0.00000000E+00
  0.00000000E+00  0.00000000E+00  0.00000000E+00
  0.00000000E+00  0.00000000E+00  0.00000000E+00
  0.00000000E+00  0.00000000E+00  0.00000000E+00
  0.00000000E+00  0.00000000E+00  0.00000000E+00
  0.00000000E+00  0.00000000E+00  0.00000000E+00
  0.00000000E+00  0.00000000E+00  0.00000000E+00
  0.00000000E+00  0.00000000E+00  0.00000000E+00
  0.00000000E+00  0.00000000E+00  0.00000000E+00
  0.00000000E+00  0.00000000E+00  0.00000000E+00
  0.00000000E+00  0.00000000E+00  0.00000000E+00
