Title                                   
   1.00000000000000     
     8.5490480000000009    0.0000000000000000    0.0000000000000000
     0.0000000000000000    8.5490480000000009    0.0000000000000000
     0.0000000000000000    0.0000000000000000   20.0000000000000000
    20     4     1
Selective dynamics
Direct
  0.9091383773740326  0.2064740645764992  0.0975855196364841   T   T   T
  0.9113110086659854  0.8004424050676289  0.0976065762070379   T   T   T
  0.1989459818529860  0.0840818399244864  0.0977870184763601   T   T   T
  0.0760985128002031  0.2033463042113675  0.0976875409290898   T   T   T
  0.1554202580772567  0.6478761101683521  0.0977362108843670   T   T   T
  0.0716310802160952  0.5013641421821400  0.0977464031621878   T   T   T
  0.1545881009781214  0.3559630172125561  0.0977526160057423   T   T   T
  0.0794715475519222  0.7980317443031301  0.0977146178233001   T   T   T
  0.4953119949286670  0.0873447947392491  0.0977716235439615   T   T   T
  0.3474123809065485  0.1676660741054846  0.0978606850536305   T   T   T
  0.4948716032881555  0.9161777480916690  0.0977431301120445   T   T   T
  0.3480853668066211  0.8321776498233791  0.0978541226350873   T   T   T
  0.7888590758326138  0.0873340411161797  0.0975154522778183   T   T   T
  0.6423520998026599  0.1685979081250793  0.0977088986490066   T   T   T
  0.7897945541545521  0.9184880472429334  0.0975112223686666   T   T   T
  0.8265904315748394  0.6510554952658621  0.0977351575052189   T   T   T
  0.8244672441294265  0.3552434926280023  0.0977518946119010   T   T   T
  0.6430061339468729  0.8354471632731686  0.0976614359602677   T   T   T
  0.3234955541801412  0.3375169240338487  0.0978587495610853   T   T   T
  0.3238811308522869  0.6662674541195065  0.0978191420196616   T   T   T
  0.9027637249941589  0.5027996841744552  0.0978304669253988   T   T   T
  0.6645566383839264  0.3337685982262130  0.0978795098115725   T   T   T
  0.6666484580376901  0.6714806901339028  0.0978213569163865   T   T   T
  0.1991905484297329  0.9157428576766438  0.0978527764180081   T   T   T
  0.4875201922344968  0.5001017495782829  0.0979128725056881   T   T   T
 
  0.00000000E+00  0.00000000E+00  0.00000000E+00
  0.00000000E+00  0.00000000E+00  0.00000000E+00
  0.00000000E+00  0.00000000E+00  0.00000000E+00
  0.00000000E+00  0.00000000E+00  0.00000000E+00
  0.00000000E+00  0.00000000E+00  0.00000000E+00
  0.00000000E+00  0.00000000E+00  0.00000000E+00
  0.00000000E+00  0.00000000E+00  0.00000000E+00
  0.00000000E+00  0.00000000E+00  0.00000000E+00
  0.00000000E+00  0.00000000E+00  0.00000000E+00
  0.00000000E+00  0.00000000E+00  0.00000000E+00
  0.00000000E+00  0.00000000E+00  0.00000000E+00
  0.00000000E+00  0.00000000E+00  0.00000000E+00
  0.00000000E+00  0.00000000E+00  0.00000000E+00
  0.00000000E+00  0.00000000E+00  0.00000000E+00
  0.00000000E+00  0.00000000E+00  0.00000000E+00
  0.00000000E+00  0.00000000E+00  0.00000000E+00
  0.00000000E+00  0.00000000E+00  0.00000000E+00
  0.00000000E+00  0.00000000E+00  0.00000000E+00
  0.00000000E+00  0.00000000E+00  0.00000000E+00
  0.00000000E+00  0.00000000E+00  0.00000000E+00
  0.00000000E+00  0.00000000E+00  0.00000000E+00
  0.00000000E+00  0.00000000E+00  0.00000000E+00
  0.00000000E+00  0.00000000E+00  0.00000000E+00
  0.00000000E+00  0.00000000E+00  0.00000000E+00
  0.00000000E+00  0.00000000E+00  0.00000000E+00
