Title                                   
   1.00000000000000     
     4.9440799999999996    0.0000000000000000    0.0000000000000000
     0.0000000000000000    8.5647549999999999    0.0000000000000000
     0.0000000000000000    0.0000000000000000   20.0000000000000000
    12     2     1
Selective dynamics
Direct
 -0.0000048384624325  0.2934106280550692  0.1007907389589792   T   T   T
  0.2514269298607224  0.0407432529440329  0.0992642213549992   T   T   T
  0.0009675152934504  0.9572704808269560  0.1022683453584211   T   T   T
  0.7498521937319014  0.2072893814416965  0.0966427593070692   T   T   T
  0.4988208228268840  0.2917549710438038  0.0952275143191573   T   T   T
  0.7520295808051400  0.0406252034942322  0.0974627088334526   T   T   T
  0.7475950901820624  0.7147369104707946  0.0998126166948698   T   T   T
  0.7442828196964872  0.5381343078779530  0.0986555071264063   T   T   T
  0.5034174342332460  0.9562954600294498  0.0963886781979373   T   T   T
  0.4994169702880007  0.4559660500048814  0.0929595137895880   T   T   T
 -0.0055666319456544  0.4583335771486047  0.1072865153418268   T   T   T
 -0.0081235929171227  0.7915486901144330  0.1099028261916400   T   T   T
  0.5082156432683242  0.7941826372104146  0.0934607478794072   T   T   T
  0.2502756657688178  0.2071692121218273  0.0986407476650008   T   T   T
  0.2573943973701714  0.6242202372158538  0.1192165589812487   T   T   T
 
  0.00000000E+00  0.00000000E+00  0.00000000E+00
  0.00000000E+00  0.00000000E+00  0.00000000E+00
  0.00000000E+00  0.00000000E+00  0.00000000E+00
  0.00000000E+00  0.00000000E+00  0.00000000E+00
  0.00000000E+00  0.00000000E+00  0.00000000E+00
  0.00000000E+00  0.00000000E+00  0.00000000E+00
  0.00000000E+00  0.00000000E+00  0.00000000E+00
  0.00000000E+00  0.00000000E+00  0.00000000E+00
  0.00000000E+00  0.00000000E+00  0.00000000E+00
  0.00000000E+00  0.00000000E+00  0.00000000E+00
  0.00000000E+00  0.00000000E+00  0.00000000E+00
  0.00000000E+00  0.00000000E+00  0.00000000E+00
  0.00000000E+00  0.00000000E+00  0.00000000E+00
  0.00000000E+00  0.00000000E+00  0.00000000E+00
  0.00000000E+00  0.00000000E+00  0.00000000E+00
