Title                                   
   1.00000000000000     
     9.8694509999999998    0.0000000000000000    0.0000000000000000
     0.0000000000000000    8.5490480000000009    0.0000000000000000
     0.0000000000000000    0.0000000000000000   20.0000000000000000
    28     3     1
Selective dynamics
Direct
  0.0556128519573777  0.0895250988382703  0.0827251749096793   T   T   T
  0.9313365413258510  0.1735904930232310  0.0835558490312693   T   T   T
  0.0569979823690521  0.9222114764075047  0.0829245243725114   T   T   T
  0.9310688597153849  0.3407699803582731  0.0859054524759262   T   T   T
  0.0564644640936485  0.5910910011084327  0.0838287610235211   T   T   T
  0.0558277937933700  0.4242074465975572  0.0846500279255940   T   T   T
  0.9325380183647715  0.8387320245348525  0.0849117497908170   T   T   T
  0.3057162487028369  0.0882223770773562  0.0884700948765181   T   T   T
  0.1816393698326988  0.1722651226186007  0.0853703807351533   T   T   T
  0.1811656570150843  0.3394662178721211  0.0874190921651920   T   T   T
  0.3019833690192609  0.5876367831465807  0.1003209846338794   T   T   T
  0.1804755108639365  0.6744346017318380  0.0875713856641636   T   T   T
  0.3049503865053328  0.4208855751520282  0.0974612832923761   T   T   T
  0.1824123287292529  0.8406972893667946  0.0860656300906551   T   T   T
  0.5560255483763704  0.0880632382312554  0.0940969016213103   T   T   T
  0.5551713013217352  0.9228745393265858  0.1013561980393929   T   T   T
  0.4289055242553357  0.3331471635640530  0.1030358315929997   T   T   T
  0.4272518515917859  0.8412402580449667  0.1050868115946841   T   T   T
  0.8064752775642204  0.0889005042531275  0.0859179482040215   T   T   T
  0.6804176743909722  0.1711487522589249  0.0913759468761757   T   T   T
  0.8075734340211549  0.9228547099934924  0.0886416872026030   T   T   T
  0.6831654583146055  0.3384693913108349  0.1001864272573907   T   T   T
  0.8119701103489206  0.5924487487851781  0.1009070561183565   T   T   T
  0.8074028557046282  0.4243508119248232  0.0955796151071767   T   T   T
  0.6833406074679731  0.8430391913156038  0.1030893371983347   T   T   T
  0.4133453012364828  0.6821349801077816  0.1188491627328151   T   T   T
  0.5548759456417913  0.4024120181770437  0.1150207629745790   T   T   T
  0.7015291892999644  0.6839220876636748  0.1209783908597322   T   T   T
  0.3057065863612824  0.9252742426627654  0.0901306080707018   T   T   T
  0.4288700088898356  0.1678655209556113  0.0928240203544318   T   T   T
  0.9328015066044912  0.6731855008327365  0.0852465569279743   T   T   T
  0.5566214363205965  0.5851788527581021  0.1721713462800800   T   T   T
 
  0.00000000E+00  0.00000000E+00  0.00000000E+00
  0.00000000E+00  0.00000000E+00  0.00000000E+00
  0.00000000E+00  0.00000000E+00  0.00000000E+00
  0.00000000E+00  0.00000000E+00  0.00000000E+00
  0.00000000E+00  0.00000000E+00  0.00000000E+00
  0.00000000E+00  0.00000000E+00  0.00000000E+00
  0.00000000E+00  0.00000000E+00  0.00000000E+00
  0.00000000E+00  0.00000000E+00  0.00000000E+00
  0.00000000E+00  0.00000000E+00  0.00000000E+00
  0.00000000E+00  0.00000000E+00  0.00000000E+00
  0.00000000E+00  0.00000000E+00  0.00000000E+00
  0.00000000E+00  0.00000000E+00  0.00000000E+00
  0.00000000E+00  0.00000000E+00  0.00000000E+00
  0.00000000E+00  0.00000000E+00  0.00000000E+00
  0.00000000E+00  0.00000000E+00  0.00000000E+00
  0.00000000E+00  0.00000000E+00  0.00000000E+00
  0.00000000E+00  0.00000000E+00  0.00000000E+00
  0.00000000E+00  0.00000000E+00  0.00000000E+00
  0.00000000E+00  0.00000000E+00  0.00000000E+00
  0.00000000E+00  0.00000000E+00  0.00000000E+00
  0.00000000E+00  0.00000000E+00  0.00000000E+00
  0.00000000E+00  0.00000000E+00  0.00000000E+00
  0.00000000E+00  0.00000000E+00  0.00000000E+00
  0.00000000E+00  0.00000000E+00  0.00000000E+00
  0.00000000E+00  0.00000000E+00  0.00000000E+00
  0.00000000E+00  0.00000000E+00  0.00000000E+00
  0.00000000E+00  0.00000000E+00  0.00000000E+00
  0.00000000E+00  0.00000000E+00  0.00000000E+00
  0.00000000E+00  0.00000000E+00  0.00000000E+00
  0.00000000E+00  0.00000000E+00  0.00000000E+00
  0.00000000E+00  0.00000000E+00  0.00000000E+00
  0.00000000E+00  0.00000000E+00  0.00000000E+00
