Title                                   
   1.00000000000000     
     9.8694509999999998    0.0000000000000000    0.0000000000000000
     0.0000000000000000    8.5490480000000009    0.0000000000000000
     0.0000000000000000    0.0000000000000000   20.0000000000000000
    27     4     1
Selective dynamics
Direct
  0.0557485445395775  0.0918920907682646  0.0905628747955520   T   T   T
  0.9296368154968473  0.1756534364220145  0.0898951788520099   T   T   T
  0.0571747656707894  0.9236407037162530  0.0900630159739992   T   T   T
  0.9286971141048180  0.3424414129964958  0.0915316967556943   T   T   T
  0.0559463675847735  0.5903426165541970  0.0936825736241695   T   T   T
  0.9323568271383608  0.6732929284386625  0.0904585942280015   T   T   T
  0.0547521510929022  0.4226589951685444  0.0946237281133499   T   T   T
  0.9323780718612416  0.8407380253238499  0.0886029818418016   T   T   T
  0.3054799318525219  0.0868724046007472  0.0921568081453165   T   T   T
  0.1816605168559438  0.1728511489943013  0.0932209861480151   T   T   T
  0.3079189319672803  0.9209200143001885  0.0927282482990285   T   T   T
  0.1803816855490696  0.3391235384196986  0.0974060828962409   T   T   T
  0.3051362944350503  0.5874902991222889  0.1046266808642817   T   T   T
  0.1806367226204265  0.6705569933234093  0.0954137320388076   T   T   T
  0.1823698676895293  0.8380501357646166  0.0928853132346060   T   T   T
  0.5564496391039833  0.0865273950563091  0.0924389992813571   T   T   T
  0.4304458803589008  0.1691424870929748  0.0952408314370143   T   T   T
  0.4300162936087754  0.3348685719378565  0.1049073368614647   T   T   T
  0.4324946957962301  0.8355506912421448  0.0983083450880816   T   T   T
  0.8064157965307542  0.0908834156952826  0.0879159246166480   T   T   T
  0.6798901655202968  0.1727503887073522  0.0904539496504587   T   T   T
  0.8070888944218897  0.9256681200466085  0.0874811115607126   T   T   T
  0.6775122365140834  0.3400037048514621  0.0974289239331347   T   T   T
  0.8050937205725434  0.5959495379893665  0.0879341866284749   T   T   T
  0.6857878555157412  0.8373095055303729  0.0864824549756968   T   T   T
  0.4244231021038102  0.6727293320576420  0.1149491041011258   T   T   T
  0.5529945274588403  0.4133809673752988  0.1153151953864268   T   T   T
  0.6883905014414946  0.6784930834911415  0.0823098819492695   T   T   T
  0.5576925693673846  0.9181602075321129  0.0913269914925913   T   T   T
  0.3044499914801792  0.4201303344589974  0.1041919648410977   T   T   T
  0.8024444688579323  0.4261752518142455  0.0910107494479798   T   T   T
  0.5677740528880345  0.5959982612073030  0.1601205529376075   T   T   T
 
  0.00000000E+00  0.00000000E+00  0.00000000E+00
  0.00000000E+00  0.00000000E+00  0.00000000E+00
  0.00000000E+00  0.00000000E+00  0.00000000E+00
  0.00000000E+00  0.00000000E+00  0.00000000E+00
  0.00000000E+00  0.00000000E+00  0.00000000E+00
  0.00000000E+00  0.00000000E+00  0.00000000E+00
  0.00000000E+00  0.00000000E+00  0.00000000E+00
  0.00000000E+00  0.00000000E+00  0.00000000E+00
  0.00000000E+00  0.00000000E+00  0.00000000E+00
  0.00000000E+00  0.00000000E+00  0.00000000E+00
  0.00000000E+00  0.00000000E+00  0.00000000E+00
  0.00000000E+00  0.00000000E+00  0.00000000E+00
  0.00000000E+00  0.00000000E+00  0.00000000E+00
  0.00000000E+00  0.00000000E+00  0.00000000E+00
  0.00000000E+00  0.00000000E+00  0.00000000E+00
  0.00000000E+00  0.00000000E+00  0.00000000E+00
  0.00000000E+00  0.00000000E+00  0.00000000E+00
  0.00000000E+00  0.00000000E+00  0.00000000E+00
  0.00000000E+00  0.00000000E+00  0.00000000E+00
  0.00000000E+00  0.00000000E+00  0.00000000E+00
  0.00000000E+00  0.00000000E+00  0.00000000E+00
  0.00000000E+00  0.00000000E+00  0.00000000E+00
  0.00000000E+00  0.00000000E+00  0.00000000E+00
  0.00000000E+00  0.00000000E+00  0.00000000E+00
  0.00000000E+00  0.00000000E+00  0.00000000E+00
  0.00000000E+00  0.00000000E+00  0.00000000E+00
  0.00000000E+00  0.00000000E+00  0.00000000E+00
  0.00000000E+00  0.00000000E+00  0.00000000E+00
  0.00000000E+00  0.00000000E+00  0.00000000E+00
  0.00000000E+00  0.00000000E+00  0.00000000E+00
  0.00000000E+00  0.00000000E+00  0.00000000E+00
  0.00000000E+00  0.00000000E+00  0.00000000E+00
