Title                                   
   1.00000000000000     
     9.8694509999999998    0.0000000000000000    0.0000000000000000
     0.0000000000000000    8.5490480000000009    0.0000000000000000
     0.0000000000000000    0.0000000000000000   20.0000000000000000
    26     5     1
Selective dynamics
Direct
  0.0564336373115706  0.0918018743535288  0.0886282718533901   T   T   T
  0.9312462146987251  0.1739391037514221  0.0913016378360560   T   T   T
  0.0571000337678572  0.9240772532850403  0.0879771621238561   T   T   T
  0.9298003920288432  0.3411712592713521  0.0936559231833393   T   T   T
  0.0569157105950255  0.5901043359411728  0.0893330326689177   T   T   T
  0.9321495441006380  0.6726682883541605  0.0922644206472122   T   T   T
  0.0563386461528245  0.4228896104998155  0.0905888651528392   T   T   T
  0.9324839509921347  0.8397773453960058  0.0910284653341642   T   T   T
  0.3064582982894963  0.0883284639852385  0.0886550352786791   T   T   T
  0.1829143987275016  0.1736710672104139  0.0883491785589843   T   T   T
  0.1831770846620343  0.3405418095351218  0.0899625831048623   T   T   T
  0.3064338351172817  0.5911497129372657  0.0933887024022430   T   T   T
  0.1817152902495847  0.6737712377052140  0.0889934257713390   T   T   T
  0.3101024262567047  0.4235401985761079  0.0934169855595035   T   T   T
  0.1810917891803794  0.8406614810383296  0.0874603740000841   T   T   T
  0.5558649548649861  0.0842444373055179  0.0932135051573303   T   T   T
  0.5551142500711481  0.9187500713620618  0.0963358590421999   T   T   T
  0.4343600095324219  0.3333242052323896  0.0962276308201049   T   T   T
  0.4265849820009521  0.8374477705175042  0.0947408120328385   T   T   T
  0.8060890911452383  0.0888915442030223  0.0910029649510437   T   T   T
  0.6802521332428970  0.1697482130919002  0.0932727499721205   T   T   T
  0.8073607086694398  0.9228814817638951  0.0920462894079774   T   T   T
  0.6788884754838191  0.3348417520830496  0.0992528417955369   T   T   T
  0.8072421163266097  0.5923142781254652  0.1002664881298088   T   T   T
  0.8026602162563847  0.4239153463228055  0.0991520917379196   T   T   T
  0.6839036339591463  0.8382743802621474  0.0986651798500865   T   T   T
  0.4228775007477050  0.6805680690376466  0.1003101101320883   T   T   T
  0.5542066760655435  0.4063558245205288  0.1067279516197161   T   T   T
  0.6908819447162231  0.6794556481712873  0.1112856404479715   T   T   T
  0.3064329070175478  0.9241480025343651  0.0892701252147824   T   T   T
  0.4301741409813116  0.1677573858530761  0.0915175090983519   T   T   T
  0.5523840067880308  0.5992345477731498  0.1773831871146689   T   T   T
 
  0.00000000E+00  0.00000000E+00  0.00000000E+00
  0.00000000E+00  0.00000000E+00  0.00000000E+00
  0.00000000E+00  0.00000000E+00  0.00000000E+00
  0.00000000E+00  0.00000000E+00  0.00000000E+00
  0.00000000E+00  0.00000000E+00  0.00000000E+00
  0.00000000E+00  0.00000000E+00  0.00000000E+00
  0.00000000E+00  0.00000000E+00  0.00000000E+00
  0.00000000E+00  0.00000000E+00  0.00000000E+00
  0.00000000E+00  0.00000000E+00  0.00000000E+00
  0.00000000E+00  0.00000000E+00  0.00000000E+00
  0.00000000E+00  0.00000000E+00  0.00000000E+00
  0.00000000E+00  0.00000000E+00  0.00000000E+00
  0.00000000E+00  0.00000000E+00  0.00000000E+00
  0.00000000E+00  0.00000000E+00  0.00000000E+00
  0.00000000E+00  0.00000000E+00  0.00000000E+00
  0.00000000E+00  0.00000000E+00  0.00000000E+00
  0.00000000E+00  0.00000000E+00  0.00000000E+00
  0.00000000E+00  0.00000000E+00  0.00000000E+00
  0.00000000E+00  0.00000000E+00  0.00000000E+00
  0.00000000E+00  0.00000000E+00  0.00000000E+00
  0.00000000E+00  0.00000000E+00  0.00000000E+00
  0.00000000E+00  0.00000000E+00  0.00000000E+00
  0.00000000E+00  0.00000000E+00  0.00000000E+00
  0.00000000E+00  0.00000000E+00  0.00000000E+00
  0.00000000E+00  0.00000000E+00  0.00000000E+00
  0.00000000E+00  0.00000000E+00  0.00000000E+00
  0.00000000E+00  0.00000000E+00  0.00000000E+00
  0.00000000E+00  0.00000000E+00  0.00000000E+00
  0.00000000E+00  0.00000000E+00  0.00000000E+00
  0.00000000E+00  0.00000000E+00  0.00000000E+00
  0.00000000E+00  0.00000000E+00  0.00000000E+00
  0.00000000E+00  0.00000000E+00  0.00000000E+00
