Title                                   
   1.00000000000000     
     4.9440799999999996    0.0000000000000000    0.0000000000000000
     0.0000000000000000   17.1295089999999988    0.0000000000000000
     0.0000000000000000    0.0000000000000000   20.0000000000000000
    27     3     1
Selective dynamics
Direct
 -0.0042861603395901  0.1053451313198150  0.2968354134551885   T   T   T
  0.2438774767210114  0.1485810086201675  0.2982057701612261   T   T   T
  0.2414348916418473  0.2325364171949784  0.2996464289760014   T   T   T
 -0.0128509799110561  0.2747547194218332  0.2949456209163837   T   T   T
  0.0086009848410723  0.6011781728560530  0.3046464640541200   T   T   T
  0.2576449574497546  0.7258269690535203  0.2987174024600921   T   T   T
  0.0044226822808953  0.8528520578737233  0.2977432687091529   T   T   T
  0.2522200770092605  0.8953080138786510  0.2972798539732164   T   T   T
  0.2492546583729159  0.9792454201646840  0.2971299538061655   T   T   T
  0.0075222607583440  0.7684925830248831  0.2987648191943444   T   T   T
  0.4949249637288466  0.1055849356855560  0.2985468766085427   T   T   T
  0.7448824506779046  0.1470960619345801  0.2980736329103815   T   T   T
  0.7411508118296496  0.2309100386139057  0.2992879184627684   T   T   T
  0.4979608611894153  0.0214883588683836  0.2975752711430605   T   T   T
  0.7437747907335115  0.3940503411642952  0.2979486059096617   T   T   T
  0.7533981388897224  0.4828930510956427  0.2981601760847716   T   T   T
  0.4932895088788637  0.2737392254240874  0.3053119466601413   T   T   T
  0.5142772756338344  0.6010082723125879  0.2954750609273355   T   T   T
  0.7568234419729961  0.7278630502476389  0.2984845941602902   T   T   T
  0.5018973263603220  0.8529742014533653  0.2972145420515608   T   T   T
  0.7521310022164691  0.8947955489333769  0.2972439387698867   T   T   T
  0.7491304544499826  0.9791326514048351  0.2970953208800332   T   T   T
  0.5050067173296975  0.7685433523414839  0.2975918343355550   T   T   T
  0.7606660702405605  0.6446838473788524  0.2993280190924937   T   T   T
 -0.0014950411800196  0.0214327681217582  0.2968146963435855   T   T   T
 -0.0055095993991246  0.5201905511602816  0.3152000724864017   T   T   T
  0.5086079762648863  0.3558368534024349  0.3161048150097090   T   T   T
  0.5187519027745853  0.5232608298765049  0.2861394613088066   T   T   T
 -0.0222171210105925  0.3538597316933926  0.2853296772407753   T   T   T
  0.2600694791620821  0.6424826556878835  0.2998875219894781   T   T   T
  0.2446447404319544  0.4353951797908410  0.3243310219188226   T   T   T
 
  0.00000000E+00  0.00000000E+00  0.00000000E+00
  0.00000000E+00  0.00000000E+00  0.00000000E+00
  0.00000000E+00  0.00000000E+00  0.00000000E+00
  0.00000000E+00  0.00000000E+00  0.00000000E+00
  0.00000000E+00  0.00000000E+00  0.00000000E+00
  0.00000000E+00  0.00000000E+00  0.00000000E+00
  0.00000000E+00  0.00000000E+00  0.00000000E+00
  0.00000000E+00  0.00000000E+00  0.00000000E+00
  0.00000000E+00  0.00000000E+00  0.00000000E+00
  0.00000000E+00  0.00000000E+00  0.00000000E+00
  0.00000000E+00  0.00000000E+00  0.00000000E+00
  0.00000000E+00  0.00000000E+00  0.00000000E+00
  0.00000000E+00  0.00000000E+00  0.00000000E+00
  0.00000000E+00  0.00000000E+00  0.00000000E+00
  0.00000000E+00  0.00000000E+00  0.00000000E+00
  0.00000000E+00  0.00000000E+00  0.00000000E+00
  0.00000000E+00  0.00000000E+00  0.00000000E+00
  0.00000000E+00  0.00000000E+00  0.00000000E+00
  0.00000000E+00  0.00000000E+00  0.00000000E+00
  0.00000000E+00  0.00000000E+00  0.00000000E+00
  0.00000000E+00  0.00000000E+00  0.00000000E+00
  0.00000000E+00  0.00000000E+00  0.00000000E+00
  0.00000000E+00  0.00000000E+00  0.00000000E+00
  0.00000000E+00  0.00000000E+00  0.00000000E+00
  0.00000000E+00  0.00000000E+00  0.00000000E+00
  0.00000000E+00  0.00000000E+00  0.00000000E+00
  0.00000000E+00  0.00000000E+00  0.00000000E+00
  0.00000000E+00  0.00000000E+00  0.00000000E+00
  0.00000000E+00  0.00000000E+00  0.00000000E+00
  0.00000000E+00  0.00000000E+00  0.00000000E+00
  0.00000000E+00  0.00000000E+00  0.00000000E+00
