Title                                   
   1.00000000000000     
     9.8694509999999998    0.0000000000000000    0.0000000000000000
     0.0000000000000000    8.5490480000000009    0.0000000000000000
     0.0000000000000000    0.0000000000000000   20.0000000000000000
    24     6     1
Selective dynamics
Direct
  0.0566897326559975  0.0906877343626331  0.0928867912863849   T   T   T
  0.9317922038047978  0.1725526856715609  0.0965109324239762   T   T   T
  0.0576249876724675  0.9218182485394094  0.0934004194308598   T   T   T
  0.9327145620181913  0.3399470299691491  0.0976907571769321   T   T   T
  0.0572849046594953  0.5894822430049805  0.0940963944645341   T   T   T
  0.9328175387078045  0.6718163761622575  0.0980861871687075   T   T   T
  0.0573186294359854  0.4226794761302180  0.0936870032122643   T   T   T
  0.9325623414302902  0.8392487055396256  0.0970742102196788   T   T   T
  0.3088960595472609  0.0880543774793506  0.0893693460946493   T   T   T
  0.1819644357567155  0.1722637746948425  0.0901214791521533   T   T   T
  0.1814588688839791  0.3386849896096928  0.0903202542444741   T   T   T
  0.3069983206919472  0.5903419094982449  0.0870434247496151   T   T   T
  0.1814309672599088  0.6732842046926218  0.0913211328468867   T   T   T
  0.3071476845659418  0.4209878985290839  0.0868010566909542   T   T   T
  0.1815498679023245  0.8390385652370069  0.0911294483447541   T   T   T
  0.4298628098894350  0.1716955563668951  0.0907205740789251   T   T   T
  0.5556206583514884  0.9206040240639392  0.0976484115712629   T   T   T
  0.4303230687656779  0.8407910172348499  0.0908541862870269   T   T   T
  0.8047938836092836  0.0901579556463200  0.0980542402624942   T   T   T
  0.6822532941055359  0.1774882313219648  0.1020877810633707   T   T   T
  0.8056481346327051  0.9215126408349644  0.0983969321160554   T   T   T
  0.8088262004057600  0.5896040422200935  0.1044434051567077   T   T   T
  0.8086887798876692  0.4216539825759587  0.1041720187802954   T   T   T
  0.6828822290278409  0.8357401400741294  0.1026136890576686   T   T   T
  0.5582974200269276  0.0949151437426477  0.0972703444791852   T   T   T
  0.4279221771587162  0.3338192810832962  0.0879058251284392   T   T   T
  0.4270049364023770  0.6797095725148097  0.0865321126134121   T   T   T
  0.6859209000616195  0.3388699256728068  0.1112694658304377   T   T   T
  0.6874436839003631  0.6725251822753502  0.1118037711812311   T   T   T
  0.3064779600880417  0.9220890803960615  0.0890116895687030   T   T   T
  0.5329187586934508  0.5088110048552353  0.1386417153180177   T   T   T
 
  0.00000000E+00  0.00000000E+00  0.00000000E+00
  0.00000000E+00  0.00000000E+00  0.00000000E+00
  0.00000000E+00  0.00000000E+00  0.00000000E+00
  0.00000000E+00  0.00000000E+00  0.00000000E+00
  0.00000000E+00  0.00000000E+00  0.00000000E+00
  0.00000000E+00  0.00000000E+00  0.00000000E+00
  0.00000000E+00  0.00000000E+00  0.00000000E+00
  0.00000000E+00  0.00000000E+00  0.00000000E+00
  0.00000000E+00  0.00000000E+00  0.00000000E+00
  0.00000000E+00  0.00000000E+00  0.00000000E+00
  0.00000000E+00  0.00000000E+00  0.00000000E+00
  0.00000000E+00  0.00000000E+00  0.00000000E+00
  0.00000000E+00  0.00000000E+00  0.00000000E+00
  0.00000000E+00  0.00000000E+00  0.00000000E+00
  0.00000000E+00  0.00000000E+00  0.00000000E+00
  0.00000000E+00  0.00000000E+00  0.00000000E+00
  0.00000000E+00  0.00000000E+00  0.00000000E+00
  0.00000000E+00  0.00000000E+00  0.00000000E+00
  0.00000000E+00  0.00000000E+00  0.00000000E+00
  0.00000000E+00  0.00000000E+00  0.00000000E+00
  0.00000000E+00  0.00000000E+00  0.00000000E+00
  0.00000000E+00  0.00000000E+00  0.00000000E+00
  0.00000000E+00  0.00000000E+00  0.00000000E+00
  0.00000000E+00  0.00000000E+00  0.00000000E+00
  0.00000000E+00  0.00000000E+00  0.00000000E+00
  0.00000000E+00  0.00000000E+00  0.00000000E+00
  0.00000000E+00  0.00000000E+00  0.00000000E+00
  0.00000000E+00  0.00000000E+00  0.00000000E+00
  0.00000000E+00  0.00000000E+00  0.00000000E+00
  0.00000000E+00  0.00000000E+00  0.00000000E+00
  0.00000000E+00  0.00000000E+00  0.00000000E+00
