Title                                   
   1.00000000000000     
     9.8694509999999998    0.0000000000000000    0.0000000000000000
     0.0000000000000000    8.5490480000000009    0.0000000000000000
     0.0000000000000000    0.0000000000000000   20.0000000000000000
    26     4     1
Selective dynamics
Direct
  0.0560499355188082  0.0892320600029951  0.0877193615434311   T   T   T
  0.9310590222123898  0.1722811372828982  0.0920530901377595   T   T   T
  0.0575733289639324  0.9231576806562832  0.0879288384734317   T   T   T
  0.9333138513020975  0.3394411792247020  0.0952066021167535   T   T   T
  0.0581389835126793  0.5895076417930649  0.0899573988922025   T   T   T
  0.9337112543917258  0.6725879498930531  0.0956361504704598   T   T   T
  0.0580250916636242  0.4227296214218321  0.0896595567036540   T   T   T
  0.9321180574047040  0.8395406090615397  0.0926080909038607   T   T   T
  0.3072522102021694  0.0874237571284010  0.0855461534718744   T   T   T
  0.1823683397123086  0.1721723531721102  0.0854992838604614   T   T   T
  0.1819799525949792  0.3388553763484209  0.0855608392288935   T   T   T
  0.3080445593727589  0.5902989859748037  0.0847712354315231   T   T   T
  0.1825198541772563  0.6730207898161179  0.0860097202106374   T   T   T
  0.3078762597435066  0.4208430979001978  0.0845221244565709   T   T   T
  0.1822082062278522  0.8391887285267637  0.0858228965439678   T   T   T
  0.4308420948670784  0.1744481269516866  0.0893139524665925   T   T   T
  0.5534759637380883  0.9225611326935044  0.0974720802439110   T   T   T
  0.4301276780620726  0.8384528284913109  0.0899878064022251   T   T   T
  0.8050098423742814  0.0890166702291748  0.0942069098878076   T   T   T
  0.6810291219058230  0.1768990789291681  0.1013438109564041   T   T   T
  0.8063500897731947  0.9225553382876767  0.0949062725288824   T   T   T
  0.6852871965350683  0.3384907993650502  0.1132365019017266   T   T   T
  0.8105707325830486  0.5911318522210554  0.1064111141990687   T   T   T
  0.6864190850782687  0.6736719611610724  0.1141164341983943   T   T   T
  0.8104852286746430  0.4205830672984187  0.1061916850457696   T   T   T
  0.6811647425129581  0.8372248186673845  0.1027261676498113   T   T   T
  0.5544501342846585  0.0927519684601530  0.0965177372483156   T   T   T
  0.4278773555056146  0.3341385045179907  0.0883427510121548   T   T   T
  0.4270367594571123  0.6778400267637619  0.0884633727500431   T   T   T
  0.3063538524166716  0.9232162301014546  0.0852757163610424   T   T   T
  0.5344162152306416  0.5076116276579601  0.1439513447024180   T   T   T
 
  0.00000000E+00  0.00000000E+00  0.00000000E+00
  0.00000000E+00  0.00000000E+00  0.00000000E+00
  0.00000000E+00  0.00000000E+00  0.00000000E+00
  0.00000000E+00  0.00000000E+00  0.00000000E+00
  0.00000000E+00  0.00000000E+00  0.00000000E+00
  0.00000000E+00  0.00000000E+00  0.00000000E+00
  0.00000000E+00  0.00000000E+00  0.00000000E+00
  0.00000000E+00  0.00000000E+00  0.00000000E+00
  0.00000000E+00  0.00000000E+00  0.00000000E+00
  0.00000000E+00  0.00000000E+00  0.00000000E+00
  0.00000000E+00  0.00000000E+00  0.00000000E+00
  0.00000000E+00  0.00000000E+00  0.00000000E+00
  0.00000000E+00  0.00000000E+00  0.00000000E+00
  0.00000000E+00  0.00000000E+00  0.00000000E+00
  0.00000000E+00  0.00000000E+00  0.00000000E+00
  0.00000000E+00  0.00000000E+00  0.00000000E+00
  0.00000000E+00  0.00000000E+00  0.00000000E+00
  0.00000000E+00  0.00000000E+00  0.00000000E+00
  0.00000000E+00  0.00000000E+00  0.00000000E+00
  0.00000000E+00  0.00000000E+00  0.00000000E+00
  0.00000000E+00  0.00000000E+00  0.00000000E+00
  0.00000000E+00  0.00000000E+00  0.00000000E+00
  0.00000000E+00  0.00000000E+00  0.00000000E+00
  0.00000000E+00  0.00000000E+00  0.00000000E+00
  0.00000000E+00  0.00000000E+00  0.00000000E+00
  0.00000000E+00  0.00000000E+00  0.00000000E+00
  0.00000000E+00  0.00000000E+00  0.00000000E+00
  0.00000000E+00  0.00000000E+00  0.00000000E+00
  0.00000000E+00  0.00000000E+00  0.00000000E+00
  0.00000000E+00  0.00000000E+00  0.00000000E+00
  0.00000000E+00  0.00000000E+00  0.00000000E+00
