Title                                   
   1.00000000000000     
     9.8694509999999998    0.0000000000000000    0.0000000000000000
     0.0000000000000000    8.5490480000000009    0.0000000000000000
     0.0000000000000000    0.0000000000000000   20.0000000000000000
    25     5     1
Selective dynamics
Direct
  0.0553203380666017  0.0910401446431912  0.0886740286000651   T   T   T
  0.9295116421688485  0.1736949056929931  0.0889621781520453   T   T   T
  0.0578538001751781  0.9233216129144023  0.0886003598984287   T   T   T
  0.9321971814613430  0.3412193038262985  0.0881989811634393   T   T   T
  0.0575622869940369  0.5897855517913752  0.0852794693070236   T   T   T
  0.9340310175299450  0.6744413177919192  0.0890456090234039   T   T   T
  0.0570789529544098  0.4231643435516340  0.0856347807565044   T   T   T
  0.9328343038299662  0.8413532075024454  0.0902908344088617   T   T   T
  0.3077118504117647  0.0876867410834297  0.0942270431367740   T   T   T
  0.1806161480790718  0.1712563630637865  0.0906497774770064   T   T   T
  0.1806239156051499  0.3380980015396028  0.0891278096546348   T   T   T
  0.3038060103339270  0.5878295666878740  0.0938019672996196   T   T   T
  0.1817608875873049  0.6729671363258137  0.0873026353695555   T   T   T
  0.3032366236796214  0.4205620707006897  0.0966350168333270   T   T   T
  0.1819108578186483  0.8397058385077287  0.0889062833371275   T   T   T
  0.4279839486749674  0.1727737506467207  0.1025452107574081   T   T   T
  0.5545554189159433  0.9185785918740335  0.1030052073018687   T   T   T
  0.4297431801221913  0.8356501814005276  0.0998843427758724   T   T   T
  0.8028387764099369  0.0905908963436156  0.0924662719844040   T   T   T
  0.6784743846526331  0.1759928377744521  0.0986379902063274   T   T   T
  0.8060580549659254  0.9227410920418159  0.0939966621577771   T   T   T
  0.6841748208176858  0.3427880058241496  0.1041879611940902   T   T   T
  0.8124888643093687  0.5933592920012413  0.0970785620972567   T   T   T
  0.8096664923486107  0.4255285048684851  0.0948681835644038   T   T   T
  0.6836932469617496  0.8366994110597792  0.1029208373598135   T   T   T
  0.5549431379148402  0.0917545555892477  0.1026429556853033   T   T   T
  0.4216832809317621  0.3351964192183151  0.1132547004417901   T   T   T
  0.6925630148644030  0.6747849570048754  0.1123417307401603   T   T   T
  0.4236912312106074  0.6728703702472411  0.1045401689131476   T   T   T
  0.3072011672760666  0.9207366916015597  0.0923752055978089   T   T   T
  0.5573201629275024  0.5047033368807688  0.1408822348047871   T   T   T
 
  0.00000000E+00  0.00000000E+00  0.00000000E+00
  0.00000000E+00  0.00000000E+00  0.00000000E+00
  0.00000000E+00  0.00000000E+00  0.00000000E+00
  0.00000000E+00  0.00000000E+00  0.00000000E+00
  0.00000000E+00  0.00000000E+00  0.00000000E+00
  0.00000000E+00  0.00000000E+00  0.00000000E+00
  0.00000000E+00  0.00000000E+00  0.00000000E+00
  0.00000000E+00  0.00000000E+00  0.00000000E+00
  0.00000000E+00  0.00000000E+00  0.00000000E+00
  0.00000000E+00  0.00000000E+00  0.00000000E+00
  0.00000000E+00  0.00000000E+00  0.00000000E+00
  0.00000000E+00  0.00000000E+00  0.00000000E+00
  0.00000000E+00  0.00000000E+00  0.00000000E+00
  0.00000000E+00  0.00000000E+00  0.00000000E+00
  0.00000000E+00  0.00000000E+00  0.00000000E+00
  0.00000000E+00  0.00000000E+00  0.00000000E+00
  0.00000000E+00  0.00000000E+00  0.00000000E+00
  0.00000000E+00  0.00000000E+00  0.00000000E+00
  0.00000000E+00  0.00000000E+00  0.00000000E+00
  0.00000000E+00  0.00000000E+00  0.00000000E+00
  0.00000000E+00  0.00000000E+00  0.00000000E+00
  0.00000000E+00  0.00000000E+00  0.00000000E+00
  0.00000000E+00  0.00000000E+00  0.00000000E+00
  0.00000000E+00  0.00000000E+00  0.00000000E+00
  0.00000000E+00  0.00000000E+00  0.00000000E+00
  0.00000000E+00  0.00000000E+00  0.00000000E+00
  0.00000000E+00  0.00000000E+00  0.00000000E+00
  0.00000000E+00  0.00000000E+00  0.00000000E+00
  0.00000000E+00  0.00000000E+00  0.00000000E+00
  0.00000000E+00  0.00000000E+00  0.00000000E+00
  0.00000000E+00  0.00000000E+00  0.00000000E+00
