Title                                   
   1.00000000000000     
     8.5490480000000009    0.0000000000000000    0.0000000000000000
     0.0000000000000000    8.5490480000000009    0.0000000000000000
     0.0000000000000000    0.0000000000000000   20.0000000000000000
    18     6     1
Selective dynamics
Direct
  0.9084072778673731  0.2054749293586111  0.0933606809420368   T   T   T
  0.9107781622815539  0.8011397374334476  0.0936526117729031   T   T   T
  0.1954460808016159  0.0834108602794035  0.0942026576367375   T   T   T
  0.0757767061319457  0.2007538684145266  0.0935944141959799   T   T   T
  0.1554040362921585  0.6525444706609889  0.0956397492110291   T   T   T
  0.0779849070174860  0.5008039501631028  0.0962285968727638   T   T   T
  0.1545997378498988  0.3497382877614806  0.0961670400894054   T   T   T
  0.0786286798521821  0.7995066906375685  0.0932755025745497   T   T   T
  0.4932807126161504  0.0884089208243898  0.0976293497497112   T   T   T
  0.3424896426380534  0.1639421087858837  0.0970739115110326   T   T   T
  0.4926037616285324  0.9166001704633487  0.0975173740318992   T   T   T
  0.3431403058247952  0.8378005619145692  0.0966326454228159   T   T   T
  0.7889320419585304  0.0876516678127484  0.0942668486114674   T   T   T
  0.6427334913378404  0.1683212040130648  0.0971161545830086   T   T   T
  0.7896275279378260  0.9185256383665517  0.0944758315329881   T   T   T
  0.8317874200238466  0.6519631449046055  0.0961534196577320   T   T   T
  0.8300690980920663  0.3536973547389793  0.0957113923750802   T   T   T
  0.6438055343876798  0.8364364901751242  0.0973558944653186   T   T   T
  0.9076679785653301  0.5024500754893103  0.0960647102724810   T   T   T
  0.3161489392440882  0.3251713353553239  0.0991062012590694   T   T   T
  0.3170012379867034  0.6791333354689635  0.0985374914405224   T   T   T
  0.6697630261010162  0.3318086643724713  0.0989173672586583   T   T   T
  0.6717484574608407  0.6734487168472533  0.0994857666312787   T   T   T
  0.1967452858031843  0.9161856405580514  0.0937259576927059   T   T   T
  0.4908419502992956  0.4998721752002298  0.1378134302088051   T   T   T
 
  0.00000000E+00  0.00000000E+00  0.00000000E+00
  0.00000000E+00  0.00000000E+00  0.00000000E+00
  0.00000000E+00  0.00000000E+00  0.00000000E+00
  0.00000000E+00  0.00000000E+00  0.00000000E+00
  0.00000000E+00  0.00000000E+00  0.00000000E+00
  0.00000000E+00  0.00000000E+00  0.00000000E+00
  0.00000000E+00  0.00000000E+00  0.00000000E+00
  0.00000000E+00  0.00000000E+00  0.00000000E+00
  0.00000000E+00  0.00000000E+00  0.00000000E+00
  0.00000000E+00  0.00000000E+00  0.00000000E+00
  0.00000000E+00  0.00000000E+00  0.00000000E+00
  0.00000000E+00  0.00000000E+00  0.00000000E+00
  0.00000000E+00  0.00000000E+00  0.00000000E+00
  0.00000000E+00  0.00000000E+00  0.00000000E+00
  0.00000000E+00  0.00000000E+00  0.00000000E+00
  0.00000000E+00  0.00000000E+00  0.00000000E+00
  0.00000000E+00  0.00000000E+00  0.00000000E+00
  0.00000000E+00  0.00000000E+00  0.00000000E+00
  0.00000000E+00  0.00000000E+00  0.00000000E+00
  0.00000000E+00  0.00000000E+00  0.00000000E+00
  0.00000000E+00  0.00000000E+00  0.00000000E+00
  0.00000000E+00  0.00000000E+00  0.00000000E+00
  0.00000000E+00  0.00000000E+00  0.00000000E+00
  0.00000000E+00  0.00000000E+00  0.00000000E+00
  0.00000000E+00  0.00000000E+00  0.00000000E+00
