Title                                   
   1.00000000000000     
     9.8694509999999998    0.0000000000000000    0.0000000000000000
     0.0000000000000000    8.5490480000000009    0.0000000000000000
     0.0000000000000000    0.0000000000000000   20.0000000000000000
    26     4     1
Selective dynamics
Direct
  0.0553337322088184  0.0898820663270049  0.0850226429885274   T   T   T
  0.9302951655080269  0.1718695935290390  0.0866083929057953   T   T   T
  0.0570666270834016  0.9230744560837900  0.0852088356890460   T   T   T
  0.9337617267467176  0.3389437579724942  0.0855005168361729   T   T   T
  0.0582005169063387  0.5898705164269392  0.0809999193828085   T   T   T
  0.9339673831330622  0.6735702461265178  0.0855185025684602   T   T   T
  0.0581350088755319  0.4229085696207615  0.0809331726861025   T   T   T
  0.9309867683674016  0.8403808954044009  0.0866780522262910   T   T   T
  0.3064839545941216  0.0881410673731464  0.0913811202096459   T   T   T
  0.1814840495950421  0.1714011328262249  0.0858922086853425   T   T   T
  0.1819708729888335  0.3393541928813628  0.0836488349504936   T   T   T
  0.3051412268116583  0.5904973949282569  0.0920616309516717   T   T   T
  0.1825198727630658  0.6729038930826627  0.0838348742847706   T   T   T
  0.3052623991599465  0.4211089474429413  0.0915290920335938   T   T   T
  0.1813425865867631  0.8406313872967072  0.0864821907098374   T   T   T
  0.4287675156559371  0.1758159475437707  0.0994976657477934   T   T   T
  0.5525487861388576  0.9216288764147941  0.1035462475695761   T   T   T
  0.4276396995700636  0.8368582524003310  0.1012192677730794   T   T   T
  0.8027020934204356  0.0900939813153529  0.0920263776638168   T   T   T
  0.6801288789685114  0.1775825106969197  0.1009756045796569   T   T   T
  0.8043388359948016  0.9215623862343288  0.0923536148201465   T   T   T
  0.6881180286941553  0.3440442649575157  0.1105551813936125   T   T   T
  0.8132144646488393  0.5902389135310925  0.0956840554139994   T   T   T
  0.6887428101599183  0.6679757477512192  0.1102291070637247   T   T   T
  0.8132879131647236  0.4217165524599137  0.0956994199727757   T   T   T
  0.6801348534323090  0.8357009770640613  0.1021663449611929   T   T   T
  0.5534383309790468  0.0930283791051401  0.1028636091557576   T   T   T
  0.4229478133219221  0.3361911855239113  0.1047592620744145   T   T   T
  0.4210725458751110  0.6756235211034445  0.1078722346728797   T   T   T
  0.3056336110591600  0.9223941409914607  0.0917860633803329   T   T   T
  0.5584669275874937  0.5058812455844985  0.1384309566487301   T   T   T
 
  0.00000000E+00  0.00000000E+00  0.00000000E+00
  0.00000000E+00  0.00000000E+00  0.00000000E+00
  0.00000000E+00  0.00000000E+00  0.00000000E+00
  0.00000000E+00  0.00000000E+00  0.00000000E+00
  0.00000000E+00  0.00000000E+00  0.00000000E+00
  0.00000000E+00  0.00000000E+00  0.00000000E+00
  0.00000000E+00  0.00000000E+00  0.00000000E+00
  0.00000000E+00  0.00000000E+00  0.00000000E+00
  0.00000000E+00  0.00000000E+00  0.00000000E+00
  0.00000000E+00  0.00000000E+00  0.00000000E+00
  0.00000000E+00  0.00000000E+00  0.00000000E+00
  0.00000000E+00  0.00000000E+00  0.00000000E+00
  0.00000000E+00  0.00000000E+00  0.00000000E+00
  0.00000000E+00  0.00000000E+00  0.00000000E+00
  0.00000000E+00  0.00000000E+00  0.00000000E+00
  0.00000000E+00  0.00000000E+00  0.00000000E+00
  0.00000000E+00  0.00000000E+00  0.00000000E+00
  0.00000000E+00  0.00000000E+00  0.00000000E+00
  0.00000000E+00  0.00000000E+00  0.00000000E+00
  0.00000000E+00  0.00000000E+00  0.00000000E+00
  0.00000000E+00  0.00000000E+00  0.00000000E+00
  0.00000000E+00  0.00000000E+00  0.00000000E+00
  0.00000000E+00  0.00000000E+00  0.00000000E+00
  0.00000000E+00  0.00000000E+00  0.00000000E+00
  0.00000000E+00  0.00000000E+00  0.00000000E+00
  0.00000000E+00  0.00000000E+00  0.00000000E+00
  0.00000000E+00  0.00000000E+00  0.00000000E+00
  0.00000000E+00  0.00000000E+00  0.00000000E+00
  0.00000000E+00  0.00000000E+00  0.00000000E+00
  0.00000000E+00  0.00000000E+00  0.00000000E+00
  0.00000000E+00  0.00000000E+00  0.00000000E+00
