Title                                   
   1.00000000000000     
     8.5490480000000009    0.0000000000000000    0.0000000000000000
     0.0000000000000000    8.5490480000000009    0.0000000000000000
     0.0000000000000000    0.0000000000000000   20.0000000000000000
    19     5     1
Selective dynamics
Direct
  0.9083429143239889  0.2057794031576557  0.0951116826921361   T   T   T
  0.9108961332296788  0.8002823240755296  0.0952926067219133   T   T   T
  0.1977759557609181  0.0832023922153884  0.0944427730547961   T   T   T
  0.0771480950252286  0.2018807775383681  0.0952037464147199   T   T   T
  0.1549324206923337  0.6498101855909035  0.0979024882186683   T   T   T
  0.0740760334951451  0.5007006072868431  0.0976359331708674   T   T   T
  0.1543837951542148  0.3529667534312437  0.0977023365619428   T   T   T
  0.0793940597340726  0.7990097186666359  0.0954404368300532   T   T   T
  0.3471412529457957  0.1629629241367385  0.0960918681071809   T   T   T
  0.4939216323801152  0.9189168169868813  0.0965940544364524   T   T   T
  0.3457009118683462  0.8403147242969805  0.0966738192718115   T   T   T
  0.7877620613527716  0.0867671829012718  0.0953585062728209   T   T   T
  0.6416740271160971  0.1669203994566375  0.0970991038963330   T   T   T
  0.7896983976803417  0.9179158608375158  0.0954566585674027   T   T   T
  0.8298446455576106  0.6514193574376973  0.0968694739499402   T   T   T
  0.8279459234091323  0.3528062234609736  0.0967283188121739   T   T   T
  0.6428702406257707  0.8378338056450212  0.0971547257628487   T   T   T
  0.3243301323816302  0.3282253538223755  0.0999286358527543   T   T   T
  0.3230219635125307  0.6758937594914977  0.1004169924664255   T   T   T
  0.4953515290006265  0.0876025836044027  0.0963375265131017   T   T   T
  0.9041987243779481  0.5021243823407077  0.0969097328964775   T   T   T
  0.6655274898329492  0.3301525662727655  0.0995849006775089   T   T   T
  0.6687969954231897  0.6734094748835082  0.0992327247550340   T   T   T
  0.1964467021728497  0.9166375701996536  0.0945054649623161   T   T   T
  0.4842299629467072  0.5012548522628228  0.1200304891342934   T   T   T
 
  0.00000000E+00  0.00000000E+00  0.00000000E+00
  0.00000000E+00  0.00000000E+00  0.00000000E+00
  0.00000000E+00  0.00000000E+00  0.00000000E+00
  0.00000000E+00  0.00000000E+00  0.00000000E+00
  0.00000000E+00  0.00000000E+00  0.00000000E+00
  0.00000000E+00  0.00000000E+00  0.00000000E+00
  0.00000000E+00  0.00000000E+00  0.00000000E+00
  0.00000000E+00  0.00000000E+00  0.00000000E+00
  0.00000000E+00  0.00000000E+00  0.00000000E+00
  0.00000000E+00  0.00000000E+00  0.00000000E+00
  0.00000000E+00  0.00000000E+00  0.00000000E+00
  0.00000000E+00  0.00000000E+00  0.00000000E+00
  0.00000000E+00  0.00000000E+00  0.00000000E+00
  0.00000000E+00  0.00000000E+00  0.00000000E+00
  0.00000000E+00  0.00000000E+00  0.00000000E+00
  0.00000000E+00  0.00000000E+00  0.00000000E+00
  0.00000000E+00  0.00000000E+00  0.00000000E+00
  0.00000000E+00  0.00000000E+00  0.00000000E+00
  0.00000000E+00  0.00000000E+00  0.00000000E+00
  0.00000000E+00  0.00000000E+00  0.00000000E+00
  0.00000000E+00  0.00000000E+00  0.00000000E+00
  0.00000000E+00  0.00000000E+00  0.00000000E+00
  0.00000000E+00  0.00000000E+00  0.00000000E+00
  0.00000000E+00  0.00000000E+00  0.00000000E+00
  0.00000000E+00  0.00000000E+00  0.00000000E+00
