Title                                   
   1.00000000000000     
     4.9440799999999996    0.0000000000000000    0.0000000000000000
     0.0000000000000000    8.5647549999999999    0.0000000000000000
     0.0000000000000000    0.0000000000000000   20.0000000000000000
    11     3     1
Selective dynamics
Direct
  0.2441013123248043  0.2094440492725469  0.0978547555070451   T   T   T
 -0.0057966398951994  0.2959338601720540  0.1008425620238315   T   T   T
  0.2466497996149413  0.0375922119328838  0.0980105590650243   T   T   T
 -0.0023962668884679  0.9530296517105030  0.1001827724797501   T   T   T
  0.7482891155691113  0.2088344210792054  0.0952351336569848   T   T   T
  0.4951724091501182  0.2933488584909440  0.0935430813007745   T   T   T
  0.7508061922562772  0.0405518214359243  0.0955592590949958   T   T   T
  0.7514013640303823  0.7132318677772894  0.0986238424025831   T   T   T
  0.7467621747635849  0.5411608877910323  0.0981388937353370   T   T   T
  0.5011955237621267  0.9549603006750313  0.0951974727087331   T   T   T
  0.5033293865693680  0.4587037410948681  0.0892191752083125   T   T   T
 -0.0098841806019015  0.4595928670294787  0.1108255714459079   T   T   T
 -0.0083067304704027  0.7904190679345079  0.1075220693899955   T   T   T
  0.5109305381271895  0.7935880537312086  0.0930769003856007   T   T   T
  0.2777460016880693  0.6212893398725257  0.1341479515951276   T   T   T
 
  0.00000000E+00  0.00000000E+00  0.00000000E+00
  0.00000000E+00  0.00000000E+00  0.00000000E+00
  0.00000000E+00  0.00000000E+00  0.00000000E+00
  0.00000000E+00  0.00000000E+00  0.00000000E+00
  0.00000000E+00  0.00000000E+00  0.00000000E+00
  0.00000000E+00  0.00000000E+00  0.00000000E+00
  0.00000000E+00  0.00000000E+00  0.00000000E+00
  0.00000000E+00  0.00000000E+00  0.00000000E+00
  0.00000000E+00  0.00000000E+00  0.00000000E+00
  0.00000000E+00  0.00000000E+00  0.00000000E+00
  0.00000000E+00  0.00000000E+00  0.00000000E+00
  0.00000000E+00  0.00000000E+00  0.00000000E+00
  0.00000000E+00  0.00000000E+00  0.00000000E+00
  0.00000000E+00  0.00000000E+00  0.00000000E+00
  0.00000000E+00  0.00000000E+00  0.00000000E+00
