Title                                   
   1.00000000000000     
     9.8694509999999998    0.0000000000000000    0.0000000000000000
     0.0000000000000000    8.5490480000000009    0.0000000000000000
     0.0000000000000000    0.0000000000000000   20.0000000000000000
    26     4     1
Selective dynamics
Direct
  0.0552202547824372  0.0908646517127219  0.0879103870081143   T   T   T
  0.9302655826350723  0.1732230516933033  0.0889236747151364   T   T   T
  0.0576663670565675  0.9236220712059625  0.0880873319708723   T   T   T
  0.9326249384511585  0.3409480976673103  0.0878656178334036   T   T   T
  0.0574689354319442  0.5901573913484708  0.0841169571363676   T   T   T
  0.9340357254867576  0.6749485843156368  0.0881926163121769   T   T   T
  0.0571356655082866  0.4232606850871862  0.0843576134342892   T   T   T
  0.9329171096068344  0.8412056328312015  0.0897922360879844   T   T   T
  0.3067375457805434  0.0882910872153525  0.0945510411442540   T   T   T
  0.1804572170247635  0.1712720132310985  0.0894735651590776   T   T   T
  0.1806020671845356  0.3381200636520849  0.0876887069218070   T   T   T
  0.3029746115804898  0.5881020623899514  0.0929103053766225   T   T   T
  0.1812805276929381  0.6737835138259395  0.0863950566478832   T   T   T
  0.3027768200777800  0.4217091112094473  0.0954619934701678   T   T   T
  0.1818490818842681  0.8400571721264758  0.0884440825710788   T   T   T
  0.5549252017917959  0.0899447762525229  0.1038373686753135   T   T   T
  0.4280372280755248  0.1736383275162353  0.1033804505665543   T   T   T
  0.5547820036988307  0.9180324143204343  0.1033451586300907   T   T   T
  0.4286539310062445  0.8341140104079987  0.1001972435366726   T   T   T
  0.8038179283800723  0.0903419370516701  0.0936783764567355   T   T   T
  0.6797838201755159  0.1758037380076184  0.1013567465387873   T   T   T
  0.8055394461553506  0.9224974786708947  0.0943348519455009   T   T   T
  0.6863430008753520  0.3442074970312405  0.1078783681171341   T   T   T
  0.8129313718539027  0.5929511113104642  0.0968249201299043   T   T   T
  0.8106137403992451  0.4257875129598025  0.0957825130215563   T   T   T
  0.6833079402568678  0.8347057223730193  0.1027585627209851   T   T   T
  0.4210988603046087  0.3383124433882967  0.1123270712824033   T   T   T
  0.6925206981108322  0.6722884396536484  0.1116788880537985   T   T   T
  0.4224034994572152  0.6728369546591633  0.1038464830663705   T   T   T
  0.3077345908929784  0.9216931779809655  0.0930454722217921   T   T   T
  0.5566292883812946  0.5041542689038928  0.1425213392472016   T   T   T
 
  0.00000000E+00  0.00000000E+00  0.00000000E+00
  0.00000000E+00  0.00000000E+00  0.00000000E+00
  0.00000000E+00  0.00000000E+00  0.00000000E+00
  0.00000000E+00  0.00000000E+00  0.00000000E+00
  0.00000000E+00  0.00000000E+00  0.00000000E+00
  0.00000000E+00  0.00000000E+00  0.00000000E+00
  0.00000000E+00  0.00000000E+00  0.00000000E+00
  0.00000000E+00  0.00000000E+00  0.00000000E+00
  0.00000000E+00  0.00000000E+00  0.00000000E+00
  0.00000000E+00  0.00000000E+00  0.00000000E+00
  0.00000000E+00  0.00000000E+00  0.00000000E+00
  0.00000000E+00  0.00000000E+00  0.00000000E+00
  0.00000000E+00  0.00000000E+00  0.00000000E+00
  0.00000000E+00  0.00000000E+00  0.00000000E+00
  0.00000000E+00  0.00000000E+00  0.00000000E+00
  0.00000000E+00  0.00000000E+00  0.00000000E+00
  0.00000000E+00  0.00000000E+00  0.00000000E+00
  0.00000000E+00  0.00000000E+00  0.00000000E+00
  0.00000000E+00  0.00000000E+00  0.00000000E+00
  0.00000000E+00  0.00000000E+00  0.00000000E+00
  0.00000000E+00  0.00000000E+00  0.00000000E+00
  0.00000000E+00  0.00000000E+00  0.00000000E+00
  0.00000000E+00  0.00000000E+00  0.00000000E+00
  0.00000000E+00  0.00000000E+00  0.00000000E+00
  0.00000000E+00  0.00000000E+00  0.00000000E+00
  0.00000000E+00  0.00000000E+00  0.00000000E+00
  0.00000000E+00  0.00000000E+00  0.00000000E+00
  0.00000000E+00  0.00000000E+00  0.00000000E+00
  0.00000000E+00  0.00000000E+00  0.00000000E+00
  0.00000000E+00  0.00000000E+00  0.00000000E+00
  0.00000000E+00  0.00000000E+00  0.00000000E+00
