Title                                   
   1.00000000000000     
     9.8694509999999998    0.0000000000000000    0.0000000000000000
     0.0000000000000000    8.5490480000000009    0.0000000000000000
     0.0000000000000000    0.0000000000000000   20.0000000000000000
    31     1
Selective dynamics
Direct
  0.0562585990185932  0.0896719818564706  0.0834043401273582   T   T   T
  0.9314094324249723  0.1728142352618633  0.0855786317958316   T   T   T
  0.0562520515763216  0.9228714970864214  0.0831049565358156   T   T   T
  0.9310350974566870  0.3395334454069104  0.0884842755220676   T   T   T
  0.0562261530548222  0.5888602721220819  0.0858477023816390   T   T   T
  0.9322134507885580  0.6725192612222591  0.0876581459902589   T   T   T
  0.0562346601935242  0.4225236196769542  0.0868491979442355   T   T   T
  0.9315641865129634  0.8394495559492061  0.0857313111313862   T   T   T
  0.3054719456651739  0.0894751729742828  0.0878675078331665   T   T   T
  0.1810881072848267  0.1728203586707378  0.0855356945877183   T   T   T
  0.3052547361182735  0.9234615189846482  0.0890496596325212   T   T   T
  0.1814452308529671  0.3395438355513583  0.0884420680426308   T   T   T
  0.3034059353705293  0.5898264117690036  0.0979214678238134   T   T   T
  0.1802438541931231  0.6725178795250596  0.0876262936486896   T   T   T
  0.3053118967741926  0.4219131408960368  0.0967660430284067   T   T   T
  0.1809182412018769  0.8394437484838996  0.0856772975613249   T   T   T
  0.5562592745662104  0.0881173669067438  0.0947959327448608   T   T   T
  0.4305380850735384  0.1711378436912317  0.0933050364395891   T   T   T
  0.5562337508708854  0.9227641741226331  0.0991652064378141   T   T   T
  0.4305135610380047  0.3363738902074387  0.1009415755045343   T   T   T
  0.4215556231612492  0.6780989998722731  0.1106832878484532   T   T   T
  0.5562240570368036  0.4112783609778028  0.1132142050616979   T   T   T
  0.4289414064399933  0.8410069467542616  0.0996411278442769   T   T   T
  0.8070355653156124  0.0894628505662091  0.0879430798021968   T   T   T
  0.6819750844142672  0.1711420117531861  0.0933627637080125   T   T   T
  0.8072284378471591  0.9234618236275766  0.0891388607039911   T   T   T
  0.6819685336828100  0.3363707193110276  0.1009882622074461   T   T   T
  0.8090802232159435  0.5898095216291844  0.0979895847383600   T   T   T
  0.6909396088838951  0.6780685120796663  0.1107758079428521   T   T   T
  0.8071695250807038  0.4219005071894448  0.0968302648995398   T   T   T
  0.6835241265658062  0.8409688293250286  0.0997029064277388   T   T   T
  0.5561185583197190  0.5930377065491065  0.1716525041018070   T   T   T
 
  0.00000000E+00  0.00000000E+00  0.00000000E+00
  0.00000000E+00  0.00000000E+00  0.00000000E+00
  0.00000000E+00  0.00000000E+00  0.00000000E+00
  0.00000000E+00  0.00000000E+00  0.00000000E+00
  0.00000000E+00  0.00000000E+00  0.00000000E+00
  0.00000000E+00  0.00000000E+00  0.00000000E+00
  0.00000000E+00  0.00000000E+00  0.00000000E+00
  0.00000000E+00  0.00000000E+00  0.00000000E+00
  0.00000000E+00  0.00000000E+00  0.00000000E+00
  0.00000000E+00  0.00000000E+00  0.00000000E+00
  0.00000000E+00  0.00000000E+00  0.00000000E+00
  0.00000000E+00  0.00000000E+00  0.00000000E+00
  0.00000000E+00  0.00000000E+00  0.00000000E+00
  0.00000000E+00  0.00000000E+00  0.00000000E+00
  0.00000000E+00  0.00000000E+00  0.00000000E+00
  0.00000000E+00  0.00000000E+00  0.00000000E+00
  0.00000000E+00  0.00000000E+00  0.00000000E+00
  0.00000000E+00  0.00000000E+00  0.00000000E+00
  0.00000000E+00  0.00000000E+00  0.00000000E+00
  0.00000000E+00  0.00000000E+00  0.00000000E+00
  0.00000000E+00  0.00000000E+00  0.00000000E+00
  0.00000000E+00  0.00000000E+00  0.00000000E+00
  0.00000000E+00  0.00000000E+00  0.00000000E+00
  0.00000000E+00  0.00000000E+00  0.00000000E+00
  0.00000000E+00  0.00000000E+00  0.00000000E+00
  0.00000000E+00  0.00000000E+00  0.00000000E+00
  0.00000000E+00  0.00000000E+00  0.00000000E+00
  0.00000000E+00  0.00000000E+00  0.00000000E+00
  0.00000000E+00  0.00000000E+00  0.00000000E+00
  0.00000000E+00  0.00000000E+00  0.00000000E+00
  0.00000000E+00  0.00000000E+00  0.00000000E+00
  0.00000000E+00  0.00000000E+00  0.00000000E+00
