Title                                   
   1.00000000000000     
     9.8694509999999998    0.0000000000000000    0.0000000000000000
     0.0000000000000000    8.5490480000000009    0.0000000000000000
     0.0000000000000000    0.0000000000000000   20.0000000000000000
    23     7     1
Selective dynamics
Direct
  0.0558592159805351  0.0896579852084220  0.0921647505958802   T   T   T
  0.9318935441251084  0.1718192883302989  0.0928745798687366   T   T   T
  0.0571741861752346  0.9210206150985630  0.0923104336623474   T   T   T
  0.9334926506586575  0.3388812050541333  0.0927807703593597   T   T   T
  0.0556455983772294  0.5904495907045892  0.0917776965191198   T   T   T
  0.0558281394201301  0.4240502821800174  0.0915653762741158   T   T   T
  0.9324587172139650  0.8387477771438306  0.0931113147878496   T   T   T
  0.3067287013545609  0.0881152831791295  0.0950984886588821   T   T   T
  0.1805958263237297  0.1711037188447647  0.0930995497377790   T   T   T
  0.1793923817683738  0.3391191545604236  0.0930539164265619   T   T   T
  0.3005867955702247  0.5903122280423377  0.0971183323184840   T   T   T
  0.1788442962128597  0.6738314101942661  0.0931300332380042   T   T   T
  0.3014363436686917  0.4207698509825734  0.0970254059931334   T   T   T
  0.1812103764279199  0.8414017887972808  0.0932062427066421   T   T   T
  0.4287181262549450  0.1734303339096391  0.0991500716244893   T   T   T
  0.5550003238363772  0.9200243165122817  0.1001938797581592   T   T   T
  0.4280692455388957  0.8391606544295724  0.0999489198821817   T   T   T
  0.8060487309697763  0.0884284433412135  0.0948290270467872   T   T   T
  0.6837586228404177  0.1756748084812292  0.0987065111640520   T   T   T
  0.8069665523042214  0.9213252733882742  0.0950870395009280   T   T   T
  0.8122458723214032  0.5912466977183743  0.0969696795099437   T   T   T
  0.8122400086431988  0.4215864360542574  0.0965579103036210   T   T   T
  0.6829314595917729  0.8380809450000825  0.0994692914757972   T   T   T
  0.9337091058218721  0.6724434146105790  0.0929380229729324   T   T   T
  0.5570744418745377  0.0952262969726828  0.0998910049500163   T   T   T
  0.4218741711591716  0.3346358809441428  0.1028595465400652   T   T   T
  0.4197329012171679  0.6783017067753426  0.1041872433708607   T   T   T
  0.6905664944794375  0.3370783221092170  0.1021599150748659   T   T   T
  0.6936816289380501  0.6747518960206195  0.1033345318723863   T   T   T
  0.3044883646562571  0.9230325542132155  0.0948112776555174   T   T   T
  0.5548831762752767  0.5071668411986447  0.1115542361505582   T   T   T
 
  0.00000000E+00  0.00000000E+00  0.00000000E+00
  0.00000000E+00  0.00000000E+00  0.00000000E+00
  0.00000000E+00  0.00000000E+00  0.00000000E+00
  0.00000000E+00  0.00000000E+00  0.00000000E+00
  0.00000000E+00  0.00000000E+00  0.00000000E+00
  0.00000000E+00  0.00000000E+00  0.00000000E+00
  0.00000000E+00  0.00000000E+00  0.00000000E+00
  0.00000000E+00  0.00000000E+00  0.00000000E+00
  0.00000000E+00  0.00000000E+00  0.00000000E+00
  0.00000000E+00  0.00000000E+00  0.00000000E+00
  0.00000000E+00  0.00000000E+00  0.00000000E+00
  0.00000000E+00  0.00000000E+00  0.00000000E+00
  0.00000000E+00  0.00000000E+00  0.00000000E+00
  0.00000000E+00  0.00000000E+00  0.00000000E+00
  0.00000000E+00  0.00000000E+00  0.00000000E+00
  0.00000000E+00  0.00000000E+00  0.00000000E+00
  0.00000000E+00  0.00000000E+00  0.00000000E+00
  0.00000000E+00  0.00000000E+00  0.00000000E+00
  0.00000000E+00  0.00000000E+00  0.00000000E+00
  0.00000000E+00  0.00000000E+00  0.00000000E+00
  0.00000000E+00  0.00000000E+00  0.00000000E+00
  0.00000000E+00  0.00000000E+00  0.00000000E+00
  0.00000000E+00  0.00000000E+00  0.00000000E+00
  0.00000000E+00  0.00000000E+00  0.00000000E+00
  0.00000000E+00  0.00000000E+00  0.00000000E+00
  0.00000000E+00  0.00000000E+00  0.00000000E+00
  0.00000000E+00  0.00000000E+00  0.00000000E+00
  0.00000000E+00  0.00000000E+00  0.00000000E+00
  0.00000000E+00  0.00000000E+00  0.00000000E+00
  0.00000000E+00  0.00000000E+00  0.00000000E+00
  0.00000000E+00  0.00000000E+00  0.00000000E+00
