Title                                   
   1.00000000000000     
     4.9440799999999996    0.0000000000000000    0.0000000000000000
     0.0000000000000000   17.1295089999999988    0.0000000000000000
     0.0000000000000000    0.0000000000000000   20.0000000000000000
    27     3     1
Selective dynamics
Direct
  0.0009964183414168  0.1052874502207759  0.2954507247981352   T   T   T
  0.2500928794877285  0.1477526145124720  0.2966563958514023   T   T   T
  0.2499795737835702  0.2324462658189735  0.2994448611716958   T   T   T
 -0.0022920416616718  0.2732011168070988  0.3003201699097715   T   T   T
  0.0017307772303382  0.6026831509653693  0.3001021191910029   T   T   T
  0.2504783537001450  0.7270572989630300  0.2962978888337012   T   T   T
  0.0014976444515768  0.8531824208098596  0.2944272452869242   T   T   T
  0.2504028537696805  0.8953779588034508  0.2945446590357811   T   T   T
  0.2502904288137486  0.9792907567902818  0.2946172775316439   T   T   T
  0.0013220615277597  0.7691631286982635  0.2949504932659623   T   T   T
  0.4992455029044999  0.1052848445088660  0.2954052302858295   T   T   T
  0.7500960210744773  0.1469912148632004  0.2955609772190164   T   T   T
  0.7499924424230384  0.2303918835091424  0.2972621479187984   T   T   T
  0.4998503623786471  0.0213459766536487  0.2946473047607233   T   T   T
  0.7499776241603973  0.3930610488460481  0.3023597506253388   T   T   T
  0.7504808749841152  0.4786423719093009  0.3023456232556358   T   T   T
  0.5021977841858642  0.2732298028724727  0.2998839513050495   T   T   T
  0.4994933065682748  0.6027505924160026  0.2999011615309992   T   T   T
  0.7505571703957404  0.7279705741305288  0.2946712408170734   T   T   T
  0.4993533340060420  0.8531806538446733  0.2944205681183719   T   T   T
  0.7503749297103123  0.8951529430817251  0.2942224111534529   T   T   T
  0.7502735137049100  0.9791144560816684  0.2943649578851805   T   T   T
  0.4996700428355778  0.7691520143761502  0.2949128960853983   T   T   T
  0.7506932436391288  0.6450524848226332  0.2960002989702039   T   T   T
  0.0006458728721431  0.0213390843303736  0.2946698058620418   T   T   T
  0.5037409244970616  0.5206258186977482  0.3084793111250598   T   T   T
 -0.0024793601834715  0.5204480776563890  0.3089406509251224   T   T   T
  0.5110656501066555  0.3537785410813540  0.3038088446178712   T   T   T
 -0.0116523504220030  0.3536988042475960  0.3054772721382201   T   T   T
  0.2505204572336943  0.6445918081012686  0.2994067554978901   T   T   T
  0.2514107034806040  0.4400968415796317  0.3415070050266542   T   T   T
 
  0.00000000E+00  0.00000000E+00  0.00000000E+00
  0.00000000E+00  0.00000000E+00  0.00000000E+00
  0.00000000E+00  0.00000000E+00  0.00000000E+00
  0.00000000E+00  0.00000000E+00  0.00000000E+00
  0.00000000E+00  0.00000000E+00  0.00000000E+00
  0.00000000E+00  0.00000000E+00  0.00000000E+00
  0.00000000E+00  0.00000000E+00  0.00000000E+00
  0.00000000E+00  0.00000000E+00  0.00000000E+00
  0.00000000E+00  0.00000000E+00  0.00000000E+00
  0.00000000E+00  0.00000000E+00  0.00000000E+00
  0.00000000E+00  0.00000000E+00  0.00000000E+00
  0.00000000E+00  0.00000000E+00  0.00000000E+00
  0.00000000E+00  0.00000000E+00  0.00000000E+00
  0.00000000E+00  0.00000000E+00  0.00000000E+00
  0.00000000E+00  0.00000000E+00  0.00000000E+00
  0.00000000E+00  0.00000000E+00  0.00000000E+00
  0.00000000E+00  0.00000000E+00  0.00000000E+00
  0.00000000E+00  0.00000000E+00  0.00000000E+00
  0.00000000E+00  0.00000000E+00  0.00000000E+00
  0.00000000E+00  0.00000000E+00  0.00000000E+00
  0.00000000E+00  0.00000000E+00  0.00000000E+00
  0.00000000E+00  0.00000000E+00  0.00000000E+00
  0.00000000E+00  0.00000000E+00  0.00000000E+00
  0.00000000E+00  0.00000000E+00  0.00000000E+00
  0.00000000E+00  0.00000000E+00  0.00000000E+00
  0.00000000E+00  0.00000000E+00  0.00000000E+00
  0.00000000E+00  0.00000000E+00  0.00000000E+00
  0.00000000E+00  0.00000000E+00  0.00000000E+00
  0.00000000E+00  0.00000000E+00  0.00000000E+00
  0.00000000E+00  0.00000000E+00  0.00000000E+00
  0.00000000E+00  0.00000000E+00  0.00000000E+00
