Title                                   
   1.00000000000000     
     8.5490480000000009    0.0000000000000000    0.0000000000000000
     0.0000000000000000    8.5490480000000009    0.0000000000000000
     0.0000000000000000    0.0000000000000000   20.0000000000000000
    19     5     1
Selective dynamics
Direct
  0.9093722354810710  0.2049181255696398  0.0974543805402810   T   T   T
  0.9112282309980653  0.8005495782407118  0.0975323998966227   T   T   T
  0.2002238826141898  0.0834759769954064  0.0978097384763729   T   T   T
  0.0764282522255881  0.2034633716670381  0.0976386731156977   T   T   T
  0.1548006680793543  0.6496423809922025  0.0977719834316557   T   T   T
  0.0719285091643021  0.5010462684175063  0.0977289405221859   T   T   T
  0.1533801928894200  0.3548876260460946  0.0977241663667730   T   T   T
  0.0791863364649288  0.7992588399055089  0.0976693165135642   T   T   T
  0.3479074770261393  0.1663075619077424  0.0978464280114035   T   T   T
  0.4940262245535294  0.9178042418989274  0.0978362266583713   T   T   T
  0.3472579043177515  0.8357644736678753  0.0979931048867804   T   T   T
  0.7892530414103029  0.0854144580721041  0.0973930054236561   T   T   T
  0.6425787091325190  0.1660328114908916  0.0976518930564175   T   T   T
  0.7907820093200003  0.9184431221797847  0.0974275010376257   T   T   T
  0.8265793164047388  0.6519288385326509  0.0977109683328335   T   T   T
  0.8246556918347618  0.3525944375660343  0.0976582244785879   T   T   T
  0.6432045038784894  0.8379532809454587  0.0976668141575804   T   T   T
  0.3250484993903901  0.3358435196691462  0.0978550519210120   T   T   T
  0.3238237160407323  0.6688803351838097  0.0979526356880494   T   T   T
  0.4960189544444136  0.0878002061775872  0.0978421321830537   T   T   T
  0.9010645618897926  0.5019112182259157  0.0977878963977096   T   T   T
  0.6643465718696288  0.3282227268710813  0.0978631339763300   T   T   T
  0.6667514409630969  0.6751037210126825  0.0978535151862407   T   T   T
  0.1973424177814940  0.9171170319565585  0.0979113906321511   T   T   T
  0.4882226518252926  0.5004258468076614  0.0981254791090173   T   T   T
 
  0.00000000E+00  0.00000000E+00  0.00000000E+00
  0.00000000E+00  0.00000000E+00  0.00000000E+00
  0.00000000E+00  0.00000000E+00  0.00000000E+00
  0.00000000E+00  0.00000000E+00  0.00000000E+00
  0.00000000E+00  0.00000000E+00  0.00000000E+00
  0.00000000E+00  0.00000000E+00  0.00000000E+00
  0.00000000E+00  0.00000000E+00  0.00000000E+00
  0.00000000E+00  0.00000000E+00  0.00000000E+00
  0.00000000E+00  0.00000000E+00  0.00000000E+00
  0.00000000E+00  0.00000000E+00  0.00000000E+00
  0.00000000E+00  0.00000000E+00  0.00000000E+00
  0.00000000E+00  0.00000000E+00  0.00000000E+00
  0.00000000E+00  0.00000000E+00  0.00000000E+00
  0.00000000E+00  0.00000000E+00  0.00000000E+00
  0.00000000E+00  0.00000000E+00  0.00000000E+00
  0.00000000E+00  0.00000000E+00  0.00000000E+00
  0.00000000E+00  0.00000000E+00  0.00000000E+00
  0.00000000E+00  0.00000000E+00  0.00000000E+00
  0.00000000E+00  0.00000000E+00  0.00000000E+00
  0.00000000E+00  0.00000000E+00  0.00000000E+00
  0.00000000E+00  0.00000000E+00  0.00000000E+00
  0.00000000E+00  0.00000000E+00  0.00000000E+00
  0.00000000E+00  0.00000000E+00  0.00000000E+00
  0.00000000E+00  0.00000000E+00  0.00000000E+00
  0.00000000E+00  0.00000000E+00  0.00000000E+00
