Title                                   
   1.00000000000000     
     9.8694509999999998    0.0000000000000000    0.0000000000000000
     0.0000000000000000    8.5490480000000009    0.0000000000000000
     0.0000000000000000    0.0000000000000000   20.0000000000000000
    26     4     1
Selective dynamics
Direct
  0.0561356918379085  0.0906700081342661  0.0925124972417964   T   T   T
  0.9312646874140631  0.1728660661631067  0.0934067047652014   T   T   T
  0.0577253503974665  0.9241880021645792  0.0925625277928231   T   T   T
  0.9345028246561968  0.3399197725570293  0.0931207233936143   T   T   T
  0.0571198662722114  0.5903813714895007  0.0910988069419220   T   T   T
  0.9348357951187781  0.6754905578546364  0.0928329196990572   T   T   T
  0.0575678637461488  0.4232852984831936  0.0912344122029341   T   T   T
  0.9325830591751627  0.8413039497272049  0.0933787338974965   T   T   T
  0.3057019046794097  0.0883327736652293  0.0963205879449848   T   T   T
  0.1802705420268494  0.1710051161165684  0.0934425008688632   T   T   T
  0.1799407538817565  0.3391471942533449  0.0930241807197009   T   T   T
  0.3011822719512925  0.5907544199506487  0.0967772516980483   T   T   T
  0.1795048627682428  0.6736187525457077  0.0929243847716465   T   T   T
  0.3025355087999833  0.4207600938845233  0.0968946376948827   T   T   T
  0.1806722679717940  0.8414124415164416  0.0935038094500395   T   T   T
  0.5549234598969230  0.0891803597149695  0.1011435952015066   T   T   T
  0.4284540046695080  0.1740941078353045  0.1001835693779223   T   T   T
  0.5542505575883304  0.9181609135348844  0.1009920603843923   T   T   T
  0.4268007272490433  0.8343464262423416  0.0999110408781253   T   T   T
  0.8057016105427306  0.0902737799508578  0.0963213702195511   T   T   T
  0.6814857112282442  0.1755817276679948  0.1002314631926251   T   T   T
  0.8065031450207932  0.9219821558132724  0.0962138562892172   T   T   T
  0.6897464130809846  0.3420357919245255  0.1018188844700664   T   T   T
  0.8132800627554053  0.5939123249238129  0.0970401527881866   T   T   T
  0.8126605442889870  0.4235861391991205  0.0971269141487790   T   T   T
  0.6833689495937748  0.8335603327858450  0.1000042224550844   T   T   T
  0.4210221200675639  0.3369227592258479  0.1018488537119495   T   T   T
  0.6934426539228673  0.6721352790008014  0.1018585225098991   T   T   T
  0.4183857697120225  0.6765781611374677  0.1017482556668690   T   T   T
  0.3053249070793570  0.9227011804572136  0.0960347485000867   T   T   T
  0.5562411126062105  0.5026877420797741  0.1054528111227647   T   T   T
 
  0.00000000E+00  0.00000000E+00  0.00000000E+00
  0.00000000E+00  0.00000000E+00  0.00000000E+00
  0.00000000E+00  0.00000000E+00  0.00000000E+00
  0.00000000E+00  0.00000000E+00  0.00000000E+00
  0.00000000E+00  0.00000000E+00  0.00000000E+00
  0.00000000E+00  0.00000000E+00  0.00000000E+00
  0.00000000E+00  0.00000000E+00  0.00000000E+00
  0.00000000E+00  0.00000000E+00  0.00000000E+00
  0.00000000E+00  0.00000000E+00  0.00000000E+00
  0.00000000E+00  0.00000000E+00  0.00000000E+00
  0.00000000E+00  0.00000000E+00  0.00000000E+00
  0.00000000E+00  0.00000000E+00  0.00000000E+00
  0.00000000E+00  0.00000000E+00  0.00000000E+00
  0.00000000E+00  0.00000000E+00  0.00000000E+00
  0.00000000E+00  0.00000000E+00  0.00000000E+00
  0.00000000E+00  0.00000000E+00  0.00000000E+00
  0.00000000E+00  0.00000000E+00  0.00000000E+00
  0.00000000E+00  0.00000000E+00  0.00000000E+00
  0.00000000E+00  0.00000000E+00  0.00000000E+00
  0.00000000E+00  0.00000000E+00  0.00000000E+00
  0.00000000E+00  0.00000000E+00  0.00000000E+00
  0.00000000E+00  0.00000000E+00  0.00000000E+00
  0.00000000E+00  0.00000000E+00  0.00000000E+00
  0.00000000E+00  0.00000000E+00  0.00000000E+00
  0.00000000E+00  0.00000000E+00  0.00000000E+00
  0.00000000E+00  0.00000000E+00  0.00000000E+00
  0.00000000E+00  0.00000000E+00  0.00000000E+00
  0.00000000E+00  0.00000000E+00  0.00000000E+00
  0.00000000E+00  0.00000000E+00  0.00000000E+00
  0.00000000E+00  0.00000000E+00  0.00000000E+00
  0.00000000E+00  0.00000000E+00  0.00000000E+00
