Title                                   
   1.00000000000000     
     9.8694509999999998    0.0000000000000000    0.0000000000000000
     0.0000000000000000    8.5490480000000009    0.0000000000000000
     0.0000000000000000    0.0000000000000000   20.0000000000000000
    29     2     1
Selective dynamics
Direct
  0.0561541372192649  0.0908476800506703  0.0827728707817944   T   T   T
  0.9312337956018274  0.1732620194174315  0.0842174803488109   T   T   T
  0.0566124692013642  0.9240135304087227  0.0840142194989508   T   T   T
  0.9315426585641085  0.3401147263245232  0.0869354850324911   T   T   T
  0.0574197298504258  0.5896477672233231  0.0845098969211310   T   T   T
  0.9327864613563628  0.6722270444060958  0.0889455382640859   T   T   T
  0.0574712910797422  0.4229815197481487  0.0845619456516749   T   T   T
  0.9321429567676148  0.8394505058206004  0.0867330503836438   T   T   T
  0.3054949871005412  0.0879838043008645  0.0875921336408106   T   T   T
  0.1818818517572458  0.1725728999598299  0.0844857410889126   T   T   T
  0.1836526634888227  0.3405863073227200  0.0860699286991409   T   T   T
  0.3035036365051617  0.5923660219569398  0.0989836557518670   T   T   T
  0.1818013186760138  0.6743018715078742  0.0875065828250016   T   T   T
  0.3082961070504548  0.4244467059179248  0.0963161822522803   T   T   T
  0.1810035750685489  0.8411909072781846  0.0870458847536494   T   T   T
  0.5559671435768800  0.0860082788045792  0.0939745111049460   T   T   T
  0.4304360093962112  0.1697240298164786  0.0930716617558636   T   T   T
  0.5542456556809536  0.9198104838773139  0.0988566699704711   T   T   T
  0.4306155367213447  0.3343361194856895  0.1025187326768934   T   T   T
  0.5564345785181427  0.4052139569978952  0.1222981948713808   T   T   T
  0.4249991614719560  0.8411140943601877  0.1013746270580467   T   T   T
  0.8068337687798325  0.0888549098302923  0.0866388130992164   T   T   T
  0.6817587774157045  0.1700856783526198  0.0931810492489971   T   T   T
  0.8063655710985600  0.9226950345818312  0.0888769086093505   T   T   T
  0.6830268687520655  0.3342555402603896  0.1039816116444916   T   T   T
  0.8110314597583488  0.5894760202845905  0.1017578252336167   T   T   T
  0.6945726716915581  0.6797797396361083  0.1201878632856815   T   T   T
  0.8071394668222581  0.4218983154169987  0.0984483902703922   T   T   T
  0.6829946752473921  0.8400031659001531  0.1009048243598652   T   T   T
  0.4136845816847183  0.6847673912377045  0.1204623427562264   T   T   T
  0.3048007607568807  0.9234348786431725  0.0901285819136226   T   T   T
  0.5537346733396982  0.5927950508701301  0.1763217962467384   T   T   T
 
  0.00000000E+00  0.00000000E+00  0.00000000E+00
  0.00000000E+00  0.00000000E+00  0.00000000E+00
  0.00000000E+00  0.00000000E+00  0.00000000E+00
  0.00000000E+00  0.00000000E+00  0.00000000E+00
  0.00000000E+00  0.00000000E+00  0.00000000E+00
  0.00000000E+00  0.00000000E+00  0.00000000E+00
  0.00000000E+00  0.00000000E+00  0.00000000E+00
  0.00000000E+00  0.00000000E+00  0.00000000E+00
  0.00000000E+00  0.00000000E+00  0.00000000E+00
  0.00000000E+00  0.00000000E+00  0.00000000E+00
  0.00000000E+00  0.00000000E+00  0.00000000E+00
  0.00000000E+00  0.00000000E+00  0.00000000E+00
  0.00000000E+00  0.00000000E+00  0.00000000E+00
  0.00000000E+00  0.00000000E+00  0.00000000E+00
  0.00000000E+00  0.00000000E+00  0.00000000E+00
  0.00000000E+00  0.00000000E+00  0.00000000E+00
  0.00000000E+00  0.00000000E+00  0.00000000E+00
  0.00000000E+00  0.00000000E+00  0.00000000E+00
  0.00000000E+00  0.00000000E+00  0.00000000E+00
  0.00000000E+00  0.00000000E+00  0.00000000E+00
  0.00000000E+00  0.00000000E+00  0.00000000E+00
  0.00000000E+00  0.00000000E+00  0.00000000E+00
  0.00000000E+00  0.00000000E+00  0.00000000E+00
  0.00000000E+00  0.00000000E+00  0.00000000E+00
  0.00000000E+00  0.00000000E+00  0.00000000E+00
  0.00000000E+00  0.00000000E+00  0.00000000E+00
  0.00000000E+00  0.00000000E+00  0.00000000E+00
  0.00000000E+00  0.00000000E+00  0.00000000E+00
  0.00000000E+00  0.00000000E+00  0.00000000E+00
  0.00000000E+00  0.00000000E+00  0.00000000E+00
  0.00000000E+00  0.00000000E+00  0.00000000E+00
  0.00000000E+00  0.00000000E+00  0.00000000E+00
