Title                                   
   1.00000000000000     
     9.8694509999999998    0.0000000000000000    0.0000000000000000
     0.0000000000000000    8.5490480000000009    0.0000000000000000
     0.0000000000000000    0.0000000000000000   20.0000000000000000
    28     2     1
Selective dynamics
Direct
  0.0560069044145975  0.0888567614615538  0.0913800323201774   T   T   T
  0.9309872310008258  0.1717569793809623  0.0919585379536336   T   T   T
  0.0571389187388640  0.9241385064075204  0.0914313241096595   T   T   T
  0.9333745733551724  0.3386680085427984  0.0913161391781412   T   T   T
  0.0566154659006303  0.5904787191964681  0.0902337495988530   T   T   T
  0.9335905445741015  0.6740240077486676  0.0913414889663158   T   T   T
  0.0565650013976407  0.4227493349316555  0.0902567260430675   T   T   T
  0.9319045321836014  0.8402772371422516  0.0920290550881896   T   T   T
  0.3070889738348545  0.0883563831665725  0.0948136078572803   T   T   T
  0.1819500916197871  0.1707529796895933  0.0922416101525322   T   T   T
  0.1799359767384495  0.3379956464293437  0.0918617625081637   T   T   T
  0.3022817105150886  0.5906575221001323  0.0953828695247406   T   T   T
  0.1800885396031721  0.6750502002170889  0.0918106012690829   T   T   T
  0.3022117090511745  0.4206787639710784  0.0953616401079255   T   T   T
  0.1820280803341228  0.8413570075862634  0.0923345578019420   T   T   T
  0.4314492221466543  0.1754706516398675  0.0979579538305643   T   T   T
  0.5551633497479983  0.9238110740168042  0.0987238222754686   T   T   T
  0.4269780354607517  0.3402650710985962  0.0993413302516886   T   T   T
  0.4252496909653483  0.6716354758040453  0.0995452699933482   T   T   T
  0.4296733168149850  0.8372749835608827  0.0981936611888624   T   T   T
  0.8052449285921551  0.0892375722576137  0.0944054462190065   T   T   T
  0.6803730811249372  0.1770011285511240  0.0972148688294625   T   T   T
  0.8061229332334101  0.9222924988741517  0.0945198388527498   T   T   T
  0.6849222800839968  0.3420545339650816  0.0979350479046767   T   T   T
  0.8105887479798060  0.5906853989267682  0.0941747561615376   T   T   T
  0.6862689437310318  0.6693931583520547  0.0982398930216430   T   T   T
  0.8104348304618615  0.4208048835319987  0.0940789867370719   T   T   T
  0.6806705331604022  0.8357535609707396  0.0975674422010828   T   T   T
  0.5569707458852464  0.0897731902379327  0.0986731935345141   T   T   T
  0.3054431469100383  0.9228501939585074  0.0948180469862825   T   T   T
  0.5558129604392975  0.5067735662819024  0.1018217395323629   T   T   T
 
  0.00000000E+00  0.00000000E+00  0.00000000E+00
  0.00000000E+00  0.00000000E+00  0.00000000E+00
  0.00000000E+00  0.00000000E+00  0.00000000E+00
  0.00000000E+00  0.00000000E+00  0.00000000E+00
  0.00000000E+00  0.00000000E+00  0.00000000E+00
  0.00000000E+00  0.00000000E+00  0.00000000E+00
  0.00000000E+00  0.00000000E+00  0.00000000E+00
  0.00000000E+00  0.00000000E+00  0.00000000E+00
  0.00000000E+00  0.00000000E+00  0.00000000E+00
  0.00000000E+00  0.00000000E+00  0.00000000E+00
  0.00000000E+00  0.00000000E+00  0.00000000E+00
  0.00000000E+00  0.00000000E+00  0.00000000E+00
  0.00000000E+00  0.00000000E+00  0.00000000E+00
  0.00000000E+00  0.00000000E+00  0.00000000E+00
  0.00000000E+00  0.00000000E+00  0.00000000E+00
  0.00000000E+00  0.00000000E+00  0.00000000E+00
  0.00000000E+00  0.00000000E+00  0.00000000E+00
  0.00000000E+00  0.00000000E+00  0.00000000E+00
  0.00000000E+00  0.00000000E+00  0.00000000E+00
  0.00000000E+00  0.00000000E+00  0.00000000E+00
  0.00000000E+00  0.00000000E+00  0.00000000E+00
  0.00000000E+00  0.00000000E+00  0.00000000E+00
  0.00000000E+00  0.00000000E+00  0.00000000E+00
  0.00000000E+00  0.00000000E+00  0.00000000E+00
  0.00000000E+00  0.00000000E+00  0.00000000E+00
  0.00000000E+00  0.00000000E+00  0.00000000E+00
  0.00000000E+00  0.00000000E+00  0.00000000E+00
  0.00000000E+00  0.00000000E+00  0.00000000E+00
  0.00000000E+00  0.00000000E+00  0.00000000E+00
  0.00000000E+00  0.00000000E+00  0.00000000E+00
  0.00000000E+00  0.00000000E+00  0.00000000E+00
