Title                                   
   1.00000000000000     
     9.8694509999999998    0.0000000000000000    0.0000000000000000
     0.0000000000000000    8.5490480000000009    0.0000000000000000
     0.0000000000000000    0.0000000000000000   20.0000000000000000
    28     2     1
Selective dynamics
Direct
  0.0556157802062612  0.0887799238791194  0.0938763519547772   T   T   T
  0.9307553681673560  0.1722162244911045  0.0941999411272199   T   T   T
  0.0568400568553205  0.9235476159963774  0.0938817857408907   T   T   T
  0.9327868459324216  0.3394465720784872  0.0941770707927662   T   T   T
  0.0560675504012415  0.5890938769114387  0.0940130764323885   T   T   T
  0.9328999998674059  0.6747667988839734  0.0941512413794535   T   T   T
  0.0564176417942796  0.4232108583472970  0.0939962022354148   T   T   T
  0.9319771552212003  0.8408991483910498  0.0941450758223598   T   T   T
  0.3062651244433439  0.0907292395935234  0.0947824648433087   T   T   T
  0.1804749145482951  0.1714175932413585  0.0941469262602612   T   T   T
  0.3070614184565251  0.9220909536792993  0.0948445195537912   T   T   T
  0.1795726904045769  0.3375304035825067  0.0941821313988144   T   T   T
  0.3022754648287463  0.5888248518957027  0.0949645367268936   T   T   T
  0.1796893586514362  0.6728649522888199  0.0942305288620954   T   T   T
  0.3021194942775680  0.4193427212344683  0.0948792607407627   T   T   T
  0.1816977959836994  0.8401094246756743  0.0942126521861810   T   T   T
  0.5564972133411989  0.0907528303841690  0.0958863346294738   T   T   T
  0.4295461319187023  0.1801923998347922  0.0955146657963665   T   T   T
  0.5559425261480322  0.9214744773911112  0.0958785000129871   T   T   T
  0.4273416433436514  0.6674135480338312  0.0957966297757514   T   T   T
  0.4305835045185286  0.8337230517316817  0.0956285156508407   T   T   T
  0.8053805679498118  0.0902016987286305  0.0948503017145910   T   T   T
  0.6818524863217660  0.1785665838229116  0.0956424394794591   T   T   T
  0.8061751850338610  0.9215591132203030  0.0947870565219039   T   T   T
  0.6851013987432953  0.3449311607176168  0.0957626754315291   T   T   T
  0.8103618835999796  0.5929286139568971  0.0948133053593355   T   T   T
  0.8101815661915394  0.4234605554392077  0.0948874193175666   T   T   T
  0.6829137587037116  0.8320916129470489  0.0954854067029479   T   T   T
  0.4246809295882857  0.3429236201767935  0.0955748441141722   T   T   T
  0.6878258739998875  0.6694260468256361  0.0955255105641506   T   T   T
  0.5562336705580799  0.5063585276191819  0.0962476288715868   T   T   T
 
  0.00000000E+00  0.00000000E+00  0.00000000E+00
  0.00000000E+00  0.00000000E+00  0.00000000E+00
  0.00000000E+00  0.00000000E+00  0.00000000E+00
  0.00000000E+00  0.00000000E+00  0.00000000E+00
  0.00000000E+00  0.00000000E+00  0.00000000E+00
  0.00000000E+00  0.00000000E+00  0.00000000E+00
  0.00000000E+00  0.00000000E+00  0.00000000E+00
  0.00000000E+00  0.00000000E+00  0.00000000E+00
  0.00000000E+00  0.00000000E+00  0.00000000E+00
  0.00000000E+00  0.00000000E+00  0.00000000E+00
  0.00000000E+00  0.00000000E+00  0.00000000E+00
  0.00000000E+00  0.00000000E+00  0.00000000E+00
  0.00000000E+00  0.00000000E+00  0.00000000E+00
  0.00000000E+00  0.00000000E+00  0.00000000E+00
  0.00000000E+00  0.00000000E+00  0.00000000E+00
  0.00000000E+00  0.00000000E+00  0.00000000E+00
  0.00000000E+00  0.00000000E+00  0.00000000E+00
  0.00000000E+00  0.00000000E+00  0.00000000E+00
  0.00000000E+00  0.00000000E+00  0.00000000E+00
  0.00000000E+00  0.00000000E+00  0.00000000E+00
  0.00000000E+00  0.00000000E+00  0.00000000E+00
  0.00000000E+00  0.00000000E+00  0.00000000E+00
  0.00000000E+00  0.00000000E+00  0.00000000E+00
  0.00000000E+00  0.00000000E+00  0.00000000E+00
  0.00000000E+00  0.00000000E+00  0.00000000E+00
  0.00000000E+00  0.00000000E+00  0.00000000E+00
  0.00000000E+00  0.00000000E+00  0.00000000E+00
  0.00000000E+00  0.00000000E+00  0.00000000E+00
  0.00000000E+00  0.00000000E+00  0.00000000E+00
  0.00000000E+00  0.00000000E+00  0.00000000E+00
  0.00000000E+00  0.00000000E+00  0.00000000E+00
