Title                                   
   1.00000000000000     
     9.8694509999999998    0.0000000000000000    0.0000000000000000
     0.0000000000000000    8.5490480000000009    0.0000000000000000
     0.0000000000000000    0.0000000000000000   20.0000000000000000
    27     4     1
Selective dynamics
Direct
  0.0562520103899617  0.0924153126392998  0.0890846468519276   T   T   T
  0.9299613902830338  0.1762029440818428  0.0894610082162649   T   T   T
  0.0576064853746696  0.9241660899338676  0.0877824888304471   T   T   T
  0.9289440796809252  0.3431152754493481  0.0915474051044587   T   T   T
  0.0563948286553469  0.5906697929332185  0.0917809288094372   T   T   T
  0.9323668641042141  0.6734385115690703  0.0884003305547362   T   T   T
  0.0553511244191017  0.4233977963752885  0.0936633431194448   T   T   T
  0.9324787305986407  0.8407393175249256  0.0864625562974849   T   T   T
  0.3062391944765240  0.0875972936222466  0.0901053458150072   T   T   T
  0.1824789652508203  0.1737676004298725  0.0916500806518138   T   T   T
  0.3085024927629550  0.9214957756660689  0.0901347120602423   T   T   T
  0.1814904998248136  0.3399305536441087  0.0962179187369634   T   T   T
  0.3066885518572021  0.5887139299833702  0.1027564372184424   T   T   T
  0.1813875421107519  0.6710321199202930  0.0929023873151621   T   T   T
  0.1828769482552979  0.8385096076213795  0.0901228594080646   T   T   T
  0.5572353685512368  0.0862872859200319  0.0918237002447738   T   T   T
  0.4313542085911590  0.1693628664333213  0.0937386679878289   T   T   T
  0.4320031154938703  0.3355639557768372  0.1038410308853191   T   T   T
  0.4326506903546065  0.8354159922975146  0.0968280257950652   T   T   T
  0.8067872449261055  0.0906832132608167  0.0875158731715005   T   T   T
  0.6807073622184584  0.1727510113113547  0.0903263046476363   T   T   T
  0.8073549936163573  0.9253724559915231  0.0860270162755652   T   T   T
  0.6778075669663836  0.3400629816760040  0.0980260198311142   T   T   T
  0.8039956879505183  0.5964378786980273  0.0869025553145878   T   T   T
  0.6857195286832364  0.8354871619135422  0.0855522507182565   T   T   T
  0.4255751519701541  0.6746719545457115  0.1128424039863684   T   T   T
  0.5546543583535002  0.4134404418489501  0.1149240864434823   T   T   T
  0.6883631850921902  0.6782177122327440  0.0821186804413610   T   T   T
  0.5586399275481425  0.9175387675578167  0.0911799877815815   T   T   T
  0.3058506384162225  0.4211183630485638  0.1026856930615414   T   T   T
  0.8024638535801107  0.4271633805083451  0.0920934097934811   T   T   T
  0.5494564096434937  0.5854786555846987  0.1971768446306556   T   T   T
 
  0.00000000E+00  0.00000000E+00  0.00000000E+00
  0.00000000E+00  0.00000000E+00  0.00000000E+00
  0.00000000E+00  0.00000000E+00  0.00000000E+00
  0.00000000E+00  0.00000000E+00  0.00000000E+00
  0.00000000E+00  0.00000000E+00  0.00000000E+00
  0.00000000E+00  0.00000000E+00  0.00000000E+00
  0.00000000E+00  0.00000000E+00  0.00000000E+00
  0.00000000E+00  0.00000000E+00  0.00000000E+00
  0.00000000E+00  0.00000000E+00  0.00000000E+00
  0.00000000E+00  0.00000000E+00  0.00000000E+00
  0.00000000E+00  0.00000000E+00  0.00000000E+00
  0.00000000E+00  0.00000000E+00  0.00000000E+00
  0.00000000E+00  0.00000000E+00  0.00000000E+00
  0.00000000E+00  0.00000000E+00  0.00000000E+00
  0.00000000E+00  0.00000000E+00  0.00000000E+00
  0.00000000E+00  0.00000000E+00  0.00000000E+00
  0.00000000E+00  0.00000000E+00  0.00000000E+00
  0.00000000E+00  0.00000000E+00  0.00000000E+00
  0.00000000E+00  0.00000000E+00  0.00000000E+00
  0.00000000E+00  0.00000000E+00  0.00000000E+00
  0.00000000E+00  0.00000000E+00  0.00000000E+00
  0.00000000E+00  0.00000000E+00  0.00000000E+00
  0.00000000E+00  0.00000000E+00  0.00000000E+00
  0.00000000E+00  0.00000000E+00  0.00000000E+00
  0.00000000E+00  0.00000000E+00  0.00000000E+00
  0.00000000E+00  0.00000000E+00  0.00000000E+00
  0.00000000E+00  0.00000000E+00  0.00000000E+00
  0.00000000E+00  0.00000000E+00  0.00000000E+00
  0.00000000E+00  0.00000000E+00  0.00000000E+00
  0.00000000E+00  0.00000000E+00  0.00000000E+00
  0.00000000E+00  0.00000000E+00  0.00000000E+00
  0.00000000E+00  0.00000000E+00  0.00000000E+00
