Title                                   
   1.00000000000000     
     9.8694509999999998    0.0000000000000000    0.0000000000000000
     0.0000000000000000    8.5490480000000009    0.0000000000000000
     0.0000000000000000    0.0000000000000000   20.0000000000000000
    29     2     1
Selective dynamics
Direct
  0.0563201290385458  0.0897512682932831  0.0848710664236626   T   T   T
  0.9314453834062393  0.1730056701455674  0.0861239666954912   T   T   T
  0.0574005830963905  0.9232665173706833  0.0852314726248657   T   T   T
  0.9311871428184965  0.3400771388624799  0.0875407561662716   T   T   T
  0.0571020162996244  0.5902606674740063  0.0854614657022565   T   T   T
  0.9321988129173335  0.6727215861901548  0.0884752731518079   T   T   T
  0.0569305326065485  0.4227676628603604  0.0856476875662485   T   T   T
  0.9320866096390169  0.8396708828518420  0.0876449660438632   T   T   T
  0.3060680055965898  0.0885316073382946  0.0894533940408868   T   T   T
  0.1823481808438998  0.1722352896689145  0.0863613950189958   T   T   T
  0.1819217929256036  0.3390840834811443  0.0874172108337378   T   T   T
  0.3049839270198487  0.5881427109317687  0.0975276459672545   T   T   T
  0.1823439458416521  0.6734678971271314  0.0877649054943905   T   T   T
  0.3063141058627477  0.4210952606727911  0.0958522356057491   T   T   T
  0.1823127131285286  0.8406269106869637  0.0871802848646154   T   T   T
  0.5553642915154985  0.0883829901745296  0.0957295951132944   T   T   T
  0.5544175302691482  0.9240118453140689  0.1003473399929873   T   T   T
  0.4300939704168017  0.3339096927763752  0.1030640963512882   T   T   T
  0.4278698423241372  0.8409439241418485  0.1021825306574948   T   T   T
  0.8061230046461025  0.0893060246547235  0.0887551799064831   T   T   T
  0.6804787453150795  0.1720623194345000  0.0937369651070824   T   T   T
  0.8067995415109123  0.9237985078758242  0.0909921048733383   T   T   T
  0.6821574683252453  0.3369973476391379  0.1013224430191147   T   T   T
  0.8084548532962066  0.5902929225341197  0.0982223605257602   T   T   T
  0.8063843936904552  0.4222444427242163  0.0958140375535734   T   T   T
  0.6821627754641529  0.8416876170281047  0.1012698272817851   T   T   T
  0.4212581745754954  0.6792023596855568  0.1131423955061725   T   T   T
  0.5549176256580157  0.4079573615185899  0.1168726978944189   T   T   T
  0.6900260177477481  0.6781158474014031  0.1126641696686887   T   T   T
  0.3064799117664678  0.9255733942368320  0.0907386263547611   T   T   T
  0.4294104617523739  0.1694311672105931  0.0946978777998346   T   T   T
  0.5562765106851016  0.5916230816941922  0.1635690261938415   T   T   T
 
  0.00000000E+00  0.00000000E+00  0.00000000E+00
  0.00000000E+00  0.00000000E+00  0.00000000E+00
  0.00000000E+00  0.00000000E+00  0.00000000E+00
  0.00000000E+00  0.00000000E+00  0.00000000E+00
  0.00000000E+00  0.00000000E+00  0.00000000E+00
  0.00000000E+00  0.00000000E+00  0.00000000E+00
  0.00000000E+00  0.00000000E+00  0.00000000E+00
  0.00000000E+00  0.00000000E+00  0.00000000E+00
  0.00000000E+00  0.00000000E+00  0.00000000E+00
  0.00000000E+00  0.00000000E+00  0.00000000E+00
  0.00000000E+00  0.00000000E+00  0.00000000E+00
  0.00000000E+00  0.00000000E+00  0.00000000E+00
  0.00000000E+00  0.00000000E+00  0.00000000E+00
  0.00000000E+00  0.00000000E+00  0.00000000E+00
  0.00000000E+00  0.00000000E+00  0.00000000E+00
  0.00000000E+00  0.00000000E+00  0.00000000E+00
  0.00000000E+00  0.00000000E+00  0.00000000E+00
  0.00000000E+00  0.00000000E+00  0.00000000E+00
  0.00000000E+00  0.00000000E+00  0.00000000E+00
  0.00000000E+00  0.00000000E+00  0.00000000E+00
  0.00000000E+00  0.00000000E+00  0.00000000E+00
  0.00000000E+00  0.00000000E+00  0.00000000E+00
  0.00000000E+00  0.00000000E+00  0.00000000E+00
  0.00000000E+00  0.00000000E+00  0.00000000E+00
  0.00000000E+00  0.00000000E+00  0.00000000E+00
  0.00000000E+00  0.00000000E+00  0.00000000E+00
  0.00000000E+00  0.00000000E+00  0.00000000E+00
  0.00000000E+00  0.00000000E+00  0.00000000E+00
  0.00000000E+00  0.00000000E+00  0.00000000E+00
  0.00000000E+00  0.00000000E+00  0.00000000E+00
  0.00000000E+00  0.00000000E+00  0.00000000E+00
  0.00000000E+00  0.00000000E+00  0.00000000E+00
