Title                                   
   1.00000000000000     
     8.5490480000000009    0.0000000000000000    0.0000000000000000
     0.0000000000000000    8.5490480000000009    0.0000000000000000
     0.0000000000000000    0.0000000000000000   20.0000000000000000
    18     6     1
Selective dynamics
Direct
  0.9082549075786911  0.2050890615287315  0.0954725337987434   T   T   T
  0.9106397005567988  0.8008634805692892  0.0948571370814892   T   T   T
  0.1969387222039741  0.0834769901262257  0.0949959208084825   T   T   T
  0.0768388692943208  0.2007693482954930  0.0950798442512225   T   T   T
  0.1548921320669538  0.6523055686126397  0.0976605706409200   T   T   T
  0.0759628977063827  0.5008670214838121  0.0972879855176873   T   T   T
  0.1560728808162381  0.3523393830053451  0.0968358616349797   T   T   T
  0.0785779220851035  0.7997233884989861  0.0953682049447354   T   T   T
  0.3469610364412322  0.1645849101149613  0.0966248597797876   T   T   T
  0.4926087874275474  0.9162883731892524  0.0971641347929167   T   T   T
  0.3427326150884806  0.8387869984071272  0.0977822077666816   T   T   T
  0.7880409527352754  0.0865749489036870  0.0955247041547498   T   T   T
  0.6416085114271608  0.1659939531144532  0.0976358898997334   T   T   T
  0.7898142557131600  0.9180566247910530  0.0950112041232708   T   T   T
  0.8303091869159115  0.6518105998202612  0.0961884815067284   T   T   T
  0.8278030934481697  0.3522125948683865  0.0974555860705033   T   T   T
  0.6435247098764671  0.8370406275817289  0.0964384200853412   T   T   T
  0.3240335760940931  0.3286112062504850  0.0984034642401326   T   T   T
  0.4946303729896654  0.0864350073965057  0.0972070133789388   T   T   T
  0.9052178788933067  0.5022826821764338  0.0970779608135323   T   T   T
  0.3173977088196673  0.6788812068291178  0.1005855765091637   T   T   T
  0.6650829337984783  0.3284226929988209  0.1002822332994071   T   T   T
  0.6703437163874643  0.6742917833088918  0.0974844782451846   T   T   T
  0.1960584485257763  0.9164084650599050  0.0953949787724857   T   T   T
  0.4910661831096736  0.5026730830684265  0.1198857478831556   T   T   T
 
  0.00000000E+00  0.00000000E+00  0.00000000E+00
  0.00000000E+00  0.00000000E+00  0.00000000E+00
  0.00000000E+00  0.00000000E+00  0.00000000E+00
  0.00000000E+00  0.00000000E+00  0.00000000E+00
  0.00000000E+00  0.00000000E+00  0.00000000E+00
  0.00000000E+00  0.00000000E+00  0.00000000E+00
  0.00000000E+00  0.00000000E+00  0.00000000E+00
  0.00000000E+00  0.00000000E+00  0.00000000E+00
  0.00000000E+00  0.00000000E+00  0.00000000E+00
  0.00000000E+00  0.00000000E+00  0.00000000E+00
  0.00000000E+00  0.00000000E+00  0.00000000E+00
  0.00000000E+00  0.00000000E+00  0.00000000E+00
  0.00000000E+00  0.00000000E+00  0.00000000E+00
  0.00000000E+00  0.00000000E+00  0.00000000E+00
  0.00000000E+00  0.00000000E+00  0.00000000E+00
  0.00000000E+00  0.00000000E+00  0.00000000E+00
  0.00000000E+00  0.00000000E+00  0.00000000E+00
  0.00000000E+00  0.00000000E+00  0.00000000E+00
  0.00000000E+00  0.00000000E+00  0.00000000E+00
  0.00000000E+00  0.00000000E+00  0.00000000E+00
  0.00000000E+00  0.00000000E+00  0.00000000E+00
  0.00000000E+00  0.00000000E+00  0.00000000E+00
  0.00000000E+00  0.00000000E+00  0.00000000E+00
  0.00000000E+00  0.00000000E+00  0.00000000E+00
  0.00000000E+00  0.00000000E+00  0.00000000E+00
