Title                                   
   1.00000000000000     
     9.8694509999999998    0.0000000000000000    0.0000000000000000
     0.0000000000000000    8.5490480000000009    0.0000000000000000
     0.0000000000000000    0.0000000000000000   20.0000000000000000
    26     4     1
Selective dynamics
Direct
  0.0544696442015802  0.0885910982276118  0.0926786878048040   T   T   T
  0.9298941436224631  0.1734621949798515  0.0875128759626298   T   T   T
  0.0563873897696643  0.9210786949544970  0.0928483724915029   T   T   T
  0.9323141862315960  0.3394523256798751  0.0892159854320225   T   T   T
  0.0553767514277786  0.5907057424367219  0.0958387694646860   T   T   T
  0.0551344225241415  0.4235991089088336  0.0955064030511447   T   T   T
  0.9306603496278474  0.8388196916892872  0.0890084512719690   T   T   T
  0.3065105746912473  0.0885617544153296  0.1004850563269065   T   T   T
  0.1795332096734827  0.1696127482322718  0.0984951840439949   T   T   T
  0.1794550381609995  0.3377300671795602  0.0999926976884176   T   T   T
  0.3031508649292121  0.5857210728355337  0.1059836336958432   T   T   T
  0.1799747693772459  0.6719729552378919  0.0993840851430266   T   T   T
  0.3022844528822425  0.4183576688008107  0.1069641235359755   T   T   T
  0.1821576702149054  0.8399186588913226  0.0974630907345269   T   T   T
  0.4290830484462698  0.1768797079622385  0.1025573404871465   T   T   T
  0.5529759210479376  0.9249790564349385  0.0931072051049875   T   T   T
  0.4294986721035983  0.6651876948314780  0.1114303902997010   T   T   T
  0.4313325272832179  0.8342089232702888  0.1027557702925855   T   T   T
  0.8036255882034429  0.0902978127780849  0.0830764358603322   T   T   T
  0.6778017177091754  0.1742860204779227  0.0815416972285435   T   T   T
  0.8056179889163211  0.9229233934867379  0.0840598724258565   T   T   T
  0.6819638860233574  0.3398547979342401  0.0777266369505714   T   T   T
  0.8084322675044765  0.5927537643464876  0.0834138057449167   T   T   T
  0.6845864885523621  0.6781686184525253  0.0841454267577256   T   T   T
  0.8085306961268123  0.4230274880540641  0.0810135141949671   T   T   T
  0.6773830274358373  0.8451075006950637  0.0837688941293693   T   T   T
  0.9325225853903518  0.6731504181476454  0.0908274749956730   T   T   T
  0.5524615434059247  0.0942611918563498  0.0923053764741414   T   T   T
  0.4257616746267967  0.3397367544719803  0.1131554323604451   T   T   T
  0.3057233770798322  0.9199911775087668  0.0995240041022065   T   T   T
  0.5885305228098946  0.5084768968218099  0.1251783059434296   T   T   T
 
  0.00000000E+00  0.00000000E+00  0.00000000E+00
  0.00000000E+00  0.00000000E+00  0.00000000E+00
  0.00000000E+00  0.00000000E+00  0.00000000E+00
  0.00000000E+00  0.00000000E+00  0.00000000E+00
  0.00000000E+00  0.00000000E+00  0.00000000E+00
  0.00000000E+00  0.00000000E+00  0.00000000E+00
  0.00000000E+00  0.00000000E+00  0.00000000E+00
  0.00000000E+00  0.00000000E+00  0.00000000E+00
  0.00000000E+00  0.00000000E+00  0.00000000E+00
  0.00000000E+00  0.00000000E+00  0.00000000E+00
  0.00000000E+00  0.00000000E+00  0.00000000E+00
  0.00000000E+00  0.00000000E+00  0.00000000E+00
  0.00000000E+00  0.00000000E+00  0.00000000E+00
  0.00000000E+00  0.00000000E+00  0.00000000E+00
  0.00000000E+00  0.00000000E+00  0.00000000E+00
  0.00000000E+00  0.00000000E+00  0.00000000E+00
  0.00000000E+00  0.00000000E+00  0.00000000E+00
  0.00000000E+00  0.00000000E+00  0.00000000E+00
  0.00000000E+00  0.00000000E+00  0.00000000E+00
  0.00000000E+00  0.00000000E+00  0.00000000E+00
  0.00000000E+00  0.00000000E+00  0.00000000E+00
  0.00000000E+00  0.00000000E+00  0.00000000E+00
  0.00000000E+00  0.00000000E+00  0.00000000E+00
  0.00000000E+00  0.00000000E+00  0.00000000E+00
  0.00000000E+00  0.00000000E+00  0.00000000E+00
  0.00000000E+00  0.00000000E+00  0.00000000E+00
  0.00000000E+00  0.00000000E+00  0.00000000E+00
  0.00000000E+00  0.00000000E+00  0.00000000E+00
  0.00000000E+00  0.00000000E+00  0.00000000E+00
  0.00000000E+00  0.00000000E+00  0.00000000E+00
  0.00000000E+00  0.00000000E+00  0.00000000E+00
