Title                                   
   1.00000000000000     
     9.8694509999999998    0.0000000000000000    0.0000000000000000
     0.0000000000000000    8.5490480000000009    0.0000000000000000
     0.0000000000000000    0.0000000000000000   20.0000000000000000
    31     1
Selective dynamics
Direct
  0.0562366393846191  0.0894513268420399  0.0819043548758689   T   T   T
  0.9312962141838960  0.1726761891045140  0.0842488877623432   T   T   T
  0.0562303786274040  0.9225279446514160  0.0814140531632185   T   T   T
  0.9309674517962477  0.3391500301726038  0.0859994971420821   T   T   T
  0.0562455355819505  0.5886047242439630  0.0818336982905313   T   T   T
  0.9322233893181215  0.6721557298900438  0.0846511560220331   T   T   T
  0.0562242388513970  0.4222471965106137  0.0831610379888657   T   T   T
  0.9314699096678499  0.8393530579313143  0.0840136820761744   T   T   T
  0.3057360217806305  0.0895307473764359  0.0880427147533188   T   T   T
  0.1811706997160551  0.1726795767638583  0.0841779015500001   T   T   T
  0.3052423286424980  0.9235809504568987  0.0890416913868724   T   T   T
  0.1814930837499716  0.3391491275401664  0.0859455625943993   T   T   T
  0.3020834939629083  0.5889501990776264  0.0964783590577247   T   T   T
  0.1802653691975677  0.6721527552645753  0.0845784528101946   T   T   T
  0.3052650760065792  0.4217652740847910  0.0959573767324832   T   T   T
  0.1810180138236282  0.8393454374283215  0.0839186130631843   T   T   T
  0.5562293443007432  0.0877955919919739  0.0970453080800915   T   T   T
  0.4306286880634894  0.1713162838719613  0.0951908882267183   T   T   T
  0.5562417653381920  0.9219924424708937  0.1008849986707906   T   T   T
  0.4301540446616033  0.3363651982838025  0.1033107645079576   T   T   T
  0.4184812111963855  0.6776043110201074  0.1132575864201396   T   T   T
  0.5562137271083056  0.4102260456035652  0.1192787444398730   T   T   T
  0.4284013187598795  0.8407220148366000  0.1008376444014987   T   T   T
  0.8067469996121405  0.0895260998279763  0.0881573681001736   T   T   T
  0.6818387991081460  0.1713146256889981  0.0952519070424170   T   T   T
  0.8072525456530559  0.9235903399710433  0.0891937422156284   T   T   T
  0.6823079740065544  0.3363640490170719  0.1033758680988805   T   T   T
  0.8104422410886912  0.5889422086671319  0.0965950745943008   T   T   T
  0.6940822389278571  0.6776092538792891  0.1133999035206264   T   T   T
  0.8072031750189074  0.4217572209414762  0.0960462904446792   T   T   T
  0.6840894445949544  0.8407101485532295  0.1009533167047778   T   T   T
  0.5561576382697770  0.6010898980357076  0.1775285552621867   T   T   T
 
  0.00000000E+00  0.00000000E+00  0.00000000E+00
  0.00000000E+00  0.00000000E+00  0.00000000E+00
  0.00000000E+00  0.00000000E+00  0.00000000E+00
  0.00000000E+00  0.00000000E+00  0.00000000E+00
  0.00000000E+00  0.00000000E+00  0.00000000E+00
  0.00000000E+00  0.00000000E+00  0.00000000E+00
  0.00000000E+00  0.00000000E+00  0.00000000E+00
  0.00000000E+00  0.00000000E+00  0.00000000E+00
  0.00000000E+00  0.00000000E+00  0.00000000E+00
  0.00000000E+00  0.00000000E+00  0.00000000E+00
  0.00000000E+00  0.00000000E+00  0.00000000E+00
  0.00000000E+00  0.00000000E+00  0.00000000E+00
  0.00000000E+00  0.00000000E+00  0.00000000E+00
  0.00000000E+00  0.00000000E+00  0.00000000E+00
  0.00000000E+00  0.00000000E+00  0.00000000E+00
  0.00000000E+00  0.00000000E+00  0.00000000E+00
  0.00000000E+00  0.00000000E+00  0.00000000E+00
  0.00000000E+00  0.00000000E+00  0.00000000E+00
  0.00000000E+00  0.00000000E+00  0.00000000E+00
  0.00000000E+00  0.00000000E+00  0.00000000E+00
  0.00000000E+00  0.00000000E+00  0.00000000E+00
  0.00000000E+00  0.00000000E+00  0.00000000E+00
  0.00000000E+00  0.00000000E+00  0.00000000E+00
  0.00000000E+00  0.00000000E+00  0.00000000E+00
  0.00000000E+00  0.00000000E+00  0.00000000E+00
  0.00000000E+00  0.00000000E+00  0.00000000E+00
  0.00000000E+00  0.00000000E+00  0.00000000E+00
  0.00000000E+00  0.00000000E+00  0.00000000E+00
  0.00000000E+00  0.00000000E+00  0.00000000E+00
  0.00000000E+00  0.00000000E+00  0.00000000E+00
  0.00000000E+00  0.00000000E+00  0.00000000E+00
  0.00000000E+00  0.00000000E+00  0.00000000E+00
