Title                                   
   1.00000000000000     
     4.9440799999999996    0.0000000000000000    0.0000000000000000
     0.0000000000000000   17.1295089999999988    0.0000000000000000
     0.0000000000000000    0.0000000000000000   20.0000000000000000
    30     1     1
Selective dynamics
Direct
  0.0003281694926714  0.1048750562809582  0.2843114262294048   T   T   T
  0.2499320248053168  0.1467367147029505  0.2895795586230827   T   T   T
  0.2498563257193852  0.2291003497467004  0.3026820507810800   T   T   T
 -0.0006799280753793  0.3495917390655008  0.3285962107054540   T   T   T
 -0.0027147531253253  0.2698997220884949  0.3087947102122087   T   T   T
 -0.0038098690242157  0.6051676144667515  0.3054545957899326   T   T   T
  0.2499568264998091  0.7284343639337676  0.2860662264781339   T   T   T
  0.0002056816230937  0.8540582362333268  0.2763059627204548   T   T   T
  0.2499128588702632  0.8960150125374098  0.2755334502859632   T   T   T
  0.2499259691747669  0.9796591563699988  0.2763364785789176   T   T   T
  0.0004377522691573  0.7704910240974383  0.2811298343860414   T   T   T
  0.4995203129683100  0.1048640858416160  0.2843167277885664   T   T   T
  0.7499172869636131  0.1463611166147751  0.2882462405893700   T   T   T
  0.7498598178865300  0.2284880966454209  0.2992499770079561   T   T   T
  0.4997429804875558  0.0215827679521480  0.2779684531399549   T   T   T
  0.5003579819568907  0.3496113786424344  0.3286027780278636   T   T   T
  0.7499513968505467  0.4774920996534152  0.3252980801866420   T   T   T
  0.5024153691358051  0.2699024493817508  0.3088176297003778   T   T   T
  0.5037153645855429  0.6051825470137684  0.3055189656218630   T   T   T
  0.7499261759819373  0.7292453993458375  0.2843012474385073   T   T   T
  0.4996599802321455  0.8540656732151581  0.2763159341368133   T   T   T
  0.7499124413575377  0.8959481390841856  0.2751730581383552   T   T   T
  0.7499283166714275  0.9796701602697840  0.2760283579809961   T   T   T
  0.4994472711316011  0.7705049303097226  0.2811561156075971   T   T   T
  0.7499403826318581  0.6466785050755047  0.2950779790783613   T   T   T
  0.2499640025696377  0.6457156178373682  0.2994683185415628   T   T   T
  0.0001066998744516  0.0215910385132451  0.2779884214899482   T   T   T
  0.5114867202333652  0.5244677572858603  0.3257997909508348   T   T   T
  0.9884655534345395  0.5244270258277710  0.3256119722646188   T   T   T
  0.2498007547308887  0.3847464149790325  0.3481579817637532   T   T   T
  0.7498692281840296  0.3934429691831765  0.3298781423464037   T   T   T
  0.2494839039022508  0.4905338378047230  0.3947983234089330   T   T   T
 
  0.00000000E+00  0.00000000E+00  0.00000000E+00
  0.00000000E+00  0.00000000E+00  0.00000000E+00
  0.00000000E+00  0.00000000E+00  0.00000000E+00
  0.00000000E+00  0.00000000E+00  0.00000000E+00
  0.00000000E+00  0.00000000E+00  0.00000000E+00
  0.00000000E+00  0.00000000E+00  0.00000000E+00
  0.00000000E+00  0.00000000E+00  0.00000000E+00
  0.00000000E+00  0.00000000E+00  0.00000000E+00
  0.00000000E+00  0.00000000E+00  0.00000000E+00
  0.00000000E+00  0.00000000E+00  0.00000000E+00
  0.00000000E+00  0.00000000E+00  0.00000000E+00
  0.00000000E+00  0.00000000E+00  0.00000000E+00
  0.00000000E+00  0.00000000E+00  0.00000000E+00
  0.00000000E+00  0.00000000E+00  0.00000000E+00
  0.00000000E+00  0.00000000E+00  0.00000000E+00
  0.00000000E+00  0.00000000E+00  0.00000000E+00
  0.00000000E+00  0.00000000E+00  0.00000000E+00
  0.00000000E+00  0.00000000E+00  0.00000000E+00
  0.00000000E+00  0.00000000E+00  0.00000000E+00
  0.00000000E+00  0.00000000E+00  0.00000000E+00
  0.00000000E+00  0.00000000E+00  0.00000000E+00
  0.00000000E+00  0.00000000E+00  0.00000000E+00
  0.00000000E+00  0.00000000E+00  0.00000000E+00
  0.00000000E+00  0.00000000E+00  0.00000000E+00
  0.00000000E+00  0.00000000E+00  0.00000000E+00
  0.00000000E+00  0.00000000E+00  0.00000000E+00
  0.00000000E+00  0.00000000E+00  0.00000000E+00
  0.00000000E+00  0.00000000E+00  0.00000000E+00
  0.00000000E+00  0.00000000E+00  0.00000000E+00
  0.00000000E+00  0.00000000E+00  0.00000000E+00
  0.00000000E+00  0.00000000E+00  0.00000000E+00
  0.00000000E+00  0.00000000E+00  0.00000000E+00
