Title                                   
   1.00000000000000     
     4.9440799999999996    0.0000000000000000    0.0000000000000000
     0.0000000000000000   17.1295089999999988    0.0000000000000000
     0.0000000000000000    0.0000000000000000   20.0000000000000000
    27     3     1
Selective dynamics
Direct
  0.0037324774210889  0.1063430544135475  0.2951943824285237   T   T   T
  0.2546748718843189  0.1487801203977313  0.2968928046067472   T   T   T
  0.2571463636166988  0.2334621173995008  0.2990019145134052   T   T   T
  0.0036842933140202  0.2724868190132992  0.2941045880525170   T   T   T
 -0.0067974178687330  0.6024896164733691  0.2970532124130306   T   T   T
  0.2468729359423476  0.7268009633943755  0.2970715239225312   T   T   T
 -0.0012946487690277  0.8533171481708612  0.2950999071640420   T   T   T
  0.2488868992976591  0.8956267783730151  0.2954609289455983   T   T   T
  0.2506987838566699  0.9796857819043561  0.2955054690895693   T   T   T
 -0.0028467857413939  0.7691570775913931  0.2954534851989539   T   T   T
  0.5025015351977793  0.1058183961002903  0.2966477700960084   T   T   T
  0.7526307856540342  0.1476698294887847  0.2957297351743042   T   T   T
  0.7538015113325031  0.2315569555982826  0.2966550721851005   T   T   T
  0.5010920793636310  0.0217928911537640  0.2958790436914295   T   T   T
  0.7642273991879169  0.3933795025423545  0.3018111244037979   T   T   T
  0.7584336953453553  0.4792868830335594  0.3031953229375851   T   T   T
  0.5089898087050196  0.2755408986578827  0.3042959257521349   T   T   T
  0.4956237039243175  0.5997675577168671  0.3051345390383318   T   T   T
  0.7458769378088559  0.7274372226490792  0.2963210480283928   T   T   T
  0.4983819516134051  0.8535372162425332  0.2957939406644611   T   T   T
  0.7493045746904684  0.8956314895825568  0.2952607145966248   T   T   T
  0.7511223937365508  0.9798119955531716  0.2952764815811784   T   T   T
  0.4965861424543017  0.7694628401214910  0.2966655893207121   T   T   T
  0.7427909757721644  0.6434718304201453  0.2983083321381910   T   T   T
  0.2466008935788531  0.6425689942632105  0.3000018820312295   T   T   T
  0.0018244874952543  0.0220824750347900  0.2950914393154017   T   T   T
  0.5081998729877110  0.5161888924726789  0.3184129891809145   T   T   T
  0.9904346852267260  0.5223213344758156  0.2943639325881291   T   T   T
  0.5238648286790651  0.3560409826436049  0.3187143644292655   T   T   T
 -0.0045688469015626  0.3525815665221482  0.2882091378905938   T   T   T
  0.2175298111940032  0.4372427685955366  0.3324533986212469   T   T   T
 
  0.00000000E+00  0.00000000E+00  0.00000000E+00
  0.00000000E+00  0.00000000E+00  0.00000000E+00
  0.00000000E+00  0.00000000E+00  0.00000000E+00
  0.00000000E+00  0.00000000E+00  0.00000000E+00
  0.00000000E+00  0.00000000E+00  0.00000000E+00
  0.00000000E+00  0.00000000E+00  0.00000000E+00
  0.00000000E+00  0.00000000E+00  0.00000000E+00
  0.00000000E+00  0.00000000E+00  0.00000000E+00
  0.00000000E+00  0.00000000E+00  0.00000000E+00
  0.00000000E+00  0.00000000E+00  0.00000000E+00
  0.00000000E+00  0.00000000E+00  0.00000000E+00
  0.00000000E+00  0.00000000E+00  0.00000000E+00
  0.00000000E+00  0.00000000E+00  0.00000000E+00
  0.00000000E+00  0.00000000E+00  0.00000000E+00
  0.00000000E+00  0.00000000E+00  0.00000000E+00
  0.00000000E+00  0.00000000E+00  0.00000000E+00
  0.00000000E+00  0.00000000E+00  0.00000000E+00
  0.00000000E+00  0.00000000E+00  0.00000000E+00
  0.00000000E+00  0.00000000E+00  0.00000000E+00
  0.00000000E+00  0.00000000E+00  0.00000000E+00
  0.00000000E+00  0.00000000E+00  0.00000000E+00
  0.00000000E+00  0.00000000E+00  0.00000000E+00
  0.00000000E+00  0.00000000E+00  0.00000000E+00
  0.00000000E+00  0.00000000E+00  0.00000000E+00
  0.00000000E+00  0.00000000E+00  0.00000000E+00
  0.00000000E+00  0.00000000E+00  0.00000000E+00
  0.00000000E+00  0.00000000E+00  0.00000000E+00
  0.00000000E+00  0.00000000E+00  0.00000000E+00
  0.00000000E+00  0.00000000E+00  0.00000000E+00
  0.00000000E+00  0.00000000E+00  0.00000000E+00
  0.00000000E+00  0.00000000E+00  0.00000000E+00
