Title                                   
   1.00000000000000     
     8.5490480000000009    0.0000000000000000    0.0000000000000000
     0.0000000000000000    8.5490480000000009    0.0000000000000000
     0.0000000000000000    0.0000000000000000   20.0000000000000000
    19     5     1
Selective dynamics
Direct
  0.9090201226532283  0.2056915636908352  0.0972544496288172   T   T   T
  0.9106746574530822  0.8003413008631916  0.0974588772810738   T   T   T
  0.1972087121105020  0.0832326690027429  0.0975634487521943   T   T   T
  0.0766218368587265  0.2013944814063489  0.0974571106939020   T   T   T
  0.1562963310460343  0.6505204872279625  0.0976550084930706   T   T   T
  0.0775155396514563  0.5012375038680146  0.0977223568760001   T   T   T
  0.1563854808057640  0.3512010344472161  0.0978409608004556   T   T   T
  0.0784732650932634  0.7997149047093028  0.0974334771265001   T   T   T
  0.3443963847295465  0.1639541902902425  0.0978802607156327   T   T   T
  0.4922132972516364  0.9184195657245801  0.0977681181952984   T   T   T
  0.3448568136914471  0.8387970213769661  0.0977267573329486   T   T   T
  0.7875547184286028  0.0856365574001767  0.0972476243540207   T   T   T
  0.6394404901885334  0.1667035856806734  0.0975135502066031   T   T   T
  0.7895588913710321  0.9184123566884023  0.0973970788326504   T   T   T
  0.8304206863072346  0.6506839295490180  0.0978162568787733   T   T   T
  0.8289834650530307  0.3551066213850360  0.0974996823251784   T   T   T
  0.6417579459830204  0.8379085252445477  0.0978356093418145   T   T   T
  0.3229695585542267  0.6745415452769971  0.0979112630265805   T   T   T
  0.6624465455881559  0.3337321668335827  0.0979146820776238   T   T   T
  0.4934675360258040  0.0878405762878509  0.0977521136776595   T   T   T
  0.9078824886508220  0.5022488650681861  0.0977327974926609   T   T   T
  0.3207991403549633  0.3263560158533098  0.0982964666274601   T   T   T
  0.6679363298942760  0.6731260226603530  0.0982918737574938   T   T   T
  0.1955437544256450  0.9167810664962209  0.0975174178608097   T   T   T
  0.4929880078299523  0.5012074429682553  0.0992177576447579   T   T   T
 
  0.00000000E+00  0.00000000E+00  0.00000000E+00
  0.00000000E+00  0.00000000E+00  0.00000000E+00
  0.00000000E+00  0.00000000E+00  0.00000000E+00
  0.00000000E+00  0.00000000E+00  0.00000000E+00
  0.00000000E+00  0.00000000E+00  0.00000000E+00
  0.00000000E+00  0.00000000E+00  0.00000000E+00
  0.00000000E+00  0.00000000E+00  0.00000000E+00
  0.00000000E+00  0.00000000E+00  0.00000000E+00
  0.00000000E+00  0.00000000E+00  0.00000000E+00
  0.00000000E+00  0.00000000E+00  0.00000000E+00
  0.00000000E+00  0.00000000E+00  0.00000000E+00
  0.00000000E+00  0.00000000E+00  0.00000000E+00
  0.00000000E+00  0.00000000E+00  0.00000000E+00
  0.00000000E+00  0.00000000E+00  0.00000000E+00
  0.00000000E+00  0.00000000E+00  0.00000000E+00
  0.00000000E+00  0.00000000E+00  0.00000000E+00
  0.00000000E+00  0.00000000E+00  0.00000000E+00
  0.00000000E+00  0.00000000E+00  0.00000000E+00
  0.00000000E+00  0.00000000E+00  0.00000000E+00
  0.00000000E+00  0.00000000E+00  0.00000000E+00
  0.00000000E+00  0.00000000E+00  0.00000000E+00
  0.00000000E+00  0.00000000E+00  0.00000000E+00
  0.00000000E+00  0.00000000E+00  0.00000000E+00
  0.00000000E+00  0.00000000E+00  0.00000000E+00
  0.00000000E+00  0.00000000E+00  0.00000000E+00
