Title                                   
   1.00000000000000     
     9.8694509999999998    0.0000000000000000    0.0000000000000000
     0.0000000000000000    8.5490480000000009    0.0000000000000000
     0.0000000000000000    0.0000000000000000   20.0000000000000000
    30     1     1
Selective dynamics
Direct
  0.0566087145940908  0.0906175340457736  0.0816240765517692   T   T   T
  0.9313949500548677  0.1726847757723687  0.0838268821494489   T   T   T
  0.0558016269551408  0.9234399715932773  0.0817763134530651   T   T   T
  0.9315248048319891  0.3392492699623798  0.0871238154911446   T   T   T
  0.0567224565959491  0.5888692210456143  0.0841361194762684   T   T   T
  0.9324873864941571  0.6721654234061752  0.0870758629311212   T   T   T
  0.0570858384459710  0.4227415509555150  0.0851795964289760   T   T   T
  0.9313434714865156  0.8391091527318615  0.0847106757153378   T   T   T
  0.3060087046130471  0.0901231872623839  0.0858421708469424   T   T   T
  0.1818250910137812  0.1741076893346159  0.0838100351664947   T   T   T
  0.3046142891155270  0.9238602096391035  0.0874932103041886   T   T   T
  0.1829139536949781  0.3413194224642422  0.0869240595159952   T   T   T
  0.3031455208825210  0.5931249567013345  0.0980627352869878   T   T   T
  0.1803281458973668  0.6736595176836444  0.0863882950535430   T   T   T
  0.3078264016499737  0.4248911907344729  0.0965399146640507   T   T   T
  0.1798947272314087  0.8404894879541698  0.0846538712375948   T   T   T
  0.5557182643844790  0.0862103603522232  0.0937231762057000   T   T   T
  0.4310388617724085  0.1713320126472553  0.0919479231654287   T   T   T
  0.5550551301832908  0.9194162217495205  0.0988196216890871   T   T   T
  0.4318632415224553  0.3365459881260081  0.1015205662419771   T   T   T
  0.5578244159312844  0.4074022684553770  0.1183885576589172   T   T   T
  0.4261799182873303  0.8405412422454329  0.0993167637166969   T   T   T
  0.8068589369807909  0.0884536286348667  0.0861697035398662   T   T   T
  0.6819481130561682  0.1695600468474686  0.0925242859952495   T   T   T
  0.8064819433885286  0.9222575465856906  0.0878281136173490   T   T   T
  0.6831772739560279  0.3342195408792184  0.1022052159781313   T   T   T
  0.8103910540141642  0.5890414696073430  0.0997003207632624   T   T   T
  0.6939586954560962  0.6781662870359483  0.1164956475080823   T   T   T
  0.8076771591654927  0.4211108601723131  0.0975110601056631   T   T   T
  0.6836158621804229  0.8393053248433555  0.1003135698375822   T   T   T
  0.4158888742166021  0.6825121525751344  0.1154276471303492   T   T   T
  0.5524351719471787  0.5937184879559186  0.1786151925737637   T   T   T
 
  0.00000000E+00  0.00000000E+00  0.00000000E+00
  0.00000000E+00  0.00000000E+00  0.00000000E+00
  0.00000000E+00  0.00000000E+00  0.00000000E+00
  0.00000000E+00  0.00000000E+00  0.00000000E+00
  0.00000000E+00  0.00000000E+00  0.00000000E+00
  0.00000000E+00  0.00000000E+00  0.00000000E+00
  0.00000000E+00  0.00000000E+00  0.00000000E+00
  0.00000000E+00  0.00000000E+00  0.00000000E+00
  0.00000000E+00  0.00000000E+00  0.00000000E+00
  0.00000000E+00  0.00000000E+00  0.00000000E+00
  0.00000000E+00  0.00000000E+00  0.00000000E+00
  0.00000000E+00  0.00000000E+00  0.00000000E+00
  0.00000000E+00  0.00000000E+00  0.00000000E+00
  0.00000000E+00  0.00000000E+00  0.00000000E+00
  0.00000000E+00  0.00000000E+00  0.00000000E+00
  0.00000000E+00  0.00000000E+00  0.00000000E+00
  0.00000000E+00  0.00000000E+00  0.00000000E+00
  0.00000000E+00  0.00000000E+00  0.00000000E+00
  0.00000000E+00  0.00000000E+00  0.00000000E+00
  0.00000000E+00  0.00000000E+00  0.00000000E+00
  0.00000000E+00  0.00000000E+00  0.00000000E+00
  0.00000000E+00  0.00000000E+00  0.00000000E+00
  0.00000000E+00  0.00000000E+00  0.00000000E+00
  0.00000000E+00  0.00000000E+00  0.00000000E+00
  0.00000000E+00  0.00000000E+00  0.00000000E+00
  0.00000000E+00  0.00000000E+00  0.00000000E+00
  0.00000000E+00  0.00000000E+00  0.00000000E+00
  0.00000000E+00  0.00000000E+00  0.00000000E+00
  0.00000000E+00  0.00000000E+00  0.00000000E+00
  0.00000000E+00  0.00000000E+00  0.00000000E+00
  0.00000000E+00  0.00000000E+00  0.00000000E+00
  0.00000000E+00  0.00000000E+00  0.00000000E+00
