Title                                   
   1.00000000000000     
     8.5490480000000009    0.0000000000000000    0.0000000000000000
     0.0000000000000000    8.5490480000000009    0.0000000000000000
     0.0000000000000000    0.0000000000000000   20.0000000000000000
    23     1     1
Selective dynamics
Direct
  0.9096119889392228  0.2061033755780647  0.0953423192675040   T   T   T
  0.9099056041324919  0.5030916711905866  0.0955057214279603   T   T   T
  0.9119583457217796  0.8004579918083042  0.0949917219856624   T   T   T
  0.1981819857169713  0.0829382178302308  0.0947660513704981   T   T   T
  0.0750523762841249  0.2028517102776551  0.0953071102930676   T   T   T
  0.1596710414818435  0.6480690394317864  0.0958657109943010   T   T   T
  0.0775840585583215  0.5018237134115117  0.0956164617986892   T   T   T
  0.1588755581488501  0.3555304557161401  0.0965208464738607   T   T   T
  0.0788434184723120  0.7982289258748636  0.0948373994198475   T   T   T
  0.4923898890398867  0.0856833390920173  0.0955746447261432   T   T   T
  0.3454006594218220  0.1640714383592017  0.0958302658788963   T   T   T
  0.4918022140042390  0.9178072341391146  0.0956862182666920   T   T   T
  0.3465343644394743  0.8357869602263882  0.0960402710947152   T   T   T
  0.7868725897168304  0.0849283367656585  0.0955193080035284   T   T   T
  0.6368754926499438  0.1676299112864188  0.0961024896109305   T   T   T
  0.7880418242427788  0.9203542484761177  0.0955227235228740   T   T   T
  0.8305020362215815  0.6496279742485245  0.0959117353811394   T   T   T
  0.8276576350983093  0.3570930934535256  0.0958946980010916   T   T   T
  0.6374837153064161  0.8357564110370701  0.0965373704628565   T   T   T
  0.3241835881312617  0.3334972841384095  0.1000310030188465   T   T   T
  0.3256336618579752  0.6702307071969579  0.0988329360974824   T   T   T
  0.6605593690984706  0.3355326815076285  0.0986502754775603   T   T   T
  0.6616783930475397  0.6698077252150673  0.0997631183009297   T   T   T
  0.1986049767572876  0.9163594563906698  0.0947607564424204   T   T   T
  0.4915072135102510  0.5015280973480930  0.1342938426824828   T   T   T
 
  0.00000000E+00  0.00000000E+00  0.00000000E+00
  0.00000000E+00  0.00000000E+00  0.00000000E+00
  0.00000000E+00  0.00000000E+00  0.00000000E+00
  0.00000000E+00  0.00000000E+00  0.00000000E+00
  0.00000000E+00  0.00000000E+00  0.00000000E+00
  0.00000000E+00  0.00000000E+00  0.00000000E+00
  0.00000000E+00  0.00000000E+00  0.00000000E+00
  0.00000000E+00  0.00000000E+00  0.00000000E+00
  0.00000000E+00  0.00000000E+00  0.00000000E+00
  0.00000000E+00  0.00000000E+00  0.00000000E+00
  0.00000000E+00  0.00000000E+00  0.00000000E+00
  0.00000000E+00  0.00000000E+00  0.00000000E+00
  0.00000000E+00  0.00000000E+00  0.00000000E+00
  0.00000000E+00  0.00000000E+00  0.00000000E+00
  0.00000000E+00  0.00000000E+00  0.00000000E+00
  0.00000000E+00  0.00000000E+00  0.00000000E+00
  0.00000000E+00  0.00000000E+00  0.00000000E+00
  0.00000000E+00  0.00000000E+00  0.00000000E+00
  0.00000000E+00  0.00000000E+00  0.00000000E+00
  0.00000000E+00  0.00000000E+00  0.00000000E+00
  0.00000000E+00  0.00000000E+00  0.00000000E+00
  0.00000000E+00  0.00000000E+00  0.00000000E+00
  0.00000000E+00  0.00000000E+00  0.00000000E+00
  0.00000000E+00  0.00000000E+00  0.00000000E+00
  0.00000000E+00  0.00000000E+00  0.00000000E+00
