Title                                   
   1.00000000000000     
     4.9440799999999996    0.0000000000000000    0.0000000000000000
     0.0000000000000000   17.1295089999999988    0.0000000000000000
     0.0000000000000000    0.0000000000000000   20.0000000000000000
    30     1     1
Selective dynamics
Direct
  0.0004473510949341  0.1045629335554092  0.2865999263370743   T   T   T
  0.2499360306679634  0.1465718360673556  0.2897881788023940   T   T   T
  0.2499414438197646  0.2297866528226402  0.2985299295729561   T   T   T
 -0.0005268180072964  0.3520039387880962  0.3179793201292817   T   T   T
 -0.0022515202753512  0.2706221891498581  0.3033523889591118   T   T   T
 -0.0024764052366248  0.6049478035467774  0.3086460161686664   T   T   T
  0.2498818683337032  0.7283727905998029  0.2908940911512602   T   T   T
  0.0001606235060915  0.8538603214414084  0.2818715756354869   T   T   T
  0.2499186965045662  0.8957919740311455  0.2809739739237384   T   T   T
  0.2499108724154183  0.9792957648037414  0.2813546888501504   T   T   T
  0.0001531516596303  0.7704669341270221  0.2864737866874567   T   T   T
  0.4994263653887697  0.1045562191454799  0.2866269801428215   T   T   T
  0.7499411114893487  0.1461495790286148  0.2893346763439613   T   T   T
  0.7499603874949433  0.2285989114131925  0.2970754196237921   T   T   T
  0.4997259036404590  0.0212016238554665  0.2825215576316123   T   T   T
  0.5003300012128795  0.3519844514361610  0.3180009386575174   T   T   T
  0.7498120513233726  0.4779919495646576  0.3232616926136641   T   T   T
  0.5021483918178516  0.2706049042980583  0.3033758765087262   T   T   T
  0.5021342022377734  0.6049425454904914  0.3085904898139770   T   T   T
  0.7498716589093666  0.7292059684512474  0.2896987326113516   T   T   T
  0.4996644572689584  0.8538564460944142  0.2818887233281536   T   T   T
  0.7499157290409748  0.8957307136208223  0.2808739220818646   T   T   T
  0.7499203081014684  0.9793008310558187  0.2812637034619869   T   T   T
  0.4996365381060099  0.7704633911458882  0.2864870839601880   T   T   T
  0.7498531733244812  0.6464687730720291  0.3000427082270587   T   T   T
  0.2498389495735128  0.6459104632571728  0.3026266966172635   T   T   T
  0.0001076279420492  0.0212098475979915  0.2824897307099464   T   T   T
  0.5107797507674849  0.5235754199800280  0.3250698385095462   T   T   T
  0.9887937201411122  0.5235976810431776  0.3252456901132439   T   T   T
  0.2498945422632839  0.3895644268362293  0.3311579960543017   T   T   T
  0.7498772393188075  0.3942267617531889  0.3216839098532793   T   T   T
  0.2500955961543002  0.4831269529266034  0.3787847569181190   T   T   T
 
  0.00000000E+00  0.00000000E+00  0.00000000E+00
  0.00000000E+00  0.00000000E+00  0.00000000E+00
  0.00000000E+00  0.00000000E+00  0.00000000E+00
  0.00000000E+00  0.00000000E+00  0.00000000E+00
  0.00000000E+00  0.00000000E+00  0.00000000E+00
  0.00000000E+00  0.00000000E+00  0.00000000E+00
  0.00000000E+00  0.00000000E+00  0.00000000E+00
  0.00000000E+00  0.00000000E+00  0.00000000E+00
  0.00000000E+00  0.00000000E+00  0.00000000E+00
  0.00000000E+00  0.00000000E+00  0.00000000E+00
  0.00000000E+00  0.00000000E+00  0.00000000E+00
  0.00000000E+00  0.00000000E+00  0.00000000E+00
  0.00000000E+00  0.00000000E+00  0.00000000E+00
  0.00000000E+00  0.00000000E+00  0.00000000E+00
  0.00000000E+00  0.00000000E+00  0.00000000E+00
  0.00000000E+00  0.00000000E+00  0.00000000E+00
  0.00000000E+00  0.00000000E+00  0.00000000E+00
  0.00000000E+00  0.00000000E+00  0.00000000E+00
  0.00000000E+00  0.00000000E+00  0.00000000E+00
  0.00000000E+00  0.00000000E+00  0.00000000E+00
  0.00000000E+00  0.00000000E+00  0.00000000E+00
  0.00000000E+00  0.00000000E+00  0.00000000E+00
  0.00000000E+00  0.00000000E+00  0.00000000E+00
  0.00000000E+00  0.00000000E+00  0.00000000E+00
  0.00000000E+00  0.00000000E+00  0.00000000E+00
  0.00000000E+00  0.00000000E+00  0.00000000E+00
  0.00000000E+00  0.00000000E+00  0.00000000E+00
  0.00000000E+00  0.00000000E+00  0.00000000E+00
  0.00000000E+00  0.00000000E+00  0.00000000E+00
  0.00000000E+00  0.00000000E+00  0.00000000E+00
  0.00000000E+00  0.00000000E+00  0.00000000E+00
  0.00000000E+00  0.00000000E+00  0.00000000E+00
