Title                                   
   1.00000000000000     
     8.5490480000000009    0.0000000000000000    0.0000000000000000
     0.0000000000000000    8.5490480000000009    0.0000000000000000
     0.0000000000000000    0.0000000000000000   20.0000000000000000
    23     1     1
Selective dynamics
Direct
  0.9093082045777384  0.2066088315644654  0.0978767141181127   T   T   T
  0.9059798870575853  0.5041245122192091  0.0965025442938442   T   T   T
  0.9108735595279414  0.7990119327701890  0.0968854663829328   T   T   T
  0.1972532949865632  0.0819387522312938  0.0973851314998295   T   T   T
  0.0731548961165036  0.2059728554379844  0.0973424982744962   T   T   T
  0.1978994443425796  0.9180732535726331  0.0979802676745969   T   T   T
  0.1568710541328788  0.6475012405005168  0.0977503216505260   T   T   T
  0.0749101765389310  0.5024514932881696  0.0966454182202564   T   T   T
  0.1559116354815414  0.3552649977679311  0.0956349852320963   T   T   T
  0.0766413672193554  0.7963555443999266  0.0979048484041220   T   T   T
  0.4936314218048179  0.0836810058532221  0.0966928708780481   T   T   T
  0.3464891103104323  0.1647170231905602  0.0956815972216302   T   T   T
  0.4953383050689198  0.9147477464148815  0.0965992164686670   T   T   T
  0.3494179780949410  0.8335604104188006  0.0976683055847298   T   T   T
  0.7875539518439619  0.0853771863908146  0.0978414135080011   T   T   T
  0.6386950790719974  0.1656480624966195  0.0976926888359825   T   T   T
  0.7902761299697105  0.9196152606595380  0.0968789341340801   T   T   T
  0.8280330072764184  0.6518415145072793  0.0952622003458624   T   T   T
  0.8247895607812200  0.3581806871186019  0.0975266530786290   T   T   T
  0.6430697086177322  0.8367786924905025  0.0952811115790163   T   T   T
  0.3229817724222330  0.3317629670612495  0.0920215582086166   T   T   T
  0.3259675711901001  0.6684733554084188  0.0974518937775559   T   T   T
  0.6596857152404790  0.3347447374600695  0.0973289659280736   T   T   T
  0.6657880396927714  0.6745446020809974  0.0922884168632298   T   T   T
  0.4948911286326388  0.5038133346961399  0.0655809778370421   T   T   T
 
  0.00000000E+00  0.00000000E+00  0.00000000E+00
  0.00000000E+00  0.00000000E+00  0.00000000E+00
  0.00000000E+00  0.00000000E+00  0.00000000E+00
  0.00000000E+00  0.00000000E+00  0.00000000E+00
  0.00000000E+00  0.00000000E+00  0.00000000E+00
  0.00000000E+00  0.00000000E+00  0.00000000E+00
  0.00000000E+00  0.00000000E+00  0.00000000E+00
  0.00000000E+00  0.00000000E+00  0.00000000E+00
  0.00000000E+00  0.00000000E+00  0.00000000E+00
  0.00000000E+00  0.00000000E+00  0.00000000E+00
  0.00000000E+00  0.00000000E+00  0.00000000E+00
  0.00000000E+00  0.00000000E+00  0.00000000E+00
  0.00000000E+00  0.00000000E+00  0.00000000E+00
  0.00000000E+00  0.00000000E+00  0.00000000E+00
  0.00000000E+00  0.00000000E+00  0.00000000E+00
  0.00000000E+00  0.00000000E+00  0.00000000E+00
  0.00000000E+00  0.00000000E+00  0.00000000E+00
  0.00000000E+00  0.00000000E+00  0.00000000E+00
  0.00000000E+00  0.00000000E+00  0.00000000E+00
  0.00000000E+00  0.00000000E+00  0.00000000E+00
  0.00000000E+00  0.00000000E+00  0.00000000E+00
  0.00000000E+00  0.00000000E+00  0.00000000E+00
  0.00000000E+00  0.00000000E+00  0.00000000E+00
  0.00000000E+00  0.00000000E+00  0.00000000E+00
  0.00000000E+00  0.00000000E+00  0.00000000E+00
