Title                                   
   1.00000000000000     
     4.9440799999999996    0.0000000000000000    0.0000000000000000
     0.0000000000000000    8.5647549999999999    0.0000000000000000
     0.0000000000000000    0.0000000000000000   20.0000000000000000
    13     1     1
Selective dynamics
Direct
  0.0029587530274425  0.2936243094834659  0.0948809092087619   T   T   T
  0.2500000000000000  0.0427446515336491  0.0953486731014503   T   T   T
  0.0024300944036088  0.9573860457222416  0.0961577043493023   T   T   T
  0.7500000000000000  0.2083792799807341  0.0923730491408015   T   T   T
  0.4970412469725577  0.2936243094834659  0.0948809092087619   T   T   T
  0.7500000000000000  0.0402985968431335  0.0931490759315191   T   T   T
  0.7500000000000000  0.7094813767468711  0.1007544252648984   T   T   T
  0.7500000000000000  0.5377048702641753  0.0998799074580948   T   T   T
  0.4975699055963913  0.9573860457222416  0.0961577043493023   T   T   T
  0.4992073104045823  0.4591617662000483  0.1011392034922090   T   T   T
  0.0007926895954176  0.4591617662000483  0.1011392034922090   T   T   T
 -0.0008521457540589  0.7894798983665872  0.1032749487117061   T   T   T
  0.5008521457540590  0.7894798983665872  0.1032749487117061   T   T   T
  0.2500000000000000  0.2085584717278515  0.0944985740941660   T   T   T
  0.2500000000000000  0.6252097133589040  0.1410707634851149   T   T   T
 
  0.00000000E+00  0.00000000E+00  0.00000000E+00
  0.00000000E+00  0.00000000E+00  0.00000000E+00
  0.00000000E+00  0.00000000E+00  0.00000000E+00
  0.00000000E+00  0.00000000E+00  0.00000000E+00
  0.00000000E+00  0.00000000E+00  0.00000000E+00
  0.00000000E+00  0.00000000E+00  0.00000000E+00
  0.00000000E+00  0.00000000E+00  0.00000000E+00
  0.00000000E+00  0.00000000E+00  0.00000000E+00
  0.00000000E+00  0.00000000E+00  0.00000000E+00
  0.00000000E+00  0.00000000E+00  0.00000000E+00
  0.00000000E+00  0.00000000E+00  0.00000000E+00
  0.00000000E+00  0.00000000E+00  0.00000000E+00
  0.00000000E+00  0.00000000E+00  0.00000000E+00
  0.00000000E+00  0.00000000E+00  0.00000000E+00
  0.00000000E+00  0.00000000E+00  0.00000000E+00
