Title                                   
   1.00000000000000     
     9.8694509999999998    0.0000000000000000    0.0000000000000000
     0.0000000000000000    8.5490480000000009    0.0000000000000000
     0.0000000000000000    0.0000000000000000   20.0000000000000000
    29     2     1
Selective dynamics
Direct
  0.0566522401348650  0.0905209531640057  0.0826290838857744   T   T   T
  0.9311799563021100  0.1732669727471862  0.0854183472819945   T   T   T
  0.0567422232266902  0.9228570141944671  0.0822662899799935   T   T   T
  0.9306922361776125  0.3402336966103676  0.0893460870271489   T   T   T
  0.0561725289444365  0.5893736537035384  0.0858677593693259   T   T   T
  0.9316754168891314  0.6726610812564338  0.0888580877907101   T   T   T
  0.0570776820890318  0.4233433557031362  0.0875936821862152   T   T   T
  0.9311992556357697  0.8398790184880529  0.0853788211780695   T   T   T
  0.3057953704532954  0.0889067269177736  0.0853513562295690   T   T   T
  0.1823276499634889  0.1739438529058502  0.0847090750764617   T   T   T
  0.3073081502518533  0.9229449552722993  0.0863907880723398   T   T   T
  0.1827413277005451  0.3408746986880665  0.0887063927252916   T   T   T
  0.3048822099665731  0.5895715357597460  0.0981690282765710   T   T   T
  0.1816682570567296  0.6711022059440327  0.0864575461205110   T   T   T
  0.1821588703936839  0.8385014895333999  0.0841726991649889   T   T   T
  0.5556273336361888  0.0869763837380505  0.0936144602281088   T   T   T
  0.4302457559139496  0.1709274362785952  0.0913548287318571   T   T   T
  0.4301492710827812  0.3358862739161779  0.1010935923489951   T   T   T
  0.4297618308298337  0.8401018702302175  0.0985817713169426   T   T   T
  0.8070453354168852  0.0897847186302338  0.0867713144832354   T   T   T
  0.6812528700502319  0.1701331226884927  0.0934394529955214   T   T   T
  0.8056271769423232  0.9238214302764177  0.0876326144544968   T   T   T
  0.6804222874754806  0.3345453333937360  0.1038476518351123   T   T   T
  0.8087135694989259  0.5913676826489461  0.1018096921613939   T   T   T
  0.8056792990255576  0.4226346661194464  0.0995060228859718   T   T   T
  0.6823324291097712  0.8419479612621976  0.0994547850367912   T   T   T
  0.4215083063321692  0.6788315974855551  0.1177380273456091   T   T   T
  0.5535467719663294  0.4079805457137107  0.1206635589551804   T   T   T
  0.6910267955027393  0.6823930566026837  0.1189165689123531   T   T   T
  0.5554111126448305  0.9218798582327202  0.0978076377085253   T   T   T
  0.3060825206796923  0.4226528827407185  0.0967587868818183   T   T   T
  0.5569329587065008  0.5903999691537460  0.1753691893531386   T   T   T
 
  0.00000000E+00  0.00000000E+00  0.00000000E+00
  0.00000000E+00  0.00000000E+00  0.00000000E+00
  0.00000000E+00  0.00000000E+00  0.00000000E+00
  0.00000000E+00  0.00000000E+00  0.00000000E+00
  0.00000000E+00  0.00000000E+00  0.00000000E+00
  0.00000000E+00  0.00000000E+00  0.00000000E+00
  0.00000000E+00  0.00000000E+00  0.00000000E+00
  0.00000000E+00  0.00000000E+00  0.00000000E+00
  0.00000000E+00  0.00000000E+00  0.00000000E+00
  0.00000000E+00  0.00000000E+00  0.00000000E+00
  0.00000000E+00  0.00000000E+00  0.00000000E+00
  0.00000000E+00  0.00000000E+00  0.00000000E+00
  0.00000000E+00  0.00000000E+00  0.00000000E+00
  0.00000000E+00  0.00000000E+00  0.00000000E+00
  0.00000000E+00  0.00000000E+00  0.00000000E+00
  0.00000000E+00  0.00000000E+00  0.00000000E+00
  0.00000000E+00  0.00000000E+00  0.00000000E+00
  0.00000000E+00  0.00000000E+00  0.00000000E+00
  0.00000000E+00  0.00000000E+00  0.00000000E+00
  0.00000000E+00  0.00000000E+00  0.00000000E+00
  0.00000000E+00  0.00000000E+00  0.00000000E+00
  0.00000000E+00  0.00000000E+00  0.00000000E+00
  0.00000000E+00  0.00000000E+00  0.00000000E+00
  0.00000000E+00  0.00000000E+00  0.00000000E+00
  0.00000000E+00  0.00000000E+00  0.00000000E+00
  0.00000000E+00  0.00000000E+00  0.00000000E+00
  0.00000000E+00  0.00000000E+00  0.00000000E+00
  0.00000000E+00  0.00000000E+00  0.00000000E+00
  0.00000000E+00  0.00000000E+00  0.00000000E+00
  0.00000000E+00  0.00000000E+00  0.00000000E+00
  0.00000000E+00  0.00000000E+00  0.00000000E+00
  0.00000000E+00  0.00000000E+00  0.00000000E+00
