Title                                   
   1.00000000000000     
     9.8694509999999998    0.0000000000000000    0.0000000000000000
     0.0000000000000000    8.5490480000000009    0.0000000000000000
     0.0000000000000000    0.0000000000000000   20.0000000000000000
    28     3     1
Selective dynamics
Direct
  0.0560249566565261  0.0912765698134668  0.0815826105252354   T   T   T
  0.9308549382508813  0.1745962180798291  0.0826984741019403   T   T   T
  0.0576843439902469  0.9244739476794841  0.0819863395876698   T   T   T
  0.9299650362188444  0.3423856928894914  0.0857806100165555   T   T   T
  0.0568355289572670  0.5907418193490948  0.0839868005024420   T   T   T
  0.9328501871111581  0.6742959072575427  0.0858496997343804   T   T   T
  0.0567141981585688  0.4233913712553297  0.0846828150835573   T   T   T
  0.9331236973922968  0.8408968295225939  0.0841716195754939   T   T   T
  0.3055338340512556  0.0873466519144177  0.0882004406317350   T   T   T
  0.1825729702657364  0.1726264135926605  0.0846725213594694   T   T   T
  0.1820645722940351  0.3396488838008961  0.0876700217716602   T   T   T
  0.3023540173736498  0.5883015190746694  0.1035598951902839   T   T   T
  0.1819509808410790  0.6739513658955534  0.0886155299452935   T   T   T
  0.3059554960893344  0.4205904217397312  0.1004584091313067   T   T   T
  0.1822199276784421  0.8408345994473930  0.0858862984054089   T   T   T
  0.5558141571375765  0.0852955304024675  0.0938075256878724   T   T   T
  0.5555994241225970  0.9204432914998619  0.0998169957737117   T   T   T
  0.4289714309510168  0.3298007949441213  0.1076424368758748   T   T   T
  0.4262522088267886  0.8406859339059456  0.1051500040317091   T   T   T
  0.8058136888654065  0.0897076654957594  0.0840110951120277   T   T   T
  0.6797155966016355  0.1711493937148352  0.0902002577082874   T   T   T
  0.8076236811943117  0.9244217575531292  0.0865449954875485   T   T   T
  0.6808848939867143  0.3350753903970052  0.1011041922963221   T   T   T
  0.8089898474073500  0.5938597453612318  0.0972844556614213   T   T   T
  0.8044432819573810  0.4249189603198679  0.0952564841293711   T   T   T
  0.6851228794957380  0.8412044698905825  0.0988229975932952   T   T   T
  0.4155146924450802  0.6822121999792697  0.1229730999385138   T   T   T
  0.5552225053288391  0.4006552685559406  0.1228592226860539   T   T   T
  0.6969367860433973  0.6833617864027549  0.1140333714841147   T   T   T
  0.3059666898391534  0.9249398171082722  0.0899139518772604   T   T   T
  0.4291060047706438  0.1662240215414865  0.0950360145970335   T   T   T
  0.5609565456970547  0.5909317616153178  0.1714158134971660   T   T   T
 
  0.00000000E+00  0.00000000E+00  0.00000000E+00
  0.00000000E+00  0.00000000E+00  0.00000000E+00
  0.00000000E+00  0.00000000E+00  0.00000000E+00
  0.00000000E+00  0.00000000E+00  0.00000000E+00
  0.00000000E+00  0.00000000E+00  0.00000000E+00
  0.00000000E+00  0.00000000E+00  0.00000000E+00
  0.00000000E+00  0.00000000E+00  0.00000000E+00
  0.00000000E+00  0.00000000E+00  0.00000000E+00
  0.00000000E+00  0.00000000E+00  0.00000000E+00
  0.00000000E+00  0.00000000E+00  0.00000000E+00
  0.00000000E+00  0.00000000E+00  0.00000000E+00
  0.00000000E+00  0.00000000E+00  0.00000000E+00
  0.00000000E+00  0.00000000E+00  0.00000000E+00
  0.00000000E+00  0.00000000E+00  0.00000000E+00
  0.00000000E+00  0.00000000E+00  0.00000000E+00
  0.00000000E+00  0.00000000E+00  0.00000000E+00
  0.00000000E+00  0.00000000E+00  0.00000000E+00
  0.00000000E+00  0.00000000E+00  0.00000000E+00
  0.00000000E+00  0.00000000E+00  0.00000000E+00
  0.00000000E+00  0.00000000E+00  0.00000000E+00
  0.00000000E+00  0.00000000E+00  0.00000000E+00
  0.00000000E+00  0.00000000E+00  0.00000000E+00
  0.00000000E+00  0.00000000E+00  0.00000000E+00
  0.00000000E+00  0.00000000E+00  0.00000000E+00
  0.00000000E+00  0.00000000E+00  0.00000000E+00
  0.00000000E+00  0.00000000E+00  0.00000000E+00
  0.00000000E+00  0.00000000E+00  0.00000000E+00
  0.00000000E+00  0.00000000E+00  0.00000000E+00
  0.00000000E+00  0.00000000E+00  0.00000000E+00
  0.00000000E+00  0.00000000E+00  0.00000000E+00
  0.00000000E+00  0.00000000E+00  0.00000000E+00
  0.00000000E+00  0.00000000E+00  0.00000000E+00
