Title                                   
   1.00000000000000     
     4.9440799999999996    0.0000000000000000    0.0000000000000000
     0.0000000000000000   17.1295089999999988    0.0000000000000000
     0.0000000000000000    0.0000000000000000   20.0000000000000000
    28     2     1
Selective dynamics
Direct
 -0.0015369554534997  0.1053995925197441  0.2966974916726566   T   T   T
  0.2478075017874467  0.1480418664144076  0.2977797511911162   T   T   T
  0.2476530360403463  0.2319107423911896  0.2996474862185476   T   T   T
 -0.0041643879502779  0.2737036047591747  0.2979419695705123   T   T   T
  0.0040284722059755  0.6027919588673651  0.2967860754069513   T   T   T
  0.2523034982380762  0.7265646269632785  0.2981772926675921   T   T   T
  0.0015190064113070  0.8529513506755492  0.2968933912912951   T   T   T
  0.2502171717106126  0.8953604692783830  0.2969502335776086   T   T   T
  0.2493813315547400  0.9793108584997884  0.2966877844234334   T   T   T
  0.0020474888182441  0.7687058715294288  0.2971177214465072   T   T   T
  0.4981760651102811  0.1054660162427291  0.2975645895058289   T   T   T
  0.7482946561593325  0.1473107146137333  0.2974838572930057   T   T   T
  0.7465990232265910  0.2312734113121538  0.2989541476171009   T   T   T
  0.4990085501296859  0.0214585700262233  0.2969438972969645   T   T   T
  0.7557675599154996  0.3939815723340123  0.3020159494627344   T   T   T
  0.7599015254950865  0.4802186690837609  0.3013746141613535   T   T   T
  0.4977646598270531  0.2742198561121849  0.3029827223024264   T   T   T
  0.5015483362442901  0.6007304890045743  0.3020635948164851   T   T   T
  0.7509344587770197  0.7275930241677760  0.2974986188769547   T   T   T
  0.4995547137547845  0.8531202980283384  0.2973725527346613   T   T   T
  0.7503249917999654  0.8949663821293271  0.2968924903147417   T   T   T
  0.7494403601617021  0.9791697671075205  0.2966575354278565   T   T   T
  0.5007331632040091  0.7690372742697059  0.2980693084357500   T   T   T
  0.7514055556670963  0.6444258960409066  0.2979486773537076   T   T   T
 -0.0007624594259029  0.0213991045216500  0.2964517972748245   T   T   T
  0.5047371345292897  0.5180852193961042  0.3089703357643279   T   T   T
  0.0053453392522848  0.5211985726680497  0.2952999332461775   T   T   T
  0.5081069829847962  0.3569891080412043  0.3106450457477462   T   T   T
 -0.0064847806667077  0.3539283580520665  0.2952571408605650   T   T   T
  0.2534840616553167  0.6444084169655727  0.2993556331344259   T   T   T
  0.2368709388355567  0.4376203379840941  0.3205783609060930   T   T   T
 
  0.00000000E+00  0.00000000E+00  0.00000000E+00
  0.00000000E+00  0.00000000E+00  0.00000000E+00
  0.00000000E+00  0.00000000E+00  0.00000000E+00
  0.00000000E+00  0.00000000E+00  0.00000000E+00
  0.00000000E+00  0.00000000E+00  0.00000000E+00
  0.00000000E+00  0.00000000E+00  0.00000000E+00
  0.00000000E+00  0.00000000E+00  0.00000000E+00
  0.00000000E+00  0.00000000E+00  0.00000000E+00
  0.00000000E+00  0.00000000E+00  0.00000000E+00
  0.00000000E+00  0.00000000E+00  0.00000000E+00
  0.00000000E+00  0.00000000E+00  0.00000000E+00
  0.00000000E+00  0.00000000E+00  0.00000000E+00
  0.00000000E+00  0.00000000E+00  0.00000000E+00
  0.00000000E+00  0.00000000E+00  0.00000000E+00
  0.00000000E+00  0.00000000E+00  0.00000000E+00
  0.00000000E+00  0.00000000E+00  0.00000000E+00
  0.00000000E+00  0.00000000E+00  0.00000000E+00
  0.00000000E+00  0.00000000E+00  0.00000000E+00
  0.00000000E+00  0.00000000E+00  0.00000000E+00
  0.00000000E+00  0.00000000E+00  0.00000000E+00
  0.00000000E+00  0.00000000E+00  0.00000000E+00
  0.00000000E+00  0.00000000E+00  0.00000000E+00
  0.00000000E+00  0.00000000E+00  0.00000000E+00
  0.00000000E+00  0.00000000E+00  0.00000000E+00
  0.00000000E+00  0.00000000E+00  0.00000000E+00
  0.00000000E+00  0.00000000E+00  0.00000000E+00
  0.00000000E+00  0.00000000E+00  0.00000000E+00
  0.00000000E+00  0.00000000E+00  0.00000000E+00
  0.00000000E+00  0.00000000E+00  0.00000000E+00
  0.00000000E+00  0.00000000E+00  0.00000000E+00
  0.00000000E+00  0.00000000E+00  0.00000000E+00
