Title                                   
   1.00000000000000     
     9.8694509999999998    0.0000000000000000    0.0000000000000000
     0.0000000000000000    8.5490480000000009    0.0000000000000000
     0.0000000000000000    0.0000000000000000   20.0000000000000000
    25     5     1
Selective dynamics
Direct
  0.0562691135265819  0.0903201150439306  0.0932578479673403   T   T   T
  0.9324807511796662  0.1724731575539145  0.0984944440637418   T   T   T
  0.0579154320423310  0.9224263511232201  0.0937352231497055   T   T   T
  0.9329034706836824  0.3402089453785763  0.0989198203801983   T   T   T
  0.0576273876738302  0.5899499209437900  0.0937438155371893   T   T   T
  0.9333875043103337  0.6726345035268912  0.0991682851463057   T   T   T
  0.0573196278594320  0.4229269903842144  0.0931936962831366   T   T   T
  0.9331963755213671  0.8395989923158932  0.0985646163560836   T   T   T
  0.3076979481200656  0.0883830887164962  0.0867668215382016   T   T   T
  0.1815565790931712  0.1721246535902045  0.0883458585542298   T   T   T
  0.1808242774551691  0.3383440246419999  0.0881496677405016   T   T   T
  0.3068146286609316  0.5901363142221107  0.0836616409206591   T   T   T
  0.1816262284276284  0.6740069480828461  0.0896480446758391   T   T   T
  0.3068090789763482  0.4212248411443530  0.0830937772505459   T   T   T
  0.1819890963319805  0.8389727558674800  0.0898845418003814   T   T   T
  0.5579856825018972  0.0926291969208290  0.0976401190580719   T   T   T
  0.4299962836880078  0.1720661081083082  0.0883588164241527   T   T   T
  0.5567220707324368  0.9203232915083031  0.0979058954433521   T   T   T
  0.4297658009637861  0.8388362845971248  0.0893457255576686   T   T   T
  0.8056565200821649  0.0900064898279987  0.1017796822073806   T   T   T
  0.6824650193447689  0.1777051361397351  0.1051797022828489   T   T   T
  0.8059576972691763  0.9222571322185554  0.1013619318562360   T   T   T
  0.8096304291923917  0.5901074227248223  0.1063845368150644   T   T   T
  0.8091971166024713  0.4225278362904157  0.1065427583952474   T   T   T
  0.6826283422674736  0.8340191227047054  0.1046125746592282   T   T   T
  0.4266258596393924  0.3345908964897796  0.0833997790204109   T   T   T
  0.4264676769873573  0.6798723673329781  0.0831430768885754   T   T   T
  0.6875460970990939  0.3413444950204188  0.1146532312668719   T   T   T
  0.6880901954271943  0.6717561294965678  0.1137759294593847   T   T   T
  0.3081416393331773  0.9226668084353562  0.0874788112527838   T   T   T
  0.5278420690066900  0.5064346796481799  0.1407743280487206   T   T   T
 
  0.00000000E+00  0.00000000E+00  0.00000000E+00
  0.00000000E+00  0.00000000E+00  0.00000000E+00
  0.00000000E+00  0.00000000E+00  0.00000000E+00
  0.00000000E+00  0.00000000E+00  0.00000000E+00
  0.00000000E+00  0.00000000E+00  0.00000000E+00
  0.00000000E+00  0.00000000E+00  0.00000000E+00
  0.00000000E+00  0.00000000E+00  0.00000000E+00
  0.00000000E+00  0.00000000E+00  0.00000000E+00
  0.00000000E+00  0.00000000E+00  0.00000000E+00
  0.00000000E+00  0.00000000E+00  0.00000000E+00
  0.00000000E+00  0.00000000E+00  0.00000000E+00
  0.00000000E+00  0.00000000E+00  0.00000000E+00
  0.00000000E+00  0.00000000E+00  0.00000000E+00
  0.00000000E+00  0.00000000E+00  0.00000000E+00
  0.00000000E+00  0.00000000E+00  0.00000000E+00
  0.00000000E+00  0.00000000E+00  0.00000000E+00
  0.00000000E+00  0.00000000E+00  0.00000000E+00
  0.00000000E+00  0.00000000E+00  0.00000000E+00
  0.00000000E+00  0.00000000E+00  0.00000000E+00
  0.00000000E+00  0.00000000E+00  0.00000000E+00
  0.00000000E+00  0.00000000E+00  0.00000000E+00
  0.00000000E+00  0.00000000E+00  0.00000000E+00
  0.00000000E+00  0.00000000E+00  0.00000000E+00
  0.00000000E+00  0.00000000E+00  0.00000000E+00
  0.00000000E+00  0.00000000E+00  0.00000000E+00
  0.00000000E+00  0.00000000E+00  0.00000000E+00
  0.00000000E+00  0.00000000E+00  0.00000000E+00
  0.00000000E+00  0.00000000E+00  0.00000000E+00
  0.00000000E+00  0.00000000E+00  0.00000000E+00
  0.00000000E+00  0.00000000E+00  0.00000000E+00
  0.00000000E+00  0.00000000E+00  0.00000000E+00
