Title                                   
   1.00000000000000     
     8.5490480000000009    0.0000000000000000    0.0000000000000000
     0.0000000000000000    8.5490480000000009    0.0000000000000000
     0.0000000000000000    0.0000000000000000   20.0000000000000000
    19     5     1
Selective dynamics
Direct
  0.9093876780703097  0.2058915381714914  0.0976362326278603   T   T   T
  0.9105948338356842  0.8007287730752324  0.0974643578197483   T   T   T
  0.1978978306839157  0.0841809098318961  0.0977794733765243   T   T   T
  0.0755439395737547  0.2030251693754207  0.0977193442957651   T   T   T
  0.1555637840554729  0.6520329461881602  0.0977828644539532   T   T   T
  0.0748026668603017  0.5016616558615039  0.0977547664416093   T   T   T
  0.1555522054202446  0.3550512139081879  0.0977445586500687   T   T   T
  0.0783107919858248  0.7993112581769588  0.0976344215113475   T   T   T
  0.4944304399843985  0.0851064860455115  0.0977904976521415   T   T   T
  0.3459242518026848  0.1649072086743466  0.0978219934812727   T   T   T
  0.4936664668868495  0.9142521588943097  0.0977859035325486   T   T   T
  0.3433181052546082  0.8338522436901622  0.0978997668992005   T   T   T
  0.7885895436456845  0.0866926956010051  0.0975651255113343   T   T   T
  0.6422799262291057  0.1674894207897719  0.0977654455585912   T   T   T
  0.7892009058216697  0.9183604098973792  0.0974740472990088   T   T   T
  0.8289019756475634  0.6517464621226569  0.0976187536093906   T   T   T
  0.8264247995597884  0.3545991270454398  0.0977555136248855   T   T   T
  0.6429052831232933  0.8341375528607985  0.0976820321116645   T   T   T
  0.3235249792587480  0.3338139729781397  0.0978003768157508   T   T   T
  0.9055418316481141  0.5031965521654963  0.0977839633818833   T   T   T
  0.3180314163743792  0.6755015935671109  0.0979601968228575   T   T   T
  0.6665110225071625  0.3325576795960294  0.0979045141441859   T   T   T
  0.6690865069260639  0.6715949190324626  0.0977993369379624   T   T   T
  0.1973801283115745  0.9160384810090872  0.0978053712577713   T   T   T
  0.4920406865327967  0.4990595714414621  0.0979761421826469   T   T   T
 
  0.00000000E+00  0.00000000E+00  0.00000000E+00
  0.00000000E+00  0.00000000E+00  0.00000000E+00
  0.00000000E+00  0.00000000E+00  0.00000000E+00
  0.00000000E+00  0.00000000E+00  0.00000000E+00
  0.00000000E+00  0.00000000E+00  0.00000000E+00
  0.00000000E+00  0.00000000E+00  0.00000000E+00
  0.00000000E+00  0.00000000E+00  0.00000000E+00
  0.00000000E+00  0.00000000E+00  0.00000000E+00
  0.00000000E+00  0.00000000E+00  0.00000000E+00
  0.00000000E+00  0.00000000E+00  0.00000000E+00
  0.00000000E+00  0.00000000E+00  0.00000000E+00
  0.00000000E+00  0.00000000E+00  0.00000000E+00
  0.00000000E+00  0.00000000E+00  0.00000000E+00
  0.00000000E+00  0.00000000E+00  0.00000000E+00
  0.00000000E+00  0.00000000E+00  0.00000000E+00
  0.00000000E+00  0.00000000E+00  0.00000000E+00
  0.00000000E+00  0.00000000E+00  0.00000000E+00
  0.00000000E+00  0.00000000E+00  0.00000000E+00
  0.00000000E+00  0.00000000E+00  0.00000000E+00
  0.00000000E+00  0.00000000E+00  0.00000000E+00
  0.00000000E+00  0.00000000E+00  0.00000000E+00
  0.00000000E+00  0.00000000E+00  0.00000000E+00
  0.00000000E+00  0.00000000E+00  0.00000000E+00
  0.00000000E+00  0.00000000E+00  0.00000000E+00
  0.00000000E+00  0.00000000E+00  0.00000000E+00
