Title                                   
   1.00000000000000     
     4.9440799999999996    0.0000000000000000    0.0000000000000000
     0.0000000000000000    8.5647549999999999    0.0000000000000000
     0.0000000000000000    0.0000000000000000   20.0000000000000000
    11     3     1
Selective dynamics
Direct
  0.2441338446413107  0.2089483028656967  0.0977527591276051   T   T   T
 -0.0060506421371069  0.2956264311528367  0.1026055534916567   T   T   T
  0.2465075825487212  0.0376069198002632  0.0985500997212913   T   T   T
 -0.0029137907197389  0.9540160291541407  0.1022701036812255   T   T   T
  0.7489898839864746  0.2090180627457508  0.0942332426807579   T   T   T
  0.4958035301664080  0.2901673065157217  0.0909741752258892   T   T   T
  0.7520632233493710  0.0404781499650858  0.0951418703107099   T   T   T
  0.7515191569383448  0.7149785516959120  0.1010615769658886   T   T   T
  0.7470099994297374  0.5388275045163918  0.1004609444452251   T   T   T
  0.5022448811240225  0.9571099727553417  0.0944575468098116   T   T   T
  0.5060981359293684  0.4560467095148097  0.0884304282407669   T   T   T
 -0.0141970767699151  0.4595012770876570  0.1157583785271606   T   T   T
 -0.0144885576654208  0.7907167185219389  0.1134592999385472   T   T   T
  0.5163795266228077  0.7955242558469556  0.0932724097194010   T   T   T
  0.2769003025556155  0.6231148078615011  0.1195516111140671   T   T   T
 
  0.00000000E+00  0.00000000E+00  0.00000000E+00
  0.00000000E+00  0.00000000E+00  0.00000000E+00
  0.00000000E+00  0.00000000E+00  0.00000000E+00
  0.00000000E+00  0.00000000E+00  0.00000000E+00
  0.00000000E+00  0.00000000E+00  0.00000000E+00
  0.00000000E+00  0.00000000E+00  0.00000000E+00
  0.00000000E+00  0.00000000E+00  0.00000000E+00
  0.00000000E+00  0.00000000E+00  0.00000000E+00
  0.00000000E+00  0.00000000E+00  0.00000000E+00
  0.00000000E+00  0.00000000E+00  0.00000000E+00
  0.00000000E+00  0.00000000E+00  0.00000000E+00
  0.00000000E+00  0.00000000E+00  0.00000000E+00
  0.00000000E+00  0.00000000E+00  0.00000000E+00
  0.00000000E+00  0.00000000E+00  0.00000000E+00
  0.00000000E+00  0.00000000E+00  0.00000000E+00
