Title                                   
   1.00000000000000     
     9.8694509999999998    0.0000000000000000    0.0000000000000000
     0.0000000000000000    8.5490480000000009    0.0000000000000000
     0.0000000000000000    0.0000000000000000   20.0000000000000000
    27     4     1
Selective dynamics
Direct
  0.0560017766735776  0.0920704918689080  0.0874246719493852   T   T   T
  0.9298038529872871  0.1750789033535640  0.0883758801465294   T   T   T
  0.0566928126472435  0.9235890525080169  0.0855120559450229   T   T   T
  0.9297543976131755  0.3419381759683284  0.0916523246131324   T   T   T
  0.0565261643498987  0.5902015466745152  0.0892855970008666   T   T   T
  0.9320835156199988  0.6724472475837211  0.0867928515598398   T   T   T
  0.0556648700123648  0.4228404306671674  0.0927394538086410   T   T   T
  0.9317886889652168  0.8400540363175609  0.0848864911309599   T   T   T
  0.3057728443671661  0.0883524208332886  0.0894229631397864   T   T   T
  0.1820192428147995  0.1736930940420512  0.0908054124496199   T   T   T
  0.3073207030395210  0.9225980196374819  0.0890971891187534   T   T   T
  0.1816302117885425  0.3399592181144147  0.0959301829308010   T   T   T
  0.3053065057910083  0.5890777212720936  0.1031985988959135   T   T   T
  0.1813286915041731  0.6710734329976361  0.0907900551221134   T   T   T
  0.1821230832738234  0.8388248788117645  0.0879457751826252   T   T   T
  0.5568730281793796  0.0867002022786658  0.0927288600316169   T   T   T
  0.4311303843614162  0.1700563524364107  0.0942867130289257   T   T   T
  0.4310813038119817  0.3351617741596365  0.1053133843664419   T   T   T
  0.4308489062556660  0.8382358299118348  0.0983348034381218   T   T   T
  0.8065131210461794  0.0898883074693487  0.0861825914296139   T   T   T
  0.6805514667726725  0.1715623913583195  0.0905000173112909   T   T   T
  0.8061578454619883  0.9242836288896115  0.0853863413771700   T   T   T
  0.6791809528951702  0.3376809572281698  0.0997044543167808   T   T   T
  0.8055328779425605  0.5936707413003106  0.0903832462213022   T   T   T
  0.6842854791808051  0.8373327794730642  0.0895585601067267   T   T   T
  0.4212248433044736  0.6789447759067040  0.1189340988249549   T   T   T
  0.5561672724874285  0.4087317011261302  0.1205253008885438   T   T   T
  0.6876939912219788  0.6770347120081539  0.0931905148833559   T   T   T
  0.5574506041153114  0.9183392915097334  0.0935998359938144   T   T   T
  0.3055757568429324  0.4213729913365696  0.1040816712697428   T   T   T
  0.8036785800928384  0.4254936983933471  0.0943080765322193   T   T   T
  0.5618752245794253  0.5939571945634795  0.1747970269854040   T   T   T
 
  0.00000000E+00  0.00000000E+00  0.00000000E+00
  0.00000000E+00  0.00000000E+00  0.00000000E+00
  0.00000000E+00  0.00000000E+00  0.00000000E+00
  0.00000000E+00  0.00000000E+00  0.00000000E+00
  0.00000000E+00  0.00000000E+00  0.00000000E+00
  0.00000000E+00  0.00000000E+00  0.00000000E+00
  0.00000000E+00  0.00000000E+00  0.00000000E+00
  0.00000000E+00  0.00000000E+00  0.00000000E+00
  0.00000000E+00  0.00000000E+00  0.00000000E+00
  0.00000000E+00  0.00000000E+00  0.00000000E+00
  0.00000000E+00  0.00000000E+00  0.00000000E+00
  0.00000000E+00  0.00000000E+00  0.00000000E+00
  0.00000000E+00  0.00000000E+00  0.00000000E+00
  0.00000000E+00  0.00000000E+00  0.00000000E+00
  0.00000000E+00  0.00000000E+00  0.00000000E+00
  0.00000000E+00  0.00000000E+00  0.00000000E+00
  0.00000000E+00  0.00000000E+00  0.00000000E+00
  0.00000000E+00  0.00000000E+00  0.00000000E+00
  0.00000000E+00  0.00000000E+00  0.00000000E+00
  0.00000000E+00  0.00000000E+00  0.00000000E+00
  0.00000000E+00  0.00000000E+00  0.00000000E+00
  0.00000000E+00  0.00000000E+00  0.00000000E+00
  0.00000000E+00  0.00000000E+00  0.00000000E+00
  0.00000000E+00  0.00000000E+00  0.00000000E+00
  0.00000000E+00  0.00000000E+00  0.00000000E+00
  0.00000000E+00  0.00000000E+00  0.00000000E+00
  0.00000000E+00  0.00000000E+00  0.00000000E+00
  0.00000000E+00  0.00000000E+00  0.00000000E+00
  0.00000000E+00  0.00000000E+00  0.00000000E+00
  0.00000000E+00  0.00000000E+00  0.00000000E+00
  0.00000000E+00  0.00000000E+00  0.00000000E+00
  0.00000000E+00  0.00000000E+00  0.00000000E+00
