Title                                   
   1.00000000000000     
     9.8694509999999998    0.0000000000000000    0.0000000000000000
     0.0000000000000000    8.5490480000000009    0.0000000000000000
     0.0000000000000000    0.0000000000000000   20.0000000000000000
    28     3     1
Selective dynamics
Direct
  0.0563092319272796  0.0912751892976509  0.0826300993588006   T   T   T
  0.9306860447024468  0.1744454960424243  0.0847298606435048   T   T   T
  0.0572942885703165  0.9234407419876330  0.0829856423925514   T   T   T
  0.9296035524624627  0.3416275918225290  0.0888666646142423   T   T   T
  0.0557683023975548  0.5891107679407482  0.0865936884237572   T   T   T
  0.9323131049880586  0.6736796854598464  0.0887913598069563   T   T   T
  0.0562577944942920  0.4231826092931776  0.0880864850627597   T   T   T
  0.9321625270555970  0.8409007513002072  0.0855270173836434   T   T   T
  0.3052468295596332  0.0878756921255954  0.0850326516551381   T   T   T
  0.1820822706368164  0.1738533614464041  0.0848440353769133   T   T   T
  0.3074537016288791  0.9221395583258637  0.0873183261074196   T   T   T
  0.1817669958998868  0.3401326636982527  0.0893127572969041   T   T   T
  0.3029132251945616  0.5884195651145320  0.1018183623476248   T   T   T
  0.1810451119992525  0.6705980097402222  0.0888704699250478   T   T   T
  0.1821247834697146  0.8381190983848592  0.0860811621152042   T   T   T
  0.5557873801034182  0.0860235988460502  0.0924999994465121   T   T   T
  0.4297289519716098  0.1690661896187153  0.0911077519457806   T   T   T
  0.4283651439156085  0.3336062335187845  0.1020160202971017   T   T   T
  0.4294603652003202  0.8392768802970014  0.0997177050889634   T   T   T
  0.8069503738883649  0.0905116611776423  0.0847098986373568   T   T   T
  0.6809567423923280  0.1699255707507655  0.0914971902258722   T   T   T
  0.8067480295406128  0.9247128124628474  0.0858998423948215   T   T   T
  0.6793592093484443  0.3340087855298839  0.1025211584083836   T   T   T
  0.8090415613494304  0.5939316346501415  0.0998670474540297   T   T   T
  0.8032431252429477  0.4251723006295209  0.0978186648519921   T   T   T
  0.6846076899647197  0.8424066561054671  0.0966259663538373   T   T   T
  0.4188180541837270  0.6794608737104001  0.1218616017734910   T   T   T
  0.5523124051431463  0.4047532974260339  0.1206784680040575   T   T   T
  0.6953909278927702  0.6873092765622461  0.1166202225944943   T   T   T
  0.5566025366557649  0.9187270462280990  0.0960322383891454   T   T   T
  0.3054653878462174  0.4219009895210961  0.0984050606459550   T   T   T
  0.5637733503738246  0.5906514109853618  0.1763075809777547   T   T   T
 
  0.00000000E+00  0.00000000E+00  0.00000000E+00
  0.00000000E+00  0.00000000E+00  0.00000000E+00
  0.00000000E+00  0.00000000E+00  0.00000000E+00
  0.00000000E+00  0.00000000E+00  0.00000000E+00
  0.00000000E+00  0.00000000E+00  0.00000000E+00
  0.00000000E+00  0.00000000E+00  0.00000000E+00
  0.00000000E+00  0.00000000E+00  0.00000000E+00
  0.00000000E+00  0.00000000E+00  0.00000000E+00
  0.00000000E+00  0.00000000E+00  0.00000000E+00
  0.00000000E+00  0.00000000E+00  0.00000000E+00
  0.00000000E+00  0.00000000E+00  0.00000000E+00
  0.00000000E+00  0.00000000E+00  0.00000000E+00
  0.00000000E+00  0.00000000E+00  0.00000000E+00
  0.00000000E+00  0.00000000E+00  0.00000000E+00
  0.00000000E+00  0.00000000E+00  0.00000000E+00
  0.00000000E+00  0.00000000E+00  0.00000000E+00
  0.00000000E+00  0.00000000E+00  0.00000000E+00
  0.00000000E+00  0.00000000E+00  0.00000000E+00
  0.00000000E+00  0.00000000E+00  0.00000000E+00
  0.00000000E+00  0.00000000E+00  0.00000000E+00
  0.00000000E+00  0.00000000E+00  0.00000000E+00
  0.00000000E+00  0.00000000E+00  0.00000000E+00
  0.00000000E+00  0.00000000E+00  0.00000000E+00
  0.00000000E+00  0.00000000E+00  0.00000000E+00
  0.00000000E+00  0.00000000E+00  0.00000000E+00
  0.00000000E+00  0.00000000E+00  0.00000000E+00
  0.00000000E+00  0.00000000E+00  0.00000000E+00
  0.00000000E+00  0.00000000E+00  0.00000000E+00
  0.00000000E+00  0.00000000E+00  0.00000000E+00
  0.00000000E+00  0.00000000E+00  0.00000000E+00
  0.00000000E+00  0.00000000E+00  0.00000000E+00
  0.00000000E+00  0.00000000E+00  0.00000000E+00
