Title                                   
   1.00000000000000     
     9.8694509999999998    0.0000000000000000    0.0000000000000000
     0.0000000000000000    8.5490480000000009    0.0000000000000000
     0.0000000000000000    0.0000000000000000   20.0000000000000000
    27     4     1
Selective dynamics
Direct
  0.0552217799746329  0.0928553315484216  0.0899262074114957   T   T   T
  0.9302678563106177  0.1747169584980960  0.0915976579588007   T   T   T
  0.0562613746008708  0.9257600170949547  0.0892207288788178   T   T   T
  0.9292610877235433  0.3424098736177537  0.0944373379418690   T   T   T
  0.0560796591120487  0.5909833988600692  0.0903928408091631   T   T   T
  0.9317023525335751  0.6740920268409692  0.0934328124458204   T   T   T
  0.0565383492130962  0.4240900442006839  0.0914435669231435   T   T   T
  0.9320376075489805  0.8406541040372741  0.0918304078642896   T   T   T
  0.3050972969881006  0.0886383094186883  0.0897097445631244   T   T   T
  0.1814817241645519  0.1745785681506224  0.0902906031561799   T   T   T
  0.1837998060397696  0.3420124653979688  0.0906955024831484   T   T   T
  0.3071066299125751  0.5948469316965946  0.0866969689430031   T   T   T
  0.1806551074306438  0.6756018910021967  0.0877915965945862   T   T   T
  0.3104523079382719  0.4265245564445266  0.0915435248730308   T   T   T
  0.1802717274068497  0.8419451154386276  0.0877661832197853   T   T   T
  0.5557270354695280  0.0831740007416746  0.0936189991270621   T   T   T
  0.4311195708930963  0.1686164788458902  0.0924528201422624   T   T   T
  0.5543832660772369  0.9164777579958416  0.0931985152622993   T   T   T
  0.4340591872919047  0.3357705145280180  0.0978942569618592   T   T   T
  0.4259715945814175  0.8350136125149040  0.0869987038971255   T   T   T
  0.8058491503264450  0.0889555000897532  0.0915630328527165   T   T   T
  0.6800453841226511  0.1693371201795863  0.0947531618735986   T   T   T
  0.8063963673459058  0.9229144266041877  0.0927982885190289   T   T   T
  0.6773607579196573  0.3350024946898039  0.1024192982122884   T   T   T
  0.8063014474232449  0.5935729046588284  0.1024361913192348   T   T   T
  0.8029610227551883  0.4247584132866441  0.1011592064859374   T   T   T
  0.6829837527428192  0.8355670787343863  0.0991299178023283   T   T   T
  0.4233740506156746  0.6804381999093412  0.0830605870466436   T   T   T
  0.5553439225484291  0.4081712061295240  0.1108120475200811   T   T   T
  0.6904215236638628  0.6788849005415023  0.1122779859166451   T   T   T
  0.3039473487487341  0.9250102272170276  0.0882555214580959   T   T   T
  0.5671589505760808  0.5788715710856419  0.1860707815365513   T   T   T
 
  0.00000000E+00  0.00000000E+00  0.00000000E+00
  0.00000000E+00  0.00000000E+00  0.00000000E+00
  0.00000000E+00  0.00000000E+00  0.00000000E+00
  0.00000000E+00  0.00000000E+00  0.00000000E+00
  0.00000000E+00  0.00000000E+00  0.00000000E+00
  0.00000000E+00  0.00000000E+00  0.00000000E+00
  0.00000000E+00  0.00000000E+00  0.00000000E+00
  0.00000000E+00  0.00000000E+00  0.00000000E+00
  0.00000000E+00  0.00000000E+00  0.00000000E+00
  0.00000000E+00  0.00000000E+00  0.00000000E+00
  0.00000000E+00  0.00000000E+00  0.00000000E+00
  0.00000000E+00  0.00000000E+00  0.00000000E+00
  0.00000000E+00  0.00000000E+00  0.00000000E+00
  0.00000000E+00  0.00000000E+00  0.00000000E+00
  0.00000000E+00  0.00000000E+00  0.00000000E+00
  0.00000000E+00  0.00000000E+00  0.00000000E+00
  0.00000000E+00  0.00000000E+00  0.00000000E+00
  0.00000000E+00  0.00000000E+00  0.00000000E+00
  0.00000000E+00  0.00000000E+00  0.00000000E+00
  0.00000000E+00  0.00000000E+00  0.00000000E+00
  0.00000000E+00  0.00000000E+00  0.00000000E+00
  0.00000000E+00  0.00000000E+00  0.00000000E+00
  0.00000000E+00  0.00000000E+00  0.00000000E+00
  0.00000000E+00  0.00000000E+00  0.00000000E+00
  0.00000000E+00  0.00000000E+00  0.00000000E+00
  0.00000000E+00  0.00000000E+00  0.00000000E+00
  0.00000000E+00  0.00000000E+00  0.00000000E+00
  0.00000000E+00  0.00000000E+00  0.00000000E+00
  0.00000000E+00  0.00000000E+00  0.00000000E+00
  0.00000000E+00  0.00000000E+00  0.00000000E+00
  0.00000000E+00  0.00000000E+00  0.00000000E+00
  0.00000000E+00  0.00000000E+00  0.00000000E+00
