Title                                   
   1.00000000000000     
     9.8694509999999998    0.0000000000000000    0.0000000000000000
     0.0000000000000000    8.5490480000000009    0.0000000000000000
     0.0000000000000000    0.0000000000000000   20.0000000000000000
    25     5     1
Selective dynamics
Direct
  0.0554202332930398  0.0897222086208602  0.0925364035352902   T   T   T
  0.9308664757736207  0.1719916898453280  0.0935030636249544   T   T   T
  0.0570681806452623  0.9242493883203537  0.0925196802966152   T   T   T
  0.9348295632043538  0.3394600087230060  0.0932269375727768   T   T   T
  0.0573485485831257  0.5897860586707977  0.0910933333011534   T   T   T
  0.9349094468398735  0.6745621653346467  0.0931034192988995   T   T   T
  0.0578469149168336  0.4230130486870490  0.0912062686202267   T   T   T
  0.9325561820171985  0.8409417352947184  0.0935079903445210   T   T   T
  0.3061692233468376  0.0878802845231544  0.0960015667528133   T   T   T
  0.1814046582859743  0.1716094207034276  0.0933353274666916   T   T   T
  0.1802755943668961  0.3381329762524505  0.0928484747782623   T   T   T
  0.3014674652987295  0.5905505677948597  0.0967170998401242   T   T   T
  0.1796707700949009  0.6745536799075810  0.0926283499619505   T   T   T
  0.3021109669052722  0.4212108717001394  0.0967121797858666   T   T   T
  0.1810576300396956  0.8405841115507880  0.0932264749941337   T   T   T
  0.4298484634410722  0.1748719884597183  0.0998296647441661   T   T   T
  0.5537901624087792  0.9183969591203829  0.1011161613904876   T   T   T
  0.4272439363615322  0.8366078058323452  0.1000262456939273   T   T   T
  0.8044536572036649  0.0886143564133538  0.0961573181447526   T   T   T
  0.6807636387212802  0.1764108199798407  0.0999150818484972   T   T   T
  0.8063150701817651  0.9221610783951716  0.0962792140134744   T   T   T
  0.6889947636212367  0.3406400258364647  0.1019971806906737   T   T   T
  0.8139497681915185  0.5923853714510966  0.0973284334514747   T   T   T
  0.8134938696894769  0.4228733153455374  0.0973341979631435   T   T   T
  0.6822691726772403  0.8339038595315009  0.1002382396487880   T   T   T
  0.5546223180570949  0.0920156763036892  0.1010330111433798   T   T   T
  0.4219608050530718  0.3356528103393228  0.1017780872811846   T   T   T
  0.6928567551460725  0.6723794196676079  0.1022376140830628   T   T   T
  0.4182432599247423  0.6777168598172489  0.1021872536527525   T   T   T
  0.3049570544186102  0.9238359024030991  0.0957766161613068   T   T   T
  0.5563704512912362  0.5041605351744710  0.1055641099146857   T   T   T
 
  0.00000000E+00  0.00000000E+00  0.00000000E+00
  0.00000000E+00  0.00000000E+00  0.00000000E+00
  0.00000000E+00  0.00000000E+00  0.00000000E+00
  0.00000000E+00  0.00000000E+00  0.00000000E+00
  0.00000000E+00  0.00000000E+00  0.00000000E+00
  0.00000000E+00  0.00000000E+00  0.00000000E+00
  0.00000000E+00  0.00000000E+00  0.00000000E+00
  0.00000000E+00  0.00000000E+00  0.00000000E+00
  0.00000000E+00  0.00000000E+00  0.00000000E+00
  0.00000000E+00  0.00000000E+00  0.00000000E+00
  0.00000000E+00  0.00000000E+00  0.00000000E+00
  0.00000000E+00  0.00000000E+00  0.00000000E+00
  0.00000000E+00  0.00000000E+00  0.00000000E+00
  0.00000000E+00  0.00000000E+00  0.00000000E+00
  0.00000000E+00  0.00000000E+00  0.00000000E+00
  0.00000000E+00  0.00000000E+00  0.00000000E+00
  0.00000000E+00  0.00000000E+00  0.00000000E+00
  0.00000000E+00  0.00000000E+00  0.00000000E+00
  0.00000000E+00  0.00000000E+00  0.00000000E+00
  0.00000000E+00  0.00000000E+00  0.00000000E+00
  0.00000000E+00  0.00000000E+00  0.00000000E+00
  0.00000000E+00  0.00000000E+00  0.00000000E+00
  0.00000000E+00  0.00000000E+00  0.00000000E+00
  0.00000000E+00  0.00000000E+00  0.00000000E+00
  0.00000000E+00  0.00000000E+00  0.00000000E+00
  0.00000000E+00  0.00000000E+00  0.00000000E+00
  0.00000000E+00  0.00000000E+00  0.00000000E+00
  0.00000000E+00  0.00000000E+00  0.00000000E+00
  0.00000000E+00  0.00000000E+00  0.00000000E+00
  0.00000000E+00  0.00000000E+00  0.00000000E+00
  0.00000000E+00  0.00000000E+00  0.00000000E+00
