Title                                   
   1.00000000000000     
     4.9440799999999996    0.0000000000000000    0.0000000000000000
     0.0000000000000000    8.5647549999999999    0.0000000000000000
     0.0000000000000000    0.0000000000000000   20.0000000000000000
    12     2     1
Selective dynamics
Direct
  0.2458912151466546  0.2091435618511022  0.0983864715644627   T   T   T
 -0.0094119952400462  0.2948300503631481  0.1002042555121871   T   T   T
  0.2541473513529113  0.0404025758933197  0.0983838743120563   T   T   T
  0.0076948094581331  0.9557027818143805  0.0948735379342470   T   T   T
  0.7449579470499305  0.2090965979412800  0.0942612342971051   T   T   T
  0.4923326209422037  0.2938591013464349  0.0949104952104449   T   T   T
  0.7550973839924989  0.0404347937899541  0.0942692314988183   T   T   T
  0.7551598055489207  0.7125778719883917  0.1004746204222099   T   T   T
  0.7448451226103411  0.5370089729876889  0.1004587794469599   T   T   T
  0.5094409182756534  0.9547079639371042  0.1002422470066835   T   T   T
  0.5012062422847028  0.4606098253055466  0.0943480406990624   T   T   T
 -0.0012512271373785  0.7890002679708085  0.0943310413422538   T   T   T
 -0.0203597334566461  0.4550401216501328  0.1095599703530717   T   T   T
  0.5203363715431260  0.7944992879604332  0.1095987420113787   T   T   T
  0.2499131676289935  0.6247672252002771  0.1236774583890622   T   T   T
 
  0.00000000E+00  0.00000000E+00  0.00000000E+00
  0.00000000E+00  0.00000000E+00  0.00000000E+00
  0.00000000E+00  0.00000000E+00  0.00000000E+00
  0.00000000E+00  0.00000000E+00  0.00000000E+00
  0.00000000E+00  0.00000000E+00  0.00000000E+00
  0.00000000E+00  0.00000000E+00  0.00000000E+00
  0.00000000E+00  0.00000000E+00  0.00000000E+00
  0.00000000E+00  0.00000000E+00  0.00000000E+00
  0.00000000E+00  0.00000000E+00  0.00000000E+00
  0.00000000E+00  0.00000000E+00  0.00000000E+00
  0.00000000E+00  0.00000000E+00  0.00000000E+00
  0.00000000E+00  0.00000000E+00  0.00000000E+00
  0.00000000E+00  0.00000000E+00  0.00000000E+00
  0.00000000E+00  0.00000000E+00  0.00000000E+00
  0.00000000E+00  0.00000000E+00  0.00000000E+00
