Title                                   
   1.00000000000000     
     4.9440799999999996    0.0000000000000000    0.0000000000000000
     0.0000000000000000   17.1295089999999988    0.0000000000000000
     0.0000000000000000    0.0000000000000000   20.0000000000000000
    29     2     1
Selective dynamics
Direct
  0.0000877130798959  0.1047716673432973  0.2811850545125175   T   T   T
  0.2499087886735203  0.1464896220049678  0.2856813041913925   T   T   T
  0.2499102234768837  0.2287623877700270  0.2972838611374803   T   T   T
  0.0017019320387814  0.3494744952271008  0.3212234023238140   T   T   T
 -0.0013569615132186  0.2700945266135924  0.3028298766349609   T   T   T
 -0.0042376236206059  0.6067338899518540  0.3128004920776682   T   T   T
  0.2498866256239829  0.7290091669824567  0.2920020981649029   T   T   T
  0.0002441134945865  0.8542414490320593  0.2793907044267008   T   T   T
  0.2499098022726122  0.8961078482786100  0.2774287618302595   T   T   T
  0.2499185203208414  0.9796182762743464  0.2759896020104121   T   T   T
  0.0004165039756004  0.7709719424934994  0.2863505899872983   T   T   T
  0.4997229143936508  0.1047692342039027  0.2811847898947076   T   T   T
  0.7498890214750652  0.1465702830841288  0.2843724988019212   T   T   T
  0.7498684213674429  0.2288845593510447  0.2938465024388960   T   T   T
  0.4998932463959761  0.0214896508121577  0.2766266267897862   T   T   T
  0.4980841107708016  0.3494886744647225  0.3212152743811036   T   T   T
  0.7499435357106222  0.4779538548976077  0.3234823001988034   T   T   T
  0.5011465163810970  0.2700929756295872  0.3028203752160782   T   T   T
  0.5040059915014670  0.6067291995063693  0.3127760529997210   T   T   T
  0.7498782571692511  0.7301947219943001  0.2904233072616370   T   T   T
  0.4995283678220504  0.8542435719239356  0.2793934115070015   T   T   T
  0.7498977309215249  0.8959390400963820  0.2771486118018462   T   T   T
  0.7499073306743945  0.9795434718752796  0.2757092899916159   T   T   T
  0.4993909682320409  0.7709818798503052  0.2863494889280739   T   T   T
  0.7498803079335714  0.6478810760111974  0.3025962385285637   T   T   T
  0.2498822610788102  0.6465823857820487  0.3064817772057405   T   T   T
 -0.0000817453558247  0.0214887386184640  0.2766276382768701   T   T   T
  0.5158556189835974  0.5252404969039765  0.3318239112042456   T   T   T
  0.9839896037931800  0.5252490407042121  0.3318701859629264   T   T   T
  0.2499565893864355  0.3832200868503690  0.3414274242004495   T   T   T
  0.7498446897372786  0.3936490712544303  0.3247006493221672   T   T   T
  0.2499496238046926  0.4820837142137620  0.3895228977903905   T   T   T
 
  0.00000000E+00  0.00000000E+00  0.00000000E+00
  0.00000000E+00  0.00000000E+00  0.00000000E+00
  0.00000000E+00  0.00000000E+00  0.00000000E+00
  0.00000000E+00  0.00000000E+00  0.00000000E+00
  0.00000000E+00  0.00000000E+00  0.00000000E+00
  0.00000000E+00  0.00000000E+00  0.00000000E+00
  0.00000000E+00  0.00000000E+00  0.00000000E+00
  0.00000000E+00  0.00000000E+00  0.00000000E+00
  0.00000000E+00  0.00000000E+00  0.00000000E+00
  0.00000000E+00  0.00000000E+00  0.00000000E+00
  0.00000000E+00  0.00000000E+00  0.00000000E+00
  0.00000000E+00  0.00000000E+00  0.00000000E+00
  0.00000000E+00  0.00000000E+00  0.00000000E+00
  0.00000000E+00  0.00000000E+00  0.00000000E+00
  0.00000000E+00  0.00000000E+00  0.00000000E+00
  0.00000000E+00  0.00000000E+00  0.00000000E+00
  0.00000000E+00  0.00000000E+00  0.00000000E+00
  0.00000000E+00  0.00000000E+00  0.00000000E+00
  0.00000000E+00  0.00000000E+00  0.00000000E+00
  0.00000000E+00  0.00000000E+00  0.00000000E+00
  0.00000000E+00  0.00000000E+00  0.00000000E+00
  0.00000000E+00  0.00000000E+00  0.00000000E+00
  0.00000000E+00  0.00000000E+00  0.00000000E+00
  0.00000000E+00  0.00000000E+00  0.00000000E+00
  0.00000000E+00  0.00000000E+00  0.00000000E+00
  0.00000000E+00  0.00000000E+00  0.00000000E+00
  0.00000000E+00  0.00000000E+00  0.00000000E+00
  0.00000000E+00  0.00000000E+00  0.00000000E+00
  0.00000000E+00  0.00000000E+00  0.00000000E+00
  0.00000000E+00  0.00000000E+00  0.00000000E+00
  0.00000000E+00  0.00000000E+00  0.00000000E+00
  0.00000000E+00  0.00000000E+00  0.00000000E+00
