Title                                   
   1.00000000000000     
     8.5490480000000009    0.0000000000000000    0.0000000000000000
     0.0000000000000000    8.5490480000000009    0.0000000000000000
     0.0000000000000000    0.0000000000000000   20.0000000000000000
    18     6     1
Selective dynamics
Direct
  0.9091223384064923  0.2051440866168067  0.0967375566751242   T   T   T
  0.9110723686738196  0.8009891179428208  0.0967073527631401   T   T   T
  0.1956054300356806  0.0833784703079452  0.0968776925622971   T   T   T
  0.0755171772845021  0.2009600414545083  0.0968103627751879   T   T   T
  0.1548612956176367  0.6527297322103868  0.0977113257838047   T   T   T
  0.0776298423605999  0.5009214980337546  0.0977477704862939   T   T   T
  0.1544348990038725  0.3503643582672682  0.0976720068696250   T   T   T
  0.0780196479481946  0.7998814721608425  0.0968058312600108   T   T   T
  0.4935627660637664  0.0882201539869319  0.0977159778072696   T   T   T
  0.3423150458234629  0.1641334657827970  0.0977050366105266   T   T   T
  0.4925740518083314  0.9164127229861677  0.0976540890341298   T   T   T
  0.3426396627658397  0.8375724266375975  0.0977293220366061   T   T   T
  0.7894242134153643  0.0866164858880656  0.0967534709534005   T   T   T
  0.6428651954064845  0.1671172128464747  0.0976959683409754   T   T   T
  0.7897660406613660  0.9188985233132321  0.0966932112060405   T   T   T
  0.8318074349732177  0.6518589654705510  0.0975749168761921   T   T   T
  0.8300261686660605  0.3531699169215022  0.0976601150133244   T   T   T
  0.6435240771897982  0.8370591133389429  0.0975215349524615   T   T   T
  0.9073206778105404  0.5023697588411595  0.0977752509513997   T   T   T
  0.3164099816346395  0.3257614263194169  0.0985732201359496   T   T   T
  0.3164436196213994  0.6789391325447697  0.0987716762288727   T   T   T
  0.6698125096243769  0.3305237562558139  0.0987276912005764   T   T   T
  0.6715106558518233  0.6740443436840944  0.0984275573055775   T   T   T
  0.1962127288154707  0.9167405034018664  0.0968044011017451   T   T   T
  0.4929341705372523  0.5009833147862823  0.1028516610694488   T   T   T
 
  0.00000000E+00  0.00000000E+00  0.00000000E+00
  0.00000000E+00  0.00000000E+00  0.00000000E+00
  0.00000000E+00  0.00000000E+00  0.00000000E+00
  0.00000000E+00  0.00000000E+00  0.00000000E+00
  0.00000000E+00  0.00000000E+00  0.00000000E+00
  0.00000000E+00  0.00000000E+00  0.00000000E+00
  0.00000000E+00  0.00000000E+00  0.00000000E+00
  0.00000000E+00  0.00000000E+00  0.00000000E+00
  0.00000000E+00  0.00000000E+00  0.00000000E+00
  0.00000000E+00  0.00000000E+00  0.00000000E+00
  0.00000000E+00  0.00000000E+00  0.00000000E+00
  0.00000000E+00  0.00000000E+00  0.00000000E+00
  0.00000000E+00  0.00000000E+00  0.00000000E+00
  0.00000000E+00  0.00000000E+00  0.00000000E+00
  0.00000000E+00  0.00000000E+00  0.00000000E+00
  0.00000000E+00  0.00000000E+00  0.00000000E+00
  0.00000000E+00  0.00000000E+00  0.00000000E+00
  0.00000000E+00  0.00000000E+00  0.00000000E+00
  0.00000000E+00  0.00000000E+00  0.00000000E+00
  0.00000000E+00  0.00000000E+00  0.00000000E+00
  0.00000000E+00  0.00000000E+00  0.00000000E+00
  0.00000000E+00  0.00000000E+00  0.00000000E+00
  0.00000000E+00  0.00000000E+00  0.00000000E+00
  0.00000000E+00  0.00000000E+00  0.00000000E+00
  0.00000000E+00  0.00000000E+00  0.00000000E+00
