Title                                   
   1.00000000000000     
     9.8694509999999998    0.0000000000000000    0.0000000000000000
     0.0000000000000000    8.5490480000000009    0.0000000000000000
     0.0000000000000000    0.0000000000000000   20.0000000000000000
    25     5     1
Selective dynamics
Direct
  0.0546236618736777  0.0886128428224804  0.0862573460755197   T   T   T
  0.9306360634547375  0.1710872122689147  0.0879401294348358   T   T   T
  0.0569704478501641  0.9217239319146302  0.0872382493338982   T   T   T
  0.9347116964909443  0.3386019045963476  0.0878870757622613   T   T   T
  0.0574083635177391  0.5905295643539654  0.0849897478382502   T   T   T
  0.0574412595037015  0.4240073630930612  0.0837978394253951   T   T   T
  0.9315619476880120  0.8385838580602344  0.0893650909835841   T   T   T
  0.3052138793106838  0.0883413646382986  0.0913043651724747   T   T   T
  0.1807240087456475  0.1708985793081373  0.0867332909873873   T   T   T
  0.1807961353117269  0.3396757597342434  0.0852928076306098   T   T   T
  0.3032479890536030  0.5911934123750209  0.0926018264630804   T   T   T
  0.1802338410519749  0.6737036902597660  0.0867385320257344   T   T   T
  0.3036657326839616  0.4199097598374579  0.0919020917711904   T   T   T
  0.1812863377401268  0.8412491859426339  0.0883945339533756   T   T   T
  0.4284957095497406  0.1757686765488477  0.0981677249190347   T   T   T
  0.5524995052717621  0.9213890519069280  0.1018507300282636   T   T   T
  0.4276496152932900  0.8373768217028607  0.0994468706487698   T   T   T
  0.8039177867656810  0.0895038403521123  0.0926806961086088   T   T   T
  0.6816060858657136  0.1774375377265666  0.1000559449110408   T   T   T
  0.8053386716444370  0.9198453890474264  0.0933416864556503   T   T   T
  0.6893758841324562  0.3442315370414794  0.1077759938887730   T   T   T
  0.8160279827435878  0.5920611397677578  0.0992515071140161   T   T   T
  0.6910234844190163  0.6695019826584684  0.1097656243528911   T   T   T
  0.8161928130135798  0.4216244171513326  0.0976505777887156   T   T   T
  0.6810735766968106  0.8362783213432431  0.1017598720213475   T   T   T
  0.9348648592972391  0.6733517495678664  0.0897807700637241   T   T   T
  0.5535397135360658  0.0938444222720009  0.1011501029461539   T   T   T
  0.4214229396673832  0.3350016193758981  0.1019759621114303   T   T   T
  0.4193996703117190  0.6762786966810268  0.1036093024810873   T   T   T
  0.3044895398511040  0.9229304572387257  0.0918875887549810   T   T   T
  0.5576957976637293  0.5063309104122711  0.1203711185479630   T   T   T
 
  0.00000000E+00  0.00000000E+00  0.00000000E+00
  0.00000000E+00  0.00000000E+00  0.00000000E+00
  0.00000000E+00  0.00000000E+00  0.00000000E+00
  0.00000000E+00  0.00000000E+00  0.00000000E+00
  0.00000000E+00  0.00000000E+00  0.00000000E+00
  0.00000000E+00  0.00000000E+00  0.00000000E+00
  0.00000000E+00  0.00000000E+00  0.00000000E+00
  0.00000000E+00  0.00000000E+00  0.00000000E+00
  0.00000000E+00  0.00000000E+00  0.00000000E+00
  0.00000000E+00  0.00000000E+00  0.00000000E+00
  0.00000000E+00  0.00000000E+00  0.00000000E+00
  0.00000000E+00  0.00000000E+00  0.00000000E+00
  0.00000000E+00  0.00000000E+00  0.00000000E+00
  0.00000000E+00  0.00000000E+00  0.00000000E+00
  0.00000000E+00  0.00000000E+00  0.00000000E+00
  0.00000000E+00  0.00000000E+00  0.00000000E+00
  0.00000000E+00  0.00000000E+00  0.00000000E+00
  0.00000000E+00  0.00000000E+00  0.00000000E+00
  0.00000000E+00  0.00000000E+00  0.00000000E+00
  0.00000000E+00  0.00000000E+00  0.00000000E+00
  0.00000000E+00  0.00000000E+00  0.00000000E+00
  0.00000000E+00  0.00000000E+00  0.00000000E+00
  0.00000000E+00  0.00000000E+00  0.00000000E+00
  0.00000000E+00  0.00000000E+00  0.00000000E+00
  0.00000000E+00  0.00000000E+00  0.00000000E+00
  0.00000000E+00  0.00000000E+00  0.00000000E+00
  0.00000000E+00  0.00000000E+00  0.00000000E+00
  0.00000000E+00  0.00000000E+00  0.00000000E+00
  0.00000000E+00  0.00000000E+00  0.00000000E+00
  0.00000000E+00  0.00000000E+00  0.00000000E+00
  0.00000000E+00  0.00000000E+00  0.00000000E+00
