Title                                   
   1.00000000000000     
     4.9440799999999996    0.0000000000000000    0.0000000000000000
     0.0000000000000000   17.1295089999999988    0.0000000000000000
     0.0000000000000000    0.0000000000000000   20.0000000000000000
    29     1     1
Selective dynamics
Direct
  0.0064591652293915  0.1047908554335584  0.2929997007834930   T   T   T
  0.2572701204613516  0.1468688007055171  0.2953988577018136   T   T   T
  0.2603932097800260  0.2303287707812390  0.3008002443710843   T   T   T
  0.0138423926067225  0.2733808917627184  0.3006757505509358   T   T   T
 -0.0100236658675730  0.6033316087584257  0.3034035553601778   T   T   T
  0.2432647042634601  0.7269126615150542  0.2944312321431222   T   T   T
 -0.0016938173980728  0.8528212603343023  0.2910190098717371   T   T   T
  0.2485724288335396  0.8951462142540885  0.2907184538301827   T   T   T
  0.2522165130617905  0.9790289067637352  0.2909268427471415   T   T   T
 -0.0056486323960895  0.7687723743448553  0.2927239620726201   T   T   T
  0.5069722239367805  0.1049524745309416  0.2937938838213041   T   T   T
  0.7583437615016413  0.1469577894971686  0.2946137216891348   T   T   T
  0.7619248428828642  0.2308746879099601  0.2991762931132905   T   T   T
  0.5035292974356279  0.0210548439526901  0.2915313145307573   T   T   T
  0.7561875687159623  0.3953456471689253  0.3096913399606415   T   T   T
  0.7437193133665025  0.4823662666620575  0.3088599259595715   T   T   T
  0.5116845790792696  0.2719214769768811  0.3062329688246436   T   T   T
  0.4854782279812228  0.6020654960552611  0.2986847964690855   T   T   T
  0.7422767806633005  0.7276609264931826  0.2931119708392164   T   T   T
  0.4965547836606573  0.8529819220461126  0.2908072113236239   T   T   T
  0.7485779392943017  0.8947214676038103  0.2904836351280938   T   T   T
  0.7522421399362376  0.9787865038888552  0.2907221162707820   T   T   T
  0.4934098039104357  0.7689818964467741  0.2921922871427686   T   T   T
  0.7392587790506742  0.6445304012777479  0.2965847678246503   T   T   T
  0.0031522707176297  0.0209151313073059  0.2912252466330811   T   T   T
  0.4935346052853827  0.5188618121677891  0.3026584431725710   T   T   T
  0.9869094035981395  0.5231822216431146  0.3177596628212865   T   T   T
  0.5169011047611018  0.3530505366701672  0.3201786735666352   T   T   T
  0.0026910847919968  0.3574705973431020  0.3043793024177202   T   T   T
  0.2410704816886284  0.6450162968589959  0.2989410414257356   T   T   T
  0.2509355891670971  0.4382612588456605  0.3403337876330492   T   T   T
 
  0.00000000E+00  0.00000000E+00  0.00000000E+00
  0.00000000E+00  0.00000000E+00  0.00000000E+00
  0.00000000E+00  0.00000000E+00  0.00000000E+00
  0.00000000E+00  0.00000000E+00  0.00000000E+00
  0.00000000E+00  0.00000000E+00  0.00000000E+00
  0.00000000E+00  0.00000000E+00  0.00000000E+00
  0.00000000E+00  0.00000000E+00  0.00000000E+00
  0.00000000E+00  0.00000000E+00  0.00000000E+00
  0.00000000E+00  0.00000000E+00  0.00000000E+00
  0.00000000E+00  0.00000000E+00  0.00000000E+00
  0.00000000E+00  0.00000000E+00  0.00000000E+00
  0.00000000E+00  0.00000000E+00  0.00000000E+00
  0.00000000E+00  0.00000000E+00  0.00000000E+00
  0.00000000E+00  0.00000000E+00  0.00000000E+00
  0.00000000E+00  0.00000000E+00  0.00000000E+00
  0.00000000E+00  0.00000000E+00  0.00000000E+00
  0.00000000E+00  0.00000000E+00  0.00000000E+00
  0.00000000E+00  0.00000000E+00  0.00000000E+00
  0.00000000E+00  0.00000000E+00  0.00000000E+00
  0.00000000E+00  0.00000000E+00  0.00000000E+00
  0.00000000E+00  0.00000000E+00  0.00000000E+00
  0.00000000E+00  0.00000000E+00  0.00000000E+00
  0.00000000E+00  0.00000000E+00  0.00000000E+00
  0.00000000E+00  0.00000000E+00  0.00000000E+00
  0.00000000E+00  0.00000000E+00  0.00000000E+00
  0.00000000E+00  0.00000000E+00  0.00000000E+00
  0.00000000E+00  0.00000000E+00  0.00000000E+00
  0.00000000E+00  0.00000000E+00  0.00000000E+00
  0.00000000E+00  0.00000000E+00  0.00000000E+00
  0.00000000E+00  0.00000000E+00  0.00000000E+00
  0.00000000E+00  0.00000000E+00  0.00000000E+00
