Title                                   
   1.00000000000000     
     9.8694509999999998    0.0000000000000000    0.0000000000000000
     0.0000000000000000    8.5490480000000009    0.0000000000000000
     0.0000000000000000    0.0000000000000000   20.0000000000000000
    29     2     1
Selective dynamics
Direct
  0.0562790078781582  0.0914360770558384  0.0841160640814544   T   T   T
  0.9309381078351028  0.1732297381939180  0.0862931323665886   T   T   T
  0.0553040858898278  0.9243823902482473  0.0841273231830554   T   T   T
  0.9301502131502726  0.3399816932864640  0.0898594269525773   T   T   T
  0.0560376984943269  0.5891539585909724  0.0866942218999652   T   T   T
  0.9320215276718448  0.6725335699132685  0.0902010940250633   T   T   T
  0.0568884452038413  0.4232848263983647  0.0881693819909859   T   T   T
  0.9311705920821087  0.8393987089399739  0.0880884242573302   T   T   T
  0.3052882168562286  0.0906756816433592  0.0867082788321241   T   T   T
  0.1816875529432052  0.1751018865202326  0.0855634884060179   T   T   T
  0.3037372494998589  0.9247492897439652  0.0879964851111284   T   T   T
  0.1840146099464648  0.3424978701869779  0.0886299792418347   T   T   T
  0.3050251725984280  0.5954563539422082  0.0960061578839262   T   T   T
  0.1797206059635305  0.6742665779307152  0.0872022424666683   T   T   T
  0.3103520696757505  0.4258097680096116  0.0944477683295610   T   T   T
  0.1794471005664242  0.8410339539002146  0.0856675468174034   T   T   T
  0.5554583308221456  0.0841601629770686  0.0939839436996665   T   T   T
  0.4313855982622478  0.1701880431721481  0.0908258042641311   T   T   T
  0.5544350372430289  0.9191489849258883  0.1002508697138625   T   T   T
  0.4357166216820592  0.3357036427175070  0.0965555802693252   T   T   T
  0.4251594362214401  0.8393948538008901  0.0986104928469851   T   T   T
  0.8070409318857366  0.0882401752344640  0.0885728926010349   T   T   T
  0.6813584484003997  0.1679183122646852  0.0924061025312968   T   T   T
  0.8067308879796729  0.9223453835412743  0.0913883818892599   T   T   T
  0.6793051294216831  0.3327083491539024  0.0984828745233296   T   T   T
  0.8088038179884103  0.5895849905593648  0.1027990283100849   T   T   T
  0.6968432624685708  0.6811881879640779  0.1210711305154767   T   T   T
  0.8052154719616786  0.4212100603732949  0.0981303527891893   T   T   T
  0.6831495739611010  0.8394339709114560  0.1040826679412570   T   T   T
  0.4185170757137455  0.6825007135166875  0.1074171524035741   T   T   T
  0.5582523033236296  0.4068371222362830  0.1056466628587930   T   T   T
  0.5542048164090838  0.5866907021466857  0.1656800469970834   T   T   T
 
  0.00000000E+00  0.00000000E+00  0.00000000E+00
  0.00000000E+00  0.00000000E+00  0.00000000E+00
  0.00000000E+00  0.00000000E+00  0.00000000E+00
  0.00000000E+00  0.00000000E+00  0.00000000E+00
  0.00000000E+00  0.00000000E+00  0.00000000E+00
  0.00000000E+00  0.00000000E+00  0.00000000E+00
  0.00000000E+00  0.00000000E+00  0.00000000E+00
  0.00000000E+00  0.00000000E+00  0.00000000E+00
  0.00000000E+00  0.00000000E+00  0.00000000E+00
  0.00000000E+00  0.00000000E+00  0.00000000E+00
  0.00000000E+00  0.00000000E+00  0.00000000E+00
  0.00000000E+00  0.00000000E+00  0.00000000E+00
  0.00000000E+00  0.00000000E+00  0.00000000E+00
  0.00000000E+00  0.00000000E+00  0.00000000E+00
  0.00000000E+00  0.00000000E+00  0.00000000E+00
  0.00000000E+00  0.00000000E+00  0.00000000E+00
  0.00000000E+00  0.00000000E+00  0.00000000E+00
  0.00000000E+00  0.00000000E+00  0.00000000E+00
  0.00000000E+00  0.00000000E+00  0.00000000E+00
  0.00000000E+00  0.00000000E+00  0.00000000E+00
  0.00000000E+00  0.00000000E+00  0.00000000E+00
  0.00000000E+00  0.00000000E+00  0.00000000E+00
  0.00000000E+00  0.00000000E+00  0.00000000E+00
  0.00000000E+00  0.00000000E+00  0.00000000E+00
  0.00000000E+00  0.00000000E+00  0.00000000E+00
  0.00000000E+00  0.00000000E+00  0.00000000E+00
  0.00000000E+00  0.00000000E+00  0.00000000E+00
  0.00000000E+00  0.00000000E+00  0.00000000E+00
  0.00000000E+00  0.00000000E+00  0.00000000E+00
  0.00000000E+00  0.00000000E+00  0.00000000E+00
  0.00000000E+00  0.00000000E+00  0.00000000E+00
  0.00000000E+00  0.00000000E+00  0.00000000E+00
