Title                                   
   1.00000000000000     
     9.8694509999999998    0.0000000000000000    0.0000000000000000
     0.0000000000000000    8.5490480000000009    0.0000000000000000
     0.0000000000000000    0.0000000000000000   20.0000000000000000
    26     5     1
Selective dynamics
Direct
  0.0544122252574174  0.0915730115810405  0.0908018533467440   T   T   T
  0.9281595059889657  0.1744386317711235  0.0902620090430607   T   T   T
  0.0546938116930246  0.9228231564354870  0.0901159927060634   T   T   T
  0.9274774331985839  0.3404093185347091  0.0918063390100823   T   T   T
  0.0546887660223500  0.5899380712288507  0.0945757421603787   T   T   T
  0.9300307465658086  0.6710340916436206  0.0909205784788877   T   T   T
  0.0544970613543072  0.4224640639376491  0.0954715960189318   T   T   T
  0.9301552056890841  0.8389535714258612  0.0886294318316097   T   T   T
  0.3035003725405743  0.0893872600085607  0.0906866374021846   T   T   T
  0.1802563399780063  0.1742562758730527  0.0930831232539805   T   T   T
  0.3045994489254994  0.9232451346479930  0.0912772529354654   T   T   T
  0.1803010259556443  0.3403313013270163  0.0978788000494598   T   T   T
  0.3065717004103829  0.5909893118583035  0.1059884329029098   T   T   T
  0.1799520676339259  0.6704275594415008  0.0962126856927173   T   T   T
  0.1803463012917924  0.8385709073752600  0.0928015761131342   T   T   T
  0.5543295742118513  0.0854403643945931  0.0921217103733072   T   T   T
  0.4295833585977342  0.1697677595595130  0.0939094977141346   T   T   T
  0.4326826135505271  0.3356497189312906  0.1024489398139222   T   T   T
  0.4274371322362210  0.8377894729899387  0.0984144040657043   T   T   T
  0.8050523005290497  0.0875332620441513  0.0885300659916144   T   T   T
  0.6792459082451493  0.1690132206988061  0.0899062864394294   T   T   T
  0.8045539956891394  0.9225014789798696  0.0887420640599829   T   T   T
  0.6753315455052888  0.3335240565400314  0.0944048510663849   T   T   T
  0.8020295721220712  0.5934577652003824  0.0873723626112377   T   T   T
  0.6811955183050230  0.8346516875730493  0.0880196335723123   T   T   T
  0.4253229240565177  0.6784833093314948  0.1168271217231780   T   T   T
  0.5552099989943644  0.4093230079008059  0.1110242599566110   T   T   T
  0.6830555350149830  0.6753351681122254  0.0720060316829179   T   T   T
  0.5543177187976311  0.9183148125216404  0.0917371632329521   T   T   T
  0.3089303837853052  0.4221116862541766  0.1042345835800670   T   T   T
  0.7982724659712451  0.4233694415281689  0.0906874055664653   T   T   T
  0.6134464418825356  0.6151381203498375  0.1747765676041851   T   T   T
 
  0.00000000E+00  0.00000000E+00  0.00000000E+00
  0.00000000E+00  0.00000000E+00  0.00000000E+00
  0.00000000E+00  0.00000000E+00  0.00000000E+00
  0.00000000E+00  0.00000000E+00  0.00000000E+00
  0.00000000E+00  0.00000000E+00  0.00000000E+00
  0.00000000E+00  0.00000000E+00  0.00000000E+00
  0.00000000E+00  0.00000000E+00  0.00000000E+00
  0.00000000E+00  0.00000000E+00  0.00000000E+00
  0.00000000E+00  0.00000000E+00  0.00000000E+00
  0.00000000E+00  0.00000000E+00  0.00000000E+00
  0.00000000E+00  0.00000000E+00  0.00000000E+00
  0.00000000E+00  0.00000000E+00  0.00000000E+00
  0.00000000E+00  0.00000000E+00  0.00000000E+00
  0.00000000E+00  0.00000000E+00  0.00000000E+00
  0.00000000E+00  0.00000000E+00  0.00000000E+00
  0.00000000E+00  0.00000000E+00  0.00000000E+00
  0.00000000E+00  0.00000000E+00  0.00000000E+00
  0.00000000E+00  0.00000000E+00  0.00000000E+00
  0.00000000E+00  0.00000000E+00  0.00000000E+00
  0.00000000E+00  0.00000000E+00  0.00000000E+00
  0.00000000E+00  0.00000000E+00  0.00000000E+00
  0.00000000E+00  0.00000000E+00  0.00000000E+00
  0.00000000E+00  0.00000000E+00  0.00000000E+00
  0.00000000E+00  0.00000000E+00  0.00000000E+00
  0.00000000E+00  0.00000000E+00  0.00000000E+00
  0.00000000E+00  0.00000000E+00  0.00000000E+00
  0.00000000E+00  0.00000000E+00  0.00000000E+00
  0.00000000E+00  0.00000000E+00  0.00000000E+00
  0.00000000E+00  0.00000000E+00  0.00000000E+00
  0.00000000E+00  0.00000000E+00  0.00000000E+00
  0.00000000E+00  0.00000000E+00  0.00000000E+00
  0.00000000E+00  0.00000000E+00  0.00000000E+00
