Title                                   
   1.00000000000000     
     9.8694509999999998    0.0000000000000000    0.0000000000000000
     0.0000000000000000    8.5490480000000009    0.0000000000000000
     0.0000000000000000    0.0000000000000000   20.0000000000000000
    28     3     1
Selective dynamics
Direct
  0.0566238674266396  0.0910809325792878  0.0844226803515205   T   T   T
  0.9310436747463403  0.1729173724635381  0.0863632894975233   T   T   T
  0.0553457191183208  0.9239178700634884  0.0844099783160085   T   T   T
  0.9306269540797423  0.3398130351927139  0.0908137390471370   T   T   T
  0.0565127786503696  0.5894107692480781  0.0890811198195321   T   T   T
  0.9312033057450927  0.6720209380029343  0.0911399269272092   T   T   T
  0.0574330596792415  0.4233199998415005  0.0903117062470863   T   T   T
  0.9303476202854438  0.8387518711297766  0.0873558281951447   T   T   T
  0.3052976713749319  0.0911502737505584  0.0861063519835498   T   T   T
  0.1820444095804855  0.1754197660196151  0.0866362959153689   T   T   T
  0.3048022146527887  0.9257390364271399  0.0862834154364150   T   T   T
  0.1846187515862713  0.3428420199953029  0.0910570961547263   T   T   T
  0.3062328627255050  0.5956918208499404  0.0985807418223033   T   T   T
  0.1807532416546283  0.6741157459159756  0.0895468964615695   T   T   T
  0.3118194216143999  0.4264155552005859  0.0979443102643922   T   T   T
  0.1802050961611245  0.8409212664924484  0.0862650095211997   T   T   T
  0.5556791626235916  0.0842834876995557  0.0928481602873650   T   T   T
  0.4321084575052824  0.1695335997042925  0.0916019946218375   T   T   T
  0.4360693633775227  0.3343102878845812  0.1004839759020728   T   T   T
  0.4268279319044001  0.8417050663677677  0.0953390251832982   T   T   T
  0.8074420386296847  0.0877723188210598  0.0866045587105336   T   T   T
  0.6812141220561244  0.1664700476544767  0.0918438567580653   T   T   T
  0.8049715676772935  0.9219644629951559  0.0880025683128604   T   T   T
  0.6804801858197901  0.3309161256483685  0.1006579512996156   T   T   T
  0.8072670146749642  0.5896453491540034  0.1017738844468674   T   T   T
  0.6885164791140502  0.6800426488427899  0.1153095731769364   T   T   T
  0.8049776082861195  0.4211130657422823  0.0987741784816727   T   T   T
  0.6810299075587508  0.8390894967435094  0.0977449473026725   T   T   T
  0.4213679605565720  0.6875766682993533  0.1097840167644031   T   T   T
  0.5594792585134180  0.4029337805898482  0.1138678731303648   T   T   T
  0.5540491270139253  0.9198829660823331  0.0950869662739251   T   T   T
  0.5532481656071893  0.5894783545977473  0.1596330833868577   T   T   T
 
  0.00000000E+00  0.00000000E+00  0.00000000E+00
  0.00000000E+00  0.00000000E+00  0.00000000E+00
  0.00000000E+00  0.00000000E+00  0.00000000E+00
  0.00000000E+00  0.00000000E+00  0.00000000E+00
  0.00000000E+00  0.00000000E+00  0.00000000E+00
  0.00000000E+00  0.00000000E+00  0.00000000E+00
  0.00000000E+00  0.00000000E+00  0.00000000E+00
  0.00000000E+00  0.00000000E+00  0.00000000E+00
  0.00000000E+00  0.00000000E+00  0.00000000E+00
  0.00000000E+00  0.00000000E+00  0.00000000E+00
  0.00000000E+00  0.00000000E+00  0.00000000E+00
  0.00000000E+00  0.00000000E+00  0.00000000E+00
  0.00000000E+00  0.00000000E+00  0.00000000E+00
  0.00000000E+00  0.00000000E+00  0.00000000E+00
  0.00000000E+00  0.00000000E+00  0.00000000E+00
  0.00000000E+00  0.00000000E+00  0.00000000E+00
  0.00000000E+00  0.00000000E+00  0.00000000E+00
  0.00000000E+00  0.00000000E+00  0.00000000E+00
  0.00000000E+00  0.00000000E+00  0.00000000E+00
  0.00000000E+00  0.00000000E+00  0.00000000E+00
  0.00000000E+00  0.00000000E+00  0.00000000E+00
  0.00000000E+00  0.00000000E+00  0.00000000E+00
  0.00000000E+00  0.00000000E+00  0.00000000E+00
  0.00000000E+00  0.00000000E+00  0.00000000E+00
  0.00000000E+00  0.00000000E+00  0.00000000E+00
  0.00000000E+00  0.00000000E+00  0.00000000E+00
  0.00000000E+00  0.00000000E+00  0.00000000E+00
  0.00000000E+00  0.00000000E+00  0.00000000E+00
  0.00000000E+00  0.00000000E+00  0.00000000E+00
  0.00000000E+00  0.00000000E+00  0.00000000E+00
  0.00000000E+00  0.00000000E+00  0.00000000E+00
  0.00000000E+00  0.00000000E+00  0.00000000E+00
