Title                                   
   1.00000000000000     
     9.8694509999999998    0.0000000000000000    0.0000000000000000
     0.0000000000000000    8.5490480000000009    0.0000000000000000
     0.0000000000000000    0.0000000000000000   20.0000000000000000
    29     2     1
Selective dynamics
Direct
  0.0563500661832082  0.0908207130858455  0.0847367382542347   T   T   T
  0.9318964404040887  0.1723167946938330  0.0880461090073135   T   T   T
  0.0571875980108749  0.9237285061924654  0.0842409399425962   T   T   T
  0.9319702832787511  0.3396764739313275  0.0920896454971202   T   T   T
  0.0572003782903957  0.5896605393476901  0.0869056411552732   T   T   T
  0.9328413128574451  0.6719931650364436  0.0909680444444560   T   T   T
  0.0577688388268388  0.4225914641042656  0.0885442721426975   T   T   T
  0.9322776190175603  0.8387244365253788  0.0881390077635430   T   T   T
  0.3061985634631970  0.0888218529174175  0.0870867094790866   T   T   T
  0.1823287390942731  0.1733319170812637  0.0861195881060267   T   T   T
  0.1835445001874774  0.3405029021954774  0.0887754598234673   T   T   T
  0.3048182078212472  0.5924756511843808  0.0937667922694373   T   T   T
  0.1808484866172841  0.6746686983741529  0.0855489283024745   T   T   T
  0.3086744954918394  0.4254338725411558  0.0955464433289550   T   T   T
  0.1808088128194617  0.8407009925784934  0.0843747713986320   T   T   T
  0.5564198387992584  0.0861824097241000  0.0949436256579838   T   T   T
  0.4311203286290567  0.1694551127858313  0.0929462817280813   T   T   T
  0.5541916244822097  0.9191949768316281  0.0984474751674545   T   T   T
  0.4326996672908017  0.3358381680050974  0.1019249462525437   T   T   T
  0.5571473390452191  0.4090355105461486  0.1167560883841133   T   T   T
  0.4263091438487463  0.8404836411202814  0.0959043369343968   T   T   T
  0.8071990024222120  0.0876668416944375  0.0897186644590051   T   T   T
  0.6820138574289036  0.1690833578147309  0.0952715501428581   T   T   T
  0.8071081289628830  0.9220188944248566  0.0909344357359760   T   T   T
  0.6824735226763742  0.3344349680919124  0.1052944775837525   T   T   T
  0.8102021444183531  0.5893810387574588  0.1040375458245804   T   T   T
  0.6919970226996924  0.6768858211515575  0.1173889485848024   T   T   T
  0.8083343139303123  0.4210263578987166  0.1024784116979040   T   T   T
  0.6833465591498338  0.8371354193369993  0.1022577940766596   T   T   T
  0.4182785449394271  0.6833842046522542  0.1054439382354445   T   T   T
  0.3052741505340961  0.9248913476766466  0.0859159069043992   T   T   T
  0.5408094683786837  0.5986999496977402  0.1791214817147764   T   T   T
 
  0.00000000E+00  0.00000000E+00  0.00000000E+00
  0.00000000E+00  0.00000000E+00  0.00000000E+00
  0.00000000E+00  0.00000000E+00  0.00000000E+00
  0.00000000E+00  0.00000000E+00  0.00000000E+00
  0.00000000E+00  0.00000000E+00  0.00000000E+00
  0.00000000E+00  0.00000000E+00  0.00000000E+00
  0.00000000E+00  0.00000000E+00  0.00000000E+00
  0.00000000E+00  0.00000000E+00  0.00000000E+00
  0.00000000E+00  0.00000000E+00  0.00000000E+00
  0.00000000E+00  0.00000000E+00  0.00000000E+00
  0.00000000E+00  0.00000000E+00  0.00000000E+00
  0.00000000E+00  0.00000000E+00  0.00000000E+00
  0.00000000E+00  0.00000000E+00  0.00000000E+00
  0.00000000E+00  0.00000000E+00  0.00000000E+00
  0.00000000E+00  0.00000000E+00  0.00000000E+00
  0.00000000E+00  0.00000000E+00  0.00000000E+00
  0.00000000E+00  0.00000000E+00  0.00000000E+00
  0.00000000E+00  0.00000000E+00  0.00000000E+00
  0.00000000E+00  0.00000000E+00  0.00000000E+00
  0.00000000E+00  0.00000000E+00  0.00000000E+00
  0.00000000E+00  0.00000000E+00  0.00000000E+00
  0.00000000E+00  0.00000000E+00  0.00000000E+00
  0.00000000E+00  0.00000000E+00  0.00000000E+00
  0.00000000E+00  0.00000000E+00  0.00000000E+00
  0.00000000E+00  0.00000000E+00  0.00000000E+00
  0.00000000E+00  0.00000000E+00  0.00000000E+00
  0.00000000E+00  0.00000000E+00  0.00000000E+00
  0.00000000E+00  0.00000000E+00  0.00000000E+00
  0.00000000E+00  0.00000000E+00  0.00000000E+00
  0.00000000E+00  0.00000000E+00  0.00000000E+00
  0.00000000E+00  0.00000000E+00  0.00000000E+00
  0.00000000E+00  0.00000000E+00  0.00000000E+00
