Title                                   
   1.00000000000000     
     4.9440799999999996    0.0000000000000000    0.0000000000000000
     0.0000000000000000   17.1295089999999988    0.0000000000000000
     0.0000000000000000    0.0000000000000000   20.0000000000000000
    28     2     1
Selective dynamics
Direct
  0.0003045632481648  0.1058922013359659  0.2946764711078443   T   T   T
  0.2490326456860891  0.1485267783933690  0.2954005378591717   T   T   T
  0.2486761778635171  0.2330420403506847  0.2986186361067374   T   T   T
 -0.0019696416512681  0.2748134391269246  0.3029973413472741   T   T   T
 -0.0001857064425431  0.6003108244533223  0.3047199854106605   T   T   T
  0.2482816988000115  0.7276232653941874  0.2953576137675468   T   T   T
 -0.0009034904972845  0.8538352086462443  0.2935565269516821   T   T   T
  0.2493398810269167  0.8958242814316142  0.2932585366040150   T   T   T
  0.2493946722131879  0.9798038600077866  0.2933366082062721   T   T   T
 -0.0009436843462862  0.7699831002633515  0.2947002747070551   T   T   T
  0.4987170371596679  0.1061949827570436  0.2936629186164014   T   T   T
  0.7502031867184954  0.1477764482139046  0.2943901159335438   T   T   T
  0.7506830952958357  0.2314007337542610  0.2965105130127754   T   T   T
  0.4988995092455608  0.0221322738652072  0.2931232551797758   T   T   T
  0.7473264882091741  0.3924749664678902  0.3049401838205450   T   T   T
  0.7452575138708570  0.4770224503969328  0.3084450672160550   T   T   T
  0.5012905423165570  0.2732239190286118  0.2964114282258895   T   T   T
  0.4973552050491080  0.6026333595079292  0.2976011030477258   T   T   T
  0.7498706244610839  0.7274930578566606  0.2947643162719201   T   T   T
  0.4991125131556151  0.8535838388435555  0.2930105733244539   T   T   T
  0.7489623904399250  0.8959432203398026  0.2930435589213727   T   T   T
  0.7490836581663228  0.9799486894784962  0.2930921253310392   T   T   T
  0.4991974386087874  0.7695500185756887  0.2936248919799007   T   T   T
  0.7505007691428733  0.6434784508172973  0.2975533421366697   T   T   T
  0.2473739113987382  0.6439993150555325  0.2991338784582733   T   T   T
 -0.0002867684959776  0.0219269842322422  0.2936607280205613   T   T   T
  0.5006133264737822  0.5200375617028841  0.3009665418358686   T   T   T
 -0.0017085728167138  0.5175440692783286  0.3191966928820234   T   T   T
  0.5095185747337024  0.3534487162205796  0.2946986241355899   T   T   T
 -0.0130044897252153  0.3545912077601515  0.3153069477726945   T   T   T
  0.2900139306913164  0.4372827364435469  0.3453006618086153   T   T   T
 
  0.00000000E+00  0.00000000E+00  0.00000000E+00
  0.00000000E+00  0.00000000E+00  0.00000000E+00
  0.00000000E+00  0.00000000E+00  0.00000000E+00
  0.00000000E+00  0.00000000E+00  0.00000000E+00
  0.00000000E+00  0.00000000E+00  0.00000000E+00
  0.00000000E+00  0.00000000E+00  0.00000000E+00
  0.00000000E+00  0.00000000E+00  0.00000000E+00
  0.00000000E+00  0.00000000E+00  0.00000000E+00
  0.00000000E+00  0.00000000E+00  0.00000000E+00
  0.00000000E+00  0.00000000E+00  0.00000000E+00
  0.00000000E+00  0.00000000E+00  0.00000000E+00
  0.00000000E+00  0.00000000E+00  0.00000000E+00
  0.00000000E+00  0.00000000E+00  0.00000000E+00
  0.00000000E+00  0.00000000E+00  0.00000000E+00
  0.00000000E+00  0.00000000E+00  0.00000000E+00
  0.00000000E+00  0.00000000E+00  0.00000000E+00
  0.00000000E+00  0.00000000E+00  0.00000000E+00
  0.00000000E+00  0.00000000E+00  0.00000000E+00
  0.00000000E+00  0.00000000E+00  0.00000000E+00
  0.00000000E+00  0.00000000E+00  0.00000000E+00
  0.00000000E+00  0.00000000E+00  0.00000000E+00
  0.00000000E+00  0.00000000E+00  0.00000000E+00
  0.00000000E+00  0.00000000E+00  0.00000000E+00
  0.00000000E+00  0.00000000E+00  0.00000000E+00
  0.00000000E+00  0.00000000E+00  0.00000000E+00
  0.00000000E+00  0.00000000E+00  0.00000000E+00
  0.00000000E+00  0.00000000E+00  0.00000000E+00
  0.00000000E+00  0.00000000E+00  0.00000000E+00
  0.00000000E+00  0.00000000E+00  0.00000000E+00
  0.00000000E+00  0.00000000E+00  0.00000000E+00
  0.00000000E+00  0.00000000E+00  0.00000000E+00
