Title                                   
   1.00000000000000     
     4.9440799999999996    0.0000000000000000    0.0000000000000000
     0.0000000000000000    8.5647549999999999    0.0000000000000000
     0.0000000000000000    0.0000000000000000   20.0000000000000000
    11     4     1
Selective dynamics
Direct
 -0.0053190098650653  0.2940088020420109  0.0917111979514320   T   T   T
  0.2500000000000000  0.0456667321597292  0.0923331416590193   T   T   T
  0.0043185689876019  0.7923957157474528  0.1003714269202656   T   T   T
  0.0011572437835597  0.9603314453922436  0.0932607097841427   T   T   T
  0.7500000000000000  0.2053472608482739  0.0910149606580153   T   T   T
  0.5053190098650657  0.2940088020420109  0.0917111979514320   T   T   T
  0.7500000000000000  0.0406210502286470  0.0905058121672757   T   T   T
  0.7500000000000000  0.7027259896986406  0.0987306413905338   T   T   T
  0.4956814310123978  0.7923957157474528  0.1003714269202656   T   T   T
  0.7500000000000000  0.5290144882085638  0.0956667753261307   T   T   T
  0.4988427562164403  0.9603314453922436  0.0932607097841427   T   T   T
  0.5084857956092053  0.4510062188469652  0.0944495941438143   T   T   T
 -0.0084857956092058  0.4510062188469652  0.0944495941438143   T   T   T
  0.2500000000000000  0.7206490839737484  0.1104639516595628   T   T   T
  0.2500000000000000  0.2126877114947353  0.0897149413424032   T   T   T
  0.2500000000000000  0.5478033193303162  0.1844959181977591   T   T   T
 
  0.00000000E+00  0.00000000E+00  0.00000000E+00
  0.00000000E+00  0.00000000E+00  0.00000000E+00
  0.00000000E+00  0.00000000E+00  0.00000000E+00
  0.00000000E+00  0.00000000E+00  0.00000000E+00
  0.00000000E+00  0.00000000E+00  0.00000000E+00
  0.00000000E+00  0.00000000E+00  0.00000000E+00
  0.00000000E+00  0.00000000E+00  0.00000000E+00
  0.00000000E+00  0.00000000E+00  0.00000000E+00
  0.00000000E+00  0.00000000E+00  0.00000000E+00
  0.00000000E+00  0.00000000E+00  0.00000000E+00
  0.00000000E+00  0.00000000E+00  0.00000000E+00
  0.00000000E+00  0.00000000E+00  0.00000000E+00
  0.00000000E+00  0.00000000E+00  0.00000000E+00
  0.00000000E+00  0.00000000E+00  0.00000000E+00
  0.00000000E+00  0.00000000E+00  0.00000000E+00
  0.00000000E+00  0.00000000E+00  0.00000000E+00
