Title                                   
   1.00000000000000     
     4.9440799999999996    0.0000000000000000    0.0000000000000000
     0.0000000000000000    8.5647549999999999    0.0000000000000000
     0.0000000000000000    0.0000000000000000   20.0000000000000000
    12     3     1
Selective dynamics
Direct
  0.2500000000000000  0.2110341035712270  0.0919122688517664   T   T   T
 -0.0041890254470444  0.2904258307696760  0.0949586749273160   T   T   T
  0.2500000000000000  0.0438831355531536  0.0868378947444238   T   T   T
  0.0009003230317369  0.7955887493148417  0.0979254787748527   T   T   T
 -0.0003734441124762  0.9594043666164445  0.0860658330042358   T   T   T
  0.7500000000000000  0.2077911481602297  0.0859247116239688   T   T   T
  0.5041890254470447  0.2904258307696760  0.0949586749273160   T   T   T
  0.7500000000000000  0.0416408359969625  0.0816386006003871   T   T   T
  0.7500000000000000  0.7050716287762241  0.1024163019833977   T   T   T
  0.4990996769682632  0.7955887493148417  0.0979254787748527   T   T   T
  0.7500000000000000  0.5343157598741917  0.1058869804412294   T   T   T
  0.5003734441124762  0.9594043666164445  0.0860658330042358   T   T   T
  0.5167448297066466  0.4472256439062582  0.1128314029942700   T   T   T
 -0.0167448297066467  0.4472256439062582  0.1128314029942700   T   T   T
  0.2500000000000000  0.7278258390425749  0.1133371944955860   T   T   T
  0.2500000000000000  0.5431483678109943  0.1709952678578993   T   T   T
 
  0.00000000E+00  0.00000000E+00  0.00000000E+00
  0.00000000E+00  0.00000000E+00  0.00000000E+00
  0.00000000E+00  0.00000000E+00  0.00000000E+00
  0.00000000E+00  0.00000000E+00  0.00000000E+00
  0.00000000E+00  0.00000000E+00  0.00000000E+00
  0.00000000E+00  0.00000000E+00  0.00000000E+00
  0.00000000E+00  0.00000000E+00  0.00000000E+00
  0.00000000E+00  0.00000000E+00  0.00000000E+00
  0.00000000E+00  0.00000000E+00  0.00000000E+00
  0.00000000E+00  0.00000000E+00  0.00000000E+00
  0.00000000E+00  0.00000000E+00  0.00000000E+00
  0.00000000E+00  0.00000000E+00  0.00000000E+00
  0.00000000E+00  0.00000000E+00  0.00000000E+00
  0.00000000E+00  0.00000000E+00  0.00000000E+00
  0.00000000E+00  0.00000000E+00  0.00000000E+00
  0.00000000E+00  0.00000000E+00  0.00000000E+00
