Title                                   
   1.00000000000000     
     4.9440799999999996    0.0000000000000000    0.0000000000000000
     0.0000000000000000    8.5647549999999999    0.0000000000000000
     0.0000000000000000    0.0000000000000000   20.0000000000000000
    10     4     1
Selective dynamics
Direct
  0.2500000000000000  0.2120526830388213  0.1005181067589099   T   T   T
 -0.0014301115481939  0.2960616128180767  0.1005151855751075   T   T   T
  0.2500000000000000  0.0374742820189665  0.1005304241528126   T   T   T
 -0.0014367353975020  0.9534771841576931  0.1005391048462049   T   T   T
  0.7500000000000000  0.2085084807257196  0.1004989431569804   T   T   T
  0.5014301115481941  0.2960616128180767  0.1005151855751075   T   T   T
  0.7500000000000000  0.0410522359745059  0.1005162831190829   T   T   T
  0.7500000000000000  0.7134395328276082  0.1006176046425432   T   T   T
  0.7500000000000000  0.5361071679002269  0.1005945172060451   T   T   T
  0.5014367353975020  0.9534771841576931  0.1005391048462049   T   T   T
  0.5134393786428644  0.4584141235264211  0.1005667818198927   T   T   T
 -0.0134393786428647  0.4584141235264211  0.1005667818198927   T   T   T
 -0.0134656445124846  0.7911496431395717  0.1005878455748239   T   T   T
  0.5134656445124846  0.7911496431395717  0.1005878455748239   T   T   T
  0.2500000000000000  0.6248414902306283  0.1002862853315714   T   T   T
 
  0.00000000E+00  0.00000000E+00  0.00000000E+00
  0.00000000E+00  0.00000000E+00  0.00000000E+00
  0.00000000E+00  0.00000000E+00  0.00000000E+00
  0.00000000E+00  0.00000000E+00  0.00000000E+00
  0.00000000E+00  0.00000000E+00  0.00000000E+00
  0.00000000E+00  0.00000000E+00  0.00000000E+00
  0.00000000E+00  0.00000000E+00  0.00000000E+00
  0.00000000E+00  0.00000000E+00  0.00000000E+00
  0.00000000E+00  0.00000000E+00  0.00000000E+00
  0.00000000E+00  0.00000000E+00  0.00000000E+00
  0.00000000E+00  0.00000000E+00  0.00000000E+00
  0.00000000E+00  0.00000000E+00  0.00000000E+00
  0.00000000E+00  0.00000000E+00  0.00000000E+00
  0.00000000E+00  0.00000000E+00  0.00000000E+00
  0.00000000E+00  0.00000000E+00  0.00000000E+00
