Title                                   
   1.00000000000000     
     4.9440799999999996    0.0000000000000000    0.0000000000000000
     0.0000000000000000   17.1295089999999988    0.0000000000000000
     0.0000000000000000    0.0000000000000000   20.0000000000000000
    30     1     1
Selective dynamics
Direct
 -0.0001852236759816  0.1042251003256727  0.2789424285651708   T   T   T
  0.2498614472017302  0.1455900330339869  0.2835275611600154   T   T   T
  0.2498942127484002  0.2277411667852405  0.2959309991837017   T   T   T
  0.0004558350091779  0.3492518398828142  0.3207029577607827   T   T   T
 -0.0004935645949166  0.2686780572690538  0.3024731082352315   T   T   T
 -0.0035088359479513  0.6084045780534246  0.3173572721724996   T   T   T
  0.2499159133687537  0.7297056329949345  0.2934352283687753   T   T   T
  0.0002228875394257  0.8541677251782989  0.2778646048212791   T   T   T
  0.2499025898051494  0.8958423471190371  0.2753296791675018   T   T   T
  0.2498891280019044  0.9792662279821089  0.2733622108548162   T   T   T
  0.0003609525907107  0.7712444025420760  0.2866333513669246   T   T   T
  0.4999594480717510  0.1042325837328382  0.2789440037946559   T   T   T
  0.7498917893885483  0.1457571893350300  0.2828020409615636   T   T   T
  0.7499127606265235  0.2281905108064312  0.2939666641138983   T   T   T
  0.4999826351354212  0.0209481684052758  0.2739916213896915   T   T   T
  0.4993023312125375  0.3492624799956768  0.3207053719700883   T   T   T
  0.7498882374845303  0.3937353948623070  0.3254903897396401   T   T   T
  0.7498874265559093  0.4795226715494085  0.3282057198306330   T   T   T
  0.5002884895114105  0.2686784400082178  0.3024737745891251   T   T   T
  0.5033187923932292  0.6084041261797277  0.3173744615756822   T   T   T
  0.7499202032191001  0.7306751514308996  0.2918827316847440   T   T   T
  0.4996348720910018  0.8541670563796566  0.2778623514461476   T   T   T
  0.7499402489379466  0.8956713771845625  0.2750078540966724   T   T   T
  0.7499379306032582  0.9792043356178709  0.2730987488381850   T   T   T
  0.4994741053163577  0.7712379306287254  0.2866371590678080   T   T   T
  0.7499116999230425  0.6490489458874782  0.3064138678078753   T   T   T
  0.2499133449389163  0.6480758493441350  0.3101020918858008   T   T   T
 -0.0001739428302661  0.0209552682717550  0.2739930830492668   T   T   T
  0.5171246240646589  0.5274027148797271  0.3362338838603329   T   T   T
  0.9826341649687418  0.5274038772379220  0.3362248816480692   T   T   T
  0.2498592547561606  0.3827403104536324  0.3367622463513730   T   T   T
  0.2498992415848241  0.4791195066420673  0.3888326506420016   T   T   T
 
  0.00000000E+00  0.00000000E+00  0.00000000E+00
  0.00000000E+00  0.00000000E+00  0.00000000E+00
  0.00000000E+00  0.00000000E+00  0.00000000E+00
  0.00000000E+00  0.00000000E+00  0.00000000E+00
  0.00000000E+00  0.00000000E+00  0.00000000E+00
  0.00000000E+00  0.00000000E+00  0.00000000E+00
  0.00000000E+00  0.00000000E+00  0.00000000E+00
  0.00000000E+00  0.00000000E+00  0.00000000E+00
  0.00000000E+00  0.00000000E+00  0.00000000E+00
  0.00000000E+00  0.00000000E+00  0.00000000E+00
  0.00000000E+00  0.00000000E+00  0.00000000E+00
  0.00000000E+00  0.00000000E+00  0.00000000E+00
  0.00000000E+00  0.00000000E+00  0.00000000E+00
  0.00000000E+00  0.00000000E+00  0.00000000E+00
  0.00000000E+00  0.00000000E+00  0.00000000E+00
  0.00000000E+00  0.00000000E+00  0.00000000E+00
  0.00000000E+00  0.00000000E+00  0.00000000E+00
  0.00000000E+00  0.00000000E+00  0.00000000E+00
  0.00000000E+00  0.00000000E+00  0.00000000E+00
  0.00000000E+00  0.00000000E+00  0.00000000E+00
  0.00000000E+00  0.00000000E+00  0.00000000E+00
  0.00000000E+00  0.00000000E+00  0.00000000E+00
  0.00000000E+00  0.00000000E+00  0.00000000E+00
  0.00000000E+00  0.00000000E+00  0.00000000E+00
  0.00000000E+00  0.00000000E+00  0.00000000E+00
  0.00000000E+00  0.00000000E+00  0.00000000E+00
  0.00000000E+00  0.00000000E+00  0.00000000E+00
  0.00000000E+00  0.00000000E+00  0.00000000E+00
  0.00000000E+00  0.00000000E+00  0.00000000E+00
  0.00000000E+00  0.00000000E+00  0.00000000E+00
  0.00000000E+00  0.00000000E+00  0.00000000E+00
  0.00000000E+00  0.00000000E+00  0.00000000E+00
