Title                                   
   1.00000000000000     
     9.8694509999999998    0.0000000000000000    0.0000000000000000
     0.0000000000000000    8.5490480000000009    0.0000000000000000
     0.0000000000000000    0.0000000000000000   20.0000000000000000
    26     4     1
Selective dynamics
Direct
  0.0562879096400345  0.0895920604169559  0.0850472733490512   T   T   T
  0.9316902367487319  0.1720037229568412  0.0862693171578767   T   T   T
  0.0562767061824936  0.9227513768625784  0.0850690452203473   T   T   T
  0.9330605521428845  0.3392546780864259  0.0844743030587153   T   T   T
  0.0564066851714368  0.5891050010658198  0.0810712948719752   T   T   T
  0.9330587599496155  0.6730584718939122  0.0845064156713563   T   T   T
  0.0564048664995474  0.4232139350265400  0.0810523908775472   T   T   T
  0.9317013284461478  0.8403295172004230  0.0863050610177322   T   T   T
  0.3060520937516593  0.0901208842218588  0.0939863229770153   T   T   T
  0.1808087968264585  0.1720326880579250  0.0875311033746433   T   T   T
  0.3060312019590064  0.9222150501737387  0.0940047510214490   T   T   T
  0.1795486456391913  0.3393107498876605  0.0860536673503877   T   T   T
  0.3008739959590492  0.5910261493315745  0.0958677725432845   T   T   T
  0.1795409925895999  0.6730244774232380  0.0860868357356779   T   T   T
  0.3008784693636809  0.4212692423921100  0.0958535677746947   T   T   T
  0.1807928542539327  0.8403162444278263  0.0875661878380715   T   T   T
  0.5562362564095427  0.0929343820327587  0.1044545572225728   T   T   T
  0.4282593519447346  0.1760263706251390  0.1029897103848426   T   T   T
  0.5562236190970132  0.9193326428038646  0.1044717066714892   T   T   T
  0.4282525067536168  0.8362786429015427  0.1030100837909746   T   T   T
  0.8063102195628432  0.0900599194763221  0.0921996706797588   T   T   T
  0.6840555828598087  0.1759425199818682  0.1011418352668110   T   T   T
  0.8063093052629481  0.9222367900034013  0.0922190962366247   T   T   T
  0.8113425271293692  0.5910201232498205  0.0928275999448152   T   T   T
  0.8113341182083851  0.4212697914610511  0.0928005699107214   T   T   T
  0.6840510289305022  0.8363448546994422  0.1011713710323739   T   T   T
  0.4193493773526883  0.3384235650230424  0.1088455582168981   T   T   T
  0.4193589072020393  0.6738844618132541  0.1088596833498065   T   T   T
  0.6928219503141646  0.3384790241262552  0.1056663516359887   T   T   T
  0.6928203791551220  0.6738108092033445  0.1057084679781578   T   T   T
  0.5569967746937611  0.5062068531734639  0.1238534278383806   T   T   T
 
  0.00000000E+00  0.00000000E+00  0.00000000E+00
  0.00000000E+00  0.00000000E+00  0.00000000E+00
  0.00000000E+00  0.00000000E+00  0.00000000E+00
  0.00000000E+00  0.00000000E+00  0.00000000E+00
  0.00000000E+00  0.00000000E+00  0.00000000E+00
  0.00000000E+00  0.00000000E+00  0.00000000E+00
  0.00000000E+00  0.00000000E+00  0.00000000E+00
  0.00000000E+00  0.00000000E+00  0.00000000E+00
  0.00000000E+00  0.00000000E+00  0.00000000E+00
  0.00000000E+00  0.00000000E+00  0.00000000E+00
  0.00000000E+00  0.00000000E+00  0.00000000E+00
  0.00000000E+00  0.00000000E+00  0.00000000E+00
  0.00000000E+00  0.00000000E+00  0.00000000E+00
  0.00000000E+00  0.00000000E+00  0.00000000E+00
  0.00000000E+00  0.00000000E+00  0.00000000E+00
  0.00000000E+00  0.00000000E+00  0.00000000E+00
  0.00000000E+00  0.00000000E+00  0.00000000E+00
  0.00000000E+00  0.00000000E+00  0.00000000E+00
  0.00000000E+00  0.00000000E+00  0.00000000E+00
  0.00000000E+00  0.00000000E+00  0.00000000E+00
  0.00000000E+00  0.00000000E+00  0.00000000E+00
  0.00000000E+00  0.00000000E+00  0.00000000E+00
  0.00000000E+00  0.00000000E+00  0.00000000E+00
  0.00000000E+00  0.00000000E+00  0.00000000E+00
  0.00000000E+00  0.00000000E+00  0.00000000E+00
  0.00000000E+00  0.00000000E+00  0.00000000E+00
  0.00000000E+00  0.00000000E+00  0.00000000E+00
  0.00000000E+00  0.00000000E+00  0.00000000E+00
  0.00000000E+00  0.00000000E+00  0.00000000E+00
  0.00000000E+00  0.00000000E+00  0.00000000E+00
  0.00000000E+00  0.00000000E+00  0.00000000E+00
