Title                                   
   1.00000000000000     
     4.9440799999999996    0.0000000000000000    0.0000000000000000
     0.0000000000000000   17.1295089999999988    0.0000000000000000
     0.0000000000000000    0.0000000000000000   20.0000000000000000
    28     2     1
Selective dynamics
Direct
 -0.0030096699985714  0.1051183420128852  0.2931889384540201   T   T   T
  0.2456925674778685  0.1475671049367009  0.2946164737600635   T   T   T
  0.2442784710428910  0.2313743467348132  0.2989503538891876   T   T   T
 -0.0060878886240115  0.2732700140179237  0.3016397738066354   T   T   T
  0.0067060358126116  0.6024658525206036  0.3004254468656681   T   T   T
  0.2530125923328299  0.7272119239773979  0.2944353243440090   T   T   T
  0.0018378505957506  0.8531170892656857  0.2918839108942516   T   T   T
  0.2503056121657625  0.8953785568059909  0.2917522069971650   T   T   T
  0.2485662961070925  0.9793538231966117  0.2917905487975501   T   T   T
  0.0034418933201663  0.7690061468252768  0.2929820482244773   T   T   T
  0.4965581637249083  0.1053943492815377  0.2930698376459781   T   T   T
  0.7470320607109293  0.1472744264171439  0.2937965598175865   T   T   T
  0.7452514678131192  0.2310074007841862  0.2972429548793970   T   T   T
  0.4979286660753369  0.0214171982963142  0.2919425176308033   T   T   T
  0.7512517262239584  0.3945536747552411  0.3090873021855970   T   T   T
  0.7587953396701401  0.4799758323968328  0.3106245391345125   T   T   T
  0.4943712207664430  0.2733983233890409  0.3004849999884117   T   T   T
  0.5029008969019885  0.6019810063648284  0.3006620294792413   T   T   T
  0.7526581356665959  0.7275794478078165  0.2934940294845291   T   T   T
  0.4996781719661890  0.8531711116857454  0.2918911869112034   T   T   T
  0.7501926366983500  0.8950004189049708  0.2915940989949635   T   T   T
  0.7485269683473539  0.9790469377785779  0.2916310474669960   T   T   T
  0.5013494675884201  0.7690475507587993  0.2930101663350919   T   T   T
  0.7542752034514393  0.6447323680683469  0.2966053008862815   T   T   T
 -0.0017968799821968  0.0212138075984479  0.2920018063940817   T   T   T
  0.5047000516444439  0.5205502373442343  0.3098929278205620   T   T   T
  0.0096160504113489  0.5210068905287680  0.3089348903245111   T   T   T
  0.5019219176012863  0.3557524282017868  0.3067650759756171   T   T   T
 -0.0072574805815220  0.3536652388179343  0.3100467962812841   T   T   T
  0.2546130044376361  0.6447282617185791  0.2978529272852139   T   T   T
  0.2526964506314434  0.4369818888069726  0.3527639790450622   T   T   T
 
  0.00000000E+00  0.00000000E+00  0.00000000E+00
  0.00000000E+00  0.00000000E+00  0.00000000E+00
  0.00000000E+00  0.00000000E+00  0.00000000E+00
  0.00000000E+00  0.00000000E+00  0.00000000E+00
  0.00000000E+00  0.00000000E+00  0.00000000E+00
  0.00000000E+00  0.00000000E+00  0.00000000E+00
  0.00000000E+00  0.00000000E+00  0.00000000E+00
  0.00000000E+00  0.00000000E+00  0.00000000E+00
  0.00000000E+00  0.00000000E+00  0.00000000E+00
  0.00000000E+00  0.00000000E+00  0.00000000E+00
  0.00000000E+00  0.00000000E+00  0.00000000E+00
  0.00000000E+00  0.00000000E+00  0.00000000E+00
  0.00000000E+00  0.00000000E+00  0.00000000E+00
  0.00000000E+00  0.00000000E+00  0.00000000E+00
  0.00000000E+00  0.00000000E+00  0.00000000E+00
  0.00000000E+00  0.00000000E+00  0.00000000E+00
  0.00000000E+00  0.00000000E+00  0.00000000E+00
  0.00000000E+00  0.00000000E+00  0.00000000E+00
  0.00000000E+00  0.00000000E+00  0.00000000E+00
  0.00000000E+00  0.00000000E+00  0.00000000E+00
  0.00000000E+00  0.00000000E+00  0.00000000E+00
  0.00000000E+00  0.00000000E+00  0.00000000E+00
  0.00000000E+00  0.00000000E+00  0.00000000E+00
  0.00000000E+00  0.00000000E+00  0.00000000E+00
  0.00000000E+00  0.00000000E+00  0.00000000E+00
  0.00000000E+00  0.00000000E+00  0.00000000E+00
  0.00000000E+00  0.00000000E+00  0.00000000E+00
  0.00000000E+00  0.00000000E+00  0.00000000E+00
  0.00000000E+00  0.00000000E+00  0.00000000E+00
  0.00000000E+00  0.00000000E+00  0.00000000E+00
  0.00000000E+00  0.00000000E+00  0.00000000E+00
