Title                                   
   1.00000000000000     
     9.8694509999999998    0.0000000000000000    0.0000000000000000
     0.0000000000000000    8.5490480000000009    0.0000000000000000
     0.0000000000000000    0.0000000000000000   20.0000000000000000
    27     4     1
Selective dynamics
Direct
  0.0556838545933288  0.0929118091443473  0.0877887094103776   T   T   T
  0.9307976673389543  0.1748485316948861  0.0889678890312123   T   T   T
  0.0571988512947713  0.9255692612397958  0.0874519124471241   T   T   T
  0.9291204415745866  0.3426962016311729  0.0912712683776222   T   T   T
  0.0566769504371196  0.5908037334173979  0.0885292394420506   T   T   T
  0.9325578759477391  0.6740986927046456  0.0898585955198811   T   T   T
  0.0567326554557009  0.4238429265246356  0.0899072499123308   T   T   T
  0.9328678262379132  0.8404073853103371  0.0887577670875536   T   T   T
  0.3055027803479453  0.0880927679312785  0.0898813486129300   T   T   T
  0.1820011393746224  0.1742830722857172  0.0890144993995940   T   T   T
  0.1840130011321324  0.3416524825988019  0.0905823022677328   T   T   T
  0.3066808258873167  0.5939243371578085  0.0951986195849815   T   T   T
  0.1810172438361447  0.6751957575729337  0.0890514303731368   T   T   T
  0.3105223542460030  0.4256389486398858  0.0946426665936826   T   T   T
  0.1807296473093863  0.8414003648755327  0.0885406981366108   T   T   T
  0.5563619502729013  0.0825853099219214  0.0938328924524844   T   T   T
  0.4312604358095291  0.1673682947948225  0.0926567959013904   T   T   T
  0.5552333171542494  0.9160142686333296  0.0967578451872234   T   T   T
  0.4353559812721383  0.3344347383557327  0.0971388666619557   T   T   T
  0.4262625740210139  0.8355623609871340  0.0971206316485745   T   T   T
  0.8065115317354817  0.0888389503180242  0.0893485317569872   T   T   T
  0.6805334237507997  0.1684271279263823  0.0923432015625982   T   T   T
  0.8075196663100855  0.9231578229976138  0.0901129235798517   T   T   T
  0.6763716108565784  0.3352389142662575  0.0974005727718091   T   T   T
  0.8059256222425543  0.5945356248360474  0.0971093482709893   T   T   T
  0.8024014823802676  0.4251509019437264  0.0960372556944520   T   T   T
  0.6850610632168637  0.8346760026937374  0.0973914319415576   T   T   T
  0.4210997210696980  0.6811246000584379  0.1035808819949621   T   T   T
  0.5557340234706487  0.4092927301251061  0.1042206947702546   T   T   T
  0.6901164263415315  0.6778889471436775  0.1056107150771774   T   T   T
  0.3046307128621504  0.9244889481722666  0.0900651285112733   T   T   T
  0.5571563422198494  0.5860941840966096  0.1955030860196549   T   T   T
 
  0.00000000E+00  0.00000000E+00  0.00000000E+00
  0.00000000E+00  0.00000000E+00  0.00000000E+00
  0.00000000E+00  0.00000000E+00  0.00000000E+00
  0.00000000E+00  0.00000000E+00  0.00000000E+00
  0.00000000E+00  0.00000000E+00  0.00000000E+00
  0.00000000E+00  0.00000000E+00  0.00000000E+00
  0.00000000E+00  0.00000000E+00  0.00000000E+00
  0.00000000E+00  0.00000000E+00  0.00000000E+00
  0.00000000E+00  0.00000000E+00  0.00000000E+00
  0.00000000E+00  0.00000000E+00  0.00000000E+00
  0.00000000E+00  0.00000000E+00  0.00000000E+00
  0.00000000E+00  0.00000000E+00  0.00000000E+00
  0.00000000E+00  0.00000000E+00  0.00000000E+00
  0.00000000E+00  0.00000000E+00  0.00000000E+00
  0.00000000E+00  0.00000000E+00  0.00000000E+00
  0.00000000E+00  0.00000000E+00  0.00000000E+00
  0.00000000E+00  0.00000000E+00  0.00000000E+00
  0.00000000E+00  0.00000000E+00  0.00000000E+00
  0.00000000E+00  0.00000000E+00  0.00000000E+00
  0.00000000E+00  0.00000000E+00  0.00000000E+00
  0.00000000E+00  0.00000000E+00  0.00000000E+00
  0.00000000E+00  0.00000000E+00  0.00000000E+00
  0.00000000E+00  0.00000000E+00  0.00000000E+00
  0.00000000E+00  0.00000000E+00  0.00000000E+00
  0.00000000E+00  0.00000000E+00  0.00000000E+00
  0.00000000E+00  0.00000000E+00  0.00000000E+00
  0.00000000E+00  0.00000000E+00  0.00000000E+00
  0.00000000E+00  0.00000000E+00  0.00000000E+00
  0.00000000E+00  0.00000000E+00  0.00000000E+00
  0.00000000E+00  0.00000000E+00  0.00000000E+00
  0.00000000E+00  0.00000000E+00  0.00000000E+00
  0.00000000E+00  0.00000000E+00  0.00000000E+00
