Title                                   
   1.00000000000000     
     8.5490480000000009    0.0000000000000000    0.0000000000000000
     0.0000000000000000    8.5490480000000009    0.0000000000000000
     0.0000000000000000    0.0000000000000000   20.0000000000000000
    21     3     1
Selective dynamics
Direct
  0.9090898301788249  0.2062335433037519  0.0939912865527652   T   T   T
  0.9117605257718026  0.8009967304529807  0.0935584313264974   T   T   T
  0.1970903334749856  0.0823525673374645  0.0937289533338260   T   T   T
  0.0756197193694793  0.2007940448847206  0.0942897542957219   T   T   T
  0.1568558136774919  0.6497885240918174  0.0957825267354822   T   T   T
  0.0762997829282600  0.5002035250621742  0.0963805744826038   T   T   T
  0.1569035671939392  0.3529047775353130  0.0972328866684556   T   T   T
  0.0785719699610337  0.7992415417129365  0.0934763003159140   T   T   T
  0.3461127293549850  0.1637928889789424  0.0962515479490834   T   T   T
  0.4935039332449260  0.9197572221949801  0.0963375524502615   T   T   T
  0.3449231660157315  0.8378182600135761  0.0959506938274669   T   T   T
  0.7871253490115195  0.0855912730019533  0.0939840608028223   T   T   T
  0.6382302066701427  0.1672786086428073  0.0963577174312067   T   T   T
  0.7902161928623214  0.9197432675034347  0.0941425858007383   T   T   T
  0.8305158954373972  0.6492415616877562  0.0961691441475531   T   T   T
  0.8281459601238039  0.3561647251849543  0.0963307806908234   T   T   T
  0.6398103806970726  0.8378103119911490  0.0970864351352673   T   T   T
  0.3246435517982778  0.3294517780357957  0.1004744962416825   T   T   T
  0.3231063440581082  0.6738097012515079  0.0978405251314201   T   T   T
  0.6609117978934913  0.3348021085845935  0.0998736226783126   T   T   T
  0.6649550019755651  0.6696440791691416  0.1005260617389017   T   T   T
  0.4937396022181064  0.0856815764966881  0.0961024772733164   T   T   T
  0.9097674354757509  0.5019122031693314  0.0960984866587945   T   T   T
  0.1963783789827913  0.9163272193257385  0.0934297868027552   T   T   T
  0.4911345316241782  0.5034479603864973  0.1383083115283082   T   T   T
 
  0.00000000E+00  0.00000000E+00  0.00000000E+00
  0.00000000E+00  0.00000000E+00  0.00000000E+00
  0.00000000E+00  0.00000000E+00  0.00000000E+00
  0.00000000E+00  0.00000000E+00  0.00000000E+00
  0.00000000E+00  0.00000000E+00  0.00000000E+00
  0.00000000E+00  0.00000000E+00  0.00000000E+00
  0.00000000E+00  0.00000000E+00  0.00000000E+00
  0.00000000E+00  0.00000000E+00  0.00000000E+00
  0.00000000E+00  0.00000000E+00  0.00000000E+00
  0.00000000E+00  0.00000000E+00  0.00000000E+00
  0.00000000E+00  0.00000000E+00  0.00000000E+00
  0.00000000E+00  0.00000000E+00  0.00000000E+00
  0.00000000E+00  0.00000000E+00  0.00000000E+00
  0.00000000E+00  0.00000000E+00  0.00000000E+00
  0.00000000E+00  0.00000000E+00  0.00000000E+00
  0.00000000E+00  0.00000000E+00  0.00000000E+00
  0.00000000E+00  0.00000000E+00  0.00000000E+00
  0.00000000E+00  0.00000000E+00  0.00000000E+00
  0.00000000E+00  0.00000000E+00  0.00000000E+00
  0.00000000E+00  0.00000000E+00  0.00000000E+00
  0.00000000E+00  0.00000000E+00  0.00000000E+00
  0.00000000E+00  0.00000000E+00  0.00000000E+00
  0.00000000E+00  0.00000000E+00  0.00000000E+00
  0.00000000E+00  0.00000000E+00  0.00000000E+00
  0.00000000E+00  0.00000000E+00  0.00000000E+00
