Title                                   
   1.00000000000000     
     9.8694509999999998    0.0000000000000000    0.0000000000000000
     0.0000000000000000    8.5490480000000009    0.0000000000000000
     0.0000000000000000    0.0000000000000000   20.0000000000000000
    25     5     1
Selective dynamics
Direct
  0.0545837641177808  0.0894812763218932  0.0866491040942163   T   T   T
  0.9295163330547571  0.1746259524471769  0.0860774155774419   T   T   T
  0.0582180312579505  0.9212620326056955  0.0872669920784860   T   T   T
  0.9314521145423410  0.3417393035792470  0.0857791419662650   T   T   T
  0.0564318615296527  0.5908462576764439  0.0866210368163134   T   T   T
  0.0554343865155990  0.4239226265275686  0.0858123667210717   T   T   T
  0.9331609417537777  0.8408430586740298  0.0891131566628182   T   T   T
  0.3066577486239575  0.0858778567324863  0.0925844314552074   T   T   T
  0.1796089519572774  0.1692438696515739  0.0894076589025805   T   T   T
  0.1789512160547053  0.3364881241485890  0.0892558168982481   T   T   T
  0.3041632047531652  0.5838914749836365  0.0939660337908429   T   T   T
  0.1809313777425653  0.6716041371118633  0.0887204165414797   T   T   T
  0.3018128010839174  0.4158235353490753  0.0970215287583224   T   T   T
  0.1835580491680185  0.8386825683009300  0.0883842796260077   T   T   T
  0.4273133005496221  0.1715497767881790  0.1004038744779453   T   T   T
  0.5570140330774210  0.9214586870807558  0.0999200126783759   T   T   T
  0.4283142269760407  0.6680290070924884  0.0994532339040639   T   T   T
  0.4324581145599131  0.8343699942328895  0.0969819209978051   T   T   T
  0.8033031443800290  0.0920808243664737  0.0895346309253081   T   T   T
  0.6784185671954469  0.1801081883205247  0.0942880498864444   T   T   T
  0.8073347247912511  0.9243893177552789  0.0918984931496360   T   T   T
  0.6823631849404324  0.3471332822622250  0.0954149420424117   T   T   T
  0.8116901684908014  0.5964897273630299  0.0950901041027959   T   T   T
  0.8085105640649481  0.4280211652998361  0.0904209785467817   T   T   T
  0.6839457443104102  0.8401100518304147  0.1002831636593645   T   T   T
  0.9336177013514229  0.6750642105988442  0.0884130852116064   T   T   T
  0.5549996932332385  0.0934080515431871  0.0995016460908725   T   T   T
  0.4202537735472192  0.3316213935676393  0.1109636077433710   T   T   T
  0.6953218693189165  0.6779500016925576  0.1095876277485081   T   T   T
  0.3073510295523871  0.9193984805151104  0.0908473674844981   T   T   T
  0.5564443775050367  0.5053607655803822  0.1413028814609439   T   T   T
 
  0.00000000E+00  0.00000000E+00  0.00000000E+00
  0.00000000E+00  0.00000000E+00  0.00000000E+00
  0.00000000E+00  0.00000000E+00  0.00000000E+00
  0.00000000E+00  0.00000000E+00  0.00000000E+00
  0.00000000E+00  0.00000000E+00  0.00000000E+00
  0.00000000E+00  0.00000000E+00  0.00000000E+00
  0.00000000E+00  0.00000000E+00  0.00000000E+00
  0.00000000E+00  0.00000000E+00  0.00000000E+00
  0.00000000E+00  0.00000000E+00  0.00000000E+00
  0.00000000E+00  0.00000000E+00  0.00000000E+00
  0.00000000E+00  0.00000000E+00  0.00000000E+00
  0.00000000E+00  0.00000000E+00  0.00000000E+00
  0.00000000E+00  0.00000000E+00  0.00000000E+00
  0.00000000E+00  0.00000000E+00  0.00000000E+00
  0.00000000E+00  0.00000000E+00  0.00000000E+00
  0.00000000E+00  0.00000000E+00  0.00000000E+00
  0.00000000E+00  0.00000000E+00  0.00000000E+00
  0.00000000E+00  0.00000000E+00  0.00000000E+00
  0.00000000E+00  0.00000000E+00  0.00000000E+00
  0.00000000E+00  0.00000000E+00  0.00000000E+00
  0.00000000E+00  0.00000000E+00  0.00000000E+00
  0.00000000E+00  0.00000000E+00  0.00000000E+00
  0.00000000E+00  0.00000000E+00  0.00000000E+00
  0.00000000E+00  0.00000000E+00  0.00000000E+00
  0.00000000E+00  0.00000000E+00  0.00000000E+00
  0.00000000E+00  0.00000000E+00  0.00000000E+00
  0.00000000E+00  0.00000000E+00  0.00000000E+00
  0.00000000E+00  0.00000000E+00  0.00000000E+00
  0.00000000E+00  0.00000000E+00  0.00000000E+00
  0.00000000E+00  0.00000000E+00  0.00000000E+00
  0.00000000E+00  0.00000000E+00  0.00000000E+00
