Title                                   
   1.00000000000000     
     8.5490480000000009    0.0000000000000000    0.0000000000000000
     0.0000000000000000    8.5490480000000009    0.0000000000000000
     0.0000000000000000    0.0000000000000000   20.0000000000000000
    22     2     1
Selective dynamics
Direct
  0.9105131676507722  0.2053327124619403  0.0954418113310753   T   T   T
  0.9017504075021012  0.5018040981123075  0.0952914994540781   T   T   T
  0.9105160689670574  0.7982379691536130  0.0954576001304222   T   T   T
  0.2001896025346334  0.0845693904507777  0.0954692670741697   T   T   T
  0.0763801606371053  0.2074125774414758  0.0954457281221217   T   T   T
  0.2001942121569572  0.9189961386238257  0.0954776257724723   T   T   T
  0.1547095162082357  0.6471323133262289  0.0953656622682650   T   T   T
  0.0714368284988788  0.5018011994623222  0.0953276486652650   T   T   T
  0.1546913138519868  0.3564555365274000  0.0953586209884667   T   T   T
  0.0763897609343131  0.7961521118366346  0.0954628985941026   T   T   T
  0.4944507234922250  0.0869955112314738  0.0953527220922233   T   T   T
  0.3486199700951370  0.1674300824205666  0.0953780489694525   T   T   T
  0.4944543601079756  0.9165830661179740  0.0953544512979359   T   T   T
  0.3486293747399747  0.8361540800073578  0.0953869432712765   T   T   T
  0.7905046890035673  0.0849170185546749  0.0954558241561720   T   T   T
  0.6429099269288305  0.1664040232543940  0.0953184902493901   T   T   T
  0.7905103055232654  0.9186691837378733  0.0954624267957721   T   T   T
  0.8248485639778075  0.6507245644699658  0.0953020701965373   T   T   T
  0.8248595803826498  0.3528591050756911  0.0952918238434410   T   T   T
  0.6429103904876093  0.8371883014196094  0.0953203655825794   T   T   T
  0.3251293004981887  0.3388291528990343  0.0952790740752475   T   T   T
  0.3251500904926466  0.6647671543001055  0.0952854972446182   T   T   T
  0.6645398085210958  0.3277273279764369  0.0951678406597306   T   T   T
  0.6645320110246991  0.6758439652647694  0.0951762618825030   T   T   T
  0.4865918657822796  0.5018034158735616  0.0950747972826599   T   T   T
 
  0.00000000E+00  0.00000000E+00  0.00000000E+00
  0.00000000E+00  0.00000000E+00  0.00000000E+00
  0.00000000E+00  0.00000000E+00  0.00000000E+00
  0.00000000E+00  0.00000000E+00  0.00000000E+00
  0.00000000E+00  0.00000000E+00  0.00000000E+00
  0.00000000E+00  0.00000000E+00  0.00000000E+00
  0.00000000E+00  0.00000000E+00  0.00000000E+00
  0.00000000E+00  0.00000000E+00  0.00000000E+00
  0.00000000E+00  0.00000000E+00  0.00000000E+00
  0.00000000E+00  0.00000000E+00  0.00000000E+00
  0.00000000E+00  0.00000000E+00  0.00000000E+00
  0.00000000E+00  0.00000000E+00  0.00000000E+00
  0.00000000E+00  0.00000000E+00  0.00000000E+00
  0.00000000E+00  0.00000000E+00  0.00000000E+00
  0.00000000E+00  0.00000000E+00  0.00000000E+00
  0.00000000E+00  0.00000000E+00  0.00000000E+00
  0.00000000E+00  0.00000000E+00  0.00000000E+00
  0.00000000E+00  0.00000000E+00  0.00000000E+00
  0.00000000E+00  0.00000000E+00  0.00000000E+00
  0.00000000E+00  0.00000000E+00  0.00000000E+00
  0.00000000E+00  0.00000000E+00  0.00000000E+00
  0.00000000E+00  0.00000000E+00  0.00000000E+00
  0.00000000E+00  0.00000000E+00  0.00000000E+00
  0.00000000E+00  0.00000000E+00  0.00000000E+00
  0.00000000E+00  0.00000000E+00  0.00000000E+00
