Title                                   
   1.00000000000000     
     9.8694509999999998    0.0000000000000000    0.0000000000000000
     0.0000000000000000    8.5490480000000009    0.0000000000000000
     0.0000000000000000    0.0000000000000000   20.0000000000000000
    26     5     1
Selective dynamics
Direct
  0.0559111993121916  0.0923078125923958  0.0872218392433388   T   T   T
  0.9297647966914004  0.1757576048412152  0.0886207444738052   T   T   T
  0.0565481162223962  0.9237671429845630  0.0855670641401410   T   T   T
  0.9289831925181872  0.3418590166543243  0.0904183916505066   T   T   T
  0.0564051607992734  0.5899997027755736  0.0864596756967322   T   T   T
  0.9318554732284882  0.6719553468892739  0.0862458309592685   T   T   T
  0.0557234308888793  0.4231809400953006  0.0905245531741110   T   T   T
  0.9315805218858001  0.8399540032608468  0.0862824170949305   T   T   T
  0.3053823062919389  0.0887667905882582  0.0899882866594102   T   T   T
  0.1819288535699886  0.1744257833131022  0.0898576092460449   T   T   T
  0.3069394088668115  0.9229638167917402  0.0901965845645786   T   T   T
  0.1819798012862655  0.3403603247115791  0.0934044472498950   T   T   T
  0.3058948622443824  0.5910328129353282  0.1015428221659285   T   T   T
  0.1813677184342382  0.6708747674435194  0.0887190985894219   T   T   T
  0.1820742984227333  0.8389991122771497  0.0874189534707600   T   T   T
  0.5566970124444275  0.0858624305676557  0.0965692024798424   T   T   T
  0.4309131033513380  0.1691436246452799  0.0946308130176295   T   T   T
  0.4338187428580475  0.3350286123420347  0.0988737765634111   T   T   T
  0.4291435778432239  0.8383266316634582  0.1023902426592154   T   T   T
  0.8068485662236373  0.0896932835644555  0.0892902030971006   T   T   T
  0.6810221557598310  0.1703716236758327  0.0930787498425462   T   T   T
  0.8066234217735816  0.9244162982379805  0.0893381114920687   T   T   T
  0.6763655525779616  0.3361192873696542  0.0953289893093730   T   T   T
  0.8051679381371050  0.5945193056711463  0.0923880654122313   T   T   T
  0.6848194815872876  0.8380650282253570  0.0969819170832598   T   T   T
  0.4200296456797561  0.6795603995375055  0.1199131632387480   T   T   T
  0.5549817877417043  0.4111359823541766  0.1039254697067510   T   T   T
  0.6897663167073503  0.6792810434945399  0.1027935142962339   T   T   T
  0.5572989554338309  0.9190448605250923  0.1004884678047877   T   T   T
  0.3090604368799540  0.4223438088520767  0.0996189021982579   T   T   T
  0.8000836660682236  0.4258708055177063  0.0923879919334693   T   T   T
  0.5646594982697728  0.5852579956018805  0.1752091014862169   T   T   T
 
  0.00000000E+00  0.00000000E+00  0.00000000E+00
  0.00000000E+00  0.00000000E+00  0.00000000E+00
  0.00000000E+00  0.00000000E+00  0.00000000E+00
  0.00000000E+00  0.00000000E+00  0.00000000E+00
  0.00000000E+00  0.00000000E+00  0.00000000E+00
  0.00000000E+00  0.00000000E+00  0.00000000E+00
  0.00000000E+00  0.00000000E+00  0.00000000E+00
  0.00000000E+00  0.00000000E+00  0.00000000E+00
  0.00000000E+00  0.00000000E+00  0.00000000E+00
  0.00000000E+00  0.00000000E+00  0.00000000E+00
  0.00000000E+00  0.00000000E+00  0.00000000E+00
  0.00000000E+00  0.00000000E+00  0.00000000E+00
  0.00000000E+00  0.00000000E+00  0.00000000E+00
  0.00000000E+00  0.00000000E+00  0.00000000E+00
  0.00000000E+00  0.00000000E+00  0.00000000E+00
  0.00000000E+00  0.00000000E+00  0.00000000E+00
  0.00000000E+00  0.00000000E+00  0.00000000E+00
  0.00000000E+00  0.00000000E+00  0.00000000E+00
  0.00000000E+00  0.00000000E+00  0.00000000E+00
  0.00000000E+00  0.00000000E+00  0.00000000E+00
  0.00000000E+00  0.00000000E+00  0.00000000E+00
  0.00000000E+00  0.00000000E+00  0.00000000E+00
  0.00000000E+00  0.00000000E+00  0.00000000E+00
  0.00000000E+00  0.00000000E+00  0.00000000E+00
  0.00000000E+00  0.00000000E+00  0.00000000E+00
  0.00000000E+00  0.00000000E+00  0.00000000E+00
  0.00000000E+00  0.00000000E+00  0.00000000E+00
  0.00000000E+00  0.00000000E+00  0.00000000E+00
  0.00000000E+00  0.00000000E+00  0.00000000E+00
  0.00000000E+00  0.00000000E+00  0.00000000E+00
  0.00000000E+00  0.00000000E+00  0.00000000E+00
  0.00000000E+00  0.00000000E+00  0.00000000E+00
