Title                                   
   1.00000000000000     
     9.8694509999999998    0.0000000000000000    0.0000000000000000
     0.0000000000000000    8.5490480000000009    0.0000000000000000
     0.0000000000000000    0.0000000000000000   20.0000000000000000
    25     5     1
Selective dynamics
Direct
  0.0556512617323149  0.0890503302687923  0.0902874308931658   T   T   T
  0.9312764483718046  0.1725312112597987  0.0904031138238623   T   T   T
  0.0572505390349384  0.9212531516961434  0.0905991654056348   T   T   T
  0.9344315915176934  0.3394009724557687  0.0896446500888345   T   T   T
  0.0556692464548878  0.5908269568500085  0.0896074332990603   T   T   T
  0.0563457657304396  0.4236679043035311  0.0890352404024090   T   T   T
  0.9326122900119708  0.8394148649158136  0.0911297125718170   T   T   T
  0.3066966085472289  0.0884469252181868  0.0947147655080385   T   T   T
  0.1802052040726765  0.1705024526970017  0.0917737768307714   T   T   T
  0.1789223960286019  0.3372667754225163  0.0914810385945966   T   T   T
  0.3000137059136833  0.5869867293082203  0.0969864693158187   T   T   T
  0.1780193947736298  0.6735448676104985  0.0921444572371055   T   T   T
  0.3006326939894867  0.4189095300201572  0.0964034528879629   T   T   T
  0.1819059899440384  0.8404549419589049  0.0921642672672291   T   T   T
  0.4294629611133136  0.1735531599066717  0.0985075222026211   T   T   T
  0.5560771907119124  0.9213604127367060  0.0989783363518522   T   T   T
  0.4195219378791870  0.6761609750199186  0.1029134522672141   T   T   T
  0.4287833617975508  0.8377540441403198  0.0995634338778762   T   T   T
  0.8058224196490046  0.0882633534809413  0.0930071224394856   T   T   T
  0.6818213107329740  0.1760237907536408  0.0967751014087797   T   T   T
  0.8073988644579657  0.9218289748738790  0.0934638833259011   T   T   T
  0.6912439178636065  0.3384442523364387  0.0984816657458874   T   T   T
  0.8130638871314488  0.5934484985496931  0.0938207190247423   T   T   T
  0.8127797109392526  0.4244965283624118  0.0932748873475805   T   T   T
  0.6815820621741449  0.8387171797112316  0.0973421755019024   T   T   T
  0.9334961673526786  0.6738078086533962  0.0905237127125268   T   T   T
  0.5557293270820124  0.0934815758692281  0.0988968488939766   T   T   T
  0.4210061849955422  0.3355211115353265  0.1010629763596598   T   T   T
  0.6942820504384092  0.6753311195216906  0.0987967343883198   T   T   T
  0.3047669668547777  0.9231073797353296  0.0944824707753439   T   T   T
  0.5566635427028274  0.5073172208278613  0.1046989832500581   T   T   T
 
  0.00000000E+00  0.00000000E+00  0.00000000E+00
  0.00000000E+00  0.00000000E+00  0.00000000E+00
  0.00000000E+00  0.00000000E+00  0.00000000E+00
  0.00000000E+00  0.00000000E+00  0.00000000E+00
  0.00000000E+00  0.00000000E+00  0.00000000E+00
  0.00000000E+00  0.00000000E+00  0.00000000E+00
  0.00000000E+00  0.00000000E+00  0.00000000E+00
  0.00000000E+00  0.00000000E+00  0.00000000E+00
  0.00000000E+00  0.00000000E+00  0.00000000E+00
  0.00000000E+00  0.00000000E+00  0.00000000E+00
  0.00000000E+00  0.00000000E+00  0.00000000E+00
  0.00000000E+00  0.00000000E+00  0.00000000E+00
  0.00000000E+00  0.00000000E+00  0.00000000E+00
  0.00000000E+00  0.00000000E+00  0.00000000E+00
  0.00000000E+00  0.00000000E+00  0.00000000E+00
  0.00000000E+00  0.00000000E+00  0.00000000E+00
  0.00000000E+00  0.00000000E+00  0.00000000E+00
  0.00000000E+00  0.00000000E+00  0.00000000E+00
  0.00000000E+00  0.00000000E+00  0.00000000E+00
  0.00000000E+00  0.00000000E+00  0.00000000E+00
  0.00000000E+00  0.00000000E+00  0.00000000E+00
  0.00000000E+00  0.00000000E+00  0.00000000E+00
  0.00000000E+00  0.00000000E+00  0.00000000E+00
  0.00000000E+00  0.00000000E+00  0.00000000E+00
  0.00000000E+00  0.00000000E+00  0.00000000E+00
  0.00000000E+00  0.00000000E+00  0.00000000E+00
  0.00000000E+00  0.00000000E+00  0.00000000E+00
  0.00000000E+00  0.00000000E+00  0.00000000E+00
  0.00000000E+00  0.00000000E+00  0.00000000E+00
  0.00000000E+00  0.00000000E+00  0.00000000E+00
  0.00000000E+00  0.00000000E+00  0.00000000E+00
