Title                                   
   1.00000000000000     
     9.8694509999999998    0.0000000000000000    0.0000000000000000
     0.0000000000000000    8.5490480000000009    0.0000000000000000
     0.0000000000000000    0.0000000000000000   20.0000000000000000
    29     2     1
Selective dynamics
Direct
  0.0562290042991956  0.0899586283563014  0.0852176941757874   T   T   T
  0.9314803861597941  0.1730645820870922  0.0865390672696333   T   T   T
  0.0573916105510623  0.9233507348733311  0.0850242629427387   T   T   T
  0.9311148341160577  0.3404167222764191  0.0889014158946496   T   T   T
  0.0571300460600748  0.5906675884485969  0.0865110069209488   T   T   T
  0.9322937228727222  0.6731958544957322  0.0885864953146068   T   T   T
  0.0568839321648088  0.4228928338599214  0.0873783467692688   T   T   T
  0.9320452460450003  0.8396631597274481  0.0870538197310403   T   T   T
  0.3059556951834063  0.0882047091398066  0.0887617865916096   T   T   T
  0.1822578903479085  0.1723595562357472  0.0870028232371008   T   T   T
  0.1819207974723489  0.3394180961750817  0.0888565587852832   T   T   T
  0.3061529866174511  0.5883437895129255  0.0971830880615194   T   T   T
  0.1823745330462650  0.6738119955385883  0.0880794507071315   T   T   T
  0.3062004931436827  0.4212789086423709  0.0959850918095553   T   T   T
  0.1821554083495598  0.8407218045452407  0.0868435505131894   T   T   T
  0.5553757273161432  0.0879388358415015  0.0935831548645881   T   T   T
  0.5544711687917128  0.9240062085228460  0.0976983806502268   T   T   T
  0.4308511620078592  0.3345512844607935  0.1011884752027330   T   T   T
  0.4287837475942641  0.8394743506310125  0.0996032911183501   T   T   T
  0.8059920096787141  0.0892220761141724  0.0878790210678273   T   T   T
  0.6801894326878561  0.1717688859185897  0.0919335140640747   T   T   T
  0.8067362452339335  0.9237854900160775  0.0895315096831763   T   T   T
  0.6814426396100230  0.3377316922575047  0.0996109460282625   T   T   T
  0.8072892689307334  0.5907550728792144  0.0981285520109450   T   T   T
  0.8063207000742303  0.4223747633529092  0.0960464544931102   T   T   T
  0.6818457132033160  0.8410875392112153  0.0990258874371386   T   T   T
  0.4223064354342912  0.6797024538633200  0.1089903199781926   T   T   T
  0.5546084898322813  0.4071904722900979  0.1119436022695865   T   T   T
  0.6903964143341836  0.6794263977224833  0.1100365565955878   T   T   T
  0.3060223106797700  0.9256601739802788  0.0892551039090826   T   T   T
  0.4290606167356166  0.1684521418383592  0.0926670144864945   T   T   T
  0.5563603314257400  0.5897691971850243  0.1906287574165763   T   T   T
 
  0.00000000E+00  0.00000000E+00  0.00000000E+00
  0.00000000E+00  0.00000000E+00  0.00000000E+00
  0.00000000E+00  0.00000000E+00  0.00000000E+00
  0.00000000E+00  0.00000000E+00  0.00000000E+00
  0.00000000E+00  0.00000000E+00  0.00000000E+00
  0.00000000E+00  0.00000000E+00  0.00000000E+00
  0.00000000E+00  0.00000000E+00  0.00000000E+00
  0.00000000E+00  0.00000000E+00  0.00000000E+00
  0.00000000E+00  0.00000000E+00  0.00000000E+00
  0.00000000E+00  0.00000000E+00  0.00000000E+00
  0.00000000E+00  0.00000000E+00  0.00000000E+00
  0.00000000E+00  0.00000000E+00  0.00000000E+00
  0.00000000E+00  0.00000000E+00  0.00000000E+00
  0.00000000E+00  0.00000000E+00  0.00000000E+00
  0.00000000E+00  0.00000000E+00  0.00000000E+00
  0.00000000E+00  0.00000000E+00  0.00000000E+00
  0.00000000E+00  0.00000000E+00  0.00000000E+00
  0.00000000E+00  0.00000000E+00  0.00000000E+00
  0.00000000E+00  0.00000000E+00  0.00000000E+00
  0.00000000E+00  0.00000000E+00  0.00000000E+00
  0.00000000E+00  0.00000000E+00  0.00000000E+00
  0.00000000E+00  0.00000000E+00  0.00000000E+00
  0.00000000E+00  0.00000000E+00  0.00000000E+00
  0.00000000E+00  0.00000000E+00  0.00000000E+00
  0.00000000E+00  0.00000000E+00  0.00000000E+00
  0.00000000E+00  0.00000000E+00  0.00000000E+00
  0.00000000E+00  0.00000000E+00  0.00000000E+00
  0.00000000E+00  0.00000000E+00  0.00000000E+00
  0.00000000E+00  0.00000000E+00  0.00000000E+00
  0.00000000E+00  0.00000000E+00  0.00000000E+00
  0.00000000E+00  0.00000000E+00  0.00000000E+00
  0.00000000E+00  0.00000000E+00  0.00000000E+00
