Title                                   
   1.00000000000000     
     9.8694509999999998    0.0000000000000000    0.0000000000000000
     0.0000000000000000    8.5490480000000009    0.0000000000000000
     0.0000000000000000    0.0000000000000000   20.0000000000000000
    27     4     1
Selective dynamics
Direct
  0.0563037543008685  0.0921310230015676  0.0833324711348575   T   T   T
  0.9305934660647365  0.1747906659821554  0.0853509413300823   T   T   T
  0.0562641768482265  0.9245870410892054  0.0845596976183884   T   T   T
  0.9292619825279089  0.3418515692767915  0.0899022885418822   T   T   T
  0.0561450836606910  0.5894801609201077  0.0886844598771498   T   T   T
  0.9317811783152673  0.6734555815239023  0.0914645574006569   T   T   T
  0.0562396668271124  0.4233597776348897  0.0891527499646049   T   T   T
  0.9317666382098579  0.8406611047477650  0.0881968642919307   T   T   T
  0.3055234350608098  0.0896219540876363  0.0842116604537486   T   T   T
  0.1819714402837171  0.1747960430484839  0.0846522259377376   T   T   T
  0.3063756904790840  0.9237959005442584  0.0859822335398528   T   T   T
  0.1832445719769148  0.3418101913159826  0.0891850901324828   T   T   T
  0.3044789155865477  0.5938264525022116  0.0998654591288253   T   T   T
  0.1805355778570467  0.6735203972160492  0.0901731326391165   T   T   T
  0.3103579501030025  0.4249877462275757  0.0970303521381804   T   T   T
  0.1808473701177551  0.8406835058544659  0.0868461436048566   T   T   T
  0.5563116341530659  0.0832707316098687  0.0929715039533006   T   T   T
  0.4317666772939117  0.1677748099350830  0.0905722026594073   T   T   T
  0.4332531324438927  0.3321585345902654  0.0997697393333863   T   T   T
  0.4281396959488695  0.8396794277468843  0.0959722634266481   T   T   T
  0.8071604128104998  0.0894727698158617  0.0853871223596718   T   T   T
  0.6809675851389155  0.1677227751526072  0.0914698699648127   T   T   T
  0.8062738541588106  0.9236266729114306  0.0877231502198931   T   T   T
  0.6795189979407257  0.3320599413724685  0.1006235882650025   T   T   T
  0.8081545924987689  0.5937161542196050  0.1019622316372005   T   T   T
  0.8022922477035632  0.4249892721832737  0.0983428814589455   T   T   T
  0.6845590808129812  0.8395909892248357  0.0979167385252878   T   T   T
  0.4188285523707699  0.6857082638243467  0.1157882122794972   T   T   T
  0.5561843224542214  0.4004490853114366  0.1169543851320252   T   T   T
  0.6940694434680929  0.6859174217656837  0.1189564025099618   T   T   T
  0.5563712627080538  0.9163885499029398  0.0956098061734004   T   T   T
  0.5540966098753163  0.5843614854603616  0.1770645743672221   T   T   T
 
  0.00000000E+00  0.00000000E+00  0.00000000E+00
  0.00000000E+00  0.00000000E+00  0.00000000E+00
  0.00000000E+00  0.00000000E+00  0.00000000E+00
  0.00000000E+00  0.00000000E+00  0.00000000E+00
  0.00000000E+00  0.00000000E+00  0.00000000E+00
  0.00000000E+00  0.00000000E+00  0.00000000E+00
  0.00000000E+00  0.00000000E+00  0.00000000E+00
  0.00000000E+00  0.00000000E+00  0.00000000E+00
  0.00000000E+00  0.00000000E+00  0.00000000E+00
  0.00000000E+00  0.00000000E+00  0.00000000E+00
  0.00000000E+00  0.00000000E+00  0.00000000E+00
  0.00000000E+00  0.00000000E+00  0.00000000E+00
  0.00000000E+00  0.00000000E+00  0.00000000E+00
  0.00000000E+00  0.00000000E+00  0.00000000E+00
  0.00000000E+00  0.00000000E+00  0.00000000E+00
  0.00000000E+00  0.00000000E+00  0.00000000E+00
  0.00000000E+00  0.00000000E+00  0.00000000E+00
  0.00000000E+00  0.00000000E+00  0.00000000E+00
  0.00000000E+00  0.00000000E+00  0.00000000E+00
  0.00000000E+00  0.00000000E+00  0.00000000E+00
  0.00000000E+00  0.00000000E+00  0.00000000E+00
  0.00000000E+00  0.00000000E+00  0.00000000E+00
  0.00000000E+00  0.00000000E+00  0.00000000E+00
  0.00000000E+00  0.00000000E+00  0.00000000E+00
  0.00000000E+00  0.00000000E+00  0.00000000E+00
  0.00000000E+00  0.00000000E+00  0.00000000E+00
  0.00000000E+00  0.00000000E+00  0.00000000E+00
  0.00000000E+00  0.00000000E+00  0.00000000E+00
  0.00000000E+00  0.00000000E+00  0.00000000E+00
  0.00000000E+00  0.00000000E+00  0.00000000E+00
  0.00000000E+00  0.00000000E+00  0.00000000E+00
  0.00000000E+00  0.00000000E+00  0.00000000E+00
