Title                                   
   1.00000000000000     
     9.8694509999999998    0.0000000000000000    0.0000000000000000
     0.0000000000000000    8.5490480000000009    0.0000000000000000
     0.0000000000000000    0.0000000000000000   20.0000000000000000
    30     1     1
Selective dynamics
Direct
  0.0557171008223768  0.0903137131865502  0.0816669968053591   T   T   T
  0.9311352067475596  0.1730419845254948  0.0832150344113934   T   T   T
  0.0570131975927494  0.9238272729781879  0.0824174315436294   T   T   T
  0.9308893044832368  0.3405142792037388  0.0865144905972306   T   T   T
  0.0569155471718623  0.5900795043652355  0.0844899910088797   T   T   T
  0.9324586563543621  0.6728841477087221  0.0875372430466406   T   T   T
  0.0568748834794405  0.4233056585089264  0.0847670856408340   T   T   T
  0.9321448121752191  0.8395915622713156  0.0850599048985760   T   T   T
  0.3051727245241663  0.0881458549549843  0.0869887902568553   T   T   T
  0.1814795322945868  0.1721299584720947  0.0838639281064430   T   T   T
  0.1825207602225776  0.3397301938973804  0.0864362427076863   T   T   T
  0.3035690709515717  0.5902340177474706  0.0998653979747862   T   T   T
  0.1819520695929467  0.6742071426681723  0.0875080070645795   T   T   T
  0.3059822414335023  0.4224301623873279  0.0967808680947012   T   T   T
  0.1817967949763631  0.8409086552622069  0.0858156606269004   T   T   T
  0.5562500017933628  0.0870799832895364  0.0923149960314544   T   T   T
  0.4303366193040732  0.1697182950748377  0.0921825557528753   T   T   T
  0.5548904193221837  0.9222808518816898  0.0983837178830882   T   T   T
  0.4300426531728100  0.3345864747861347  0.1016821783535856   T   T   T
  0.4180014647483023  0.6814702298519714  0.1186369480581081   T   T   T
  0.5562692084534283  0.4065705547704969  0.1182215659408848   T   T   T
  0.4265420936926618  0.8422389008618302  0.1023011332537614   T   T   T
  0.8066382706329545  0.0889794527534858  0.0852457138400183   T   T   T
  0.6816079269215725  0.1707100202046837  0.0909711561298820   T   T   T
  0.8067264107277192  0.9229790149863220  0.0876160026088859   T   T   T
  0.6818909733401377  0.3352101986353708  0.1014115178983706   T   T   T
  0.8097121190338870  0.5901764294434765  0.0998058521812195   T   T   T
  0.6929764104973684  0.6797789157695947  0.1167117631388642   T   T   T
  0.8071459278968731  0.4223224330136231  0.0970324427357829   T   T   T
  0.6828239418446636  0.8406964857227816  0.0998948931058968   T   T   T
  0.3049990686536135  0.9242278526875042  0.0892919806858089   T   T   T
  0.5571635871418732  0.5898757981288610  0.1710435096170530   T   T   T
 
  0.00000000E+00  0.00000000E+00  0.00000000E+00
  0.00000000E+00  0.00000000E+00  0.00000000E+00
  0.00000000E+00  0.00000000E+00  0.00000000E+00
  0.00000000E+00  0.00000000E+00  0.00000000E+00
  0.00000000E+00  0.00000000E+00  0.00000000E+00
  0.00000000E+00  0.00000000E+00  0.00000000E+00
  0.00000000E+00  0.00000000E+00  0.00000000E+00
  0.00000000E+00  0.00000000E+00  0.00000000E+00
  0.00000000E+00  0.00000000E+00  0.00000000E+00
  0.00000000E+00  0.00000000E+00  0.00000000E+00
  0.00000000E+00  0.00000000E+00  0.00000000E+00
  0.00000000E+00  0.00000000E+00  0.00000000E+00
  0.00000000E+00  0.00000000E+00  0.00000000E+00
  0.00000000E+00  0.00000000E+00  0.00000000E+00
  0.00000000E+00  0.00000000E+00  0.00000000E+00
  0.00000000E+00  0.00000000E+00  0.00000000E+00
  0.00000000E+00  0.00000000E+00  0.00000000E+00
  0.00000000E+00  0.00000000E+00  0.00000000E+00
  0.00000000E+00  0.00000000E+00  0.00000000E+00
  0.00000000E+00  0.00000000E+00  0.00000000E+00
  0.00000000E+00  0.00000000E+00  0.00000000E+00
  0.00000000E+00  0.00000000E+00  0.00000000E+00
  0.00000000E+00  0.00000000E+00  0.00000000E+00
  0.00000000E+00  0.00000000E+00  0.00000000E+00
  0.00000000E+00  0.00000000E+00  0.00000000E+00
  0.00000000E+00  0.00000000E+00  0.00000000E+00
  0.00000000E+00  0.00000000E+00  0.00000000E+00
  0.00000000E+00  0.00000000E+00  0.00000000E+00
  0.00000000E+00  0.00000000E+00  0.00000000E+00
  0.00000000E+00  0.00000000E+00  0.00000000E+00
  0.00000000E+00  0.00000000E+00  0.00000000E+00
  0.00000000E+00  0.00000000E+00  0.00000000E+00
