Title                                   
   1.00000000000000     
     4.9440799999999996    0.0000000000000000    0.0000000000000000
     0.0000000000000000    8.5647549999999999    0.0000000000000000
     0.0000000000000000    0.0000000000000000   20.0000000000000000
    12     2     1
Selective dynamics
Direct
  0.0011911588446949  0.2921990120891780  0.1030937559262305   T   T   T
  0.2516611911868030  0.0409981950214939  0.1011217888086259   T   T   T
  0.0010346623953048  0.9588487298131143  0.1057625156229208   T   T   T
  0.7505551739726332  0.2069979169826137  0.1001523656165793   T   T   T
  0.5006415336265445  0.2901510215316656  0.0963113867092310   T   T   T
  0.7520209447840708  0.0417041304119682  0.1013823667980317   T   T   T
  0.7476146286304142  0.7160434483256548  0.1005993379686314   T   T   T
  0.7450542391638204  0.5367998436454374  0.0991696731615220   T   T   T
  0.5046233378482654  0.9576305718415271  0.0972369370608814   T   T   T
  0.5079104910287408  0.4526687821526956  0.0913014419604859   T   T   T
 -0.0120353615924917  0.4550117751251249  0.1073172692316643   T   T   T
 -0.0156236311450469  0.7945591598181194  0.1122980426418049   T   T   T
  0.5149946979183138  0.7982715443228928  0.0900172973443849   T   T   T
  0.2520614272489625  0.2065565657767799  0.1001165991595757   T   T   T
  0.2482955060889698  0.6232403031417366  0.1020992219894340   T   T   T
 
  0.00000000E+00  0.00000000E+00  0.00000000E+00
  0.00000000E+00  0.00000000E+00  0.00000000E+00
  0.00000000E+00  0.00000000E+00  0.00000000E+00
  0.00000000E+00  0.00000000E+00  0.00000000E+00
  0.00000000E+00  0.00000000E+00  0.00000000E+00
  0.00000000E+00  0.00000000E+00  0.00000000E+00
  0.00000000E+00  0.00000000E+00  0.00000000E+00
  0.00000000E+00  0.00000000E+00  0.00000000E+00
  0.00000000E+00  0.00000000E+00  0.00000000E+00
  0.00000000E+00  0.00000000E+00  0.00000000E+00
  0.00000000E+00  0.00000000E+00  0.00000000E+00
  0.00000000E+00  0.00000000E+00  0.00000000E+00
  0.00000000E+00  0.00000000E+00  0.00000000E+00
  0.00000000E+00  0.00000000E+00  0.00000000E+00
  0.00000000E+00  0.00000000E+00  0.00000000E+00
