Title                                   
   1.00000000000000     
     8.5490480000000009    0.0000000000000000    0.0000000000000000
     0.0000000000000000    8.5490480000000009    0.0000000000000000
     0.0000000000000000    0.0000000000000000   20.0000000000000000
    20     4     1
Selective dynamics
Direct
  0.9095908124934238  0.2077893018876810  0.0977317597078189   T   T   T
  0.9113189677117786  0.8007090994156741  0.0978682040418755   T   T   T
  0.2008441456437724  0.0831508739053957  0.0980259263533755   T   T   T
  0.0758348624163211  0.2050875924272822  0.0980011712182475   T   T   T
  0.1554841986898587  0.6506133737878770  0.0979098247226502   T   T   T
  0.0739342622499709  0.5021628182181396  0.0980158610269374   T   T   T
  0.1556310389093905  0.3558513692971821  0.0980834455799575   T   T   T
  0.0787022716412593  0.7995726275318122  0.0979027688849734   T   T   T
  0.3480079375412442  0.1636678608233621  0.0980302245927408   T   T   T
  0.4936757761096852  0.9154113088244683  0.0979778671807484   T   T   T
  0.3462553389883944  0.8345871907441517  0.0980148780779756   T   T   T
  0.7868261639818729  0.0851170392322022  0.0976410226969331   T   T   T
  0.6387214014018383  0.1644801737318758  0.0976835414688921   T   T   T
  0.7899201771567246  0.9188788650369761  0.0978382696039065   T   T   T
  0.8284544255937063  0.6517696192150662  0.0979885807347998   T   T   T
  0.8253755585011184  0.3567033206270466  0.0977664390436423   T   T   T
  0.6423622543148469  0.8358682821000348  0.0979793612864082   T   T   T
  0.3277460925619273  0.3350767757580480  0.0981519092132005   T   T   T
  0.3232165838233863  0.6698028356417807  0.0980027316018977   T   T   T
  0.6574560545655611  0.3341788040710539  0.0977799089049379   T   T   T
  0.4950966964001139  0.0832425248456067  0.0979502419962189   T   T   T
  0.9050636668135568  0.5032487609896572  0.0979801327116369   T   T   T
  0.6675785597141500  0.6730940014402772  0.0981294502141524   T   T   T
  0.1973750454639170  0.9174846232516867  0.0980514539628350   T   T   T
  0.4909397073121735  0.4972409571956748  0.0982000251732207   T   T   T
 
  0.00000000E+00  0.00000000E+00  0.00000000E+00
  0.00000000E+00  0.00000000E+00  0.00000000E+00
  0.00000000E+00  0.00000000E+00  0.00000000E+00
  0.00000000E+00  0.00000000E+00  0.00000000E+00
  0.00000000E+00  0.00000000E+00  0.00000000E+00
  0.00000000E+00  0.00000000E+00  0.00000000E+00
  0.00000000E+00  0.00000000E+00  0.00000000E+00
  0.00000000E+00  0.00000000E+00  0.00000000E+00
  0.00000000E+00  0.00000000E+00  0.00000000E+00
  0.00000000E+00  0.00000000E+00  0.00000000E+00
  0.00000000E+00  0.00000000E+00  0.00000000E+00
  0.00000000E+00  0.00000000E+00  0.00000000E+00
  0.00000000E+00  0.00000000E+00  0.00000000E+00
  0.00000000E+00  0.00000000E+00  0.00000000E+00
  0.00000000E+00  0.00000000E+00  0.00000000E+00
  0.00000000E+00  0.00000000E+00  0.00000000E+00
  0.00000000E+00  0.00000000E+00  0.00000000E+00
  0.00000000E+00  0.00000000E+00  0.00000000E+00
  0.00000000E+00  0.00000000E+00  0.00000000E+00
  0.00000000E+00  0.00000000E+00  0.00000000E+00
  0.00000000E+00  0.00000000E+00  0.00000000E+00
  0.00000000E+00  0.00000000E+00  0.00000000E+00
  0.00000000E+00  0.00000000E+00  0.00000000E+00
  0.00000000E+00  0.00000000E+00  0.00000000E+00
  0.00000000E+00  0.00000000E+00  0.00000000E+00
