Title                                   
   1.00000000000000     
     9.8694509999999998    0.0000000000000000    0.0000000000000000
     0.0000000000000000    8.5490480000000009    0.0000000000000000
     0.0000000000000000    0.0000000000000000   20.0000000000000000
    27     4     1
Selective dynamics
Direct
  0.0558301875730527  0.0916737125809582  0.0875051990078727   T   T   T
  0.9297978850268234  0.1750783019998957  0.0889814983052949   T   T   T
  0.0566213036630988  0.9232948866141019  0.0856372084648393   T   T   T
  0.9296097437005704  0.3414841238746733  0.0922265670726839   T   T   T
  0.0561894420553964  0.5895826230268222  0.0886509351543154   T   T   T
  0.9320803358982882  0.6719572603741598  0.0874106668988130   T   T   T
  0.0555360397260899  0.4225576845376891  0.0922778326937011   T   T   T
  0.9317584057829813  0.8397429289511765  0.0858817339133330   T   T   T
  0.3053427647809302  0.0883496504859974  0.0892121902596699   T   T   T
  0.1817656726954103  0.1734896857356993  0.0903088761344795   T   T   T
  0.3070923080251087  0.9224983228306406  0.0888283604404923   T   T   T
  0.1809400400820181  0.3395891706338907  0.0946044511634610   T   T   T
  0.3050346485778946  0.5885745854845963  0.1007603295585998   T   T   T
  0.1808024190266634  0.6704378307070996  0.0898499872946187   T   T   T
  0.1821329690056635  0.8383473291791883  0.0874387830612500   T   T   T
  0.5565453899852313  0.0873255509001407  0.0941327031649784   T   T   T
  0.4305573178295611  0.1696666005482299  0.0942284231525342   T   T   T
  0.4306532305936397  0.3353931077456928  0.1033826561019594   T   T   T
  0.4303555198368856  0.8378985420105798  0.0975711152063619   T   T   T
  0.8066073075559459  0.0898372731574043  0.0875946016376377   T   T   T
  0.6809727920870997  0.1716495463678801  0.0921797699299234   T   T   T
  0.8065994809290689  0.9244762643088519  0.0871105955359448   T   T   T
  0.6789366531852430  0.3375428475514839  0.1002446680465774   T   T   T
  0.8063549110962571  0.5931182847482273  0.0936018074908181   T   T   T
  0.6845620691681150  0.8386384940124835  0.0933208034360231   T   T   T
  0.4227525285683615  0.6764866396824160  0.1133405695184891   T   T   T
  0.5546731088631955  0.4113409503618045  0.1163660005931603   T   T   T
  0.6898433912370628  0.6786604710414400  0.1012392523069103   T   T   T
  0.5574523843245821  0.9186949326268626  0.0952491176943167   T   T   T
  0.3057557731460342  0.4210939148967845  0.1011925763205691   T   T   T
  0.8033002216755786  0.4252951663137802  0.0958359752401460   T   T   T
  0.5631827542981535  0.5964693167093520  0.1695097452002412   T   T   T
 
  0.00000000E+00  0.00000000E+00  0.00000000E+00
  0.00000000E+00  0.00000000E+00  0.00000000E+00
  0.00000000E+00  0.00000000E+00  0.00000000E+00
  0.00000000E+00  0.00000000E+00  0.00000000E+00
  0.00000000E+00  0.00000000E+00  0.00000000E+00
  0.00000000E+00  0.00000000E+00  0.00000000E+00
  0.00000000E+00  0.00000000E+00  0.00000000E+00
  0.00000000E+00  0.00000000E+00  0.00000000E+00
  0.00000000E+00  0.00000000E+00  0.00000000E+00
  0.00000000E+00  0.00000000E+00  0.00000000E+00
  0.00000000E+00  0.00000000E+00  0.00000000E+00
  0.00000000E+00  0.00000000E+00  0.00000000E+00
  0.00000000E+00  0.00000000E+00  0.00000000E+00
  0.00000000E+00  0.00000000E+00  0.00000000E+00
  0.00000000E+00  0.00000000E+00  0.00000000E+00
  0.00000000E+00  0.00000000E+00  0.00000000E+00
  0.00000000E+00  0.00000000E+00  0.00000000E+00
  0.00000000E+00  0.00000000E+00  0.00000000E+00
  0.00000000E+00  0.00000000E+00  0.00000000E+00
  0.00000000E+00  0.00000000E+00  0.00000000E+00
  0.00000000E+00  0.00000000E+00  0.00000000E+00
  0.00000000E+00  0.00000000E+00  0.00000000E+00
  0.00000000E+00  0.00000000E+00  0.00000000E+00
  0.00000000E+00  0.00000000E+00  0.00000000E+00
  0.00000000E+00  0.00000000E+00  0.00000000E+00
  0.00000000E+00  0.00000000E+00  0.00000000E+00
  0.00000000E+00  0.00000000E+00  0.00000000E+00
  0.00000000E+00  0.00000000E+00  0.00000000E+00
  0.00000000E+00  0.00000000E+00  0.00000000E+00
  0.00000000E+00  0.00000000E+00  0.00000000E+00
  0.00000000E+00  0.00000000E+00  0.00000000E+00
  0.00000000E+00  0.00000000E+00  0.00000000E+00
