Title                                   
   1.00000000000000     
     4.9440799999999996    0.0000000000000000    0.0000000000000000
     0.0000000000000000    8.5647549999999999    0.0000000000000000
     0.0000000000000000    0.0000000000000000   20.0000000000000000
    12     2     1
Selective dynamics
Direct
  0.2500000000000000  0.2061280665758121  0.0998228343364332   T   T   T
 -0.0000944971608575  0.2917073427751420  0.0997631486382431   T   T   T
  0.2500000000000000  0.0371296217134079  0.0997485685115747   T   T   T
 -0.0032095155887324  0.9557202877633513  0.0995957918022423   T   T   T
  0.7500000000000000  0.2082984126277233  0.0988647917846828   T   T   T
  0.5000944971608579  0.2917073427751420  0.0997631486382431   T   T   T
  0.7500000000000000  0.0407742985407198  0.0987346562382503   T   T   T
  0.7500000000000000  0.7181631677783478  0.1001745062937780   T   T   T
  0.7500000000000000  0.5408065451239418  0.1000392821492138   T   T   T
  0.5032095155887325  0.9557202877633513  0.0995957918022423   T   T   T
  0.5043143714921365  0.4584440716265771  0.1010923347258806   T   T   T
 -0.0043143714921368  0.4584440716265771  0.1010923347258806   T   T   T
 -0.0135139171134183  0.7939193498226516  0.1006211302030940   T   T   T
  0.5135139171134183  0.7939193498226516  0.1006211302030940   T   T   T
  0.2500000000000000  0.6207987836646074  0.1084505499471505   T   T   T
 
  0.00000000E+00  0.00000000E+00  0.00000000E+00
  0.00000000E+00  0.00000000E+00  0.00000000E+00
  0.00000000E+00  0.00000000E+00  0.00000000E+00
  0.00000000E+00  0.00000000E+00  0.00000000E+00
  0.00000000E+00  0.00000000E+00  0.00000000E+00
  0.00000000E+00  0.00000000E+00  0.00000000E+00
  0.00000000E+00  0.00000000E+00  0.00000000E+00
  0.00000000E+00  0.00000000E+00  0.00000000E+00
  0.00000000E+00  0.00000000E+00  0.00000000E+00
  0.00000000E+00  0.00000000E+00  0.00000000E+00
  0.00000000E+00  0.00000000E+00  0.00000000E+00
  0.00000000E+00  0.00000000E+00  0.00000000E+00
  0.00000000E+00  0.00000000E+00  0.00000000E+00
  0.00000000E+00  0.00000000E+00  0.00000000E+00
  0.00000000E+00  0.00000000E+00  0.00000000E+00
