Title                                   
   1.00000000000000     
     9.8694509999999998    0.0000000000000000    0.0000000000000000
     0.0000000000000000    8.5490480000000009    0.0000000000000000
     0.0000000000000000    0.0000000000000000   20.0000000000000000
    26     4     1
Selective dynamics
Direct
  0.0549269974654019  0.0894881164524566  0.0869040991314673   T   T   T
  0.9299965167936316  0.1734398259103253  0.0866882334016289   T   T   T
  0.0574348101128412  0.9235228694779687  0.0872800630712492   T   T   T
  0.9323962852267694  0.3414120598712524  0.0859897177761564   T   T   T
  0.0569620394009543  0.5898245553672494  0.0850860512157363   T   T   T
  0.9332203708325828  0.6744162597726986  0.0872064257708326   T   T   T
  0.0570895775653671  0.4231279138564239  0.0849543048908239   T   T   T
  0.9324556487108941  0.8413006207601088  0.0884279089815105   T   T   T
  0.3061214834295062  0.0867509639715309  0.0940622995908832   T   T   T
  0.1813203714199453  0.1701564930928122  0.0894900513335942   T   T   T
  0.1808022649321853  0.3369932537011217  0.0888227772504927   T   T   T
  0.3045689519136189  0.5866069217721949  0.0959282889635702   T   T   T
  0.1818578705070122  0.6723585288949483  0.0882054423318966   T   T   T
  0.3029898622427700  0.4171881206183976  0.0973362360238509   T   T   T
  0.1829467640782229  0.8390896922318910  0.0888648888520294   T   T   T
  0.4291652524599059  0.1741793216018515  0.1016749228981250   T   T   T
  0.5556863114450993  0.9217638647356976  0.1016026919887766   T   T   T
  0.4257469955647369  0.6716478962158131  0.1054764339657057   T   T   T
  0.4302389480668505  0.8364998266867596  0.1004956834056297   T   T   T
  0.8036248881946406  0.0901691744229598  0.0903082803612538   T   T   T
  0.6796994042048341  0.1785951321114052  0.0956945816282278   T   T   T
  0.8063752975589626  0.9235677014631254  0.0920500379198632   T   T   T
  0.6840351812615705  0.3426390319633310  0.0979461515726100   T   T   T
  0.8100757100962717  0.5943310195236107  0.0931308043276479   T   T   T
  0.8087520843826633  0.4250122146846195  0.0907845287535160   T   T   T
  0.6823706315942397  0.8368354623344559  0.0998563783342677   T   T   T
  0.5548842395660747  0.0928256319342779  0.1008270825638089   T   T   T
  0.4227083236201040  0.3337993989684253  0.1089624540579648   T   T   T
  0.6896213241911997  0.6745190906540037  0.1047671231884969   T   T   T
  0.3065791196624070  0.9219886735626386  0.0930627170844931   T   T   T
  0.5584814734987386  0.5068253633856721  0.1290783393639249   T   T   T
 
  0.00000000E+00  0.00000000E+00  0.00000000E+00
  0.00000000E+00  0.00000000E+00  0.00000000E+00
  0.00000000E+00  0.00000000E+00  0.00000000E+00
  0.00000000E+00  0.00000000E+00  0.00000000E+00
  0.00000000E+00  0.00000000E+00  0.00000000E+00
  0.00000000E+00  0.00000000E+00  0.00000000E+00
  0.00000000E+00  0.00000000E+00  0.00000000E+00
  0.00000000E+00  0.00000000E+00  0.00000000E+00
  0.00000000E+00  0.00000000E+00  0.00000000E+00
  0.00000000E+00  0.00000000E+00  0.00000000E+00
  0.00000000E+00  0.00000000E+00  0.00000000E+00
  0.00000000E+00  0.00000000E+00  0.00000000E+00
  0.00000000E+00  0.00000000E+00  0.00000000E+00
  0.00000000E+00  0.00000000E+00  0.00000000E+00
  0.00000000E+00  0.00000000E+00  0.00000000E+00
  0.00000000E+00  0.00000000E+00  0.00000000E+00
  0.00000000E+00  0.00000000E+00  0.00000000E+00
  0.00000000E+00  0.00000000E+00  0.00000000E+00
  0.00000000E+00  0.00000000E+00  0.00000000E+00
  0.00000000E+00  0.00000000E+00  0.00000000E+00
  0.00000000E+00  0.00000000E+00  0.00000000E+00
  0.00000000E+00  0.00000000E+00  0.00000000E+00
  0.00000000E+00  0.00000000E+00  0.00000000E+00
  0.00000000E+00  0.00000000E+00  0.00000000E+00
  0.00000000E+00  0.00000000E+00  0.00000000E+00
  0.00000000E+00  0.00000000E+00  0.00000000E+00
  0.00000000E+00  0.00000000E+00  0.00000000E+00
  0.00000000E+00  0.00000000E+00  0.00000000E+00
  0.00000000E+00  0.00000000E+00  0.00000000E+00
  0.00000000E+00  0.00000000E+00  0.00000000E+00
  0.00000000E+00  0.00000000E+00  0.00000000E+00
