Title                                   
   1.00000000000000     
     4.9440799999999996    0.0000000000000000    0.0000000000000000
     0.0000000000000000   17.1295089999999988    0.0000000000000000
     0.0000000000000000    0.0000000000000000   20.0000000000000000
    26     4     1
Selective dynamics
Direct
  0.0028200966917360  0.1060422273824724  0.2944427523554382   T   T   T
  0.2526220152105183  0.1487316520629277  0.2959850687130313   T   T   T
  0.2539500134103672  0.2337791491786425  0.2987620959585390   T   T   T
  0.0007371005561475  0.2745418032629845  0.2960014329528801   T   T   T
 -0.0023059201681379  0.6009457681617606  0.2965240059705249   T   T   T
  0.2490003195158535  0.7261688318571952  0.2960571072149548   T   T   T
  0.0017148872559335  0.8528662886620343  0.2940533502864370   T   T   T
  0.2506575202306834  0.8951151324210433  0.2942761022662992   T   T   T
  0.2512868451169419  0.9794913794136696  0.2942752576145984   T   T   T
  0.0014222501977068  0.7683974649608298  0.2945144552503933   T   T   T
  0.5011299086139210  0.1058493568840836  0.2953953411122890   T   T   T
  0.7516996654116628  0.1479377782793669  0.2950359444550933   T   T   T
  0.7522276553720482  0.2314475570986699  0.2966632985050449   T   T   T
  0.5010455619626848  0.0216148230266165  0.2945525374045434   T   T   T
  0.7571641973424533  0.3950124249866179  0.3041176800152536   T   T   T
  0.7556036541541185  0.4800398608622018  0.3065859933613058   T   T   T
  0.5064226962413185  0.2754854619569637  0.3029250995175280   T   T   T
  0.4994757345276520  0.5999251821262144  0.3035830963199501   T   T   T
  0.7501795847495133  0.7268023528602401  0.2948468042455516   T   T   T
  0.4992388744240048  0.8525923243352459  0.2945192380186370   T   T   T
  0.7506576545488222  0.8948920507029750  0.2940683602751447   T   T   T
  0.7511910924345150  0.9791373217214264  0.2940802100996218   T   T   T
  0.4983156555942515  0.7682651611133624  0.2953194939960179   T   T   T
  0.7488468742397855  0.6443483521425614  0.2960080302377638   T   T   T
  0.0017809223683265  0.0217354437678197  0.2940503783187812   T   T   T
  0.5062655255472641  0.5203569205529939  0.3173510857195156   T   T   T
  0.9985773126221651  0.5219638208013020  0.2964273721468453   T   T   T
  0.5154429923705038  0.3550831119536924  0.3150331784812944   T   T   T
 -0.0062901328691232  0.3544887685533340  0.2929094871556387   T   T   T
  0.2472815073809377  0.6422659541313226  0.2989575541063056   T   T   T
  0.2118449349454256  0.4360182747794271  0.3477381879247298   T   T   T
 
  0.00000000E+00  0.00000000E+00  0.00000000E+00
  0.00000000E+00  0.00000000E+00  0.00000000E+00
  0.00000000E+00  0.00000000E+00  0.00000000E+00
  0.00000000E+00  0.00000000E+00  0.00000000E+00
  0.00000000E+00  0.00000000E+00  0.00000000E+00
  0.00000000E+00  0.00000000E+00  0.00000000E+00
  0.00000000E+00  0.00000000E+00  0.00000000E+00
  0.00000000E+00  0.00000000E+00  0.00000000E+00
  0.00000000E+00  0.00000000E+00  0.00000000E+00
  0.00000000E+00  0.00000000E+00  0.00000000E+00
  0.00000000E+00  0.00000000E+00  0.00000000E+00
  0.00000000E+00  0.00000000E+00  0.00000000E+00
  0.00000000E+00  0.00000000E+00  0.00000000E+00
  0.00000000E+00  0.00000000E+00  0.00000000E+00
  0.00000000E+00  0.00000000E+00  0.00000000E+00
  0.00000000E+00  0.00000000E+00  0.00000000E+00
  0.00000000E+00  0.00000000E+00  0.00000000E+00
  0.00000000E+00  0.00000000E+00  0.00000000E+00
  0.00000000E+00  0.00000000E+00  0.00000000E+00
  0.00000000E+00  0.00000000E+00  0.00000000E+00
  0.00000000E+00  0.00000000E+00  0.00000000E+00
  0.00000000E+00  0.00000000E+00  0.00000000E+00
  0.00000000E+00  0.00000000E+00  0.00000000E+00
  0.00000000E+00  0.00000000E+00  0.00000000E+00
  0.00000000E+00  0.00000000E+00  0.00000000E+00
  0.00000000E+00  0.00000000E+00  0.00000000E+00
  0.00000000E+00  0.00000000E+00  0.00000000E+00
  0.00000000E+00  0.00000000E+00  0.00000000E+00
  0.00000000E+00  0.00000000E+00  0.00000000E+00
  0.00000000E+00  0.00000000E+00  0.00000000E+00
  0.00000000E+00  0.00000000E+00  0.00000000E+00
