Title                                   
   1.00000000000000     
     4.9440799999999996    0.0000000000000000    0.0000000000000000
     0.0000000000000000   17.1295089999999988    0.0000000000000000
     0.0000000000000000    0.0000000000000000   20.0000000000000000
    29     2     1
Selective dynamics
Direct
  0.0001882451990364  0.1037691701470642  0.2804332385523316   T   T   T
  0.2498739895221479  0.1456481494447791  0.2832821889515621   T   T   T
  0.2499320643539025  0.2284653441627441  0.2917894522849374   T   T   T
  0.0075751752845246  0.3505711353891803  0.3108133409936598   T   T   T
 -0.0019039420919109  0.2694265707403152  0.2969537967773618   T   T   T
 -0.0037977869419266  0.6057133129780706  0.3156573559450115   T   T   T
  0.2498467733721162  0.7289139939008258  0.2979091536264115   T   T   T
  0.0002729579681239  0.8538896106164169  0.2841799451440607   T   T   T
  0.2498933752769262  0.8957238881744530  0.2814990110205390   T   T   T
  0.2499180399084310  0.9787704352437726  0.2782706274379580   T   T   T
  0.0003509430881034  0.7711923793482675  0.2919780481732916   T   T   T
  0.4995518580365316  0.1037643915623572  0.2804395716773028   T   T   T
  0.7498814837796590  0.1454823769246421  0.2830322217179057   T   T   T
  0.7499241704410560  0.2276677193750854  0.2910566210706539   T   T   T
  0.4998219326815236  0.0206640214796925  0.2779585212433706   T   T   T
  0.4923200280346814  0.3505646837508390  0.3108161751166334   T   T   T
  0.7499301716683093  0.4781242627992411  0.3230560624524070   T   T   T
  0.5016912245320242  0.2694278565468524  0.2969491063698815   T   T   T
  0.5035883202294289  0.6057150965871549  0.3156680627284042   T   T   T
  0.7498569951054473  0.7303336838724955  0.2961955073719197   T   T   T
  0.4995613935839033  0.8538800545367157  0.2841731985580938   T   T   T
  0.7498943804931190  0.8955842366852367  0.2811707641016840   T   T   T
  0.7498903232394586  0.9787574418814817  0.2780847670457698   T   T   T
  0.4993539694604442  0.7711912712696268  0.2919758136291286   T   T   T
  0.7498828095213578  0.6484874727998988  0.3076087797006571   T   T   T
  0.2498940353401126  0.6470228221173118  0.3103561364314417   T   T   T
  0.0000049471030148  0.0206621888691198  0.2779546677180305   T   T   T
  0.5150348854864059  0.5246293384261226  0.3273268795802226   T   T   T
  0.9848083771920362  0.5246302526073934  0.3273113327392215   T   T   T
  0.2499661751799024  0.3865147229541840  0.3193771289228882   T   T   T
  0.7499292539702858  0.3936611212428172  0.3175411330452561   T   T   T
  0.2498864299818307  0.4897019935658373  0.4117463898719571   T   T   T
 
  0.00000000E+00  0.00000000E+00  0.00000000E+00
  0.00000000E+00  0.00000000E+00  0.00000000E+00
  0.00000000E+00  0.00000000E+00  0.00000000E+00
  0.00000000E+00  0.00000000E+00  0.00000000E+00
  0.00000000E+00  0.00000000E+00  0.00000000E+00
  0.00000000E+00  0.00000000E+00  0.00000000E+00
  0.00000000E+00  0.00000000E+00  0.00000000E+00
  0.00000000E+00  0.00000000E+00  0.00000000E+00
  0.00000000E+00  0.00000000E+00  0.00000000E+00
  0.00000000E+00  0.00000000E+00  0.00000000E+00
  0.00000000E+00  0.00000000E+00  0.00000000E+00
  0.00000000E+00  0.00000000E+00  0.00000000E+00
  0.00000000E+00  0.00000000E+00  0.00000000E+00
  0.00000000E+00  0.00000000E+00  0.00000000E+00
  0.00000000E+00  0.00000000E+00  0.00000000E+00
  0.00000000E+00  0.00000000E+00  0.00000000E+00
  0.00000000E+00  0.00000000E+00  0.00000000E+00
  0.00000000E+00  0.00000000E+00  0.00000000E+00
  0.00000000E+00  0.00000000E+00  0.00000000E+00
  0.00000000E+00  0.00000000E+00  0.00000000E+00
  0.00000000E+00  0.00000000E+00  0.00000000E+00
  0.00000000E+00  0.00000000E+00  0.00000000E+00
  0.00000000E+00  0.00000000E+00  0.00000000E+00
  0.00000000E+00  0.00000000E+00  0.00000000E+00
  0.00000000E+00  0.00000000E+00  0.00000000E+00
  0.00000000E+00  0.00000000E+00  0.00000000E+00
  0.00000000E+00  0.00000000E+00  0.00000000E+00
  0.00000000E+00  0.00000000E+00  0.00000000E+00
  0.00000000E+00  0.00000000E+00  0.00000000E+00
  0.00000000E+00  0.00000000E+00  0.00000000E+00
  0.00000000E+00  0.00000000E+00  0.00000000E+00
  0.00000000E+00  0.00000000E+00  0.00000000E+00
