Title                                   
   1.00000000000000     
     9.8694509999999998    0.0000000000000000    0.0000000000000000
     0.0000000000000000    8.5490480000000009    0.0000000000000000
     0.0000000000000000    0.0000000000000000   20.0000000000000000
    24     6     1
Selective dynamics
Direct
  0.0561690780951363  0.0903542061413748  0.0875567368226131   T   T   T
  0.9312830664276764  0.1721992009909014  0.0888591433483061   T   T   T
  0.0572974391479175  0.9223881762603443  0.0876574108611821   T   T   T
  0.9327069137391064  0.3395348631507698  0.0877329147719984   T   T   T
  0.0566876684927086  0.5895315837135101  0.0839610544190481   T   T   T
  0.9328608439220388  0.6723676534101372  0.0878860570006594   T   T   T
  0.0567962067977668  0.4228940781450068  0.0840132102953872   T   T   T
  0.9320408119550286  0.8397864281866274  0.0891228867362834   T   T   T
  0.3079916720163583  0.0883110656195345  0.0932177556739146   T   T   T
  0.1812971427558394  0.1714477427198761  0.0888293904361359   T   T   T
  0.1805074696711771  0.3386291761030960  0.0874365976608948   T   T   T
  0.3022201552540867  0.5901366711670686  0.0959226474412402   T   T   T
  0.1808158020645138  0.6735965357346766  0.0871699274735872   T   T   T
  0.3024512086753973  0.4217615932756639  0.0959909757335383   T   T   T
  0.1812362594504093  0.8403885341457686  0.0887996815516476   T   T   T
  0.4283787163992262  0.1742028735062068  0.1017690649977885   T   T   T
  0.5547156092758319  0.9201113160983517  0.1043048939964998   T   T   T
  0.4281994558512817  0.8389068802556362  0.1029669887781574   T   T   T
  0.8047530844795149  0.0895213596361651  0.0929031305784644   T   T   T
  0.6829364182256025  0.1759282281372424  0.1011772566586018   T   T   T
  0.8058776574144991  0.9219305516920826  0.0934687389135485   T   T   T
  0.8106339626465831  0.5902705320131800  0.0965621949318159   T   T   T
  0.8105905063850691  0.4212853867340474  0.0961442696091771   T   T   T
  0.6833362789628366  0.8369969993808718  0.1026583122686395   T   T   T
  0.5570628610784869  0.0951723568605522  0.1039151585703357   T   T   T
  0.4209292227223043  0.3355956651246694  0.1108183735638184   T   T   T
  0.4194157499301966  0.6774609937127817  0.1117947357920164   T   T   T
  0.6905391877245831  0.3367423308284305  0.1095436513780779   T   T   T
  0.6917775900787090  0.6745159841309245  0.1105464711377894   T   T   T
  0.3061958213764606  0.9224432173685874  0.0929306411058936   T   T   T
  0.5554321389836533  0.5064628157559121  0.1353047274929970   T   T   T
 
  0.00000000E+00  0.00000000E+00  0.00000000E+00
  0.00000000E+00  0.00000000E+00  0.00000000E+00
  0.00000000E+00  0.00000000E+00  0.00000000E+00
  0.00000000E+00  0.00000000E+00  0.00000000E+00
  0.00000000E+00  0.00000000E+00  0.00000000E+00
  0.00000000E+00  0.00000000E+00  0.00000000E+00
  0.00000000E+00  0.00000000E+00  0.00000000E+00
  0.00000000E+00  0.00000000E+00  0.00000000E+00
  0.00000000E+00  0.00000000E+00  0.00000000E+00
  0.00000000E+00  0.00000000E+00  0.00000000E+00
  0.00000000E+00  0.00000000E+00  0.00000000E+00
  0.00000000E+00  0.00000000E+00  0.00000000E+00
  0.00000000E+00  0.00000000E+00  0.00000000E+00
  0.00000000E+00  0.00000000E+00  0.00000000E+00
  0.00000000E+00  0.00000000E+00  0.00000000E+00
  0.00000000E+00  0.00000000E+00  0.00000000E+00
  0.00000000E+00  0.00000000E+00  0.00000000E+00
  0.00000000E+00  0.00000000E+00  0.00000000E+00
  0.00000000E+00  0.00000000E+00  0.00000000E+00
  0.00000000E+00  0.00000000E+00  0.00000000E+00
  0.00000000E+00  0.00000000E+00  0.00000000E+00
  0.00000000E+00  0.00000000E+00  0.00000000E+00
  0.00000000E+00  0.00000000E+00  0.00000000E+00
  0.00000000E+00  0.00000000E+00  0.00000000E+00
  0.00000000E+00  0.00000000E+00  0.00000000E+00
  0.00000000E+00  0.00000000E+00  0.00000000E+00
  0.00000000E+00  0.00000000E+00  0.00000000E+00
  0.00000000E+00  0.00000000E+00  0.00000000E+00
  0.00000000E+00  0.00000000E+00  0.00000000E+00
  0.00000000E+00  0.00000000E+00  0.00000000E+00
  0.00000000E+00  0.00000000E+00  0.00000000E+00
