Title                                   
   1.00000000000000     
     4.9440799999999996    0.0000000000000000    0.0000000000000000
     0.0000000000000000   17.1295089999999988    0.0000000000000000
     0.0000000000000000    0.0000000000000000   20.0000000000000000
    27     4     1
Selective dynamics
Direct
 -0.0013918514272460  0.1052691597474703  0.2862778528473386   T   T   T
  0.2480469943258328  0.1473297605338190  0.2900540807370364   T   T   T
  0.2467569435349575  0.2305789059304980  0.3003434063157277   T   T   T
  0.0006664095752465  0.3519466885059108  0.3226699497544520   T   T   T
 -0.0060231199824613  0.2718017772552022  0.3049502871668575   T   T   T
 -0.0008987484907837  0.6011246640817637  0.3006511908200086   T   T   T
  0.2535864849717480  0.7263629884001158  0.2905195139343606   T   T   T
  0.0030189365369652  0.8532330297839414  0.2827408501704381   T   T   T
  0.2519145858231561  0.8954978113910034  0.2820072828579710   T   T   T
  0.2504131220845295  0.9794692212513160  0.2817858756978676   T   T   T
  0.0045681127755686  0.7693041501753312  0.2865229360186790   T   T   T
  0.4981890086883299  0.1052208571694467  0.2863854334438710   T   T   T
  0.7478278436783397  0.1473695041726294  0.2888572667853025   T   T   T
  0.7462672961315179  0.2299984166836681  0.2970136830357213   T   T   T
  0.4999845685848150  0.0215074474761531  0.2825482961311644   T   T   T
  0.4889953628935475  0.3524653600207169  0.3234561689139139   T   T   T
  0.7526135637293953  0.4849524680085187  0.3195283354597275   T   T   T
  0.4983296461036246  0.2720110739879633  0.3054504277251586   T   T   T
  0.5110198221523352  0.6033179790842490  0.3075245223909007   T   T   T
  0.7538815902196307  0.7283339257318632  0.2893525271294918   T   T   T
  0.5016093099972890  0.8532325182932746  0.2832107236466756   T   T   T
  0.7518975808544811  0.8952462365335704  0.2817946323785408   T   T   T
  0.7504245573188710  0.9792005461342423  0.2814712398183450   T   T   T
  0.5023441769755174  0.7693166060270397  0.2874258084281633   T   T   T
  0.7551563948444451  0.6452557010911902  0.2972470302517058   T   T   T
  0.2545452287501852  0.6420290812949925  0.2993134925548794   T   T   T
 -0.0000998039493275  0.0215436376603986  0.2824473673471964   T   T   T
  0.5260116249648324  0.5268050904171290  0.3301085714503708   T   T   T
  0.9876803277411214  0.5198624481997360  0.3030324448755489   T   T   T
  0.2436702172696020  0.3842580143399154  0.3394266907598468   T   T   T
  0.7454999334996452  0.3985184136371869  0.3263100240294180   T   T   T
  0.2303168798242951  0.4861875169797360  0.3821370871232712   T   T   T
 
  0.00000000E+00  0.00000000E+00  0.00000000E+00
  0.00000000E+00  0.00000000E+00  0.00000000E+00
  0.00000000E+00  0.00000000E+00  0.00000000E+00
  0.00000000E+00  0.00000000E+00  0.00000000E+00
  0.00000000E+00  0.00000000E+00  0.00000000E+00
  0.00000000E+00  0.00000000E+00  0.00000000E+00
  0.00000000E+00  0.00000000E+00  0.00000000E+00
  0.00000000E+00  0.00000000E+00  0.00000000E+00
  0.00000000E+00  0.00000000E+00  0.00000000E+00
  0.00000000E+00  0.00000000E+00  0.00000000E+00
  0.00000000E+00  0.00000000E+00  0.00000000E+00
  0.00000000E+00  0.00000000E+00  0.00000000E+00
  0.00000000E+00  0.00000000E+00  0.00000000E+00
  0.00000000E+00  0.00000000E+00  0.00000000E+00
  0.00000000E+00  0.00000000E+00  0.00000000E+00
  0.00000000E+00  0.00000000E+00  0.00000000E+00
  0.00000000E+00  0.00000000E+00  0.00000000E+00
  0.00000000E+00  0.00000000E+00  0.00000000E+00
  0.00000000E+00  0.00000000E+00  0.00000000E+00
  0.00000000E+00  0.00000000E+00  0.00000000E+00
  0.00000000E+00  0.00000000E+00  0.00000000E+00
  0.00000000E+00  0.00000000E+00  0.00000000E+00
  0.00000000E+00  0.00000000E+00  0.00000000E+00
  0.00000000E+00  0.00000000E+00  0.00000000E+00
  0.00000000E+00  0.00000000E+00  0.00000000E+00
  0.00000000E+00  0.00000000E+00  0.00000000E+00
  0.00000000E+00  0.00000000E+00  0.00000000E+00
  0.00000000E+00  0.00000000E+00  0.00000000E+00
  0.00000000E+00  0.00000000E+00  0.00000000E+00
  0.00000000E+00  0.00000000E+00  0.00000000E+00
  0.00000000E+00  0.00000000E+00  0.00000000E+00
  0.00000000E+00  0.00000000E+00  0.00000000E+00
