Title                                   
   1.00000000000000     
     4.9440799999999996    0.0000000000000000    0.0000000000000000
     0.0000000000000000    8.5647549999999999    0.0000000000000000
     0.0000000000000000    0.0000000000000000   20.0000000000000000
    11     4     1
Selective dynamics
Direct
 -0.0040670636204749  0.2913054034245394  0.0922869461702390   T   T   T
  0.2500000000000000  0.0438665118695762  0.0885527375140590   T   T   T
  0.0025049920440950  0.7959420569789191  0.0995299260463143   T   T   T
  0.0000269447203552  0.9608733069223816  0.0882115216797451   T   T   T
  0.7500000000000000  0.2062005647526100  0.0846772276850159   T   T   T
  0.5040670636204748  0.2913054034245394  0.0922869461702390   T   T   T
  0.7500000000000000  0.0413873949465789  0.0825252764078575   T   T   T
  0.7500000000000000  0.7038298411223546  0.1031825850635817   T   T   T
  0.4974950079559051  0.7959420569789191  0.0995299260463143   T   T   T
  0.7500000000000000  0.5323800014183361  0.1070050168951186   T   T   T
  0.4999730552796449  0.9608733069223816  0.0882115216797451   T   T   T
  0.5120246744579645  0.4464516678915059  0.1085481508155610   T   T   T
 -0.0120246744579647  0.4464516678915059  0.1085481508155610   T   T   T
  0.2500000000000000  0.7274599458940332  0.1121910486913587   T   T   T
  0.2500000000000000  0.2126838803135885  0.0895674390654340   T   T   T
  0.2500000000000000  0.5430469892482300  0.1676575792538649   T   T   T
 
  0.00000000E+00  0.00000000E+00  0.00000000E+00
  0.00000000E+00  0.00000000E+00  0.00000000E+00
  0.00000000E+00  0.00000000E+00  0.00000000E+00
  0.00000000E+00  0.00000000E+00  0.00000000E+00
  0.00000000E+00  0.00000000E+00  0.00000000E+00
  0.00000000E+00  0.00000000E+00  0.00000000E+00
  0.00000000E+00  0.00000000E+00  0.00000000E+00
  0.00000000E+00  0.00000000E+00  0.00000000E+00
  0.00000000E+00  0.00000000E+00  0.00000000E+00
  0.00000000E+00  0.00000000E+00  0.00000000E+00
  0.00000000E+00  0.00000000E+00  0.00000000E+00
  0.00000000E+00  0.00000000E+00  0.00000000E+00
  0.00000000E+00  0.00000000E+00  0.00000000E+00
  0.00000000E+00  0.00000000E+00  0.00000000E+00
  0.00000000E+00  0.00000000E+00  0.00000000E+00
  0.00000000E+00  0.00000000E+00  0.00000000E+00
