Title                                   
   1.00000000000000     
     8.5490480000000009    0.0000000000000000    0.0000000000000000
     0.0000000000000000    8.5490480000000009    0.0000000000000000
     0.0000000000000000    0.0000000000000000   20.0000000000000000
    22     2     1
Selective dynamics
Direct
  0.9100430343350440  0.2048408901717315  0.0954521822736512   T   T   T
  0.9030827224340616  0.5017666786123584  0.0952970974318049   T   T   T
  0.9100404205550782  0.7986650795985403  0.0954673037201611   T   T   T
  0.1984348952242059  0.0843192236824688  0.0954834786933254   T   T   T
  0.0759368112438143  0.2065312978083069  0.0954663099415903   T   T   T
  0.1984150910793385  0.9192370113992584  0.0954909992977552   T   T   T
  0.1538129532946742  0.6482838230369095  0.0953904317050648   T   T   T
  0.0723760032805571  0.5017610962741018  0.0953498039630207   T   T   T
  0.1538743037279935  0.3552658357004868  0.0953878028197146   T   T   T
  0.0759245826313776  0.7969834943155720  0.0954721079964522   T   T   T
  0.4949889297318885  0.0866716734626659  0.0953781840095233   T   T   T
  0.3477737726194506  0.1657068313367467  0.0954086762253499   T   T   T
  0.4949894485606093  0.9168876000695814  0.0953746717419908   T   T   T
  0.3477404942826407  0.8379258080504027  0.0954166719022900   T   T   T
  0.7903052286047818  0.0851351544306385  0.0954672053188641   T   T   T
  0.6432652708327143  0.1652440936096141  0.0953240115615421   T   T   T
  0.7903071619356459  0.9183976046111076  0.0954726815992274   T   T   T
  0.8267283539625033  0.6509483174338275  0.0953117035639653   T   T   T
  0.8266939832823895  0.3525684145477234  0.0952895221623773   T   T   T
  0.6432580176011329  0.8383262234805804  0.0953312304383551   T   T   T
  0.3234855272320293  0.3342451837467424  0.0952744533693548   T   T   T
  0.3233989851110779  0.6694133355569408  0.0952841900182054   T   T   T
  0.6660935168647165  0.3275610250241706  0.0951375454195783   T   T   T
  0.6661030644875630  0.6760054309086043  0.0951514678955623   T   T   T
  0.4883394270847045  0.5020988731309330  0.0948252669312512   T   T   T
 
  0.00000000E+00  0.00000000E+00  0.00000000E+00
  0.00000000E+00  0.00000000E+00  0.00000000E+00
  0.00000000E+00  0.00000000E+00  0.00000000E+00
  0.00000000E+00  0.00000000E+00  0.00000000E+00
  0.00000000E+00  0.00000000E+00  0.00000000E+00
  0.00000000E+00  0.00000000E+00  0.00000000E+00
  0.00000000E+00  0.00000000E+00  0.00000000E+00
  0.00000000E+00  0.00000000E+00  0.00000000E+00
  0.00000000E+00  0.00000000E+00  0.00000000E+00
  0.00000000E+00  0.00000000E+00  0.00000000E+00
  0.00000000E+00  0.00000000E+00  0.00000000E+00
  0.00000000E+00  0.00000000E+00  0.00000000E+00
  0.00000000E+00  0.00000000E+00  0.00000000E+00
  0.00000000E+00  0.00000000E+00  0.00000000E+00
  0.00000000E+00  0.00000000E+00  0.00000000E+00
  0.00000000E+00  0.00000000E+00  0.00000000E+00
  0.00000000E+00  0.00000000E+00  0.00000000E+00
  0.00000000E+00  0.00000000E+00  0.00000000E+00
  0.00000000E+00  0.00000000E+00  0.00000000E+00
  0.00000000E+00  0.00000000E+00  0.00000000E+00
  0.00000000E+00  0.00000000E+00  0.00000000E+00
  0.00000000E+00  0.00000000E+00  0.00000000E+00
  0.00000000E+00  0.00000000E+00  0.00000000E+00
  0.00000000E+00  0.00000000E+00  0.00000000E+00
  0.00000000E+00  0.00000000E+00  0.00000000E+00
