Title                                   
   1.00000000000000     
     9.8694509999999998    0.0000000000000000    0.0000000000000000
     0.0000000000000000    8.5490480000000009    0.0000000000000000
     0.0000000000000000    0.0000000000000000   20.0000000000000000
    28     3     1
Selective dynamics
Direct
  0.0557817283991480  0.0893157790903668  0.0819515520379177   T   T   T
  0.9311629239948519  0.1733707679304594  0.0825766229193593   T   T   T
  0.0571438608828845  0.9220910270988636  0.0831576065496437   T   T   T
  0.9309226468251733  0.3403322357795722  0.0851232959069713   T   T   T
  0.0564588099772200  0.5911133556745582  0.0853129523028097   T   T   T
  0.0561567435434095  0.4239232124015450  0.0847000000664487   T   T   T
  0.9322581576504014  0.8380722011796330  0.0854468965189408   T   T   T
  0.3055743300454742  0.0889738729874740  0.0872984263026440   T   T   T
  0.1819497312723528  0.1725396709097878  0.0844099445072841   T   T   T
  0.1815994446029935  0.3402020540850351  0.0868401228386655   T   T   T
  0.3030567070446226  0.5890010059104357  0.1019370974385903   T   T   T
  0.1810639520501150  0.6739785810866026  0.0892898124521361   T   T   T
  0.3063551160361895  0.4213000918404288  0.0981163069259676   T   T   T
  0.1825634118836072  0.8411182654671049  0.0868570686473770   T   T   T
  0.5555447066278730  0.0882530408877489  0.0918060687590821   T   T   T
  0.5544214477846183  0.9231454569974398  0.0992880522769278   T   T   T
  0.4298026268236247  0.3327691309437391  0.1035123847519637   T   T   T
  0.4268692303409638  0.8420487880072526  0.1045607303693995   T   T   T
  0.8065036056688113  0.0885796520987323  0.0845282192968159   T   T   T
  0.6805732993486490  0.1714917029304863  0.0893416663712738   T   T   T
  0.8068379496293101  0.9222751431202977  0.0877005723060708   T   T   T
  0.6825483573457543  0.3370503551527970  0.0996212943779429   T   T   T
  0.8107934345738964  0.5923240083498806  0.1003764278153315   T   T   T
  0.8069996150557827  0.4237535243102517  0.0953468071139079   T   T   T
  0.6825024980631617  0.8423322947010956  0.1004935057100773   T   T   T
  0.4169413322739576  0.6824034579064342  0.1212439410251632   T   T   T
  0.5557163806051645  0.4037757617346546  0.1188319337447461   T   T   T
  0.6951619460815059  0.6811541769327779  0.1181899459046206   T   T   T
  0.3057462258615818  0.9252081191569412  0.0897405528482343   T   T   T
  0.4290886491461380  0.1685244819156040  0.0921250762336032   T   T   T
  0.9328026898474634  0.6727019420623540  0.0873893553793892   T   T   T
  0.5587374407133064  0.5871228413496482  0.1785607603007107   T   T   T
 
  0.00000000E+00  0.00000000E+00  0.00000000E+00
  0.00000000E+00  0.00000000E+00  0.00000000E+00
  0.00000000E+00  0.00000000E+00  0.00000000E+00
  0.00000000E+00  0.00000000E+00  0.00000000E+00
  0.00000000E+00  0.00000000E+00  0.00000000E+00
  0.00000000E+00  0.00000000E+00  0.00000000E+00
  0.00000000E+00  0.00000000E+00  0.00000000E+00
  0.00000000E+00  0.00000000E+00  0.00000000E+00
  0.00000000E+00  0.00000000E+00  0.00000000E+00
  0.00000000E+00  0.00000000E+00  0.00000000E+00
  0.00000000E+00  0.00000000E+00  0.00000000E+00
  0.00000000E+00  0.00000000E+00  0.00000000E+00
  0.00000000E+00  0.00000000E+00  0.00000000E+00
  0.00000000E+00  0.00000000E+00  0.00000000E+00
  0.00000000E+00  0.00000000E+00  0.00000000E+00
  0.00000000E+00  0.00000000E+00  0.00000000E+00
  0.00000000E+00  0.00000000E+00  0.00000000E+00
  0.00000000E+00  0.00000000E+00  0.00000000E+00
  0.00000000E+00  0.00000000E+00  0.00000000E+00
  0.00000000E+00  0.00000000E+00  0.00000000E+00
  0.00000000E+00  0.00000000E+00  0.00000000E+00
  0.00000000E+00  0.00000000E+00  0.00000000E+00
  0.00000000E+00  0.00000000E+00  0.00000000E+00
  0.00000000E+00  0.00000000E+00  0.00000000E+00
  0.00000000E+00  0.00000000E+00  0.00000000E+00
  0.00000000E+00  0.00000000E+00  0.00000000E+00
  0.00000000E+00  0.00000000E+00  0.00000000E+00
  0.00000000E+00  0.00000000E+00  0.00000000E+00
  0.00000000E+00  0.00000000E+00  0.00000000E+00
  0.00000000E+00  0.00000000E+00  0.00000000E+00
  0.00000000E+00  0.00000000E+00  0.00000000E+00
  0.00000000E+00  0.00000000E+00  0.00000000E+00
