Title                                   
   1.00000000000000     
     8.5490480000000009    0.0000000000000000    0.0000000000000000
     0.0000000000000000    8.5490480000000009    0.0000000000000000
     0.0000000000000000    0.0000000000000000   20.0000000000000000
    22     2     1
Selective dynamics
Direct
  0.9098507582080592  0.2052319263289842  0.0954189552021864   T   T   T
  0.9052753432501354  0.5018039702187385  0.0952772418621059   T   T   T
  0.9098671115041016  0.7983392034216883  0.0954313469310346   T   T   T
  0.1969057793708575  0.0840384919815922  0.0954805345617189   T   T   T
  0.0762585258308213  0.2064260462906473  0.0954430297800522   T   T   T
  0.1968998977878955  0.9195058311533784  0.0954801299592182   T   T   T
  0.1545942227142403  0.6488499470192886  0.0953660283836128   T   T   T
  0.0745583970818285  0.5017927857018332  0.0953398628573122   T   T   T
  0.1545659329054851  0.3547163866804540  0.0953758280978748   T   T   T
  0.0762737839141021  0.7971092997816190  0.0954393642464527   T   T   T
  0.4959702263665849  0.0862742747558769  0.0953823996601652   T   T   T
  0.3469752421011775  0.1618063362890987  0.0954420152079957   T   T   T
  0.4959632929603419  0.9173240465420756  0.0953830461962387   T   T   T
  0.3469744093609667  0.8417885195155785  0.0954460053661971   T   T   T
  0.7897487759070254  0.0857548060513277  0.0954425066001469   T   T   T
  0.6430343667495206  0.1671076682753213  0.0953104045843740   T   T   T
  0.7897583002785642  0.9178259455561767  0.0954418283815422   T   T   T
  0.8280634974582172  0.6504027013806070  0.0952798787203891   T   T   T
  0.8280627612818565  0.3531961230526848  0.0952524798055842   T   T   T
  0.6430430579782477  0.8364943753208322  0.0953139033836471   T   T   T
  0.3254858848637950  0.3279193894725298  0.0953526846307347   T   T   T
  0.3255146109484878  0.6756796379064870  0.0953519402268549   T   T   T
  0.6670426852267977  0.3310461970655454  0.0951171108902077   T   T   T
  0.6670340453455914  0.6725424189442190  0.0951374979386783   T   T   T
  0.4776910906052917  0.5018136712934294  0.0949989765256534   T   T   T
 
  0.00000000E+00  0.00000000E+00  0.00000000E+00
  0.00000000E+00  0.00000000E+00  0.00000000E+00
  0.00000000E+00  0.00000000E+00  0.00000000E+00
  0.00000000E+00  0.00000000E+00  0.00000000E+00
  0.00000000E+00  0.00000000E+00  0.00000000E+00
  0.00000000E+00  0.00000000E+00  0.00000000E+00
  0.00000000E+00  0.00000000E+00  0.00000000E+00
  0.00000000E+00  0.00000000E+00  0.00000000E+00
  0.00000000E+00  0.00000000E+00  0.00000000E+00
  0.00000000E+00  0.00000000E+00  0.00000000E+00
  0.00000000E+00  0.00000000E+00  0.00000000E+00
  0.00000000E+00  0.00000000E+00  0.00000000E+00
  0.00000000E+00  0.00000000E+00  0.00000000E+00
  0.00000000E+00  0.00000000E+00  0.00000000E+00
  0.00000000E+00  0.00000000E+00  0.00000000E+00
  0.00000000E+00  0.00000000E+00  0.00000000E+00
  0.00000000E+00  0.00000000E+00  0.00000000E+00
  0.00000000E+00  0.00000000E+00  0.00000000E+00
  0.00000000E+00  0.00000000E+00  0.00000000E+00
  0.00000000E+00  0.00000000E+00  0.00000000E+00
  0.00000000E+00  0.00000000E+00  0.00000000E+00
  0.00000000E+00  0.00000000E+00  0.00000000E+00
  0.00000000E+00  0.00000000E+00  0.00000000E+00
  0.00000000E+00  0.00000000E+00  0.00000000E+00
  0.00000000E+00  0.00000000E+00  0.00000000E+00
