Title                                   
   1.00000000000000     
     9.8694509999999998    0.0000000000000000    0.0000000000000000
     0.0000000000000000    8.5490480000000009    0.0000000000000000
     0.0000000000000000    0.0000000000000000   20.0000000000000000
    25     6     1
Selective dynamics
Direct
  0.0564283873592786  0.0926572575429068  0.0889940650553491   T   T   T
  0.9301907998621265  0.1752096925491335  0.0906709222629117   T   T   T
  0.0564614389119000  0.9236775085753939  0.0882259917616139   T   T   T
  0.9298313281319882  0.3414625651781436  0.0934577899596238   T   T   T
  0.0562788869074667  0.5898857683169193  0.0898531386121138   T   T   T
  0.9314417288225537  0.6712967375347487  0.0907933862950289   T   T   T
  0.0563685748205790  0.4230414532191700  0.0921647492037879   T   T   T
  0.9313053890552155  0.8395236802224261  0.0896879978548329   T   T   T
  0.3060709938489665  0.0892314217982914  0.0888690025299123   T   T   T
  0.1827018223137104  0.1750997657789384  0.0897884850307326   T   T   T
  0.3067587211224367  0.9233296411741783  0.0886993319142753   T   T   T
  0.1830958417384875  0.3413394573365297  0.0919630473650954   T   T   T
  0.3075901341984281  0.5927372493900683  0.0936938880476270   T   T   T
  0.1811086697925470  0.6712181436930649  0.0893426194852213   T   T   T
  0.1815759845401910  0.8394433380638108  0.0882649831486710   T   T   T
  0.5564802698494293  0.0852310884701272  0.0945086418549357   T   T   T
  0.4317330773148313  0.1696872860388121  0.0923826670670585   T   T   T
  0.4350996524195159  0.3355747818600812  0.0969374059931809   T   T   T
  0.4288233777252624  0.8360904838713245  0.0934798860621431   T   T   T
  0.8068416439312592  0.0894659937765525  0.0900161720692617   T   T   T
  0.6812075120082901  0.1699632140308814  0.0934990998485510   T   T   T
  0.8062700327136439  0.9233980872516400  0.0901995785864563   T   T   T
  0.6776806699647695  0.3360094714243754  0.0986614530342972   T   T   T
  0.8052830999540845  0.5928310346860766  0.0973686033615543   T   T   T
  0.6845712920334809  0.8363721020277848  0.0962748695489442   T   T   T
  0.4253314885486538  0.6768471171273204  0.0993036428756092   T   T   T
  0.5561283746559227  0.4111403426499012  0.1083845228156447   T   T   T
  0.6893991386506584  0.6781557342838059  0.1073379141308639   T   T   T
  0.5565953865726070  0.9160062693687697  0.0954819940147651   T   T   T
  0.3117133793788281  0.4242145208837675  0.0942098982699382   T   T   T
  0.8011911044513262  0.4245310036023817  0.0972943650720210   T   T   T
  0.5480807984015664  0.5955737882726770  0.1858648868679947   T   T   T
 
  0.00000000E+00  0.00000000E+00  0.00000000E+00
  0.00000000E+00  0.00000000E+00  0.00000000E+00
  0.00000000E+00  0.00000000E+00  0.00000000E+00
  0.00000000E+00  0.00000000E+00  0.00000000E+00
  0.00000000E+00  0.00000000E+00  0.00000000E+00
  0.00000000E+00  0.00000000E+00  0.00000000E+00
  0.00000000E+00  0.00000000E+00  0.00000000E+00
  0.00000000E+00  0.00000000E+00  0.00000000E+00
  0.00000000E+00  0.00000000E+00  0.00000000E+00
  0.00000000E+00  0.00000000E+00  0.00000000E+00
  0.00000000E+00  0.00000000E+00  0.00000000E+00
  0.00000000E+00  0.00000000E+00  0.00000000E+00
  0.00000000E+00  0.00000000E+00  0.00000000E+00
  0.00000000E+00  0.00000000E+00  0.00000000E+00
  0.00000000E+00  0.00000000E+00  0.00000000E+00
  0.00000000E+00  0.00000000E+00  0.00000000E+00
  0.00000000E+00  0.00000000E+00  0.00000000E+00
  0.00000000E+00  0.00000000E+00  0.00000000E+00
  0.00000000E+00  0.00000000E+00  0.00000000E+00
  0.00000000E+00  0.00000000E+00  0.00000000E+00
  0.00000000E+00  0.00000000E+00  0.00000000E+00
  0.00000000E+00  0.00000000E+00  0.00000000E+00
  0.00000000E+00  0.00000000E+00  0.00000000E+00
  0.00000000E+00  0.00000000E+00  0.00000000E+00
  0.00000000E+00  0.00000000E+00  0.00000000E+00
  0.00000000E+00  0.00000000E+00  0.00000000E+00
  0.00000000E+00  0.00000000E+00  0.00000000E+00
  0.00000000E+00  0.00000000E+00  0.00000000E+00
  0.00000000E+00  0.00000000E+00  0.00000000E+00
  0.00000000E+00  0.00000000E+00  0.00000000E+00
  0.00000000E+00  0.00000000E+00  0.00000000E+00
  0.00000000E+00  0.00000000E+00  0.00000000E+00
