Title                                   
   1.00000000000000     
     4.9440799999999996    0.0000000000000000    0.0000000000000000
     0.0000000000000000    8.5647549999999999    0.0000000000000000
     0.0000000000000000    0.0000000000000000   20.0000000000000000
    12     3     1
Selective dynamics
Direct
  0.2500000000000000  0.2118111588562088  0.0910428184770397   T   T   T
 -0.0047436301871823  0.2914950087457272  0.0932123471816326   T   T   T
  0.2500000000000000  0.0435831094617797  0.0874733256393283   T   T   T
  0.0027100954491970  0.7954156935441279  0.0995516899467246   T   T   T
 -0.0002001386897886  0.9593117533588756  0.0872985519376797   T   T   T
  0.7500000000000000  0.2072704010104078  0.0853901050953689   T   T   T
  0.5047436301871824  0.2914950087457272  0.0932123471816326   T   T   T
  0.7500000000000000  0.0412157594447427  0.0827216204398778   T   T   T
  0.7500000000000000  0.7048602979112959  0.1043223169069984   T   T   T
  0.4972899045508032  0.7954156935441279  0.0995516899467246   T   T   T
  0.7500000000000000  0.5340256097802293  0.1053314405719927   T   T   T
  0.5002001386897887  0.9593117533588756  0.0872985519376797   T   T   T
  0.5143892116710891  0.4493704824503142  0.1076400829213427   T   T   T
 -0.0143892116710891  0.4493704824503142  0.1076400829213427   T   T   T
  0.2500000000000000  0.7274995057965001  0.1133670614065115   T   T   T
  0.2500000000000000  0.5385482815407452  0.1774579674881307   T   T   T
 
  0.00000000E+00  0.00000000E+00  0.00000000E+00
  0.00000000E+00  0.00000000E+00  0.00000000E+00
  0.00000000E+00  0.00000000E+00  0.00000000E+00
  0.00000000E+00  0.00000000E+00  0.00000000E+00
  0.00000000E+00  0.00000000E+00  0.00000000E+00
  0.00000000E+00  0.00000000E+00  0.00000000E+00
  0.00000000E+00  0.00000000E+00  0.00000000E+00
  0.00000000E+00  0.00000000E+00  0.00000000E+00
  0.00000000E+00  0.00000000E+00  0.00000000E+00
  0.00000000E+00  0.00000000E+00  0.00000000E+00
  0.00000000E+00  0.00000000E+00  0.00000000E+00
  0.00000000E+00  0.00000000E+00  0.00000000E+00
  0.00000000E+00  0.00000000E+00  0.00000000E+00
  0.00000000E+00  0.00000000E+00  0.00000000E+00
  0.00000000E+00  0.00000000E+00  0.00000000E+00
  0.00000000E+00  0.00000000E+00  0.00000000E+00
