Title                                   
   1.00000000000000     
     4.9440799999999996    0.0000000000000000    0.0000000000000000
     0.0000000000000000   17.1295089999999988    0.0000000000000000
     0.0000000000000000    0.0000000000000000   20.0000000000000000
    27     4     1
Selective dynamics
Direct
  0.0006938952306998  0.1041216951482260  0.2993097008190936   T   T   T
  0.2508798994061973  0.1465006887523185  0.3010001410196205   T   T   T
  0.2507592754610290  0.2298785866000577  0.3051429614307785   T   T   T
  0.0027830283355268  0.3537625245495458  0.3124924905454617   T   T   T
 -0.0007396797589110  0.2717135068426892  0.3056992704566828   T   T   T
 -0.0048418939841682  0.5995083576215541  0.2833985602411136   T   T   T
  0.2519201254912666  0.7251748591687758  0.2937381018888703   T   T   T
  0.0020916904946181  0.8518735783668314  0.2963412819411209   T   T   T
  0.2514870091163474  0.8943108993183412  0.2970587440458737   T   T   T
  0.2511081950207980  0.9781346847797301  0.2978970638205309   T   T   T
  0.0029635005128370  0.7680353414007567  0.2945666106588868   T   T   T
  0.5006491542903256  0.1040619366747039  0.2994250215374308   T   T   T
  0.7502394306944322  0.1463667791146253  0.2997259970998771   T   T   T
  0.7496546782276694  0.2298398247159283  0.3019663382826003   T   T   T
  0.5009886852658590  0.0202995029804050  0.2982514499831890   T   T   T
  0.4969940332142511  0.3553622150831361  0.3124347010261676   T   T   T
  0.7713824938941031  0.4838041699355621  0.3101960180444896   T   T   T
  0.5009538448402817  0.2724491640883665  0.3060179345544613   T   T   T
  0.5080524635921900  0.5992052881590363  0.2905813518596934   T   T   T
  0.7515623314164533  0.7264449984689665  0.2946917019291811   T   T   T
  0.5008595014952704  0.8519833991647583  0.2968705088007325   T   T   T
  0.7512789752916306  0.8940679709621179  0.2971073884148274   T   T   T
  0.7510627572032971  0.9779652390754989  0.2977473868510596   T   T   T
  0.5004025835868955  0.7679150420672805  0.2957551729131513   T   T   T
  0.7523560234825997  0.6435092169933047  0.2931363380283357   T   T   T
  0.2522512905207367  0.6399615616444525  0.2881775128181427   T   T   T
  0.0010091647612933  0.0204215596662112  0.2981234544990519   T   T   T
  0.5192861190292933  0.5183777999156780  0.2921325812239668   T   T   T
  0.9871891404907301  0.5174130549927620  0.2683891826011790   T   T   T
  0.2473499519730276  0.3930548379680252  0.3258221836475957   T   T   T
  0.7517423185328392  0.3963885970647272  0.3087012912662124   T   T   T
  0.1924530128705881  0.5166441187156203  0.3606665577505739   T   T   T
 
  0.00000000E+00  0.00000000E+00  0.00000000E+00
  0.00000000E+00  0.00000000E+00  0.00000000E+00
  0.00000000E+00  0.00000000E+00  0.00000000E+00
  0.00000000E+00  0.00000000E+00  0.00000000E+00
  0.00000000E+00  0.00000000E+00  0.00000000E+00
  0.00000000E+00  0.00000000E+00  0.00000000E+00
  0.00000000E+00  0.00000000E+00  0.00000000E+00
  0.00000000E+00  0.00000000E+00  0.00000000E+00
  0.00000000E+00  0.00000000E+00  0.00000000E+00
  0.00000000E+00  0.00000000E+00  0.00000000E+00
  0.00000000E+00  0.00000000E+00  0.00000000E+00
  0.00000000E+00  0.00000000E+00  0.00000000E+00
  0.00000000E+00  0.00000000E+00  0.00000000E+00
  0.00000000E+00  0.00000000E+00  0.00000000E+00
  0.00000000E+00  0.00000000E+00  0.00000000E+00
  0.00000000E+00  0.00000000E+00  0.00000000E+00
  0.00000000E+00  0.00000000E+00  0.00000000E+00
  0.00000000E+00  0.00000000E+00  0.00000000E+00
  0.00000000E+00  0.00000000E+00  0.00000000E+00
  0.00000000E+00  0.00000000E+00  0.00000000E+00
  0.00000000E+00  0.00000000E+00  0.00000000E+00
  0.00000000E+00  0.00000000E+00  0.00000000E+00
  0.00000000E+00  0.00000000E+00  0.00000000E+00
  0.00000000E+00  0.00000000E+00  0.00000000E+00
  0.00000000E+00  0.00000000E+00  0.00000000E+00
  0.00000000E+00  0.00000000E+00  0.00000000E+00
  0.00000000E+00  0.00000000E+00  0.00000000E+00
  0.00000000E+00  0.00000000E+00  0.00000000E+00
  0.00000000E+00  0.00000000E+00  0.00000000E+00
  0.00000000E+00  0.00000000E+00  0.00000000E+00
  0.00000000E+00  0.00000000E+00  0.00000000E+00
  0.00000000E+00  0.00000000E+00  0.00000000E+00
