Title                                   
   1.00000000000000     
     4.9440799999999996    0.0000000000000000    0.0000000000000000
     0.0000000000000000    8.5647549999999999    0.0000000000000000
     0.0000000000000000    0.0000000000000000   20.0000000000000000
    11     3     1
Selective dynamics
Direct
  0.2479386722503587  0.2091738341697228  0.1004473764161362   T   T   T
 -0.0036983363369016  0.2960664048025138  0.1005449305961574   T   T   T
  0.2487776642349832  0.0372088693270244  0.1004119802524188   T   T   T
 -0.0009613856415288  0.9540338919544743  0.1003597413828186   T   T   T
  0.7482415260728672  0.2090409816718640  0.1003597165111932   T   T   T
  0.4963672009809715  0.2938769486099373  0.1004120717347465   T   T   T
  0.7503719840874451  0.0404525438096413  0.1003155477314226   T   T   T
  0.7541714119453427  0.7158650907432704  0.1006833651462219   T   T   T
  0.7507833362225047  0.5395707807048001  0.1007269769373026   T   T   T
  0.5030237141765682  0.9534348539014553  0.1005040189359091   T   T   T
  0.5096621178910891  0.4604016838598376  0.1003831474262624   T   T   T
 -0.0099283537805440  0.4580781065024349  0.1009791617599980   T   T   T
 -0.0109203278254066  0.7912995615426701  0.1003484994898619   T   T   T
  0.5149251255267755  0.7913463041439397  0.1009486841023323   T   T   T
  0.2512456501954758  0.6218311442564159  0.1005547815772221   T   T   T
 
  0.00000000E+00  0.00000000E+00  0.00000000E+00
  0.00000000E+00  0.00000000E+00  0.00000000E+00
  0.00000000E+00  0.00000000E+00  0.00000000E+00
  0.00000000E+00  0.00000000E+00  0.00000000E+00
  0.00000000E+00  0.00000000E+00  0.00000000E+00
  0.00000000E+00  0.00000000E+00  0.00000000E+00
  0.00000000E+00  0.00000000E+00  0.00000000E+00
  0.00000000E+00  0.00000000E+00  0.00000000E+00
  0.00000000E+00  0.00000000E+00  0.00000000E+00
  0.00000000E+00  0.00000000E+00  0.00000000E+00
  0.00000000E+00  0.00000000E+00  0.00000000E+00
  0.00000000E+00  0.00000000E+00  0.00000000E+00
  0.00000000E+00  0.00000000E+00  0.00000000E+00
  0.00000000E+00  0.00000000E+00  0.00000000E+00
  0.00000000E+00  0.00000000E+00  0.00000000E+00
