Title                                   
   1.00000000000000     
     9.8694509999999998    0.0000000000000000    0.0000000000000000
     0.0000000000000000    8.5490480000000009    0.0000000000000000
     0.0000000000000000    0.0000000000000000   20.0000000000000000
    28     3     1
Selective dynamics
Direct
  0.0561371236345240  0.0915338659994568  0.0826368704310249   T   T   T
  0.9306458248836025  0.1743390658628019  0.0858442810642466   T   T   T
  0.0571899556880653  0.9238326471107889  0.0816329055043285   T   T   T
  0.9295608016477861  0.3418271249974011  0.0903754779757231   T   T   T
  0.0556802616395780  0.5895911517888194  0.0859264342688762   T   T   T
  0.9323524135019929  0.6737663294708012  0.0877970501084658   T   T   T
  0.0563653118886552  0.4232897750341272  0.0887929473124237   T   T   T
  0.9321423848839270  0.8409545512059794  0.0843511042393900   T   T   T
  0.3057175106497448  0.0879801991141857  0.0853855579630521   T   T   T
  0.1822805246258609  0.1741675747150882  0.0853022289268988   T   T   T
  0.3075985928391766  0.9224772479701657  0.0858103634590083   T   T   T
  0.1818344374205332  0.3401223546786522  0.0903918610966017   T   T   T
  0.3036559635269048  0.5888350503150921  0.0994711448237110   T   T   T
  0.1812587287058260  0.6715022893206993  0.0866335423874355   T   T   T
  0.1821989170232186  0.8382949864747217  0.0836726708965463   T   T   T
  0.5561762987309160  0.0854848408967957  0.0947414508939965   T   T   T
  0.4305985333494539  0.1688694261654639  0.0928437527227583   T   T   T
  0.4294499567494319  0.3339060797855061  0.1032642685895317   T   T   T
  0.4291413063114007  0.8381355025781816  0.0980897152624692   T   T   T
  0.8067825700396686  0.0898333166103124  0.0863214721109532   T   T   T
  0.6807083562527969  0.1695966420783997  0.0940343986208380   T   T   T
  0.8070534160640165  0.9246406318984028  0.0860202873304107   T   T   T
  0.6793974621331448  0.3337414712474316  0.1048590461798864   T   T   T
  0.8085586046898242  0.5940103314394584  0.1000805066142942   T   T   T
  0.8037432038898883  0.4251105942346274  0.0996656439666592   T   T   T
  0.6843288944632990  0.8407670168270941  0.0972039128766226   T   T   T
  0.4191773984938719  0.6789836272439770  0.1186926812163878   T   T   T
  0.5527090747251052  0.4051108561735586  0.1221398373946231   T   T   T
  0.6949513348614597  0.6864458258513009  0.1149696045677318   T   T   T
  0.5573758609227722  0.9186430058326289  0.0974616202522053   T   T   T
  0.3050289155842690  0.4218104190419921  0.0987976761048825   T   T   T
  0.5598390601792920  0.5926421980360911  0.1724646848380331   T   T   T
 
  0.00000000E+00  0.00000000E+00  0.00000000E+00
  0.00000000E+00  0.00000000E+00  0.00000000E+00
  0.00000000E+00  0.00000000E+00  0.00000000E+00
  0.00000000E+00  0.00000000E+00  0.00000000E+00
  0.00000000E+00  0.00000000E+00  0.00000000E+00
  0.00000000E+00  0.00000000E+00  0.00000000E+00
  0.00000000E+00  0.00000000E+00  0.00000000E+00
  0.00000000E+00  0.00000000E+00  0.00000000E+00
  0.00000000E+00  0.00000000E+00  0.00000000E+00
  0.00000000E+00  0.00000000E+00  0.00000000E+00
  0.00000000E+00  0.00000000E+00  0.00000000E+00
  0.00000000E+00  0.00000000E+00  0.00000000E+00
  0.00000000E+00  0.00000000E+00  0.00000000E+00
  0.00000000E+00  0.00000000E+00  0.00000000E+00
  0.00000000E+00  0.00000000E+00  0.00000000E+00
  0.00000000E+00  0.00000000E+00  0.00000000E+00
  0.00000000E+00  0.00000000E+00  0.00000000E+00
  0.00000000E+00  0.00000000E+00  0.00000000E+00
  0.00000000E+00  0.00000000E+00  0.00000000E+00
  0.00000000E+00  0.00000000E+00  0.00000000E+00
  0.00000000E+00  0.00000000E+00  0.00000000E+00
  0.00000000E+00  0.00000000E+00  0.00000000E+00
  0.00000000E+00  0.00000000E+00  0.00000000E+00
  0.00000000E+00  0.00000000E+00  0.00000000E+00
  0.00000000E+00  0.00000000E+00  0.00000000E+00
  0.00000000E+00  0.00000000E+00  0.00000000E+00
  0.00000000E+00  0.00000000E+00  0.00000000E+00
  0.00000000E+00  0.00000000E+00  0.00000000E+00
  0.00000000E+00  0.00000000E+00  0.00000000E+00
  0.00000000E+00  0.00000000E+00  0.00000000E+00
  0.00000000E+00  0.00000000E+00  0.00000000E+00
  0.00000000E+00  0.00000000E+00  0.00000000E+00
