Title                                   
   1.00000000000000     
     4.9440799999999996    0.0000000000000000    0.0000000000000000
     0.0000000000000000   17.1295089999999988    0.0000000000000000
     0.0000000000000000    0.0000000000000000   20.0000000000000000
    27     3     1
Selective dynamics
Direct
  0.0000632524715599  0.1043158136281574  0.2980031393446674   T   T   T
  0.2483086142006073  0.1471186671149011  0.2986790031659366   T   T   T
  0.2478156576473399  0.2307524569637494  0.3000370151757777   T   T   T
 -0.0027550553563584  0.2730310933644657  0.3008412572829718   T   T   T
  0.0006788651744323  0.6036059973683465  0.3011051980529910   T   T   T
  0.2523681134662238  0.7277915232474960  0.2988885298618992   T   T   T
  0.0019756029427045  0.8531471580935927  0.2972656026350614   T   T   T
  0.2504949852150817  0.8953873459449905  0.2969980855320141   T   T   T
  0.2502228999102482  0.9790754133938381  0.2969274762817108   T   T   T
  0.0028817512008555  0.7690749597832724  0.2982468777369928   T   T   T
  0.4993789134669850  0.1048762614085399  0.2979798298833723   T   T   T
  0.7508612625595361  0.1461092000850434  0.2985645072884351   T   T   T
  0.7505295401706918  0.2296287080569240  0.2999824479278057   T   T   T
  0.4998062046811813  0.0210325428777292  0.2971271518744634   T   T   T
  0.7482941739721248  0.3950382067634804  0.3026314608307848   T   T   T
  0.7515356109933935  0.4816277349471920  0.3028886559687891   T   T   T
  0.5004782636408180  0.2715263049711490  0.3006154655371844   T   T   T
  0.5026527834638310  0.6023561005832780  0.3010474037701171   T   T   T
  0.7497423246613760  0.7285876132200023  0.2987642373276355   T   T   T
  0.4992758633742448  0.8535138144135733  0.2972484109526077   T   T   T
  0.7505601018663447  0.8948915091754276  0.2969413266520302   T   T   T
  0.7501139080956855  0.9788004787891967  0.2968776354680574   T   T   T
  0.4992254729969572  0.7695976843618018  0.2982248358873502   T   T   T
  0.7516010829673951  0.6459895133799917  0.3002056036731550   T   T   T
  0.0003324203367358  0.0207392299542230  0.2971224130659036   T   T   T
  0.9883443933591411  0.5230449300730264  0.3025219819603839   T   T   T
  0.5135625626329497  0.3528130723757259  0.3017107364251682   T   T   T
  0.5115374352201818  0.5231604483447224  0.3025082877134521   T   T   T
 -0.0145484467181165  0.3535711359908654  0.3024932188618671   T   T   T
  0.2547379178192440  0.6439309399915332  0.3002501808567563   T   T   T
  0.2499305235666049  0.4372061413337631  0.3023620230046100   T   T   T
 
  0.00000000E+00  0.00000000E+00  0.00000000E+00
  0.00000000E+00  0.00000000E+00  0.00000000E+00
  0.00000000E+00  0.00000000E+00  0.00000000E+00
  0.00000000E+00  0.00000000E+00  0.00000000E+00
  0.00000000E+00  0.00000000E+00  0.00000000E+00
  0.00000000E+00  0.00000000E+00  0.00000000E+00
  0.00000000E+00  0.00000000E+00  0.00000000E+00
  0.00000000E+00  0.00000000E+00  0.00000000E+00
  0.00000000E+00  0.00000000E+00  0.00000000E+00
  0.00000000E+00  0.00000000E+00  0.00000000E+00
  0.00000000E+00  0.00000000E+00  0.00000000E+00
  0.00000000E+00  0.00000000E+00  0.00000000E+00
  0.00000000E+00  0.00000000E+00  0.00000000E+00
  0.00000000E+00  0.00000000E+00  0.00000000E+00
  0.00000000E+00  0.00000000E+00  0.00000000E+00
  0.00000000E+00  0.00000000E+00  0.00000000E+00
  0.00000000E+00  0.00000000E+00  0.00000000E+00
  0.00000000E+00  0.00000000E+00  0.00000000E+00
  0.00000000E+00  0.00000000E+00  0.00000000E+00
  0.00000000E+00  0.00000000E+00  0.00000000E+00
  0.00000000E+00  0.00000000E+00  0.00000000E+00
  0.00000000E+00  0.00000000E+00  0.00000000E+00
  0.00000000E+00  0.00000000E+00  0.00000000E+00
  0.00000000E+00  0.00000000E+00  0.00000000E+00
  0.00000000E+00  0.00000000E+00  0.00000000E+00
  0.00000000E+00  0.00000000E+00  0.00000000E+00
  0.00000000E+00  0.00000000E+00  0.00000000E+00
  0.00000000E+00  0.00000000E+00  0.00000000E+00
  0.00000000E+00  0.00000000E+00  0.00000000E+00
  0.00000000E+00  0.00000000E+00  0.00000000E+00
  0.00000000E+00  0.00000000E+00  0.00000000E+00
