Title                                   
   1.00000000000000     
     8.5490480000000009    0.0000000000000000    0.0000000000000000
     0.0000000000000000    8.5490480000000009    0.0000000000000000
     0.0000000000000000    0.0000000000000000   20.0000000000000000
    23     1     1
Selective dynamics
Direct
  0.9103226391064131  0.2083729007166897  0.0954012319835844   T   T   T
  0.9049841574166345  0.5029552629177451  0.0952946746363308   T   T   T
  0.9110562897877000  0.7993191733813793  0.0954221645901295   T   T   T
  0.1986907520509226  0.0837138544988744  0.0954400535682368   T   T   T
  0.0749409586700655  0.2074237598738086  0.0954005158612545   T   T   T
  0.1996387894738345  0.9190915863297154  0.0954624241682779   T   T   T
  0.1570884590629082  0.6476060250917064  0.0953665580909985   T   T   T
  0.0745513181915292  0.5028103416256103  0.0953113471185651   T   T   T
  0.1587983400350918  0.3573361721549023  0.0953240333954675   T   T   T
  0.0763156910157189  0.7966537495175019  0.0954446328643595   T   T   T
  0.4939896057693173  0.0833428711250759  0.0953503682335534   T   T   T
  0.3485566519493532  0.1676152290555869  0.0953661808650264   T   T   T
  0.4941633980070647  0.9137695717702722  0.0953424349958066   T   T   T
  0.3487645712410035  0.8327855306799491  0.0953810978966087   T   T   T
  0.7878566855321647  0.0850616663413321  0.0954247243567671   T   T   T
  0.6387957415367884  0.1658559077323279  0.0953427978589507   T   T   T
  0.7905746209658295  0.9198150712996809  0.0954244945761579   T   T   T
  0.8256864086000127  0.6513366325933480  0.0952847613813336   T   T   T
  0.8240201597684538  0.3575229189478556  0.0953263961532182   T   T   T
  0.6425409330783181  0.8344618301129375  0.0952944225629505   T   T   T
  0.3273643144886055  0.3361606947036664  0.0952932218777111   T   T   T
  0.3257849243032920  0.6651547611912876  0.0953230311065749   T   T   T
  0.6563640728853533  0.3345255849375999  0.0952943272683103   T   T   T
  0.6651377966837875  0.6739252094066019  0.0951696047653763   T   T   T
  0.4894247203798305  0.4981736939945585  0.0952194998244275   T   T   T
 
  0.00000000E+00  0.00000000E+00  0.00000000E+00
  0.00000000E+00  0.00000000E+00  0.00000000E+00
  0.00000000E+00  0.00000000E+00  0.00000000E+00
  0.00000000E+00  0.00000000E+00  0.00000000E+00
  0.00000000E+00  0.00000000E+00  0.00000000E+00
  0.00000000E+00  0.00000000E+00  0.00000000E+00
  0.00000000E+00  0.00000000E+00  0.00000000E+00
  0.00000000E+00  0.00000000E+00  0.00000000E+00
  0.00000000E+00  0.00000000E+00  0.00000000E+00
  0.00000000E+00  0.00000000E+00  0.00000000E+00
  0.00000000E+00  0.00000000E+00  0.00000000E+00
  0.00000000E+00  0.00000000E+00  0.00000000E+00
  0.00000000E+00  0.00000000E+00  0.00000000E+00
  0.00000000E+00  0.00000000E+00  0.00000000E+00
  0.00000000E+00  0.00000000E+00  0.00000000E+00
  0.00000000E+00  0.00000000E+00  0.00000000E+00
  0.00000000E+00  0.00000000E+00  0.00000000E+00
  0.00000000E+00  0.00000000E+00  0.00000000E+00
  0.00000000E+00  0.00000000E+00  0.00000000E+00
  0.00000000E+00  0.00000000E+00  0.00000000E+00
  0.00000000E+00  0.00000000E+00  0.00000000E+00
  0.00000000E+00  0.00000000E+00  0.00000000E+00
  0.00000000E+00  0.00000000E+00  0.00000000E+00
  0.00000000E+00  0.00000000E+00  0.00000000E+00
  0.00000000E+00  0.00000000E+00  0.00000000E+00
