Title                                   
   1.00000000000000     
     9.8694509999999998    0.0000000000000000    0.0000000000000000
     0.0000000000000000    8.5490480000000009    0.0000000000000000
     0.0000000000000000    0.0000000000000000   20.0000000000000000
    28     3     1
Selective dynamics
Direct
  0.0562008123454469  0.0914200951806355  0.0853036958648139   T   T   T
  0.9308688460146457  0.1754963821932271  0.0885344856689380   T   T   T
  0.0579235938666604  0.9237636916634007  0.0841482367249001   T   T   T
  0.9292198819721326  0.3426227652065642  0.0918588562851764   T   T   T
  0.0558105010647761  0.5896208697840668  0.0869058509785657   T   T   T
  0.9328112836942124  0.6743706066914709  0.0880196965608689   T   T   T
  0.0559937756128588  0.4231979543332031  0.0895188997712002   T   T   T
  0.9328563743590211  0.8417386280359576  0.0858957734976096   T   T   T
  0.3056296686030228  0.0866139602640508  0.0872717721106703   T   T   T
  0.1820742136321241  0.1731930984020002  0.0869455910440435   T   T   T
  0.3084755485495456  0.9208522982305057  0.0882623523968738   T   T   T
  0.1806831269097081  0.3391028515168194  0.0903601189260389   T   T   T
  0.3043409228927180  0.5870077084693933  0.0982045326901179   T   T   T
  0.1813847967355031  0.6704125037295972  0.0877925913822865   T   T   T
  0.1831415537003932  0.8374273024004144  0.0859779507774574   T   T   T
  0.5562976409416094  0.0864543543551407  0.0957664320456789   T   T   T
  0.4299864282865080  0.1680957759460822  0.0929896394252135   T   T   T
  0.4278481905675902  0.3338140574828127  0.1010033657912429   T   T   T
  0.4317678298704112  0.8359376212426718  0.0986205031514541   T   T   T
  0.8069056410397893  0.0920480050011644  0.0893411832832061   T   T   T
  0.6803990951680501  0.1715847103755969  0.0958171557351155   T   T   T
  0.8080301177132316  0.9267860251731866  0.0880371988644803   T   T   T
  0.6778999881572463  0.3380619813199325  0.1040175021112550   T   T   T
  0.8077721245640119  0.5960802900400380  0.0981219006052099   T   T   T
  0.8029519802106010  0.4269510424455991  0.0991940356362471   T   T   T
  0.6862254024407697  0.8415553115087675  0.0968898851019326   T   T   T
  0.4227400848642455  0.6729500226247173  0.1126548043688246   T   T   T
  0.5489681509514137  0.4092397265630547  0.1166380793276639   T   T   T
  0.6930107355013841  0.6859703248361615  0.1090201489531788   T   T   T
  0.5584339271663682  0.9186788181777867  0.0977479011968663   T   T   T
  0.3047348760330355  0.4203878015048295  0.0966707737741016   T   T   T
  0.5582518865709720  0.5888094153011542  0.1681440859487842   T   T   T
 
  0.00000000E+00  0.00000000E+00  0.00000000E+00
  0.00000000E+00  0.00000000E+00  0.00000000E+00
  0.00000000E+00  0.00000000E+00  0.00000000E+00
  0.00000000E+00  0.00000000E+00  0.00000000E+00
  0.00000000E+00  0.00000000E+00  0.00000000E+00
  0.00000000E+00  0.00000000E+00  0.00000000E+00
  0.00000000E+00  0.00000000E+00  0.00000000E+00
  0.00000000E+00  0.00000000E+00  0.00000000E+00
  0.00000000E+00  0.00000000E+00  0.00000000E+00
  0.00000000E+00  0.00000000E+00  0.00000000E+00
  0.00000000E+00  0.00000000E+00  0.00000000E+00
  0.00000000E+00  0.00000000E+00  0.00000000E+00
  0.00000000E+00  0.00000000E+00  0.00000000E+00
  0.00000000E+00  0.00000000E+00  0.00000000E+00
  0.00000000E+00  0.00000000E+00  0.00000000E+00
  0.00000000E+00  0.00000000E+00  0.00000000E+00
  0.00000000E+00  0.00000000E+00  0.00000000E+00
  0.00000000E+00  0.00000000E+00  0.00000000E+00
  0.00000000E+00  0.00000000E+00  0.00000000E+00
  0.00000000E+00  0.00000000E+00  0.00000000E+00
  0.00000000E+00  0.00000000E+00  0.00000000E+00
  0.00000000E+00  0.00000000E+00  0.00000000E+00
  0.00000000E+00  0.00000000E+00  0.00000000E+00
  0.00000000E+00  0.00000000E+00  0.00000000E+00
  0.00000000E+00  0.00000000E+00  0.00000000E+00
  0.00000000E+00  0.00000000E+00  0.00000000E+00
  0.00000000E+00  0.00000000E+00  0.00000000E+00
  0.00000000E+00  0.00000000E+00  0.00000000E+00
  0.00000000E+00  0.00000000E+00  0.00000000E+00
  0.00000000E+00  0.00000000E+00  0.00000000E+00
  0.00000000E+00  0.00000000E+00  0.00000000E+00
  0.00000000E+00  0.00000000E+00  0.00000000E+00
