Title                                   
   1.00000000000000     
     4.9440799999999996    0.0000000000000000    0.0000000000000000
     0.0000000000000000   17.1295089999999988    0.0000000000000000
     0.0000000000000000    0.0000000000000000   20.0000000000000000
    28     3     1
Selective dynamics
Direct
  0.0007333814035853  0.1047525546321412  0.2854300851674452   T   T   T
  0.2506463481131433  0.1468611216721219  0.2882118405958713   T   T   T
  0.2510615801334589  0.2300668315202317  0.2964047800157079   T   T   T
  0.0058515978727979  0.3520963988035401  0.3154985275822661   T   T   T
 -0.0011530662979536  0.2712200741055720  0.3005001273878032   T   T   T
 -0.0052671744719474  0.6018675432669169  0.3026843342884218   T   T   T
  0.2487283256266982  0.7270466020917536  0.2930211941352101   T   T   T
  0.0001693715530293  0.8533845402452013  0.2842837793546145   T   T   T
  0.2497517733739267  0.8955294130662957  0.2836228526844057   T   T   T
  0.2500592018542359  0.9790761807054675  0.2827850087599477   T   T   T
  0.0000360155569963  0.7698628944297662  0.2880612805807811   T   T   T
  0.5001623821118604  0.1046723292106434  0.2855815255297834   T   T   T
  0.7503760742126963  0.1466418630980425  0.2875050835386959   T   T   T
  0.7504932927443302  0.2293817588742937  0.2944304195180618   T   T   T
  0.5001012644399583  0.0211339404178449  0.2830793169118669   T   T   T
  0.4961474276299384  0.3525451856256264  0.3169812498853394   T   T   T
  0.7525663205211651  0.4844970636116439  0.3204836126261146   T   T   T
  0.5029629936242015  0.2714499132597060  0.3012870413914518   T   T   T
  0.5044123330454122  0.6045253916723211  0.3119521776902930   T   T   T
  0.7498219874225464  0.7286717250535026  0.2910868005527105   T   T   T
  0.4992685245438659  0.8533196699236035  0.2850425157894875   T   T   T
  0.7498206163479483  0.8953057708126684  0.2833046263198901   T   T   T
  0.7501287091091391  0.9790332278079961  0.2825510994261053   T   T   T
  0.4987662156387837  0.7698401279218268  0.2896210056514736   T   T   T
  0.7494785336192940  0.6458169760061977  0.2991909054873800   T   T   T
  0.2491561847432968  0.6440091248468081  0.3030657241855020   T   T   T
  0.0002256591225231  0.0211840730674701  0.2829305607439637   T   T   T
  0.5197042988765826  0.5265779535234379  0.3359633627312602   T   T   T
  0.9858814353107443  0.5216149249343888  0.3047714307389485   T   T   T
  0.2500305209894008  0.3864026241099470  0.3292075842870448   T   T   T
  0.7532042960312605  0.3967027144543938  0.3218071091529775   T   T   T
  0.2334965751970871  0.4834604872286197  0.3922180372891275   T   T   T
 
  0.00000000E+00  0.00000000E+00  0.00000000E+00
  0.00000000E+00  0.00000000E+00  0.00000000E+00
  0.00000000E+00  0.00000000E+00  0.00000000E+00
  0.00000000E+00  0.00000000E+00  0.00000000E+00
  0.00000000E+00  0.00000000E+00  0.00000000E+00
  0.00000000E+00  0.00000000E+00  0.00000000E+00
  0.00000000E+00  0.00000000E+00  0.00000000E+00
  0.00000000E+00  0.00000000E+00  0.00000000E+00
  0.00000000E+00  0.00000000E+00  0.00000000E+00
  0.00000000E+00  0.00000000E+00  0.00000000E+00
  0.00000000E+00  0.00000000E+00  0.00000000E+00
  0.00000000E+00  0.00000000E+00  0.00000000E+00
  0.00000000E+00  0.00000000E+00  0.00000000E+00
  0.00000000E+00  0.00000000E+00  0.00000000E+00
  0.00000000E+00  0.00000000E+00  0.00000000E+00
  0.00000000E+00  0.00000000E+00  0.00000000E+00
  0.00000000E+00  0.00000000E+00  0.00000000E+00
  0.00000000E+00  0.00000000E+00  0.00000000E+00
  0.00000000E+00  0.00000000E+00  0.00000000E+00
  0.00000000E+00  0.00000000E+00  0.00000000E+00
  0.00000000E+00  0.00000000E+00  0.00000000E+00
  0.00000000E+00  0.00000000E+00  0.00000000E+00
  0.00000000E+00  0.00000000E+00  0.00000000E+00
  0.00000000E+00  0.00000000E+00  0.00000000E+00
  0.00000000E+00  0.00000000E+00  0.00000000E+00
  0.00000000E+00  0.00000000E+00  0.00000000E+00
  0.00000000E+00  0.00000000E+00  0.00000000E+00
  0.00000000E+00  0.00000000E+00  0.00000000E+00
  0.00000000E+00  0.00000000E+00  0.00000000E+00
  0.00000000E+00  0.00000000E+00  0.00000000E+00
  0.00000000E+00  0.00000000E+00  0.00000000E+00
  0.00000000E+00  0.00000000E+00  0.00000000E+00
