Title                                   
   1.00000000000000     
     8.5490480000000009    0.0000000000000000    0.0000000000000000
     0.0000000000000000    8.5490480000000009    0.0000000000000000
     0.0000000000000000    0.0000000000000000   20.0000000000000000
    20     4     1
Selective dynamics
Direct
  0.9103830972022265  0.2048626028006786  0.0975454333551325   T   T   T
  0.9119103905051954  0.8011368191508176  0.0975749938342829   T   T   T
  0.1994604280368860  0.0832319161704023  0.0978368263140377   T   T   T
  0.0751475334376213  0.2032342774824908  0.0977110340902341   T   T   T
  0.1542638377884527  0.6487322706910559  0.0977490764011976   T   T   T
  0.0710384019049299  0.5015971890683316  0.0977548510317645   T   T   T
  0.1527830761493243  0.3558258074407112  0.0977799158613201   T   T   T
  0.0786118810491428  0.7990009761694226  0.0977292793656804   T   T   T
  0.4959712675853331  0.0872967545399194  0.0977946720817746   T   T   T
  0.3469557386994698  0.1667309063368966  0.0978963337679987   T   T   T
  0.4951550831047621  0.9160508038187863  0.0977424579130343   T   T   T
  0.3478730315043375  0.8325177539489935  0.0978888422335589   T   T   T
  0.7900314064512973  0.0859776731188273  0.0974686087955616   T   T   T
  0.6434782096499227  0.1669552936912279  0.0976917566859180   T   T   T
  0.7906934632452265  0.9190158177299173  0.0974735155205907   T   T   T
  0.8268928183454058  0.6518054467422161  0.0977004192868395   T   T   T
  0.8247972807916292  0.3546116786366445  0.0977214622388377   T   T   T
  0.6435699676222506  0.8363518461111152  0.0976307794028775   T   T   T
  0.3204020307342100  0.3359076840097556  0.0978507434554663   T   T   T
  0.3212009442730189  0.6683063010089157  0.0978351942771467   T   T   T
  0.9022983987837414  0.5029322386683736  0.0977894048711852   T   T   T
  0.6678869508043292  0.3309830201746359  0.0978704140917520   T   T   T
  0.6686106196525566  0.6740434981123162  0.0978189329087252   T   T   T
  0.1987215532145704  0.9167591591768843  0.0979189303329355   T   T   T
  0.4872745894641538  0.5009222652006833  0.0979311218821207   T   T   T
 
  0.00000000E+00  0.00000000E+00  0.00000000E+00
  0.00000000E+00  0.00000000E+00  0.00000000E+00
  0.00000000E+00  0.00000000E+00  0.00000000E+00
  0.00000000E+00  0.00000000E+00  0.00000000E+00
  0.00000000E+00  0.00000000E+00  0.00000000E+00
  0.00000000E+00  0.00000000E+00  0.00000000E+00
  0.00000000E+00  0.00000000E+00  0.00000000E+00
  0.00000000E+00  0.00000000E+00  0.00000000E+00
  0.00000000E+00  0.00000000E+00  0.00000000E+00
  0.00000000E+00  0.00000000E+00  0.00000000E+00
  0.00000000E+00  0.00000000E+00  0.00000000E+00
  0.00000000E+00  0.00000000E+00  0.00000000E+00
  0.00000000E+00  0.00000000E+00  0.00000000E+00
  0.00000000E+00  0.00000000E+00  0.00000000E+00
  0.00000000E+00  0.00000000E+00  0.00000000E+00
  0.00000000E+00  0.00000000E+00  0.00000000E+00
  0.00000000E+00  0.00000000E+00  0.00000000E+00
  0.00000000E+00  0.00000000E+00  0.00000000E+00
  0.00000000E+00  0.00000000E+00  0.00000000E+00
  0.00000000E+00  0.00000000E+00  0.00000000E+00
  0.00000000E+00  0.00000000E+00  0.00000000E+00
  0.00000000E+00  0.00000000E+00  0.00000000E+00
  0.00000000E+00  0.00000000E+00  0.00000000E+00
  0.00000000E+00  0.00000000E+00  0.00000000E+00
  0.00000000E+00  0.00000000E+00  0.00000000E+00
