Title                                   
   1.00000000000000     
     9.8694509999999998    0.0000000000000000    0.0000000000000000
     0.0000000000000000    8.5490480000000009    0.0000000000000000
     0.0000000000000000    0.0000000000000000   20.0000000000000000
    25     5     1
Selective dynamics
Direct
  0.0553275061395101  0.0905965334723277  0.0873144374874112   T   T   T
  0.9301489384274618  0.1729523287669369  0.0887230479940270   T   T   T
  0.0573131013272349  0.9237472150212815  0.0872795357172629   T   T   T
  0.9328095518822224  0.3408006352804522  0.0883899677951778   T   T   T
  0.0574886151238852  0.5897101399743069  0.0842018565897182   T   T   T
  0.9339111378963346  0.6739903175029510  0.0885133346555474   T   T   T
  0.0574917853582482  0.4232552997768746  0.0844957459468504   T   T   T
  0.9325653141786933  0.8408063508631716  0.0891518486471171   T   T   T
  0.3064081954885541  0.0877018892914784  0.0938818176825414   T   T   T
  0.1812620980494113  0.1718827332088858  0.0891107087751554   T   T   T
  0.1812998672789683  0.3388691625606466  0.0878113609275680   T   T   T
  0.3036490920062063  0.5899298614660953  0.0952034560990608   T   T   T
  0.1814069327131105  0.6734785256946140  0.0867710152523941   T   T   T
  0.3039140904367580  0.4211413773300857  0.0961156314129415   T   T   T
  0.1815438925933835  0.8402547983157898  0.0883457457914613   T   T   T
  0.4287283977996270  0.1729105436839281  0.1028382331030991   T   T   T
  0.5538431220239387  0.9190638167433623  0.1046450943430794   T   T   T
  0.4273740319947639  0.8377688119048523  0.1024122494609678   T   T   T
  0.8039835561216211  0.0889178627068099  0.0929278621553795   T   T   T
  0.6806305827895599  0.1742862343834322  0.1015236373379202   T   T   T
  0.8064022465391784  0.9222096540375817  0.0936476403391503   T   T   T
  0.6876626255109644  0.3381994845998129  0.1095363728557586   T   T   T
  0.8125347247972452  0.5929936469512262  0.0980214634314060   T   T   T
  0.8108178977976426  0.4239382624417385  0.0974120967265273   T   T   T
  0.6834152178719501  0.8361885793135574  0.1035577512741317   T   T   T
  0.5546655581392166  0.0913232768787769  0.1041073474854351   T   T   T
  0.4218708500831347  0.3334095546023537  0.1106577668018594   T   T   T
  0.6930648312885144  0.6755208164963561  0.1114553857717940   T   T   T
  0.4191431655980630  0.6785324048523843  0.1091757693095209   T   T   T
  0.3054663723919003  0.9231775143172432  0.0928554669834130   T   T   T
  0.5569917003527051  0.5033173675606992  0.1308813518463600   T   T   T
 
  0.00000000E+00  0.00000000E+00  0.00000000E+00
  0.00000000E+00  0.00000000E+00  0.00000000E+00
  0.00000000E+00  0.00000000E+00  0.00000000E+00
  0.00000000E+00  0.00000000E+00  0.00000000E+00
  0.00000000E+00  0.00000000E+00  0.00000000E+00
  0.00000000E+00  0.00000000E+00  0.00000000E+00
  0.00000000E+00  0.00000000E+00  0.00000000E+00
  0.00000000E+00  0.00000000E+00  0.00000000E+00
  0.00000000E+00  0.00000000E+00  0.00000000E+00
  0.00000000E+00  0.00000000E+00  0.00000000E+00
  0.00000000E+00  0.00000000E+00  0.00000000E+00
  0.00000000E+00  0.00000000E+00  0.00000000E+00
  0.00000000E+00  0.00000000E+00  0.00000000E+00
  0.00000000E+00  0.00000000E+00  0.00000000E+00
  0.00000000E+00  0.00000000E+00  0.00000000E+00
  0.00000000E+00  0.00000000E+00  0.00000000E+00
  0.00000000E+00  0.00000000E+00  0.00000000E+00
  0.00000000E+00  0.00000000E+00  0.00000000E+00
  0.00000000E+00  0.00000000E+00  0.00000000E+00
  0.00000000E+00  0.00000000E+00  0.00000000E+00
  0.00000000E+00  0.00000000E+00  0.00000000E+00
  0.00000000E+00  0.00000000E+00  0.00000000E+00
  0.00000000E+00  0.00000000E+00  0.00000000E+00
  0.00000000E+00  0.00000000E+00  0.00000000E+00
  0.00000000E+00  0.00000000E+00  0.00000000E+00
  0.00000000E+00  0.00000000E+00  0.00000000E+00
  0.00000000E+00  0.00000000E+00  0.00000000E+00
  0.00000000E+00  0.00000000E+00  0.00000000E+00
  0.00000000E+00  0.00000000E+00  0.00000000E+00
  0.00000000E+00  0.00000000E+00  0.00000000E+00
  0.00000000E+00  0.00000000E+00  0.00000000E+00
