Title                                   
   1.00000000000000     
     4.9440799999999996    0.0000000000000000    0.0000000000000000
     0.0000000000000000   17.1295089999999988    0.0000000000000000
     0.0000000000000000    0.0000000000000000   20.0000000000000000
    29     1     1
Selective dynamics
Direct
  0.0002346246219445  0.1033332804269496  0.2966238440118655   T   T   T
  0.2502748456886455  0.1453735184467049  0.2972431721416366   T   T   T
  0.2502668008287917  0.2283573354465991  0.2995309258080437   T   T   T
 -0.0011744242440110  0.2700711649753017  0.3008135905786991   T   T   T
  0.0004934632314173  0.6052848276537632  0.2999335120468261   T   T   T
  0.2503748971226758  0.7284308479077982  0.2981221080225402   T   T   T
  0.0013624052396056  0.8537851954175496  0.2970696821784437   T   T   T
  0.2503306778142538  0.8955604643720851  0.2969910804088364   T   T   T
  0.2503188683146563  0.9786540526479481  0.2966660622228561   T   T   T
  0.0010788730776162  0.7704349998685940  0.2974765319810029   T   T   T
  0.5003151266666690  0.1033303308119416  0.2966227319089215   T   T   T
  0.7502780824559243  0.1445609248985834  0.2970016139350288   T   T   T
  0.7502689985006458  0.2276349643552958  0.2992665999241823   T   T   T
  0.5003730761767528  0.0201382479378258  0.2964734832028466   T   T   T
  0.7503078902757742  0.3953818423329788  0.2999642424615645   T   T   T
  0.7503475009932632  0.4826572447120522  0.3003778900042814   T   T   T
  0.5017124883153710  0.2700737995308730  0.3008072366941666   T   T   T
  0.5002534125925392  0.6052902006057952  0.2999431597667174   T   T   T
  0.7503635361884963  0.7299865783975785  0.2973466323659701   T   T   T
  0.4993232849586727  0.8537896610776927  0.2970660774064369   T   T   T
  0.7503420331924560  0.8950602893401229  0.2967902454635333   T   T   T
  0.7503188469175585  0.9784625484512325  0.2965096183244085   T   T   T
  0.4996559739263330  0.7704401822497842  0.2974691224175890   T   T   T
  0.7503682651800794  0.6475536727343859  0.2982637857984322   T   T   T
  0.0002436989244470  0.0201442024433539  0.2964738189739044   T   T   T
  0.5061822845029924  0.5241875114572685  0.3026642767023014   T   T   T
  0.9945326453418946  0.5241808365499794  0.3026336241211718   T   T   T
  0.5113140848176740  0.3520205593143664  0.3038964124154273   T   T   T
 -0.0107242787043082  0.3520154251713447  0.3039001690377393   T   T   T
  0.2503639671001996  0.6472575577255949  0.2995561674117775   T   T   T
  0.2503050499809734  0.4378897327386535  0.3215625822628012   T   T   T
 
  0.00000000E+00  0.00000000E+00  0.00000000E+00
  0.00000000E+00  0.00000000E+00  0.00000000E+00
  0.00000000E+00  0.00000000E+00  0.00000000E+00
  0.00000000E+00  0.00000000E+00  0.00000000E+00
  0.00000000E+00  0.00000000E+00  0.00000000E+00
  0.00000000E+00  0.00000000E+00  0.00000000E+00
  0.00000000E+00  0.00000000E+00  0.00000000E+00
  0.00000000E+00  0.00000000E+00  0.00000000E+00
  0.00000000E+00  0.00000000E+00  0.00000000E+00
  0.00000000E+00  0.00000000E+00  0.00000000E+00
  0.00000000E+00  0.00000000E+00  0.00000000E+00
  0.00000000E+00  0.00000000E+00  0.00000000E+00
  0.00000000E+00  0.00000000E+00  0.00000000E+00
  0.00000000E+00  0.00000000E+00  0.00000000E+00
  0.00000000E+00  0.00000000E+00  0.00000000E+00
  0.00000000E+00  0.00000000E+00  0.00000000E+00
  0.00000000E+00  0.00000000E+00  0.00000000E+00
  0.00000000E+00  0.00000000E+00  0.00000000E+00
  0.00000000E+00  0.00000000E+00  0.00000000E+00
  0.00000000E+00  0.00000000E+00  0.00000000E+00
  0.00000000E+00  0.00000000E+00  0.00000000E+00
  0.00000000E+00  0.00000000E+00  0.00000000E+00
  0.00000000E+00  0.00000000E+00  0.00000000E+00
  0.00000000E+00  0.00000000E+00  0.00000000E+00
  0.00000000E+00  0.00000000E+00  0.00000000E+00
  0.00000000E+00  0.00000000E+00  0.00000000E+00
  0.00000000E+00  0.00000000E+00  0.00000000E+00
  0.00000000E+00  0.00000000E+00  0.00000000E+00
  0.00000000E+00  0.00000000E+00  0.00000000E+00
  0.00000000E+00  0.00000000E+00  0.00000000E+00
  0.00000000E+00  0.00000000E+00  0.00000000E+00
