Title                                   
   1.00000000000000     
     9.8694509999999998    0.0000000000000000    0.0000000000000000
     0.0000000000000000    8.5490480000000009    0.0000000000000000
     0.0000000000000000    0.0000000000000000   20.0000000000000000
    28     3     1
Selective dynamics
Direct
  0.0562195160773403  0.0924724629101740  0.0861823303961738   T   T   T
  0.9305232209557822  0.1749075686913294  0.0880474685645702   T   T   T
  0.0562152709486037  0.9253983650665161  0.0849744434417391   T   T   T
  0.9287477527446870  0.3424045818133313  0.0905645033060473   T   T   T
  0.0562190348621315  0.5897105182731431  0.0868066789982581   T   T   T
  0.9322671402113074  0.6739728785400722  0.0877636612158990   T   T   T
  0.0562161121476297  0.4239089323007236  0.0890666075489630   T   T   T
  0.9323047541124967  0.8407495483211670  0.0865469573927564   T   T   T
  0.3055477848413783  0.0894360337698581  0.0887824383504232   T   T   T
  0.1819242491699583  0.1748758487878027  0.0880274485788168   T   T   T
  0.3046247987333048  0.9231575697733265  0.0889519429390606   T   T   T
  0.1836922289801325  0.3423888366013816  0.0905120495023273   T   T   T
  0.3061159137029416  0.5949196500915535  0.0960590394162534   T   T   T
  0.1801745788280873  0.6739763634063575  0.0876925691804084   T   T   T
  0.3099159940972950  0.4247775270325952  0.0956014372992045   T   T   T
  0.1801325933720773  0.8407467883185832  0.0864785963617700   T   T   T
  0.5562423905628857  0.0823297668631840  0.0939165255999682   T   T   T
  0.4316954874181702  0.1684871901200395  0.0924356542323431   T   T   T
  0.5562406611356947  0.9155570041504015  0.0972425235958263   T   T   T
  0.4357456651515839  0.3347748411646719  0.0976155030621957   T   T   T
  0.4266108393669465  0.8355863949789802  0.0971801364130724   T   T   T
  0.8069333726368442  0.0894858444752312  0.0888195197409937   T   T   T
  0.6807930093707015  0.1685039473298493  0.0924415866465332   T   T   T
  0.8078542144024172  0.9232052787384093  0.0890356465098914   T   T   T
  0.6767193384579994  0.3347856330426414  0.0976447158571677   T   T   T
  0.8063724549987412  0.5949165872954754  0.0961780801591783   T   T   T
  0.8025479947123536  0.4247737369995849  0.0957065270957823   T   T   T
  0.6858965394507803  0.8356377617356883  0.0972774091208852   T   T   T
  0.4212938856352720  0.6785299599971314  0.1053120472613799   T   T   T
  0.5562255283768828  0.4093622780526395  0.1048669182061422   T   T   T
  0.6912820096444792  0.6785969250557632  0.1054686648519120   T   T   T
  0.5563446648931002  0.5879093763024026  0.1924753691540914   T   T   T
 
  0.00000000E+00  0.00000000E+00  0.00000000E+00
  0.00000000E+00  0.00000000E+00  0.00000000E+00
  0.00000000E+00  0.00000000E+00  0.00000000E+00
  0.00000000E+00  0.00000000E+00  0.00000000E+00
  0.00000000E+00  0.00000000E+00  0.00000000E+00
  0.00000000E+00  0.00000000E+00  0.00000000E+00
  0.00000000E+00  0.00000000E+00  0.00000000E+00
  0.00000000E+00  0.00000000E+00  0.00000000E+00
  0.00000000E+00  0.00000000E+00  0.00000000E+00
  0.00000000E+00  0.00000000E+00  0.00000000E+00
  0.00000000E+00  0.00000000E+00  0.00000000E+00
  0.00000000E+00  0.00000000E+00  0.00000000E+00
  0.00000000E+00  0.00000000E+00  0.00000000E+00
  0.00000000E+00  0.00000000E+00  0.00000000E+00
  0.00000000E+00  0.00000000E+00  0.00000000E+00
  0.00000000E+00  0.00000000E+00  0.00000000E+00
  0.00000000E+00  0.00000000E+00  0.00000000E+00
  0.00000000E+00  0.00000000E+00  0.00000000E+00
  0.00000000E+00  0.00000000E+00  0.00000000E+00
  0.00000000E+00  0.00000000E+00  0.00000000E+00
  0.00000000E+00  0.00000000E+00  0.00000000E+00
  0.00000000E+00  0.00000000E+00  0.00000000E+00
  0.00000000E+00  0.00000000E+00  0.00000000E+00
  0.00000000E+00  0.00000000E+00  0.00000000E+00
  0.00000000E+00  0.00000000E+00  0.00000000E+00
  0.00000000E+00  0.00000000E+00  0.00000000E+00
  0.00000000E+00  0.00000000E+00  0.00000000E+00
  0.00000000E+00  0.00000000E+00  0.00000000E+00
  0.00000000E+00  0.00000000E+00  0.00000000E+00
  0.00000000E+00  0.00000000E+00  0.00000000E+00
  0.00000000E+00  0.00000000E+00  0.00000000E+00
  0.00000000E+00  0.00000000E+00  0.00000000E+00
