Title                                   
   1.00000000000000     
     8.5490480000000009    0.0000000000000000    0.0000000000000000
     0.0000000000000000    8.5490480000000009    0.0000000000000000
     0.0000000000000000    0.0000000000000000   20.0000000000000000
    19     5     1
Selective dynamics
Direct
  0.9081463879488472  0.2046321494524319  0.0949875460428082   T   T   T
  0.9090637226140864  0.5025470388491459  0.0969708376430046   T   T   T
  0.9102180302100250  0.8019756356946197  0.0951308708904900   T   T   T
  0.1960380535669198  0.0832353996173358  0.0952759240000254   T   T   T
  0.0754996434188096  0.2017827729316797  0.0951165756623857   T   T   T
  0.1565811109781765  0.6527252194891772  0.0967446954583116   T   T   T
  0.0786422585522507  0.5011841851858558  0.0968827659127827   T   T   T
  0.1560442163323138  0.3496943130430692  0.0969096943068402   T   T   T
  0.0778541089257794  0.7991572155403778  0.0951484653058969   T   T   T
  0.4929885314384977  0.0869289545563502  0.0970298802408577   T   T   T
  0.3424698124074744  0.1628729588124257  0.0971165599760446   T   T   T
  0.4923570589335335  0.9177041591825725  0.0968671073663548   T   T   T
  0.3424913603308728  0.8389041996513971  0.0968598676540550   T   T   T
  0.7882805317394751  0.0862326856804835  0.0950291442210532   T   T   T
  0.6416310123829936  0.1659773995655723  0.0969693421235116   T   T   T
  0.7887951190919833  0.9194547270496606  0.0950271126281761   T   T   T
  0.8315415916691734  0.6530321449836186  0.0970300033028053   T   T   T
  0.8300426815912977  0.3524709783484278  0.0968206522980920   T   T   T
  0.6422953725991105  0.8381905504285108  0.0968593689184165   T   T   T
  0.3174232648183248  0.3241032350193959  0.0991259940942881   T   T   T
  0.3180097229772959  0.6808544645360759  0.0985894563616295   T   T   T
  0.6679277790951061  0.3281082822943688  0.0991765856368936   T   T   T
  0.6692971181872562  0.6767046973899115  0.0992493565772486   T   T   T
  0.1971139387857473  0.9168667780504783  0.0950954232591151   T   T   T
  0.4946595714046419  0.4994498546470557  0.1236917701188931   T   T   T
 
  0.00000000E+00  0.00000000E+00  0.00000000E+00
  0.00000000E+00  0.00000000E+00  0.00000000E+00
  0.00000000E+00  0.00000000E+00  0.00000000E+00
  0.00000000E+00  0.00000000E+00  0.00000000E+00
  0.00000000E+00  0.00000000E+00  0.00000000E+00
  0.00000000E+00  0.00000000E+00  0.00000000E+00
  0.00000000E+00  0.00000000E+00  0.00000000E+00
  0.00000000E+00  0.00000000E+00  0.00000000E+00
  0.00000000E+00  0.00000000E+00  0.00000000E+00
  0.00000000E+00  0.00000000E+00  0.00000000E+00
  0.00000000E+00  0.00000000E+00  0.00000000E+00
  0.00000000E+00  0.00000000E+00  0.00000000E+00
  0.00000000E+00  0.00000000E+00  0.00000000E+00
  0.00000000E+00  0.00000000E+00  0.00000000E+00
  0.00000000E+00  0.00000000E+00  0.00000000E+00
  0.00000000E+00  0.00000000E+00  0.00000000E+00
  0.00000000E+00  0.00000000E+00  0.00000000E+00
  0.00000000E+00  0.00000000E+00  0.00000000E+00
  0.00000000E+00  0.00000000E+00  0.00000000E+00
  0.00000000E+00  0.00000000E+00  0.00000000E+00
  0.00000000E+00  0.00000000E+00  0.00000000E+00
  0.00000000E+00  0.00000000E+00  0.00000000E+00
  0.00000000E+00  0.00000000E+00  0.00000000E+00
  0.00000000E+00  0.00000000E+00  0.00000000E+00
  0.00000000E+00  0.00000000E+00  0.00000000E+00
