Title                                   
   1.00000000000000     
     4.9440799999999996    0.0000000000000000    0.0000000000000000
     0.0000000000000000    8.5647549999999999    0.0000000000000000
     0.0000000000000000    0.0000000000000000   20.0000000000000000
    12     3     1
Selective dynamics
Direct
  0.2500000000000000  0.2116164568527331  0.0916540213594627   T   T   T
 -0.0057389310784216  0.2915800474112288  0.0940650823485789   T   T   T
  0.2500000000000000  0.0446323352654097  0.0882372883284577   T   T   T
  0.0030225479094333  0.7961637544356888  0.1019684183203812   T   T   T
 -0.0002858914382870  0.9597513865572115  0.0883926764997362   T   T   T
  0.7500000000000000  0.2067968491276654  0.0854624956086973   T   T   T
  0.5057389310784216  0.2915800474112288  0.0940650823485789   T   T   T
  0.7500000000000000  0.0410708518125677  0.0834253980600590   T   T   T
  0.7500000000000000  0.7051380195459565  0.1053202849249754   T   T   T
  0.4969774520905667  0.7961637544356888  0.1019684183203812   T   T   T
  0.7500000000000000  0.5320738401533486  0.1066319131015720   T   T   T
  0.5002858914382865  0.9597513865572115  0.0883926764997362   T   T   T
  0.5167914822335430  0.4476652754731416  0.1082997928732720   T   T   T
 -0.0167914822335430  0.4476652754731416  0.1082997928732720   T   T   T
  0.2500000000000000  0.7303670036556918  0.1167241665451822   T   T   T
  0.2500000000000000  0.5379837158320856  0.1596044919876646   T   T   T
 
  0.00000000E+00  0.00000000E+00  0.00000000E+00
  0.00000000E+00  0.00000000E+00  0.00000000E+00
  0.00000000E+00  0.00000000E+00  0.00000000E+00
  0.00000000E+00  0.00000000E+00  0.00000000E+00
  0.00000000E+00  0.00000000E+00  0.00000000E+00
  0.00000000E+00  0.00000000E+00  0.00000000E+00
  0.00000000E+00  0.00000000E+00  0.00000000E+00
  0.00000000E+00  0.00000000E+00  0.00000000E+00
  0.00000000E+00  0.00000000E+00  0.00000000E+00
  0.00000000E+00  0.00000000E+00  0.00000000E+00
  0.00000000E+00  0.00000000E+00  0.00000000E+00
  0.00000000E+00  0.00000000E+00  0.00000000E+00
  0.00000000E+00  0.00000000E+00  0.00000000E+00
  0.00000000E+00  0.00000000E+00  0.00000000E+00
  0.00000000E+00  0.00000000E+00  0.00000000E+00
  0.00000000E+00  0.00000000E+00  0.00000000E+00
