Title                                   
   1.00000000000000     
     8.5490480000000009    0.0000000000000000    0.0000000000000000
     0.0000000000000000    8.5490480000000009    0.0000000000000000
     0.0000000000000000    0.0000000000000000   20.0000000000000000
    20     4     1
Selective dynamics
Direct
  0.9087593053865776  0.2082904029855304  0.0978469120675347   T   T   T
  0.9117990452869515  0.8010141273609790  0.0978197572897923   T   T   T
  0.2002541948607546  0.0825090846126513  0.0980093492290096   T   T   T
  0.0749827925605788  0.2041927559274814  0.0979870352688280   T   T   T
  0.1579592172808886  0.6489273203217566  0.0979741127368488   T   T   T
  0.0742287507685050  0.5022772868985810  0.0980115689038315   T   T   T
  0.1579140725465754  0.3564902668173423  0.0980525331413116   T   T   T
  0.0800389202205792  0.7987522699551742  0.0979226365545498   T   T   T
  0.3477678569092351  0.1651079607927936  0.0980062034079927   T   T   T
  0.4944990234586865  0.9149758466281803  0.0979470732768387   T   T   T
  0.3483046182531916  0.8315547009950768  0.0980428721278101   T   T   T
  0.7859145714430023  0.0860813438172424  0.0977373210844363   T   T   T
  0.6374831194372426  0.1667157014190460  0.0978110087634306   T   T   T
  0.7901088552538789  0.9192182367224914  0.0977826909019164   T   T   T
  0.8275464653962471  0.6519370095459102  0.0979531357530034   T   T   T
  0.8217193506385961  0.3591099088480604  0.0979118557047502   T   T   T
  0.6423042100347670  0.8346489014791991  0.0979258885180197   T   T   T
  0.3276851731425133  0.3359419567096502  0.0980133626757601   T   T   T
  0.3262357385073870  0.6663291248844656  0.0980179753671806   T   T   T
  0.6548912279236265  0.3379973769769193  0.0978659096212211   T   T   T
  0.4949293836123123  0.0837418476740397  0.0979501049256232   T   T   T
  0.9050263042610758  0.5044670039142289  0.0980205432316629   T   T   T
  0.6663115594360500  0.6712900535768901  0.0980422821076431   T   T   T
  0.1983926553420213  0.9158098349874773  0.0980652402543358   T   T   T
  0.4903555880387500  0.4974096761488463  0.0979876270866516   T   T   T
 
  0.00000000E+00  0.00000000E+00  0.00000000E+00
  0.00000000E+00  0.00000000E+00  0.00000000E+00
  0.00000000E+00  0.00000000E+00  0.00000000E+00
  0.00000000E+00  0.00000000E+00  0.00000000E+00
  0.00000000E+00  0.00000000E+00  0.00000000E+00
  0.00000000E+00  0.00000000E+00  0.00000000E+00
  0.00000000E+00  0.00000000E+00  0.00000000E+00
  0.00000000E+00  0.00000000E+00  0.00000000E+00
  0.00000000E+00  0.00000000E+00  0.00000000E+00
  0.00000000E+00  0.00000000E+00  0.00000000E+00
  0.00000000E+00  0.00000000E+00  0.00000000E+00
  0.00000000E+00  0.00000000E+00  0.00000000E+00
  0.00000000E+00  0.00000000E+00  0.00000000E+00
  0.00000000E+00  0.00000000E+00  0.00000000E+00
  0.00000000E+00  0.00000000E+00  0.00000000E+00
  0.00000000E+00  0.00000000E+00  0.00000000E+00
  0.00000000E+00  0.00000000E+00  0.00000000E+00
  0.00000000E+00  0.00000000E+00  0.00000000E+00
  0.00000000E+00  0.00000000E+00  0.00000000E+00
  0.00000000E+00  0.00000000E+00  0.00000000E+00
  0.00000000E+00  0.00000000E+00  0.00000000E+00
  0.00000000E+00  0.00000000E+00  0.00000000E+00
  0.00000000E+00  0.00000000E+00  0.00000000E+00
  0.00000000E+00  0.00000000E+00  0.00000000E+00
  0.00000000E+00  0.00000000E+00  0.00000000E+00
