Title                                   
   1.00000000000000     
     9.8694509999999998    0.0000000000000000    0.0000000000000000
     0.0000000000000000    8.5490480000000009    0.0000000000000000
     0.0000000000000000    0.0000000000000000   20.0000000000000000
    27     4     1
Selective dynamics
Direct
  0.0558229618093091  0.0924707881048810  0.0831916067111563   T   T   T
  0.9309666221652925  0.1745378897607493  0.0847107952308790   T   T   T
  0.0572481083696755  0.9250821415536236  0.0840088966500214   T   T   T
  0.9298426075511091  0.3419640559867488  0.0879750385712921   T   T   T
  0.0568274154276592  0.5901482069467738  0.0849891720912347   T   T   T
  0.9327673307831554  0.6736015809568396  0.0885669706831158   T   T   T
  0.0568316769341931  0.4233622178860143  0.0861068904838431   T   T   T
  0.9330501354129045  0.8405459538979886  0.0868511038611391   T   T   T
  0.3055246224998805  0.0882942602926628  0.0873994245997954   T   T   T
  0.1821047483485323  0.1737401064121193  0.0850236782658478   T   T   T
  0.1837813703476610  0.3409040554599582  0.0873944205907591   T   T   T
  0.3033433777781572  0.5925038550589204  0.0985654838718533   T   T   T
  0.1810705841494909  0.6748473426229531  0.0874002523467879   T   T   T
  0.3098982124262266  0.4252608562960331  0.0961934491273769   T   T   T
  0.1808725567899188  0.8413936023733138  0.0866770764460564   T   T   T
  0.5566045378384582  0.0835277915458705  0.0942642069199563   T   T   T
  0.4308459001489411  0.1677419045283167  0.0930091697684790   T   T   T
  0.5551640411904811  0.9167438303892754  0.0991809191023963   T   T   T
  0.4321864281672171  0.3321849875499451  0.1010809247679131   T   T   T
  0.4252233951488821  0.8402239600671573  0.1012312801040155   T   T   T
  0.8066244106109196  0.0892032557762922  0.0859485471839810   T   T   T
  0.6809517905302762  0.1687846106650484  0.0916280968829414   T   T   T
  0.8073839829904136  0.9232958348139898  0.0886510415655444   T   T   T
  0.6798690386679257  0.3333504466287974  0.1005173449459059   T   T   T
  0.8097096419990449  0.5928612938859412  0.1001155701404695   T   T   T
  0.8032717517723438  0.4246298818121084  0.0971009835468036   T   T   T
  0.6854436065038423  0.8389077583445712  0.1003426032300706   T   T   T
  0.4127160631855041  0.6855860286697429  0.1189937060135886   T   T   T
  0.5562558623014091  0.4002123442784603  0.1181666786527725   T   T   T
  0.6973913249055510  0.6824429812835711  0.1181254800739587   T   T   T
  0.3050648136263111  0.9240321891193758  0.0893422214012210   T   T   T
  0.5549800796193193  0.5878599870319587  0.1729219661688405   T   T   T
 
  0.00000000E+00  0.00000000E+00  0.00000000E+00
  0.00000000E+00  0.00000000E+00  0.00000000E+00
  0.00000000E+00  0.00000000E+00  0.00000000E+00
  0.00000000E+00  0.00000000E+00  0.00000000E+00
  0.00000000E+00  0.00000000E+00  0.00000000E+00
  0.00000000E+00  0.00000000E+00  0.00000000E+00
  0.00000000E+00  0.00000000E+00  0.00000000E+00
  0.00000000E+00  0.00000000E+00  0.00000000E+00
  0.00000000E+00  0.00000000E+00  0.00000000E+00
  0.00000000E+00  0.00000000E+00  0.00000000E+00
  0.00000000E+00  0.00000000E+00  0.00000000E+00
  0.00000000E+00  0.00000000E+00  0.00000000E+00
  0.00000000E+00  0.00000000E+00  0.00000000E+00
  0.00000000E+00  0.00000000E+00  0.00000000E+00
  0.00000000E+00  0.00000000E+00  0.00000000E+00
  0.00000000E+00  0.00000000E+00  0.00000000E+00
  0.00000000E+00  0.00000000E+00  0.00000000E+00
  0.00000000E+00  0.00000000E+00  0.00000000E+00
  0.00000000E+00  0.00000000E+00  0.00000000E+00
  0.00000000E+00  0.00000000E+00  0.00000000E+00
  0.00000000E+00  0.00000000E+00  0.00000000E+00
  0.00000000E+00  0.00000000E+00  0.00000000E+00
  0.00000000E+00  0.00000000E+00  0.00000000E+00
  0.00000000E+00  0.00000000E+00  0.00000000E+00
  0.00000000E+00  0.00000000E+00  0.00000000E+00
  0.00000000E+00  0.00000000E+00  0.00000000E+00
  0.00000000E+00  0.00000000E+00  0.00000000E+00
  0.00000000E+00  0.00000000E+00  0.00000000E+00
  0.00000000E+00  0.00000000E+00  0.00000000E+00
  0.00000000E+00  0.00000000E+00  0.00000000E+00
  0.00000000E+00  0.00000000E+00  0.00000000E+00
  0.00000000E+00  0.00000000E+00  0.00000000E+00
