Title                                   
   1.00000000000000     
     8.5490480000000009    0.0000000000000000    0.0000000000000000
     0.0000000000000000    8.5490480000000009    0.0000000000000000
     0.0000000000000000    0.0000000000000000   20.0000000000000000
    21     3     1
Selective dynamics
Direct
  0.9091944920829500  0.2050655964418195  0.0976459487493410   T   T   T
  0.9025291174120913  0.5028485557957559  0.0977693542105952   T   T   T
  0.9108446687820820  0.8012760912617588  0.0976374553173403   T   T   T
  0.2008609590044282  0.0825872862714307  0.0977958135426765   T   T   T
  0.0750467782841198  0.2052945914121912  0.0977005525272990   T   T   T
  0.1573830400855419  0.6481968119714708  0.0977008251660831   T   T   T
  0.0727421386065233  0.5017865165173964  0.0977039571495866   T   T   T
  0.1559450718669887  0.3559287068831014  0.0977427395980080   T   T   T
  0.0782987076078097  0.7969260112787153  0.0977140016381410   T   T   T
  0.4952745177646700  0.0864067047933259  0.0977852124660806   T   T   T
  0.3487591421107503  0.1669453701187839  0.0978416280941855   T   T   T
  0.4945580859133371  0.9166653789389645  0.0977573519327255   T   T   T
  0.3491964715522272  0.8328155521158960  0.0978394170100454   T   T   T
  0.7886269784423864  0.0858836577502998  0.0975799070732009   T   T   T
  0.6420993408028877  0.1677274795626355  0.0977455380947848   T   T   T
  0.7893326977958681  0.9191215884187572  0.0975497660405875   T   T   T
  0.8249386909161095  0.6514423940909309  0.0977610932033529   T   T   T
  0.8226921532604742  0.3549385542865988  0.0977910595120500   T   T   T
  0.6420264513595731  0.8356533154919116  0.0976777480302966   T   T   T
  0.3248432236353982  0.3370976092260711  0.0978074018043102   T   T   T
  0.3252231798309185  0.6669332873169699  0.0977525265966174   T   T   T
  0.6626890165759290  0.3312070558334510  0.0978916025711938   T   T   T
  0.6637469108466808  0.6737916711104016  0.0978346263509205   T   T   T
  0.2006985183589235  0.9178277747189773  0.0978807975488896   T   T   T
  0.4878616471013248  0.5004224383924049  0.0977986757716609   T   T   T
 
  0.00000000E+00  0.00000000E+00  0.00000000E+00
  0.00000000E+00  0.00000000E+00  0.00000000E+00
  0.00000000E+00  0.00000000E+00  0.00000000E+00
  0.00000000E+00  0.00000000E+00  0.00000000E+00
  0.00000000E+00  0.00000000E+00  0.00000000E+00
  0.00000000E+00  0.00000000E+00  0.00000000E+00
  0.00000000E+00  0.00000000E+00  0.00000000E+00
  0.00000000E+00  0.00000000E+00  0.00000000E+00
  0.00000000E+00  0.00000000E+00  0.00000000E+00
  0.00000000E+00  0.00000000E+00  0.00000000E+00
  0.00000000E+00  0.00000000E+00  0.00000000E+00
  0.00000000E+00  0.00000000E+00  0.00000000E+00
  0.00000000E+00  0.00000000E+00  0.00000000E+00
  0.00000000E+00  0.00000000E+00  0.00000000E+00
  0.00000000E+00  0.00000000E+00  0.00000000E+00
  0.00000000E+00  0.00000000E+00  0.00000000E+00
  0.00000000E+00  0.00000000E+00  0.00000000E+00
  0.00000000E+00  0.00000000E+00  0.00000000E+00
  0.00000000E+00  0.00000000E+00  0.00000000E+00
  0.00000000E+00  0.00000000E+00  0.00000000E+00
  0.00000000E+00  0.00000000E+00  0.00000000E+00
  0.00000000E+00  0.00000000E+00  0.00000000E+00
  0.00000000E+00  0.00000000E+00  0.00000000E+00
  0.00000000E+00  0.00000000E+00  0.00000000E+00
  0.00000000E+00  0.00000000E+00  0.00000000E+00
