Title                                   
   1.00000000000000     
     9.8694509999999998    0.0000000000000000    0.0000000000000000
     0.0000000000000000    8.5490480000000009    0.0000000000000000
     0.0000000000000000    0.0000000000000000   20.0000000000000000
    28     2     1
Selective dynamics
Direct
  0.0554426502626573  0.0894193507773351  0.0925573691631995   T   T   T
  0.9306687544590520  0.1722773549552965  0.0874721734567837   T   T   T
  0.0554421235293514  0.9229259792723759  0.0925331965132542   T   T   T
  0.9332597338463147  0.3384533934432094  0.0892694894189963   T   T   T
  0.0563906123579932  0.5894812214099813  0.0953754011271785   T   T   T
  0.9332776497047860  0.6738919747320189  0.0892205321115536   T   T   T
  0.0563788352770856  0.4228443025253404  0.0954073441334596   T   T   T
  0.9306647007697624  0.8400868945245650  0.0874389358734878   T   T   T
  0.3057797738694252  0.0905687437448405  0.1013432203944021   T   T   T
  0.1798365091338250  0.1722581507268059  0.0986535335543093   T   T   T
  0.3057875378081984  0.9217681355740952  0.1013254145459331   T   T   T
  0.1802834500505234  0.3393532548661047  0.1002758983462492   T   T   T
  0.3040856707943995  0.5908978364587948  0.1074414930720226   T   T   T
  0.1803032390313122  0.6729536125183021  0.1002347978906708   T   T   T
  0.3040781081142200  0.4213911759671201  0.1074612972369118   T   T   T
  0.1798438415044538  0.8400639122097977  0.0986232961975592   T   T   T
  0.5527250117811913  0.0906889507525216  0.0941968111024714   T   T   T
  0.4286930479154518  0.1791344543037016  0.1031799814405138   T   T   T
  0.5527369525829126  0.9216064508436046  0.0941690123954660   T   T   T
  0.4287013607862177  0.8331560383670671  0.1031445293206228   T   T   T
  0.8045417151090182  0.0896240255852056  0.0828029200054549   T   T   T
  0.6785536842321086  0.1730534683583170  0.0833904009854819   T   T   T
  0.8045374824280520  0.9227425226733589  0.0827810893243127   T   T   T
  0.6849309348154813  0.3382412753937416  0.0810926802940023   T   T   T
  0.8095606293422906  0.5910023550073926  0.0819031131921606   T   T   T
  0.6849333624239462  0.6740188130317316  0.0810897663781636   T   T   T
  0.8095387374009793  0.4213422784454621  0.0819272851964103   T   T   T
  0.6785634569829752  0.8392501766937935  0.0833634997047651   T   T   T
  0.4254404339491848  0.3418649625099580  0.1115593590800976   T   T   T
  0.4254391084670815  0.6704503738951957  0.1115047432864459   T   T   T
  0.5827158912697579  0.5060635604329793  0.1202264152577004   T   T   T
 
  0.00000000E+00  0.00000000E+00  0.00000000E+00
  0.00000000E+00  0.00000000E+00  0.00000000E+00
  0.00000000E+00  0.00000000E+00  0.00000000E+00
  0.00000000E+00  0.00000000E+00  0.00000000E+00
  0.00000000E+00  0.00000000E+00  0.00000000E+00
  0.00000000E+00  0.00000000E+00  0.00000000E+00
  0.00000000E+00  0.00000000E+00  0.00000000E+00
  0.00000000E+00  0.00000000E+00  0.00000000E+00
  0.00000000E+00  0.00000000E+00  0.00000000E+00
  0.00000000E+00  0.00000000E+00  0.00000000E+00
  0.00000000E+00  0.00000000E+00  0.00000000E+00
  0.00000000E+00  0.00000000E+00  0.00000000E+00
  0.00000000E+00  0.00000000E+00  0.00000000E+00
  0.00000000E+00  0.00000000E+00  0.00000000E+00
  0.00000000E+00  0.00000000E+00  0.00000000E+00
  0.00000000E+00  0.00000000E+00  0.00000000E+00
  0.00000000E+00  0.00000000E+00  0.00000000E+00
  0.00000000E+00  0.00000000E+00  0.00000000E+00
  0.00000000E+00  0.00000000E+00  0.00000000E+00
  0.00000000E+00  0.00000000E+00  0.00000000E+00
  0.00000000E+00  0.00000000E+00  0.00000000E+00
  0.00000000E+00  0.00000000E+00  0.00000000E+00
  0.00000000E+00  0.00000000E+00  0.00000000E+00
  0.00000000E+00  0.00000000E+00  0.00000000E+00
  0.00000000E+00  0.00000000E+00  0.00000000E+00
  0.00000000E+00  0.00000000E+00  0.00000000E+00
  0.00000000E+00  0.00000000E+00  0.00000000E+00
  0.00000000E+00  0.00000000E+00  0.00000000E+00
  0.00000000E+00  0.00000000E+00  0.00000000E+00
  0.00000000E+00  0.00000000E+00  0.00000000E+00
  0.00000000E+00  0.00000000E+00  0.00000000E+00
