Title                                   
   1.00000000000000     
     9.8694509999999998    0.0000000000000000    0.0000000000000000
     0.0000000000000000    8.5490480000000009    0.0000000000000000
     0.0000000000000000    0.0000000000000000   20.0000000000000000
    28     2     1
Selective dynamics
Direct
  0.0555397932258612  0.0892262635948226  0.0815050494194554   T   T   T
  0.9310276402467023  0.1715439694355235  0.0840551866028637   T   T   T
  0.0555275781519477  0.9231237775997847  0.0815129191059430   T   T   T
  0.9346175953734783  0.3382678715545027  0.0819959467571046   T   T   T
  0.0577369558355379  0.5891796641429958  0.0770380966079230   T   T   T
  0.9346359236950396  0.6740659008214387  0.0820066755535494   T   T   T
  0.0577307633920527  0.4231223393383141  0.0770228021697601   T   T   T
  0.9310136402817583  0.8407903253165521  0.0840581203407045   T   T   T
  0.3054225834061203  0.0903289969871318  0.0924777743358826   T   T   T
  0.1807428475438459  0.1719327836348734  0.0840838419557724   T   T   T
  0.3054038625249298  0.9219767704889802  0.0924934365249481   T   T   T
  0.1808001349545403  0.3389285029266641  0.0824893851943556   T   T   T
  0.3014671418221641  0.5917171036002826  0.0951187436272434   T   T   T
  0.1807915711300333  0.6733944144516475  0.0825379169462133   T   T   T
  0.3014750621924968  0.4205683180863071  0.0950901229629430   T   T   T
  0.1807103607070234  0.8403904067210731  0.0841163996946916   T   T   T
  0.5548122531315466  0.0911527216861491  0.1082204152777805   T   T   T
  0.4262635753910280  0.1776039911554148  0.1044763914066234   T   T   T
  0.5548034639288305  0.9211075329893662  0.1082278698146513   T   T   T
  0.4262361346012397  0.8346823319797986  0.1045061039488154   T   T   T
  0.8049067276224311  0.0902587936705907  0.0929630821417138   T   T   T
  0.6824104227887307  0.1768973546498207  0.1046960535962859   T   T   T
  0.8048958437865601  0.9220593614777270  0.0929463914157747   T   T   T
  0.6922475881955039  0.3449985255213865  0.1115342565273369   T   T   T
  0.8161261031738769  0.5900353027533132  0.0943779477599647   T   T   T
  0.6922463837229881  0.6673462746928399  0.1115089998116739   T   T   T
  0.8161238552473574  0.4223016028363135  0.0943841487962283   T   T   T
  0.6824037385025407  0.8354253451321222  0.1046793280215923   T   T   T
  0.4181896037841598  0.3392160118513453  0.1101774006668851   T   T   T
  0.4181822298892421  0.6730780166192467  0.1101998377885830   T   T   T
  0.5586436217504422  0.5061544242836853  0.1304643552267785   T   T   T
 
  0.00000000E+00  0.00000000E+00  0.00000000E+00
  0.00000000E+00  0.00000000E+00  0.00000000E+00
  0.00000000E+00  0.00000000E+00  0.00000000E+00
  0.00000000E+00  0.00000000E+00  0.00000000E+00
  0.00000000E+00  0.00000000E+00  0.00000000E+00
  0.00000000E+00  0.00000000E+00  0.00000000E+00
  0.00000000E+00  0.00000000E+00  0.00000000E+00
  0.00000000E+00  0.00000000E+00  0.00000000E+00
  0.00000000E+00  0.00000000E+00  0.00000000E+00
  0.00000000E+00  0.00000000E+00  0.00000000E+00
  0.00000000E+00  0.00000000E+00  0.00000000E+00
  0.00000000E+00  0.00000000E+00  0.00000000E+00
  0.00000000E+00  0.00000000E+00  0.00000000E+00
  0.00000000E+00  0.00000000E+00  0.00000000E+00
  0.00000000E+00  0.00000000E+00  0.00000000E+00
  0.00000000E+00  0.00000000E+00  0.00000000E+00
  0.00000000E+00  0.00000000E+00  0.00000000E+00
  0.00000000E+00  0.00000000E+00  0.00000000E+00
  0.00000000E+00  0.00000000E+00  0.00000000E+00
  0.00000000E+00  0.00000000E+00  0.00000000E+00
  0.00000000E+00  0.00000000E+00  0.00000000E+00
  0.00000000E+00  0.00000000E+00  0.00000000E+00
  0.00000000E+00  0.00000000E+00  0.00000000E+00
  0.00000000E+00  0.00000000E+00  0.00000000E+00
  0.00000000E+00  0.00000000E+00  0.00000000E+00
  0.00000000E+00  0.00000000E+00  0.00000000E+00
  0.00000000E+00  0.00000000E+00  0.00000000E+00
  0.00000000E+00  0.00000000E+00  0.00000000E+00
  0.00000000E+00  0.00000000E+00  0.00000000E+00
  0.00000000E+00  0.00000000E+00  0.00000000E+00
  0.00000000E+00  0.00000000E+00  0.00000000E+00
