Title                                   
   1.00000000000000     
     9.8694509999999998    0.0000000000000000    0.0000000000000000
     0.0000000000000000    8.5490480000000009    0.0000000000000000
     0.0000000000000000    0.0000000000000000   20.0000000000000000
    29     1     1
Selective dynamics
Direct
  0.0554862144143452  0.0884219893857416  0.0839250124251130   T   T   T
  0.9312045111931614  0.1728957029762566  0.0910415864137682   T   T   T
  0.0562822008270608  0.9225053886097151  0.0839554871682107   T   T   T
  0.9324294814312167  0.3396315923469467  0.0932904237896749   T   T   T
  0.0561080878163367  0.5895126845259461  0.0847815274855940   T   T   T
  0.9327172841087171  0.6736148265570983  0.0936889740631003   T   T   T
  0.0556368109382410  0.4230722187572916  0.0846928183714565   T   T   T
  0.9318925942963311  0.8401252425701458  0.0914510195027428   T   T   T
  0.3057400751978860  0.0888087578335774  0.0832256346278196   T   T   T
  0.1801502588257600  0.1710747409406026  0.0812729174208218   T   T   T
  0.3071605992736885  0.9219660254784982  0.0827008776554996   T   T   T
  0.1793640082876841  0.3377997626970322  0.0807169034927093   T   T   T
  0.3069107778375116  0.5890353699978041  0.0806921954054455   T   T   T
  0.1806821298183294  0.6717222725287789  0.0804424252838901   T   T   T
  0.3045386283805380  0.4173860073529935  0.0815396927670426   T   T   T
  0.1819105009796859  0.8388504013894140  0.0806495525559627   T   T   T
  0.5555774409095041  0.0917954750561844  0.1016641895657570   T   T   T
  0.4285151652192195  0.1763572517109116  0.0908473070048672   T   T   T
  0.5561216077418121  0.9250189376212105  0.1015092120491592   T   T   T
  0.4304688731225171  0.6713387414429799  0.0861112213251338   T   T   T
  0.4319632148974368  0.8365483059044301  0.0894429549249158   T   T   T
  0.8069608521055873  0.0906005354620241  0.0977380923390676   T   T   T
  0.6834073405936688  0.1768121704367404  0.1080458666410904   T   T   T
  0.8073024236274836  0.9237216152078043  0.0980541109733068   T   T   T
  0.6893780418256170  0.3387331272868942  0.1206355371720609   T   T   T
  0.8114325933078442  0.5930316357948291  0.1098613711608426   T   T   T
  0.6896703251062888  0.6768301975110745  0.1224232496343625   T   T   T
  0.8112819443767281  0.4216327207307677  0.1095060744646070   T   T   T
  0.6839078718476664  0.8392562444801034  0.1088267435291121   T   T   T
  0.4237240402416922  0.3365069711499082  0.0894394810830945   T   T   T
  0.5352091014504499  0.5062680862563058  0.1487925397038117   T   T   T
 
  0.00000000E+00  0.00000000E+00  0.00000000E+00
  0.00000000E+00  0.00000000E+00  0.00000000E+00
  0.00000000E+00  0.00000000E+00  0.00000000E+00
  0.00000000E+00  0.00000000E+00  0.00000000E+00
  0.00000000E+00  0.00000000E+00  0.00000000E+00
  0.00000000E+00  0.00000000E+00  0.00000000E+00
  0.00000000E+00  0.00000000E+00  0.00000000E+00
  0.00000000E+00  0.00000000E+00  0.00000000E+00
  0.00000000E+00  0.00000000E+00  0.00000000E+00
  0.00000000E+00  0.00000000E+00  0.00000000E+00
  0.00000000E+00  0.00000000E+00  0.00000000E+00
  0.00000000E+00  0.00000000E+00  0.00000000E+00
  0.00000000E+00  0.00000000E+00  0.00000000E+00
  0.00000000E+00  0.00000000E+00  0.00000000E+00
  0.00000000E+00  0.00000000E+00  0.00000000E+00
  0.00000000E+00  0.00000000E+00  0.00000000E+00
  0.00000000E+00  0.00000000E+00  0.00000000E+00
  0.00000000E+00  0.00000000E+00  0.00000000E+00
  0.00000000E+00  0.00000000E+00  0.00000000E+00
  0.00000000E+00  0.00000000E+00  0.00000000E+00
  0.00000000E+00  0.00000000E+00  0.00000000E+00
  0.00000000E+00  0.00000000E+00  0.00000000E+00
  0.00000000E+00  0.00000000E+00  0.00000000E+00
  0.00000000E+00  0.00000000E+00  0.00000000E+00
  0.00000000E+00  0.00000000E+00  0.00000000E+00
  0.00000000E+00  0.00000000E+00  0.00000000E+00
  0.00000000E+00  0.00000000E+00  0.00000000E+00
  0.00000000E+00  0.00000000E+00  0.00000000E+00
  0.00000000E+00  0.00000000E+00  0.00000000E+00
  0.00000000E+00  0.00000000E+00  0.00000000E+00
  0.00000000E+00  0.00000000E+00  0.00000000E+00
