Title                                   
   1.00000000000000     
     9.8694509999999998    0.0000000000000000    0.0000000000000000
     0.0000000000000000    8.5490480000000009    0.0000000000000000
     0.0000000000000000    0.0000000000000000   20.0000000000000000
    30     1     1
Selective dynamics
Direct
  0.0556906451971697  0.0904199993058213  0.0811291450821185   T   T   T
  0.9313089575489267  0.1729138037356001  0.0831020874543852   T   T   T
  0.0571298615676935  0.9238778126751015  0.0813338854293727   T   T   T
  0.9309004026433967  0.3404312970176062  0.0871558248019360   T   T   T
  0.0568755608894648  0.5899220645198849  0.0840117788287218   T   T   T
  0.9326767654852762  0.6730019964881558  0.0867838805383475   T   T   T
  0.0569519473693465  0.4231254830668368  0.0850283834374130   T   T   T
  0.9321700260787803  0.8394233841511669  0.0839285848863951   T   T   T
  0.3050688443058067  0.0883815310676670  0.0868878354816444   T   T   T
  0.1815100687478791  0.1721068488898968  0.0838333726672730   T   T   T
  0.1824432805937048  0.3397886982402945  0.0870306126610786   T   T   T
  0.3029768399812464  0.5902483848459426  0.1002293202221782   T   T   T
  0.1816411415299498  0.6742651237571780  0.0869195826114559   T   T   T
  0.3056495365056384  0.4222783887445637  0.0975403785193065   T   T   T
  0.1816896512546514  0.8409670644135024  0.0849040854082668   T   T   T
  0.5562116809185563  0.0869666905776213  0.0930575660584786   T   T   T
  0.4303467276034239  0.1694985375576710  0.0928070125751488   T   T   T
  0.5548726879634676  0.9223121471794622  0.0983298469747510   T   T   T
  0.4298805066530058  0.3342850911683784  0.1028277300045223   T   T   T
  0.4160950199385423  0.6829552692388545  0.1184091384088119   T   T   T
  0.5563965011961232  0.4042139590959156  0.1188395124667646   T   T   T
  0.4263152257817134  0.8426216665410238  0.1022214519042478   T   T   T
  0.8066785476042851  0.0890040273261545  0.0849109462604160   T   T   T
  0.6817042677376136  0.1702937647698457  0.0914972303548071   T   T   T
  0.8069397223822201  0.9229843080534362  0.0867461942869449   T   T   T
  0.6821932751389472  0.3347367207714320  0.1025696656645450   T   T   T
  0.8100769773565684  0.5901716982731783  0.1000706390301149   T   T   T
  0.6947631290453946  0.6809300469143313  0.1162424804902143   T   T   T
  0.8076552340166034  0.4217812859398180  0.0978554354066506   T   T   T
  0.6830603860689062  0.8409828269384667  0.0995813261723552   T   T   T
  0.3048097769301074  0.9244131041225743  0.0886367196229643   T   T   T
  0.5569558039655974  0.5909429746126261  0.1712533462884039   T   T   T
 
  0.00000000E+00  0.00000000E+00  0.00000000E+00
  0.00000000E+00  0.00000000E+00  0.00000000E+00
  0.00000000E+00  0.00000000E+00  0.00000000E+00
  0.00000000E+00  0.00000000E+00  0.00000000E+00
  0.00000000E+00  0.00000000E+00  0.00000000E+00
  0.00000000E+00  0.00000000E+00  0.00000000E+00
  0.00000000E+00  0.00000000E+00  0.00000000E+00
  0.00000000E+00  0.00000000E+00  0.00000000E+00
  0.00000000E+00  0.00000000E+00  0.00000000E+00
  0.00000000E+00  0.00000000E+00  0.00000000E+00
  0.00000000E+00  0.00000000E+00  0.00000000E+00
  0.00000000E+00  0.00000000E+00  0.00000000E+00
  0.00000000E+00  0.00000000E+00  0.00000000E+00
  0.00000000E+00  0.00000000E+00  0.00000000E+00
  0.00000000E+00  0.00000000E+00  0.00000000E+00
  0.00000000E+00  0.00000000E+00  0.00000000E+00
  0.00000000E+00  0.00000000E+00  0.00000000E+00
  0.00000000E+00  0.00000000E+00  0.00000000E+00
  0.00000000E+00  0.00000000E+00  0.00000000E+00
  0.00000000E+00  0.00000000E+00  0.00000000E+00
  0.00000000E+00  0.00000000E+00  0.00000000E+00
  0.00000000E+00  0.00000000E+00  0.00000000E+00
  0.00000000E+00  0.00000000E+00  0.00000000E+00
  0.00000000E+00  0.00000000E+00  0.00000000E+00
  0.00000000E+00  0.00000000E+00  0.00000000E+00
  0.00000000E+00  0.00000000E+00  0.00000000E+00
  0.00000000E+00  0.00000000E+00  0.00000000E+00
  0.00000000E+00  0.00000000E+00  0.00000000E+00
  0.00000000E+00  0.00000000E+00  0.00000000E+00
  0.00000000E+00  0.00000000E+00  0.00000000E+00
  0.00000000E+00  0.00000000E+00  0.00000000E+00
  0.00000000E+00  0.00000000E+00  0.00000000E+00
