Title                                   
   1.00000000000000     
     8.5490480000000009    0.0000000000000000    0.0000000000000000
     0.0000000000000000    8.5490480000000009    0.0000000000000000
     0.0000000000000000    0.0000000000000000   20.0000000000000000
    21     3     1
Selective dynamics
Direct
  0.9089097919643746  0.2044351521964456  0.0975451152383316   T   T   T
  0.9036068447112015  0.5027348630825176  0.0977855716435180   T   T   T
  0.9108193925708932  0.8019656747884508  0.0975304904971394   T   T   T
  0.1990617172307192  0.0828666641968844  0.0977534492160693   T   T   T
  0.0749218555349592  0.2039672536003444  0.0976197366841964   T   T   T
  0.1567042260462455  0.6487682070348473  0.0977089372405685   T   T   T
  0.0729475075608831  0.5015518399282775  0.0977160568118902   T   T   T
  0.1552769088358619  0.3550744372675556  0.0977228545771030   T   T   T
  0.0781008576977831  0.7981045591611280  0.0976396174223985   T   T   T
  0.4950916716730448  0.0864814186277890  0.0978211070567996   T   T   T
  0.3475185173349055  0.1656429707406764  0.0978607753302786   T   T   T
  0.4944318058913121  0.9169382275453972  0.0977774856846933   T   T   T
  0.3476377924065477  0.8344957805550582  0.0978288307900303   T   T   T
  0.7886073805077584  0.0860262703449004  0.0974686075755274   T   T   T
  0.6420880333696675  0.1668564190592796  0.0977559924193574   T   T   T
  0.7893428931748339  0.9191681560075594  0.0974441669332738   T   T   T
  0.8265178649682159  0.6517521828336563  0.0977484882711805   T   T   T
  0.8244632700605088  0.3541904777490418  0.0977940980633618   T   T   T
  0.6421779493570777  0.8367506202006908  0.0976756172657106   T   T   T
  0.3228848986345580  0.3338474429360082  0.0978779959991460   T   T   T
  0.3231200067940974  0.6701908812056351  0.0978238659382641   T   T   T
  0.6646575257796427  0.3301853733331727  0.0979934715471298   T   T   T
  0.6658186998632376  0.6745502700549214  0.0979070667612927   T   T   T
  0.1990745830277515  0.9175215725084125  0.0977999731920114   T   T   T
  0.4916300050039131  0.5007232850413706  0.0981056278407006   T   T   T
 
  0.00000000E+00  0.00000000E+00  0.00000000E+00
  0.00000000E+00  0.00000000E+00  0.00000000E+00
  0.00000000E+00  0.00000000E+00  0.00000000E+00
  0.00000000E+00  0.00000000E+00  0.00000000E+00
  0.00000000E+00  0.00000000E+00  0.00000000E+00
  0.00000000E+00  0.00000000E+00  0.00000000E+00
  0.00000000E+00  0.00000000E+00  0.00000000E+00
  0.00000000E+00  0.00000000E+00  0.00000000E+00
  0.00000000E+00  0.00000000E+00  0.00000000E+00
  0.00000000E+00  0.00000000E+00  0.00000000E+00
  0.00000000E+00  0.00000000E+00  0.00000000E+00
  0.00000000E+00  0.00000000E+00  0.00000000E+00
  0.00000000E+00  0.00000000E+00  0.00000000E+00
  0.00000000E+00  0.00000000E+00  0.00000000E+00
  0.00000000E+00  0.00000000E+00  0.00000000E+00
  0.00000000E+00  0.00000000E+00  0.00000000E+00
  0.00000000E+00  0.00000000E+00  0.00000000E+00
  0.00000000E+00  0.00000000E+00  0.00000000E+00
  0.00000000E+00  0.00000000E+00  0.00000000E+00
  0.00000000E+00  0.00000000E+00  0.00000000E+00
  0.00000000E+00  0.00000000E+00  0.00000000E+00
  0.00000000E+00  0.00000000E+00  0.00000000E+00
  0.00000000E+00  0.00000000E+00  0.00000000E+00
  0.00000000E+00  0.00000000E+00  0.00000000E+00
  0.00000000E+00  0.00000000E+00  0.00000000E+00
