Title                                   
   1.00000000000000     
     9.8694509999999998    0.0000000000000000    0.0000000000000000
     0.0000000000000000    8.5490480000000009    0.0000000000000000
     0.0000000000000000    0.0000000000000000   20.0000000000000000
    28     3     1
Selective dynamics
Direct
  0.0564676247618017  0.0929793573460126  0.0907077243846250   T   T   T
  0.9301988195369314  0.1805932896475441  0.0908832607683467   T   T   T
  0.0609756508357882  0.9264053610463305  0.0907328059170892   T   T   T
  0.9262833615657742  0.3479369837877873  0.0899260233797535   T   T   T
  0.0576254673521537  0.5926447162410282  0.0899431630324785   T   T   T
  0.9343500514658588  0.6801940150147145  0.0898309359095258   T   T   T
  0.0541730846705193  0.4259484539596510  0.0896091274097092   T   T   T
  0.9346985215710834  0.8474054421378224  0.0902832253706274   T   T   T
  0.3090750320775472  0.0838270829472290  0.0922764256227230   T   T   T
  0.1833137762514657  0.1710088990040397  0.0911817331753141   T   T   T
  0.3157271869962486  0.9132326848061102  0.0926144504432057   T   T   T
  0.1781004314636634  0.3382553548927456  0.0910735276611560   T   T   T
  0.3078331461489915  0.5827209083436542  0.0931367093671705   T   T   T
  0.1842597452676797  0.6709150795992385  0.0910071032741973   T   T   T
  0.1871143746217019  0.8375679838069628  0.0914327487878591   T   T   T
  0.5563166878631207  0.0900376247564823  0.0952360066178187   T   T   T
  0.4306952581850299  0.1720698005712578  0.0947606142718432   T   T   T
  0.4240576662794566  0.3409010645114591  0.0978352295342399   T   T   T
  0.4431352661654275  0.8207653913448616  0.0940007742060966   T   T   T
  0.8046775027535633  0.1015836613215703  0.0918219668467055   T   T   T
  0.6757659922615739  0.1848596280887379  0.0939852996636100   T   T   T
  0.8097362943922485  0.9345469442193156  0.0911071456550684   T   T   T
  0.6699802929747571  0.3587078995062515  0.0954064208405904   T   T   T
  0.8065313910656542  0.6044757363403865  0.0891427845955895   T   T   T
  0.7992850607357797  0.4348151523317329  0.0908163212360283   T   T   T
  0.6900737960700842  0.8433909098294222  0.0905730185849636   T   T   T
  0.4407625393220269  0.6439640182735602  0.0957383330251966   T   T   T
  0.5348496505701129  0.4467338243109882  0.1092982535092880   T   T   T
  0.6907411304053369  0.6893836425346586  0.0877353959519274   T   T   T
  0.5613989896575782  0.9188364235360551  0.0936697579746947   T   T   T
  0.2998628086395704  0.4183243377767085  0.0933449238105660   T   T   T
  0.5415723980714774  0.4952143281656831  0.2165637891720081   T   T   T
 
  0.00000000E+00  0.00000000E+00  0.00000000E+00
  0.00000000E+00  0.00000000E+00  0.00000000E+00
  0.00000000E+00  0.00000000E+00  0.00000000E+00
  0.00000000E+00  0.00000000E+00  0.00000000E+00
  0.00000000E+00  0.00000000E+00  0.00000000E+00
  0.00000000E+00  0.00000000E+00  0.00000000E+00
  0.00000000E+00  0.00000000E+00  0.00000000E+00
  0.00000000E+00  0.00000000E+00  0.00000000E+00
  0.00000000E+00  0.00000000E+00  0.00000000E+00
  0.00000000E+00  0.00000000E+00  0.00000000E+00
  0.00000000E+00  0.00000000E+00  0.00000000E+00
  0.00000000E+00  0.00000000E+00  0.00000000E+00
  0.00000000E+00  0.00000000E+00  0.00000000E+00
  0.00000000E+00  0.00000000E+00  0.00000000E+00
  0.00000000E+00  0.00000000E+00  0.00000000E+00
  0.00000000E+00  0.00000000E+00  0.00000000E+00
  0.00000000E+00  0.00000000E+00  0.00000000E+00
  0.00000000E+00  0.00000000E+00  0.00000000E+00
  0.00000000E+00  0.00000000E+00  0.00000000E+00
  0.00000000E+00  0.00000000E+00  0.00000000E+00
  0.00000000E+00  0.00000000E+00  0.00000000E+00
  0.00000000E+00  0.00000000E+00  0.00000000E+00
  0.00000000E+00  0.00000000E+00  0.00000000E+00
  0.00000000E+00  0.00000000E+00  0.00000000E+00
  0.00000000E+00  0.00000000E+00  0.00000000E+00
  0.00000000E+00  0.00000000E+00  0.00000000E+00
  0.00000000E+00  0.00000000E+00  0.00000000E+00
  0.00000000E+00  0.00000000E+00  0.00000000E+00
  0.00000000E+00  0.00000000E+00  0.00000000E+00
  0.00000000E+00  0.00000000E+00  0.00000000E+00
  0.00000000E+00  0.00000000E+00  0.00000000E+00
  0.00000000E+00  0.00000000E+00  0.00000000E+00
