Title                                   
   1.00000000000000     
     9.8694509999999998    0.0000000000000000    0.0000000000000000
     0.0000000000000000    8.5490480000000009    0.0000000000000000
     0.0000000000000000    0.0000000000000000   20.0000000000000000
    25     5     1
Selective dynamics
Direct
  0.0557226861822217  0.0903880581887368  0.0946700557303175   T   T   T
  0.9302691651333422  0.1726801844330968  0.0951579046107772   T   T   T
  0.0573015402738518  0.9237540898447265  0.0946393082919257   T   T   T
  0.9330730914730462  0.3402743903746552  0.0948547042931229   T   T   T
  0.0572905006544446  0.5896489487119074  0.0936129117918821   T   T   T
  0.9338238883787784  0.6739036289834610  0.0947853327490089   T   T   T
  0.0575151765689757  0.4230837031414580  0.0937060320110439   T   T   T
  0.9325144721686076  0.8407067084523248  0.0951637337065957   T   T   T
  0.3072394847025907  0.0881798558038848  0.0962577922029171   T   T   T
  0.1814497971390908  0.1719132944488294  0.0949166502665288   T   T   T
  0.1811601647987172  0.3387641255416019  0.0944440518785306   T   T   T
  0.3037940667747159  0.5898751031352731  0.0962838697550359   T   T   T
  0.1809280898602512  0.6737108208957815  0.0943045224951348   T   T   T
  0.3044769416837028  0.4217913967176710  0.0963516222186769   T   T   T
  0.1814299575180492  0.8402312714854500  0.0948122566316410   T   T   T
  0.4301232199300348  0.1745808006836044  0.0983411616938015   T   T   T
  0.5540723504755282  0.9190025649245055  0.0990815301321044   T   T   T
  0.4284160563843901  0.8364858632999101  0.0983814231984021   T   T   T
  0.8041555496693340  0.0888614342434094  0.0965775191481357   T   T   T
  0.6797933216910937  0.1760943804804029  0.0985417666023011   T   T   T
  0.8060124637325805  0.9219279787792666  0.0966634262995988   T   T   T
  0.6846984039545342  0.3408164541272246  0.0997553631704900   T   T   T
  0.8113800817093763  0.5923609015387761  0.0970673980450512   T   T   T
  0.8100546900232423  0.4236898987577142  0.0970394213613269   T   T   T
  0.6819418110339525  0.8343337081382246  0.0987600692683953   T   T   T
  0.5550824974693778  0.0916649280755325  0.0990907422480320   T   T   T
  0.4262427660632939  0.3366092404045976  0.0994177674412378   T   T   T
  0.6887567108913741  0.6718628309817363  0.0999474071615530   T   T   T
  0.4232831434894399  0.6762038227707357  0.0996057195686079   T   T   T
  0.3057915213059995  0.9229867866154561  0.0960720527657820   T   T   T
  0.5553413888660720  0.5044878260200578  0.1026614832620781   T   T   T
 
  0.00000000E+00  0.00000000E+00  0.00000000E+00
  0.00000000E+00  0.00000000E+00  0.00000000E+00
  0.00000000E+00  0.00000000E+00  0.00000000E+00
  0.00000000E+00  0.00000000E+00  0.00000000E+00
  0.00000000E+00  0.00000000E+00  0.00000000E+00
  0.00000000E+00  0.00000000E+00  0.00000000E+00
  0.00000000E+00  0.00000000E+00  0.00000000E+00
  0.00000000E+00  0.00000000E+00  0.00000000E+00
  0.00000000E+00  0.00000000E+00  0.00000000E+00
  0.00000000E+00  0.00000000E+00  0.00000000E+00
  0.00000000E+00  0.00000000E+00  0.00000000E+00
  0.00000000E+00  0.00000000E+00  0.00000000E+00
  0.00000000E+00  0.00000000E+00  0.00000000E+00
  0.00000000E+00  0.00000000E+00  0.00000000E+00
  0.00000000E+00  0.00000000E+00  0.00000000E+00
  0.00000000E+00  0.00000000E+00  0.00000000E+00
  0.00000000E+00  0.00000000E+00  0.00000000E+00
  0.00000000E+00  0.00000000E+00  0.00000000E+00
  0.00000000E+00  0.00000000E+00  0.00000000E+00
  0.00000000E+00  0.00000000E+00  0.00000000E+00
  0.00000000E+00  0.00000000E+00  0.00000000E+00
  0.00000000E+00  0.00000000E+00  0.00000000E+00
  0.00000000E+00  0.00000000E+00  0.00000000E+00
  0.00000000E+00  0.00000000E+00  0.00000000E+00
  0.00000000E+00  0.00000000E+00  0.00000000E+00
  0.00000000E+00  0.00000000E+00  0.00000000E+00
  0.00000000E+00  0.00000000E+00  0.00000000E+00
  0.00000000E+00  0.00000000E+00  0.00000000E+00
  0.00000000E+00  0.00000000E+00  0.00000000E+00
  0.00000000E+00  0.00000000E+00  0.00000000E+00
  0.00000000E+00  0.00000000E+00  0.00000000E+00
