Title                                   
   1.00000000000000     
     4.9440799999999996    0.0000000000000000    0.0000000000000000
     0.0000000000000000   17.1295089999999988    0.0000000000000000
     0.0000000000000000    0.0000000000000000   20.0000000000000000
    26     4     1
Selective dynamics
Direct
  0.0006115320878406  0.1055049046461003  0.2979450568132877   T   T   T
  0.2502149493222610  0.1483577356107949  0.2985866114486014   T   T   T
  0.2506107340232927  0.2327554256625629  0.3000131152658774   T   T   T
 -0.0034053027241688  0.2731160152527354  0.3007790954392156   T   T   T
 -0.0020167302653576  0.6015431973285892  0.3012078125162412   T   T   T
  0.2483348191663867  0.7267338770105790  0.2990486703732600   T   T   T
  0.0007464598348030  0.8531555099360527  0.2973429261606686   T   T   T
  0.2493383678357383  0.8952714882214509  0.2970076635939925   T   T   T
  0.2495276098354234  0.9792962561685080  0.2968646961035451   T   T   T
  0.0008277522761865  0.7689281755747535  0.2983980186454662   T   T   T
  0.4988757237668355  0.1052570243649722  0.2979180161464307   T   T   T
  0.7492810693947503  0.1470154297139807  0.2985336743239693   T   T   T
  0.7490761398655996  0.2303442608715810  0.2999591823120435   T   T   T
  0.4990060719130038  0.0213824208520870  0.2970728458837239   T   T   T
  0.7561715631882567  0.3938892006908665  0.3024345399593613   T   T   T
  0.7556068758189167  0.4807036460713516  0.3026283215208612   T   T   T
  0.5031640872083287  0.2744139988117238  0.3006701146035348   T   T   T
  0.5003299768686303  0.6019674837461627  0.3011453765298526   T   T   T
  0.7502447757461680  0.7276497803901666  0.2990331021157051   T   T   T
  0.4980865162371101  0.8528076522445386  0.2973496269687161   T   T   T
  0.7494615028051173  0.8949883107206137  0.2970121836433294   T   T   T
  0.7495989426827201  0.9790584200127925  0.2968672051182815   T   T   T
  0.4975587570710471  0.7686614429047199  0.2983980807813614   T   T   T
  0.7484648654599383  0.6449889036892301  0.3005045415673078   T   T   T
  0.0001002916683502  0.0214653151363371  0.2970839542342529   T   T   T
  0.5125962749099529  0.5206549146619873  0.3020832805160133   T   T   T
  0.9928949932847163  0.5227544307417129  0.3023991270077306   T   T   T
  0.5183018023219097  0.3544188333023909  0.3018971503081120   T   T   T
 -0.0142429337079580  0.3523997551950123  0.3021657217660711   T   T   T
  0.2472124743625049  0.6433037743077563  0.3004125967486192   T   T   T
  0.2534270377416979  0.4385544161578865  0.3022976915845186   T   T   T
 
  0.00000000E+00  0.00000000E+00  0.00000000E+00
  0.00000000E+00  0.00000000E+00  0.00000000E+00
  0.00000000E+00  0.00000000E+00  0.00000000E+00
  0.00000000E+00  0.00000000E+00  0.00000000E+00
  0.00000000E+00  0.00000000E+00  0.00000000E+00
  0.00000000E+00  0.00000000E+00  0.00000000E+00
  0.00000000E+00  0.00000000E+00  0.00000000E+00
  0.00000000E+00  0.00000000E+00  0.00000000E+00
  0.00000000E+00  0.00000000E+00  0.00000000E+00
  0.00000000E+00  0.00000000E+00  0.00000000E+00
  0.00000000E+00  0.00000000E+00  0.00000000E+00
  0.00000000E+00  0.00000000E+00  0.00000000E+00
  0.00000000E+00  0.00000000E+00  0.00000000E+00
  0.00000000E+00  0.00000000E+00  0.00000000E+00
  0.00000000E+00  0.00000000E+00  0.00000000E+00
  0.00000000E+00  0.00000000E+00  0.00000000E+00
  0.00000000E+00  0.00000000E+00  0.00000000E+00
  0.00000000E+00  0.00000000E+00  0.00000000E+00
  0.00000000E+00  0.00000000E+00  0.00000000E+00
  0.00000000E+00  0.00000000E+00  0.00000000E+00
  0.00000000E+00  0.00000000E+00  0.00000000E+00
  0.00000000E+00  0.00000000E+00  0.00000000E+00
  0.00000000E+00  0.00000000E+00  0.00000000E+00
  0.00000000E+00  0.00000000E+00  0.00000000E+00
  0.00000000E+00  0.00000000E+00  0.00000000E+00
  0.00000000E+00  0.00000000E+00  0.00000000E+00
  0.00000000E+00  0.00000000E+00  0.00000000E+00
  0.00000000E+00  0.00000000E+00  0.00000000E+00
  0.00000000E+00  0.00000000E+00  0.00000000E+00
  0.00000000E+00  0.00000000E+00  0.00000000E+00
  0.00000000E+00  0.00000000E+00  0.00000000E+00
