Title                                   
   1.00000000000000     
     9.8694509999999998    0.0000000000000000    0.0000000000000000
     0.0000000000000000    8.5490480000000009    0.0000000000000000
     0.0000000000000000    0.0000000000000000   20.0000000000000000
    28     2     1
Selective dynamics
Direct
  0.0557224687090709  0.0888010053675754  0.0915248626394737   T   T   T
  0.9314172573906447  0.1726289337983318  0.0963038395298838   T   T   T
  0.0580961790446816  0.9224631374977489  0.0921906781388929   T   T   T
  0.9341272502282960  0.3399201645007423  0.0980221799248061   T   T   T
  0.0587816345672153  0.5904749934208904  0.0946129965712173   T   T   T
  0.9343534184191850  0.6745912405202282  0.0997355937192554   T   T   T
  0.0583554832380350  0.4226538699522592  0.0940006018141011   T   T   T
  0.9328731702544849  0.8411426406284860  0.0978195298598250   T   T   T
  0.3061929141945569  0.0865414422945931  0.0842475813564678   T   T   T
  0.1805640323295217  0.1696239344137852  0.0872148137296264   T   T   T
  0.1805705325527954  0.3363826663440752  0.0881763716812349   T   T   T
  0.3082684032507810  0.5866804890255163  0.0827510453860255   T   T   T
  0.1833590529391402  0.6723273762327040  0.0895537632187693   T   T   T
  0.3052304016874338  0.4166407957592919  0.0819886757210309   T   T   T
  0.1836140515563990  0.8387096099732030  0.0883695571547305   T   T   T
  0.5562882147996073  0.0931780766693825  0.0936559762786242   T   T   T
  0.4290012312659502  0.1720116800744872  0.0844691187842270   T   T   T
  0.5565458776392732  0.9247211129631139  0.0949398479460266   T   T   T
  0.4317032204709882  0.6728803936258324  0.0824195654374433   T   T   T
  0.4330876162238234  0.8388271294505474  0.0852922216626092   T   T   T
  0.8044549287803962  0.0921617450213412  0.0989326541204397   T   T   T
  0.6796828902687504  0.1820898526960122  0.1008598580968284   T   T   T
  0.8051798945183896  0.9232461709451155  0.0997950866484190   T   T   T
  0.6849766229688038  0.3506697699946327  0.1084698477763558   T   T   T
  0.8117667933832347  0.5922886942527688  0.1075544346653206   T   T   T
  0.6835325670227194  0.6676551344318996  0.1154187562407035   T   T   T
  0.8121439197172651  0.4250100963393491  0.1049130619732667   T   T   T
  0.6803818315379784  0.8355264082189146  0.1036554432495393   T   T   T
  0.4249399052880329  0.3337724162579080  0.0800545880847787   T   T   T
  0.3078967261221270  0.9211641724747013  0.0844220449585978   T   T   T
  0.5300265096304373  0.5060898468545828  0.1296004036315281   T   T   T
 
  0.00000000E+00  0.00000000E+00  0.00000000E+00
  0.00000000E+00  0.00000000E+00  0.00000000E+00
  0.00000000E+00  0.00000000E+00  0.00000000E+00
  0.00000000E+00  0.00000000E+00  0.00000000E+00
  0.00000000E+00  0.00000000E+00  0.00000000E+00
  0.00000000E+00  0.00000000E+00  0.00000000E+00
  0.00000000E+00  0.00000000E+00  0.00000000E+00
  0.00000000E+00  0.00000000E+00  0.00000000E+00
  0.00000000E+00  0.00000000E+00  0.00000000E+00
  0.00000000E+00  0.00000000E+00  0.00000000E+00
  0.00000000E+00  0.00000000E+00  0.00000000E+00
  0.00000000E+00  0.00000000E+00  0.00000000E+00
  0.00000000E+00  0.00000000E+00  0.00000000E+00
  0.00000000E+00  0.00000000E+00  0.00000000E+00
  0.00000000E+00  0.00000000E+00  0.00000000E+00
  0.00000000E+00  0.00000000E+00  0.00000000E+00
  0.00000000E+00  0.00000000E+00  0.00000000E+00
  0.00000000E+00  0.00000000E+00  0.00000000E+00
  0.00000000E+00  0.00000000E+00  0.00000000E+00
  0.00000000E+00  0.00000000E+00  0.00000000E+00
  0.00000000E+00  0.00000000E+00  0.00000000E+00
  0.00000000E+00  0.00000000E+00  0.00000000E+00
  0.00000000E+00  0.00000000E+00  0.00000000E+00
  0.00000000E+00  0.00000000E+00  0.00000000E+00
  0.00000000E+00  0.00000000E+00  0.00000000E+00
  0.00000000E+00  0.00000000E+00  0.00000000E+00
  0.00000000E+00  0.00000000E+00  0.00000000E+00
  0.00000000E+00  0.00000000E+00  0.00000000E+00
  0.00000000E+00  0.00000000E+00  0.00000000E+00
  0.00000000E+00  0.00000000E+00  0.00000000E+00
  0.00000000E+00  0.00000000E+00  0.00000000E+00
