Title                                   
   1.00000000000000     
     9.8694509999999998    0.0000000000000000    0.0000000000000000
     0.0000000000000000    8.5490480000000009    0.0000000000000000
     0.0000000000000000    0.0000000000000000   20.0000000000000000
    26     5     1
Selective dynamics
Direct
  0.0557251339350249  0.0902584168299053  0.0884095533060303   T   T   T
  0.9310298134268359  0.1748914074680708  0.0879959810699849   T   T   T
  0.0577940237445571  0.9226742523058954  0.0890514606688986   T   T   T
  0.9289578272836925  0.3421223474066454  0.0884791403711685   T   T   T
  0.0564140058049764  0.5914718153836508  0.0909807528847919   T   T   T
  0.0550489685727650  0.4241887816959551  0.0907224584607889   T   T   T
  0.9335322618482774  0.8396083297710518  0.0889297828566176   T   T   T
  0.3061548454235654  0.0873966341998981  0.0919838357452497   T   T   T
  0.1818573320051522  0.1722753338543002  0.0902700362468710   T   T   T
  0.1812998304489538  0.3393639479407462  0.0929542561081443   T   T   T
  0.3048054966844531  0.5877423923706729  0.1053190545830021   T   T   T
  0.1816879212689562  0.6739783437112132  0.0950149126818666   T   T   T
  0.3073851099609575  0.4202009725967781  0.1000271342170538   T   T   T
  0.1830827889082461  0.8406141645163959  0.0927502591831481   T   T   T
  0.5568708685186102  0.0858766753834629  0.0936320805292465   T   T   T
  0.5564848425131501  0.9205594389373404  0.0977541004587183   T   T   T
  0.4321146512232077  0.3326696284669890  0.0987387519069629   T   T   T
  0.4290514039841637  0.8390910164938697  0.1058228776605194   T   T   T
  0.8064773413611013  0.0895153053932705  0.0884113882850777   T   T   T
  0.6798967617945767  0.1710243690921366  0.0903177852693682   T   T   T
  0.8082256251694692  0.9235063649100123  0.0894820021159575   T   T   T
  0.6774615999914014  0.3384912202788299  0.0919631243315709   T   T   T
  0.8066472955604196  0.5964136214380538  0.0899230441886652   T   T   T
  0.8019170158385094  0.4267007564227654  0.0889548272224708   T   T   T
  0.6841330588722158  0.8399601957649241  0.0934647752326158   T   T   T
  0.4194746297120264  0.6808219899048256  0.1227445345560160   T   T   T
  0.5520711993764323  0.4083431495875198  0.0994976579727146   T   T   T
  0.6894665404511497  0.6790925803110908  0.0931863468117858   T   T   T
  0.3065322602685155  0.9242165038465903  0.0941055338833161   T   T   T
  0.4297014865709664  0.1666949885095762  0.0949897281996989   T   T   T
  0.9327684066302804  0.6740427690129834  0.0900555403379530   T   T   T
  0.5655686528473982  0.5864382861945799  0.1697422826537422   T   T   T
 
  0.00000000E+00  0.00000000E+00  0.00000000E+00
  0.00000000E+00  0.00000000E+00  0.00000000E+00
  0.00000000E+00  0.00000000E+00  0.00000000E+00
  0.00000000E+00  0.00000000E+00  0.00000000E+00
  0.00000000E+00  0.00000000E+00  0.00000000E+00
  0.00000000E+00  0.00000000E+00  0.00000000E+00
  0.00000000E+00  0.00000000E+00  0.00000000E+00
  0.00000000E+00  0.00000000E+00  0.00000000E+00
  0.00000000E+00  0.00000000E+00  0.00000000E+00
  0.00000000E+00  0.00000000E+00  0.00000000E+00
  0.00000000E+00  0.00000000E+00  0.00000000E+00
  0.00000000E+00  0.00000000E+00  0.00000000E+00
  0.00000000E+00  0.00000000E+00  0.00000000E+00
  0.00000000E+00  0.00000000E+00  0.00000000E+00
  0.00000000E+00  0.00000000E+00  0.00000000E+00
  0.00000000E+00  0.00000000E+00  0.00000000E+00
  0.00000000E+00  0.00000000E+00  0.00000000E+00
  0.00000000E+00  0.00000000E+00  0.00000000E+00
  0.00000000E+00  0.00000000E+00  0.00000000E+00
  0.00000000E+00  0.00000000E+00  0.00000000E+00
  0.00000000E+00  0.00000000E+00  0.00000000E+00
  0.00000000E+00  0.00000000E+00  0.00000000E+00
  0.00000000E+00  0.00000000E+00  0.00000000E+00
  0.00000000E+00  0.00000000E+00  0.00000000E+00
  0.00000000E+00  0.00000000E+00  0.00000000E+00
  0.00000000E+00  0.00000000E+00  0.00000000E+00
  0.00000000E+00  0.00000000E+00  0.00000000E+00
  0.00000000E+00  0.00000000E+00  0.00000000E+00
  0.00000000E+00  0.00000000E+00  0.00000000E+00
  0.00000000E+00  0.00000000E+00  0.00000000E+00
  0.00000000E+00  0.00000000E+00  0.00000000E+00
  0.00000000E+00  0.00000000E+00  0.00000000E+00
