Title                                   
   1.00000000000000     
     9.8694509999999998    0.0000000000000000    0.0000000000000000
     0.0000000000000000    8.5490480000000009    0.0000000000000000
     0.0000000000000000    0.0000000000000000   20.0000000000000000
    28     2     1
Selective dynamics
Direct
  0.0561458728005198  0.0888549212881229  0.0933080379736043   T   T   T
  0.9316486320282727  0.1715317155892664  0.0937226766670764   T   T   T
  0.0561488408141116  0.9235032369125545  0.0933091462818670   T   T   T
  0.9358463905835861  0.3374396940056827  0.0937189684664170   T   T   T
  0.0576809788039338  0.5893919536972717  0.0931045543695240   T   T   T
  0.9358490373842808  0.6749036574902749  0.0937191758216046   T   T   T
  0.0576792804407844  0.4229447086664413  0.0930924300376515   T   T   T
  0.9316499942966533  0.8408120475540513  0.0937274017620049   T   T   T
  0.3041240032077598  0.0893284268935945  0.0946379268103140   T   T   T
  0.1798232085960696  0.1718970649137844  0.0936782722935944   T   T   T
  0.3041206226081957  0.9229720374123485  0.0946486383549862   T   T   T
  0.1791949312257946  0.3390762052049874  0.0934990128341243   T   T   T
  0.3021005466220861  0.5918348042921778  0.0946723139047219   T   T   T
  0.1792009535878992  0.6732491305368172  0.0935220789830432   T   T   T
  0.3021078778048857  0.4204028332497490  0.0946470347807373   T   T   T
  0.1798172077207652  0.8404400354984390  0.0936921373969054   T   T   T
  0.5539634424186257  0.0907141153436082  0.0962270202863234   T   T   T
  0.4272974869458141  0.1754786779234235  0.0957445573063969   T   T   T
  0.5539679855765551  0.9215482409729360  0.0962218788253924   T   T   T
  0.4272961729115483  0.8367812784764223  0.0957508284277366   T   T   T
  0.8061751047285184  0.0898151618376663  0.0947278387054633   T   T   T
  0.6815698275357023  0.1760548641861062  0.0961261932565937   T   T   T
  0.8061784738698543  0.9225199652382488  0.0947183768786467   T   T   T
  0.6932392826814069  0.3399128005892242  0.0969800699921042   T   T   T
  0.8151999879899919  0.5908358735252399  0.0953306587818768   T   T   T
  0.6932506118061827  0.6724350746847430  0.0969594218859067   T   T   T
  0.8152004259706911  0.4214908467479804  0.0953363245034305   T   T   T
  0.6815783850418173  0.8362767352072644  0.0960950924306169   T   T   T
  0.4193564210839634  0.3354082372291018  0.0960360632775147   T   T   T
  0.4193412177968302  0.6768442915210356  0.0960371511436278   T   T   T
  0.5563817951169095  0.5061763633114473  0.0979737175602340   T   T   T
 
  0.00000000E+00  0.00000000E+00  0.00000000E+00
  0.00000000E+00  0.00000000E+00  0.00000000E+00
  0.00000000E+00  0.00000000E+00  0.00000000E+00
  0.00000000E+00  0.00000000E+00  0.00000000E+00
  0.00000000E+00  0.00000000E+00  0.00000000E+00
  0.00000000E+00  0.00000000E+00  0.00000000E+00
  0.00000000E+00  0.00000000E+00  0.00000000E+00
  0.00000000E+00  0.00000000E+00  0.00000000E+00
  0.00000000E+00  0.00000000E+00  0.00000000E+00
  0.00000000E+00  0.00000000E+00  0.00000000E+00
  0.00000000E+00  0.00000000E+00  0.00000000E+00
  0.00000000E+00  0.00000000E+00  0.00000000E+00
  0.00000000E+00  0.00000000E+00  0.00000000E+00
  0.00000000E+00  0.00000000E+00  0.00000000E+00
  0.00000000E+00  0.00000000E+00  0.00000000E+00
  0.00000000E+00  0.00000000E+00  0.00000000E+00
  0.00000000E+00  0.00000000E+00  0.00000000E+00
  0.00000000E+00  0.00000000E+00  0.00000000E+00
  0.00000000E+00  0.00000000E+00  0.00000000E+00
  0.00000000E+00  0.00000000E+00  0.00000000E+00
  0.00000000E+00  0.00000000E+00  0.00000000E+00
  0.00000000E+00  0.00000000E+00  0.00000000E+00
  0.00000000E+00  0.00000000E+00  0.00000000E+00
  0.00000000E+00  0.00000000E+00  0.00000000E+00
  0.00000000E+00  0.00000000E+00  0.00000000E+00
  0.00000000E+00  0.00000000E+00  0.00000000E+00
  0.00000000E+00  0.00000000E+00  0.00000000E+00
  0.00000000E+00  0.00000000E+00  0.00000000E+00
  0.00000000E+00  0.00000000E+00  0.00000000E+00
  0.00000000E+00  0.00000000E+00  0.00000000E+00
  0.00000000E+00  0.00000000E+00  0.00000000E+00
