Title                                   
   1.00000000000000     
     8.5490480000000009    0.0000000000000000    0.0000000000000000
     0.0000000000000000    8.5490480000000009    0.0000000000000000
     0.0000000000000000    0.0000000000000000   20.0000000000000000
    21     3     1
Selective dynamics
Direct
  0.9090688519962064  0.2066712688694445  0.0982702245591311   T   T   T
  0.9115800443285768  0.8003717439033134  0.0975372162254191   T   T   T
  0.1975827080702271  0.0828345785057858  0.0973427625136567   T   T   T
  0.0761173486553235  0.2012209445511691  0.0975899601719994   T   T   T
  0.1580019093965531  0.6483908499983106  0.0965027531814142   T   T   T
  0.0763460191040493  0.5004332237271386  0.0975985859950801   T   T   T
  0.1580815302697694  0.3546959256220784  0.0988123831229429   T   T   T
  0.0788879604638667  0.7988166292280517  0.0972478434982914   T   T   T
  0.3473697922635308  0.1651079477211872  0.0984445671115203   T   T   T
  0.4930859793271196  0.9196031408635813  0.0980971779275760   T   T   T
  0.3461095388202511  0.8367288210017868  0.0967832552167646   T   T   T
  0.7868279883853226  0.0857471738970913  0.0988442379445543   T   T   T
  0.6368261637637521  0.1681363433233883  0.0968474703897303   T   T   T
  0.7896978309877210  0.9196140615939513  0.0983517629729029   T   T   T
  0.8292647138145408  0.6478565649215960  0.0985417577336858   T   T   T
  0.8274140281183715  0.3573200461463495  0.0963315394583057   T   T   T
  0.6382518470213943  0.8370958229637339  0.0995858276237910   T   T   T
  0.3241437674570715  0.3302590651146040  0.1019926167698279   T   T   T
  0.3231341557395129  0.6730601253651374  0.0946398292458949   T   T   T
  0.6611514482517369  0.3340743413827624  0.0917793302036019   T   T   T
  0.6644963289722579  0.6704665875132373  0.1025154333654567   T   T   T
  0.4935204873218769  0.0861034879104595  0.0975585454052059   T   T   T
  0.9092221205672282  0.5018531840628523  0.0973603737039062   T   T   T
  0.1969327621410241  0.9158189016287324  0.0974966639272739   T   T   T
  0.4922966747627029  0.5025092201842659  0.0976328817320470   T   T   T
 
  0.00000000E+00  0.00000000E+00  0.00000000E+00
  0.00000000E+00  0.00000000E+00  0.00000000E+00
  0.00000000E+00  0.00000000E+00  0.00000000E+00
  0.00000000E+00  0.00000000E+00  0.00000000E+00
  0.00000000E+00  0.00000000E+00  0.00000000E+00
  0.00000000E+00  0.00000000E+00  0.00000000E+00
  0.00000000E+00  0.00000000E+00  0.00000000E+00
  0.00000000E+00  0.00000000E+00  0.00000000E+00
  0.00000000E+00  0.00000000E+00  0.00000000E+00
  0.00000000E+00  0.00000000E+00  0.00000000E+00
  0.00000000E+00  0.00000000E+00  0.00000000E+00
  0.00000000E+00  0.00000000E+00  0.00000000E+00
  0.00000000E+00  0.00000000E+00  0.00000000E+00
  0.00000000E+00  0.00000000E+00  0.00000000E+00
  0.00000000E+00  0.00000000E+00  0.00000000E+00
  0.00000000E+00  0.00000000E+00  0.00000000E+00
  0.00000000E+00  0.00000000E+00  0.00000000E+00
  0.00000000E+00  0.00000000E+00  0.00000000E+00
  0.00000000E+00  0.00000000E+00  0.00000000E+00
  0.00000000E+00  0.00000000E+00  0.00000000E+00
  0.00000000E+00  0.00000000E+00  0.00000000E+00
  0.00000000E+00  0.00000000E+00  0.00000000E+00
  0.00000000E+00  0.00000000E+00  0.00000000E+00
  0.00000000E+00  0.00000000E+00  0.00000000E+00
  0.00000000E+00  0.00000000E+00  0.00000000E+00
