Title                                   
   1.00000000000000     
     9.8694509999999998    0.0000000000000000    0.0000000000000000
     0.0000000000000000    8.5490480000000009    0.0000000000000000
     0.0000000000000000    0.0000000000000000   20.0000000000000000
    23     7     1
Selective dynamics
Direct
  0.0556042007988287  0.0896005299037357  0.0949094303178720   T   T   T
  0.9318092935351301  0.1721315247038030  0.0952365302289864   T   T   T
  0.0572120340408095  0.9207114155093732  0.0950244510110691   T   T   T
  0.9330466403194164  0.3389406901252993  0.0949545698742716   T   T   T
  0.0557560702169734  0.5902511136401385  0.0944149461695904   T   T   T
  0.0558569909170034  0.4237757019133670  0.0942453840339937   T   T   T
  0.9318091300664416  0.8382038910220058  0.0953823470793409   T   T   T
  0.3076097663902009  0.0892250949116545  0.0963611038760438   T   T   T
  0.1809864025560212  0.1717813659442987  0.0952535522346114   T   T   T
  0.1798063760605747  0.3390900035371932  0.0949612148239280   T   T   T
  0.3027248665585299  0.5906644736823605  0.0967333159561738   T   T   T
  0.1790877111676947  0.6733700398385911  0.0951593223468365   T   T   T
  0.3040846366016017  0.4208651025951357  0.0966212062068904   T   T   T
  0.1809927395946276  0.8403815235165578  0.0954625070178276   T   T   T
  0.4287738138683042  0.1768260569720889  0.0980118029193230   T   T   T
  0.5551769507828150  0.9192527816486525  0.0987912981853952   T   T   T
  0.4283611184049063  0.8356883995723102  0.0983449216371570   T   T   T
  0.8054442870988412  0.0886992055325456  0.0964041421527204   T   T   T
  0.6833685693077762  0.1784564947802832  0.0981299715719320   T   T   T
  0.8067106040558063  0.9209179411207830  0.0965202952876624   T   T   T
  0.8093263678315292  0.5915416957718691  0.0969996688452617   T   T   T
  0.8096692400932896  0.4208588918535083  0.0968808773100475   T   T   T
  0.6821854575492956  0.8351955435439985  0.0983305507811655   T   T   T
  0.9329391671349655  0.6722208185810783  0.0950512533444958   T   T   T
  0.5568400727064692  0.0964721601320248  0.0988577808174002   T   T   T
  0.4231910203368107  0.3377677142136647  0.0987136947160170   T   T   T
  0.4215873887833769  0.6764532597222583  0.0992388214878157   T   T   T
  0.6894704207490147  0.3385970189020049  0.0991894777649131   T   T   T
  0.6920954949520071  0.6731320237747186  0.0991636018833551   T   T   T
  0.3055938659402210  0.9220103025196523  0.0963224945114767   T   T   T
  0.5560153015807183  0.5077922205150421  0.1012944656064835   T   T   T
 
  0.00000000E+00  0.00000000E+00  0.00000000E+00
  0.00000000E+00  0.00000000E+00  0.00000000E+00
  0.00000000E+00  0.00000000E+00  0.00000000E+00
  0.00000000E+00  0.00000000E+00  0.00000000E+00
  0.00000000E+00  0.00000000E+00  0.00000000E+00
  0.00000000E+00  0.00000000E+00  0.00000000E+00
  0.00000000E+00  0.00000000E+00  0.00000000E+00
  0.00000000E+00  0.00000000E+00  0.00000000E+00
  0.00000000E+00  0.00000000E+00  0.00000000E+00
  0.00000000E+00  0.00000000E+00  0.00000000E+00
  0.00000000E+00  0.00000000E+00  0.00000000E+00
  0.00000000E+00  0.00000000E+00  0.00000000E+00
  0.00000000E+00  0.00000000E+00  0.00000000E+00
  0.00000000E+00  0.00000000E+00  0.00000000E+00
  0.00000000E+00  0.00000000E+00  0.00000000E+00
  0.00000000E+00  0.00000000E+00  0.00000000E+00
  0.00000000E+00  0.00000000E+00  0.00000000E+00
  0.00000000E+00  0.00000000E+00  0.00000000E+00
  0.00000000E+00  0.00000000E+00  0.00000000E+00
  0.00000000E+00  0.00000000E+00  0.00000000E+00
  0.00000000E+00  0.00000000E+00  0.00000000E+00
  0.00000000E+00  0.00000000E+00  0.00000000E+00
  0.00000000E+00  0.00000000E+00  0.00000000E+00
  0.00000000E+00  0.00000000E+00  0.00000000E+00
  0.00000000E+00  0.00000000E+00  0.00000000E+00
  0.00000000E+00  0.00000000E+00  0.00000000E+00
  0.00000000E+00  0.00000000E+00  0.00000000E+00
  0.00000000E+00  0.00000000E+00  0.00000000E+00
  0.00000000E+00  0.00000000E+00  0.00000000E+00
  0.00000000E+00  0.00000000E+00  0.00000000E+00
  0.00000000E+00  0.00000000E+00  0.00000000E+00
