Title                                   
   1.00000000000000     
     4.9440799999999996    0.0000000000000000    0.0000000000000000
     0.0000000000000000   17.1295089999999988    0.0000000000000000
     0.0000000000000000    0.0000000000000000   20.0000000000000000
    28     2     1
Selective dynamics
Direct
  0.0012249817895632  0.1058671977261258  0.2931681452611098   T   T   T
  0.2503479959458532  0.1480738054949690  0.2944491903172538   T   T   T
  0.2503085790653838  0.2325934527544241  0.2980865002496405   T   T   T
 -0.0006513615370965  0.2734608283581221  0.3001331743212975   T   T   T
  0.0007002424457935  0.6018070768748846  0.3022686211333643   T   T   T
  0.2501445440505062  0.7277477988322062  0.2952042810579568   T   T   T
  0.0004129232695612  0.8538149729315997  0.2923061138648051   T   T   T
  0.2502832577469418  0.8958854443888128  0.2920050886495950   T   T   T
  0.2503635050073136  0.9797754859472450  0.2918596073023326   T   T   T
  0.0002999320466785  0.7699536074643696  0.2937407091410213   T   T   T
  0.4995375040220537  0.1058844627620073  0.2931261979160559   T   T   T
  0.7504312557698246  0.1476359990020397  0.2937913364850527   T   T   T
  0.7504522001718564  0.2311342079877079  0.2968239649736271   T   T   T
  0.4999575871428832  0.0219162091620930  0.2920043734295073   T   T   T
  0.7501693344537741  0.3923032236506135  0.3067587404560757   T   T   T
  0.7499383471687286  0.4770114108033364  0.3097829501358937   T   T   T
  0.5014018472699312  0.2733805364650408  0.2998564454965901   T   T   T
  0.4995761586253883  0.6019065382946047  0.3018999689535875   T   T   T
  0.7502276029670685  0.7278628503928462  0.2946842390955483   T   T   T
  0.5001086388067120  0.8538097880183979  0.2922786105652697   T   T   T
  0.7502865398013290  0.8959317427969069  0.2918961529530598   T   T   T
  0.7503616689547734  0.9799028737464711  0.2917524912978779   T   T   T
  0.5000941453049386  0.7699364170003662  0.2936833314449186   T   T   T
  0.7502366514347543  0.6440354935989216  0.2983865756331116   T   T   T
  0.2500783283068786  0.6442231815249919  0.2996062215074549   T   T   T
  0.0007767371477832  0.0219041363903783  0.2920274461946896   T   T   T
  0.5008988177798127  0.5190480365678471  0.3096698063289698   T   T   T
 -0.0006005395435552  0.5189692696820667  0.3106438441974260   T   T   T
  0.5083217187747676  0.3539807310343278  0.3058076206443600   T   T   T
 -0.0077103631787736  0.3540545870406441  0.3066225026535995   T   T   T
  0.2520282189885744  0.4375306333056276  0.3507357483388996   T   T   T
 
  0.00000000E+00  0.00000000E+00  0.00000000E+00
  0.00000000E+00  0.00000000E+00  0.00000000E+00
  0.00000000E+00  0.00000000E+00  0.00000000E+00
  0.00000000E+00  0.00000000E+00  0.00000000E+00
  0.00000000E+00  0.00000000E+00  0.00000000E+00
  0.00000000E+00  0.00000000E+00  0.00000000E+00
  0.00000000E+00  0.00000000E+00  0.00000000E+00
  0.00000000E+00  0.00000000E+00  0.00000000E+00
  0.00000000E+00  0.00000000E+00  0.00000000E+00
  0.00000000E+00  0.00000000E+00  0.00000000E+00
  0.00000000E+00  0.00000000E+00  0.00000000E+00
  0.00000000E+00  0.00000000E+00  0.00000000E+00
  0.00000000E+00  0.00000000E+00  0.00000000E+00
  0.00000000E+00  0.00000000E+00  0.00000000E+00
  0.00000000E+00  0.00000000E+00  0.00000000E+00
  0.00000000E+00  0.00000000E+00  0.00000000E+00
  0.00000000E+00  0.00000000E+00  0.00000000E+00
  0.00000000E+00  0.00000000E+00  0.00000000E+00
  0.00000000E+00  0.00000000E+00  0.00000000E+00
  0.00000000E+00  0.00000000E+00  0.00000000E+00
  0.00000000E+00  0.00000000E+00  0.00000000E+00
  0.00000000E+00  0.00000000E+00  0.00000000E+00
  0.00000000E+00  0.00000000E+00  0.00000000E+00
  0.00000000E+00  0.00000000E+00  0.00000000E+00
  0.00000000E+00  0.00000000E+00  0.00000000E+00
  0.00000000E+00  0.00000000E+00  0.00000000E+00
  0.00000000E+00  0.00000000E+00  0.00000000E+00
  0.00000000E+00  0.00000000E+00  0.00000000E+00
  0.00000000E+00  0.00000000E+00  0.00000000E+00
  0.00000000E+00  0.00000000E+00  0.00000000E+00
  0.00000000E+00  0.00000000E+00  0.00000000E+00
