Title                                   
   1.00000000000000     
     9.8694509999999998    0.0000000000000000    0.0000000000000000
     0.0000000000000000    8.5490480000000009    0.0000000000000000
     0.0000000000000000    0.0000000000000000   20.0000000000000000
    30     1     1
Selective dynamics
Direct
  0.0560564424235927  0.0905896936785322  0.0799192722221422   T   T   T
  0.9308961937326623  0.1743999339587435  0.0846882327960948   T   T   T
  0.0563977349613756  0.9230631712391797  0.0777831701518162   T   T   T
  0.9291431004238150  0.3414709291807866  0.0921150028427043   T   T   T
  0.0560058187998459  0.5891654064167582  0.0856691341032411   T   T   T
  0.9311849939484528  0.6727584635579181  0.0875977344330934   T   T   T
  0.0556556974263744  0.4234453586403352  0.0886178749724943   T   T   T
  0.9312866861573666  0.8395998622566183  0.0814677960994272   T   T   T
  0.3053836268691250  0.0891656996359796  0.0825326366324593   T   T   T
  0.1811876700635066  0.1731112474413658  0.0835616810866315   T   T   T
  0.3068486422918738  0.9236871584966967  0.0811406205862947   T   T   T
  0.1821292200392607  0.3402947091887681  0.0899211354338018   T   T   T
  0.3052684435168411  0.5903517812053268  0.0980885817013975   T   T   T
  0.1811620184107035  0.6719424210877116  0.0850909042966331   T   T   T
  0.3065472863347383  0.4207915821345976  0.1008624658997598   T   T   T
  0.1819868689194477  0.8388320092801567  0.0798755079155075   T   T   T
  0.5564398605786312  0.0857510872197837  0.0920051483557464   T   T   T
  0.4309332470882816  0.1681116352528457  0.0914455068721324   T   T   T
  0.4311627866393875  0.3297486098706289  0.1085612982012642   T   T   T
  0.4219008846718174  0.6836996617934724  0.1088805258513552   T   T   T
  0.5534039634540462  0.3937125028938245  0.1324649737458077   T   T   T
  0.4308475728879205  0.8409755664175418  0.0926822484378145   T   T   T
  0.8071053017844797  0.0909472515349898  0.0839067162549452   T   T   T
  0.6812647224528899  0.1696457679759330  0.0932591545392600   T   T   T
  0.8066593674512116  0.9251915193353373  0.0826986328787928   T   T   T
  0.6795292138416561  0.3315620038574211  0.1112273680465791   T   T   T
  0.8083267139857576  0.5930930011006774  0.1044498187794834   T   T   T
  0.6948272445352405  0.6906877081314188  0.1194101784819407   T   T   T
  0.8050052116214529  0.4227944384484330  0.1055486817185646   T   T   T
  0.6843670092855118  0.8432087800021908  0.0963970521649310   T   T   T
  0.5571221778883411  0.9225897287037199  0.0932920422950235   T   T   T
  0.5536032775143972  0.5958573100623143  0.1705139022028951   T   T   T
 
  0.00000000E+00  0.00000000E+00  0.00000000E+00
  0.00000000E+00  0.00000000E+00  0.00000000E+00
  0.00000000E+00  0.00000000E+00  0.00000000E+00
  0.00000000E+00  0.00000000E+00  0.00000000E+00
  0.00000000E+00  0.00000000E+00  0.00000000E+00
  0.00000000E+00  0.00000000E+00  0.00000000E+00
  0.00000000E+00  0.00000000E+00  0.00000000E+00
  0.00000000E+00  0.00000000E+00  0.00000000E+00
  0.00000000E+00  0.00000000E+00  0.00000000E+00
  0.00000000E+00  0.00000000E+00  0.00000000E+00
  0.00000000E+00  0.00000000E+00  0.00000000E+00
  0.00000000E+00  0.00000000E+00  0.00000000E+00
  0.00000000E+00  0.00000000E+00  0.00000000E+00
  0.00000000E+00  0.00000000E+00  0.00000000E+00
  0.00000000E+00  0.00000000E+00  0.00000000E+00
  0.00000000E+00  0.00000000E+00  0.00000000E+00
  0.00000000E+00  0.00000000E+00  0.00000000E+00
  0.00000000E+00  0.00000000E+00  0.00000000E+00
  0.00000000E+00  0.00000000E+00  0.00000000E+00
  0.00000000E+00  0.00000000E+00  0.00000000E+00
  0.00000000E+00  0.00000000E+00  0.00000000E+00
  0.00000000E+00  0.00000000E+00  0.00000000E+00
  0.00000000E+00  0.00000000E+00  0.00000000E+00
  0.00000000E+00  0.00000000E+00  0.00000000E+00
  0.00000000E+00  0.00000000E+00  0.00000000E+00
  0.00000000E+00  0.00000000E+00  0.00000000E+00
  0.00000000E+00  0.00000000E+00  0.00000000E+00
  0.00000000E+00  0.00000000E+00  0.00000000E+00
  0.00000000E+00  0.00000000E+00  0.00000000E+00
  0.00000000E+00  0.00000000E+00  0.00000000E+00
  0.00000000E+00  0.00000000E+00  0.00000000E+00
  0.00000000E+00  0.00000000E+00  0.00000000E+00
