Title                                   
   1.00000000000000     
     9.8694509999999998    0.0000000000000000    0.0000000000000000
     0.0000000000000000    8.5490480000000009    0.0000000000000000
     0.0000000000000000    0.0000000000000000   20.0000000000000000
    29     2     1
Selective dynamics
Direct
  0.0564649773646828  0.0898208132853967  0.0861693393089496   T   T   T
  0.9317671190879526  0.1728803033364294  0.0875236573802960   T   T   T
  0.0573503926858976  0.9229144153417330  0.0854955086923963   T   T   T
  0.9311829213729491  0.3403267299057264  0.0916094775928376   T   T   T
  0.0569913730297037  0.5904906905160019  0.0903211839538441   T   T   T
  0.9313491251731798  0.6725901932831198  0.0911200871031178   T   T   T
  0.0571598435272556  0.4228870894124226  0.0909838775441563   T   T   T
  0.9317641762888095  0.8389373374402916  0.0871722763685870   T   T   T
  0.3059586694732773  0.0889820550436116  0.0887955845033523   T   T   T
  0.1823279010352489  0.1728226951470148  0.0888553494191837   T   T   T
  0.1825445484313422  0.3396844288075813  0.0922935009964443   T   T   T
  0.3074978632326923  0.5879652637763676  0.0996777499875737   T   T   T
  0.1827903505910354  0.6737269422804909  0.0907907664569361   T   T   T
  0.3075459314997331  0.4209098291282855  0.1006180037761146   T   T   T
  0.1819918096963233  0.8402831498157038  0.0877308717388602   T   T   T
  0.5553322339604443  0.0884003317350022  0.0908365990620001   T   T   T
  0.5543523715880930  0.9257461065233606  0.0926690281463250   T   T   T
  0.4313473422374208  0.3316480724275125  0.1068153240636570   T   T   T
  0.4285239055590370  0.8425651824827545  0.0965897440568821   T   T   T
  0.8065382065094399  0.0889759054175442  0.0862307860335529   T   T   T
  0.6808806520819558  0.1711169338072464  0.0911576921865178   T   T   T
  0.8068913498987100  0.9235846017576795  0.0868984756680602   T   T   T
  0.6820054043138296  0.3335683466064210  0.1041652385611140   T   T   T
  0.8053679804475491  0.5896240075652291  0.0996565102243767   T   T   T
  0.8057348391334948  0.4212083956452116  0.0994156844224918   T   T   T
  0.6809862479547399  0.8424852544631090  0.0943336728445142   T   T   T
  0.4237542927401055  0.6839105182853414  0.1082005216122777   T   T   T
  0.5559747411109741  0.3986809072080912  0.1233749029223132   T   T   T
  0.6869073537237743  0.6816781760719350  0.1071935895050519   T   T   T
  0.3057426541085235  0.9265394242774668  0.0885453988824944   T   T   T
  0.4290453193790279  0.1686738777668671  0.0922661183240535   T   T   T
  0.5555671027628032  0.5966180214390518  0.1581684786616840   T   T   T
 
  0.00000000E+00  0.00000000E+00  0.00000000E+00
  0.00000000E+00  0.00000000E+00  0.00000000E+00
  0.00000000E+00  0.00000000E+00  0.00000000E+00
  0.00000000E+00  0.00000000E+00  0.00000000E+00
  0.00000000E+00  0.00000000E+00  0.00000000E+00
  0.00000000E+00  0.00000000E+00  0.00000000E+00
  0.00000000E+00  0.00000000E+00  0.00000000E+00
  0.00000000E+00  0.00000000E+00  0.00000000E+00
  0.00000000E+00  0.00000000E+00  0.00000000E+00
  0.00000000E+00  0.00000000E+00  0.00000000E+00
  0.00000000E+00  0.00000000E+00  0.00000000E+00
  0.00000000E+00  0.00000000E+00  0.00000000E+00
  0.00000000E+00  0.00000000E+00  0.00000000E+00
  0.00000000E+00  0.00000000E+00  0.00000000E+00
  0.00000000E+00  0.00000000E+00  0.00000000E+00
  0.00000000E+00  0.00000000E+00  0.00000000E+00
  0.00000000E+00  0.00000000E+00  0.00000000E+00
  0.00000000E+00  0.00000000E+00  0.00000000E+00
  0.00000000E+00  0.00000000E+00  0.00000000E+00
  0.00000000E+00  0.00000000E+00  0.00000000E+00
  0.00000000E+00  0.00000000E+00  0.00000000E+00
  0.00000000E+00  0.00000000E+00  0.00000000E+00
  0.00000000E+00  0.00000000E+00  0.00000000E+00
  0.00000000E+00  0.00000000E+00  0.00000000E+00
  0.00000000E+00  0.00000000E+00  0.00000000E+00
  0.00000000E+00  0.00000000E+00  0.00000000E+00
  0.00000000E+00  0.00000000E+00  0.00000000E+00
  0.00000000E+00  0.00000000E+00  0.00000000E+00
  0.00000000E+00  0.00000000E+00  0.00000000E+00
  0.00000000E+00  0.00000000E+00  0.00000000E+00
  0.00000000E+00  0.00000000E+00  0.00000000E+00
  0.00000000E+00  0.00000000E+00  0.00000000E+00
