Title                                   
   1.00000000000000     
     9.8694509999999998    0.0000000000000000    0.0000000000000000
     0.0000000000000000    8.5490480000000009    0.0000000000000000
     0.0000000000000000    0.0000000000000000   20.0000000000000000
    28     3     1
Selective dynamics
Direct
  0.0562124893918674  0.0916554118576879  0.0841573673539167   T   T   T
  0.9308898029981563  0.1744642756985398  0.0860498365196180   T   T   T
  0.0562257865094115  0.9241035078292978  0.0837709737174097   T   T   T
  0.9298825714516182  0.3408046454457571  0.0885923914117196   T   T   T
  0.0562601012405627  0.5890651367678116  0.0847035861457889   T   T   T
  0.9324959317739359  0.6732797877408676  0.0866304345153662   T   T   T
  0.0561869387436926  0.4228217608132093  0.0867948670871409   T   T   T
  0.9322909742313553  0.8402376790804497  0.0858270446703317   T   T   T
  0.3058505006842332  0.0895133307522980  0.0875607163285217   T   T   T
  0.1815314428611762  0.1744015651741381  0.0859998631497986   T   T   T
  0.3050632875779805  0.9236473915515593  0.0887032416707727   T   T   T
  0.1824839487150343  0.3407705921018721  0.0885605905674282   T   T   T
  0.3034274912042581  0.5921776073419616  0.0963728655137449   T   T   T
  0.1800420892861420  0.6732404369007459  0.0866726443839482   T   T   T
  0.3092619121387197  0.4244050201399435  0.0958762454952650   T   T   T
  0.1801564079733452  0.8401834129006293  0.0858197260536149   T   T   T
  0.5561822547608656  0.0844463970054326  0.0957515724091698   T   T   T
  0.4313148592026442  0.1695058160846286  0.0933049113833481   T   T   T
  0.5562052693929356  0.9169336950178208  0.0994218123736965   T   T   T
  0.4324831398683803  0.3340850397118647  0.0999821504396615   T   T   T
  0.4266150542234951  0.8390577657260349  0.0987551440061037   T   T   T
  0.8065870142329011  0.0896277093764424  0.0876421139837609   T   T   T
  0.6810670546182301  0.1695395298179034  0.0933677876479510   T   T   T
  0.8074291876369613  0.9238122144722118  0.0887445278930541   T   T   T
  0.6798194461617399  0.3341211453153508  0.1000286086186875   T   T   T
  0.8091346592554611  0.5922235638897487  0.0962955147169336   T   T   T
  0.8030816190175645  0.4244415199811434  0.0958995529141459   T   T   T
  0.6858754271872480  0.8392864561546255  0.0987348960332530   T   T   T
  0.4175340820996967  0.6802118251186540  0.1115733481384338   T   T   T
  0.5561070460067628  0.4049021479284053  0.1150362580754303   T   T   T
  0.6951731452568300  0.6804616510132714  0.1114739418346521   T   T   T
  0.5567680642968015  0.5928179612897013  0.1775704649473666   T   T   T
 
  0.00000000E+00  0.00000000E+00  0.00000000E+00
  0.00000000E+00  0.00000000E+00  0.00000000E+00
  0.00000000E+00  0.00000000E+00  0.00000000E+00
  0.00000000E+00  0.00000000E+00  0.00000000E+00
  0.00000000E+00  0.00000000E+00  0.00000000E+00
  0.00000000E+00  0.00000000E+00  0.00000000E+00
  0.00000000E+00  0.00000000E+00  0.00000000E+00
  0.00000000E+00  0.00000000E+00  0.00000000E+00
  0.00000000E+00  0.00000000E+00  0.00000000E+00
  0.00000000E+00  0.00000000E+00  0.00000000E+00
  0.00000000E+00  0.00000000E+00  0.00000000E+00
  0.00000000E+00  0.00000000E+00  0.00000000E+00
  0.00000000E+00  0.00000000E+00  0.00000000E+00
  0.00000000E+00  0.00000000E+00  0.00000000E+00
  0.00000000E+00  0.00000000E+00  0.00000000E+00
  0.00000000E+00  0.00000000E+00  0.00000000E+00
  0.00000000E+00  0.00000000E+00  0.00000000E+00
  0.00000000E+00  0.00000000E+00  0.00000000E+00
  0.00000000E+00  0.00000000E+00  0.00000000E+00
  0.00000000E+00  0.00000000E+00  0.00000000E+00
  0.00000000E+00  0.00000000E+00  0.00000000E+00
  0.00000000E+00  0.00000000E+00  0.00000000E+00
  0.00000000E+00  0.00000000E+00  0.00000000E+00
  0.00000000E+00  0.00000000E+00  0.00000000E+00
  0.00000000E+00  0.00000000E+00  0.00000000E+00
  0.00000000E+00  0.00000000E+00  0.00000000E+00
  0.00000000E+00  0.00000000E+00  0.00000000E+00
  0.00000000E+00  0.00000000E+00  0.00000000E+00
  0.00000000E+00  0.00000000E+00  0.00000000E+00
  0.00000000E+00  0.00000000E+00  0.00000000E+00
  0.00000000E+00  0.00000000E+00  0.00000000E+00
  0.00000000E+00  0.00000000E+00  0.00000000E+00
