Title                                   
   1.00000000000000     
     4.9440799999999996    0.0000000000000000    0.0000000000000000
     0.0000000000000000   17.1295089999999988    0.0000000000000000
     0.0000000000000000    0.0000000000000000   20.0000000000000000
    30     1     1
Selective dynamics
Direct
  0.0004301134792529  0.1041828448916228  0.2934876512372073   T   T   T
  0.2500932591325351  0.1459160648300631  0.2977983352208753   T   T   T
  0.2501230080028826  0.2288584062181213  0.3078297364553574   T   T   T
  0.0023442345919790  0.3513954168826234  0.3260235669009522   T   T   T
 -0.0012929532603939  0.2700283210282358  0.3119404391489926   T   T   T
 -0.0040812518918799  0.6022832358843567  0.2926574856125042   T   T   T
  0.2501341939533429  0.7278393928330070  0.2870809658785940   T   T   T
  0.0005652694433388  0.8537075814434428  0.2835056429187240   T   T   T
  0.2501143037933786  0.8956512520549602  0.2840594793026173   T   T   T
  0.2500790352048384  0.9791974488364313  0.2861825998414683   T   T   T
  0.0009882365034158  0.7702025981976862  0.2845386530710114   T   T   T
  0.4997042916526186  0.1041735666656657  0.2935094594586034   T   T   T
  0.7500371981539689  0.1459443643776423  0.2965841414805521   T   T   T
  0.7500461104246188  0.2282771475787995  0.3048226586617114   T   T   T
  0.4999529785122198  0.0209791417405712  0.2879521437496664   T   T   T
  0.4978081637561678  0.3514834655850810  0.3261554530836871   T   T   T
  0.7501485872374565  0.4750886270021957  0.3073926086543617   T   T   T
  0.5014583873117945  0.2700903052657518  0.3120387692396663   T   T   T
  0.5046340914903604  0.6024671105642834  0.2936439646424033   T   T   T
  0.7501372235180669  0.7286738403087051  0.2848540317178301   T   T   T
  0.4996752002010619  0.8537184425288707  0.2835652456779951   T   T   T
  0.7500978047122944  0.8956256674749384  0.2835690273721253   T   T   T
  0.7500719650617531  0.9790074283960422  0.2857694437391664   T   T   T
  0.4992706254994043  0.7701984626585650  0.2846982836540146   T   T   T
  0.7501437664391217  0.6459874041392577  0.2879355576270418   T   T   T
  0.2502362637743272  0.6437739511234895  0.2922093460533848   T   T   T
  0.0001926773632599  0.0209875650896818  0.2879339105812622   T   T   T
  0.5136078408825806  0.5200598415622700  0.3051767706149238   T   T   T
  0.9873115106873581  0.5195428268684875  0.3021354631608616   T   T   T
  0.2499193079716679  0.3899617791875872  0.3412386803983701   T   T   T
  0.7501847660861858  0.3937774052382751  0.3239434914039613   T   T   T
  0.2426867903110300  0.5094700935432754  0.3823319934400582   T   T   T
 
  0.00000000E+00  0.00000000E+00  0.00000000E+00
  0.00000000E+00  0.00000000E+00  0.00000000E+00
  0.00000000E+00  0.00000000E+00  0.00000000E+00
  0.00000000E+00  0.00000000E+00  0.00000000E+00
  0.00000000E+00  0.00000000E+00  0.00000000E+00
  0.00000000E+00  0.00000000E+00  0.00000000E+00
  0.00000000E+00  0.00000000E+00  0.00000000E+00
  0.00000000E+00  0.00000000E+00  0.00000000E+00
  0.00000000E+00  0.00000000E+00  0.00000000E+00
  0.00000000E+00  0.00000000E+00  0.00000000E+00
  0.00000000E+00  0.00000000E+00  0.00000000E+00
  0.00000000E+00  0.00000000E+00  0.00000000E+00
  0.00000000E+00  0.00000000E+00  0.00000000E+00
  0.00000000E+00  0.00000000E+00  0.00000000E+00
  0.00000000E+00  0.00000000E+00  0.00000000E+00
  0.00000000E+00  0.00000000E+00  0.00000000E+00
  0.00000000E+00  0.00000000E+00  0.00000000E+00
  0.00000000E+00  0.00000000E+00  0.00000000E+00
  0.00000000E+00  0.00000000E+00  0.00000000E+00
  0.00000000E+00  0.00000000E+00  0.00000000E+00
  0.00000000E+00  0.00000000E+00  0.00000000E+00
  0.00000000E+00  0.00000000E+00  0.00000000E+00
  0.00000000E+00  0.00000000E+00  0.00000000E+00
  0.00000000E+00  0.00000000E+00  0.00000000E+00
  0.00000000E+00  0.00000000E+00  0.00000000E+00
  0.00000000E+00  0.00000000E+00  0.00000000E+00
  0.00000000E+00  0.00000000E+00  0.00000000E+00
  0.00000000E+00  0.00000000E+00  0.00000000E+00
  0.00000000E+00  0.00000000E+00  0.00000000E+00
  0.00000000E+00  0.00000000E+00  0.00000000E+00
  0.00000000E+00  0.00000000E+00  0.00000000E+00
  0.00000000E+00  0.00000000E+00  0.00000000E+00
