Title                                   
   1.00000000000000     
     4.9440799999999996    0.0000000000000000    0.0000000000000000
     0.0000000000000000    8.5647549999999999    0.0000000000000000
     0.0000000000000000    0.0000000000000000   20.0000000000000000
    14     1
Selective dynamics
Direct
  0.2500000000000000  0.2059073790674560  0.1003181023513290   T   T   T
 -0.0012845245214892  0.2898499919127773  0.1004068193638383   T   T   T
  0.2500000000000000  0.0436157129993892  0.1003631168189323   T   T   T
 -0.0013585432266535  0.9597210293848608  0.1004780905373581   T   T   T
  0.7500000000000000  0.2069629465384881  0.1002570937388605   T   T   T
  0.5012845245214893  0.2898499919127773  0.1004068193638383   T   T   T
  0.7500000000000000  0.0426786314007989  0.1002922916214664   T   T   T
  0.7500000000000000  0.7117714778659916  0.1012445405023026   T   T   T
  0.7500000000000000  0.5377352917935214  0.1011812055650476   T   T   T
  0.5013585432266532  0.9597210293848608  0.1004780905373581   T   T   T
  0.5141981088949905  0.4509293348457324  0.1006600268991084   T   T   T
 -0.0141981088949907  0.4509293348457324  0.1006600268991084   T   T   T
 -0.0142825123630548  0.7986174109544835  0.1007300796102453   T   T   T
  0.5142825123630547  0.7986174109544835  0.1007300796102453   T   T   T
  0.2500000000000000  0.6247740261386489  0.0997736165809647   T   T   T
 
  0.00000000E+00  0.00000000E+00  0.00000000E+00
  0.00000000E+00  0.00000000E+00  0.00000000E+00
  0.00000000E+00  0.00000000E+00  0.00000000E+00
  0.00000000E+00  0.00000000E+00  0.00000000E+00
  0.00000000E+00  0.00000000E+00  0.00000000E+00
  0.00000000E+00  0.00000000E+00  0.00000000E+00
  0.00000000E+00  0.00000000E+00  0.00000000E+00
  0.00000000E+00  0.00000000E+00  0.00000000E+00
  0.00000000E+00  0.00000000E+00  0.00000000E+00
  0.00000000E+00  0.00000000E+00  0.00000000E+00
  0.00000000E+00  0.00000000E+00  0.00000000E+00
  0.00000000E+00  0.00000000E+00  0.00000000E+00
  0.00000000E+00  0.00000000E+00  0.00000000E+00
  0.00000000E+00  0.00000000E+00  0.00000000E+00
  0.00000000E+00  0.00000000E+00  0.00000000E+00
