Title                                   
   1.00000000000000     
     4.9440799999999996    0.0000000000000000    0.0000000000000000
     0.0000000000000000   17.1295089999999988    0.0000000000000000
     0.0000000000000000    0.0000000000000000   20.0000000000000000
    30     1     1
Selective dynamics
Direct
  0.0004603245315106  0.1044758418070918  0.2874135113192181   T   T   T
  0.2499251385054234  0.1464360942445305  0.2905436164009730   T   T   T
  0.2499011488407962  0.2295555923364715  0.2988159018145284   T   T   T
 -0.0005518486028546  0.3523849444636111  0.3158037477965759   T   T   T
 -0.0017101184381239  0.2705662639948325  0.3030864738314079   T   T   T
 -0.0025045849965863  0.6046348850678551  0.3078191576361221   T   T   T
  0.2499009939762290  0.7284572448057988  0.2940390535164971   T   T   T
  0.0001669331654184  0.8539537969908965  0.2854521760398836   T   T   T
  0.2499494903015980  0.8959446599209513  0.2841385696916524   T   T   T
  0.2499406004951131  0.9792076653729652  0.2833941315272596   T   T   T
  0.0000198708459653  0.7707819417962787  0.2900720305444932   T   T   T
  0.4993878164367918  0.1044713623137164  0.2874128137132896   T   T   T
  0.7499158566844464  0.1461677422791938  0.2898294482877180   T   T   T
  0.7498893134159654  0.2286597270760890  0.2971435309962354   T   T   T
  0.4997595009772133  0.0212092957698619  0.2840036407661715   T   T   T
  0.5002913054525333  0.3523844595458156  0.3158158827862352   T   T   T
  0.7498804704475286  0.4775584612022949  0.3170966540779334   T   T   T
  0.5014953188384569  0.2705666225483981  0.3030996015535387   T   T   T
  0.5022497565493249  0.6046462968316747  0.3078695479481994   T   T   T
  0.7498997488631881  0.7295160406670050  0.2928311084951152   T   T   T
  0.4997136455766760  0.8539555888160004  0.2854501162795636   T   T   T
  0.7499533923004339  0.8958286869013324  0.2840364672631336   T   T   T
  0.7499422302901790  0.9793036294055242  0.2833050151836387   T   T   T
  0.4997884300821243  0.7707845944129530  0.2900743612582585   T   T   T
  0.7498756738933254  0.6466265172100529  0.3011067600207934   T   T   T
  0.2498718811766255  0.6461272959032994  0.3033792383521281   T   T   T
  0.0001201260787847  0.0212103429247107  0.2840069007924444   T   T   T
  0.5123077754168567  0.5227739852382373  0.3202419352399412   T   T   T
  0.9875088542539510  0.5227569539981957  0.3201468133183063   T   T   T
  0.2498651814591500  0.3903993686150256  0.3281064942017666   T   T   T
  0.7498665710449156  0.3940449396331495  0.3179847834723935   T   T   T
  0.2497422021370463  0.4831601579061783  0.3690455158745382   T   T   T
 
  0.00000000E+00  0.00000000E+00  0.00000000E+00
  0.00000000E+00  0.00000000E+00  0.00000000E+00
  0.00000000E+00  0.00000000E+00  0.00000000E+00
  0.00000000E+00  0.00000000E+00  0.00000000E+00
  0.00000000E+00  0.00000000E+00  0.00000000E+00
  0.00000000E+00  0.00000000E+00  0.00000000E+00
  0.00000000E+00  0.00000000E+00  0.00000000E+00
  0.00000000E+00  0.00000000E+00  0.00000000E+00
  0.00000000E+00  0.00000000E+00  0.00000000E+00
  0.00000000E+00  0.00000000E+00  0.00000000E+00
  0.00000000E+00  0.00000000E+00  0.00000000E+00
  0.00000000E+00  0.00000000E+00  0.00000000E+00
  0.00000000E+00  0.00000000E+00  0.00000000E+00
  0.00000000E+00  0.00000000E+00  0.00000000E+00
  0.00000000E+00  0.00000000E+00  0.00000000E+00
  0.00000000E+00  0.00000000E+00  0.00000000E+00
  0.00000000E+00  0.00000000E+00  0.00000000E+00
  0.00000000E+00  0.00000000E+00  0.00000000E+00
  0.00000000E+00  0.00000000E+00  0.00000000E+00
  0.00000000E+00  0.00000000E+00  0.00000000E+00
  0.00000000E+00  0.00000000E+00  0.00000000E+00
  0.00000000E+00  0.00000000E+00  0.00000000E+00
  0.00000000E+00  0.00000000E+00  0.00000000E+00
  0.00000000E+00  0.00000000E+00  0.00000000E+00
  0.00000000E+00  0.00000000E+00  0.00000000E+00
  0.00000000E+00  0.00000000E+00  0.00000000E+00
  0.00000000E+00  0.00000000E+00  0.00000000E+00
  0.00000000E+00  0.00000000E+00  0.00000000E+00
  0.00000000E+00  0.00000000E+00  0.00000000E+00
  0.00000000E+00  0.00000000E+00  0.00000000E+00
  0.00000000E+00  0.00000000E+00  0.00000000E+00
  0.00000000E+00  0.00000000E+00  0.00000000E+00
