Title                                   
   1.00000000000000     
     4.9440799999999996    0.0000000000000000    0.0000000000000000
     0.0000000000000000   17.1295089999999988    0.0000000000000000
     0.0000000000000000    0.0000000000000000   20.0000000000000000
    28     2     1
Selective dynamics
Direct
 -0.0008968495520687  0.1044593634311818  0.2990879277622344   T   T   T
  0.2471944793532745  0.1470533798019895  0.2988462445176860   T   T   T
  0.2463403687402764  0.2307146288575838  0.2987931813067951   T   T   T
 -0.0053283017343646  0.2728237491065013  0.3010864567301224   T   T   T
  0.0022709361330058  0.6037436237164813  0.3044240005976236   T   T   T
  0.2535177626832542  0.7278576873754143  0.2991647705572371   T   T   T
  0.0015986758103918  0.8537023608332670  0.2983624121130946   T   T   T
  0.2508815245481620  0.8957056934636609  0.2981687553473047   T   T   T
  0.2499607141185392  0.9791899756310947  0.2984322848392334   T   T   T
  0.0026349002446334  0.7700266727044355  0.2990755068704459   T   T   T
  0.4980947344856667  0.1048682169864070  0.2983027733856157   T   T   T
  0.7492316939558074  0.1459805782954674  0.2985270635661081   T   T   T
  0.7477370816700403  0.2294142533304241  0.2982969747879851   T   T   T
  0.4991853495148691  0.0211959830918230  0.2983485860820523   T   T   T
  0.7476779993734275  0.3935219731174009  0.3000339349770190   T   T   T
  0.7528070236195933  0.4814220381611734  0.3025031549790167   T   T   T
  0.4982324363454622  0.2712581265348542  0.2960144377790319   T   T   T
  0.5058110311746621  0.6020929657732208  0.2994712500577812   T   T   T
  0.7514803585936838  0.7289251178319129  0.2993557512877934   T   T   T
  0.5009257948464990  0.8539487892800358  0.2979196871667039   T   T   T
  0.7509107942598580  0.8955902035103873  0.2981428423977386   T   T   T
  0.7498778682666513  0.9793003109797984  0.2983790944516432   T   T   T
  0.5016459597818451  0.7704443580729214  0.2982632634867620   T   T   T
  0.7528766871488348  0.6455332124909393  0.3012277810457363   T   T   T
  0.2541743976458894  0.6442307057980143  0.3008092575058415   T   T   T
 -0.0001203818066796  0.0209433616778738  0.2987466379126748   T   T   T
  0.9875545397357852  0.5223587130063857  0.3104870277387026   T   T   T
  0.5129998071797841  0.3527406468712267  0.2914671067252834   T   T   T
  0.5171953815179116  0.5221806951014641  0.2951805470240548   T   T   T
 -0.0166899750400999  0.3526425093730114  0.3069698562637452   T   T   T
  0.2502242073854062  0.4374721057936453  0.3011714307368846   T   T   T
 
  0.00000000E+00  0.00000000E+00  0.00000000E+00
  0.00000000E+00  0.00000000E+00  0.00000000E+00
  0.00000000E+00  0.00000000E+00  0.00000000E+00
  0.00000000E+00  0.00000000E+00  0.00000000E+00
  0.00000000E+00  0.00000000E+00  0.00000000E+00
  0.00000000E+00  0.00000000E+00  0.00000000E+00
  0.00000000E+00  0.00000000E+00  0.00000000E+00
  0.00000000E+00  0.00000000E+00  0.00000000E+00
  0.00000000E+00  0.00000000E+00  0.00000000E+00
  0.00000000E+00  0.00000000E+00  0.00000000E+00
  0.00000000E+00  0.00000000E+00  0.00000000E+00
  0.00000000E+00  0.00000000E+00  0.00000000E+00
  0.00000000E+00  0.00000000E+00  0.00000000E+00
  0.00000000E+00  0.00000000E+00  0.00000000E+00
  0.00000000E+00  0.00000000E+00  0.00000000E+00
  0.00000000E+00  0.00000000E+00  0.00000000E+00
  0.00000000E+00  0.00000000E+00  0.00000000E+00
  0.00000000E+00  0.00000000E+00  0.00000000E+00
  0.00000000E+00  0.00000000E+00  0.00000000E+00
  0.00000000E+00  0.00000000E+00  0.00000000E+00
  0.00000000E+00  0.00000000E+00  0.00000000E+00
  0.00000000E+00  0.00000000E+00  0.00000000E+00
  0.00000000E+00  0.00000000E+00  0.00000000E+00
  0.00000000E+00  0.00000000E+00  0.00000000E+00
  0.00000000E+00  0.00000000E+00  0.00000000E+00
  0.00000000E+00  0.00000000E+00  0.00000000E+00
  0.00000000E+00  0.00000000E+00  0.00000000E+00
  0.00000000E+00  0.00000000E+00  0.00000000E+00
  0.00000000E+00  0.00000000E+00  0.00000000E+00
  0.00000000E+00  0.00000000E+00  0.00000000E+00
  0.00000000E+00  0.00000000E+00  0.00000000E+00
