Title                                   
   1.00000000000000     
     9.8694509999999998    0.0000000000000000    0.0000000000000000
     0.0000000000000000    8.5490480000000009    0.0000000000000000
     0.0000000000000000    0.0000000000000000   20.0000000000000000
    27     3     1
Selective dynamics
Direct
  0.0558705590128974  0.0894773069964541  0.0857899975351758   T   T   T
  0.9313205536802042  0.1727552396786934  0.0859053009190709   T   T   T
  0.0574566069817764  0.9238490861838428  0.0862445160408722   T   T   T
  0.9342470024483832  0.3399863465985595  0.0838167680103898   T   T   T
  0.0567756064295178  0.5904198968595509  0.0817507023914939   T   T   T
  0.9342767738522546  0.6753051365084215  0.0842696736472481   T   T   T
  0.0575663859492751  0.4230814945938844  0.0816919061359903   T   T   T
  0.9329976179709978  0.8411975179988188  0.0867816293881585   T   T   T
  0.3050259391188772  0.0881889697570305  0.0959191323027811   T   T   T
  0.1801638119177275  0.1699351415037452  0.0887743881054126   T   T   T
  0.1794251269781805  0.3371327295971423  0.0875434457408285   T   T   T
  0.3000004027801631  0.5888510046510110  0.0984099626265529   T   T   T
  0.1798921615941622  0.6736252209197416  0.0876648695832394   T   T   T
  0.3000651312313570  0.4179181419692184  0.0982140622557654   T   T   T
  0.1821153070194184  0.8408563768316074  0.0889993032360478   T   T   T
  0.5562915925242353  0.0906061607354040  0.1044569116695909   T   T   T
  0.4272134605653666  0.1749572364438880  0.1042533083192348   T   T   T
  0.5553323893460603  0.9217262006762790  0.1043084261219333   T   T   T
  0.4195585479469168  0.6730839937565286  0.1096578414497317   T   T   T
  0.4273203003813685  0.8362033108148803  0.1041952972895103   T   T   T
  0.8062744009303342  0.0899453894368081  0.0921140443371574   T   T   T
  0.6832197324676729  0.1764045593263453  0.1000884130383402   T   T   T
  0.8068600793558079  0.9223601671465954  0.0925615225458161   T   T   T
  0.6912944744078167  0.3416924843682778  0.1024641865964152   T   T   T
  0.8123131452566359  0.5940871392299488  0.0916624940064912   T   T   T
  0.8123580869555062  0.4235655705978092  0.0910832218912326   T   T   T
  0.6841635307402838  0.8349909380957635  0.1003960509551556   T   T   T
  0.4179049083661409  0.3368370324535909  0.1086581917184444   T   T   T
  0.6938934029336064  0.6730662561394589  0.1024161415397600   T   T   T
  0.3051896818390323  0.9229265953948987  0.0955070004344595   T   T   T
  0.5567482790180249  0.5058423547358289  0.1153662901677335   T   T   T
 
  0.00000000E+00  0.00000000E+00  0.00000000E+00
  0.00000000E+00  0.00000000E+00  0.00000000E+00
  0.00000000E+00  0.00000000E+00  0.00000000E+00
  0.00000000E+00  0.00000000E+00  0.00000000E+00
  0.00000000E+00  0.00000000E+00  0.00000000E+00
  0.00000000E+00  0.00000000E+00  0.00000000E+00
  0.00000000E+00  0.00000000E+00  0.00000000E+00
  0.00000000E+00  0.00000000E+00  0.00000000E+00
  0.00000000E+00  0.00000000E+00  0.00000000E+00
  0.00000000E+00  0.00000000E+00  0.00000000E+00
  0.00000000E+00  0.00000000E+00  0.00000000E+00
  0.00000000E+00  0.00000000E+00  0.00000000E+00
  0.00000000E+00  0.00000000E+00  0.00000000E+00
  0.00000000E+00  0.00000000E+00  0.00000000E+00
  0.00000000E+00  0.00000000E+00  0.00000000E+00
  0.00000000E+00  0.00000000E+00  0.00000000E+00
  0.00000000E+00  0.00000000E+00  0.00000000E+00
  0.00000000E+00  0.00000000E+00  0.00000000E+00
  0.00000000E+00  0.00000000E+00  0.00000000E+00
  0.00000000E+00  0.00000000E+00  0.00000000E+00
  0.00000000E+00  0.00000000E+00  0.00000000E+00
  0.00000000E+00  0.00000000E+00  0.00000000E+00
  0.00000000E+00  0.00000000E+00  0.00000000E+00
  0.00000000E+00  0.00000000E+00  0.00000000E+00
  0.00000000E+00  0.00000000E+00  0.00000000E+00
  0.00000000E+00  0.00000000E+00  0.00000000E+00
  0.00000000E+00  0.00000000E+00  0.00000000E+00
  0.00000000E+00  0.00000000E+00  0.00000000E+00
  0.00000000E+00  0.00000000E+00  0.00000000E+00
  0.00000000E+00  0.00000000E+00  0.00000000E+00
  0.00000000E+00  0.00000000E+00  0.00000000E+00
