Title                                   
   1.00000000000000     
     4.9440799999999996    0.0000000000000000    0.0000000000000000
     0.0000000000000000   17.1295089999999988    0.0000000000000000
     0.0000000000000000    0.0000000000000000   20.0000000000000000
    27     4     1
Selective dynamics
Direct
 -0.0011347658864363  0.1041167634439445  0.2963383862714368   T   T   T
  0.2489153393762606  0.1462734220812640  0.2984531846914714   T   T   T
  0.2477812619513517  0.2295792603101010  0.3035773713099157   T   T   T
 -0.0006956984169282  0.3528379815443933  0.3133195054221625   T   T   T
 -0.0037363498968746  0.2711986421682859  0.3046460894944463   T   T   T
 -0.0008325439594666  0.5983319263547490  0.2882395784448316   T   T   T
  0.2552025273009512  0.7252641343703343  0.2935748150206983   T   T   T
  0.0040121866868313  0.8520787450629272  0.2926994567410349   T   T   T
  0.2528511595499940  0.8945221237609848  0.2932872507152567   T   T   T
  0.2510784341447722  0.9782716087068057  0.2940076176234719   T   T   T
  0.0064075934440286  0.7684478414705296  0.2923410165802191   T   T   T
  0.4989357729343045  0.1039832729928319  0.2965282522660345   T   T   T
  0.7479671203336301  0.1464130761898141  0.2973062081697492   T   T   T
  0.7460431335518158  0.2297544948919852  0.3006971028164281   T   T   T
  0.5006121760684279  0.0203347289947729  0.2946075941648059   T   T   T
  0.4909350970946995  0.3552961773463003  0.3138562288563533   T   T   T
  0.7836144126808217  0.4815930325881697  0.3122452565227906   T   T   T
  0.4968783298056938  0.2723433960455615  0.3055627031590476   T   T   T
  0.5150897372089962  0.6008891516385675  0.2996025373466726   T   T   T
  0.7553530138448423  0.7269651774618451  0.2937123686810680   T   T   T
  0.5024612202788219  0.8521710218597990  0.2936474285140639   T   T   T
  0.7526587649097856  0.8942730207801942  0.2932465267711000   T   T   T
  0.7510740254274623  0.9779750460792797  0.2938163790136913   T   T   T
  0.5032482041317360  0.7682755170282596  0.2943769167192737   T   T   T
  0.7573215147826169  0.6444699280863430  0.2951651708793906   T   T   T
  0.2573324068780217  0.6398842118800022  0.2926270658802314   T   T   T
  0.0005528567378409  0.0204967432175487  0.2944140538768407   T   T   T
  0.5331843136183148  0.5219694929476796  0.3154674043390428   T   T   T
  0.9845011865690458  0.5168517581226517  0.2665446187276383   T   T   T
  0.2406072402973297  0.3925643053302608  0.3272834264646727   T   T   T
  0.7484042953463113  0.3955398407689084  0.3111811868136157   T   T   T
  0.1701990332050039  0.5155851564749000  0.3601922977024957   T   T   T
 
  0.00000000E+00  0.00000000E+00  0.00000000E+00
  0.00000000E+00  0.00000000E+00  0.00000000E+00
  0.00000000E+00  0.00000000E+00  0.00000000E+00
  0.00000000E+00  0.00000000E+00  0.00000000E+00
  0.00000000E+00  0.00000000E+00  0.00000000E+00
  0.00000000E+00  0.00000000E+00  0.00000000E+00
  0.00000000E+00  0.00000000E+00  0.00000000E+00
  0.00000000E+00  0.00000000E+00  0.00000000E+00
  0.00000000E+00  0.00000000E+00  0.00000000E+00
  0.00000000E+00  0.00000000E+00  0.00000000E+00
  0.00000000E+00  0.00000000E+00  0.00000000E+00
  0.00000000E+00  0.00000000E+00  0.00000000E+00
  0.00000000E+00  0.00000000E+00  0.00000000E+00
  0.00000000E+00  0.00000000E+00  0.00000000E+00
  0.00000000E+00  0.00000000E+00  0.00000000E+00
  0.00000000E+00  0.00000000E+00  0.00000000E+00
  0.00000000E+00  0.00000000E+00  0.00000000E+00
  0.00000000E+00  0.00000000E+00  0.00000000E+00
  0.00000000E+00  0.00000000E+00  0.00000000E+00
  0.00000000E+00  0.00000000E+00  0.00000000E+00
  0.00000000E+00  0.00000000E+00  0.00000000E+00
  0.00000000E+00  0.00000000E+00  0.00000000E+00
  0.00000000E+00  0.00000000E+00  0.00000000E+00
  0.00000000E+00  0.00000000E+00  0.00000000E+00
  0.00000000E+00  0.00000000E+00  0.00000000E+00
  0.00000000E+00  0.00000000E+00  0.00000000E+00
  0.00000000E+00  0.00000000E+00  0.00000000E+00
  0.00000000E+00  0.00000000E+00  0.00000000E+00
  0.00000000E+00  0.00000000E+00  0.00000000E+00
  0.00000000E+00  0.00000000E+00  0.00000000E+00
  0.00000000E+00  0.00000000E+00  0.00000000E+00
  0.00000000E+00  0.00000000E+00  0.00000000E+00
