Title                                   
   1.00000000000000     
     9.8694509999999998    0.0000000000000000    0.0000000000000000
     0.0000000000000000    8.5490480000000009    0.0000000000000000
     0.0000000000000000    0.0000000000000000   20.0000000000000000
    28     3     1
Selective dynamics
Direct
  0.0559255275439995  0.0908756625462062  0.0827598625704559   T   T   T
  0.9306522209595369  0.1746203691230297  0.0841316104424133   T   T   T
  0.0579772183870197  0.9237991712763131  0.0828280396604098   T   T   T
  0.9296280234060941  0.3421030872940604  0.0864733300087792   T   T   T
  0.0567560101579590  0.5902803831340675  0.0838013982844715   T   T   T
  0.9327336527194523  0.6739188553528190  0.0864937636511630   T   T   T
  0.0559911158969779  0.4228181137438397  0.0848136724643832   T   T   T
  0.9333445947092617  0.8408154108480821  0.0854273719823889   T   T   T
  0.3058631487079100  0.0872989556150403  0.0878828154695254   T   T   T
  0.1820234857225083  0.1719500855101267  0.0851977475554235   T   T   T
  0.1811016025668254  0.3386039515784811  0.0873625032653364   T   T   T
  0.3035990381470453  0.5875632968023169  0.0998332265046514   T   T   T
  0.1819724787783889  0.6729497521038426  0.0868231591745703   T   T   T
  0.3055122316657529  0.4198124928312838  0.0983583715544169   T   T   T
  0.1825390968318116  0.8400124255946255  0.0851547634156337   T   T   T
  0.5559162477545251  0.0865402198878331  0.0938909776634607   T   T   T
  0.5558410052074139  0.9205180566684957  0.0996889161146030   T   T   T
  0.4285852863506576  0.3307176883046025  0.1051915140773280   T   T   T
  0.4277240118438597  0.8391650642133053  0.1026594341069700   T   T   T
  0.8057455081158651  0.0902477278796968  0.0857883542093835   T   T   T
  0.6795124577214630  0.1721700857256328  0.0911389758059845   T   T   T
  0.8079026867798558  0.9247740516583979  0.0882081242188109   T   T   T
  0.6801030291855903  0.3374843224039227  0.1009981815968212   T   T   T
  0.8092514025671455  0.5941150169677891  0.0980381108098301   T   T   T
  0.8036758870848879  0.4255106049081390  0.0957461614953173   T   T   T
  0.6856366913679702  0.8414863168086898  0.1000498248625178   T   T   T
  0.4179138286708542  0.6793714380805911  0.1179206081563285   T   T   T
  0.5529106101097475  0.4038405116989367  0.1202403778610563   T   T   T
  0.6969363401335644  0.6834775365833513  0.1159816077996254   T   T   T
  0.3069073464161342  0.9238961519224286  0.0886192285257709   T   T   T
  0.4285824427950279  0.1666561845764877  0.0938600410900005   T   T   T
  0.5608747716948986  0.5928530083575664  0.1803129256021856   T   T   T
 
  0.00000000E+00  0.00000000E+00  0.00000000E+00
  0.00000000E+00  0.00000000E+00  0.00000000E+00
  0.00000000E+00  0.00000000E+00  0.00000000E+00
  0.00000000E+00  0.00000000E+00  0.00000000E+00
  0.00000000E+00  0.00000000E+00  0.00000000E+00
  0.00000000E+00  0.00000000E+00  0.00000000E+00
  0.00000000E+00  0.00000000E+00  0.00000000E+00
  0.00000000E+00  0.00000000E+00  0.00000000E+00
  0.00000000E+00  0.00000000E+00  0.00000000E+00
  0.00000000E+00  0.00000000E+00  0.00000000E+00
  0.00000000E+00  0.00000000E+00  0.00000000E+00
  0.00000000E+00  0.00000000E+00  0.00000000E+00
  0.00000000E+00  0.00000000E+00  0.00000000E+00
  0.00000000E+00  0.00000000E+00  0.00000000E+00
  0.00000000E+00  0.00000000E+00  0.00000000E+00
  0.00000000E+00  0.00000000E+00  0.00000000E+00
  0.00000000E+00  0.00000000E+00  0.00000000E+00
  0.00000000E+00  0.00000000E+00  0.00000000E+00
  0.00000000E+00  0.00000000E+00  0.00000000E+00
  0.00000000E+00  0.00000000E+00  0.00000000E+00
  0.00000000E+00  0.00000000E+00  0.00000000E+00
  0.00000000E+00  0.00000000E+00  0.00000000E+00
  0.00000000E+00  0.00000000E+00  0.00000000E+00
  0.00000000E+00  0.00000000E+00  0.00000000E+00
  0.00000000E+00  0.00000000E+00  0.00000000E+00
  0.00000000E+00  0.00000000E+00  0.00000000E+00
  0.00000000E+00  0.00000000E+00  0.00000000E+00
  0.00000000E+00  0.00000000E+00  0.00000000E+00
  0.00000000E+00  0.00000000E+00  0.00000000E+00
  0.00000000E+00  0.00000000E+00  0.00000000E+00
  0.00000000E+00  0.00000000E+00  0.00000000E+00
  0.00000000E+00  0.00000000E+00  0.00000000E+00
