Title                                   
   1.00000000000000     
     4.9440799999999996    0.0000000000000000    0.0000000000000000
     0.0000000000000000    8.5647549999999999    0.0000000000000000
     0.0000000000000000    0.0000000000000000   20.0000000000000000
    11     3     1
Selective dynamics
Direct
  0.2484262450514776  0.2089827002362285  0.1005583917637077   T   T   T
  0.9975673490317963  0.2943563662891922  0.1004644777673516   T   T   T
  0.2487720215910965  0.0374609175678149  0.1004975553279279   T   T   T
  0.9972872675079179  0.9557399657377649  0.1003020030159939   T   T   T
  0.7483325875271633  0.2086306263605607  0.1005033805477752   T   T   T
  0.4981960674192067  0.2930694691663607  0.1006860261146617   T   T   T
  0.7493346923982049  0.0409688721199230  0.1004433211949036   T   T   T
  0.7541898652013947  0.7145585133867258  0.1004781258125926   T   T   T
  0.7526785941718158  0.5396589958236971  0.1005303437141564   T   T   T
  0.5014615376545377  0.9541146109401939  0.1006322006286971   T   T   T
  0.5085980409179838  0.4596791225660071  0.1008425152529732   T   T   T
  0.9940838679986274  0.4573078622998497  0.1003502377874390   T   T   T
  0.9887393456312620  0.7937694040254633  0.1000551410306142   T   T   T
  0.5127096992207343  0.7911421673654740  0.1009273835338829   T   T   T
  0.2496228186767890  0.6222414061147397  0.1007088965073195   T   T   T
 
  0.00000000E+00  0.00000000E+00  0.00000000E+00
  0.00000000E+00  0.00000000E+00  0.00000000E+00
  0.00000000E+00  0.00000000E+00  0.00000000E+00
  0.00000000E+00  0.00000000E+00  0.00000000E+00
  0.00000000E+00  0.00000000E+00  0.00000000E+00
  0.00000000E+00  0.00000000E+00  0.00000000E+00
  0.00000000E+00  0.00000000E+00  0.00000000E+00
  0.00000000E+00  0.00000000E+00  0.00000000E+00
  0.00000000E+00  0.00000000E+00  0.00000000E+00
  0.00000000E+00  0.00000000E+00  0.00000000E+00
  0.00000000E+00  0.00000000E+00  0.00000000E+00
  0.00000000E+00  0.00000000E+00  0.00000000E+00
  0.00000000E+00  0.00000000E+00  0.00000000E+00
  0.00000000E+00  0.00000000E+00  0.00000000E+00
  0.00000000E+00  0.00000000E+00  0.00000000E+00
