Title                                   
   1.00000000000000     
     9.8694509999999998    0.0000000000000000    0.0000000000000000
     0.0000000000000000    8.5490480000000009    0.0000000000000000
     0.0000000000000000    0.0000000000000000   20.0000000000000000
    26     4     1
Selective dynamics
Direct
  0.0559968493523837  0.0897825211573552  0.0914832805513498   T   T   T
  0.9311263033042985  0.1738923551217284  0.0955246626486621   T   T   T
  0.0583668453021286  0.9226625941882559  0.0914475203315455   T   T   T
  0.9324592460377470  0.3414490763022338  0.0982326500420177   T   T   T
  0.0578757301248124  0.5899532725040795  0.0938109218755582   T   T   T
  0.9338191459131847  0.6737598193359273  0.0986651955984290   T   T   T
  0.0572359488140447  0.4225973331834214  0.0938016107169097   T   T   T
  0.9335995240145716  0.8408681497960605  0.0963014708129797   T   T   T
  0.3077899123018747  0.0863944901744874  0.0860732928223804   T   T   T
  0.1815267173210832  0.1708878645139215  0.0884791184052602   T   T   T
  0.1804196227249913  0.3365275363694261  0.0891086102545438   T   T   T
  0.3079812935616663  0.5861519896522630  0.0814245520229758   T   T   T
  0.1825259634082614  0.6721138915984253  0.0880360248785276   T   T   T
  0.3057456058820156  0.4169393937748099  0.0841480848936847   T   T   T
  0.1833668050609304  0.8381111249945110  0.0875673025027865   T   T   T
  0.4301882974433529  0.1704985510177830  0.0872491373454237   T   T   T
  0.5571219949753200  0.9219262323648340  0.0946393608761178   T   T   T
  0.4303458354338227  0.6749970859112684  0.0784383131153438   T   T   T
  0.4322016702026382  0.8379536525090313  0.0847404961414354   T   T   T
  0.8048084483837360  0.0905496795046392  0.0962779224017490   T   T   T
  0.6802230171744768  0.1781132609313165  0.0993812060094846   T   T   T
  0.8075255194576916  0.9238341291436939  0.0974785383897717   T   T   T
  0.6824672238162012  0.3419938560528918  0.1088098954416618   T   T   T
  0.8099134155449093  0.5939688176119209  0.1062155234255899   T   T   T
  0.8076780470521916  0.4247208837988553  0.1054141379616258   T   T   T
  0.6829107102438297  0.8380093667310485  0.1018624590038399   T   T   T
  0.5570035630806478  0.0918242955887690  0.0935005694670620   T   T   T
  0.4266620077450620  0.3316467508446869  0.0851447623618192   T   T   T
  0.6885647424548575  0.6763241112397484  0.1124077127145998   T   T   T
  0.3069897791869908  0.9216566305824941  0.0843871920222597   T   T   T
  0.5286952146802811  0.5107662835001381  0.1409134749646395   T   T   T
 
  0.00000000E+00  0.00000000E+00  0.00000000E+00
  0.00000000E+00  0.00000000E+00  0.00000000E+00
  0.00000000E+00  0.00000000E+00  0.00000000E+00
  0.00000000E+00  0.00000000E+00  0.00000000E+00
  0.00000000E+00  0.00000000E+00  0.00000000E+00
  0.00000000E+00  0.00000000E+00  0.00000000E+00
  0.00000000E+00  0.00000000E+00  0.00000000E+00
  0.00000000E+00  0.00000000E+00  0.00000000E+00
  0.00000000E+00  0.00000000E+00  0.00000000E+00
  0.00000000E+00  0.00000000E+00  0.00000000E+00
  0.00000000E+00  0.00000000E+00  0.00000000E+00
  0.00000000E+00  0.00000000E+00  0.00000000E+00
  0.00000000E+00  0.00000000E+00  0.00000000E+00
  0.00000000E+00  0.00000000E+00  0.00000000E+00
  0.00000000E+00  0.00000000E+00  0.00000000E+00
  0.00000000E+00  0.00000000E+00  0.00000000E+00
  0.00000000E+00  0.00000000E+00  0.00000000E+00
  0.00000000E+00  0.00000000E+00  0.00000000E+00
  0.00000000E+00  0.00000000E+00  0.00000000E+00
  0.00000000E+00  0.00000000E+00  0.00000000E+00
  0.00000000E+00  0.00000000E+00  0.00000000E+00
  0.00000000E+00  0.00000000E+00  0.00000000E+00
  0.00000000E+00  0.00000000E+00  0.00000000E+00
  0.00000000E+00  0.00000000E+00  0.00000000E+00
  0.00000000E+00  0.00000000E+00  0.00000000E+00
  0.00000000E+00  0.00000000E+00  0.00000000E+00
  0.00000000E+00  0.00000000E+00  0.00000000E+00
  0.00000000E+00  0.00000000E+00  0.00000000E+00
  0.00000000E+00  0.00000000E+00  0.00000000E+00
  0.00000000E+00  0.00000000E+00  0.00000000E+00
  0.00000000E+00  0.00000000E+00  0.00000000E+00
