Title                                   
   1.00000000000000     
     8.5490480000000009    0.0000000000000000    0.0000000000000000
     0.0000000000000000    8.5490480000000009    0.0000000000000000
     0.0000000000000000    0.0000000000000000   20.0000000000000000
    21     3     1
Selective dynamics
Direct
  0.9102128290312149  0.2066417164859560  0.0978120788666383   T   T   T
  0.9120142698468015  0.8014146287935042  0.0977469036425983   T   T   T
  0.1981070059238965  0.0825461858475781  0.0980509312163136   T   T   T
  0.0739453699812704  0.2027886011955436  0.0980217058743336   T   T   T
  0.1555055454801601  0.6496246867301920  0.0979803007803564   T   T   T
  0.0734279161670495  0.5032197476531184  0.0980670281998580   T   T   T
  0.1554926778851906  0.3559454882760890  0.0981143024833954   T   T   T
  0.0784601513987026  0.7995628699612305  0.0978997010390365   T   T   T
  0.4947384366183056  0.0836143796999159  0.0979017469652132   T   T   T
  0.3452086781263242  0.1637637949667366  0.0980512408921932   T   T   T
  0.4945123509054546  0.9140619772940940  0.0979271402138801   T   T   T
  0.3462860196694652  0.8324903898210083  0.0980273595082963   T   T   T
  0.7875014620888509  0.0858264624093431  0.0976641977168600   T   T   T
  0.6400584451226009  0.1658264128768305  0.0977579364789931   T   T   T
  0.7896484000787072  0.9189781684655132  0.0976783610886477   T   T   T
  0.8297135907535377  0.6516648192133889  0.0979176053896814   T   T   T
  0.8256690068546880  0.3587307429395606  0.0979196378726574   T   T   T
  0.6429435661169571  0.8345592541130070  0.0978389443393717   T   T   T
  0.3211675521665290  0.3333724622271028  0.0981300861604487   T   T   T
  0.3218992199137534  0.6697679470613724  0.0980306145092514   T   T   T
  0.6628774362141642  0.3366616029866175  0.0978872542450704   T   T   T
  0.9070708338094072  0.5051596560239532  0.0980562394883387   T   T   T
  0.6696123833607902  0.6711468687883791  0.0980155517015983   T   T   T
  0.1976472286399182  0.9163874847454897  0.0980443317933686   T   T   T
  0.4916916238462525  0.5010336514244885  0.0981637995335823   T   T   T
 
  0.00000000E+00  0.00000000E+00  0.00000000E+00
  0.00000000E+00  0.00000000E+00  0.00000000E+00
  0.00000000E+00  0.00000000E+00  0.00000000E+00
  0.00000000E+00  0.00000000E+00  0.00000000E+00
  0.00000000E+00  0.00000000E+00  0.00000000E+00
  0.00000000E+00  0.00000000E+00  0.00000000E+00
  0.00000000E+00  0.00000000E+00  0.00000000E+00
  0.00000000E+00  0.00000000E+00  0.00000000E+00
  0.00000000E+00  0.00000000E+00  0.00000000E+00
  0.00000000E+00  0.00000000E+00  0.00000000E+00
  0.00000000E+00  0.00000000E+00  0.00000000E+00
  0.00000000E+00  0.00000000E+00  0.00000000E+00
  0.00000000E+00  0.00000000E+00  0.00000000E+00
  0.00000000E+00  0.00000000E+00  0.00000000E+00
  0.00000000E+00  0.00000000E+00  0.00000000E+00
  0.00000000E+00  0.00000000E+00  0.00000000E+00
  0.00000000E+00  0.00000000E+00  0.00000000E+00
  0.00000000E+00  0.00000000E+00  0.00000000E+00
  0.00000000E+00  0.00000000E+00  0.00000000E+00
  0.00000000E+00  0.00000000E+00  0.00000000E+00
  0.00000000E+00  0.00000000E+00  0.00000000E+00
  0.00000000E+00  0.00000000E+00  0.00000000E+00
  0.00000000E+00  0.00000000E+00  0.00000000E+00
  0.00000000E+00  0.00000000E+00  0.00000000E+00
  0.00000000E+00  0.00000000E+00  0.00000000E+00
