Title                                   
   1.00000000000000     
     4.9440799999999996    0.0000000000000000    0.0000000000000000
     0.0000000000000000   17.1295089999999988    0.0000000000000000
     0.0000000000000000    0.0000000000000000   20.0000000000000000
    29     1     1
Selective dynamics
Direct
  0.0000045481471213  0.1043846580013546  0.2932198681407501   T   T   T
  0.2501996641599774  0.1465646590777152  0.2947520254891904   T   T   T
  0.2503152763242689  0.2296832213300213  0.2992015326948738   T   T   T
  0.0004154522055392  0.2721269300265493  0.3020272591066900   T   T   T
  0.0012297583410115  0.6032799860824285  0.3016698306327916   T   T   T
  0.2502597278026522  0.7273897385456656  0.2948167547559919   T   T   T
  0.0011797266833665  0.8532324445108180  0.2916742124947918   T   T   T
  0.2501349532111809  0.8953283848243256  0.2914296389590038   T   T   T
  0.2501021013238974  0.9789142893737708  0.2914205142148650   T   T   T
  0.0009996648800728  0.7694093785545907  0.2931229034142191   T   T   T
  0.5003585393972724  0.1043725527747919  0.2931401759196748   T   T   T
  0.7501791606515659  0.1461816753705777  0.2942603282961390   T   T   T
  0.7502809672429293  0.2299557182242700  0.2983568287608390   T   T   T
  0.5001368323848363  0.0207458450108009  0.2916833484322282   T   T   T
  0.7505207933190975  0.3953978596585872  0.3097472806877339   T   T   T
  0.7505678918618578  0.4824969001718713  0.3091168818892878   T   T   T
  0.5001878012053516  0.2721485696567853  0.3015679641220068   T   T   T
  0.4993353116205274  0.6031895871917149  0.3010354681112549   T   T   T
  0.7502210870182505  0.7284399629808748  0.2938374140949767   T   T   T
  0.4991490300162892  0.8532451575458464  0.2916258555026840   T   T   T
  0.7501868180787106  0.8948828671081942  0.2912683246578130   T   T   T
  0.7501672749838380  0.9787353820978977  0.2913049482594692   T   T   T
  0.4994605049062020  0.7694153878045069  0.2930161633345111   T   T   T
  0.7502589670657527  0.6456674342565732  0.2974449199680701   T   T   T
  0.0001266400527228  0.0207645495213471  0.2917195489104368   T   T   T
  0.4999852847005366  0.5215274671622137  0.3076876942265435   T   T   T
  0.0008866917107690  0.5218071950581457  0.3094953944444817   T   T   T
  0.5028394589557038  0.3549598836399097  0.3081054698812015   T   T   T
 -0.0017503913018115  0.3548003781473807  0.3094540473149696   T   T   T
  0.2503242811173125  0.6455889540611516  0.2992112949138620   T   T   T
  0.2517431819331998  0.4367049822293137  0.3486461083686005   T   T   T
 
  0.00000000E+00  0.00000000E+00  0.00000000E+00
  0.00000000E+00  0.00000000E+00  0.00000000E+00
  0.00000000E+00  0.00000000E+00  0.00000000E+00
  0.00000000E+00  0.00000000E+00  0.00000000E+00
  0.00000000E+00  0.00000000E+00  0.00000000E+00
  0.00000000E+00  0.00000000E+00  0.00000000E+00
  0.00000000E+00  0.00000000E+00  0.00000000E+00
  0.00000000E+00  0.00000000E+00  0.00000000E+00
  0.00000000E+00  0.00000000E+00  0.00000000E+00
  0.00000000E+00  0.00000000E+00  0.00000000E+00
  0.00000000E+00  0.00000000E+00  0.00000000E+00
  0.00000000E+00  0.00000000E+00  0.00000000E+00
  0.00000000E+00  0.00000000E+00  0.00000000E+00
  0.00000000E+00  0.00000000E+00  0.00000000E+00
  0.00000000E+00  0.00000000E+00  0.00000000E+00
  0.00000000E+00  0.00000000E+00  0.00000000E+00
  0.00000000E+00  0.00000000E+00  0.00000000E+00
  0.00000000E+00  0.00000000E+00  0.00000000E+00
  0.00000000E+00  0.00000000E+00  0.00000000E+00
  0.00000000E+00  0.00000000E+00  0.00000000E+00
  0.00000000E+00  0.00000000E+00  0.00000000E+00
  0.00000000E+00  0.00000000E+00  0.00000000E+00
  0.00000000E+00  0.00000000E+00  0.00000000E+00
  0.00000000E+00  0.00000000E+00  0.00000000E+00
  0.00000000E+00  0.00000000E+00  0.00000000E+00
  0.00000000E+00  0.00000000E+00  0.00000000E+00
  0.00000000E+00  0.00000000E+00  0.00000000E+00
  0.00000000E+00  0.00000000E+00  0.00000000E+00
  0.00000000E+00  0.00000000E+00  0.00000000E+00
  0.00000000E+00  0.00000000E+00  0.00000000E+00
  0.00000000E+00  0.00000000E+00  0.00000000E+00
