Title                                   
   1.00000000000000     
     4.9440799999999996    0.0000000000000000    0.0000000000000000
     0.0000000000000000   17.1295089999999988    0.0000000000000000
     0.0000000000000000    0.0000000000000000   20.0000000000000000
    29     1     1
Selective dynamics
Direct
 -0.0007926960370016  0.1048725745095430  0.2955430452230339   T   T   T
  0.2486648446330085  0.1471935337836722  0.2957888119352832   T   T   T
  0.2480173236556738  0.2306662433105339  0.2985124279207876   T   T   T
  0.0019606872946979  0.2752278748038079  0.3040285496765541   T   T   T
  0.0013253711316033  0.6003960082930134  0.3021578806048141   T   T   T
  0.2482102231123459  0.7266960651463656  0.2956251524844330   T   T   T
 -0.0000167150093137  0.8529408463273270  0.2949086786575610   T   T   T
  0.2493558008285181  0.8951259029132689  0.2945990116343137   T   T   T
  0.2496270877202708  0.9791019876304040  0.2944863779020457   T   T   T
 -0.0006447622438081  0.7687851086688178  0.2954842323613781   T   T   T
  0.4999398984168372  0.1053821035997184  0.2944616184035644   T   T   T
  0.7504994274005686  0.1475053344782071  0.2954434988362986   T   T   T
  0.7512129057539658  0.2318338530371850  0.2975427702599206   T   T   T
  0.4996600498977459  0.0212729862076823  0.2942010812709689   T   T   T
  0.7460424880286174  0.3963255120637716  0.3065078534353286   T   T   T
  0.7459761664192568  0.4813268057129264  0.3049370245379040   T   T   T
  0.4971158194537987  0.2718869459482505  0.2966549700202197   T   T   T
  0.4949688400284811  0.6031503980597677  0.2943892591141122   T   T   T
  0.7496641552082369  0.7271222236866965  0.2948363750153910   T   T   T
  0.4983498141035457  0.8527205499044438  0.2943366344719830   T   T   T
  0.7490652806937067  0.8947107493675974  0.2944486249496244   T   T   T
  0.7492038232344043  0.9788427995138718  0.2943701514627686   T   T   T
  0.4985713957435244  0.7684442369338853  0.2943526938114301   T   T   T
  0.7495996258831188  0.6436388108229636  0.2956587503206421   T   T   T
 -0.0007560637325806  0.0210252210143261  0.2947571328158716   T   T   T
  0.4991524682663257  0.5211435287118381  0.2970201737998743   T   T   T
 -0.0012350275469426  0.5183496180849909  0.3150700958866183   T   T   T
  0.5032960786835048  0.3545072973338679  0.3005544345465309   T   T   T
 -0.0034685897746020  0.3583372278915496  0.3170018927191608   T   T   T
  0.2475012764146848  0.6444921615812342  0.2972388422804121   T   T   T
  0.2899400023378079  0.4383174906584698  0.3401419536411227   T   T   T
 
  0.00000000E+00  0.00000000E+00  0.00000000E+00
  0.00000000E+00  0.00000000E+00  0.00000000E+00
  0.00000000E+00  0.00000000E+00  0.00000000E+00
  0.00000000E+00  0.00000000E+00  0.00000000E+00
  0.00000000E+00  0.00000000E+00  0.00000000E+00
  0.00000000E+00  0.00000000E+00  0.00000000E+00
  0.00000000E+00  0.00000000E+00  0.00000000E+00
  0.00000000E+00  0.00000000E+00  0.00000000E+00
  0.00000000E+00  0.00000000E+00  0.00000000E+00
  0.00000000E+00  0.00000000E+00  0.00000000E+00
  0.00000000E+00  0.00000000E+00  0.00000000E+00
  0.00000000E+00  0.00000000E+00  0.00000000E+00
  0.00000000E+00  0.00000000E+00  0.00000000E+00
  0.00000000E+00  0.00000000E+00  0.00000000E+00
  0.00000000E+00  0.00000000E+00  0.00000000E+00
  0.00000000E+00  0.00000000E+00  0.00000000E+00
  0.00000000E+00  0.00000000E+00  0.00000000E+00
  0.00000000E+00  0.00000000E+00  0.00000000E+00
  0.00000000E+00  0.00000000E+00  0.00000000E+00
  0.00000000E+00  0.00000000E+00  0.00000000E+00
  0.00000000E+00  0.00000000E+00  0.00000000E+00
  0.00000000E+00  0.00000000E+00  0.00000000E+00
  0.00000000E+00  0.00000000E+00  0.00000000E+00
  0.00000000E+00  0.00000000E+00  0.00000000E+00
  0.00000000E+00  0.00000000E+00  0.00000000E+00
  0.00000000E+00  0.00000000E+00  0.00000000E+00
  0.00000000E+00  0.00000000E+00  0.00000000E+00
  0.00000000E+00  0.00000000E+00  0.00000000E+00
  0.00000000E+00  0.00000000E+00  0.00000000E+00
  0.00000000E+00  0.00000000E+00  0.00000000E+00
  0.00000000E+00  0.00000000E+00  0.00000000E+00
