Title                                   
   1.00000000000000     
     9.8694509999999998    0.0000000000000000    0.0000000000000000
     0.0000000000000000    8.5490480000000009    0.0000000000000000
     0.0000000000000000    0.0000000000000000   20.0000000000000000
    28     2     1
Selective dynamics
Direct
  0.0548154349614786  0.0890652773767699  0.0853305448377469   T   T   T
  0.9292152531303922  0.1744734871562879  0.0859961756792819   T   T   T
  0.0576311640374783  0.9232665657017001  0.0853336354354607   T   T   T
  0.9309801535112692  0.3416367485597985  0.0855680735668857   T   T   T
  0.0567377884185923  0.5892245216753063  0.0838678484366765   T   T   T
  0.9339021871227041  0.6765847109867958  0.0874783041538924   T   T   T
  0.0557402535124872  0.4230748502707108  0.0838763334007806   T   T   T
  0.9328527591114322  0.8430340598626112  0.0883632724138407   T   T   T
  0.3055206636843354  0.0869405169426482  0.0936221988031708   T   T   T
  0.1795959417260179  0.1692482560932223  0.0883416872428185   T   T   T
  0.3090998288292339  0.9179959336284209  0.0914134121313612   T   T   T
  0.1785709258929327  0.3356787604513350  0.0874481538872834   T   T   T
  0.3038781082077437  0.5840789773918275  0.0912816248979963   T   T   T
  0.1814663983163867  0.6707363733532488  0.0855290406504862   T   T   T
  0.3006624383567377  0.4153319791632697  0.0961412316966270   T   T   T
  0.1832154225128183  0.8378685258413998  0.0859661389576631   T   T   T
  0.5545924799261178  0.0910506534053417  0.1036484372047911   T   T   T
  0.4261317745063875  0.1752586377504841  0.1037972194005801   T   T   T
  0.5578848875753024  0.9212717760116442  0.1036357531209870   T   T   T
  0.4297725513133667  0.6612672795913204  0.0964783126470820   T   T   T
  0.4344170799991360  0.8303528864814934  0.0973577014620835   T   T   T
  0.8033510400286710  0.0942979934308184  0.0914243546958467   T   T   T
  0.6780723291295144  0.1819343867642697  0.0973548462100269   T   T   T
  0.8069270671015049  0.9253652710202772  0.0936101179063585   T   T   T
  0.6827108740530841  0.3510031018741273  0.0964684119950945   T   T   T
  0.8117847290037878  0.5969725951075001  0.0961235959823773   T   T   T
  0.8085486995733340  0.4282510251939524  0.0912800293919541   T   T   T
  0.6863286649144023  0.8370401595212474  0.1037521512250082   T   T   T
  0.4185199669967343  0.3368400508269324  0.1123281120787110   T   T   T
  0.6939709355290536  0.6755130076661220  0.1122709248177179   T   T   T
  0.5562371990175717  0.5062166308991293  0.1358773556694508   T   T   T
 
  0.00000000E+00  0.00000000E+00  0.00000000E+00
  0.00000000E+00  0.00000000E+00  0.00000000E+00
  0.00000000E+00  0.00000000E+00  0.00000000E+00
  0.00000000E+00  0.00000000E+00  0.00000000E+00
  0.00000000E+00  0.00000000E+00  0.00000000E+00
  0.00000000E+00  0.00000000E+00  0.00000000E+00
  0.00000000E+00  0.00000000E+00  0.00000000E+00
  0.00000000E+00  0.00000000E+00  0.00000000E+00
  0.00000000E+00  0.00000000E+00  0.00000000E+00
  0.00000000E+00  0.00000000E+00  0.00000000E+00
  0.00000000E+00  0.00000000E+00  0.00000000E+00
  0.00000000E+00  0.00000000E+00  0.00000000E+00
  0.00000000E+00  0.00000000E+00  0.00000000E+00
  0.00000000E+00  0.00000000E+00  0.00000000E+00
  0.00000000E+00  0.00000000E+00  0.00000000E+00
  0.00000000E+00  0.00000000E+00  0.00000000E+00
  0.00000000E+00  0.00000000E+00  0.00000000E+00
  0.00000000E+00  0.00000000E+00  0.00000000E+00
  0.00000000E+00  0.00000000E+00  0.00000000E+00
  0.00000000E+00  0.00000000E+00  0.00000000E+00
  0.00000000E+00  0.00000000E+00  0.00000000E+00
  0.00000000E+00  0.00000000E+00  0.00000000E+00
  0.00000000E+00  0.00000000E+00  0.00000000E+00
  0.00000000E+00  0.00000000E+00  0.00000000E+00
  0.00000000E+00  0.00000000E+00  0.00000000E+00
  0.00000000E+00  0.00000000E+00  0.00000000E+00
  0.00000000E+00  0.00000000E+00  0.00000000E+00
  0.00000000E+00  0.00000000E+00  0.00000000E+00
  0.00000000E+00  0.00000000E+00  0.00000000E+00
  0.00000000E+00  0.00000000E+00  0.00000000E+00
  0.00000000E+00  0.00000000E+00  0.00000000E+00
