Title                                   
   1.00000000000000     
     8.5490480000000009    0.0000000000000000    0.0000000000000000
     0.0000000000000000    8.5490480000000009    0.0000000000000000
     0.0000000000000000    0.0000000000000000   20.0000000000000000
    20     4     1
Selective dynamics
Direct
  0.9077821015183574  0.2056162690587554  0.0976757400248625   T   T   T
  0.9055746934593694  0.5038586015124733  0.0977662432721906   T   T   T
  0.9107131089316721  0.8029164255457053  0.0974923422479256   T   T   T
  0.1967372073934216  0.0839231154321017  0.0977417233156128   T   T   T
  0.0760950402004255  0.2017134187527463  0.0977080762322630   T   T   T
  0.1567798660106949  0.6505687053894359  0.0977250496815621   T   T   T
  0.0759027567036772  0.5021893212563511  0.0977013337797413   T   T   T
  0.1582401399520740  0.3556890557203081  0.0977030494142191   T   T   T
  0.0793003709616527  0.7990343125252696  0.0975867703180418   T   T   T
  0.4935703120095427  0.0848093245000795  0.0977682426001631   T   T   T
  0.3473857983469867  0.1644252172603351  0.0977677365793138   T   T   T
  0.4934290825775275  0.9141059948732595  0.0977041291982788   T   T   T
  0.3450128015483076  0.8343662197656658  0.0978270122137496   T   T   T
  0.7884555485556690  0.0873241705927075  0.0975986393264706   T   T   T
  0.6398529778184975  0.1662834654460583  0.0978274559759972   T   T   T
  0.7899732696399437  0.9197976809164483  0.0974948413849935   T   T   T
  0.8292428016129565  0.6528633521318075  0.0977070806678130   T   T   T
  0.8255864580148107  0.3551449362176208  0.0978888750036064   T   T   T
  0.6420998199105467  0.8360361492880377  0.0976769209562779   T   T   T
  0.3219044473992740  0.3300007395115291  0.0977105335887338   T   T   T
  0.3184095060506252  0.6751518886776662  0.0979450607608257   T   T   T
  0.6639701770428282  0.3283236400641155  0.0981814615658256   T   T   T
  0.6687202172489870  0.6761833341578055  0.0978517769693268   T   T   T
  0.1986781627449590  0.9151282755098665  0.0977426113434443   T   T   T
  0.4919953343471857  0.4993363858938710  0.0979122935787340   T   T   T
 
  0.00000000E+00  0.00000000E+00  0.00000000E+00
  0.00000000E+00  0.00000000E+00  0.00000000E+00
  0.00000000E+00  0.00000000E+00  0.00000000E+00
  0.00000000E+00  0.00000000E+00  0.00000000E+00
  0.00000000E+00  0.00000000E+00  0.00000000E+00
  0.00000000E+00  0.00000000E+00  0.00000000E+00
  0.00000000E+00  0.00000000E+00  0.00000000E+00
  0.00000000E+00  0.00000000E+00  0.00000000E+00
  0.00000000E+00  0.00000000E+00  0.00000000E+00
  0.00000000E+00  0.00000000E+00  0.00000000E+00
  0.00000000E+00  0.00000000E+00  0.00000000E+00
  0.00000000E+00  0.00000000E+00  0.00000000E+00
  0.00000000E+00  0.00000000E+00  0.00000000E+00
  0.00000000E+00  0.00000000E+00  0.00000000E+00
  0.00000000E+00  0.00000000E+00  0.00000000E+00
  0.00000000E+00  0.00000000E+00  0.00000000E+00
  0.00000000E+00  0.00000000E+00  0.00000000E+00
  0.00000000E+00  0.00000000E+00  0.00000000E+00
  0.00000000E+00  0.00000000E+00  0.00000000E+00
  0.00000000E+00  0.00000000E+00  0.00000000E+00
  0.00000000E+00  0.00000000E+00  0.00000000E+00
  0.00000000E+00  0.00000000E+00  0.00000000E+00
  0.00000000E+00  0.00000000E+00  0.00000000E+00
  0.00000000E+00  0.00000000E+00  0.00000000E+00
  0.00000000E+00  0.00000000E+00  0.00000000E+00
