Title                                   
   1.00000000000000     
     4.9440799999999996    0.0000000000000000    0.0000000000000000
     0.0000000000000000    8.5647549999999999    0.0000000000000000
     0.0000000000000000    0.0000000000000000   20.0000000000000000
    12     2     1
Selective dynamics
Direct
  0.0023865639002824  0.2936258317898649  0.0913225575700777   T   T   T
  0.2547557378502894  0.0404842579073248  0.0956345303465500   T   T   T
  0.0051531228200595  0.9567488599750780  0.0897231347584122   T   T   T
  0.7517930008835275  0.2064427099708718  0.0899293303901074   T   T   T
  0.5027174263019796  0.2900438584007443  0.0994504354866714   T   T   T
  0.7543781334034009  0.0409859624061146  0.0889859526849123   T   T   T
  0.7482283556938468  0.7146524494828463  0.0969978312884225   T   T   T
  0.7432155293378869  0.5372445634205287  0.0989600464152326   T   T   T
  0.5088606256631868  0.9569979110475627  0.0987290904135539   T   T   T
  0.5027576316331329  0.4514284248119274  0.1142436869116599   T   T   T
 -0.0058679527732997  0.4569500809483962  0.0905634619995437   T   T   T
 -0.0059490470079084  0.7904300044183835  0.0881204567472635   T   T   T
  0.5136813414791038  0.7985025733334963  0.1114130022954649   T   T   T
  0.2549727671346144  0.2064202374419807  0.0957767399538424   T   T   T
  0.2189167636798978  0.6307232746448812  0.1581297427382889   T   T   T
 
  0.00000000E+00  0.00000000E+00  0.00000000E+00
  0.00000000E+00  0.00000000E+00  0.00000000E+00
  0.00000000E+00  0.00000000E+00  0.00000000E+00
  0.00000000E+00  0.00000000E+00  0.00000000E+00
  0.00000000E+00  0.00000000E+00  0.00000000E+00
  0.00000000E+00  0.00000000E+00  0.00000000E+00
  0.00000000E+00  0.00000000E+00  0.00000000E+00
  0.00000000E+00  0.00000000E+00  0.00000000E+00
  0.00000000E+00  0.00000000E+00  0.00000000E+00
  0.00000000E+00  0.00000000E+00  0.00000000E+00
  0.00000000E+00  0.00000000E+00  0.00000000E+00
  0.00000000E+00  0.00000000E+00  0.00000000E+00
  0.00000000E+00  0.00000000E+00  0.00000000E+00
  0.00000000E+00  0.00000000E+00  0.00000000E+00
  0.00000000E+00  0.00000000E+00  0.00000000E+00
