Title                                   
   1.00000000000000     
     9.8694509999999998    0.0000000000000000    0.0000000000000000
     0.0000000000000000    8.5490480000000009    0.0000000000000000
     0.0000000000000000    0.0000000000000000   20.0000000000000000
    28     3     1
Selective dynamics
Direct
  0.0562737563185213  0.0913227800134964  0.0834944936967474   T   T   T
  0.9303454964949935  0.1742264552408299  0.0860894112299522   T   T   T
  0.0562628917585709  0.9229582466611342  0.0825060814209475   T   T   T
  0.9302408846131699  0.3406103032998742  0.0903109736961509   T   T   T
  0.0562121491336386  0.5898338616280250  0.0856534702968123   T   T   T
  0.9311934418493357  0.6712479247093693  0.0870565368514612   T   T   T
  0.0562435217211799  0.4233579378049793  0.0888144829389601   T   T   T
  0.9306211966191826  0.8390572566916423  0.0847911716918626   T   T   T
  0.3056885177138031  0.0891371383842945  0.0859750703896025   T   T   T
  0.1821709238217212  0.1741695394218632  0.0858028941142930   T   T   T
  0.3071717013769697  0.9236199624656187  0.0867966644480772   T   T   T
  0.1822191377805234  0.3405340052761499  0.0899600902758065   T   T   T
  0.3048298877790132  0.5898488053046673  0.0985973658798240   T   T   T
  0.1812696080968484  0.6712346255248525  0.0866272219664459   T   T   T
  0.1818801641346102  0.8390239314559930  0.0844205819996681   T   T   T
  0.5562911564523584  0.0876586081756920  0.0936838343520051   T   T   T
  0.4306476065503104  0.1711596863781353  0.0919532561184873   T   T   T
  0.4313343024490848  0.3356365992311846  0.1014346260882775   T   T   T
  0.4298693688208105  0.8406046895526050  0.0988020745572794   T   T   T
  0.8068524690499168  0.0891329378135938  0.0864712700548441   T   T   T
  0.6819539734522256  0.1711653147093435  0.0924502369474514   T   T   T
  0.8053701167896750  0.9236392135377345  0.0873710896783480   T   T   T
  0.6812037423158207  0.3356194507566769  0.1019729016442297   T   T   T
  0.8077029238798803  0.5898840777005151  0.0993415719017239   T   T   T
  0.6827077261692600  0.8406740065218793  0.0994288983722275   T   T   T
  0.4211192441186397  0.6793468663058574  0.1176490508586344   T   T   T
  0.5560998445948305  0.4088541399864441  0.1204698348497429   T   T   T
  0.6914431400440778  0.6794571335206279  0.1183687691683278   T   T   T
  0.5563004738685989  0.9213740646107746  0.0980597743534762   T   T   T
  0.3065543179086690  0.4226093065814684  0.0975055935205363   T   T   T
  0.8059358009431871  0.4226604442395605  0.0981934064120369   T   T   T
  0.5556295133805804  0.5905866864951198  0.1756223002257759   T   T   T
 
  0.00000000E+00  0.00000000E+00  0.00000000E+00
  0.00000000E+00  0.00000000E+00  0.00000000E+00
  0.00000000E+00  0.00000000E+00  0.00000000E+00
  0.00000000E+00  0.00000000E+00  0.00000000E+00
  0.00000000E+00  0.00000000E+00  0.00000000E+00
  0.00000000E+00  0.00000000E+00  0.00000000E+00
  0.00000000E+00  0.00000000E+00  0.00000000E+00
  0.00000000E+00  0.00000000E+00  0.00000000E+00
  0.00000000E+00  0.00000000E+00  0.00000000E+00
  0.00000000E+00  0.00000000E+00  0.00000000E+00
  0.00000000E+00  0.00000000E+00  0.00000000E+00
  0.00000000E+00  0.00000000E+00  0.00000000E+00
  0.00000000E+00  0.00000000E+00  0.00000000E+00
  0.00000000E+00  0.00000000E+00  0.00000000E+00
  0.00000000E+00  0.00000000E+00  0.00000000E+00
  0.00000000E+00  0.00000000E+00  0.00000000E+00
  0.00000000E+00  0.00000000E+00  0.00000000E+00
  0.00000000E+00  0.00000000E+00  0.00000000E+00
  0.00000000E+00  0.00000000E+00  0.00000000E+00
  0.00000000E+00  0.00000000E+00  0.00000000E+00
  0.00000000E+00  0.00000000E+00  0.00000000E+00
  0.00000000E+00  0.00000000E+00  0.00000000E+00
  0.00000000E+00  0.00000000E+00  0.00000000E+00
  0.00000000E+00  0.00000000E+00  0.00000000E+00
  0.00000000E+00  0.00000000E+00  0.00000000E+00
  0.00000000E+00  0.00000000E+00  0.00000000E+00
  0.00000000E+00  0.00000000E+00  0.00000000E+00
  0.00000000E+00  0.00000000E+00  0.00000000E+00
  0.00000000E+00  0.00000000E+00  0.00000000E+00
  0.00000000E+00  0.00000000E+00  0.00000000E+00
  0.00000000E+00  0.00000000E+00  0.00000000E+00
  0.00000000E+00  0.00000000E+00  0.00000000E+00
