Title                                   
   1.00000000000000     
     4.9440799999999996    0.0000000000000000    0.0000000000000000
     0.0000000000000000   17.1295089999999988    0.0000000000000000
     0.0000000000000000    0.0000000000000000   20.0000000000000000
    29     1     1
Selective dynamics
Direct
 -0.0002705651899814  0.1047820930891919  0.2935645013180213   T   T   T
  0.2497307519962719  0.1469429523503070  0.2946685898043245   T   T   T
  0.2495700110612527  0.2303131692711246  0.2987470312369288   T   T   T
  0.0014011104957619  0.2734889695239802  0.3020752393895235   T   T   T
  0.0025409981070404  0.6019142574946813  0.3011713731337355   T   T   T
  0.2496411201983490  0.7270125830999936  0.2946390125336110   T   T   T
  0.0009503626819661  0.8529273707730723  0.2923876121343023   T   T   T
  0.2501197336081420  0.8951616596460776  0.2922026399368982   T   T   T
  0.2501621284639496  0.9790392126822998  0.2922233313684380   T   T   T
  0.0005870550498219  0.7689611425279166  0.2933918563036030   T   T   T
  0.5002752210452267  0.1049430289527190  0.2932293291878395   T   T   T
  0.7502583730208825  0.1471182752955969  0.2941585172340174   T   T   T
  0.7503973771502293  0.2311000385560546  0.2974524445759536   T   T   T
  0.5002592877637235  0.0210449196364700  0.2922802479520022   T   T   T
  0.7485388567667962  0.3964192843492954  0.3087723633307130   T   T   T
  0.7484045946327547  0.4815607192083035  0.3090002350729290   T   T   T
  0.4984656470540043  0.2726637490964817  0.2998294064456448   T   T   T
  0.4965916411927433  0.6027175291453699  0.2992116205118242   T   T   T
  0.7500815834390059  0.7273767896932517  0.2936380703301051   T   T   T
  0.4991369429335177  0.8528773324233034  0.2922252166528601   T   T   T
  0.7500218958544493  0.8947562309164366  0.2920766319281412   T   T   T
  0.7500472143404685  0.9787428117548191  0.2921212439817704   T   T   T
  0.4992214916209647  0.7688289565820122  0.2930958062061060   T   T   T
  0.7500444827879006  0.6444595623930904  0.2964346790951052   T   T   T
 -0.0000694415857787  0.0209766576452632  0.2924490546864494   T   T   T
  0.4969978617745816  0.5210731110241581  0.3061949697457911   T   T   T
  0.0025951218382457  0.5202606353122742  0.3108277957856792   T   T   T
  0.5011378841803023  0.3554425527870231  0.3062790086896608   T   T   T
 -0.0006280986394062  0.3562776877372285  0.3113473051001885   T   T   T
  0.2494622558754527  0.6450462622042037  0.2981136997984583   T   T   T
  0.2643341004813635  0.4371124548279961  0.3512511665293271   T   T   T
 
  0.00000000E+00  0.00000000E+00  0.00000000E+00
  0.00000000E+00  0.00000000E+00  0.00000000E+00
  0.00000000E+00  0.00000000E+00  0.00000000E+00
  0.00000000E+00  0.00000000E+00  0.00000000E+00
  0.00000000E+00  0.00000000E+00  0.00000000E+00
  0.00000000E+00  0.00000000E+00  0.00000000E+00
  0.00000000E+00  0.00000000E+00  0.00000000E+00
  0.00000000E+00  0.00000000E+00  0.00000000E+00
  0.00000000E+00  0.00000000E+00  0.00000000E+00
  0.00000000E+00  0.00000000E+00  0.00000000E+00
  0.00000000E+00  0.00000000E+00  0.00000000E+00
  0.00000000E+00  0.00000000E+00  0.00000000E+00
  0.00000000E+00  0.00000000E+00  0.00000000E+00
  0.00000000E+00  0.00000000E+00  0.00000000E+00
  0.00000000E+00  0.00000000E+00  0.00000000E+00
  0.00000000E+00  0.00000000E+00  0.00000000E+00
  0.00000000E+00  0.00000000E+00  0.00000000E+00
  0.00000000E+00  0.00000000E+00  0.00000000E+00
  0.00000000E+00  0.00000000E+00  0.00000000E+00
  0.00000000E+00  0.00000000E+00  0.00000000E+00
  0.00000000E+00  0.00000000E+00  0.00000000E+00
  0.00000000E+00  0.00000000E+00  0.00000000E+00
  0.00000000E+00  0.00000000E+00  0.00000000E+00
  0.00000000E+00  0.00000000E+00  0.00000000E+00
  0.00000000E+00  0.00000000E+00  0.00000000E+00
  0.00000000E+00  0.00000000E+00  0.00000000E+00
  0.00000000E+00  0.00000000E+00  0.00000000E+00
  0.00000000E+00  0.00000000E+00  0.00000000E+00
  0.00000000E+00  0.00000000E+00  0.00000000E+00
  0.00000000E+00  0.00000000E+00  0.00000000E+00
  0.00000000E+00  0.00000000E+00  0.00000000E+00
