Title                                   
   1.00000000000000     
     4.9440799999999996    0.0000000000000000    0.0000000000000000
     0.0000000000000000    8.5647549999999999    0.0000000000000000
     0.0000000000000000    0.0000000000000000   20.0000000000000000
    15     1
Selective dynamics
Direct
  0.2500000000000000  0.2067156728348730  0.0918168094665987   T   T   T
 -0.0006027861714543  0.2896144974597692  0.0946863668609534   T   T   T
  0.2500000000000000  0.0418378369751038  0.0887829909211224   T   T   T
 -0.0014037375381369  0.7939075857585273  0.0995565938549939   T   T   T
 -0.0001563199512925  0.9590385352979311  0.0890966038463146   T   T   T
  0.7500000000000000  0.2066829380771892  0.0877044688261462   T   T   T
  0.5006027861714540  0.2896144974597692  0.0946863668609534   T   T   T
  0.7500000000000000  0.0407108745521317  0.0854617040159281   T   T   T
  0.7500000000000000  0.7106212927507505  0.1014695551612088   T   T   T
  0.5014037375381369  0.7939075857585273  0.0995565938549939   T   T   T
  0.7500000000000000  0.5436843404489778  0.1037584469392772   T   T   T
  0.5001563199512928  0.9590385352979311  0.0890966038463146   T   T   T
  0.5157892902192679  0.4504966744401555  0.1071184753118845   T   T   T
 -0.0157892902192678  0.4504966744401555  0.1071184753118845   T   T   T
  0.2500000000000000  0.7250524813716499  0.1130009602175192   T   T   T
  0.2500000000000000  0.5385799770765598  0.1696009847039140   T   T   T
 
  0.00000000E+00  0.00000000E+00  0.00000000E+00
  0.00000000E+00  0.00000000E+00  0.00000000E+00
  0.00000000E+00  0.00000000E+00  0.00000000E+00
  0.00000000E+00  0.00000000E+00  0.00000000E+00
  0.00000000E+00  0.00000000E+00  0.00000000E+00
  0.00000000E+00  0.00000000E+00  0.00000000E+00
  0.00000000E+00  0.00000000E+00  0.00000000E+00
  0.00000000E+00  0.00000000E+00  0.00000000E+00
  0.00000000E+00  0.00000000E+00  0.00000000E+00
  0.00000000E+00  0.00000000E+00  0.00000000E+00
  0.00000000E+00  0.00000000E+00  0.00000000E+00
  0.00000000E+00  0.00000000E+00  0.00000000E+00
  0.00000000E+00  0.00000000E+00  0.00000000E+00
  0.00000000E+00  0.00000000E+00  0.00000000E+00
  0.00000000E+00  0.00000000E+00  0.00000000E+00
  0.00000000E+00  0.00000000E+00  0.00000000E+00
