Title                                   
   1.00000000000000     
     4.9440799999999996    0.0000000000000000    0.0000000000000000
     0.0000000000000000    8.5647549999999999    0.0000000000000000
     0.0000000000000000    0.0000000000000000   20.0000000000000000
    12     2     1
Selective dynamics
Direct
  0.2500000000000000  0.2062721995124270  0.1004855972094190   T   T   T
  0.0003064031809640  0.2936327222700706  0.1004528530036349   T   T   T
  0.2500000000000000  0.0369369278784151  0.1005400698222529   T   T   T
 -0.0031821445193065  0.9534590481764573  0.1005279474807217   T   T   T
  0.7500000000000000  0.2094208809863348  0.1003942969290922   T   T   T
  0.4996935968190357  0.2936327222700706  0.1004528530036349   T   T   T
  0.7500000000000000  0.0400769732449685  0.1004041324751621   T   T   T
  0.7500000000000000  0.7171490860125601  0.1006211557162079   T   T   T
  0.7500000000000000  0.5416880618090606  0.1005174418059965   T   T   T
  0.5031821445193065  0.9534590481764573  0.1005279474807217   T   T   T
  0.5016695596317282  0.4619949343008675  0.1005179762657812   T   T   T
 -0.0016695596317283  0.4619949343008675  0.1005179762657812   T   T   T
 -0.0116949315983025  0.7915181490164342  0.1006493665937806   T   T   T
  0.5116949315983023  0.7915181490164342  0.1006493665937806   T   T   T
  0.2500000000000000  0.6189271630285756  0.1007210193540363   T   T   T
 
  0.00000000E+00  0.00000000E+00  0.00000000E+00
  0.00000000E+00  0.00000000E+00  0.00000000E+00
  0.00000000E+00  0.00000000E+00  0.00000000E+00
  0.00000000E+00  0.00000000E+00  0.00000000E+00
  0.00000000E+00  0.00000000E+00  0.00000000E+00
  0.00000000E+00  0.00000000E+00  0.00000000E+00
  0.00000000E+00  0.00000000E+00  0.00000000E+00
  0.00000000E+00  0.00000000E+00  0.00000000E+00
  0.00000000E+00  0.00000000E+00  0.00000000E+00
  0.00000000E+00  0.00000000E+00  0.00000000E+00
  0.00000000E+00  0.00000000E+00  0.00000000E+00
  0.00000000E+00  0.00000000E+00  0.00000000E+00
  0.00000000E+00  0.00000000E+00  0.00000000E+00
  0.00000000E+00  0.00000000E+00  0.00000000E+00
  0.00000000E+00  0.00000000E+00  0.00000000E+00
