Title                                   
   1.00000000000000     
     4.9440799999999996    0.0000000000000000    0.0000000000000000
     0.0000000000000000   17.1295089999999988    0.0000000000000000
     0.0000000000000000    0.0000000000000000   20.0000000000000000
    28     2     1
Selective dynamics
Direct
 -0.0014925175264906  0.1045693159356755  0.2991214416772885   T   T   T
  0.2470998964791139  0.1475617648052108  0.2988789615444769   T   T   T
  0.2463437025700694  0.2309406947865246  0.2990663891013522   T   T   T
 -0.0063097489033969  0.2733319250223381  0.3014141263422158   T   T   T
  0.0012396394634933  0.6033205838245637  0.3050681445284455   T   T   T
  0.2534732694101766  0.7273253420692959  0.2988895835422851   T   T   T
  0.0012212077890151  0.8535020994785659  0.2981609957880174   T   T   T
  0.2507891038257514  0.8957907676951167  0.2979189628943672   T   T   T
  0.2497966065028931  0.9790874325210244  0.2983186837670268   T   T   T
  0.0023089205971648  0.7699079654464767  0.2989020336206724   T   T   T
  0.4983346134324562  0.1049884037549533  0.2981266128566277   T   T   T
  0.7490768690596366  0.1461970939657228  0.2983814812211845   T   T   T
  0.7476004023399085  0.2296941739188259  0.2980950753056710   T   T   T
  0.4993491877351368  0.0213929018856604  0.2981801582791878   T   T   T
  0.7483459089853610  0.3929154540686683  0.2996598887937796   T   T   T
  0.7524767029454101  0.4820572879262168  0.3030908255519497   T   T   T
  0.4993253797794979  0.2716707674266814  0.2955926469644772   T   T   T
  0.5068655313406154  0.6016113807769464  0.2992795963623073   T   T   T
  0.7516096717694616  0.7287027357961705  0.2991482235723224   T   T   T
  0.5011234112646280  0.8537199295365608  0.2975853878709955   T   T   T
  0.7508660587890880  0.8955487732137104  0.2979251505612140   T   T   T
  0.7496641754786104  0.9793291054648717  0.2982530519969990   T   T   T
  0.5020916324598997  0.7702993942321149  0.2978491699793437   T   T   T
  0.7531390140349732  0.6452560274000054  0.3012761509082107   T   T   T
  0.2541199432625976  0.6439878978644090  0.3006777944525904   T   T   T
 -0.0005723807362435  0.0211508104693358  0.2987212880970349   T   T   T
  0.9916230768732341  0.5217615808517754  0.3117763765938783   T   T   T
  0.5090752124818517  0.3533575131657186  0.2908888808084420   T   T   T
  0.5172657771013587  0.5214566360203489  0.2957707550834749   T   T   T
 -0.0165680989504143  0.3533910795224511  0.3068239706568435   T   T   T
  0.2507248303451425  0.4375151611540556  0.3022181912772683   T   T   T
 
  0.00000000E+00  0.00000000E+00  0.00000000E+00
  0.00000000E+00  0.00000000E+00  0.00000000E+00
  0.00000000E+00  0.00000000E+00  0.00000000E+00
  0.00000000E+00  0.00000000E+00  0.00000000E+00
  0.00000000E+00  0.00000000E+00  0.00000000E+00
  0.00000000E+00  0.00000000E+00  0.00000000E+00
  0.00000000E+00  0.00000000E+00  0.00000000E+00
  0.00000000E+00  0.00000000E+00  0.00000000E+00
  0.00000000E+00  0.00000000E+00  0.00000000E+00
  0.00000000E+00  0.00000000E+00  0.00000000E+00
  0.00000000E+00  0.00000000E+00  0.00000000E+00
  0.00000000E+00  0.00000000E+00  0.00000000E+00
  0.00000000E+00  0.00000000E+00  0.00000000E+00
  0.00000000E+00  0.00000000E+00  0.00000000E+00
  0.00000000E+00  0.00000000E+00  0.00000000E+00
  0.00000000E+00  0.00000000E+00  0.00000000E+00
  0.00000000E+00  0.00000000E+00  0.00000000E+00
  0.00000000E+00  0.00000000E+00  0.00000000E+00
  0.00000000E+00  0.00000000E+00  0.00000000E+00
  0.00000000E+00  0.00000000E+00  0.00000000E+00
  0.00000000E+00  0.00000000E+00  0.00000000E+00
  0.00000000E+00  0.00000000E+00  0.00000000E+00
  0.00000000E+00  0.00000000E+00  0.00000000E+00
  0.00000000E+00  0.00000000E+00  0.00000000E+00
  0.00000000E+00  0.00000000E+00  0.00000000E+00
  0.00000000E+00  0.00000000E+00  0.00000000E+00
  0.00000000E+00  0.00000000E+00  0.00000000E+00
  0.00000000E+00  0.00000000E+00  0.00000000E+00
  0.00000000E+00  0.00000000E+00  0.00000000E+00
  0.00000000E+00  0.00000000E+00  0.00000000E+00
  0.00000000E+00  0.00000000E+00  0.00000000E+00
