Title                                   
   1.00000000000000     
     9.8694509999999998    0.0000000000000000    0.0000000000000000
     0.0000000000000000    8.5490480000000009    0.0000000000000000
     0.0000000000000000    0.0000000000000000   20.0000000000000000
    26     4     1
Selective dynamics
Direct
  0.0562000040347448  0.0898947614810110  0.0865136464588557   T   T   T
  0.9314444992213539  0.1725597071822857  0.0875484514957091   T   T   T
  0.0562133382830245  0.9224014738023342  0.0865146203960657   T   T   T
  0.9323581508146696  0.3392162720169065  0.0861958518744908   T   T   T
  0.0562430035082114  0.5892624981600244  0.0835083109059949   T   T   T
  0.9323874211623233  0.6731371203459882  0.0862050689169085   T   T   T
  0.0562515384586470  0.4230881893704638  0.0835004080088973   T   T   T
  0.9314315585435257  0.8397762804359438  0.0875507645417000   T   T   T
  0.3074464333730857  0.0900824465302651  0.0922585578265047   T   T   T
  0.1809635393894715  0.1725405175642141  0.0877851539957970   T   T   T
  0.3074461938375581  0.9222044993647273  0.0922608115708856   T   T   T
  0.1800726127246312  0.3392061961674090  0.0864154728581427   T   T   T
  0.3031676988616295  0.5899871399625330  0.0932656994477658   T   T   T
  0.1800804721398208  0.6731115911080352  0.0864375293324128   T   T   T
  0.3031831920100806  0.4222811217872588  0.0932566232763445   T   T   T
  0.1809668907430572  0.8397605403880838  0.0877954612507409   T   T   T
  0.5562657253507101  0.0929600305244484  0.1011381154791782   T   T   T
  0.4297118351162890  0.1773187535531740  0.0993428012065368   T   T   T
  0.5562338173033279  0.9193537654892697  0.1011460977750537   T   T   T
  0.4297121265872141  0.8349638050050030  0.0993379497493447   T   T   T
  0.8049763647095968  0.0900980415136370  0.0919461285188366   T   T   T
  0.6827556441339758  0.1773980882106448  0.0991435316916624   T   T   T
  0.8049483062174190  0.9222015796741015  0.0919496355437893   T   T   T
  0.8093108260125871  0.5900097200084964  0.0929833639863565   T   T   T
  0.8092778380665026  0.4223475189081564  0.0929832340193172   T   T   T
  0.6827437309919204  0.8349264944129031  0.0991645176128138   T   T   T
  0.4233953307415682  0.3408999893848056  0.1049190577964167   T   T   T
  0.4233767212871442  0.6713899453930019  0.1049127392796430   T   T   T
  0.6891276649311806  0.3409664178136336  0.1047310535618300   T   T   T
  0.6891475948260339  0.6713766252823430  0.1047425000924707   T   T   T
  0.5562959266187011  0.5061538691588962  0.1455118415295753   T   T   T
 
  0.00000000E+00  0.00000000E+00  0.00000000E+00
  0.00000000E+00  0.00000000E+00  0.00000000E+00
  0.00000000E+00  0.00000000E+00  0.00000000E+00
  0.00000000E+00  0.00000000E+00  0.00000000E+00
  0.00000000E+00  0.00000000E+00  0.00000000E+00
  0.00000000E+00  0.00000000E+00  0.00000000E+00
  0.00000000E+00  0.00000000E+00  0.00000000E+00
  0.00000000E+00  0.00000000E+00  0.00000000E+00
  0.00000000E+00  0.00000000E+00  0.00000000E+00
  0.00000000E+00  0.00000000E+00  0.00000000E+00
  0.00000000E+00  0.00000000E+00  0.00000000E+00
  0.00000000E+00  0.00000000E+00  0.00000000E+00
  0.00000000E+00  0.00000000E+00  0.00000000E+00
  0.00000000E+00  0.00000000E+00  0.00000000E+00
  0.00000000E+00  0.00000000E+00  0.00000000E+00
  0.00000000E+00  0.00000000E+00  0.00000000E+00
  0.00000000E+00  0.00000000E+00  0.00000000E+00
  0.00000000E+00  0.00000000E+00  0.00000000E+00
  0.00000000E+00  0.00000000E+00  0.00000000E+00
  0.00000000E+00  0.00000000E+00  0.00000000E+00
  0.00000000E+00  0.00000000E+00  0.00000000E+00
  0.00000000E+00  0.00000000E+00  0.00000000E+00
  0.00000000E+00  0.00000000E+00  0.00000000E+00
  0.00000000E+00  0.00000000E+00  0.00000000E+00
  0.00000000E+00  0.00000000E+00  0.00000000E+00
  0.00000000E+00  0.00000000E+00  0.00000000E+00
  0.00000000E+00  0.00000000E+00  0.00000000E+00
  0.00000000E+00  0.00000000E+00  0.00000000E+00
  0.00000000E+00  0.00000000E+00  0.00000000E+00
  0.00000000E+00  0.00000000E+00  0.00000000E+00
  0.00000000E+00  0.00000000E+00  0.00000000E+00
