Title                                   
   1.00000000000000     
     8.5490480000000009    0.0000000000000000    0.0000000000000000
     0.0000000000000000    8.5490480000000009    0.0000000000000000
     0.0000000000000000    0.0000000000000000   20.0000000000000000
    19     5     1
Selective dynamics
Direct
  0.9069850181715261  0.2057055265244881  0.0975619829156508   T   T   T
  0.9074814532679037  0.5025009656822691  0.0977550273976918   T   T   T
  0.9097394276152039  0.8010911743755175  0.0975743020723506   T   T   T
  0.1968424477769132  0.0844455462465356  0.0976271201704427   T   T   T
  0.0764122828305027  0.2023383737784236  0.0975760912296540   T   T   T
  0.1608350523420148  0.6498128609953959  0.0977361143277895   T   T   T
  0.0796312706951408  0.5010378587046385  0.0977360748244458   T   T   T
  0.1608903988418489  0.3525935176657742  0.0977714033366634   T   T   T
  0.0791924962166772  0.7978714694846057  0.0975994239024643   T   T   T
  0.4926092633197503  0.0883052946297609  0.0978323322185709   T   T   T
  0.3446743525511374  0.1672725896592336  0.0978517301941108   T   T   T
  0.4923110873855021  0.9160473974205302  0.0977412175924276   T   T   T
  0.3450600098731797  0.8340135607278302  0.0977455461743827   T   T   T
  0.7872881957862060  0.0873517661309389  0.0975952150261944   T   T   T
  0.6386510505199986  0.1706842924514128  0.0978412119975514   T   T   T
  0.7881092738264092  0.9188911568192508  0.0975792027055117   T   T   T
  0.8273207588646930  0.6504848027341185  0.0977377001964985   T   T   T
  0.8249316478089238  0.3551748902826455  0.0977833886254320   T   T   T
  0.6397954588107888  0.8339669121842694  0.0977316652685029   T   T   T
  0.3226775823424372  0.3298823920055118  0.0979890708122100   T   T   T
  0.3229778888548706  0.6742371730525202  0.0978128420074982   T   T   T
  0.6621145395756756  0.3333931382026124  0.0980196700282937   T   T   T
  0.6645092806274361  0.6716892221836276  0.0978524576796426   T   T   T
  0.1984676804097142  0.9150285403875549  0.0976452448855098   T   T   T
  0.4959040816855395  0.5009695776705330  0.0980089644104899   T   T   T
 
  0.00000000E+00  0.00000000E+00  0.00000000E+00
  0.00000000E+00  0.00000000E+00  0.00000000E+00
  0.00000000E+00  0.00000000E+00  0.00000000E+00
  0.00000000E+00  0.00000000E+00  0.00000000E+00
  0.00000000E+00  0.00000000E+00  0.00000000E+00
  0.00000000E+00  0.00000000E+00  0.00000000E+00
  0.00000000E+00  0.00000000E+00  0.00000000E+00
  0.00000000E+00  0.00000000E+00  0.00000000E+00
  0.00000000E+00  0.00000000E+00  0.00000000E+00
  0.00000000E+00  0.00000000E+00  0.00000000E+00
  0.00000000E+00  0.00000000E+00  0.00000000E+00
  0.00000000E+00  0.00000000E+00  0.00000000E+00
  0.00000000E+00  0.00000000E+00  0.00000000E+00
  0.00000000E+00  0.00000000E+00  0.00000000E+00
  0.00000000E+00  0.00000000E+00  0.00000000E+00
  0.00000000E+00  0.00000000E+00  0.00000000E+00
  0.00000000E+00  0.00000000E+00  0.00000000E+00
  0.00000000E+00  0.00000000E+00  0.00000000E+00
  0.00000000E+00  0.00000000E+00  0.00000000E+00
  0.00000000E+00  0.00000000E+00  0.00000000E+00
  0.00000000E+00  0.00000000E+00  0.00000000E+00
  0.00000000E+00  0.00000000E+00  0.00000000E+00
  0.00000000E+00  0.00000000E+00  0.00000000E+00
  0.00000000E+00  0.00000000E+00  0.00000000E+00
  0.00000000E+00  0.00000000E+00  0.00000000E+00
