Title                                   
   1.00000000000000     
     9.8694509999999998    0.0000000000000000    0.0000000000000000
     0.0000000000000000    8.5490480000000009    0.0000000000000000
     0.0000000000000000    0.0000000000000000   20.0000000000000000
    28     3     1
Selective dynamics
Direct
  0.0556777160924192  0.0890874934136732  0.0832359283025415   T   T   T
  0.9312595623994974  0.1735701758304375  0.0842606820404056   T   T   T
  0.0571168735057678  0.9221028614301341  0.0836882740542221   T   T   T
  0.9312930692823324  0.3401367264314979  0.0866370009671699   T   T   T
  0.0567452897401107  0.5908026364207638  0.0853315999808101   T   T   T
  0.0560521834688307  0.4236700883599506  0.0857635532059273   T   T   T
  0.9321658338871209  0.8383798534638001  0.0855544998179164   T   T   T
  0.3054612572292053  0.0887969973326909  0.0876445438040920   T   T   T
  0.1816212092912977  0.1725425691803639  0.0854872600399237   T   T   T
  0.1811686846439603  0.3394896243600751  0.0877934990285347   T   T   T
  0.3034499950939115  0.5888259841299492  0.1008269905898900   T   T   T
  0.1809415829626416  0.6736147023372796  0.0887394285436016   T   T   T
  0.3062181642440551  0.4209694323024297  0.0975087017455411   T   T   T
  0.1825766948372569  0.8408218713215739  0.0868050598885665   T   T   T
  0.5555404704454585  0.0890319561318787  0.0920264176928168   T   T   T
  0.5543879040510209  0.9231938571207050  0.0988681181129987   T   T   T
  0.4296369387261378  0.3333290120178092  0.1019156523583208   T   T   T
  0.4271028194235464  0.8419361522152375  0.1034580377504034   T   T   T
  0.8065183927245444  0.0889431480035774  0.0857854848219803   T   T   T
  0.6807139597828481  0.1715649352799981  0.0900084993472785   T   T   T
  0.8071862759601292  0.9226068597769044  0.0880304793659785   T   T   T
  0.6823243774506276  0.3381245402586560  0.0992639762898043   T   T   T
  0.8107916723772912  0.5925815117063014  0.0995425120573939   T   T   T
  0.8069747184859561  0.4241863938608402  0.0956169236486783   T   T   T
  0.6822920240024452  0.8423081868348589  0.1000552637419423   T   T   T
  0.4177957323510815  0.6819131855622935  0.1182324155531525   T   T   T
  0.5548036882293056  0.4056608916334760  0.1148756795192396   T   T   T
  0.6947657492276410  0.6805920187519149  0.1156332880198749   T   T   T
  0.3056439155500326  0.9254713239339986  0.0895703693298521   T   T   T
  0.4290779257020345  0.1683404786646654  0.0915953839539120   T   T   T
  0.9329664293627155  0.6725385168875276  0.0866554631156062   T   T   T
  0.5593678894687817  0.5851120150447382  0.1852640133116403   T   T   T
 
  0.00000000E+00  0.00000000E+00  0.00000000E+00
  0.00000000E+00  0.00000000E+00  0.00000000E+00
  0.00000000E+00  0.00000000E+00  0.00000000E+00
  0.00000000E+00  0.00000000E+00  0.00000000E+00
  0.00000000E+00  0.00000000E+00  0.00000000E+00
  0.00000000E+00  0.00000000E+00  0.00000000E+00
  0.00000000E+00  0.00000000E+00  0.00000000E+00
  0.00000000E+00  0.00000000E+00  0.00000000E+00
  0.00000000E+00  0.00000000E+00  0.00000000E+00
  0.00000000E+00  0.00000000E+00  0.00000000E+00
  0.00000000E+00  0.00000000E+00  0.00000000E+00
  0.00000000E+00  0.00000000E+00  0.00000000E+00
  0.00000000E+00  0.00000000E+00  0.00000000E+00
  0.00000000E+00  0.00000000E+00  0.00000000E+00
  0.00000000E+00  0.00000000E+00  0.00000000E+00
  0.00000000E+00  0.00000000E+00  0.00000000E+00
  0.00000000E+00  0.00000000E+00  0.00000000E+00
  0.00000000E+00  0.00000000E+00  0.00000000E+00
  0.00000000E+00  0.00000000E+00  0.00000000E+00
  0.00000000E+00  0.00000000E+00  0.00000000E+00
  0.00000000E+00  0.00000000E+00  0.00000000E+00
  0.00000000E+00  0.00000000E+00  0.00000000E+00
  0.00000000E+00  0.00000000E+00  0.00000000E+00
  0.00000000E+00  0.00000000E+00  0.00000000E+00
  0.00000000E+00  0.00000000E+00  0.00000000E+00
  0.00000000E+00  0.00000000E+00  0.00000000E+00
  0.00000000E+00  0.00000000E+00  0.00000000E+00
  0.00000000E+00  0.00000000E+00  0.00000000E+00
  0.00000000E+00  0.00000000E+00  0.00000000E+00
  0.00000000E+00  0.00000000E+00  0.00000000E+00
  0.00000000E+00  0.00000000E+00  0.00000000E+00
  0.00000000E+00  0.00000000E+00  0.00000000E+00
