Title                                   
   1.00000000000000     
     8.5490480000000009    0.0000000000000000    0.0000000000000000
     0.0000000000000000    8.5490480000000009    0.0000000000000000
     0.0000000000000000    0.0000000000000000   20.0000000000000000
    18     6     1
Selective dynamics
Direct
  0.9088795313086847  0.2049012661504446  0.0975622188298454   T   T   T
  0.9096622864499108  0.8003028152322257  0.0974781656418221   T   T   T
  0.1970202343059474  0.0851333167453372  0.0978227390274912   T   T   T
  0.0778653767473157  0.2009123689382552  0.0976985298495318   T   T   T
  0.1568802487999996  0.6528434356718242  0.0978353410765758   T   T   T
  0.0761246094037080  0.5007968076574413  0.0977668168014237   T   T   T
  0.1586517715402690  0.3547990520855012  0.0976940888065421   T   T   T
  0.0781225276478565  0.8000067909757249  0.0976559004134899   T   T   T
  0.3489402240315297  0.1682869888270507  0.0978143587727053   T   T   T
  0.4938178527090002  0.9170914150260985  0.0978394313183068   T   T   T
  0.3417919953888506  0.8367051945211635  0.0979573317000912   T   T   T
  0.7889588504177906  0.0857035826580274  0.0975296540585234   T   T   T
  0.6415804019756695  0.1674463046621950  0.0978034604838647   T   T   T
  0.7895973770836203  0.9179143258464831  0.0974778226808240   T   T   T
  0.8264860813071568  0.6510742817961267  0.0976142880268214   T   T   T
  0.8261022917609676  0.3518164816460844  0.0977368856975641   T   T   T
  0.6417446977085526  0.8350800717116651  0.0976493038748846   T   T   T
  0.3271026557442257  0.3323530258012213  0.0976778745263800   T   T   T
  0.4956108825496214  0.0861202977606893  0.0979141820609401   T   T   T
  0.9048683461737534  0.5017810953927552  0.0977785822201982   T   T   T
  0.3183768094109358  0.6783869708523579  0.0980543645056850   T   T   T
  0.6636022547808178  0.3288659265518303  0.0979900357101407   T   T   T
  0.6666998433155458  0.6716474458088071  0.0977102529830093   T   T   T
  0.1960554827374165  0.9168130261880685  0.0978403391630945   T   T   T
  0.4908693667008471  0.4980077114926425  0.0978030317702178   T   T   T
 
  0.00000000E+00  0.00000000E+00  0.00000000E+00
  0.00000000E+00  0.00000000E+00  0.00000000E+00
  0.00000000E+00  0.00000000E+00  0.00000000E+00
  0.00000000E+00  0.00000000E+00  0.00000000E+00
  0.00000000E+00  0.00000000E+00  0.00000000E+00
  0.00000000E+00  0.00000000E+00  0.00000000E+00
  0.00000000E+00  0.00000000E+00  0.00000000E+00
  0.00000000E+00  0.00000000E+00  0.00000000E+00
  0.00000000E+00  0.00000000E+00  0.00000000E+00
  0.00000000E+00  0.00000000E+00  0.00000000E+00
  0.00000000E+00  0.00000000E+00  0.00000000E+00
  0.00000000E+00  0.00000000E+00  0.00000000E+00
  0.00000000E+00  0.00000000E+00  0.00000000E+00
  0.00000000E+00  0.00000000E+00  0.00000000E+00
  0.00000000E+00  0.00000000E+00  0.00000000E+00
  0.00000000E+00  0.00000000E+00  0.00000000E+00
  0.00000000E+00  0.00000000E+00  0.00000000E+00
  0.00000000E+00  0.00000000E+00  0.00000000E+00
  0.00000000E+00  0.00000000E+00  0.00000000E+00
  0.00000000E+00  0.00000000E+00  0.00000000E+00
  0.00000000E+00  0.00000000E+00  0.00000000E+00
  0.00000000E+00  0.00000000E+00  0.00000000E+00
  0.00000000E+00  0.00000000E+00  0.00000000E+00
  0.00000000E+00  0.00000000E+00  0.00000000E+00
  0.00000000E+00  0.00000000E+00  0.00000000E+00
