Title                                   
   1.00000000000000     
     9.8694509999999998    0.0000000000000000    0.0000000000000000
     0.0000000000000000    8.5490480000000009    0.0000000000000000
     0.0000000000000000    0.0000000000000000   20.0000000000000000
    26     5     1
Selective dynamics
Direct
  0.0553812782903329  0.0902366563881584  0.0839880531663507   T   T   T
  0.9305394137440545  0.1753489106451264  0.0841882614984309   T   T   T
  0.0576048623890076  0.9226423274522133  0.0850821463998142   T   T   T
  0.9288923960394498  0.3420039104268225  0.0861526253958342   T   T   T
  0.0562911867605954  0.5912847832210634  0.0868955419337145   T   T   T
  0.0551415161493571  0.4241871771025513  0.0867393095913676   T   T   T
  0.9329105086692215  0.8397845610321072  0.0874146833668073   T   T   T
  0.3052882631351765  0.0882270948566077  0.0878349725860558   T   T   T
  0.1813223525591320  0.1726733196781249  0.0860116739048328   T   T   T
  0.1807377238572865  0.3395775902074490  0.0884526247444165   T   T   T
  0.3039545320186980  0.5887964451415310  0.1008467663226677   T   T   T
  0.1808719901265814  0.6736120689230121  0.0898509420194524   T   T   T
  0.3079235715226802  0.4203028137764412  0.0972885014632549   T   T   T
  0.1827830510102679  0.8410803555319574  0.0878302522335251   T   T   T
  0.5560628687412711  0.0869652610261998  0.0928982371155347   T   T   T
  0.5559108506752334  0.9212851312518314  0.0991854331548997   T   T   T
  0.4296558287145264  0.3308604775883262  0.1005494041973786   T   T   T
  0.4276320876580364  0.8405753702156938  0.1028405126936240   T   T   T
  0.8062838788432836  0.0896317180284696  0.0852604248069431   T   T   T
  0.6800517465789016  0.1715436795172549  0.0890477250795214   T   T   T
  0.8083390640372184  0.9240525771000796  0.0886119377280355   T   T   T
  0.6789563485439551  0.3367121527672076  0.0964252946104442   T   T   T
  0.8096946733747710  0.5953243228750548  0.0977388061861865   T   T   T
  0.8016196719517322  0.4275131807067320  0.0931989680795873   T   T   T
  0.6843530868918916  0.8424982574618891  0.0995610191192652   T   T   T
  0.4189004883654892  0.6813893361850580  0.1168633465365052   T   T   T
  0.5527044695724231  0.3986088040352771  0.1157466277148048   T   T   T
  0.6983641567920288  0.6850550421243585  0.1159417574243910   T   T   T
  0.3063811074154774  0.9252601978627195  0.0896809711718640   T   T   T
  0.4291852412091989  0.1669361489554567  0.0921734319771438   T   T   T
  0.9322331773866230  0.6733500532369330  0.0886068000915700   T   T   T
  0.5636676069761020  0.5829262746782961  0.1827679476857926   T   T   T
 
  0.00000000E+00  0.00000000E+00  0.00000000E+00
  0.00000000E+00  0.00000000E+00  0.00000000E+00
  0.00000000E+00  0.00000000E+00  0.00000000E+00
  0.00000000E+00  0.00000000E+00  0.00000000E+00
  0.00000000E+00  0.00000000E+00  0.00000000E+00
  0.00000000E+00  0.00000000E+00  0.00000000E+00
  0.00000000E+00  0.00000000E+00  0.00000000E+00
  0.00000000E+00  0.00000000E+00  0.00000000E+00
  0.00000000E+00  0.00000000E+00  0.00000000E+00
  0.00000000E+00  0.00000000E+00  0.00000000E+00
  0.00000000E+00  0.00000000E+00  0.00000000E+00
  0.00000000E+00  0.00000000E+00  0.00000000E+00
  0.00000000E+00  0.00000000E+00  0.00000000E+00
  0.00000000E+00  0.00000000E+00  0.00000000E+00
  0.00000000E+00  0.00000000E+00  0.00000000E+00
  0.00000000E+00  0.00000000E+00  0.00000000E+00
  0.00000000E+00  0.00000000E+00  0.00000000E+00
  0.00000000E+00  0.00000000E+00  0.00000000E+00
  0.00000000E+00  0.00000000E+00  0.00000000E+00
  0.00000000E+00  0.00000000E+00  0.00000000E+00
  0.00000000E+00  0.00000000E+00  0.00000000E+00
  0.00000000E+00  0.00000000E+00  0.00000000E+00
  0.00000000E+00  0.00000000E+00  0.00000000E+00
  0.00000000E+00  0.00000000E+00  0.00000000E+00
  0.00000000E+00  0.00000000E+00  0.00000000E+00
  0.00000000E+00  0.00000000E+00  0.00000000E+00
  0.00000000E+00  0.00000000E+00  0.00000000E+00
  0.00000000E+00  0.00000000E+00  0.00000000E+00
  0.00000000E+00  0.00000000E+00  0.00000000E+00
  0.00000000E+00  0.00000000E+00  0.00000000E+00
  0.00000000E+00  0.00000000E+00  0.00000000E+00
  0.00000000E+00  0.00000000E+00  0.00000000E+00
