Title                                   
   1.00000000000000     
     4.9440799999999996    0.0000000000000000    0.0000000000000000
     0.0000000000000000    8.5647549999999999    0.0000000000000000
     0.0000000000000000    0.0000000000000000   20.0000000000000000
    10     4     1
Selective dynamics
Direct
 -0.0084223886967152  0.2967809324340930  0.1019939978318150   T   T   T
  0.2456689320670461  0.0382708188537009  0.0984395797326792   T   T   T
 -0.0029228325643296  0.9537011747641931  0.1028227300547356   T   T   T
  0.7466672939174968  0.2081971027683537  0.0934006472958824   T   T   T
  0.4922431755788955  0.2897889277065847  0.0904772998038266   T   T   T
  0.7520271455766123  0.0405961119885225  0.0949865234118209   T   T   T
  0.7502885358633022  0.7129365349099563  0.0982889389501409   T   T   T
  0.7442104145583123  0.5397136452972044  0.0981347777706612   T   T   T
  0.5016683232853082  0.9597385869320042  0.0933592491166847   T   T   T
  0.4997253820209407  0.4539051763082354  0.0876101218159018   T   T   T
 -0.0126814641094690  0.4571979115146980  0.1156530626362666   T   T   T
 -0.0123020829334863  0.7894562803422253  0.1146774223294745   T   T   T
  0.5127847637167051  0.7974139803367070  0.0889805116869080   T   T   T
  0.2407494954193604  0.2099471931065976  0.0976641191196797   T   T   T
  0.3002953063000216  0.6240366227369266  0.1314910184435263   T   T   T
 
  0.00000000E+00  0.00000000E+00  0.00000000E+00
  0.00000000E+00  0.00000000E+00  0.00000000E+00
  0.00000000E+00  0.00000000E+00  0.00000000E+00
  0.00000000E+00  0.00000000E+00  0.00000000E+00
  0.00000000E+00  0.00000000E+00  0.00000000E+00
  0.00000000E+00  0.00000000E+00  0.00000000E+00
  0.00000000E+00  0.00000000E+00  0.00000000E+00
  0.00000000E+00  0.00000000E+00  0.00000000E+00
  0.00000000E+00  0.00000000E+00  0.00000000E+00
  0.00000000E+00  0.00000000E+00  0.00000000E+00
  0.00000000E+00  0.00000000E+00  0.00000000E+00
  0.00000000E+00  0.00000000E+00  0.00000000E+00
  0.00000000E+00  0.00000000E+00  0.00000000E+00
  0.00000000E+00  0.00000000E+00  0.00000000E+00
  0.00000000E+00  0.00000000E+00  0.00000000E+00
