Title                                   
   1.00000000000000     
     4.9440799999999996    0.0000000000000000    0.0000000000000000
     0.0000000000000000   17.1295089999999988    0.0000000000000000
     0.0000000000000000    0.0000000000000000   20.0000000000000000
    28     3     1
Selective dynamics
Direct
  0.0023616513008020  0.1037314077051736  0.2949972136326591   T   T   T
  0.2526621148675043  0.1453171298426654  0.2984127779159869   T   T   T
  0.2528787114310810  0.2284446411862332  0.3060773842219853   T   T   T
  0.0063250354499066  0.3521556873384397  0.3181476360808819   T   T   T
  0.0020080387610304  0.2698276080073936  0.3087284418973314   T   T   T
 -0.0043002757339376  0.6017451330041753  0.2925185992189745   T   T   T
  0.2518079418358604  0.7270731380484649  0.2888376858918397   T   T   T
  0.0027291555916153  0.8532432204159723  0.2862301306313463   T   T   T
  0.2521614986474501  0.8951742364595874  0.2868519344936011   T   T   T
  0.2523016318356370  0.9787339694448693  0.2889319596094530   T   T   T
  0.0032616848178772  0.7696433204747904  0.2868336455426213   T   T   T
  0.5025253481319570  0.1036657906809441  0.2952038863620436   T   T   T
  0.7522889759612025  0.1455910455250853  0.2975684960308862   T   T   T
  0.7523161254950526  0.2284123316183686  0.3039737245014529   T   T   T
  0.5024793137034169  0.0203531283080278  0.2905727089256887   T   T   T
  0.4988964761136945  0.3526936729889765  0.3202790114526575   T   T   T
  0.7532141005762354  0.3980777842280659  0.3186726349566892   T   T   T
  0.7509662374951729  0.4823729668741117  0.3060542909011901   T   T   T
  0.5033543532798391  0.2701362312613146  0.3097343409558671   T   T   T
  0.5077265864974601  0.6033476198695037  0.2968398621554076   T   T   T
  0.7519203185244453  0.7287170882479088  0.2878724921094040   T   T   T
  0.5014075459522159  0.8532685375976040  0.2865383093681880   T   T   T
  0.7520593877485504  0.8949824912234026  0.2866312366472221   T   T   T
  0.7522794617910933  0.9784371992159044  0.2886622859824645   T   T   T
  0.5006507364080487  0.7695739099089138  0.2875689347079501   T   T   T
  0.7518012947387810  0.6460204073466117  0.2915573460507112   T   T   T
  0.2521315447480244  0.6421623643027335  0.2926631940760101   T   T   T
  0.0022064574063726  0.0204318136927522  0.2904128984624973   T   T   T
  0.5218675898257695  0.5255799148979438  0.3175906309675499   T   T   T
  0.9839311490429108  0.5197182819745325  0.2850780112324281   T   T   T
  0.2521401114307152  0.3881715474915567  0.3300313230655171   T   T   T
  0.1764626963242242  0.5017473808179653  0.3824919719514464   T   T   T
 
  0.00000000E+00  0.00000000E+00  0.00000000E+00
  0.00000000E+00  0.00000000E+00  0.00000000E+00
  0.00000000E+00  0.00000000E+00  0.00000000E+00
  0.00000000E+00  0.00000000E+00  0.00000000E+00
  0.00000000E+00  0.00000000E+00  0.00000000E+00
  0.00000000E+00  0.00000000E+00  0.00000000E+00
  0.00000000E+00  0.00000000E+00  0.00000000E+00
  0.00000000E+00  0.00000000E+00  0.00000000E+00
  0.00000000E+00  0.00000000E+00  0.00000000E+00
  0.00000000E+00  0.00000000E+00  0.00000000E+00
  0.00000000E+00  0.00000000E+00  0.00000000E+00
  0.00000000E+00  0.00000000E+00  0.00000000E+00
  0.00000000E+00  0.00000000E+00  0.00000000E+00
  0.00000000E+00  0.00000000E+00  0.00000000E+00
  0.00000000E+00  0.00000000E+00  0.00000000E+00
  0.00000000E+00  0.00000000E+00  0.00000000E+00
  0.00000000E+00  0.00000000E+00  0.00000000E+00
  0.00000000E+00  0.00000000E+00  0.00000000E+00
  0.00000000E+00  0.00000000E+00  0.00000000E+00
  0.00000000E+00  0.00000000E+00  0.00000000E+00
  0.00000000E+00  0.00000000E+00  0.00000000E+00
  0.00000000E+00  0.00000000E+00  0.00000000E+00
  0.00000000E+00  0.00000000E+00  0.00000000E+00
  0.00000000E+00  0.00000000E+00  0.00000000E+00
  0.00000000E+00  0.00000000E+00  0.00000000E+00
  0.00000000E+00  0.00000000E+00  0.00000000E+00
  0.00000000E+00  0.00000000E+00  0.00000000E+00
  0.00000000E+00  0.00000000E+00  0.00000000E+00
  0.00000000E+00  0.00000000E+00  0.00000000E+00
  0.00000000E+00  0.00000000E+00  0.00000000E+00
  0.00000000E+00  0.00000000E+00  0.00000000E+00
  0.00000000E+00  0.00000000E+00  0.00000000E+00
