Title                                   
   1.00000000000000     
     4.9440799999999996    0.0000000000000000    0.0000000000000000
     0.0000000000000000    8.5647549999999999    0.0000000000000000
     0.0000000000000000    0.0000000000000000   20.0000000000000000
    12     2     1
Selective dynamics
Direct
  0.2448694675740647  0.2092121931006275  0.0975751410583747   T   T   T
 -0.0106009419324060  0.2951691102021464  0.0998312525740567   T   T   T
  0.2551990182230771  0.0403273846195066  0.0975998998938464   T   T   T
  0.0095656189782687  0.9542382277486676  0.0936079810471403   T   T   T
  0.7435967115917852  0.2097725483512072  0.0934936591931094   T   T   T
  0.4904438899749025  0.2953297246767719  0.0935830998067677   T   T   T
  0.7564486507104810  0.0398220326513354  0.0935193276731306   T   T   T
  0.7577576707200379  0.7122829634540351  0.1014093921359057   T   T   T
  0.7421854045852707  0.5372745415832794  0.1013735462802894   T   T   T
  0.5106478546103387  0.9544114356130085  0.0999086464957627   T   T   T
  0.4963835790014575  0.4639815224500104  0.0920099736090429   T   T   T
  0.0035462634079391  0.7855876622448917  0.0920243528460838   T   T   T
 -0.0213836529807162  0.4552367996867641  0.1113939599159244   T   T   T
  0.5213727259872206  0.7943372323510910  0.1114812175816664   T   T   T
  0.2499677395482776  0.6246976212666592  0.1291685498889023   T   T   T
 
  0.00000000E+00  0.00000000E+00  0.00000000E+00
  0.00000000E+00  0.00000000E+00  0.00000000E+00
  0.00000000E+00  0.00000000E+00  0.00000000E+00
  0.00000000E+00  0.00000000E+00  0.00000000E+00
  0.00000000E+00  0.00000000E+00  0.00000000E+00
  0.00000000E+00  0.00000000E+00  0.00000000E+00
  0.00000000E+00  0.00000000E+00  0.00000000E+00
  0.00000000E+00  0.00000000E+00  0.00000000E+00
  0.00000000E+00  0.00000000E+00  0.00000000E+00
  0.00000000E+00  0.00000000E+00  0.00000000E+00
  0.00000000E+00  0.00000000E+00  0.00000000E+00
  0.00000000E+00  0.00000000E+00  0.00000000E+00
  0.00000000E+00  0.00000000E+00  0.00000000E+00
  0.00000000E+00  0.00000000E+00  0.00000000E+00
  0.00000000E+00  0.00000000E+00  0.00000000E+00
