Title                                   
   1.00000000000000     
     8.5490480000000009    0.0000000000000000    0.0000000000000000
     0.0000000000000000    8.5490480000000009    0.0000000000000000
     0.0000000000000000    0.0000000000000000   20.0000000000000000
    18     6     1
Selective dynamics
Direct
  0.9079624122672608  0.2061510416163760  0.0975720472340825   T   T   T
  0.9110994876611067  0.8008459020339681  0.0975108268727605   T   T   T
  0.1985789762403470  0.0839096408423148  0.0977394330155006   T   T   T
  0.0765830529063392  0.2019073389622044  0.0976602272972902   T   T   T
  0.1570719597588435  0.6508349196217899  0.0977894853971614   T   T   T
  0.0754792202764812  0.5004440154736389  0.0977523550714212   T   T   T
  0.1563613233800603  0.3545708410030158  0.0977443419217471   T   T   T
  0.0796917130510949  0.7989453360208920  0.0976406397339761   T   T   T
  0.3480772253801980  0.1659131283551183  0.0978160715707898   T   T   T
  0.4939719769519240  0.9154547191306693  0.0978193437363497   T   T   T
  0.3447234075519809  0.8344514029472676  0.0978974606032548   T   T   T
  0.7878698446573461  0.0866872898081798  0.0975351342115694   T   T   T
  0.6401422773274515  0.1671182067139592  0.0977147479590254   T   T   T
  0.7905881789708985  0.9189380112183899  0.0975118202950021   T   T   T
  0.8277157669971593  0.6517694191955389  0.0977023502983174   T   T   T
  0.8243460993775067  0.3540503189634045  0.0977232219373396   T   T   T
  0.6428805468232197  0.8365201851563189  0.0977467566790475   T   T   T
  0.3273215001041593  0.3347808340155716  0.0977808174107831   T   T   T
  0.4942897582615697  0.0864996013162168  0.0978290039727531   T   T   T
  0.9031127028570483  0.5028227223884838  0.0977753136348485   T   T   T
  0.3207787553706890  0.6734991511138617  0.0979553167054209   T   T   T
  0.6610961268819342  0.3306095030410537  0.0978620716291148   T   T   T
  0.6673134276392456  0.6733920863279049  0.0979245298888053   T   T   T
  0.1976733679828345  0.9151169632260757  0.0977748330503642   T   T   T
  0.4906828913232933  0.4995574215078055  0.0979268498732477   T   T   T
 
  0.00000000E+00  0.00000000E+00  0.00000000E+00
  0.00000000E+00  0.00000000E+00  0.00000000E+00
  0.00000000E+00  0.00000000E+00  0.00000000E+00
  0.00000000E+00  0.00000000E+00  0.00000000E+00
  0.00000000E+00  0.00000000E+00  0.00000000E+00
  0.00000000E+00  0.00000000E+00  0.00000000E+00
  0.00000000E+00  0.00000000E+00  0.00000000E+00
  0.00000000E+00  0.00000000E+00  0.00000000E+00
  0.00000000E+00  0.00000000E+00  0.00000000E+00
  0.00000000E+00  0.00000000E+00  0.00000000E+00
  0.00000000E+00  0.00000000E+00  0.00000000E+00
  0.00000000E+00  0.00000000E+00  0.00000000E+00
  0.00000000E+00  0.00000000E+00  0.00000000E+00
  0.00000000E+00  0.00000000E+00  0.00000000E+00
  0.00000000E+00  0.00000000E+00  0.00000000E+00
  0.00000000E+00  0.00000000E+00  0.00000000E+00
  0.00000000E+00  0.00000000E+00  0.00000000E+00
  0.00000000E+00  0.00000000E+00  0.00000000E+00
  0.00000000E+00  0.00000000E+00  0.00000000E+00
  0.00000000E+00  0.00000000E+00  0.00000000E+00
  0.00000000E+00  0.00000000E+00  0.00000000E+00
  0.00000000E+00  0.00000000E+00  0.00000000E+00
  0.00000000E+00  0.00000000E+00  0.00000000E+00
  0.00000000E+00  0.00000000E+00  0.00000000E+00
  0.00000000E+00  0.00000000E+00  0.00000000E+00
