Title                                   
   1.00000000000000     
     9.8694509999999998    0.0000000000000000    0.0000000000000000
     0.0000000000000000    8.5490480000000009    0.0000000000000000
     0.0000000000000000    0.0000000000000000   20.0000000000000000
    29     2     1
Selective dynamics
Direct
  0.0564860060988502  0.0901829018129052  0.0870246311013442   T   T   T
  0.9312879417089831  0.1728280865948971  0.0895493755312307   T   T   T
  0.0567876967514878  0.9231695630603429  0.0866255340638968   T   T   T
  0.9309112314215691  0.3399133251253298  0.0925174509020080   T   T   T
  0.0560635165509199  0.5894292372889204  0.0894938493256251   T   T   T
  0.9321474549845828  0.6726833950412197  0.0913966854670595   T   T   T
  0.0571738812064733  0.4229261604236045  0.0910076190753455   T   T   T
  0.9312275221932637  0.8399378792372000  0.0888160065067221   T   T   T
  0.3056473568808784  0.0886213505747418  0.0881906110578595   T   T   T
  0.1821969852357832  0.1741889746051983  0.0881270295720847   T   T   T
  0.3070484281666854  0.9232495521884799  0.0892109241962356   T   T   T
  0.1818536123001244  0.3399335659250559  0.0911735747781538   T   T   T
  0.3060194953663626  0.5887090190951900  0.0971407549987888   T   T   T
  0.1816725938654347  0.6717226470936647  0.0895471444161352   T   T   T
  0.1822288613557156  0.8382119068987940  0.0880032912064488   T   T   T
  0.5554377004257848  0.0882094370787602  0.0948551957220462   T   T   T
  0.4304743997552437  0.1708642217097530  0.0926338056807657   T   T   T
  0.4300473290020237  0.3375557959956442  0.0988325824060974   T   T   T
  0.4308372636850165  0.8397163831594417  0.0974182756348757   T   T   T
  0.8070792342031478  0.0892473226251119  0.0904572828392429   T   T   T
  0.6808004711049621  0.1703471255502502  0.0952317936202037   T   T   T
  0.8062501478210556  0.9241347956105920  0.0902064756705572   T   T   T
  0.6802154251260580  0.3360140738970957  0.1018220997923913   T   T   T
  0.8072229902942842  0.5905652544629086  0.0999719074588099   T   T   T
  0.8060715623371354  0.4225775539544259  0.0989142611283728   T   T   T
  0.6807495302741535  0.8414821359123874  0.0976316036366355   T   T   T
  0.4254913626591096  0.6764207081487935  0.1097745965208815   T   T   T
  0.5534387456205515  0.4121413204671032  0.1112792109029727   T   T   T
  0.6875615295690025  0.6805737746450892  0.1099144393439219   T   T   T
  0.5555270733901023  0.9228115144298557  0.0964536543300409   T   T   T
  0.3059147802313152  0.4227497718565649  0.0956595347353758   T   T   T
  0.5577668704139462  0.5891272455306805  0.1567937983778871   T   T   T
 
  0.00000000E+00  0.00000000E+00  0.00000000E+00
  0.00000000E+00  0.00000000E+00  0.00000000E+00
  0.00000000E+00  0.00000000E+00  0.00000000E+00
  0.00000000E+00  0.00000000E+00  0.00000000E+00
  0.00000000E+00  0.00000000E+00  0.00000000E+00
  0.00000000E+00  0.00000000E+00  0.00000000E+00
  0.00000000E+00  0.00000000E+00  0.00000000E+00
  0.00000000E+00  0.00000000E+00  0.00000000E+00
  0.00000000E+00  0.00000000E+00  0.00000000E+00
  0.00000000E+00  0.00000000E+00  0.00000000E+00
  0.00000000E+00  0.00000000E+00  0.00000000E+00
  0.00000000E+00  0.00000000E+00  0.00000000E+00
  0.00000000E+00  0.00000000E+00  0.00000000E+00
  0.00000000E+00  0.00000000E+00  0.00000000E+00
  0.00000000E+00  0.00000000E+00  0.00000000E+00
  0.00000000E+00  0.00000000E+00  0.00000000E+00
  0.00000000E+00  0.00000000E+00  0.00000000E+00
  0.00000000E+00  0.00000000E+00  0.00000000E+00
  0.00000000E+00  0.00000000E+00  0.00000000E+00
  0.00000000E+00  0.00000000E+00  0.00000000E+00
  0.00000000E+00  0.00000000E+00  0.00000000E+00
  0.00000000E+00  0.00000000E+00  0.00000000E+00
  0.00000000E+00  0.00000000E+00  0.00000000E+00
  0.00000000E+00  0.00000000E+00  0.00000000E+00
  0.00000000E+00  0.00000000E+00  0.00000000E+00
  0.00000000E+00  0.00000000E+00  0.00000000E+00
  0.00000000E+00  0.00000000E+00  0.00000000E+00
  0.00000000E+00  0.00000000E+00  0.00000000E+00
  0.00000000E+00  0.00000000E+00  0.00000000E+00
  0.00000000E+00  0.00000000E+00  0.00000000E+00
  0.00000000E+00  0.00000000E+00  0.00000000E+00
  0.00000000E+00  0.00000000E+00  0.00000000E+00
