Title                                   
   1.00000000000000     
     8.5490480000000009    0.0000000000000000    0.0000000000000000
     0.0000000000000000    8.5490480000000009    0.0000000000000000
     0.0000000000000000    0.0000000000000000   20.0000000000000000
    19     5     1
Selective dynamics
Direct
  0.9074423994914689  0.2064721895370842  0.0942644763562218   T   T   T
  0.9112938830911580  0.8005228700902222  0.0965317314381988   T   T   T
  0.1967563814983608  0.0822270775403871  0.0955909049328590   T   T   T
  0.0757742428006859  0.2010897068057141  0.0961328587068762   T   T   T
  0.1585402920477728  0.6494096585278125  0.0961039914518567   T   T   T
  0.0780624674209866  0.5004343254955355  0.0976098888934256   T   T   T
  0.1547600205407990  0.3495710974113653  0.0990640453769944   T   T   T
  0.0799374325141144  0.7982856523937210  0.0952173698206323   T   T   T
  0.3435666741397481  0.1614695369209872  0.0980740777469589   T   T   T
  0.4937635904542716  0.9192754153916094  0.0965351320242573   T   T   T
  0.3462482690185752  0.8389511701424367  0.0941890263593797   T   T   T
  0.7867608014545635  0.0877435618552979  0.0948425662296327   T   T   T
  0.6379690837322687  0.1697745188946238  0.0955047012113476   T   T   T
  0.7897319390691894  0.9192796011304175  0.0966646876324698   T   T   T
  0.8312301414937167  0.6514161760006020  0.0987896655375572   T   T   T
  0.8285731203405760  0.3569693054930115  0.0944753160871022   T   T   T
  0.6425941721446954  0.8385190892071835  0.0988541065180869   T   T   T
  0.3258261609162441  0.6755808485311459  0.0949375012006384   T   T   T
  0.6623165717005391  0.3372024298592357  0.0952204541781137   T   T   T
  0.4927232793442098  0.0879231874986826  0.0965945917654244   T   T   T
  0.9088421628453113  0.5034705261901685  0.0968575588692529   T   T   T
  0.3202946588416350  0.3237461897662131  0.1028994796461225   T   T   T
  0.6680379707780477  0.6725516998861834  0.1030038797187061   T   T   T
  0.1966196347686960  0.9156137860280052  0.0938781257536488   T   T   T
  0.4877466495523514  0.4972903794023679  0.1218688625442161   T   T   T
 
  0.00000000E+00  0.00000000E+00  0.00000000E+00
  0.00000000E+00  0.00000000E+00  0.00000000E+00
  0.00000000E+00  0.00000000E+00  0.00000000E+00
  0.00000000E+00  0.00000000E+00  0.00000000E+00
  0.00000000E+00  0.00000000E+00  0.00000000E+00
  0.00000000E+00  0.00000000E+00  0.00000000E+00
  0.00000000E+00  0.00000000E+00  0.00000000E+00
  0.00000000E+00  0.00000000E+00  0.00000000E+00
  0.00000000E+00  0.00000000E+00  0.00000000E+00
  0.00000000E+00  0.00000000E+00  0.00000000E+00
  0.00000000E+00  0.00000000E+00  0.00000000E+00
  0.00000000E+00  0.00000000E+00  0.00000000E+00
  0.00000000E+00  0.00000000E+00  0.00000000E+00
  0.00000000E+00  0.00000000E+00  0.00000000E+00
  0.00000000E+00  0.00000000E+00  0.00000000E+00
  0.00000000E+00  0.00000000E+00  0.00000000E+00
  0.00000000E+00  0.00000000E+00  0.00000000E+00
  0.00000000E+00  0.00000000E+00  0.00000000E+00
  0.00000000E+00  0.00000000E+00  0.00000000E+00
  0.00000000E+00  0.00000000E+00  0.00000000E+00
  0.00000000E+00  0.00000000E+00  0.00000000E+00
  0.00000000E+00  0.00000000E+00  0.00000000E+00
  0.00000000E+00  0.00000000E+00  0.00000000E+00
  0.00000000E+00  0.00000000E+00  0.00000000E+00
  0.00000000E+00  0.00000000E+00  0.00000000E+00
