Title                                   
   1.00000000000000     
     9.8694509999999998    0.0000000000000000    0.0000000000000000
     0.0000000000000000    8.5490480000000009    0.0000000000000000
     0.0000000000000000    0.0000000000000000   20.0000000000000000
    28     2     1
Selective dynamics
Direct
  0.0553048961696066  0.0892044571571649  0.0891615129216347   T   T   T
  0.9300343472119046  0.1740588481210025  0.0893935671688370   T   T   T
  0.0571523801439274  0.9231353563039456  0.0891895659082779   T   T   T
  0.9317458841181422  0.3412403258596443  0.0892789602340966   T   T   T
  0.0565974778236606  0.5893754028128823  0.0883250508236106   T   T   T
  0.9336308314512689  0.6756338479323601  0.0902375740067535   T   T   T
  0.0558519810047105  0.4229460103593907  0.0883044676002676   T   T   T
  0.9327376066968248  0.8421365828614457  0.0909059996796688   T   T   T
  0.3055438872755624  0.0877828250504769  0.0938677020784136   T   T   T
  0.1797290384835537  0.1702023580145016  0.0909513917073998   T   T   T
  0.3078513270972369  0.9196363415718869  0.0922990743395237   T   T   T
  0.1788365401461596  0.3367020873403599  0.0903168292609507   T   T   T
  0.3045115220373835  0.5859190585922628  0.0925165758735379   T   T   T
  0.1806961673058610  0.6710894662178589  0.0894206948068408   T   T   T
  0.3022587154846920  0.4160465617275043  0.0955952197820304   T   T   T
  0.1824109104093947  0.8382642581291642  0.0895256169418661   T   T   T
  0.5551873129705405  0.0908008750244398  0.0992419451890450   T   T   T
  0.4274923684458632  0.1751669936430214  0.0999277344165478   T   T   T
  0.5572590540924000  0.9214645678433976  0.0992305344807225   T   T   T
  0.4285992612441680  0.6659636577106809  0.0950732595088690   T   T   T
  0.4329634928266829  0.8329414579611311  0.0954762760625651   T   T   T
  0.8046035567468792  0.0926716908654335  0.0921529797404594   T   T   T
  0.6794726811114205  0.1793239827496156  0.0953758510657096   T   T   T
  0.8069175904357097  0.9245466880346648  0.0937318587727450   T   T   T
  0.6838286070681495  0.3463129025864026  0.0949231073563381   T   T   T
  0.8102168572741035  0.5962540333636819  0.0954017650734916   T   T   T
  0.8079104319644222  0.4263759001708110  0.0923231127013631   T   T   T
  0.6849753458304885  0.8371577480164393  0.0997915892760639   T   T   T
  0.4215884550822279  0.3367292472504617  0.1053363310831850   T   T   T
  0.6909228356527181  0.6756021389580096  0.1051307961042361   T   T   T
  0.5563036363943450  0.5061893277699693  0.1285580560349906   T   T   T
 
  0.00000000E+00  0.00000000E+00  0.00000000E+00
  0.00000000E+00  0.00000000E+00  0.00000000E+00
  0.00000000E+00  0.00000000E+00  0.00000000E+00
  0.00000000E+00  0.00000000E+00  0.00000000E+00
  0.00000000E+00  0.00000000E+00  0.00000000E+00
  0.00000000E+00  0.00000000E+00  0.00000000E+00
  0.00000000E+00  0.00000000E+00  0.00000000E+00
  0.00000000E+00  0.00000000E+00  0.00000000E+00
  0.00000000E+00  0.00000000E+00  0.00000000E+00
  0.00000000E+00  0.00000000E+00  0.00000000E+00
  0.00000000E+00  0.00000000E+00  0.00000000E+00
  0.00000000E+00  0.00000000E+00  0.00000000E+00
  0.00000000E+00  0.00000000E+00  0.00000000E+00
  0.00000000E+00  0.00000000E+00  0.00000000E+00
  0.00000000E+00  0.00000000E+00  0.00000000E+00
  0.00000000E+00  0.00000000E+00  0.00000000E+00
  0.00000000E+00  0.00000000E+00  0.00000000E+00
  0.00000000E+00  0.00000000E+00  0.00000000E+00
  0.00000000E+00  0.00000000E+00  0.00000000E+00
  0.00000000E+00  0.00000000E+00  0.00000000E+00
  0.00000000E+00  0.00000000E+00  0.00000000E+00
  0.00000000E+00  0.00000000E+00  0.00000000E+00
  0.00000000E+00  0.00000000E+00  0.00000000E+00
  0.00000000E+00  0.00000000E+00  0.00000000E+00
  0.00000000E+00  0.00000000E+00  0.00000000E+00
  0.00000000E+00  0.00000000E+00  0.00000000E+00
  0.00000000E+00  0.00000000E+00  0.00000000E+00
  0.00000000E+00  0.00000000E+00  0.00000000E+00
  0.00000000E+00  0.00000000E+00  0.00000000E+00
  0.00000000E+00  0.00000000E+00  0.00000000E+00
  0.00000000E+00  0.00000000E+00  0.00000000E+00
