Title                                   
   1.00000000000000     
     9.8694509999999998    0.0000000000000000    0.0000000000000000
     0.0000000000000000    8.5490480000000009    0.0000000000000000
     0.0000000000000000    0.0000000000000000   20.0000000000000000
    28     2     1
Selective dynamics
Direct
  0.0556924174661189  0.0889983737309679  0.0798092858496884   T   T   T
  0.9309792883754132  0.1724265119258379  0.0824309227228929   T   T   T
  0.0573392338023829  0.9230922167344927  0.0804721183752124   T   T   T
  0.9330031366313747  0.3396090569533319  0.0828405978513720   T   T   T
  0.0571648782031733  0.5906537409096491  0.0788065104035799   T   T   T
  0.9331676162043834  0.6739444687664248  0.0838431985462286   T   T   T
  0.0573694779932636  0.4231429767372690  0.0783564838267670   T   T   T
  0.9318613856628890  0.8401828405469648  0.0835682020129829   T   T   T
  0.3050680036663115  0.0880467036946740  0.0893684621941859   T   T   T
  0.1805987742736977  0.1704431332246478  0.0820681227959163   T   T   T
  0.1807107694140824  0.3380690272314650  0.0813874202552606   T   T   T
  0.3049184618878901  0.5889063926311079  0.0926245121177835   T   T   T
  0.1820911584916819  0.6731825598363010  0.0816899569079558   T   T   T
  0.3036013233317683  0.4181890638754996  0.0922541681671253   T   T   T
  0.1825965638225144  0.8401336797708884  0.0826555549553363   T   T   T
  0.5551597734880426  0.0917046066418000  0.1047122702550813   T   T   T
  0.4266625203832702  0.1747770858344100  0.1007706913104715   T   T   T
  0.5544093259336943  0.9249094482246444  0.1056925291836403   T   T   T
  0.4226855343567015  0.6742266599275948  0.1084570304139495   T   T   T
  0.4277321738753653  0.8377064726826589  0.1023717779352987   T   T   T
  0.8060190822234927  0.0898815924614708  0.0894969399656164   T   T   T
  0.6833971130808200  0.1764574277161661  0.1019377690471616   T   T   T
  0.8060958178314401  0.9230891166413613  0.0903264757171057   T   T   T
  0.6907384853284283  0.3398339656474826  0.1106025287292779   T   T   T
  0.8108863504514645  0.5925277211238107  0.0972060542312918   T   T   T
  0.6906173391968925  0.6736788319002114  0.1128746069285578   T   T   T
  0.8113480815376736  0.4213710628696260  0.0961791754575798   T   T   T
  0.6830801207268575  0.8380391369390912  0.1037103255033785   T   T   T
  0.4198992946109098  0.3356712470954319  0.1062111965172293   T   T   T
  0.3058830499393923  0.9234264551825722  0.0892641696359064   T   T   T
  0.5523584478086273  0.5045534225421683  0.1689759421862142   T   T   T
 
  0.00000000E+00  0.00000000E+00  0.00000000E+00
  0.00000000E+00  0.00000000E+00  0.00000000E+00
  0.00000000E+00  0.00000000E+00  0.00000000E+00
  0.00000000E+00  0.00000000E+00  0.00000000E+00
  0.00000000E+00  0.00000000E+00  0.00000000E+00
  0.00000000E+00  0.00000000E+00  0.00000000E+00
  0.00000000E+00  0.00000000E+00  0.00000000E+00
  0.00000000E+00  0.00000000E+00  0.00000000E+00
  0.00000000E+00  0.00000000E+00  0.00000000E+00
  0.00000000E+00  0.00000000E+00  0.00000000E+00
  0.00000000E+00  0.00000000E+00  0.00000000E+00
  0.00000000E+00  0.00000000E+00  0.00000000E+00
  0.00000000E+00  0.00000000E+00  0.00000000E+00
  0.00000000E+00  0.00000000E+00  0.00000000E+00
  0.00000000E+00  0.00000000E+00  0.00000000E+00
  0.00000000E+00  0.00000000E+00  0.00000000E+00
  0.00000000E+00  0.00000000E+00  0.00000000E+00
  0.00000000E+00  0.00000000E+00  0.00000000E+00
  0.00000000E+00  0.00000000E+00  0.00000000E+00
  0.00000000E+00  0.00000000E+00  0.00000000E+00
  0.00000000E+00  0.00000000E+00  0.00000000E+00
  0.00000000E+00  0.00000000E+00  0.00000000E+00
  0.00000000E+00  0.00000000E+00  0.00000000E+00
  0.00000000E+00  0.00000000E+00  0.00000000E+00
  0.00000000E+00  0.00000000E+00  0.00000000E+00
  0.00000000E+00  0.00000000E+00  0.00000000E+00
  0.00000000E+00  0.00000000E+00  0.00000000E+00
  0.00000000E+00  0.00000000E+00  0.00000000E+00
  0.00000000E+00  0.00000000E+00  0.00000000E+00
  0.00000000E+00  0.00000000E+00  0.00000000E+00
  0.00000000E+00  0.00000000E+00  0.00000000E+00
