Title                                   
   1.00000000000000     
     9.8694509999999998    0.0000000000000000    0.0000000000000000
     0.0000000000000000    8.5490480000000009    0.0000000000000000
     0.0000000000000000    0.0000000000000000   20.0000000000000000
    27     3     1
Selective dynamics
Direct
  0.0560950309982573  0.0894192344575403  0.0868787931119011   T   T   T
  0.9312861879213755  0.1714739753918456  0.0896717919515980   T   T   T
  0.0576503262219284  0.9233025062288945  0.0873954397286087   T   T   T
  0.9354976069070918  0.3377450266290198  0.0882819779272021   T   T   T
  0.0575731453339076  0.5902516245415123  0.0820580582631923   T   T   T
  0.9356071991376752  0.6749756100529681  0.0884567515520703   T   T   T
  0.0576013964644876  0.4226332910854900  0.0819234526758261   T   T   T
  0.9317776504590466  0.8406798611385085  0.0899505469318997   T   T   T
  0.3051494855866376  0.0880672120841680  0.0923367421754606   T   T   T
  0.1799129682159210  0.1704820937444137  0.0866700040986228   T   T   T
  0.1793652513980219  0.3387658817259954  0.0840695801988950   T   T   T
  0.3005662197463811  0.5902125933230041  0.0908415598136520   T   T   T
  0.1798237484584919  0.6733256947440500  0.0845269688442020   T   T   T
  0.3011376155297285  0.4213688806731369  0.0907519534190275   T   T   T
  0.1804723722633966  0.8411634711430468  0.0876147716165277   T   T   T
  0.5536862674426247  0.0914765396796605  0.1036818218869832   T   T   T
  0.4271069335825464  0.1745945625404827  0.0997278438353389   T   T   T
  0.5526486508752378  0.9213836047664653  0.1034701746352298   T   T   T
  0.4264720340900287  0.8369315032586238  0.0997807358636912   T   T   T
  0.8058603658321323  0.0901081489199191  0.0964566590924682   T   T   T
  0.6819107058646310  0.1762905207770178  0.1038877540389637   T   T   T
  0.8060286372293107  0.9220200918199163  0.0964067529539997   T   T   T
  0.6944783207187504  0.3414827177136029  0.1080711489040811   T   T   T
  0.8164447743501650  0.5914119431411032  0.0985823785558596   T   T   T
  0.6945587191373253  0.6712051170986112  0.1082348006145985   T   T   T
  0.8163974691866588  0.4213608945120631  0.0985099694959746   T   T   T
  0.6814720758808543  0.8358530251906346  0.1036576416663926   T   T   T
  0.4176922276379599  0.3365046061009177  0.1016771179337092   T   T   T
  0.4169054830313090  0.6771861077978195  0.1022143300998698   T   T   T
  0.3054178516337920  0.9227974657296787  0.0925723986163265   T   T   T
  0.5565382788643423  0.5064011939898941  0.1126050794978759   T   T   T
 
  0.00000000E+00  0.00000000E+00  0.00000000E+00
  0.00000000E+00  0.00000000E+00  0.00000000E+00
  0.00000000E+00  0.00000000E+00  0.00000000E+00
  0.00000000E+00  0.00000000E+00  0.00000000E+00
  0.00000000E+00  0.00000000E+00  0.00000000E+00
  0.00000000E+00  0.00000000E+00  0.00000000E+00
  0.00000000E+00  0.00000000E+00  0.00000000E+00
  0.00000000E+00  0.00000000E+00  0.00000000E+00
  0.00000000E+00  0.00000000E+00  0.00000000E+00
  0.00000000E+00  0.00000000E+00  0.00000000E+00
  0.00000000E+00  0.00000000E+00  0.00000000E+00
  0.00000000E+00  0.00000000E+00  0.00000000E+00
  0.00000000E+00  0.00000000E+00  0.00000000E+00
  0.00000000E+00  0.00000000E+00  0.00000000E+00
  0.00000000E+00  0.00000000E+00  0.00000000E+00
  0.00000000E+00  0.00000000E+00  0.00000000E+00
  0.00000000E+00  0.00000000E+00  0.00000000E+00
  0.00000000E+00  0.00000000E+00  0.00000000E+00
  0.00000000E+00  0.00000000E+00  0.00000000E+00
  0.00000000E+00  0.00000000E+00  0.00000000E+00
  0.00000000E+00  0.00000000E+00  0.00000000E+00
  0.00000000E+00  0.00000000E+00  0.00000000E+00
  0.00000000E+00  0.00000000E+00  0.00000000E+00
  0.00000000E+00  0.00000000E+00  0.00000000E+00
  0.00000000E+00  0.00000000E+00  0.00000000E+00
  0.00000000E+00  0.00000000E+00  0.00000000E+00
  0.00000000E+00  0.00000000E+00  0.00000000E+00
  0.00000000E+00  0.00000000E+00  0.00000000E+00
  0.00000000E+00  0.00000000E+00  0.00000000E+00
  0.00000000E+00  0.00000000E+00  0.00000000E+00
  0.00000000E+00  0.00000000E+00  0.00000000E+00
