Title                                   
   1.00000000000000     
     8.5490480000000009    0.0000000000000000    0.0000000000000000
     0.0000000000000000    8.5490480000000009    0.0000000000000000
     0.0000000000000000    0.0000000000000000   20.0000000000000000
    18     6     1
Selective dynamics
Direct
  0.9081641415440987  0.2052705638524064  0.0951722074991825   T   T   T
  0.9104873299280476  0.8006130032966737  0.0944960933593380   T   T   T
  0.1969458564326994  0.0834986522667467  0.0945511873033474   T   T   T
  0.0769409252738896  0.2007838125017900  0.0946891862207829   T   T   T
  0.1545580423906230  0.6521481473514094  0.0974682130257804   T   T   T
  0.0760480960088522  0.5008715524011106  0.0968828081797794   T   T   T
  0.1560846281441460  0.3523349074676474  0.0964628891891203   T   T   T
  0.0786294331741473  0.7995599766875683  0.0950376684512829   T   T   T
  0.3470597391079132  0.1643738462695038  0.0961407113147596   T   T   T
  0.4924906090091923  0.9163892560770543  0.0967816345537272   T   T   T
  0.3428536472337146  0.8394054741303869  0.0977055489390675   T   T   T
  0.7877558489580874  0.0866876357468035  0.0952128744968819   T   T   T
  0.6414056531188398  0.1657635656379639  0.0975186097889360   T   T   T
  0.7895232510938978  0.9178693596175578  0.0946776412627687   T   T   T
  0.8307071374214743  0.6514894003783102  0.0959698852330808   T   T   T
  0.8283141963691404  0.3523986097793281  0.0973589471059156   T   T   T
  0.6433132527534777  0.8371167301438575  0.0962319930789917   T   T   T
  0.3241778504192676  0.3284113903104292  0.0978918279611431   T   T   T
  0.4946820237771262  0.0864211920293458  0.0966809332657911   T   T   T
  0.9054960512446154  0.5021653040715270  0.0966109240657936   T   T   T
  0.3174340690869056  0.6790011253671598  0.1009637925151635   T   T   T
  0.6650662327090826  0.3287396183093311  0.1006186095006818   T   T   T
  0.6702716441655496  0.6738909220584289  0.0973913913970143   T   T   T
  0.1962046405204953  0.9163726277749525  0.0951342162408220   T   T   T
  0.4907977001147089  0.5032133264727279  0.1260552060508206   T   T   T
 
  0.00000000E+00  0.00000000E+00  0.00000000E+00
  0.00000000E+00  0.00000000E+00  0.00000000E+00
  0.00000000E+00  0.00000000E+00  0.00000000E+00
  0.00000000E+00  0.00000000E+00  0.00000000E+00
  0.00000000E+00  0.00000000E+00  0.00000000E+00
  0.00000000E+00  0.00000000E+00  0.00000000E+00
  0.00000000E+00  0.00000000E+00  0.00000000E+00
  0.00000000E+00  0.00000000E+00  0.00000000E+00
  0.00000000E+00  0.00000000E+00  0.00000000E+00
  0.00000000E+00  0.00000000E+00  0.00000000E+00
  0.00000000E+00  0.00000000E+00  0.00000000E+00
  0.00000000E+00  0.00000000E+00  0.00000000E+00
  0.00000000E+00  0.00000000E+00  0.00000000E+00
  0.00000000E+00  0.00000000E+00  0.00000000E+00
  0.00000000E+00  0.00000000E+00  0.00000000E+00
  0.00000000E+00  0.00000000E+00  0.00000000E+00
  0.00000000E+00  0.00000000E+00  0.00000000E+00
  0.00000000E+00  0.00000000E+00  0.00000000E+00
  0.00000000E+00  0.00000000E+00  0.00000000E+00
  0.00000000E+00  0.00000000E+00  0.00000000E+00
  0.00000000E+00  0.00000000E+00  0.00000000E+00
  0.00000000E+00  0.00000000E+00  0.00000000E+00
  0.00000000E+00  0.00000000E+00  0.00000000E+00
  0.00000000E+00  0.00000000E+00  0.00000000E+00
  0.00000000E+00  0.00000000E+00  0.00000000E+00
