Title                                   
   1.00000000000000     
     9.8694509999999998    0.0000000000000000    0.0000000000000000
     0.0000000000000000    8.5490480000000009    0.0000000000000000
     0.0000000000000000    0.0000000000000000   20.0000000000000000
    29     2     1
Selective dynamics
Direct
  0.0567093701328046  0.0905679261388991  0.0816612417059594   T   T   T
  0.9312912788248576  0.1733491872844280  0.0846400569663766   T   T   T
  0.0567511379224624  0.9228380377195973  0.0816384751240098   T   T   T
  0.9307771018617877  0.3401728630580951  0.0887628637323367   T   T   T
  0.0561335119891052  0.5892419277088244  0.0853021410741068   T   T   T
  0.9318311957416382  0.6725752264796560  0.0889678002428511   T   T   T
  0.0570930525579113  0.4232972288515878  0.0868592346569762   T   T   T
  0.9312756365937069  0.8399100647519412  0.0852727500470849   T   T   T
  0.3057680054195557  0.0889443440559880  0.0842903080925820   T   T   T
  0.1823723172529509  0.1740022828026506  0.0836063384902331   T   T   T
  0.3072302923666376  0.9231465576626238  0.0859487885972301   T   T   T
  0.1828276946911868  0.3407630985223964  0.0877935769446710   T   T   T
  0.3039368672909437  0.5893587947743913  0.0986131591474827   T   T   T
  0.1815006069654478  0.6710360088611418  0.0861599544381241   T   T   T
  0.1821076377421870  0.8385281743316234  0.0837502918902274   T   T   T
  0.5557119543157041  0.0868403216200871  0.0933460228004053   T   T   T
  0.4301202779195384  0.1707672910919004  0.0908887029674522   T   T   T
  0.4297435061142643  0.3351247385870078  0.1014929875844314   T   T   T
  0.4293193803713643  0.8411571672826617  0.0990847544747981   T   T   T
  0.8071947976337429  0.0898071522320704  0.0861770820529928   T   T   T
  0.6815528331989614  0.1699398600613526  0.0932892027451473   T   T   T
  0.8057701690818445  0.9239637907398428  0.0875337465776937   T   T   T
  0.6810278815724254  0.3336805522582876  0.1044551162876734   T   T   T
  0.8096137649296796  0.5911933572413183  0.1026521275220028   T   T   T
  0.8057275809340715  0.4225836091380254  0.0996657386418990   T   T   T
  0.6826554543839453  0.8427655176311861  0.1001662491701581   T   T   T
  0.4194440844529162  0.6802524995498714  0.1197256235057042   T   T   T
  0.5536592328544351  0.4058257744627954  0.1225419295533959   T   T   T
  0.6926302955223226  0.6834182256228867  0.1209144428822525   T   T   T
  0.5554833338734299  0.9218620916863393  0.0978724318917762   T   T   T
  0.3062378293291549  0.4226275670487697  0.0964970280989593   T   T   T
  0.5561409161590225  0.5907047607417549  0.1761048320930225   T   T   T
 
  0.00000000E+00  0.00000000E+00  0.00000000E+00
  0.00000000E+00  0.00000000E+00  0.00000000E+00
  0.00000000E+00  0.00000000E+00  0.00000000E+00
  0.00000000E+00  0.00000000E+00  0.00000000E+00
  0.00000000E+00  0.00000000E+00  0.00000000E+00
  0.00000000E+00  0.00000000E+00  0.00000000E+00
  0.00000000E+00  0.00000000E+00  0.00000000E+00
  0.00000000E+00  0.00000000E+00  0.00000000E+00
  0.00000000E+00  0.00000000E+00  0.00000000E+00
  0.00000000E+00  0.00000000E+00  0.00000000E+00
  0.00000000E+00  0.00000000E+00  0.00000000E+00
  0.00000000E+00  0.00000000E+00  0.00000000E+00
  0.00000000E+00  0.00000000E+00  0.00000000E+00
  0.00000000E+00  0.00000000E+00  0.00000000E+00
  0.00000000E+00  0.00000000E+00  0.00000000E+00
  0.00000000E+00  0.00000000E+00  0.00000000E+00
  0.00000000E+00  0.00000000E+00  0.00000000E+00
  0.00000000E+00  0.00000000E+00  0.00000000E+00
  0.00000000E+00  0.00000000E+00  0.00000000E+00
  0.00000000E+00  0.00000000E+00  0.00000000E+00
  0.00000000E+00  0.00000000E+00  0.00000000E+00
  0.00000000E+00  0.00000000E+00  0.00000000E+00
  0.00000000E+00  0.00000000E+00  0.00000000E+00
  0.00000000E+00  0.00000000E+00  0.00000000E+00
  0.00000000E+00  0.00000000E+00  0.00000000E+00
  0.00000000E+00  0.00000000E+00  0.00000000E+00
  0.00000000E+00  0.00000000E+00  0.00000000E+00
  0.00000000E+00  0.00000000E+00  0.00000000E+00
  0.00000000E+00  0.00000000E+00  0.00000000E+00
  0.00000000E+00  0.00000000E+00  0.00000000E+00
  0.00000000E+00  0.00000000E+00  0.00000000E+00
  0.00000000E+00  0.00000000E+00  0.00000000E+00
