Title                                   
   1.00000000000000     
     4.9440799999999996    0.0000000000000000    0.0000000000000000
     0.0000000000000000   17.1295089999999988    0.0000000000000000
     0.0000000000000000    0.0000000000000000   20.0000000000000000
    27     3     1
Selective dynamics
Direct
  0.0013477409881783  0.1052579103462606  0.2975673750012165   T   T   T
  0.2503399132492795  0.1477876907152930  0.2983906369632318   T   T   T
  0.2502988676236828  0.2324690761377463  0.3002994281258394   T   T   T
 -0.0028067982144969  0.2728719281686282  0.3010897939935417   T   T   T
  0.0003840578008924  0.6027276208819256  0.3006601588079363   T   T   T
  0.2502816642186237  0.7273677004541054  0.2982021191583549   T   T   T
  0.0015228061328111  0.8534704088474961  0.2967050768309495   T   T   T
  0.2503305256642127  0.8955449309329465  0.2966582543242153   T   T   T
  0.2503561512007497  0.9794482715870806  0.2966962755268769   T   T   T
  0.0013819229437855  0.7693912601888251  0.2974904941089799   T   T   T
  0.4993749661149880  0.1052619850095242  0.2975651300872842   T   T   T
  0.7503709028007821  0.1466223046347859  0.2980167462305421   T   T   T
  0.7503568484835008  0.2299856920301576  0.2995694573212979   T   T   T
  0.4998759886827516  0.0213245383671992  0.2967724563118854   T   T   T
  0.7502115135124237  0.3920140737977649  0.3028682143231916   T   T   T
  0.7501927852908334  0.4796111507249350  0.3026433064358409   T   T   T
  0.5034433876457738  0.2728340056140448  0.3010529133328799   T   T   T
  0.5003058919069179  0.6027757749087672  0.3006364907125674   T   T   T
  0.7503172711928991  0.7284275924859960  0.2979052179820515   T   T   T
  0.4991420183895053  0.8534736991221826  0.2967142994079139   T   T   T
  0.7503539699317849  0.8952241898418479  0.2965020634177033   T   T   T
  0.7503728700983462  0.9792516477801723  0.2965385686865104   T   T   T
  0.4992134414091733  0.7693884334905389  0.2974920085553295   T   T   T
  0.7503979093417129  0.6454858878343361  0.2992478641916522   T   T   T
  0.0008593402146252  0.0213241804953387  0.2967811288298647   T   T   T
  0.5030370262348226  0.5207991961833103  0.3028805609391377   T   T   T
 -0.0025112877269843  0.5207367176741691  0.3029643476065855   T   T   T
  0.5136548676668078  0.3534037469320276  0.3030686820368191   T   T   T
 -0.0131223201840052  0.3534535839132425  0.3032156309290869   T   T   T
  0.2503050077820740  0.6448503177796592  0.2998977234297139   T   T   T
  0.2504177496035508  0.4387564831196905  0.3089675763909517   T   T   T
 
  0.00000000E+00  0.00000000E+00  0.00000000E+00
  0.00000000E+00  0.00000000E+00  0.00000000E+00
  0.00000000E+00  0.00000000E+00  0.00000000E+00
  0.00000000E+00  0.00000000E+00  0.00000000E+00
  0.00000000E+00  0.00000000E+00  0.00000000E+00
  0.00000000E+00  0.00000000E+00  0.00000000E+00
  0.00000000E+00  0.00000000E+00  0.00000000E+00
  0.00000000E+00  0.00000000E+00  0.00000000E+00
  0.00000000E+00  0.00000000E+00  0.00000000E+00
  0.00000000E+00  0.00000000E+00  0.00000000E+00
  0.00000000E+00  0.00000000E+00  0.00000000E+00
  0.00000000E+00  0.00000000E+00  0.00000000E+00
  0.00000000E+00  0.00000000E+00  0.00000000E+00
  0.00000000E+00  0.00000000E+00  0.00000000E+00
  0.00000000E+00  0.00000000E+00  0.00000000E+00
  0.00000000E+00  0.00000000E+00  0.00000000E+00
  0.00000000E+00  0.00000000E+00  0.00000000E+00
  0.00000000E+00  0.00000000E+00  0.00000000E+00
  0.00000000E+00  0.00000000E+00  0.00000000E+00
  0.00000000E+00  0.00000000E+00  0.00000000E+00
  0.00000000E+00  0.00000000E+00  0.00000000E+00
  0.00000000E+00  0.00000000E+00  0.00000000E+00
  0.00000000E+00  0.00000000E+00  0.00000000E+00
  0.00000000E+00  0.00000000E+00  0.00000000E+00
  0.00000000E+00  0.00000000E+00  0.00000000E+00
  0.00000000E+00  0.00000000E+00  0.00000000E+00
  0.00000000E+00  0.00000000E+00  0.00000000E+00
  0.00000000E+00  0.00000000E+00  0.00000000E+00
  0.00000000E+00  0.00000000E+00  0.00000000E+00
  0.00000000E+00  0.00000000E+00  0.00000000E+00
  0.00000000E+00  0.00000000E+00  0.00000000E+00
