Title                                   
   1.00000000000000     
     9.8694509999999998    0.0000000000000000    0.0000000000000000
     0.0000000000000000    8.5490480000000009    0.0000000000000000
     0.0000000000000000    0.0000000000000000   20.0000000000000000
    28     2     1
Selective dynamics
Direct
  0.0561938093694929  0.0889458519658471  0.0939276578264946   T   T   T
  0.9309695010577169  0.1715968235414675  0.0942227260729840   T   T   T
  0.0561914524304153  0.9233927143153234  0.0939301908926291   T   T   T
  0.9343694583622341  0.3377462868013435  0.0942735422682264   T   T   T
  0.0575808722474887  0.5893677109636430  0.0940083483153406   T   T   T
  0.9343749575691465  0.6745771663062242  0.0942606910189506   T   T   T
  0.0575710735816501  0.4229614587326123  0.0940065924052872   T   T   T
  0.9309640926961509  0.8407378523672281  0.0942155592873014   T   T   T
  0.3060080043322401  0.0902646114277435  0.0948348541162141   T   T   T
  0.1806616800641172  0.1719449126318367  0.0941540610190301   T   T   T
  0.3060040482276374  0.9220680204406859  0.0948334303859250   T   T   T
  0.1805937021856613  0.3392602163381275  0.0941276968153660   T   T   T
  0.3041701875598482  0.5909307768719649  0.0946977113743433   T   T   T
  0.1806032182665069  0.6730710082912040  0.0941317741874911   T   T   T
  0.3041708876860666  0.4213556631388637  0.0946948432107521   T   T   T
  0.1806581686948455  0.8404080326702558  0.0941595177557733   T   T   T
  0.5539105497781261  0.0912103856004971  0.0958655923715586   T   T   T
  0.4291870439311259  0.1785315803211145  0.0954652431316774   T   T   T
  0.5539132832886330  0.9210444870899349  0.0958506276345732   T   T   T
  0.4291738334604238  0.8337666252178847  0.0954601416520045   T   T   T
  0.8047798320316760  0.0904255987453096  0.0949612960927348   T   T   T
  0.6798906031648628  0.1786624405048776  0.0957143028972242   T   T   T
  0.8047765802583258  0.9218872408594196  0.0949468112821562   T   T   T
  0.6880036135662519  0.3444353545832077  0.0958424299626189   T   T   T
  0.8127351272453642  0.5901492339695998  0.0949655476669373   T   T   T
  0.6879972001193031  0.6678713465821637  0.0957794071240275   T   T   T
  0.8127302005908936  0.4221655108335525  0.0949995399024840   T   T   T
  0.6798971881345658  0.8336267935948736  0.0956753345127253   T   T   T
  0.4248591812160907  0.3409809339432794  0.0954069095062626   T   T   T
  0.4248550971054852  0.6713323492668529  0.0954159232146956   T   T   T
  0.5553405517776632  0.5061560120830745  0.0961366960962521   T   T   T
 
  0.00000000E+00  0.00000000E+00  0.00000000E+00
  0.00000000E+00  0.00000000E+00  0.00000000E+00
  0.00000000E+00  0.00000000E+00  0.00000000E+00
  0.00000000E+00  0.00000000E+00  0.00000000E+00
  0.00000000E+00  0.00000000E+00  0.00000000E+00
  0.00000000E+00  0.00000000E+00  0.00000000E+00
  0.00000000E+00  0.00000000E+00  0.00000000E+00
  0.00000000E+00  0.00000000E+00  0.00000000E+00
  0.00000000E+00  0.00000000E+00  0.00000000E+00
  0.00000000E+00  0.00000000E+00  0.00000000E+00
  0.00000000E+00  0.00000000E+00  0.00000000E+00
  0.00000000E+00  0.00000000E+00  0.00000000E+00
  0.00000000E+00  0.00000000E+00  0.00000000E+00
  0.00000000E+00  0.00000000E+00  0.00000000E+00
  0.00000000E+00  0.00000000E+00  0.00000000E+00
  0.00000000E+00  0.00000000E+00  0.00000000E+00
  0.00000000E+00  0.00000000E+00  0.00000000E+00
  0.00000000E+00  0.00000000E+00  0.00000000E+00
  0.00000000E+00  0.00000000E+00  0.00000000E+00
  0.00000000E+00  0.00000000E+00  0.00000000E+00
  0.00000000E+00  0.00000000E+00  0.00000000E+00
  0.00000000E+00  0.00000000E+00  0.00000000E+00
  0.00000000E+00  0.00000000E+00  0.00000000E+00
  0.00000000E+00  0.00000000E+00  0.00000000E+00
  0.00000000E+00  0.00000000E+00  0.00000000E+00
  0.00000000E+00  0.00000000E+00  0.00000000E+00
  0.00000000E+00  0.00000000E+00  0.00000000E+00
  0.00000000E+00  0.00000000E+00  0.00000000E+00
  0.00000000E+00  0.00000000E+00  0.00000000E+00
  0.00000000E+00  0.00000000E+00  0.00000000E+00
  0.00000000E+00  0.00000000E+00  0.00000000E+00
