Title                                   
   1.00000000000000     
     8.5490480000000009    0.0000000000000000    0.0000000000000000
     0.0000000000000000    8.5490480000000009    0.0000000000000000
     0.0000000000000000    0.0000000000000000   20.0000000000000000
    18     6     1
Selective dynamics
Direct
  0.9086304720262993  0.2058536972652751  0.0974958672016385   T   T   T
  0.9106886325606370  0.8003692788007881  0.0974956650961844   T   T   T
  0.1961999764847822  0.0839806099229822  0.0977017042983466   T   T   T
  0.0757848575789913  0.2016717540275901  0.0975944506094876   T   T   T
  0.1567565609578953  0.6517574209866740  0.0977493697681960   T   T   T
  0.0777888206709477  0.5008588663258289  0.0977562324068158   T   T   T
  0.1564701875851598  0.3511716557974062  0.0977874946368744   T   T   T
  0.0784078287996019  0.7990330300525751  0.0975986935925344   T   T   T
  0.4935482561203542  0.0883153374226714  0.0978527896201957   T   T   T
  0.3429639376721005  0.1661767566150648  0.0979008065383521   T   T   T
  0.4928050856396721  0.9163400795964470  0.0977929124697316   T   T   T
  0.3433250505259566  0.8354813893031788  0.0978321227365614   T   T   T
  0.7885650254418018  0.0871115664676947  0.0975374710764648   T   T   T
  0.6419857162915170  0.1690627216513826  0.0977725985575079   T   T   T
  0.7890086217951805  0.9185145968654663  0.0975218814606253   T   T   T
  0.8297748423927410  0.6511517406397671  0.0976450290391618   T   T   T
  0.8278733959219003  0.3540556594668787  0.0976898382866746   T   T   T
  0.6427473344197363  0.8352636878877486  0.0976985351833412   T   T   T
  0.9072549085071533  0.5023440653639857  0.0977389493267665   T   T   T
  0.3189733994531386  0.3282631976438162  0.0980339351900344   T   T   T
  0.3190541528044434  0.6765422315370405  0.0979488807034397   T   T   T
  0.6671307064828199  0.3331911268851906  0.0979089962518021   T   T   T
  0.6689614028388166  0.6715352883830511  0.0977917948232492   T   T   T
  0.1970504439714059  0.9159756046781427  0.0977045894056480   T   T   T
  0.4936623830569401  0.5007686364133529  0.0981543917203462   T   T   T
 
  0.00000000E+00  0.00000000E+00  0.00000000E+00
  0.00000000E+00  0.00000000E+00  0.00000000E+00
  0.00000000E+00  0.00000000E+00  0.00000000E+00
  0.00000000E+00  0.00000000E+00  0.00000000E+00
  0.00000000E+00  0.00000000E+00  0.00000000E+00
  0.00000000E+00  0.00000000E+00  0.00000000E+00
  0.00000000E+00  0.00000000E+00  0.00000000E+00
  0.00000000E+00  0.00000000E+00  0.00000000E+00
  0.00000000E+00  0.00000000E+00  0.00000000E+00
  0.00000000E+00  0.00000000E+00  0.00000000E+00
  0.00000000E+00  0.00000000E+00  0.00000000E+00
  0.00000000E+00  0.00000000E+00  0.00000000E+00
  0.00000000E+00  0.00000000E+00  0.00000000E+00
  0.00000000E+00  0.00000000E+00  0.00000000E+00
  0.00000000E+00  0.00000000E+00  0.00000000E+00
  0.00000000E+00  0.00000000E+00  0.00000000E+00
  0.00000000E+00  0.00000000E+00  0.00000000E+00
  0.00000000E+00  0.00000000E+00  0.00000000E+00
  0.00000000E+00  0.00000000E+00  0.00000000E+00
  0.00000000E+00  0.00000000E+00  0.00000000E+00
  0.00000000E+00  0.00000000E+00  0.00000000E+00
  0.00000000E+00  0.00000000E+00  0.00000000E+00
  0.00000000E+00  0.00000000E+00  0.00000000E+00
  0.00000000E+00  0.00000000E+00  0.00000000E+00
  0.00000000E+00  0.00000000E+00  0.00000000E+00
