Title                                   
   1.00000000000000     
     4.9440799999999996    0.0000000000000000    0.0000000000000000
     0.0000000000000000    8.5647549999999999    0.0000000000000000
     0.0000000000000000    0.0000000000000000   20.0000000000000000
    12     2     1
Selective dynamics
Direct
  0.2500000000000000  0.2068310014917215  0.0983456210781849   T   T   T
  0.0006735257902153  0.2924609792610542  0.0977796780259301   T   T   T
  0.2500000000000000  0.0370058474655563  0.0976870374242791   T   T   T
 -0.0023812085607846  0.9545779002493003  0.0968385648041321   T   T   T
  0.7500000000000000  0.2090321368470293  0.0947186984313658   T   T   T
  0.4993264742097847  0.2924609792610542  0.0977796780259301   T   T   T
  0.7500000000000000  0.0401896993119698  0.0942337043474247   T   T   T
  0.7500000000000000  0.7161997991099271  0.0974497856478791   T   T   T
  0.7500000000000000  0.5429352350205825  0.0954761088236139   T   T   T
  0.5023812085607843  0.9545779002493003  0.0968385648041321   T   T   T
  0.5064254770816113  0.4609715460893027  0.1035959776272228   T   T   T
 -0.0064254770816113  0.4609715460893027  0.1035959776272228   T   T   T
 -0.0122519043113924  0.7928009499579189  0.0998927723796232   T   T   T
  0.5122519043113926  0.7928009499579189  0.0998927723796232   T   T   T
  0.2500000000000000  0.6178645296380626  0.1338550585734394   T   T   T
 
  0.00000000E+00  0.00000000E+00  0.00000000E+00
  0.00000000E+00  0.00000000E+00  0.00000000E+00
  0.00000000E+00  0.00000000E+00  0.00000000E+00
  0.00000000E+00  0.00000000E+00  0.00000000E+00
  0.00000000E+00  0.00000000E+00  0.00000000E+00
  0.00000000E+00  0.00000000E+00  0.00000000E+00
  0.00000000E+00  0.00000000E+00  0.00000000E+00
  0.00000000E+00  0.00000000E+00  0.00000000E+00
  0.00000000E+00  0.00000000E+00  0.00000000E+00
  0.00000000E+00  0.00000000E+00  0.00000000E+00
  0.00000000E+00  0.00000000E+00  0.00000000E+00
  0.00000000E+00  0.00000000E+00  0.00000000E+00
  0.00000000E+00  0.00000000E+00  0.00000000E+00
  0.00000000E+00  0.00000000E+00  0.00000000E+00
  0.00000000E+00  0.00000000E+00  0.00000000E+00
