Title                                   
   1.00000000000000     
     9.8694509999999998    0.0000000000000000    0.0000000000000000
     0.0000000000000000    8.5490480000000009    0.0000000000000000
     0.0000000000000000    0.0000000000000000   20.0000000000000000
    25     5     1
Selective dynamics
Direct
  0.0556576679124906  0.0895977820382482  0.0960970394506487   T   T   T
  0.9313329561992493  0.1717391105575679  0.0963142592878934   T   T   T
  0.0572122885893447  0.9231051924595818  0.0961233229932680   T   T   T
  0.9325483398560011  0.3393479424562943  0.0962959039413198   T   T   T
  0.0566778270589408  0.5898097843408725  0.0958884342993996   T   T   T
  0.9326566771813705  0.6732543565603691  0.0962334573773381   T   T   T
  0.0567706870418210  0.4230743184385760  0.0959065518334667   T   T   T
  0.9317315916408030  0.8401377295885791  0.0962644495928070   T   T   T
  0.3074431909427560  0.0891476557077104  0.0968163786012347   T   T   T
  0.1813899214311173  0.1710814457666645  0.0962578938470827   T   T   T
  0.1806355779741440  0.3383643487091613  0.0961500382476108   T   T   T
  0.3031068600379412  0.5896416304599920  0.0968414910492543   T   T   T
  0.1809496670030595  0.6742393710104604  0.0962096466877197   T   T   T
  0.3034603454845269  0.4224534894560283  0.0967735534134997   T   T   T
  0.1817769970125920  0.8406045659005963  0.0963833353826028   T   T   T
  0.5562804511240238  0.0935262261085084  0.0975137349163499   T   T   T
  0.4304277053612309  0.1792391309584000  0.0973429625539396   T   T   T
  0.5551518684165341  0.9191250227204937  0.0975215159656173   T   T   T
  0.4300172407322047  0.8324773150258696  0.0974296320933590   T   T   T
  0.8044015602085798  0.0903621786100325  0.0967584637300356   T   T   T
  0.6814243132654682  0.1807720418739731  0.0973167583987464   T   T   T
  0.8045748645884653  0.9215964106684671  0.0967115099130072   T   T   T
  0.8094768289239921  0.5901995910983847  0.0969380265056365   T   T   T
  0.8094470955130686  0.4220943995586472  0.0969361104577398   T   T   T
  0.6811374893859544  0.8309815436862017  0.0973090850662686   T   T   T
  0.4260221844568403  0.3436800348393244  0.0974437035491564   T   T   T
  0.4254250217889226  0.6701406432971291  0.0975727641603639   T   T   T
  0.6858017418700530  0.3453002139322763  0.0974543910177266   T   T   T
  0.6861459303085922  0.6671333892943621  0.0975286699646046   T   T   T
  0.3077905616067528  0.9224256370698151  0.0969124387157136   T   T   T
  0.5562605470831611  0.5062224978074116  0.0977194769866466   T   T   T
 
  0.00000000E+00  0.00000000E+00  0.00000000E+00
  0.00000000E+00  0.00000000E+00  0.00000000E+00
  0.00000000E+00  0.00000000E+00  0.00000000E+00
  0.00000000E+00  0.00000000E+00  0.00000000E+00
  0.00000000E+00  0.00000000E+00  0.00000000E+00
  0.00000000E+00  0.00000000E+00  0.00000000E+00
  0.00000000E+00  0.00000000E+00  0.00000000E+00
  0.00000000E+00  0.00000000E+00  0.00000000E+00
  0.00000000E+00  0.00000000E+00  0.00000000E+00
  0.00000000E+00  0.00000000E+00  0.00000000E+00
  0.00000000E+00  0.00000000E+00  0.00000000E+00
  0.00000000E+00  0.00000000E+00  0.00000000E+00
  0.00000000E+00  0.00000000E+00  0.00000000E+00
  0.00000000E+00  0.00000000E+00  0.00000000E+00
  0.00000000E+00  0.00000000E+00  0.00000000E+00
  0.00000000E+00  0.00000000E+00  0.00000000E+00
  0.00000000E+00  0.00000000E+00  0.00000000E+00
  0.00000000E+00  0.00000000E+00  0.00000000E+00
  0.00000000E+00  0.00000000E+00  0.00000000E+00
  0.00000000E+00  0.00000000E+00  0.00000000E+00
  0.00000000E+00  0.00000000E+00  0.00000000E+00
  0.00000000E+00  0.00000000E+00  0.00000000E+00
  0.00000000E+00  0.00000000E+00  0.00000000E+00
  0.00000000E+00  0.00000000E+00  0.00000000E+00
  0.00000000E+00  0.00000000E+00  0.00000000E+00
  0.00000000E+00  0.00000000E+00  0.00000000E+00
  0.00000000E+00  0.00000000E+00  0.00000000E+00
  0.00000000E+00  0.00000000E+00  0.00000000E+00
  0.00000000E+00  0.00000000E+00  0.00000000E+00
  0.00000000E+00  0.00000000E+00  0.00000000E+00
  0.00000000E+00  0.00000000E+00  0.00000000E+00
