Title                                   
   1.00000000000000     
     9.8694509999999998    0.0000000000000000    0.0000000000000000
     0.0000000000000000    8.5490480000000009    0.0000000000000000
     0.0000000000000000    0.0000000000000000   20.0000000000000000
    28     2     1
Selective dynamics
Direct
  0.0562967364856330  0.0888729494482552  0.0933674428524967   T   T   T
  0.9316186703233174  0.1717822378362012  0.0937886983534831   T   T   T
  0.0563022563961047  0.9234590374666706  0.0933691243021662   T   T   T
  0.9349256812051888  0.3378414977626572  0.0938169821094154   T   T   T
  0.0573059474281653  0.5893011318595264  0.0931508538912056   T   T   T
  0.9349318665819141  0.6744811786179923  0.0937895162447158   T   T   T
  0.0573015634240870  0.4230202592229232  0.0931483258848051   T   T   T
  0.9316150311631496  0.8405522564146629  0.0937710703366919   T   T   T
  0.3052015322696982  0.0898349555754903  0.0947317047721569   T   T   T
  0.1802887951836233  0.1718884888778329  0.0937300554572123   T   T   T
  0.3052031578904723  0.9224647576256796  0.0947513249835708   T   T   T
  0.1794217352588504  0.3390669513151741  0.0934874408817658   T   T   T
  0.3024328906353655  0.5915415672690001  0.0944196370249814   T   T   T
  0.1794258477906090  0.6732491253131138  0.0935215072793351   T   T   T
  0.3024419765666964  0.4207170118999899  0.0943791943226814   T   T   T
  0.1802990346022953  0.8404374231655843  0.0937568377821662   T   T   T
  0.5537974780671318  0.0910025273604229  0.0961839116558686   T   T   T
  0.4281021655630817  0.1775541932276923  0.0956182621171784   T   T   T
  0.5538098170594504  0.9212546887575817  0.0961814936156513   T   T   T
  0.4281043474481983  0.8347202072983517  0.0956526526633204   T   T   T
  0.8063239818625751  0.0896614101429737  0.0947902590583158   T   T   T
  0.6814543936046000  0.1757903875460837  0.0961850731066252   T   T   T
  0.8063404169814790  0.9227030384911844  0.0947712062608497   T   T   T
  0.6915194425807279  0.3395028022422731  0.0971416742308078   T   T   T
  0.8132838327481196  0.5909523609073257  0.0954464536003158   T   T   T
  0.6915407015924485  0.6728597789547012  0.0970875421382813   T   T   T
  0.8132862996524179  0.4213570356406615  0.0954777330951214   T   T   T
  0.6814862528539870  0.8365569228382642  0.0961416169960537   T   T   T
  0.4211627514812299  0.3391229803061130  0.0955828228671081   T   T   T
  0.4211511187478800  0.6731557882922747  0.0956319446614637   T   T   T
  0.5567592765515115  0.5061700483233537  0.0980926374542298   T   T   T
 
  0.00000000E+00  0.00000000E+00  0.00000000E+00
  0.00000000E+00  0.00000000E+00  0.00000000E+00
  0.00000000E+00  0.00000000E+00  0.00000000E+00
  0.00000000E+00  0.00000000E+00  0.00000000E+00
  0.00000000E+00  0.00000000E+00  0.00000000E+00
  0.00000000E+00  0.00000000E+00  0.00000000E+00
  0.00000000E+00  0.00000000E+00  0.00000000E+00
  0.00000000E+00  0.00000000E+00  0.00000000E+00
  0.00000000E+00  0.00000000E+00  0.00000000E+00
  0.00000000E+00  0.00000000E+00  0.00000000E+00
  0.00000000E+00  0.00000000E+00  0.00000000E+00
  0.00000000E+00  0.00000000E+00  0.00000000E+00
  0.00000000E+00  0.00000000E+00  0.00000000E+00
  0.00000000E+00  0.00000000E+00  0.00000000E+00
  0.00000000E+00  0.00000000E+00  0.00000000E+00
  0.00000000E+00  0.00000000E+00  0.00000000E+00
  0.00000000E+00  0.00000000E+00  0.00000000E+00
  0.00000000E+00  0.00000000E+00  0.00000000E+00
  0.00000000E+00  0.00000000E+00  0.00000000E+00
  0.00000000E+00  0.00000000E+00  0.00000000E+00
  0.00000000E+00  0.00000000E+00  0.00000000E+00
  0.00000000E+00  0.00000000E+00  0.00000000E+00
  0.00000000E+00  0.00000000E+00  0.00000000E+00
  0.00000000E+00  0.00000000E+00  0.00000000E+00
  0.00000000E+00  0.00000000E+00  0.00000000E+00
  0.00000000E+00  0.00000000E+00  0.00000000E+00
  0.00000000E+00  0.00000000E+00  0.00000000E+00
  0.00000000E+00  0.00000000E+00  0.00000000E+00
  0.00000000E+00  0.00000000E+00  0.00000000E+00
  0.00000000E+00  0.00000000E+00  0.00000000E+00
  0.00000000E+00  0.00000000E+00  0.00000000E+00
