Title                                   
   1.00000000000000     
     4.9440799999999996    0.0000000000000000    0.0000000000000000
     0.0000000000000000   17.1295089999999988    0.0000000000000000
     0.0000000000000000    0.0000000000000000   20.0000000000000000
    28     2     1
Selective dynamics
Direct
  0.0011265968671926  0.1048828556119388  0.2974305781442097   T   T   T
  0.2502964225185863  0.1475975889401215  0.2982132073516293   T   T   T
  0.2502813907249280  0.2315306386530535  0.3000091736469604   T   T   T
 -0.0040132423871308  0.2717472761700415  0.3009089767955316   T   T   T
 -0.0010085651672920  0.6036587404380112  0.3016564542628190   T   T   T
  0.2503631496274903  0.7286902615451992  0.2990312979539567   T   T   T
  0.0002708192789230  0.8542693088395704  0.2970381431020292   T   T   T
  0.2503177724346979  0.8959700957715723  0.2966865332772640   T   T   T
  0.2502992326299663  0.9794278693050631  0.2964195987330828   T   T   T
  0.0003351506354672  0.7707299228680951  0.2982372774309994   T   T   T
  0.4994542915309768  0.1048848168996893  0.2974053300946823   T   T   T
  0.7502981648319544  0.1456796452203142  0.2980442011914681   T   T   T
  0.7503045396401451  0.2288010387313408  0.2997565390780446   T   T   T
  0.4997399138259730  0.0213402062102366  0.2965364474064633   T   T   T
  0.7503349054710440  0.3904243029083274  0.3028565123892622   T   T   T
  0.7503467751413161  0.4797744006661800  0.3031045242050993   T   T   T
  0.5046042101889427  0.2717469828364108  0.3007669208648299   T   T   T
  0.5016636876281982  0.6036571168070241  0.3015574689824242   T   T   T
  0.7503683980156415  0.7293081864037591  0.2990309552044755   T   T   T
  0.5003855498016307  0.8542685569153861  0.2970286291734368   T   T   T
  0.7503113983783024  0.8960712380001696  0.2966329536477558   T   T   T
  0.7502866041216439  0.9797258125430286  0.2963668867823272   T   T   T
  0.5003877333632472  0.7707297708877290  0.2982197653621060   T   T   T
  0.7503265375323553  0.6458182084169857  0.3007753133532525   T   T   T
  0.2503360936841617  0.6451667804710317  0.3007504307849628   T   T   T
  0.0008593927647774  0.0213348925331201  0.2965487386998325   T   T   T
  0.5098604327757099  0.5207651262953331  0.3027537157516087   T   T   T
  0.9908691066735642  0.5207712101265329  0.3029832966359952   T   T   T
  0.5179373148269526  0.3513772943202471  0.3022794543531340   T   T   T
 -0.0172965840634401  0.3513667065862741  0.3027052898102645   T   T   T
  0.2503598067040763  0.4398251480782097  0.3033253855300440   T   T   T
 
  0.00000000E+00  0.00000000E+00  0.00000000E+00
  0.00000000E+00  0.00000000E+00  0.00000000E+00
  0.00000000E+00  0.00000000E+00  0.00000000E+00
  0.00000000E+00  0.00000000E+00  0.00000000E+00
  0.00000000E+00  0.00000000E+00  0.00000000E+00
  0.00000000E+00  0.00000000E+00  0.00000000E+00
  0.00000000E+00  0.00000000E+00  0.00000000E+00
  0.00000000E+00  0.00000000E+00  0.00000000E+00
  0.00000000E+00  0.00000000E+00  0.00000000E+00
  0.00000000E+00  0.00000000E+00  0.00000000E+00
  0.00000000E+00  0.00000000E+00  0.00000000E+00
  0.00000000E+00  0.00000000E+00  0.00000000E+00
  0.00000000E+00  0.00000000E+00  0.00000000E+00
  0.00000000E+00  0.00000000E+00  0.00000000E+00
  0.00000000E+00  0.00000000E+00  0.00000000E+00
  0.00000000E+00  0.00000000E+00  0.00000000E+00
  0.00000000E+00  0.00000000E+00  0.00000000E+00
  0.00000000E+00  0.00000000E+00  0.00000000E+00
  0.00000000E+00  0.00000000E+00  0.00000000E+00
  0.00000000E+00  0.00000000E+00  0.00000000E+00
  0.00000000E+00  0.00000000E+00  0.00000000E+00
  0.00000000E+00  0.00000000E+00  0.00000000E+00
  0.00000000E+00  0.00000000E+00  0.00000000E+00
  0.00000000E+00  0.00000000E+00  0.00000000E+00
  0.00000000E+00  0.00000000E+00  0.00000000E+00
  0.00000000E+00  0.00000000E+00  0.00000000E+00
  0.00000000E+00  0.00000000E+00  0.00000000E+00
  0.00000000E+00  0.00000000E+00  0.00000000E+00
  0.00000000E+00  0.00000000E+00  0.00000000E+00
  0.00000000E+00  0.00000000E+00  0.00000000E+00
  0.00000000E+00  0.00000000E+00  0.00000000E+00
