Title                                   
   1.00000000000000     
     9.8694509999999998    0.0000000000000000    0.0000000000000000
     0.0000000000000000    8.5490480000000009    0.0000000000000000
     0.0000000000000000    0.0000000000000000   20.0000000000000000
    28     2     1
Selective dynamics
Direct
  0.0557326322279647  0.0890103811674409  0.0892049945644120   T   T   T
  0.9306710168948688  0.1724182770785294  0.0899465964221434   T   T   T
  0.0567076008777751  0.9233349224151213  0.0892078164241791   T   T   T
  0.9328361659295720  0.3396222490993313  0.0889577365809752   T   T   T
  0.0559941821085734  0.5893040073954280  0.0872434635099337   T   T   T
  0.9328519125302182  0.6748081763123981  0.0894566528149284   T   T   T
  0.0565171577302035  0.4230348070992435  0.0872291176998864   T   T   T
  0.9319268687540592  0.8409997623943929  0.0905495377229775   T   T   T
  0.3064755343545885  0.0907057570579346  0.0947154749560616   T   T   T
  0.1805038682765792  0.1713439166006020  0.0907061031238327   T   T   T
  0.3073233110972750  0.9219868849615747  0.0941323347350164   T   T   T
  0.1796491324457765  0.3375480362919964  0.0896704189181124   T   T   T
  0.3022336528584696  0.5885338997003133  0.0939110633887929   T   T   T
  0.1796473801071737  0.6727186773947315  0.0892429010043926   T   T   T
  0.3020350178746782  0.4191860883249828  0.0949245752066519   T   T   T
  0.1817615854683380  0.8399299891699152  0.0901511271382834   T   T   T
  0.5562223797274476  0.0912141839871363  0.1011870786304761   T   T   T
  0.4292097792764907  0.1795450174520319  0.1000730835497541   T   T   T
  0.5561891927728628  0.9211363041533300  0.1012215030611625   T   T   T
  0.4267353557001941  0.6668578472317478  0.1001523312973122   T   T   T
  0.4306596639063644  0.8339501438892227  0.0987618009227453   T   T   T
  0.8050896334675400  0.0903416676856909  0.0938468484825556   T   T   T
  0.6817411016762366  0.1783667105816756  0.0984053968278976   T   T   T
  0.8059264448501307  0.9216178337997274  0.0944660202847153   T   T   T
  0.6857670233344925  0.3454112813256494  0.0995134402418215   T   T   T
  0.8104274398560597  0.5931611837106247  0.0944596562535089   T   T   T
  0.8102273490896030  0.4237815450942837  0.0933498466810820   T   T   T
  0.6832012677755080  0.8327595570771953  0.0998243687856347   T   T   T
  0.4240035958311810  0.3431856833240610  0.1022278127654747   T   T   T
  0.6884931112718592  0.6691168953418263  0.1017948086254887   T   T   T
  0.5563746419279265  0.5059433128818747  0.1124310893798324   T   T   T
 
  0.00000000E+00  0.00000000E+00  0.00000000E+00
  0.00000000E+00  0.00000000E+00  0.00000000E+00
  0.00000000E+00  0.00000000E+00  0.00000000E+00
  0.00000000E+00  0.00000000E+00  0.00000000E+00
  0.00000000E+00  0.00000000E+00  0.00000000E+00
  0.00000000E+00  0.00000000E+00  0.00000000E+00
  0.00000000E+00  0.00000000E+00  0.00000000E+00
  0.00000000E+00  0.00000000E+00  0.00000000E+00
  0.00000000E+00  0.00000000E+00  0.00000000E+00
  0.00000000E+00  0.00000000E+00  0.00000000E+00
  0.00000000E+00  0.00000000E+00  0.00000000E+00
  0.00000000E+00  0.00000000E+00  0.00000000E+00
  0.00000000E+00  0.00000000E+00  0.00000000E+00
  0.00000000E+00  0.00000000E+00  0.00000000E+00
  0.00000000E+00  0.00000000E+00  0.00000000E+00
  0.00000000E+00  0.00000000E+00  0.00000000E+00
  0.00000000E+00  0.00000000E+00  0.00000000E+00
  0.00000000E+00  0.00000000E+00  0.00000000E+00
  0.00000000E+00  0.00000000E+00  0.00000000E+00
  0.00000000E+00  0.00000000E+00  0.00000000E+00
  0.00000000E+00  0.00000000E+00  0.00000000E+00
  0.00000000E+00  0.00000000E+00  0.00000000E+00
  0.00000000E+00  0.00000000E+00  0.00000000E+00
  0.00000000E+00  0.00000000E+00  0.00000000E+00
  0.00000000E+00  0.00000000E+00  0.00000000E+00
  0.00000000E+00  0.00000000E+00  0.00000000E+00
  0.00000000E+00  0.00000000E+00  0.00000000E+00
  0.00000000E+00  0.00000000E+00  0.00000000E+00
  0.00000000E+00  0.00000000E+00  0.00000000E+00
  0.00000000E+00  0.00000000E+00  0.00000000E+00
  0.00000000E+00  0.00000000E+00  0.00000000E+00
