Title                                   
   1.00000000000000     
     9.8694509999999998    0.0000000000000000    0.0000000000000000
     0.0000000000000000    8.5490480000000009    0.0000000000000000
     0.0000000000000000    0.0000000000000000   20.0000000000000000
    24     6     1
Selective dynamics
Direct
  0.0561288605785434  0.0904409182260868  0.0915128672982488   T   T   T
  0.9313454678964082  0.1723911528903881  0.0923964880639066   T   T   T
  0.0574165261222448  0.9222855647311673  0.0915807953886618   T   T   T
  0.9324284188540514  0.3397220109499653  0.0915295359761383   T   T   T
  0.0566036063609939  0.5893383839723266  0.0894429829351931   T   T   T
  0.9324584652332435  0.6720207941318181  0.0913934920967510   T   T   T
  0.0567373845358939  0.4229478495541349  0.0894971981918481   T   T   T
  0.9318679632711968  0.8394326156574663  0.0923244621965238   T   T   T
  0.3079959091569524  0.0884431530371435  0.0942379549548665   T   T   T
  0.1815715430384362  0.1718166479506193  0.0919083751589004   T   T   T
  0.1807200647900953  0.3389375951143770  0.0911538052524760   T   T   T
  0.3036987432857255  0.5903242846721318  0.0963176717371541   T   T   T
  0.1808475286954284  0.6732052020364533  0.0912315019572802   T   T   T
  0.3041351425622470  0.4218589752183921  0.0960345277430017   T   T   T
  0.1810517073457153  0.8400222782688084  0.0921357012164721   T   T   T
  0.4290491154750603  0.1754962495555212  0.0992369806362229   T   T   T
  0.5547546315714951  0.9202556447851373  0.1011314182252473   T   T   T
  0.4286733592049745  0.8376316371435254  0.1003670884035305   T   T   T
  0.8048081750318810  0.0893693240257684  0.0948403533331659   T   T   T
  0.6826857254768521  0.1771269653999319  0.0994605408570257   T   T   T
  0.8060372432447555  0.9218687976976428  0.0949594455619873   T   T   T
  0.8087491128778613  0.5903763200183257  0.0960314563793558   T   T   T
  0.8088411216510433  0.4210188134187453  0.0960906360686393   T   T   T
  0.6824788942515813  0.8357811211127995  0.0998934634602671   T   T   T
  0.5568424511555429  0.0953497709685039  0.1009279982957729   T   T   T
  0.4242955319518975  0.3366446410211104  0.1038942972984667   T   T   T
  0.4229899595576904  0.6767863954502014  0.1059139161699524   T   T   T
  0.6876891445271479  0.3373994212250999  0.1036229585023610   T   T   T
  0.6882737592294080  0.6735914446939281  0.1035991862865923   T   T   T
  0.3063232299383463  0.9221825658176929  0.0941461598950577   T   T   T
  0.5556372131272868  0.5068084612547863  0.1241517404589907   T   T   T
 
  0.00000000E+00  0.00000000E+00  0.00000000E+00
  0.00000000E+00  0.00000000E+00  0.00000000E+00
  0.00000000E+00  0.00000000E+00  0.00000000E+00
  0.00000000E+00  0.00000000E+00  0.00000000E+00
  0.00000000E+00  0.00000000E+00  0.00000000E+00
  0.00000000E+00  0.00000000E+00  0.00000000E+00
  0.00000000E+00  0.00000000E+00  0.00000000E+00
  0.00000000E+00  0.00000000E+00  0.00000000E+00
  0.00000000E+00  0.00000000E+00  0.00000000E+00
  0.00000000E+00  0.00000000E+00  0.00000000E+00
  0.00000000E+00  0.00000000E+00  0.00000000E+00
  0.00000000E+00  0.00000000E+00  0.00000000E+00
  0.00000000E+00  0.00000000E+00  0.00000000E+00
  0.00000000E+00  0.00000000E+00  0.00000000E+00
  0.00000000E+00  0.00000000E+00  0.00000000E+00
  0.00000000E+00  0.00000000E+00  0.00000000E+00
  0.00000000E+00  0.00000000E+00  0.00000000E+00
  0.00000000E+00  0.00000000E+00  0.00000000E+00
  0.00000000E+00  0.00000000E+00  0.00000000E+00
  0.00000000E+00  0.00000000E+00  0.00000000E+00
  0.00000000E+00  0.00000000E+00  0.00000000E+00
  0.00000000E+00  0.00000000E+00  0.00000000E+00
  0.00000000E+00  0.00000000E+00  0.00000000E+00
  0.00000000E+00  0.00000000E+00  0.00000000E+00
  0.00000000E+00  0.00000000E+00  0.00000000E+00
  0.00000000E+00  0.00000000E+00  0.00000000E+00
  0.00000000E+00  0.00000000E+00  0.00000000E+00
  0.00000000E+00  0.00000000E+00  0.00000000E+00
  0.00000000E+00  0.00000000E+00  0.00000000E+00
  0.00000000E+00  0.00000000E+00  0.00000000E+00
  0.00000000E+00  0.00000000E+00  0.00000000E+00
