Title                                   
   1.00000000000000     
     4.9440799999999996    0.0000000000000000    0.0000000000000000
     0.0000000000000000   17.1295089999999988    0.0000000000000000
     0.0000000000000000    0.0000000000000000   20.0000000000000000
    27     3     1
Selective dynamics
Direct
  0.0010739171722191  0.1055324102720784  0.2961918387442023   T   T   T
  0.2496940078539103  0.1486180613920333  0.2970425863542653   T   T   T
  0.2494797377366159  0.2331470339718058  0.3003679580268850   T   T   T
 -0.0019513064784457  0.2749782552681080  0.3049500937321836   T   T   T
 -0.0018719089916140  0.6008455971852830  0.3045272314417942   T   T   T
  0.2474805035722797  0.7265106389984543  0.2966787767825042   T   T   T
 -0.0001567803398163  0.8531949224213917  0.2953303952161212   T   T   T
  0.2491708112077966  0.8954234185631353  0.2948209868133344   T   T   T
  0.2497051387524407  0.9794233612206585  0.2947484639114570   T   T   T
 -0.0008243344896021  0.7690844111156341  0.2965018314900487   T   T   T
  0.4997376288032778  0.1059826983579100  0.2950419950686884   T   T   T
  0.7515696762858688  0.1472928233727411  0.2957121061585669   T   T   T
  0.7530503967918009  0.2310844555543769  0.2976538253140756   T   T   T
  0.4993433234624004  0.0217776276703328  0.2944321541697149   T   T   T
  0.7477985447220871  0.3926308052666737  0.3042114001865567   T   T   T
  0.7453582258661324  0.4791646852168662  0.3048908383721690   T   T   T
  0.5041103922103739  0.2729277942191281  0.2970986199752548   T   T   T
  0.4960572787972664  0.6031220708113628  0.2945851188106763   T   T   T
  0.7491684919725825  0.7275223555527108  0.2956843795035643   T   T   T
  0.4978449543513261  0.8529104448064432  0.2945098526767148   T   T   T
  0.7488793092231046  0.8950769149086849  0.2945752006486304   T   T   T
  0.7493725083472407  0.9793559950435197  0.2944776549872355   T   T   T
  0.4976423438464301  0.7686638434702683  0.2948477140089534   T   T   T
  0.7488209226766940  0.6443697941676272  0.2967241534405334   T   T   T
  0.0000901462241259  0.0214634529582521  0.2951011595570358   T   T   T
  0.5010780348317614  0.5212918272128888  0.2941557650904197   T   T   T
 -0.0030359641419198  0.5190575347319188  0.3192611485934261   T   T   T
  0.5154135144512683  0.3525252158237234  0.2931973897472639   T   T   T
 -0.0155621592458033  0.3551014661917965  0.3188216133361130   T   T   T
  0.2456647508905124  0.6444005232250382  0.2987962428469095   T   T   T
  0.2858048936376889  0.4388615610291498  0.3301215049946528   T   T   T
 
  0.00000000E+00  0.00000000E+00  0.00000000E+00
  0.00000000E+00  0.00000000E+00  0.00000000E+00
  0.00000000E+00  0.00000000E+00  0.00000000E+00
  0.00000000E+00  0.00000000E+00  0.00000000E+00
  0.00000000E+00  0.00000000E+00  0.00000000E+00
  0.00000000E+00  0.00000000E+00  0.00000000E+00
  0.00000000E+00  0.00000000E+00  0.00000000E+00
  0.00000000E+00  0.00000000E+00  0.00000000E+00
  0.00000000E+00  0.00000000E+00  0.00000000E+00
  0.00000000E+00  0.00000000E+00  0.00000000E+00
  0.00000000E+00  0.00000000E+00  0.00000000E+00
  0.00000000E+00  0.00000000E+00  0.00000000E+00
  0.00000000E+00  0.00000000E+00  0.00000000E+00
  0.00000000E+00  0.00000000E+00  0.00000000E+00
  0.00000000E+00  0.00000000E+00  0.00000000E+00
  0.00000000E+00  0.00000000E+00  0.00000000E+00
  0.00000000E+00  0.00000000E+00  0.00000000E+00
  0.00000000E+00  0.00000000E+00  0.00000000E+00
  0.00000000E+00  0.00000000E+00  0.00000000E+00
  0.00000000E+00  0.00000000E+00  0.00000000E+00
  0.00000000E+00  0.00000000E+00  0.00000000E+00
  0.00000000E+00  0.00000000E+00  0.00000000E+00
  0.00000000E+00  0.00000000E+00  0.00000000E+00
  0.00000000E+00  0.00000000E+00  0.00000000E+00
  0.00000000E+00  0.00000000E+00  0.00000000E+00
  0.00000000E+00  0.00000000E+00  0.00000000E+00
  0.00000000E+00  0.00000000E+00  0.00000000E+00
  0.00000000E+00  0.00000000E+00  0.00000000E+00
  0.00000000E+00  0.00000000E+00  0.00000000E+00
  0.00000000E+00  0.00000000E+00  0.00000000E+00
  0.00000000E+00  0.00000000E+00  0.00000000E+00
