Title                                   
   1.00000000000000     
     4.9440799999999996    0.0000000000000000    0.0000000000000000
     0.0000000000000000   17.1295089999999988    0.0000000000000000
     0.0000000000000000    0.0000000000000000   20.0000000000000000
    27     3     1
Selective dynamics
Direct
  0.0006780805128055  0.1053771651229409  0.2977846183105933   T   T   T
  0.2499110991186084  0.1477088611139368  0.2983723121539691   T   T   T
  0.2501697578099503  0.2322758826018039  0.2996796520098036   T   T   T
 -0.0028164803904575  0.2723486925960645  0.3002839167770979   T   T   T
 -0.0017985625618608  0.6021420074856454  0.3015008264549950   T   T   T
  0.2484972073783462  0.7275582637359852  0.2991643634504633   T   T   T
 -0.0002825461759105  0.8537969286840698  0.2974025033392889   T   T   T
  0.2493798492943207  0.8956393279781726  0.2971103711868978   T   T   T
  0.2493619711145033  0.9793916291696041  0.2969350486737212   T   T   T
 -0.0001313806751018  0.7701098795275402  0.2984531812137288   T   T   T
  0.4982207096845092  0.1051545727051170  0.2978026338106979   T   T   T
  0.7489573207016565  0.1468575971925718  0.2982995137821957   T   T   T
  0.7486580958595527  0.2298771435551270  0.2995926878037676   T   T   T
  0.4987622667909451  0.0214487716286480  0.2970858325964573   T   T   T
  0.7556536186526109  0.3935133232121700  0.3022940488891069   T   T   T
  0.7551456271106928  0.4788426027893246  0.3028172948130115   T   T   T
  0.5015714472956503  0.2734536284159155  0.3004661282325757   T   T   T
  0.4996391822722555  0.6022448910930823  0.3013910559958521   T   T   T
  0.7502896649767653  0.7281834634010071  0.2991306713745127   T   T   T
  0.4990862784245793  0.8535270799136857  0.2974396908583944   T   T   T
  0.7493721614139605  0.8957533656364950  0.2970817339899478   T   T   T
  0.7494131160273724  0.9795236041059920  0.2969007347937746   T   T   T
  0.4989210848665792  0.7697909554079430  0.2984578144759047   T   T   T
  0.7501539827025243  0.6447804053721108  0.3006943826605973   T   T   T
  0.2482526329312714  0.6438215333922773  0.3006758659751794   T   T   T
 -0.0000097999438030  0.0215381288826017  0.2970705745818594   T   T   T
  0.5175924845371781  0.5208855834092916  0.3022714661455589   T   T   T
  0.9900370597562869  0.5218000771808157  0.3030428466180843   T   T   T
  0.5184063567168413  0.3535250211424593  0.3022045515493573   T   T   T
 -0.0145559238687168  0.3517672859050868  0.3014619181580726   T   T   T
  0.2534706376660870  0.4387043276425109  0.3021917593244846   T   T   T
 
  0.00000000E+00  0.00000000E+00  0.00000000E+00
  0.00000000E+00  0.00000000E+00  0.00000000E+00
  0.00000000E+00  0.00000000E+00  0.00000000E+00
  0.00000000E+00  0.00000000E+00  0.00000000E+00
  0.00000000E+00  0.00000000E+00  0.00000000E+00
  0.00000000E+00  0.00000000E+00  0.00000000E+00
  0.00000000E+00  0.00000000E+00  0.00000000E+00
  0.00000000E+00  0.00000000E+00  0.00000000E+00
  0.00000000E+00  0.00000000E+00  0.00000000E+00
  0.00000000E+00  0.00000000E+00  0.00000000E+00
  0.00000000E+00  0.00000000E+00  0.00000000E+00
  0.00000000E+00  0.00000000E+00  0.00000000E+00
  0.00000000E+00  0.00000000E+00  0.00000000E+00
  0.00000000E+00  0.00000000E+00  0.00000000E+00
  0.00000000E+00  0.00000000E+00  0.00000000E+00
  0.00000000E+00  0.00000000E+00  0.00000000E+00
  0.00000000E+00  0.00000000E+00  0.00000000E+00
  0.00000000E+00  0.00000000E+00  0.00000000E+00
  0.00000000E+00  0.00000000E+00  0.00000000E+00
  0.00000000E+00  0.00000000E+00  0.00000000E+00
  0.00000000E+00  0.00000000E+00  0.00000000E+00
  0.00000000E+00  0.00000000E+00  0.00000000E+00
  0.00000000E+00  0.00000000E+00  0.00000000E+00
  0.00000000E+00  0.00000000E+00  0.00000000E+00
  0.00000000E+00  0.00000000E+00  0.00000000E+00
  0.00000000E+00  0.00000000E+00  0.00000000E+00
  0.00000000E+00  0.00000000E+00  0.00000000E+00
  0.00000000E+00  0.00000000E+00  0.00000000E+00
  0.00000000E+00  0.00000000E+00  0.00000000E+00
  0.00000000E+00  0.00000000E+00  0.00000000E+00
  0.00000000E+00  0.00000000E+00  0.00000000E+00
