Title                                   
   1.00000000000000     
     8.5490480000000009    0.0000000000000000    0.0000000000000000
     0.0000000000000000    8.5490480000000009    0.0000000000000000
     0.0000000000000000    0.0000000000000000   20.0000000000000000
    18     6     1
Selective dynamics
Direct
  0.9082731113584918  0.2059715790999902  0.0974371421128419   T   T   T
  0.9107093052767553  0.8010444139608945  0.0974896749100339   T   T   T
  0.1958207532025900  0.0840115328815897  0.0976742884811190   T   T   T
  0.0758146782832308  0.2011098734549635  0.0975373629173635   T   T   T
  0.1575241351037750  0.6513642172112618  0.0976741973196606   T   T   T
  0.0776938615756936  0.5007966327361797  0.0977338307432422   T   T   T
  0.1575097610186304  0.3512614240673756  0.0977294437433294   T   T   T
  0.0786160915961771  0.7988437818733697  0.0976025208471957   T   T   T
  0.4933983080450710  0.0883904272794664  0.0978925115190987   T   T   T
  0.3431377332160174  0.1671035313053001  0.0978950651135081   T   T   T
  0.4932326455533875  0.9164082253220815  0.0977932202963296   T   T   T
  0.3434238427550231  0.8342618750866801  0.0977654458777489   T   T   T
  0.7885242853950990  0.0876646964343576  0.0974971955755032   T   T   T
  0.6416669182832222  0.1702976250058266  0.0978836610597631   T   T   T
  0.7895119792852633  0.9186349993516921  0.0974895935864953   T   T   T
  0.8286520397081710  0.6509743104647997  0.0977248712174137   T   T   T
  0.8268436840600956  0.3545479159708609  0.0977914637414576   T   T   T
  0.6425933996295516  0.8345638105122766  0.0977232366032271   T   T   T
  0.9073045662311031  0.5025127400224875  0.0978410433091344   T   T   T
  0.3189873457763056  0.3282833249952452  0.0979836574359268   T   T   T
  0.3194223731851339  0.6762744083811971  0.0977607856154398   T   T   T
  0.6666782231074642  0.3334995570847620  0.0982213480650160   T   T   T
  0.6688960016980194  0.6713661021028211  0.0979213792300964   T   T   T
  0.1972664573403748  0.9154046247913775  0.0977121684734816   T   T   T
  0.4939104993153463  0.5001983706031432  0.0979298922055533   T   T   T
 
  0.00000000E+00  0.00000000E+00  0.00000000E+00
  0.00000000E+00  0.00000000E+00  0.00000000E+00
  0.00000000E+00  0.00000000E+00  0.00000000E+00
  0.00000000E+00  0.00000000E+00  0.00000000E+00
  0.00000000E+00  0.00000000E+00  0.00000000E+00
  0.00000000E+00  0.00000000E+00  0.00000000E+00
  0.00000000E+00  0.00000000E+00  0.00000000E+00
  0.00000000E+00  0.00000000E+00  0.00000000E+00
  0.00000000E+00  0.00000000E+00  0.00000000E+00
  0.00000000E+00  0.00000000E+00  0.00000000E+00
  0.00000000E+00  0.00000000E+00  0.00000000E+00
  0.00000000E+00  0.00000000E+00  0.00000000E+00
  0.00000000E+00  0.00000000E+00  0.00000000E+00
  0.00000000E+00  0.00000000E+00  0.00000000E+00
  0.00000000E+00  0.00000000E+00  0.00000000E+00
  0.00000000E+00  0.00000000E+00  0.00000000E+00
  0.00000000E+00  0.00000000E+00  0.00000000E+00
  0.00000000E+00  0.00000000E+00  0.00000000E+00
  0.00000000E+00  0.00000000E+00  0.00000000E+00
  0.00000000E+00  0.00000000E+00  0.00000000E+00
  0.00000000E+00  0.00000000E+00  0.00000000E+00
  0.00000000E+00  0.00000000E+00  0.00000000E+00
  0.00000000E+00  0.00000000E+00  0.00000000E+00
  0.00000000E+00  0.00000000E+00  0.00000000E+00
  0.00000000E+00  0.00000000E+00  0.00000000E+00
