Title                                   
   1.00000000000000     
     8.5490480000000009    0.0000000000000000    0.0000000000000000
     0.0000000000000000    8.5490480000000009    0.0000000000000000
     0.0000000000000000    0.0000000000000000   20.0000000000000000
    24     1
Selective dynamics
Direct
  0.9114932254502599  0.2055615715245652  0.0990736428351873   T   T   T
  0.9091536297792193  0.5018080046677444  0.0971801722491147   T   T   T
  0.9115482718465240  0.7979370329891979  0.0990195532641302   T   T   T
  0.1968778326503229  0.0833059605860483  0.0989646699238610   T   T   T
  0.0744895962420437  0.2055829756439122  0.0989901171567741   T   T   T
  0.1969013564917823  0.9202651147363158  0.0989668842715185   T   T   T
  0.1571693764587788  0.6482717941561816  0.0967889916403300   T   T   T
  0.0767194620627841  0.5018083383886430  0.0971311655572001   T   T   T
  0.1570513575704503  0.3553076407321781  0.0968022103755965   T   T   T
  0.0745560360229992  0.7979375549585545  0.0989817405530981   T   T   T
  0.4929457538667432  0.0856199750238169  0.0971927680964008   T   T   T
  0.3464901529962290  0.1660480019175591  0.0968028976569261   T   T   T
  0.4929673412542194  0.9180630141732310  0.0971803484317668   T   T   T
  0.3465446633042712  0.8376030814932739  0.0968019220369874   T   T   T
  0.7892332108500308  0.0832629959405141  0.0991003776418704   T   T   T
  0.6395003427149200  0.1658539367487195  0.0969485566686957   T   T   T
  0.7892720471411839  0.9202787318214364  0.0990637923851259   T   T   T
  0.8288212033804058  0.6483281279423505  0.0968602626014377   T   T   T
  0.8288365885555684  0.3552607587348028  0.0969195250158292   T   T   T
  0.6395143722994751  0.8377727054818928  0.0968813387812196   T   T   T
  0.3228760577371898  0.3318319411923131  0.0935170806905224   T   T   T
  0.3229969126368146  0.6717934034950329  0.0934872166260896   T   T   T
  0.6630606583491583  0.3316046201705593  0.0937220109204920   T   T   T
  0.6630462483762489  0.6720075716273592  0.0936011617524549   T   T   T
  0.4933463019623693  0.5016751458538092  0.0537265928673488   T   T   T
 
  0.00000000E+00  0.00000000E+00  0.00000000E+00
  0.00000000E+00  0.00000000E+00  0.00000000E+00
  0.00000000E+00  0.00000000E+00  0.00000000E+00
  0.00000000E+00  0.00000000E+00  0.00000000E+00
  0.00000000E+00  0.00000000E+00  0.00000000E+00
  0.00000000E+00  0.00000000E+00  0.00000000E+00
  0.00000000E+00  0.00000000E+00  0.00000000E+00
  0.00000000E+00  0.00000000E+00  0.00000000E+00
  0.00000000E+00  0.00000000E+00  0.00000000E+00
  0.00000000E+00  0.00000000E+00  0.00000000E+00
  0.00000000E+00  0.00000000E+00  0.00000000E+00
  0.00000000E+00  0.00000000E+00  0.00000000E+00
  0.00000000E+00  0.00000000E+00  0.00000000E+00
  0.00000000E+00  0.00000000E+00  0.00000000E+00
  0.00000000E+00  0.00000000E+00  0.00000000E+00
  0.00000000E+00  0.00000000E+00  0.00000000E+00
  0.00000000E+00  0.00000000E+00  0.00000000E+00
  0.00000000E+00  0.00000000E+00  0.00000000E+00
  0.00000000E+00  0.00000000E+00  0.00000000E+00
  0.00000000E+00  0.00000000E+00  0.00000000E+00
  0.00000000E+00  0.00000000E+00  0.00000000E+00
  0.00000000E+00  0.00000000E+00  0.00000000E+00
  0.00000000E+00  0.00000000E+00  0.00000000E+00
  0.00000000E+00  0.00000000E+00  0.00000000E+00
  0.00000000E+00  0.00000000E+00  0.00000000E+00
