Title                                   
   1.00000000000000     
     9.8694509999999998    0.0000000000000000    0.0000000000000000
     0.0000000000000000    8.5490480000000009    0.0000000000000000
     0.0000000000000000    0.0000000000000000   20.0000000000000000
    24     6     1
Selective dynamics
Direct
  0.0555744630112747  0.0899119522981232  0.0944274558014560   T   T   T
  0.9310215711349837  0.1725354807764801  0.0948279002676600   T   T   T
  0.0572499145988703  0.9221995169418572  0.0944530584244303   T   T   T
  0.9344345681317298  0.3395605268389281  0.0946893709567527   T   T   T
  0.0561100537148022  0.5909857998753973  0.0938579671514313   T   T   T
  0.0567592575016610  0.4239120569558898  0.0937700959019077   T   T   T
  0.9324154289478370  0.8398423845168375  0.0948844395314569   T   T   T
  0.3066153619091288  0.0883264633464319  0.0963267411038748   T   T   T
  0.1805631754692147  0.1716716364204852  0.0949539733890119   T   T   T
  0.1800267612770949  0.3389097176607828  0.0947082474568861   T   T   T
  0.3014726144312216  0.5898544619189656  0.0970193246597362   T   T   T
  0.1787374806239491  0.6739787137550708  0.0947931195715766   T   T   T
  0.3033631412564724  0.4206800571740348  0.0969108582709071   T   T   T
  0.1811593604060132  0.8407822109120738  0.0949684586570897   T   T   T
  0.4293899707564569  0.1740327842369554  0.0983325368337062   T   T   T
  0.5546362254992810  0.9183340353514212  0.0990894796759756   T   T   T
  0.4269429105647149  0.8354936893728406  0.0987027457125222   T   T   T
  0.8049651219828436  0.0887717350337858  0.0961859269437048   T   T   T
  0.6810594572606148  0.1765093280553428  0.0982084709078874   T   T   T
  0.8068182362249543  0.9215046898259964  0.0963092680286428   T   T   T
  0.6889261106853944  0.3409150080042597  0.0994255190434537   T   T   T
  0.8132714657237496  0.5937861124771950  0.0972313197330472   T   T   T
  0.8128608924130982  0.4238265243978770  0.0970126464093209   T   T   T
  0.6818921339516857  0.8357969572657534  0.0985863108142103   T   T   T
  0.9343847189136641  0.6740148840637495  0.0946833667292215   T   T   T
  0.5547235277841640  0.0919791513909626  0.0989976229100822   T   T   T
  0.4229797508800769  0.3350605617498159  0.0994942469930941   T   T   T
  0.6944957611613166  0.6732747432979039  0.0999859655899788   T   T   T
  0.4187910902008242  0.6779453565675220  0.1001300165433480   T   T   T
  0.3049061656676396  0.9228488777617262  0.0962329292051617   T   T   T
  0.5565883079152781  0.5036295817555476  0.1017656167825012   T   T   T
 
  0.00000000E+00  0.00000000E+00  0.00000000E+00
  0.00000000E+00  0.00000000E+00  0.00000000E+00
  0.00000000E+00  0.00000000E+00  0.00000000E+00
  0.00000000E+00  0.00000000E+00  0.00000000E+00
  0.00000000E+00  0.00000000E+00  0.00000000E+00
  0.00000000E+00  0.00000000E+00  0.00000000E+00
  0.00000000E+00  0.00000000E+00  0.00000000E+00
  0.00000000E+00  0.00000000E+00  0.00000000E+00
  0.00000000E+00  0.00000000E+00  0.00000000E+00
  0.00000000E+00  0.00000000E+00  0.00000000E+00
  0.00000000E+00  0.00000000E+00  0.00000000E+00
  0.00000000E+00  0.00000000E+00  0.00000000E+00
  0.00000000E+00  0.00000000E+00  0.00000000E+00
  0.00000000E+00  0.00000000E+00  0.00000000E+00
  0.00000000E+00  0.00000000E+00  0.00000000E+00
  0.00000000E+00  0.00000000E+00  0.00000000E+00
  0.00000000E+00  0.00000000E+00  0.00000000E+00
  0.00000000E+00  0.00000000E+00  0.00000000E+00
  0.00000000E+00  0.00000000E+00  0.00000000E+00
  0.00000000E+00  0.00000000E+00  0.00000000E+00
  0.00000000E+00  0.00000000E+00  0.00000000E+00
  0.00000000E+00  0.00000000E+00  0.00000000E+00
  0.00000000E+00  0.00000000E+00  0.00000000E+00
  0.00000000E+00  0.00000000E+00  0.00000000E+00
  0.00000000E+00  0.00000000E+00  0.00000000E+00
  0.00000000E+00  0.00000000E+00  0.00000000E+00
  0.00000000E+00  0.00000000E+00  0.00000000E+00
  0.00000000E+00  0.00000000E+00  0.00000000E+00
  0.00000000E+00  0.00000000E+00  0.00000000E+00
  0.00000000E+00  0.00000000E+00  0.00000000E+00
  0.00000000E+00  0.00000000E+00  0.00000000E+00
