Title                                   
   1.00000000000000     
     9.8694509999999998    0.0000000000000000    0.0000000000000000
     0.0000000000000000    8.5490480000000009    0.0000000000000000
     0.0000000000000000    0.0000000000000000   20.0000000000000000
    26     5     1
Selective dynamics
Direct
  0.0556142139939197  0.0907311484562742  0.0849927187396992   T   T   T
  0.9308288383176436  0.1750976394019895  0.0854692410631762   T   T   T
  0.0573519688887656  0.9227983683579454  0.0855921280939341   T   T   T
  0.9293975195526049  0.3419727615827919  0.0878020056880669   T   T   T
  0.0561514842356267  0.5916127432729539  0.0877189722783189   T   T   T
  0.0552542822604723  0.4241040986222840  0.0881404741049898   T   T   T
  0.9329830550947200  0.8399970967517144  0.0875287867214991   T   T   T
  0.3057250408249653  0.0884095186580124  0.0885293399406520   T   T   T
  0.1814980826686258  0.1729002919680956  0.0870076255066737   T   T   T
  0.1813405593837823  0.3399595569238876  0.0898214493136517   T   T   T
  0.3035271044639458  0.5892834552288402  0.1020816877428380   T   T   T
  0.1806001464227149  0.6740320897051855  0.0908006854449948   T   T   T
  0.3077506044742574  0.4209839626911969  0.0983315645638321   T   T   T
  0.1827724086504122  0.8416312669549647  0.0884519919399413   T   T   T
  0.5566863685590299  0.0862263558890682  0.0930005771901038   T   T   T
  0.5558220734629139  0.9206557525386323  0.0995696346810325   T   T   T
  0.4310923042502666  0.3318676084489176  0.1005315762646238   T   T   T
  0.4273938880151541  0.8404002779860320  0.1044856767454572   T   T   T
  0.8063389682077030  0.0892855472422415  0.0862843543937319   T   T   T
  0.6799252908308903  0.1705596604777599  0.0895455299470282   T   T   T
  0.8080438020421385  0.9235207833469474  0.0890259457941360   T   T   T
  0.6789625885849421  0.3368444831341473  0.0965981582142383   T   T   T
  0.8093488516719264  0.5955339682471378  0.0976294036612357   T   T   T
  0.8021878523714292  0.4266403576457173  0.0940529801121973   T   T   T
  0.6843552581466965  0.8412815288097849  0.0993013978077300   T   T   T
  0.4183328621522364  0.6816629045987331  0.1185643909868745   T   T   T
  0.5532707601329887  0.4013609307380122  0.1118415382987535   T   T   T
  0.6967285566968556  0.6825682872405934  0.1125879738745284   T   T   T
  0.3057611890854188  0.9255726913558309  0.0904322818253565   T   T   T
  0.4293908238999562  0.1668952050546407  0.0923855392887707   T   T   T
  0.9323025170087825  0.6731483305067048  0.0887751254760101   T   T   T
  0.5628997356482230  0.5827073281629678  0.1687942442959399   T   T   T
 
  0.00000000E+00  0.00000000E+00  0.00000000E+00
  0.00000000E+00  0.00000000E+00  0.00000000E+00
  0.00000000E+00  0.00000000E+00  0.00000000E+00
  0.00000000E+00  0.00000000E+00  0.00000000E+00
  0.00000000E+00  0.00000000E+00  0.00000000E+00
  0.00000000E+00  0.00000000E+00  0.00000000E+00
  0.00000000E+00  0.00000000E+00  0.00000000E+00
  0.00000000E+00  0.00000000E+00  0.00000000E+00
  0.00000000E+00  0.00000000E+00  0.00000000E+00
  0.00000000E+00  0.00000000E+00  0.00000000E+00
  0.00000000E+00  0.00000000E+00  0.00000000E+00
  0.00000000E+00  0.00000000E+00  0.00000000E+00
  0.00000000E+00  0.00000000E+00  0.00000000E+00
  0.00000000E+00  0.00000000E+00  0.00000000E+00
  0.00000000E+00  0.00000000E+00  0.00000000E+00
  0.00000000E+00  0.00000000E+00  0.00000000E+00
  0.00000000E+00  0.00000000E+00  0.00000000E+00
  0.00000000E+00  0.00000000E+00  0.00000000E+00
  0.00000000E+00  0.00000000E+00  0.00000000E+00
  0.00000000E+00  0.00000000E+00  0.00000000E+00
  0.00000000E+00  0.00000000E+00  0.00000000E+00
  0.00000000E+00  0.00000000E+00  0.00000000E+00
  0.00000000E+00  0.00000000E+00  0.00000000E+00
  0.00000000E+00  0.00000000E+00  0.00000000E+00
  0.00000000E+00  0.00000000E+00  0.00000000E+00
  0.00000000E+00  0.00000000E+00  0.00000000E+00
  0.00000000E+00  0.00000000E+00  0.00000000E+00
  0.00000000E+00  0.00000000E+00  0.00000000E+00
  0.00000000E+00  0.00000000E+00  0.00000000E+00
  0.00000000E+00  0.00000000E+00  0.00000000E+00
  0.00000000E+00  0.00000000E+00  0.00000000E+00
  0.00000000E+00  0.00000000E+00  0.00000000E+00
