Title                                   
   1.00000000000000     
     9.8694509999999998    0.0000000000000000    0.0000000000000000
     0.0000000000000000    8.5490480000000009    0.0000000000000000
     0.0000000000000000    0.0000000000000000   20.0000000000000000
    26     5     1
Selective dynamics
Direct
  0.0555876831502311  0.0908616646665523  0.0835754724331489   T   T   T
  0.9306420994651757  0.1751358936621381  0.0836868554160148   T   T   T
  0.0575447815596946  0.9229096022660578  0.0845569755198344   T   T   T
  0.9291394821747060  0.3421134785690765  0.0860022877434553   T   T   T
  0.0562581363995521  0.5916364665125742  0.0862973943834641   T   T   T
  0.0552696717185648  0.4243007424233768  0.0864539267101628   T   T   T
  0.9330651964962805  0.8400048891216051  0.0867791891203228   T   T   T
  0.3055123883110504  0.0884622577555866  0.0879057322144552   T   T   T
  0.1815658380492940  0.1728623905389266  0.0858218675125621   T   T   T
  0.1813532172415391  0.3401938591205280  0.0885259669351328   T   T   T
  0.3030519598978600  0.5892999897042669  0.1024709927740196   T   T   T
  0.1807625270642971  0.6739861756443779  0.0898868754201113   T   T   T
  0.3076968838618128  0.4209812010520347  0.0982812706973591   T   T   T
  0.1827707268529191  0.8417333110622169  0.0876386737054136   T   T   T
  0.5563615812141997  0.0861019434698916  0.0923492907712148   T   T   T
  0.5557197354101736  0.9205727538309028  0.0996251389999613   T   T   T
  0.4305818749275610  0.3311677170725543  0.1012023988702530   T   T   T
  0.4271123591183688  0.8410461602129280  0.1051077615868991   T   T   T
  0.8061960285925088  0.0893172022141261  0.0845547833517229   T   T   T
  0.6798215684408837  0.1707949436217802  0.0882831377312867   T   T   T
  0.8079382246037706  0.9235579370371212  0.0879939209329424   T   T   T
  0.6792677156925374  0.3362535872430444  0.0962019509862531   T   T   T
  0.8099921345988375  0.5954829212940066  0.0978438199637735   T   T   T
  0.8021408117815418  0.4268490248394072  0.0932325485737661   T   T   T
  0.6845410351691570  0.8417151077044391  0.0995060480089008   T   T   T
  0.4167054187919780  0.6823664891053771  0.1216156595951694   T   T   T
  0.5535065846442740  0.3986667209216375  0.1152769698197491   T   T   T
  0.6987609683554526  0.6840766067484593  0.1160808120562837   T   T   T
  0.3060474827557569  0.9252870466248484  0.0900516390603926   T   T   T
  0.4291553156486110  0.1667904950092164  0.0922507368610138   T   T   T
  0.9323955553621611  0.6734184074229370  0.0881746041070357   T   T   T
  0.5631740126492553  0.5822990135280068  0.1784402981379408   T   T   T
 
  0.00000000E+00  0.00000000E+00  0.00000000E+00
  0.00000000E+00  0.00000000E+00  0.00000000E+00
  0.00000000E+00  0.00000000E+00  0.00000000E+00
  0.00000000E+00  0.00000000E+00  0.00000000E+00
  0.00000000E+00  0.00000000E+00  0.00000000E+00
  0.00000000E+00  0.00000000E+00  0.00000000E+00
  0.00000000E+00  0.00000000E+00  0.00000000E+00
  0.00000000E+00  0.00000000E+00  0.00000000E+00
  0.00000000E+00  0.00000000E+00  0.00000000E+00
  0.00000000E+00  0.00000000E+00  0.00000000E+00
  0.00000000E+00  0.00000000E+00  0.00000000E+00
  0.00000000E+00  0.00000000E+00  0.00000000E+00
  0.00000000E+00  0.00000000E+00  0.00000000E+00
  0.00000000E+00  0.00000000E+00  0.00000000E+00
  0.00000000E+00  0.00000000E+00  0.00000000E+00
  0.00000000E+00  0.00000000E+00  0.00000000E+00
  0.00000000E+00  0.00000000E+00  0.00000000E+00
  0.00000000E+00  0.00000000E+00  0.00000000E+00
  0.00000000E+00  0.00000000E+00  0.00000000E+00
  0.00000000E+00  0.00000000E+00  0.00000000E+00
  0.00000000E+00  0.00000000E+00  0.00000000E+00
  0.00000000E+00  0.00000000E+00  0.00000000E+00
  0.00000000E+00  0.00000000E+00  0.00000000E+00
  0.00000000E+00  0.00000000E+00  0.00000000E+00
  0.00000000E+00  0.00000000E+00  0.00000000E+00
  0.00000000E+00  0.00000000E+00  0.00000000E+00
  0.00000000E+00  0.00000000E+00  0.00000000E+00
  0.00000000E+00  0.00000000E+00  0.00000000E+00
  0.00000000E+00  0.00000000E+00  0.00000000E+00
  0.00000000E+00  0.00000000E+00  0.00000000E+00
  0.00000000E+00  0.00000000E+00  0.00000000E+00
  0.00000000E+00  0.00000000E+00  0.00000000E+00
