Title                                   
   1.00000000000000     
     4.9440799999999996    0.0000000000000000    0.0000000000000000
     0.0000000000000000   17.1295089999999988    0.0000000000000000
     0.0000000000000000    0.0000000000000000   20.0000000000000000
    28     3     1
Selective dynamics
Direct
 -0.0000205866710255  0.1045057258338724  0.2830379403416809   T   T   T
  0.2497301847156994  0.1466905798315982  0.2854704741358617   T   T   T
  0.2497413832652546  0.2299711777721666  0.2931564604847875   T   T   T
  0.0040235633739669  0.3517319405035688  0.3128544975804616   T   T   T
 -0.0028700332820343  0.2709619635737107  0.2972302961467527   T   T   T
 -0.0029570429147523  0.6027292474902091  0.3057936508289895   T   T   T
  0.2505365227916931  0.7271434197258749  0.2961937418918657   T   T   T
  0.0008165954800186  0.8532122969343050  0.2856463729986526   T   T   T
  0.2501638238985432  0.8954113253762267  0.2843446176960784   T   T   T
  0.2499455639697137  0.9788408231754183  0.2820018195390840   T   T   T
  0.0012883247632079  0.7698090586435838  0.2904854768832673   T   T   T
  0.4993299101212196  0.1044104912503113  0.2832468199187200   T   T   T
  0.7494363030310034  0.1464432678929846  0.2847699469798738   T   T   T
  0.7490950061100174  0.2291106165879710  0.2912549697718737   T   T   T
  0.4998436846874187  0.0209414140186893  0.2817202608070933   T   T   T
  0.4943461204104103  0.3524185590498800  0.3141019360855514   T   T   T
  0.7561105991461260  0.4847760751028565  0.3244379535073864   T   T   T
  0.5016754013731389  0.2713583075059636  0.2980295023392167   T   T   T
  0.5073450074590595  0.6050982333751547  0.3182923224395758   T   T   T
  0.7509588536554178  0.7288202383922279  0.2943061329378789   T   T   T
  0.4999046485579994  0.8532569888595037  0.2866033699402243   T   T   T
  0.7503213611308357  0.8952140144763159  0.2840245222851052   T   T   T
  0.7500619652811974  0.9787769114408880  0.2817935859553407   T   T   T
  0.5000694157898403  0.7700279645222289  0.2925746794571776   T   T   T
  0.7509801677521890  0.6462401838392353  0.3034828554670518   T   T   T
  0.2517524874269694  0.6443428132963492  0.3072650752157176   T   T   T
 -0.0000293821164919  0.0209703697140560  0.2814845192612496   T   T   T
  0.5281147857922200  0.5282319380820656  0.3459047311407717   T   T   T
  0.9860827575688164  0.5223510044359617  0.3054538629019705   T   T   T
  0.2477924769566070  0.3855754473652596  0.3262992641253324   T   T   T
  0.7510191696053147  0.3966525951039717  0.3193547547213360   T   T   T
  0.2222139608704095  0.4825260068275856  0.3819485862140236   T   T   T
 
  0.00000000E+00  0.00000000E+00  0.00000000E+00
  0.00000000E+00  0.00000000E+00  0.00000000E+00
  0.00000000E+00  0.00000000E+00  0.00000000E+00
  0.00000000E+00  0.00000000E+00  0.00000000E+00
  0.00000000E+00  0.00000000E+00  0.00000000E+00
  0.00000000E+00  0.00000000E+00  0.00000000E+00
  0.00000000E+00  0.00000000E+00  0.00000000E+00
  0.00000000E+00  0.00000000E+00  0.00000000E+00
  0.00000000E+00  0.00000000E+00  0.00000000E+00
  0.00000000E+00  0.00000000E+00  0.00000000E+00
  0.00000000E+00  0.00000000E+00  0.00000000E+00
  0.00000000E+00  0.00000000E+00  0.00000000E+00
  0.00000000E+00  0.00000000E+00  0.00000000E+00
  0.00000000E+00  0.00000000E+00  0.00000000E+00
  0.00000000E+00  0.00000000E+00  0.00000000E+00
  0.00000000E+00  0.00000000E+00  0.00000000E+00
  0.00000000E+00  0.00000000E+00  0.00000000E+00
  0.00000000E+00  0.00000000E+00  0.00000000E+00
  0.00000000E+00  0.00000000E+00  0.00000000E+00
  0.00000000E+00  0.00000000E+00  0.00000000E+00
  0.00000000E+00  0.00000000E+00  0.00000000E+00
  0.00000000E+00  0.00000000E+00  0.00000000E+00
  0.00000000E+00  0.00000000E+00  0.00000000E+00
  0.00000000E+00  0.00000000E+00  0.00000000E+00
  0.00000000E+00  0.00000000E+00  0.00000000E+00
  0.00000000E+00  0.00000000E+00  0.00000000E+00
  0.00000000E+00  0.00000000E+00  0.00000000E+00
  0.00000000E+00  0.00000000E+00  0.00000000E+00
  0.00000000E+00  0.00000000E+00  0.00000000E+00
  0.00000000E+00  0.00000000E+00  0.00000000E+00
  0.00000000E+00  0.00000000E+00  0.00000000E+00
  0.00000000E+00  0.00000000E+00  0.00000000E+00
