Title                                   
   1.00000000000000     
     8.5490480000000009    0.0000000000000000    0.0000000000000000
     0.0000000000000000    8.5490480000000009    0.0000000000000000
     0.0000000000000000    0.0000000000000000   20.0000000000000000
    20     4     1
Selective dynamics
Direct
  0.9089529842709400  0.2082069265390618  0.0975362879048561   T   T   T
  0.9131426372901483  0.8009725764390617  0.0976366900808457   T   T   T
  0.1957856050848417  0.0826026435286888  0.0977639674180490   T   T   T
  0.0742959082452047  0.2014690673365413  0.0977406092844641   T   T   T
  0.1579618568562034  0.6483128695838177  0.0977904797351038   T   T   T
  0.0765775204134726  0.5017488924207715  0.0978656325468360   T   T   T
  0.1567117980168997  0.3521316295926122  0.0979918409130095   T   T   T
  0.0791586098257310  0.7987781927377572  0.0976605563292831   T   T   T
  0.4930260024782203  0.0869390649999512  0.0977032417743230   T   T   T
  0.3417037789226977  0.1656495011495808  0.0979163298353652   T   T   T
  0.4932628148099431  0.9158665180017415  0.0976788322946130   T   T   T
  0.3463089266834193  0.8339034993817179  0.0977175686101483   T   T   T
  0.7864816538009568  0.0861642234555693  0.0974809178922996   T   T   T
  0.6380470367046810  0.1678459004954730  0.0976039736487516   T   T   T
  0.7897146811509165  0.9202701647537731  0.0975813389596753   T   T   T
  0.8305952055367767  0.6513053521010255  0.0977382795502428   T   T   T
  0.8276153599000549  0.3578385548380731  0.0976370046924580   T   T   T
  0.6422234647323404  0.8351807504266954  0.0977305564054922   T   T   T
  0.3235463488742102  0.6700331438936855  0.0977965283327337   T   T   T
  0.6623784284576822  0.3370447075307146  0.0976682420729095   T   T   T
  0.9088455079000979  0.5040319096345347  0.0978003194084080   T   T   T
  0.3169668373936946  0.3283160882174703  0.0981594961478840   T   T   T
  0.6699945733787488  0.6727283593471063  0.0978906972780340   T   T   T
  0.1977277539942299  0.9159121329822258  0.0976833230649177   T   T   T
  0.4943867052778742  0.5015373306123629  0.0979322858192768   T   T   T
 
  0.00000000E+00  0.00000000E+00  0.00000000E+00
  0.00000000E+00  0.00000000E+00  0.00000000E+00
  0.00000000E+00  0.00000000E+00  0.00000000E+00
  0.00000000E+00  0.00000000E+00  0.00000000E+00
  0.00000000E+00  0.00000000E+00  0.00000000E+00
  0.00000000E+00  0.00000000E+00  0.00000000E+00
  0.00000000E+00  0.00000000E+00  0.00000000E+00
  0.00000000E+00  0.00000000E+00  0.00000000E+00
  0.00000000E+00  0.00000000E+00  0.00000000E+00
  0.00000000E+00  0.00000000E+00  0.00000000E+00
  0.00000000E+00  0.00000000E+00  0.00000000E+00
  0.00000000E+00  0.00000000E+00  0.00000000E+00
  0.00000000E+00  0.00000000E+00  0.00000000E+00
  0.00000000E+00  0.00000000E+00  0.00000000E+00
  0.00000000E+00  0.00000000E+00  0.00000000E+00
  0.00000000E+00  0.00000000E+00  0.00000000E+00
  0.00000000E+00  0.00000000E+00  0.00000000E+00
  0.00000000E+00  0.00000000E+00  0.00000000E+00
  0.00000000E+00  0.00000000E+00  0.00000000E+00
  0.00000000E+00  0.00000000E+00  0.00000000E+00
  0.00000000E+00  0.00000000E+00  0.00000000E+00
  0.00000000E+00  0.00000000E+00  0.00000000E+00
  0.00000000E+00  0.00000000E+00  0.00000000E+00
  0.00000000E+00  0.00000000E+00  0.00000000E+00
  0.00000000E+00  0.00000000E+00  0.00000000E+00
