Title                                   
   1.00000000000000     
     9.8694509999999998    0.0000000000000000    0.0000000000000000
     0.0000000000000000    8.5490480000000009    0.0000000000000000
     0.0000000000000000    0.0000000000000000   20.0000000000000000
    27     3     1
Selective dynamics
Direct
  0.0555128412061451  0.0883240584756550  0.0886940996215120   T   T   T
  0.9306645004822852  0.1716301091053322  0.0896840284224903   T   T   T
  0.0571358481259044  0.9229100665237253  0.0889942449370643   T   T   T
  0.9339171158284313  0.3388785052367678  0.0885341051024194   T   T   T
  0.0573172973436677  0.5899783154565619  0.0865266040305804   T   T   T
  0.9335186610730659  0.6736497237864424  0.0891974064953471   T   T   T
  0.0575843295802976  0.4228727303872881  0.0860824249023173   T   T   T
  0.9315633316620989  0.8402954111565613  0.0902560036727673   T   T   T
  0.3061578518492326  0.0879404458689919  0.0937295527485897   T   T   T
  0.1814044850925786  0.1697849942997816  0.0895721276405690   T   T   T
  0.1807618884930989  0.3374761360008598  0.0882795940635336   T   T   T
  0.3046120739009148  0.5882273202555689  0.0941443012291203   T   T   T
  0.1819427884376164  0.6727561477380730  0.0887511349653577   T   T   T
  0.3029152863705149  0.4181602635275221  0.0940887660184066   T   T   T
  0.1826476072370077  0.8400446712117426  0.0900175854319111   T   T   T
  0.4293694162237969  0.1772834947101397  0.0992513926978153   T   T   T
  0.5540877036389051  0.9248693467058665  0.1016266354558031   T   T   T
  0.4280182493436515  0.6698906951294834  0.1024559743625038   T   T   T
  0.4298999598418117  0.8376325281792000  0.1000460402998930   T   T   T
  0.8041365940027773  0.0898167786098831  0.0938987265356053   T   T   T
  0.6809841312352097  0.1800468219898596  0.0992574182816894   T   T   T
  0.8053265933195539  0.9221678977300798  0.0944782797436245   T   T   T
  0.6857653131583414  0.3452640618467141  0.1027280362507901   T   T   T
  0.8113135068125524  0.5907460466002240  0.0946995874849543   T   T   T
  0.6842453214390335  0.6672403967311582  0.1023515689383966   T   T   T
  0.8122619063119887  0.4216314820227771  0.0945203354385111   T   T   T
  0.6797414442887608  0.8364761031683723  0.1002778623860674   T   T   T
  0.5546620831849225  0.0946535474413088  0.1011909902551954   T   T   T
  0.4237409339397046  0.3378197842004171  0.1018338329088790   T   T   T
  0.3058715244198443  0.9222910142402353  0.0939477847939572   T   T   T
  0.5560544121563020  0.5101161016634268  0.1118485548843769   T   T   T
 
  0.00000000E+00  0.00000000E+00  0.00000000E+00
  0.00000000E+00  0.00000000E+00  0.00000000E+00
  0.00000000E+00  0.00000000E+00  0.00000000E+00
  0.00000000E+00  0.00000000E+00  0.00000000E+00
  0.00000000E+00  0.00000000E+00  0.00000000E+00
  0.00000000E+00  0.00000000E+00  0.00000000E+00
  0.00000000E+00  0.00000000E+00  0.00000000E+00
  0.00000000E+00  0.00000000E+00  0.00000000E+00
  0.00000000E+00  0.00000000E+00  0.00000000E+00
  0.00000000E+00  0.00000000E+00  0.00000000E+00
  0.00000000E+00  0.00000000E+00  0.00000000E+00
  0.00000000E+00  0.00000000E+00  0.00000000E+00
  0.00000000E+00  0.00000000E+00  0.00000000E+00
  0.00000000E+00  0.00000000E+00  0.00000000E+00
  0.00000000E+00  0.00000000E+00  0.00000000E+00
  0.00000000E+00  0.00000000E+00  0.00000000E+00
  0.00000000E+00  0.00000000E+00  0.00000000E+00
  0.00000000E+00  0.00000000E+00  0.00000000E+00
  0.00000000E+00  0.00000000E+00  0.00000000E+00
  0.00000000E+00  0.00000000E+00  0.00000000E+00
  0.00000000E+00  0.00000000E+00  0.00000000E+00
  0.00000000E+00  0.00000000E+00  0.00000000E+00
  0.00000000E+00  0.00000000E+00  0.00000000E+00
  0.00000000E+00  0.00000000E+00  0.00000000E+00
  0.00000000E+00  0.00000000E+00  0.00000000E+00
  0.00000000E+00  0.00000000E+00  0.00000000E+00
  0.00000000E+00  0.00000000E+00  0.00000000E+00
  0.00000000E+00  0.00000000E+00  0.00000000E+00
  0.00000000E+00  0.00000000E+00  0.00000000E+00
  0.00000000E+00  0.00000000E+00  0.00000000E+00
  0.00000000E+00  0.00000000E+00  0.00000000E+00
