Title                                   
   1.00000000000000     
     4.9440799999999996    0.0000000000000000    0.0000000000000000
     0.0000000000000000    8.5647549999999999    0.0000000000000000
     0.0000000000000000    0.0000000000000000   20.0000000000000000
    11     3     1
Selective dynamics
Direct
  0.2495777440269396  0.2085007716001928  0.0960463069096623   T   T   T
 -0.0014231943513803  0.2941726815847580  0.0935036150311749   T   T   T
  0.2508604140219317  0.0375375372861279  0.0946971818058273   T   T   T
 -0.0000406244336379  0.9546962376138238  0.0913289426784413   T   T   T
  0.7502796055925235  0.2079145406132566  0.0913644531990204   T   T   T
  0.5005207045207110  0.2932989660458544  0.0983869207035285   T   T   T
  0.7523394720449944  0.0412253393428593  0.0903864196303097   T   T   T
  0.7550920067753033  0.7142137966360985  0.0985538139651632   T   T   T
  0.7529648930622729  0.5384565779754287  0.1007820466925498   T   T   T
  0.5050982185241896  0.9539383690816324  0.0961599321728771   T   T   T
  0.5091159196078859  0.4569770402626447  0.1096930279489059   T   T   T
 -0.0045362601639445  0.4563876883560733  0.0948872688661589   T   T   T
 -0.0071363320944547  0.7930641040074332  0.0914210367266478   T   T   T
  0.5150185619803753  0.7942884298640355  0.1053915096667006   T   T   T
  0.2222688708862903  0.6270089197297835  0.1553775240030357   T   T   T
 
  0.00000000E+00  0.00000000E+00  0.00000000E+00
  0.00000000E+00  0.00000000E+00  0.00000000E+00
  0.00000000E+00  0.00000000E+00  0.00000000E+00
  0.00000000E+00  0.00000000E+00  0.00000000E+00
  0.00000000E+00  0.00000000E+00  0.00000000E+00
  0.00000000E+00  0.00000000E+00  0.00000000E+00
  0.00000000E+00  0.00000000E+00  0.00000000E+00
  0.00000000E+00  0.00000000E+00  0.00000000E+00
  0.00000000E+00  0.00000000E+00  0.00000000E+00
  0.00000000E+00  0.00000000E+00  0.00000000E+00
  0.00000000E+00  0.00000000E+00  0.00000000E+00
  0.00000000E+00  0.00000000E+00  0.00000000E+00
  0.00000000E+00  0.00000000E+00  0.00000000E+00
  0.00000000E+00  0.00000000E+00  0.00000000E+00
  0.00000000E+00  0.00000000E+00  0.00000000E+00
