Title                                   
   1.00000000000000     
     8.5490480000000009    0.0000000000000000    0.0000000000000000
     0.0000000000000000    8.5490480000000009    0.0000000000000000
     0.0000000000000000    0.0000000000000000   20.0000000000000000
    17     7     1
Selective dynamics
Direct
  0.9083082620931500  0.2049662190793563  0.0951311135554756   T   T   T
  0.9106749093123615  0.8005969912333711  0.0942458860162884   T   T   T
  0.1967500527732229  0.0832458787986647  0.0944805111645500   T   T   T
  0.0770470450190529  0.2010496383331760  0.0951282724942665   T   T   T
  0.1544894684527573  0.6526110030334695  0.0974958091322463   T   T   T
  0.0787837681623151  0.5013376081535200  0.0972929149135212   T   T   T
  0.1557372770881954  0.3497485270380726  0.0972996536211198   T   T   T
  0.0782810845226290  0.8001675920791858  0.0944079298712227   T   T   T
  0.3438595880285595  0.1624394905659740  0.0962910182982468   T   T   T
  0.4909759427591445  0.9167677203941248  0.0972537120246389   T   T   T
  0.3436136208057162  0.8411827503950978  0.0978103014635421   T   T   T
  0.7882067368955855  0.0866849430003378  0.0951031882520099   T   T   T
  0.6424143650165015  0.1665597296228153  0.0970805706976531   T   T   T
  0.7894440846898488  0.9176422302128295  0.0948830112128569   T   T   T
  0.8322895445498747  0.6509845197026890  0.0963920835374106   T   T   T
  0.8300407079518072  0.3525215925704852  0.0969850370620413   T   T   T
  0.6435934094208653  0.8380054476907300  0.0972466787947805   T   T   T
  0.4937256919206132  0.0900301813910068  0.0967309955076340   T   T   T
  0.9068696038469073  0.5019573261495991  0.0968220573722127   T   T   T
  0.3191647989842816  0.3223456696148271  0.0988284695436697   T   T   T
  0.3170471087261772  0.6808429707066173  0.1024022691926831   T   T   T
  0.6679056335971647  0.3284522905910643  0.0998506418511908   T   T   T
  0.6716819554006084  0.6745795330072443  0.0990553323972590   T   T   T
  0.1946582095536462  0.9162664367038866  0.0944402772828425   T   T   T
  0.4898491304290074  0.5038037099318543  0.1210472647406175   T   T   T
 
  0.00000000E+00  0.00000000E+00  0.00000000E+00
  0.00000000E+00  0.00000000E+00  0.00000000E+00
  0.00000000E+00  0.00000000E+00  0.00000000E+00
  0.00000000E+00  0.00000000E+00  0.00000000E+00
  0.00000000E+00  0.00000000E+00  0.00000000E+00
  0.00000000E+00  0.00000000E+00  0.00000000E+00
  0.00000000E+00  0.00000000E+00  0.00000000E+00
  0.00000000E+00  0.00000000E+00  0.00000000E+00
  0.00000000E+00  0.00000000E+00  0.00000000E+00
  0.00000000E+00  0.00000000E+00  0.00000000E+00
  0.00000000E+00  0.00000000E+00  0.00000000E+00
  0.00000000E+00  0.00000000E+00  0.00000000E+00
  0.00000000E+00  0.00000000E+00  0.00000000E+00
  0.00000000E+00  0.00000000E+00  0.00000000E+00
  0.00000000E+00  0.00000000E+00  0.00000000E+00
  0.00000000E+00  0.00000000E+00  0.00000000E+00
  0.00000000E+00  0.00000000E+00  0.00000000E+00
  0.00000000E+00  0.00000000E+00  0.00000000E+00
  0.00000000E+00  0.00000000E+00  0.00000000E+00
  0.00000000E+00  0.00000000E+00  0.00000000E+00
  0.00000000E+00  0.00000000E+00  0.00000000E+00
  0.00000000E+00  0.00000000E+00  0.00000000E+00
  0.00000000E+00  0.00000000E+00  0.00000000E+00
  0.00000000E+00  0.00000000E+00  0.00000000E+00
  0.00000000E+00  0.00000000E+00  0.00000000E+00
