Title                                   
   1.00000000000000     
     9.8694509999999998    0.0000000000000000    0.0000000000000000
     0.0000000000000000    8.5490480000000009    0.0000000000000000
     0.0000000000000000    0.0000000000000000   20.0000000000000000
    26     4     1
Selective dynamics
Direct
  0.0558007465450854  0.0901845483135160  0.0925661766463071   T   T   T
  0.9314126162268814  0.1721286534409451  0.0936045385379533   T   T   T
  0.0572996971359340  0.9241682715180485  0.0926612397099211   T   T   T
  0.9352839960589731  0.3392428570131207  0.0932726802290175   T   T   T
  0.0572079622783799  0.5902955747924084  0.0911345673337763   T   T   T
  0.9352936382738672  0.6753008860233999  0.0931094149124749   T   T   T
  0.0576331550861981  0.4231216631559162  0.0912460500648983   T   T   T
  0.9327584593955004  0.8412402859292676  0.0936273036764838   T   T   T
  0.3058457605807632  0.0885000491488688  0.0963750637251733   T   T   T
  0.1805382646005362  0.1715217098732978  0.0934042830000110   T   T   T
  0.1795818097403314  0.3381555898704829  0.0928649084270715   T   T   T
  0.2998072868805520  0.5899270649397934  0.0964783836768737   T   T   T
  0.1789384871268805  0.6750881313621384  0.0927148289656057   T   T   T
  0.3008411556218492  0.4228167088348078  0.0965778447835225   T   T   T
  0.1806281647745661  0.8407985619648844  0.0933826345395430   T   T   T
  0.5548135150041198  0.0899220535198775  0.1012245668837356   T   T   T
  0.4289596506899245  0.1739771632808392  0.1001868394844156   T   T   T
  0.5540060721704612  0.9177807866104635  0.1010483526188258   T   T   T
  0.4268644835879198  0.8358393021387240  0.0998944413811574   T   T   T
  0.8055296257230209  0.0890460494431503  0.0965299843715291   T   T   T
  0.6808698633688358  0.1754173635303893  0.1003697784962635   T   T   T
  0.8059996457790594  0.9223652617642029  0.0964778268071113   T   T   T
  0.6923882596077194  0.3397776593367198  0.1017445821688483   T   T   T
  0.8147852737263415  0.5923645667899753  0.0971440585239646   T   T   T
  0.8139775254497037  0.4240631883217277  0.0972665851346147   T   T   T
  0.6822525570743391  0.8337563704822121  0.1001090179949413   T   T   T
  0.4198352420457032  0.3371838767210915  0.1017418817180600   T   T   T
  0.6944085245599229  0.6723197843014166  0.1017039742573495   T   T   T
  0.4171763830187424  0.6772503086121683  0.1016174789913412   T   T   T
  0.3059976223556396  0.9237529098564859  0.0960956053181392   T   T   T
  0.5563995555122579  0.5035677991096751  0.1047901076211065   T   T   T
 
  0.00000000E+00  0.00000000E+00  0.00000000E+00
  0.00000000E+00  0.00000000E+00  0.00000000E+00
  0.00000000E+00  0.00000000E+00  0.00000000E+00
  0.00000000E+00  0.00000000E+00  0.00000000E+00
  0.00000000E+00  0.00000000E+00  0.00000000E+00
  0.00000000E+00  0.00000000E+00  0.00000000E+00
  0.00000000E+00  0.00000000E+00  0.00000000E+00
  0.00000000E+00  0.00000000E+00  0.00000000E+00
  0.00000000E+00  0.00000000E+00  0.00000000E+00
  0.00000000E+00  0.00000000E+00  0.00000000E+00
  0.00000000E+00  0.00000000E+00  0.00000000E+00
  0.00000000E+00  0.00000000E+00  0.00000000E+00
  0.00000000E+00  0.00000000E+00  0.00000000E+00
  0.00000000E+00  0.00000000E+00  0.00000000E+00
  0.00000000E+00  0.00000000E+00  0.00000000E+00
  0.00000000E+00  0.00000000E+00  0.00000000E+00
  0.00000000E+00  0.00000000E+00  0.00000000E+00
  0.00000000E+00  0.00000000E+00  0.00000000E+00
  0.00000000E+00  0.00000000E+00  0.00000000E+00
  0.00000000E+00  0.00000000E+00  0.00000000E+00
  0.00000000E+00  0.00000000E+00  0.00000000E+00
  0.00000000E+00  0.00000000E+00  0.00000000E+00
  0.00000000E+00  0.00000000E+00  0.00000000E+00
  0.00000000E+00  0.00000000E+00  0.00000000E+00
  0.00000000E+00  0.00000000E+00  0.00000000E+00
  0.00000000E+00  0.00000000E+00  0.00000000E+00
  0.00000000E+00  0.00000000E+00  0.00000000E+00
  0.00000000E+00  0.00000000E+00  0.00000000E+00
  0.00000000E+00  0.00000000E+00  0.00000000E+00
  0.00000000E+00  0.00000000E+00  0.00000000E+00
  0.00000000E+00  0.00000000E+00  0.00000000E+00
