Title                                   
   1.00000000000000     
     9.8694509999999998    0.0000000000000000    0.0000000000000000
     0.0000000000000000    8.5490480000000009    0.0000000000000000
     0.0000000000000000    0.0000000000000000   20.0000000000000000
    25     5     1
Selective dynamics
Direct
  0.0562574370626866  0.0906929236940213  0.0925323988104476   T   T   T
  0.9308278351537024  0.1736187125499108  0.0962067299569555   T   T   T
  0.0581393478483556  0.9230813920277791  0.0926955978018381   T   T   T
  0.9324824041907964  0.3410725327071360  0.0985266188474227   T   T   T
  0.0578711876847692  0.5897428037925773  0.0944397997768391   T   T   T
  0.9336523054477726  0.6733387322552643  0.0988124565013127   T   T   T
  0.0575653131898218  0.4227260667629946  0.0941409110607542   T   T   T
  0.9330771361801622  0.8405065123467899  0.0966730012457825   T   T   T
  0.3080977396844238  0.0873338471457051  0.0896188355265674   T   T   T
  0.1819328035758187  0.1719932620474811  0.0903024231012591   T   T   T
  0.1815408633872300  0.3385487565418857  0.0904179402252465   T   T   T
  0.3078325906900101  0.5895352487620233  0.0859659983464053   T   T   T
  0.1822820523899754  0.6726885959795780  0.0904186524558324   T   T   T
  0.3078681997751049  0.4200278841692073  0.0871957348741331   T   T   T
  0.1821219889289949  0.8388229822513468  0.0902040642969273   T   T   T
  0.4303646580113415  0.1718949363771174  0.0911773884122828   T   T   T
  0.5550980540774733  0.9192227849476088  0.0975105251240319   T   T   T
  0.4299566148477924  0.8369200039193520  0.0894913323779043   T   T   T
  0.8045397569404356  0.0899147133556276  0.0975518198476315   T   T   T
  0.6805057920035326  0.1768624018622965  0.1023980097544479   T   T   T
  0.8069726647315160  0.9226519254986173  0.0980599205971375   T   T   T
  0.6833213130896093  0.3403249218716893  0.1123789255679370   T   T   T
  0.8097453100782428  0.5933142992937832  0.1064110891331001   T   T   T
  0.8078631315925127  0.4233178252191145  0.1067563154620596   T   T   T
  0.6829303032607836  0.8357794220474953  0.1026054949121620   T   T   T
  0.5557485140888810  0.0914292357939190  0.0974883061754965   T   T   T
  0.4279936512121332  0.3330380619228359  0.0885537419388327   T   T   T
  0.6884950779410255  0.6747692202232257  0.1115839888379789   T   T   T
  0.4274441299921403  0.6776957534288843  0.0831572280646766   T   T   T
  0.3068116804279489  0.9213982317036868  0.0889508883895781   T   T   T
  0.5337951425150145  0.5086110095010596  0.1387388625770554   T   T   T
 
  0.00000000E+00  0.00000000E+00  0.00000000E+00
  0.00000000E+00  0.00000000E+00  0.00000000E+00
  0.00000000E+00  0.00000000E+00  0.00000000E+00
  0.00000000E+00  0.00000000E+00  0.00000000E+00
  0.00000000E+00  0.00000000E+00  0.00000000E+00
  0.00000000E+00  0.00000000E+00  0.00000000E+00
  0.00000000E+00  0.00000000E+00  0.00000000E+00
  0.00000000E+00  0.00000000E+00  0.00000000E+00
  0.00000000E+00  0.00000000E+00  0.00000000E+00
  0.00000000E+00  0.00000000E+00  0.00000000E+00
  0.00000000E+00  0.00000000E+00  0.00000000E+00
  0.00000000E+00  0.00000000E+00  0.00000000E+00
  0.00000000E+00  0.00000000E+00  0.00000000E+00
  0.00000000E+00  0.00000000E+00  0.00000000E+00
  0.00000000E+00  0.00000000E+00  0.00000000E+00
  0.00000000E+00  0.00000000E+00  0.00000000E+00
  0.00000000E+00  0.00000000E+00  0.00000000E+00
  0.00000000E+00  0.00000000E+00  0.00000000E+00
  0.00000000E+00  0.00000000E+00  0.00000000E+00
  0.00000000E+00  0.00000000E+00  0.00000000E+00
  0.00000000E+00  0.00000000E+00  0.00000000E+00
  0.00000000E+00  0.00000000E+00  0.00000000E+00
  0.00000000E+00  0.00000000E+00  0.00000000E+00
  0.00000000E+00  0.00000000E+00  0.00000000E+00
  0.00000000E+00  0.00000000E+00  0.00000000E+00
  0.00000000E+00  0.00000000E+00  0.00000000E+00
  0.00000000E+00  0.00000000E+00  0.00000000E+00
  0.00000000E+00  0.00000000E+00  0.00000000E+00
  0.00000000E+00  0.00000000E+00  0.00000000E+00
  0.00000000E+00  0.00000000E+00  0.00000000E+00
  0.00000000E+00  0.00000000E+00  0.00000000E+00
