Title                                   
   1.00000000000000     
     9.8694509999999998    0.0000000000000000    0.0000000000000000
     0.0000000000000000    8.5490480000000009    0.0000000000000000
     0.0000000000000000    0.0000000000000000   20.0000000000000000
    29     2     1
Selective dynamics
Direct
  0.0564802228223084  0.0905037404575948  0.0829382693880604   T   T   T
  0.9311726017004953  0.1729604221108474  0.0868062285572065   T   T   T
  0.0567513842526762  0.9233397661291601  0.0819738651151896   T   T   T
  0.9306294766954716  0.3400048304165938  0.0918355540275945   T   T   T
  0.0560619019566119  0.5892454594218599  0.0867719999456666   T   T   T
  0.9324308323173517  0.6726433903049936  0.0896421266165065   T   T   T
  0.0571125086429435  0.4228961588735770  0.0895715245775468   T   T   T
  0.9313505543780360  0.8399158038017616  0.0853807397296178   T   T   T
  0.3058974018606809  0.0888645825409633  0.0844770669094601   T   T   T
  0.1823967589223952  0.1743745423585955  0.0848563653086659   T   T   T
  0.3070832286242350  0.9234533325709703  0.0852769728531117   T   T   T
  0.1820611125038885  0.3399392399721315  0.0898181467209026   T   T   T
  0.3048755248228751  0.5892024143496257  0.0971481903899874   T   T   T
  0.1815285214403387  0.6717366421050452  0.0860003504315642   T   T   T
  0.1821916220378052  0.8383324553690447  0.0834869463360675   T   T   T
  0.5556161417994226  0.0874830909130486  0.0944591780337856   T   T   T
  0.4307428404008086  0.1704467267087331  0.0912428127268976   T   T   T
  0.4301171156995303  0.3359835475473411  0.1010281873609324   T   T   T
  0.4297645110927780  0.8404764100905918  0.0971761656975517   T   T   T
  0.8071193482853394  0.0891306791726313  0.0876727315058469   T   T   T
  0.6811245868944741  0.1696487849173290  0.0949978698489846   T   T   T
  0.8063170174047496  0.9239230884089529  0.0873570336851782   T   T   T
  0.6806628961176111  0.3339354765302353  0.1054926250353043   T   T   T
  0.8090320581341596  0.5911840708445520  0.1029925422295966   T   T   T
  0.8062161596947063  0.4225054295596658  0.1016639769227283   T   T   T
  0.6819439725636031  0.8418725745160403  0.0989612427791030   T   T   T
  0.4205064769544165  0.6797569333549160  0.1140653830539778   T   T   T
  0.5531564526597923  0.4057021276821090  0.1193770029808414   T   T   T
  0.6924835848267936  0.6840548931545576  0.1173366150091361   T   T   T
  0.5556402180605937  0.9223080170060648  0.0971487943463755   T   T   T
  0.3060292033829655  0.4226287573909095  0.0964988225215963   T   T   T
  0.5551427630501496  0.5917926114195614  0.1722196693550318   T   T   T
 
  0.00000000E+00  0.00000000E+00  0.00000000E+00
  0.00000000E+00  0.00000000E+00  0.00000000E+00
  0.00000000E+00  0.00000000E+00  0.00000000E+00
  0.00000000E+00  0.00000000E+00  0.00000000E+00
  0.00000000E+00  0.00000000E+00  0.00000000E+00
  0.00000000E+00  0.00000000E+00  0.00000000E+00
  0.00000000E+00  0.00000000E+00  0.00000000E+00
  0.00000000E+00  0.00000000E+00  0.00000000E+00
  0.00000000E+00  0.00000000E+00  0.00000000E+00
  0.00000000E+00  0.00000000E+00  0.00000000E+00
  0.00000000E+00  0.00000000E+00  0.00000000E+00
  0.00000000E+00  0.00000000E+00  0.00000000E+00
  0.00000000E+00  0.00000000E+00  0.00000000E+00
  0.00000000E+00  0.00000000E+00  0.00000000E+00
  0.00000000E+00  0.00000000E+00  0.00000000E+00
  0.00000000E+00  0.00000000E+00  0.00000000E+00
  0.00000000E+00  0.00000000E+00  0.00000000E+00
  0.00000000E+00  0.00000000E+00  0.00000000E+00
  0.00000000E+00  0.00000000E+00  0.00000000E+00
  0.00000000E+00  0.00000000E+00  0.00000000E+00
  0.00000000E+00  0.00000000E+00  0.00000000E+00
  0.00000000E+00  0.00000000E+00  0.00000000E+00
  0.00000000E+00  0.00000000E+00  0.00000000E+00
  0.00000000E+00  0.00000000E+00  0.00000000E+00
  0.00000000E+00  0.00000000E+00  0.00000000E+00
  0.00000000E+00  0.00000000E+00  0.00000000E+00
  0.00000000E+00  0.00000000E+00  0.00000000E+00
  0.00000000E+00  0.00000000E+00  0.00000000E+00
  0.00000000E+00  0.00000000E+00  0.00000000E+00
  0.00000000E+00  0.00000000E+00  0.00000000E+00
  0.00000000E+00  0.00000000E+00  0.00000000E+00
  0.00000000E+00  0.00000000E+00  0.00000000E+00
