Title                                   
   1.00000000000000     
     9.8694509999999998    0.0000000000000000    0.0000000000000000
     0.0000000000000000    8.5490480000000009    0.0000000000000000
     0.0000000000000000    0.0000000000000000   20.0000000000000000
    26     5     1
Selective dynamics
Direct
  0.0565799707352974  0.0925110140666486  0.0870721538830372   T   T   T
  0.9306606268502240  0.1746593873493945  0.0892564110027237   T   T   T
  0.0566011577080908  0.9242242164404665  0.0869310113863028   T   T   T
  0.9295752639261304  0.3416099357788531  0.0931198089410094   T   T   T
  0.0558108015074555  0.5897452619831690  0.0897441682390117   T   T   T
  0.9317199800250947  0.6733021938654679  0.0917402786405341   T   T   T
  0.0570317210607098  0.4233201145359142  0.0913967664839829   T   T   T
  0.9317111655070295  0.8409114209648899  0.0889213886668011   T   T   T
  0.3059194547558593  0.0890984606846967  0.0865282736431042   T   T   T
  0.1826810069974552  0.1754391138651473  0.0877184626932551   T   T   T
  0.3067738234726624  0.9233462983272358  0.0878533488700608   T   T   T
  0.1831007928284308  0.3416189579344876  0.0907089228375621   T   T   T
  0.3069793638715210  0.5924949311137178  0.0937410382876646   T   T   T
  0.1811010923383216  0.6717839544903345  0.0889356374649990   T   T   T
  0.1815164717321005  0.8392287212706959  0.0877379268503050   T   T   T
  0.5554575687375671  0.0843826583342513  0.0938398362143765   T   T   T
  0.4313698641208820  0.1697789486463454  0.0902860220937219   T   T   T
  0.4334500318520430  0.3353530043256426  0.0961457889826096   T   T   T
  0.4283599516454108  0.8361184454091980  0.0937287413629510   T   T   T
  0.8065934677181080  0.0901205349632847  0.0885628173089588   T   T   T
  0.6800935443843764  0.1689376215335646  0.0940363530854971   T   T   T
  0.8058983700748198  0.9238311110403694  0.0883993626770787   T   T   T
  0.6776198381864126  0.3339921569120333  0.1022361151850714   T   T   T
  0.8068797977879371  0.5936770249652439  0.1009666498099346   T   T   T
  0.8016321812363195  0.4249262543350939  0.1000333213311765   T   T   T
  0.6836713027827613  0.8386246454776579  0.0954582358962671   T   T   T
  0.4246973046615033  0.6765586284281231  0.1011937127368173   T   T   T
  0.5525946016292992  0.4064470986225383  0.1157061342668974   T   T   T
  0.6907146785289565  0.6832620631782762  0.1139120982323890   T   T   T
  0.5555521922524180  0.9162442474214695  0.0950500009356125   T   T   T
  0.3106444864458173  0.4249420569607754  0.0940236938216032   T   T   T
  0.5566471246389912  0.5897555167750138  0.1806905181686998   T   T   T
 
  0.00000000E+00  0.00000000E+00  0.00000000E+00
  0.00000000E+00  0.00000000E+00  0.00000000E+00
  0.00000000E+00  0.00000000E+00  0.00000000E+00
  0.00000000E+00  0.00000000E+00  0.00000000E+00
  0.00000000E+00  0.00000000E+00  0.00000000E+00
  0.00000000E+00  0.00000000E+00  0.00000000E+00
  0.00000000E+00  0.00000000E+00  0.00000000E+00
  0.00000000E+00  0.00000000E+00  0.00000000E+00
  0.00000000E+00  0.00000000E+00  0.00000000E+00
  0.00000000E+00  0.00000000E+00  0.00000000E+00
  0.00000000E+00  0.00000000E+00  0.00000000E+00
  0.00000000E+00  0.00000000E+00  0.00000000E+00
  0.00000000E+00  0.00000000E+00  0.00000000E+00
  0.00000000E+00  0.00000000E+00  0.00000000E+00
  0.00000000E+00  0.00000000E+00  0.00000000E+00
  0.00000000E+00  0.00000000E+00  0.00000000E+00
  0.00000000E+00  0.00000000E+00  0.00000000E+00
  0.00000000E+00  0.00000000E+00  0.00000000E+00
  0.00000000E+00  0.00000000E+00  0.00000000E+00
  0.00000000E+00  0.00000000E+00  0.00000000E+00
  0.00000000E+00  0.00000000E+00  0.00000000E+00
  0.00000000E+00  0.00000000E+00  0.00000000E+00
  0.00000000E+00  0.00000000E+00  0.00000000E+00
  0.00000000E+00  0.00000000E+00  0.00000000E+00
  0.00000000E+00  0.00000000E+00  0.00000000E+00
  0.00000000E+00  0.00000000E+00  0.00000000E+00
  0.00000000E+00  0.00000000E+00  0.00000000E+00
  0.00000000E+00  0.00000000E+00  0.00000000E+00
  0.00000000E+00  0.00000000E+00  0.00000000E+00
  0.00000000E+00  0.00000000E+00  0.00000000E+00
  0.00000000E+00  0.00000000E+00  0.00000000E+00
  0.00000000E+00  0.00000000E+00  0.00000000E+00
