Title                                   
   1.00000000000000     
     9.8694509999999998    0.0000000000000000    0.0000000000000000
     0.0000000000000000    8.5490480000000009    0.0000000000000000
     0.0000000000000000    0.0000000000000000   20.0000000000000000
    27     4     1
Selective dynamics
Direct
  0.0560291542347326  0.0917441786376662  0.0853416129357914   T   T   T
  0.9305080302608845  0.1754179464087445  0.0881088765264436   T   T   T
  0.0570404010854871  0.9239014965249454  0.0845477186171245   T   T   T
  0.9287109785523773  0.3421766696814753  0.0915347899615422   T   T   T
  0.0556966710980647  0.5897173686181107  0.0877880018002972   T   T   T
  0.9320001984598112  0.6736578461654626  0.0888332299869452   T   T   T
  0.0564237249090585  0.4232278477411066  0.0905279065591994   T   T   T
  0.9319807582396650  0.8413575760615256  0.0865565725282013   T   T   T
  0.3051768711346933  0.0881288786859951  0.0864769855801318   T   T   T
  0.1819711248905844  0.1742618341993669  0.0869599739590209   T   T   T
  0.3072328476989040  0.9224347606786155  0.0880227366653184   T   T   T
  0.1817438705006184  0.3398536601877322  0.0912615654358683   T   T   T
  0.3057565215382729  0.5897355817999993  0.0996194570420041   T   T   T
  0.1815328919696682  0.6706272358791304  0.0887521329079188   T   T   T
  0.1824219838893063  0.8382987379261938  0.0865009061433363   T   T   T
  0.5558619557314020  0.0858085443420621  0.0954731664284899   T   T   T
  0.4302543684750304  0.1683445443847457  0.0920985050011664   T   T   T
  0.4311160508339291  0.3334430212108132  0.0992158133116293   T   T   T
  0.4293367417385428  0.8376307031243579  0.0996257049283841   T   T   T
  0.8066673453426351  0.0909333080074431  0.0885726061241504   T   T   T
  0.6801179281271221  0.1701590421698388  0.0941164549772132   T   T   T
  0.8070712641073787  0.9257811892405194  0.0882536719277312   T   T   T
  0.6767136301418230  0.3349347156916164  0.1003944730290513   T   T   T
  0.8066665222549484  0.5953493220618985  0.0978159802370747   T   T   T
  0.8005735600289157  0.4262836720017115  0.0973541528501279   T   T   T
  0.6840937455828745  0.8417019345648218  0.0972842562059964   T   T   T
  0.4227336469944963  0.6777891077736661  0.1160264831761456   T   T   T
  0.5510464260541157  0.4058385199242743  0.1127649212788929   T   T   T
  0.6911803453339607  0.6855034677768878  0.1097663071863314   T   T   T
  0.5574725677426767  0.9197262736259989  0.0983680504108455   T   T   T
  0.3085424230373843  0.4215020686756942  0.0974060921924371   T   T   T
  0.5659644500106432  0.5849749462275818  0.1703058940852055   T   T   T
 
  0.00000000E+00  0.00000000E+00  0.00000000E+00
  0.00000000E+00  0.00000000E+00  0.00000000E+00
  0.00000000E+00  0.00000000E+00  0.00000000E+00
  0.00000000E+00  0.00000000E+00  0.00000000E+00
  0.00000000E+00  0.00000000E+00  0.00000000E+00
  0.00000000E+00  0.00000000E+00  0.00000000E+00
  0.00000000E+00  0.00000000E+00  0.00000000E+00
  0.00000000E+00  0.00000000E+00  0.00000000E+00
  0.00000000E+00  0.00000000E+00  0.00000000E+00
  0.00000000E+00  0.00000000E+00  0.00000000E+00
  0.00000000E+00  0.00000000E+00  0.00000000E+00
  0.00000000E+00  0.00000000E+00  0.00000000E+00
  0.00000000E+00  0.00000000E+00  0.00000000E+00
  0.00000000E+00  0.00000000E+00  0.00000000E+00
  0.00000000E+00  0.00000000E+00  0.00000000E+00
  0.00000000E+00  0.00000000E+00  0.00000000E+00
  0.00000000E+00  0.00000000E+00  0.00000000E+00
  0.00000000E+00  0.00000000E+00  0.00000000E+00
  0.00000000E+00  0.00000000E+00  0.00000000E+00
  0.00000000E+00  0.00000000E+00  0.00000000E+00
  0.00000000E+00  0.00000000E+00  0.00000000E+00
  0.00000000E+00  0.00000000E+00  0.00000000E+00
  0.00000000E+00  0.00000000E+00  0.00000000E+00
  0.00000000E+00  0.00000000E+00  0.00000000E+00
  0.00000000E+00  0.00000000E+00  0.00000000E+00
  0.00000000E+00  0.00000000E+00  0.00000000E+00
  0.00000000E+00  0.00000000E+00  0.00000000E+00
  0.00000000E+00  0.00000000E+00  0.00000000E+00
  0.00000000E+00  0.00000000E+00  0.00000000E+00
  0.00000000E+00  0.00000000E+00  0.00000000E+00
  0.00000000E+00  0.00000000E+00  0.00000000E+00
  0.00000000E+00  0.00000000E+00  0.00000000E+00
