Title                                   
   1.00000000000000     
     8.5490480000000009    0.0000000000000000    0.0000000000000000
     0.0000000000000000    8.5490480000000009    0.0000000000000000
     0.0000000000000000    0.0000000000000000   20.0000000000000000
    18     6     1
Selective dynamics
Direct
  0.9084226018505717  0.2055601530995321  0.0950927171743842   T   T   T
  0.9104643306919047  0.8005805547358001  0.0941861691492248   T   T   T
  0.1978213414984392  0.0838755408242405  0.0943035090174175   T   T   T
  0.0771766886322329  0.2015971913263144  0.0943638012920798   T   T   T
  0.1547148516071276  0.6522651450191977  0.0978694763195276   T   T   T
  0.0756401723766089  0.5011323450691434  0.0968874445354947   T   T   T
  0.1562134141040442  0.3532413023965879  0.0959894689565430   T   T   T
  0.0785816213816265  0.7996719182653895  0.0949635139681624   T   T   T
  0.3475999485305270  0.1648385059874004  0.0959587362066751   T   T   T
  0.4925509097818892  0.9160244752989066  0.0970047812494932   T   T   T
  0.3429038008119933  0.8382911796650554  0.0983460686879878   T   T   T
  0.7879459490241619  0.0863382027242673  0.0950936348895059   T   T   T
  0.6414772820032949  0.1654233930957544  0.0975476317555946   T   T   T
  0.7896616934236107  0.9180250904931209  0.0943412971792643   T   T   T
  0.8297101403422139  0.6515794846040035  0.0959089290243128   T   T   T
  0.8274814621571177  0.3523456291526073  0.0974794005478771   T   T   T
  0.6431424924029352  0.8369743452576295  0.0960345200084631   T   T   T
  0.3249272310675727  0.3301489417717009  0.0982941104673590   T   T   T
  0.4946620555903592  0.0861356836837093  0.0967150410146209   T   T   T
  0.9046610608781900  0.5022536536569235  0.0967900165299631   T   T   T
  0.3174559606221549  0.6778942585515800  0.1025585862255284   T   T   T
  0.6644269578025982  0.3282191798579229  0.1014933067216768   T   T   T
  0.6694920949357108  0.6742407661035463  0.0976726160686315   T   T   T
  0.1965245666596520  0.9164679044470453  0.0952296505021631   T   T   T
  0.4917533718234555  0.5016651549126419  0.1235805725080221   T   T   T
 
  0.00000000E+00  0.00000000E+00  0.00000000E+00
  0.00000000E+00  0.00000000E+00  0.00000000E+00
  0.00000000E+00  0.00000000E+00  0.00000000E+00
  0.00000000E+00  0.00000000E+00  0.00000000E+00
  0.00000000E+00  0.00000000E+00  0.00000000E+00
  0.00000000E+00  0.00000000E+00  0.00000000E+00
  0.00000000E+00  0.00000000E+00  0.00000000E+00
  0.00000000E+00  0.00000000E+00  0.00000000E+00
  0.00000000E+00  0.00000000E+00  0.00000000E+00
  0.00000000E+00  0.00000000E+00  0.00000000E+00
  0.00000000E+00  0.00000000E+00  0.00000000E+00
  0.00000000E+00  0.00000000E+00  0.00000000E+00
  0.00000000E+00  0.00000000E+00  0.00000000E+00
  0.00000000E+00  0.00000000E+00  0.00000000E+00
  0.00000000E+00  0.00000000E+00  0.00000000E+00
  0.00000000E+00  0.00000000E+00  0.00000000E+00
  0.00000000E+00  0.00000000E+00  0.00000000E+00
  0.00000000E+00  0.00000000E+00  0.00000000E+00
  0.00000000E+00  0.00000000E+00  0.00000000E+00
  0.00000000E+00  0.00000000E+00  0.00000000E+00
  0.00000000E+00  0.00000000E+00  0.00000000E+00
  0.00000000E+00  0.00000000E+00  0.00000000E+00
  0.00000000E+00  0.00000000E+00  0.00000000E+00
  0.00000000E+00  0.00000000E+00  0.00000000E+00
  0.00000000E+00  0.00000000E+00  0.00000000E+00
