Title                                   
   1.00000000000000     
     9.8694509999999998    0.0000000000000000    0.0000000000000000
     0.0000000000000000    8.5490480000000009    0.0000000000000000
     0.0000000000000000    0.0000000000000000   20.0000000000000000
    30     1     1
Selective dynamics
Direct
  0.0567502633350927  0.0895113672838030  0.0888150981801972   T   T   T
  0.9308011327827176  0.1663193736444669  0.0889403646740954   T   T   T
  0.0514932368343424  0.9236894901019344  0.0887512337979900   T   T   T
  0.9366171148543651  0.3340072330707946  0.0890537677770249   T   T   T
  0.0543603920235760  0.5895860581233655  0.0889292141946463   T   T   T
  0.9278730769855961  0.6693932616890725  0.0888257547164809   T   T   T
  0.0603660024655832  0.4232485957801912  0.0890363202433539   T   T   T
  0.9261729635138410  0.8357743167755021  0.0887511820939056   T   T   T
  0.3087326874108320  0.0998768093084893  0.0889560075523013   T   T   T
  0.1832222043714097  0.1780943151793611  0.0888841095891854   T   T   T
  0.3015229599986284  0.9315035087510868  0.0890828673455225   T   T   T
  0.1880302302821981  0.3455836913177903  0.0891130631372947   T   T   T
  0.3042520374568549  0.6021333561207229  0.0896425694974300   T   T   T
  0.1768758404179445  0.6781862665618654  0.0891181671952524   T   T   T
  0.3130782785821277  0.4330092312284597  0.0893830093067759   T   T   T
  0.1771339742704752  0.8447256713505746  0.0889555980839716   T   T   T
  0.5563582803344711  0.0874028313644634  0.0890436741768501   T   T   T
  0.4373097686621822  0.1847636395956687  0.0890240129412836   T   T   T
  0.5511749400639421  0.9166254554361440  0.0892580193405696   T   T   T
  0.4450326578761543  0.3605993976080801  0.0890806470321311   T   T   T
  0.5789120874681979  0.4455645831996612  0.0889968559118055   T   T   T
  0.4208096284227749  0.8408075158904080  0.0896488430509180   T   T   T
  0.8035443891337810  0.0806322950503953  0.0888603532629129   T   T   T
  0.6818130521852724  0.1698304850635090  0.0889526505785141   T   T   T
  0.7973469263146910  0.9094571995051962  0.0888233427825652   T   T   T
  0.6876448612730731  0.3382349504413111  0.0889607050778611   T   T   T
  0.8055392786295975  0.5801424858267756  0.0889247400698688   T   T   T
  0.6710236885869449  0.6365240744918734  0.0889383093968868   T   T   T
  0.8151355220077774  0.4146668378144140  0.0889730258663605   T   T   T
  0.6687173051524242  0.8159560455613981  0.0889722407816633   T   T   T
  0.4192857889192879  0.6844652121021347  0.0902608788819627   T   T   T
  0.5627084293838489  0.5799304447610951  0.3047183734624537   T   T   T
 
  0.00000000E+00  0.00000000E+00  0.00000000E+00
  0.00000000E+00  0.00000000E+00  0.00000000E+00
  0.00000000E+00  0.00000000E+00  0.00000000E+00
  0.00000000E+00  0.00000000E+00  0.00000000E+00
  0.00000000E+00  0.00000000E+00  0.00000000E+00
  0.00000000E+00  0.00000000E+00  0.00000000E+00
  0.00000000E+00  0.00000000E+00  0.00000000E+00
  0.00000000E+00  0.00000000E+00  0.00000000E+00
  0.00000000E+00  0.00000000E+00  0.00000000E+00
  0.00000000E+00  0.00000000E+00  0.00000000E+00
  0.00000000E+00  0.00000000E+00  0.00000000E+00
  0.00000000E+00  0.00000000E+00  0.00000000E+00
  0.00000000E+00  0.00000000E+00  0.00000000E+00
  0.00000000E+00  0.00000000E+00  0.00000000E+00
  0.00000000E+00  0.00000000E+00  0.00000000E+00
  0.00000000E+00  0.00000000E+00  0.00000000E+00
  0.00000000E+00  0.00000000E+00  0.00000000E+00
  0.00000000E+00  0.00000000E+00  0.00000000E+00
  0.00000000E+00  0.00000000E+00  0.00000000E+00
  0.00000000E+00  0.00000000E+00  0.00000000E+00
  0.00000000E+00  0.00000000E+00  0.00000000E+00
  0.00000000E+00  0.00000000E+00  0.00000000E+00
  0.00000000E+00  0.00000000E+00  0.00000000E+00
  0.00000000E+00  0.00000000E+00  0.00000000E+00
  0.00000000E+00  0.00000000E+00  0.00000000E+00
  0.00000000E+00  0.00000000E+00  0.00000000E+00
  0.00000000E+00  0.00000000E+00  0.00000000E+00
  0.00000000E+00  0.00000000E+00  0.00000000E+00
  0.00000000E+00  0.00000000E+00  0.00000000E+00
  0.00000000E+00  0.00000000E+00  0.00000000E+00
  0.00000000E+00  0.00000000E+00  0.00000000E+00
  0.00000000E+00  0.00000000E+00  0.00000000E+00
