Title                                   
   1.00000000000000     
     8.5490480000000009    0.0000000000000000    0.0000000000000000
     0.0000000000000000    8.5490480000000009    0.0000000000000000
     0.0000000000000000    0.0000000000000000   20.0000000000000000
    20     4     1
Selective dynamics
Direct
  0.9073981864806301  0.2078731203671641  0.0975721031123021   T   T   T
  0.9133583800510239  0.8015395491618891  0.0976622969081922   T   T   T
  0.1953108338414714  0.0823540347360043  0.0977445376477660   T   T   T
  0.0738713097339789  0.2007580601045562  0.0976866033951836   T   T   T
  0.1594904102341773  0.6467726911422732  0.0977097799041856   T   T   T
  0.0765962722755547  0.5010324079692638  0.0978044464893604   T   T   T
  0.1563644431609876  0.3513661143458210  0.0979142937942844   T   T   T
  0.0804880655794507  0.7982306962691731  0.0977012172167844   T   T   T
  0.4926971086947990  0.0872265399402652  0.0977655809501898   T   T   T
  0.3415786335754070  0.1654875802725923  0.0979448387278475   T   T   T
  0.4941097334566319  0.9158542997099178  0.0976703330736815   T   T   T
  0.3479287663564665  0.8320980369517227  0.0976967395953343   T   T   T
  0.7865157797098412  0.0879352743455573  0.0976231994325447   T   T   T
  0.6367133652091295  0.1701602646819141  0.0977360690586729   T   T   T
  0.7902662870706955  0.9205442743890704  0.0976426060871597   T   T   T
  0.8307027525404819  0.6515011456125712  0.0977293599756522   T   T   T
  0.8254012425317505  0.3596848374897561  0.0976591259105950   T   T   T
  0.6428172639516994  0.8354323271149362  0.0976857913742402   T   T   T
  0.3254707444225022  0.6684211822878298  0.0976618402509582   T   T   T
  0.6609114327255765  0.3392131273414666  0.0978224020621564   T   T   T
  0.9086452428674578  0.5045505943104476  0.0977608578429092   T   T   T
  0.3170564776228839  0.3279139147264355  0.0982268479686509   T   T   T
  0.6700935067435364  0.6721385861929022  0.0977963119847172   T   T   T
  0.1981341860850572  0.9143056393144664  0.0977422055918115   T   T   T
  0.4934915750787950  0.5023957012220176  0.0977456116448000   T   T   T
 
  0.00000000E+00  0.00000000E+00  0.00000000E+00
  0.00000000E+00  0.00000000E+00  0.00000000E+00
  0.00000000E+00  0.00000000E+00  0.00000000E+00
  0.00000000E+00  0.00000000E+00  0.00000000E+00
  0.00000000E+00  0.00000000E+00  0.00000000E+00
  0.00000000E+00  0.00000000E+00  0.00000000E+00
  0.00000000E+00  0.00000000E+00  0.00000000E+00
  0.00000000E+00  0.00000000E+00  0.00000000E+00
  0.00000000E+00  0.00000000E+00  0.00000000E+00
  0.00000000E+00  0.00000000E+00  0.00000000E+00
  0.00000000E+00  0.00000000E+00  0.00000000E+00
  0.00000000E+00  0.00000000E+00  0.00000000E+00
  0.00000000E+00  0.00000000E+00  0.00000000E+00
  0.00000000E+00  0.00000000E+00  0.00000000E+00
  0.00000000E+00  0.00000000E+00  0.00000000E+00
  0.00000000E+00  0.00000000E+00  0.00000000E+00
  0.00000000E+00  0.00000000E+00  0.00000000E+00
  0.00000000E+00  0.00000000E+00  0.00000000E+00
  0.00000000E+00  0.00000000E+00  0.00000000E+00
  0.00000000E+00  0.00000000E+00  0.00000000E+00
  0.00000000E+00  0.00000000E+00  0.00000000E+00
  0.00000000E+00  0.00000000E+00  0.00000000E+00
  0.00000000E+00  0.00000000E+00  0.00000000E+00
  0.00000000E+00  0.00000000E+00  0.00000000E+00
  0.00000000E+00  0.00000000E+00  0.00000000E+00
