Title                                   
   1.00000000000000     
     9.8694509999999998    0.0000000000000000    0.0000000000000000
     0.0000000000000000    8.5490480000000009    0.0000000000000000
     0.0000000000000000    0.0000000000000000   20.0000000000000000
    26     4     1
Selective dynamics
Direct
  0.0559802374137058  0.0905196644886840  0.0909919052534621   T   T   T
  0.9313626230518393  0.1730956402418352  0.0948076325864837   T   T   T
  0.0579692241446474  0.9234864836484511  0.0911282113012304   T   T   T
  0.9330593111626057  0.3406988835377304  0.0957202524420002   T   T   T
  0.0576212871098270  0.5902018130877595  0.0911827126089205   T   T   T
  0.9338457875862699  0.6743028402697269  0.0958573004759926   T   T   T
  0.0573301297222081  0.4229039312032297  0.0910170192556087   T   T   T
  0.9331535079590714  0.8407592470876336  0.0950535800786883   T   T   T
  0.3070163043670689  0.0878050594563681  0.0894865125373859   T   T   T
  0.1812697955918124  0.1716567840936432  0.0890346265760019   T   T   T
  0.1807097702403012  0.3383693683753024  0.0888664990791684   T   T   T
  0.3057803041814192  0.5891320645408922  0.0868810835486896   T   T   T
  0.1813269417875198  0.6737067788160243  0.0885171949758419   T   T   T
  0.3058028436486920  0.4212719367369377  0.0885208128072976   T   T   T
  0.1819122216180735  0.8393858707752193  0.0888575609033780   T   T   T
  0.5559861054019174  0.0896549027472851  0.0998061145630641   T   T   T
  0.4297462197663419  0.1720995654563238  0.0938343174879470   T   T   T
  0.5554027345389970  0.9186861634949536  0.0991050638023515   T   T   T
  0.4293332356321617  0.8362478925011962  0.0922003945354515   T   T   T
  0.8053519465199835  0.0899186083705912  0.0982739175305321   T   T   T
  0.6810666662556158  0.1763511219055097  0.1037985556791165   T   T   T
  0.8064067797333275  0.9226719788638807  0.0983005373242831   T   T   T
  0.6856203106991703  0.3427704240079062  0.1113466411942464   T   T   T
  0.8112001781147652  0.5930094664256967  0.1035845494541824   T   T   T
  0.8095023758950861  0.4240461408599451  0.1039863824016312   T   T   T
  0.6830534663015545  0.8342855462547236  0.1030358281534964   T   T   T
  0.4258009975583797  0.3357963702980559  0.0943870746244454   T   T   T
  0.6897552644387308  0.6725148801365133  0.1104951487434919   T   T   T
  0.4259525932262792  0.6763347210737398  0.0892812385030545   T   T   T
  0.3076271916352464  0.9221649834661136  0.0889585917873017   T   T   T
  0.5371886446973925  0.5070258677781406  0.1446477397852912   T   T   T
 
  0.00000000E+00  0.00000000E+00  0.00000000E+00
  0.00000000E+00  0.00000000E+00  0.00000000E+00
  0.00000000E+00  0.00000000E+00  0.00000000E+00
  0.00000000E+00  0.00000000E+00  0.00000000E+00
  0.00000000E+00  0.00000000E+00  0.00000000E+00
  0.00000000E+00  0.00000000E+00  0.00000000E+00
  0.00000000E+00  0.00000000E+00  0.00000000E+00
  0.00000000E+00  0.00000000E+00  0.00000000E+00
  0.00000000E+00  0.00000000E+00  0.00000000E+00
  0.00000000E+00  0.00000000E+00  0.00000000E+00
  0.00000000E+00  0.00000000E+00  0.00000000E+00
  0.00000000E+00  0.00000000E+00  0.00000000E+00
  0.00000000E+00  0.00000000E+00  0.00000000E+00
  0.00000000E+00  0.00000000E+00  0.00000000E+00
  0.00000000E+00  0.00000000E+00  0.00000000E+00
  0.00000000E+00  0.00000000E+00  0.00000000E+00
  0.00000000E+00  0.00000000E+00  0.00000000E+00
  0.00000000E+00  0.00000000E+00  0.00000000E+00
  0.00000000E+00  0.00000000E+00  0.00000000E+00
  0.00000000E+00  0.00000000E+00  0.00000000E+00
  0.00000000E+00  0.00000000E+00  0.00000000E+00
  0.00000000E+00  0.00000000E+00  0.00000000E+00
  0.00000000E+00  0.00000000E+00  0.00000000E+00
  0.00000000E+00  0.00000000E+00  0.00000000E+00
  0.00000000E+00  0.00000000E+00  0.00000000E+00
  0.00000000E+00  0.00000000E+00  0.00000000E+00
  0.00000000E+00  0.00000000E+00  0.00000000E+00
  0.00000000E+00  0.00000000E+00  0.00000000E+00
  0.00000000E+00  0.00000000E+00  0.00000000E+00
  0.00000000E+00  0.00000000E+00  0.00000000E+00
  0.00000000E+00  0.00000000E+00  0.00000000E+00
