Title                                   
   1.00000000000000     
     9.8694509999999998    0.0000000000000000    0.0000000000000000
     0.0000000000000000    8.5490480000000009    0.0000000000000000
     0.0000000000000000    0.0000000000000000   20.0000000000000000
    26     4     1
Selective dynamics
Direct
  0.0554756283862440  0.0895045858254172  0.0857307667472464   T   T   T
  0.9304810680149608  0.1720785220278118  0.0882522828166228   T   T   T
  0.0571514371233305  0.9233994553047087  0.0860497564602346   T   T   T
  0.9334043515586469  0.3392920106548326  0.0885970600300859   T   T   T
  0.0578088670774680  0.5897219136074860  0.0837121721431848   T   T   T
  0.9337868735426094  0.6732421006784447  0.0889415773612772   T   T   T
  0.0576589209356181  0.4229625435015264  0.0834984991988449   T   T   T
  0.9315020419909489  0.8400685408026013  0.0887189552875406   T   T   T
  0.3061178087057796  0.0875477182301669  0.0906594863646201   T   T   T
  0.1816934104330301  0.1713693813399916  0.0860469967373135   T   T   T
  0.1815782521663512  0.3392435153399167  0.0844084161362757   T   T   T
  0.3056539740530589  0.5906994462519748  0.0904609446858730   T   T   T
  0.1821113602561388  0.6729952532644622  0.0846406972961516   T   T   T
  0.3053319209242283  0.4204762801872887  0.0900603389052008   T   T   T
  0.1816888321093965  0.8403690768104880  0.0866698235174931   T   T   T
  0.4293419696307231  0.1754630665197917  0.0975528591732075   T   T   T
  0.5526373714993836  0.9219740027350094  0.1021896879572028   T   T   T
  0.4286626921893230  0.8373768890542066  0.0986560198058060   T   T   T
  0.8041618304381937  0.0893771377826546  0.0931007905295621   T   T   T
  0.6810643419482743  0.1768478771844655  0.1014561272069065   T   T   T
  0.8056539750093469  0.9221930777495727  0.0936771252389630   T   T   T
  0.6873079420413413  0.3404034708431675  0.1102947114761077   T   T   T
  0.8121670420702275  0.5911068313314000  0.0997904831202242   T   T   T
  0.6884403318186046  0.6719032171489430  0.1114525314725922   T   T   T
  0.8121143117258005  0.4209833675632940  0.0994302706818726   T   T   T
  0.6813441420839310  0.8369372342647423  0.1029731717804549   T   T   T
  0.5535153158081865  0.0928204805667354  0.1015000050161079   T   T   T
  0.4239273690034505  0.3348894427147161  0.1004503586640643   T   T   T
  0.4227330064523321  0.6759040440198173  0.1020685804521282   T   T   T
  0.3054352816928059  0.9229280548534967  0.0909840794247672   T   T   T
  0.5531833293102822  0.5067964618408745  0.1289404243121161   T   T   T
 
  0.00000000E+00  0.00000000E+00  0.00000000E+00
  0.00000000E+00  0.00000000E+00  0.00000000E+00
  0.00000000E+00  0.00000000E+00  0.00000000E+00
  0.00000000E+00  0.00000000E+00  0.00000000E+00
  0.00000000E+00  0.00000000E+00  0.00000000E+00
  0.00000000E+00  0.00000000E+00  0.00000000E+00
  0.00000000E+00  0.00000000E+00  0.00000000E+00
  0.00000000E+00  0.00000000E+00  0.00000000E+00
  0.00000000E+00  0.00000000E+00  0.00000000E+00
  0.00000000E+00  0.00000000E+00  0.00000000E+00
  0.00000000E+00  0.00000000E+00  0.00000000E+00
  0.00000000E+00  0.00000000E+00  0.00000000E+00
  0.00000000E+00  0.00000000E+00  0.00000000E+00
  0.00000000E+00  0.00000000E+00  0.00000000E+00
  0.00000000E+00  0.00000000E+00  0.00000000E+00
  0.00000000E+00  0.00000000E+00  0.00000000E+00
  0.00000000E+00  0.00000000E+00  0.00000000E+00
  0.00000000E+00  0.00000000E+00  0.00000000E+00
  0.00000000E+00  0.00000000E+00  0.00000000E+00
  0.00000000E+00  0.00000000E+00  0.00000000E+00
  0.00000000E+00  0.00000000E+00  0.00000000E+00
  0.00000000E+00  0.00000000E+00  0.00000000E+00
  0.00000000E+00  0.00000000E+00  0.00000000E+00
  0.00000000E+00  0.00000000E+00  0.00000000E+00
  0.00000000E+00  0.00000000E+00  0.00000000E+00
  0.00000000E+00  0.00000000E+00  0.00000000E+00
  0.00000000E+00  0.00000000E+00  0.00000000E+00
  0.00000000E+00  0.00000000E+00  0.00000000E+00
  0.00000000E+00  0.00000000E+00  0.00000000E+00
  0.00000000E+00  0.00000000E+00  0.00000000E+00
  0.00000000E+00  0.00000000E+00  0.00000000E+00
