Title                                   
   1.00000000000000     
     4.9440799999999996    0.0000000000000000    0.0000000000000000
     0.0000000000000000    8.5647549999999999    0.0000000000000000
     0.0000000000000000    0.0000000000000000   20.0000000000000000
    13     1     1
Selective dynamics
Direct
  0.0016302264465491  0.2935339585681910  0.0978150834963920   T   T   T
  0.2500000000000000  0.0435729721757630  0.0980903305763694   T   T   T
  0.0009601958617294  0.9573045194188451  0.0987025292796511   T   T   T
  0.7500000000000000  0.2080945575163912  0.0969712555071384   T   T   T
  0.4983697735534509  0.2935339585681910  0.0978150834963920   T   T   T
  0.7500000000000000  0.0407877993850210  0.0975491242101412   T   T   T
  0.7500000000000000  0.7098532559835280  0.1006755914437081   T   T   T
  0.7500000000000000  0.5376197959274187  0.1001493063201353   T   T   T
  0.4990398041382706  0.9573045194188451  0.0987025292796511   T   T   T
  0.4985778178267003  0.4584197122329311  0.1003524411890079   T   T   T
  0.0014221821732996  0.4584197122329311  0.1003524411890079   T   T   T
 -0.0001802204127997  0.7903309437282449  0.1017175938155236   T   T   T
  0.5001802204127995  0.7903309437282449  0.1017175938155236   T   T   T
  0.2500000000000000  0.2073652467400374  0.0974824853005093   T   T   T
  0.2500000000000000  0.6252091043754179  0.1198866110808525   T   T   T
 
  0.00000000E+00  0.00000000E+00  0.00000000E+00
  0.00000000E+00  0.00000000E+00  0.00000000E+00
  0.00000000E+00  0.00000000E+00  0.00000000E+00
  0.00000000E+00  0.00000000E+00  0.00000000E+00
  0.00000000E+00  0.00000000E+00  0.00000000E+00
  0.00000000E+00  0.00000000E+00  0.00000000E+00
  0.00000000E+00  0.00000000E+00  0.00000000E+00
  0.00000000E+00  0.00000000E+00  0.00000000E+00
  0.00000000E+00  0.00000000E+00  0.00000000E+00
  0.00000000E+00  0.00000000E+00  0.00000000E+00
  0.00000000E+00  0.00000000E+00  0.00000000E+00
  0.00000000E+00  0.00000000E+00  0.00000000E+00
  0.00000000E+00  0.00000000E+00  0.00000000E+00
  0.00000000E+00  0.00000000E+00  0.00000000E+00
  0.00000000E+00  0.00000000E+00  0.00000000E+00
