Title                                   
   1.00000000000000     
     9.8694509999999998    0.0000000000000000    0.0000000000000000
     0.0000000000000000    8.5490480000000009    0.0000000000000000
     0.0000000000000000    0.0000000000000000   20.0000000000000000
    26     5     1
Selective dynamics
Direct
  0.0559005934285441  0.0923105638059313  0.0849932870412504   T   T   T
  0.9297911837606806  0.1755420695861996  0.0873340818133860   T   T   T
  0.0567661655254675  0.9238673912913132  0.0834941653834922   T   T   T
  0.9291154477093889  0.3418138394364389  0.0915470071566185   T   T   T
  0.0558409060491299  0.5902607691783116  0.0857394743633758   T   T   T
  0.9312670655500613  0.6725065523461063  0.0860511565331783   T   T   T
  0.0553635580198186  0.4233288906216663  0.0903634244503219   T   T   T
  0.9315055796199737  0.8403170259918723  0.0850463686285594   T   T   T
  0.3054880000079369  0.0886887198068454  0.0872705106463904   T   T   T
  0.1819970817838463  0.1742128317522494  0.0875437435796050   T   T   T
  0.3075833346952783  0.9229213674944033  0.0877401506683964   T   T   T
  0.1822249663575111  0.3401960492132866  0.0920099563449636   T   T   T
  0.3052007121015413  0.5901391012029090  0.0988654997229735   T   T   T
  0.1811491582994270  0.6709924703318422  0.0872690717900581   T   T   T
  0.1820505612282443  0.8391410813589876  0.0852486401166290   T   T   T
  0.5568162659499966  0.0851280964422782  0.0956903980360077   T   T   T
  0.4310122725121439  0.1690606827467228  0.0933614927284809   T   T   T
  0.4326908052464305  0.3334760726761496  0.1008846904293302   T   T   T
  0.4298029957903118  0.8389842119167910  0.0990572455253322   T   T   T
  0.8066877232970630  0.0900160455081884  0.0867245105194029   T   T   T
  0.6807974229279000  0.1709041441798438  0.0924341717541422   T   T   T
  0.8064075148029687  0.9245993241178805  0.0874241027043034   T   T   T
  0.6771278925227747  0.3352216135255183  0.0992063865297623   T   T   T
  0.8059043942709722  0.5943224701851050  0.0957901135624752   T   T   T
  0.6849720281697949  0.8398358020443031  0.0979517896784444   T   T   T
  0.4208664553147843  0.6788406175702056  0.1182635131834408   T   T   T
  0.5549029440464246  0.4046413153641725  0.1173494324519902   T   T   T
  0.6945371848062440  0.6824509752233200  0.1141108346618644   T   T   T
  0.5577271829530585  0.9193883515346551  0.0990823078503883   T   T   T
  0.3080311390159849  0.4216558916736880  0.0984926221789826   T   T   T
  0.8010119141614347  0.4256022328109635  0.0966271826713494   T   T   T
  0.5590985500748681  0.5898794290618533  0.1727076672951204   T   T   T
 
  0.00000000E+00  0.00000000E+00  0.00000000E+00
  0.00000000E+00  0.00000000E+00  0.00000000E+00
  0.00000000E+00  0.00000000E+00  0.00000000E+00
  0.00000000E+00  0.00000000E+00  0.00000000E+00
  0.00000000E+00  0.00000000E+00  0.00000000E+00
  0.00000000E+00  0.00000000E+00  0.00000000E+00
  0.00000000E+00  0.00000000E+00  0.00000000E+00
  0.00000000E+00  0.00000000E+00  0.00000000E+00
  0.00000000E+00  0.00000000E+00  0.00000000E+00
  0.00000000E+00  0.00000000E+00  0.00000000E+00
  0.00000000E+00  0.00000000E+00  0.00000000E+00
  0.00000000E+00  0.00000000E+00  0.00000000E+00
  0.00000000E+00  0.00000000E+00  0.00000000E+00
  0.00000000E+00  0.00000000E+00  0.00000000E+00
  0.00000000E+00  0.00000000E+00  0.00000000E+00
  0.00000000E+00  0.00000000E+00  0.00000000E+00
  0.00000000E+00  0.00000000E+00  0.00000000E+00
  0.00000000E+00  0.00000000E+00  0.00000000E+00
  0.00000000E+00  0.00000000E+00  0.00000000E+00
  0.00000000E+00  0.00000000E+00  0.00000000E+00
  0.00000000E+00  0.00000000E+00  0.00000000E+00
  0.00000000E+00  0.00000000E+00  0.00000000E+00
  0.00000000E+00  0.00000000E+00  0.00000000E+00
  0.00000000E+00  0.00000000E+00  0.00000000E+00
  0.00000000E+00  0.00000000E+00  0.00000000E+00
  0.00000000E+00  0.00000000E+00  0.00000000E+00
  0.00000000E+00  0.00000000E+00  0.00000000E+00
  0.00000000E+00  0.00000000E+00  0.00000000E+00
  0.00000000E+00  0.00000000E+00  0.00000000E+00
  0.00000000E+00  0.00000000E+00  0.00000000E+00
  0.00000000E+00  0.00000000E+00  0.00000000E+00
  0.00000000E+00  0.00000000E+00  0.00000000E+00
