Title                                   
   1.00000000000000     
     4.9440799999999996    0.0000000000000000    0.0000000000000000
     0.0000000000000000    8.5647549999999999    0.0000000000000000
     0.0000000000000000    0.0000000000000000   20.0000000000000000
    12     2     1
Selective dynamics
Direct
  0.0025296672567594  0.2950996450309495  0.1010688384192550   T   T   T
  0.2516815730493691  0.0403348280019124  0.1006755428622436   T   T   T
  0.0025658800056188  0.9558389716875216  0.1017055779230830   T   T   T
  0.7504921315924074  0.2082569556308702  0.1006283129331189   T   T   T
  0.4986153530980362  0.2930123581393794  0.0997310108311696   T   T   T
  0.7519729357931255  0.0401260051416476  0.1009136553664873   T   T   T
  0.7476385120738840  0.7139526872169241  0.1005595628068197   T   T   T
  0.7443056765438788  0.5393570369791518  0.1001846741015108   T   T   T
  0.5033716413988734  0.9544472822756737  0.0998564243053153   T   T   T
  0.4986251824161593  0.4579846729451797  0.0986502938869779   T   T   T
 -0.0039500840347382  0.4604230474665497  0.1016979117322035   T   T   T
 -0.0065745436769686  0.7887850089853167  0.1031496166020115   T   T   T
  0.5073112954377754  0.7923532815046370  0.0981382280495693   T   T   T
  0.2519925315775233  0.2071341486230960  0.1005361128798418   T   T   T
  0.2494222474682972  0.6245750703711922  0.1004842373003963   T   T   T
 
  0.00000000E+00  0.00000000E+00  0.00000000E+00
  0.00000000E+00  0.00000000E+00  0.00000000E+00
  0.00000000E+00  0.00000000E+00  0.00000000E+00
  0.00000000E+00  0.00000000E+00  0.00000000E+00
  0.00000000E+00  0.00000000E+00  0.00000000E+00
  0.00000000E+00  0.00000000E+00  0.00000000E+00
  0.00000000E+00  0.00000000E+00  0.00000000E+00
  0.00000000E+00  0.00000000E+00  0.00000000E+00
  0.00000000E+00  0.00000000E+00  0.00000000E+00
  0.00000000E+00  0.00000000E+00  0.00000000E+00
  0.00000000E+00  0.00000000E+00  0.00000000E+00
  0.00000000E+00  0.00000000E+00  0.00000000E+00
  0.00000000E+00  0.00000000E+00  0.00000000E+00
  0.00000000E+00  0.00000000E+00  0.00000000E+00
  0.00000000E+00  0.00000000E+00  0.00000000E+00
