Title                                   
   1.00000000000000     
     8.5490480000000009    0.0000000000000000    0.0000000000000000
     0.0000000000000000    8.5490480000000009    0.0000000000000000
     0.0000000000000000    0.0000000000000000   20.0000000000000000
    23     1     1
Selective dynamics
Direct
  0.9100253179465726  0.2063590499415429  0.0976250244588809   T   T   T
  0.9095771286686994  0.5026263123880622  0.0976822619865009   T   T   T
  0.9122010816006846  0.8002889988792695  0.0976368118294226   T   T   T
  0.1987943596949160  0.0823405529558110  0.0977703062795229   T   T   T
  0.0744720357358825  0.2041834551712974  0.0976871897677101   T   T   T
  0.1601507805571139  0.6487313129597775  0.0977601471490065   T   T   T
  0.0777828853358419  0.5015674199713922  0.0977158933071768   T   T   T
  0.1590657390621810  0.3551788593126960  0.0977698417542770   T   T   T
  0.0776954275637289  0.7980120620137823  0.0977256166582480   T   T   T
  0.4924503971188684  0.0855794553943533  0.0978183533178812   T   T   T
  0.3458486933427707  0.1650952705170744  0.0978489624744106   T   T   T
  0.4917083895211647  0.9176933101562045  0.0977575180073969   T   T   T
  0.3462201473096354  0.8349863665374743  0.0977823584351915   T   T   T
  0.7866561425455241  0.0844607373935595  0.0976609957392807   T   T   T
  0.6376318946457145  0.1682215242422709  0.0978133111940012   T   T   T
  0.7874283559203412  0.9206154869063700  0.0976443474239225   T   T   T
  0.8292718979529878  0.6494459246648207  0.0976795492855432   T   T   T
  0.8268701207122678  0.3565660605107042  0.0977118224478837   T   T   T
  0.6381014794070440  0.8353392708796361  0.0977284901159429   T   T   T
  0.3256120722125940  0.3347495549131335  0.0978638820114420   T   T   T
  0.3257878440725384  0.6690732014326499  0.0977910230558209   T   T   T
  0.6588589993005511  0.3360949919796065  0.0978238873943409   T   T   T
  0.6605435152882324  0.6685858753270048  0.0977508664237431   T   T   T
  0.1986780428605718  0.9180693192408944  0.0977991422407833   T   T   T
  0.4939792516235575  0.5009256263106177  0.0978573972416498   T   T   T
 
  0.00000000E+00  0.00000000E+00  0.00000000E+00
  0.00000000E+00  0.00000000E+00  0.00000000E+00
  0.00000000E+00  0.00000000E+00  0.00000000E+00
  0.00000000E+00  0.00000000E+00  0.00000000E+00
  0.00000000E+00  0.00000000E+00  0.00000000E+00
  0.00000000E+00  0.00000000E+00  0.00000000E+00
  0.00000000E+00  0.00000000E+00  0.00000000E+00
  0.00000000E+00  0.00000000E+00  0.00000000E+00
  0.00000000E+00  0.00000000E+00  0.00000000E+00
  0.00000000E+00  0.00000000E+00  0.00000000E+00
  0.00000000E+00  0.00000000E+00  0.00000000E+00
  0.00000000E+00  0.00000000E+00  0.00000000E+00
  0.00000000E+00  0.00000000E+00  0.00000000E+00
  0.00000000E+00  0.00000000E+00  0.00000000E+00
  0.00000000E+00  0.00000000E+00  0.00000000E+00
  0.00000000E+00  0.00000000E+00  0.00000000E+00
  0.00000000E+00  0.00000000E+00  0.00000000E+00
  0.00000000E+00  0.00000000E+00  0.00000000E+00
  0.00000000E+00  0.00000000E+00  0.00000000E+00
  0.00000000E+00  0.00000000E+00  0.00000000E+00
  0.00000000E+00  0.00000000E+00  0.00000000E+00
  0.00000000E+00  0.00000000E+00  0.00000000E+00
  0.00000000E+00  0.00000000E+00  0.00000000E+00
  0.00000000E+00  0.00000000E+00  0.00000000E+00
  0.00000000E+00  0.00000000E+00  0.00000000E+00
