Title                                   
   1.00000000000000     
     4.9440799999999996    0.0000000000000000    0.0000000000000000
     0.0000000000000000    8.5647549999999999    0.0000000000000000
     0.0000000000000000    0.0000000000000000   20.0000000000000000
    14     1     1
Selective dynamics
Direct
 -0.0023038482170930  0.2890224072057245  0.0878901240752724   T   T   T
  0.2500000000000000  0.0435035716758941  0.0868831512818948   T   T   T
  0.0011606603943005  0.7981951080410553  0.1073091706400039   T   T   T
  0.0003319062781460  0.9604110438826462  0.0894920360301029   T   T   T
  0.7500000000000000  0.2034529096853362  0.0809615256230885   T   T   T
  0.5023038482170931  0.2890224072057245  0.0878901240752724   T   T   T
  0.7500000000000000  0.0397292231278012  0.0822005588249412   T   T   T
  0.7500000000000000  0.7115946961690426  0.1085003626934222   T   T   T
  0.4988393396056996  0.7981951080410553  0.1073091706400039   T   T   T
  0.7500000000000000  0.5419732676934936  0.1049587444157114   T   T   T
  0.4996680937218539  0.9604110438826462  0.0894920360301029   T   T   T
  0.5123572287001198  0.4470917257516348  0.1027109737963897   T   T   T
 -0.0123572287001199  0.4470917257516348  0.1027109737963897   T   T   T
  0.2500000000000000  0.7332408957293413  0.1272663933093421   T   T   T
  0.2500000000000000  0.2068379338493196  0.0842813911000930   T   T   T
  0.2500000000000000  0.5302269323076492  0.1626552636679786   T   T   T
 
  0.00000000E+00  0.00000000E+00  0.00000000E+00
  0.00000000E+00  0.00000000E+00  0.00000000E+00
  0.00000000E+00  0.00000000E+00  0.00000000E+00
  0.00000000E+00  0.00000000E+00  0.00000000E+00
  0.00000000E+00  0.00000000E+00  0.00000000E+00
  0.00000000E+00  0.00000000E+00  0.00000000E+00
  0.00000000E+00  0.00000000E+00  0.00000000E+00
  0.00000000E+00  0.00000000E+00  0.00000000E+00
  0.00000000E+00  0.00000000E+00  0.00000000E+00
  0.00000000E+00  0.00000000E+00  0.00000000E+00
  0.00000000E+00  0.00000000E+00  0.00000000E+00
  0.00000000E+00  0.00000000E+00  0.00000000E+00
  0.00000000E+00  0.00000000E+00  0.00000000E+00
  0.00000000E+00  0.00000000E+00  0.00000000E+00
  0.00000000E+00  0.00000000E+00  0.00000000E+00
  0.00000000E+00  0.00000000E+00  0.00000000E+00
