Title                                   
   1.00000000000000     
     4.9440799999999996    0.0000000000000000    0.0000000000000000
     0.0000000000000000   17.1295089999999988    0.0000000000000000
     0.0000000000000000    0.0000000000000000   20.0000000000000000
    27     3     1
Selective dynamics
Direct
 -0.0012715191383544  0.1045940328002715  0.2993643170384291   T   T   T
  0.2471533814337791  0.1476546884564610  0.2992793730562203   T   T   T
  0.2465108044047485  0.2312917464681692  0.2994503779839336   T   T   T
 -0.0060143343924881  0.2739192255466371  0.3020320994949363   T   T   T
  0.0013610861989842  0.6031355496902200  0.3053046051387479   T   T   T
  0.2535854501840938  0.7264346664000977  0.2985449752699141   T   T   T
  0.0025654644599921  0.8529563102858380  0.2978257528168563   T   T   T
  0.2508754038038140  0.8953382110290379  0.2975957726911787   T   T   T
  0.2498402261806530  0.9790417768333439  0.2980544761774674   T   T   T
  0.0035459788004221  0.7688017265158698  0.2986044019873048   T   T   T
  0.4982215751903942  0.1050819741556445  0.2983338609790891   T   T   T
  0.7491012844184416  0.1463579630578963  0.2987520811121540   T   T   T
  0.7473748529305988  0.2300788528451247  0.2985832392993443   T   T   T
  0.4991867728674384  0.0211480104663575  0.2980695813845405   T   T   T
  0.7476035290974389  0.3939209818429020  0.3005028573744442   T   T   T
  0.7523220162067813  0.4829043286505980  0.3032376661119847   T   T   T
  0.4988105557419956  0.2720270109201710  0.2960052237687954   T   T   T
  0.5066501484791618  0.6015823955153162  0.2986274483632124   T   T   T
  0.7516545826432375  0.7284622296711177  0.2988339231631726   T   T   T
  0.4999268615332134  0.8532247198895543  0.2972159501589981   T   T   T
  0.7508435594067517  0.8947823127827607  0.2975780513951510   T   T   T
  0.7496764269877114  0.9788864988458663  0.2979884322439018   T   T   T
  0.5009769491331679  0.7691374245654348  0.2975204242260893   T   T   T
  0.7536551001579618  0.6456016802582432  0.3011173482547540   T   T   T
 -0.0003874299631492  0.0209549373192435  0.2986051694981773   T   T   T
  0.9924993093468968  0.5225204665324672  0.3129580615526761   T   T   T
  0.5100210350364547  0.3540819050076344  0.2912874430590945   T   T   T
  0.5149897542173754  0.5228915596100849  0.2940560116540272   T   T   T
 -0.0160396057207392  0.3536706789631913  0.3076790921970274   T   T   T
  0.2545453350109710  0.6435485573878041  0.3001703471843216   T   T   T
  0.2502224453422539  0.4373095776866369  0.3018816353640082   T   T   T
 
  0.00000000E+00  0.00000000E+00  0.00000000E+00
  0.00000000E+00  0.00000000E+00  0.00000000E+00
  0.00000000E+00  0.00000000E+00  0.00000000E+00
  0.00000000E+00  0.00000000E+00  0.00000000E+00
  0.00000000E+00  0.00000000E+00  0.00000000E+00
  0.00000000E+00  0.00000000E+00  0.00000000E+00
  0.00000000E+00  0.00000000E+00  0.00000000E+00
  0.00000000E+00  0.00000000E+00  0.00000000E+00
  0.00000000E+00  0.00000000E+00  0.00000000E+00
  0.00000000E+00  0.00000000E+00  0.00000000E+00
  0.00000000E+00  0.00000000E+00  0.00000000E+00
  0.00000000E+00  0.00000000E+00  0.00000000E+00
  0.00000000E+00  0.00000000E+00  0.00000000E+00
  0.00000000E+00  0.00000000E+00  0.00000000E+00
  0.00000000E+00  0.00000000E+00  0.00000000E+00
  0.00000000E+00  0.00000000E+00  0.00000000E+00
  0.00000000E+00  0.00000000E+00  0.00000000E+00
  0.00000000E+00  0.00000000E+00  0.00000000E+00
  0.00000000E+00  0.00000000E+00  0.00000000E+00
  0.00000000E+00  0.00000000E+00  0.00000000E+00
  0.00000000E+00  0.00000000E+00  0.00000000E+00
  0.00000000E+00  0.00000000E+00  0.00000000E+00
  0.00000000E+00  0.00000000E+00  0.00000000E+00
  0.00000000E+00  0.00000000E+00  0.00000000E+00
  0.00000000E+00  0.00000000E+00  0.00000000E+00
  0.00000000E+00  0.00000000E+00  0.00000000E+00
  0.00000000E+00  0.00000000E+00  0.00000000E+00
  0.00000000E+00  0.00000000E+00  0.00000000E+00
  0.00000000E+00  0.00000000E+00  0.00000000E+00
  0.00000000E+00  0.00000000E+00  0.00000000E+00
  0.00000000E+00  0.00000000E+00  0.00000000E+00
