Title                                   
   1.00000000000000     
     4.9440799999999996    0.0000000000000000    0.0000000000000000
     0.0000000000000000    8.5647549999999999    0.0000000000000000
     0.0000000000000000    0.0000000000000000   20.0000000000000000
    11     3     1
Selective dynamics
Direct
  0.0101411038837430  0.2952846276422697  0.0935339174060397   T   T   T
  0.2450241071795789  0.0407815392262351  0.0974747267910281   T   T   T
 -0.0105076253483970  0.9554057243843137  0.1013454252635878   T   T   T
  0.7571694526170547  0.2084480252987135  0.0930495692808186   T   T   T
  0.5103042755657566  0.2947435886732461  0.0991730508124450   T   T   T
  0.7441538473312882  0.0398504372490547  0.0933840067272493   T   T   T
  0.7409069276051236  0.7121406229604973  0.1020112767701296   T   T   T
  0.7571100282262291  0.5360990666881931  0.1009531739442609   T   T   T
  0.4896595680699009  0.9563867730385511  0.0928166547280977   T   T   T
  0.4959109693541219  0.7860956439599217  0.0913180330605911   T   T   T
  0.0045326692349774  0.4632417827441953  0.0922233102928177   T   T   T
  0.5187757493624220  0.4524141979247626  0.1109092333260093   T   T   T
 -0.0212798901596352  0.7951789962580204  0.1143745017326440   T   T   T
  0.2548922806128640  0.2105113006153785  0.0971897408561672   T   T   T
  0.2532065364649718  0.6250986733366499  0.1282233790081175   T   T   T
 
  0.00000000E+00  0.00000000E+00  0.00000000E+00
  0.00000000E+00  0.00000000E+00  0.00000000E+00
  0.00000000E+00  0.00000000E+00  0.00000000E+00
  0.00000000E+00  0.00000000E+00  0.00000000E+00
  0.00000000E+00  0.00000000E+00  0.00000000E+00
  0.00000000E+00  0.00000000E+00  0.00000000E+00
  0.00000000E+00  0.00000000E+00  0.00000000E+00
  0.00000000E+00  0.00000000E+00  0.00000000E+00
  0.00000000E+00  0.00000000E+00  0.00000000E+00
  0.00000000E+00  0.00000000E+00  0.00000000E+00
  0.00000000E+00  0.00000000E+00  0.00000000E+00
  0.00000000E+00  0.00000000E+00  0.00000000E+00
  0.00000000E+00  0.00000000E+00  0.00000000E+00
  0.00000000E+00  0.00000000E+00  0.00000000E+00
  0.00000000E+00  0.00000000E+00  0.00000000E+00
