Title                                   
   1.00000000000000     
     4.9440799999999996    0.0000000000000000    0.0000000000000000
     0.0000000000000000    8.5647549999999999    0.0000000000000000
     0.0000000000000000    0.0000000000000000   20.0000000000000000
    12     2     1
Selective dynamics
Direct
  0.2500000000000000  0.2056195445294936  0.1004517159415166   T   T   T
  0.0002890801806027  0.2911237329978624  0.1004349393239185   T   T   T
  0.2500000000000000  0.0379990512494340  0.1005032478728861   T   T   T
 -0.0032494770609518  0.9565472757031850  0.1005661586444245   T   T   T
  0.7500000000000000  0.2076213106476816  0.1004197630501012   T   T   T
  0.4997109198193973  0.2911237329978624  0.1004349393239185   T   T   T
  0.7500000000000000  0.0421679502010135  0.1004952320265509   T   T   T
  0.7500000000000000  0.7176919269549776  0.1006591552291888   T   T   T
  0.7500000000000000  0.5413039223720499  0.1005176274959729   T   T   T
  0.5032494770609519  0.9565472757031850  0.1005661586444245   T   T   T
  0.5119527051117557  0.4550962638055954  0.1004515415070689   T   T   T
 -0.0119527051117559  0.4550962638055954  0.1004515415070689   T   T   T
 -0.0175796569869346  0.7972474325819947  0.1007187117184374   T   T   T
  0.5175796569869348  0.7972474325819947  0.1007187117184374   T   T   T
  0.2500000000000000  0.6192478838680777  0.1005905559960883   T   T   T
 
  0.00000000E+00  0.00000000E+00  0.00000000E+00
  0.00000000E+00  0.00000000E+00  0.00000000E+00
  0.00000000E+00  0.00000000E+00  0.00000000E+00
  0.00000000E+00  0.00000000E+00  0.00000000E+00
  0.00000000E+00  0.00000000E+00  0.00000000E+00
  0.00000000E+00  0.00000000E+00  0.00000000E+00
  0.00000000E+00  0.00000000E+00  0.00000000E+00
  0.00000000E+00  0.00000000E+00  0.00000000E+00
  0.00000000E+00  0.00000000E+00  0.00000000E+00
  0.00000000E+00  0.00000000E+00  0.00000000E+00
  0.00000000E+00  0.00000000E+00  0.00000000E+00
  0.00000000E+00  0.00000000E+00  0.00000000E+00
  0.00000000E+00  0.00000000E+00  0.00000000E+00
  0.00000000E+00  0.00000000E+00  0.00000000E+00
  0.00000000E+00  0.00000000E+00  0.00000000E+00
