Title                                   
   1.00000000000000     
     9.8694509999999998    0.0000000000000000    0.0000000000000000
     0.0000000000000000    8.5490480000000009    0.0000000000000000
     0.0000000000000000    0.0000000000000000   20.0000000000000000
    28     2     1
Selective dynamics
Direct
  0.0564466995668760  0.0893330282316704  0.0908911009679286   T   T   T
  0.9314484377323768  0.1718901632458566  0.0960696854020502   T   T   T
  0.0576802149358071  0.9236349041378310  0.0912183452145925   T   T   T
  0.9331077577824343  0.3392390980105743  0.0978163372867369   T   T   T
  0.0579870698243572  0.5902750375488759  0.0940434122298704   T   T   T
  0.9335026108542142  0.6732114350995900  0.0985082965562512   T   T   T
  0.0578020758542398  0.4226707169970791  0.0934876478407316   T   T   T
  0.9322179157206552  0.8403199733352988  0.0966271214529060   T   T   T
  0.3087799813017661  0.0881276057815734  0.0834449193220055   T   T   T
  0.1829759493572885  0.1714950059027036  0.0868381454035317   T   T   T
  0.1811572460216773  0.3381430875858851  0.0883378482653792   T   T   T
  0.3060150394161943  0.5904427139455954  0.0823351729364480   T   T   T
  0.1819614554362404  0.6743531721524122  0.0892949146118048   T   T   T
  0.3057398226914930  0.4205850775624224  0.0823974123404778   T   T   T
  0.1831045246199381  0.8405850365302926  0.0878658751479267   T   T   T
  0.4346569028999853  0.1704901691832451  0.0839332555615659   T   T   T
  0.5569205246863337  0.9236914751334625  0.0954621817623760   T   T   T
  0.4310420520779981  0.3360751002325997  0.0831646338145825   T   T   T
  0.4300232968380110  0.6763159840135480  0.0828324297369254   T   T   T
  0.4325802280254661  0.8420069350500377  0.0850213671714885   T   T   T
  0.8043490013254502  0.0899849413742984  0.0990768553808898   T   T   T
  0.6797049368647282  0.1791325960012574  0.1024424578848839   T   T   T
  0.8054778812309527  0.9215947051879286  0.0995683239621026   T   T   T
  0.6820265206218971  0.3469718290108656  0.1124230697377545   T   T   T
  0.8113312237683674  0.5897097168825061  0.1063975097431756   T   T   T
  0.6834127972340654  0.6646729808248313  0.1135060797918737   T   T   T
  0.8110340096752232  0.4219347400530076  0.1058590295352882   T   T   T
  0.6796522231668639  0.8336454370615590  0.1038541638677444   T   T   T
  0.5586509133956928  0.0903479947911962  0.0943493333924305   T   T   T
  0.3070555462238675  0.9229615206386509  0.0838496080044627   T   T   T
  0.5252901408495414  0.5070328184933647  0.1300484656738415   T   T   T
 
  0.00000000E+00  0.00000000E+00  0.00000000E+00
  0.00000000E+00  0.00000000E+00  0.00000000E+00
  0.00000000E+00  0.00000000E+00  0.00000000E+00
  0.00000000E+00  0.00000000E+00  0.00000000E+00
  0.00000000E+00  0.00000000E+00  0.00000000E+00
  0.00000000E+00  0.00000000E+00  0.00000000E+00
  0.00000000E+00  0.00000000E+00  0.00000000E+00
  0.00000000E+00  0.00000000E+00  0.00000000E+00
  0.00000000E+00  0.00000000E+00  0.00000000E+00
  0.00000000E+00  0.00000000E+00  0.00000000E+00
  0.00000000E+00  0.00000000E+00  0.00000000E+00
  0.00000000E+00  0.00000000E+00  0.00000000E+00
  0.00000000E+00  0.00000000E+00  0.00000000E+00
  0.00000000E+00  0.00000000E+00  0.00000000E+00
  0.00000000E+00  0.00000000E+00  0.00000000E+00
  0.00000000E+00  0.00000000E+00  0.00000000E+00
  0.00000000E+00  0.00000000E+00  0.00000000E+00
  0.00000000E+00  0.00000000E+00  0.00000000E+00
  0.00000000E+00  0.00000000E+00  0.00000000E+00
  0.00000000E+00  0.00000000E+00  0.00000000E+00
  0.00000000E+00  0.00000000E+00  0.00000000E+00
  0.00000000E+00  0.00000000E+00  0.00000000E+00
  0.00000000E+00  0.00000000E+00  0.00000000E+00
  0.00000000E+00  0.00000000E+00  0.00000000E+00
  0.00000000E+00  0.00000000E+00  0.00000000E+00
  0.00000000E+00  0.00000000E+00  0.00000000E+00
  0.00000000E+00  0.00000000E+00  0.00000000E+00
  0.00000000E+00  0.00000000E+00  0.00000000E+00
  0.00000000E+00  0.00000000E+00  0.00000000E+00
  0.00000000E+00  0.00000000E+00  0.00000000E+00
  0.00000000E+00  0.00000000E+00  0.00000000E+00
