Title                                   
   1.00000000000000     
     9.8694509999999998    0.0000000000000000    0.0000000000000000
     0.0000000000000000    8.5490480000000009    0.0000000000000000
     0.0000000000000000    0.0000000000000000   20.0000000000000000
    26     4     1
Selective dynamics
Direct
  0.0551240162214101  0.0873900943978385  0.0944173794312792   T   T   T
  0.9308227936334471  0.1710032390917696  0.0947630346395553   T   T   T
  0.0567103915408780  0.9211505219255613  0.0942502779054406   T   T   T
  0.9341774432554635  0.3384460971041384  0.0948123558165956   T   T   T
  0.0563283417397250  0.5904565489210405  0.0944236854681641   T   T   T
  0.0569628017413747  0.4238333890200560  0.0945759347913404   T   T   T
  0.9313541598271267  0.8382549414842398  0.0943909968517170   T   T   T
  0.3065432874254745  0.0885784986542114  0.0946839269057580   T   T   T
  0.1809855551265284  0.1704448372004929  0.0945416054740647   T   T   T
  0.1802580789862399  0.3377610479481637  0.0946364231554103   T   T   T
  0.3043997379800414  0.5871088838457273  0.0949131407177044   T   T   T
  0.1804851841759107  0.6737040266739779  0.0944786148782259   T   T   T
  0.3030067475303648  0.4191865842040312  0.0948613865382757   T   T   T
  0.1826963702667813  0.8395068628063078  0.0943408448260746   T   T   T
  0.4301543163807093  0.1773846109742266  0.0950403057558480   T   T   T
  0.5546624771141122  0.9251357515953196  0.0950360902484892   T   T   T
  0.4274089789223824  0.6722186606834060  0.0954062526004383   T   T   T
  0.4309051216823995  0.8374350144065342  0.0950783405284485   T   T   T
  0.8045960817257558  0.0888875711541522  0.0950300438484891   T   T   T
  0.6804386775758308  0.1798437462936702  0.0954133001002990   T   T   T
  0.8052604533316725  0.9207632783220151  0.0948102862132551   T   T   T
  0.6870370954274938  0.3444350552937628  0.0957152108644179   T   T   T
  0.8108017370589936  0.5914236013404619  0.0949490200670258   T   T   T
  0.6858973997320138  0.6694932422017593  0.0952060766094476   T   T   T
  0.8130888705262781  0.4217032907511131  0.0952302660989328   T   T   T
  0.6781257294308831  0.8375444861650203  0.0950552239806136   T   T   T
  0.9333308121164939  0.6730168590717552  0.0943918196607144   T   T   T
  0.5548190913963940  0.0957165405128224  0.0950700047628855   T   T   T
  0.4248229459936632  0.3385157357627128  0.0950979413467355   T   T   T
  0.3057377368211930  0.9228852953998150  0.0945619589618831   T   T   T
  0.5561925653129840  0.5076466867939180  0.0957832509525188   T   T   T
 
  0.00000000E+00  0.00000000E+00  0.00000000E+00
  0.00000000E+00  0.00000000E+00  0.00000000E+00
  0.00000000E+00  0.00000000E+00  0.00000000E+00
  0.00000000E+00  0.00000000E+00  0.00000000E+00
  0.00000000E+00  0.00000000E+00  0.00000000E+00
  0.00000000E+00  0.00000000E+00  0.00000000E+00
  0.00000000E+00  0.00000000E+00  0.00000000E+00
  0.00000000E+00  0.00000000E+00  0.00000000E+00
  0.00000000E+00  0.00000000E+00  0.00000000E+00
  0.00000000E+00  0.00000000E+00  0.00000000E+00
  0.00000000E+00  0.00000000E+00  0.00000000E+00
  0.00000000E+00  0.00000000E+00  0.00000000E+00
  0.00000000E+00  0.00000000E+00  0.00000000E+00
  0.00000000E+00  0.00000000E+00  0.00000000E+00
  0.00000000E+00  0.00000000E+00  0.00000000E+00
  0.00000000E+00  0.00000000E+00  0.00000000E+00
  0.00000000E+00  0.00000000E+00  0.00000000E+00
  0.00000000E+00  0.00000000E+00  0.00000000E+00
  0.00000000E+00  0.00000000E+00  0.00000000E+00
  0.00000000E+00  0.00000000E+00  0.00000000E+00
  0.00000000E+00  0.00000000E+00  0.00000000E+00
  0.00000000E+00  0.00000000E+00  0.00000000E+00
  0.00000000E+00  0.00000000E+00  0.00000000E+00
  0.00000000E+00  0.00000000E+00  0.00000000E+00
  0.00000000E+00  0.00000000E+00  0.00000000E+00
  0.00000000E+00  0.00000000E+00  0.00000000E+00
  0.00000000E+00  0.00000000E+00  0.00000000E+00
  0.00000000E+00  0.00000000E+00  0.00000000E+00
  0.00000000E+00  0.00000000E+00  0.00000000E+00
  0.00000000E+00  0.00000000E+00  0.00000000E+00
  0.00000000E+00  0.00000000E+00  0.00000000E+00
