Title                                   
   1.00000000000000     
     4.9440799999999996    0.0000000000000000    0.0000000000000000
     0.0000000000000000    8.5647549999999999    0.0000000000000000
     0.0000000000000000    0.0000000000000000   20.0000000000000000
    12     3     1
Selective dynamics
Direct
 -0.0043311220166167  0.2905030237178850  0.0899436749674661   T   T   T
  0.2517938632837636  0.0436094800061686  0.0879939108108118   T   T   T
  0.0078929912375929  0.7963309963752433  0.0983721313350364   T   T   T
  0.0027702309722888  0.9609616570304148  0.0868841764677981   T   T   T
  0.7484928562413955  0.2062794479395558  0.0842867287038420   T   T   T
  0.5022454552306154  0.2909022106920152  0.0959822526100796   T   T   T
  0.7519574978945669  0.0412553351443732  0.0824005414246053   T   T   T
  0.7574722022420421  0.7055399765422571  0.1032339136492059   T   T   T
  0.5031189566416563  0.7956310765421218  0.1001922352857284   T   T   T
  0.7527474783135030  0.5334623103623644  0.1077347816179871   T   T   T
  0.5028326851022716  0.9606146477155189  0.0885646287263607   T   T   T
  0.5116256768722989  0.4464184713620384  0.1189753472272089   T   T   T
 -0.0078866048965777  0.4469085983742801  0.0989575323718959   T   T   T
  0.2553526253544252  0.7272835655240295  0.1117668285731398   T   T   T
  0.2496880077982642  0.2098507415682841  0.0902076337410209   T   T   T
  0.2142271997285088  0.5444484611034500  0.1670156824878227   T   T   T
 
  0.00000000E+00  0.00000000E+00  0.00000000E+00
  0.00000000E+00  0.00000000E+00  0.00000000E+00
  0.00000000E+00  0.00000000E+00  0.00000000E+00
  0.00000000E+00  0.00000000E+00  0.00000000E+00
  0.00000000E+00  0.00000000E+00  0.00000000E+00
  0.00000000E+00  0.00000000E+00  0.00000000E+00
  0.00000000E+00  0.00000000E+00  0.00000000E+00
  0.00000000E+00  0.00000000E+00  0.00000000E+00
  0.00000000E+00  0.00000000E+00  0.00000000E+00
  0.00000000E+00  0.00000000E+00  0.00000000E+00
  0.00000000E+00  0.00000000E+00  0.00000000E+00
  0.00000000E+00  0.00000000E+00  0.00000000E+00
  0.00000000E+00  0.00000000E+00  0.00000000E+00
  0.00000000E+00  0.00000000E+00  0.00000000E+00
  0.00000000E+00  0.00000000E+00  0.00000000E+00
  0.00000000E+00  0.00000000E+00  0.00000000E+00
