Title                                   
   1.00000000000000     
     9.8694509999999998    0.0000000000000000    0.0000000000000000
     0.0000000000000000    8.5490480000000009    0.0000000000000000
     0.0000000000000000    0.0000000000000000   20.0000000000000000
    27     3     1
Selective dynamics
Direct
  0.0561317285974511  0.0902674601930076  0.0939132500225984   T   T   T
  0.9308191069123349  0.1726959504215319  0.0942575806285089   T   T   T
  0.0562922112857590  0.9240349365308721  0.0938618493756852   T   T   T
  0.9332845298025276  0.3398228696679316  0.0942233266338089   T   T   T
  0.0567694533981749  0.5893273307311377  0.0938575162241505   T   T   T
  0.9337650209610905  0.6747838954645669  0.0941077206568686   T   T   T
  0.0570182383977288  0.4234371441787535  0.0939143001991724   T   T   T
  0.9319708873940955  0.8412559520766032  0.0941365203706625   T   T   T
  0.3064453702182144  0.0906261453097739  0.0947448695371531   T   T   T
  0.1807533799857128  0.1722617715478338  0.0941233048508878   T   T   T
  0.3061456502724955  0.9221438962558699  0.0947315968392572   T   T   T
  0.1805486569214295  0.3396008472013438  0.0940924326962408   T   T   T
  0.3027722005079547  0.5911484818573548  0.0946673727560285   T   T   T
  0.1796172105216080  0.6732782763021853  0.0940394682028644   T   T   T
  0.3035798069762333  0.4213574736514775  0.0946615324116349   T   T   T
  0.1807321013194064  0.8407553366912464  0.0940905524317841   T   T   T
  0.5552260249620458  0.0893796545740424  0.0960429775641786   T   T   T
  0.4299503891743485  0.1772973473737876  0.0955566490815573   T   T   T
  0.5554297606135826  0.9176486760430477  0.0959837648822052   T   T   T
  0.4287310240106813  0.8328514368815014  0.0955315590952664   T   T   T
  0.8051647029184639  0.0901728069351012  0.0949563474394134   T   T   T
  0.6807293391820655  0.1764153318732915  0.0958506390615354   T   T   T
  0.8057633317133065  0.9215797452518313  0.0948424141094995   T   T   T
  0.6854531976833386  0.3436377700690961  0.0960143475239433   T   T   T
  0.8117190311963839  0.5929005081646189  0.0948933709061761   T   T   T
  0.8107013928335064  0.4238495375556937  0.0949714739789456   T   T   T
  0.6827632852278744  0.8327267990740208  0.0956417027244179   T   T   T
  0.4260947918786743  0.3415464414302857  0.0955153225479414   T   T   T
  0.6892659863015096  0.6696743893952750  0.0957619795845483   T   T   T
  0.4232968797182062  0.6712811402946051  0.0955420334925480   T   T   T
  0.5562003091138054  0.5031156470023239  0.0964372241705583   T   T   T
 
  0.00000000E+00  0.00000000E+00  0.00000000E+00
  0.00000000E+00  0.00000000E+00  0.00000000E+00
  0.00000000E+00  0.00000000E+00  0.00000000E+00
  0.00000000E+00  0.00000000E+00  0.00000000E+00
  0.00000000E+00  0.00000000E+00  0.00000000E+00
  0.00000000E+00  0.00000000E+00  0.00000000E+00
  0.00000000E+00  0.00000000E+00  0.00000000E+00
  0.00000000E+00  0.00000000E+00  0.00000000E+00
  0.00000000E+00  0.00000000E+00  0.00000000E+00
  0.00000000E+00  0.00000000E+00  0.00000000E+00
  0.00000000E+00  0.00000000E+00  0.00000000E+00
  0.00000000E+00  0.00000000E+00  0.00000000E+00
  0.00000000E+00  0.00000000E+00  0.00000000E+00
  0.00000000E+00  0.00000000E+00  0.00000000E+00
  0.00000000E+00  0.00000000E+00  0.00000000E+00
  0.00000000E+00  0.00000000E+00  0.00000000E+00
  0.00000000E+00  0.00000000E+00  0.00000000E+00
  0.00000000E+00  0.00000000E+00  0.00000000E+00
  0.00000000E+00  0.00000000E+00  0.00000000E+00
  0.00000000E+00  0.00000000E+00  0.00000000E+00
  0.00000000E+00  0.00000000E+00  0.00000000E+00
  0.00000000E+00  0.00000000E+00  0.00000000E+00
  0.00000000E+00  0.00000000E+00  0.00000000E+00
  0.00000000E+00  0.00000000E+00  0.00000000E+00
  0.00000000E+00  0.00000000E+00  0.00000000E+00
  0.00000000E+00  0.00000000E+00  0.00000000E+00
  0.00000000E+00  0.00000000E+00  0.00000000E+00
  0.00000000E+00  0.00000000E+00  0.00000000E+00
  0.00000000E+00  0.00000000E+00  0.00000000E+00
  0.00000000E+00  0.00000000E+00  0.00000000E+00
  0.00000000E+00  0.00000000E+00  0.00000000E+00
