Title                                   
   1.00000000000000     
     9.8694509999999998    0.0000000000000000    0.0000000000000000
     0.0000000000000000    8.5490480000000009    0.0000000000000000
     0.0000000000000000    0.0000000000000000   20.0000000000000000
    28     3     1
Selective dynamics
Direct
  0.0565248995155658  0.0913273537895308  0.0813807400979149   T   T   T
  0.9309182837604036  0.1734566471953358  0.0841509410685992   T   T   T
  0.0557990742371373  0.9243195317816320  0.0814473812404686   T   T   T
  0.9301771221069107  0.3401272386725014  0.0893460036960111   T   T   T
  0.0567164268896031  0.5893820790524896  0.0861547601620354   T   T   T
  0.9318683386202590  0.6727453207651165  0.0889626898858685   T   T   T
  0.0569679311003242  0.4232260633566725  0.0878082869155830   T   T   T
  0.9308045790740078  0.8396122667761238  0.0847667535755481   T   T   T
  0.3056012360911055  0.0901426175843895  0.0848130497370093   T   T   T
  0.1821595773090000  0.1749252130359097  0.0840020236674474   T   T   T
  0.3055001358035417  0.9246730772515264  0.0855747216133682   T   T   T
  0.1839744203344792  0.3421158765074342  0.0885672516498872   T   T   T
  0.3048738632976221  0.5945082344404694  0.0982531181158420   T   T   T
  0.1808425913402559  0.6739304757920545  0.0872277383902630   T   T   T
  0.3105736776750048  0.4256861713789323  0.0968780870522864   T   T   T
  0.1806566424299786  0.8408206466787415  0.0841712183378538   T   T   T
  0.5556295351338673  0.0841945874823883  0.0950135017843172   T   T   T
  0.4317909386612466  0.1691626965298635  0.0922415829297645   T   T   T
  0.4339750247982377  0.3333693958598805  0.1010138862350381   T   T   T
  0.4279154853535334  0.8410589700523531  0.0970525847788777   T   T   T
  0.8071397188531571  0.0887668442138262  0.0851889161044691   T   T   T
  0.6809770705628123  0.1672601873662302  0.0930167946907473   T   T   T
  0.8054282895007394  0.9228945727807364  0.0863870321997894   T   T   T
  0.6805517058468702  0.3317849441210233  0.1024873531013696   T   T   T
  0.8092490665905119  0.5910515078710935  0.1021999454027592   T   T   T
  0.6927460340784450  0.6827420770687040  0.1192974614408152   T   T   T
  0.8048912328645165  0.4220608375558321  0.0991926180598583   T   T   T
  0.6829268432007645  0.8397747966222147  0.0989790931095042   T   T   T
  0.4183840346193251  0.6865664631692330  0.1140230770688801   T   T   T
  0.5572174390407465  0.4006942495371238  0.1177425375804926   T   T   T
  0.5542094379197116  0.9197547972881082  0.0978364896730535   T   T   T
  0.5526483433903218  0.5881102584225387  0.1704973606343123   T   T   T
 
  0.00000000E+00  0.00000000E+00  0.00000000E+00
  0.00000000E+00  0.00000000E+00  0.00000000E+00
  0.00000000E+00  0.00000000E+00  0.00000000E+00
  0.00000000E+00  0.00000000E+00  0.00000000E+00
  0.00000000E+00  0.00000000E+00  0.00000000E+00
  0.00000000E+00  0.00000000E+00  0.00000000E+00
  0.00000000E+00  0.00000000E+00  0.00000000E+00
  0.00000000E+00  0.00000000E+00  0.00000000E+00
  0.00000000E+00  0.00000000E+00  0.00000000E+00
  0.00000000E+00  0.00000000E+00  0.00000000E+00
  0.00000000E+00  0.00000000E+00  0.00000000E+00
  0.00000000E+00  0.00000000E+00  0.00000000E+00
  0.00000000E+00  0.00000000E+00  0.00000000E+00
  0.00000000E+00  0.00000000E+00  0.00000000E+00
  0.00000000E+00  0.00000000E+00  0.00000000E+00
  0.00000000E+00  0.00000000E+00  0.00000000E+00
  0.00000000E+00  0.00000000E+00  0.00000000E+00
  0.00000000E+00  0.00000000E+00  0.00000000E+00
  0.00000000E+00  0.00000000E+00  0.00000000E+00
  0.00000000E+00  0.00000000E+00  0.00000000E+00
  0.00000000E+00  0.00000000E+00  0.00000000E+00
  0.00000000E+00  0.00000000E+00  0.00000000E+00
  0.00000000E+00  0.00000000E+00  0.00000000E+00
  0.00000000E+00  0.00000000E+00  0.00000000E+00
  0.00000000E+00  0.00000000E+00  0.00000000E+00
  0.00000000E+00  0.00000000E+00  0.00000000E+00
  0.00000000E+00  0.00000000E+00  0.00000000E+00
  0.00000000E+00  0.00000000E+00  0.00000000E+00
  0.00000000E+00  0.00000000E+00  0.00000000E+00
  0.00000000E+00  0.00000000E+00  0.00000000E+00
  0.00000000E+00  0.00000000E+00  0.00000000E+00
  0.00000000E+00  0.00000000E+00  0.00000000E+00
