Title                                   
   1.00000000000000     
     9.8694509999999998    0.0000000000000000    0.0000000000000000
     0.0000000000000000    8.5490480000000009    0.0000000000000000
     0.0000000000000000    0.0000000000000000   20.0000000000000000
    28     3     1
Selective dynamics
Direct
  0.0557963481661143  0.0895533637220635  0.0810266997782950   T   T   T
  0.9310476234762545  0.1734083552097906  0.0812642695257756   T   T   T
  0.0571510732471131  0.9222830680337006  0.0829354279605841   T   T   T
  0.9307236639880722  0.3406194827692693  0.0837500528528414   T   T   T
  0.0563104708695541  0.5913338032735178  0.0848748721984033   T   T   T
  0.0561062640311482  0.4242216905067681  0.0835526118196126   T   T   T
  0.9323819122428211  0.8381698994668879  0.0855705802048760   T   T   T
  0.3053822303554748  0.0889518354942408  0.0870735037510705   T   T   T
  0.1819642478737434  0.1725520872638557  0.0834636870133236   T   T   T
  0.1818502656723760  0.3405834435952039  0.0857232172137558   T   T   T
  0.3023214042175925  0.5889817507371715  0.1026588406986560   T   T   T
  0.1811828725615384  0.6741223280783456  0.0895200945029786   T   T   T
  0.3063888173119824  0.4212482003727202  0.0978946567314588   T   T   T
  0.1825215759126129  0.8415119090007037  0.0871656910104604   T   T   T
  0.5554074513599244  0.0878359691299234  0.0914039610270023   T   T   T
  0.5543166241712683  0.9227730759216614  0.0991629692622608   T   T   T
  0.4293506988129842  0.3316760799580585  0.1042567062110574   T   T   T
  0.4265443094308610  0.8427257704552890  0.1054826538068194   T   T   T
  0.8066606961096849  0.0885348444008002  0.0834098526650599   T   T   T
  0.6806522163934400  0.1715573386079457  0.0887334991228682   T   T   T
  0.8066325150980219  0.9223344183336541  0.0875664579142381   T   T   T
  0.6830086193654828  0.3359488838358592  0.0995751915318269   T   T   T
  0.8115683154785635  0.5920966837521404  0.1012838096109498   T   T   T
  0.8069786072487990  0.4239318131944292  0.0947208928674178   T   T   T
  0.6828709003103332  0.8430587908203109  0.1010825318647667   T   T   T
  0.4158509364074884  0.6825906710097374  0.1240653468721067   T   T   T
  0.5564030315677584  0.4019949797691342  0.1213957427586176   T   T   T
  0.6962558537942420  0.6821838992375158  0.1210123894982693   T   T   T
  0.3057139636652130  0.9251393726946288  0.0905182796520867   T   T   T
  0.4289720149537291  0.1685232567451107  0.0925935439108659   T   T   T
  0.9329513978234701  0.6729050316641880  0.0879956439422418   T   T   T
  0.5583720780823437  0.5868939029453762  0.1749413222194689   T   T   T
 
  0.00000000E+00  0.00000000E+00  0.00000000E+00
  0.00000000E+00  0.00000000E+00  0.00000000E+00
  0.00000000E+00  0.00000000E+00  0.00000000E+00
  0.00000000E+00  0.00000000E+00  0.00000000E+00
  0.00000000E+00  0.00000000E+00  0.00000000E+00
  0.00000000E+00  0.00000000E+00  0.00000000E+00
  0.00000000E+00  0.00000000E+00  0.00000000E+00
  0.00000000E+00  0.00000000E+00  0.00000000E+00
  0.00000000E+00  0.00000000E+00  0.00000000E+00
  0.00000000E+00  0.00000000E+00  0.00000000E+00
  0.00000000E+00  0.00000000E+00  0.00000000E+00
  0.00000000E+00  0.00000000E+00  0.00000000E+00
  0.00000000E+00  0.00000000E+00  0.00000000E+00
  0.00000000E+00  0.00000000E+00  0.00000000E+00
  0.00000000E+00  0.00000000E+00  0.00000000E+00
  0.00000000E+00  0.00000000E+00  0.00000000E+00
  0.00000000E+00  0.00000000E+00  0.00000000E+00
  0.00000000E+00  0.00000000E+00  0.00000000E+00
  0.00000000E+00  0.00000000E+00  0.00000000E+00
  0.00000000E+00  0.00000000E+00  0.00000000E+00
  0.00000000E+00  0.00000000E+00  0.00000000E+00
  0.00000000E+00  0.00000000E+00  0.00000000E+00
  0.00000000E+00  0.00000000E+00  0.00000000E+00
  0.00000000E+00  0.00000000E+00  0.00000000E+00
  0.00000000E+00  0.00000000E+00  0.00000000E+00
  0.00000000E+00  0.00000000E+00  0.00000000E+00
  0.00000000E+00  0.00000000E+00  0.00000000E+00
  0.00000000E+00  0.00000000E+00  0.00000000E+00
  0.00000000E+00  0.00000000E+00  0.00000000E+00
  0.00000000E+00  0.00000000E+00  0.00000000E+00
  0.00000000E+00  0.00000000E+00  0.00000000E+00
  0.00000000E+00  0.00000000E+00  0.00000000E+00
