Title                                   
   1.00000000000000     
     9.8694509999999998    0.0000000000000000    0.0000000000000000
     0.0000000000000000    8.5490480000000009    0.0000000000000000
     0.0000000000000000    0.0000000000000000   20.0000000000000000
    26     4     1
Selective dynamics
Direct
  0.0554959217216259  0.0891769399468486  0.0863022220646247   T   T   T
  0.9309039732412180  0.1723830119815239  0.0863797351497088   T   T   T
  0.0570333093437401  0.9239229978084487  0.0867955545136356   T   T   T
  0.9345949867513127  0.3400960589534863  0.0846642572025379   T   T   T
  0.0566463282013158  0.5898208383877738  0.0827640547765320   T   T   T
  0.9339564526403232  0.6744861951858089  0.0856608666114846   T   T   T
  0.0576558751119569  0.4231834924989157  0.0824265713545820   T   T   T
  0.9323668179757170  0.8411354728213239  0.0877563755863567   T   T   T
  0.3058158014078759  0.0880830766495949  0.0949566804412148   T   T   T
  0.1814825530547785  0.1697843305210904  0.0889568449925034   T   T   T
  0.1801299262440465  0.3373253163785297  0.0879763859502536   T   T   T
  0.2997584734365272  0.5889984265444150  0.0983152403830484   T   T   T
  0.1796404687421772  0.6735042289387542  0.0881360031228163   T   T   T
  0.2994196237069343  0.4180351612586938  0.0980182737822407   T   T   T
  0.1820667345028900  0.8407243823925225  0.0891978203523397   T   T   T
  0.4296945352259541  0.1753969681387814  0.1024397719223810   T   T   T
  0.5552569830806680  0.9211091380813998  0.1032460905493679   T   T   T
  0.4199106150169536  0.6731930064524430  0.1092108818810543   T   T   T
  0.4278896707632871  0.8377559400749096  0.1034379359110753   T   T   T
  0.8049080630026909  0.0891493385660986  0.0916170722114497   T   T   T
  0.6821365360926016  0.1771543194235581  0.0983635746003611   T   T   T
  0.8066811829784072  0.9221266506054373  0.0928004291459674   T   T   T
  0.6904052205004700  0.3407295923185633  0.1020773158052234   T   T   T
  0.8132515509671581  0.5931752645473692  0.0930073387093924   T   T   T
  0.8133986844483495  0.4230692889445376  0.0918372959769506   T   T   T
  0.6822492487045478  0.8358878346568883  0.1006838413855767   T   T   T
  0.5553662428879830  0.0935053108486727  0.1024279111860244   T   T   T
  0.4198687184851017  0.3361403092647695  0.1080540429040159   T   T   T
  0.6932967416922230  0.6725601093917427  0.1043825721563060   T   T   T
  0.3052284177611239  0.9226512926859436  0.0948979213947283   T   T   T
  0.5566253423100437  0.5066107057311823  0.1141741179762801   T   T   T
 
  0.00000000E+00  0.00000000E+00  0.00000000E+00
  0.00000000E+00  0.00000000E+00  0.00000000E+00
  0.00000000E+00  0.00000000E+00  0.00000000E+00
  0.00000000E+00  0.00000000E+00  0.00000000E+00
  0.00000000E+00  0.00000000E+00  0.00000000E+00
  0.00000000E+00  0.00000000E+00  0.00000000E+00
  0.00000000E+00  0.00000000E+00  0.00000000E+00
  0.00000000E+00  0.00000000E+00  0.00000000E+00
  0.00000000E+00  0.00000000E+00  0.00000000E+00
  0.00000000E+00  0.00000000E+00  0.00000000E+00
  0.00000000E+00  0.00000000E+00  0.00000000E+00
  0.00000000E+00  0.00000000E+00  0.00000000E+00
  0.00000000E+00  0.00000000E+00  0.00000000E+00
  0.00000000E+00  0.00000000E+00  0.00000000E+00
  0.00000000E+00  0.00000000E+00  0.00000000E+00
  0.00000000E+00  0.00000000E+00  0.00000000E+00
  0.00000000E+00  0.00000000E+00  0.00000000E+00
  0.00000000E+00  0.00000000E+00  0.00000000E+00
  0.00000000E+00  0.00000000E+00  0.00000000E+00
  0.00000000E+00  0.00000000E+00  0.00000000E+00
  0.00000000E+00  0.00000000E+00  0.00000000E+00
  0.00000000E+00  0.00000000E+00  0.00000000E+00
  0.00000000E+00  0.00000000E+00  0.00000000E+00
  0.00000000E+00  0.00000000E+00  0.00000000E+00
  0.00000000E+00  0.00000000E+00  0.00000000E+00
  0.00000000E+00  0.00000000E+00  0.00000000E+00
  0.00000000E+00  0.00000000E+00  0.00000000E+00
  0.00000000E+00  0.00000000E+00  0.00000000E+00
  0.00000000E+00  0.00000000E+00  0.00000000E+00
  0.00000000E+00  0.00000000E+00  0.00000000E+00
  0.00000000E+00  0.00000000E+00  0.00000000E+00
