Title                                   
   1.00000000000000     
     9.8694509999999998    0.0000000000000000    0.0000000000000000
     0.0000000000000000    8.5490480000000009    0.0000000000000000
     0.0000000000000000    0.0000000000000000   20.0000000000000000
    29     2     1
Selective dynamics
Direct
  0.0564962098965083  0.0902101685227585  0.0854757515115984   T   T   T
  0.9313093442612632  0.1731768067167312  0.0879164680718438   T   T   T
  0.0568388691291762  0.9229647704387598  0.0853928560858384   T   T   T
  0.9308323990927678  0.3400821856169686  0.0913303146998410   T   T   T
  0.0562123769818502  0.5892547921962209  0.0885905550641781   T   T   T
  0.9320283804177476  0.6726894837833595  0.0904937758986075   T   T   T
  0.0569619052008365  0.4230991428540834  0.0898679698665957   T   T   T
  0.9311834834810054  0.8399573224938509  0.0874281713976637   T   T   T
  0.3055814009633517  0.0884068183115520  0.0874132570489172   T   T   T
  0.1821993481214019  0.1740631449802982  0.0868744539128851   T   T   T
  0.3071467076992695  0.9229299566411521  0.0893379018468560   T   T   T
  0.1820581811520878  0.3400577762603036  0.0900935064173777   T   T   T
  0.3055933502084838  0.5886963887265840  0.0987430619208508   T   T   T
  0.1817741974912878  0.6712223583698540  0.0894702566264233   T   T   T
  0.1822325464856795  0.8380994189714153  0.0877422474507844   T   T   T
  0.5554378241584624  0.0880390656610875  0.0938375859524304   T   T   T
  0.4299822025472474  0.1708458108402720  0.0917299539966131   T   T   T
  0.4294985016385568  0.3366282660259400  0.0991743763672958   T   T   T
  0.4306655990795218  0.8399670895538668  0.0990328878129207   T   T   T
  0.8070620138493372  0.0898484841202007  0.0886605747539062   T   T   T
  0.6809118026154596  0.1703950657588638  0.0940872978398647   T   T   T
  0.8059777787678521  0.9244731894739082  0.0885678222934220   T   T   T
  0.6799138047284911  0.3357265944710434  0.1021355719717026   T   T   T
  0.8076306548327614  0.5911240040820825  0.1001557202098342   T   T   T
  0.8055601176692389  0.4228421310383347  0.0988148190655570   T   T   T
  0.6814271136797203  0.8422674462394369  0.0974447578578679   T   T   T
  0.4246096211872059  0.6769320932690606  0.1141897476357008   T   T   T
  0.5527911167004330  0.4112190550838710  0.1137439429252624   T   T   T
  0.6879137868136924  0.6815497446671748  0.1116347045974235   T   T   T
  0.5553170219784850  0.9225364948016150  0.0966017496617264   T   T   T
  0.3060165726374497  0.4228148423556173  0.0961093778359524   T   T   T
  0.5604747665333732  0.5881260876737355  0.1635835614022749   T   T   T
 
  0.00000000E+00  0.00000000E+00  0.00000000E+00
  0.00000000E+00  0.00000000E+00  0.00000000E+00
  0.00000000E+00  0.00000000E+00  0.00000000E+00
  0.00000000E+00  0.00000000E+00  0.00000000E+00
  0.00000000E+00  0.00000000E+00  0.00000000E+00
  0.00000000E+00  0.00000000E+00  0.00000000E+00
  0.00000000E+00  0.00000000E+00  0.00000000E+00
  0.00000000E+00  0.00000000E+00  0.00000000E+00
  0.00000000E+00  0.00000000E+00  0.00000000E+00
  0.00000000E+00  0.00000000E+00  0.00000000E+00
  0.00000000E+00  0.00000000E+00  0.00000000E+00
  0.00000000E+00  0.00000000E+00  0.00000000E+00
  0.00000000E+00  0.00000000E+00  0.00000000E+00
  0.00000000E+00  0.00000000E+00  0.00000000E+00
  0.00000000E+00  0.00000000E+00  0.00000000E+00
  0.00000000E+00  0.00000000E+00  0.00000000E+00
  0.00000000E+00  0.00000000E+00  0.00000000E+00
  0.00000000E+00  0.00000000E+00  0.00000000E+00
  0.00000000E+00  0.00000000E+00  0.00000000E+00
  0.00000000E+00  0.00000000E+00  0.00000000E+00
  0.00000000E+00  0.00000000E+00  0.00000000E+00
  0.00000000E+00  0.00000000E+00  0.00000000E+00
  0.00000000E+00  0.00000000E+00  0.00000000E+00
  0.00000000E+00  0.00000000E+00  0.00000000E+00
  0.00000000E+00  0.00000000E+00  0.00000000E+00
  0.00000000E+00  0.00000000E+00  0.00000000E+00
  0.00000000E+00  0.00000000E+00  0.00000000E+00
  0.00000000E+00  0.00000000E+00  0.00000000E+00
  0.00000000E+00  0.00000000E+00  0.00000000E+00
  0.00000000E+00  0.00000000E+00  0.00000000E+00
  0.00000000E+00  0.00000000E+00  0.00000000E+00
  0.00000000E+00  0.00000000E+00  0.00000000E+00
