Title                                   
   1.00000000000000     
     9.8694509999999998    0.0000000000000000    0.0000000000000000
     0.0000000000000000    8.5490480000000009    0.0000000000000000
     0.0000000000000000    0.0000000000000000   20.0000000000000000
    26     4     1
Selective dynamics
Direct
  0.0542271864031358  0.0878297475049287  0.0854520025524223   T   T   T
  0.9291292814621193  0.1731561832624441  0.0851892740968162   T   T   T
  0.0577124556705760  0.9211447867118978  0.0867873073284461   T   T   T
  0.9322660678621973  0.3404214639806067  0.0850891690719089   T   T   T
  0.0571406583508335  0.5905428867339270  0.0859702480845601   T   T   T
  0.0560856437090029  0.4239000304186404  0.0845335346414623   T   T   T
  0.9322897166937030  0.8401686565807761  0.0891662945852429   T   T   T
  0.3056760960931912  0.0852980663072429  0.0922731149203218   T   T   T
  0.1797666986332656  0.1685280079401845  0.0878649062065159   T   T   T
  0.1796326433554217  0.3362452452776724  0.0873704549081323   T   T   T
  0.3051267162693183  0.5839673873030122  0.0936879120741670   T   T   T
  0.1822056581579413  0.6718407166760570  0.0880589839237316   T   T   T
  0.3018809731085726  0.4151715872016383  0.0964836202744935   T   T   T
  0.1837910813267375  0.8382456857688592  0.0881505977112998   T   T   T
  0.4266295816230112  0.1740975487426827  0.1008052131752478   T   T   T
  0.5556057559080746  0.9244530657600689  0.1011725479066403   T   T   T
  0.4300214724204999  0.6648307094228085  0.0998741376326234   T   T   T
  0.4334746300848160  0.8343970391164349  0.0975693992383499   T   T   T
  0.8024402314723290  0.0928788443830906  0.0895118194561641   T   T   T
  0.6774105630851518  0.1826739417134169  0.0940144049031700   T   T   T
  0.8056981040757368  0.9233126582103999  0.0925569389205965   T   T   T
  0.6826966319019337  0.3512641292242190  0.0953961248108942   T   T   T
  0.8137247271496305  0.5949402771093393  0.0976897855282051   T   T   T
  0.6911152681401623  0.6733948067383621  0.1146164922062875   T   T   T
  0.8111591955271511  0.4263783783307983  0.0908317595488891   T   T   T
  0.6818305600261302  0.8404179570527412  0.1024845670942864   T   T   T
  0.9345818657004158  0.6743848909347816  0.0890182651073599   T   T   T
  0.5534467635560828  0.0952878654714683  0.0995933385963736   T   T   T
  0.4192708399258132  0.3324013320011877  0.1112710721393129   T   T   T
  0.3072878329997921  0.9194910378815027  0.0915013731061257   T   T   T
  0.5598100993072711  0.5098100662388291  0.1369803402500009   T   T   T
 
  0.00000000E+00  0.00000000E+00  0.00000000E+00
  0.00000000E+00  0.00000000E+00  0.00000000E+00
  0.00000000E+00  0.00000000E+00  0.00000000E+00
  0.00000000E+00  0.00000000E+00  0.00000000E+00
  0.00000000E+00  0.00000000E+00  0.00000000E+00
  0.00000000E+00  0.00000000E+00  0.00000000E+00
  0.00000000E+00  0.00000000E+00  0.00000000E+00
  0.00000000E+00  0.00000000E+00  0.00000000E+00
  0.00000000E+00  0.00000000E+00  0.00000000E+00
  0.00000000E+00  0.00000000E+00  0.00000000E+00
  0.00000000E+00  0.00000000E+00  0.00000000E+00
  0.00000000E+00  0.00000000E+00  0.00000000E+00
  0.00000000E+00  0.00000000E+00  0.00000000E+00
  0.00000000E+00  0.00000000E+00  0.00000000E+00
  0.00000000E+00  0.00000000E+00  0.00000000E+00
  0.00000000E+00  0.00000000E+00  0.00000000E+00
  0.00000000E+00  0.00000000E+00  0.00000000E+00
  0.00000000E+00  0.00000000E+00  0.00000000E+00
  0.00000000E+00  0.00000000E+00  0.00000000E+00
  0.00000000E+00  0.00000000E+00  0.00000000E+00
  0.00000000E+00  0.00000000E+00  0.00000000E+00
  0.00000000E+00  0.00000000E+00  0.00000000E+00
  0.00000000E+00  0.00000000E+00  0.00000000E+00
  0.00000000E+00  0.00000000E+00  0.00000000E+00
  0.00000000E+00  0.00000000E+00  0.00000000E+00
  0.00000000E+00  0.00000000E+00  0.00000000E+00
  0.00000000E+00  0.00000000E+00  0.00000000E+00
  0.00000000E+00  0.00000000E+00  0.00000000E+00
  0.00000000E+00  0.00000000E+00  0.00000000E+00
  0.00000000E+00  0.00000000E+00  0.00000000E+00
  0.00000000E+00  0.00000000E+00  0.00000000E+00
