Title                                   
   1.00000000000000     
     8.5490480000000009    0.0000000000000000    0.0000000000000000
     0.0000000000000000    8.5490480000000009    0.0000000000000000
     0.0000000000000000    0.0000000000000000   20.0000000000000000
    21     3     1
Selective dynamics
Direct
  0.9095732039343911  0.2090301820003728  0.0979110213517584   T   T   T
  0.9125176963807804  0.8010668382966264  0.0978574979116532   T   T   T
  0.1995375844021768  0.0828209590401878  0.0981070356453311   T   T   T
  0.0741708199601034  0.2049317581097467  0.0980877089055668   T   T   T
  0.1566992561806435  0.6486575340233566  0.0979731468979966   T   T   T
  0.0732381634908353  0.5029128944757419  0.0980308048884786   T   T   T
  0.1562814852229627  0.3569820650193890  0.0980869777481155   T   T   T
  0.0793833678895807  0.7984514041538477  0.0979807590587363   T   T   T
  0.4944889166792421  0.0832662222794652  0.0978707796854718   T   T   T
  0.3463270192705326  0.1647680171554783  0.0980277808601735   T   T   T
  0.4945996835035946  0.9132191852687807  0.0979005418430587   T   T   T
  0.3480006922039658  0.8303537045975012  0.0980291132647445   T   T   T
  0.7867004126219683  0.0865304793418175  0.0977631779210147   T   T   T
  0.6387283943308261  0.1668795868385930  0.0977747922552422   T   T   T
  0.7897461539905061  0.9195307978828489  0.0977845603694676   T   T   T
  0.8286639300072763  0.6516660041887514  0.0979460146128047   T   T   T
  0.8237185122694713  0.3598956977131301  0.0979248051205172   T   T   T
  0.6428125193777280  0.8335607213857124  0.0978731221634883   T   T   T
  0.3244879360477703  0.3365563110715515  0.0980011148787168   T   T   T
  0.3244036443561993  0.6655440358885808  0.0979558176488023   T   T   T
  0.6578131794334071  0.3385464250858456  0.0978095101810128   T   T   T
  0.9060369387920139  0.5049927595435895  0.0980487872537641   T   T   T
  0.6681305123000625  0.6706410522084073  0.0979780942736744   T   T   T
  0.1994843149994645  0.9161294731900831  0.0981396374013824   T   T   T
  0.4898676623544908  0.4978558912406076  0.0978423978590101   T   T   T
 
  0.00000000E+00  0.00000000E+00  0.00000000E+00
  0.00000000E+00  0.00000000E+00  0.00000000E+00
  0.00000000E+00  0.00000000E+00  0.00000000E+00
  0.00000000E+00  0.00000000E+00  0.00000000E+00
  0.00000000E+00  0.00000000E+00  0.00000000E+00
  0.00000000E+00  0.00000000E+00  0.00000000E+00
  0.00000000E+00  0.00000000E+00  0.00000000E+00
  0.00000000E+00  0.00000000E+00  0.00000000E+00
  0.00000000E+00  0.00000000E+00  0.00000000E+00
  0.00000000E+00  0.00000000E+00  0.00000000E+00
  0.00000000E+00  0.00000000E+00  0.00000000E+00
  0.00000000E+00  0.00000000E+00  0.00000000E+00
  0.00000000E+00  0.00000000E+00  0.00000000E+00
  0.00000000E+00  0.00000000E+00  0.00000000E+00
  0.00000000E+00  0.00000000E+00  0.00000000E+00
  0.00000000E+00  0.00000000E+00  0.00000000E+00
  0.00000000E+00  0.00000000E+00  0.00000000E+00
  0.00000000E+00  0.00000000E+00  0.00000000E+00
  0.00000000E+00  0.00000000E+00  0.00000000E+00
  0.00000000E+00  0.00000000E+00  0.00000000E+00
  0.00000000E+00  0.00000000E+00  0.00000000E+00
  0.00000000E+00  0.00000000E+00  0.00000000E+00
  0.00000000E+00  0.00000000E+00  0.00000000E+00
  0.00000000E+00  0.00000000E+00  0.00000000E+00
  0.00000000E+00  0.00000000E+00  0.00000000E+00
