Title                                   
   1.00000000000000     
     9.8694509999999998    0.0000000000000000    0.0000000000000000
     0.0000000000000000    8.5490480000000009    0.0000000000000000
     0.0000000000000000    0.0000000000000000   20.0000000000000000
    31     1
Selective dynamics
Direct
  0.0562432302123797  0.0902055504112017  0.0801203658336555   T   T   T
  0.9311121715108409  0.1731804808669592  0.0824654982711285   T   T   T
  0.0562277063295510  0.9231749820510962  0.0809180730455721   T   T   T
  0.9305543495827147  0.3401867450698860  0.0861232233345527   T   T   T
  0.0562315641608621  0.5891248017264460  0.0845421796928702   T   T   T
  0.9321039296954590  0.6729587754160190  0.0876187393948011   T   T   T
  0.0562256330240371  0.4232912886744363  0.0846742296475243   T   T   T
  0.9317212085636670  0.8398044990867627  0.0846191507467697   T   T   T
  0.3054648091915607  0.0895066580130082  0.0851031830623998   T   T   T
  0.1813684055385347  0.1731973588706709  0.0824492407504736   T   T   T
  0.3052102422490444  0.9232789512052488  0.0879217656859881   T   T   T
  0.1819148663297034  0.3402036995802603  0.0861105451103150   T   T   T
  0.3020899403822341  0.5901591214639217  0.1005828705822117   T   T   T
  0.1803758580324012  0.6729636045728908  0.0875772782111730   T   T   T
  0.3054353809953432  0.4221736600617552  0.0974852920400831   T   T   T
  0.1807381094888098  0.8398109185239576  0.0845856214879892   T   T   T
  0.5562407974900277  0.0871591047450180  0.0926954783437253   T   T   T
  0.4304908762857009  0.1708714035145781  0.0914163275271895   T   T   T
  0.5562322585025125  0.9224786055735116  0.0996094592355890   T   T   T
  0.4298236610624096  0.3346479709879014  0.1019457428506568   T   T   T
  0.4174454022247098  0.6812045499472102  0.1188877395906174   T   T   T
  0.5562401345450972  0.4048180707129355  0.1200075359091563   T   T   T
  0.4279839518748951  0.8421162441363598  0.1014820816708025   T   T   T
  0.8070136209841203  0.0894822340170909  0.0851198971573282   T   T   T
  0.6819971909819349  0.1708539905151316  0.0914332104419502   T   T   T
  0.8072436462642968  0.9232504768760355  0.0879465418459050   T   T   T
  0.6826613216814194  0.3346425361309742  0.1019604223439130   T   T   T
  0.8104205092544577  0.5901470735026776  0.1006270703066901   T   T   T
  0.6950669361115330  0.6811791318276564  0.1189041031241319   T   T   T
  0.8070456966125363  0.4221561025738165  0.0975106003483477   T   T   T
  0.6844807519573221  0.8420741043391028  0.1014942265216534   T   T   T
  0.5562348388798887  0.5899433050054880  0.1717373058848706   T   T   T
 
  0.00000000E+00  0.00000000E+00  0.00000000E+00
  0.00000000E+00  0.00000000E+00  0.00000000E+00
  0.00000000E+00  0.00000000E+00  0.00000000E+00
  0.00000000E+00  0.00000000E+00  0.00000000E+00
  0.00000000E+00  0.00000000E+00  0.00000000E+00
  0.00000000E+00  0.00000000E+00  0.00000000E+00
  0.00000000E+00  0.00000000E+00  0.00000000E+00
  0.00000000E+00  0.00000000E+00  0.00000000E+00
  0.00000000E+00  0.00000000E+00  0.00000000E+00
  0.00000000E+00  0.00000000E+00  0.00000000E+00
  0.00000000E+00  0.00000000E+00  0.00000000E+00
  0.00000000E+00  0.00000000E+00  0.00000000E+00
  0.00000000E+00  0.00000000E+00  0.00000000E+00
  0.00000000E+00  0.00000000E+00  0.00000000E+00
  0.00000000E+00  0.00000000E+00  0.00000000E+00
  0.00000000E+00  0.00000000E+00  0.00000000E+00
  0.00000000E+00  0.00000000E+00  0.00000000E+00
  0.00000000E+00  0.00000000E+00  0.00000000E+00
  0.00000000E+00  0.00000000E+00  0.00000000E+00
  0.00000000E+00  0.00000000E+00  0.00000000E+00
  0.00000000E+00  0.00000000E+00  0.00000000E+00
  0.00000000E+00  0.00000000E+00  0.00000000E+00
  0.00000000E+00  0.00000000E+00  0.00000000E+00
  0.00000000E+00  0.00000000E+00  0.00000000E+00
  0.00000000E+00  0.00000000E+00  0.00000000E+00
  0.00000000E+00  0.00000000E+00  0.00000000E+00
  0.00000000E+00  0.00000000E+00  0.00000000E+00
  0.00000000E+00  0.00000000E+00  0.00000000E+00
  0.00000000E+00  0.00000000E+00  0.00000000E+00
  0.00000000E+00  0.00000000E+00  0.00000000E+00
  0.00000000E+00  0.00000000E+00  0.00000000E+00
  0.00000000E+00  0.00000000E+00  0.00000000E+00
