Title                                   
   1.00000000000000     
     9.8694509999999998    0.0000000000000000    0.0000000000000000
     0.0000000000000000    8.5490480000000009    0.0000000000000000
     0.0000000000000000    0.0000000000000000   20.0000000000000000
    25     5     1
Selective dynamics
Direct
  0.0558018216829717  0.0889200884953164  0.0900964287200032   T   T   T
  0.9315109362880650  0.1720281286964084  0.0898858470691123   T   T   T
  0.0571935821671691  0.9213643025511472  0.0905633409699410   T   T   T
  0.9351799551659230  0.3388366111841717  0.0890685647707393   T   T   T
  0.0554667625000840  0.5909005190424030  0.0894635300264643   T   T   T
  0.0564630444416794  0.4237026031836734  0.0887245098594328   T   T   T
  0.9325779518120433  0.8392838017032213  0.0910584639166451   T   T   T
  0.3069162822477691  0.0890046953573396  0.0949610922305929   T   T   T
  0.1802502880858299  0.1705637501083257  0.0918192674950713   T   T   T
  0.1786024617999531  0.3373608897191258  0.0915167628188104   T   T   T
  0.2984164004222050  0.5878088976655083  0.0974282352179708   T   T   T
  0.1772303828418482  0.6741713495004080  0.0923758060138360   T   T   T
  0.2992760832743067  0.4196782251939505  0.0968816201627290   T   T   T
  0.1817338308943918  0.8410276352149937  0.0923227165567846   T   T   T
  0.4297439800504991  0.1742854810163895  0.0988258024088341   T   T   T
  0.5558325029397939  0.9209693737378737  0.0992121824723496   T   T   T
  0.4187746483167858  0.6754759096953694  0.1029392673956498   T   T   T
  0.4284007080644467  0.8376446338049869  0.0998130048408095   T   T   T
  0.8058682734625210  0.0877949635061382  0.0926487158418327   T   T   T
  0.6824489896920852  0.1760163250390596  0.0965150837984608   T   T   T
  0.8071674900696649  0.9211950886562269  0.0933809029222117   T   T   T
  0.6920947245769700  0.3388854074604762  0.0980096308386698   T   T   T
  0.8142893957755024  0.5926269839514842  0.0936128042576366   T   T   T
  0.8141873922639129  0.4235925111787480  0.0927510904109441   T   T   T
  0.6813550621103238  0.8380325490841922  0.0975388553836239   T   T   T
  0.9337128878285144  0.6737822038278088  0.0903205151225560   T   T   T
  0.5559751726319043  0.0939345601847951  0.0990623386704562   T   T   T
  0.4200726750366222  0.3373563048919429  0.1018442296665100   T   T   T
  0.6950615125293135  0.6738633151030813  0.0992900666869783   T   T   T
  0.3047416106682612  0.9234872411185534  0.0948230274154197   T   T   T
  0.5567881903586424  0.5072806501269075  0.1042112960389583   T   T   T
 
  0.00000000E+00  0.00000000E+00  0.00000000E+00
  0.00000000E+00  0.00000000E+00  0.00000000E+00
  0.00000000E+00  0.00000000E+00  0.00000000E+00
  0.00000000E+00  0.00000000E+00  0.00000000E+00
  0.00000000E+00  0.00000000E+00  0.00000000E+00
  0.00000000E+00  0.00000000E+00  0.00000000E+00
  0.00000000E+00  0.00000000E+00  0.00000000E+00
  0.00000000E+00  0.00000000E+00  0.00000000E+00
  0.00000000E+00  0.00000000E+00  0.00000000E+00
  0.00000000E+00  0.00000000E+00  0.00000000E+00
  0.00000000E+00  0.00000000E+00  0.00000000E+00
  0.00000000E+00  0.00000000E+00  0.00000000E+00
  0.00000000E+00  0.00000000E+00  0.00000000E+00
  0.00000000E+00  0.00000000E+00  0.00000000E+00
  0.00000000E+00  0.00000000E+00  0.00000000E+00
  0.00000000E+00  0.00000000E+00  0.00000000E+00
  0.00000000E+00  0.00000000E+00  0.00000000E+00
  0.00000000E+00  0.00000000E+00  0.00000000E+00
  0.00000000E+00  0.00000000E+00  0.00000000E+00
  0.00000000E+00  0.00000000E+00  0.00000000E+00
  0.00000000E+00  0.00000000E+00  0.00000000E+00
  0.00000000E+00  0.00000000E+00  0.00000000E+00
  0.00000000E+00  0.00000000E+00  0.00000000E+00
  0.00000000E+00  0.00000000E+00  0.00000000E+00
  0.00000000E+00  0.00000000E+00  0.00000000E+00
  0.00000000E+00  0.00000000E+00  0.00000000E+00
  0.00000000E+00  0.00000000E+00  0.00000000E+00
  0.00000000E+00  0.00000000E+00  0.00000000E+00
  0.00000000E+00  0.00000000E+00  0.00000000E+00
  0.00000000E+00  0.00000000E+00  0.00000000E+00
  0.00000000E+00  0.00000000E+00  0.00000000E+00
