Title                                   
   1.00000000000000     
     9.8694509999999998    0.0000000000000000    0.0000000000000000
     0.0000000000000000    8.5490480000000009    0.0000000000000000
     0.0000000000000000    0.0000000000000000   20.0000000000000000
    28     2     1
Selective dynamics
Direct
  0.0557685137807260  0.0888633276727231  0.0885092880696889   T   T   T
  0.9309708572169715  0.1723135628192489  0.0887834234478497   T   T   T
  0.0575448680122576  0.9227722333390648  0.0888414046995839   T   T   T
  0.9331469472868467  0.3395247757518501  0.0894196246816626   T   T   T
  0.0571991690486513  0.5902961164409718  0.0893321991006238   T   T   T
  0.9331381400225202  0.6739348716936454  0.0905635778161139   T   T   T
  0.0572444417625748  0.4229560624385213  0.0889562045285108   T   T   T
  0.9317233355413160  0.8402331531539187  0.0898487377869592   T   T   T
  0.3058513144550171  0.0884191404523731  0.0929713963619212   T   T   T
  0.1804626309273015  0.1699739761913588  0.0902650699307874   T   T   T
  0.1805775485340617  0.3377987334724228  0.0905884438543997   T   T   T
  0.3054249779326603  0.5875163335437575  0.0950062533354561   T   T   T
  0.1820751757287770  0.6726819037613984  0.0905221913988296   T   T   T
  0.3034495228906450  0.4189663110986543  0.0953637815983172   T   T   T
  0.1826257792867308  0.8398870677176121  0.0901737657683581   T   T   T
  0.5545627075032553  0.0926296443299771  0.0971169254959498   T   T   T
  0.4287556284671363  0.1759309384399040  0.0976199894171928   T   T   T
  0.5541698359638022  0.9244909521986225  0.0975532302026596   T   T   T
  0.4290932501976939  0.6702565856242632  0.1013273782156694   T   T   T
  0.4304853578869197  0.8364978139589434  0.0973498175927300   T   T   T
  0.8052910669591030  0.0904046317239305  0.0906201140734759   T   T   T
  0.6804338949513838  0.1776152135466538  0.0945728980704646   T   T   T
  0.8054396198767179  0.9229843988207777  0.0913678510798043   T   T   T
  0.6845869908933009  0.3432803747207415  0.0967486895088328   T   T   T
  0.8090332147155017  0.5918291730034287  0.0940830495434770   T   T   T
  0.6838079267641102  0.6712656477670167  0.0997275425419757   T   T   T
  0.8096685435545806  0.4224507352774671  0.0927317721699950   T   T   T
  0.6799869605171761  0.8377393835792629  0.0961232442299978   T   T   T
  0.4248324289506532  0.3392741313044285  0.1021944037231221   T   T   T
  0.3068073729088858  0.9224250587685632  0.0924331633471890   T   T   T
  0.5589769774627373  0.5056627473885177  0.1402495684084503   T   T   T
 
  0.00000000E+00  0.00000000E+00  0.00000000E+00
  0.00000000E+00  0.00000000E+00  0.00000000E+00
  0.00000000E+00  0.00000000E+00  0.00000000E+00
  0.00000000E+00  0.00000000E+00  0.00000000E+00
  0.00000000E+00  0.00000000E+00  0.00000000E+00
  0.00000000E+00  0.00000000E+00  0.00000000E+00
  0.00000000E+00  0.00000000E+00  0.00000000E+00
  0.00000000E+00  0.00000000E+00  0.00000000E+00
  0.00000000E+00  0.00000000E+00  0.00000000E+00
  0.00000000E+00  0.00000000E+00  0.00000000E+00
  0.00000000E+00  0.00000000E+00  0.00000000E+00
  0.00000000E+00  0.00000000E+00  0.00000000E+00
  0.00000000E+00  0.00000000E+00  0.00000000E+00
  0.00000000E+00  0.00000000E+00  0.00000000E+00
  0.00000000E+00  0.00000000E+00  0.00000000E+00
  0.00000000E+00  0.00000000E+00  0.00000000E+00
  0.00000000E+00  0.00000000E+00  0.00000000E+00
  0.00000000E+00  0.00000000E+00  0.00000000E+00
  0.00000000E+00  0.00000000E+00  0.00000000E+00
  0.00000000E+00  0.00000000E+00  0.00000000E+00
  0.00000000E+00  0.00000000E+00  0.00000000E+00
  0.00000000E+00  0.00000000E+00  0.00000000E+00
  0.00000000E+00  0.00000000E+00  0.00000000E+00
  0.00000000E+00  0.00000000E+00  0.00000000E+00
  0.00000000E+00  0.00000000E+00  0.00000000E+00
  0.00000000E+00  0.00000000E+00  0.00000000E+00
  0.00000000E+00  0.00000000E+00  0.00000000E+00
  0.00000000E+00  0.00000000E+00  0.00000000E+00
  0.00000000E+00  0.00000000E+00  0.00000000E+00
  0.00000000E+00  0.00000000E+00  0.00000000E+00
  0.00000000E+00  0.00000000E+00  0.00000000E+00
