Title                                   
   1.00000000000000     
     9.8694509999999998    0.0000000000000000    0.0000000000000000
     0.0000000000000000    8.5490480000000009    0.0000000000000000
     0.0000000000000000    0.0000000000000000   20.0000000000000000
    29     2     1
Selective dynamics
Direct
  0.0565631984505142  0.0907955502394079  0.0824098339404659   T   T   T
  0.9309758599522029  0.1731136226119675  0.0851676162551971   T   T   T
  0.0557132987841913  0.9236592929080799  0.0829382509544324   T   T   T
  0.9308474137676944  0.3402814360488480  0.0891848117324007   T   T   T
  0.0566529782234841  0.5892291870816727  0.0865138096601384   T   T   T
  0.9318118144592541  0.6723043220713537  0.0899704128840889   T   T   T
  0.0568866404250506  0.4233798932154478  0.0870500052600688   T   T   T
  0.9307358149251530  0.8392572468009903  0.0862521187685062   T   T   T
  0.3057916120980670  0.0899225279530190  0.0856572180801977   T   T   T
  0.1820809967367238  0.1742761086359703  0.0843508312902247   T   T   T
  0.3057819326067462  0.9238831252827441  0.0869538137976920   T   T   T
  0.1833491735891354  0.3421835938965778  0.0879723122663253   T   T   T
  0.3044338297940039  0.5940855827892599  0.0993553447541342   T   T   T
  0.1810079585051168  0.6736571369474409  0.0884131864361973   T   T   T
  0.3085876961547688  0.4250755067582554  0.0974302342320824   T   T   T
  0.1806471719292970  0.8405516604091574  0.0856730778543952   T   T   T
  0.5557832018972179  0.0850295136636477  0.0949327521365480   T   T   T
  0.4314527898310829  0.1697963629896008  0.0927260298769137   T   T   T
  0.4320978219072909  0.3348765995660314  0.1027730428083604   T   T   T
  0.5569063102346437  0.4054816761070878  0.1217123963150388   T   T   T
  0.4279274022806001  0.8403265565860021  0.0981558419710020   T   T   T
  0.8071526372233544  0.0885332033061490  0.0871353520581153   T   T   T
  0.6816038804826439  0.1679539216669645  0.0947795129211663   T   T   T
  0.8052570638598231  0.9224260299224534  0.0880522735512244   T   T   T
  0.6825992133987581  0.3328088457379733  0.1054860769509435   T   T   T
  0.8096324979842281  0.5904898602475166  0.1034012098311495   T   T   T
  0.6918453056232042  0.6813097380662373  0.1205497060352225   T   T   T
  0.8068080563580659  0.4217832935955363  0.1006091365920350   T   T   T
  0.6822262899605488  0.8395935463700720  0.0999559160858451   T   T   T
  0.4190349077723354  0.6849593031629795  0.1160614835951477   T   T   T
  0.5546827459777113  0.9190469316627279  0.0980435244560431   T   T   T
  0.5527614848070953  0.5901748236988166  0.1740078666487430   T   T   T
 
  0.00000000E+00  0.00000000E+00  0.00000000E+00
  0.00000000E+00  0.00000000E+00  0.00000000E+00
  0.00000000E+00  0.00000000E+00  0.00000000E+00
  0.00000000E+00  0.00000000E+00  0.00000000E+00
  0.00000000E+00  0.00000000E+00  0.00000000E+00
  0.00000000E+00  0.00000000E+00  0.00000000E+00
  0.00000000E+00  0.00000000E+00  0.00000000E+00
  0.00000000E+00  0.00000000E+00  0.00000000E+00
  0.00000000E+00  0.00000000E+00  0.00000000E+00
  0.00000000E+00  0.00000000E+00  0.00000000E+00
  0.00000000E+00  0.00000000E+00  0.00000000E+00
  0.00000000E+00  0.00000000E+00  0.00000000E+00
  0.00000000E+00  0.00000000E+00  0.00000000E+00
  0.00000000E+00  0.00000000E+00  0.00000000E+00
  0.00000000E+00  0.00000000E+00  0.00000000E+00
  0.00000000E+00  0.00000000E+00  0.00000000E+00
  0.00000000E+00  0.00000000E+00  0.00000000E+00
  0.00000000E+00  0.00000000E+00  0.00000000E+00
  0.00000000E+00  0.00000000E+00  0.00000000E+00
  0.00000000E+00  0.00000000E+00  0.00000000E+00
  0.00000000E+00  0.00000000E+00  0.00000000E+00
  0.00000000E+00  0.00000000E+00  0.00000000E+00
  0.00000000E+00  0.00000000E+00  0.00000000E+00
  0.00000000E+00  0.00000000E+00  0.00000000E+00
  0.00000000E+00  0.00000000E+00  0.00000000E+00
  0.00000000E+00  0.00000000E+00  0.00000000E+00
  0.00000000E+00  0.00000000E+00  0.00000000E+00
  0.00000000E+00  0.00000000E+00  0.00000000E+00
  0.00000000E+00  0.00000000E+00  0.00000000E+00
  0.00000000E+00  0.00000000E+00  0.00000000E+00
  0.00000000E+00  0.00000000E+00  0.00000000E+00
  0.00000000E+00  0.00000000E+00  0.00000000E+00
