Title                                   
   1.00000000000000     
     4.9440799999999996    0.0000000000000000    0.0000000000000000
     0.0000000000000000    8.5647549999999999    0.0000000000000000
     0.0000000000000000    0.0000000000000000   20.0000000000000000
     9     5     1
Selective dynamics
Direct
 -0.0021594274276866  0.2937306069790901  0.0970907035338497   T   T   T
  0.2500000000000000  0.0398531775411118  0.0986350099973508   T   T   T
 -0.0020169853250618  0.9573172669814717  0.0981893204912346   T   T   T
  0.7500000000000000  0.2072671012074598  0.0930288620448579   T   T   T
  0.5021594274276860  0.2937306069790901  0.0970907035338497   T   T   T
  0.7500000000000000  0.0413097416778216  0.0939037465013071   T   T   T
  0.7500000000000000  0.7101423892116936  0.0980779377688028   T   T   T
  0.7500000000000000  0.5385337683657031  0.0973757998832938   T   T   T
  0.5020169853250621  0.9573172669814717  0.0981893204912346   T   T   T
  0.5101702615491324  0.4528056208080755  0.1038531583779659   T   T   T
 -0.0101702615491322  0.4528056208080755  0.1038531583779659   T   T   T
 -0.0111691170268952  0.7951286588656293  0.1046740081217129   T   T   T
  0.5111691170268949  0.7951286588656293  0.1046740081217129   T   T   T
  0.2500000000000000  0.2117332968318568  0.0980906822382147   T   T   T
  0.2500000000000000  0.6248772178958230  0.1212535805166501   T   T   T
 
  0.00000000E+00  0.00000000E+00  0.00000000E+00
  0.00000000E+00  0.00000000E+00  0.00000000E+00
  0.00000000E+00  0.00000000E+00  0.00000000E+00
  0.00000000E+00  0.00000000E+00  0.00000000E+00
  0.00000000E+00  0.00000000E+00  0.00000000E+00
  0.00000000E+00  0.00000000E+00  0.00000000E+00
  0.00000000E+00  0.00000000E+00  0.00000000E+00
  0.00000000E+00  0.00000000E+00  0.00000000E+00
  0.00000000E+00  0.00000000E+00  0.00000000E+00
  0.00000000E+00  0.00000000E+00  0.00000000E+00
  0.00000000E+00  0.00000000E+00  0.00000000E+00
  0.00000000E+00  0.00000000E+00  0.00000000E+00
  0.00000000E+00  0.00000000E+00  0.00000000E+00
  0.00000000E+00  0.00000000E+00  0.00000000E+00
  0.00000000E+00  0.00000000E+00  0.00000000E+00
