Title                                   
   1.00000000000000     
     9.8694509999999998    0.0000000000000000    0.0000000000000000
     0.0000000000000000    8.5490480000000009    0.0000000000000000
     0.0000000000000000    0.0000000000000000   20.0000000000000000
    28     3     1
Selective dynamics
Direct
  0.0564981119930921  0.0913881720344537  0.0810689109682270   T   T   T
  0.9310788795094802  0.1738609999576758  0.0832953543673415   T   T   T
  0.0557491405737183  0.9241219577333256  0.0823396397986141   T   T   T
  0.9303373623185723  0.3405328016105558  0.0876797771787166   T   T   T
  0.0567273541174614  0.5893667557418375  0.0859039220287039   T   T   T
  0.9320888500739697  0.6724718715102397  0.0889703724705076   T   T   T
  0.0569589367621221  0.4233669484166820  0.0863626126393700   T   T   T
  0.9308492623336899  0.8397990589627549  0.0853879629014526   T   T   T
  0.3054874423625031  0.0901683506059454  0.0839062736052606   T   T   T
  0.1821524360381802  0.1748720545703221  0.0828074309582766   T   T   T
  0.3056723063737776  0.9244575896340170  0.0869571024420510   T   T   T
  0.1839942673052067  0.3421493101411788  0.0867092484619283   T   T   T
  0.3040156256675453  0.5940727401588723  0.0995047477519109   T   T   T
  0.1809205246751709  0.6737416795834364  0.0887226756884535   T   T   T
  0.3107697696783330  0.4256117852821433  0.0956714519893473   T   T   T
  0.1805211338507108  0.8408826165922588  0.0860339269362204   T   T   T
  0.5559257584584697  0.0842605589200120  0.0933387730691254   T   T   T
  0.4315578472424113  0.1690181730630022  0.0905590637570363   T   T   T
  0.4332091845219487  0.3326650690638639  0.0996095000115701   T   T   T
  0.4275857717555842  0.8422005702935860  0.0986137555056924   T   T   T
  0.8073416828941906  0.0892292400346884  0.0845574396211607   T   T   T
  0.6813317434086182  0.1675153995709778  0.0919300167015861   T   T   T
  0.8054524578495660  0.9234541767514036  0.0864397437868886   T   T   T
  0.6811663248079933  0.3314006620114338  0.1017580988956414   T   T   T
  0.8096983003127975  0.5910108767988326  0.1019518154134965   T   T   T
  0.6931531021107145  0.6833766804670860  0.1199925937333668   T   T   T
  0.8046352134936448  0.4225665910771215  0.0980366059805510   T   T   T
  0.6826735621406569  0.8414346334579763  0.0990177697707201   T   T   T
  0.4170339566368476  0.6872111558685775  0.1190809432673972   T   T   T
  0.5568447229248420  0.3997392741131429  0.1188701323943390   T   T   T
  0.5550355000751738  0.9193569100211150  0.0969384829545789   T   T   T
  0.5531724677330142  0.5849413359514910  0.1736588549505018   T   T   T
 
  0.00000000E+00  0.00000000E+00  0.00000000E+00
  0.00000000E+00  0.00000000E+00  0.00000000E+00
  0.00000000E+00  0.00000000E+00  0.00000000E+00
  0.00000000E+00  0.00000000E+00  0.00000000E+00
  0.00000000E+00  0.00000000E+00  0.00000000E+00
  0.00000000E+00  0.00000000E+00  0.00000000E+00
  0.00000000E+00  0.00000000E+00  0.00000000E+00
  0.00000000E+00  0.00000000E+00  0.00000000E+00
  0.00000000E+00  0.00000000E+00  0.00000000E+00
  0.00000000E+00  0.00000000E+00  0.00000000E+00
  0.00000000E+00  0.00000000E+00  0.00000000E+00
  0.00000000E+00  0.00000000E+00  0.00000000E+00
  0.00000000E+00  0.00000000E+00  0.00000000E+00
  0.00000000E+00  0.00000000E+00  0.00000000E+00
  0.00000000E+00  0.00000000E+00  0.00000000E+00
  0.00000000E+00  0.00000000E+00  0.00000000E+00
  0.00000000E+00  0.00000000E+00  0.00000000E+00
  0.00000000E+00  0.00000000E+00  0.00000000E+00
  0.00000000E+00  0.00000000E+00  0.00000000E+00
  0.00000000E+00  0.00000000E+00  0.00000000E+00
  0.00000000E+00  0.00000000E+00  0.00000000E+00
  0.00000000E+00  0.00000000E+00  0.00000000E+00
  0.00000000E+00  0.00000000E+00  0.00000000E+00
  0.00000000E+00  0.00000000E+00  0.00000000E+00
  0.00000000E+00  0.00000000E+00  0.00000000E+00
  0.00000000E+00  0.00000000E+00  0.00000000E+00
  0.00000000E+00  0.00000000E+00  0.00000000E+00
  0.00000000E+00  0.00000000E+00  0.00000000E+00
  0.00000000E+00  0.00000000E+00  0.00000000E+00
  0.00000000E+00  0.00000000E+00  0.00000000E+00
  0.00000000E+00  0.00000000E+00  0.00000000E+00
  0.00000000E+00  0.00000000E+00  0.00000000E+00
