Title                                   
   1.00000000000000     
     9.8694509999999998    0.0000000000000000    0.0000000000000000
     0.0000000000000000    8.5490480000000009    0.0000000000000000
     0.0000000000000000    0.0000000000000000   20.0000000000000000
    25     5     1
Selective dynamics
Direct
  0.0557543025896420  0.0893251751241586  0.0908822690612588   T   T   T
  0.9311658552886594  0.1735592297619949  0.0939542943038885   T   T   T
  0.0580781215703621  0.9208014792868107  0.0910076772987645   T   T   T
  0.9327423636404947  0.3408613573451131  0.0954305528548714   T   T   T
  0.0567015726264271  0.5907365400239626  0.0917414562079326   T   T   T
  0.0561973854313778  0.4235167973331623  0.0915065884663629   T   T   T
  0.9332766698686151  0.8398462131901901  0.0952289039775679   T   T   T
  0.3077382958132371  0.0871056814949371  0.0878401047254662   T   T   T
  0.1807132646030694  0.1706397832545997  0.0888376620136794   T   T   T
  0.1796386225303925  0.3371046175862966  0.0887660381754776   T   T   T
  0.3060746972929261  0.5861187896073508  0.0834428072045409   T   T   T
  0.1805662470856548  0.6722635992620355  0.0878665606231216   T   T   T
  0.3046198429376106  0.4171306928889090  0.0863611853434935   T   T   T
  0.1832788833478449  0.8389674829294458  0.0878196577678186   T   T   T
  0.4298526060235434  0.1705958162312197  0.0899607275222098   T   T   T
  0.5573650499591691  0.9214668992179132  0.0955989826187802   T   T   T
  0.4290759806527004  0.6746430774561119  0.0818240972818830   T   T   T
  0.4314456414454290  0.8374693412771501  0.0871487675900007   T   T   T
  0.8051743481107766  0.0901524162742196  0.0957389817432397   T   T   T
  0.6810790683605020  0.1786758920216341  0.0991000375710684   T   T   T
  0.8076877680221178  0.9226701318892341  0.0971778170408180   T   T   T
  0.6840950766243170  0.3435554115789584  0.1069320255470424   T   T   T
  0.8114013601783522  0.5943504707302389  0.1039445395112771   T   T   T
  0.8095015434441485  0.4251964802449356  0.1025879690047121   T   T   T
  0.6826887318291012  0.8384906970924362  0.1015033155126337   T   T   T
  0.9332235960808217  0.6733631651980386  0.0961767038838471   T   T   T
  0.5569233564076602  0.0928408026327514  0.0948064034258908   T   T   T
  0.4258119081589397  0.3327103473365206  0.0897240955845382   T   T   T
  0.6919624580301128  0.6751600435003493  0.1116039939694096   T   T   T
  0.3063442326549612  0.9214805716888887  0.0861281509924939   T   T   T
  0.5329561493910349  0.5100759965404627  0.1403226331759450   T   T   T
 
  0.00000000E+00  0.00000000E+00  0.00000000E+00
  0.00000000E+00  0.00000000E+00  0.00000000E+00
  0.00000000E+00  0.00000000E+00  0.00000000E+00
  0.00000000E+00  0.00000000E+00  0.00000000E+00
  0.00000000E+00  0.00000000E+00  0.00000000E+00
  0.00000000E+00  0.00000000E+00  0.00000000E+00
  0.00000000E+00  0.00000000E+00  0.00000000E+00
  0.00000000E+00  0.00000000E+00  0.00000000E+00
  0.00000000E+00  0.00000000E+00  0.00000000E+00
  0.00000000E+00  0.00000000E+00  0.00000000E+00
  0.00000000E+00  0.00000000E+00  0.00000000E+00
  0.00000000E+00  0.00000000E+00  0.00000000E+00
  0.00000000E+00  0.00000000E+00  0.00000000E+00
  0.00000000E+00  0.00000000E+00  0.00000000E+00
  0.00000000E+00  0.00000000E+00  0.00000000E+00
  0.00000000E+00  0.00000000E+00  0.00000000E+00
  0.00000000E+00  0.00000000E+00  0.00000000E+00
  0.00000000E+00  0.00000000E+00  0.00000000E+00
  0.00000000E+00  0.00000000E+00  0.00000000E+00
  0.00000000E+00  0.00000000E+00  0.00000000E+00
  0.00000000E+00  0.00000000E+00  0.00000000E+00
  0.00000000E+00  0.00000000E+00  0.00000000E+00
  0.00000000E+00  0.00000000E+00  0.00000000E+00
  0.00000000E+00  0.00000000E+00  0.00000000E+00
  0.00000000E+00  0.00000000E+00  0.00000000E+00
  0.00000000E+00  0.00000000E+00  0.00000000E+00
  0.00000000E+00  0.00000000E+00  0.00000000E+00
  0.00000000E+00  0.00000000E+00  0.00000000E+00
  0.00000000E+00  0.00000000E+00  0.00000000E+00
  0.00000000E+00  0.00000000E+00  0.00000000E+00
  0.00000000E+00  0.00000000E+00  0.00000000E+00
