Title                                   
   1.00000000000000     
     9.8694509999999998    0.0000000000000000    0.0000000000000000
     0.0000000000000000    8.5490480000000009    0.0000000000000000
     0.0000000000000000    0.0000000000000000   20.0000000000000000
    26     4     1
Selective dynamics
Direct
  0.0562296341997847  0.0894439559267148  0.0938485760293524   T   T   T
  0.9321845879623368  0.1723302240580674  0.0941015039213838   T   T   T
  0.0562168308514548  0.9229081175970720  0.0938476197818217   T   T   T
  0.9341249737717107  0.3387649995556101  0.0940119504563993   T   T   T
  0.0562355998989835  0.5892001268059955  0.0936223268327266   T   T   T
  0.9341255246489791  0.6735706985494218  0.0939773814163135   T   T   T
  0.0562311089936177  0.4231530656490770  0.0936317527419680   T   T   T
  0.9321703232302982  0.8400117511805736  0.0940821498458257   T   T   T
  0.3055902858599287  0.0891765578333661  0.0948493645101290   T   T   T
  0.1802761503224775  0.1723390776330010  0.0941440353838578   T   T   T
  0.3055846393114154  0.9231379660010702  0.0948606249113507   T   T   T
  0.1783345676316867  0.3387731983852583  0.0940688423361482   T   T   T
  0.3008039752626205  0.5907495126343100  0.0949683883218756   T   T   T
  0.1783338097538606  0.6735793283816356  0.0940753861344198   T   T   T
  0.3008134110090826  0.4215467191072149  0.0949491445878190   T   T   T
  0.1802582743390262  0.8400193338376606  0.0941541614323026   T   T   T
  0.5562192023999556  0.0928353729526952  0.0958964096162707   T   T   T
  0.4289319024843130  0.1763131867662241  0.0956430570146048   T   T   T
  0.5562074906529001  0.9194340418130355  0.0958973516021353   T   T   T
  0.4289141650065930  0.8359736506702278  0.0956547196911446   T   T   T
  0.8068616495053950  0.0891653625631351  0.0948112448373280   T   T   T
  0.6835295868596797  0.1763032925412451  0.0956187713877778   T   T   T
  0.8068422875572331  0.9231384434223964  0.0947950438291825   T   T   T
  0.8116763289961103  0.5907518013449232  0.0948356506556696   T   T   T
  0.8116616571669689  0.4215502577118895  0.0948596945227326   T   T   T
  0.6835167729000661  0.8359766688594893  0.0955917961837186   T   T   T
  0.4187974725459623  0.3362710769628822  0.0958733684852953   T   T   T
  0.4187858352897601  0.6760131832704288  0.0958879927522462   T   T   T
  0.6937048898246663  0.3362619342307568  0.0958169386480187   T   T   T
  0.6937110589557484  0.6760221717035887  0.0957903773761835   T   T   T
  0.5562620028073907  0.5061599220510320  0.0967993747540389   T   T   T
 
  0.00000000E+00  0.00000000E+00  0.00000000E+00
  0.00000000E+00  0.00000000E+00  0.00000000E+00
  0.00000000E+00  0.00000000E+00  0.00000000E+00
  0.00000000E+00  0.00000000E+00  0.00000000E+00
  0.00000000E+00  0.00000000E+00  0.00000000E+00
  0.00000000E+00  0.00000000E+00  0.00000000E+00
  0.00000000E+00  0.00000000E+00  0.00000000E+00
  0.00000000E+00  0.00000000E+00  0.00000000E+00
  0.00000000E+00  0.00000000E+00  0.00000000E+00
  0.00000000E+00  0.00000000E+00  0.00000000E+00
  0.00000000E+00  0.00000000E+00  0.00000000E+00
  0.00000000E+00  0.00000000E+00  0.00000000E+00
  0.00000000E+00  0.00000000E+00  0.00000000E+00
  0.00000000E+00  0.00000000E+00  0.00000000E+00
  0.00000000E+00  0.00000000E+00  0.00000000E+00
  0.00000000E+00  0.00000000E+00  0.00000000E+00
  0.00000000E+00  0.00000000E+00  0.00000000E+00
  0.00000000E+00  0.00000000E+00  0.00000000E+00
  0.00000000E+00  0.00000000E+00  0.00000000E+00
  0.00000000E+00  0.00000000E+00  0.00000000E+00
  0.00000000E+00  0.00000000E+00  0.00000000E+00
  0.00000000E+00  0.00000000E+00  0.00000000E+00
  0.00000000E+00  0.00000000E+00  0.00000000E+00
  0.00000000E+00  0.00000000E+00  0.00000000E+00
  0.00000000E+00  0.00000000E+00  0.00000000E+00
  0.00000000E+00  0.00000000E+00  0.00000000E+00
  0.00000000E+00  0.00000000E+00  0.00000000E+00
  0.00000000E+00  0.00000000E+00  0.00000000E+00
  0.00000000E+00  0.00000000E+00  0.00000000E+00
  0.00000000E+00  0.00000000E+00  0.00000000E+00
  0.00000000E+00  0.00000000E+00  0.00000000E+00
