Title                                   
   1.00000000000000     
     8.5490480000000009    0.0000000000000000    0.0000000000000000
     0.0000000000000000    8.5490480000000009    0.0000000000000000
     0.0000000000000000    0.0000000000000000   20.0000000000000000
    21     3     1
Selective dynamics
Direct
  0.9092656684138333  0.2062302949883599  0.0954370991691467   T   T   T
  0.9053453123152123  0.5030072321842658  0.0953064217530758   T   T   T
  0.9102375618637988  0.7990231323120514  0.0954743475924429   T   T   T
  0.1974547093846374  0.0840284172707432  0.0954809715079045   T   T   T
  0.0752697076919501  0.2061621945589933  0.0954618201656864   T   T   T
  0.1975273063228151  0.9180339217504705  0.0954746465071718   T   T   T
  0.1556639089114735  0.6503905247821320  0.0953350453803098   T   T   T
  0.0756729168496982  0.5021958115184036  0.0953339185417595   T   T   T
  0.1550489186104139  0.3549637374555044  0.0953908350857998   T   T   T
  0.0770790999895725  0.7974776240036174  0.0954641170673746   T   T   T
  0.4934068344137510  0.0844742153379068  0.0953630259096094   T   T   T
  0.3462103025461257  0.1638501881566296  0.0954089620681995   T   T   T
  0.4942391954063262  0.9141264042276545  0.0953480912463117   T   T   T
  0.3452012073807544  0.8362926512052969  0.0953497984535395   T   T   T
  0.7886928934155366  0.0858356066956222  0.0954565702533702   T   T   T
  0.6415829246125447  0.1644716324015927  0.0953189073024969   T   T   T
  0.7902752326188618  0.9189855079500295  0.0954713959777316   T   T   T
  0.8289604789646743  0.6520546965081433  0.0953330585691263   T   T   T
  0.8275092686402893  0.3539409212468481  0.0952900853786348   T   T   T
  0.6432976605906935  0.8377299252799110  0.0953299101557487   T   T   T
  0.3232383510133398  0.3320257928491995  0.0953365971720058   T   T   T
  0.3204133996657368  0.6731649924865145  0.0951957191333546   T   T   T
  0.6643679094423756  0.3291870589007848  0.0951589421702648   T   T   T
  0.6674639117413780  0.6762101342916601  0.0951859079356821   T   T   T
  0.4919873191942003  0.5009273816376779  0.0949988055032304   T   T   T
 
  0.00000000E+00  0.00000000E+00  0.00000000E+00
  0.00000000E+00  0.00000000E+00  0.00000000E+00
  0.00000000E+00  0.00000000E+00  0.00000000E+00
  0.00000000E+00  0.00000000E+00  0.00000000E+00
  0.00000000E+00  0.00000000E+00  0.00000000E+00
  0.00000000E+00  0.00000000E+00  0.00000000E+00
  0.00000000E+00  0.00000000E+00  0.00000000E+00
  0.00000000E+00  0.00000000E+00  0.00000000E+00
  0.00000000E+00  0.00000000E+00  0.00000000E+00
  0.00000000E+00  0.00000000E+00  0.00000000E+00
  0.00000000E+00  0.00000000E+00  0.00000000E+00
  0.00000000E+00  0.00000000E+00  0.00000000E+00
  0.00000000E+00  0.00000000E+00  0.00000000E+00
  0.00000000E+00  0.00000000E+00  0.00000000E+00
  0.00000000E+00  0.00000000E+00  0.00000000E+00
  0.00000000E+00  0.00000000E+00  0.00000000E+00
  0.00000000E+00  0.00000000E+00  0.00000000E+00
  0.00000000E+00  0.00000000E+00  0.00000000E+00
  0.00000000E+00  0.00000000E+00  0.00000000E+00
  0.00000000E+00  0.00000000E+00  0.00000000E+00
  0.00000000E+00  0.00000000E+00  0.00000000E+00
  0.00000000E+00  0.00000000E+00  0.00000000E+00
  0.00000000E+00  0.00000000E+00  0.00000000E+00
  0.00000000E+00  0.00000000E+00  0.00000000E+00
  0.00000000E+00  0.00000000E+00  0.00000000E+00
