Title                                   
   1.00000000000000     
     8.5490480000000009    0.0000000000000000    0.0000000000000000
     0.0000000000000000    8.5490480000000009    0.0000000000000000
     0.0000000000000000    0.0000000000000000   20.0000000000000000
    20     4     1
Selective dynamics
Direct
  0.9071708990929727  0.2067217083794529  0.0939108147482986   T   T   T
  0.9123327831576894  0.8020795784159881  0.0944062772800283   T   T   T
  0.1961775098101807  0.0823036220043409  0.0940681178595622   T   T   T
  0.0752107522800890  0.2006312960545485  0.0947126431531885   T   T   T
  0.1568802333563296  0.6490427159661850  0.0954215956371773   T   T   T
  0.0748460310284892  0.5002550103655278  0.0970661198002045   T   T   T
  0.1548430050437216  0.3519949114851798  0.0987097938548664   T   T   T
  0.0804403034404155  0.7989262405665789  0.0936795761902149   T   T   T
  0.3454700607320244  0.1621876732308783  0.0975424691274330   T   T   T
  0.4946213063613504  0.9176352476044815  0.0966224363902013   T   T   T
  0.3459196615728596  0.8363662441077040  0.0952093395922666   T   T   T
  0.7872644496768418  0.0877431574320476  0.0940378754884392   T   T   T
  0.6372474642114212  0.1675975625556515  0.0958735298113300   T   T   T
  0.7910169759796782  0.9204633402635680  0.0949545426374371   T   T   T
  0.8314184830270033  0.6535201143936763  0.0968610052152339   T   T   T
  0.8258548521652601  0.3568285939049098  0.0956713292251509   T   T   T
  0.6441790370857445  0.8383208208381387  0.0978129770826994   T   T   T
  0.3234527695688659  0.3273155265122349  0.1032837861596255   T   T   T
  0.3234417365727030  0.6728565430953062  0.0960175702186333   T   T   T
  0.6587254373826215  0.3346906985090503  0.0977112576696706   T   T   T
  0.4938011140157459  0.0836250683903551  0.0965782626417169   T   T   T
  0.9072530814119220  0.5036512049779250  0.0964152235996170   T   T   T
  0.6709861245604514  0.6745835718810731  0.1009824216338335   T   T   T
  0.1967905524110301  0.9151598382131420  0.0933199907775199   T   T   T
  0.4900673760545819  0.5002897108520684  0.1378360442056338   T   T   T
 
  0.00000000E+00  0.00000000E+00  0.00000000E+00
  0.00000000E+00  0.00000000E+00  0.00000000E+00
  0.00000000E+00  0.00000000E+00  0.00000000E+00
  0.00000000E+00  0.00000000E+00  0.00000000E+00
  0.00000000E+00  0.00000000E+00  0.00000000E+00
  0.00000000E+00  0.00000000E+00  0.00000000E+00
  0.00000000E+00  0.00000000E+00  0.00000000E+00
  0.00000000E+00  0.00000000E+00  0.00000000E+00
  0.00000000E+00  0.00000000E+00  0.00000000E+00
  0.00000000E+00  0.00000000E+00  0.00000000E+00
  0.00000000E+00  0.00000000E+00  0.00000000E+00
  0.00000000E+00  0.00000000E+00  0.00000000E+00
  0.00000000E+00  0.00000000E+00  0.00000000E+00
  0.00000000E+00  0.00000000E+00  0.00000000E+00
  0.00000000E+00  0.00000000E+00  0.00000000E+00
  0.00000000E+00  0.00000000E+00  0.00000000E+00
  0.00000000E+00  0.00000000E+00  0.00000000E+00
  0.00000000E+00  0.00000000E+00  0.00000000E+00
  0.00000000E+00  0.00000000E+00  0.00000000E+00
  0.00000000E+00  0.00000000E+00  0.00000000E+00
  0.00000000E+00  0.00000000E+00  0.00000000E+00
  0.00000000E+00  0.00000000E+00  0.00000000E+00
  0.00000000E+00  0.00000000E+00  0.00000000E+00
  0.00000000E+00  0.00000000E+00  0.00000000E+00
  0.00000000E+00  0.00000000E+00  0.00000000E+00
