Title                                   
   1.00000000000000     
     9.8694509999999998    0.0000000000000000    0.0000000000000000
     0.0000000000000000    8.5490480000000009    0.0000000000000000
     0.0000000000000000    0.0000000000000000   20.0000000000000000
    27     3     1
Selective dynamics
Direct
  0.0554756749650232  0.0905459334270820  0.0862674890927930   T   T   T
  0.9299869791632791  0.1734698436368187  0.0847977906418463   T   T   T
  0.0567654816633267  0.9236401874992293  0.0859408266561819   T   T   T
  0.9324695566348007  0.3406164091519186  0.0839868204712791   T   T   T
  0.0573777026871844  0.5892816972989369  0.0828690828799084   T   T   T
  0.9344316932306167  0.6753021843185152  0.0840691803043360   T   T   T
  0.0569277458449836  0.4232801420813913  0.0833875080536857   T   T   T
  0.9323319001946523  0.8415544830079567  0.0855299539268779   T   T   T
  0.3061203111182050  0.0898976546632635  0.0969642635674308   T   T   T
  0.1800772025038030  0.1717261634688708  0.0908074824871026   T   T   T
  0.3070514078327827  0.9207743040379007  0.0955860907384083   T   T   T
  0.1801181286335504  0.3387155402105849  0.0892555655917569   T   T   T
  0.3017274987059250  0.5885386791400457  0.0965063254550454   T   T   T
  0.1805486369996882  0.6726148666891129  0.0875720941754011   T   T   T
  0.3015019210964482  0.4207125458963086  0.0990341146274547   T   T   T
  0.1812756008530667  0.8400903899514817  0.0890261622666311   T   T   T
  0.5541820657030739  0.0898090375549964  0.1022387365542096   T   T   T
  0.4281019302086082  0.1763531704603255  0.1054611423916044   T   T   T
  0.5553114513330292  0.9173167334346913  0.1021774599779633   T   T   T
  0.4293612097943629  0.8320644444011570  0.1022099050618538   T   T   T
  0.8036721268580117  0.0909219476864820  0.0881577557109885   T   T   T
  0.6790149148046951  0.1746923571520699  0.0949896187324591   T   T   T
  0.8056939103321885  0.9227684941882959  0.0891543560693575   T   T   T
  0.6846512104691918  0.3434532920865420  0.0982208597695740   T   T   T
  0.8126315729358766  0.5938256021299775  0.0899718071695242   T   T   T
  0.8099045277199238  0.4257051669683500  0.0883004064829254   T   T   T
  0.6839013967982346  0.8362508771340282  0.0978843412849185   T   T   T
  0.4215262888872087  0.3412806451736781  0.1150643914249020   T   T   T
  0.6928916916136501  0.6737906242670991  0.1040224247573175   T   T   T
  0.4223040281916678  0.6675064939873492  0.1065862201908351   T   T   T
  0.5657992322229500  0.5043750888955505  0.1349248234854690   T   T   T
 
  0.00000000E+00  0.00000000E+00  0.00000000E+00
  0.00000000E+00  0.00000000E+00  0.00000000E+00
  0.00000000E+00  0.00000000E+00  0.00000000E+00
  0.00000000E+00  0.00000000E+00  0.00000000E+00
  0.00000000E+00  0.00000000E+00  0.00000000E+00
  0.00000000E+00  0.00000000E+00  0.00000000E+00
  0.00000000E+00  0.00000000E+00  0.00000000E+00
  0.00000000E+00  0.00000000E+00  0.00000000E+00
  0.00000000E+00  0.00000000E+00  0.00000000E+00
  0.00000000E+00  0.00000000E+00  0.00000000E+00
  0.00000000E+00  0.00000000E+00  0.00000000E+00
  0.00000000E+00  0.00000000E+00  0.00000000E+00
  0.00000000E+00  0.00000000E+00  0.00000000E+00
  0.00000000E+00  0.00000000E+00  0.00000000E+00
  0.00000000E+00  0.00000000E+00  0.00000000E+00
  0.00000000E+00  0.00000000E+00  0.00000000E+00
  0.00000000E+00  0.00000000E+00  0.00000000E+00
  0.00000000E+00  0.00000000E+00  0.00000000E+00
  0.00000000E+00  0.00000000E+00  0.00000000E+00
  0.00000000E+00  0.00000000E+00  0.00000000E+00
  0.00000000E+00  0.00000000E+00  0.00000000E+00
  0.00000000E+00  0.00000000E+00  0.00000000E+00
  0.00000000E+00  0.00000000E+00  0.00000000E+00
  0.00000000E+00  0.00000000E+00  0.00000000E+00
  0.00000000E+00  0.00000000E+00  0.00000000E+00
  0.00000000E+00  0.00000000E+00  0.00000000E+00
  0.00000000E+00  0.00000000E+00  0.00000000E+00
  0.00000000E+00  0.00000000E+00  0.00000000E+00
  0.00000000E+00  0.00000000E+00  0.00000000E+00
  0.00000000E+00  0.00000000E+00  0.00000000E+00
  0.00000000E+00  0.00000000E+00  0.00000000E+00
