Title                                   
   1.00000000000000     
     9.8694509999999998    0.0000000000000000    0.0000000000000000
     0.0000000000000000    8.5490480000000009    0.0000000000000000
     0.0000000000000000    0.0000000000000000   20.0000000000000000
    28     3     1
Selective dynamics
Direct
  0.0562494825324364  0.0919943137367611  0.0828833734976624   T   T   T
  0.9307983794466083  0.1745628647052919  0.0848818682412060   T   T   T
  0.0562387934545273  0.9246142706831842  0.0826678915579927   T   T   T
  0.9295387462828785  0.3413088200166626  0.0879865744573429   T   T   T
  0.0562290151906474  0.5892398840046335  0.0842036873181138   T   T   T
  0.9324510844479738  0.6736080300309819  0.0867421121340086   T   T   T
  0.0562191071524404  0.4232258911008115  0.0861458641479599   T   T   T
  0.9323936030289822  0.8405843428032662  0.0852997748971536   T   T   T
  0.3057997921026868  0.0896443680837590  0.0862667977401257   T   T   T
  0.1817035315589372  0.1745544211778015  0.0848438257065276   T   T   T
  0.3049596658209975  0.9235493934273105  0.0880855311426261   T   T   T
  0.1829033994354790  0.3413011590393242  0.0879484423489389   T   T   T
  0.3029753738568051  0.5927724576556348  0.0981625221850111   T   T   T
  0.1799972712527091  0.6736040596319032  0.0866658972148736   T   T   T
  0.3094142553955336  0.4243736074035548  0.0965967918605697   T   T   T
  0.1800785481018498  0.8405809749707146  0.0852463108396294   T   T   T
  0.5562638085702796  0.0836860741487351  0.0945026931809674   T   T   T
  0.4314371958014961  0.1690963277546586  0.0923676647795088   T   T   T
  0.5562349838926156  0.9166317113641409  0.0990865592829754   T   T   T
  0.4326090759751492  0.3333355134088791  0.1009740943147339   T   T   T
  0.4262339127834847  0.8394567137991283  0.0996625229018308   T   T   T
  0.8067143747629771  0.0896425731550427  0.0863272223470058   T   T   T
  0.6810856183578534  0.1690975004513016  0.0924094520037139   T   T   T
  0.8075235486182879  0.9235397717831612  0.0881674070193920   T   T   T
  0.6798764396557297  0.3333300696576927  0.1010309898334792   T   T   T
  0.8095140153124946  0.5927756989462287  0.0982990414735351   T   T   T
  0.8030390745544526  0.4243892494393552  0.0966862554164708   T   T   T
  0.6862570884633974  0.8394600615757105  0.0997403877537605   T   T   T
  0.4148726496504375  0.6822543126755851  0.1156016064332476   T   T   T
  0.5562207137220926  0.4009412477108670  0.1184696021562514   T   T   T
  0.6976323438216172  0.6822725580473964  0.1157221699634934   T   T   T
  0.5561741069961484  0.5908177576105298  0.1720000658499261   T   T   T
 
  0.00000000E+00  0.00000000E+00  0.00000000E+00
  0.00000000E+00  0.00000000E+00  0.00000000E+00
  0.00000000E+00  0.00000000E+00  0.00000000E+00
  0.00000000E+00  0.00000000E+00  0.00000000E+00
  0.00000000E+00  0.00000000E+00  0.00000000E+00
  0.00000000E+00  0.00000000E+00  0.00000000E+00
  0.00000000E+00  0.00000000E+00  0.00000000E+00
  0.00000000E+00  0.00000000E+00  0.00000000E+00
  0.00000000E+00  0.00000000E+00  0.00000000E+00
  0.00000000E+00  0.00000000E+00  0.00000000E+00
  0.00000000E+00  0.00000000E+00  0.00000000E+00
  0.00000000E+00  0.00000000E+00  0.00000000E+00
  0.00000000E+00  0.00000000E+00  0.00000000E+00
  0.00000000E+00  0.00000000E+00  0.00000000E+00
  0.00000000E+00  0.00000000E+00  0.00000000E+00
  0.00000000E+00  0.00000000E+00  0.00000000E+00
  0.00000000E+00  0.00000000E+00  0.00000000E+00
  0.00000000E+00  0.00000000E+00  0.00000000E+00
  0.00000000E+00  0.00000000E+00  0.00000000E+00
  0.00000000E+00  0.00000000E+00  0.00000000E+00
  0.00000000E+00  0.00000000E+00  0.00000000E+00
  0.00000000E+00  0.00000000E+00  0.00000000E+00
  0.00000000E+00  0.00000000E+00  0.00000000E+00
  0.00000000E+00  0.00000000E+00  0.00000000E+00
  0.00000000E+00  0.00000000E+00  0.00000000E+00
  0.00000000E+00  0.00000000E+00  0.00000000E+00
  0.00000000E+00  0.00000000E+00  0.00000000E+00
  0.00000000E+00  0.00000000E+00  0.00000000E+00
  0.00000000E+00  0.00000000E+00  0.00000000E+00
  0.00000000E+00  0.00000000E+00  0.00000000E+00
  0.00000000E+00  0.00000000E+00  0.00000000E+00
  0.00000000E+00  0.00000000E+00  0.00000000E+00
