Title                                   
   1.00000000000000     
     9.8694509999999998    0.0000000000000000    0.0000000000000000
     0.0000000000000000    8.5490480000000009    0.0000000000000000
     0.0000000000000000    0.0000000000000000   20.0000000000000000
    27     3     1
Selective dynamics
Direct
  0.0554460280585234  0.0884335666892166  0.0877503008678747   T   T   T
  0.9307422318821268  0.1715777857583319  0.0881981986331309   T   T   T
  0.0569310712873377  0.9225105861491993  0.0885758562631393   T   T   T
  0.9325654682261676  0.3389525169796184  0.0870642785690053   T   T   T
  0.0556351921658233  0.5909747260614048  0.0866521168354747   T   T   T
  0.0558896963881184  0.4242870836088739  0.0856039008405373   T   T   T
  0.9313005996312994  0.8384409292958073  0.0895139140754662   T   T   T
  0.3076254149080409  0.0896242066526098  0.0932206988002939   T   T   T
  0.1819549246721130  0.1710640985894038  0.0888560823665609   T   T   T
  0.1801759965651778  0.3391691329001337  0.0879829488441447   T   T   T
  0.3016788696097525  0.5903550711747597  0.0955669203552264   T   T   T
  0.1798430207579750  0.6749673553684289  0.0893343371023908   T   T   T
  0.3024760558589671  0.4211804094240233  0.0946320596785900   T   T   T
  0.1827109903418330  0.8417062965363042  0.0903288402396265   T   T   T
  0.4321365179981704  0.1764526057967057  0.0988764497394700   T   T   T
  0.5554082720846427  0.9231326484665779  0.1010083375586937   T   T   T
  0.4285401815253443  0.3430526800196443  0.1029868778128463   T   T   T
  0.4261897219224224  0.6692899437063704  0.1057682770986024   T   T   T
  0.4298434028688586  0.8360805449483336  0.1009532014544599   T   T   T
  0.8048578369227247  0.0890053727490773  0.0923670459380082   T   T   T
  0.6808486411813078  0.1776884925648721  0.0980470956358143   T   T   T
  0.8057580871847966  0.9201784566397633  0.0929547054916848   T   T   T
  0.6844406678854593  0.3445431719287640  0.1021013320227180   T   T   T
  0.8104294714181236  0.5915713338875036  0.0940711415556164   T   T   T
  0.6858700597376167  0.6673743471594323  0.1019336685568361   T   T   T
  0.8110916697953297  0.4211872238048403  0.0931348248988700   T   T   T
  0.6795635599938938  0.8357626936982094  0.0987890442812427   T   T   T
  0.9330755619837346  0.6729488504410861  0.0885646943168684   T   T   T
  0.5567942173607583  0.0913559379556190  0.1003691882093477   T   T   T
  0.3057840539203295  0.9221172425468245  0.0938999809305149   T   T   T
  0.5575275158632359  0.5058896884982808  0.1218586810269714   T   T   T
 
  0.00000000E+00  0.00000000E+00  0.00000000E+00
  0.00000000E+00  0.00000000E+00  0.00000000E+00
  0.00000000E+00  0.00000000E+00  0.00000000E+00
  0.00000000E+00  0.00000000E+00  0.00000000E+00
  0.00000000E+00  0.00000000E+00  0.00000000E+00
  0.00000000E+00  0.00000000E+00  0.00000000E+00
  0.00000000E+00  0.00000000E+00  0.00000000E+00
  0.00000000E+00  0.00000000E+00  0.00000000E+00
  0.00000000E+00  0.00000000E+00  0.00000000E+00
  0.00000000E+00  0.00000000E+00  0.00000000E+00
  0.00000000E+00  0.00000000E+00  0.00000000E+00
  0.00000000E+00  0.00000000E+00  0.00000000E+00
  0.00000000E+00  0.00000000E+00  0.00000000E+00
  0.00000000E+00  0.00000000E+00  0.00000000E+00
  0.00000000E+00  0.00000000E+00  0.00000000E+00
  0.00000000E+00  0.00000000E+00  0.00000000E+00
  0.00000000E+00  0.00000000E+00  0.00000000E+00
  0.00000000E+00  0.00000000E+00  0.00000000E+00
  0.00000000E+00  0.00000000E+00  0.00000000E+00
  0.00000000E+00  0.00000000E+00  0.00000000E+00
  0.00000000E+00  0.00000000E+00  0.00000000E+00
  0.00000000E+00  0.00000000E+00  0.00000000E+00
  0.00000000E+00  0.00000000E+00  0.00000000E+00
  0.00000000E+00  0.00000000E+00  0.00000000E+00
  0.00000000E+00  0.00000000E+00  0.00000000E+00
  0.00000000E+00  0.00000000E+00  0.00000000E+00
  0.00000000E+00  0.00000000E+00  0.00000000E+00
  0.00000000E+00  0.00000000E+00  0.00000000E+00
  0.00000000E+00  0.00000000E+00  0.00000000E+00
  0.00000000E+00  0.00000000E+00  0.00000000E+00
  0.00000000E+00  0.00000000E+00  0.00000000E+00
