Title                                   
   1.00000000000000     
     4.9440799999999996    0.0000000000000000    0.0000000000000000
     0.0000000000000000    8.5647549999999999    0.0000000000000000
     0.0000000000000000    0.0000000000000000   20.0000000000000000
    13     2     1
Selective dynamics
Direct
 -0.0018448744254634  0.2882602613470205  0.0921270326089610   T   T   T
  0.2500000000000000  0.0423722154896878  0.0852542778573336   T   T   T
  0.0013585477128417  0.7970132665064880  0.0980088287352589   T   T   T
 -0.0005856247439317  0.9601844743286845  0.0850590882563326   T   T   T
  0.7500000000000000  0.2057227023306031  0.0816481174608010   T   T   T
  0.5018448744254633  0.2882602613470205  0.0921270326089610   T   T   T
  0.7500000000000000  0.0408729128684993  0.0794932924397789   T   T   T
  0.7500000000000000  0.7069118933456238  0.1045086778739177   T   T   T
  0.4986414522871582  0.7970132665064880  0.0980088287352589   T   T   T
  0.7500000000000000  0.5363777310059485  0.1093031620400953   T   T   T
  0.5005856247439318  0.9601844743286845  0.0850590882563326   T   T   T
  0.5055738107552735  0.4452518768760590  0.1116480678112365   T   T   T
 -0.0055738107552736  0.4452518768760590  0.1116480678112365   T   T   T
  0.2500000000000000  0.7286932443599021  0.1105957052257591   T   T   T
  0.2500000000000000  0.2063079723501118  0.0888427553494277   T   T   T
  0.2500000000000000  0.5513215701331194  0.1791799769293181   T   T   T
 
  0.00000000E+00  0.00000000E+00  0.00000000E+00
  0.00000000E+00  0.00000000E+00  0.00000000E+00
  0.00000000E+00  0.00000000E+00  0.00000000E+00
  0.00000000E+00  0.00000000E+00  0.00000000E+00
  0.00000000E+00  0.00000000E+00  0.00000000E+00
  0.00000000E+00  0.00000000E+00  0.00000000E+00
  0.00000000E+00  0.00000000E+00  0.00000000E+00
  0.00000000E+00  0.00000000E+00  0.00000000E+00
  0.00000000E+00  0.00000000E+00  0.00000000E+00
  0.00000000E+00  0.00000000E+00  0.00000000E+00
  0.00000000E+00  0.00000000E+00  0.00000000E+00
  0.00000000E+00  0.00000000E+00  0.00000000E+00
  0.00000000E+00  0.00000000E+00  0.00000000E+00
  0.00000000E+00  0.00000000E+00  0.00000000E+00
  0.00000000E+00  0.00000000E+00  0.00000000E+00
  0.00000000E+00  0.00000000E+00  0.00000000E+00
