Title                                   
   1.00000000000000     
     8.5490480000000009    0.0000000000000000    0.0000000000000000
     0.0000000000000000    8.5490480000000009    0.0000000000000000
     0.0000000000000000    0.0000000000000000   20.0000000000000000
    19     5     1
Selective dynamics
Direct
  0.9077423765682714  0.2069224765191852  0.0976500775612985   T   T   T
  0.9110062093450157  0.8000176577455079  0.0977454659387209   T   T   T
  0.1985158071307433  0.0847604325401973  0.0975446963288957   T   T   T
  0.0779288458359229  0.2012294328323111  0.0975006547324570   T   T   T
  0.1565752999440491  0.6471085435467621  0.0973949745650663   T   T   T
  0.0715821103978362  0.5001263850591511  0.0976763060657442   T   T   T
  0.1562006071327126  0.3557376510821729  0.0978380066879416   T   T   T
  0.0808505599123208  0.7982785842748963  0.0977729322620104   T   T   T
  0.3496154970743942  0.1692048259912231  0.0978848082911205   T   T   T
  0.4951984957293583  0.9189447820508647  0.0977903141078714   T   T   T
  0.3481966906750739  0.8338734948239047  0.0975070458364563   T   T   T
  0.7881472189642664  0.0872072430002239  0.0977654539474379   T   T   T
  0.6408011458484272  0.1683178285134511  0.0978915927285922   T   T   T
  0.7905223073562858  0.9186550622978904  0.0977469449077452   T   T   T
  0.8259363627297995  0.6515210657770654  0.0977769497509064   T   T   T
  0.8237998374263282  0.3532868095530903  0.0977604302693899   T   T   T
  0.6426197146177051  0.8373896207340376  0.0978031188638155   T   T   T
  0.3239207864656507  0.3347548797074113  0.0986388625132844   T   T   T
  0.3230033297701753  0.6684849420673906  0.0968815540801745   T   T   T
  0.4959306120135735  0.0871215211774017  0.0979248015610894   T   T   T
  0.9023498159717103  0.5019283920548890  0.0978008118489046   T   T   T
  0.6602362938007117  0.3304187172740317  0.0978676185390638   T   T   T
  0.6653138289123092  0.6734034118173314  0.0979051508509424   T   T   T
  0.1986699529324175  0.9144076117916681  0.0979187168075322   T   T   T
  0.4907482934449331  0.5016886277679616  0.0977177109535117   T   T   T
 
  0.00000000E+00  0.00000000E+00  0.00000000E+00
  0.00000000E+00  0.00000000E+00  0.00000000E+00
  0.00000000E+00  0.00000000E+00  0.00000000E+00
  0.00000000E+00  0.00000000E+00  0.00000000E+00
  0.00000000E+00  0.00000000E+00  0.00000000E+00
  0.00000000E+00  0.00000000E+00  0.00000000E+00
  0.00000000E+00  0.00000000E+00  0.00000000E+00
  0.00000000E+00  0.00000000E+00  0.00000000E+00
  0.00000000E+00  0.00000000E+00  0.00000000E+00
  0.00000000E+00  0.00000000E+00  0.00000000E+00
  0.00000000E+00  0.00000000E+00  0.00000000E+00
  0.00000000E+00  0.00000000E+00  0.00000000E+00
  0.00000000E+00  0.00000000E+00  0.00000000E+00
  0.00000000E+00  0.00000000E+00  0.00000000E+00
  0.00000000E+00  0.00000000E+00  0.00000000E+00
  0.00000000E+00  0.00000000E+00  0.00000000E+00
  0.00000000E+00  0.00000000E+00  0.00000000E+00
  0.00000000E+00  0.00000000E+00  0.00000000E+00
  0.00000000E+00  0.00000000E+00  0.00000000E+00
  0.00000000E+00  0.00000000E+00  0.00000000E+00
  0.00000000E+00  0.00000000E+00  0.00000000E+00
  0.00000000E+00  0.00000000E+00  0.00000000E+00
  0.00000000E+00  0.00000000E+00  0.00000000E+00
  0.00000000E+00  0.00000000E+00  0.00000000E+00
  0.00000000E+00  0.00000000E+00  0.00000000E+00
