Title                                   
   1.00000000000000     
     9.8694509999999998    0.0000000000000000    0.0000000000000000
     0.0000000000000000    8.5490480000000009    0.0000000000000000
     0.0000000000000000    0.0000000000000000   20.0000000000000000
    28     3     1
Selective dynamics
Direct
  0.0561066719807383  0.0914287258483004  0.0826444857239685   T   T   T
  0.9312005404885941  0.1736253743242973  0.0841522599206323   T   T   T
  0.0568376882935922  0.9243760849063907  0.0832569021737765   T   T   T
  0.9307213926270893  0.3402821709409142  0.0874769964996357   T   T   T
  0.0573810829851872  0.5897526753451517  0.0842425726420653   T   T   T
  0.9327343817173612  0.6723552057973928  0.0876019695789326   T   T   T
  0.0574607256673886  0.4229244907199848  0.0854182972368326   T   T   T
  0.9321012407731313  0.8396492146977977  0.0854049407693595   T   T   T
  0.3054661649667276  0.0887093047490281  0.0866842706552102   T   T   T
  0.1819765480987194  0.1733993524621281  0.0844187132908170   T   T   T
  0.1841766017490275  0.3408616774612248  0.0864886217798403   T   T   T
  0.3040505792893768  0.5930500234219119  0.0976504938949347   T   T   T
  0.1816453168733916  0.6743471134780171  0.0868553592912340   T   T   T
  0.3103677185404458  0.4255599740723491  0.0948217896672584   T   T   T
  0.1809217731763575  0.8414954232462120  0.0864618895993768   T   T   T
  0.5558846052461008  0.0854349536011609  0.0928282858687723   T   T   T
  0.4308492335697672  0.1693774290430189  0.0913254821415991   T   T   T
  0.5539280486139596  0.9196752866983191  0.0979427341416222   T   T   T
  0.4328375340983613  0.3337025467586231  0.0993520763657448   T   T   T
  0.4249377873779299  0.8417018982476221  0.1007054882924716   T   T   T
  0.8068096985942066  0.0890734651429718  0.0855146864211187   T   T   T
  0.6812281218899453  0.1691029859562006  0.0914054909607531   T   T   T
  0.8065350270289512  0.9230427708013157  0.0876051970399564   T   T   T
  0.6807403468668465  0.3332451595815874  0.1008919184073614   T   T   T
  0.8102855634771755  0.5901679697443327  0.1002904236762749   T   T   T
  0.6947094018157531  0.6805063429334218  0.1180385307455523   T   T   T
  0.8050378431181227  0.4221795442670973  0.0972406946295481   T   T   T
  0.6832276217631487  0.8403660439699727  0.0999729257220759   T   T   T
  0.4134489864181309  0.6860630233851589  0.1183584096337212   T   T   T
  0.5564449482120223  0.4017818134923358  0.1169109483479088   T   T   T
  0.3047273794296840  0.9244124885399143  0.0895147526174626   T   T   T
  0.5548584252527726  0.5885954663658551  0.1741973922642165   T   T   T
 
  0.00000000E+00  0.00000000E+00  0.00000000E+00
  0.00000000E+00  0.00000000E+00  0.00000000E+00
  0.00000000E+00  0.00000000E+00  0.00000000E+00
  0.00000000E+00  0.00000000E+00  0.00000000E+00
  0.00000000E+00  0.00000000E+00  0.00000000E+00
  0.00000000E+00  0.00000000E+00  0.00000000E+00
  0.00000000E+00  0.00000000E+00  0.00000000E+00
  0.00000000E+00  0.00000000E+00  0.00000000E+00
  0.00000000E+00  0.00000000E+00  0.00000000E+00
  0.00000000E+00  0.00000000E+00  0.00000000E+00
  0.00000000E+00  0.00000000E+00  0.00000000E+00
  0.00000000E+00  0.00000000E+00  0.00000000E+00
  0.00000000E+00  0.00000000E+00  0.00000000E+00
  0.00000000E+00  0.00000000E+00  0.00000000E+00
  0.00000000E+00  0.00000000E+00  0.00000000E+00
  0.00000000E+00  0.00000000E+00  0.00000000E+00
  0.00000000E+00  0.00000000E+00  0.00000000E+00
  0.00000000E+00  0.00000000E+00  0.00000000E+00
  0.00000000E+00  0.00000000E+00  0.00000000E+00
  0.00000000E+00  0.00000000E+00  0.00000000E+00
  0.00000000E+00  0.00000000E+00  0.00000000E+00
  0.00000000E+00  0.00000000E+00  0.00000000E+00
  0.00000000E+00  0.00000000E+00  0.00000000E+00
  0.00000000E+00  0.00000000E+00  0.00000000E+00
  0.00000000E+00  0.00000000E+00  0.00000000E+00
  0.00000000E+00  0.00000000E+00  0.00000000E+00
  0.00000000E+00  0.00000000E+00  0.00000000E+00
  0.00000000E+00  0.00000000E+00  0.00000000E+00
  0.00000000E+00  0.00000000E+00  0.00000000E+00
  0.00000000E+00  0.00000000E+00  0.00000000E+00
  0.00000000E+00  0.00000000E+00  0.00000000E+00
  0.00000000E+00  0.00000000E+00  0.00000000E+00
