Title                                   
   1.00000000000000     
     4.9440799999999996    0.0000000000000000    0.0000000000000000
     0.0000000000000000    8.5647549999999999    0.0000000000000000
     0.0000000000000000    0.0000000000000000   20.0000000000000000
    13     2     1
Selective dynamics
Direct
 -0.0018604150468507  0.2887747255333554  0.0922258802409984   T   T   T
  0.2500000000000000  0.0435276773044183  0.0866740342817522   T   T   T
  0.0025776897581204  0.7971254854258056  0.0998144950309008   T   T   T
  0.0000249591707150  0.9604293979985906  0.0866744067866361   T   T   T
  0.7500000000000000  0.2054293244262783  0.0827641597289527   T   T   T
  0.5018604150468512  0.2887747255333554  0.0922258802409984   T   T   T
  0.7500000000000000  0.0409787146739514  0.0810677496505332   T   T   T
  0.7500000000000000  0.7079985138859156  0.1047119565811940   T   T   T
  0.4974223102418796  0.7971254854258056  0.0998144950309008   T   T   T
  0.7500000000000000  0.5370984459235083  0.1080426348444185   T   T   T
  0.4999750408292851  0.9604293979985906  0.0866744067866361   T   T   T
  0.5061144608575358  0.4465179977025797  0.1104471689675276   T   T   T
 -0.0061144608575360  0.4465179977025797  0.1104471689675276   T   T   T
  0.2500000000000000  0.7283125015450942  0.1131077202580639   T   T   T
  0.2500000000000000  0.2062706967263810  0.0890980677525769   T   T   T
  0.2500000000000000  0.5446889121937891  0.1687217748503926   T   T   T
 
  0.00000000E+00  0.00000000E+00  0.00000000E+00
  0.00000000E+00  0.00000000E+00  0.00000000E+00
  0.00000000E+00  0.00000000E+00  0.00000000E+00
  0.00000000E+00  0.00000000E+00  0.00000000E+00
  0.00000000E+00  0.00000000E+00  0.00000000E+00
  0.00000000E+00  0.00000000E+00  0.00000000E+00
  0.00000000E+00  0.00000000E+00  0.00000000E+00
  0.00000000E+00  0.00000000E+00  0.00000000E+00
  0.00000000E+00  0.00000000E+00  0.00000000E+00
  0.00000000E+00  0.00000000E+00  0.00000000E+00
  0.00000000E+00  0.00000000E+00  0.00000000E+00
  0.00000000E+00  0.00000000E+00  0.00000000E+00
  0.00000000E+00  0.00000000E+00  0.00000000E+00
  0.00000000E+00  0.00000000E+00  0.00000000E+00
  0.00000000E+00  0.00000000E+00  0.00000000E+00
  0.00000000E+00  0.00000000E+00  0.00000000E+00
