Title                                   
   1.00000000000000     
     9.8694509999999998    0.0000000000000000    0.0000000000000000
     0.0000000000000000    8.5490480000000009    0.0000000000000000
     0.0000000000000000    0.0000000000000000   20.0000000000000000
    25     6     1
Selective dynamics
Direct
  0.0558504112235421  0.0917937975701773  0.0848039726826674   T   T   T
  0.9310828810844648  0.1749045817705916  0.0850770334205155   T   T   T
  0.0571077158117630  0.9235301442828073  0.0847180620351195   T   T   T
  0.9300918980095332  0.3418795334026222  0.0883669918639742   T   T   T
  0.0567021777730718  0.5917078758926073  0.0870673116348693   T   T   T
  0.0562731207803149  0.4240916791106998  0.0882928034599405   T   T   T
  0.9327877770818640  0.8402050793064226  0.0858269655554593   T   T   T
  0.3059221550655871  0.0889923771559250  0.0895093174704379   T   T   T
  0.1821209411222889  0.1740530650905128  0.0878962369132731   T   T   T
  0.1827075231159888  0.3413436215394374  0.0904494974780143   T   T   T
  0.3029896025348235  0.5913481835411976  0.1005244213878887   T   T   T
  0.1799187198968952  0.6745813932256994  0.0894740904197659   T   T   T
  0.3104276527169165  0.4226138163890890  0.0985786479012534   T   T   T
  0.1814255178181401  0.8424538057500882  0.0878328434165622   T   T   T
  0.5559205914488650  0.0844925272753656  0.0932474048073838   T   T   T
  0.5546644039406851  0.9178873606509563  0.0980149122215529   T   T   T
  0.4317528874794819  0.3309039162065484  0.1027135448813000   T   T   T
  0.4255930317658970  0.8402730318075927  0.1016790259716592   T   T   T
  0.8065765846617341  0.0888347780150752  0.0847614742909443   T   T   T
  0.6800662298102841  0.1689445137326754  0.0897422575231963   T   T   T
  0.8084898956642005  0.9227880778065570  0.0867923292547658   T   T   T
  0.6804852580557396  0.3337977859087961  0.0995245120579853   T   T   T
  0.8102031118906883  0.5938275612824774  0.0989346990270056   T   T   T
  0.8032125260944318  0.4254210309703612  0.0960868611423614   T   T   T
  0.6845764433381747  0.8404115230272412  0.0978009450699888   T   T   T
  0.4126456050858466  0.6857566734272078  0.1170972912831241   T   T   T
  0.5556305546562509  0.3953125695961645  0.1186221215956408   T   T   T
  0.6992536559968933  0.6834977619990457  0.1136362878348610   T   T   T
  0.3046029683877801  0.9256419397906424  0.0904440044460436   T   T   T
  0.4298600024695871  0.1660565664285300  0.0935292395819202   T   T   T
  0.9329966281806996  0.6730157406431959  0.0876548694980231   T   T   T
  0.5577005270375734  0.5898836874036923  0.1669750238725186   T   T   T
 
  0.00000000E+00  0.00000000E+00  0.00000000E+00
  0.00000000E+00  0.00000000E+00  0.00000000E+00
  0.00000000E+00  0.00000000E+00  0.00000000E+00
  0.00000000E+00  0.00000000E+00  0.00000000E+00
  0.00000000E+00  0.00000000E+00  0.00000000E+00
  0.00000000E+00  0.00000000E+00  0.00000000E+00
  0.00000000E+00  0.00000000E+00  0.00000000E+00
  0.00000000E+00  0.00000000E+00  0.00000000E+00
  0.00000000E+00  0.00000000E+00  0.00000000E+00
  0.00000000E+00  0.00000000E+00  0.00000000E+00
  0.00000000E+00  0.00000000E+00  0.00000000E+00
  0.00000000E+00  0.00000000E+00  0.00000000E+00
  0.00000000E+00  0.00000000E+00  0.00000000E+00
  0.00000000E+00  0.00000000E+00  0.00000000E+00
  0.00000000E+00  0.00000000E+00  0.00000000E+00
  0.00000000E+00  0.00000000E+00  0.00000000E+00
  0.00000000E+00  0.00000000E+00  0.00000000E+00
  0.00000000E+00  0.00000000E+00  0.00000000E+00
  0.00000000E+00  0.00000000E+00  0.00000000E+00
  0.00000000E+00  0.00000000E+00  0.00000000E+00
  0.00000000E+00  0.00000000E+00  0.00000000E+00
  0.00000000E+00  0.00000000E+00  0.00000000E+00
  0.00000000E+00  0.00000000E+00  0.00000000E+00
  0.00000000E+00  0.00000000E+00  0.00000000E+00
  0.00000000E+00  0.00000000E+00  0.00000000E+00
  0.00000000E+00  0.00000000E+00  0.00000000E+00
  0.00000000E+00  0.00000000E+00  0.00000000E+00
  0.00000000E+00  0.00000000E+00  0.00000000E+00
  0.00000000E+00  0.00000000E+00  0.00000000E+00
  0.00000000E+00  0.00000000E+00  0.00000000E+00
  0.00000000E+00  0.00000000E+00  0.00000000E+00
  0.00000000E+00  0.00000000E+00  0.00000000E+00
