Title                                   
   1.00000000000000     
     4.9440799999999996    0.0000000000000000    0.0000000000000000
     0.0000000000000000   17.1295089999999988    0.0000000000000000
     0.0000000000000000    0.0000000000000000   20.0000000000000000
    29     1     1
Selective dynamics
Direct
 -0.0040977814939848  0.1053612137201717  0.2940564763829947   T   T   T
  0.2440732795020412  0.1478125905603568  0.2948746397049895   T   T   T
  0.2422040385877970  0.2315596382743767  0.2983545267019920   T   T   T
 -0.0070911279267808  0.2741413598910469  0.3027251946651842   T   T   T
  0.0060093386345212  0.6008685984411659  0.3035184514083428   T   T   T
  0.2520274855736539  0.7278246075822371  0.2952040591564118   T   T   T
  0.0002610982617970  0.8538303735197789  0.2930900524141380   T   T   T
  0.2498701747596115  0.8958332335522565  0.2927189937767246   T   T   T
  0.2479984386667991  0.9796346079202568  0.2926481631377001   T   T   T
  0.0019251859846905  0.7700367549053960  0.2943803011754775   T   T   T
  0.4955671335740909  0.1058675144985405  0.2931736388395885   T   T   T
  0.7463799122476689  0.1475454264303756  0.2940067373146341   T   T   T
  0.7446048040784427  0.2314173152162906  0.2963203038791522   T   T   T
  0.4971706020395567  0.0219365087375675  0.2925266998192279   T   T   T
  0.7482685055251811  0.3935163108061751  0.3061247434999952   T   T   T
  0.7538741866022225  0.4782544539036144  0.3097548582299573   T   T   T
  0.4923678944477139  0.2727437806485521  0.2963832722426487   T   T   T
  0.5031155003169099  0.6028239049264772  0.2994957115183400   T   T   T
  0.7531201811611208  0.7277211948976023  0.2949707639677614   T   T   T
  0.5003118124945813  0.8536438425050946  0.2927268681388759   T   T   T
  0.7495486608708923  0.8958135977154819  0.2925682138560611   T   T   T
  0.7477170544574400  0.9797494167092519  0.2924387131167566   T   T   T
  0.5022046480794795  0.7697324534930621  0.2937418066012396   T   T   T
  0.7549514607592525  0.6436857294308792  0.2981482767080501   T   T   T
  0.2532698931307775  0.6443883188006950  0.2990937753187538   T   T   T
 -0.0025612262561401  0.0215741857250335  0.2929271213114005   T   T   T
  0.5068135794628850  0.5201827795005607  0.3061503468876243   T   T   T
  0.0060974369993856  0.5178107390754155  0.3142549559433142   T   T   T
  0.5016200127463047  0.3552074321157838  0.2976762223292332   T   T   T
 -0.0104338358235698  0.3544756236591196  0.3144697620983163   T   T   T
  0.2828186525356594  0.4363484928373814  0.3465363498550653   T   T   T
 
  0.00000000E+00  0.00000000E+00  0.00000000E+00
  0.00000000E+00  0.00000000E+00  0.00000000E+00
  0.00000000E+00  0.00000000E+00  0.00000000E+00
  0.00000000E+00  0.00000000E+00  0.00000000E+00
  0.00000000E+00  0.00000000E+00  0.00000000E+00
  0.00000000E+00  0.00000000E+00  0.00000000E+00
  0.00000000E+00  0.00000000E+00  0.00000000E+00
  0.00000000E+00  0.00000000E+00  0.00000000E+00
  0.00000000E+00  0.00000000E+00  0.00000000E+00
  0.00000000E+00  0.00000000E+00  0.00000000E+00
  0.00000000E+00  0.00000000E+00  0.00000000E+00
  0.00000000E+00  0.00000000E+00  0.00000000E+00
  0.00000000E+00  0.00000000E+00  0.00000000E+00
  0.00000000E+00  0.00000000E+00  0.00000000E+00
  0.00000000E+00  0.00000000E+00  0.00000000E+00
  0.00000000E+00  0.00000000E+00  0.00000000E+00
  0.00000000E+00  0.00000000E+00  0.00000000E+00
  0.00000000E+00  0.00000000E+00  0.00000000E+00
  0.00000000E+00  0.00000000E+00  0.00000000E+00
  0.00000000E+00  0.00000000E+00  0.00000000E+00
  0.00000000E+00  0.00000000E+00  0.00000000E+00
  0.00000000E+00  0.00000000E+00  0.00000000E+00
  0.00000000E+00  0.00000000E+00  0.00000000E+00
  0.00000000E+00  0.00000000E+00  0.00000000E+00
  0.00000000E+00  0.00000000E+00  0.00000000E+00
  0.00000000E+00  0.00000000E+00  0.00000000E+00
  0.00000000E+00  0.00000000E+00  0.00000000E+00
  0.00000000E+00  0.00000000E+00  0.00000000E+00
  0.00000000E+00  0.00000000E+00  0.00000000E+00
  0.00000000E+00  0.00000000E+00  0.00000000E+00
  0.00000000E+00  0.00000000E+00  0.00000000E+00
