Title                                   
   1.00000000000000     
     9.8694509999999998    0.0000000000000000    0.0000000000000000
     0.0000000000000000    8.5490480000000009    0.0000000000000000
     0.0000000000000000    0.0000000000000000   20.0000000000000000
    24     6     1
Selective dynamics
Direct
  0.0557726624474425  0.0902472904457876  0.0953792007964252   T   T   T
  0.9307188129684014  0.1726183024894206  0.0955693570728182   T   T   T
  0.0572935747580564  0.9217138837205264  0.0953989259227765   T   T   T
  0.9334409505270027  0.3399242766124324  0.0952774304326178   T   T   T
  0.0561188496319611  0.5907056088575768  0.0947583701469924   T   T   T
  0.0565334653843166  0.4239630291842304  0.0946641782256522   T   T   T
  0.9323992106095019  0.8395859573668760  0.0956307375893175   T   T   T
  0.3075373167953990  0.0889630685945146  0.0966356623647221   T   T   T
  0.1808187668418410  0.1717624402827369  0.0955980892313077   T   T   T
  0.1806707917151414  0.3393286838233053  0.0952547711129491   T   T   T
  0.3026262539956687  0.5896081821812612  0.0967377327112902   T   T   T
  0.1793821616963371  0.6737480550316114  0.0953428359337738   T   T   T
  0.3042177057264769  0.4214049811821891  0.0966777203744450   T   T   T
  0.1815601672025545  0.8408453092058877  0.0956657335415549   T   T   T
  0.4298978946707743  0.1742248910290516  0.0979668709790108   T   T   T
  0.5544951097371735  0.9184377955408075  0.0984346177112801   T   T   T
  0.4282098012956005  0.8359102731839623  0.0980570839772870   T   T   T
  0.8047728116879186  0.0886262590063001  0.0965881848561006   T   T   T
  0.6806261436922604  0.1764214750783271  0.0978219083971127   T   T   T
  0.8063767728564180  0.9210176711887478  0.0966775877277988   T   T   T
  0.6855709223569314  0.3417936101348826  0.0984534657666143   T   T   T
  0.8120647624501399  0.5929232859620397  0.0968276436379457   T   T   T
  0.8110349351994512  0.4242452673501437  0.0966839653953635   T   T   T
  0.6817508081345990  0.8354841166789266  0.0980846295447841   T   T   T
  0.9334642662337225  0.6733958422366607  0.0952656947354321   T   T   T
  0.5553526015587755  0.0921973195192856  0.0985141391444798   T   T   T
  0.4261827544836932  0.3373568678926324  0.0986553834485937   T   T   T
  0.6913534361978504  0.6716216383948719  0.0987321462600431   T   T   T
  0.4224692702677517  0.6757385832400675  0.0988174927710328   T   T   T
  0.3053254077312893  0.9223060658682181  0.0965354021457011   T   T   T
  0.5550966111455607  0.5047549687167304  0.1002580380448138   T   T   T
 
  0.00000000E+00  0.00000000E+00  0.00000000E+00
  0.00000000E+00  0.00000000E+00  0.00000000E+00
  0.00000000E+00  0.00000000E+00  0.00000000E+00
  0.00000000E+00  0.00000000E+00  0.00000000E+00
  0.00000000E+00  0.00000000E+00  0.00000000E+00
  0.00000000E+00  0.00000000E+00  0.00000000E+00
  0.00000000E+00  0.00000000E+00  0.00000000E+00
  0.00000000E+00  0.00000000E+00  0.00000000E+00
  0.00000000E+00  0.00000000E+00  0.00000000E+00
  0.00000000E+00  0.00000000E+00  0.00000000E+00
  0.00000000E+00  0.00000000E+00  0.00000000E+00
  0.00000000E+00  0.00000000E+00  0.00000000E+00
  0.00000000E+00  0.00000000E+00  0.00000000E+00
  0.00000000E+00  0.00000000E+00  0.00000000E+00
  0.00000000E+00  0.00000000E+00  0.00000000E+00
  0.00000000E+00  0.00000000E+00  0.00000000E+00
  0.00000000E+00  0.00000000E+00  0.00000000E+00
  0.00000000E+00  0.00000000E+00  0.00000000E+00
  0.00000000E+00  0.00000000E+00  0.00000000E+00
  0.00000000E+00  0.00000000E+00  0.00000000E+00
  0.00000000E+00  0.00000000E+00  0.00000000E+00
  0.00000000E+00  0.00000000E+00  0.00000000E+00
  0.00000000E+00  0.00000000E+00  0.00000000E+00
  0.00000000E+00  0.00000000E+00  0.00000000E+00
  0.00000000E+00  0.00000000E+00  0.00000000E+00
  0.00000000E+00  0.00000000E+00  0.00000000E+00
  0.00000000E+00  0.00000000E+00  0.00000000E+00
  0.00000000E+00  0.00000000E+00  0.00000000E+00
  0.00000000E+00  0.00000000E+00  0.00000000E+00
  0.00000000E+00  0.00000000E+00  0.00000000E+00
  0.00000000E+00  0.00000000E+00  0.00000000E+00
