Title                                   
   1.00000000000000     
     9.8694509999999998    0.0000000000000000    0.0000000000000000
     0.0000000000000000    8.5490480000000009    0.0000000000000000
     0.0000000000000000    0.0000000000000000   20.0000000000000000
    28     3     1
Selective dynamics
Direct
  0.0562335463586758  0.0917830626876561  0.0838669382034318   T   T   T
  0.9308314539088847  0.1744863948640080  0.0862539881335800   T   T   T
  0.0562245227243163  0.9245379889327284  0.0830886529014382   T   T   T
  0.9296767016875555  0.3409980625348245  0.0900034904325797   T   T   T
  0.0562379722947638  0.5892417282660025  0.0864563834598080   T   T   T
  0.9324578672018969  0.6738792067195579  0.0878810854985615   T   T   T
  0.0562367175457289  0.4229287834245645  0.0886006498982876   T   T   T
  0.9322399373229534  0.8402302785619163  0.0856254925912797   T   T   T
  0.3059189497238639  0.0892838055831414  0.0872618191889656   T   T   T
  0.1816253796481358  0.1744677630260641  0.0862347189493652   T   T   T
  0.3050647744469996  0.9236297225219384  0.0881794167877413   T   T   T
  0.1827975837095568  0.3409716465918312  0.0899837063661820   T   T   T
  0.3041366921971542  0.5926712543773934  0.0980467289153124   T   T   T
  0.1800141320401588  0.6738799736136366  0.0878327851492974   T   T   T
  0.3091600759502075  0.4244523517947418  0.0972180627703039   T   T   T
  0.1802103910943821  0.8402207464078572  0.0855674986152779   T   T   T
  0.5562249879598109  0.0838635913143940  0.0955613716532853   T   T   T
  0.4314964856655771  0.1692959248857573  0.0930331779474449   T   T   T
  0.5562311467972533  0.9174704735663030  0.0997561006255317   T   T   T
  0.4331136147419444  0.3340574331517756  0.1001707327887452   T   T   T
  0.4267991366071533  0.8385616125840282  0.0990822776415549   T   T   T
  0.8065443108873016  0.0893018860571767  0.0873169658617702   T   T   T
  0.6809729574883899  0.1692929185172249  0.0930679111174109   T   T   T
  0.8074123088046907  0.9236508143896743  0.0882689687890512   T   T   T
  0.6793716822536729  0.3340545704145972  0.1001916345111179   T   T   T
  0.8083760281225038  0.5926713333189815  0.0981251619447068   T   T   T
  0.8033138544282268  0.4244574852167585  0.0972549070672182   T   T   T
  0.6856859371468614  0.8385804100333513  0.0991601313992543   T   T   T
  0.4171139074189144  0.6818388774421079  0.1114914694970509   T   T   T
  0.5562346283420685  0.4036679490104967  0.1130422915004330   T   T   T
  0.6954440354666204  0.6818673488425780  0.1115735410027601   T   T   T
  0.5562372800137819  0.5899506013469412  0.1664769387912864   T   T   T
 
  0.00000000E+00  0.00000000E+00  0.00000000E+00
  0.00000000E+00  0.00000000E+00  0.00000000E+00
  0.00000000E+00  0.00000000E+00  0.00000000E+00
  0.00000000E+00  0.00000000E+00  0.00000000E+00
  0.00000000E+00  0.00000000E+00  0.00000000E+00
  0.00000000E+00  0.00000000E+00  0.00000000E+00
  0.00000000E+00  0.00000000E+00  0.00000000E+00
  0.00000000E+00  0.00000000E+00  0.00000000E+00
  0.00000000E+00  0.00000000E+00  0.00000000E+00
  0.00000000E+00  0.00000000E+00  0.00000000E+00
  0.00000000E+00  0.00000000E+00  0.00000000E+00
  0.00000000E+00  0.00000000E+00  0.00000000E+00
  0.00000000E+00  0.00000000E+00  0.00000000E+00
  0.00000000E+00  0.00000000E+00  0.00000000E+00
  0.00000000E+00  0.00000000E+00  0.00000000E+00
  0.00000000E+00  0.00000000E+00  0.00000000E+00
  0.00000000E+00  0.00000000E+00  0.00000000E+00
  0.00000000E+00  0.00000000E+00  0.00000000E+00
  0.00000000E+00  0.00000000E+00  0.00000000E+00
  0.00000000E+00  0.00000000E+00  0.00000000E+00
  0.00000000E+00  0.00000000E+00  0.00000000E+00
  0.00000000E+00  0.00000000E+00  0.00000000E+00
  0.00000000E+00  0.00000000E+00  0.00000000E+00
  0.00000000E+00  0.00000000E+00  0.00000000E+00
  0.00000000E+00  0.00000000E+00  0.00000000E+00
  0.00000000E+00  0.00000000E+00  0.00000000E+00
  0.00000000E+00  0.00000000E+00  0.00000000E+00
  0.00000000E+00  0.00000000E+00  0.00000000E+00
  0.00000000E+00  0.00000000E+00  0.00000000E+00
  0.00000000E+00  0.00000000E+00  0.00000000E+00
  0.00000000E+00  0.00000000E+00  0.00000000E+00
  0.00000000E+00  0.00000000E+00  0.00000000E+00
