Title                                   
   1.00000000000000     
     4.9440799999999996    0.0000000000000000    0.0000000000000000
     0.0000000000000000    8.5647549999999999    0.0000000000000000
     0.0000000000000000    0.0000000000000000   20.0000000000000000
    11     3     1
Selective dynamics
Direct
  0.2484854752308808  0.2089446681452587  0.1004361346148788   T   T   T
 -0.0023661274002874  0.2973846055716590  0.1004680505332006   T   T   T
  0.2485330122997362  0.0372425313911287  0.1004128638380461   T   T   T
 -0.0018886158666259  0.9531268681084363  0.1004195711144161   T   T   T
  0.7479089903957717  0.2101934642793925  0.1003853302478943   T   T   T
  0.4964691412921088  0.2954626663495086  0.1004605621809782   T   T   T
  0.7492618411172473  0.0399663191923955  0.1003604463348076   T   T   T
  0.7545871745231980  0.7144584453264317  0.1006386952399154   T   T   T
  0.7528815842611200  0.5398664893413505  0.1006108299035987   T   T   T
  0.5016308070092117  0.9514619049835394  0.1004827033363710   T   T   T
  0.5055217345048644  0.4638724783241687  0.1005952853326701   T   T   T
 -0.0044823716086690  0.4604709675588427  0.1006242173025767   T   T   T
 -0.0091815578783901  0.7900795676787800  0.1006046779910009   T   T   T
  0.5115488407651484  0.7882480194269912  0.1006841394716697   T   T   T
  0.2510900713546855  0.6209020043221187  0.1007964925579792   T   T   T
 
  0.00000000E+00  0.00000000E+00  0.00000000E+00
  0.00000000E+00  0.00000000E+00  0.00000000E+00
  0.00000000E+00  0.00000000E+00  0.00000000E+00
  0.00000000E+00  0.00000000E+00  0.00000000E+00
  0.00000000E+00  0.00000000E+00  0.00000000E+00
  0.00000000E+00  0.00000000E+00  0.00000000E+00
  0.00000000E+00  0.00000000E+00  0.00000000E+00
  0.00000000E+00  0.00000000E+00  0.00000000E+00
  0.00000000E+00  0.00000000E+00  0.00000000E+00
  0.00000000E+00  0.00000000E+00  0.00000000E+00
  0.00000000E+00  0.00000000E+00  0.00000000E+00
  0.00000000E+00  0.00000000E+00  0.00000000E+00
  0.00000000E+00  0.00000000E+00  0.00000000E+00
  0.00000000E+00  0.00000000E+00  0.00000000E+00
  0.00000000E+00  0.00000000E+00  0.00000000E+00
