Title                                   
   1.00000000000000     
     4.9440799999999996    0.0000000000000000    0.0000000000000000
     0.0000000000000000    8.5647549999999999    0.0000000000000000
     0.0000000000000000    0.0000000000000000   20.0000000000000000
    12     2     1
Selective dynamics
Direct
  0.2500000000000000  0.2052221267680960  0.1005414926205378   T   T   T
  0.0003351086227979  0.2909543697406475  0.1005515867234302   T   T   T
  0.2500000000000000  0.0378334408207856  0.1005307624224592   T   T   T
 -0.0034714808494785  0.9563792039135306  0.1005534412107347   T   T   T
  0.7500000000000000  0.2074005437686361  0.1006687600831508   T   T   T
  0.4996648913772022  0.2909543697406475  0.1005515867234302   T   T   T
  0.7500000000000000  0.0422014864449885  0.1006842019361343   T   T   T
  0.7500000000000000  0.7185268190898324  0.1005979667436358   T   T   T
  0.7500000000000000  0.5424404806859577  0.1005308085077320   T   T   T
  0.5034714808494782  0.9563792039135306  0.1005534412107347   T   T   T
  0.5115446718394583  0.4543914077252763  0.1004688717329459   T   T   T
 -0.0115446718394581  0.4543914077252763  0.1004688717329459   T   T   T
 -0.0168459335951722  0.7974903927714027  0.1005051152799199   T   T   T
  0.5168459335951723  0.7974903927714027  0.1005051152799199   T   T   T
  0.2500000000000000  0.6196253541199930  0.1002679777922920   T   T   T
 
  0.00000000E+00  0.00000000E+00  0.00000000E+00
  0.00000000E+00  0.00000000E+00  0.00000000E+00
  0.00000000E+00  0.00000000E+00  0.00000000E+00
  0.00000000E+00  0.00000000E+00  0.00000000E+00
  0.00000000E+00  0.00000000E+00  0.00000000E+00
  0.00000000E+00  0.00000000E+00  0.00000000E+00
  0.00000000E+00  0.00000000E+00  0.00000000E+00
  0.00000000E+00  0.00000000E+00  0.00000000E+00
  0.00000000E+00  0.00000000E+00  0.00000000E+00
  0.00000000E+00  0.00000000E+00  0.00000000E+00
  0.00000000E+00  0.00000000E+00  0.00000000E+00
  0.00000000E+00  0.00000000E+00  0.00000000E+00
  0.00000000E+00  0.00000000E+00  0.00000000E+00
  0.00000000E+00  0.00000000E+00  0.00000000E+00
  0.00000000E+00  0.00000000E+00  0.00000000E+00
