Title                                   
   1.00000000000000     
     8.5490480000000009    0.0000000000000000    0.0000000000000000
     0.0000000000000000    8.5490480000000009    0.0000000000000000
     0.0000000000000000    0.0000000000000000   20.0000000000000000
    18     6     1
Selective dynamics
Direct
  0.9074951184771858  0.2070618767800912  0.0976382836995735   T   T   T
  0.9102160270080454  0.8001108184078952  0.0975586529715609   T   T   T
  0.1988036616846162  0.0850766880015548  0.0978149113871664   T   T   T
  0.0776572299409202  0.2027276295305568  0.0977196454275357   T   T   T
  0.1579750782661098  0.6509222390749266  0.0977815653934155   T   T   T
  0.0757465182965850  0.5008489913645546  0.0977284171145763   T   T   T
  0.1589581397593210  0.3556443023561126  0.0977186279203258   T   T   T
  0.0796789660589420  0.7986347977248534  0.0976779685800562   T   T   T
  0.3493311203440587  0.1682511737152181  0.0978088675129848   T   T   T
  0.4938940610588234  0.9156575386107165  0.0978078989149326   T   T   T
  0.3445301029352796  0.8336697894554259  0.0978821323961972   T   T   T
  0.7874012058848272  0.0871163579542337  0.0976024846344210   T   T   T
  0.6397077750215724  0.1683574743515150  0.0977497572298112   T   T   T
  0.7894906712602363  0.9182905165374238  0.0975611314385375   T   T   T
  0.8262449925098123  0.6510250649084470  0.0976966075328413   T   T   T
  0.8232317557721984  0.3542565935552432  0.0977264030762238   T   T   T
  0.6419327299158291  0.8347345943818854  0.0977464888478125   T   T   T
  0.3299978410104824  0.3356849777539131  0.0977243108946920   T   T   T
  0.4948444799711136  0.0861331673265210  0.0978515509672200   T   T   T
  0.9035720769225531  0.5025519214746433  0.0977728485045811   T   T   T
  0.3218159057620671  0.6726571220295424  0.0978882033923521   T   T   T
  0.6585576677704598  0.3321210116324398  0.0978440996276142   T   T   T
  0.6653829634640188  0.6706364126697644  0.0978433729883336   T   T   T
  0.1981997129732020  0.9152311624553124  0.0978264987793056   T   T   T
  0.4907461979317327  0.4973877779472313  0.0977342707679023   T   T   T
 
  0.00000000E+00  0.00000000E+00  0.00000000E+00
  0.00000000E+00  0.00000000E+00  0.00000000E+00
  0.00000000E+00  0.00000000E+00  0.00000000E+00
  0.00000000E+00  0.00000000E+00  0.00000000E+00
  0.00000000E+00  0.00000000E+00  0.00000000E+00
  0.00000000E+00  0.00000000E+00  0.00000000E+00
  0.00000000E+00  0.00000000E+00  0.00000000E+00
  0.00000000E+00  0.00000000E+00  0.00000000E+00
  0.00000000E+00  0.00000000E+00  0.00000000E+00
  0.00000000E+00  0.00000000E+00  0.00000000E+00
  0.00000000E+00  0.00000000E+00  0.00000000E+00
  0.00000000E+00  0.00000000E+00  0.00000000E+00
  0.00000000E+00  0.00000000E+00  0.00000000E+00
  0.00000000E+00  0.00000000E+00  0.00000000E+00
  0.00000000E+00  0.00000000E+00  0.00000000E+00
  0.00000000E+00  0.00000000E+00  0.00000000E+00
  0.00000000E+00  0.00000000E+00  0.00000000E+00
  0.00000000E+00  0.00000000E+00  0.00000000E+00
  0.00000000E+00  0.00000000E+00  0.00000000E+00
  0.00000000E+00  0.00000000E+00  0.00000000E+00
  0.00000000E+00  0.00000000E+00  0.00000000E+00
  0.00000000E+00  0.00000000E+00  0.00000000E+00
  0.00000000E+00  0.00000000E+00  0.00000000E+00
  0.00000000E+00  0.00000000E+00  0.00000000E+00
  0.00000000E+00  0.00000000E+00  0.00000000E+00
