Title                                   
   1.00000000000000     
     9.8694509999999998    0.0000000000000000    0.0000000000000000
     0.0000000000000000    8.5490480000000009    0.0000000000000000
     0.0000000000000000    0.0000000000000000   20.0000000000000000
    28     3     1
Selective dynamics
Direct
  0.0558063671102107  0.0897618054531525  0.0810043884778915   T   T   T
  0.9311383585984163  0.1733445098930376  0.0816048152955090   T   T   T
  0.0571230010097332  0.9223891884225167  0.0822668197079910   T   T   T
  0.9307063590503599  0.3407647301254825  0.0844952389672150   T   T   T
  0.0562693535409169  0.5916227901551778  0.0849269719455662   T   T   T
  0.0562290011308950  0.4244192796264576  0.0841174686444237   T   T   T
  0.9324414026088100  0.8379926671445965  0.0850496025721513   T   T   T
  0.3054687885464432  0.0891602595539939  0.0873134056873739   T   T   T
  0.1821412765575169  0.1728213688816325  0.0838984158565509   T   T   T
  0.1818887013546263  0.3408962040806948  0.0865688519997427   T   T   T
  0.3022833508299756  0.5891257860213630  0.1027148694532586   T   T   T
  0.1808858360332268  0.6746415312258155  0.0892085942831182   T   T   T
  0.3062302433081051  0.4215685810366059  0.0987721980144564   T   T   T
  0.1824750322234656  0.8414144839207544  0.0863209561971478   T   T   T
  0.5556163133587801  0.0874049375397366  0.0919899599073503   T   T   T
  0.5544176304242080  0.9227518351426388  0.0999584405275966   T   T   T
  0.4296770482405207  0.3318839653415631  0.1048203685471556   T   T   T
  0.4266855952784473  0.8423484528922526  0.1056149639959714   T   T   T
  0.8066836082899727  0.0882726247551165  0.0837277183989502   T   T   T
  0.6804343503479057  0.1709254560116838  0.0892387673097364   T   T   T
  0.8068715027953032  0.9221153686047365  0.0875095072489305   T   T   T
  0.6829604388337286  0.3357763517968156  0.1002166236491069   T   T   T
  0.8112777902474806  0.5921282176004424  0.1013416902058743   T   T   T
  0.8072959257810195  0.4235018692331041  0.0955528829950373   T   T   T
  0.6830061949561774  0.8426260006320537  0.1012543154581239   T   T   T
  0.4158683288883251  0.6828181343446972  0.1226969511616066   T   T   T
  0.5564129414307264  0.4019562978244069  0.1206933768766713   T   T   T
  0.6961762293223926  0.6819110978526416  0.1199161989389535   T   T   T
  0.3053360087006359  0.9251280880870932  0.0896113101960746   T   T   T
  0.4288767364056387  0.1680236374531087  0.0928476099181902   T   T   T
  0.9329997638529605  0.6732811483681052  0.0875670819826175   T   T   T
  0.5579555209430840  0.5874693309785228  0.1728546355796733   T   T   T
 
  0.00000000E+00  0.00000000E+00  0.00000000E+00
  0.00000000E+00  0.00000000E+00  0.00000000E+00
  0.00000000E+00  0.00000000E+00  0.00000000E+00
  0.00000000E+00  0.00000000E+00  0.00000000E+00
  0.00000000E+00  0.00000000E+00  0.00000000E+00
  0.00000000E+00  0.00000000E+00  0.00000000E+00
  0.00000000E+00  0.00000000E+00  0.00000000E+00
  0.00000000E+00  0.00000000E+00  0.00000000E+00
  0.00000000E+00  0.00000000E+00  0.00000000E+00
  0.00000000E+00  0.00000000E+00  0.00000000E+00
  0.00000000E+00  0.00000000E+00  0.00000000E+00
  0.00000000E+00  0.00000000E+00  0.00000000E+00
  0.00000000E+00  0.00000000E+00  0.00000000E+00
  0.00000000E+00  0.00000000E+00  0.00000000E+00
  0.00000000E+00  0.00000000E+00  0.00000000E+00
  0.00000000E+00  0.00000000E+00  0.00000000E+00
  0.00000000E+00  0.00000000E+00  0.00000000E+00
  0.00000000E+00  0.00000000E+00  0.00000000E+00
  0.00000000E+00  0.00000000E+00  0.00000000E+00
  0.00000000E+00  0.00000000E+00  0.00000000E+00
  0.00000000E+00  0.00000000E+00  0.00000000E+00
  0.00000000E+00  0.00000000E+00  0.00000000E+00
  0.00000000E+00  0.00000000E+00  0.00000000E+00
  0.00000000E+00  0.00000000E+00  0.00000000E+00
  0.00000000E+00  0.00000000E+00  0.00000000E+00
  0.00000000E+00  0.00000000E+00  0.00000000E+00
  0.00000000E+00  0.00000000E+00  0.00000000E+00
  0.00000000E+00  0.00000000E+00  0.00000000E+00
  0.00000000E+00  0.00000000E+00  0.00000000E+00
  0.00000000E+00  0.00000000E+00  0.00000000E+00
  0.00000000E+00  0.00000000E+00  0.00000000E+00
  0.00000000E+00  0.00000000E+00  0.00000000E+00
