Title                                   
   1.00000000000000     
     9.8694509999999998    0.0000000000000000    0.0000000000000000
     0.0000000000000000    8.5490480000000009    0.0000000000000000
     0.0000000000000000    0.0000000000000000   20.0000000000000000
    29     2     1
Selective dynamics
Direct
  0.0562518280111918  0.0903050830929653  0.0808801211709947   T   T   T
  0.9309761228324485  0.1735755888001338  0.0815979852116130   T   T   T
  0.0572425545308942  0.9236917314748382  0.0825852785870962   T   T   T
  0.9308192824673761  0.3407859785681494  0.0841948354993159   T   T   T
  0.0573188695757101  0.5902788337722531  0.0837019437694129   T   T   T
  0.9325259922250744  0.6727418393488079  0.0878168957388110   T   T   T
  0.0571348825165168  0.4232919631906266  0.0829419783405536   T   T   T
  0.9322684853517319  0.8400536938691014  0.0857047372461224   T   T   T
  0.3055768811650165  0.0883433401891865  0.0868382860601812   T   T   T
  0.1824264957376365  0.1727237574474318  0.0828948664955979   T   T   T
  0.1826735499016440  0.3397075087227975  0.0847839210092184   T   T   T
  0.3037747081496440  0.5888561296254362  0.1011800778532598   T   T   T
  0.1829005680003013  0.6736580546823059  0.0876606964803451   T   T   T
  0.3069845860706332  0.4212332131546657  0.0969891065919704   T   T   T
  0.1824606049702236  0.8410577798441625  0.0862234059668386   T   T   T
  0.5549776946294280  0.0875872728755160  0.0923761188364592   T   T   T
  0.5541504321897682  0.9231305587018455  0.1001032010891717   T   T   T
  0.4295689739723736  0.3312466494613920  0.1047120093744636   T   T   T
  0.4261994553242176  0.8428826122172597  0.1052092702988767   T   T   T
  0.8060442056180919  0.0893318555696135  0.0839322289322353   T   T   T
  0.6802440120362556  0.1718174362710335  0.0896996430339693   T   T   T
  0.8064095465216807  0.9238131083615047  0.0881169380704131   T   T   T
  0.6823257258175326  0.3348227307431695  0.1010375503327556   T   T   T
  0.8101228319200120  0.5905169650530792  0.1003662884410607   T   T   T
  0.8062525674130255  0.4229122232562936  0.0955608785556485   T   T   T
  0.6827592903433541  0.8430186073741949  0.1017018471425661   T   T   T
  0.4162045299025561  0.6823861786076171  0.1237192167911582   T   T   T
  0.5563375697624499  0.4019171499322242  0.1233983277806768   T   T   T
  0.6937573550069771  0.6810260510846093  0.1204486207387322   T   T   T
  0.3062342870267433  0.9256938947330259  0.0903555958925944   T   T   T
  0.4293417983547967  0.1691370940815590  0.0932098159964933   T   T   T
  0.5573733126547024  0.5887011158932027  0.1757333126714103   T   T   T
 
  0.00000000E+00  0.00000000E+00  0.00000000E+00
  0.00000000E+00  0.00000000E+00  0.00000000E+00
  0.00000000E+00  0.00000000E+00  0.00000000E+00
  0.00000000E+00  0.00000000E+00  0.00000000E+00
  0.00000000E+00  0.00000000E+00  0.00000000E+00
  0.00000000E+00  0.00000000E+00  0.00000000E+00
  0.00000000E+00  0.00000000E+00  0.00000000E+00
  0.00000000E+00  0.00000000E+00  0.00000000E+00
  0.00000000E+00  0.00000000E+00  0.00000000E+00
  0.00000000E+00  0.00000000E+00  0.00000000E+00
  0.00000000E+00  0.00000000E+00  0.00000000E+00
  0.00000000E+00  0.00000000E+00  0.00000000E+00
  0.00000000E+00  0.00000000E+00  0.00000000E+00
  0.00000000E+00  0.00000000E+00  0.00000000E+00
  0.00000000E+00  0.00000000E+00  0.00000000E+00
  0.00000000E+00  0.00000000E+00  0.00000000E+00
  0.00000000E+00  0.00000000E+00  0.00000000E+00
  0.00000000E+00  0.00000000E+00  0.00000000E+00
  0.00000000E+00  0.00000000E+00  0.00000000E+00
  0.00000000E+00  0.00000000E+00  0.00000000E+00
  0.00000000E+00  0.00000000E+00  0.00000000E+00
  0.00000000E+00  0.00000000E+00  0.00000000E+00
  0.00000000E+00  0.00000000E+00  0.00000000E+00
  0.00000000E+00  0.00000000E+00  0.00000000E+00
  0.00000000E+00  0.00000000E+00  0.00000000E+00
  0.00000000E+00  0.00000000E+00  0.00000000E+00
  0.00000000E+00  0.00000000E+00  0.00000000E+00
  0.00000000E+00  0.00000000E+00  0.00000000E+00
  0.00000000E+00  0.00000000E+00  0.00000000E+00
  0.00000000E+00  0.00000000E+00  0.00000000E+00
  0.00000000E+00  0.00000000E+00  0.00000000E+00
  0.00000000E+00  0.00000000E+00  0.00000000E+00
