Title                                   
   1.00000000000000     
     9.8694509999999998    0.0000000000000000    0.0000000000000000
     0.0000000000000000    8.5490480000000009    0.0000000000000000
     0.0000000000000000    0.0000000000000000   20.0000000000000000
    25     5     1
Selective dynamics
Direct
  0.0558905133833338  0.0903327798006374  0.0889918603378416   T   T   T
  0.9316643237298625  0.1722284892582741  0.0915805566932030   T   T   T
  0.0574316469775106  0.9226195916117527  0.0893654331178659   T   T   T
  0.9325819264384695  0.3397196095589213  0.0901106589455087   T   T   T
  0.0563839147834650  0.5898329473027115  0.0847422543782578   T   T   T
  0.9327988274699044  0.6730928547758794  0.0901657468146626   T   T   T
  0.0563758935070920  0.4231118709469299  0.0845935874965924   T   T   T
  0.9322300982587719  0.8397658016416387  0.0916502586805612   T   T   T
  0.3079047931741120  0.0891455947446588  0.0916931207556423   T   T   T
  0.1811371381274159  0.1714963295296658  0.0877269075117793   T   T   T
  0.1803423853618879  0.3384647815232431  0.0853128500971256   T   T   T
  0.3027412535600950  0.5892541855440621  0.0903930107738445   T   T   T
  0.1806233225659276  0.6741504683250674  0.0856384513050538   T   T   T
  0.3030827856704558  0.4229797851615980  0.0907818853252347   T   T   T
  0.1814290987034157  0.8399803192807127  0.0883466325083308   T   T   T
  0.5565859550537906  0.0930682668585976  0.1028265840684436   T   T   T
  0.4289783302350282  0.1753032197527377  0.0993472831259488   T   T   T
  0.5553238002698306  0.9197364739156038  0.1024076756583959   T   T   T
  0.4286412826391184  0.8359954817679811  0.0991952334328689   T   T   T
  0.8048522026898242  0.0901356358989786  0.0963841217303437   T   T   T
  0.6826913291105822  0.1766493248693747  0.1036841170799152   T   T   T
  0.8049706041039656  0.9219315487096148  0.0960978500310925   T   T   T
  0.8105308964454856  0.5897208338916022  0.0984456940208206   T   T   T
  0.8105386399188913  0.4227104507699574  0.0987400770909136   T   T   T
  0.6824794806080092  0.8348357962079792  0.1028123845952842   T   T   T
  0.4222538132488429  0.3401501190876073  0.1050910765437417   T   T   T
  0.4217645594533029  0.6744410352673877  0.1047765349262708   T   T   T
  0.6899218576770560  0.3412351848583188  0.1125815791324578   T   T   T
  0.6896641147383986  0.6713030053885912  0.1109306917197326   T   T   T
  0.3083777731109387  0.9220475451768798  0.0915245350054278   T   T   T
  0.5529434389852149  0.5054356685730339  0.1450263470968955   T   T   T
 
  0.00000000E+00  0.00000000E+00  0.00000000E+00
  0.00000000E+00  0.00000000E+00  0.00000000E+00
  0.00000000E+00  0.00000000E+00  0.00000000E+00
  0.00000000E+00  0.00000000E+00  0.00000000E+00
  0.00000000E+00  0.00000000E+00  0.00000000E+00
  0.00000000E+00  0.00000000E+00  0.00000000E+00
  0.00000000E+00  0.00000000E+00  0.00000000E+00
  0.00000000E+00  0.00000000E+00  0.00000000E+00
  0.00000000E+00  0.00000000E+00  0.00000000E+00
  0.00000000E+00  0.00000000E+00  0.00000000E+00
  0.00000000E+00  0.00000000E+00  0.00000000E+00
  0.00000000E+00  0.00000000E+00  0.00000000E+00
  0.00000000E+00  0.00000000E+00  0.00000000E+00
  0.00000000E+00  0.00000000E+00  0.00000000E+00
  0.00000000E+00  0.00000000E+00  0.00000000E+00
  0.00000000E+00  0.00000000E+00  0.00000000E+00
  0.00000000E+00  0.00000000E+00  0.00000000E+00
  0.00000000E+00  0.00000000E+00  0.00000000E+00
  0.00000000E+00  0.00000000E+00  0.00000000E+00
  0.00000000E+00  0.00000000E+00  0.00000000E+00
  0.00000000E+00  0.00000000E+00  0.00000000E+00
  0.00000000E+00  0.00000000E+00  0.00000000E+00
  0.00000000E+00  0.00000000E+00  0.00000000E+00
  0.00000000E+00  0.00000000E+00  0.00000000E+00
  0.00000000E+00  0.00000000E+00  0.00000000E+00
  0.00000000E+00  0.00000000E+00  0.00000000E+00
  0.00000000E+00  0.00000000E+00  0.00000000E+00
  0.00000000E+00  0.00000000E+00  0.00000000E+00
  0.00000000E+00  0.00000000E+00  0.00000000E+00
  0.00000000E+00  0.00000000E+00  0.00000000E+00
  0.00000000E+00  0.00000000E+00  0.00000000E+00
