Title                                   
   1.00000000000000     
     9.8694509999999998    0.0000000000000000    0.0000000000000000
     0.0000000000000000    8.5490480000000009    0.0000000000000000
     0.0000000000000000    0.0000000000000000   20.0000000000000000
    27     4     1
Selective dynamics
Direct
  0.0564544897093217  0.0915041309213665  0.0863765755706367   T   T   T
  0.9315394883519059  0.1753957785940455  0.0866466198973664   T   T   T
  0.0581448169243902  0.9237083914030533  0.0851266220148752   T   T   T
  0.9299694968012284  0.3433812726133090  0.0877352822309031   T   T   T
  0.0565715734623097  0.5923605994699767  0.0889362878445402   T   T   T
  0.0559097269142770  0.4254377684131818  0.0896671862291589   T   T   T
  0.9340240822776745  0.8404155284328616  0.0832802330868841   T   T   T
  0.3067638422520511  0.0886328007461910  0.0905044201947381   T   T   T
  0.1825545691240197  0.1732467842591965  0.0903813080051921   T   T   T
  0.1818069933824702  0.3406515279858578  0.0949712315635625   T   T   T
  0.3039517945058650  0.5885235213037601  0.1075714466141993   T   T   T
  0.1817584856269308  0.6744896822044226  0.0932767718376016   T   T   T
  0.3056168896498836  0.4205768314276709  0.1069955470388293   T   T   T
  0.1836659293490471  0.8412174974241059  0.0893063569024310   T   T   T
  0.5568130799168196  0.0861647231967510  0.0919247186738398   T   T   T
  0.5569275168631618  0.9190162157109991  0.0914822811500726   T   T   T
  0.4316045775983316  0.3314201571490960  0.1110848314740995   T   T   T
  0.4296994911065806  0.8377761001026567  0.1015757380753232   T   T   T
  0.8069112237045131  0.0901410779835808  0.0854290073797808   T   T   T
  0.6803315508816959  0.1727734222459061  0.0903605196978726   T   T   T
  0.8081538128394417  0.9238365382042606  0.0832328191439168   T   T   T
  0.6811231924143835  0.3395161231470630  0.1005862058971614   T   T   T
  0.8050904331539520  0.5973562757651631  0.0847263927911036   T   T   T
  0.8046465588875032  0.4273472097637712  0.0909151726298025   T   T   T
  0.6843534218557668  0.8370994257121415  0.0842172718244837   T   T   T
  0.4194002028690031  0.6825264695568638  0.1204219252120521   T   T   T
  0.5564147355919563  0.4015459902240778  0.1236639028555505   T   T   T
  0.6909732278109003  0.6774558275517284  0.0804902741826199   T   T   T
  0.3065564867205251  0.9243685506120125  0.0906570566009501   T   T   T
  0.4305956500807390  0.1668466140877918  0.0952849396170633   T   T   T
  0.9338082598838007  0.6751638690362219  0.0849647884562112   T   T   T
  0.5475033994895568  0.5803492947509188  0.1938812653071941   T   T   T
 
  0.00000000E+00  0.00000000E+00  0.00000000E+00
  0.00000000E+00  0.00000000E+00  0.00000000E+00
  0.00000000E+00  0.00000000E+00  0.00000000E+00
  0.00000000E+00  0.00000000E+00  0.00000000E+00
  0.00000000E+00  0.00000000E+00  0.00000000E+00
  0.00000000E+00  0.00000000E+00  0.00000000E+00
  0.00000000E+00  0.00000000E+00  0.00000000E+00
  0.00000000E+00  0.00000000E+00  0.00000000E+00
  0.00000000E+00  0.00000000E+00  0.00000000E+00
  0.00000000E+00  0.00000000E+00  0.00000000E+00
  0.00000000E+00  0.00000000E+00  0.00000000E+00
  0.00000000E+00  0.00000000E+00  0.00000000E+00
  0.00000000E+00  0.00000000E+00  0.00000000E+00
  0.00000000E+00  0.00000000E+00  0.00000000E+00
  0.00000000E+00  0.00000000E+00  0.00000000E+00
  0.00000000E+00  0.00000000E+00  0.00000000E+00
  0.00000000E+00  0.00000000E+00  0.00000000E+00
  0.00000000E+00  0.00000000E+00  0.00000000E+00
  0.00000000E+00  0.00000000E+00  0.00000000E+00
  0.00000000E+00  0.00000000E+00  0.00000000E+00
  0.00000000E+00  0.00000000E+00  0.00000000E+00
  0.00000000E+00  0.00000000E+00  0.00000000E+00
  0.00000000E+00  0.00000000E+00  0.00000000E+00
  0.00000000E+00  0.00000000E+00  0.00000000E+00
  0.00000000E+00  0.00000000E+00  0.00000000E+00
  0.00000000E+00  0.00000000E+00  0.00000000E+00
  0.00000000E+00  0.00000000E+00  0.00000000E+00
  0.00000000E+00  0.00000000E+00  0.00000000E+00
  0.00000000E+00  0.00000000E+00  0.00000000E+00
  0.00000000E+00  0.00000000E+00  0.00000000E+00
  0.00000000E+00  0.00000000E+00  0.00000000E+00
  0.00000000E+00  0.00000000E+00  0.00000000E+00
