Title                                   
   1.00000000000000     
     9.8694509999999998    0.0000000000000000    0.0000000000000000
     0.0000000000000000    8.5490480000000009    0.0000000000000000
     0.0000000000000000    0.0000000000000000   20.0000000000000000
    26     5     1
Selective dynamics
Direct
  0.0564952780037492  0.0923589843292891  0.0876276356890742   T   T   T
  0.9307602508889756  0.1747717911901728  0.0898452741783527   T   T   T
  0.0568082010916783  0.9240619146955633  0.0871479395115342   T   T   T
  0.9296587236483407  0.3416688184632983  0.0935108255827488   T   T   T
  0.0558968551288156  0.5897826701746832  0.0894774454622538   T   T   T
  0.9318011757954012  0.6734498289182209  0.0909045260057988   T   T   T
  0.0571564782629256  0.4232844330882133  0.0915737130733087   T   T   T
  0.9316772874886503  0.8409910678402271  0.0885488306891262   T   T   T
  0.3057804689883702  0.0887103787965877  0.0870406171138055   T   T   T
  0.1826251505801483  0.1750395395948751  0.0882540631983539   T   T   T
  0.3069371602455075  0.9228853849423848  0.0884704824576263   T   T   T
  0.1829124449797238  0.3413177997573578  0.0911114282437939   T   T   T
  0.3066792409034146  0.5916963233095776  0.0941708963770033   T   T   T
  0.1813268759923241  0.6714964979358310  0.0891918465703108   T   T   T
  0.1815291227039908  0.8390498554120813  0.0881575597195495   T   T   T
  0.5554689269807991  0.0845144042299654  0.0942903216573865   T   T   T
  0.4312665460603340  0.1693591730296561  0.0910633691198264   T   T   T
  0.4329179188894704  0.3348256604695350  0.0967760718650367   T   T   T
  0.4286390615767132  0.8362496309824502  0.0945337083617673   T   T   T
  0.8065474863895041  0.0905948422642882  0.0890403800766738   T   T   T
  0.6800471147609870  0.1692680000995766  0.0944357735785103   T   T   T
  0.8061673840134916  0.9243659897397507  0.0884936506150869   T   T   T
  0.6774351001217539  0.3344740170776013  0.1019694732478632   T   T   T
  0.8066568886431973  0.5939283728654068  0.0994722007788459   T   T   T
  0.8018456687853316  0.4249583975033334  0.0997812277135681   T   T   T
  0.6838682578371379  0.8392725413216576  0.0951715464545561   T   T   T
  0.4243741660572760  0.6764383538679374  0.1035711388747111   T   T   T
  0.5524278038221010  0.4069774719045742  0.1145077733301585   T   T   T
  0.6901735364865480  0.6829098397783616  0.1103866964701342   T   T   T
  0.5559343330221429  0.9162666339647785  0.0951991289368545   T   T   T
  0.3106519742530441  0.4243490623497703  0.0942228915590923   T   T   T
  0.5571721175981570  0.5909283201029952  0.1777265634873038   T   T   T
 
  0.00000000E+00  0.00000000E+00  0.00000000E+00
  0.00000000E+00  0.00000000E+00  0.00000000E+00
  0.00000000E+00  0.00000000E+00  0.00000000E+00
  0.00000000E+00  0.00000000E+00  0.00000000E+00
  0.00000000E+00  0.00000000E+00  0.00000000E+00
  0.00000000E+00  0.00000000E+00  0.00000000E+00
  0.00000000E+00  0.00000000E+00  0.00000000E+00
  0.00000000E+00  0.00000000E+00  0.00000000E+00
  0.00000000E+00  0.00000000E+00  0.00000000E+00
  0.00000000E+00  0.00000000E+00  0.00000000E+00
  0.00000000E+00  0.00000000E+00  0.00000000E+00
  0.00000000E+00  0.00000000E+00  0.00000000E+00
  0.00000000E+00  0.00000000E+00  0.00000000E+00
  0.00000000E+00  0.00000000E+00  0.00000000E+00
  0.00000000E+00  0.00000000E+00  0.00000000E+00
  0.00000000E+00  0.00000000E+00  0.00000000E+00
  0.00000000E+00  0.00000000E+00  0.00000000E+00
  0.00000000E+00  0.00000000E+00  0.00000000E+00
  0.00000000E+00  0.00000000E+00  0.00000000E+00
  0.00000000E+00  0.00000000E+00  0.00000000E+00
  0.00000000E+00  0.00000000E+00  0.00000000E+00
  0.00000000E+00  0.00000000E+00  0.00000000E+00
  0.00000000E+00  0.00000000E+00  0.00000000E+00
  0.00000000E+00  0.00000000E+00  0.00000000E+00
  0.00000000E+00  0.00000000E+00  0.00000000E+00
  0.00000000E+00  0.00000000E+00  0.00000000E+00
  0.00000000E+00  0.00000000E+00  0.00000000E+00
  0.00000000E+00  0.00000000E+00  0.00000000E+00
  0.00000000E+00  0.00000000E+00  0.00000000E+00
  0.00000000E+00  0.00000000E+00  0.00000000E+00
  0.00000000E+00  0.00000000E+00  0.00000000E+00
  0.00000000E+00  0.00000000E+00  0.00000000E+00
