Title                                   
   1.00000000000000     
     9.8694509999999998    0.0000000000000000    0.0000000000000000
     0.0000000000000000    8.5490480000000009    0.0000000000000000
     0.0000000000000000    0.0000000000000000   20.0000000000000000
    28     2     1
Selective dynamics
Direct
  0.0556168715086617  0.0885203190944064  0.0875149954529545   T   T   T
  0.9311372657137724  0.1716297136951740  0.0886133401381168   T   T   T
  0.0573387595850633  0.9228486303561267  0.0880422641328121   T   T   T
  0.9341307653345065  0.3385798805306605  0.0868476155503045   T   T   T
  0.0573392055366934  0.5901533628024137  0.0842859821368765   T   T   T
  0.9336827048192231  0.6742542137220907  0.0873986467868418   T   T   T
  0.0574950851064063  0.4230783930588076  0.0838294684891894   T   T   T
  0.9317367023161198  0.8403455581363674  0.0891668590176905   T   T   T
  0.3056158136263278  0.0886021328492279  0.0939675868927251   T   T   T
  0.1804346544937691  0.1698219478572528  0.0884525243505014   T   T   T
  0.1804018931829128  0.3372269704962371  0.0866878123587061   T   T   T
  0.3033512623543105  0.5883160557389892  0.0940672292912986   T   T   T
  0.1818255284722879  0.6731475423617175  0.0874584403321301   T   T   T
  0.3021977647752408  0.4187862822449540  0.0938511899799656   T   T   T
  0.1825226535140946  0.8405527798344232  0.0892583546519924   T   T   T
  0.5554855163651505  0.0929228903079872  0.1033084445145042   T   T   T
  0.4277822230156861  0.1779616598412092  0.1009052533712238   T   T   T
  0.5541235940959486  0.9246962042685053  0.1031674888703965   T   T   T
  0.4266925442537724  0.6692396235887803  0.1043160095871760   T   T   T
  0.4289922434176058  0.8359161035607803  0.1013661603655035   T   T   T
  0.8051805306716988  0.0903572148403996  0.0942614088553509   T   T   T
  0.6820732100776891  0.1796107917301673  0.1011766367676710   T   T   T
  0.8051889624272696  0.9219761448354793  0.0944904620629676   T   T   T
  0.6874541879203548  0.3467167326279980  0.1044173132123032   T   T   T
  0.8120592323979002  0.5907282273535086  0.0937260408558874   T   T   T
  0.6852968990989976  0.6664180416837343  0.1026706877606640   T   T   T
  0.8128634553077968  0.4222695054892026  0.0939628589818481   T   T   T
  0.6806432033819274  0.8345505563088503  0.1009470484252263   T   T   T
  0.4220965823953440  0.3402264258675633  0.1031065795964747   T   T   T
  0.3062343207545501  0.9225005766571597  0.0941891667031804   T   T   T
  0.5561413640789339  0.5089205182598466  0.1155111305075654   T   T   T
 
  0.00000000E+00  0.00000000E+00  0.00000000E+00
  0.00000000E+00  0.00000000E+00  0.00000000E+00
  0.00000000E+00  0.00000000E+00  0.00000000E+00
  0.00000000E+00  0.00000000E+00  0.00000000E+00
  0.00000000E+00  0.00000000E+00  0.00000000E+00
  0.00000000E+00  0.00000000E+00  0.00000000E+00
  0.00000000E+00  0.00000000E+00  0.00000000E+00
  0.00000000E+00  0.00000000E+00  0.00000000E+00
  0.00000000E+00  0.00000000E+00  0.00000000E+00
  0.00000000E+00  0.00000000E+00  0.00000000E+00
  0.00000000E+00  0.00000000E+00  0.00000000E+00
  0.00000000E+00  0.00000000E+00  0.00000000E+00
  0.00000000E+00  0.00000000E+00  0.00000000E+00
  0.00000000E+00  0.00000000E+00  0.00000000E+00
  0.00000000E+00  0.00000000E+00  0.00000000E+00
  0.00000000E+00  0.00000000E+00  0.00000000E+00
  0.00000000E+00  0.00000000E+00  0.00000000E+00
  0.00000000E+00  0.00000000E+00  0.00000000E+00
  0.00000000E+00  0.00000000E+00  0.00000000E+00
  0.00000000E+00  0.00000000E+00  0.00000000E+00
  0.00000000E+00  0.00000000E+00  0.00000000E+00
  0.00000000E+00  0.00000000E+00  0.00000000E+00
  0.00000000E+00  0.00000000E+00  0.00000000E+00
  0.00000000E+00  0.00000000E+00  0.00000000E+00
  0.00000000E+00  0.00000000E+00  0.00000000E+00
  0.00000000E+00  0.00000000E+00  0.00000000E+00
  0.00000000E+00  0.00000000E+00  0.00000000E+00
  0.00000000E+00  0.00000000E+00  0.00000000E+00
  0.00000000E+00  0.00000000E+00  0.00000000E+00
  0.00000000E+00  0.00000000E+00  0.00000000E+00
  0.00000000E+00  0.00000000E+00  0.00000000E+00
