Title                                   
   1.00000000000000     
     9.8694509999999998    0.0000000000000000    0.0000000000000000
     0.0000000000000000    8.5490480000000009    0.0000000000000000
     0.0000000000000000    0.0000000000000000   20.0000000000000000
    28     2     1
Selective dynamics
Direct
  0.0559244431239197  0.0891279624029394  0.0851148980011007   T   T   T
  0.9307335160712792  0.1719909661416376  0.0866260260468216   T   T   T
  0.0570335788717662  0.9239525745721849  0.0852470981343859   T   T   T
  0.9326320241117573  0.3391358654820351  0.0853439293164877   T   T   T
  0.0566309364941256  0.5903137727930238  0.0821254847047216   T   T   T
  0.9328154155908631  0.6733976517682195  0.0854718026150963   T   T   T
  0.0567317884127025  0.4228995821686805  0.0820809363612248   T   T   T
  0.9315344771293771  0.8401238833372777  0.0868882454310882   T   T   T
  0.3069510571002426  0.0882577196345086  0.0921332824092184   T   T   T
  0.1821615438001030  0.1709960185517429  0.0865686712831326   T   T   T
  0.1805545211780274  0.3385140029673767  0.0854915359808447   T   T   T
  0.3027426105921954  0.5910017442433804  0.0947503166584823   T   T   T
  0.1809808301758754  0.6744569592194620  0.0855568445349745   T   T   T
  0.3028313467476004  0.4204460149530712  0.0944559052848663   T   T   T
  0.1822512567978354  0.8413371161965263  0.0870167177908593   T   T   T
  0.4308425730153678  0.1743047800655444  0.1005290877996903   T   T   T
  0.5551771276634756  0.9239351805533729  0.1039357093355235   T   T   T
  0.4257898365184253  0.3386005668056922  0.1058322001611311   T   T   T
  0.4238834537136259  0.6735112031668029  0.1074232427427322   T   T   T
  0.4286653507142525  0.8383129859502355  0.1022282114441934   T   T   T
  0.8052316379292200  0.0890656862017594  0.0922786605612978   T   T   T
  0.6812690710950263  0.1759845332758393  0.1004721308541680   T   T   T
  0.8062478623801269  0.9222765427344493  0.0927831165081210   T   T   T
  0.6863051469161855  0.3404044379332828  0.1061101030204276   T   T   T
  0.8102045289713939  0.5909071576801970  0.0944213951218007   T   T   T
  0.6874142072813084  0.6707478495224307  0.1070232569806249   T   T   T
  0.8102383593356983  0.4206220209954065  0.0942160613682367   T   T   T
  0.6813532399284855  0.8369210742440616  0.1018776437468171   T   T   T
  0.5567277681755630  0.0898384004506379  0.1029944033154180   T   T   T
  0.3051814432197397  0.9229999198348947  0.0924977778017376   T   T   T
  0.5560940469444366  0.5064908261533460  0.1314703046848024   T   T   T
 
  0.00000000E+00  0.00000000E+00  0.00000000E+00
  0.00000000E+00  0.00000000E+00  0.00000000E+00
  0.00000000E+00  0.00000000E+00  0.00000000E+00
  0.00000000E+00  0.00000000E+00  0.00000000E+00
  0.00000000E+00  0.00000000E+00  0.00000000E+00
  0.00000000E+00  0.00000000E+00  0.00000000E+00
  0.00000000E+00  0.00000000E+00  0.00000000E+00
  0.00000000E+00  0.00000000E+00  0.00000000E+00
  0.00000000E+00  0.00000000E+00  0.00000000E+00
  0.00000000E+00  0.00000000E+00  0.00000000E+00
  0.00000000E+00  0.00000000E+00  0.00000000E+00
  0.00000000E+00  0.00000000E+00  0.00000000E+00
  0.00000000E+00  0.00000000E+00  0.00000000E+00
  0.00000000E+00  0.00000000E+00  0.00000000E+00
  0.00000000E+00  0.00000000E+00  0.00000000E+00
  0.00000000E+00  0.00000000E+00  0.00000000E+00
  0.00000000E+00  0.00000000E+00  0.00000000E+00
  0.00000000E+00  0.00000000E+00  0.00000000E+00
  0.00000000E+00  0.00000000E+00  0.00000000E+00
  0.00000000E+00  0.00000000E+00  0.00000000E+00
  0.00000000E+00  0.00000000E+00  0.00000000E+00
  0.00000000E+00  0.00000000E+00  0.00000000E+00
  0.00000000E+00  0.00000000E+00  0.00000000E+00
  0.00000000E+00  0.00000000E+00  0.00000000E+00
  0.00000000E+00  0.00000000E+00  0.00000000E+00
  0.00000000E+00  0.00000000E+00  0.00000000E+00
  0.00000000E+00  0.00000000E+00  0.00000000E+00
  0.00000000E+00  0.00000000E+00  0.00000000E+00
  0.00000000E+00  0.00000000E+00  0.00000000E+00
  0.00000000E+00  0.00000000E+00  0.00000000E+00
  0.00000000E+00  0.00000000E+00  0.00000000E+00
