Title                                   
   1.00000000000000     
     8.5490480000000009    0.0000000000000000    0.0000000000000000
     0.0000000000000000    8.5490480000000009    0.0000000000000000
     0.0000000000000000    0.0000000000000000   20.0000000000000000
    18     6     1
Selective dynamics
Direct
  0.9077028704464070  0.2070891660732677  0.0974881693350846   T   T   T
  0.9102283386414955  0.7997319926727570  0.0975651235208575   T   T   T
  0.1968311811705074  0.0844797833562336  0.0977080113028573   T   T   T
  0.0761077913945014  0.2025551733911036  0.0975494031953976   T   T   T
  0.1582087427976240  0.6505715682322678  0.0977110552592982   T   T   T
  0.0777405664180170  0.5007725643296235  0.0977470678427286   T   T   T
  0.1581230651566027  0.3519340657355193  0.0977848096894180   T   T   T
  0.0789641960347920  0.7977893665906598  0.0976230437700026   T   T   T
  0.4933885934308515  0.0881806483858051  0.0978786585778744   T   T   T
  0.3436996193555925  0.1677131187637351  0.0979511025506168   T   T   T
  0.4930619880967092  0.9163020978054033  0.0977794632920774   T   T   T
  0.3442081235235002  0.8336612520767275  0.0977801691697507   T   T   T
  0.7874643035077595  0.0880629509196829  0.0975402645349828   T   T   T
  0.6407539603025273  0.1707481054126154  0.0978100395326972   T   T   T
  0.7882851602190150  0.9181093042925074  0.0975305694285950   T   T   T
  0.8282162446643069  0.6502285631778014  0.0977019488109618   T   T   T
  0.8260338943153140  0.3554430969772638  0.0976778915385330   T   T   T
  0.6419664531815955  0.8339065916711245  0.0977142109952335   T   T   T
  0.9072660675806639  0.5023666161871015  0.0977683296339345   T   T   T
  0.3212648357918464  0.3301249007094677  0.0980782797342056   T   T   T
  0.3213777239367808  0.6741776778999712  0.0977269087521459   T   T   T
  0.6641737498555471  0.3357715544079220  0.0979681553920137   T   T   T
  0.6668597563117414  0.6692848624062712  0.0978504030939963   T   T   T
  0.1982448285159815  0.9150222979455302  0.0977205551989885   T   T   T
  0.4952399453503136  0.5007626805796361  0.0980513658477286   T   T   T
 
  0.00000000E+00  0.00000000E+00  0.00000000E+00
  0.00000000E+00  0.00000000E+00  0.00000000E+00
  0.00000000E+00  0.00000000E+00  0.00000000E+00
  0.00000000E+00  0.00000000E+00  0.00000000E+00
  0.00000000E+00  0.00000000E+00  0.00000000E+00
  0.00000000E+00  0.00000000E+00  0.00000000E+00
  0.00000000E+00  0.00000000E+00  0.00000000E+00
  0.00000000E+00  0.00000000E+00  0.00000000E+00
  0.00000000E+00  0.00000000E+00  0.00000000E+00
  0.00000000E+00  0.00000000E+00  0.00000000E+00
  0.00000000E+00  0.00000000E+00  0.00000000E+00
  0.00000000E+00  0.00000000E+00  0.00000000E+00
  0.00000000E+00  0.00000000E+00  0.00000000E+00
  0.00000000E+00  0.00000000E+00  0.00000000E+00
  0.00000000E+00  0.00000000E+00  0.00000000E+00
  0.00000000E+00  0.00000000E+00  0.00000000E+00
  0.00000000E+00  0.00000000E+00  0.00000000E+00
  0.00000000E+00  0.00000000E+00  0.00000000E+00
  0.00000000E+00  0.00000000E+00  0.00000000E+00
  0.00000000E+00  0.00000000E+00  0.00000000E+00
  0.00000000E+00  0.00000000E+00  0.00000000E+00
  0.00000000E+00  0.00000000E+00  0.00000000E+00
  0.00000000E+00  0.00000000E+00  0.00000000E+00
  0.00000000E+00  0.00000000E+00  0.00000000E+00
  0.00000000E+00  0.00000000E+00  0.00000000E+00
