Title                                   
   1.00000000000000     
     4.9440799999999996    0.0000000000000000    0.0000000000000000
     0.0000000000000000    8.5647549999999999    0.0000000000000000
     0.0000000000000000    0.0000000000000000   20.0000000000000000
    12     3     1
Selective dynamics
Direct
 -0.0050599777327291  0.2906715705563334  0.0903257750983453   T   T   T
  0.2501050012810553  0.0440815992827438  0.0884048756469767   T   T   T
  0.0060625042048537  0.7961504380211070  0.0986839548380135   T   T   T
  0.0016350472297856  0.9610360388440620  0.0872532296856087   T   T   T
  0.7477778422472270  0.2067661563501778  0.0843483735572248   T   T   T
  0.5005250247093639  0.2907774005560241  0.0949045826952507   T   T   T
  0.7507893306889312  0.0413002403144447  0.0824042740647622   T   T   T
  0.7553539779348245  0.7067924303510120  0.1027983906055173   T   T   T
  0.5012680471553426  0.7955722981847599  0.0999135644224935   T   T   T
  0.7530935723654251  0.5349453210925351  0.1066920244263693   T   T   T
  0.5007795104845876  0.9608157676002090  0.0886113422476387   T   T   T
  0.5144998978047162  0.4466413815905933  0.1182141648451758   T   T   T
 -0.0091671456772114  0.4477946112334082  0.0999803607199377   T   T   T
  0.2534853381166709  0.7270901246662392  0.1124639911712697   T   T   T
  0.2477242450602902  0.2096629476453368  0.0902375244714043   T   T   T
  0.2311277841268657  0.5399016737110143  0.1672755715040211   T   T   T
 
  0.00000000E+00  0.00000000E+00  0.00000000E+00
  0.00000000E+00  0.00000000E+00  0.00000000E+00
  0.00000000E+00  0.00000000E+00  0.00000000E+00
  0.00000000E+00  0.00000000E+00  0.00000000E+00
  0.00000000E+00  0.00000000E+00  0.00000000E+00
  0.00000000E+00  0.00000000E+00  0.00000000E+00
  0.00000000E+00  0.00000000E+00  0.00000000E+00
  0.00000000E+00  0.00000000E+00  0.00000000E+00
  0.00000000E+00  0.00000000E+00  0.00000000E+00
  0.00000000E+00  0.00000000E+00  0.00000000E+00
  0.00000000E+00  0.00000000E+00  0.00000000E+00
  0.00000000E+00  0.00000000E+00  0.00000000E+00
  0.00000000E+00  0.00000000E+00  0.00000000E+00
  0.00000000E+00  0.00000000E+00  0.00000000E+00
  0.00000000E+00  0.00000000E+00  0.00000000E+00
  0.00000000E+00  0.00000000E+00  0.00000000E+00
