Title                                   
   1.00000000000000     
     8.5490480000000009    0.0000000000000000    0.0000000000000000
     0.0000000000000000    8.5490480000000009    0.0000000000000000
     0.0000000000000000    0.0000000000000000   20.0000000000000000
    21     3     1
Selective dynamics
Direct
  0.9093261001237307  0.2072862325030390  0.0954236635615995   T   T   T
  0.9043243150487209  0.5029631528958918  0.0952984580112083   T   T   T
  0.9102445145577702  0.7988904313118473  0.0954674878569528   T   T   T
  0.1991009316589592  0.0843494940825416  0.0954803970018689   T   T   T
  0.0755946239150253  0.2078260413071167  0.0954452815555156   T   T   T
  0.1985530944163090  0.9180817220798401  0.0954777415212267   T   T   T
  0.1567546056239910  0.6500847039172982  0.0953390892782411   T   T   T
  0.0754941094546673  0.5021857922258843  0.0953218285471988   T   T   T
  0.1558383008625426  0.3564138680200409  0.0953634871744866   T   T   T
  0.0772489367462014  0.7972561045985721  0.0954627753056435   T   T   T
  0.4933792442700452  0.0843051354385080  0.0953575285354324   T   T   T
  0.3476353049803294  0.1646675165478031  0.0953966621399805   T   T   T
  0.4941815463998656  0.9131245291952138  0.0953483665944947   T   T   T
  0.3460274378505281  0.8345668429609522  0.0953539384584715   T   T   T
  0.7884805995194657  0.0860071139041830  0.0954502466041624   T   T   T
  0.6412901730772224  0.1655434484597769  0.0953137646396345   T   T   T
  0.7901429505303383  0.9190021810974847  0.0954680461281160   T   T   T
  0.8273473938952232  0.6516614202014113  0.0953156063450425   T   T   T
  0.8257917607460400  0.3547869958062157  0.0952905188461472   T   T   T
  0.6428809063175358  0.8361034083976666  0.0953257496421996   T   T   T
  0.3263206216227094  0.3351360540300747  0.0953055159877723   T   T   T
  0.3210371771001744  0.6708109794372548  0.0952170947641520   T   T   T
  0.6620118991201535  0.3297807067328568  0.0951784492911869   T   T   T
  0.6663652278060620  0.6751296384320190  0.0951852462594693   T   T   T
  0.4900402243563828  0.4988264864165209  0.0951180559497743   T   T   T
 
  0.00000000E+00  0.00000000E+00  0.00000000E+00
  0.00000000E+00  0.00000000E+00  0.00000000E+00
  0.00000000E+00  0.00000000E+00  0.00000000E+00
  0.00000000E+00  0.00000000E+00  0.00000000E+00
  0.00000000E+00  0.00000000E+00  0.00000000E+00
  0.00000000E+00  0.00000000E+00  0.00000000E+00
  0.00000000E+00  0.00000000E+00  0.00000000E+00
  0.00000000E+00  0.00000000E+00  0.00000000E+00
  0.00000000E+00  0.00000000E+00  0.00000000E+00
  0.00000000E+00  0.00000000E+00  0.00000000E+00
  0.00000000E+00  0.00000000E+00  0.00000000E+00
  0.00000000E+00  0.00000000E+00  0.00000000E+00
  0.00000000E+00  0.00000000E+00  0.00000000E+00
  0.00000000E+00  0.00000000E+00  0.00000000E+00
  0.00000000E+00  0.00000000E+00  0.00000000E+00
  0.00000000E+00  0.00000000E+00  0.00000000E+00
  0.00000000E+00  0.00000000E+00  0.00000000E+00
  0.00000000E+00  0.00000000E+00  0.00000000E+00
  0.00000000E+00  0.00000000E+00  0.00000000E+00
  0.00000000E+00  0.00000000E+00  0.00000000E+00
  0.00000000E+00  0.00000000E+00  0.00000000E+00
  0.00000000E+00  0.00000000E+00  0.00000000E+00
  0.00000000E+00  0.00000000E+00  0.00000000E+00
  0.00000000E+00  0.00000000E+00  0.00000000E+00
  0.00000000E+00  0.00000000E+00  0.00000000E+00
