Title                                   
   1.00000000000000     
     4.9440799999999996    0.0000000000000000    0.0000000000000000
     0.0000000000000000    8.5647549999999999    0.0000000000000000
     0.0000000000000000    0.0000000000000000   20.0000000000000000
    12     2     1
Selective dynamics
Direct
  0.2500000000000000  0.2063143496955270  0.0980322531008473   T   T   T
  0.0007723664134379  0.2927662610003768  0.0978255882592965   T   T   T
  0.2500000000000000  0.0369922529838069  0.0970379190009357   T   T   T
 -0.0027641791819444  0.9541325343413647  0.0962018074348767   T   T   T
  0.7500000000000000  0.2091395602098486  0.0947499856514219   T   T   T
  0.4992276335865622  0.2927662610003768  0.0978255882592965   T   T   T
  0.7500000000000000  0.0404339946513012  0.0939441923778575   T   T   T
  0.7500000000000000  0.7168682435440347  0.0978440592878674   T   T   T
  0.7500000000000000  0.5428897221396343  0.0977710432278541   T   T   T
  0.5027641791819445  0.9541325343413647  0.0962018074348767   T   T   T
  0.5046674138426819  0.4606587193417425  0.1037058526512523   T   T   T
 -0.0046674138426820  0.4606587193417425  0.1037058526512523   T   T   T
 -0.0119804395821218  0.7929849787898592  0.0989416307059673   T   T   T
  0.5119804395821218  0.7929849787898592  0.0989416307059673   T   T   T
  0.2500000000000000  0.6179578898291633  0.1352507892504339   T   T   T
 
  0.00000000E+00  0.00000000E+00  0.00000000E+00
  0.00000000E+00  0.00000000E+00  0.00000000E+00
  0.00000000E+00  0.00000000E+00  0.00000000E+00
  0.00000000E+00  0.00000000E+00  0.00000000E+00
  0.00000000E+00  0.00000000E+00  0.00000000E+00
  0.00000000E+00  0.00000000E+00  0.00000000E+00
  0.00000000E+00  0.00000000E+00  0.00000000E+00
  0.00000000E+00  0.00000000E+00  0.00000000E+00
  0.00000000E+00  0.00000000E+00  0.00000000E+00
  0.00000000E+00  0.00000000E+00  0.00000000E+00
  0.00000000E+00  0.00000000E+00  0.00000000E+00
  0.00000000E+00  0.00000000E+00  0.00000000E+00
  0.00000000E+00  0.00000000E+00  0.00000000E+00
  0.00000000E+00  0.00000000E+00  0.00000000E+00
  0.00000000E+00  0.00000000E+00  0.00000000E+00
