Title                                   
   1.00000000000000     
     9.8694509999999998    0.0000000000000000    0.0000000000000000
     0.0000000000000000    8.5490480000000009    0.0000000000000000
     0.0000000000000000    0.0000000000000000   20.0000000000000000
    29     2     1
Selective dynamics
Direct
  0.0565642797007678  0.0907904061894100  0.0823580937567367   T   T   T
  0.9312176088406426  0.1731098547201829  0.0853618855527788   T   T   T
  0.0558032519915888  0.9235350986106972  0.0826540510368480   T   T   T
  0.9311609922171415  0.3399522510768642  0.0901682814822413   T   T   T
  0.0566513513959748  0.5891749291016666  0.0870642501954028   T   T   T
  0.9320016089162702  0.6723410695837493  0.0900906738318191   T   T   T
  0.0569264732823066  0.4230312543365075  0.0878837148480382   T   T   T
  0.9308484894481330  0.8389936703131932  0.0857704082098954   T   T   T
  0.3057401440312963  0.0900148713669115  0.0851142348734108   T   T   T
  0.1819499112347918  0.1744696140136249  0.0843471461980693   T   T   T
  0.3057243472043594  0.9244412206763867  0.0863715485611210   T   T   T
  0.1832063728238326  0.3418809093622379  0.0882601990529995   T   T   T
  0.3042792646696488  0.5937581240966235  0.0988187074958587   T   T   T
  0.1807289633170300  0.6736417473904240  0.0883849856728564   T   T   T
  0.3087754486769593  0.4251431634047266  0.0972828946030768   T   T   T
  0.1805651848564530  0.8404241887449193  0.0854091791580185   T   T   T
  0.5560113619982715  0.0855310036519082  0.0948291794813647   T   T   T
  0.4312888713289271  0.1697641694567088  0.0925512735388183   T   T   T
  0.4317664282423911  0.3341772184907759  0.1030398687438124   T   T   T
  0.5571000412611614  0.4035250592682662  0.1222767940805184   T   T   T
  0.4278970398553252  0.8414699705121377  0.0973794192059896   T   T   T
  0.8072892396615881  0.0885369755803300  0.0865157886207654   T   T   T
  0.6820385073979830  0.1676698653416172  0.0946537417217973   T   T   T
  0.8053126435906409  0.9226168064795239  0.0869407933878994   T   T   T
  0.6831290643198294  0.3321565846414364  0.1063368959318416   T   T   T
  0.8096364897314907  0.5904928270602151  0.1037870962432222   T   T   T
  0.6917816503860624  0.6820481606264839  0.1195756478248519   T   T   T
  0.8069062156527643  0.4217280893254204  0.1015651322054549   T   T   T
  0.6826858349682204  0.8399955888223475  0.0991522175054044   T   T   T
  0.4189959028336581  0.6857543368907634  0.1147190107277432   T   T   T
  0.5546664845150077  0.9196982482059824  0.0973497719879123   T   T   T
  0.5509895316494886  0.5903787226579452  0.1776621142634782   T   T   T
 
  0.00000000E+00  0.00000000E+00  0.00000000E+00
  0.00000000E+00  0.00000000E+00  0.00000000E+00
  0.00000000E+00  0.00000000E+00  0.00000000E+00
  0.00000000E+00  0.00000000E+00  0.00000000E+00
  0.00000000E+00  0.00000000E+00  0.00000000E+00
  0.00000000E+00  0.00000000E+00  0.00000000E+00
  0.00000000E+00  0.00000000E+00  0.00000000E+00
  0.00000000E+00  0.00000000E+00  0.00000000E+00
  0.00000000E+00  0.00000000E+00  0.00000000E+00
  0.00000000E+00  0.00000000E+00  0.00000000E+00
  0.00000000E+00  0.00000000E+00  0.00000000E+00
  0.00000000E+00  0.00000000E+00  0.00000000E+00
  0.00000000E+00  0.00000000E+00  0.00000000E+00
  0.00000000E+00  0.00000000E+00  0.00000000E+00
  0.00000000E+00  0.00000000E+00  0.00000000E+00
  0.00000000E+00  0.00000000E+00  0.00000000E+00
  0.00000000E+00  0.00000000E+00  0.00000000E+00
  0.00000000E+00  0.00000000E+00  0.00000000E+00
  0.00000000E+00  0.00000000E+00  0.00000000E+00
  0.00000000E+00  0.00000000E+00  0.00000000E+00
  0.00000000E+00  0.00000000E+00  0.00000000E+00
  0.00000000E+00  0.00000000E+00  0.00000000E+00
  0.00000000E+00  0.00000000E+00  0.00000000E+00
  0.00000000E+00  0.00000000E+00  0.00000000E+00
  0.00000000E+00  0.00000000E+00  0.00000000E+00
  0.00000000E+00  0.00000000E+00  0.00000000E+00
  0.00000000E+00  0.00000000E+00  0.00000000E+00
  0.00000000E+00  0.00000000E+00  0.00000000E+00
  0.00000000E+00  0.00000000E+00  0.00000000E+00
  0.00000000E+00  0.00000000E+00  0.00000000E+00
  0.00000000E+00  0.00000000E+00  0.00000000E+00
  0.00000000E+00  0.00000000E+00  0.00000000E+00
