Title                                   
   1.00000000000000     
     4.9440799999999996    0.0000000000000000    0.0000000000000000
     0.0000000000000000    8.5647549999999999    0.0000000000000000
     0.0000000000000000    0.0000000000000000   20.0000000000000000
    13     1     1
Selective dynamics
Direct
  0.2500006386346964  0.2065272339713095  0.0961058687607005   T   T   T
 -0.0017031845581381  0.2934631489064478  0.0974661204447473   T   T   T
  0.2523159973766923  0.0397685348664600  0.0960513305851107   T   T   T
  0.0020839109119178  0.9551630306445346  0.0963811660301392   T   T   T
  0.7490099615518480  0.2082710585767446  0.0940147382025928   T   T   T
  0.4985791586797484  0.2925390827804430  0.0952719758475124   T   T   T
  0.7522711077094446  0.0403014938638583  0.0938444425358010   T   T   T
  0.7483749056205422  0.7141816933646034  0.1003752730632424   T   T   T
  0.7428139088545842  0.5404193757501814  0.1010546013570341   T   T   T
  0.5046142864455891  0.9548362353502782  0.0959079595235396   T   T   T
  0.4971045973515208  0.4586766024397266  0.0980315671522202   T   T   T
 -0.0062286602909366  0.4592477347803193  0.1037482630877689   T   T   T
 -0.0031142481756266  0.7899850947598378  0.1006753364103514   T   T   T
  0.5079992920944474  0.7934710182951101  0.0995771339398167   T   T   T
  0.2558783277936711  0.6248296616501486  0.1394742230594263   T   T   T
 
  0.00000000E+00  0.00000000E+00  0.00000000E+00
  0.00000000E+00  0.00000000E+00  0.00000000E+00
  0.00000000E+00  0.00000000E+00  0.00000000E+00
  0.00000000E+00  0.00000000E+00  0.00000000E+00
  0.00000000E+00  0.00000000E+00  0.00000000E+00
  0.00000000E+00  0.00000000E+00  0.00000000E+00
  0.00000000E+00  0.00000000E+00  0.00000000E+00
  0.00000000E+00  0.00000000E+00  0.00000000E+00
  0.00000000E+00  0.00000000E+00  0.00000000E+00
  0.00000000E+00  0.00000000E+00  0.00000000E+00
  0.00000000E+00  0.00000000E+00  0.00000000E+00
  0.00000000E+00  0.00000000E+00  0.00000000E+00
  0.00000000E+00  0.00000000E+00  0.00000000E+00
  0.00000000E+00  0.00000000E+00  0.00000000E+00
  0.00000000E+00  0.00000000E+00  0.00000000E+00
