Title                                   
   1.00000000000000     
     8.5490480000000009    0.0000000000000000    0.0000000000000000
     0.0000000000000000    8.5490480000000009    0.0000000000000000
     0.0000000000000000    0.0000000000000000   20.0000000000000000
    17     7     1
Selective dynamics
Direct
  0.9080511780831061  0.2052364436978456  0.0956944708185542   T   T   T
  0.9107005146490077  0.8004015380053263  0.0952041282085253   T   T   T
  0.1968798676574042  0.0832668270594565  0.0954424564945676   T   T   T
  0.0769879949690670  0.2011426661348082  0.0957388222312424   T   T   T
  0.1546387440339160  0.6521711441569235  0.0977470112742096   T   T   T
  0.0786053760719806  0.5012331975387814  0.0975763871028428   T   T   T
  0.1554334158636252  0.3498072082911057  0.0975209448078995   T   T   T
  0.0785322401517163  0.7998285546176938  0.0954172431841975   T   T   T
  0.3438629937459365  0.1625789280578512  0.0969686409521972   T   T   T
  0.4909657120369043  0.9168333606495427  0.0975544222297758   T   T   T
  0.3440679534338967  0.8409359516845076  0.0979158933918411   T   T   T
  0.7879042357690622  0.0869157274907586  0.0955922218823528   T   T   T
  0.6421295319644718  0.1665591226214480  0.0972751969870433   T   T   T
  0.7893468593320800  0.9176358215560447  0.0954606137261533   T   T   T
  0.8322768457326665  0.6509592301601265  0.0969926755756092   T   T   T
  0.8299735246454216  0.3527649161955746  0.0973011951242823   T   T   T
  0.6435855055503763  0.8383021315978862  0.0974427092224764   T   T   T
  0.4935815109940825  0.0903285969910333  0.0972397656494498   T   T   T
  0.9065716878080587  0.5020534781571602  0.0973316594954261   T   T   T
  0.3193077659736986  0.3231279865087573  0.0989057575119232   T   T   T
  0.3180946643483519  0.6796316694465679  0.1009871908304507   T   T   T
  0.6672555339253421  0.3290352282472929  0.0994483052804597   T   T   T
  0.6711099065553412  0.6744584577737466  0.0990345125808719   T   T   T
  0.1949002215537287  0.9159567019005618  0.0953886249431284   T   T   T
  0.4906482151507500  0.5036251114591996  0.1125241504945001   T   T   T
 
  0.00000000E+00  0.00000000E+00  0.00000000E+00
  0.00000000E+00  0.00000000E+00  0.00000000E+00
  0.00000000E+00  0.00000000E+00  0.00000000E+00
  0.00000000E+00  0.00000000E+00  0.00000000E+00
  0.00000000E+00  0.00000000E+00  0.00000000E+00
  0.00000000E+00  0.00000000E+00  0.00000000E+00
  0.00000000E+00  0.00000000E+00  0.00000000E+00
  0.00000000E+00  0.00000000E+00  0.00000000E+00
  0.00000000E+00  0.00000000E+00  0.00000000E+00
  0.00000000E+00  0.00000000E+00  0.00000000E+00
  0.00000000E+00  0.00000000E+00  0.00000000E+00
  0.00000000E+00  0.00000000E+00  0.00000000E+00
  0.00000000E+00  0.00000000E+00  0.00000000E+00
  0.00000000E+00  0.00000000E+00  0.00000000E+00
  0.00000000E+00  0.00000000E+00  0.00000000E+00
  0.00000000E+00  0.00000000E+00  0.00000000E+00
  0.00000000E+00  0.00000000E+00  0.00000000E+00
  0.00000000E+00  0.00000000E+00  0.00000000E+00
  0.00000000E+00  0.00000000E+00  0.00000000E+00
  0.00000000E+00  0.00000000E+00  0.00000000E+00
  0.00000000E+00  0.00000000E+00  0.00000000E+00
  0.00000000E+00  0.00000000E+00  0.00000000E+00
  0.00000000E+00  0.00000000E+00  0.00000000E+00
  0.00000000E+00  0.00000000E+00  0.00000000E+00
  0.00000000E+00  0.00000000E+00  0.00000000E+00
