Title                                   
   1.00000000000000     
     9.8694509999999998    0.0000000000000000    0.0000000000000000
     0.0000000000000000    8.5490480000000009    0.0000000000000000
     0.0000000000000000    0.0000000000000000   20.0000000000000000
    26     5     1
Selective dynamics
Direct
  0.0558425605262335  0.0920753354760113  0.0867018442941890   T   T   T
  0.9296666357294550  0.1755679537894344  0.0881306005928694   T   T   T
  0.0564175048339498  0.9234360910127282  0.0853261832172789   T   T   T
  0.9289404881683357  0.3419050224641371  0.0904573171777548   T   T   T
  0.0559673506887858  0.5900312209624181  0.0868432402050160   T   T   T
  0.9311214296372157  0.6718556005196190  0.0863893893684993   T   T   T
  0.0556595695398311  0.4232100698212457  0.0903437149709388   T   T   T
  0.9312739848802914  0.8399019027999047  0.0859653632119463   T   T   T
  0.3053015511856341  0.0890480399990057  0.0887894392818749   T   T   T
  0.1818313364372112  0.1741602029841112  0.0890328384089047   T   T   T
  0.3071385996899564  0.9230960985593738  0.0889093858526649   T   T   T
  0.1817098622877069  0.3401549794063749  0.0925096122459957   T   T   T
  0.3062759663927479  0.5900730813380766  0.0992699537184276   T   T   T
  0.1812086069519479  0.6705164454357132  0.0885929714821007   T   T   T
  0.1822171422536621  0.8388141972290364  0.0870194760835193   T   T   T
  0.5566425762440178  0.0863978616166898  0.0958368388706381   T   T   T
  0.4308473727937692  0.1695207751284738  0.0939177921200970   T   T   T
  0.4327080458314821  0.3346896293585436  0.1000031571770505   T   T   T
  0.4299730973299435  0.8386128041455478  0.0989476431754592   T   T   T
  0.8066379034329130  0.0899111675738150  0.0879899747710223   T   T   T
  0.6810738582317259  0.1713791328536519  0.0925750068482535   T   T   T
  0.8061862935810772  0.9243643669933740  0.0880712424279328   T   T   T
  0.6773016062599714  0.3360815908945146  0.0970878161737550   T   T   T
  0.8048595740829660  0.5939144860693105  0.0927096619577595   T   T   T
  0.6841475053540454  0.8387098676132659  0.0958495023641098   T   T   T
  0.4231300150985667  0.6782059680746846  0.1147252420512978   T   T   T
  0.5549479761217605  0.4095432448230165  0.1114234525730022   T   T   T
  0.6889814627328497  0.6792023323099623  0.1044667295806123   T   T   T
  0.5576074403031990  0.9194122374732496  0.0987320682729706   T   T   T
  0.3091992143564519  0.4217226833331889  0.0985128720729357   T   T   T
  0.8005734612986325  0.4257673504610041  0.0936974975557887   T   T   T
  0.5642490077436698  0.5889642594805182  0.1868471718953508   T   T   T
 
  0.00000000E+00  0.00000000E+00  0.00000000E+00
  0.00000000E+00  0.00000000E+00  0.00000000E+00
  0.00000000E+00  0.00000000E+00  0.00000000E+00
  0.00000000E+00  0.00000000E+00  0.00000000E+00
  0.00000000E+00  0.00000000E+00  0.00000000E+00
  0.00000000E+00  0.00000000E+00  0.00000000E+00
  0.00000000E+00  0.00000000E+00  0.00000000E+00
  0.00000000E+00  0.00000000E+00  0.00000000E+00
  0.00000000E+00  0.00000000E+00  0.00000000E+00
  0.00000000E+00  0.00000000E+00  0.00000000E+00
  0.00000000E+00  0.00000000E+00  0.00000000E+00
  0.00000000E+00  0.00000000E+00  0.00000000E+00
  0.00000000E+00  0.00000000E+00  0.00000000E+00
  0.00000000E+00  0.00000000E+00  0.00000000E+00
  0.00000000E+00  0.00000000E+00  0.00000000E+00
  0.00000000E+00  0.00000000E+00  0.00000000E+00
  0.00000000E+00  0.00000000E+00  0.00000000E+00
  0.00000000E+00  0.00000000E+00  0.00000000E+00
  0.00000000E+00  0.00000000E+00  0.00000000E+00
  0.00000000E+00  0.00000000E+00  0.00000000E+00
  0.00000000E+00  0.00000000E+00  0.00000000E+00
  0.00000000E+00  0.00000000E+00  0.00000000E+00
  0.00000000E+00  0.00000000E+00  0.00000000E+00
  0.00000000E+00  0.00000000E+00  0.00000000E+00
  0.00000000E+00  0.00000000E+00  0.00000000E+00
  0.00000000E+00  0.00000000E+00  0.00000000E+00
  0.00000000E+00  0.00000000E+00  0.00000000E+00
  0.00000000E+00  0.00000000E+00  0.00000000E+00
  0.00000000E+00  0.00000000E+00  0.00000000E+00
  0.00000000E+00  0.00000000E+00  0.00000000E+00
  0.00000000E+00  0.00000000E+00  0.00000000E+00
  0.00000000E+00  0.00000000E+00  0.00000000E+00
