Title                                   
   1.00000000000000     
     8.5490480000000009    0.0000000000000000    0.0000000000000000
     0.0000000000000000    8.5490480000000009    0.0000000000000000
     0.0000000000000000    0.0000000000000000   20.0000000000000000
    21     3     1
Selective dynamics
Direct
  0.9092529203100562  0.2049091854608005  0.0973775858877501   T   T   T
  0.9023590346468142  0.5025887206355861  0.0976604774709450   T   T   T
  0.9113301602624732  0.8018275497588498  0.0974106883312234   T   T   T
  0.2011567573122675  0.0828098036471321  0.0975735883000951   T   T   T
  0.0753909935336366  0.2052466625495333  0.0974168869626576   T   T   T
  0.1556962519187494  0.6488699267991568  0.0976392438582664   T   T   T
  0.0715943232554165  0.5014537746327824  0.0975902247374380   T   T   T
  0.1542472726835860  0.3552275584469075  0.0976520138389172   T   T   T
  0.0785986047625667  0.7967993259710985  0.0974355711570662   T   T   T
  0.4946507671156863  0.0867885253825644  0.0977878700859647   T   T   T
  0.3482139340870636  0.1656021344975007  0.0978826685681276   T   T   T
  0.4938250951585927  0.9163460494290205  0.0977216088914437   T   T   T
  0.3484587727516729  0.8349341751478448  0.0978792434280239   T   T   T
  0.7891722438514857  0.0857243113616065  0.0973874770794602   T   T   T
  0.6425403455911443  0.1668396271915276  0.0977787886525946   T   T   T
  0.7901132229557557  0.9193211805745320  0.0973653426463035   T   T   T
  0.8263850356520224  0.6524523114690252  0.0977244189572629   T   T   T
  0.8240352259144530  0.3533884801320906  0.0977555278448196   T   T   T
  0.6430649166146616  0.8365097629209061  0.0976550928175392   T   T   T
  0.3237675978235922  0.3377877788333601  0.0981214864033282   T   T   T
  0.3236515861976850  0.6662626393423852  0.0980959699155468   T   T   T
  0.6641055540060594  0.3283311464797715  0.0981659962192886   T   T   T
  0.6660278239924476  0.6763807096801626  0.0980379711753076   T   T   T
  0.2014370180536662  0.9181144027967370  0.0976158520278024   T   T   T
  0.4863365415484399  0.5002742568591381  0.0989734047428002   T   T   T
 
  0.00000000E+00  0.00000000E+00  0.00000000E+00
  0.00000000E+00  0.00000000E+00  0.00000000E+00
  0.00000000E+00  0.00000000E+00  0.00000000E+00
  0.00000000E+00  0.00000000E+00  0.00000000E+00
  0.00000000E+00  0.00000000E+00  0.00000000E+00
  0.00000000E+00  0.00000000E+00  0.00000000E+00
  0.00000000E+00  0.00000000E+00  0.00000000E+00
  0.00000000E+00  0.00000000E+00  0.00000000E+00
  0.00000000E+00  0.00000000E+00  0.00000000E+00
  0.00000000E+00  0.00000000E+00  0.00000000E+00
  0.00000000E+00  0.00000000E+00  0.00000000E+00
  0.00000000E+00  0.00000000E+00  0.00000000E+00
  0.00000000E+00  0.00000000E+00  0.00000000E+00
  0.00000000E+00  0.00000000E+00  0.00000000E+00
  0.00000000E+00  0.00000000E+00  0.00000000E+00
  0.00000000E+00  0.00000000E+00  0.00000000E+00
  0.00000000E+00  0.00000000E+00  0.00000000E+00
  0.00000000E+00  0.00000000E+00  0.00000000E+00
  0.00000000E+00  0.00000000E+00  0.00000000E+00
  0.00000000E+00  0.00000000E+00  0.00000000E+00
  0.00000000E+00  0.00000000E+00  0.00000000E+00
  0.00000000E+00  0.00000000E+00  0.00000000E+00
  0.00000000E+00  0.00000000E+00  0.00000000E+00
  0.00000000E+00  0.00000000E+00  0.00000000E+00
  0.00000000E+00  0.00000000E+00  0.00000000E+00
