Title                                   
   1.00000000000000     
     4.9440799999999996    0.0000000000000000    0.0000000000000000
     0.0000000000000000    8.5647549999999999    0.0000000000000000
     0.0000000000000000    0.0000000000000000   20.0000000000000000
    12     3     1
Selective dynamics
Direct
 -0.0019094673285745  0.2891708985265519  0.0865566211131901   T   T   T
  0.2535899566547635  0.0435901519474161  0.0865538931539366   T   T   T
  0.0084078389876299  0.7963951710411918  0.0969830855459272   T   T   T
  0.0040270372233389  0.9617726939418835  0.0861487413755121   T   T   T
  0.7482633776751837  0.2073238959022122  0.0841068763883012   T   T   T
  0.5005849689400798  0.2926571628412471  0.0969446859653772   T   T   T
  0.7532105267504520  0.0422084772326350  0.0826812598886216   T   T   T
  0.7603003862069686  0.7049882188262219  0.1018578173948495   T   T   T
  0.5096309702625047  0.7949846065456210  0.0980074444823654   T   T   T
  0.7667776684511619  0.5305213041372175  0.1173489464971878   T   T   T
  0.5055294570632179  0.9605201513465386  0.0876149432915014   T   T   T
  0.5092536739205163  0.4414630486657718  0.1284512869762642   T   T   T
 -0.0037220399825106  0.4465680904020494  0.0905627260080080   T   T   T
  0.2603731244557809  0.7273691103994337  0.1099804456177489   T   T   T
  0.2501828447547828  0.2094510492427688  0.0878676677764285   T   T   T
  0.1754996759647033  0.5510159690012412  0.1708455585247899   T   T   T
 
  0.00000000E+00  0.00000000E+00  0.00000000E+00
  0.00000000E+00  0.00000000E+00  0.00000000E+00
  0.00000000E+00  0.00000000E+00  0.00000000E+00
  0.00000000E+00  0.00000000E+00  0.00000000E+00
  0.00000000E+00  0.00000000E+00  0.00000000E+00
  0.00000000E+00  0.00000000E+00  0.00000000E+00
  0.00000000E+00  0.00000000E+00  0.00000000E+00
  0.00000000E+00  0.00000000E+00  0.00000000E+00
  0.00000000E+00  0.00000000E+00  0.00000000E+00
  0.00000000E+00  0.00000000E+00  0.00000000E+00
  0.00000000E+00  0.00000000E+00  0.00000000E+00
  0.00000000E+00  0.00000000E+00  0.00000000E+00
  0.00000000E+00  0.00000000E+00  0.00000000E+00
  0.00000000E+00  0.00000000E+00  0.00000000E+00
  0.00000000E+00  0.00000000E+00  0.00000000E+00
  0.00000000E+00  0.00000000E+00  0.00000000E+00
