Title                                   
   1.00000000000000     
     8.5490480000000009    0.0000000000000000    0.0000000000000000
     0.0000000000000000    8.5490480000000009    0.0000000000000000
     0.0000000000000000    0.0000000000000000   20.0000000000000000
    24     1
Selective dynamics
Direct
  0.9117063885829947  0.2053790021539001  0.0954474903132028   T   T   T
  0.9090387439430849  0.5018015054479819  0.0953041984651414   T   T   T
  0.9117056508628673  0.7981881021845559  0.0954605646695359   T   T   T
  0.1965700861897225  0.0830853032631031  0.0954755668549118   T   T   T
  0.0743415966038804  0.2053761377236629  0.0954626594701088   T   T   T
  0.1965614339436977  0.9204832301947817  0.0954819797596399   T   T   T
  0.1572288562284759  0.6484391671845234  0.0953515568704004   T   T   T
  0.0769907755837138  0.5018010761948253  0.0953263092882196   T   T   T
  0.1572098412341607  0.3551409210279669  0.0953388541560809   T   T   T
  0.0743443099524727  0.7981838481246664  0.0954723861755745   T   T   T
  0.4929989527119271  0.0857035679974099  0.0953540855102915   T   T   T
  0.3463864930725605  0.1660473909926049  0.0953560560683020   T   T   T
  0.4929934023406629  0.9178742288755046  0.0953606782896195   T   T   T
  0.3463832092972813  0.8375481831883732  0.0953648019716648   T   T   T
  0.7894766216689335  0.0830913565483476  0.0954569801491961   T   T   T
  0.6396266436283198  0.1660428116703615  0.0953287450821259   T   T   T
  0.7894929730110721  0.9204903483012802  0.0954604083340733   T   T   T
  0.8288041297209454  0.6484487994136693  0.0953103664031592   T   T   T
  0.8288064078214813  0.3551453926928532  0.0953009280822592   T   T   T
  0.6396332492525505  0.8375360600295244  0.0953310695848476   T   T   T
  0.3219811057841901  0.3306672953633853  0.0952457336014502   T   T   T
  0.3219890818446138  0.6729255899237779  0.0952467618426384   T   T   T
  0.6640457347283422  0.3306520297927723  0.0951915862408727   T   T   T
  0.6640530255124458  0.6729331570149041  0.0952009603244346   T   T   T
  0.4930432864795961  0.5018054946952772  0.0950742724922266   T   T   T
 
  0.00000000E+00  0.00000000E+00  0.00000000E+00
  0.00000000E+00  0.00000000E+00  0.00000000E+00
  0.00000000E+00  0.00000000E+00  0.00000000E+00
  0.00000000E+00  0.00000000E+00  0.00000000E+00
  0.00000000E+00  0.00000000E+00  0.00000000E+00
  0.00000000E+00  0.00000000E+00  0.00000000E+00
  0.00000000E+00  0.00000000E+00  0.00000000E+00
  0.00000000E+00  0.00000000E+00  0.00000000E+00
  0.00000000E+00  0.00000000E+00  0.00000000E+00
  0.00000000E+00  0.00000000E+00  0.00000000E+00
  0.00000000E+00  0.00000000E+00  0.00000000E+00
  0.00000000E+00  0.00000000E+00  0.00000000E+00
  0.00000000E+00  0.00000000E+00  0.00000000E+00
  0.00000000E+00  0.00000000E+00  0.00000000E+00
  0.00000000E+00  0.00000000E+00  0.00000000E+00
  0.00000000E+00  0.00000000E+00  0.00000000E+00
  0.00000000E+00  0.00000000E+00  0.00000000E+00
  0.00000000E+00  0.00000000E+00  0.00000000E+00
  0.00000000E+00  0.00000000E+00  0.00000000E+00
  0.00000000E+00  0.00000000E+00  0.00000000E+00
  0.00000000E+00  0.00000000E+00  0.00000000E+00
  0.00000000E+00  0.00000000E+00  0.00000000E+00
  0.00000000E+00  0.00000000E+00  0.00000000E+00
  0.00000000E+00  0.00000000E+00  0.00000000E+00
  0.00000000E+00  0.00000000E+00  0.00000000E+00
