Title                                   
   1.00000000000000     
     4.9440799999999996    0.0000000000000000    0.0000000000000000
     0.0000000000000000   17.1295089999999988    0.0000000000000000
     0.0000000000000000    0.0000000000000000   20.0000000000000000
    29     2     1
Selective dynamics
Direct
  0.0019554243982943  0.1043632703067474  0.2828684564810365   T   T   T
  0.2525171094337280  0.1459842673482438  0.2865275638970470   T   T   T
  0.2538337234828943  0.2287464359940042  0.2965217436436283   T   T   T
  0.0066617670966451  0.3511738051665101  0.3177305034481537   T   T   T
  0.0034869322150113  0.2698686100412004  0.3017439360690516   T   T   T
 -0.0080840704982179  0.6052858880266344  0.3102343763639661   T   T   T
  0.2464125504306209  0.7283439802736118  0.2933122308122596   T   T   T
 -0.0012467861853476  0.8536335336260191  0.2810024523998197   T   T   T
  0.2488809143110662  0.8955948717256911  0.2794128330568116   T   T   T
  0.2502928581988358  0.9790673764361291  0.2782385338148018   T   T   T
 -0.0024888661963649  0.7704851216327481  0.2872067921655189   T   T   T
  0.5021038175078476  0.1043686566968439  0.2829627692965250   T   T   T
  0.7523477978573486  0.1460735988788315  0.2859486280201676   T   T   T
  0.7534854701832708  0.2289508967726968  0.2949109722336649   T   T   T
  0.5008279456423650  0.0208965524347024  0.2789053314422303   T   T   T
  0.5039430368563329  0.3514891637378356  0.3185608826150131   T   T   T
  0.7562316439659403  0.3958835263271266  0.3231740647898437   T   T   T
  0.7501494252537748  0.4821469187459663  0.3259874085748590   T   T   T
  0.5045850418364720  0.2699436430601555  0.3021521342862978   T   T   T
  0.4991867437213230  0.6062899113499017  0.3143543681431366   T   T   T
  0.7470902242566231  0.7294649683477203  0.2910434713090124   T   T   T
  0.4980984132278576  0.8536602770653049  0.2812490655291350   T   T   T
  0.7488006357493174  0.8953498243590691  0.2790938879894680   T   T   T
  0.7502997480382361  0.9790331616823580  0.2780168853976378   T   T   T
  0.4967308341177503  0.7703502459011199  0.2878350849458267   T   T   T
  0.7453485488801623  0.6470361539251454  0.3023719377847040   T   T   T
  0.2460494738449448  0.6462311134733181  0.3068658689781917   T   T   T
  0.0005489581991100  0.0209421511129257  0.2788073633042689   T   T   T
  0.5140109711519648  0.5265695622870600  0.3358272345073814   T   T   T
  0.9838841226275589  0.5262696962798399  0.3219863137260356   T   T   T
  0.2554357399075579  0.3849947123351329  0.3323406407159673   T   T   T
  0.2354428504870829  0.4800591046493990  0.3853712642584885   T   T   T
 
  0.00000000E+00  0.00000000E+00  0.00000000E+00
  0.00000000E+00  0.00000000E+00  0.00000000E+00
  0.00000000E+00  0.00000000E+00  0.00000000E+00
  0.00000000E+00  0.00000000E+00  0.00000000E+00
  0.00000000E+00  0.00000000E+00  0.00000000E+00
  0.00000000E+00  0.00000000E+00  0.00000000E+00
  0.00000000E+00  0.00000000E+00  0.00000000E+00
  0.00000000E+00  0.00000000E+00  0.00000000E+00
  0.00000000E+00  0.00000000E+00  0.00000000E+00
  0.00000000E+00  0.00000000E+00  0.00000000E+00
  0.00000000E+00  0.00000000E+00  0.00000000E+00
  0.00000000E+00  0.00000000E+00  0.00000000E+00
  0.00000000E+00  0.00000000E+00  0.00000000E+00
  0.00000000E+00  0.00000000E+00  0.00000000E+00
  0.00000000E+00  0.00000000E+00  0.00000000E+00
  0.00000000E+00  0.00000000E+00  0.00000000E+00
  0.00000000E+00  0.00000000E+00  0.00000000E+00
  0.00000000E+00  0.00000000E+00  0.00000000E+00
  0.00000000E+00  0.00000000E+00  0.00000000E+00
  0.00000000E+00  0.00000000E+00  0.00000000E+00
  0.00000000E+00  0.00000000E+00  0.00000000E+00
  0.00000000E+00  0.00000000E+00  0.00000000E+00
  0.00000000E+00  0.00000000E+00  0.00000000E+00
  0.00000000E+00  0.00000000E+00  0.00000000E+00
  0.00000000E+00  0.00000000E+00  0.00000000E+00
  0.00000000E+00  0.00000000E+00  0.00000000E+00
  0.00000000E+00  0.00000000E+00  0.00000000E+00
  0.00000000E+00  0.00000000E+00  0.00000000E+00
  0.00000000E+00  0.00000000E+00  0.00000000E+00
  0.00000000E+00  0.00000000E+00  0.00000000E+00
  0.00000000E+00  0.00000000E+00  0.00000000E+00
  0.00000000E+00  0.00000000E+00  0.00000000E+00
