Title                                   
   1.00000000000000     
     8.5490480000000009    0.0000000000000000    0.0000000000000000
     0.0000000000000000    8.5490480000000009    0.0000000000000000
     0.0000000000000000    0.0000000000000000   20.0000000000000000
    21     3     1
Selective dynamics
Direct
  0.9099664202785127  0.2039731278217486  0.0975558599532969   T   T   T
  0.9024531489555525  0.5027606285043938  0.0976960715700349   T   T   T
  0.9114655250126857  0.8021094723953315  0.0975803409907408   T   T   T
  0.2004318754771894  0.0819858037464320  0.0978279992523455   T   T   T
  0.0745593772956024  0.2045695492729814  0.0976479231471339   T   T   T
  0.1558296408927800  0.6490682780011170  0.0976703680305780   T   T   T
  0.0722962462324854  0.5017762572127821  0.0976313184891254   T   T   T
  0.1543692501652283  0.3551218781940465  0.0976969725314753   T   T   T
  0.0776372253665473  0.7978241946387623  0.0976848544589631   T   T   T
  0.4954105491014535  0.0862926173717119  0.0978079766113635   T   T   T
  0.3480994004247497  0.1658347834211114  0.0979189405671666   T   T   T
  0.4945563788607496  0.9168586227505352  0.0977539615051447   T   T   T
  0.3483240133510746  0.8341254959231424  0.0978814438105032   T   T   T
  0.7897323691064350  0.0850922644617010  0.0974905490259619   T   T   T
  0.6431981659429320  0.1662664135619098  0.0977545158614332   T   T   T
  0.7903009426732462  0.9196597408067257  0.0974831714092281   T   T   T
  0.8259853112179001  0.6522004064956354  0.0977514273046262   T   T   T
  0.8239569726788464  0.3538910909155542  0.0977809365619844   T   T   T
  0.6429406995893321  0.8370240782709276  0.0976790501042258   T   T   T
  0.3217555383275830  0.3345429576155727  0.0978301107275124   T   T   T
  0.3221059874288568  0.6695847591267314  0.0977793242050783   T   T   T
  0.6657209222087206  0.3280365552162997  0.0980143436715235   T   T   T
  0.6664182555188359  0.6766279406726416  0.0979402976018583   T   T   T
  0.2000185364686176  0.9186078530316962  0.0978968596859773   T   T   T
  0.4878792474240754  0.5009552305705295  0.0979503829226916   T   T   T
 
  0.00000000E+00  0.00000000E+00  0.00000000E+00
  0.00000000E+00  0.00000000E+00  0.00000000E+00
  0.00000000E+00  0.00000000E+00  0.00000000E+00
  0.00000000E+00  0.00000000E+00  0.00000000E+00
  0.00000000E+00  0.00000000E+00  0.00000000E+00
  0.00000000E+00  0.00000000E+00  0.00000000E+00
  0.00000000E+00  0.00000000E+00  0.00000000E+00
  0.00000000E+00  0.00000000E+00  0.00000000E+00
  0.00000000E+00  0.00000000E+00  0.00000000E+00
  0.00000000E+00  0.00000000E+00  0.00000000E+00
  0.00000000E+00  0.00000000E+00  0.00000000E+00
  0.00000000E+00  0.00000000E+00  0.00000000E+00
  0.00000000E+00  0.00000000E+00  0.00000000E+00
  0.00000000E+00  0.00000000E+00  0.00000000E+00
  0.00000000E+00  0.00000000E+00  0.00000000E+00
  0.00000000E+00  0.00000000E+00  0.00000000E+00
  0.00000000E+00  0.00000000E+00  0.00000000E+00
  0.00000000E+00  0.00000000E+00  0.00000000E+00
  0.00000000E+00  0.00000000E+00  0.00000000E+00
  0.00000000E+00  0.00000000E+00  0.00000000E+00
  0.00000000E+00  0.00000000E+00  0.00000000E+00
  0.00000000E+00  0.00000000E+00  0.00000000E+00
  0.00000000E+00  0.00000000E+00  0.00000000E+00
  0.00000000E+00  0.00000000E+00  0.00000000E+00
  0.00000000E+00  0.00000000E+00  0.00000000E+00
