Title                                   
   1.00000000000000     
     9.8694509999999998    0.0000000000000000    0.0000000000000000
     0.0000000000000000    8.5490480000000009    0.0000000000000000
     0.0000000000000000    0.0000000000000000   20.0000000000000000
    27     4     1
Selective dynamics
Direct
  0.0563155676327495  0.0911933238422209  0.0849698992719725   T   T   T
  0.9313630808444862  0.1751852681441328  0.0852156264884456   T   T   T
  0.0579302224155884  0.9231911352471709  0.0841904248825290   T   T   T
  0.9300199897003637  0.3429653070075361  0.0866883400074539   T   T   T
  0.0565019811491133  0.5919174827399929  0.0885774924022636   T   T   T
  0.0556184401738980  0.4250006397013519  0.0889122818688313   T   T   T
  0.9339176803327399  0.8401179997333766  0.0833756388098007   T   T   T
  0.3066335273301041  0.0878183666814477  0.0897492885664239   T   T   T
  0.1822282456986545  0.1728870575725796  0.0891058933991763   T   T   T
  0.1815862071694734  0.3401085381571843  0.0938414487239611   T   T   T
  0.3033250785587910  0.5882034648992238  0.1076215615020734   T   T   T
  0.1812302437417282  0.6740954398077952  0.0932977644918040   T   T   T
  0.3051331015827331  0.4205265929220490  0.1059331906467757   T   T   T
  0.1834060998030148  0.8406507365004036  0.0884993569288412   T   T   T
  0.5566142708937902  0.0861689191200173  0.0923576058290170   T   T   T
  0.5566946195519683  0.9191772457025794  0.0943750859920179   T   T   T
  0.4312757006855688  0.3317972737744272  0.1092546445150149   T   T   T
  0.4293245485875532  0.8372980999140880  0.1030686301899481   T   T   T
  0.8067466691797900  0.0898916763377916  0.0849061325087729   T   T   T
  0.6799705728112951  0.1724138783015336  0.0895301114426037   T   T   T
  0.8080979828945412  0.9237612709208999  0.0840817547966571   T   T   T
  0.6806101069257238  0.3397650293338358  0.0986500889501686   T   T   T
  0.8058442580257981  0.5970526740144013  0.0874621270566800   T   T   T
  0.8046000075916889  0.4269484914333860  0.0906038592203693   T   T   T
  0.6845391733984888  0.8375179426233924  0.0882643028492394   T   T   T
  0.4182554111789717  0.6820688710898695  0.1212547583886959   T   T   T
  0.5552615778110747  0.4034491091284038  0.1194334077280858   T   T   T
  0.6914789877862677  0.6778777975041781  0.0883617788428160   T   T   T
  0.3062886202364363  0.9237722656844619  0.0896464952985318   T   T   T
  0.4296885508881407  0.1663314183788746  0.0948988982824701   T   T   T
  0.9337047884703212  0.6747388390732909  0.0848578952342696   T   T   T
  0.5554336869491482  0.5863538447081055  0.1946892148843060   T   T   T
 
  0.00000000E+00  0.00000000E+00  0.00000000E+00
  0.00000000E+00  0.00000000E+00  0.00000000E+00
  0.00000000E+00  0.00000000E+00  0.00000000E+00
  0.00000000E+00  0.00000000E+00  0.00000000E+00
  0.00000000E+00  0.00000000E+00  0.00000000E+00
  0.00000000E+00  0.00000000E+00  0.00000000E+00
  0.00000000E+00  0.00000000E+00  0.00000000E+00
  0.00000000E+00  0.00000000E+00  0.00000000E+00
  0.00000000E+00  0.00000000E+00  0.00000000E+00
  0.00000000E+00  0.00000000E+00  0.00000000E+00
  0.00000000E+00  0.00000000E+00  0.00000000E+00
  0.00000000E+00  0.00000000E+00  0.00000000E+00
  0.00000000E+00  0.00000000E+00  0.00000000E+00
  0.00000000E+00  0.00000000E+00  0.00000000E+00
  0.00000000E+00  0.00000000E+00  0.00000000E+00
  0.00000000E+00  0.00000000E+00  0.00000000E+00
  0.00000000E+00  0.00000000E+00  0.00000000E+00
  0.00000000E+00  0.00000000E+00  0.00000000E+00
  0.00000000E+00  0.00000000E+00  0.00000000E+00
  0.00000000E+00  0.00000000E+00  0.00000000E+00
  0.00000000E+00  0.00000000E+00  0.00000000E+00
  0.00000000E+00  0.00000000E+00  0.00000000E+00
  0.00000000E+00  0.00000000E+00  0.00000000E+00
  0.00000000E+00  0.00000000E+00  0.00000000E+00
  0.00000000E+00  0.00000000E+00  0.00000000E+00
  0.00000000E+00  0.00000000E+00  0.00000000E+00
  0.00000000E+00  0.00000000E+00  0.00000000E+00
  0.00000000E+00  0.00000000E+00  0.00000000E+00
  0.00000000E+00  0.00000000E+00  0.00000000E+00
  0.00000000E+00  0.00000000E+00  0.00000000E+00
  0.00000000E+00  0.00000000E+00  0.00000000E+00
  0.00000000E+00  0.00000000E+00  0.00000000E+00
