Title                                   
   1.00000000000000     
     9.8694509999999998    0.0000000000000000    0.0000000000000000
     0.0000000000000000    8.5490480000000009    0.0000000000000000
     0.0000000000000000    0.0000000000000000   20.0000000000000000
    29     2     1
Selective dynamics
Direct
  0.0560964918000413  0.0916414945750181  0.0813780723383692   T   T   T
  0.9305122510199292  0.1744804061121164  0.0867732687680425   T   T   T
  0.0559858928247859  0.9241718134203981  0.0789391611969043   T   T   T
  0.9290279069480467  0.3416719301667006  0.0952310241166740   T   T   T
  0.0561073556386230  0.5894603062631419  0.0865612927832954   T   T   T
  0.9317773987989534  0.6729798973481816  0.0900363034202184   T   T   T
  0.0559661618788358  0.4239157123544867  0.0900684984495397   T   T   T
  0.9310383553686057  0.8397018059133150  0.0827450127022762   T   T   T
  0.3053327266942865  0.0896942944117222  0.0831039835168323   T   T   T
  0.1817038276067325  0.1742465851948923  0.0843673330325321   T   T   T
  0.3058630531570163  0.9239930014472426  0.0818617060325527   T   T   T
  0.1827479310500638  0.3424521785689500  0.0900124675099151   T   T   T
  0.3053254635792830  0.5940392534023461  0.0950886942421612   T   T   T
  0.1806574156150541  0.6730062450776156  0.0842723874760428   T   T   T
  0.3082279832990069  0.4238816073179246  0.0988324881663888   T   T   T
  0.1808800664023097  0.8400928126867283  0.0803323201545820   T   T   T
  0.5555948987308835  0.0837036863751851  0.0934255607042762   T   T   T
  0.4315813886783645  0.1675928689445050  0.0911220722084553   T   T   T
  0.4320682676689673  0.3307567628682410  0.1070600810852781   T   T   T
  0.5522539343750090  0.3934356392861827  0.1325835871744261   T   T   T
  0.4278455925559952  0.8381166462592703  0.0927587058133246   T   T   T
  0.8070653213260381  0.0901082294292548  0.0857997820692518   T   T   T
  0.6809872905391230  0.1676779091988267  0.0959675229036821   T   T   T
  0.8065068056557375  0.9239882828622447  0.0837755918727661   T   T   T
  0.6797127027381503  0.3297098138672486  0.1147736821949897   T   T   T
  0.8108328248907630  0.5944930757232318  0.1103131433917701   T   T   T
  0.6984027701582421  0.6920680377259338  0.1263610546657015   T   T   T
  0.8060134347193824  0.4223438189284385  0.1105204920463943   T   T   T
  0.6854788256677803  0.8408386627556255  0.1000850450051061   T   T   T
  0.4208277556472218  0.6831670008732291  0.1039449220818031   T   T   T
  0.5552807118258649  0.9180360006720010  0.0957126909273725   T   T   T
  0.5519361931409101  0.5947802199697890  0.1698670519491211   T   T   T
 
  0.00000000E+00  0.00000000E+00  0.00000000E+00
  0.00000000E+00  0.00000000E+00  0.00000000E+00
  0.00000000E+00  0.00000000E+00  0.00000000E+00
  0.00000000E+00  0.00000000E+00  0.00000000E+00
  0.00000000E+00  0.00000000E+00  0.00000000E+00
  0.00000000E+00  0.00000000E+00  0.00000000E+00
  0.00000000E+00  0.00000000E+00  0.00000000E+00
  0.00000000E+00  0.00000000E+00  0.00000000E+00
  0.00000000E+00  0.00000000E+00  0.00000000E+00
  0.00000000E+00  0.00000000E+00  0.00000000E+00
  0.00000000E+00  0.00000000E+00  0.00000000E+00
  0.00000000E+00  0.00000000E+00  0.00000000E+00
  0.00000000E+00  0.00000000E+00  0.00000000E+00
  0.00000000E+00  0.00000000E+00  0.00000000E+00
  0.00000000E+00  0.00000000E+00  0.00000000E+00
  0.00000000E+00  0.00000000E+00  0.00000000E+00
  0.00000000E+00  0.00000000E+00  0.00000000E+00
  0.00000000E+00  0.00000000E+00  0.00000000E+00
  0.00000000E+00  0.00000000E+00  0.00000000E+00
  0.00000000E+00  0.00000000E+00  0.00000000E+00
  0.00000000E+00  0.00000000E+00  0.00000000E+00
  0.00000000E+00  0.00000000E+00  0.00000000E+00
  0.00000000E+00  0.00000000E+00  0.00000000E+00
  0.00000000E+00  0.00000000E+00  0.00000000E+00
  0.00000000E+00  0.00000000E+00  0.00000000E+00
  0.00000000E+00  0.00000000E+00  0.00000000E+00
  0.00000000E+00  0.00000000E+00  0.00000000E+00
  0.00000000E+00  0.00000000E+00  0.00000000E+00
  0.00000000E+00  0.00000000E+00  0.00000000E+00
  0.00000000E+00  0.00000000E+00  0.00000000E+00
  0.00000000E+00  0.00000000E+00  0.00000000E+00
  0.00000000E+00  0.00000000E+00  0.00000000E+00
