Title                                   
   1.00000000000000     
     9.8694509999999998    0.0000000000000000    0.0000000000000000
     0.0000000000000000    8.5490480000000009    0.0000000000000000
     0.0000000000000000    0.0000000000000000   20.0000000000000000
    27     4     1
Selective dynamics
Direct
  0.0562870121297418  0.0928512607786463  0.0891635077285269   T   T   T
  0.9300273017838354  0.1766206871844521  0.0892610583909052   T   T   T
  0.0575686138170362  0.9246633459899514  0.0879379585141281   T   T   T
  0.9290325727869276  0.3436507333146830  0.0912107944912713   T   T   T
  0.0565444950464894  0.5910730158554397  0.0917397126564714   T   T   T
  0.9322130778173985  0.6738745522551206  0.0880704385622935   T   T   T
  0.0556723791234566  0.4240356405866857  0.0935642557212848   T   T   T
  0.9324314015917032  0.8410280645354539  0.0861357891301783   T   T   T
  0.3065214149121986  0.0878992212135201  0.0905044808790556   T   T   T
  0.1826907379351818  0.1741699699581101  0.0919048948766760   T   T   T
  0.3086999722764119  0.9217463413413486  0.0907694119996793   T   T   T
  0.1820691933863415  0.3405371158509837  0.0964359295678828   T   T   T
  0.3070605757703940  0.5892864490869588  0.1036278946039628   T   T   T
  0.1818125579355437  0.6715743610596367  0.0931910715259564   T   T   T
  0.1828825918095150  0.8390840942276221  0.0905883134898419   T   T   T
  0.5574406885141653  0.0858311917824878  0.0915601476670931   T   T   T
  0.4317448216581524  0.1695956158964229  0.0939314536322368   T   T   T
  0.4325950600365541  0.3355902532842522  0.1045636688858933   T   T   T
  0.4326078366220948  0.8352981283471171  0.0976451113891891   T   T   T
  0.8066987332539549  0.0906875355072113  0.0870923164037329   T   T   T
  0.6808415219753208  0.1727774271353237  0.0900156538689093   T   T   T
  0.8071656420079745  0.9252158614025946  0.0855060953957512   T   T   T
  0.6780036201360801  0.3398712424035789  0.0981581789864306   T   T   T
  0.8037236533944108  0.5964950064501686  0.0853916405236506   T   T   T
  0.6853362073980278  0.8348145306971643  0.0842137490528203   T   T   T
  0.4261293892210151  0.6754190042793806  0.1152065141407048   T   T   T
  0.5557664316137126  0.4128941442381010  0.1167393817687328   T   T   T
  0.6879349210094021  0.6775581364826455  0.0784904616232554   T   T   T
  0.5589321572907879  0.9170269502907912  0.0909017714951753   T   T   T
  0.3062235616449829  0.4216197550453701  0.1034186831704433   T   T   T
  0.8028892204118958  0.4277413272046942  0.0914210549462600   T   T   T
  0.5440916356893014  0.5797150363140849  0.1973136049116229   T   T   T
 
  0.00000000E+00  0.00000000E+00  0.00000000E+00
  0.00000000E+00  0.00000000E+00  0.00000000E+00
  0.00000000E+00  0.00000000E+00  0.00000000E+00
  0.00000000E+00  0.00000000E+00  0.00000000E+00
  0.00000000E+00  0.00000000E+00  0.00000000E+00
  0.00000000E+00  0.00000000E+00  0.00000000E+00
  0.00000000E+00  0.00000000E+00  0.00000000E+00
  0.00000000E+00  0.00000000E+00  0.00000000E+00
  0.00000000E+00  0.00000000E+00  0.00000000E+00
  0.00000000E+00  0.00000000E+00  0.00000000E+00
  0.00000000E+00  0.00000000E+00  0.00000000E+00
  0.00000000E+00  0.00000000E+00  0.00000000E+00
  0.00000000E+00  0.00000000E+00  0.00000000E+00
  0.00000000E+00  0.00000000E+00  0.00000000E+00
  0.00000000E+00  0.00000000E+00  0.00000000E+00
  0.00000000E+00  0.00000000E+00  0.00000000E+00
  0.00000000E+00  0.00000000E+00  0.00000000E+00
  0.00000000E+00  0.00000000E+00  0.00000000E+00
  0.00000000E+00  0.00000000E+00  0.00000000E+00
  0.00000000E+00  0.00000000E+00  0.00000000E+00
  0.00000000E+00  0.00000000E+00  0.00000000E+00
  0.00000000E+00  0.00000000E+00  0.00000000E+00
  0.00000000E+00  0.00000000E+00  0.00000000E+00
  0.00000000E+00  0.00000000E+00  0.00000000E+00
  0.00000000E+00  0.00000000E+00  0.00000000E+00
  0.00000000E+00  0.00000000E+00  0.00000000E+00
  0.00000000E+00  0.00000000E+00  0.00000000E+00
  0.00000000E+00  0.00000000E+00  0.00000000E+00
  0.00000000E+00  0.00000000E+00  0.00000000E+00
  0.00000000E+00  0.00000000E+00  0.00000000E+00
  0.00000000E+00  0.00000000E+00  0.00000000E+00
  0.00000000E+00  0.00000000E+00  0.00000000E+00
