Title                                   
   1.00000000000000     
     9.8694509999999998    0.0000000000000000    0.0000000000000000
     0.0000000000000000    8.5490480000000009    0.0000000000000000
     0.0000000000000000    0.0000000000000000   20.0000000000000000
    30     1     1
Selective dynamics
Direct
  0.0558790171788113  0.0911802943358888  0.0855667617902408   T   T   T
  0.9306027630348235  0.1729021845889642  0.0892841352618640   T   T   T
  0.0548458270793739  0.9243749722413593  0.0844932035122023   T   T   T
  0.9309242074987988  0.3399535735673515  0.0932703382728651   T   T   T
  0.0558505516099436  0.5898548171560014  0.0873974538496206   T   T   T
  0.9317148177661937  0.6729125130883784  0.0929833503045615   T   T   T
  0.0563911212469853  0.4238242895947759  0.0883792456548686   T   T   T
  0.9307400142652165  0.8396595232407689  0.0898165887773187   T   T   T
  0.3055767477067499  0.0911040957490101  0.0853976264365847   T   T   T
  0.1812839867431312  0.1747768472513535  0.0860632545890035   T   T   T
  0.3041629692997485  0.9243789646840588  0.0830794395760732   T   T   T
  0.1827411163445108  0.3425692082490910  0.0872967773167096   T   T   T
  0.3062692402194658  0.5954273465525665  0.0848050001140300   T   T   T
  0.1796088375047515  0.6747345083431558  0.0833858637654475   T   T   T
  0.3078803621158571  0.4263580586810828  0.0906191931736943   T   T   T
  0.1793052300955845  0.8414067873467725  0.0821296614423110   T   T   T
  0.5550885231141036  0.0858407381963329  0.0937233866592846   T   T   T
  0.4311638225652324  0.1722927561798854  0.0911398332309308   T   T   T
  0.5539671008187887  0.9189153963669299  0.0937714202338509   T   T   T
  0.4317163521885971  0.3390647435091619  0.1001190198629833   T   T   T
  0.5561952999062370  0.4058027671541514  0.1212518183190300   T   T   T
  0.4267664547399708  0.8367541855405443  0.0857978050178592   T   T   T
  0.8061984592017822  0.0884806119273330  0.0909125379560181   T   T   T
  0.6810527572438224  0.1695948050539428  0.0965903269481015   T   T   T
  0.8058634164560189  0.9217656554849060  0.0923847987113625   T   T   T
  0.6825350033554226  0.3341108012932170  0.1080649896411530   T   T   T
  0.8096734690120745  0.5894693635492400  0.1069332912816035   T   T   T
  0.6935411308521672  0.6796164433856527  0.1214012546380023   T   T   T
  0.8078368403832568  0.4209700175811033  0.1049108596429246   T   T   T
  0.6810990186842295  0.8381728144213847  0.1019805562972278   T   T   T
  0.4246350380750359  0.6774564492436947  0.0832397313862443   T   T   T
  0.5585295036933207  0.5865204664419491  0.1794854763360621   T   T   T
 
  0.00000000E+00  0.00000000E+00  0.00000000E+00
  0.00000000E+00  0.00000000E+00  0.00000000E+00
  0.00000000E+00  0.00000000E+00  0.00000000E+00
  0.00000000E+00  0.00000000E+00  0.00000000E+00
  0.00000000E+00  0.00000000E+00  0.00000000E+00
  0.00000000E+00  0.00000000E+00  0.00000000E+00
  0.00000000E+00  0.00000000E+00  0.00000000E+00
  0.00000000E+00  0.00000000E+00  0.00000000E+00
  0.00000000E+00  0.00000000E+00  0.00000000E+00
  0.00000000E+00  0.00000000E+00  0.00000000E+00
  0.00000000E+00  0.00000000E+00  0.00000000E+00
  0.00000000E+00  0.00000000E+00  0.00000000E+00
  0.00000000E+00  0.00000000E+00  0.00000000E+00
  0.00000000E+00  0.00000000E+00  0.00000000E+00
  0.00000000E+00  0.00000000E+00  0.00000000E+00
  0.00000000E+00  0.00000000E+00  0.00000000E+00
  0.00000000E+00  0.00000000E+00  0.00000000E+00
  0.00000000E+00  0.00000000E+00  0.00000000E+00
  0.00000000E+00  0.00000000E+00  0.00000000E+00
  0.00000000E+00  0.00000000E+00  0.00000000E+00
  0.00000000E+00  0.00000000E+00  0.00000000E+00
  0.00000000E+00  0.00000000E+00  0.00000000E+00
  0.00000000E+00  0.00000000E+00  0.00000000E+00
  0.00000000E+00  0.00000000E+00  0.00000000E+00
  0.00000000E+00  0.00000000E+00  0.00000000E+00
  0.00000000E+00  0.00000000E+00  0.00000000E+00
  0.00000000E+00  0.00000000E+00  0.00000000E+00
  0.00000000E+00  0.00000000E+00  0.00000000E+00
  0.00000000E+00  0.00000000E+00  0.00000000E+00
  0.00000000E+00  0.00000000E+00  0.00000000E+00
  0.00000000E+00  0.00000000E+00  0.00000000E+00
  0.00000000E+00  0.00000000E+00  0.00000000E+00
