Title                                   
   1.00000000000000     
     4.9440799999999996    0.0000000000000000    0.0000000000000000
     0.0000000000000000    8.5647549999999999    0.0000000000000000
     0.0000000000000000    0.0000000000000000   20.0000000000000000
    11     3     1
Selective dynamics
Direct
  0.0006776387464358  0.2906397850765972  0.0976248381279719   T   T   T
  0.2500000000000000  0.0390514993215884  0.0994642184964147   T   T   T
 -0.0035689400397292  0.9574053560629899  0.0989597911800878   T   T   T
  0.7500000000000000  0.2072454567457059  0.0953424654231024   T   T   T
  0.4993223612535642  0.2906397850765972  0.0976248381279719   T   T   T
  0.7500000000000000  0.0409380682191403  0.0956527723780392   T   T   T
  0.7500000000000000  0.7179956003478986  0.1007160484352064   T   T   T
  0.7500000000000000  0.5374618103343252  0.0982119279947241   T   T   T
  0.5035689400397291  0.9574053560629899  0.0989597911800878   T   T   T
  0.5051393685774587  0.4573762883286543  0.1022022373213662   T   T   T
 -0.0051393685774590  0.4573762883286543  0.1022022373213662   T   T   T
 -0.0151604637796763  0.7957580075660740  0.1033992558636645   T   T   T
  0.5151604637796763  0.7957580075660740  0.1033992558636645   T   T   T
  0.2500000000000000  0.2059280425041242  0.0985546292797506   T   T   T
  0.2500000000000000  0.6207016484585895  0.1156656930065853   T   T   T
 
  0.00000000E+00  0.00000000E+00  0.00000000E+00
  0.00000000E+00  0.00000000E+00  0.00000000E+00
  0.00000000E+00  0.00000000E+00  0.00000000E+00
  0.00000000E+00  0.00000000E+00  0.00000000E+00
  0.00000000E+00  0.00000000E+00  0.00000000E+00
  0.00000000E+00  0.00000000E+00  0.00000000E+00
  0.00000000E+00  0.00000000E+00  0.00000000E+00
  0.00000000E+00  0.00000000E+00  0.00000000E+00
  0.00000000E+00  0.00000000E+00  0.00000000E+00
  0.00000000E+00  0.00000000E+00  0.00000000E+00
  0.00000000E+00  0.00000000E+00  0.00000000E+00
  0.00000000E+00  0.00000000E+00  0.00000000E+00
  0.00000000E+00  0.00000000E+00  0.00000000E+00
  0.00000000E+00  0.00000000E+00  0.00000000E+00
  0.00000000E+00  0.00000000E+00  0.00000000E+00
