Title                                   
   1.00000000000000     
     9.8694509999999998    0.0000000000000000    0.0000000000000000
     0.0000000000000000    8.5490480000000009    0.0000000000000000
     0.0000000000000000    0.0000000000000000   20.0000000000000000
    25     5     1
Selective dynamics
Direct
  0.0559861282713457  0.0904568380005813  0.0934116982478785   T   T   T
  0.9308619089648331  0.1724829626833376  0.0941717743549483   T   T   T
  0.0573074412741628  0.9237164684484347  0.0933858561827334   T   T   T
  0.9348859343006772  0.3392718707543584  0.0934294502430374   T   T   T
  0.0570521210227123  0.5899402499635914  0.0913330551786410   T   T   T
  0.9349835046136684  0.6745277790519776  0.0933911906347566   T   T   T
  0.0575304515381838  0.4228522135386086  0.0914525669106055   T   T   T
  0.9324875820762618  0.8411244636266774  0.0942581921566943   T   T   T
  0.3071165777174700  0.0883164542052182  0.0960515400265063   T   T   T
  0.1809881851990247  0.1718381339643976  0.0938187374050474   T   T   T
  0.1799169058354864  0.3380789587574793  0.0929088698236134   T   T   T
  0.3007792878562086  0.5899078902176477  0.0962172135239654   T   T   T
  0.1792663051462776  0.6743427479506015  0.0926695385852768   T   T   T
  0.3018382711384866  0.4222036933651392  0.0962469001157650   T   T   T
  0.1806466155778798  0.8403752572614738  0.0936670499890776   T   T   T
  0.4294540351251107  0.1731138870968758  0.0994725636216692   T   T   T
  0.5539885444039653  0.9181706331289626  0.1007416278051529   T   T   T
  0.4272410966227514  0.8371531601418204  0.0996519557127929   T   T   T
  0.8044958056397365  0.0889289362250371  0.0966254792884126   T   T   T
  0.6801971781220552  0.1755140499039073  0.0998201396264172   T   T   T
  0.8062721456067088  0.9221116073146256  0.0968067162865112   T   T   T
  0.6909454224766297  0.3388301549428227  0.1014606353910771   T   T   T
  0.8142408763467318  0.5919865343639654  0.0971516469561935   T   T   T
  0.8132236564145966  0.4236330640627027  0.0971407411673121   T   T   T
  0.6817147835017698  0.8353932707372304  0.1000772547268958   T   T   T
  0.5547492578853475  0.0922208123510091  0.1008632041563475   T   T   T
  0.4215622239168203  0.3353906192043847  0.1010921290778457   T   T   T
  0.6935522226469725  0.6731652816428546  0.1017840983046783   T   T   T
  0.4181771371554903  0.6784232857600074  0.1015901239002350   T   T   T
  0.3053566568990734  0.9227602581032253  0.0957947730525571   T   T   T
  0.5563167367035706  0.5046434632310544  0.1044782775473909   T   T   T
 
  0.00000000E+00  0.00000000E+00  0.00000000E+00
  0.00000000E+00  0.00000000E+00  0.00000000E+00
  0.00000000E+00  0.00000000E+00  0.00000000E+00
  0.00000000E+00  0.00000000E+00  0.00000000E+00
  0.00000000E+00  0.00000000E+00  0.00000000E+00
  0.00000000E+00  0.00000000E+00  0.00000000E+00
  0.00000000E+00  0.00000000E+00  0.00000000E+00
  0.00000000E+00  0.00000000E+00  0.00000000E+00
  0.00000000E+00  0.00000000E+00  0.00000000E+00
  0.00000000E+00  0.00000000E+00  0.00000000E+00
  0.00000000E+00  0.00000000E+00  0.00000000E+00
  0.00000000E+00  0.00000000E+00  0.00000000E+00
  0.00000000E+00  0.00000000E+00  0.00000000E+00
  0.00000000E+00  0.00000000E+00  0.00000000E+00
  0.00000000E+00  0.00000000E+00  0.00000000E+00
  0.00000000E+00  0.00000000E+00  0.00000000E+00
  0.00000000E+00  0.00000000E+00  0.00000000E+00
  0.00000000E+00  0.00000000E+00  0.00000000E+00
  0.00000000E+00  0.00000000E+00  0.00000000E+00
  0.00000000E+00  0.00000000E+00  0.00000000E+00
  0.00000000E+00  0.00000000E+00  0.00000000E+00
  0.00000000E+00  0.00000000E+00  0.00000000E+00
  0.00000000E+00  0.00000000E+00  0.00000000E+00
  0.00000000E+00  0.00000000E+00  0.00000000E+00
  0.00000000E+00  0.00000000E+00  0.00000000E+00
  0.00000000E+00  0.00000000E+00  0.00000000E+00
  0.00000000E+00  0.00000000E+00  0.00000000E+00
  0.00000000E+00  0.00000000E+00  0.00000000E+00
  0.00000000E+00  0.00000000E+00  0.00000000E+00
  0.00000000E+00  0.00000000E+00  0.00000000E+00
  0.00000000E+00  0.00000000E+00  0.00000000E+00
