Title                                   
   1.00000000000000     
     9.8694509999999998    0.0000000000000000    0.0000000000000000
     0.0000000000000000    8.5490480000000009    0.0000000000000000
     0.0000000000000000    0.0000000000000000   20.0000000000000000
    27     4     1
Selective dynamics
Direct
  0.0542402305627247  0.0924985176310824  0.0950026058747308   T   T   T
  0.9286834271449557  0.1762772270857367  0.0944120943681368   T   T   T
  0.0557153319877724  0.9241515410101303  0.0943877930644688   T   T   T
  0.9269638540963212  0.3428576502162217  0.0926127746086267   T   T   T
  0.0552460479144454  0.5912874849874974  0.0932548158749358   T   T   T
  0.9319061848238318  0.6749936925095549  0.0890091647898974   T   T   T
  0.0547083613582421  0.4237779981682701  0.0943055081472197   T   T   T
  0.9315417773820757  0.8417739219905711  0.0906184567093544   T   T   T
  0.3032752176967653  0.0877793034739567  0.0954727738971584   T   T   T
  0.1797929003782842  0.1744697734097257  0.0956242327135615   T   T   T
  0.3059976211563794  0.9218641746764733  0.0981624510880059   T   T   T
  0.1795820381552757  0.3406651414008199  0.0970566857289524   T   T   T
  0.3073646306912506  0.5906781271980192  0.1071700149352672   T   T   T
  0.1813572898218881  0.6713224802276335  0.0983767414097310   T   T   T
  0.1811609008206087  0.8386227850853609  0.0977980140057525   T   T   T
  0.5541104976432448  0.0857715398189223  0.0946074680794616   T   T   T
  0.4276395909424370  0.1683502580331359  0.0947051329828579   T   T   T
  0.4285160243309639  0.3350109983976080  0.0944381125741269   T   T   T
  0.4292583067575406  0.8361447233178266  0.1052680947495536   T   T   T
  0.8046018942968565  0.0905861764790516  0.0941682300970772   T   T   T
  0.6779412925885265  0.1693991709967565  0.0930924417103408   T   T   T
  0.8053252871736660  0.9258265641708400  0.0918750729241583   T   T   T
  0.6734300808887128  0.3357903509038734  0.0892663920006848   T   T   T
  0.8041104570379694  0.5974323586747589  0.0825218162977001   T   T   T
  0.7976271267320910  0.4277604714639270  0.0868304389806982   T   T   T
  0.6815762613317978  0.8410876442788902  0.0887930633738180   T   T   T
  0.4285555323684171  0.6748067357361843  0.1208472143999827   T   T   T
  0.5471682059154701  0.4114671049768901  0.0889389672850625   T   T   T
  0.6834984167883781  0.6852301766472597  0.0733351507169630   T   T   T
  0.5558012973676800  0.9200889072922698  0.0973146928328997   T   T   T
  0.3068542545961047  0.4221631999317760  0.1010357741653033   T   T   T
  0.6160886592493314  0.5703097998089787  0.1553728096135280   T   T   T
 
  0.00000000E+00  0.00000000E+00  0.00000000E+00
  0.00000000E+00  0.00000000E+00  0.00000000E+00
  0.00000000E+00  0.00000000E+00  0.00000000E+00
  0.00000000E+00  0.00000000E+00  0.00000000E+00
  0.00000000E+00  0.00000000E+00  0.00000000E+00
  0.00000000E+00  0.00000000E+00  0.00000000E+00
  0.00000000E+00  0.00000000E+00  0.00000000E+00
  0.00000000E+00  0.00000000E+00  0.00000000E+00
  0.00000000E+00  0.00000000E+00  0.00000000E+00
  0.00000000E+00  0.00000000E+00  0.00000000E+00
  0.00000000E+00  0.00000000E+00  0.00000000E+00
  0.00000000E+00  0.00000000E+00  0.00000000E+00
  0.00000000E+00  0.00000000E+00  0.00000000E+00
  0.00000000E+00  0.00000000E+00  0.00000000E+00
  0.00000000E+00  0.00000000E+00  0.00000000E+00
  0.00000000E+00  0.00000000E+00  0.00000000E+00
  0.00000000E+00  0.00000000E+00  0.00000000E+00
  0.00000000E+00  0.00000000E+00  0.00000000E+00
  0.00000000E+00  0.00000000E+00  0.00000000E+00
  0.00000000E+00  0.00000000E+00  0.00000000E+00
  0.00000000E+00  0.00000000E+00  0.00000000E+00
  0.00000000E+00  0.00000000E+00  0.00000000E+00
  0.00000000E+00  0.00000000E+00  0.00000000E+00
  0.00000000E+00  0.00000000E+00  0.00000000E+00
  0.00000000E+00  0.00000000E+00  0.00000000E+00
  0.00000000E+00  0.00000000E+00  0.00000000E+00
  0.00000000E+00  0.00000000E+00  0.00000000E+00
  0.00000000E+00  0.00000000E+00  0.00000000E+00
  0.00000000E+00  0.00000000E+00  0.00000000E+00
  0.00000000E+00  0.00000000E+00  0.00000000E+00
  0.00000000E+00  0.00000000E+00  0.00000000E+00
  0.00000000E+00  0.00000000E+00  0.00000000E+00
