Title                                   
   1.00000000000000     
     8.5490480000000009    0.0000000000000000    0.0000000000000000
     0.0000000000000000    8.5490480000000009    0.0000000000000000
     0.0000000000000000    0.0000000000000000   20.0000000000000000
    21     3     1
Selective dynamics
Direct
  0.9084451764190749  0.2047967498267701  0.0958364832755349   T   T   T
  0.9044702143134289  0.5029460074794847  0.0967348405507703   T   T   T
  0.9111261123192483  0.8023595275659581  0.0960589152130776   T   T   T
  0.1979476018025275  0.0832143563604567  0.0958293335485463   T   T   T
  0.0753670057801440  0.2029809116319217  0.0960136382978744   T   T   T
  0.1566808820156776  0.6488551203971958  0.0967474802495535   T   T   T
  0.0734426449386719  0.5014201776841012  0.0968296690637140   T   T   T
  0.1551452551133469  0.3543253901185957  0.0972873920315213   T   T   T
  0.0787226723545591  0.7982845239374020  0.0958020119247692   T   T   T
  0.4945428527374667  0.0866312105414185  0.0967997434886714   T   T   T
  0.3462788237872127  0.1643604413104143  0.0971005959024756   T   T   T
  0.4942500168245390  0.9172967888120594  0.0967513431823399   T   T   T
  0.3468112138762163  0.8361403420135406  0.0965910417429077   T   T   T
  0.7883772145548646  0.0865643175066214  0.0960811261376144   T   T   T
  0.6414524875262991  0.1668662664963991  0.0969186079788650   T   T   T
  0.7895031774549204  0.9195459452360863  0.0961737191191395   T   T   T
  0.8280569190481305  0.6525014163716378  0.0971759228469259   T   T   T
  0.8260550646488348  0.3537535577124160  0.0965375773275029   T   T   T
  0.6423434449432602  0.8373475440196815  0.0972675072284917   T   T   T
  0.3227434125204781  0.3325506979052004  0.1000650260467273   T   T   T
  0.3237239513914266  0.6713687682632765  0.0982096193267991   T   T   T
  0.6649681011095018  0.3302849179010236  0.0979244917456261   T   T   T
  0.6667424904179011  0.6751134704637678  0.0991310459542737   T   T   T
  0.1988264635383754  0.9169822313854370  0.0955395121685868   T   T   T
  0.4893888005638867  0.4982993190591543  0.1182983556476642   T   T   T
 
  0.00000000E+00  0.00000000E+00  0.00000000E+00
  0.00000000E+00  0.00000000E+00  0.00000000E+00
  0.00000000E+00  0.00000000E+00  0.00000000E+00
  0.00000000E+00  0.00000000E+00  0.00000000E+00
  0.00000000E+00  0.00000000E+00  0.00000000E+00
  0.00000000E+00  0.00000000E+00  0.00000000E+00
  0.00000000E+00  0.00000000E+00  0.00000000E+00
  0.00000000E+00  0.00000000E+00  0.00000000E+00
  0.00000000E+00  0.00000000E+00  0.00000000E+00
  0.00000000E+00  0.00000000E+00  0.00000000E+00
  0.00000000E+00  0.00000000E+00  0.00000000E+00
  0.00000000E+00  0.00000000E+00  0.00000000E+00
  0.00000000E+00  0.00000000E+00  0.00000000E+00
  0.00000000E+00  0.00000000E+00  0.00000000E+00
  0.00000000E+00  0.00000000E+00  0.00000000E+00
  0.00000000E+00  0.00000000E+00  0.00000000E+00
  0.00000000E+00  0.00000000E+00  0.00000000E+00
  0.00000000E+00  0.00000000E+00  0.00000000E+00
  0.00000000E+00  0.00000000E+00  0.00000000E+00
  0.00000000E+00  0.00000000E+00  0.00000000E+00
  0.00000000E+00  0.00000000E+00  0.00000000E+00
  0.00000000E+00  0.00000000E+00  0.00000000E+00
  0.00000000E+00  0.00000000E+00  0.00000000E+00
  0.00000000E+00  0.00000000E+00  0.00000000E+00
  0.00000000E+00  0.00000000E+00  0.00000000E+00
