Title                                   
   1.00000000000000     
     9.8694509999999998    0.0000000000000000    0.0000000000000000
     0.0000000000000000    8.5490480000000009    0.0000000000000000
     0.0000000000000000    0.0000000000000000   20.0000000000000000
    24     6     1
Selective dynamics
Direct
  0.0566930587114035  0.0905157772996157  0.0947147104566657   T   T   T
  0.9317691257912510  0.1724046888087840  0.0985457197848335   T   T   T
  0.0578127619250710  0.9220054529135053  0.0951577922066070   T   T   T
  0.9326874032324330  0.3399495044837786  0.1001346641469547   T   T   T
  0.0576059276060165  0.5894835523426252  0.0968803634104637   T   T   T
  0.9327436631359669  0.6717075202053738  0.1004768292850570   T   T   T
  0.0577236809367905  0.4227753447346377  0.0964750433511450   T   T   T
  0.9324126479495602  0.8393143720308205  0.0989571450120700   T   T   T
  0.3084306563637255  0.0881961124833337  0.0894016254525569   T   T   T
  0.1821014244122703  0.1724352930218911  0.0913474015277494   T   T   T
  0.1819024220922898  0.3390533938895253  0.0919509465365949   T   T   T
  0.3075295072679221  0.5909922634333963  0.0868327050746264   T   T   T
  0.1820048883578123  0.6730650474847591  0.0932293845031477   T   T   T
  0.3078142303148762  0.4208821629361495  0.0859222536907031   T   T   T
  0.1817174722747366  0.8392290686174187  0.0925802429621926   T   T   T
  0.4302270523063952  0.1721691833813612  0.0886147737794920   T   T   T
  0.5557906255440145  0.9207129260044505  0.0963944044026543   T   T   T
  0.4300960828288706  0.8411169985689544  0.0893979713528154   T   T   T
  0.8049337604982814  0.0897504619005593  0.0995483071716805   T   T   T
  0.6823184808499618  0.1784757234643840  0.1020069539153553   T   T   T
  0.8059904132399845  0.9213891089507614  0.0997843959624741   T   T   T
  0.8083135550209495  0.5899798929766147  0.1061800388237938   T   T   T
  0.8083647607279487  0.4211982718642572  0.1060289738725478   T   T   T
  0.6823229974427397  0.8343226974395260  0.1024942682651570   T   T   T
  0.5583083678948972  0.0951390308965113  0.0955860008880285   T   T   T
  0.4278239869052191  0.3327357887101953  0.0830262209603229   T   T   T
  0.4265767586115918  0.6811243488467187  0.0840822277621366   T   T   T
  0.6857722281540454  0.3390467825700004  0.1106747672536321   T   T   T
  0.6864991352532589  0.6718710402385580  0.1109429732102827   T   T   T
  0.3062428301837493  0.9225582737358735  0.0895755397581500   T   T   T
  0.5326060941659647  0.5072749157656566  0.1240203552201670   T   T   T
 
  0.00000000E+00  0.00000000E+00  0.00000000E+00
  0.00000000E+00  0.00000000E+00  0.00000000E+00
  0.00000000E+00  0.00000000E+00  0.00000000E+00
  0.00000000E+00  0.00000000E+00  0.00000000E+00
  0.00000000E+00  0.00000000E+00  0.00000000E+00
  0.00000000E+00  0.00000000E+00  0.00000000E+00
  0.00000000E+00  0.00000000E+00  0.00000000E+00
  0.00000000E+00  0.00000000E+00  0.00000000E+00
  0.00000000E+00  0.00000000E+00  0.00000000E+00
  0.00000000E+00  0.00000000E+00  0.00000000E+00
  0.00000000E+00  0.00000000E+00  0.00000000E+00
  0.00000000E+00  0.00000000E+00  0.00000000E+00
  0.00000000E+00  0.00000000E+00  0.00000000E+00
  0.00000000E+00  0.00000000E+00  0.00000000E+00
  0.00000000E+00  0.00000000E+00  0.00000000E+00
  0.00000000E+00  0.00000000E+00  0.00000000E+00
  0.00000000E+00  0.00000000E+00  0.00000000E+00
  0.00000000E+00  0.00000000E+00  0.00000000E+00
  0.00000000E+00  0.00000000E+00  0.00000000E+00
  0.00000000E+00  0.00000000E+00  0.00000000E+00
  0.00000000E+00  0.00000000E+00  0.00000000E+00
  0.00000000E+00  0.00000000E+00  0.00000000E+00
  0.00000000E+00  0.00000000E+00  0.00000000E+00
  0.00000000E+00  0.00000000E+00  0.00000000E+00
  0.00000000E+00  0.00000000E+00  0.00000000E+00
  0.00000000E+00  0.00000000E+00  0.00000000E+00
  0.00000000E+00  0.00000000E+00  0.00000000E+00
  0.00000000E+00  0.00000000E+00  0.00000000E+00
  0.00000000E+00  0.00000000E+00  0.00000000E+00
  0.00000000E+00  0.00000000E+00  0.00000000E+00
  0.00000000E+00  0.00000000E+00  0.00000000E+00
