Title                                   
   1.00000000000000     
     4.9440799999999996    0.0000000000000000    0.0000000000000000
     0.0000000000000000   17.1295089999999988    0.0000000000000000
     0.0000000000000000    0.0000000000000000   20.0000000000000000
    25     5     1
Selective dynamics
Direct
  0.0009246845073331  0.1057161775948156  0.2967438261574089   T   T   T
  0.2495527902469881  0.1484975721073492  0.2968950977228442   T   T   T
  0.2490081194013082  0.2338254246647846  0.2987091750538740   T   T   T
 -0.0011685945903041  0.2756834968582441  0.3036738867287770   T   T   T
 -0.0040828444920404  0.6001123669221685  0.3032422589681516   T   T   T
  0.2478109278955367  0.7255612288006369  0.2976251326042496   T   T   T
  0.0003794214372320  0.8526112691471730  0.2970448520859923   T   T   T
  0.2495921165372242  0.8948497956624790  0.2966622534477517   T   T   T
  0.2500994107770312  0.9792629417962174  0.2963667954848969   T   T   T
 -0.0001764235875682  0.7679470997347392  0.2976608606336085   T   T   T
  0.4999356239959626  0.1062613152816944  0.2957720765327973   T   T   T
  0.7516667945168587  0.1476814043840591  0.2961240916824288   T   T   T
  0.7529478943342911  0.2321116341674102  0.2972925250151845   T   T   T
  0.4997853311689510  0.0215888874632814  0.2958748402824743   T   T   T
  0.7468836974267915  0.3962446937695329  0.3002184496039074   T   T   T
  0.7431665575378537  0.4805712526450717  0.2988135529791243   T   T   T
  0.5031878104724264  0.2725470370377382  0.2952752368759402   T   T   T
  0.4990987360714583  0.6025237325736810  0.2941221587431639   T   T   T
  0.7492997998696229  0.7271024739816681  0.2971218805730070   T   T   T
  0.4979915661234069  0.8523233991303900  0.2965124413930158   T   T   T
  0.7491044129182263  0.8944055832473805  0.2965028479422464   T   T   T
  0.7495608577818191  0.9790475045203050  0.2961809170568304   T   T   T
  0.4975292335830907  0.7675536728288356  0.2967121238181674   T   T   T
  0.7489976494223016  0.6436524627321895  0.2978296271805903   T   T   T
  0.0001705311847546  0.0212386398358678  0.2964724625328490   T   T   T
  0.5036406410600580  0.5219781721331958  0.2864415772094556   T   T   T
  0.9846035110961613  0.5190501472886040  0.3177953256182014   T   T   T
  0.5097091200568193  0.3538759080194694  0.2931108078617712   T   T   T
 -0.0114546198384220  0.3583627284500445  0.3173379699889983   T   T   T
  0.2462141438302284  0.6405748922592682  0.2980726489408760   T   T   T
  0.2960280992545997  0.4385790849617004  0.3368522992813686   T   T   T
 
  0.00000000E+00  0.00000000E+00  0.00000000E+00
  0.00000000E+00  0.00000000E+00  0.00000000E+00
  0.00000000E+00  0.00000000E+00  0.00000000E+00
  0.00000000E+00  0.00000000E+00  0.00000000E+00
  0.00000000E+00  0.00000000E+00  0.00000000E+00
  0.00000000E+00  0.00000000E+00  0.00000000E+00
  0.00000000E+00  0.00000000E+00  0.00000000E+00
  0.00000000E+00  0.00000000E+00  0.00000000E+00
  0.00000000E+00  0.00000000E+00  0.00000000E+00
  0.00000000E+00  0.00000000E+00  0.00000000E+00
  0.00000000E+00  0.00000000E+00  0.00000000E+00
  0.00000000E+00  0.00000000E+00  0.00000000E+00
  0.00000000E+00  0.00000000E+00  0.00000000E+00
  0.00000000E+00  0.00000000E+00  0.00000000E+00
  0.00000000E+00  0.00000000E+00  0.00000000E+00
  0.00000000E+00  0.00000000E+00  0.00000000E+00
  0.00000000E+00  0.00000000E+00  0.00000000E+00
  0.00000000E+00  0.00000000E+00  0.00000000E+00
  0.00000000E+00  0.00000000E+00  0.00000000E+00
  0.00000000E+00  0.00000000E+00  0.00000000E+00
  0.00000000E+00  0.00000000E+00  0.00000000E+00
  0.00000000E+00  0.00000000E+00  0.00000000E+00
  0.00000000E+00  0.00000000E+00  0.00000000E+00
  0.00000000E+00  0.00000000E+00  0.00000000E+00
  0.00000000E+00  0.00000000E+00  0.00000000E+00
  0.00000000E+00  0.00000000E+00  0.00000000E+00
  0.00000000E+00  0.00000000E+00  0.00000000E+00
  0.00000000E+00  0.00000000E+00  0.00000000E+00
  0.00000000E+00  0.00000000E+00  0.00000000E+00
  0.00000000E+00  0.00000000E+00  0.00000000E+00
  0.00000000E+00  0.00000000E+00  0.00000000E+00
