Title                                   
   1.00000000000000     
     8.5490480000000009    0.0000000000000000    0.0000000000000000
     0.0000000000000000    8.5490480000000009    0.0000000000000000
     0.0000000000000000    0.0000000000000000   20.0000000000000000
    21     3     1
Selective dynamics
Direct
  0.9101002709865033  0.2056877195605198  0.0935727604863131   T   T   T
  0.9127911310106054  0.8022879735135908  0.0945905287962830   T   T   T
  0.1964359902188264  0.0808603221525318  0.0948849246184697   T   T   T
  0.0725505982617104  0.2005608231047052  0.0941555346366235   T   T   T
  0.1555015029088005  0.6497017374137632  0.0958668232783355   T   T   T
  0.0736175673867209  0.5028081710537610  0.0967364744772924   T   T   T
  0.1537106553799605  0.3535804336387957  0.0976219935827725   T   T   T
  0.0788699523064427  0.7995883684685116  0.0940610697346002   T   T   T
  0.4940988729129713  0.0839171762917634  0.0973594175019080   T   T   T
  0.3425467495606144  0.1614015540048189  0.0981279828958721   T   T   T
  0.4947969422609897  0.9145322332708450  0.0969609611749381   T   T   T
  0.3458870238262751  0.8330712973980626  0.0959823705938860   T   T   T
  0.7871782152906628  0.0857737159191880  0.0946710957959167   T   T   T
  0.6400153163693090  0.1659859674039529  0.0967073832172894   T   T   T
  0.7905434921238808  0.9199410441959741  0.0952677619928121   T   T   T
  0.8316253253535486  0.6533970129033361  0.0967516672227826   T   T   T
  0.8270361352404046  0.3582240715311378  0.0952852388183174   T   T   T
  0.6438619534556999  0.8356687012051601  0.0977113014862275   T   T   T
  0.3169570335218095  0.3298012470376698  0.1028539817059709   T   T   T
  0.3214291908355362  0.6716517519272939  0.0971492173099522   T   T   T
  0.6657094523218261  0.3364413909735791  0.0983774082012121   T   T   T
  0.9081726695976644  0.5055853579040883  0.0961165158329522   T   T   T
  0.6721816255805320  0.6733270754581732  0.1002356661042573   T   T   T
  0.1966575958392583  0.9156656838119932  0.0938354698307441   T   T   T
  0.4931367374494407  0.5053291698567978  0.1338214507042538   T   T   T
 
  0.00000000E+00  0.00000000E+00  0.00000000E+00
  0.00000000E+00  0.00000000E+00  0.00000000E+00
  0.00000000E+00  0.00000000E+00  0.00000000E+00
  0.00000000E+00  0.00000000E+00  0.00000000E+00
  0.00000000E+00  0.00000000E+00  0.00000000E+00
  0.00000000E+00  0.00000000E+00  0.00000000E+00
  0.00000000E+00  0.00000000E+00  0.00000000E+00
  0.00000000E+00  0.00000000E+00  0.00000000E+00
  0.00000000E+00  0.00000000E+00  0.00000000E+00
  0.00000000E+00  0.00000000E+00  0.00000000E+00
  0.00000000E+00  0.00000000E+00  0.00000000E+00
  0.00000000E+00  0.00000000E+00  0.00000000E+00
  0.00000000E+00  0.00000000E+00  0.00000000E+00
  0.00000000E+00  0.00000000E+00  0.00000000E+00
  0.00000000E+00  0.00000000E+00  0.00000000E+00
  0.00000000E+00  0.00000000E+00  0.00000000E+00
  0.00000000E+00  0.00000000E+00  0.00000000E+00
  0.00000000E+00  0.00000000E+00  0.00000000E+00
  0.00000000E+00  0.00000000E+00  0.00000000E+00
  0.00000000E+00  0.00000000E+00  0.00000000E+00
  0.00000000E+00  0.00000000E+00  0.00000000E+00
  0.00000000E+00  0.00000000E+00  0.00000000E+00
  0.00000000E+00  0.00000000E+00  0.00000000E+00
  0.00000000E+00  0.00000000E+00  0.00000000E+00
  0.00000000E+00  0.00000000E+00  0.00000000E+00
