Title                                   
   1.00000000000000     
     9.8694509999999998    0.0000000000000000    0.0000000000000000
     0.0000000000000000    8.5490480000000009    0.0000000000000000
     0.0000000000000000    0.0000000000000000   20.0000000000000000
    26     5     1
Selective dynamics
Direct
  0.0567699419667501  0.0921685271593743  0.0902440159027034   T   T   T
  0.9313205012579108  0.1746819980116689  0.0923770621522549   T   T   T
  0.0575941969263702  0.9239028457040775  0.0897476725131048   T   T   T
  0.9298928574248012  0.3417134508525344  0.0968510120514327   T   T   T
  0.0560889341261093  0.5898119542920918  0.0937784391250565   T   T   T
  0.9321875059012233  0.6734763310152935  0.0951814759675833   T   T   T
  0.0575792146572101  0.4231812051358014  0.0944358206711603   T   T   T
  0.9320827283225375  0.8410093316917681  0.0921022904742183   T   T   T
  0.3060867047541965  0.0881118119051790  0.0883927058139778   T   T   T
  0.1830693007729109  0.1746566775087315  0.0900921970804082   T   T   T
  0.3075855245872917  0.9220883644107687  0.0888785098938457   T   T   T
  0.1835899431246327  0.3409605922018638  0.0917234667394990   T   T   T
  0.3077299163482100  0.5920730313585384  0.0907820465502663   T   T   T
  0.1821748175506369  0.6713417276034407  0.0915996806002564   T   T   T
  0.1816197822126348  0.8389299138351464  0.0892373957437052   T   T   T
  0.5560665591980771  0.0839927790633488  0.0923669131903847   T   T   T
  0.4317484256414937  0.1681063836838474  0.0905883408937474   T   T   T
  0.4336434368456627  0.3344195794581604  0.0963159678015496   T   T   T
  0.4292736237074041  0.8353710166634470  0.0891890580306271   T   T   T
  0.8070122493564794  0.0905938398413314  0.0905131408900739   T   T   T
  0.6803626716786689  0.1693503012298160  0.0944444511973793   T   T   T
  0.8073332668179143  0.9244364131372577  0.0908273200947275   T   T   T
  0.6769630729465961  0.3347988157951567  0.1037642202065719   T   T   T
  0.8061396335771882  0.5939770298133055  0.1036720536328463   T   T   T
  0.8022158769085379  0.4248386975599035  0.1033854948075725   T   T   T
  0.6845541227241334  0.8387566454833303  0.0961486928174352   T   T   T
  0.4290949819265188  0.6736027986222221  0.0845083123367094   T   T   T
  0.5524035521905093  0.4062433868911772  0.1140945453698113   T   T   T
  0.6907720945935085  0.6836137647519231  0.1133441294146051   T   T   T
  0.5571900335063183  0.9161717258955802  0.0911397245361078   T   T   T
  0.3112141454762067  0.4231547888913937  0.0913227005811334   T   T   T
  0.5382793829713628  0.6007102705325240  0.1646261429192609   T   T   T
 
  0.00000000E+00  0.00000000E+00  0.00000000E+00
  0.00000000E+00  0.00000000E+00  0.00000000E+00
  0.00000000E+00  0.00000000E+00  0.00000000E+00
  0.00000000E+00  0.00000000E+00  0.00000000E+00
  0.00000000E+00  0.00000000E+00  0.00000000E+00
  0.00000000E+00  0.00000000E+00  0.00000000E+00
  0.00000000E+00  0.00000000E+00  0.00000000E+00
  0.00000000E+00  0.00000000E+00  0.00000000E+00
  0.00000000E+00  0.00000000E+00  0.00000000E+00
  0.00000000E+00  0.00000000E+00  0.00000000E+00
  0.00000000E+00  0.00000000E+00  0.00000000E+00
  0.00000000E+00  0.00000000E+00  0.00000000E+00
  0.00000000E+00  0.00000000E+00  0.00000000E+00
  0.00000000E+00  0.00000000E+00  0.00000000E+00
  0.00000000E+00  0.00000000E+00  0.00000000E+00
  0.00000000E+00  0.00000000E+00  0.00000000E+00
  0.00000000E+00  0.00000000E+00  0.00000000E+00
  0.00000000E+00  0.00000000E+00  0.00000000E+00
  0.00000000E+00  0.00000000E+00  0.00000000E+00
  0.00000000E+00  0.00000000E+00  0.00000000E+00
  0.00000000E+00  0.00000000E+00  0.00000000E+00
  0.00000000E+00  0.00000000E+00  0.00000000E+00
  0.00000000E+00  0.00000000E+00  0.00000000E+00
  0.00000000E+00  0.00000000E+00  0.00000000E+00
  0.00000000E+00  0.00000000E+00  0.00000000E+00
  0.00000000E+00  0.00000000E+00  0.00000000E+00
  0.00000000E+00  0.00000000E+00  0.00000000E+00
  0.00000000E+00  0.00000000E+00  0.00000000E+00
  0.00000000E+00  0.00000000E+00  0.00000000E+00
  0.00000000E+00  0.00000000E+00  0.00000000E+00
  0.00000000E+00  0.00000000E+00  0.00000000E+00
  0.00000000E+00  0.00000000E+00  0.00000000E+00
