Title                                   
   1.00000000000000     
     4.9440799999999996    0.0000000000000000    0.0000000000000000
     0.0000000000000000   17.1295089999999988    0.0000000000000000
     0.0000000000000000    0.0000000000000000   20.0000000000000000
    27     3     1
Selective dynamics
Direct
  0.0011886610967707  0.1057158735934157  0.2974923862832118   T   T   T
  0.2502208216778171  0.1483947534656908  0.2981961846301260   T   T   T
  0.2502562495016728  0.2331301105305907  0.2998893351323417   T   T   T
 -0.0024248344271509  0.2739043012834607  0.3006242313429479   T   T   T
  0.0009986325292296  0.6017860220697334  0.3004286676663634   T   T   T
  0.2502814295170875  0.7267748448276071  0.2984542673339743   T   T   T
  0.0014031648109548  0.8532412156594040  0.2973335457519114   T   T   T
  0.2502773872037816  0.8954375871989433  0.2971887961878563   T   T   T
  0.2502747179340309  0.9795213905988990  0.2969305866856512   T   T   T
  0.0012343664857815  0.7689407450095027  0.2978609799991130   T   T   T
  0.4993168834317654  0.1057395184279647  0.2974725335721060   T   T   T
  0.7502876275063913  0.1472909240146712  0.2978912270247321   T   T   T
  0.7503319959055159  0.2309363422898207  0.2993358695653740   T   T   T
  0.4997777281577743  0.0215798319853042  0.2969116790440445   T   T   T
  0.7503250215905087  0.3924289851197203  0.3027940432347580   T   T   T
  0.7503520719761213  0.4791675067225450  0.3030403266806803   T   T   T
  0.5030428732958455  0.2738613913162870  0.3004911749278483   T   T   T
  0.4997518250255728  0.6018370123002268  0.3004282879534266   T   T   T
  0.7503379542729224  0.7277575431537281  0.2980721557601079   T   T   T
  0.4991345855128673  0.8532267472538335  0.2973258542957650   T   T   T
  0.7502493073341209  0.8951115201544867  0.2970737111404492   T   T   T
  0.7502577376018997  0.9793792186641070  0.2968205499094176   T   T   T
  0.4993647879281457  0.7689182398469834  0.2978563564915704   T   T   T
  0.7503971525407622  0.6444608454481857  0.2992386333983396   T   T   T
  0.0007568197756283  0.0215628610051646  0.2969207428313255   T   T   T
  0.5009364072426920  0.5195794650137796  0.3026775854399567   T   T   T
 -0.0000500631499117  0.5195020707758889  0.3026941168768313   T   T   T
  0.5124117082951442  0.3545130224781307  0.3022758179709246   T   T   T
 -0.0116641722213568  0.3545645556833946  0.3027037408225072   T   T   T
  0.2503103400969977  0.6442315136505423  0.2997379623762717   T   T   T
  0.2506678115506195  0.4388460404579841  0.3088986496700180   T   T   T
 
  0.00000000E+00  0.00000000E+00  0.00000000E+00
  0.00000000E+00  0.00000000E+00  0.00000000E+00
  0.00000000E+00  0.00000000E+00  0.00000000E+00
  0.00000000E+00  0.00000000E+00  0.00000000E+00
  0.00000000E+00  0.00000000E+00  0.00000000E+00
  0.00000000E+00  0.00000000E+00  0.00000000E+00
  0.00000000E+00  0.00000000E+00  0.00000000E+00
  0.00000000E+00  0.00000000E+00  0.00000000E+00
  0.00000000E+00  0.00000000E+00  0.00000000E+00
  0.00000000E+00  0.00000000E+00  0.00000000E+00
  0.00000000E+00  0.00000000E+00  0.00000000E+00
  0.00000000E+00  0.00000000E+00  0.00000000E+00
  0.00000000E+00  0.00000000E+00  0.00000000E+00
  0.00000000E+00  0.00000000E+00  0.00000000E+00
  0.00000000E+00  0.00000000E+00  0.00000000E+00
  0.00000000E+00  0.00000000E+00  0.00000000E+00
  0.00000000E+00  0.00000000E+00  0.00000000E+00
  0.00000000E+00  0.00000000E+00  0.00000000E+00
  0.00000000E+00  0.00000000E+00  0.00000000E+00
  0.00000000E+00  0.00000000E+00  0.00000000E+00
  0.00000000E+00  0.00000000E+00  0.00000000E+00
  0.00000000E+00  0.00000000E+00  0.00000000E+00
  0.00000000E+00  0.00000000E+00  0.00000000E+00
  0.00000000E+00  0.00000000E+00  0.00000000E+00
  0.00000000E+00  0.00000000E+00  0.00000000E+00
  0.00000000E+00  0.00000000E+00  0.00000000E+00
  0.00000000E+00  0.00000000E+00  0.00000000E+00
  0.00000000E+00  0.00000000E+00  0.00000000E+00
  0.00000000E+00  0.00000000E+00  0.00000000E+00
  0.00000000E+00  0.00000000E+00  0.00000000E+00
  0.00000000E+00  0.00000000E+00  0.00000000E+00
