Title                                   
   1.00000000000000     
     9.8694509999999998    0.0000000000000000    0.0000000000000000
     0.0000000000000000    8.5490480000000009    0.0000000000000000
     0.0000000000000000    0.0000000000000000   20.0000000000000000
    30     1     1
Selective dynamics
Direct
  0.0558457192953503  0.0900984742267618  0.0818492927270761   T   T   T
  0.9312714210098395  0.1730559551873833  0.0835355295504913   T   T   T
  0.0570788441044029  0.9233369573515942  0.0823283149907222   T   T   T
  0.9310896349729431  0.3400793718629361  0.0863931028173795   T   T   T
  0.0570079168332083  0.5896714614199647  0.0836765227676530   T   T   T
  0.9325498733590410  0.6723947159790696  0.0865346814926873   T   T   T
  0.0568225814796632  0.4225804436498970  0.0843793684714028   T   T   T
  0.9321494369759872  0.8394084854976559  0.0846952452785262   T   T   T
  0.3053257042806950  0.0880889195566029  0.0870348829194498   T   T   T
  0.1812445119227412  0.1719071465702482  0.0839728134519662   T   T   T
  0.1822080483856263  0.3390748210600136  0.0861940784979006   T   T   T
  0.3035834337360447  0.5898387089965594  0.0989596115666167   T   T   T
  0.1818781725808789  0.6734192249046470  0.0864685173751482   T   T   T
  0.3059641937747834  0.4222765379084799  0.0963856715476553   T   T   T
  0.1818494557834252  0.8404091637165972  0.0852908171894376   T   T   T
  0.5561986935104274  0.0877324143588258  0.0928253081795566   T   T   T
  0.4300942417051918  0.1698210260042414  0.0923719744391239   T   T   T
  0.5548135604690745  0.9223519805992726  0.0979770855465322   T   T   T
  0.4298221592069040  0.3350759380565873  0.1017519677476486   T   T   T
  0.4178548852956748  0.6812427416424556  0.1181183333579617   T   T   T
  0.5556905115682976  0.4082107218941394  0.1179404739442502   T   T   T
  0.4265953995788778  0.8420500808754494  0.1014938809752515   T   T   T
  0.8066044157726563  0.0892021176202162  0.0856383587541537   T   T   T
  0.6816597978088665  0.1711921918790472  0.0915116046263614   T   T   T
  0.8066353794646707  0.9232211081176851  0.0874499909164614   T   T   T
  0.6818284753287995  0.3360150981099560  0.1014089886460288   T   T   T
  0.8097139141970131  0.5900415350118212  0.0985979744095944   T   T   T
  0.6929473483356899  0.6793440815532615  0.1157106173458070   T   T   T
  0.8067977793880863  0.4223913445663214  0.0964354910038482   T   T   T
  0.6828147349457546  0.8406923962787657  0.0993837981993486   T   T   T
  0.3052784668556221  0.9240045417708740  0.0888122202694223   T   T   T
  0.5584202880737683  0.5920162937726788  0.1805484809945711   T   T   T
 
  0.00000000E+00  0.00000000E+00  0.00000000E+00
  0.00000000E+00  0.00000000E+00  0.00000000E+00
  0.00000000E+00  0.00000000E+00  0.00000000E+00
  0.00000000E+00  0.00000000E+00  0.00000000E+00
  0.00000000E+00  0.00000000E+00  0.00000000E+00
  0.00000000E+00  0.00000000E+00  0.00000000E+00
  0.00000000E+00  0.00000000E+00  0.00000000E+00
  0.00000000E+00  0.00000000E+00  0.00000000E+00
  0.00000000E+00  0.00000000E+00  0.00000000E+00
  0.00000000E+00  0.00000000E+00  0.00000000E+00
  0.00000000E+00  0.00000000E+00  0.00000000E+00
  0.00000000E+00  0.00000000E+00  0.00000000E+00
  0.00000000E+00  0.00000000E+00  0.00000000E+00
  0.00000000E+00  0.00000000E+00  0.00000000E+00
  0.00000000E+00  0.00000000E+00  0.00000000E+00
  0.00000000E+00  0.00000000E+00  0.00000000E+00
  0.00000000E+00  0.00000000E+00  0.00000000E+00
  0.00000000E+00  0.00000000E+00  0.00000000E+00
  0.00000000E+00  0.00000000E+00  0.00000000E+00
  0.00000000E+00  0.00000000E+00  0.00000000E+00
  0.00000000E+00  0.00000000E+00  0.00000000E+00
  0.00000000E+00  0.00000000E+00  0.00000000E+00
  0.00000000E+00  0.00000000E+00  0.00000000E+00
  0.00000000E+00  0.00000000E+00  0.00000000E+00
  0.00000000E+00  0.00000000E+00  0.00000000E+00
  0.00000000E+00  0.00000000E+00  0.00000000E+00
  0.00000000E+00  0.00000000E+00  0.00000000E+00
  0.00000000E+00  0.00000000E+00  0.00000000E+00
  0.00000000E+00  0.00000000E+00  0.00000000E+00
  0.00000000E+00  0.00000000E+00  0.00000000E+00
  0.00000000E+00  0.00000000E+00  0.00000000E+00
  0.00000000E+00  0.00000000E+00  0.00000000E+00
