Title                                   
   1.00000000000000     
     9.8694509999999998    0.0000000000000000    0.0000000000000000
     0.0000000000000000    8.5490480000000009    0.0000000000000000
     0.0000000000000000    0.0000000000000000   20.0000000000000000
    30     1     1
Selective dynamics
Direct
  0.0562369623192816  0.0896941881061588  0.0822193620060558   T   T   T
  0.9311140530035850  0.1731202498419653  0.0851696634990429   T   T   T
  0.0562281651518193  0.9229440442491769  0.0814801462118893   T   T   T
  0.9304290856615717  0.3400922269142070  0.0900011040192915   T   T   T
  0.0562467719644586  0.5891157373128402  0.0871800913772371   T   T   T
  0.9311640983679694  0.6726398274379265  0.0882413636770239   T   T   T
  0.0562154692061846  0.4229199908424849  0.0885156983793054   T   T   T
  0.9307319049931455  0.8391459657081576  0.0840738530930333   T   T   T
  0.3053717813268350  0.0894040997169767  0.0855130867191623   T   T   T
  0.1813610711055622  0.1731261242228957  0.0851944132338209   T   T   T
  0.3063402486042214  0.9240669473226453  0.0852315941500562   T   T   T
  0.1820077326855475  0.3401054905067610  0.0900408518949784   T   T   T
  0.3055093717444514  0.5901986042512958  0.0995574245022188   T   T   T
  0.1813385266111850  0.6726358123685201  0.0882732813273100   T   T   T
  0.3063234310604047  0.4220825092661265  0.0996120483448756   T   T   T
  0.1817254430035411  0.8391463873348152  0.0840973832542371   T   T   T
  0.5562314975834394  0.0873606947310979  0.0932254479930424   T   T   T
  0.4310976062399965  0.1696766277015531  0.0929541057639344   T   T   T
  0.4305834431437227  0.3337186860889162  0.1053034408110030   T   T   T
  0.4231873924850409  0.6836200711686222  0.1105200431376540   T   T   T
  0.5562385508135579  0.3988901554671392  0.1240611332607507   T   T   T
  0.4311571405259197  0.8422592555422962  0.0953177276902397   T   T   T
  0.8071006048141902  0.0894029359110763  0.0854853959222762   T   T   T
  0.6813814591356655  0.1696651486234977  0.0929231578747117   T   T   T
  0.8061182841201852  0.9240731484807649  0.0851985609447648   T   T   T
  0.6818541981881623  0.3337160612290681  0.1052521516255781   T   T   T
  0.8070048230194834  0.5902054547634686  0.0995051277301246   T   T   T
  0.6893495378336085  0.6836340424170300  0.1104875153019313   T   T   T
  0.8061250544866897  0.4220830145938299  0.0995545741008957   T   T   T
  0.6812913301192423  0.8422764265540272  0.0952854377505902   T   T   T
  0.5562183790131218  0.9240902553839654  0.0936739988681897   T   T   T
  0.5563555816682162  0.5951358159407021  0.1725258155348092   T   T   T
 
  0.00000000E+00  0.00000000E+00  0.00000000E+00
  0.00000000E+00  0.00000000E+00  0.00000000E+00
  0.00000000E+00  0.00000000E+00  0.00000000E+00
  0.00000000E+00  0.00000000E+00  0.00000000E+00
  0.00000000E+00  0.00000000E+00  0.00000000E+00
  0.00000000E+00  0.00000000E+00  0.00000000E+00
  0.00000000E+00  0.00000000E+00  0.00000000E+00
  0.00000000E+00  0.00000000E+00  0.00000000E+00
  0.00000000E+00  0.00000000E+00  0.00000000E+00
  0.00000000E+00  0.00000000E+00  0.00000000E+00
  0.00000000E+00  0.00000000E+00  0.00000000E+00
  0.00000000E+00  0.00000000E+00  0.00000000E+00
  0.00000000E+00  0.00000000E+00  0.00000000E+00
  0.00000000E+00  0.00000000E+00  0.00000000E+00
  0.00000000E+00  0.00000000E+00  0.00000000E+00
  0.00000000E+00  0.00000000E+00  0.00000000E+00
  0.00000000E+00  0.00000000E+00  0.00000000E+00
  0.00000000E+00  0.00000000E+00  0.00000000E+00
  0.00000000E+00  0.00000000E+00  0.00000000E+00
  0.00000000E+00  0.00000000E+00  0.00000000E+00
  0.00000000E+00  0.00000000E+00  0.00000000E+00
  0.00000000E+00  0.00000000E+00  0.00000000E+00
  0.00000000E+00  0.00000000E+00  0.00000000E+00
  0.00000000E+00  0.00000000E+00  0.00000000E+00
  0.00000000E+00  0.00000000E+00  0.00000000E+00
  0.00000000E+00  0.00000000E+00  0.00000000E+00
  0.00000000E+00  0.00000000E+00  0.00000000E+00
  0.00000000E+00  0.00000000E+00  0.00000000E+00
  0.00000000E+00  0.00000000E+00  0.00000000E+00
  0.00000000E+00  0.00000000E+00  0.00000000E+00
  0.00000000E+00  0.00000000E+00  0.00000000E+00
  0.00000000E+00  0.00000000E+00  0.00000000E+00
