Title                                   
   1.00000000000000     
     9.8694509999999998    0.0000000000000000    0.0000000000000000
     0.0000000000000000    8.5490480000000009    0.0000000000000000
     0.0000000000000000    0.0000000000000000   20.0000000000000000
    28     3     1
Selective dynamics
Direct
  0.0562156512025316  0.0919634688160751  0.0867534929718463   T   T   T
  0.9307045655067976  0.1744966432164174  0.0884281596954154   T   T   T
  0.0562162464137351  0.9248116106927471  0.0857880717313470   T   T   T
  0.9293009723841279  0.3415938264022924  0.0908174120042544   T   T   T
  0.0562299611141875  0.5893334903343339  0.0872848952044671   T   T   T
  0.9321958929338452  0.6737400849141055  0.0883318456239738   T   T   T
  0.0562249405144524  0.4233256812519965  0.0893746905415902   T   T   T
  0.9322292874143693  0.8404108820065408  0.0872761001911294   T   T   T
  0.3058822687789550  0.0894757361925752  0.0890676871962322   T   T   T
  0.1817584466629874  0.1744887307788029  0.0884225982454337   T   T   T
  0.3050075948671064  0.9231518117966767  0.0894895278766347   T   T   T
  0.1831561729534169  0.3415901536220383  0.0908033702157903   T   T   T
  0.3057278443678135  0.5934788724728481  0.0961919268440535   T   T   T
  0.1802624722765925  0.6737556305329138  0.0882933748385224   T   T   T
  0.3094906437446766  0.4245352018443913  0.0959115181193238   T   T   T
  0.1802189438478990  0.8404361049128997  0.0872307294111051   T   T   T
  0.5562353673435740  0.0835469518736437  0.0945491871446454   T   T   T
  0.4317190870478112  0.1692522057426182  0.0928468953552649   T   T   T
  0.5562395677518182  0.9167937007042175  0.0977465312046357   T   T   T
  0.4343672689575930  0.3353931454279366  0.0980179279006156   T   T   T
  0.4273537443590377  0.8369764897473012  0.0973851007480838   T   T   T
  0.8066052411325271  0.0894765347406747  0.0891008538366910   T   T   T
  0.6807711354062458  0.1692362630547752  0.0928573551414388   T   T   T
  0.8074740519882541  0.9231615314749139  0.0895609858620110   T   T   T
  0.6780989812645867  0.3353670379578020  0.0980167404698595   T   T   T
  0.8067671141262316  0.5934458397747183  0.0962484933352658   T   T   T
  0.8029720083272341  0.4244996182154880  0.0959491882394955   T   T   T
  0.6851376382911997  0.8369807675703487  0.0974511633329857   T   T   T
  0.4206997345911431  0.6791249859185043  0.1055677268489701   T   T   T
  0.5562359314617955  0.4084462923056267  0.1060007014887611   T   T   T
  0.6918730321564640  0.6791420145125996  0.1056564817705196   T   T   T
  0.5562671908109952  0.5888146911911855  0.1792542666096719   T   T   T
 
  0.00000000E+00  0.00000000E+00  0.00000000E+00
  0.00000000E+00  0.00000000E+00  0.00000000E+00
  0.00000000E+00  0.00000000E+00  0.00000000E+00
  0.00000000E+00  0.00000000E+00  0.00000000E+00
  0.00000000E+00  0.00000000E+00  0.00000000E+00
  0.00000000E+00  0.00000000E+00  0.00000000E+00
  0.00000000E+00  0.00000000E+00  0.00000000E+00
  0.00000000E+00  0.00000000E+00  0.00000000E+00
  0.00000000E+00  0.00000000E+00  0.00000000E+00
  0.00000000E+00  0.00000000E+00  0.00000000E+00
  0.00000000E+00  0.00000000E+00  0.00000000E+00
  0.00000000E+00  0.00000000E+00  0.00000000E+00
  0.00000000E+00  0.00000000E+00  0.00000000E+00
  0.00000000E+00  0.00000000E+00  0.00000000E+00
  0.00000000E+00  0.00000000E+00  0.00000000E+00
  0.00000000E+00  0.00000000E+00  0.00000000E+00
  0.00000000E+00  0.00000000E+00  0.00000000E+00
  0.00000000E+00  0.00000000E+00  0.00000000E+00
  0.00000000E+00  0.00000000E+00  0.00000000E+00
  0.00000000E+00  0.00000000E+00  0.00000000E+00
  0.00000000E+00  0.00000000E+00  0.00000000E+00
  0.00000000E+00  0.00000000E+00  0.00000000E+00
  0.00000000E+00  0.00000000E+00  0.00000000E+00
  0.00000000E+00  0.00000000E+00  0.00000000E+00
  0.00000000E+00  0.00000000E+00  0.00000000E+00
  0.00000000E+00  0.00000000E+00  0.00000000E+00
  0.00000000E+00  0.00000000E+00  0.00000000E+00
  0.00000000E+00  0.00000000E+00  0.00000000E+00
  0.00000000E+00  0.00000000E+00  0.00000000E+00
  0.00000000E+00  0.00000000E+00  0.00000000E+00
  0.00000000E+00  0.00000000E+00  0.00000000E+00
  0.00000000E+00  0.00000000E+00  0.00000000E+00
