Title                                   
   1.00000000000000     
     9.8694509999999998    0.0000000000000000    0.0000000000000000
     0.0000000000000000    8.5490480000000009    0.0000000000000000
     0.0000000000000000    0.0000000000000000   20.0000000000000000
    26     5     1
Selective dynamics
Direct
  0.0565008779704473  0.0927101217435312  0.0884351573016848   T   T   T
  0.9307874133091614  0.1752940628926420  0.0908243102361066   T   T   T
  0.0569110351097868  0.9246648606520866  0.0875446773723306   T   T   T
  0.9290317051207848  0.3424033617925736  0.0948553089590076   T   T   T
  0.0557931546444688  0.5900402709245077  0.0906692994765845   T   T   T
  0.9323543010945007  0.6736025961499394  0.0924309518645235   T   T   T
  0.0575379463253179  0.4233530323661198  0.0927524881458871   T   T   T
  0.9322828743626659  0.8410363220944874  0.0896190304765579   T   T   T
  0.3051581807656379  0.0882570896592797  0.0884973165711442   T   T   T
  0.1826572845173815  0.1754332053585752  0.0893494990028641   T   T   T
  0.3062265330676467  0.9232039963526308  0.0885897784700205   T   T   T
  0.1832694516082207  0.3416104439405296  0.0917981652122111   T   T   T
  0.3077008658914373  0.5933731896100454  0.0925906785327805   T   T   T
  0.1808602168008045  0.6718108660838839  0.0891399990737107   T   T   T
  0.1813989492082672  0.8388696407226367  0.0877631876513965   T   T   T
  0.5557278065328375  0.0830763397708418  0.0942862326884958   T   T   T
  0.4313915360614805  0.1671297247424293  0.0921376004105378   T   T   T
  0.4349297904512202  0.3333351145590757  0.0984158986074638   T   T   T
  0.4274299659699493  0.8346059648629627  0.0927298184594439   T   T   T
  0.8071204510667256  0.0902151268808359  0.0900785572945184   T   T   T
  0.6801859471725540  0.1683085512776428  0.0946938558577653   T   T   T
  0.8074398488681426  0.9249196156347653  0.0899053109181070   T   T   T
  0.6761085662596895  0.3339254499865939  0.1026716070925117   T   T   T
  0.8060694533175745  0.5955196591988914  0.1019427796121378   T   T   T
  0.8015242736674119  0.4254507749498065  0.1013702340475107   T   T   T
  0.6857716001865785  0.8380298250591184  0.0978263866425139   T   T   T
  0.4237804633772556  0.6773201854117271  0.0957426189146590   T   T   T
  0.5525582783728490  0.4058480405177929  0.1110889963041387   T   T   T
  0.6916724156623809  0.6844071989039335  0.1111188377218155   T   T   T
  0.5569315814249732  0.9156658013829720  0.0946863453519461   T   T   T
  0.3118283188741358  0.4238180315459992  0.0937322328479069   T   T   T
  0.5506979129377191  0.5930075349711436  0.1683878388817333   T   T   T
 
  0.00000000E+00  0.00000000E+00  0.00000000E+00
  0.00000000E+00  0.00000000E+00  0.00000000E+00
  0.00000000E+00  0.00000000E+00  0.00000000E+00
  0.00000000E+00  0.00000000E+00  0.00000000E+00
  0.00000000E+00  0.00000000E+00  0.00000000E+00
  0.00000000E+00  0.00000000E+00  0.00000000E+00
  0.00000000E+00  0.00000000E+00  0.00000000E+00
  0.00000000E+00  0.00000000E+00  0.00000000E+00
  0.00000000E+00  0.00000000E+00  0.00000000E+00
  0.00000000E+00  0.00000000E+00  0.00000000E+00
  0.00000000E+00  0.00000000E+00  0.00000000E+00
  0.00000000E+00  0.00000000E+00  0.00000000E+00
  0.00000000E+00  0.00000000E+00  0.00000000E+00
  0.00000000E+00  0.00000000E+00  0.00000000E+00
  0.00000000E+00  0.00000000E+00  0.00000000E+00
  0.00000000E+00  0.00000000E+00  0.00000000E+00
  0.00000000E+00  0.00000000E+00  0.00000000E+00
  0.00000000E+00  0.00000000E+00  0.00000000E+00
  0.00000000E+00  0.00000000E+00  0.00000000E+00
  0.00000000E+00  0.00000000E+00  0.00000000E+00
  0.00000000E+00  0.00000000E+00  0.00000000E+00
  0.00000000E+00  0.00000000E+00  0.00000000E+00
  0.00000000E+00  0.00000000E+00  0.00000000E+00
  0.00000000E+00  0.00000000E+00  0.00000000E+00
  0.00000000E+00  0.00000000E+00  0.00000000E+00
  0.00000000E+00  0.00000000E+00  0.00000000E+00
  0.00000000E+00  0.00000000E+00  0.00000000E+00
  0.00000000E+00  0.00000000E+00  0.00000000E+00
  0.00000000E+00  0.00000000E+00  0.00000000E+00
  0.00000000E+00  0.00000000E+00  0.00000000E+00
  0.00000000E+00  0.00000000E+00  0.00000000E+00
  0.00000000E+00  0.00000000E+00  0.00000000E+00
