Title                                   
   1.00000000000000     
     9.8694509999999998    0.0000000000000000    0.0000000000000000
     0.0000000000000000    8.5490480000000009    0.0000000000000000
     0.0000000000000000    0.0000000000000000   20.0000000000000000
    28     3     1
Selective dynamics
Direct
  0.0562546505761447  0.0910343537937572  0.0830414279236588   T   T   T
  0.9304899885517426  0.1741592022765017  0.0860618349057408   T   T   T
  0.0562581040830149  0.9228063072563615  0.0814035247035216   T   T   T
  0.9306008814401699  0.3401597846879859  0.0904963678693107   T   T   T
  0.0561929314614899  0.5893251696232740  0.0844394487504812   T   T   T
  0.9314601771351434  0.6708375647639448  0.0858088524455414   T   T   T
  0.0562077709983986  0.4229767836165041  0.0886961130215555   T   T   T
  0.9306273144230118  0.8388371437486911  0.0836778718520729   T   T   T
  0.3054850577877504  0.0893743154369648  0.0858019756835869   T   T   T
  0.1820310734941083  0.1740960517956425  0.0857426386133239   T   T   T
  0.3068080669398262  0.9238697135602191  0.0861416204203890   T   T   T
  0.1818434967297124  0.3401206044222267  0.0901711368942104   T   T   T
  0.3040331812092044  0.5897663835500541  0.0983222045612820   T   T   T
  0.1809836417577141  0.6707758382312308  0.0853041174382272   T   T   T
  0.1819230752318467  0.8387901255898583  0.0831891065404375   T   T   T
  0.5562908479313878  0.0881069791687644  0.0948361979851113   T   T   T
  0.4303933670073910  0.1708954536091909  0.0928165249739620   T   T   T
  0.4306957166186275  0.3351522428255159  0.1027825361689755   T   T   T
  0.4292269212274960  0.8413396846977422  0.0989414280204066   T   T   T
  0.8071013191384353  0.0893998215508022  0.0863546251976968   T   T   T
  0.6821878082174184  0.1709488027586594  0.0931741918941748   T   T   T
  0.8057885362193949  0.9239228960338728  0.0867632363181152   T   T   T
  0.6817983508841778  0.3352114692749851  0.1031389277595521   T   T   T
  0.8085270490965406  0.5898383211793571  0.0990650526168363   T   T   T
  0.6833324141006838  0.8413614245138610  0.0994462214895194   T   T   T
  0.4194043255485480  0.6801585531575906  0.1168400854397976   T   T   T
  0.5561153434299737  0.4073266793109603  0.1213502610754234   T   T   T
  0.6931159113320451  0.6802525167284708  0.1175039346502381   T   T   T
  0.5562783511727585  0.9216300341689262  0.0986591229867071   T   T   T
  0.3065941140784225  0.4222585253830553  0.0979947657113443   T   T   T
  0.8058887433779011  0.4223299184853956  0.0985306125127268   T   T   T
  0.5557004687995265  0.5931833347996360  0.1791790335760892   T   T   T
 
  0.00000000E+00  0.00000000E+00  0.00000000E+00
  0.00000000E+00  0.00000000E+00  0.00000000E+00
  0.00000000E+00  0.00000000E+00  0.00000000E+00
  0.00000000E+00  0.00000000E+00  0.00000000E+00
  0.00000000E+00  0.00000000E+00  0.00000000E+00
  0.00000000E+00  0.00000000E+00  0.00000000E+00
  0.00000000E+00  0.00000000E+00  0.00000000E+00
  0.00000000E+00  0.00000000E+00  0.00000000E+00
  0.00000000E+00  0.00000000E+00  0.00000000E+00
  0.00000000E+00  0.00000000E+00  0.00000000E+00
  0.00000000E+00  0.00000000E+00  0.00000000E+00
  0.00000000E+00  0.00000000E+00  0.00000000E+00
  0.00000000E+00  0.00000000E+00  0.00000000E+00
  0.00000000E+00  0.00000000E+00  0.00000000E+00
  0.00000000E+00  0.00000000E+00  0.00000000E+00
  0.00000000E+00  0.00000000E+00  0.00000000E+00
  0.00000000E+00  0.00000000E+00  0.00000000E+00
  0.00000000E+00  0.00000000E+00  0.00000000E+00
  0.00000000E+00  0.00000000E+00  0.00000000E+00
  0.00000000E+00  0.00000000E+00  0.00000000E+00
  0.00000000E+00  0.00000000E+00  0.00000000E+00
  0.00000000E+00  0.00000000E+00  0.00000000E+00
  0.00000000E+00  0.00000000E+00  0.00000000E+00
  0.00000000E+00  0.00000000E+00  0.00000000E+00
  0.00000000E+00  0.00000000E+00  0.00000000E+00
  0.00000000E+00  0.00000000E+00  0.00000000E+00
  0.00000000E+00  0.00000000E+00  0.00000000E+00
  0.00000000E+00  0.00000000E+00  0.00000000E+00
  0.00000000E+00  0.00000000E+00  0.00000000E+00
  0.00000000E+00  0.00000000E+00  0.00000000E+00
  0.00000000E+00  0.00000000E+00  0.00000000E+00
  0.00000000E+00  0.00000000E+00  0.00000000E+00
