Title                                   
   1.00000000000000     
     4.9440799999999996    0.0000000000000000    0.0000000000000000
     0.0000000000000000   17.1295089999999988    0.0000000000000000
     0.0000000000000000    0.0000000000000000   20.0000000000000000
    28     2     1
Selective dynamics
Direct
  0.0008832735593874  0.1062917283894053  0.2977285619915319   T   T   T
  0.2503384858355869  0.1492178171081011  0.2984624205076598   T   T   T
  0.2503096051771637  0.2336131242117989  0.3000469197065947   T   T   T
 -0.0023009401745247  0.2748953733240546  0.3007771118525753   T   T   T
  0.0007610862267944  0.6005120158315117  0.3012605017109491   T   T   T
  0.2503566376675678  0.7270420875039830  0.2991240658550157   T   T   T
  0.0001703465309353  0.8534978116232732  0.2972855297798651   T   T   T
  0.2503579091204087  0.8956979205855650  0.2969199885121327   T   T   T
  0.2503466602966263  0.9797703052180685  0.2966713598869364   T   T   T
 -0.0000382413336399  0.7693654690539052  0.2984412094661001   T   T   T
  0.4998106475872748  0.1062898942112237  0.2977299435669110   T   T   T
  0.7503544040861885  0.1478642564095424  0.2983754061833604   T   T   T
  0.7503279710959405  0.2318007491187843  0.2999002233012614   T   T   T
  0.5000072286464515  0.0221275182777955  0.2968294264686352   T   T   T
  0.7502487557796577  0.3918380910121387  0.3025378984620502   T   T   T
  0.7502491306012989  0.4780465169608589  0.3027387467623139   T   T   T
  0.5029205868276725  0.2748937905134243  0.3007834549544894   T   T   T
  0.4998620403506050  0.6005083513403637  0.3012708137133683   T   T   T
  0.7503594466766133  0.7271459814363642  0.2991186341374558   T   T   T
  0.5005705950504535  0.8535002737771998  0.2972903056406773   T   T   T
  0.7503753399877807  0.8957659931635711  0.2968682253324110   T   T   T
  0.7503709808555692  0.9800084094660548  0.2966231326957252   T   T   T
  0.5007750346365485  0.7693614649296127  0.2984454041374836   T   T   T
  0.7503262941588504  0.6427883254066773  0.3005586857635900   T   T   T
  0.2503260935400863  0.6433154092581358  0.3005505091017588   T   T   T
  0.0007035118042631  0.0221349341868845  0.2968246023639052   T   T   T
  0.5015749734090429  0.5171024433448156  0.3023783544896029   T   T   T
 -0.0010685246568505  0.5171053658428163  0.3023645182809938   T   T   T
  0.5114033218506456  0.3552577995749270  0.3021875864860001   T   T   T
 -0.0108907092351247  0.3552614425310166  0.3021696400159997   T   T   T
  0.2502150540407280  0.4393213363881218  0.3027968188725970   T   T   T
 
  0.00000000E+00  0.00000000E+00  0.00000000E+00
  0.00000000E+00  0.00000000E+00  0.00000000E+00
  0.00000000E+00  0.00000000E+00  0.00000000E+00
  0.00000000E+00  0.00000000E+00  0.00000000E+00
  0.00000000E+00  0.00000000E+00  0.00000000E+00
  0.00000000E+00  0.00000000E+00  0.00000000E+00
  0.00000000E+00  0.00000000E+00  0.00000000E+00
  0.00000000E+00  0.00000000E+00  0.00000000E+00
  0.00000000E+00  0.00000000E+00  0.00000000E+00
  0.00000000E+00  0.00000000E+00  0.00000000E+00
  0.00000000E+00  0.00000000E+00  0.00000000E+00
  0.00000000E+00  0.00000000E+00  0.00000000E+00
  0.00000000E+00  0.00000000E+00  0.00000000E+00
  0.00000000E+00  0.00000000E+00  0.00000000E+00
  0.00000000E+00  0.00000000E+00  0.00000000E+00
  0.00000000E+00  0.00000000E+00  0.00000000E+00
  0.00000000E+00  0.00000000E+00  0.00000000E+00
  0.00000000E+00  0.00000000E+00  0.00000000E+00
  0.00000000E+00  0.00000000E+00  0.00000000E+00
  0.00000000E+00  0.00000000E+00  0.00000000E+00
  0.00000000E+00  0.00000000E+00  0.00000000E+00
  0.00000000E+00  0.00000000E+00  0.00000000E+00
  0.00000000E+00  0.00000000E+00  0.00000000E+00
  0.00000000E+00  0.00000000E+00  0.00000000E+00
  0.00000000E+00  0.00000000E+00  0.00000000E+00
  0.00000000E+00  0.00000000E+00  0.00000000E+00
  0.00000000E+00  0.00000000E+00  0.00000000E+00
  0.00000000E+00  0.00000000E+00  0.00000000E+00
  0.00000000E+00  0.00000000E+00  0.00000000E+00
  0.00000000E+00  0.00000000E+00  0.00000000E+00
  0.00000000E+00  0.00000000E+00  0.00000000E+00
