Title                                   
   1.00000000000000     
     9.8694509999999998    0.0000000000000000    0.0000000000000000
     0.0000000000000000    8.5490480000000009    0.0000000000000000
     0.0000000000000000    0.0000000000000000   20.0000000000000000
    29     2     1
Selective dynamics
Direct
  0.0560283696632269  0.0900851842074317  0.0910370617621132   T   T   T
  0.9308345857012961  0.1673248046043660  0.0908629723471805   T   T   T
  0.0528942221532184  0.9237051507667384  0.0914494903396551   T   T   T
  0.9361339515939563  0.3347470596732192  0.0904468603697312   T   T   T
  0.0549750312415218  0.5902020179299751  0.0907800098794321   T   T   T
  0.9288962370848107  0.6698037226431685  0.0916371104045823   T   T   T
  0.0598802641477054  0.4226433963434470  0.0908493844106535   T   T   T
  0.9271682123667063  0.8358524788313804  0.0920078479357637   T   T   T
  0.3071709169833573  0.0969181521263665  0.0927767201701950   T   T   T
  0.1822177243965424  0.1767673459566024  0.0915611431047400   T   T   T
  0.1866505869203858  0.3441486777167398  0.0920958798044786   T   T   T
  0.3037544367867474  0.6000663174882944  0.0960973946929480   T   T   T
  0.1777533700115123  0.6784049235246419  0.0920304666020093   T   T   T
  0.3116421424060701  0.4327733018673884  0.0947760650786297   T   T   T
  0.1776467479918432  0.8447227443151533  0.0921397002420008   T   T   T
  0.5556860537982290  0.0879465375205966  0.0945971743299816   T   T   T
  0.4349064755242345  0.1813508141525235  0.0943966247166535   T   T   T
  0.5497464380552093  0.9185900311864210  0.0955765341022934   T   T   T
  0.4408168530759944  0.3555152046237951  0.0957533114459842   T   T   T
  0.5743991075049010  0.4372805194284117  0.0984970703617020   T   T   T
  0.4206254421050279  0.8417818558684362  0.0971052518601495   T   T   T
  0.8035043032580970  0.0813026858084623  0.0919789339727543   T   T   T
  0.6814074026721029  0.1690930460188100  0.0932961098982630   T   T   T
  0.7982156159797554  0.9117859496253755  0.0928692382246289   T   T   T
  0.6873641127675586  0.3373134631248071  0.0937908503318575   T   T   T
  0.8061105664680106  0.5808901356651123  0.0931665778257564   T   T   T
  0.6743612753465618  0.6447712219832882  0.0983080032076519   T   T   T
  0.8135551404293496  0.4157568148067893  0.0911048157756031   T   T   T
  0.6694172914170030  0.8213289316763545  0.0952529912484886   T   T   T
  0.4174556801400384  0.6875672253659068  0.1021754748966020   T   T   T
  0.3015382218982894  0.9316931295789329  0.0930794512506086   T   T   T
  0.5768822201107430  0.5781131555710510  0.2021784794069535   T   T   T
 
  0.00000000E+00  0.00000000E+00  0.00000000E+00
  0.00000000E+00  0.00000000E+00  0.00000000E+00
  0.00000000E+00  0.00000000E+00  0.00000000E+00
  0.00000000E+00  0.00000000E+00  0.00000000E+00
  0.00000000E+00  0.00000000E+00  0.00000000E+00
  0.00000000E+00  0.00000000E+00  0.00000000E+00
  0.00000000E+00  0.00000000E+00  0.00000000E+00
  0.00000000E+00  0.00000000E+00  0.00000000E+00
  0.00000000E+00  0.00000000E+00  0.00000000E+00
  0.00000000E+00  0.00000000E+00  0.00000000E+00
  0.00000000E+00  0.00000000E+00  0.00000000E+00
  0.00000000E+00  0.00000000E+00  0.00000000E+00
  0.00000000E+00  0.00000000E+00  0.00000000E+00
  0.00000000E+00  0.00000000E+00  0.00000000E+00
  0.00000000E+00  0.00000000E+00  0.00000000E+00
  0.00000000E+00  0.00000000E+00  0.00000000E+00
  0.00000000E+00  0.00000000E+00  0.00000000E+00
  0.00000000E+00  0.00000000E+00  0.00000000E+00
  0.00000000E+00  0.00000000E+00  0.00000000E+00
  0.00000000E+00  0.00000000E+00  0.00000000E+00
  0.00000000E+00  0.00000000E+00  0.00000000E+00
  0.00000000E+00  0.00000000E+00  0.00000000E+00
  0.00000000E+00  0.00000000E+00  0.00000000E+00
  0.00000000E+00  0.00000000E+00  0.00000000E+00
  0.00000000E+00  0.00000000E+00  0.00000000E+00
  0.00000000E+00  0.00000000E+00  0.00000000E+00
  0.00000000E+00  0.00000000E+00  0.00000000E+00
  0.00000000E+00  0.00000000E+00  0.00000000E+00
  0.00000000E+00  0.00000000E+00  0.00000000E+00
  0.00000000E+00  0.00000000E+00  0.00000000E+00
  0.00000000E+00  0.00000000E+00  0.00000000E+00
  0.00000000E+00  0.00000000E+00  0.00000000E+00
