Title                                   
   1.00000000000000     
     4.9440799999999996    0.0000000000000000    0.0000000000000000
     0.0000000000000000    8.5647549999999999    0.0000000000000000
     0.0000000000000000    0.0000000000000000   20.0000000000000000
    11     3     1
Selective dynamics
Direct
  0.0004085558720939  0.2934579983886592  0.0979609362731888   T   T   T
  0.2455267623512463  0.0401600101135509  0.0954625536387187   T   T   T
 -0.0089165562379424  0.9560432968674470  0.0986193269656406   T   T   T
  0.7517182862326074  0.2069164564086023  0.0905269989236158   T   T   T
  0.5033568423618681  0.2945320258417437  0.0926131462624832   T   T   T
  0.7456203817663406  0.0409437519720359  0.0900991611741323   T   T   T
  0.7441034290069621  0.7120284653525735  0.0975569895281832   T   T   T
  0.7523862862541159  0.5354586745951579  0.0998147817411105   T   T   T
  0.4939304298640395  0.9569056964377215  0.0903158712243279   T   T   T
  0.5018936882899115  0.7904454404611568  0.0876693220816222   T   T   T
 -0.0044481622630065  0.4550506759925511  0.1104192362604841   T   T   T
  0.5077361919489761  0.4528805351366172  0.0933908515555862   T   T   T
 -0.0160377870937687  0.7961986498746396  0.1115496313928924   T   T   T
  0.2499637408578106  0.2100432503097426  0.0956158809345994   T   T   T
  0.2827579107887461  0.6306160722478026  0.1563653120434177   T   T   T
 
  0.00000000E+00  0.00000000E+00  0.00000000E+00
  0.00000000E+00  0.00000000E+00  0.00000000E+00
  0.00000000E+00  0.00000000E+00  0.00000000E+00
  0.00000000E+00  0.00000000E+00  0.00000000E+00
  0.00000000E+00  0.00000000E+00  0.00000000E+00
  0.00000000E+00  0.00000000E+00  0.00000000E+00
  0.00000000E+00  0.00000000E+00  0.00000000E+00
  0.00000000E+00  0.00000000E+00  0.00000000E+00
  0.00000000E+00  0.00000000E+00  0.00000000E+00
  0.00000000E+00  0.00000000E+00  0.00000000E+00
  0.00000000E+00  0.00000000E+00  0.00000000E+00
  0.00000000E+00  0.00000000E+00  0.00000000E+00
  0.00000000E+00  0.00000000E+00  0.00000000E+00
  0.00000000E+00  0.00000000E+00  0.00000000E+00
  0.00000000E+00  0.00000000E+00  0.00000000E+00
