Title                                   
   1.00000000000000     
     4.9440799999999996    0.0000000000000000    0.0000000000000000
     0.0000000000000000   17.1295089999999988    0.0000000000000000
     0.0000000000000000    0.0000000000000000   20.0000000000000000
    27     3     1
Selective dynamics
Direct
 -0.0066629988327319  0.1053187600011700  0.2965738310470517   T   T   T
  0.2416478106886295  0.1479662420502768  0.2977700202571701   T   T   T
  0.2382706596564627  0.2319877637640574  0.3006158622737171   T   T   T
 -0.0147070433131330  0.2737760629473388  0.3013801787070901   T   T   T
  0.0146968940583089  0.6019191667969106  0.2924541643466561   T   T   T
  0.2606351794631404  0.7260901553706723  0.2970901221621388   T   T   T
  0.0051631381362039  0.8524525717792519  0.2957676807771393   T   T   T
  0.2526203408515649  0.8950506727012447  0.2963272205748115   T   T   T
  0.2485131549455064  0.9791326520093997  0.2961752361499891   T   T   T
  0.0095761601059387  0.7680945939441588  0.2952903001579819   T   T   T
  0.4928935316824696  0.1054182322897472  0.2967617465625477   T   T   T
  0.7419834813008249  0.1473117556335176  0.2969425669661070   T   T   T
  0.7368882869157629  0.2312872570217764  0.2990747277674359   T   T   T
  0.4971322820174744  0.0212379908123950  0.2961890041543995   T   T   T
  0.7445407516665647  0.3951128734639247  0.3026560132874490   T   T   T
  0.7605140046808637  0.4820392314181696  0.3027772731708881   T   T   T
  0.4871670101977977  0.2740706750137893  0.3018063745617072   T   T   T
  0.5168287321109993  0.6008266833663428  0.3044495690511818   T   T   T
  0.7580554748321642  0.7272647816994261  0.2950139270530965   T   T   T
  0.5027299600205000  0.8529012650172504  0.2966430449922491   T   T   T
  0.7526324410938868  0.8945999947902974  0.2959907367005005   T   T   T
  0.7486159430435932  0.9789007663931195  0.2959354796756790   T   T   T
  0.5068558011385018  0.7685319825991428  0.2970266540543700   T   T   T
  0.7633642974540098  0.6442007965988686  0.2949144414645540   T   T   T
 -0.0025969965344348  0.0212731922538722  0.2960238266985247   T   T   T
  0.0022079190490011  0.5206003704897857  0.2881509582770975   T   T   T
  0.4992510669012000  0.3573259958976291  0.3076480398400060   T   T   T
  0.5235458766429215  0.5227860859369966  0.3191789728677620   T   T   T
 -0.0215445703455062  0.3537644453099807  0.3048659169231270   T   T   T
  0.2666069575608807  0.6425998723021480  0.2989819260006196   T   T   T
  0.2325814528106349  0.4374991103273336  0.3245841834769059   T   T   T
 
  0.00000000E+00  0.00000000E+00  0.00000000E+00
  0.00000000E+00  0.00000000E+00  0.00000000E+00
  0.00000000E+00  0.00000000E+00  0.00000000E+00
  0.00000000E+00  0.00000000E+00  0.00000000E+00
  0.00000000E+00  0.00000000E+00  0.00000000E+00
  0.00000000E+00  0.00000000E+00  0.00000000E+00
  0.00000000E+00  0.00000000E+00  0.00000000E+00
  0.00000000E+00  0.00000000E+00  0.00000000E+00
  0.00000000E+00  0.00000000E+00  0.00000000E+00
  0.00000000E+00  0.00000000E+00  0.00000000E+00
  0.00000000E+00  0.00000000E+00  0.00000000E+00
  0.00000000E+00  0.00000000E+00  0.00000000E+00
  0.00000000E+00  0.00000000E+00  0.00000000E+00
  0.00000000E+00  0.00000000E+00  0.00000000E+00
  0.00000000E+00  0.00000000E+00  0.00000000E+00
  0.00000000E+00  0.00000000E+00  0.00000000E+00
  0.00000000E+00  0.00000000E+00  0.00000000E+00
  0.00000000E+00  0.00000000E+00  0.00000000E+00
  0.00000000E+00  0.00000000E+00  0.00000000E+00
  0.00000000E+00  0.00000000E+00  0.00000000E+00
  0.00000000E+00  0.00000000E+00  0.00000000E+00
  0.00000000E+00  0.00000000E+00  0.00000000E+00
  0.00000000E+00  0.00000000E+00  0.00000000E+00
  0.00000000E+00  0.00000000E+00  0.00000000E+00
  0.00000000E+00  0.00000000E+00  0.00000000E+00
  0.00000000E+00  0.00000000E+00  0.00000000E+00
  0.00000000E+00  0.00000000E+00  0.00000000E+00
  0.00000000E+00  0.00000000E+00  0.00000000E+00
  0.00000000E+00  0.00000000E+00  0.00000000E+00
  0.00000000E+00  0.00000000E+00  0.00000000E+00
  0.00000000E+00  0.00000000E+00  0.00000000E+00
