Title                                   
   1.00000000000000     
     9.8694509999999998    0.0000000000000000    0.0000000000000000
     0.0000000000000000    8.5490480000000009    0.0000000000000000
     0.0000000000000000    0.0000000000000000   20.0000000000000000
    26     5     1
Selective dynamics
Direct
  0.0564530518357800  0.0921598561299282  0.0834795510888234   T   T   T
  0.9309148678188230  0.1746801940517936  0.0844316112580862   T   T   T
  0.0575370009369166  0.9248070180226088  0.0838094954114746   T   T   T
  0.9300042502239974  0.3422845235096701  0.0875154919475988   T   T   T
  0.0571561922545637  0.5909273949183347  0.0849816921971649   T   T   T
  0.9327538909109916  0.6737899898941393  0.0884465335904057   T   T   T
  0.0569557654253438  0.4236728733806309  0.0861479328373463   T   T   T
  0.9329010127198113  0.8408226757943174  0.0865601234109116   T   T   T
  0.3062520315435874  0.0884131693690988  0.0884750238899000   T   T   T
  0.1828700977569266  0.1741386211781453  0.0858549091168937   T   T   T
  0.1837204499651499  0.3410136730629785  0.0878789770852242   T   T   T
  0.3043522268449470  0.5920180565124219  0.0990589370179945   T   T   T
  0.1819632983437583  0.6749207654373908  0.0873136165676624   T   T   T
  0.3106529978779681  0.4237645832567271  0.0968741930803709   T   T   T
  0.1813013756271826  0.8415778167083929  0.0862407549062946   T   T   T
  0.5562184848662598  0.0837635140685706  0.0940420701956631   T   T   T
  0.5545607126825028  0.9181592442120784  0.0999039452898679   T   T   T
  0.4318950969434566  0.3309623581410709  0.1022806827399827   T   T   T
  0.4260034794878284  0.8396169840585086  0.1022873150096516   T   T   T
  0.8062374641549073  0.0893149292875967  0.0850835280323755   T   T   T
  0.6796131305177386  0.1693711069989186  0.0900069826317011   T   T   T
  0.8074429265100230  0.9236809768396406  0.0882321240211573   T   T   T
  0.6800685867211331  0.3333777958858583  0.0992538123992058   T   T   T
  0.8091866187824601  0.5934506508794871  0.0994523214249142   T   T   T
  0.8024523733141754  0.4247307045606630  0.0961181338679916   T   T   T
  0.6850540481901454  0.8399297045330533  0.1000316197674695   T   T   T
  0.4130838600358562  0.6859659243117974  0.1196816497716437   T   T   T
  0.5552728249721045  0.3965238439123536  0.1191810488786134   T   T   T
  0.6961665652380552  0.6830256110771298  0.1166875177588149   T   T   T
  0.3057416590781954  0.9256585049635966  0.0894476277108246   T   T   T
  0.4291368506226020  0.1667392016571610  0.0938275715804157   T   T   T
  0.5557158077968150  0.5869837333859405  0.1730882055135717   T   T   T
 
  0.00000000E+00  0.00000000E+00  0.00000000E+00
  0.00000000E+00  0.00000000E+00  0.00000000E+00
  0.00000000E+00  0.00000000E+00  0.00000000E+00
  0.00000000E+00  0.00000000E+00  0.00000000E+00
  0.00000000E+00  0.00000000E+00  0.00000000E+00
  0.00000000E+00  0.00000000E+00  0.00000000E+00
  0.00000000E+00  0.00000000E+00  0.00000000E+00
  0.00000000E+00  0.00000000E+00  0.00000000E+00
  0.00000000E+00  0.00000000E+00  0.00000000E+00
  0.00000000E+00  0.00000000E+00  0.00000000E+00
  0.00000000E+00  0.00000000E+00  0.00000000E+00
  0.00000000E+00  0.00000000E+00  0.00000000E+00
  0.00000000E+00  0.00000000E+00  0.00000000E+00
  0.00000000E+00  0.00000000E+00  0.00000000E+00
  0.00000000E+00  0.00000000E+00  0.00000000E+00
  0.00000000E+00  0.00000000E+00  0.00000000E+00
  0.00000000E+00  0.00000000E+00  0.00000000E+00
  0.00000000E+00  0.00000000E+00  0.00000000E+00
  0.00000000E+00  0.00000000E+00  0.00000000E+00
  0.00000000E+00  0.00000000E+00  0.00000000E+00
  0.00000000E+00  0.00000000E+00  0.00000000E+00
  0.00000000E+00  0.00000000E+00  0.00000000E+00
  0.00000000E+00  0.00000000E+00  0.00000000E+00
  0.00000000E+00  0.00000000E+00  0.00000000E+00
  0.00000000E+00  0.00000000E+00  0.00000000E+00
  0.00000000E+00  0.00000000E+00  0.00000000E+00
  0.00000000E+00  0.00000000E+00  0.00000000E+00
  0.00000000E+00  0.00000000E+00  0.00000000E+00
  0.00000000E+00  0.00000000E+00  0.00000000E+00
  0.00000000E+00  0.00000000E+00  0.00000000E+00
  0.00000000E+00  0.00000000E+00  0.00000000E+00
  0.00000000E+00  0.00000000E+00  0.00000000E+00
