Title                                   
   1.00000000000000     
     9.8694509999999998    0.0000000000000000    0.0000000000000000
     0.0000000000000000    8.5490480000000009    0.0000000000000000
     0.0000000000000000    0.0000000000000000   20.0000000000000000
    27     4     1
Selective dynamics
Direct
  0.0560322503605483  0.0916433491808786  0.0869509815984521   T   T   T
  0.9305996176877644  0.1757578893965998  0.0892375572389699   T   T   T
  0.0575957383896059  0.9237877809050435  0.0864996347029311   T   T   T
  0.9281480512775415  0.3427061157796392  0.0928222010876343   T   T   T
  0.0559387901193642  0.5897582402142075  0.0901131185013809   T   T   T
  0.9324263360628985  0.6740367407428288  0.0906910333616701   T   T   T
  0.0563638882966226  0.4229526394691595  0.0921778110706816   T   T   T
  0.9327377527760301  0.8416129096663335  0.0881301642527832   T   T   T
  0.3050418585850875  0.0870583558121644  0.0877215444374895   T   T   T
  0.1819312756353774  0.1735143334115655  0.0882474575600819   T   T   T
  0.3077449849599499  0.9214868058115794  0.0895403874916375   T   T   T
  0.1812197430109577  0.3392213698832517  0.0922178315659877   T   T   T
  0.3065004072851164  0.5874032026625013  0.0992696456248892   T   T   T
  0.1819417073478201  0.6702695551294381  0.0908433677058590   T   T   T
  0.1830058236538581  0.8376146663043347  0.0886207345423394   T   T   T
  0.5561147330987007  0.0857734882864980  0.0947201707019446   T   T   T
  0.4302441828285247  0.1670543050739848  0.0920460247208797   T   T   T
  0.4309493401102670  0.3320519880764408  0.0985370310434189   T   T   T
  0.4313950488191231  0.8377314209070923  0.0986790607875963   T   T   T
  0.8069676877048230  0.0915912015284641  0.0890467348020209   T   T   T
  0.6799535129337985  0.1706065749573031  0.0939028733149535   T   T   T
  0.8081150598224963  0.9267313418412639  0.0887214117384205   T   T   T
  0.6756754757667023  0.3356617948634104  0.1002763884527394   T   T   T
  0.8060656981467683  0.5962422434253709  0.0986271099836709   T   T   T
  0.8002200318190678  0.4268726669302191  0.0980778638270527   T   T   T
  0.6854115101788472  0.8426753205109844  0.0967606126704366   T   T   T
  0.4239970757270006  0.6767054414907019  0.1134631574084096   T   T   T
  0.5494344513517861  0.4055068080151699  0.1103431787635580   T   T   T
  0.6911654886722145  0.6876272481361116  0.1083758519845515   T   T   T
  0.5584380427638874  0.9202946305111241  0.0970370947474102   T   T   T
  0.3082968901654456  0.4201021845529131  0.0968524765765527   T   T   T
  0.5599665446420101  0.5881933865234220  0.1571244877336126   T   T   T
 
  0.00000000E+00  0.00000000E+00  0.00000000E+00
  0.00000000E+00  0.00000000E+00  0.00000000E+00
  0.00000000E+00  0.00000000E+00  0.00000000E+00
  0.00000000E+00  0.00000000E+00  0.00000000E+00
  0.00000000E+00  0.00000000E+00  0.00000000E+00
  0.00000000E+00  0.00000000E+00  0.00000000E+00
  0.00000000E+00  0.00000000E+00  0.00000000E+00
  0.00000000E+00  0.00000000E+00  0.00000000E+00
  0.00000000E+00  0.00000000E+00  0.00000000E+00
  0.00000000E+00  0.00000000E+00  0.00000000E+00
  0.00000000E+00  0.00000000E+00  0.00000000E+00
  0.00000000E+00  0.00000000E+00  0.00000000E+00
  0.00000000E+00  0.00000000E+00  0.00000000E+00
  0.00000000E+00  0.00000000E+00  0.00000000E+00
  0.00000000E+00  0.00000000E+00  0.00000000E+00
  0.00000000E+00  0.00000000E+00  0.00000000E+00
  0.00000000E+00  0.00000000E+00  0.00000000E+00
  0.00000000E+00  0.00000000E+00  0.00000000E+00
  0.00000000E+00  0.00000000E+00  0.00000000E+00
  0.00000000E+00  0.00000000E+00  0.00000000E+00
  0.00000000E+00  0.00000000E+00  0.00000000E+00
  0.00000000E+00  0.00000000E+00  0.00000000E+00
  0.00000000E+00  0.00000000E+00  0.00000000E+00
  0.00000000E+00  0.00000000E+00  0.00000000E+00
  0.00000000E+00  0.00000000E+00  0.00000000E+00
  0.00000000E+00  0.00000000E+00  0.00000000E+00
  0.00000000E+00  0.00000000E+00  0.00000000E+00
  0.00000000E+00  0.00000000E+00  0.00000000E+00
  0.00000000E+00  0.00000000E+00  0.00000000E+00
  0.00000000E+00  0.00000000E+00  0.00000000E+00
  0.00000000E+00  0.00000000E+00  0.00000000E+00
  0.00000000E+00  0.00000000E+00  0.00000000E+00
