Title                                   
   1.00000000000000     
     9.8694509999999998    0.0000000000000000    0.0000000000000000
     0.0000000000000000    8.5490480000000009    0.0000000000000000
     0.0000000000000000    0.0000000000000000   20.0000000000000000
    28     3     1
Selective dynamics
Direct
  0.0562225941102645  0.0922815225682140  0.0854422440557868   T   T   T
  0.9307282062026565  0.1747917927556099  0.0875618165235774   T   T   T
  0.0562219568515935  0.9248917001092400  0.0843660579040119   T   T   T
  0.9293205250111125  0.3416180611131473  0.0907194221071950   T   T   T
  0.0562333241279218  0.5894794943549378  0.0866777662843427   T   T   T
  0.9324168186834518  0.6738046543853812  0.0877698373239000   T   T   T
  0.0562378631411604  0.4233089350347005  0.0891463653102446   T   T   T
  0.9323203792148089  0.8404152677451324  0.0862378912924280   T   T   T
  0.3058389145520875  0.0893476791738111  0.0882597582918471   T   T   T
  0.1817331285736715  0.1747879151611139  0.0875195030322122   T   T   T
  0.3049296581771893  0.9234404756590993  0.0886970517590465   T   T   T
  0.1831574689925250  0.3416105132905047  0.0906881822734843   T   T   T
  0.3051921193355688  0.5937938920314870  0.0971554094832783   T   T   T
  0.1800375616574760  0.6738182011252796  0.0877004692380693   T   T   T
  0.3096254653992319  0.4247694607338948  0.0969452216514210   T   T   T
  0.1801215965155296  0.8404306210243273  0.0861666167233730   T   T   T
  0.5562362084696447  0.0832416773939652  0.0947304723003051   T   T   T
  0.4316084806125141  0.1688809241553410  0.0927276648534038   T   T   T
  0.5562218950525242  0.9163633719138522  0.0986673663148775   T   T   T
  0.4345321796109122  0.3345843386973745  0.0991726471904558   T   T   T
  0.4266016818420376  0.8369997799922778  0.0981778480384871   T   T   T
  0.8066438028941620  0.0893385692849816  0.0883266188769658   T   T   T
  0.6808835117392831  0.1688719599740279  0.0927660194839099   T   T   T
  0.8075348529513215  0.9234449007882757  0.0888036363768697   T   T   T
  0.6779759352518867  0.3345661081089527  0.0991855205535637   T   T   T
  0.8072975265489344  0.5937739107306812  0.0972378812796536   T   T   T
  0.8028657341505282  0.4247531678326436  0.0969924489910965   T   T   T
  0.6858614228394642  0.8370090529503711  0.0982692524640168   T   T   T
  0.4196672794020693  0.6797075919683310  0.1082065369864838   T   T   T
  0.5562550232916081  0.4070864729213769  0.1090481766011071   T   T   T
  0.6928761649083127  0.6797216054267727  0.1082991713554673   T   T   T
  0.5562397198885540  0.5893123815949024  0.1740101250791529   T   T   T
 
  0.00000000E+00  0.00000000E+00  0.00000000E+00
  0.00000000E+00  0.00000000E+00  0.00000000E+00
  0.00000000E+00  0.00000000E+00  0.00000000E+00
  0.00000000E+00  0.00000000E+00  0.00000000E+00
  0.00000000E+00  0.00000000E+00  0.00000000E+00
  0.00000000E+00  0.00000000E+00  0.00000000E+00
  0.00000000E+00  0.00000000E+00  0.00000000E+00
  0.00000000E+00  0.00000000E+00  0.00000000E+00
  0.00000000E+00  0.00000000E+00  0.00000000E+00
  0.00000000E+00  0.00000000E+00  0.00000000E+00
  0.00000000E+00  0.00000000E+00  0.00000000E+00
  0.00000000E+00  0.00000000E+00  0.00000000E+00
  0.00000000E+00  0.00000000E+00  0.00000000E+00
  0.00000000E+00  0.00000000E+00  0.00000000E+00
  0.00000000E+00  0.00000000E+00  0.00000000E+00
  0.00000000E+00  0.00000000E+00  0.00000000E+00
  0.00000000E+00  0.00000000E+00  0.00000000E+00
  0.00000000E+00  0.00000000E+00  0.00000000E+00
  0.00000000E+00  0.00000000E+00  0.00000000E+00
  0.00000000E+00  0.00000000E+00  0.00000000E+00
  0.00000000E+00  0.00000000E+00  0.00000000E+00
  0.00000000E+00  0.00000000E+00  0.00000000E+00
  0.00000000E+00  0.00000000E+00  0.00000000E+00
  0.00000000E+00  0.00000000E+00  0.00000000E+00
  0.00000000E+00  0.00000000E+00  0.00000000E+00
  0.00000000E+00  0.00000000E+00  0.00000000E+00
  0.00000000E+00  0.00000000E+00  0.00000000E+00
  0.00000000E+00  0.00000000E+00  0.00000000E+00
  0.00000000E+00  0.00000000E+00  0.00000000E+00
  0.00000000E+00  0.00000000E+00  0.00000000E+00
  0.00000000E+00  0.00000000E+00  0.00000000E+00
  0.00000000E+00  0.00000000E+00  0.00000000E+00
