Title                                   
   1.00000000000000     
     9.8694509999999998    0.0000000000000000    0.0000000000000000
     0.0000000000000000    8.5490480000000009    0.0000000000000000
     0.0000000000000000    0.0000000000000000   20.0000000000000000
    25     5     1
Selective dynamics
Direct
  0.0557822978969794  0.0899696786006067  0.0954324260324622   T   T   T
  0.9316723885563489  0.1719335903367900  0.0956719602747089   T   T   T
  0.0573347329506471  0.9228236338709072  0.0955219309244176   T   T   T
  0.9329503945691049  0.3394954940637337  0.0950430959691715   T   T   T
  0.0566974801033995  0.5898887235566319  0.0941744906671431   T   T   T
  0.9331208330891575  0.6732047700026680  0.0950412811421896   T   T   T
  0.0567059463891552  0.4231548510780591  0.0941653558122993   T   T   T
  0.9321310320085967  0.8400178201007817  0.0956936560064055   T   T   T
  0.3068777969765830  0.0887304123468404  0.0968893083469670   T   T   T
  0.1810283057729358  0.1713447399117331  0.0955552469428498   T   T   T
  0.1801158895845828  0.3384353430631492  0.0949675596842348   T   T   T
  0.3025187634262928  0.5895030817464745  0.0965584274588339   T   T   T
  0.1805302850929628  0.6741982579574303  0.0950154792538434   T   T   T
  0.3028887380274998  0.4225313832383976  0.0965441601386879   T   T   T
  0.1813862192650776  0.8403622138113143  0.0956931711838247   T   T   T
  0.5564955869682947  0.0931514741711021  0.0986383047029485   T   T   T
  0.4294353046115754  0.1764587256644904  0.0982602146534097   T   T   T
  0.5551942545287699  0.9194759811503922  0.0986086834663267   T   T   T
  0.4292710735252115  0.8349435022588245  0.0982839977912157   T   T   T
  0.8052179244681523  0.0898534001170932  0.0969138273075039   T   T   T
  0.6819547442058975  0.1781837915434123  0.0981991238884886   T   T   T
  0.8053938301907144  0.9222433055819437  0.0968797508406080   T   T   T
  0.8101551156419546  0.5901518352642093  0.0965248644152759   T   T   T
  0.8100003998274754  0.4221514358483395  0.0965337386113211   T   T   T
  0.6818982401843110  0.8335005140965731  0.0981660629015611   T   T   T
  0.4241606508320538  0.3399038281894348  0.0987681419702604   T   T   T
  0.4237041933376374  0.6739296117617773  0.0989165507985852   T   T   T
  0.6876418403309638  0.3419392370023743  0.0986413411324172   T   T   T
  0.6880891276660860  0.6707029156601183  0.0986413271083537   T   T   T
  0.3071295484504375  0.9226655807217121  0.0969560517175350   T   T   T
  0.5556530615211421  0.5060258672826839  0.1000654688562078   T   T   T
 
  0.00000000E+00  0.00000000E+00  0.00000000E+00
  0.00000000E+00  0.00000000E+00  0.00000000E+00
  0.00000000E+00  0.00000000E+00  0.00000000E+00
  0.00000000E+00  0.00000000E+00  0.00000000E+00
  0.00000000E+00  0.00000000E+00  0.00000000E+00
  0.00000000E+00  0.00000000E+00  0.00000000E+00
  0.00000000E+00  0.00000000E+00  0.00000000E+00
  0.00000000E+00  0.00000000E+00  0.00000000E+00
  0.00000000E+00  0.00000000E+00  0.00000000E+00
  0.00000000E+00  0.00000000E+00  0.00000000E+00
  0.00000000E+00  0.00000000E+00  0.00000000E+00
  0.00000000E+00  0.00000000E+00  0.00000000E+00
  0.00000000E+00  0.00000000E+00  0.00000000E+00
  0.00000000E+00  0.00000000E+00  0.00000000E+00
  0.00000000E+00  0.00000000E+00  0.00000000E+00
  0.00000000E+00  0.00000000E+00  0.00000000E+00
  0.00000000E+00  0.00000000E+00  0.00000000E+00
  0.00000000E+00  0.00000000E+00  0.00000000E+00
  0.00000000E+00  0.00000000E+00  0.00000000E+00
  0.00000000E+00  0.00000000E+00  0.00000000E+00
  0.00000000E+00  0.00000000E+00  0.00000000E+00
  0.00000000E+00  0.00000000E+00  0.00000000E+00
  0.00000000E+00  0.00000000E+00  0.00000000E+00
  0.00000000E+00  0.00000000E+00  0.00000000E+00
  0.00000000E+00  0.00000000E+00  0.00000000E+00
  0.00000000E+00  0.00000000E+00  0.00000000E+00
  0.00000000E+00  0.00000000E+00  0.00000000E+00
  0.00000000E+00  0.00000000E+00  0.00000000E+00
  0.00000000E+00  0.00000000E+00  0.00000000E+00
  0.00000000E+00  0.00000000E+00  0.00000000E+00
  0.00000000E+00  0.00000000E+00  0.00000000E+00
