Title                                   
   1.00000000000000     
     9.8694509999999998    0.0000000000000000    0.0000000000000000
     0.0000000000000000    8.5490480000000009    0.0000000000000000
     0.0000000000000000    0.0000000000000000   20.0000000000000000
    26     5     1
Selective dynamics
Direct
  0.0564897763825978  0.0927039350754978  0.0897452838269377   T   T   T
  0.9307374018148026  0.1750324568089121  0.0912745538380673   T   T   T
  0.0568159977454511  0.9247083630891092  0.0895174270956210   T   T   T
  0.9294404355292166  0.3421579607721520  0.0932943826800317   T   T   T
  0.0558343591374798  0.5902133018741096  0.0904780212525133   T   T   T
  0.9319022459491221  0.6737577122339217  0.0918352046130359   T   T   T
  0.0572902680419435  0.4237036543988434  0.0918552594237388   T   T   T
  0.9318608074337522  0.8411706233384346  0.0906461654210820   T   T   T
  0.3055239317585289  0.0886826528611101  0.0896080093015851   T   T   T
  0.1826993938357697  0.1756995403439689  0.0900083402334469   T   T   T
  0.3064495844949049  0.9231340288795417  0.0903858541427269   T   T   T
  0.1833886816218946  0.3419229586366668  0.0914891759163997   T   T   T
  0.3074958093362140  0.5932046266188539  0.0940071452553908   T   T   T
  0.1811254278291662  0.6721657940450811  0.0904583037069883   T   T   T
  0.1813952326624276  0.8393373208453581  0.0899591927875990   T   T   T
  0.5555925287070542  0.0836339609238446  0.0941029651738111   T   T   T
  0.4311699043802955  0.1684511782748569  0.0923739640709587   T   T   T
  0.4344665145620511  0.3350179827046288  0.0955883740390631   T   T   T
  0.4280583018965015  0.8351774878565177  0.0945720420054297   T   T   T
  0.8067622146401772  0.0901563941086783  0.0912887824469193   T   T   T
  0.6798665621611225  0.1685874081604518  0.0941888329098471   T   T   T
  0.8066705157984027  0.9245245803939460  0.0911506081964661   T   T   T
  0.6763970321549092  0.3350065569454902  0.0981568186522487   T   T   T
  0.8054094909216002  0.5945687806522779  0.0971477610868390   T   T   T
  0.8015368830952828  0.4252607164097858  0.0968933877632160   T   T   T
  0.6842671832008542  0.8374895167704088  0.0954620666462827   T   T   T
  0.4248929993090751  0.6763780551305498  0.1004233110723870   T   T   T
  0.5532182543085582  0.4112682493429765  0.1040363697747386   T   T   T
  0.6874740881643085  0.6805669921378554  0.1036683817822197   T   T   T
  0.5560880944661249  0.9156156549635243  0.0946137001701400   T   T   T
  0.3111440936765703  0.4248117084108744  0.0931749848248303   T   T   T
  0.5581749849838469  0.5861358469917726  0.1842703298894547   T   T   T
 
  0.00000000E+00  0.00000000E+00  0.00000000E+00
  0.00000000E+00  0.00000000E+00  0.00000000E+00
  0.00000000E+00  0.00000000E+00  0.00000000E+00
  0.00000000E+00  0.00000000E+00  0.00000000E+00
  0.00000000E+00  0.00000000E+00  0.00000000E+00
  0.00000000E+00  0.00000000E+00  0.00000000E+00
  0.00000000E+00  0.00000000E+00  0.00000000E+00
  0.00000000E+00  0.00000000E+00  0.00000000E+00
  0.00000000E+00  0.00000000E+00  0.00000000E+00
  0.00000000E+00  0.00000000E+00  0.00000000E+00
  0.00000000E+00  0.00000000E+00  0.00000000E+00
  0.00000000E+00  0.00000000E+00  0.00000000E+00
  0.00000000E+00  0.00000000E+00  0.00000000E+00
  0.00000000E+00  0.00000000E+00  0.00000000E+00
  0.00000000E+00  0.00000000E+00  0.00000000E+00
  0.00000000E+00  0.00000000E+00  0.00000000E+00
  0.00000000E+00  0.00000000E+00  0.00000000E+00
  0.00000000E+00  0.00000000E+00  0.00000000E+00
  0.00000000E+00  0.00000000E+00  0.00000000E+00
  0.00000000E+00  0.00000000E+00  0.00000000E+00
  0.00000000E+00  0.00000000E+00  0.00000000E+00
  0.00000000E+00  0.00000000E+00  0.00000000E+00
  0.00000000E+00  0.00000000E+00  0.00000000E+00
  0.00000000E+00  0.00000000E+00  0.00000000E+00
  0.00000000E+00  0.00000000E+00  0.00000000E+00
  0.00000000E+00  0.00000000E+00  0.00000000E+00
  0.00000000E+00  0.00000000E+00  0.00000000E+00
  0.00000000E+00  0.00000000E+00  0.00000000E+00
  0.00000000E+00  0.00000000E+00  0.00000000E+00
  0.00000000E+00  0.00000000E+00  0.00000000E+00
  0.00000000E+00  0.00000000E+00  0.00000000E+00
  0.00000000E+00  0.00000000E+00  0.00000000E+00
