Title                                   
   1.00000000000000     
     4.9440799999999996    0.0000000000000000    0.0000000000000000
     0.0000000000000000   17.1295089999999988    0.0000000000000000
     0.0000000000000000    0.0000000000000000   20.0000000000000000
    25     5     1
Selective dynamics
Direct
  0.0020238104758151  0.1056239258984114  0.2967520964520289   T   T   T
  0.2507945961312079  0.1487177197261618  0.2973131170215372   T   T   T
  0.2506848469845124  0.2336545925876758  0.3000165395504508   T   T   T
 -0.0008554326685659  0.2753015539136042  0.3047068485434065   T   T   T
 -0.0070570610510879  0.6001673540915801  0.3045116056484590   T   T   T
  0.2473979112474169  0.7255566837128193  0.2974103030575753   T   T   T
  0.0003866868369642  0.8526580140454867  0.2963741265935469   T   T   T
  0.2495181042383216  0.8949437949079241  0.2959697340183050   T   T   T
  0.2503967307021887  0.9792410867688044  0.2957560457212752   T   T   T
 -0.0002665972573889  0.7680720885667934  0.2970612765870131   T   T   T
  0.5006817708248127  0.1060538171364603  0.2956618894548354   T   T   T
  0.7525096147196467  0.1475123740507556  0.2963052797988359   T   T   T
  0.7539763003546623  0.2314655777187806  0.2981153470151431   T   T   T
  0.5001588633178478  0.0215955595014519  0.2953570266177586   T   T   T
  0.7495594859795711  0.3947539578839226  0.3034907206810545   T   T   T
  0.7419310060982515  0.4817320081607606  0.3035000617179758   T   T   T
  0.5055654521129676  0.2732648594681136  0.2971432006935811   T   T   T
  0.4998002760323214  0.6017914496564851  0.2942245119357594   T   T   T
  0.7487140970584666  0.7273286028199935  0.2963748802206508   T   T   T
  0.4977889130506458  0.8524648604938174  0.2957593606030275   T   T   T
  0.7492260478539129  0.8945199844305886  0.2957916931179042   T   T   T
  0.7500832109786092  0.9790662814531280  0.2955637920770194   T   T   T
  0.4967731489604635  0.7677234939481200  0.2960632851185009   T   T   T
  0.7477073825721691  0.6441052944759756  0.2974757974288184   T   T   T
  0.0008475006923179  0.0213381519584212  0.2959898451568684   T   T   T
  0.5094793232825162  0.5223413060573090  0.2859583909694852   T   T   T
  0.9807240207295868  0.5213239666390810  0.3202323220237387   T   T   T
  0.5165274009702575  0.3534732026269385  0.2949302294446138   T   T   T
 -0.0119748018855528  0.3563384176335587  0.3168117327873220   T   T   T
  0.2455261365440163  0.6404940165769417  0.2989191126892897   T   T   T
  0.2813782541131276  0.4387180030901310  0.3255198272541724   T   T   T
 
  0.00000000E+00  0.00000000E+00  0.00000000E+00
  0.00000000E+00  0.00000000E+00  0.00000000E+00
  0.00000000E+00  0.00000000E+00  0.00000000E+00
  0.00000000E+00  0.00000000E+00  0.00000000E+00
  0.00000000E+00  0.00000000E+00  0.00000000E+00
  0.00000000E+00  0.00000000E+00  0.00000000E+00
  0.00000000E+00  0.00000000E+00  0.00000000E+00
  0.00000000E+00  0.00000000E+00  0.00000000E+00
  0.00000000E+00  0.00000000E+00  0.00000000E+00
  0.00000000E+00  0.00000000E+00  0.00000000E+00
  0.00000000E+00  0.00000000E+00  0.00000000E+00
  0.00000000E+00  0.00000000E+00  0.00000000E+00
  0.00000000E+00  0.00000000E+00  0.00000000E+00
  0.00000000E+00  0.00000000E+00  0.00000000E+00
  0.00000000E+00  0.00000000E+00  0.00000000E+00
  0.00000000E+00  0.00000000E+00  0.00000000E+00
  0.00000000E+00  0.00000000E+00  0.00000000E+00
  0.00000000E+00  0.00000000E+00  0.00000000E+00
  0.00000000E+00  0.00000000E+00  0.00000000E+00
  0.00000000E+00  0.00000000E+00  0.00000000E+00
  0.00000000E+00  0.00000000E+00  0.00000000E+00
  0.00000000E+00  0.00000000E+00  0.00000000E+00
  0.00000000E+00  0.00000000E+00  0.00000000E+00
  0.00000000E+00  0.00000000E+00  0.00000000E+00
  0.00000000E+00  0.00000000E+00  0.00000000E+00
  0.00000000E+00  0.00000000E+00  0.00000000E+00
  0.00000000E+00  0.00000000E+00  0.00000000E+00
  0.00000000E+00  0.00000000E+00  0.00000000E+00
  0.00000000E+00  0.00000000E+00  0.00000000E+00
  0.00000000E+00  0.00000000E+00  0.00000000E+00
  0.00000000E+00  0.00000000E+00  0.00000000E+00
