Title                                   
   1.00000000000000     
     9.8694509999999998    0.0000000000000000    0.0000000000000000
     0.0000000000000000    8.5490480000000009    0.0000000000000000
     0.0000000000000000    0.0000000000000000   20.0000000000000000
    27     3     1
Selective dynamics
Direct
  0.0560440913660261  0.0899415855197681  0.0934995307517208   T   T   T
  0.9314179072821593  0.1727031994825632  0.0938810678699826   T   T   T
  0.0562389453596950  0.9242442696089940  0.0934560757839719   T   T   T
  0.9345572126416419  0.3393449816315713  0.0939192746440575   T   T   T
  0.0567646891641228  0.5895566889068292  0.0933956487821426   T   T   T
  0.9350066193808456  0.6754316666385707  0.0938156332383210   T   T   T
  0.0571581032219061  0.4231333948466624  0.0934185655077812   T   T   T
  0.9324656273932580  0.8414894493606878  0.0938315064165932   T   T   T
  0.3050351185839039  0.0898111025990205  0.0947331281472983   T   T   T
  0.1800673548954118  0.1720827536905640  0.0939009158579967   T   T   T
  0.3048070764790855  0.9227015756941451  0.0946865799602464   T   T   T
  0.1792909741149726  0.3390784180933571  0.0938724492094880   T   T   T
  0.3017006069950747  0.5922459516697837  0.0949551136453816   T   T   T
  0.1785110461637334  0.6736305299327580  0.0938421811836201   T   T   T
  0.3024529009112371  0.4200346040036702  0.0949807841308478   T   T   T
  0.1800934922292064  0.8407403318038286  0.0938500079690259   T   T   T
  0.5553429747385528  0.0887812894631855  0.0960084454359392   T   T   T
  0.4282582031897281  0.1757209964544886  0.0957520497838984   T   T   T
  0.5555398111656864  0.9181735522313070  0.0959741669457717   T   T   T
  0.4272442340490136  0.8342421636452039  0.0956639611859461   T   T   T
  0.8060749436816017  0.0900714694793304  0.0947239922942643   T   T   T
  0.6819179113020353  0.1755430022710444  0.0958467153835219   T   T   T
  0.8067209514120640  0.9223637407325173  0.0946840211217690   T   T   T
  0.6900997214075679  0.3412415363419460  0.0964534441113114   T   T   T
  0.8131723167600429  0.5938434001081162  0.0950705575493095   T   T   T
  0.8126110080386885  0.4232542626381797  0.0951529409735659   T   T   T
  0.6843113304582987  0.8338649561603459  0.0957481928528230   T   T   T
  0.4210074876710975  0.3372397864713584  0.0961590373781529   T   T   T
  0.6937773767114104  0.6727700878846737  0.0962887827974609   T   T   T
  0.4190117842075395  0.6749898115934150  0.0960356974528431   T   T   T
  0.5564331790244024  0.5026044410421258  0.0973645316349880   T   T   T
 
  0.00000000E+00  0.00000000E+00  0.00000000E+00
  0.00000000E+00  0.00000000E+00  0.00000000E+00
  0.00000000E+00  0.00000000E+00  0.00000000E+00
  0.00000000E+00  0.00000000E+00  0.00000000E+00
  0.00000000E+00  0.00000000E+00  0.00000000E+00
  0.00000000E+00  0.00000000E+00  0.00000000E+00
  0.00000000E+00  0.00000000E+00  0.00000000E+00
  0.00000000E+00  0.00000000E+00  0.00000000E+00
  0.00000000E+00  0.00000000E+00  0.00000000E+00
  0.00000000E+00  0.00000000E+00  0.00000000E+00
  0.00000000E+00  0.00000000E+00  0.00000000E+00
  0.00000000E+00  0.00000000E+00  0.00000000E+00
  0.00000000E+00  0.00000000E+00  0.00000000E+00
  0.00000000E+00  0.00000000E+00  0.00000000E+00
  0.00000000E+00  0.00000000E+00  0.00000000E+00
  0.00000000E+00  0.00000000E+00  0.00000000E+00
  0.00000000E+00  0.00000000E+00  0.00000000E+00
  0.00000000E+00  0.00000000E+00  0.00000000E+00
  0.00000000E+00  0.00000000E+00  0.00000000E+00
  0.00000000E+00  0.00000000E+00  0.00000000E+00
  0.00000000E+00  0.00000000E+00  0.00000000E+00
  0.00000000E+00  0.00000000E+00  0.00000000E+00
  0.00000000E+00  0.00000000E+00  0.00000000E+00
  0.00000000E+00  0.00000000E+00  0.00000000E+00
  0.00000000E+00  0.00000000E+00  0.00000000E+00
  0.00000000E+00  0.00000000E+00  0.00000000E+00
  0.00000000E+00  0.00000000E+00  0.00000000E+00
  0.00000000E+00  0.00000000E+00  0.00000000E+00
  0.00000000E+00  0.00000000E+00  0.00000000E+00
  0.00000000E+00  0.00000000E+00  0.00000000E+00
  0.00000000E+00  0.00000000E+00  0.00000000E+00
