Title                                   
   1.00000000000000     
     8.5490480000000009    0.0000000000000000    0.0000000000000000
     0.0000000000000000    8.5490480000000009    0.0000000000000000
     0.0000000000000000    0.0000000000000000   20.0000000000000000
    19     5     1
Selective dynamics
Direct
  0.9093650526719805  0.2051392370020819  0.0974385083720607   T   T   T
  0.9111963511181399  0.8005433761827221  0.0975017485727785   T   T   T
  0.2010675989865460  0.0834790293032158  0.0977228419139211   T   T   T
  0.0762273888369783  0.2042125559966893  0.0975856224505603   T   T   T
  0.1551801251392537  0.6495494588265731  0.0977548041761785   T   T   T
  0.0716872132244654  0.5011441611989536  0.0977321826832805   T   T   T
  0.1535138904324500  0.3553177332103294  0.0977249538910223   T   T   T
  0.0792475172273142  0.7991420399507924  0.0976389881384926   T   T   T
  0.3483069112776661  0.1667499850595376  0.0978726753004839   T   T   T
  0.4943818084205726  0.9175176217346701  0.0978178605811552   T   T   T
  0.3479024359800751  0.8346414576257140  0.0979680757146632   T   T   T
  0.7891572202161217  0.0854792919048497  0.0973827263062482   T   T   T
  0.6425762703678048  0.1663570012119070  0.0976900094635046   T   T   T
  0.7908318435755275  0.9183773514903181  0.0974354745696079   T   T   T
  0.8257809504541205  0.6517791626267576  0.0977302533350676   T   T   T
  0.8237164929015532  0.3531255110365727  0.0977054840114636   T   T   T
  0.6431962343227863  0.8373886733127612  0.0977052094163920   T   T   T
  0.3256226284608081  0.3368683713532502  0.0978864092539594   T   T   T
  0.3241932835952930  0.6679578809031335  0.0979422890726532   T   T   T
  0.4963057226818832  0.0876255146319253  0.0978612149934738   T   T   T
  0.9007873031417638  0.5019515788531724  0.0977569731351259   T   T   T
  0.6638173787401718  0.3288192514418327  0.0979249639201113   T   T   T
  0.6663564202861274  0.6746162824457342  0.0979433819323182   T   T   T
  0.1978054617571803  0.9171382438238751  0.0978485491979339   T   T   T
  0.4871884961834096  0.4998692288726514  0.0981337995975164   T   T   T
 
  0.00000000E+00  0.00000000E+00  0.00000000E+00
  0.00000000E+00  0.00000000E+00  0.00000000E+00
  0.00000000E+00  0.00000000E+00  0.00000000E+00
  0.00000000E+00  0.00000000E+00  0.00000000E+00
  0.00000000E+00  0.00000000E+00  0.00000000E+00
  0.00000000E+00  0.00000000E+00  0.00000000E+00
  0.00000000E+00  0.00000000E+00  0.00000000E+00
  0.00000000E+00  0.00000000E+00  0.00000000E+00
  0.00000000E+00  0.00000000E+00  0.00000000E+00
  0.00000000E+00  0.00000000E+00  0.00000000E+00
  0.00000000E+00  0.00000000E+00  0.00000000E+00
  0.00000000E+00  0.00000000E+00  0.00000000E+00
  0.00000000E+00  0.00000000E+00  0.00000000E+00
  0.00000000E+00  0.00000000E+00  0.00000000E+00
  0.00000000E+00  0.00000000E+00  0.00000000E+00
  0.00000000E+00  0.00000000E+00  0.00000000E+00
  0.00000000E+00  0.00000000E+00  0.00000000E+00
  0.00000000E+00  0.00000000E+00  0.00000000E+00
  0.00000000E+00  0.00000000E+00  0.00000000E+00
  0.00000000E+00  0.00000000E+00  0.00000000E+00
  0.00000000E+00  0.00000000E+00  0.00000000E+00
  0.00000000E+00  0.00000000E+00  0.00000000E+00
  0.00000000E+00  0.00000000E+00  0.00000000E+00
  0.00000000E+00  0.00000000E+00  0.00000000E+00
  0.00000000E+00  0.00000000E+00  0.00000000E+00
