Title                                   
   1.00000000000000     
     4.9440799999999996    0.0000000000000000    0.0000000000000000
     0.0000000000000000   17.1295089999999988    0.0000000000000000
     0.0000000000000000    0.0000000000000000   20.0000000000000000
    28     3     1
Selective dynamics
Direct
 -0.0001461142879044  0.1044684338750786  0.2825483466855844   T   T   T
  0.2498775689318901  0.1462639699624374  0.2864644948270403   T   T   T
  0.2498720986654571  0.2291320453670715  0.2968787260978946   T   T   T
  0.0006390206800559  0.3515615098895640  0.3190399173277479   T   T   T
 -0.0011344975753174  0.2704631826907768  0.3022248639659673   T   T   T
 -0.0042047078755924  0.6052178322471493  0.3120544114823866   T   T   T
  0.2500443600729533  0.7277209158447144  0.2926994573165104   T   T   T
  0.0003969128154062  0.8532069797498149  0.2800921346191774   T   T   T
  0.2499271279131679  0.8953382609208078  0.2785120155751355   T   T   T
  0.2499331868673335  0.9790136600145325  0.2775090002296416   T   T   T
  0.0007659032971162  0.7698018173729417  0.2863769007407473   T   T   T
  0.4999481692393186  0.1044648645917046  0.2825582833928594   T   T   T
  0.7498511937158887  0.1464127765247662  0.2854985964816191   T   T   T
  0.7498463021872395  0.2292072253551083  0.2945329242682365   T   T   T
  0.5000394758484713  0.0209448863655195  0.2781815946675315   T   T   T
  0.4990771653484595  0.3515849650642499  0.3191112062376137   T   T   T
  0.7498314267516452  0.3977076219866261  0.3238580313993462   T   T   T
  0.7498783264993266  0.4834850403367146  0.3280542788922089   T   T   T
  0.5008021317165354  0.2704614376306821  0.3022317148489795   T   T   T
  0.5043945487913095  0.6052538362280201  0.3125374872440245   T   T   T
  0.7499899422135278  0.7285700399310094  0.2894000894721225   T   T   T
  0.4994781051374812  0.8532229527402221  0.2801203403762427   T   T   T
  0.7499537161642523  0.8951013394122928  0.2779795151412601   T   T   T
  0.7499525070291054  0.9788173244354964  0.2771140900958228   T   T   T
  0.4992425622924379  0.7698425784369739  0.2864457985724204   T   T   T
  0.7500098211571475  0.6463768604861881  0.3009896303304182   T   T   T
  0.2501056983187128  0.6451468925698437  0.3068530110133890   T   T   T
 -0.0002063045854504  0.0209416658352286  0.2781757916197967   T   T   T
  0.5178174172216903  0.5277264661368098  0.3314929574471507   T   T   T
  0.9827033106680221  0.5275204435753523  0.3301625084326810   T   T   T
  0.2498664527248372  0.3843506426239469  0.3346937621207444   T   T   T
  0.2482701720554811  0.4792225317983451  0.3881731190776518   T   T   T
 
  0.00000000E+00  0.00000000E+00  0.00000000E+00
  0.00000000E+00  0.00000000E+00  0.00000000E+00
  0.00000000E+00  0.00000000E+00  0.00000000E+00
  0.00000000E+00  0.00000000E+00  0.00000000E+00
  0.00000000E+00  0.00000000E+00  0.00000000E+00
  0.00000000E+00  0.00000000E+00  0.00000000E+00
  0.00000000E+00  0.00000000E+00  0.00000000E+00
  0.00000000E+00  0.00000000E+00  0.00000000E+00
  0.00000000E+00  0.00000000E+00  0.00000000E+00
  0.00000000E+00  0.00000000E+00  0.00000000E+00
  0.00000000E+00  0.00000000E+00  0.00000000E+00
  0.00000000E+00  0.00000000E+00  0.00000000E+00
  0.00000000E+00  0.00000000E+00  0.00000000E+00
  0.00000000E+00  0.00000000E+00  0.00000000E+00
  0.00000000E+00  0.00000000E+00  0.00000000E+00
  0.00000000E+00  0.00000000E+00  0.00000000E+00
  0.00000000E+00  0.00000000E+00  0.00000000E+00
  0.00000000E+00  0.00000000E+00  0.00000000E+00
  0.00000000E+00  0.00000000E+00  0.00000000E+00
  0.00000000E+00  0.00000000E+00  0.00000000E+00
  0.00000000E+00  0.00000000E+00  0.00000000E+00
  0.00000000E+00  0.00000000E+00  0.00000000E+00
  0.00000000E+00  0.00000000E+00  0.00000000E+00
  0.00000000E+00  0.00000000E+00  0.00000000E+00
  0.00000000E+00  0.00000000E+00  0.00000000E+00
  0.00000000E+00  0.00000000E+00  0.00000000E+00
  0.00000000E+00  0.00000000E+00  0.00000000E+00
  0.00000000E+00  0.00000000E+00  0.00000000E+00
  0.00000000E+00  0.00000000E+00  0.00000000E+00
  0.00000000E+00  0.00000000E+00  0.00000000E+00
  0.00000000E+00  0.00000000E+00  0.00000000E+00
  0.00000000E+00  0.00000000E+00  0.00000000E+00
