Title                                   
   1.00000000000000     
     9.8694509999999998    0.0000000000000000    0.0000000000000000
     0.0000000000000000    8.5490480000000009    0.0000000000000000
     0.0000000000000000    0.0000000000000000   20.0000000000000000
    31     1
Selective dynamics
Direct
  0.0562376347057148  0.0895493880178592  0.0819405105373843   T   T   T
  0.9313956421383109  0.1727366440725032  0.0842197878040937   T   T   T
  0.0562448045766710  0.9226938613730011  0.0815317192844295   T   T   T
  0.9311608966234296  0.3390484375725685  0.0856467623933368   T   T   T
  0.0562374009445390  0.5886187937400285  0.0812236364149646   T   T   T
  0.9324535512308879  0.6722034885374701  0.0843445675235294   T   T   T
  0.0562300921430332  0.4222115351843620  0.0826958941187681   T   T   T
  0.9315421585943644  0.8394774760095393  0.0841354239855404   T   T   T
  0.3056854479452787  0.0896241458332643  0.0883391961498339   T   T   T
  0.1810892050602011  0.1727578149603000  0.0841740180855295   T   T   T
  0.3051329181362497  0.9237144836596415  0.0894890899174732   T   T   T
  0.1812784116229741  0.3390668468313237  0.0856071759697685   T   T   T
  0.3014691775734870  0.5888691217734915  0.0963065708844310   T   T   T
  0.1800451191127133  0.6721928059737383  0.0842661258288944   T   T   T
  0.3051517562014605  0.4217973018734407  0.0955450981833578   T   T   T
  0.1809415025723438  0.8394615876281631  0.0840549618181966   T   T   T
  0.5562466838885674  0.0879846776571628  0.0977775849771163   T   T   T
  0.4304679716151412  0.1711843223527843  0.0956395058367265   T   T   T
  0.5562496335724278  0.9219194299599477  0.1015140084907781   T   T   T
  0.4296105688830800  0.3364119468445284  0.1030632559152741   T   T   T
  0.4175827183365287  0.6776524507141272  0.1135882427954455   T   T   T
  0.5562124385187792  0.4101789611211655  0.1184578924110254   T   T   T
  0.4282441200787944  0.8412576337301602  0.1014351635424687   T   T   T
  0.8067826598110263  0.0896258663314922  0.0884058310281111   T   T   T
  0.6819852057002338  0.1711893020256662  0.0956825538083785   T   T   T
  0.8073616491030048  0.9237268850445614  0.0896015880703277   T   T   T
  0.6828569159756011  0.3364070443046579  0.1031260038031225   T   T   T
  0.8110661970277494  0.5888457658493326  0.0964412979326194   T   T   T
  0.6950057236834695  0.6776608442846569  0.1137800223958220   T   T   T
  0.8073171999535904  0.4217886485341342  0.0956321519607544   T   T   T
  0.6842688747792451  0.8412310228032118  0.1015516672959355   T   T   T
  0.5560847198911090  0.5991574654017255  0.1764576908365973   T   T   T
 
  0.00000000E+00  0.00000000E+00  0.00000000E+00
  0.00000000E+00  0.00000000E+00  0.00000000E+00
  0.00000000E+00  0.00000000E+00  0.00000000E+00
  0.00000000E+00  0.00000000E+00  0.00000000E+00
  0.00000000E+00  0.00000000E+00  0.00000000E+00
  0.00000000E+00  0.00000000E+00  0.00000000E+00
  0.00000000E+00  0.00000000E+00  0.00000000E+00
  0.00000000E+00  0.00000000E+00  0.00000000E+00
  0.00000000E+00  0.00000000E+00  0.00000000E+00
  0.00000000E+00  0.00000000E+00  0.00000000E+00
  0.00000000E+00  0.00000000E+00  0.00000000E+00
  0.00000000E+00  0.00000000E+00  0.00000000E+00
  0.00000000E+00  0.00000000E+00  0.00000000E+00
  0.00000000E+00  0.00000000E+00  0.00000000E+00
  0.00000000E+00  0.00000000E+00  0.00000000E+00
  0.00000000E+00  0.00000000E+00  0.00000000E+00
  0.00000000E+00  0.00000000E+00  0.00000000E+00
  0.00000000E+00  0.00000000E+00  0.00000000E+00
  0.00000000E+00  0.00000000E+00  0.00000000E+00
  0.00000000E+00  0.00000000E+00  0.00000000E+00
  0.00000000E+00  0.00000000E+00  0.00000000E+00
  0.00000000E+00  0.00000000E+00  0.00000000E+00
  0.00000000E+00  0.00000000E+00  0.00000000E+00
  0.00000000E+00  0.00000000E+00  0.00000000E+00
  0.00000000E+00  0.00000000E+00  0.00000000E+00
  0.00000000E+00  0.00000000E+00  0.00000000E+00
  0.00000000E+00  0.00000000E+00  0.00000000E+00
  0.00000000E+00  0.00000000E+00  0.00000000E+00
  0.00000000E+00  0.00000000E+00  0.00000000E+00
  0.00000000E+00  0.00000000E+00  0.00000000E+00
  0.00000000E+00  0.00000000E+00  0.00000000E+00
  0.00000000E+00  0.00000000E+00  0.00000000E+00
