Title                                   
   1.00000000000000     
     9.8694509999999998    0.0000000000000000    0.0000000000000000
     0.0000000000000000    8.5490480000000009    0.0000000000000000
     0.0000000000000000    0.0000000000000000   20.0000000000000000
    25     6     1
Selective dynamics
Direct
  0.0547047441493336  0.0939060217839931  0.0901567429671537   T   T   T
  0.9280294768956162  0.1762785774194913  0.0901541044435234   T   T   T
  0.0546848249186635  0.9253903783131782  0.0900743285924255   T   T   T
  0.9269048813946601  0.3429995582684477  0.0901414079596467   T   T   T
  0.0547480824391454  0.5911069975674194  0.0899167810649760   T   T   T
  0.9302415183535726  0.6727162653330129  0.0899003502988375   T   T   T
  0.0547566747436874  0.4239473061447037  0.0900165909379260   T   T   T
  0.9298868826288245  0.8402099301656372  0.0899642511839266   T   T   T
  0.3041385683910377  0.0889479179072862  0.0903313844445918   T   T   T
  0.1813806419060020  0.1762616793231656  0.0902031809696227   T   T   T
  0.3045739121980346  0.9235691377459444  0.0902183040336119   T   T   T
  0.1825495693267624  0.3429757704598678  0.0901017859889066   T   T   T
  0.3082852435217218  0.5958308463256362  0.0899749458598745   T   T   T
  0.1792187254041664  0.6726990952118226  0.0899188985129457   T   T   T
  0.1794657174362134  0.8401801778887368  0.0900668852806301   T   T   T
  0.5547024646029541  0.0827269112734554  0.0902686616652687   T   T   T
  0.4305259890047840  0.1686368488988878  0.0903459713199701   T   T   T
  0.4369298723689430  0.3363607329406591  0.0903401701878081   T   T   T
  0.4260609084087695  0.8327155725180938  0.0900884182753638   T   T   T
  0.8052591572620812  0.0889854447709233  0.0901386245640910   T   T   T
  0.6788920698144009  0.1686201913680418  0.0901963887951029   T   T   T
  0.8047850575175587  0.9236147451461768  0.0900265269649502   T   T   T
  0.6724780958499312  0.3363618567454794  0.0902830159646805   T   T   T
  0.8011650306641119  0.5958238130573733  0.0900809680858495   T   T   T
  0.6833039423422591  0.8327497201872930  0.0901288792070121   T   T   T
  0.4234628089088997  0.6767144092048384  0.0899296510938773   T   T   T
  0.5547091671342975  0.4123950312414975  0.0904416265795723   T   T   T
  0.6860298485283700  0.6767657375086557  0.0902903145680203   T   T   T
  0.5546870779655315  0.9142483736397474  0.0902141280638469   T   T   T
  0.3106282740405607  0.4258467762330533  0.0901580369732338   T   T   T
  0.7987952704807901  0.4258259084890955  0.0902820367227017   T   T   T
  0.6036545013983228  0.5848342669183906  0.2913216384300679   T   T   T
 
  0.00000000E+00  0.00000000E+00  0.00000000E+00
  0.00000000E+00  0.00000000E+00  0.00000000E+00
  0.00000000E+00  0.00000000E+00  0.00000000E+00
  0.00000000E+00  0.00000000E+00  0.00000000E+00
  0.00000000E+00  0.00000000E+00  0.00000000E+00
  0.00000000E+00  0.00000000E+00  0.00000000E+00
  0.00000000E+00  0.00000000E+00  0.00000000E+00
  0.00000000E+00  0.00000000E+00  0.00000000E+00
  0.00000000E+00  0.00000000E+00  0.00000000E+00
  0.00000000E+00  0.00000000E+00  0.00000000E+00
  0.00000000E+00  0.00000000E+00  0.00000000E+00
  0.00000000E+00  0.00000000E+00  0.00000000E+00
  0.00000000E+00  0.00000000E+00  0.00000000E+00
  0.00000000E+00  0.00000000E+00  0.00000000E+00
  0.00000000E+00  0.00000000E+00  0.00000000E+00
  0.00000000E+00  0.00000000E+00  0.00000000E+00
  0.00000000E+00  0.00000000E+00  0.00000000E+00
  0.00000000E+00  0.00000000E+00  0.00000000E+00
  0.00000000E+00  0.00000000E+00  0.00000000E+00
  0.00000000E+00  0.00000000E+00  0.00000000E+00
  0.00000000E+00  0.00000000E+00  0.00000000E+00
  0.00000000E+00  0.00000000E+00  0.00000000E+00
  0.00000000E+00  0.00000000E+00  0.00000000E+00
  0.00000000E+00  0.00000000E+00  0.00000000E+00
  0.00000000E+00  0.00000000E+00  0.00000000E+00
  0.00000000E+00  0.00000000E+00  0.00000000E+00
  0.00000000E+00  0.00000000E+00  0.00000000E+00
  0.00000000E+00  0.00000000E+00  0.00000000E+00
  0.00000000E+00  0.00000000E+00  0.00000000E+00
  0.00000000E+00  0.00000000E+00  0.00000000E+00
  0.00000000E+00  0.00000000E+00  0.00000000E+00
  0.00000000E+00  0.00000000E+00  0.00000000E+00
