Title                                   
   1.00000000000000     
     4.9440799999999996    0.0000000000000000    0.0000000000000000
     0.0000000000000000   17.1295089999999988    0.0000000000000000
     0.0000000000000000    0.0000000000000000   20.0000000000000000
    28     2     1
Selective dynamics
Direct
 -0.0094896296920739  0.1057529338801564  0.2943448592456294   T   T   T
  0.2383329856044371  0.1482904220588970  0.2955248571968239   T   T   T
  0.2330999674221500  0.2321845284154865  0.2993537588557216   T   T   T
 -0.0194203261878875  0.2737871708492335  0.3031560795573029   T   T   T
  0.0197906153376423  0.6003952241048270  0.2981324453101265   T   T   T
  0.2623886294223197  0.7266241698552726  0.2959743085815833   T   T   T
  0.0049185719607085  0.8531378253402895  0.2931775759197221   T   T   T
  0.2530361358725737  0.8954541449929123  0.2932358748808047   T   T   T
  0.2475290500890166  0.9794735108887979  0.2930887711715877   T   T   T
  0.0103592173067917  0.7690002190388567  0.2940126268112742   T   T   T
  0.4903212047564970  0.1059100443802414  0.2936278008843000   T   T   T
  0.7390358149713097  0.1478702841308652  0.2942799216413886   T   T   T
  0.7328069614399632  0.2319838169437436  0.2968370336647445   T   T   T
  0.4956601621741549  0.0217950829542423  0.2929266609550570   T   T   T
  0.7398025351904836  0.3945554195742619  0.3074530295942871   T   T   T
  0.7611764791368335  0.4803704284649550  0.3075694732749285   T   T   T
  0.4809773635888820  0.2746031471638637  0.2980467916551667   T   T   T
  0.5202570917645356  0.6010675134957230  0.3036609651382025   T   T   T
  0.7615797034927863  0.7270692144917297  0.2947013739342513   T   T   T
  0.5046931913924211  0.8532148773421218  0.2935186865875813   T   T   T
  0.7530623002504863  0.8953753368318386  0.2929184878253779   T   T   T
  0.7474525879913314  0.9795467858333514  0.2927781246687722   T   T   T
  0.5101225842635210  0.7691829715918164  0.2948433631104175   T   T   T
  0.7678379748172516  0.6429554733903785  0.2971757438649111   T   T   T
  0.2677491213692361  0.6427321867037903  0.2997185509703437   T   T   T
 -0.0041421257603485  0.0217041124958914  0.2932080046222243   T   T   T
  0.0105138418406679  0.5168179118671898  0.2996041991198786   T   T   T
  0.4901569099794613  0.3582033283195092  0.2999174574524860   T   T   T
  0.5256631888982777  0.5217025407598020  0.3159839170625515   T   T   T
 -0.0246954077971017  0.3531449121016302  0.3153585396544877   T   T   T
  0.2494302991036737  0.4374364617383238  0.3409307167880162   T   T   T
 
  0.00000000E+00  0.00000000E+00  0.00000000E+00
  0.00000000E+00  0.00000000E+00  0.00000000E+00
  0.00000000E+00  0.00000000E+00  0.00000000E+00
  0.00000000E+00  0.00000000E+00  0.00000000E+00
  0.00000000E+00  0.00000000E+00  0.00000000E+00
  0.00000000E+00  0.00000000E+00  0.00000000E+00
  0.00000000E+00  0.00000000E+00  0.00000000E+00
  0.00000000E+00  0.00000000E+00  0.00000000E+00
  0.00000000E+00  0.00000000E+00  0.00000000E+00
  0.00000000E+00  0.00000000E+00  0.00000000E+00
  0.00000000E+00  0.00000000E+00  0.00000000E+00
  0.00000000E+00  0.00000000E+00  0.00000000E+00
  0.00000000E+00  0.00000000E+00  0.00000000E+00
  0.00000000E+00  0.00000000E+00  0.00000000E+00
  0.00000000E+00  0.00000000E+00  0.00000000E+00
  0.00000000E+00  0.00000000E+00  0.00000000E+00
  0.00000000E+00  0.00000000E+00  0.00000000E+00
  0.00000000E+00  0.00000000E+00  0.00000000E+00
  0.00000000E+00  0.00000000E+00  0.00000000E+00
  0.00000000E+00  0.00000000E+00  0.00000000E+00
  0.00000000E+00  0.00000000E+00  0.00000000E+00
  0.00000000E+00  0.00000000E+00  0.00000000E+00
  0.00000000E+00  0.00000000E+00  0.00000000E+00
  0.00000000E+00  0.00000000E+00  0.00000000E+00
  0.00000000E+00  0.00000000E+00  0.00000000E+00
  0.00000000E+00  0.00000000E+00  0.00000000E+00
  0.00000000E+00  0.00000000E+00  0.00000000E+00
  0.00000000E+00  0.00000000E+00  0.00000000E+00
  0.00000000E+00  0.00000000E+00  0.00000000E+00
  0.00000000E+00  0.00000000E+00  0.00000000E+00
  0.00000000E+00  0.00000000E+00  0.00000000E+00
