Title                                   
   1.00000000000000     
     9.8694509999999998    0.0000000000000000    0.0000000000000000
     0.0000000000000000    8.5490480000000009    0.0000000000000000
     0.0000000000000000    0.0000000000000000   20.0000000000000000
    25     5     1
Selective dynamics
Direct
  0.0552124882851839  0.0890322059303356  0.0849061471937169   T   T   T
  0.9305427125287890  0.1711822082475393  0.0871275386411548   T   T   T
  0.0569348388439979  0.9212391703610784  0.0858071882878552   T   T   T
  0.9336865790633425  0.3387399253009575  0.0871193997655957   T   T   T
  0.0567152605093967  0.5905468491746371  0.0828317190874343   T   T   T
  0.0567916230620215  0.4236839786148699  0.0817722277351842   T   T   T
  0.9316565639312083  0.8385486913656124  0.0883574258467576   T   T   T
  0.3069578520599341  0.0887825853517915  0.0894964937197170   T   T   T
  0.1807382458772474  0.1714629319935633  0.0848966722134631   T   T   T
  0.1806465118157953  0.3392194585114646  0.0827083746028828   T   T   T
  0.3031835964025141  0.5898090311680250  0.0892026302826684   T   T   T
  0.1802340103206806  0.6738558588584294  0.0838406848685112   T   T   T
  0.3039917440133710  0.4214926638534119  0.0891099836207657   T   T   T
  0.1815094281657177  0.8404948084698451  0.0862807598300902   T   T   T
  0.4285393882555194  0.1743538934995892  0.0974624347244452   T   T   T
  0.5531087059941945  0.9216397457621514  0.1021726146960715   T   T   T
  0.4278647342089484  0.8384237019383213  0.0987140972341603   T   T   T
  0.8042793967917113  0.0888766362826297  0.0921104974603539   T   T   T
  0.6812881863436154  0.1762375857267398  0.1015017982539357   T   T   T
  0.8052631473149526  0.9204584205724095  0.0927758804034528   T   T   T
  0.6899709424307034  0.3411827626802912  0.1127847278491319   T   T   T
  0.8152057766082147  0.5913319161879277  0.1004353499229703   T   T   T
  0.6920735825232407  0.6717240595279689  0.1139656031856267   T   T   T
  0.8149836647433337  0.4219213791101436  0.0992496381355875   T   T   T
  0.6808142436248373  0.8377132273401247  0.1028390639375358   T   T   T
  0.9342111781110356  0.6725915458202104  0.0886815132416953   T   T   T
  0.5544123145762559  0.0937583565939180  0.1016575279197149   T   T   T
  0.4222319665820729  0.3361330783817147  0.1027740856707614   T   T   T
  0.4200559183167231  0.6768136719003242  0.1038660581659765   T   T   T
  0.3055034785237612  0.9224926402023921  0.0898268133666524   T   T   T
  0.5545269201716971  0.5071320112715890  0.1366900501361791   T   T   T
 
  0.00000000E+00  0.00000000E+00  0.00000000E+00
  0.00000000E+00  0.00000000E+00  0.00000000E+00
  0.00000000E+00  0.00000000E+00  0.00000000E+00
  0.00000000E+00  0.00000000E+00  0.00000000E+00
  0.00000000E+00  0.00000000E+00  0.00000000E+00
  0.00000000E+00  0.00000000E+00  0.00000000E+00
  0.00000000E+00  0.00000000E+00  0.00000000E+00
  0.00000000E+00  0.00000000E+00  0.00000000E+00
  0.00000000E+00  0.00000000E+00  0.00000000E+00
  0.00000000E+00  0.00000000E+00  0.00000000E+00
  0.00000000E+00  0.00000000E+00  0.00000000E+00
  0.00000000E+00  0.00000000E+00  0.00000000E+00
  0.00000000E+00  0.00000000E+00  0.00000000E+00
  0.00000000E+00  0.00000000E+00  0.00000000E+00
  0.00000000E+00  0.00000000E+00  0.00000000E+00
  0.00000000E+00  0.00000000E+00  0.00000000E+00
  0.00000000E+00  0.00000000E+00  0.00000000E+00
  0.00000000E+00  0.00000000E+00  0.00000000E+00
  0.00000000E+00  0.00000000E+00  0.00000000E+00
  0.00000000E+00  0.00000000E+00  0.00000000E+00
  0.00000000E+00  0.00000000E+00  0.00000000E+00
  0.00000000E+00  0.00000000E+00  0.00000000E+00
  0.00000000E+00  0.00000000E+00  0.00000000E+00
  0.00000000E+00  0.00000000E+00  0.00000000E+00
  0.00000000E+00  0.00000000E+00  0.00000000E+00
  0.00000000E+00  0.00000000E+00  0.00000000E+00
  0.00000000E+00  0.00000000E+00  0.00000000E+00
  0.00000000E+00  0.00000000E+00  0.00000000E+00
  0.00000000E+00  0.00000000E+00  0.00000000E+00
  0.00000000E+00  0.00000000E+00  0.00000000E+00
  0.00000000E+00  0.00000000E+00  0.00000000E+00
