Title                                   
   1.00000000000000     
     4.9440799999999996    0.0000000000000000    0.0000000000000000
     0.0000000000000000    8.5647549999999999    0.0000000000000000
     0.0000000000000000    0.0000000000000000   20.0000000000000000
    13     1     1
Selective dynamics
Direct
  0.0023982006169886  0.2935034649604045  0.0957253144802634   T   T   T
  0.2500000000000000  0.0430923669502243  0.0954322033610739   T   T   T
  0.0016346583554290  0.9573691007649267  0.0961734773120281   T   T   T
  0.7500000000000000  0.2079324036243351  0.0936836004505950   T   T   T
  0.4976017993830114  0.2935034649604045  0.0957253144802634   T   T   T
  0.7500000000000000  0.0407349801234710  0.0939847617726679   T   T   T
  0.7500000000000000  0.7093358120696085  0.1019820511210229   T   T   T
  0.7500000000000000  0.5378148458552903  0.1018152941741740   T   T   T
  0.4983653416445709  0.9573691007649267  0.0961734773120281   T   T   T
  0.4962265161350766  0.4583671212279044  0.1009310988461255   T   T   T
  0.0037734838649234  0.4583671212279044  0.1009310988461255   T   T   T
  0.0026985237748467  0.7900239990703626  0.1015740632556543   T   T   T
  0.4973014762251534  0.7900239990703626  0.1015740632556543   T   T   T
  0.2500000000000000  0.2080799520036763  0.0949616852543259   T   T   T
  0.2500000000000000  0.6261632673262015  0.1373124960780014   T   T   T
 
  0.00000000E+00  0.00000000E+00  0.00000000E+00
  0.00000000E+00  0.00000000E+00  0.00000000E+00
  0.00000000E+00  0.00000000E+00  0.00000000E+00
  0.00000000E+00  0.00000000E+00  0.00000000E+00
  0.00000000E+00  0.00000000E+00  0.00000000E+00
  0.00000000E+00  0.00000000E+00  0.00000000E+00
  0.00000000E+00  0.00000000E+00  0.00000000E+00
  0.00000000E+00  0.00000000E+00  0.00000000E+00
  0.00000000E+00  0.00000000E+00  0.00000000E+00
  0.00000000E+00  0.00000000E+00  0.00000000E+00
  0.00000000E+00  0.00000000E+00  0.00000000E+00
  0.00000000E+00  0.00000000E+00  0.00000000E+00
  0.00000000E+00  0.00000000E+00  0.00000000E+00
  0.00000000E+00  0.00000000E+00  0.00000000E+00
  0.00000000E+00  0.00000000E+00  0.00000000E+00
