Title                                   
   1.00000000000000     
     8.5490480000000009    0.0000000000000000    0.0000000000000000
     0.0000000000000000    8.5490480000000009    0.0000000000000000
     0.0000000000000000    0.0000000000000000   20.0000000000000000
    20     4     1
Selective dynamics
Direct
  0.9101713643164345  0.2053171496876052  0.0975114265862305   T   T   T
  0.9116108268932372  0.8005258144413057  0.0975290682576748   T   T   T
  0.1994889985914766  0.0835002854636962  0.0978570116068532   T   T   T
  0.0754318958431398  0.2037443292747602  0.0976677580055409   T   T   T
  0.1544774022568987  0.6486525861373800  0.0977598823720115   T   T   T
  0.0713904453406136  0.5015327284506448  0.0977366149118119   T   T   T
  0.1530598514334616  0.3560131452456146  0.0977756993549970   T   T   T
  0.0787154576043809  0.7986690451566689  0.0977268684613746   T   T   T
  0.4957452565537048  0.0872920293630306  0.0977900274422371   T   T   T
  0.3471314244416670  0.1666893000963359  0.0979426752830592   T   T   T
  0.4947898899592334  0.9161361766719187  0.0977417404248359   T   T   T
  0.3477652869078408  0.8329663249653803  0.0978518033213562   T   T   T
  0.7898643129416222  0.0860249303465279  0.0974370394727141   T   T   T
  0.6430968100776614  0.1669637364417086  0.0976889696507721   T   T   T
  0.7903050373299055  0.9187307863158704  0.0974335045693362   T   T   T
  0.8270083563655198  0.6513742711906456  0.0976949770806095   T   T   T
  0.8249931252239753  0.3546779080560223  0.0977254153478904   T   T   T
  0.6430634092108276  0.8363306324332788  0.0976406563061251   T   T   T
  0.3218995528966082  0.3363679225754207  0.0979022520919517   T   T   T
  0.3221457353936371  0.6681102333078907  0.0978001334862177   T   T   T
  0.9022549703764913  0.5027539114350673  0.0977914895289101   T   T   T
  0.6671378004437505  0.3311686035186316  0.0979273300768222   T   T   T
  0.6677908742979124  0.6735675950579694  0.0978805436629069   T   T   T
  0.1986669434703669  0.9167501123390043  0.0979225974894001   T   T   T
  0.4874069718296247  0.5009304420276410  0.0979695152083339   T   T   T
 
  0.00000000E+00  0.00000000E+00  0.00000000E+00
  0.00000000E+00  0.00000000E+00  0.00000000E+00
  0.00000000E+00  0.00000000E+00  0.00000000E+00
  0.00000000E+00  0.00000000E+00  0.00000000E+00
  0.00000000E+00  0.00000000E+00  0.00000000E+00
  0.00000000E+00  0.00000000E+00  0.00000000E+00
  0.00000000E+00  0.00000000E+00  0.00000000E+00
  0.00000000E+00  0.00000000E+00  0.00000000E+00
  0.00000000E+00  0.00000000E+00  0.00000000E+00
  0.00000000E+00  0.00000000E+00  0.00000000E+00
  0.00000000E+00  0.00000000E+00  0.00000000E+00
  0.00000000E+00  0.00000000E+00  0.00000000E+00
  0.00000000E+00  0.00000000E+00  0.00000000E+00
  0.00000000E+00  0.00000000E+00  0.00000000E+00
  0.00000000E+00  0.00000000E+00  0.00000000E+00
  0.00000000E+00  0.00000000E+00  0.00000000E+00
  0.00000000E+00  0.00000000E+00  0.00000000E+00
  0.00000000E+00  0.00000000E+00  0.00000000E+00
  0.00000000E+00  0.00000000E+00  0.00000000E+00
  0.00000000E+00  0.00000000E+00  0.00000000E+00
  0.00000000E+00  0.00000000E+00  0.00000000E+00
  0.00000000E+00  0.00000000E+00  0.00000000E+00
  0.00000000E+00  0.00000000E+00  0.00000000E+00
  0.00000000E+00  0.00000000E+00  0.00000000E+00
  0.00000000E+00  0.00000000E+00  0.00000000E+00
