Title                                   
   1.00000000000000     
     9.8694509999999998    0.0000000000000000    0.0000000000000000
     0.0000000000000000    8.5490480000000009    0.0000000000000000
     0.0000000000000000    0.0000000000000000   20.0000000000000000
    26     4     1
Selective dynamics
Direct
  0.0557999427165732  0.0903842485064090  0.0871715794531197   T   T   T
  0.9309971806194222  0.1731368597646543  0.0894533437696872   T   T   T
  0.0578439747923085  0.9235082467654381  0.0873361203405162   T   T   T
  0.9326385133879949  0.3408181679610222  0.0894045389325422   T   T   T
  0.0572618256953451  0.5901382621183521  0.0853077501102150   T   T   T
  0.9334888883686087  0.6742462076607101  0.0893394819375331   T   T   T
  0.0571417325366531  0.4229126213134419  0.0852838518853361   T   T   T
  0.9327935775718936  0.8406351265134158  0.0896233403016480   T   T   T
  0.3064257528409879  0.0876289231714895  0.0921071661175551   T   T   T
  0.1810672670897778  0.1716324117746487  0.0880129359828274   T   T   T
  0.1809582369341146  0.3386350270266034  0.0870765912543237   T   T   T
  0.3053236773418874  0.5891469018657839  0.0917984262097725   T   T   T
  0.1814049251478331  0.6734029763103648  0.0865750737146666   T   T   T
  0.3054602361138203  0.4210245704794725  0.0934057439401037   T   T   T
  0.1816852255485726  0.8393960035624238  0.0876934767040938   T   T   T
  0.5552484875243223  0.0895960271088210  0.1032630879395720   T   T   T
  0.4285724287263070  0.1730369534589931  0.1001414089917730   T   T   T
  0.5547698771355335  0.9187579885712527  0.1020995048938428   T   T   T
  0.4283739430782050  0.8353089231973341  0.0978697874030664   T   T   T
  0.8054233912788618  0.0897164946966535  0.0940856859452930   T   T   T
  0.6815899232376276  0.1755523040942947  0.1031189948375884   T   T   T
  0.8065976012202545  0.9230681161088466  0.0940141203405401   T   T   T
  0.6872158733302854  0.3407245657028690  0.1106358635666955   T   T   T
  0.8103241504285020  0.5936775672226798  0.0984143930387431   T   T   T
  0.8088756009206912  0.4236964042027279  0.0991020315572152   T   T   T
  0.6836756588676272  0.8349859181184275  0.1017720240621625   T   T   T
  0.4230757548345534  0.3357356720870858  0.1054500806453976   T   T   T
  0.6911342381319830  0.6745888661110216  0.1084281600501348   T   T   T
  0.4233574729651419  0.6761386318590471  0.1006949473475842   T   T   T
  0.3071090369528218  0.9225932362422912  0.0911938828306463   T   T   T
  0.5475006046614992  0.5070507764234363  0.1610916058958408   T   T   T
 
  0.00000000E+00  0.00000000E+00  0.00000000E+00
  0.00000000E+00  0.00000000E+00  0.00000000E+00
  0.00000000E+00  0.00000000E+00  0.00000000E+00
  0.00000000E+00  0.00000000E+00  0.00000000E+00
  0.00000000E+00  0.00000000E+00  0.00000000E+00
  0.00000000E+00  0.00000000E+00  0.00000000E+00
  0.00000000E+00  0.00000000E+00  0.00000000E+00
  0.00000000E+00  0.00000000E+00  0.00000000E+00
  0.00000000E+00  0.00000000E+00  0.00000000E+00
  0.00000000E+00  0.00000000E+00  0.00000000E+00
  0.00000000E+00  0.00000000E+00  0.00000000E+00
  0.00000000E+00  0.00000000E+00  0.00000000E+00
  0.00000000E+00  0.00000000E+00  0.00000000E+00
  0.00000000E+00  0.00000000E+00  0.00000000E+00
  0.00000000E+00  0.00000000E+00  0.00000000E+00
  0.00000000E+00  0.00000000E+00  0.00000000E+00
  0.00000000E+00  0.00000000E+00  0.00000000E+00
  0.00000000E+00  0.00000000E+00  0.00000000E+00
  0.00000000E+00  0.00000000E+00  0.00000000E+00
  0.00000000E+00  0.00000000E+00  0.00000000E+00
  0.00000000E+00  0.00000000E+00  0.00000000E+00
  0.00000000E+00  0.00000000E+00  0.00000000E+00
  0.00000000E+00  0.00000000E+00  0.00000000E+00
  0.00000000E+00  0.00000000E+00  0.00000000E+00
  0.00000000E+00  0.00000000E+00  0.00000000E+00
  0.00000000E+00  0.00000000E+00  0.00000000E+00
  0.00000000E+00  0.00000000E+00  0.00000000E+00
  0.00000000E+00  0.00000000E+00  0.00000000E+00
  0.00000000E+00  0.00000000E+00  0.00000000E+00
  0.00000000E+00  0.00000000E+00  0.00000000E+00
  0.00000000E+00  0.00000000E+00  0.00000000E+00
