Title                                   
   1.00000000000000     
     9.8694509999999998    0.0000000000000000    0.0000000000000000
     0.0000000000000000    8.5490480000000009    0.0000000000000000
     0.0000000000000000    0.0000000000000000   20.0000000000000000
    24     6     1
Selective dynamics
Direct
  0.0559387798929840  0.0902199811414608  0.0924126122500402   T   T   T
  0.9311009320148406  0.1734226600580419  0.0956146828862844   T   T   T
  0.0578212046321746  0.9214356313178326  0.0929056320607362   T   T   T
  0.9327594356046108  0.3408440719334294  0.0973553982657428   T   T   T
  0.0572522749404482  0.5905016884458278  0.0939244231168176   T   T   T
  0.0567579616073526  0.4236727834966298  0.0932973200158230   T   T   T
  0.9331590676054802  0.8401537421024136  0.0967383655919079   T   T   T
  0.3081677907072496  0.0876657311299094  0.0900848093413430   T   T   T
  0.1813063225325190  0.1717701583594483  0.0902727941423816   T   T   T
  0.1810117145045855  0.3387881973388243  0.0902018688293418   T   T   T
  0.3068916207271241  0.5891822902140987  0.0863906126683878   T   T   T
  0.1808423873771179  0.6727171272891007  0.0907833338515867   T   T   T
  0.3072915147275220  0.4196467566144146  0.0876105073051422   T   T   T
  0.1826277600263360  0.8396773822706558  0.0905048963459025   T   T   T
  0.4298932312915734  0.1713136344269213  0.0917587126403037   T   T   T
  0.5555385357289797  0.9188759121108608  0.0975168367116191   T   T   T
  0.4298823212408688  0.8374231300697783  0.0897356563987810   T   T   T
  0.8051554156807793  0.0896395997996267  0.0975464037748186   T   T   T
  0.6809685556549619  0.1773989752833490  0.1023756396314794   T   T   T
  0.8073051132064207  0.9219146074923803  0.0983400876757029   T   T   T
  0.6842138644115776  0.3415768954124955  0.1118790178666814   T   T   T
  0.8105462363687613  0.5936420143105713  0.1060756869881677   T   T   T
  0.8091133012364100  0.4240093430364191  0.1058312974407203   T   T   T
  0.6829338631895373  0.8367300108729852  0.1026886346977317   T   T   T
  0.9332468944019690  0.6726544135711053  0.0980677255525279   T   T   T
  0.5562212243673804  0.0918064743641691  0.0979827173227059   T   T   T
  0.4275843763802946  0.3330468136820053  0.0895521613275302   T   T   T
  0.6918568641560525  0.6741557080197461  0.1124280990924622   T   T   T
  0.4268933651889735  0.6769044969916296  0.0828151335629479   T   T   T
  0.3065014124829598  0.9207609344637869  0.0898588123574582   T   T   T
  0.5323516581121654  0.5093238343800933  0.1384151202869608   T   T   T
 
  0.00000000E+00  0.00000000E+00  0.00000000E+00
  0.00000000E+00  0.00000000E+00  0.00000000E+00
  0.00000000E+00  0.00000000E+00  0.00000000E+00
  0.00000000E+00  0.00000000E+00  0.00000000E+00
  0.00000000E+00  0.00000000E+00  0.00000000E+00
  0.00000000E+00  0.00000000E+00  0.00000000E+00
  0.00000000E+00  0.00000000E+00  0.00000000E+00
  0.00000000E+00  0.00000000E+00  0.00000000E+00
  0.00000000E+00  0.00000000E+00  0.00000000E+00
  0.00000000E+00  0.00000000E+00  0.00000000E+00
  0.00000000E+00  0.00000000E+00  0.00000000E+00
  0.00000000E+00  0.00000000E+00  0.00000000E+00
  0.00000000E+00  0.00000000E+00  0.00000000E+00
  0.00000000E+00  0.00000000E+00  0.00000000E+00
  0.00000000E+00  0.00000000E+00  0.00000000E+00
  0.00000000E+00  0.00000000E+00  0.00000000E+00
  0.00000000E+00  0.00000000E+00  0.00000000E+00
  0.00000000E+00  0.00000000E+00  0.00000000E+00
  0.00000000E+00  0.00000000E+00  0.00000000E+00
  0.00000000E+00  0.00000000E+00  0.00000000E+00
  0.00000000E+00  0.00000000E+00  0.00000000E+00
  0.00000000E+00  0.00000000E+00  0.00000000E+00
  0.00000000E+00  0.00000000E+00  0.00000000E+00
  0.00000000E+00  0.00000000E+00  0.00000000E+00
  0.00000000E+00  0.00000000E+00  0.00000000E+00
  0.00000000E+00  0.00000000E+00  0.00000000E+00
  0.00000000E+00  0.00000000E+00  0.00000000E+00
  0.00000000E+00  0.00000000E+00  0.00000000E+00
  0.00000000E+00  0.00000000E+00  0.00000000E+00
  0.00000000E+00  0.00000000E+00  0.00000000E+00
  0.00000000E+00  0.00000000E+00  0.00000000E+00
