Title                                   
   1.00000000000000     
     4.9440799999999996    0.0000000000000000    0.0000000000000000
     0.0000000000000000   17.1295089999999988    0.0000000000000000
     0.0000000000000000    0.0000000000000000   20.0000000000000000
    31     1
Selective dynamics
Direct
  0.0000008836621504  0.1045058275863534  0.2750174679326301   T   T   T
  0.2499095433487596  0.1456854622080973  0.2817417501035863   T   T   T
  0.2498880052159377  0.2270154063612159  0.2987191424172443   T   T   T
  0.0005395950940809  0.3460903450179498  0.3323631979821638   T   T   T
 -0.0014752403351594  0.2671288076611875  0.3076563221136622   T   T   T
 -0.0065909273611722  0.6096145396854544  0.3179766978165508   T   T   T
  0.2498924171453086  0.7297829891772623  0.2894220486942607   T   T   T
  0.0006832746828699  0.8544943404250056  0.2709629823852726   T   T   T
  0.2499019106590987  0.8963455613217114  0.2679243233684535   T   T   T
  0.2499109623999467  0.9797500933283307  0.2660258404262412   T   T   T
  0.0013927711600163  0.7718842439372098  0.2812325714157297   T   T   T
  0.4998139263839523  0.1045093735472748  0.2750106065404126   T   T   T
  0.7499162473094149  0.1456562615996817  0.2806375843246005   T   T   T
  0.7498922784845377  0.2270845432935655  0.2963330244020096   T   T   T
  0.4999607951299201  0.0214432071070813  0.2673414514723194   T   T   T
  0.4992533490580826  0.3460880541523409  0.3323592614543132   T   T   T
  0.7498996547974683  0.3907562143999268  0.3366061895834213   T   T   T
  0.7499000751244606  0.4758423393418602  0.3364872360782022   T   T   T
  0.5012529415241572  0.2671269166868220  0.3076567468717669   T   T   T
  0.5063836400235795  0.6096096658328095  0.3179760661933299   T   T   T
  0.7498919104786202  0.7319091668618932  0.2875146145517861   T   T   T
  0.4991029114102636  0.8544931701182523  0.2709614209533409   T   T   T
  0.7498996513515562  0.8959804833387023  0.2676851186880512   T   T   T
  0.7499105625731100  0.9795720807276801  0.2658352811369911   T   T   T
  0.4983930471359364  0.7718850854762668  0.2812335565035556   T   T   T
  0.7498895078601504  0.6523097679760674  0.3058614434671564   T   T   T
  0.2499010014201931  0.6484105526087675  0.3082807213721344   T   T   T
 -0.0001172846414761  0.0214399333182141  0.2673466393994766   T   T   T
  0.5366370034571870  0.5322450639871682  0.3414671513970347   T   T   T
  0.9631886068156682  0.5322460072760636  0.3414615760782249   T   T   T
  0.2499100291046786  0.3782490270950071  0.3525917556952133   T   T   T
  0.2498899495267074  0.4793964685447701  0.3928752091808173   T   T   T
 
  0.00000000E+00  0.00000000E+00  0.00000000E+00
  0.00000000E+00  0.00000000E+00  0.00000000E+00
  0.00000000E+00  0.00000000E+00  0.00000000E+00
  0.00000000E+00  0.00000000E+00  0.00000000E+00
  0.00000000E+00  0.00000000E+00  0.00000000E+00
  0.00000000E+00  0.00000000E+00  0.00000000E+00
  0.00000000E+00  0.00000000E+00  0.00000000E+00
  0.00000000E+00  0.00000000E+00  0.00000000E+00
  0.00000000E+00  0.00000000E+00  0.00000000E+00
  0.00000000E+00  0.00000000E+00  0.00000000E+00
  0.00000000E+00  0.00000000E+00  0.00000000E+00
  0.00000000E+00  0.00000000E+00  0.00000000E+00
  0.00000000E+00  0.00000000E+00  0.00000000E+00
  0.00000000E+00  0.00000000E+00  0.00000000E+00
  0.00000000E+00  0.00000000E+00  0.00000000E+00
  0.00000000E+00  0.00000000E+00  0.00000000E+00
  0.00000000E+00  0.00000000E+00  0.00000000E+00
  0.00000000E+00  0.00000000E+00  0.00000000E+00
  0.00000000E+00  0.00000000E+00  0.00000000E+00
  0.00000000E+00  0.00000000E+00  0.00000000E+00
  0.00000000E+00  0.00000000E+00  0.00000000E+00
  0.00000000E+00  0.00000000E+00  0.00000000E+00
  0.00000000E+00  0.00000000E+00  0.00000000E+00
  0.00000000E+00  0.00000000E+00  0.00000000E+00
  0.00000000E+00  0.00000000E+00  0.00000000E+00
  0.00000000E+00  0.00000000E+00  0.00000000E+00
  0.00000000E+00  0.00000000E+00  0.00000000E+00
  0.00000000E+00  0.00000000E+00  0.00000000E+00
  0.00000000E+00  0.00000000E+00  0.00000000E+00
  0.00000000E+00  0.00000000E+00  0.00000000E+00
  0.00000000E+00  0.00000000E+00  0.00000000E+00
  0.00000000E+00  0.00000000E+00  0.00000000E+00
