Title                                   
   1.00000000000000     
     9.8694509999999998    0.0000000000000000    0.0000000000000000
     0.0000000000000000    8.5490480000000009    0.0000000000000000
     0.0000000000000000    0.0000000000000000   20.0000000000000000
    26     5     1
Selective dynamics
Direct
  0.0554362873531953  0.0906062795128800  0.0858535519405944   T   T   T
  0.9307373394985363  0.1753121642989668  0.0866650162013553   T   T   T
  0.0572709515292294  0.9226919908688885  0.0860523650867292   T   T   T
  0.9295242343698330  0.3418042555934673  0.0887085654174640   T   T   T
  0.0564586642276804  0.5915575950938067  0.0879597979326436   T   T   T
  0.0552705083595783  0.4239593375135643  0.0888352197843387   T   T   T
  0.9327192478932398  0.8400911061052864  0.0874851575810153   T   T   T
  0.3055444432176264  0.0883551420646595  0.0888535746620143   T   T   T
  0.1812347872050618  0.1729546636957789  0.0876824662741001   T   T   T
  0.1808385276443661  0.3397978406251639  0.0904055376431693   T   T   T
  0.3040021261552157  0.5894386472133214  0.1019085515032588   T   T   T
  0.1805865908838468  0.6738136187622827  0.0909319655659335   T   T   T
  0.3077800929470255  0.4208815855381907  0.0979752560598361   T   T   T
  0.1825742646220538  0.8416060975556888  0.0887574798814651   T   T   T
  0.5562829629679256  0.0870505049909872  0.0933719093151207   T   T   T
  0.5555048640683782  0.9208905911145481  0.0993796548351723   T   T   T
  0.4304216143991993  0.3325254900749230  0.0987874272647854   T   T   T
  0.4275180391895649  0.8400850389233323  0.1041546780405127   T   T   T
  0.8060892534675905  0.0895126319259100  0.0873778007264900   T   T   T
  0.6798231716110534  0.1706775591052754  0.0902761222314592   T   T   T
  0.8082469097955977  0.9237028470395087  0.0891606858047806   T   T   T
  0.6783197728035485  0.3377255310087664  0.0959948330397919   T   T   T
  0.8092517509543885  0.5955964741662271  0.0958269657459499   T   T   T
  0.8019755343568745  0.4271378206482901  0.0938648177805043   T   T   T
  0.6838120502398646  0.8412435591219740  0.0981817454805646   T   T   T
  0.4193039795248781  0.6812726939956871  0.1172592469469150   T   T   T
  0.5524780757472255  0.4036013623982910  0.1080643939840117   T   T   T
  0.6952402313570748  0.6818665375256299  0.1087379767092668   T   T   T
  0.3055027074279622  0.9257677127246332  0.0905249053573712   T   T   T
  0.4293274978241149  0.1669406218579572  0.0922108713901593   T   T   T
  0.9323252415175922  0.6728690773230660  0.0881754910058320   T   T   T
  0.5682372768406837  0.5789096216130514  0.1762509688074110   T   T   T
 
  0.00000000E+00  0.00000000E+00  0.00000000E+00
  0.00000000E+00  0.00000000E+00  0.00000000E+00
  0.00000000E+00  0.00000000E+00  0.00000000E+00
  0.00000000E+00  0.00000000E+00  0.00000000E+00
  0.00000000E+00  0.00000000E+00  0.00000000E+00
  0.00000000E+00  0.00000000E+00  0.00000000E+00
  0.00000000E+00  0.00000000E+00  0.00000000E+00
  0.00000000E+00  0.00000000E+00  0.00000000E+00
  0.00000000E+00  0.00000000E+00  0.00000000E+00
  0.00000000E+00  0.00000000E+00  0.00000000E+00
  0.00000000E+00  0.00000000E+00  0.00000000E+00
  0.00000000E+00  0.00000000E+00  0.00000000E+00
  0.00000000E+00  0.00000000E+00  0.00000000E+00
  0.00000000E+00  0.00000000E+00  0.00000000E+00
  0.00000000E+00  0.00000000E+00  0.00000000E+00
  0.00000000E+00  0.00000000E+00  0.00000000E+00
  0.00000000E+00  0.00000000E+00  0.00000000E+00
  0.00000000E+00  0.00000000E+00  0.00000000E+00
  0.00000000E+00  0.00000000E+00  0.00000000E+00
  0.00000000E+00  0.00000000E+00  0.00000000E+00
  0.00000000E+00  0.00000000E+00  0.00000000E+00
  0.00000000E+00  0.00000000E+00  0.00000000E+00
  0.00000000E+00  0.00000000E+00  0.00000000E+00
  0.00000000E+00  0.00000000E+00  0.00000000E+00
  0.00000000E+00  0.00000000E+00  0.00000000E+00
  0.00000000E+00  0.00000000E+00  0.00000000E+00
  0.00000000E+00  0.00000000E+00  0.00000000E+00
  0.00000000E+00  0.00000000E+00  0.00000000E+00
  0.00000000E+00  0.00000000E+00  0.00000000E+00
  0.00000000E+00  0.00000000E+00  0.00000000E+00
  0.00000000E+00  0.00000000E+00  0.00000000E+00
  0.00000000E+00  0.00000000E+00  0.00000000E+00
