Title                                   
   1.00000000000000     
     9.8694509999999998    0.0000000000000000    0.0000000000000000
     0.0000000000000000    8.5490480000000009    0.0000000000000000
     0.0000000000000000    0.0000000000000000   20.0000000000000000
    27     3     1
Selective dynamics
Direct
  0.0557975271688592  0.0904871940793652  0.0852631018450643   T   T   T
  0.9304980116630436  0.1734007266249066  0.0878614803298328   T   T   T
  0.0563171905233175  0.9238062433479369  0.0847364584738393   T   T   T
  0.9325372395044268  0.3404355368457294  0.0872501147414513   T   T   T
  0.0565945741947843  0.5896439185625179  0.0820483921413397   T   T   T
  0.9335085220605094  0.6750428080830166  0.0867577552145430   T   T   T
  0.0565789862257965  0.4233254464202793  0.0825588213799778   T   T   T
  0.9318733702310796  0.8413911070295010  0.0876369017453120   T   T   T
  0.3060047170200425  0.0894326531919169  0.0917594053860729   T   T   T
  0.1805267502031553  0.1722898721514197  0.0866142718410892   T   T   T
  0.3063069572829957  0.9219512769980658  0.0905484305128142   T   T   T
  0.1802734247416366  0.3394062063635157  0.0850906502339937   T   T   T
  0.3036746731562764  0.5905560798028678  0.0901072463302994   T   T   T
  0.1800868603316135  0.6729595436410889  0.0835882806284786   T   T   T
  0.3036728944836888  0.4207380680543120  0.0917938189912596   T   T   T
  0.1808650816549622  0.8401158004861429  0.0851158762785269   T   T   T
  0.5548288986865649  0.0892704219301857  0.1038243975417985   T   T   T
  0.4285730751926519  0.1746681440238327  0.1005776325003350   T   T   T
  0.5555977765282928  0.9177880930884058  0.1032213054930724   T   T   T
  0.4286257152518098  0.8339958577871327  0.0982023688359045   T   T   T
  0.8050253612949985  0.0905421378899408  0.0937443753324131   T   T   T
  0.6812893182971531  0.1750349594421535  0.1027119764019190   T   T   T
  0.8061452336083147  0.9226630562594959  0.0938377895381924   T   T   T
  0.6884762031745593  0.3415662824249487  0.1094101213405481   T   T   T
  0.8120642565282344  0.5936900554536604  0.0969395497536598   T   T   T
  0.8105681934649654  0.4246039978021204  0.0968063133265912   T   T   T
  0.6841786414534888  0.8352765109817704  0.1027355898158620   T   T   T
  0.4223338175000124  0.3380202785048254  0.1043864039275600   T   T   T
  0.6931503382426449  0.6736040835748407  0.1091944216324707   T   T   T
  0.4222979506823856  0.6725433898619712  0.0998812108871722   T   T   T
  0.5548634396477431  0.5026252492921457  0.1367605375986475   T   T   T
 
  0.00000000E+00  0.00000000E+00  0.00000000E+00
  0.00000000E+00  0.00000000E+00  0.00000000E+00
  0.00000000E+00  0.00000000E+00  0.00000000E+00
  0.00000000E+00  0.00000000E+00  0.00000000E+00
  0.00000000E+00  0.00000000E+00  0.00000000E+00
  0.00000000E+00  0.00000000E+00  0.00000000E+00
  0.00000000E+00  0.00000000E+00  0.00000000E+00
  0.00000000E+00  0.00000000E+00  0.00000000E+00
  0.00000000E+00  0.00000000E+00  0.00000000E+00
  0.00000000E+00  0.00000000E+00  0.00000000E+00
  0.00000000E+00  0.00000000E+00  0.00000000E+00
  0.00000000E+00  0.00000000E+00  0.00000000E+00
  0.00000000E+00  0.00000000E+00  0.00000000E+00
  0.00000000E+00  0.00000000E+00  0.00000000E+00
  0.00000000E+00  0.00000000E+00  0.00000000E+00
  0.00000000E+00  0.00000000E+00  0.00000000E+00
  0.00000000E+00  0.00000000E+00  0.00000000E+00
  0.00000000E+00  0.00000000E+00  0.00000000E+00
  0.00000000E+00  0.00000000E+00  0.00000000E+00
  0.00000000E+00  0.00000000E+00  0.00000000E+00
  0.00000000E+00  0.00000000E+00  0.00000000E+00
  0.00000000E+00  0.00000000E+00  0.00000000E+00
  0.00000000E+00  0.00000000E+00  0.00000000E+00
  0.00000000E+00  0.00000000E+00  0.00000000E+00
  0.00000000E+00  0.00000000E+00  0.00000000E+00
  0.00000000E+00  0.00000000E+00  0.00000000E+00
  0.00000000E+00  0.00000000E+00  0.00000000E+00
  0.00000000E+00  0.00000000E+00  0.00000000E+00
  0.00000000E+00  0.00000000E+00  0.00000000E+00
  0.00000000E+00  0.00000000E+00  0.00000000E+00
  0.00000000E+00  0.00000000E+00  0.00000000E+00
