Title                                   
   1.00000000000000     
     8.5490480000000009    0.0000000000000000    0.0000000000000000
     0.0000000000000000    8.5490480000000009    0.0000000000000000
     0.0000000000000000    0.0000000000000000   20.0000000000000000
    22     2     1
Selective dynamics
Direct
  0.9090524708613051  0.2054572283507155  0.0944908971126361   T   T   T
  0.9074978941536052  0.5049508124357496  0.0963902413222843   T   T   T
  0.9124366823637340  0.8029684521683563  0.0951642908623922   T   T   T
  0.1973116920235196  0.0811411166628005  0.0949684067008646   T   T   T
  0.0731658078106801  0.2013379710958747  0.0950103611921725   T   T   T
  0.1575972169472458  0.6486352211923875  0.0957316730135366   T   T   T
  0.0749774307131207  0.5024709823932568  0.0965521936411591   T   T   T
  0.1560361514119301  0.3541723219042407  0.0975656155410602   T   T   T
  0.0795203009598392  0.7984863088115574  0.0945319361844461   T   T   T
  0.4930021720785456  0.0836087099141541  0.0962410401094327   T   T   T
  0.3437401977090494  0.1610993126633189  0.0971521959405385   T   T   T
  0.4938097509323284  0.9151649112437634  0.0961644083268161   T   T   T
  0.3468105134953478  0.8343440157712568  0.0954651495699863   T   T   T
  0.7866737400146147  0.0856687287792509  0.0947224341566383   T   T   T
  0.6377814924374163  0.1652118472150402  0.0957220969418630   T   T   T
  0.7901818859299995  0.9208043177686255  0.0952804098957651   T   T   T
  0.8311287905453144  0.6541217972098841  0.0970796040960030   T   T   T
  0.8263248108092967  0.3577556557094287  0.0955975335523628   T   T   T
  0.6422528975332977  0.8371019049479242  0.0971891193102759   T   T   T
  0.3198494143244472  0.3302380243749943  0.1014739812018100   T   T   T
  0.3235178285213089  0.6711635808238811  0.0965970784155552   T   T   T
  0.6622967153479756  0.3339607497283637  0.0970017862047710   T   T   T
  0.6687653440557927  0.6763581429117719  0.1001187390562812   T   T   T
  0.1983902697396584  0.9154286338474663  0.0941551233739305   T   T   T
  0.4932905292806202  0.5031392520759488  0.1383386842774016   T   T   T
 
  0.00000000E+00  0.00000000E+00  0.00000000E+00
  0.00000000E+00  0.00000000E+00  0.00000000E+00
  0.00000000E+00  0.00000000E+00  0.00000000E+00
  0.00000000E+00  0.00000000E+00  0.00000000E+00
  0.00000000E+00  0.00000000E+00  0.00000000E+00
  0.00000000E+00  0.00000000E+00  0.00000000E+00
  0.00000000E+00  0.00000000E+00  0.00000000E+00
  0.00000000E+00  0.00000000E+00  0.00000000E+00
  0.00000000E+00  0.00000000E+00  0.00000000E+00
  0.00000000E+00  0.00000000E+00  0.00000000E+00
  0.00000000E+00  0.00000000E+00  0.00000000E+00
  0.00000000E+00  0.00000000E+00  0.00000000E+00
  0.00000000E+00  0.00000000E+00  0.00000000E+00
  0.00000000E+00  0.00000000E+00  0.00000000E+00
  0.00000000E+00  0.00000000E+00  0.00000000E+00
  0.00000000E+00  0.00000000E+00  0.00000000E+00
  0.00000000E+00  0.00000000E+00  0.00000000E+00
  0.00000000E+00  0.00000000E+00  0.00000000E+00
  0.00000000E+00  0.00000000E+00  0.00000000E+00
  0.00000000E+00  0.00000000E+00  0.00000000E+00
  0.00000000E+00  0.00000000E+00  0.00000000E+00
  0.00000000E+00  0.00000000E+00  0.00000000E+00
  0.00000000E+00  0.00000000E+00  0.00000000E+00
  0.00000000E+00  0.00000000E+00  0.00000000E+00
  0.00000000E+00  0.00000000E+00  0.00000000E+00
