Title                                   
   1.00000000000000     
     4.9440799999999996    0.0000000000000000    0.0000000000000000
     0.0000000000000000    8.5647549999999999    0.0000000000000000
     0.0000000000000000    0.0000000000000000   20.0000000000000000
    11     4     1
Selective dynamics
Direct
 -0.0065158784653641  0.2927778165236448  0.0874197945107301   T   T   T
  0.2500000000000000  0.0426204233819147  0.0905122048336581   T   T   T
  0.0058163732519604  0.7882971246402263  0.1006821026014290   T   T   T
  0.0014458899006434  0.9567456027691639  0.0918591072591676   T   T   T
  0.7500000000000000  0.2021721943358953  0.0866200888120185   T   T   T
  0.5065158784653642  0.2927778165236448  0.0874197945107301   T   T   T
  0.7500000000000000  0.0369823779439723  0.0883023170259865   T   T   T
  0.7500000000000000  0.6988870908691812  0.0992024205807635   T   T   T
  0.4941836267480399  0.7882971246402263  0.1006821026014290   T   T   T
  0.7500000000000000  0.5240339988144148  0.0932834982317898   T   T   T
  0.4985541100993566  0.9567456027691639  0.0918591072591676   T   T   T
  0.5092865434334485  0.4470381140693940  0.0900423667209104   T   T   T
 -0.0092865434334481  0.4470381140693940  0.0900423667209104   T   T   T
  0.2500000000000000  0.7163680651700010  0.1125946703367340   T   T   T
  0.2500000000000000  0.2097375933529973  0.0872534407629120   T   T   T
  0.2500000000000000  0.5994809401267656  0.2147366172316729   T   T   T
 
  0.00000000E+00  0.00000000E+00  0.00000000E+00
  0.00000000E+00  0.00000000E+00  0.00000000E+00
  0.00000000E+00  0.00000000E+00  0.00000000E+00
  0.00000000E+00  0.00000000E+00  0.00000000E+00
  0.00000000E+00  0.00000000E+00  0.00000000E+00
  0.00000000E+00  0.00000000E+00  0.00000000E+00
  0.00000000E+00  0.00000000E+00  0.00000000E+00
  0.00000000E+00  0.00000000E+00  0.00000000E+00
  0.00000000E+00  0.00000000E+00  0.00000000E+00
  0.00000000E+00  0.00000000E+00  0.00000000E+00
  0.00000000E+00  0.00000000E+00  0.00000000E+00
  0.00000000E+00  0.00000000E+00  0.00000000E+00
  0.00000000E+00  0.00000000E+00  0.00000000E+00
  0.00000000E+00  0.00000000E+00  0.00000000E+00
  0.00000000E+00  0.00000000E+00  0.00000000E+00
  0.00000000E+00  0.00000000E+00  0.00000000E+00
