Title                                   
   1.00000000000000     
     9.8694509999999998    0.0000000000000000    0.0000000000000000
     0.0000000000000000    8.5490480000000009    0.0000000000000000
     0.0000000000000000    0.0000000000000000   20.0000000000000000
    27     4     1
Selective dynamics
Direct
  0.0562255770656510  0.0920722370502381  0.0869677109196003   T   T   T
  0.9305096438016963  0.1748562792980783  0.0891013444079758   T   T   T
  0.0562478951316498  0.9244834504995750  0.0859205130626888   T   T   T
  0.9289525746347312  0.3419809680587492  0.0926810958693225   T   T   T
  0.0562681086196505  0.5897589803650204  0.0894888154808943   T   T   T
  0.9317064195155270  0.6736826564393881  0.0899624750713323   T   T   T
  0.0562664559438406  0.4234399249990269  0.0915459731907958   T   T   T
  0.9317497869187014  0.8399371478515706  0.0874822125827215   T   T   T
  0.3056195918023805  0.0891045085006091  0.0888039062122946   T   T   T
  0.1819669291414855  0.1748058603801156  0.0890041501975119   T   T   T
  0.3060612432721908  0.9240374945160432  0.0880793037320171   T   T   T
  0.1835449547529373  0.3419149291333526  0.0923941099991124   T   T   T
  0.3071302904855195  0.5939270866971962  0.0970244129899280   T   T   T
  0.1808480676650303  0.6736794538001704  0.0894749040363892   T   T   T
  0.3107473067798888  0.4251551584158615  0.0975584266315947   T   T   T
  0.1807813847365025  0.8399311319345006  0.0871702982944840   T   T   T
  0.5562507665885614  0.0827156129211107  0.0952371505952355   T   T   T
  0.4323180177873870  0.1675448006071820  0.0935743340931800   T   T   T
  0.4355961892004323  0.3338868286742615  0.0998530294644019   T   T   T
  0.4274336274583401  0.8362694218349097  0.0953736025096625   T   T   T
  0.8068712801511184  0.0891576669422060  0.0888558653798760   T   T   T
  0.6801689780443001  0.1676031186286556  0.0936311715963766   T   T   T
  0.8064439075283552  0.9240795199152108  0.0883129209412884   T   T   T
  0.6769120327850351  0.3339132289449449  0.1001559489815189   T   T   T
  0.8054507580790556  0.5940033628872785  0.0977609699037147   T   T   T
  0.8017612523614421  0.4252043647439167  0.0980881034026646   T   T   T
  0.6851460327858782  0.8363190424816953  0.0957986697900350   T   T   T
  0.4238349218591015  0.6815641142068026  0.1049462416982452   T   T   T
  0.5561965921040863  0.4075204925945686  0.1099972349850668   T   T   T
  0.6888917067799855  0.6817610211983050  0.1058538541209512   T   T   T
  0.5562489138836432  0.9162058961202562  0.0973831210820033   T   T   T
  0.5554877923359017  0.5897302393592025  0.1781931287771318   T   T   T
 
  0.00000000E+00  0.00000000E+00  0.00000000E+00
  0.00000000E+00  0.00000000E+00  0.00000000E+00
  0.00000000E+00  0.00000000E+00  0.00000000E+00
  0.00000000E+00  0.00000000E+00  0.00000000E+00
  0.00000000E+00  0.00000000E+00  0.00000000E+00
  0.00000000E+00  0.00000000E+00  0.00000000E+00
  0.00000000E+00  0.00000000E+00  0.00000000E+00
  0.00000000E+00  0.00000000E+00  0.00000000E+00
  0.00000000E+00  0.00000000E+00  0.00000000E+00
  0.00000000E+00  0.00000000E+00  0.00000000E+00
  0.00000000E+00  0.00000000E+00  0.00000000E+00
  0.00000000E+00  0.00000000E+00  0.00000000E+00
  0.00000000E+00  0.00000000E+00  0.00000000E+00
  0.00000000E+00  0.00000000E+00  0.00000000E+00
  0.00000000E+00  0.00000000E+00  0.00000000E+00
  0.00000000E+00  0.00000000E+00  0.00000000E+00
  0.00000000E+00  0.00000000E+00  0.00000000E+00
  0.00000000E+00  0.00000000E+00  0.00000000E+00
  0.00000000E+00  0.00000000E+00  0.00000000E+00
  0.00000000E+00  0.00000000E+00  0.00000000E+00
  0.00000000E+00  0.00000000E+00  0.00000000E+00
  0.00000000E+00  0.00000000E+00  0.00000000E+00
  0.00000000E+00  0.00000000E+00  0.00000000E+00
  0.00000000E+00  0.00000000E+00  0.00000000E+00
  0.00000000E+00  0.00000000E+00  0.00000000E+00
  0.00000000E+00  0.00000000E+00  0.00000000E+00
  0.00000000E+00  0.00000000E+00  0.00000000E+00
  0.00000000E+00  0.00000000E+00  0.00000000E+00
  0.00000000E+00  0.00000000E+00  0.00000000E+00
  0.00000000E+00  0.00000000E+00  0.00000000E+00
  0.00000000E+00  0.00000000E+00  0.00000000E+00
  0.00000000E+00  0.00000000E+00  0.00000000E+00
