Title                                   
   1.00000000000000     
     9.8694509999999998    0.0000000000000000    0.0000000000000000
     0.0000000000000000    8.5490480000000009    0.0000000000000000
     0.0000000000000000    0.0000000000000000   20.0000000000000000
    28     2     1
Selective dynamics
Direct
  0.0561143170537399  0.0890876999343370  0.0938792692411539   T   T   T
  0.9308466160934484  0.1725483089674703  0.0942296695901089   T   T   T
  0.0563378798828315  0.9232496428616348  0.0938937905585151   T   T   T
  0.9333527046125013  0.3394067591673331  0.0942202130098611   T   T   T
  0.0559897953667417  0.5894407206171481  0.0939329354600722   T   T   T
  0.9329446577205520  0.6748339439504363  0.0940919593009763   T   T   T
  0.0564813443031279  0.4228914829124688  0.0939163233711500   T   T   T
  0.9321047858049576  0.8412195567933107  0.0941247058076028   T   T   T
  0.3068161559227830  0.0903985464494867  0.0948201517944831   T   T   T
  0.1803495890760880  0.1711163516502003  0.0941102295681445   T   T   T
  0.3070811439728767  0.9219324586659328  0.0949370502151099   T   T   T
  0.1795328756209046  0.3375016069163382  0.0941098267025523   T   T   T
  0.3023542454368461  0.5880852910647812  0.0950127140519020   T   T   T
  0.1791145900973788  0.6729154190414394  0.0942827343117109   T   T   T
  0.3021539852661706  0.4193192409673817  0.0948404056324262   T   T   T
  0.1815935637456991  0.8397707194502940  0.0942412049525720   T   T   T
  0.5559574244674198  0.0908965714558893  0.0957668808974957   T   T   T
  0.4299765127707222  0.1783354079771040  0.0954965767593043   T   T   T
  0.5564720031422542  0.9213535475391824  0.0957585089430075   T   T   T
  0.4252871646651832  0.6691601286724994  0.0958560451735561   T   T   T
  0.4311486208095471  0.8342227896470389  0.0956760788138920   T   T   T
  0.8053550137958659  0.0903693260655655  0.0949692758823723   T   T   T
  0.6812709726862267  0.1780740342488103  0.0956994565953654   T   T   T
  0.8056308742283724  0.9219133438169779  0.0948390796881391   T   T   T
  0.6871896335918294  0.3431535707858107  0.0958295513412636   T   T   T
  0.8103400673994167  0.5929894117175897  0.0947798884631979   T   T   T
  0.8101133565891285  0.4242362400006701  0.0949217889748792   T   T   T
  0.6824760779056470  0.8339572111089887  0.0954754999851916   T   T   T
  0.4242491386830145  0.3420266923502898  0.0955069090923963   T   T   T
  0.6882657541597246  0.6703040717349050  0.0954639822645269   T   T   T
  0.5562341351290081  0.5061649034686976  0.0962822935571119   T   T   T
 
  0.00000000E+00  0.00000000E+00  0.00000000E+00
  0.00000000E+00  0.00000000E+00  0.00000000E+00
  0.00000000E+00  0.00000000E+00  0.00000000E+00
  0.00000000E+00  0.00000000E+00  0.00000000E+00
  0.00000000E+00  0.00000000E+00  0.00000000E+00
  0.00000000E+00  0.00000000E+00  0.00000000E+00
  0.00000000E+00  0.00000000E+00  0.00000000E+00
  0.00000000E+00  0.00000000E+00  0.00000000E+00
  0.00000000E+00  0.00000000E+00  0.00000000E+00
  0.00000000E+00  0.00000000E+00  0.00000000E+00
  0.00000000E+00  0.00000000E+00  0.00000000E+00
  0.00000000E+00  0.00000000E+00  0.00000000E+00
  0.00000000E+00  0.00000000E+00  0.00000000E+00
  0.00000000E+00  0.00000000E+00  0.00000000E+00
  0.00000000E+00  0.00000000E+00  0.00000000E+00
  0.00000000E+00  0.00000000E+00  0.00000000E+00
  0.00000000E+00  0.00000000E+00  0.00000000E+00
  0.00000000E+00  0.00000000E+00  0.00000000E+00
  0.00000000E+00  0.00000000E+00  0.00000000E+00
  0.00000000E+00  0.00000000E+00  0.00000000E+00
  0.00000000E+00  0.00000000E+00  0.00000000E+00
  0.00000000E+00  0.00000000E+00  0.00000000E+00
  0.00000000E+00  0.00000000E+00  0.00000000E+00
  0.00000000E+00  0.00000000E+00  0.00000000E+00
  0.00000000E+00  0.00000000E+00  0.00000000E+00
  0.00000000E+00  0.00000000E+00  0.00000000E+00
  0.00000000E+00  0.00000000E+00  0.00000000E+00
  0.00000000E+00  0.00000000E+00  0.00000000E+00
  0.00000000E+00  0.00000000E+00  0.00000000E+00
  0.00000000E+00  0.00000000E+00  0.00000000E+00
  0.00000000E+00  0.00000000E+00  0.00000000E+00
