Title                                   
   1.00000000000000     
     4.9440799999999996    0.0000000000000000    0.0000000000000000
     0.0000000000000000    8.5647549999999999    0.0000000000000000
     0.0000000000000000    0.0000000000000000   20.0000000000000000
    11     3     1
Selective dynamics
Direct
  0.0015737284077721  0.2938000054681616  0.1002866540915924   T   T   T
  0.2500000000000000  0.0377133907929367  0.1004425063130555   T   T   T
 -0.0024429269321409  0.9549489948495656  0.1004536781583825   T   T   T
  0.7500000000000000  0.2087588882062991  0.1001877064801172   T   T   T
  0.4984262715922278  0.2938000054681616  0.1002866540915924   T   T   T
  0.7500000000000000  0.0398725395429836  0.1002233929445179   T   T   T
  0.7500000000000000  0.7167712534035903  0.1007216216028341   T   T   T
  0.7500000000000000  0.5394925542803453  0.1005849710218893   T   T   T
  0.5024429269321407  0.9549489948495656  0.1004536781583825   T   T   T
  0.4994096952282696  0.4610421347563813  0.1005639778610473   T   T   T
  0.0005903047717304  0.4610421347563813  0.1005639778610473   T   T   T
 -0.0107225791318712  0.7908104112039837  0.1007831924612085   T   T   T
  0.5107225791318711  0.7908104112039837  0.1007831924612085   T   T   T
  0.2500000000000000  0.2070612655490462  0.1003496287780816   T   T   T
  0.2500000000000000  0.6208080156686167  0.1012951677150467   T   T   T
 
  0.00000000E+00  0.00000000E+00  0.00000000E+00
  0.00000000E+00  0.00000000E+00  0.00000000E+00
  0.00000000E+00  0.00000000E+00  0.00000000E+00
  0.00000000E+00  0.00000000E+00  0.00000000E+00
  0.00000000E+00  0.00000000E+00  0.00000000E+00
  0.00000000E+00  0.00000000E+00  0.00000000E+00
  0.00000000E+00  0.00000000E+00  0.00000000E+00
  0.00000000E+00  0.00000000E+00  0.00000000E+00
  0.00000000E+00  0.00000000E+00  0.00000000E+00
  0.00000000E+00  0.00000000E+00  0.00000000E+00
  0.00000000E+00  0.00000000E+00  0.00000000E+00
  0.00000000E+00  0.00000000E+00  0.00000000E+00
  0.00000000E+00  0.00000000E+00  0.00000000E+00
  0.00000000E+00  0.00000000E+00  0.00000000E+00
  0.00000000E+00  0.00000000E+00  0.00000000E+00
