Title                                   
   1.00000000000000     
     4.9440799999999996    0.0000000000000000    0.0000000000000000
     0.0000000000000000    8.5647549999999999    0.0000000000000000
     0.0000000000000000    0.0000000000000000   20.0000000000000000
    12     2     1
Selective dynamics
Direct
  0.2500000000000000  0.2062162906532417  0.0979619364440502   T   T   T
  0.0002641119122921  0.2913255781467753  0.0977419854639745   T   T   T
  0.2500000000000000  0.0369752611310392  0.0979888279327568   T   T   T
 -0.0032995013390527  0.9556897495548098  0.0974934515014471   T   T   T
  0.7500000000000000  0.2087110633455961  0.0945837881842088   T   T   T
  0.4997358880877079  0.2913255781467753  0.0977419854639745   T   T   T
  0.7500000000000000  0.0407589655115590  0.0941344135030776   T   T   T
  0.7500000000000000  0.7175870554918685  0.1000817011070232   T   T   T
  0.7500000000000000  0.5404835880697880  0.0985086950743186   T   T   T
  0.5032995013390527  0.9556897495548098  0.0974934515014471   T   T   T
  0.5072885583211968  0.4588244599640362  0.1039236784514174   T   T   T
 -0.0072885583211966  0.4588244599640362  0.1039236784514174   T   T   T
 -0.0156069557912350  0.7947685508099648  0.1020016470847746   T   T   T
  0.5156069557912348  0.7947685508099648  0.1020016470847746   T   T   T
  0.2500000000000000  0.6197320988457375  0.1223991127513411   T   T   T
 
  0.00000000E+00  0.00000000E+00  0.00000000E+00
  0.00000000E+00  0.00000000E+00  0.00000000E+00
  0.00000000E+00  0.00000000E+00  0.00000000E+00
  0.00000000E+00  0.00000000E+00  0.00000000E+00
  0.00000000E+00  0.00000000E+00  0.00000000E+00
  0.00000000E+00  0.00000000E+00  0.00000000E+00
  0.00000000E+00  0.00000000E+00  0.00000000E+00
  0.00000000E+00  0.00000000E+00  0.00000000E+00
  0.00000000E+00  0.00000000E+00  0.00000000E+00
  0.00000000E+00  0.00000000E+00  0.00000000E+00
  0.00000000E+00  0.00000000E+00  0.00000000E+00
  0.00000000E+00  0.00000000E+00  0.00000000E+00
  0.00000000E+00  0.00000000E+00  0.00000000E+00
  0.00000000E+00  0.00000000E+00  0.00000000E+00
  0.00000000E+00  0.00000000E+00  0.00000000E+00
