Title                                   
   1.00000000000000     
     9.8694509999999998    0.0000000000000000    0.0000000000000000
     0.0000000000000000    8.5490480000000009    0.0000000000000000
     0.0000000000000000    0.0000000000000000   20.0000000000000000
    29     1     1
Selective dynamics
Direct
  0.0559359414698724  0.0891135069957312  0.0872801437121606   T   T   T
  0.9310034764260535  0.1719491932135856  0.0883178975802773   T   T   T
  0.0571860793585319  0.9239410699308066  0.0876530351359602   T   T   T
  0.9327246229676389  0.3387526288341021  0.0866714235952385   T   T   T
  0.0566844781947528  0.5901891731832904  0.0842300069516800   T   T   T
  0.9327942821573234  0.6740247404860615  0.0869584789491551   T   T   T
  0.0567845519719919  0.4230187308816312  0.0840656090938723   T   T   T
  0.9315463906160436  0.8402631683425932  0.0887466867140368   T   T   T
  0.3067079945699718  0.0888964612255720  0.0937447407843227   T   T   T
  0.1814244839469996  0.1707818552537074  0.0883123404266047   T   T   T
  0.1805865513232797  0.3380341987960770  0.0868600173905017   T   T   T
  0.3027510230212068  0.5904567766212965  0.0936806528531744   T   T   T
  0.1811362112837195  0.6747933329988057  0.0871290479738409   T   T   T
  0.3028545999147913  0.4214501924622550  0.0935660547944919   T   T   T
  0.1824540549896566  0.8414773520206383  0.0888714199031719   T   T   T
  0.5564091423454481  0.0893282574793234  0.1026697070966625   T   T   T
  0.4303253195299186  0.1761024711835925  0.1006785049864858   T   T   T
  0.5551653944083826  0.9231961191152526  0.1025799228399873   T   T   T
  0.4270560081324792  0.3433220480240830  0.1036519224648247   T   T   T
  0.4263816669619941  0.6695338643168663  0.1037578472013845   T   T   T
  0.4294603584803400  0.8351155554771436  0.1007077570526393   T   T   T
  0.8053988210207592  0.0900471500329776  0.0936345595821864   T   T   T
  0.6814129308472076  0.1779429177940045  0.1001904435266864   T   T   T
  0.8054403958674471  0.9218555211825337  0.0937877158427917   T   T   T
  0.6849218780550423  0.3450670233672137  0.1029380172738011   T   T   T
  0.8101903319376050  0.5905495829242801  0.0931365508733687   T   T   T
  0.6850492192295716  0.6671986526002808  0.1032518875115883   T   T   T
  0.8101918460176714  0.4220428336161021  0.0929230130196174   T   T   T
  0.6808764971727781  0.8337789138347297  0.1002967451063559   T   T   T
  0.3062779882131519  0.9225067576460123  0.0937319472112601   T   T   T
  0.5560024595683720  0.5061449501594700  0.1269409025518978   T   T   T
 
  0.00000000E+00  0.00000000E+00  0.00000000E+00
  0.00000000E+00  0.00000000E+00  0.00000000E+00
  0.00000000E+00  0.00000000E+00  0.00000000E+00
  0.00000000E+00  0.00000000E+00  0.00000000E+00
  0.00000000E+00  0.00000000E+00  0.00000000E+00
  0.00000000E+00  0.00000000E+00  0.00000000E+00
  0.00000000E+00  0.00000000E+00  0.00000000E+00
  0.00000000E+00  0.00000000E+00  0.00000000E+00
  0.00000000E+00  0.00000000E+00  0.00000000E+00
  0.00000000E+00  0.00000000E+00  0.00000000E+00
  0.00000000E+00  0.00000000E+00  0.00000000E+00
  0.00000000E+00  0.00000000E+00  0.00000000E+00
  0.00000000E+00  0.00000000E+00  0.00000000E+00
  0.00000000E+00  0.00000000E+00  0.00000000E+00
  0.00000000E+00  0.00000000E+00  0.00000000E+00
  0.00000000E+00  0.00000000E+00  0.00000000E+00
  0.00000000E+00  0.00000000E+00  0.00000000E+00
  0.00000000E+00  0.00000000E+00  0.00000000E+00
  0.00000000E+00  0.00000000E+00  0.00000000E+00
  0.00000000E+00  0.00000000E+00  0.00000000E+00
  0.00000000E+00  0.00000000E+00  0.00000000E+00
  0.00000000E+00  0.00000000E+00  0.00000000E+00
  0.00000000E+00  0.00000000E+00  0.00000000E+00
  0.00000000E+00  0.00000000E+00  0.00000000E+00
  0.00000000E+00  0.00000000E+00  0.00000000E+00
  0.00000000E+00  0.00000000E+00  0.00000000E+00
  0.00000000E+00  0.00000000E+00  0.00000000E+00
  0.00000000E+00  0.00000000E+00  0.00000000E+00
  0.00000000E+00  0.00000000E+00  0.00000000E+00
  0.00000000E+00  0.00000000E+00  0.00000000E+00
  0.00000000E+00  0.00000000E+00  0.00000000E+00
