Title                                   
   1.00000000000000     
     4.9440799999999996    0.0000000000000000    0.0000000000000000
     0.0000000000000000    8.5647549999999999    0.0000000000000000
     0.0000000000000000    0.0000000000000000   20.0000000000000000
    12     2     1
Selective dynamics
Direct
  0.2500000000000000  0.2050712185912712  0.0943865109087202   T   T   T
 -0.0001323873423909  0.2916256918352981  0.0946670821653401   T   T   T
  0.2500000000000000  0.0371531014288012  0.0947425537879688   T   T   T
 -0.0026973760554657  0.9542997916618330  0.0942628657102638   T   T   T
  0.7500000000000000  0.2065267087884521  0.0910709222837931   T   T   T
  0.5001323873423910  0.2916256918352981  0.0946670821653401   T   T   T
  0.7500000000000000  0.0404382324058529  0.0903602115888510   T   T   T
  0.7500000000000000  0.7171269795026048  0.0992387761273481   T   T   T
  0.7500000000000000  0.5435126285462617  0.0997053405401944   T   T   T
  0.5026973760554657  0.9542997916618330  0.0942628657102638   T   T   T
  0.5034221044926042  0.4561655627921295  0.1011747522105334   T   T   T
 -0.0034221044926043  0.4561655627921295  0.1011747522105334   T   T   T
 -0.0100609828326730  0.7947450097358864  0.0997500314461883   T   T   T
  0.5100609828326730  0.7947450097358864  0.0997500314461883   T   T   T
  0.2500000000000000  0.6281800186864647  0.1587662216984767   T   T   T
 
  0.00000000E+00  0.00000000E+00  0.00000000E+00
  0.00000000E+00  0.00000000E+00  0.00000000E+00
  0.00000000E+00  0.00000000E+00  0.00000000E+00
  0.00000000E+00  0.00000000E+00  0.00000000E+00
  0.00000000E+00  0.00000000E+00  0.00000000E+00
  0.00000000E+00  0.00000000E+00  0.00000000E+00
  0.00000000E+00  0.00000000E+00  0.00000000E+00
  0.00000000E+00  0.00000000E+00  0.00000000E+00
  0.00000000E+00  0.00000000E+00  0.00000000E+00
  0.00000000E+00  0.00000000E+00  0.00000000E+00
  0.00000000E+00  0.00000000E+00  0.00000000E+00
  0.00000000E+00  0.00000000E+00  0.00000000E+00
  0.00000000E+00  0.00000000E+00  0.00000000E+00
  0.00000000E+00  0.00000000E+00  0.00000000E+00
  0.00000000E+00  0.00000000E+00  0.00000000E+00
