Title                                   
   1.00000000000000     
     4.9440799999999996    0.0000000000000000    0.0000000000000000
     0.0000000000000000    8.5647549999999999    0.0000000000000000
     0.0000000000000000    0.0000000000000000   20.0000000000000000
    10     4     1
Selective dynamics
Direct
 -0.0028473801373273  0.2942160948126864  0.1004611710563048   T   T   T
  0.2480467674396988  0.0385120785254493  0.1005402120460210   T   T   T
 -0.0034785066334015  0.9577241603593928  0.1004948519766152   T   T   T
  0.7467592803106519  0.2078408491375089  0.1004586895207813   T   T   T
  0.4982989718967424  0.2929514392127739  0.1005041177373829   T   T   T
  0.7486259958212411  0.0411261007128529  0.1005346755477066   T   T   T
  0.7551551509940017  0.7151263623534420  0.1005848037093889   T   T   T
  0.7541420613321320  0.5372901195139340  0.1005463085029691   T   T   T
  0.5008264979733237  0.9553884577183718  0.1005789931867914   T   T   T
  0.5108658193848338  0.4574651637182263  0.1005936591138454   T   T   T
 -0.0087069194902060  0.4526484652499449  0.1004391272186186   T   T   T
 -0.0140875673381484  0.7963080359452788  0.1004937182528873   T   T   T
  0.5165728347520774  0.7933156177631894  0.1007020747803810   T   T   T
  0.2475496578028353  0.2096748834796170  0.1005178762410799   T   T   T
  0.2522773358915451  0.6220931714973352  0.1005297211092301   T   T   T
 
  0.00000000E+00  0.00000000E+00  0.00000000E+00
  0.00000000E+00  0.00000000E+00  0.00000000E+00
  0.00000000E+00  0.00000000E+00  0.00000000E+00
  0.00000000E+00  0.00000000E+00  0.00000000E+00
  0.00000000E+00  0.00000000E+00  0.00000000E+00
  0.00000000E+00  0.00000000E+00  0.00000000E+00
  0.00000000E+00  0.00000000E+00  0.00000000E+00
  0.00000000E+00  0.00000000E+00  0.00000000E+00
  0.00000000E+00  0.00000000E+00  0.00000000E+00
  0.00000000E+00  0.00000000E+00  0.00000000E+00
  0.00000000E+00  0.00000000E+00  0.00000000E+00
  0.00000000E+00  0.00000000E+00  0.00000000E+00
  0.00000000E+00  0.00000000E+00  0.00000000E+00
  0.00000000E+00  0.00000000E+00  0.00000000E+00
  0.00000000E+00  0.00000000E+00  0.00000000E+00
