Title                                   
   1.00000000000000     
     9.8694509999999998    0.0000000000000000    0.0000000000000000
     0.0000000000000000    8.5490480000000009    0.0000000000000000
     0.0000000000000000    0.0000000000000000   20.0000000000000000
    26     5     1
Selective dynamics
Direct
  0.0562035633521124  0.0926404667865302  0.0883037178220885   T   T   T
  0.9308574306713485  0.1748703007166762  0.0893681937056895   T   T   T
  0.0574449537400894  0.9252898283325314  0.0879829404303233   T   T   T
  0.9291728972857333  0.3428137830937856  0.0913527318977511   T   T   T
  0.0569851681498832  0.5914186840948535  0.0887824632013035   T   T   T
  0.9324872219108584  0.6742759592377100  0.0904449659496483   T   T   T
  0.0565582311471216  0.4239576836747161  0.0899878107990487   T   T   T
  0.9329258764483696  0.8405355133974529  0.0895851738638674   T   T   T
  0.3062730566966124  0.0885557773807480  0.0899340553110869   T   T   T
  0.1829874324083352  0.1746069094409163  0.0892703913637280   T   T   T
  0.1837315330055840  0.3417958093995784  0.0903712823193932   T   T   T
  0.3076037171497768  0.5933195268310317  0.0946016377651707   T   T   T
  0.1814842013630738  0.6752382872839922  0.0891280183024831   T   T   T
  0.3106478037046499  0.4245409277655625  0.0937576910416764   T   T   T
  0.1808864276681259  0.8416527077622395  0.0884688947447540   T   T   T
  0.5560549986358909  0.0828530986776123  0.0938602077339935   T   T   T
  0.5547853680942044  0.9171936970489225  0.0973035305155692   T   T   T
  0.4354454155473478  0.3342979061584211  0.0961447433782671   T   T   T
  0.4271383437660290  0.8346622759259054  0.0965722923414620   T   T   T
  0.8060487272264572  0.0888303513567691  0.0897960884200592   T   T   T
  0.6793368354672630  0.1688630084990096  0.0921559792149835   T   T   T
  0.8075793204907470  0.9233809631174015  0.0910110383451057   T   T   T
  0.6769962618392549  0.3358859025317702  0.0965183619664442   T   T   T
  0.8057136267791988  0.5952319001984524  0.0977182740557750   T   T   T
  0.8015390939395570  0.4252142241061981  0.0958456593740147   T   T   T
  0.6851117758749342  0.8356630829702737  0.0984171744996922   T   T   T
  0.4219489007292667  0.6814644882400178  0.1019402551936323   T   T   T
  0.5537655285657466  0.4065987304211287  0.1024448715145110   T   T   T
  0.6899660545677073  0.6785637462828233  0.1067615686964199   T   T   T
  0.3052622936883460  0.9257143048261240  0.0895559426637404   T   T   T
  0.4296556409020925  0.1661588685935458  0.0920300089060899   T   T   T
  0.5570412991842885  0.5841572858473034  0.1962590346622440   T   T   T
 
  0.00000000E+00  0.00000000E+00  0.00000000E+00
  0.00000000E+00  0.00000000E+00  0.00000000E+00
  0.00000000E+00  0.00000000E+00  0.00000000E+00
  0.00000000E+00  0.00000000E+00  0.00000000E+00
  0.00000000E+00  0.00000000E+00  0.00000000E+00
  0.00000000E+00  0.00000000E+00  0.00000000E+00
  0.00000000E+00  0.00000000E+00  0.00000000E+00
  0.00000000E+00  0.00000000E+00  0.00000000E+00
  0.00000000E+00  0.00000000E+00  0.00000000E+00
  0.00000000E+00  0.00000000E+00  0.00000000E+00
  0.00000000E+00  0.00000000E+00  0.00000000E+00
  0.00000000E+00  0.00000000E+00  0.00000000E+00
  0.00000000E+00  0.00000000E+00  0.00000000E+00
  0.00000000E+00  0.00000000E+00  0.00000000E+00
  0.00000000E+00  0.00000000E+00  0.00000000E+00
  0.00000000E+00  0.00000000E+00  0.00000000E+00
  0.00000000E+00  0.00000000E+00  0.00000000E+00
  0.00000000E+00  0.00000000E+00  0.00000000E+00
  0.00000000E+00  0.00000000E+00  0.00000000E+00
  0.00000000E+00  0.00000000E+00  0.00000000E+00
  0.00000000E+00  0.00000000E+00  0.00000000E+00
  0.00000000E+00  0.00000000E+00  0.00000000E+00
  0.00000000E+00  0.00000000E+00  0.00000000E+00
  0.00000000E+00  0.00000000E+00  0.00000000E+00
  0.00000000E+00  0.00000000E+00  0.00000000E+00
  0.00000000E+00  0.00000000E+00  0.00000000E+00
  0.00000000E+00  0.00000000E+00  0.00000000E+00
  0.00000000E+00  0.00000000E+00  0.00000000E+00
  0.00000000E+00  0.00000000E+00  0.00000000E+00
  0.00000000E+00  0.00000000E+00  0.00000000E+00
  0.00000000E+00  0.00000000E+00  0.00000000E+00
  0.00000000E+00  0.00000000E+00  0.00000000E+00
