Title                                   
   1.00000000000000     
     9.8694509999999998    0.0000000000000000    0.0000000000000000
     0.0000000000000000    8.5490480000000009    0.0000000000000000
     0.0000000000000000    0.0000000000000000   20.0000000000000000
    30     1     1
Selective dynamics
Direct
  0.0562552574001709  0.0894056968837825  0.0856892365753614   T   T   T
  0.9311615953085808  0.1728965967147531  0.0878487964731783   T   T   T
  0.0562745910931531  0.9226334309697570  0.0853690165836593   T   T   T
  0.9303731350400615  0.3402174991511244  0.0916566811717814   T   T   T
  0.0562452619157551  0.5890954756478307  0.0902310452848643   T   T   T
  0.9306638018830796  0.6724552811013480  0.0909738044075025   T   T   T
  0.0562268002050140  0.4228698613127762  0.0906939647918423   T   T   T
  0.9306687036518918  0.8389814687674668  0.0874181831181253   T   T   T
  0.3052984572671815  0.0891879047526450  0.0873158399135646   T   T   T
  0.1813546421930494  0.1728146312297462  0.0876582322956954   T   T   T
  0.3064652768010281  0.9237615276683288  0.0871212778091355   T   T   T
  0.1820653173668301  0.3401185311957899  0.0914590957543760   T   T   T
  0.3074550869663566  0.5898897452730874  0.0983803792764713   T   T   T
  0.1818391210171886  0.6723987217306887  0.0907709072212022   T   T   T
  0.3067638326890683  0.4218762887151563  0.0985898642728543   T   T   T
  0.1818950597130895  0.8389336525271039  0.0872249071869860   T   T   T
  0.5562798093355812  0.0879489382799797  0.0926263380027195   T   T   T
  0.4311627425352534  0.1695271319749515  0.0927798654180286   T   T   T
  0.4313175984318532  0.3343478285862141  0.1031484905176469   T   T   T
  0.4276602588748495  0.6819548177484317  0.1058209313839858   T   T   T
  0.5561171257332279  0.4036920325275721  0.1190247855541928   T   T   T
  0.4321186539746341  0.8421182321765140  0.0938385246372882   T   T   T
  0.8072465102434888  0.0892733356288413  0.0875938468017805   T   T   T
  0.6813707862984860  0.1696074743863499  0.0930108758579218   T   T   T
  0.8061098250582281  0.9238390156126619  0.0873966730498551   T   T   T
  0.6811220424118973  0.3344752937871283  0.1033660056352844   T   T   T
  0.8050519397042334  0.5900227017084946  0.0987475405794150   T   T   T
  0.6848800604538905  0.6821235846249785  0.1063695030690016   T   T   T
  0.8056901055826292  0.4220030137064576  0.0989047128622385   T   T   T
  0.6804853790412462  0.8421842795310372  0.0941317449534329   T   T   T
  0.5563033966789773  0.9243715330750202  0.0921283371868846   T   T   T
  0.5557168251300290  0.5952204730039919  0.1583855923537581   T   T   T
 
  0.00000000E+00  0.00000000E+00  0.00000000E+00
  0.00000000E+00  0.00000000E+00  0.00000000E+00
  0.00000000E+00  0.00000000E+00  0.00000000E+00
  0.00000000E+00  0.00000000E+00  0.00000000E+00
  0.00000000E+00  0.00000000E+00  0.00000000E+00
  0.00000000E+00  0.00000000E+00  0.00000000E+00
  0.00000000E+00  0.00000000E+00  0.00000000E+00
  0.00000000E+00  0.00000000E+00  0.00000000E+00
  0.00000000E+00  0.00000000E+00  0.00000000E+00
  0.00000000E+00  0.00000000E+00  0.00000000E+00
  0.00000000E+00  0.00000000E+00  0.00000000E+00
  0.00000000E+00  0.00000000E+00  0.00000000E+00
  0.00000000E+00  0.00000000E+00  0.00000000E+00
  0.00000000E+00  0.00000000E+00  0.00000000E+00
  0.00000000E+00  0.00000000E+00  0.00000000E+00
  0.00000000E+00  0.00000000E+00  0.00000000E+00
  0.00000000E+00  0.00000000E+00  0.00000000E+00
  0.00000000E+00  0.00000000E+00  0.00000000E+00
  0.00000000E+00  0.00000000E+00  0.00000000E+00
  0.00000000E+00  0.00000000E+00  0.00000000E+00
  0.00000000E+00  0.00000000E+00  0.00000000E+00
  0.00000000E+00  0.00000000E+00  0.00000000E+00
  0.00000000E+00  0.00000000E+00  0.00000000E+00
  0.00000000E+00  0.00000000E+00  0.00000000E+00
  0.00000000E+00  0.00000000E+00  0.00000000E+00
  0.00000000E+00  0.00000000E+00  0.00000000E+00
  0.00000000E+00  0.00000000E+00  0.00000000E+00
  0.00000000E+00  0.00000000E+00  0.00000000E+00
  0.00000000E+00  0.00000000E+00  0.00000000E+00
  0.00000000E+00  0.00000000E+00  0.00000000E+00
  0.00000000E+00  0.00000000E+00  0.00000000E+00
  0.00000000E+00  0.00000000E+00  0.00000000E+00
