Title                                   
   1.00000000000000     
     4.9440799999999996    0.0000000000000000    0.0000000000000000
     0.0000000000000000   17.1295089999999988    0.0000000000000000
     0.0000000000000000    0.0000000000000000   20.0000000000000000
    29     1     1
Selective dynamics
Direct
 -0.0051862455770239  0.1047608508677930  0.2940070799007129   T   T   T
  0.2446243779140241  0.1467333961946083  0.2956678908286104   T   T   T
  0.2419155163637000  0.2300125412401584  0.3008504630324723   T   T   T
 -0.0090347744782914  0.2719935526508704  0.3059193379882218   T   T   T
  0.0124445817390734  0.6021284126982416  0.2995377751739874   T   T   T
  0.2557284044050342  0.7270220633983053  0.2947972519353249   T   T   T
  0.0034036767347259  0.8530945479394660  0.2912232412761998   T   T   T
  0.2517000655611680  0.8952076158329534  0.2910079727408652   T   T   T
  0.2487853681730898  0.9789886320577648  0.2910972331926602   T   T   T
  0.0058343971325021  0.7691802338964242  0.2927224166832827   T   T   T
  0.4954170366355350  0.1046527194398541  0.2932780600516104   T   T   T
  0.7438187260910392  0.1467424381724971  0.2949738358322055   T   T   T
  0.7408226875016012  0.2305687600892024  0.2995723136699419   T   T   T
  0.4980427255310784  0.0208587423909308  0.2914341680970309   T   T   T
  0.7447993809392981  0.3955188905688188  0.3088847298979228   T   T   T
  0.7555291356589625  0.4821736181751211  0.3076726312083323   T   T   T
  0.4890537654827080  0.2730160484721914  0.3009729661582766   T   T   T
  0.5083268852799410  0.6035237407486127  0.3026118515166463   T   T   T
  0.7568100200950352  0.7278638289412385  0.2936277037438468   T   T   T
  0.5016495441736408  0.8528970263547393  0.2913634865149267   T   T   T
  0.7515775084264853  0.8947553027489551  0.2908127661457396   T   T   T
  0.7486738931950696  0.9787542887125115  0.2909439755271713   T   T   T
  0.5048835290447063  0.7689426809889890  0.2930837445342487   T   T   T
  0.7594658369392325  0.6448430188559003  0.2970752883476872   T   T   T
 -0.0023515685983810  0.0209474333654448  0.2917234311118635   T   T   T
  0.5108377500973514  0.5232196547686503  0.3141420691306857   T   T   T
  0.0074322605358569  0.5193550263297720  0.3033633215791111   T   T   T
  0.4979774602052886  0.3565882475419189  0.3042042212746346   T   T   T
 -0.0139246552382701  0.3532749037527034  0.3184464174738022   T   T   T
  0.2575078826187403  0.6453830483416174  0.2990604422658655   T   T   T
  0.2534418274170796  0.4383407344637424  0.3409819131660644   T   T   T
 
  0.00000000E+00  0.00000000E+00  0.00000000E+00
  0.00000000E+00  0.00000000E+00  0.00000000E+00
  0.00000000E+00  0.00000000E+00  0.00000000E+00
  0.00000000E+00  0.00000000E+00  0.00000000E+00
  0.00000000E+00  0.00000000E+00  0.00000000E+00
  0.00000000E+00  0.00000000E+00  0.00000000E+00
  0.00000000E+00  0.00000000E+00  0.00000000E+00
  0.00000000E+00  0.00000000E+00  0.00000000E+00
  0.00000000E+00  0.00000000E+00  0.00000000E+00
  0.00000000E+00  0.00000000E+00  0.00000000E+00
  0.00000000E+00  0.00000000E+00  0.00000000E+00
  0.00000000E+00  0.00000000E+00  0.00000000E+00
  0.00000000E+00  0.00000000E+00  0.00000000E+00
  0.00000000E+00  0.00000000E+00  0.00000000E+00
  0.00000000E+00  0.00000000E+00  0.00000000E+00
  0.00000000E+00  0.00000000E+00  0.00000000E+00
  0.00000000E+00  0.00000000E+00  0.00000000E+00
  0.00000000E+00  0.00000000E+00  0.00000000E+00
  0.00000000E+00  0.00000000E+00  0.00000000E+00
  0.00000000E+00  0.00000000E+00  0.00000000E+00
  0.00000000E+00  0.00000000E+00  0.00000000E+00
  0.00000000E+00  0.00000000E+00  0.00000000E+00
  0.00000000E+00  0.00000000E+00  0.00000000E+00
  0.00000000E+00  0.00000000E+00  0.00000000E+00
  0.00000000E+00  0.00000000E+00  0.00000000E+00
  0.00000000E+00  0.00000000E+00  0.00000000E+00
  0.00000000E+00  0.00000000E+00  0.00000000E+00
  0.00000000E+00  0.00000000E+00  0.00000000E+00
  0.00000000E+00  0.00000000E+00  0.00000000E+00
  0.00000000E+00  0.00000000E+00  0.00000000E+00
  0.00000000E+00  0.00000000E+00  0.00000000E+00
