Title                                   
   1.00000000000000     
     9.8694509999999998    0.0000000000000000    0.0000000000000000
     0.0000000000000000    8.5490480000000009    0.0000000000000000
     0.0000000000000000    0.0000000000000000   20.0000000000000000
    27     4     1
Selective dynamics
Direct
  0.0559246619457989  0.0918386515695456  0.0863742238543655   T   T   T
  0.9297505460739772  0.1750257289395517  0.0880903277335788   T   T   T
  0.0566146868674951  0.9233723446446827  0.0844870727049757   T   T   T
  0.9296750897767693  0.3417112850070059  0.0916924408496222   T   T   T
  0.0562047029933705  0.5897414250763395  0.0875923567567328   T   T   T
  0.9317243774039968  0.6720443198757599  0.0865676413663588   T   T   T
  0.0556321213767551  0.4228322539118332  0.0914447653976663   T   T   T
  0.9315504491286141  0.8398106061329518  0.0850940237170091   T   T   T
  0.3056261821608187  0.0884634353754114  0.0881967736456946   T   T   T
  0.1820019322916328  0.1736252700963073  0.0893278672102193   T   T   T
  0.3074329659344855  0.9224583736057974  0.0873369048890567   T   T   T
  0.1815490951259805  0.3399093504217539  0.0939112269112253   T   T   T
  0.3052542493823576  0.5890164476566784  0.0999915954647064   T   T   T
  0.1810551464133995  0.6706725048412262  0.0884632812343221   T   T   T
  0.1821143009239621  0.8385772151030818  0.0859923800222094   T   T   T
  0.5566826308208777  0.0869593879526258  0.0934942601673838   T   T   T
  0.4307790354506197  0.1698410102921812  0.0936102933759353   T   T   T
  0.4310427070300243  0.3352457268160301  0.1033702666463670   T   T   T
  0.4303087333740363  0.8379213242896507  0.0967746899120590   T   T   T
  0.8064838761903017  0.0898055141641824  0.0866732329824691   T   T   T
  0.6809259210971665  0.1717213240350855  0.0913143019384760   T   T   T
  0.8062137806234915  0.9241383282902088  0.0863745468770862   T   T   T
  0.6790505652993021  0.3373177981495802  0.0997765100401479   T   T   T
  0.8061207380278520  0.5930843803241632  0.0937100871721630   T   T   T
  0.6843428004986978  0.8381544539571968  0.0936184694253945   T   T   T
  0.4225953678249711  0.6773412796939651  0.1153797979383468   T   T   T
  0.5555159413464259  0.4107554977292880  0.1188358742378393   T   T   T
  0.6898546557796805  0.6783159078507162  0.1037631674131323   T   T   T
  0.5575333519163098  0.9182986649861783  0.0956298936992109   T   T   T
  0.3058613479750253  0.4213632406171306  0.1013733289066452   T   T   T
  0.8035564242258334  0.4253937260197672  0.0962396437077586   T   T   T
  0.5606606147199767  0.5954892225741237  0.1811737538018582   T   T   T
 
  0.00000000E+00  0.00000000E+00  0.00000000E+00
  0.00000000E+00  0.00000000E+00  0.00000000E+00
  0.00000000E+00  0.00000000E+00  0.00000000E+00
  0.00000000E+00  0.00000000E+00  0.00000000E+00
  0.00000000E+00  0.00000000E+00  0.00000000E+00
  0.00000000E+00  0.00000000E+00  0.00000000E+00
  0.00000000E+00  0.00000000E+00  0.00000000E+00
  0.00000000E+00  0.00000000E+00  0.00000000E+00
  0.00000000E+00  0.00000000E+00  0.00000000E+00
  0.00000000E+00  0.00000000E+00  0.00000000E+00
  0.00000000E+00  0.00000000E+00  0.00000000E+00
  0.00000000E+00  0.00000000E+00  0.00000000E+00
  0.00000000E+00  0.00000000E+00  0.00000000E+00
  0.00000000E+00  0.00000000E+00  0.00000000E+00
  0.00000000E+00  0.00000000E+00  0.00000000E+00
  0.00000000E+00  0.00000000E+00  0.00000000E+00
  0.00000000E+00  0.00000000E+00  0.00000000E+00
  0.00000000E+00  0.00000000E+00  0.00000000E+00
  0.00000000E+00  0.00000000E+00  0.00000000E+00
  0.00000000E+00  0.00000000E+00  0.00000000E+00
  0.00000000E+00  0.00000000E+00  0.00000000E+00
  0.00000000E+00  0.00000000E+00  0.00000000E+00
  0.00000000E+00  0.00000000E+00  0.00000000E+00
  0.00000000E+00  0.00000000E+00  0.00000000E+00
  0.00000000E+00  0.00000000E+00  0.00000000E+00
  0.00000000E+00  0.00000000E+00  0.00000000E+00
  0.00000000E+00  0.00000000E+00  0.00000000E+00
  0.00000000E+00  0.00000000E+00  0.00000000E+00
  0.00000000E+00  0.00000000E+00  0.00000000E+00
  0.00000000E+00  0.00000000E+00  0.00000000E+00
  0.00000000E+00  0.00000000E+00  0.00000000E+00
  0.00000000E+00  0.00000000E+00  0.00000000E+00
