Title                                   
   1.00000000000000     
     9.8694509999999998    0.0000000000000000    0.0000000000000000
     0.0000000000000000    8.5490480000000009    0.0000000000000000
     0.0000000000000000    0.0000000000000000   20.0000000000000000
    28     3     1
Selective dynamics
Direct
  0.0563242879242918  0.0907427197743875  0.0839763114167399   T   T   T
  0.9304858093664198  0.1739800181093294  0.0876765394806012   T   T   T
  0.0563071141294401  0.9226631574625764  0.0813011499424296   T   T   T
  0.9306741057196795  0.3399004532013337  0.0928741638696327   T   T   T
  0.0561980571333444  0.5892763541795876  0.0859868472003007   T   T   T
  0.9314611430663258  0.6704732953595341  0.0861346700850998   T   T   T
  0.0562741033258676  0.4225811348575240  0.0911207738130278   T   T   T
  0.9306636326164743  0.8384164158995457  0.0832579369069750   T   T   T
  0.3057104167425799  0.0891410321242554  0.0856727764173969   T   T   T
  0.1822086410640594  0.1739749984620304  0.0868975202450343   T   T   T
  0.3067762108581633  0.9237125732973377  0.0845038986244828   T   T   T
  0.1819308304367665  0.3398066704622120  0.0920688161672331   T   T   T
  0.3057323874946601  0.5900706683970549  0.0964399698416496   T   T   T
  0.1809778588412498  0.6704409238395054  0.0849469676589643   T   T   T
  0.1820442632622593  0.8384505603459642  0.0821993408339785   T   T   T
  0.5563807519072075  0.0881146725157506  0.0944507179161494   T   T   T
  0.4308973163376302  0.1706173988646953  0.0923392644288705   T   T   T
  0.4325167402341156  0.3356904026218694  0.1024485288867507   T   T   T
  0.4294410722599518  0.8392367735486813  0.0958535855638865   T   T   T
  0.8070634366581153  0.0890586726807906  0.0868858410524094   T   T   T
  0.6818647330337587  0.1706901068772012  0.0933217688827344   T   T   T
  0.8060343877561721  0.9236302806090292  0.0859599692761015   T   T   T
  0.6801413473079887  0.3358703139007038  0.1033619775306700   T   T   T
  0.8070051450342172  0.5902551356263476  0.0985081672786685   T   T   T
  0.6834386320808179  0.8392798923073874  0.0974571748296701   T   T   T
  0.4232557153936503  0.6779784641404173  0.1099667129444662   T   T   T
  0.5560355383372165  0.4109019705852619  0.1184129613029221   T   T   T
  0.6896941816808598  0.6783110635017848  0.1124880539750250   T   T   T
  0.5564092254149580  0.9210401869119755  0.0976694422259574   T   T   T
  0.3072556088294722  0.4221721920845997  0.0986885179963994   T   T   T
  0.8054252729781279  0.4223014285325973  0.1002257505133017   T   T   T
  0.5530110327741653  0.6014660689187302  0.1925788828924872   T   T   T
 
  0.00000000E+00  0.00000000E+00  0.00000000E+00
  0.00000000E+00  0.00000000E+00  0.00000000E+00
  0.00000000E+00  0.00000000E+00  0.00000000E+00
  0.00000000E+00  0.00000000E+00  0.00000000E+00
  0.00000000E+00  0.00000000E+00  0.00000000E+00
  0.00000000E+00  0.00000000E+00  0.00000000E+00
  0.00000000E+00  0.00000000E+00  0.00000000E+00
  0.00000000E+00  0.00000000E+00  0.00000000E+00
  0.00000000E+00  0.00000000E+00  0.00000000E+00
  0.00000000E+00  0.00000000E+00  0.00000000E+00
  0.00000000E+00  0.00000000E+00  0.00000000E+00
  0.00000000E+00  0.00000000E+00  0.00000000E+00
  0.00000000E+00  0.00000000E+00  0.00000000E+00
  0.00000000E+00  0.00000000E+00  0.00000000E+00
  0.00000000E+00  0.00000000E+00  0.00000000E+00
  0.00000000E+00  0.00000000E+00  0.00000000E+00
  0.00000000E+00  0.00000000E+00  0.00000000E+00
  0.00000000E+00  0.00000000E+00  0.00000000E+00
  0.00000000E+00  0.00000000E+00  0.00000000E+00
  0.00000000E+00  0.00000000E+00  0.00000000E+00
  0.00000000E+00  0.00000000E+00  0.00000000E+00
  0.00000000E+00  0.00000000E+00  0.00000000E+00
  0.00000000E+00  0.00000000E+00  0.00000000E+00
  0.00000000E+00  0.00000000E+00  0.00000000E+00
  0.00000000E+00  0.00000000E+00  0.00000000E+00
  0.00000000E+00  0.00000000E+00  0.00000000E+00
  0.00000000E+00  0.00000000E+00  0.00000000E+00
  0.00000000E+00  0.00000000E+00  0.00000000E+00
  0.00000000E+00  0.00000000E+00  0.00000000E+00
  0.00000000E+00  0.00000000E+00  0.00000000E+00
  0.00000000E+00  0.00000000E+00  0.00000000E+00
  0.00000000E+00  0.00000000E+00  0.00000000E+00
