Title                                   
   1.00000000000000     
     4.9440799999999996    0.0000000000000000    0.0000000000000000
     0.0000000000000000    8.5647549999999999    0.0000000000000000
     0.0000000000000000    0.0000000000000000   20.0000000000000000
    13     1     1
Selective dynamics
Direct
 -0.0001052644451343  0.2907896146310210  0.0975987948560048   T   T   T
  0.2500000000000000  0.0443849569583659  0.0997296062327912   T   T   T
 -0.0010157514234820  0.9600764214942830  0.0997570113659990   T   T   T
  0.7500000000000000  0.2069755900340220  0.0960147049823130   T   T   T
  0.5001052644451344  0.2907896146310210  0.0975987948560048   T   T   T
  0.7500000000000000  0.0424186753206651  0.0973484085392769   T   T   T
  0.7500000000000000  0.7111122566238506  0.0984907086194410   T   T   T
  0.7500000000000000  0.5362007176865335  0.0977144254880642   T   T   T
  0.5010157514234819  0.9600764214942830  0.0997570113659990   T   T   T
  0.5061809295832644  0.4529186199917590  0.1001132470151433   T   T   T
 -0.0061809295832647  0.4529186199917590  0.1001132470151433   T   T   T
 -0.0089808087800956  0.7959155007321210  0.1028505593001326   T   T   T
  0.5089808087800958  0.7959155007321210  0.1028505593001326   T   T   T
  0.2500000000000000  0.2060079169297398  0.0984505051008264   T   T   T
  0.2500000000000000  0.6251805727484588  0.1195924159627311   T   T   T
 
  0.00000000E+00  0.00000000E+00  0.00000000E+00
  0.00000000E+00  0.00000000E+00  0.00000000E+00
  0.00000000E+00  0.00000000E+00  0.00000000E+00
  0.00000000E+00  0.00000000E+00  0.00000000E+00
  0.00000000E+00  0.00000000E+00  0.00000000E+00
  0.00000000E+00  0.00000000E+00  0.00000000E+00
  0.00000000E+00  0.00000000E+00  0.00000000E+00
  0.00000000E+00  0.00000000E+00  0.00000000E+00
  0.00000000E+00  0.00000000E+00  0.00000000E+00
  0.00000000E+00  0.00000000E+00  0.00000000E+00
  0.00000000E+00  0.00000000E+00  0.00000000E+00
  0.00000000E+00  0.00000000E+00  0.00000000E+00
  0.00000000E+00  0.00000000E+00  0.00000000E+00
  0.00000000E+00  0.00000000E+00  0.00000000E+00
  0.00000000E+00  0.00000000E+00  0.00000000E+00
