Title                                   
   1.00000000000000     
     9.8694509999999998    0.0000000000000000    0.0000000000000000
     0.0000000000000000    8.5490480000000009    0.0000000000000000
     0.0000000000000000    0.0000000000000000   20.0000000000000000
    28     2     1
Selective dynamics
Direct
  0.0562398669585770  0.0895430530609154  0.0823680122952547   T   T   T
  0.9313119321179693  0.1709910454520830  0.0843985636865841   T   T   T
  0.0566152177421226  0.9238458491193451  0.0830574202096085   T   T   T
  0.9331936213579288  0.3382081431649364  0.0831938900153084   T   T   T
  0.0564345112856270  0.5901007724759433  0.0797823137542040   T   T   T
  0.9321120747690946  0.6724170477153174  0.0838268515184919   T   T   T
  0.0570169988157745  0.4232811988126831  0.0791112405006291   T   T   T
  0.9305900670008659  0.8395518217530089  0.0850090430331527   T   T   T
  0.3083759893577260  0.0905281455855687  0.0906572063850480   T   T   T
  0.1830075698678689  0.1718608233667937  0.0836271787912963   T   T   T
  0.1812384247374776  0.3394704896723170  0.0825095357649779   T   T   T
  0.3001708490140552  0.5924406107447246  0.0959738144541195   T   T   T
  0.1806118736260579  0.6752780933143826  0.0843006943467634   T   T   T
  0.3017596812424799  0.4236087284955763  0.0927812912361589   T   T   T
  0.1817979827986471  0.8427452740624203  0.0859241358809778   T   T   T
  0.4328326545899950  0.1766469002893664  0.0994739496819347   T   T   T
  0.5540970419182111  0.9236027469738377  0.1055177799118605   T   T   T
  0.4263582495078605  0.3439902495845141  0.1049909794953480   T   T   T
  0.4202125811539611  0.6735430663573084  0.1160976657866173   T   T   T
  0.4271795676154129  0.8388253553707298  0.1053434949389189   T   T   T
  0.8048628351785979  0.0881878949563844  0.0912892671674510   T   T   T
  0.6830336317695436  0.1752982801308853  0.1023400328678354   T   T   T
  0.8048225261363785  0.9202987817129119  0.0917882457173480   T   T   T
  0.6905595671900642  0.3392446773526040  0.1138270569692802   T   T   T
  0.8114305725222670  0.5879984199612838  0.0936869646403224   T   T   T
  0.6867434879960969  0.6660609346208904  0.1074260225088838   T   T   T
  0.8127674420585611  0.4190565514213017  0.0953567028985209   T   T   T
  0.6788835653945228  0.8347273880223711  0.1016382978329494   T   T   T
  0.5571477956914580  0.0899850033683190  0.1042163244507582   T   T   T
  0.3053726165496249  0.9238036539008233  0.0924166070681347   T   T   T
  0.5563542040351740  0.5057339991804731  0.1390344161912887   T   T   T
 
  0.00000000E+00  0.00000000E+00  0.00000000E+00
  0.00000000E+00  0.00000000E+00  0.00000000E+00
  0.00000000E+00  0.00000000E+00  0.00000000E+00
  0.00000000E+00  0.00000000E+00  0.00000000E+00
  0.00000000E+00  0.00000000E+00  0.00000000E+00
  0.00000000E+00  0.00000000E+00  0.00000000E+00
  0.00000000E+00  0.00000000E+00  0.00000000E+00
  0.00000000E+00  0.00000000E+00  0.00000000E+00
  0.00000000E+00  0.00000000E+00  0.00000000E+00
  0.00000000E+00  0.00000000E+00  0.00000000E+00
  0.00000000E+00  0.00000000E+00  0.00000000E+00
  0.00000000E+00  0.00000000E+00  0.00000000E+00
  0.00000000E+00  0.00000000E+00  0.00000000E+00
  0.00000000E+00  0.00000000E+00  0.00000000E+00
  0.00000000E+00  0.00000000E+00  0.00000000E+00
  0.00000000E+00  0.00000000E+00  0.00000000E+00
  0.00000000E+00  0.00000000E+00  0.00000000E+00
  0.00000000E+00  0.00000000E+00  0.00000000E+00
  0.00000000E+00  0.00000000E+00  0.00000000E+00
  0.00000000E+00  0.00000000E+00  0.00000000E+00
  0.00000000E+00  0.00000000E+00  0.00000000E+00
  0.00000000E+00  0.00000000E+00  0.00000000E+00
  0.00000000E+00  0.00000000E+00  0.00000000E+00
  0.00000000E+00  0.00000000E+00  0.00000000E+00
  0.00000000E+00  0.00000000E+00  0.00000000E+00
  0.00000000E+00  0.00000000E+00  0.00000000E+00
  0.00000000E+00  0.00000000E+00  0.00000000E+00
  0.00000000E+00  0.00000000E+00  0.00000000E+00
  0.00000000E+00  0.00000000E+00  0.00000000E+00
  0.00000000E+00  0.00000000E+00  0.00000000E+00
  0.00000000E+00  0.00000000E+00  0.00000000E+00
