Title                                   
   1.00000000000000     
     9.8694509999999998    0.0000000000000000    0.0000000000000000
     0.0000000000000000    8.5490480000000009    0.0000000000000000
     0.0000000000000000    0.0000000000000000   20.0000000000000000
    26     5     1
Selective dynamics
Direct
  0.0558513581595299  0.0920994016673300  0.0856157376352322   T   T   T
  0.9297314525406329  0.1758746226521892  0.0877505622708217   T   T   T
  0.0566537949284982  0.9234298205365570  0.0843304432220839   T   T   T
  0.9288748835687677  0.3419844642060058  0.0909027788423467   T   T   T
  0.0559858079648340  0.5898753784313916  0.0860973578103542   T   T   T
  0.9314173956334686  0.6719418486475534  0.0871209204627993   T   T   T
  0.0554757572493087  0.4232403989352602  0.0899893286609683   T   T   T
  0.9315345633373393  0.8400683053373914  0.0862923152392506   T   T   T
  0.3051159703901760  0.0888050488838570  0.0877284706244588   T   T   T
  0.1817738878546458  0.1740974458721452  0.0877948401765757   T   T   T
  0.3072765806561706  0.9230676097696491  0.0880898755266308   T   T   T
  0.1814284184983823  0.3399415242049961  0.0914136047345749   T   T   T
  0.3055626040547546  0.5895369989527174  0.0980909559381868   T   T   T
  0.1808881918592582  0.6702867155716900  0.0872555696677772   T   T   T
  0.1823648107238334  0.8386277048067580  0.0856976644349118   T   T   T
  0.5564338549387681  0.0864514044244749  0.0966540698824813   T   T   T
  0.4306024231876102  0.1688914249364637  0.0940681905033253   T   T   T
  0.4317610722414937  0.3335459833523549  0.1010438780234921   T   T   T
  0.4299633705332720  0.8388091974720534  0.0989146517374457   T   T   T
  0.8067680747742995  0.0904716585036033  0.0878366322513262   T   T   T
  0.6811415444145824  0.1715488942734470  0.0937732466056187   T   T   T
  0.8066571864802663  0.9251898673157773  0.0888426919943009   T   T   T
  0.6776192049609111  0.3354759710132083  0.0996848015720920   T   T   T
  0.8064384596638928  0.5938145460224392  0.0957911792171500   T   T   T
  0.6850767393313252  0.8404830183373962  0.0984031071736180   T   T   T
  0.4221553568364144  0.6774358940426117  0.1132906743952235   T   T   T
  0.5539600083604496  0.4063212084828648  0.1160260548485131   T   T   T
  0.6929403051254327  0.6818703542090880  0.1108896825526196   T   T   T
  0.5577284228872060  0.9189575381570195  0.0988813252244907   T   T   T
  0.3089797621806230  0.4214206360685261  0.0972834888286553   T   T   T
  0.8002879680649214  0.4260775067772988  0.0950793003632919   T   T   T
  0.5611897685989394  0.5906036081358831  0.1750415995793989   T   T   T
 
  0.00000000E+00  0.00000000E+00  0.00000000E+00
  0.00000000E+00  0.00000000E+00  0.00000000E+00
  0.00000000E+00  0.00000000E+00  0.00000000E+00
  0.00000000E+00  0.00000000E+00  0.00000000E+00
  0.00000000E+00  0.00000000E+00  0.00000000E+00
  0.00000000E+00  0.00000000E+00  0.00000000E+00
  0.00000000E+00  0.00000000E+00  0.00000000E+00
  0.00000000E+00  0.00000000E+00  0.00000000E+00
  0.00000000E+00  0.00000000E+00  0.00000000E+00
  0.00000000E+00  0.00000000E+00  0.00000000E+00
  0.00000000E+00  0.00000000E+00  0.00000000E+00
  0.00000000E+00  0.00000000E+00  0.00000000E+00
  0.00000000E+00  0.00000000E+00  0.00000000E+00
  0.00000000E+00  0.00000000E+00  0.00000000E+00
  0.00000000E+00  0.00000000E+00  0.00000000E+00
  0.00000000E+00  0.00000000E+00  0.00000000E+00
  0.00000000E+00  0.00000000E+00  0.00000000E+00
  0.00000000E+00  0.00000000E+00  0.00000000E+00
  0.00000000E+00  0.00000000E+00  0.00000000E+00
  0.00000000E+00  0.00000000E+00  0.00000000E+00
  0.00000000E+00  0.00000000E+00  0.00000000E+00
  0.00000000E+00  0.00000000E+00  0.00000000E+00
  0.00000000E+00  0.00000000E+00  0.00000000E+00
  0.00000000E+00  0.00000000E+00  0.00000000E+00
  0.00000000E+00  0.00000000E+00  0.00000000E+00
  0.00000000E+00  0.00000000E+00  0.00000000E+00
  0.00000000E+00  0.00000000E+00  0.00000000E+00
  0.00000000E+00  0.00000000E+00  0.00000000E+00
  0.00000000E+00  0.00000000E+00  0.00000000E+00
  0.00000000E+00  0.00000000E+00  0.00000000E+00
  0.00000000E+00  0.00000000E+00  0.00000000E+00
  0.00000000E+00  0.00000000E+00  0.00000000E+00
