Title                                   
   1.00000000000000     
     9.8694509999999998    0.0000000000000000    0.0000000000000000
     0.0000000000000000    8.5490480000000009    0.0000000000000000
     0.0000000000000000    0.0000000000000000   20.0000000000000000
    30     1     1
Selective dynamics
Direct
  0.0565404558089614  0.0905498450924536  0.0840652625286986   T   T   T
  0.9313949163782633  0.1724920780971976  0.0860573772201206   T   T   T
  0.0559841873960540  0.9234767490117212  0.0838133782425533   T   T   T
  0.9314116463507573  0.3392351262934431  0.0890928402511477   T   T   T
  0.0565918826358192  0.5890238968817089  0.0860259122452855   T   T   T
  0.9325455337229659  0.6723474920928545  0.0884493560921439   T   T   T
  0.0570182742948499  0.4228653547605639  0.0871702799523761   T   T   T
  0.9312999199533142  0.8390654920123152  0.0862827316578383   T   T   T
  0.3058195534885481  0.0902597993777586  0.0881314286012821   T   T   T
  0.1816566215633170  0.1740433251229302  0.0862966329482981   T   T   T
  0.3045699324847745  0.9240301101046716  0.0890501858780362   T   T   T
  0.1825185502608934  0.3415303950965248  0.0888389781351862   T   T   T
  0.3039315627846615  0.5930818738587081  0.0967070330200697   T   T   T
  0.1802435743865671  0.6737165805127935  0.0876220649820061   T   T   T
  0.3074286337988729  0.4249379336605132  0.0963103388917914   T   T   T
  0.1799139077609202  0.8406440707364601  0.0862282533316497   T   T   T
  0.5555816418632465  0.0864769948214605  0.0947663693703989   T   T   T
  0.4311054390611862  0.1713265491075103  0.0933095070837430   T   T   T
  0.5548927990971234  0.9196759156265027  0.0982150921008059   T   T   T
  0.4320198201282995  0.3373303620225700  0.1011056952372519   T   T   T
  0.5577411374672054  0.4094747335347871  0.1144683076355773   T   T   T
  0.4268426190259732  0.8399154591511803  0.0980283955515412   T   T   T
  0.8068860053387465  0.0884477838379554  0.0880730223622567   T   T   T
  0.6819080403414408  0.1693833092448883  0.0937975510927313   T   T   T
  0.8067897616565728  0.9221776438864279  0.0891539411079868   T   T   T
  0.6828648499304620  0.3347978601966852  0.1020607304819373   T   T   T
  0.8096415716118264  0.5889830454176621  0.0994348832220246   T   T   T
  0.6920448232337035  0.6770701935777277  0.1123056061939965   T   T   T
  0.8079543401801335  0.4208426258098944  0.0979562868915653   T   T   T
  0.6830960685951447  0.8388000330984625  0.0995767974224183   T   T   T
  0.4194306506492119  0.6803201652701819  0.1082215993141614   T   T   T
  0.5519702787501896  0.5939232026834939  0.1650591609531548   T   T   T
 
  0.00000000E+00  0.00000000E+00  0.00000000E+00
  0.00000000E+00  0.00000000E+00  0.00000000E+00
  0.00000000E+00  0.00000000E+00  0.00000000E+00
  0.00000000E+00  0.00000000E+00  0.00000000E+00
  0.00000000E+00  0.00000000E+00  0.00000000E+00
  0.00000000E+00  0.00000000E+00  0.00000000E+00
  0.00000000E+00  0.00000000E+00  0.00000000E+00
  0.00000000E+00  0.00000000E+00  0.00000000E+00
  0.00000000E+00  0.00000000E+00  0.00000000E+00
  0.00000000E+00  0.00000000E+00  0.00000000E+00
  0.00000000E+00  0.00000000E+00  0.00000000E+00
  0.00000000E+00  0.00000000E+00  0.00000000E+00
  0.00000000E+00  0.00000000E+00  0.00000000E+00
  0.00000000E+00  0.00000000E+00  0.00000000E+00
  0.00000000E+00  0.00000000E+00  0.00000000E+00
  0.00000000E+00  0.00000000E+00  0.00000000E+00
  0.00000000E+00  0.00000000E+00  0.00000000E+00
  0.00000000E+00  0.00000000E+00  0.00000000E+00
  0.00000000E+00  0.00000000E+00  0.00000000E+00
  0.00000000E+00  0.00000000E+00  0.00000000E+00
  0.00000000E+00  0.00000000E+00  0.00000000E+00
  0.00000000E+00  0.00000000E+00  0.00000000E+00
  0.00000000E+00  0.00000000E+00  0.00000000E+00
  0.00000000E+00  0.00000000E+00  0.00000000E+00
  0.00000000E+00  0.00000000E+00  0.00000000E+00
  0.00000000E+00  0.00000000E+00  0.00000000E+00
  0.00000000E+00  0.00000000E+00  0.00000000E+00
  0.00000000E+00  0.00000000E+00  0.00000000E+00
  0.00000000E+00  0.00000000E+00  0.00000000E+00
  0.00000000E+00  0.00000000E+00  0.00000000E+00
  0.00000000E+00  0.00000000E+00  0.00000000E+00
  0.00000000E+00  0.00000000E+00  0.00000000E+00
