Title                                   
   1.00000000000000     
     9.8694509999999998    0.0000000000000000    0.0000000000000000
     0.0000000000000000    8.5490480000000009    0.0000000000000000
     0.0000000000000000    0.0000000000000000   20.0000000000000000
    27     3     1
Selective dynamics
Direct
  0.0557102909821311  0.0899710848866603  0.0826611137413472   T   T   T
  0.9304605842891377  0.1737890977860208  0.0827201750109582   T   T   T
  0.0575089826903414  0.9233635042743811  0.0831562058953868   T   T   T
  0.9324412001089220  0.3414868041762710  0.0817258242529437   T   T   T
  0.0570139660579972  0.5903556875705945  0.0802596812872865   T   T   T
  0.9330547291655826  0.6747289619022019  0.0828236443404255   T   T   T
  0.0571269322393324  0.4232418300274146  0.0800258649097736   T   T   T
  0.9325802124726810  0.8413303600996448  0.0842769708450476   T   T   T
  0.3052687476427324  0.0871960598570957  0.0931090657202764   T   T   T
  0.1802645475363634  0.1700193980277645  0.0862415798653189   T   T   T
  0.1806007802960127  0.3377983624636937  0.0856093499920369   T   T   T
  0.3037348580869765  0.5874116386821898  0.0968492949611444   T   T   T
  0.1816991738178474  0.6721709474914925  0.0853551187226854   T   T   T
  0.3024074441153852  0.4172911529692958  0.0976396816191486   T   T   T
  0.1827696439976556  0.8397019374439713  0.0859021942234438   T   T   T
  0.5553494615856776  0.0908439777946918  0.1026721684636371   T   T   T
  0.4270666773539082  0.1727152455418464  0.1034773846844672   T   T   T
  0.5557180605910813  0.9214695491633016  0.1026633366796318   T   T   T
  0.4231052944254189  0.6726544742202957  0.1103164594127846   T   T   T
  0.4287427132141381  0.8354776103817579  0.1025998724273721   T   T   T
  0.8052701267039682  0.0909160153575660  0.0882302207394453   T   T   T
  0.6814955748819902  0.1771666371362584  0.0976264008214993   T   T   T
  0.8063966049237082  0.9235719998773114  0.0893643463624998   T   T   T
  0.6867092180820843  0.3426194716535449  0.1018518752523837   T   T   T
  0.8097701154380471  0.5951946612650770  0.0913141148521964   T   T   T
  0.8082480330188064  0.4246250307748561  0.0899204526840841   T   T   T
  0.6836988317982844  0.8370457698413114  0.0991416731680869   T   T   T
  0.4193957777824027  0.3347748730523449  0.1124159281987726   T   T   T
  0.6913998351309452  0.6750170674690434  0.1047601482621675   T   T   T
  0.3059271480620225  0.9219762264193692  0.0918261938972078   T   T   T
  0.5621994335084192  0.5049495623927602  0.1644286587065744   T   T   T
 
  0.00000000E+00  0.00000000E+00  0.00000000E+00
  0.00000000E+00  0.00000000E+00  0.00000000E+00
  0.00000000E+00  0.00000000E+00  0.00000000E+00
  0.00000000E+00  0.00000000E+00  0.00000000E+00
  0.00000000E+00  0.00000000E+00  0.00000000E+00
  0.00000000E+00  0.00000000E+00  0.00000000E+00
  0.00000000E+00  0.00000000E+00  0.00000000E+00
  0.00000000E+00  0.00000000E+00  0.00000000E+00
  0.00000000E+00  0.00000000E+00  0.00000000E+00
  0.00000000E+00  0.00000000E+00  0.00000000E+00
  0.00000000E+00  0.00000000E+00  0.00000000E+00
  0.00000000E+00  0.00000000E+00  0.00000000E+00
  0.00000000E+00  0.00000000E+00  0.00000000E+00
  0.00000000E+00  0.00000000E+00  0.00000000E+00
  0.00000000E+00  0.00000000E+00  0.00000000E+00
  0.00000000E+00  0.00000000E+00  0.00000000E+00
  0.00000000E+00  0.00000000E+00  0.00000000E+00
  0.00000000E+00  0.00000000E+00  0.00000000E+00
  0.00000000E+00  0.00000000E+00  0.00000000E+00
  0.00000000E+00  0.00000000E+00  0.00000000E+00
  0.00000000E+00  0.00000000E+00  0.00000000E+00
  0.00000000E+00  0.00000000E+00  0.00000000E+00
  0.00000000E+00  0.00000000E+00  0.00000000E+00
  0.00000000E+00  0.00000000E+00  0.00000000E+00
  0.00000000E+00  0.00000000E+00  0.00000000E+00
  0.00000000E+00  0.00000000E+00  0.00000000E+00
  0.00000000E+00  0.00000000E+00  0.00000000E+00
  0.00000000E+00  0.00000000E+00  0.00000000E+00
  0.00000000E+00  0.00000000E+00  0.00000000E+00
  0.00000000E+00  0.00000000E+00  0.00000000E+00
  0.00000000E+00  0.00000000E+00  0.00000000E+00
