Title                                   
   1.00000000000000     
     4.9440799999999996    0.0000000000000000    0.0000000000000000
     0.0000000000000000    8.5647549999999999    0.0000000000000000
     0.0000000000000000    0.0000000000000000   20.0000000000000000
    11     3     1
Selective dynamics
Direct
  0.0079175594249319  0.2907349916479982  0.0894926915997394   T   T   T
  0.2528585659937538  0.0408714665336117  0.0985962008191579   T   T   T
 -0.0011766666735017  0.9606414153396771  0.0937483225134538   T   T   T
  0.7520743754719811  0.2087026342007452  0.0935362714010506   T   T   T
  0.5071247468132354  0.2975524458269133  0.1009071105472967   T   T   T
  0.7467358710927161  0.0405174538103005  0.0953262811939582   T   T   T
  0.7522414882669679  0.7093978599716936  0.0991056297588707   T   T   T
  0.7601356215433935  0.5388465879986548  0.0959795431705426   T   T   T
  0.4990080750779778  0.9539410657314021  0.1039144008931249   T   T   T
  0.5046855721446638  0.7850850048794240  0.1154684169117634   T   T   T
  0.0027079508229760  0.4538589484894310  0.0848609580439485   T   T   T
  0.5123166426735600  0.4606002631594375  0.1144837364886679   T   T   T
 -0.0059216996384368  0.7964308321332104  0.0929059594442125   T   T   T
  0.2580200921226007  0.2108775277447889  0.0968701193991190   T   T   T
  0.2012718048631806  0.6236225025327149  0.1327843578150972   T   T   T
 
  0.00000000E+00  0.00000000E+00  0.00000000E+00
  0.00000000E+00  0.00000000E+00  0.00000000E+00
  0.00000000E+00  0.00000000E+00  0.00000000E+00
  0.00000000E+00  0.00000000E+00  0.00000000E+00
  0.00000000E+00  0.00000000E+00  0.00000000E+00
  0.00000000E+00  0.00000000E+00  0.00000000E+00
  0.00000000E+00  0.00000000E+00  0.00000000E+00
  0.00000000E+00  0.00000000E+00  0.00000000E+00
  0.00000000E+00  0.00000000E+00  0.00000000E+00
  0.00000000E+00  0.00000000E+00  0.00000000E+00
  0.00000000E+00  0.00000000E+00  0.00000000E+00
  0.00000000E+00  0.00000000E+00  0.00000000E+00
  0.00000000E+00  0.00000000E+00  0.00000000E+00
  0.00000000E+00  0.00000000E+00  0.00000000E+00
  0.00000000E+00  0.00000000E+00  0.00000000E+00
