Title                                   
   1.00000000000000     
     9.8694509999999998    0.0000000000000000    0.0000000000000000
     0.0000000000000000    8.5490480000000009    0.0000000000000000
     0.0000000000000000    0.0000000000000000   20.0000000000000000
    30     1     1
Selective dynamics
Direct
  0.0558815854917522  0.0900522701340673  0.0822773134447999   T   T   T
  0.9315096292679635  0.1728554722488512  0.0841309046857810   T   T   T
  0.0570956186029950  0.9232092365666875  0.0822133578096221   T   T   T
  0.9314457774090680  0.3398860167968104  0.0874474324657310   T   T   T
  0.0569111183518866  0.5898130487829958  0.0845067223326172   T   T   T
  0.9326414523766600  0.6723315357076624  0.0869031252029838   T   T   T
  0.0568166845492578  0.4224650097293645  0.0857331498105980   T   T   T
  0.9322352716647485  0.8391728677387914  0.0848042130165287   T   T   T
  0.3053569489420973  0.0881648442118434  0.0871785710377716   T   T   T
  0.1812254897768105  0.1722877469980606  0.0848293220709220   T   T   T
  0.1820784872936317  0.3389020181280294  0.0877121123892677   T   T   T
  0.3036985067043473  0.5894887367838237  0.0983177312457584   T   T   T
  0.1814187795637152  0.6736477281088568  0.0863324699275592   T   T   T
  0.3059971756973502  0.4223698964598207  0.0973973849352412   T   T   T
  0.1818020002700527  0.8401788414523081  0.0845790081094273   T   T   T
  0.5564903671865730  0.0879448474170102  0.0933265414960178   T   T   T
  0.4299890259459086  0.1694902106978574  0.0930487687186689   T   T   T
  0.5548941315211048  0.9223463224575830  0.0976974599783003   T   T   T
  0.4299565746396729  0.3345636308097699  0.1027791760897406   T   T   T
  0.4190868342590644  0.6814539684815636  0.1136787925756708   T   T   T
  0.5560801110129688  0.4082646970891264  0.1169984531880249   T   T   T
  0.4270725875728115  0.8421975987238560  0.0999583145076785   T   T   T
  0.8067775066241143  0.0888146482048909  0.0857906534004745   T   T   T
  0.6816502794516006  0.1706692670225551  0.0917891639413473   T   T   T
  0.8069574900849056  0.9234224460319512  0.0875016303279610   T   T   T
  0.6820281037434605  0.3356208493687506  0.1016369239389377   T   T   T
  0.8096129155882661  0.5896545696074379  0.0985473831607276   T   T   T
  0.6919260122787553  0.6786520527468328  0.1132577274275076   T   T   T
  0.8069120558694008  0.4220528113241886  0.0968086717757585   T   T   T
  0.6830109945938855  0.8405332827309377  0.0991482840052640   T   T   T
  0.3049164534857384  0.9247562660358977  0.0875312330577781   T   T   T
  0.5561630301794389  0.5949832614018259  0.1818130039255672   T   T   T
 
  0.00000000E+00  0.00000000E+00  0.00000000E+00
  0.00000000E+00  0.00000000E+00  0.00000000E+00
  0.00000000E+00  0.00000000E+00  0.00000000E+00
  0.00000000E+00  0.00000000E+00  0.00000000E+00
  0.00000000E+00  0.00000000E+00  0.00000000E+00
  0.00000000E+00  0.00000000E+00  0.00000000E+00
  0.00000000E+00  0.00000000E+00  0.00000000E+00
  0.00000000E+00  0.00000000E+00  0.00000000E+00
  0.00000000E+00  0.00000000E+00  0.00000000E+00
  0.00000000E+00  0.00000000E+00  0.00000000E+00
  0.00000000E+00  0.00000000E+00  0.00000000E+00
  0.00000000E+00  0.00000000E+00  0.00000000E+00
  0.00000000E+00  0.00000000E+00  0.00000000E+00
  0.00000000E+00  0.00000000E+00  0.00000000E+00
  0.00000000E+00  0.00000000E+00  0.00000000E+00
  0.00000000E+00  0.00000000E+00  0.00000000E+00
  0.00000000E+00  0.00000000E+00  0.00000000E+00
  0.00000000E+00  0.00000000E+00  0.00000000E+00
  0.00000000E+00  0.00000000E+00  0.00000000E+00
  0.00000000E+00  0.00000000E+00  0.00000000E+00
  0.00000000E+00  0.00000000E+00  0.00000000E+00
  0.00000000E+00  0.00000000E+00  0.00000000E+00
  0.00000000E+00  0.00000000E+00  0.00000000E+00
  0.00000000E+00  0.00000000E+00  0.00000000E+00
  0.00000000E+00  0.00000000E+00  0.00000000E+00
  0.00000000E+00  0.00000000E+00  0.00000000E+00
  0.00000000E+00  0.00000000E+00  0.00000000E+00
  0.00000000E+00  0.00000000E+00  0.00000000E+00
  0.00000000E+00  0.00000000E+00  0.00000000E+00
  0.00000000E+00  0.00000000E+00  0.00000000E+00
  0.00000000E+00  0.00000000E+00  0.00000000E+00
  0.00000000E+00  0.00000000E+00  0.00000000E+00
