Title                                   
   1.00000000000000     
     9.8694509999999998    0.0000000000000000    0.0000000000000000
     0.0000000000000000    8.5490480000000009    0.0000000000000000
     0.0000000000000000    0.0000000000000000   20.0000000000000000
    31     1
Selective dynamics
Direct
  0.0562416245327130  0.0899365615484417  0.0834772113553604   T   T   T
  0.9311741149106662  0.1725518319157718  0.0852124310010205   T   T   T
  0.0562818215791881  0.9233084190173068  0.0841898046497034   T   T   T
  0.9311559261998115  0.3396372621311280  0.0869761040483701   T   T   T
  0.0562101608736546  0.5888829228752794  0.0840531222848441   T   T   T
  0.9329763068031787  0.6732835004945268  0.0876943599710924   T   T   T
  0.0561728941214280  0.4226512756819415  0.0851426814266827   T   T   T
  0.9317461705013819  0.8401289833861200  0.0873415373649760   T   T   T
  0.3059961260444287  0.0895817887257523  0.0891537394365139   T   T   T
  0.1812899416007722  0.1724042908181061  0.0851341637225032   T   T   T
  0.3056923733713497  0.9227986683349767  0.0915054505810557   T   T   T
  0.1811654722235391  0.3394826538305334  0.0868069602149412   T   T   T
  0.3014565787849859  0.5895742312972863  0.0985871663047636   T   T   T
  0.1795069409613765  0.6731806030997836  0.0874400045551712   T   T   T
  0.3039369237381968  0.4224080965561621  0.0939204286891503   T   T   T
  0.1808390362758973  0.8399979263690658  0.0871566820182661   T   T   T
  0.5562716095555796  0.0880505198636642  0.0962400343570227   T   T   T
  0.4310032614246355  0.1719207682574083  0.0935867022138721   T   T   T
  0.5563369348446480  0.9215729081784491  0.1023588635263384   T   T   T
  0.4302305075275122  0.3398339536463333  0.0963593136677308   T   T   T
  0.4146062232544837  0.6776248394954468  0.1171627385538898   T   T   T
  0.5559810032566374  0.4156501251640760  0.1017574785150279   T   T   T
  0.4294202030440065  0.8392575006659910  0.1031764145158837   T   T   T
  0.8064964529091307  0.0898274561691550  0.0892725638002573   T   T   T
  0.6814501310993919  0.1721544611968127  0.0937240000356578   T   T   T
  0.8069388132624276  0.9230545798250281  0.0917131979463618   T   T   T
  0.6820438613065050  0.3401323248489797  0.0965929282360752   T   T   T
  0.8110937679996193  0.5898684516000030  0.0991937379383733   T   T   T
  0.6982297380392193  0.6782152186892050  0.1180790355098317   T   T   T
  0.8083932874863605  0.4226777064774992  0.0943400155905274   T   T   T
  0.6833796297195236  0.8395362117504265  0.1035749916123574   T   T   T
  0.5559211627477574  0.5810599580893482  0.1647511363564123   T   T   T
 
  0.00000000E+00  0.00000000E+00  0.00000000E+00
  0.00000000E+00  0.00000000E+00  0.00000000E+00
  0.00000000E+00  0.00000000E+00  0.00000000E+00
  0.00000000E+00  0.00000000E+00  0.00000000E+00
  0.00000000E+00  0.00000000E+00  0.00000000E+00
  0.00000000E+00  0.00000000E+00  0.00000000E+00
  0.00000000E+00  0.00000000E+00  0.00000000E+00
  0.00000000E+00  0.00000000E+00  0.00000000E+00
  0.00000000E+00  0.00000000E+00  0.00000000E+00
  0.00000000E+00  0.00000000E+00  0.00000000E+00
  0.00000000E+00  0.00000000E+00  0.00000000E+00
  0.00000000E+00  0.00000000E+00  0.00000000E+00
  0.00000000E+00  0.00000000E+00  0.00000000E+00
  0.00000000E+00  0.00000000E+00  0.00000000E+00
  0.00000000E+00  0.00000000E+00  0.00000000E+00
  0.00000000E+00  0.00000000E+00  0.00000000E+00
  0.00000000E+00  0.00000000E+00  0.00000000E+00
  0.00000000E+00  0.00000000E+00  0.00000000E+00
  0.00000000E+00  0.00000000E+00  0.00000000E+00
  0.00000000E+00  0.00000000E+00  0.00000000E+00
  0.00000000E+00  0.00000000E+00  0.00000000E+00
  0.00000000E+00  0.00000000E+00  0.00000000E+00
  0.00000000E+00  0.00000000E+00  0.00000000E+00
  0.00000000E+00  0.00000000E+00  0.00000000E+00
  0.00000000E+00  0.00000000E+00  0.00000000E+00
  0.00000000E+00  0.00000000E+00  0.00000000E+00
  0.00000000E+00  0.00000000E+00  0.00000000E+00
  0.00000000E+00  0.00000000E+00  0.00000000E+00
  0.00000000E+00  0.00000000E+00  0.00000000E+00
  0.00000000E+00  0.00000000E+00  0.00000000E+00
  0.00000000E+00  0.00000000E+00  0.00000000E+00
  0.00000000E+00  0.00000000E+00  0.00000000E+00
