Title                                   
   1.00000000000000     
     4.9440799999999996    0.0000000000000000    0.0000000000000000
     0.0000000000000000    8.5647549999999999    0.0000000000000000
     0.0000000000000000    0.0000000000000000   20.0000000000000000
    12     2     1
Selective dynamics
Direct
 -0.0044947331493602  0.2924533689461978  0.0988878923374041   T   T   T
  0.2562910103064202  0.0407286977139702  0.0975875842809849   T   T   T
  0.0099911668479428  0.9564180920454108  0.0938183531517061   T   T   T
  0.7469176395789972  0.2082610028112395  0.0931067737236929   T   T   T
  0.4921536817209834  0.2927306348068550  0.0936204450255871   T   T   T
  0.7563238274705195  0.0402356036621015  0.0934960152285127   T   T   T
  0.7506352636714495  0.7139506835199231  0.1010337215002246   T   T   T
  0.7402762841476797  0.5377541919566688  0.1004092281592322   T   T   T
  0.5109985055276594  0.9573338664582115  0.1008420311382359   T   T   T
  0.4950936301613477  0.4605360044608667  0.0942844096003354   T   T   T
 -0.0144582028941719  0.4556225856757183  0.1108814676694822   T   T   T
 -0.0022526632995737  0.7878065898352232  0.0941699020449934   T   T   T
  0.5198040757865624  0.7974870096744457  0.1126514367900210   T   T   T
  0.2488733169092316  0.2070870814431949  0.0966839757436442   T   T   T
  0.2438471972143129  0.6232755869899750  0.1265067636059466   T   T   T
 
  0.00000000E+00  0.00000000E+00  0.00000000E+00
  0.00000000E+00  0.00000000E+00  0.00000000E+00
  0.00000000E+00  0.00000000E+00  0.00000000E+00
  0.00000000E+00  0.00000000E+00  0.00000000E+00
  0.00000000E+00  0.00000000E+00  0.00000000E+00
  0.00000000E+00  0.00000000E+00  0.00000000E+00
  0.00000000E+00  0.00000000E+00  0.00000000E+00
  0.00000000E+00  0.00000000E+00  0.00000000E+00
  0.00000000E+00  0.00000000E+00  0.00000000E+00
  0.00000000E+00  0.00000000E+00  0.00000000E+00
  0.00000000E+00  0.00000000E+00  0.00000000E+00
  0.00000000E+00  0.00000000E+00  0.00000000E+00
  0.00000000E+00  0.00000000E+00  0.00000000E+00
  0.00000000E+00  0.00000000E+00  0.00000000E+00
  0.00000000E+00  0.00000000E+00  0.00000000E+00
