Title                                   
   1.00000000000000     
     9.8694509999999998    0.0000000000000000    0.0000000000000000
     0.0000000000000000    8.5490480000000009    0.0000000000000000
     0.0000000000000000    0.0000000000000000   20.0000000000000000
    28     2     1
Selective dynamics
Direct
  0.0557849188592238  0.0890689514069940  0.0870112434463584   T   T   T
  0.9306159947449992  0.1719215940900371  0.0879920828788890   T   T   T
  0.0569274765207929  0.9235882626917609  0.0874580291207174   T   T   T
  0.9325749750426354  0.3391889032213065  0.0884229472095098   T   T   T
  0.0567035848030779  0.5899248509174591  0.0877178248725663   T   T   T
  0.9326901984242854  0.6727814531792139  0.0892332213276210   T   T   T
  0.0568310893664043  0.4225440419768512  0.0871885322706899   T   T   T
  0.9313916899348769  0.8398584853980673  0.0888414633936924   T   T   T
  0.3074136902460700  0.0880863515256911  0.0911240779933632   T   T   T
  0.1823796758433220  0.1710602110261200  0.0882381142872200   T   T   T
  0.1808538401311111  0.3383289187859602  0.0887004317012036   T   T   T
  0.3039892257323233  0.5900947821968838  0.0948566690543722   T   T   T
  0.1812513017005762  0.6740061715377770  0.0893945595408873   T   T   T
  0.3038693873693794  0.4209192198929721  0.0943789604761594   T   T   T
  0.1824740854543110  0.8407914544715811  0.0890027674911672   T   T   T
  0.4325246267507591  0.1740076131794284  0.0966448973073333   T   T   T
  0.5549200235971894  0.9238048473248629  0.0986417458574351   T   T   T
  0.4288872556443626  0.3392796123924181  0.1019061530228743   T   T   T
  0.4273946461424966  0.6730183748986566  0.1031886730512617   T   T   T
  0.4305018795813912  0.8392306909485819  0.0980685453381774   T   T   T
  0.8045178265511287  0.0890094355413887  0.0906693928712387   T   T   T
  0.6794577314541785  0.1758722418760978  0.0960330523149535   T   T   T
  0.8055241184599223  0.9222951077985618  0.0912928470136896   T   T   T
  0.6829813239313671  0.3411516044277947  0.1010248043708540   T   T   T
  0.8091652356500794  0.5900620577763437  0.0941530334403020   T   T   T
  0.6839477175267333  0.6705575698292289  0.1022385803563672   T   T   T
  0.8093417934225097  0.4210673235762082  0.0937053460045157   T   T   T
  0.6795026564199862  0.8375515912007027  0.0973848109695601   T   T   T
  0.5565469742034402  0.0911102733006389  0.0977141413217410   T   T   T
  0.3058016866603520  0.9229820565280730  0.0914882944245997   T   T   T
  0.5563683698307179  0.5077109470823588  0.1472497572707060   T   T   T
 
  0.00000000E+00  0.00000000E+00  0.00000000E+00
  0.00000000E+00  0.00000000E+00  0.00000000E+00
  0.00000000E+00  0.00000000E+00  0.00000000E+00
  0.00000000E+00  0.00000000E+00  0.00000000E+00
  0.00000000E+00  0.00000000E+00  0.00000000E+00
  0.00000000E+00  0.00000000E+00  0.00000000E+00
  0.00000000E+00  0.00000000E+00  0.00000000E+00
  0.00000000E+00  0.00000000E+00  0.00000000E+00
  0.00000000E+00  0.00000000E+00  0.00000000E+00
  0.00000000E+00  0.00000000E+00  0.00000000E+00
  0.00000000E+00  0.00000000E+00  0.00000000E+00
  0.00000000E+00  0.00000000E+00  0.00000000E+00
  0.00000000E+00  0.00000000E+00  0.00000000E+00
  0.00000000E+00  0.00000000E+00  0.00000000E+00
  0.00000000E+00  0.00000000E+00  0.00000000E+00
  0.00000000E+00  0.00000000E+00  0.00000000E+00
  0.00000000E+00  0.00000000E+00  0.00000000E+00
  0.00000000E+00  0.00000000E+00  0.00000000E+00
  0.00000000E+00  0.00000000E+00  0.00000000E+00
  0.00000000E+00  0.00000000E+00  0.00000000E+00
  0.00000000E+00  0.00000000E+00  0.00000000E+00
  0.00000000E+00  0.00000000E+00  0.00000000E+00
  0.00000000E+00  0.00000000E+00  0.00000000E+00
  0.00000000E+00  0.00000000E+00  0.00000000E+00
  0.00000000E+00  0.00000000E+00  0.00000000E+00
  0.00000000E+00  0.00000000E+00  0.00000000E+00
  0.00000000E+00  0.00000000E+00  0.00000000E+00
  0.00000000E+00  0.00000000E+00  0.00000000E+00
  0.00000000E+00  0.00000000E+00  0.00000000E+00
  0.00000000E+00  0.00000000E+00  0.00000000E+00
  0.00000000E+00  0.00000000E+00  0.00000000E+00
