Title                                   
   1.00000000000000     
     9.8694509999999998    0.0000000000000000    0.0000000000000000
     0.0000000000000000    8.5490480000000009    0.0000000000000000
     0.0000000000000000    0.0000000000000000   20.0000000000000000
    27     3     1
Selective dynamics
Direct
  0.0553041687262880  0.0897426579773695  0.0860092886746907   T   T   T
  0.9305345321122523  0.1735121655735057  0.0858105593652417   T   T   T
  0.0576673573579822  0.9232954694237978  0.0864371334931507   T   T   T
  0.9325261352307201  0.3411023590430036  0.0855744381794275   T   T   T
  0.0569549220605840  0.5902979838691573  0.0851163727309823   T   T   T
  0.9336138275916362  0.6749968913405765  0.0871450781320492   T   T   T
  0.0567673347700865  0.4230057474215074  0.0849109804740733   T   T   T
  0.9328199886344917  0.8413877439583037  0.0876602054687144   T   T   T
  0.3056479615402539  0.0870283115858909  0.0938749521285192   T   T   T
  0.1801859449520687  0.1701303707204571  0.0890486135125323   T   T   T
  0.1798842121016240  0.3369427125641875  0.0888275376500223   T   T   T
  0.3037736258616782  0.5862606252775692  0.0952114231745875   T   T   T
  0.1814312783380060  0.6727206715287347  0.0880610453728605   T   T   T
  0.3019443257712160  0.4184575060644655  0.0969414135514075   T   T   T
  0.1826988855639358  0.8393294075365679  0.0882452162690731   T   T   T
  0.5553231002071959  0.0912262008301642  0.1000147595853468   T   T   T
  0.4281704380798765  0.1733148711505059  0.1013721925174752   T   T   T
  0.5558532414197382  0.9212838866802698  0.1001784092440678   T   T   T
  0.4260304930376235  0.6707710276578935  0.1036210678155635   T   T   T
  0.4300954340023311  0.8350913231767622  0.0993823677062491   T   T   T
  0.8047000637546065  0.0907117850316227  0.0893216803012546   T   T   T
  0.6803998269739928  0.1775807555596244  0.0953821600454151   T   T   T
  0.8061553050873322  0.9237576840487468  0.0908636849138084   T   T   T
  0.6844163584412762  0.3439231751623441  0.0973696040635448   T   T   T
  0.8105469565493246  0.5943318142903086  0.0927915762705682   T   T   T
  0.8084399283273858  0.4255006076509451  0.0905286149907907   T   T   T
  0.6827868493380357  0.8369752834314022  0.0980949276963877   T   T   T
  0.4215570148041212  0.3365045274616572  0.1086170234608059   T   T   T
  0.6897596269565768  0.6741306165608331  0.1030686887969924   T   T   T
  0.3069157726238266  0.9224186069413333  0.0923720930147810   T   T   T
  0.5602300897839346  0.5051422104805197  0.1491118913996504   T   T   T
 
  0.00000000E+00  0.00000000E+00  0.00000000E+00
  0.00000000E+00  0.00000000E+00  0.00000000E+00
  0.00000000E+00  0.00000000E+00  0.00000000E+00
  0.00000000E+00  0.00000000E+00  0.00000000E+00
  0.00000000E+00  0.00000000E+00  0.00000000E+00
  0.00000000E+00  0.00000000E+00  0.00000000E+00
  0.00000000E+00  0.00000000E+00  0.00000000E+00
  0.00000000E+00  0.00000000E+00  0.00000000E+00
  0.00000000E+00  0.00000000E+00  0.00000000E+00
  0.00000000E+00  0.00000000E+00  0.00000000E+00
  0.00000000E+00  0.00000000E+00  0.00000000E+00
  0.00000000E+00  0.00000000E+00  0.00000000E+00
  0.00000000E+00  0.00000000E+00  0.00000000E+00
  0.00000000E+00  0.00000000E+00  0.00000000E+00
  0.00000000E+00  0.00000000E+00  0.00000000E+00
  0.00000000E+00  0.00000000E+00  0.00000000E+00
  0.00000000E+00  0.00000000E+00  0.00000000E+00
  0.00000000E+00  0.00000000E+00  0.00000000E+00
  0.00000000E+00  0.00000000E+00  0.00000000E+00
  0.00000000E+00  0.00000000E+00  0.00000000E+00
  0.00000000E+00  0.00000000E+00  0.00000000E+00
  0.00000000E+00  0.00000000E+00  0.00000000E+00
  0.00000000E+00  0.00000000E+00  0.00000000E+00
  0.00000000E+00  0.00000000E+00  0.00000000E+00
  0.00000000E+00  0.00000000E+00  0.00000000E+00
  0.00000000E+00  0.00000000E+00  0.00000000E+00
  0.00000000E+00  0.00000000E+00  0.00000000E+00
  0.00000000E+00  0.00000000E+00  0.00000000E+00
  0.00000000E+00  0.00000000E+00  0.00000000E+00
  0.00000000E+00  0.00000000E+00  0.00000000E+00
  0.00000000E+00  0.00000000E+00  0.00000000E+00
