Title                                   
   1.00000000000000     
     4.9440799999999996    0.0000000000000000    0.0000000000000000
     0.0000000000000000   17.1295089999999988    0.0000000000000000
     0.0000000000000000    0.0000000000000000   20.0000000000000000
    27     4     1
Selective dynamics
Direct
 -0.0015386274146957  0.1042830905415019  0.2955221278219580   T   T   T
  0.2484331490159154  0.1464697492734411  0.2976504387233793   T   T   T
  0.2467188303129508  0.2296796680645012  0.3024051778201363   T   T   T
 -0.0036234721529798  0.3530585353894234  0.3105181752936746   T   T   T
 -0.0048630262198608  0.2714418457380380  0.3029710600806122   T   T   T
  0.0005262926648534  0.5980423290316965  0.2924481404642716   T   T   T
  0.2568566964915925  0.7251471821140689  0.2946138305741767   T   T   T
  0.0047877081161322  0.8520457097994463  0.2925075523230992   T   T   T
  0.2534252617375657  0.8946257229970960  0.2928930200098298   T   T   T
  0.2513027127871254  0.9783624258993482  0.2932993352305806   T   T   T
  0.0076118573761364  0.7683819167413901  0.2928410686044696   T   T   T
  0.4986488507939989  0.1041346173069598  0.2957448463744233   T   T   T
  0.7473958287037690  0.1465473594597038  0.2964475027434083   T   T   T
  0.7448427555151166  0.2300383663957951  0.2994723983824374   T   T   T
  0.5007823371167887  0.0204439401337880  0.2938445202531369   T   T   T
  0.4899766357405013  0.3555700859893364  0.3116135191552138   T   T   T
  0.7834519001661657  0.4803429036316747  0.3128960455056357   T   T   T
  0.4953665528378182  0.2726107655462798  0.3042001074303923   T   T   T
  0.5179636598579417  0.6013654615319041  0.3030219893022311   T   T   T
  0.7563326707996896  0.7270840750503929  0.2946539909873950   T   T   T
  0.5031236542691001  0.8522846218889534  0.2934589892995476   T   T   T
  0.7532532707443591  0.8942935821288891  0.2928281260990676   T   T   T
  0.7513282893041109  0.9781172172614868  0.2931301312039482   T   T   T
  0.5043156455504771  0.7683317146726619  0.2948227633803981   T   T   T
  0.7580710822185331  0.6447371353246465  0.2978560804916378   T   T   T
  0.2605247942278273  0.6397617353498526  0.2948325274809078   T   T   T
  0.0006045134622529  0.0206461814792203  0.2936472610551212   T   T   T
  0.5386941738508818  0.5221064191750496  0.3215572524214272   T   T   T
  0.9805790639669815  0.5173907716883617  0.2669612836260953   T   T   T
  0.2382049456458246  0.3938663394485914  0.3245476916915568   T   T   T
  0.7461562475909922  0.3952603322124980  0.3086575654430141   T   T   T
  0.1675687449221397  0.5120791987339957  0.3607004807267709   T   T   T
 
  0.00000000E+00  0.00000000E+00  0.00000000E+00
  0.00000000E+00  0.00000000E+00  0.00000000E+00
  0.00000000E+00  0.00000000E+00  0.00000000E+00
  0.00000000E+00  0.00000000E+00  0.00000000E+00
  0.00000000E+00  0.00000000E+00  0.00000000E+00
  0.00000000E+00  0.00000000E+00  0.00000000E+00
  0.00000000E+00  0.00000000E+00  0.00000000E+00
  0.00000000E+00  0.00000000E+00  0.00000000E+00
  0.00000000E+00  0.00000000E+00  0.00000000E+00
  0.00000000E+00  0.00000000E+00  0.00000000E+00
  0.00000000E+00  0.00000000E+00  0.00000000E+00
  0.00000000E+00  0.00000000E+00  0.00000000E+00
  0.00000000E+00  0.00000000E+00  0.00000000E+00
  0.00000000E+00  0.00000000E+00  0.00000000E+00
  0.00000000E+00  0.00000000E+00  0.00000000E+00
  0.00000000E+00  0.00000000E+00  0.00000000E+00
  0.00000000E+00  0.00000000E+00  0.00000000E+00
  0.00000000E+00  0.00000000E+00  0.00000000E+00
  0.00000000E+00  0.00000000E+00  0.00000000E+00
  0.00000000E+00  0.00000000E+00  0.00000000E+00
  0.00000000E+00  0.00000000E+00  0.00000000E+00
  0.00000000E+00  0.00000000E+00  0.00000000E+00
  0.00000000E+00  0.00000000E+00  0.00000000E+00
  0.00000000E+00  0.00000000E+00  0.00000000E+00
  0.00000000E+00  0.00000000E+00  0.00000000E+00
  0.00000000E+00  0.00000000E+00  0.00000000E+00
  0.00000000E+00  0.00000000E+00  0.00000000E+00
  0.00000000E+00  0.00000000E+00  0.00000000E+00
  0.00000000E+00  0.00000000E+00  0.00000000E+00
  0.00000000E+00  0.00000000E+00  0.00000000E+00
  0.00000000E+00  0.00000000E+00  0.00000000E+00
  0.00000000E+00  0.00000000E+00  0.00000000E+00
