Title                                   
   1.00000000000000     
     9.8694509999999998    0.0000000000000000    0.0000000000000000
     0.0000000000000000    8.5490480000000009    0.0000000000000000
     0.0000000000000000    0.0000000000000000   20.0000000000000000
    28     2     1
Selective dynamics
Direct
  0.0549414972317067  0.0892736150669374  0.0855449654461203   T   T   T
  0.9295343334600082  0.1746163274775406  0.0865748479382531   T   T   T
  0.0574905742703496  0.9230844381061035  0.0855453587875252   T   T   T
  0.9311489569526175  0.3416814783410286  0.0857924742616495   T   T   T
  0.0568045914192702  0.5894847744689822  0.0837284283162295   T   T   T
  0.9339596356083175  0.6763730763888061  0.0871165292805605   T   T   T
  0.0556635580624993  0.4228893359392558  0.0837373027076937   T   T   T
  0.9327754594652148  0.8427459209991478  0.0882379122100109   T   T   T
  0.3056395000272777  0.0867463367129453  0.0933509313497115   T   T   T
  0.1796918470760585  0.1696074159682010  0.0880767572515876   T   T   T
  0.3088087719510424  0.9182335337166034  0.0918228345405956   T   T   T
  0.1785012043024765  0.3359611820374408  0.0869821327255846   T   T   T
  0.3044331912373711  0.5844159358546763  0.0914889073561228   T   T   T
  0.1813102199776986  0.6707202893252487  0.0856494186917309   T   T   T
  0.3012883565055208  0.4156570182215742  0.0949067734068427   T   T   T
  0.1829139595615709  0.8377526127958075  0.0864060366589308   T   T   T
  0.5548680706616145  0.0913195022443577  0.1030773487575007   T   T   T
  0.4267145631168184  0.1744086914766647  0.1023440407131136   T   T   T
  0.5576548203199793  0.9209489500337946  0.1030538263687948   T   T   T
  0.4297015891953491  0.6622952712403777  0.0983494337929667   T   T   T
  0.4340616181966355  0.8313319922527667  0.0980537173905776   T   T   T
  0.8036727431073665  0.0940845400459152  0.0920907046005726   T   T   T
  0.6784631320759856  0.1810168636399016  0.0983665842644657   T   T   T
  0.8068342356506579  0.9255509569788481  0.0935949128416484   T   T   T
  0.6828763556769150  0.3500906144785431  0.0987840355010580   T   T   T
  0.8112317844390429  0.5966427610035526  0.0951762251706788   T   T   T
  0.8080806121203568  0.4279429797468774  0.0917525266177522   T   T   T
  0.6857888105260584  0.8377731967585762  0.1026008606383634   T   T   T
  0.4193399344560807  0.3363676433428916  0.1088305068519231   T   T   T
  0.6932012176300625  0.6758041752368132  0.1092258687029433   T   T   T
  0.5557398557180852  0.5060535700998319  0.1407027968585327   T   T   T
 
  0.00000000E+00  0.00000000E+00  0.00000000E+00
  0.00000000E+00  0.00000000E+00  0.00000000E+00
  0.00000000E+00  0.00000000E+00  0.00000000E+00
  0.00000000E+00  0.00000000E+00  0.00000000E+00
  0.00000000E+00  0.00000000E+00  0.00000000E+00
  0.00000000E+00  0.00000000E+00  0.00000000E+00
  0.00000000E+00  0.00000000E+00  0.00000000E+00
  0.00000000E+00  0.00000000E+00  0.00000000E+00
  0.00000000E+00  0.00000000E+00  0.00000000E+00
  0.00000000E+00  0.00000000E+00  0.00000000E+00
  0.00000000E+00  0.00000000E+00  0.00000000E+00
  0.00000000E+00  0.00000000E+00  0.00000000E+00
  0.00000000E+00  0.00000000E+00  0.00000000E+00
  0.00000000E+00  0.00000000E+00  0.00000000E+00
  0.00000000E+00  0.00000000E+00  0.00000000E+00
  0.00000000E+00  0.00000000E+00  0.00000000E+00
  0.00000000E+00  0.00000000E+00  0.00000000E+00
  0.00000000E+00  0.00000000E+00  0.00000000E+00
  0.00000000E+00  0.00000000E+00  0.00000000E+00
  0.00000000E+00  0.00000000E+00  0.00000000E+00
  0.00000000E+00  0.00000000E+00  0.00000000E+00
  0.00000000E+00  0.00000000E+00  0.00000000E+00
  0.00000000E+00  0.00000000E+00  0.00000000E+00
  0.00000000E+00  0.00000000E+00  0.00000000E+00
  0.00000000E+00  0.00000000E+00  0.00000000E+00
  0.00000000E+00  0.00000000E+00  0.00000000E+00
  0.00000000E+00  0.00000000E+00  0.00000000E+00
  0.00000000E+00  0.00000000E+00  0.00000000E+00
  0.00000000E+00  0.00000000E+00  0.00000000E+00
  0.00000000E+00  0.00000000E+00  0.00000000E+00
  0.00000000E+00  0.00000000E+00  0.00000000E+00
