Title                                   
   1.00000000000000     
     9.8694509999999998    0.0000000000000000    0.0000000000000000
     0.0000000000000000    8.5490480000000009    0.0000000000000000
     0.0000000000000000    0.0000000000000000   20.0000000000000000
    26     4     1
Selective dynamics
Direct
  0.0562308266364826  0.0893444450056537  0.0938307584521621   T   T   T
  0.9315562322607672  0.1720323061795840  0.0941082585401082   T   T   T
  0.0562185982471354  0.9229819512786605  0.0938306667183572   T   T   T
  0.9330073736808665  0.3393789184710552  0.0940281768545759   T   T   T
  0.0562395220104691  0.5891196533683776  0.0936347028309729   T   T   T
  0.9330109152364964  0.6729361495441710  0.0940076343011220   T   T   T
  0.0562362748456625  0.4232060181326919  0.0936398666894477   T   T   T
  0.9315443512510165  0.8402883500239846  0.0940966903404025   T   T   T
  0.3064911915474417  0.0904302480996055  0.0948638620075568   T   T   T
  0.1809053843253547  0.1720342445127599  0.0941473145616256   T   T   T
  0.3064869549399700  0.9218744618686191  0.0948723336107329   T   T   T
  0.1794604473438875  0.3393848354461080  0.0940863169944834   T   T   T
  0.3029168403544513  0.5915244440552399  0.0949960502696478   T   T   T
  0.1794620344627230  0.6729420747465238  0.0940992074454452   T   T   T
  0.3029276036083264  0.4207669459030197  0.0949776863087831   T   T   T
  0.1808929095458559  0.8402955083717710  0.0941554832465118   T   T   T
  0.5562131240736062  0.0934268711650851  0.0958951931249881   T   T   T
  0.4298283090351775  0.1788104832405601  0.0956471156321299   T   T   T
  0.5562046906513114  0.9188728782907294  0.0958986985796456   T   T   T
  0.4298187971994462  0.8334846865178246  0.0956520634303782   T   T   T
  0.8059563140407570  0.0904303473619463  0.0948308748552697   T   T   T
  0.6826161325115295  0.1788128251065007  0.0956176282623182   T   T   T
  0.8059470307816110  0.9218769897658677  0.0948127711688588   T   T   T
  0.8095592778758399  0.5915316842048080  0.0948760617767064   T   T   T
  0.8095523288882611  0.4207712859727551  0.0948983468397717   T   T   T
  0.6826099601996264  0.8334984966158181  0.0955977585621146   T   T   T
  0.4229604422837564  0.3411042167672224  0.0958517914992859   T   T   T
  0.4229496037011249  0.6712095027312216  0.0958713039869749   T   T   T
  0.6895449548773436  0.3411030776691600  0.0957980873201433   T   T   T
  0.6895518807604142  0.6712262200317604  0.0957738955103550   T   T   T
  0.5562356928232952  0.5061748795509139  0.0965684002791657   T   T   T
 
  0.00000000E+00  0.00000000E+00  0.00000000E+00
  0.00000000E+00  0.00000000E+00  0.00000000E+00
  0.00000000E+00  0.00000000E+00  0.00000000E+00
  0.00000000E+00  0.00000000E+00  0.00000000E+00
  0.00000000E+00  0.00000000E+00  0.00000000E+00
  0.00000000E+00  0.00000000E+00  0.00000000E+00
  0.00000000E+00  0.00000000E+00  0.00000000E+00
  0.00000000E+00  0.00000000E+00  0.00000000E+00
  0.00000000E+00  0.00000000E+00  0.00000000E+00
  0.00000000E+00  0.00000000E+00  0.00000000E+00
  0.00000000E+00  0.00000000E+00  0.00000000E+00
  0.00000000E+00  0.00000000E+00  0.00000000E+00
  0.00000000E+00  0.00000000E+00  0.00000000E+00
  0.00000000E+00  0.00000000E+00  0.00000000E+00
  0.00000000E+00  0.00000000E+00  0.00000000E+00
  0.00000000E+00  0.00000000E+00  0.00000000E+00
  0.00000000E+00  0.00000000E+00  0.00000000E+00
  0.00000000E+00  0.00000000E+00  0.00000000E+00
  0.00000000E+00  0.00000000E+00  0.00000000E+00
  0.00000000E+00  0.00000000E+00  0.00000000E+00
  0.00000000E+00  0.00000000E+00  0.00000000E+00
  0.00000000E+00  0.00000000E+00  0.00000000E+00
  0.00000000E+00  0.00000000E+00  0.00000000E+00
  0.00000000E+00  0.00000000E+00  0.00000000E+00
  0.00000000E+00  0.00000000E+00  0.00000000E+00
  0.00000000E+00  0.00000000E+00  0.00000000E+00
  0.00000000E+00  0.00000000E+00  0.00000000E+00
  0.00000000E+00  0.00000000E+00  0.00000000E+00
  0.00000000E+00  0.00000000E+00  0.00000000E+00
  0.00000000E+00  0.00000000E+00  0.00000000E+00
  0.00000000E+00  0.00000000E+00  0.00000000E+00
