Title                                   
   1.00000000000000     
     9.8694509999999998    0.0000000000000000    0.0000000000000000
     0.0000000000000000    8.5490480000000009    0.0000000000000000
     0.0000000000000000    0.0000000000000000   20.0000000000000000
    27     4     1
Selective dynamics
Direct
  0.0562046387651848  0.0920263324092027  0.0851486477118974   T   T   T
  0.9307352083685889  0.1748655378489375  0.0871993978639098   T   T   T
  0.0562179727267224  0.9243798364216222  0.0853622020560471   T   T   T
  0.9294805938633446  0.3416580086993518  0.0910883283097893   T   T   T
  0.0562528103562977  0.5896339986529409  0.0890435087816862   T   T   T
  0.9318513777760099  0.6734864492656267  0.0905268572769166   T   T   T
  0.0562545662117465  0.4232896450688114  0.0902425695709107   T   T   T
  0.9316656475570566  0.8402898671920255  0.0877463652887729   T   T   T
  0.3055459717769973  0.0896174207763757  0.0867671268812075   T   T   T
  0.1817312291912862  0.1748536777815682  0.0868610540435662   T   T   T
  0.3061525737579862  0.9240591898266418  0.0877590643267915   T   T   T
  0.1830162816987072  0.3416620561556568  0.0907264260440861   T   T   T
  0.3052931641143378  0.5934980080063087  0.0989945835469913   T   T   T
  0.1806383649757162  0.6735023684610031  0.0902118038873737   T   T   T
  0.3103141598513312  0.4248406932830577  0.0974025465234906   T   T   T
  0.1808021279302022  0.8403033103890583  0.0875233823589035   T   T   T
  0.5562590325363711  0.0835706207599006  0.0950036818593332   T   T   T
  0.4316593103210329  0.1678749880857286  0.0928019275121822   T   T   T
  0.4333981626804982  0.3328755587121577  0.1004080446419794   T   T   T
  0.4279792815260820  0.8389787795777767  0.0969572826221838   T   T   T
  0.8069813228542340  0.0896057041529408  0.0873862181299619   T   T   T
  0.6808812343381414  0.1678775270468287  0.0932389751254622   T   T   T
  0.8063458124798826  0.9240491057948748  0.0882449063377866   T   T   T
  0.6791100486181068  0.3328712183975661  0.1008279095353506   T   T   T
  0.8072862237584302  0.5934820343723776  0.0996669526255783   T   T   T
  0.8022369164957874  0.4247925311347940  0.0979908695577913   T   T   T
  0.6845519320679831  0.8389791736283406  0.0974178116094873   T   T   T
  0.4209164719332503  0.6835289101090435  0.1117555076208163   T   T   T
  0.5561587680185660  0.4033472825878214  0.1143538360261137   T   T   T
  0.6916887896029686  0.6835757382269433  0.1124177529427109   T   T   T
  0.5562556827322288  0.9167202106665776  0.0970862118341963   T   T   T
  0.5557733211149265  0.5861502165081390  0.1675132475467419   T   T   T
 
  0.00000000E+00  0.00000000E+00  0.00000000E+00
  0.00000000E+00  0.00000000E+00  0.00000000E+00
  0.00000000E+00  0.00000000E+00  0.00000000E+00
  0.00000000E+00  0.00000000E+00  0.00000000E+00
  0.00000000E+00  0.00000000E+00  0.00000000E+00
  0.00000000E+00  0.00000000E+00  0.00000000E+00
  0.00000000E+00  0.00000000E+00  0.00000000E+00
  0.00000000E+00  0.00000000E+00  0.00000000E+00
  0.00000000E+00  0.00000000E+00  0.00000000E+00
  0.00000000E+00  0.00000000E+00  0.00000000E+00
  0.00000000E+00  0.00000000E+00  0.00000000E+00
  0.00000000E+00  0.00000000E+00  0.00000000E+00
  0.00000000E+00  0.00000000E+00  0.00000000E+00
  0.00000000E+00  0.00000000E+00  0.00000000E+00
  0.00000000E+00  0.00000000E+00  0.00000000E+00
  0.00000000E+00  0.00000000E+00  0.00000000E+00
  0.00000000E+00  0.00000000E+00  0.00000000E+00
  0.00000000E+00  0.00000000E+00  0.00000000E+00
  0.00000000E+00  0.00000000E+00  0.00000000E+00
  0.00000000E+00  0.00000000E+00  0.00000000E+00
  0.00000000E+00  0.00000000E+00  0.00000000E+00
  0.00000000E+00  0.00000000E+00  0.00000000E+00
  0.00000000E+00  0.00000000E+00  0.00000000E+00
  0.00000000E+00  0.00000000E+00  0.00000000E+00
  0.00000000E+00  0.00000000E+00  0.00000000E+00
  0.00000000E+00  0.00000000E+00  0.00000000E+00
  0.00000000E+00  0.00000000E+00  0.00000000E+00
  0.00000000E+00  0.00000000E+00  0.00000000E+00
  0.00000000E+00  0.00000000E+00  0.00000000E+00
  0.00000000E+00  0.00000000E+00  0.00000000E+00
  0.00000000E+00  0.00000000E+00  0.00000000E+00
  0.00000000E+00  0.00000000E+00  0.00000000E+00
