Title                                   
   1.00000000000000     
     8.5490480000000009    0.0000000000000000    0.0000000000000000
     0.0000000000000000    8.5490480000000009    0.0000000000000000
     0.0000000000000000    0.0000000000000000   20.0000000000000000
    20     4     1
Selective dynamics
Direct
  0.9094150537371245  0.2065175742290408  0.0957124031488724   T   T   T
  0.9117483627690287  0.8017055191678127  0.0966345187339290   T   T   T
  0.1985329721327950  0.0825213962167905  0.0967292036632757   T   T   T
  0.0751706485419175  0.2029889287352619  0.0966905146065745   T   T   T
  0.1553765416000791  0.6511023568805476  0.0972386013968769   T   T   T
  0.0744090557039740  0.5018860815308318  0.0978737886906055   T   T   T
  0.1547058656936013  0.3540897825217518  0.0983809832615128   T   T   T
  0.0787920118744980  0.8002019990282820  0.0962731487501131   T   T   T
  0.3463401677037295  0.1621646309055593  0.0981771871284683   T   T   T
  0.4940800957137236  0.9165459340603160  0.0978609530179837   T   T   T
  0.3452865497096346  0.8367857397666059  0.0972601875124295   T   T   T
  0.7874361940210546  0.0854428926248350  0.0959245599812470   T   T   T
  0.6393277530029697  0.1646682794322242  0.0970475112984385   T   T   T
  0.7906148291433006  0.9194033584470599  0.0966998707637351   T   T   T
  0.8301152835083678  0.6528564864394998  0.0979416026583642   T   T   T
  0.8267765505157604  0.3562308734965728  0.0966384504163465   T   T   T
  0.6432849698484084  0.8370620028867167  0.0982095436610876   T   T   T
  0.3239069576511762  0.3298953891094005  0.1009476756849261   T   T   T
  0.3217200371477753  0.6740562174390895  0.0984606551941901   T   T   T
  0.6613878955504668  0.3329291862419801  0.0988926766397106   T   T   T
  0.4950648895495031  0.0834238697927212  0.0977154046324087   T   T   T
  0.9064556273934276  0.5036667434454327  0.0975197915005788   T   T   T
  0.6700236937894085  0.6745966426920077  0.0999225062231822   T   T   T
  0.1960827276861476  0.9173933437355724  0.0961256227807122   T   T   T
  0.4893572660121210  0.4966547711740998  0.1078276386544138   T   T   T
 
  0.00000000E+00  0.00000000E+00  0.00000000E+00
  0.00000000E+00  0.00000000E+00  0.00000000E+00
  0.00000000E+00  0.00000000E+00  0.00000000E+00
  0.00000000E+00  0.00000000E+00  0.00000000E+00
  0.00000000E+00  0.00000000E+00  0.00000000E+00
  0.00000000E+00  0.00000000E+00  0.00000000E+00
  0.00000000E+00  0.00000000E+00  0.00000000E+00
  0.00000000E+00  0.00000000E+00  0.00000000E+00
  0.00000000E+00  0.00000000E+00  0.00000000E+00
  0.00000000E+00  0.00000000E+00  0.00000000E+00
  0.00000000E+00  0.00000000E+00  0.00000000E+00
  0.00000000E+00  0.00000000E+00  0.00000000E+00
  0.00000000E+00  0.00000000E+00  0.00000000E+00
  0.00000000E+00  0.00000000E+00  0.00000000E+00
  0.00000000E+00  0.00000000E+00  0.00000000E+00
  0.00000000E+00  0.00000000E+00  0.00000000E+00
  0.00000000E+00  0.00000000E+00  0.00000000E+00
  0.00000000E+00  0.00000000E+00  0.00000000E+00
  0.00000000E+00  0.00000000E+00  0.00000000E+00
  0.00000000E+00  0.00000000E+00  0.00000000E+00
  0.00000000E+00  0.00000000E+00  0.00000000E+00
  0.00000000E+00  0.00000000E+00  0.00000000E+00
  0.00000000E+00  0.00000000E+00  0.00000000E+00
  0.00000000E+00  0.00000000E+00  0.00000000E+00
  0.00000000E+00  0.00000000E+00  0.00000000E+00
