Title                                   
   1.00000000000000     
     9.8694509999999998    0.0000000000000000    0.0000000000000000
     0.0000000000000000    8.5490480000000009    0.0000000000000000
     0.0000000000000000    0.0000000000000000   20.0000000000000000
    27     3     1
Selective dynamics
Direct
  0.0559842523636773  0.0896702586108403  0.0902868554044361   T   T   T
  0.9311541329551357  0.1716647137237992  0.0914162969640453   T   T   T
  0.0574791464036471  0.9233180577680211  0.0905278771228640   T   T   T
  0.9343287144751116  0.3384241411043137  0.0903691920106154   T   T   T
  0.0579036227278292  0.5900823505448936  0.0879686043170306   T   T   T
  0.9344640731109263  0.6743502062657324  0.0903995654418778   T   T   T
  0.0579665195875045  0.4229594871449034  0.0878874622001292   T   T   T
  0.9316309439374424  0.8404272343738256  0.0915308122718506   T   T   T
  0.3063754867153028  0.0890379253155012  0.0938690473059076   T   T   T
  0.1808148013303856  0.1708705119747311  0.0904852625790939   T   T   T
  0.1812064542936057  0.3389814840419817  0.0892788329934835   T   T   T
  0.3036884641391185  0.5903705059750476  0.0932578014441923   T   T   T
  0.1816196919674881  0.6735454739748250  0.0894753165042163   T   T   T
  0.3041568203776264  0.4215971633469847  0.0932541000962682   T   T   T
  0.1814063221098822  0.8411256804915267  0.0909097687755656   T   T   T
  0.5546126066706899  0.0915179504876017  0.1002554537560232   T   T   T
  0.4286490125773159  0.1777127597250980  0.0983577455604955   T   T   T
  0.5534417696225027  0.9212129679971404  0.1000714615380289   T   T   T
  0.4281841617219763  0.8337711241223137  0.0982679556784455   T   T   T
  0.8045875188228693  0.0903348040869949  0.0951586548647213   T   T   T
  0.6805740414363030  0.1788663690148093  0.0994305623566757   T   T   T
  0.8047398328672800  0.9215777706414912  0.0950948004609936   T   T   T
  0.6857009252423745  0.3476055532642435  0.1012370241521724   T   T   T
  0.8129235736115643  0.5903961352895177  0.0950658829445882   T   T   T
  0.6858248858865469  0.6647958116912973  0.1011110272182800   T   T   T
  0.8129851838696155  0.4222240491384265  0.0950995481258003   T   T   T
  0.6801909193947191  0.8328511714321968  0.0992065971114398   T   T   T
  0.4248849265430009  0.3413877319214878  0.0995074878992959   T   T   T
  0.4240391900728556  0.6724950997008444  0.0995351131633812   T   T   T
  0.3064566172343180  0.9221677993810208  0.0939065160599087   T   T   T
  0.5551603879313984  0.5055327074485931  0.1087423736782215   T   T   T
 
  0.00000000E+00  0.00000000E+00  0.00000000E+00
  0.00000000E+00  0.00000000E+00  0.00000000E+00
  0.00000000E+00  0.00000000E+00  0.00000000E+00
  0.00000000E+00  0.00000000E+00  0.00000000E+00
  0.00000000E+00  0.00000000E+00  0.00000000E+00
  0.00000000E+00  0.00000000E+00  0.00000000E+00
  0.00000000E+00  0.00000000E+00  0.00000000E+00
  0.00000000E+00  0.00000000E+00  0.00000000E+00
  0.00000000E+00  0.00000000E+00  0.00000000E+00
  0.00000000E+00  0.00000000E+00  0.00000000E+00
  0.00000000E+00  0.00000000E+00  0.00000000E+00
  0.00000000E+00  0.00000000E+00  0.00000000E+00
  0.00000000E+00  0.00000000E+00  0.00000000E+00
  0.00000000E+00  0.00000000E+00  0.00000000E+00
  0.00000000E+00  0.00000000E+00  0.00000000E+00
  0.00000000E+00  0.00000000E+00  0.00000000E+00
  0.00000000E+00  0.00000000E+00  0.00000000E+00
  0.00000000E+00  0.00000000E+00  0.00000000E+00
  0.00000000E+00  0.00000000E+00  0.00000000E+00
  0.00000000E+00  0.00000000E+00  0.00000000E+00
  0.00000000E+00  0.00000000E+00  0.00000000E+00
  0.00000000E+00  0.00000000E+00  0.00000000E+00
  0.00000000E+00  0.00000000E+00  0.00000000E+00
  0.00000000E+00  0.00000000E+00  0.00000000E+00
  0.00000000E+00  0.00000000E+00  0.00000000E+00
  0.00000000E+00  0.00000000E+00  0.00000000E+00
  0.00000000E+00  0.00000000E+00  0.00000000E+00
  0.00000000E+00  0.00000000E+00  0.00000000E+00
  0.00000000E+00  0.00000000E+00  0.00000000E+00
  0.00000000E+00  0.00000000E+00  0.00000000E+00
  0.00000000E+00  0.00000000E+00  0.00000000E+00
