Title                                   
   1.00000000000000     
     4.9440799999999996    0.0000000000000000    0.0000000000000000
     0.0000000000000000    8.5647549999999999    0.0000000000000000
     0.0000000000000000    0.0000000000000000   20.0000000000000000
    11     3     1
Selective dynamics
Direct
  0.0009820809458998  0.2940498063636222  0.0992011176356337   T   T   T
  0.2461824420434061  0.0399704014382709  0.0961402590325224   T   T   T
 -0.0074794331641951  0.9553347091002266  0.0996836873221289   T   T   T
  0.7521971754588954  0.2071461486759526  0.0930635048693456   T   T   T
  0.5034754488590366  0.2944148921557787  0.0942425575684144   T   T   T
  0.7467924454557001  0.0407140476767716  0.0925593866241631   T   T   T
  0.7430286054572767  0.7118254666851767  0.0985028402867652   T   T   T
  0.7511539664070820  0.5356803361689755  0.1006897309746016   T   T   T
  0.4948930510516193  0.9572550202913149  0.0913565709080123   T   T   T
  0.5023439083578840  0.7907634326686609  0.0873294240181950   T   T   T
 -0.0034651422657726  0.4565770386431736  0.1096618814857187   T   T   T
  0.5072124235222746  0.4531197900290924  0.0942914670233092   T   T   T
 -0.0140991549560737  0.7943083335087371  0.1114389752035410   T   T   T
  0.2501425029787533  0.2103069713208930  0.0967091846748467   T   T   T
  0.2766396798482134  0.6302146052733554  0.1431094123728057   T   T   T
 
  0.00000000E+00  0.00000000E+00  0.00000000E+00
  0.00000000E+00  0.00000000E+00  0.00000000E+00
  0.00000000E+00  0.00000000E+00  0.00000000E+00
  0.00000000E+00  0.00000000E+00  0.00000000E+00
  0.00000000E+00  0.00000000E+00  0.00000000E+00
  0.00000000E+00  0.00000000E+00  0.00000000E+00
  0.00000000E+00  0.00000000E+00  0.00000000E+00
  0.00000000E+00  0.00000000E+00  0.00000000E+00
  0.00000000E+00  0.00000000E+00  0.00000000E+00
  0.00000000E+00  0.00000000E+00  0.00000000E+00
  0.00000000E+00  0.00000000E+00  0.00000000E+00
  0.00000000E+00  0.00000000E+00  0.00000000E+00
  0.00000000E+00  0.00000000E+00  0.00000000E+00
  0.00000000E+00  0.00000000E+00  0.00000000E+00
  0.00000000E+00  0.00000000E+00  0.00000000E+00
