Title                                   
   1.00000000000000     
     9.8694509999999998    0.0000000000000000    0.0000000000000000
     0.0000000000000000    8.5490480000000009    0.0000000000000000
     0.0000000000000000    0.0000000000000000   20.0000000000000000
    30     1     1
Selective dynamics
Direct
  0.0564091000791713  0.0907506011248128  0.0831154439436705   T   T   T
  0.9312217223963591  0.1728845398042687  0.0861277462345657   T   T   T
  0.0561344060680238  0.9235762909531612  0.0824696415275254   T   T   T
  0.9308415780083970  0.3397117262220687  0.0901454751345919   T   T   T
  0.0562777324367846  0.5890085288997962  0.0857868241724414   T   T   T
  0.9324842855899311  0.6727207561131371  0.0893967145245232   T   T   T
  0.0566528714894053  0.4229560585763240  0.0871189715768127   T   T   T
  0.9315734187925354  0.8393084896768193  0.0861348136967002   T   T   T
  0.3058089253548141  0.0901795608201117  0.0857133109682890   T   T   T
  0.1815567498272523  0.1739095228698182  0.0849307833112962   T   T   T
  0.3048258762358598  0.9238625779635383  0.0861338818046528   T   T   T
  0.1822503590936938  0.3414787189824066  0.0878725691884049   T   T   T
  0.3037570562525610  0.5925342027364726  0.0943406122856025   T   T   T
  0.1800993362004483  0.6735905904403886  0.0858874201271034   T   T   T
  0.3071876403758883  0.4245100319916648  0.0952292412041066   T   T   T
  0.1800477880719080  0.8405538575548636  0.0839197396707251   T   T   T
  0.5556907290398351  0.0862259777758649  0.0938100310117952   T   T   T
  0.4311764274680233  0.1708213550154615  0.0918275389886361   T   T   T
  0.5551945063463145  0.9197582520322539  0.0967812401257837   T   T   T
  0.4312497752336217  0.3358630954906118  0.1016641241317630   T   T   T
  0.5563140671739113  0.4039202047696825  0.1201686662989083   T   T   T
  0.4273187585459465  0.8401196028639182  0.0948809085304101   T   T   T
  0.8068886776669812  0.0889937684970638  0.0879362250885227   T   T   T
  0.6818297199405340  0.1694159247797560  0.0945139010670387   T   T   T
  0.8072434699370425  0.9225566802438607  0.0891116337038613   T   T   T
  0.6829380518007466  0.3340370352317161  0.1054394967645277   T   T   T
  0.8103456954339673  0.5894707195671620  0.1030219918038732   T   T   T
  0.6955613930953741  0.6809688458317872  0.1182448156930033   T   T   T
  0.8077115563535202  0.4210909125250643  0.1011084580406464   T   T   T
  0.6839094193696812  0.8401750328072999  0.1006684361716416   T   T   T
  0.4199413082814132  0.6800669593827328  0.1035879506361571   T   T   T
  0.5491965980400609  0.5952255784561238  0.1685863925724540   T   T   T
 
  0.00000000E+00  0.00000000E+00  0.00000000E+00
  0.00000000E+00  0.00000000E+00  0.00000000E+00
  0.00000000E+00  0.00000000E+00  0.00000000E+00
  0.00000000E+00  0.00000000E+00  0.00000000E+00
  0.00000000E+00  0.00000000E+00  0.00000000E+00
  0.00000000E+00  0.00000000E+00  0.00000000E+00
  0.00000000E+00  0.00000000E+00  0.00000000E+00
  0.00000000E+00  0.00000000E+00  0.00000000E+00
  0.00000000E+00  0.00000000E+00  0.00000000E+00
  0.00000000E+00  0.00000000E+00  0.00000000E+00
  0.00000000E+00  0.00000000E+00  0.00000000E+00
  0.00000000E+00  0.00000000E+00  0.00000000E+00
  0.00000000E+00  0.00000000E+00  0.00000000E+00
  0.00000000E+00  0.00000000E+00  0.00000000E+00
  0.00000000E+00  0.00000000E+00  0.00000000E+00
  0.00000000E+00  0.00000000E+00  0.00000000E+00
  0.00000000E+00  0.00000000E+00  0.00000000E+00
  0.00000000E+00  0.00000000E+00  0.00000000E+00
  0.00000000E+00  0.00000000E+00  0.00000000E+00
  0.00000000E+00  0.00000000E+00  0.00000000E+00
  0.00000000E+00  0.00000000E+00  0.00000000E+00
  0.00000000E+00  0.00000000E+00  0.00000000E+00
  0.00000000E+00  0.00000000E+00  0.00000000E+00
  0.00000000E+00  0.00000000E+00  0.00000000E+00
  0.00000000E+00  0.00000000E+00  0.00000000E+00
  0.00000000E+00  0.00000000E+00  0.00000000E+00
  0.00000000E+00  0.00000000E+00  0.00000000E+00
  0.00000000E+00  0.00000000E+00  0.00000000E+00
  0.00000000E+00  0.00000000E+00  0.00000000E+00
  0.00000000E+00  0.00000000E+00  0.00000000E+00
  0.00000000E+00  0.00000000E+00  0.00000000E+00
  0.00000000E+00  0.00000000E+00  0.00000000E+00
