Title                                   
   1.00000000000000     
     9.8694509999999998    0.0000000000000000    0.0000000000000000
     0.0000000000000000    8.5490480000000009    0.0000000000000000
     0.0000000000000000    0.0000000000000000   20.0000000000000000
    27     3     1
Selective dynamics
Direct
  0.0563823905293758  0.0902775277889060  0.0837429421689991   T   T   T
  0.9305880576853246  0.1735508330830110  0.0858152368455271   T   T   T
  0.0567873918532637  0.9233783028280106  0.0834444395232639   T   T   T
  0.9322500962542187  0.3406887262390215  0.0855292157845855   T   T   T
  0.0567590951601090  0.5894002545528322  0.0815260157167103   T   T   T
  0.9329797337786487  0.6743629603850892  0.0853020244715090   T   T   T
  0.0566029092529196  0.4230827636122864  0.0816319994315424   T   T   T
  0.9319220530065275  0.8410803666450521  0.0856838658431882   T   T   T
  0.3063329966856274  0.0890518283821239  0.0910702883055062   T   T   T
  0.1808012948711284  0.1719222976173132  0.0858501253971280   T   T   T
  0.3065417968847086  0.9213319171725197  0.0901654643199187   T   T   T
  0.1805579169503092  0.3397070580015868  0.0849554061965543   T   T   T
  0.3046217201100191  0.5901388881630788  0.0916555981002494   T   T   T
  0.1805450547140312  0.6718876224300160  0.0841537318535456   T   T   T
  0.3043052046890047  0.4199319604619774  0.0932763311209662   T   T   T
  0.1812062641738114  0.8396552904009582  0.0849282816414562   T   T   T
  0.5547725455734944  0.0896526541679516  0.1029557721702977   T   T   T
  0.4288064467473737  0.1745159967271358  0.1003055983813279   T   T   T
  0.5556137743719941  0.9179512063343057  0.1020280877147732   T   T   T
  0.4292770051962864  0.8336852269683058  0.0979849907936154   T   T   T
  0.8056329245856252  0.0907312034814412  0.0913301658074018   T   T   T
  0.6818855008257307  0.1753344404693798  0.1013708997827798   T   T   T
  0.8067346313692694  0.9229093178799486  0.0912108612936626   T   T   T
  0.6878492993667648  0.3408325292706688  0.1082193731220823   T   T   T
  0.8103306763253767  0.5944035034082310  0.0952456867596578   T   T   T
  0.8087579158109126  0.4233772961185990  0.0957649169604659   T   T   T
  0.6845591763242186  0.8360767126813548  0.1003170246086108   T   T   T
  0.4225676334858842  0.3377942003954086  0.1064071872930011   T   T   T
  0.6919424844522094  0.6749872473732476  0.1065039825249252   T   T   T
  0.4237078960120227  0.6717686932091719  0.1015752379941539   T   T   T
  0.5515131129538181  0.5074061737510797  0.1610142480726356   T   T   T
 
  0.00000000E+00  0.00000000E+00  0.00000000E+00
  0.00000000E+00  0.00000000E+00  0.00000000E+00
  0.00000000E+00  0.00000000E+00  0.00000000E+00
  0.00000000E+00  0.00000000E+00  0.00000000E+00
  0.00000000E+00  0.00000000E+00  0.00000000E+00
  0.00000000E+00  0.00000000E+00  0.00000000E+00
  0.00000000E+00  0.00000000E+00  0.00000000E+00
  0.00000000E+00  0.00000000E+00  0.00000000E+00
  0.00000000E+00  0.00000000E+00  0.00000000E+00
  0.00000000E+00  0.00000000E+00  0.00000000E+00
  0.00000000E+00  0.00000000E+00  0.00000000E+00
  0.00000000E+00  0.00000000E+00  0.00000000E+00
  0.00000000E+00  0.00000000E+00  0.00000000E+00
  0.00000000E+00  0.00000000E+00  0.00000000E+00
  0.00000000E+00  0.00000000E+00  0.00000000E+00
  0.00000000E+00  0.00000000E+00  0.00000000E+00
  0.00000000E+00  0.00000000E+00  0.00000000E+00
  0.00000000E+00  0.00000000E+00  0.00000000E+00
  0.00000000E+00  0.00000000E+00  0.00000000E+00
  0.00000000E+00  0.00000000E+00  0.00000000E+00
  0.00000000E+00  0.00000000E+00  0.00000000E+00
  0.00000000E+00  0.00000000E+00  0.00000000E+00
  0.00000000E+00  0.00000000E+00  0.00000000E+00
  0.00000000E+00  0.00000000E+00  0.00000000E+00
  0.00000000E+00  0.00000000E+00  0.00000000E+00
  0.00000000E+00  0.00000000E+00  0.00000000E+00
  0.00000000E+00  0.00000000E+00  0.00000000E+00
  0.00000000E+00  0.00000000E+00  0.00000000E+00
  0.00000000E+00  0.00000000E+00  0.00000000E+00
  0.00000000E+00  0.00000000E+00  0.00000000E+00
  0.00000000E+00  0.00000000E+00  0.00000000E+00
