Title                                   
   1.00000000000000     
     8.5490480000000009    0.0000000000000000    0.0000000000000000
     0.0000000000000000    8.5490480000000009    0.0000000000000000
     0.0000000000000000    0.0000000000000000   20.0000000000000000
    22     2     1
Selective dynamics
Direct
  0.9109776531522188  0.2072134101289272  0.0974937898260072   T   T   T
  0.9127897335881663  0.7990845698615705  0.0975299068387782   T   T   T
  0.1984917396437497  0.0826788823330457  0.0976947773451638   T   T   T
  0.0743095520733921  0.2036606388598056  0.0976006793715311   T   T   T
  0.1568767712695336  0.6494741467851429  0.0978680484259834   T   T   T
  0.0753462740853492  0.5014874013414826  0.0978021191798992   T   T   T
  0.1555438990099939  0.3549185458658430  0.0978298601907905   T   T   T
  0.0774017065608567  0.7990532772506357  0.0976616318089970   T   T   T
  0.4936106400830310  0.0858279007627196  0.0977298367302489   T   T   T
  0.3448715265886936  0.1648173680898762  0.0978744723838960   T   T   T
  0.4926757547716348  0.9174713153987502  0.0976651113140085   T   T   T
  0.3450947769505815  0.8353858167410334  0.0978227337559428   T   T   T
  0.7876586618122151  0.0846423760303493  0.0974749121426365   T   T   T
  0.6395300066281803  0.1674022149654648  0.0977067889568465   T   T   T
  0.7880156566655769  0.9200645493875458  0.0974636266769970   T   T   T
  0.8308795013293334  0.6484352660622672  0.0976728385087790   T   T   T
  0.8289587178248994  0.3571588105105349  0.0976875289924717   T   T   T
  0.6396521529402766  0.8359612297507661  0.0976234354936994   T   T   T
  0.3226245511776810  0.3338075064763701  0.0980550019032261   T   T   T
  0.3224661819641657  0.6703597074911309  0.0980364194636130   T   T   T
  0.6625655822847485  0.3361054660976059  0.0979044755785509   T   T   T
  0.6636540955768857  0.6681225429166860  0.0978264380486665   T   T   T
  0.9097734187934747  0.5026582774203238  0.0977299157925559   T   T   T
  0.1977466054237439  0.9179304086517622  0.0977085318037704   T   T   T
  0.4938968398016039  0.5010683708203669  0.0982421194669208   T   T   T
 
  0.00000000E+00  0.00000000E+00  0.00000000E+00
  0.00000000E+00  0.00000000E+00  0.00000000E+00
  0.00000000E+00  0.00000000E+00  0.00000000E+00
  0.00000000E+00  0.00000000E+00  0.00000000E+00
  0.00000000E+00  0.00000000E+00  0.00000000E+00
  0.00000000E+00  0.00000000E+00  0.00000000E+00
  0.00000000E+00  0.00000000E+00  0.00000000E+00
  0.00000000E+00  0.00000000E+00  0.00000000E+00
  0.00000000E+00  0.00000000E+00  0.00000000E+00
  0.00000000E+00  0.00000000E+00  0.00000000E+00
  0.00000000E+00  0.00000000E+00  0.00000000E+00
  0.00000000E+00  0.00000000E+00  0.00000000E+00
  0.00000000E+00  0.00000000E+00  0.00000000E+00
  0.00000000E+00  0.00000000E+00  0.00000000E+00
  0.00000000E+00  0.00000000E+00  0.00000000E+00
  0.00000000E+00  0.00000000E+00  0.00000000E+00
  0.00000000E+00  0.00000000E+00  0.00000000E+00
  0.00000000E+00  0.00000000E+00  0.00000000E+00
  0.00000000E+00  0.00000000E+00  0.00000000E+00
  0.00000000E+00  0.00000000E+00  0.00000000E+00
  0.00000000E+00  0.00000000E+00  0.00000000E+00
  0.00000000E+00  0.00000000E+00  0.00000000E+00
  0.00000000E+00  0.00000000E+00  0.00000000E+00
  0.00000000E+00  0.00000000E+00  0.00000000E+00
  0.00000000E+00  0.00000000E+00  0.00000000E+00
