Title                                   
   1.00000000000000     
     8.5490480000000009    0.0000000000000000    0.0000000000000000
     0.0000000000000000    8.5490480000000009    0.0000000000000000
     0.0000000000000000    0.0000000000000000   20.0000000000000000
    21     3     1
Selective dynamics
Direct
  0.9104842008619517  0.2065987503117480  0.0954306760379788   T   T   T
  0.9041813624575181  0.5031620295315343  0.0952992663369649   T   T   T
  0.9091384188540997  0.7979946306594368  0.0954456885994797   T   T   T
  0.2002334586667181  0.0846134773484396  0.0954696272477467   T   T   T
  0.0758460818705744  0.2089544235555842  0.0954362666963580   T   T   T
  0.1979003834670857  0.9192494714046279  0.0954734971859729   T   T   T
  0.1575276613649793  0.6506932188555778  0.0953269071691442   T   T   T
  0.0756522257288769  0.5035735613965893  0.0953101785430872   T   T   T
  0.1585016917887748  0.3584194783411510  0.0953462085575444   T   T   T
  0.0760229646713707  0.7977755382712904  0.0954495429555633   T   T   T
  0.4947659416667190  0.0844503542533060  0.0953569075772755   T   T   T
  0.3496376034563450  0.1673210359145667  0.0953782945091551   T   T   T
  0.4943747314398141  0.9129815229488140  0.0953461542534798   T   T   T
  0.3467210250391916  0.8324246102525468  0.0953495976787154   T   T   T
  0.7889915984574657  0.0847501104197033  0.0954437116975018   T   T   T
  0.6418899535751970  0.1663031002863028  0.0953202061845603   T   T   T
  0.7892277817137214  0.9178840753333255  0.0954498108018551   T   T   T
  0.8246548878508300  0.6500700640280890  0.0953035231067280   T   T   T
  0.8236601259139055  0.3554594798594964  0.0953036515788637   T   T   T
  0.6412704710373457  0.8334190992088726  0.0953154419738442   T   T   T
  0.3275582403850548  0.3363712060816400  0.0953087471620530   T   T   T
  0.3218799460798027  0.6713503386932085  0.0952209897441896   T   T   T
  0.6625673496602086  0.3306071615995392  0.0951953642524566   T   T   T
  0.6629923744756441  0.6717918176482273  0.0951912542071090   T   T   T
  0.4897315195167987  0.4985714437963963  0.0952334859423506   T   T   T
 
  0.00000000E+00  0.00000000E+00  0.00000000E+00
  0.00000000E+00  0.00000000E+00  0.00000000E+00
  0.00000000E+00  0.00000000E+00  0.00000000E+00
  0.00000000E+00  0.00000000E+00  0.00000000E+00
  0.00000000E+00  0.00000000E+00  0.00000000E+00
  0.00000000E+00  0.00000000E+00  0.00000000E+00
  0.00000000E+00  0.00000000E+00  0.00000000E+00
  0.00000000E+00  0.00000000E+00  0.00000000E+00
  0.00000000E+00  0.00000000E+00  0.00000000E+00
  0.00000000E+00  0.00000000E+00  0.00000000E+00
  0.00000000E+00  0.00000000E+00  0.00000000E+00
  0.00000000E+00  0.00000000E+00  0.00000000E+00
  0.00000000E+00  0.00000000E+00  0.00000000E+00
  0.00000000E+00  0.00000000E+00  0.00000000E+00
  0.00000000E+00  0.00000000E+00  0.00000000E+00
  0.00000000E+00  0.00000000E+00  0.00000000E+00
  0.00000000E+00  0.00000000E+00  0.00000000E+00
  0.00000000E+00  0.00000000E+00  0.00000000E+00
  0.00000000E+00  0.00000000E+00  0.00000000E+00
  0.00000000E+00  0.00000000E+00  0.00000000E+00
  0.00000000E+00  0.00000000E+00  0.00000000E+00
  0.00000000E+00  0.00000000E+00  0.00000000E+00
  0.00000000E+00  0.00000000E+00  0.00000000E+00
  0.00000000E+00  0.00000000E+00  0.00000000E+00
  0.00000000E+00  0.00000000E+00  0.00000000E+00
