Title                                   
   1.00000000000000     
     9.8694509999999998    0.0000000000000000    0.0000000000000000
     0.0000000000000000    8.5490480000000009    0.0000000000000000
     0.0000000000000000    0.0000000000000000   20.0000000000000000
    28     2     1
Selective dynamics
Direct
  0.0560093269481648  0.0889609383195334  0.0899833447132521   T   T   T
  0.9312317215927940  0.1715986847336857  0.0902333884498893   T   T   T
  0.0560013703814744  0.9233166196046634  0.0899698785262047   T   T   T
  0.9344104249966952  0.3379403486957334  0.0889374596250953   T   T   T
  0.0576263585649979  0.5892301361373345  0.0879335423947310   T   T   T
  0.9344542245978663  0.6743458453956854  0.0889264025920238   T   T   T
  0.0576222759801623  0.4229798815528322  0.0879548554770987   T   T   T
  0.9312310868079539  0.8407029554751588  0.0902271574086367   T   T   T
  0.3059843458618336  0.0903842469891666  0.0955681810852154   T   T   T
  0.1807900787618468  0.1719317903263406  0.0917362396853911   T   T   T
  0.3059985267001551  0.9218552739179819  0.0955503975971073   T   T   T
  0.1808798253787799  0.3389789956019540  0.0909142674840263   T   T   T
  0.3039709331557608  0.5914619536818162  0.0959421857947959   T   T   T
  0.1808724364473185  0.6732498745105512  0.0908720289159690   T   T   T
  0.3039817122005660  0.4207837708652122  0.0959707080031691   T   T   T
  0.1807842273729823  0.8403252398984454  0.0917071332175334   T   T   T
  0.5548049729005727  0.0911022570069610  0.1007362784381315   T   T   T
  0.4283671747148909  0.1791280206780611  0.0999295930693252   T   T   T
  0.5547955914537506  0.9212274407097614  0.1007375004315621   T   T   T
  0.4283920626703910  0.8331869829854412  0.0998829495144537   T   T   T
  0.8048404148218148  0.0904019277651336  0.0937279156573661   T   T   T
  0.6809403269740407  0.1789680001102200  0.0980756911996518   T   T   T
  0.8048585104849777  0.9219402959372780  0.0937402777329803   T   T   T
  0.6861231960024565  0.3468538309309042  0.0986262602927913   T   T   T
  0.8129104965572868  0.5903000599088826  0.0924364424139750   T   T   T
  0.6861999450550945  0.6655945943997947  0.0986885322716342   T   T   T
  0.8128733631417171  0.4220376234089214  0.0924088108961198   T   T   T
  0.6809759271927426  0.8334256590059110  0.0981134075624181   T   T   T
  0.4245374755230679  0.3417401527830271  0.1015499280718589   T   T   T
  0.4245203745868537  0.6705896514228974  0.1014911815178784   T   T   T
  0.5561462921710018  0.5063319472407243  0.1083930599597557   T   T   T
 
  0.00000000E+00  0.00000000E+00  0.00000000E+00
  0.00000000E+00  0.00000000E+00  0.00000000E+00
  0.00000000E+00  0.00000000E+00  0.00000000E+00
  0.00000000E+00  0.00000000E+00  0.00000000E+00
  0.00000000E+00  0.00000000E+00  0.00000000E+00
  0.00000000E+00  0.00000000E+00  0.00000000E+00
  0.00000000E+00  0.00000000E+00  0.00000000E+00
  0.00000000E+00  0.00000000E+00  0.00000000E+00
  0.00000000E+00  0.00000000E+00  0.00000000E+00
  0.00000000E+00  0.00000000E+00  0.00000000E+00
  0.00000000E+00  0.00000000E+00  0.00000000E+00
  0.00000000E+00  0.00000000E+00  0.00000000E+00
  0.00000000E+00  0.00000000E+00  0.00000000E+00
  0.00000000E+00  0.00000000E+00  0.00000000E+00
  0.00000000E+00  0.00000000E+00  0.00000000E+00
  0.00000000E+00  0.00000000E+00  0.00000000E+00
  0.00000000E+00  0.00000000E+00  0.00000000E+00
  0.00000000E+00  0.00000000E+00  0.00000000E+00
  0.00000000E+00  0.00000000E+00  0.00000000E+00
  0.00000000E+00  0.00000000E+00  0.00000000E+00
  0.00000000E+00  0.00000000E+00  0.00000000E+00
  0.00000000E+00  0.00000000E+00  0.00000000E+00
  0.00000000E+00  0.00000000E+00  0.00000000E+00
  0.00000000E+00  0.00000000E+00  0.00000000E+00
  0.00000000E+00  0.00000000E+00  0.00000000E+00
  0.00000000E+00  0.00000000E+00  0.00000000E+00
  0.00000000E+00  0.00000000E+00  0.00000000E+00
  0.00000000E+00  0.00000000E+00  0.00000000E+00
  0.00000000E+00  0.00000000E+00  0.00000000E+00
  0.00000000E+00  0.00000000E+00  0.00000000E+00
  0.00000000E+00  0.00000000E+00  0.00000000E+00
