Title                                   
   1.00000000000000     
     9.8694509999999998    0.0000000000000000    0.0000000000000000
     0.0000000000000000    8.5490480000000009    0.0000000000000000
     0.0000000000000000    0.0000000000000000   20.0000000000000000
    29     2     1
Selective dynamics
Direct
  0.0569752310288280  0.0908633846408440  0.0843749996690713   T   T   T
  0.9317534710773901  0.1728304159695228  0.0874729936233287   T   T   T
  0.0560270861388839  0.9234951735067809  0.0840658159065558   T   T   T
  0.9318811191422257  0.3397990748314885  0.0925866949941956   T   T   T
  0.0564979201183462  0.5894579445346447  0.0895178033315818   T   T   T
  0.9315146125096025  0.6722158464345396  0.0921855529547401   T   T   T
  0.0575275732388746  0.4230694292590741  0.0908572166102772   T   T   T
  0.9310836888544244  0.8387269793559822  0.0877704374570681   T   T   T
  0.3061188403018957  0.0903255439975466  0.0852967535756734   T   T   T
  0.1823498727174836  0.1750555231176940  0.0862716658302222   T   T   T
  0.3060251314038059  0.9251768905567681  0.0846006425038148   T   T   T
  0.1835698238123449  0.3419250319562410  0.0907567539621468   T   T   T
  0.3057979157635211  0.5944279093145961  0.0971893725489151   T   T   T
  0.1805454336121659  0.6741790036895147  0.0886450198434885   T   T   T
  0.3097779896733040  0.4260993588340094  0.0975900252394046   T   T   T
  0.1806952187051451  0.8401861657779818  0.0850305341332018   T   T   T
  0.5563338349930991  0.0858917493670732  0.0934772760224335   T   T   T
  0.4319696067132333  0.1697592998622635  0.0913848538047599   T   T   T
  0.4337304264761171  0.3352321609098082  0.1011203454008227   T   T   T
  0.5587918465929022  0.4066418700633517  0.1160325986328759   T   T   T
  0.4285134431457300  0.8420107579107290  0.0936309940601880   T   T   T
  0.8078265851677382  0.0875305212022123  0.0877571953755594   T   T   T
  0.6824075954945591  0.1674779889201790  0.0936362597034374   T   T   T
  0.8057418180209228  0.9221774505649778  0.0884826657355896   T   T   T
  0.6834139519022204  0.3323305601413917  0.1037280970764733   T   T   T
  0.8077694803176857  0.5903806131323378  0.1043671873620991   T   T   T
  0.6874711080661045  0.6798725156161921  0.1172482794408527   T   T   T
  0.8074898910456823  0.4216636068615342  0.1021387519064286   T   T   T
  0.6825099452362299  0.8381726538700627  0.0992684015819868   T   T   T
  0.4224626833709177  0.6860322346384115  0.1081401145975374   T   T   T
  0.5548416242776466  0.9202204412766433  0.0963336690972044   T   T   T
  0.5402242310809736  0.5870178998855932  0.1827160280181104   T   T   T
 
  0.00000000E+00  0.00000000E+00  0.00000000E+00
  0.00000000E+00  0.00000000E+00  0.00000000E+00
  0.00000000E+00  0.00000000E+00  0.00000000E+00
  0.00000000E+00  0.00000000E+00  0.00000000E+00
  0.00000000E+00  0.00000000E+00  0.00000000E+00
  0.00000000E+00  0.00000000E+00  0.00000000E+00
  0.00000000E+00  0.00000000E+00  0.00000000E+00
  0.00000000E+00  0.00000000E+00  0.00000000E+00
  0.00000000E+00  0.00000000E+00  0.00000000E+00
  0.00000000E+00  0.00000000E+00  0.00000000E+00
  0.00000000E+00  0.00000000E+00  0.00000000E+00
  0.00000000E+00  0.00000000E+00  0.00000000E+00
  0.00000000E+00  0.00000000E+00  0.00000000E+00
  0.00000000E+00  0.00000000E+00  0.00000000E+00
  0.00000000E+00  0.00000000E+00  0.00000000E+00
  0.00000000E+00  0.00000000E+00  0.00000000E+00
  0.00000000E+00  0.00000000E+00  0.00000000E+00
  0.00000000E+00  0.00000000E+00  0.00000000E+00
  0.00000000E+00  0.00000000E+00  0.00000000E+00
  0.00000000E+00  0.00000000E+00  0.00000000E+00
  0.00000000E+00  0.00000000E+00  0.00000000E+00
  0.00000000E+00  0.00000000E+00  0.00000000E+00
  0.00000000E+00  0.00000000E+00  0.00000000E+00
  0.00000000E+00  0.00000000E+00  0.00000000E+00
  0.00000000E+00  0.00000000E+00  0.00000000E+00
  0.00000000E+00  0.00000000E+00  0.00000000E+00
  0.00000000E+00  0.00000000E+00  0.00000000E+00
  0.00000000E+00  0.00000000E+00  0.00000000E+00
  0.00000000E+00  0.00000000E+00  0.00000000E+00
  0.00000000E+00  0.00000000E+00  0.00000000E+00
  0.00000000E+00  0.00000000E+00  0.00000000E+00
  0.00000000E+00  0.00000000E+00  0.00000000E+00
