Title                                   
   1.00000000000000     
     4.9440799999999996    0.0000000000000000    0.0000000000000000
     0.0000000000000000   17.1295089999999988    0.0000000000000000
     0.0000000000000000    0.0000000000000000   20.0000000000000000
    27     3     1
Selective dynamics
Direct
  0.0027914215940382  0.1061302169163525  0.2930394534573089   T   T   T
  0.2525203789765654  0.1485298318308585  0.2948362239170634   T   T   T
  0.2537864706467952  0.2332287431808804  0.2988134041105828   T   T   T
  0.0014928726738923  0.2738156617733685  0.2985262521717925   T   T   T
 -0.0033077192192618  0.6012257642409128  0.3000796778094548   T   T   T
  0.2485547629475326  0.7268429753753759  0.2950809371491993   T   T   T
  0.0004505221959978  0.8534414479357219  0.2918703301718849   T   T   T
  0.2502544735573800  0.8956082869267118  0.2919698736954842   T   T   T
  0.2509929876073954  0.9797227770944379  0.2920456748523768   T   T   T
 -0.0002178691424243  0.7694094910974308  0.2930227838243170   T   T   T
  0.5009837358061725  0.1059243780169001  0.2936072026988680   T   T   T
  0.7515540687554386  0.1480279577114842  0.2937869191962714   T   T   T
  0.7520253919501021  0.2313996432953265  0.2965423446569413   T   T   T
  0.5006976362730557  0.0219190441619159  0.2923301214391750   T   T   T
  0.7567933580190098  0.3940636433845263  0.3064256414566264   T   T   T
  0.7533564221599900  0.4788859898320418  0.3080665497689475   T   T   T
  0.5050066234090617  0.2747573887628130  0.3023541460321345   T   T   T
  0.4982624242429479  0.6005011596481842  0.3032389013651126   T   T   T
  0.7495562029548443  0.7271834465392637  0.2939088702258791   T   T   T
  0.4998016199327561  0.8532823034286782  0.2921706900178481   T   T   T
  0.7503321865538916  0.8957191107295296  0.2916304727546657   T   T   T
  0.7509896593787186  0.9796863228733952  0.2917536974443641   T   T   T
  0.4988267299435554  0.7692958463583766  0.2935605335371151   T   T   T
  0.7480604446747263  0.6435823669783669  0.2971070625003401   T   T   T
  0.2476362138648667  0.6427977028906779  0.2998118273577651   T   T   T
  0.0015829199901533  0.0220524939650403  0.2920110693921012   T   T   T
  0.5047219420660031  0.5186998538152636  0.3138893878261626   T   T   T
  0.9958668661342964  0.5203191043704581  0.3049898632820333   T   T   T
  0.5134651714131598  0.3546561896735171  0.3133765202542141   T   T   T
 -0.0038050818248464  0.3540231136286417  0.3010460799653900   T   T   T
  0.2269741624641873  0.4366097435635427  0.3541674876685298   T   T   T
 
  0.00000000E+00  0.00000000E+00  0.00000000E+00
  0.00000000E+00  0.00000000E+00  0.00000000E+00
  0.00000000E+00  0.00000000E+00  0.00000000E+00
  0.00000000E+00  0.00000000E+00  0.00000000E+00
  0.00000000E+00  0.00000000E+00  0.00000000E+00
  0.00000000E+00  0.00000000E+00  0.00000000E+00
  0.00000000E+00  0.00000000E+00  0.00000000E+00
  0.00000000E+00  0.00000000E+00  0.00000000E+00
  0.00000000E+00  0.00000000E+00  0.00000000E+00
  0.00000000E+00  0.00000000E+00  0.00000000E+00
  0.00000000E+00  0.00000000E+00  0.00000000E+00
  0.00000000E+00  0.00000000E+00  0.00000000E+00
  0.00000000E+00  0.00000000E+00  0.00000000E+00
  0.00000000E+00  0.00000000E+00  0.00000000E+00
  0.00000000E+00  0.00000000E+00  0.00000000E+00
  0.00000000E+00  0.00000000E+00  0.00000000E+00
  0.00000000E+00  0.00000000E+00  0.00000000E+00
  0.00000000E+00  0.00000000E+00  0.00000000E+00
  0.00000000E+00  0.00000000E+00  0.00000000E+00
  0.00000000E+00  0.00000000E+00  0.00000000E+00
  0.00000000E+00  0.00000000E+00  0.00000000E+00
  0.00000000E+00  0.00000000E+00  0.00000000E+00
  0.00000000E+00  0.00000000E+00  0.00000000E+00
  0.00000000E+00  0.00000000E+00  0.00000000E+00
  0.00000000E+00  0.00000000E+00  0.00000000E+00
  0.00000000E+00  0.00000000E+00  0.00000000E+00
  0.00000000E+00  0.00000000E+00  0.00000000E+00
  0.00000000E+00  0.00000000E+00  0.00000000E+00
  0.00000000E+00  0.00000000E+00  0.00000000E+00
  0.00000000E+00  0.00000000E+00  0.00000000E+00
  0.00000000E+00  0.00000000E+00  0.00000000E+00
