Title                                   
   1.00000000000000     
     4.9440799999999996    0.0000000000000000    0.0000000000000000
     0.0000000000000000   17.1295089999999988    0.0000000000000000
     0.0000000000000000    0.0000000000000000   20.0000000000000000
    29     1     1
Selective dynamics
Direct
 -0.0081226975440349  0.1057362654930875  0.2944306978620697   T   T   T
  0.2404194982638459  0.1481278222644426  0.2955408974333609   T   T   T
  0.2367946320373882  0.2317656649245804  0.2991714385134544   T   T   T
 -0.0142162011239967  0.2737553698540221  0.3032709277643198   T   T   T
  0.0128147154418281  0.6004623907501885  0.3018376803359800   T   T   T
  0.2557669934806587  0.7275067766960762  0.2959083696690260   T   T   T
  0.0013209745454296  0.8536347348763179  0.2933047442422429   T   T   T
  0.2504055620696687  0.8957503107620153  0.2930112695007089   T   T   T
  0.2466084764865267  0.9796588388585382  0.2928455691358969   T   T   T
  0.0048020746325469  0.7697489562611923  0.2945528114779996   T   T   T
  0.4918655140344375  0.1058989158215240  0.2935748804745847   T   T   T
  0.7411261815836271  0.1478449518467590  0.2944468458778985   T   T   T
  0.7366981588219526  0.2319168225089454  0.2969686209948811   T   T   T
  0.4953938188926583  0.0219335741481420  0.2927337056064686   T   T   T
  0.7500383025937233  0.3932941124529264  0.3053754966144137   T   T   T
  0.7624276094842601  0.4784346972684343  0.3056873896729203   T   T   T
  0.4846359392711969  0.2742756014039612  0.2974494172509071   T   T   T
  0.5097372852597606  0.6021364000656932  0.3017182078917683   T   T   T
  0.7567897616846394  0.7274064464029001  0.2953259772925564   T   T   T
  0.5016457058512016  0.8534926036529478  0.2932142813200461   T   T   T
  0.7502610661454076  0.8957161132565298  0.2928054388871227   T   T   T
  0.7465180589150587  0.9797810376681443  0.2925949785958722   T   T   T
  0.5054933709839059  0.7694941954580368  0.2945149084869992   T   T   T
  0.7606081239334406  0.6431984033754721  0.2985390723164886   T   T   T
  0.2591943179375971  0.6440826400009366  0.2999462449014916   T   T   T
 -0.0045653379527143  0.0218219527230742  0.2931106269246977   T   T   T
  0.5166313618628678  0.5197383800452346  0.3102591968360011   T   T   T
  0.0106594558199351  0.5166324258957367  0.3071158712609479   T   T   T
  0.4986247723075951  0.3573848726750963  0.2991044740442594   T   T   T
 -0.0162491207399256  0.3531661150496670  0.3142716507976901   T   T   T
  0.2758786250195169  0.4375446075393727  0.3424283080168775   T   T   T
 
  0.00000000E+00  0.00000000E+00  0.00000000E+00
  0.00000000E+00  0.00000000E+00  0.00000000E+00
  0.00000000E+00  0.00000000E+00  0.00000000E+00
  0.00000000E+00  0.00000000E+00  0.00000000E+00
  0.00000000E+00  0.00000000E+00  0.00000000E+00
  0.00000000E+00  0.00000000E+00  0.00000000E+00
  0.00000000E+00  0.00000000E+00  0.00000000E+00
  0.00000000E+00  0.00000000E+00  0.00000000E+00
  0.00000000E+00  0.00000000E+00  0.00000000E+00
  0.00000000E+00  0.00000000E+00  0.00000000E+00
  0.00000000E+00  0.00000000E+00  0.00000000E+00
  0.00000000E+00  0.00000000E+00  0.00000000E+00
  0.00000000E+00  0.00000000E+00  0.00000000E+00
  0.00000000E+00  0.00000000E+00  0.00000000E+00
  0.00000000E+00  0.00000000E+00  0.00000000E+00
  0.00000000E+00  0.00000000E+00  0.00000000E+00
  0.00000000E+00  0.00000000E+00  0.00000000E+00
  0.00000000E+00  0.00000000E+00  0.00000000E+00
  0.00000000E+00  0.00000000E+00  0.00000000E+00
  0.00000000E+00  0.00000000E+00  0.00000000E+00
  0.00000000E+00  0.00000000E+00  0.00000000E+00
  0.00000000E+00  0.00000000E+00  0.00000000E+00
  0.00000000E+00  0.00000000E+00  0.00000000E+00
  0.00000000E+00  0.00000000E+00  0.00000000E+00
  0.00000000E+00  0.00000000E+00  0.00000000E+00
  0.00000000E+00  0.00000000E+00  0.00000000E+00
  0.00000000E+00  0.00000000E+00  0.00000000E+00
  0.00000000E+00  0.00000000E+00  0.00000000E+00
  0.00000000E+00  0.00000000E+00  0.00000000E+00
  0.00000000E+00  0.00000000E+00  0.00000000E+00
  0.00000000E+00  0.00000000E+00  0.00000000E+00
