Title                                   
   1.00000000000000     
     8.5490480000000009    0.0000000000000000    0.0000000000000000
     0.0000000000000000    8.5490480000000009    0.0000000000000000
     0.0000000000000000    0.0000000000000000   20.0000000000000000
    18     6     1
Selective dynamics
Direct
  0.9086014700951200  0.2054858535208796  0.0970361252898084   T   T   T
  0.9107582124231305  0.8007985272160115  0.0968939177154441   T   T   T
  0.1956662006693217  0.0834800540946094  0.0970018600239751   T   T   T
  0.0758148522540836  0.2010340871598497  0.0969936648491424   T   T   T
  0.1553127859572562  0.6522625639223697  0.0977974214615861   T   T   T
  0.0781280627070887  0.5010079799282539  0.0977769094085593   T   T   T
  0.1544728457007329  0.3503055556145047  0.0976723623805341   T   T   T
  0.0786255595041966  0.7996113601153727  0.0970097303483318   T   T   T
  0.4934265654272826  0.0887185214256972  0.0977433369023112   T   T   T
  0.3428009552383688  0.1638171493577201  0.0976477534739583   T   T   T
  0.4923985338559879  0.9164000278403019  0.0977160537017833   T   T   T
  0.3434894014112371  0.8380894002237406  0.0977509134346816   T   T   T
  0.7889663719340345  0.0873778077891288  0.0970830764040511   T   T   T
  0.6424835272499219  0.1677800705002965  0.0978349743536362   T   T   T
  0.7894336217627045  0.9185019779468028  0.0969773758794140   T   T   T
  0.8316636406953291  0.6517089965457133  0.0975781302625271   T   T   T
  0.8302016700456485  0.3537154952699259  0.0977636193164843   T   T   T
  0.6433216507871101  0.8366984376423712  0.0976388148224759   T   T   T
  0.9070357184230018  0.5023176826891532  0.0978106655094576   T   T   T
  0.3165364894553881  0.3256656050530840  0.0982421428927479   T   T   T
  0.3174294891667327  0.6787550228179077  0.0985086422824546   T   T   T
  0.6696474347407260  0.3316986267915419  0.0985193934417957   T   T   T
  0.6711601693636776  0.6733458112086197  0.0982391927026911   T   T   T
  0.1965782006267770  0.9163326875615055  0.0970172839938953   T   T   T
  0.4914585705051359  0.4998806977646386  0.1014516391482336   T   T   T
 
  0.00000000E+00  0.00000000E+00  0.00000000E+00
  0.00000000E+00  0.00000000E+00  0.00000000E+00
  0.00000000E+00  0.00000000E+00  0.00000000E+00
  0.00000000E+00  0.00000000E+00  0.00000000E+00
  0.00000000E+00  0.00000000E+00  0.00000000E+00
  0.00000000E+00  0.00000000E+00  0.00000000E+00
  0.00000000E+00  0.00000000E+00  0.00000000E+00
  0.00000000E+00  0.00000000E+00  0.00000000E+00
  0.00000000E+00  0.00000000E+00  0.00000000E+00
  0.00000000E+00  0.00000000E+00  0.00000000E+00
  0.00000000E+00  0.00000000E+00  0.00000000E+00
  0.00000000E+00  0.00000000E+00  0.00000000E+00
  0.00000000E+00  0.00000000E+00  0.00000000E+00
  0.00000000E+00  0.00000000E+00  0.00000000E+00
  0.00000000E+00  0.00000000E+00  0.00000000E+00
  0.00000000E+00  0.00000000E+00  0.00000000E+00
  0.00000000E+00  0.00000000E+00  0.00000000E+00
  0.00000000E+00  0.00000000E+00  0.00000000E+00
  0.00000000E+00  0.00000000E+00  0.00000000E+00
  0.00000000E+00  0.00000000E+00  0.00000000E+00
  0.00000000E+00  0.00000000E+00  0.00000000E+00
  0.00000000E+00  0.00000000E+00  0.00000000E+00
  0.00000000E+00  0.00000000E+00  0.00000000E+00
  0.00000000E+00  0.00000000E+00  0.00000000E+00
  0.00000000E+00  0.00000000E+00  0.00000000E+00
