Title                                   
   1.00000000000000     
     4.9440799999999996    0.0000000000000000    0.0000000000000000
     0.0000000000000000   17.1295089999999988    0.0000000000000000
     0.0000000000000000    0.0000000000000000   20.0000000000000000
    28     3     1
Selective dynamics
Direct
  0.0019379615179861  0.1035003292740418  0.2978264912901037   T   T   T
  0.2524743674667298  0.1452838587214684  0.2996468184065881   T   T   T
  0.2526281610317512  0.2283800868613431  0.3038390900817356   T   T   T
  0.0048010449048867  0.3523580951077322  0.3094751139640657   T   T   T
  0.0017546632973193  0.2699658852263163  0.3044658551613974   T   T   T
 -0.0039961721860660  0.6011975241708487  0.2913447353296810   T   T   T
  0.2523837220911122  0.7269344089709325  0.2952471480570100   T   T   T
  0.0031243853709882  0.8529249881079425  0.2954966348039639   T   T   T
  0.2525210812277126  0.8949530753587271  0.2957567930195689   T   T   T
  0.2523484890080371  0.9783436313315791  0.2960823333157410   T   T   T
  0.0039544307380988  0.7695771384642580  0.2950694968940111   T   T   T
  0.5024119422363058  0.1034642233392706  0.2980670236930811   T   T   T
  0.7517986242995820  0.1454228620070615  0.2987620688767020   T   T   T
  0.7514198661320982  0.2287055177001859  0.3017332196372436   T   T   T
  0.5024806558403305  0.0200184499918229  0.2964633292734019   T   T   T
  0.4982931184073852  0.3538765779989576  0.3119923928232390   T   T   T
  0.7530485784977399  0.3973442648006658  0.3078685906880091   T   T   T
  0.7548512653243100  0.4813646184868475  0.2963247117728396   T   T   T
  0.5022715188336320  0.2705994207425572  0.3057456827531602   T   T   T
  0.5088527110496803  0.6039116265860590  0.2970751018646767   T   T   T
  0.7526761000429124  0.7285992168935083  0.2955769792522844   T   T   T
  0.5017300648030085  0.8530110161921783  0.2959502848850697   T   T   T
  0.7522986533167759  0.8946072718944384  0.2957322244541101   T   T   T
  0.7522523730093867  0.9780927608531065  0.2959258223567966   T   T   T
  0.5010919653604812  0.7693462804272265  0.2961292366409234   T   T   T
  0.7529493702634190  0.6461235557195859  0.2955733622038244   T   T   T
  0.2531229420228966  0.6420510685357373  0.2930517401803064   T   T   T
  0.0020820526061714  0.0201683592708884  0.2962938330329185   T   T   T
  0.5267437774625139  0.5232737896750648  0.3108132251401384   T   T   T
  0.9804763542988660  0.5200672139899783  0.2684567735039712   T   T   T
  0.2498604058786517  0.3907564376519402  0.3200551124571275   T   T   T
  0.1721785258453039  0.5043274456477190  0.3607237741862598   T   T   T
 
  0.00000000E+00  0.00000000E+00  0.00000000E+00
  0.00000000E+00  0.00000000E+00  0.00000000E+00
  0.00000000E+00  0.00000000E+00  0.00000000E+00
  0.00000000E+00  0.00000000E+00  0.00000000E+00
  0.00000000E+00  0.00000000E+00  0.00000000E+00
  0.00000000E+00  0.00000000E+00  0.00000000E+00
  0.00000000E+00  0.00000000E+00  0.00000000E+00
  0.00000000E+00  0.00000000E+00  0.00000000E+00
  0.00000000E+00  0.00000000E+00  0.00000000E+00
  0.00000000E+00  0.00000000E+00  0.00000000E+00
  0.00000000E+00  0.00000000E+00  0.00000000E+00
  0.00000000E+00  0.00000000E+00  0.00000000E+00
  0.00000000E+00  0.00000000E+00  0.00000000E+00
  0.00000000E+00  0.00000000E+00  0.00000000E+00
  0.00000000E+00  0.00000000E+00  0.00000000E+00
  0.00000000E+00  0.00000000E+00  0.00000000E+00
  0.00000000E+00  0.00000000E+00  0.00000000E+00
  0.00000000E+00  0.00000000E+00  0.00000000E+00
  0.00000000E+00  0.00000000E+00  0.00000000E+00
  0.00000000E+00  0.00000000E+00  0.00000000E+00
  0.00000000E+00  0.00000000E+00  0.00000000E+00
  0.00000000E+00  0.00000000E+00  0.00000000E+00
  0.00000000E+00  0.00000000E+00  0.00000000E+00
  0.00000000E+00  0.00000000E+00  0.00000000E+00
  0.00000000E+00  0.00000000E+00  0.00000000E+00
  0.00000000E+00  0.00000000E+00  0.00000000E+00
  0.00000000E+00  0.00000000E+00  0.00000000E+00
  0.00000000E+00  0.00000000E+00  0.00000000E+00
  0.00000000E+00  0.00000000E+00  0.00000000E+00
  0.00000000E+00  0.00000000E+00  0.00000000E+00
  0.00000000E+00  0.00000000E+00  0.00000000E+00
  0.00000000E+00  0.00000000E+00  0.00000000E+00
