Title                                   
   1.00000000000000     
     4.9440799999999996    0.0000000000000000    0.0000000000000000
     0.0000000000000000    8.5647549999999999    0.0000000000000000
     0.0000000000000000    0.0000000000000000   20.0000000000000000
    10     4     1
Selective dynamics
Direct
  0.2500000000000000  0.2121171182058215  0.1003917252901982   T   T   T
 -0.0010146466862443  0.2963067941167937  0.1004919858293123   T   T   T
  0.2500000000000000  0.0374218048308397  0.1004203687077437   T   T   T
 -0.0010220468391104  0.9532344852069567  0.1005302930860103   T   T   T
  0.7500000000000000  0.2094353090390538  0.1004987531480527   T   T   T
  0.5010146466862441  0.2963067941167937  0.1004919858293123   T   T   T
  0.7500000000000000  0.0401387900668669  0.1005278725584442   T   T   T
  0.7500000000000000  0.7126251597958239  0.1005776627475592   T   T   T
  0.7500000000000000  0.5369310971294141  0.1005796432541551   T   T   T
  0.5010220468391101  0.9532344852069567  0.1005302930860103   T   T   T
  0.5102650893312540  0.4606553202393553  0.1006083010628524   T   T   T
 -0.0102650893312540  0.4606553202393553  0.1006083010628524   T   T   T
 -0.0102956727830933  0.7889076335975558  0.1006136802831860   T   T   T
  0.5102956727830934  0.7889076335975558  0.1006136802831860   T   T   T
  0.2500000000000000  0.6248032546108596  0.1004954537711279   T   T   T
 
  0.00000000E+00  0.00000000E+00  0.00000000E+00
  0.00000000E+00  0.00000000E+00  0.00000000E+00
  0.00000000E+00  0.00000000E+00  0.00000000E+00
  0.00000000E+00  0.00000000E+00  0.00000000E+00
  0.00000000E+00  0.00000000E+00  0.00000000E+00
  0.00000000E+00  0.00000000E+00  0.00000000E+00
  0.00000000E+00  0.00000000E+00  0.00000000E+00
  0.00000000E+00  0.00000000E+00  0.00000000E+00
  0.00000000E+00  0.00000000E+00  0.00000000E+00
  0.00000000E+00  0.00000000E+00  0.00000000E+00
  0.00000000E+00  0.00000000E+00  0.00000000E+00
  0.00000000E+00  0.00000000E+00  0.00000000E+00
  0.00000000E+00  0.00000000E+00  0.00000000E+00
  0.00000000E+00  0.00000000E+00  0.00000000E+00
  0.00000000E+00  0.00000000E+00  0.00000000E+00
