Title                                   
   1.00000000000000     
     8.5490480000000009    0.0000000000000000    0.0000000000000000
     0.0000000000000000    8.5490480000000009    0.0000000000000000
     0.0000000000000000    0.0000000000000000   20.0000000000000000
    21     3     1
Selective dynamics
Direct
  0.9099732441904156  0.2069120092182293  0.0954327457144788   T   T   T
  0.9043442972579258  0.5030570918742285  0.0953006885624902   T   T   T
  0.9091528174599939  0.7979787766261304  0.0954570435211016   T   T   T
  0.1999044284087272  0.0847530504427552  0.0954748510280713   T   T   T
  0.0759976766490743  0.2086220451745657  0.0954439480192183   T   T   T
  0.1982032862696366  0.9187315862618287  0.0954865866462905   T   T   T
  0.1574629230193741  0.6504616273175783  0.0953300814076179   T   T   T
  0.0757020960275693  0.5032783594223293  0.0953171581445638   T   T   T
  0.1579466063183961  0.3579838130786574  0.0953552510469808   T   T   T
  0.0765288183455336  0.7974959747407017  0.0954643889548779   T   T   T
  0.4944712819577368  0.0845045873013927  0.0953609262980692   T   T   T
  0.3492094120464911  0.1667614623635209  0.0953779973252632   T   T   T
  0.4942697659516913  0.9131450026875798  0.0953506640366525   T   T   T
  0.3466139220711583  0.8330130128756755  0.0953516021142547   T   T   T
  0.7887021690018752  0.0852763255020439  0.0954570432156273   T   T   T
  0.6416535242466177  0.1662357200114425  0.0953234496284652   T   T   T
  0.7892069673314634  0.9179081904700720  0.0954635291849084   T   T   T
  0.8252361828620369  0.6503057962546108  0.0953067719214302   T   T   T
  0.8242464156919165  0.3553599215856355  0.0953033515274876   T   T   T
  0.6415113061787907  0.8340075571460823  0.0953224773114647   T   T   T
  0.3271467961592315  0.3359572411975748  0.0952960791564240   T   T   T
  0.3220535890808505  0.6710253689579009  0.0952105835364453   T   T   T
  0.6622358497794604  0.3307851444735223  0.0951834950056545   T   T   T
  0.6634478128426931  0.6722409393000650  0.0951813423819670   T   T   T
  0.4901908108513331  0.4989893957158898  0.0951529443101729   T   T   T
 
  0.00000000E+00  0.00000000E+00  0.00000000E+00
  0.00000000E+00  0.00000000E+00  0.00000000E+00
  0.00000000E+00  0.00000000E+00  0.00000000E+00
  0.00000000E+00  0.00000000E+00  0.00000000E+00
  0.00000000E+00  0.00000000E+00  0.00000000E+00
  0.00000000E+00  0.00000000E+00  0.00000000E+00
  0.00000000E+00  0.00000000E+00  0.00000000E+00
  0.00000000E+00  0.00000000E+00  0.00000000E+00
  0.00000000E+00  0.00000000E+00  0.00000000E+00
  0.00000000E+00  0.00000000E+00  0.00000000E+00
  0.00000000E+00  0.00000000E+00  0.00000000E+00
  0.00000000E+00  0.00000000E+00  0.00000000E+00
  0.00000000E+00  0.00000000E+00  0.00000000E+00
  0.00000000E+00  0.00000000E+00  0.00000000E+00
  0.00000000E+00  0.00000000E+00  0.00000000E+00
  0.00000000E+00  0.00000000E+00  0.00000000E+00
  0.00000000E+00  0.00000000E+00  0.00000000E+00
  0.00000000E+00  0.00000000E+00  0.00000000E+00
  0.00000000E+00  0.00000000E+00  0.00000000E+00
  0.00000000E+00  0.00000000E+00  0.00000000E+00
  0.00000000E+00  0.00000000E+00  0.00000000E+00
  0.00000000E+00  0.00000000E+00  0.00000000E+00
  0.00000000E+00  0.00000000E+00  0.00000000E+00
  0.00000000E+00  0.00000000E+00  0.00000000E+00
  0.00000000E+00  0.00000000E+00  0.00000000E+00
