Title                                   
   1.00000000000000     
     9.8694509999999998    0.0000000000000000    0.0000000000000000
     0.0000000000000000    8.5490480000000009    0.0000000000000000
     0.0000000000000000    0.0000000000000000   20.0000000000000000
    28     3     1
Selective dynamics
Direct
  0.0560106279263770  0.0908309729736007  0.0851013865998303   T   T   T
  0.9310032216175727  0.1741576161561718  0.0864072842109019   T   T   T
  0.0577525617229688  0.9236135619149668  0.0849346682094750   T   T   T
  0.9302756991675808  0.3418307328498156  0.0885193517370931   T   T   T
  0.0567458260529495  0.5903870570404234  0.0865420196451889   T   T   T
  0.9325815238112681  0.6738132853043919  0.0879241386947830   T   T   T
  0.0560629391000398  0.4228916799074458  0.0873839643512073   T   T   T
  0.9331018288564494  0.8404179209917612  0.0868458939983479   T   T   T
  0.3059538436635819  0.0877203666991345  0.0894184742084824   T   T   T
  0.1821088973116647  0.1721973097571735  0.0874149209456705   T   T   T
  0.1813594427239705  0.3389227303171474  0.0897274069949472   T   T   T
  0.3040991558861783  0.5877613538296346  0.1007294619688066   T   T   T
  0.1816465363775690  0.6734880865509992  0.0895334592684568   T   T   T
  0.3054584309227483  0.4205185742043788  0.0990417572338256   T   T   T
  0.1821022884001902  0.8401044299260584  0.0873722539140195   T   T   T
  0.5562823226521966  0.0868378885872517  0.0942385812008170   T   T   T
  0.5556843988618755  0.9211744146545049  0.0988538427655471   T   T   T
  0.4293518898645116  0.3321804805156653  0.1041494783512146   T   T   T
  0.4280495762520310  0.8395692571879418  0.1022900362929776   T   T   T
  0.8059760903654876  0.0896178044347629  0.0876269836315699   T   T   T
  0.6797654212588253  0.1714001680142698  0.0920670807046108   T   T   T
  0.8077109602890160  0.9242902230692212  0.0891892673416150   T   T   T
  0.6806681207140201  0.3374660124170682  0.1004776148714441   T   T   T
  0.8082562904797587  0.5934454107218075  0.0966821378850091   T   T   T
  0.8042450905648857  0.4250675919374012  0.0957445086227368   T   T   T
  0.6845218477625522  0.8406310790380080  0.0983172878660071   T   T   T
  0.4197281966666060  0.6800320368328358  0.1148616400124853   T   T   T
  0.5536697903959300  0.4055622305135107  0.1154894482645500   T   T   T
  0.6926866025117289  0.6810498996753076  0.1089021574215222   T   T   T
  0.3062888371418249  0.9245599933902824  0.0898550711713637   T   T   T
  0.4287032540398740  0.1670358851961010  0.0941488438607859   T   T   T
  0.5617874866377729  0.5916699453909574  0.1658845777547239   T   T   T
 
  0.00000000E+00  0.00000000E+00  0.00000000E+00
  0.00000000E+00  0.00000000E+00  0.00000000E+00
  0.00000000E+00  0.00000000E+00  0.00000000E+00
  0.00000000E+00  0.00000000E+00  0.00000000E+00
  0.00000000E+00  0.00000000E+00  0.00000000E+00
  0.00000000E+00  0.00000000E+00  0.00000000E+00
  0.00000000E+00  0.00000000E+00  0.00000000E+00
  0.00000000E+00  0.00000000E+00  0.00000000E+00
  0.00000000E+00  0.00000000E+00  0.00000000E+00
  0.00000000E+00  0.00000000E+00  0.00000000E+00
  0.00000000E+00  0.00000000E+00  0.00000000E+00
  0.00000000E+00  0.00000000E+00  0.00000000E+00
  0.00000000E+00  0.00000000E+00  0.00000000E+00
  0.00000000E+00  0.00000000E+00  0.00000000E+00
  0.00000000E+00  0.00000000E+00  0.00000000E+00
  0.00000000E+00  0.00000000E+00  0.00000000E+00
  0.00000000E+00  0.00000000E+00  0.00000000E+00
  0.00000000E+00  0.00000000E+00  0.00000000E+00
  0.00000000E+00  0.00000000E+00  0.00000000E+00
  0.00000000E+00  0.00000000E+00  0.00000000E+00
  0.00000000E+00  0.00000000E+00  0.00000000E+00
  0.00000000E+00  0.00000000E+00  0.00000000E+00
  0.00000000E+00  0.00000000E+00  0.00000000E+00
  0.00000000E+00  0.00000000E+00  0.00000000E+00
  0.00000000E+00  0.00000000E+00  0.00000000E+00
  0.00000000E+00  0.00000000E+00  0.00000000E+00
  0.00000000E+00  0.00000000E+00  0.00000000E+00
  0.00000000E+00  0.00000000E+00  0.00000000E+00
  0.00000000E+00  0.00000000E+00  0.00000000E+00
  0.00000000E+00  0.00000000E+00  0.00000000E+00
  0.00000000E+00  0.00000000E+00  0.00000000E+00
  0.00000000E+00  0.00000000E+00  0.00000000E+00
