Title                                   
   1.00000000000000     
     4.9440799999999996    0.0000000000000000    0.0000000000000000
     0.0000000000000000   17.1295089999999988    0.0000000000000000
     0.0000000000000000    0.0000000000000000   20.0000000000000000
    26     4     1
Selective dynamics
Direct
  0.0009698849566590  0.1064955966200839  0.2989239029973905   T   T   T
  0.2507077389244415  0.1493654177303819  0.2991996454586615   T   T   T
  0.2512283948979074  0.2344518705113099  0.3003747069976998   T   T   T
 -0.0013390219587920  0.2751302730527269  0.3030338268296906   T   T   T
 -0.0021824952802406  0.5994656340312154  0.3023483508426110   T   T   T
  0.2478843916794114  0.7256540483674121  0.2988757532615967   T   T   T
  0.0005023828050031  0.8527522169571616  0.2981474406676882   T   T   T
  0.2493928126456047  0.8950900582691632  0.2978187170382178   T   T   T
  0.2498354808052180  0.9796112798983334  0.2977500079923063   T   T   T
  0.0001004579905841  0.7679611660175338  0.2987340650575843   T   T   T
  0.4996496094782842  0.1063783751706832  0.2983500797604151   T   T   T
  0.7502098617848648  0.1483362970042476  0.2991183589562607   T   T   T
  0.7504494285976853  0.2325280812243654  0.3002218501426370   T   T   T
  0.4996139536877084  0.0218699828653847  0.2977192198174164   T   T   T
  0.7557417932265499  0.3943523314898078  0.3020153584401337   T   T   T
  0.7537565916105006  0.4803562863216035  0.3013075789318390   T   T   T
  0.5033742381404183  0.2760765965984502  0.2986828807307898   T   T   T
  0.4984048132226639  0.6000714650309545  0.2971909676591387   T   T   T
  0.7496388353485968  0.7265288025762200  0.2987321645711156   T   T   T
  0.4980909216571847  0.8524615604558374  0.2978221070757102   T   T   T
  0.7494721439907928  0.8947164254497703  0.2977926815138519   T   T   T
  0.7498599949190344  0.9793655796360279  0.2977293840818816   T   T   T
  0.4976235637302084  0.7676537340951489  0.2982820930870213   T   T   T
  0.7481628120515843  0.6429375836315693  0.2992534714491863   T   T   T
  0.0003075786438638  0.0219181933297785  0.2980664895009301   T   T   T
  0.5059009032803351  0.5177564817549886  0.2935327715738646   T   T   T
  0.9968265548669601  0.5195685294514366  0.3079417410483976   T   T   T
  0.5139106475848263  0.3573380791900114  0.2952769416933746   T   T   T
 -0.0087626978648624  0.3558593217502440  0.3084613540586176   T   T   T
  0.2471048206517391  0.6414113643794410  0.2995936887501042   T   T   T
  0.2535706039252676  0.4378793671387018  0.3027624000138198   T   T   T
 
  0.00000000E+00  0.00000000E+00  0.00000000E+00
  0.00000000E+00  0.00000000E+00  0.00000000E+00
  0.00000000E+00  0.00000000E+00  0.00000000E+00
  0.00000000E+00  0.00000000E+00  0.00000000E+00
  0.00000000E+00  0.00000000E+00  0.00000000E+00
  0.00000000E+00  0.00000000E+00  0.00000000E+00
  0.00000000E+00  0.00000000E+00  0.00000000E+00
  0.00000000E+00  0.00000000E+00  0.00000000E+00
  0.00000000E+00  0.00000000E+00  0.00000000E+00
  0.00000000E+00  0.00000000E+00  0.00000000E+00
  0.00000000E+00  0.00000000E+00  0.00000000E+00
  0.00000000E+00  0.00000000E+00  0.00000000E+00
  0.00000000E+00  0.00000000E+00  0.00000000E+00
  0.00000000E+00  0.00000000E+00  0.00000000E+00
  0.00000000E+00  0.00000000E+00  0.00000000E+00
  0.00000000E+00  0.00000000E+00  0.00000000E+00
  0.00000000E+00  0.00000000E+00  0.00000000E+00
  0.00000000E+00  0.00000000E+00  0.00000000E+00
  0.00000000E+00  0.00000000E+00  0.00000000E+00
  0.00000000E+00  0.00000000E+00  0.00000000E+00
  0.00000000E+00  0.00000000E+00  0.00000000E+00
  0.00000000E+00  0.00000000E+00  0.00000000E+00
  0.00000000E+00  0.00000000E+00  0.00000000E+00
  0.00000000E+00  0.00000000E+00  0.00000000E+00
  0.00000000E+00  0.00000000E+00  0.00000000E+00
  0.00000000E+00  0.00000000E+00  0.00000000E+00
  0.00000000E+00  0.00000000E+00  0.00000000E+00
  0.00000000E+00  0.00000000E+00  0.00000000E+00
  0.00000000E+00  0.00000000E+00  0.00000000E+00
  0.00000000E+00  0.00000000E+00  0.00000000E+00
  0.00000000E+00  0.00000000E+00  0.00000000E+00
