Title                                   
   1.00000000000000     
     9.8694509999999998    0.0000000000000000    0.0000000000000000
     0.0000000000000000    8.5490480000000009    0.0000000000000000
     0.0000000000000000    0.0000000000000000   20.0000000000000000
    28     3     1
Selective dynamics
Direct
  0.0565755565282995  0.0911760789751786  0.0852578500676913   T   T   T
  0.9311428788987162  0.1729438151498848  0.0871688558556850   T   T   T
  0.0553289780226618  0.9239448947499346  0.0850786129679667   T   T   T
  0.9308039142867705  0.3396679872506589  0.0913668609507102   T   T   T
  0.0565395138829281  0.5894421837072944  0.0894775563641831   T   T   T
  0.9312801854529762  0.6721788141565826  0.0917380332167107   T   T   T
  0.0574410875115285  0.4231898747431086  0.0906869640698289   T   T   T
  0.9302459311706692  0.8386987366384412  0.0880274493726345   T   T   T
  0.3052362536770599  0.0908942482335162  0.0871687053885977   T   T   T
  0.1820241216615613  0.1755573864326977  0.0873527654316960   T   T   T
  0.3045355858364674  0.9261459708727191  0.0868745770229899   T   T   T
  0.1847720119351094  0.3427704139275704  0.0911629044085747   T   T   T
  0.3067708020353018  0.5955416092712383  0.0971432291911683   T   T   T
  0.1806508752222226  0.6742141163336617  0.0891974850633510   T   T   T
  0.3119060260009542  0.4267038541689112  0.0971085263626326   T   T   T
  0.1800692369292395  0.8408370143231576  0.0864824955952026   T   T   T
  0.5555934796550879  0.0844342728010535  0.0935973403708092   T   T   T
  0.4320167993074956  0.1695616006075824  0.0924509688984073   T   T   T
  0.4362414787660954  0.3344914732426311  0.1000485512981849   T   T   T
  0.4270058071805485  0.8415624480270149  0.0953310956010828   T   T   T
  0.8072902809577247  0.0875779871480919  0.0872958728491030   T   T   T
  0.6810648537628242  0.1662532085655248  0.0922337490558245   T   T   T
  0.8050329711310248  0.9220915571266021  0.0885238873726813   T   T   T
  0.6802582283559541  0.3312610662901646  0.1002126755769519   T   T   T
  0.8070050837506604  0.5893461085537661  0.1016887584976703   T   T   T
  0.6888732347269360  0.6801608594890560  0.1147117370745496   T   T   T
  0.8049685456698891  0.4211102406901751  0.0985948567640203   T   T   T
  0.6809092799081422  0.8387837649925930  0.0981656144998688   T   T   T
  0.4221269938460577  0.6870356146995852  0.1069945414058490   T   T   T
  0.5596498157843056  0.4036605496135702  0.1116040012527286   T   T   T
  0.5537143928580753  0.9200014757920518  0.0957502480574223   T   T   T
  0.5525647952867188  0.5890067734259918  0.1571782300952573   T   T   T
 
  0.00000000E+00  0.00000000E+00  0.00000000E+00
  0.00000000E+00  0.00000000E+00  0.00000000E+00
  0.00000000E+00  0.00000000E+00  0.00000000E+00
  0.00000000E+00  0.00000000E+00  0.00000000E+00
  0.00000000E+00  0.00000000E+00  0.00000000E+00
  0.00000000E+00  0.00000000E+00  0.00000000E+00
  0.00000000E+00  0.00000000E+00  0.00000000E+00
  0.00000000E+00  0.00000000E+00  0.00000000E+00
  0.00000000E+00  0.00000000E+00  0.00000000E+00
  0.00000000E+00  0.00000000E+00  0.00000000E+00
  0.00000000E+00  0.00000000E+00  0.00000000E+00
  0.00000000E+00  0.00000000E+00  0.00000000E+00
  0.00000000E+00  0.00000000E+00  0.00000000E+00
  0.00000000E+00  0.00000000E+00  0.00000000E+00
  0.00000000E+00  0.00000000E+00  0.00000000E+00
  0.00000000E+00  0.00000000E+00  0.00000000E+00
  0.00000000E+00  0.00000000E+00  0.00000000E+00
  0.00000000E+00  0.00000000E+00  0.00000000E+00
  0.00000000E+00  0.00000000E+00  0.00000000E+00
  0.00000000E+00  0.00000000E+00  0.00000000E+00
  0.00000000E+00  0.00000000E+00  0.00000000E+00
  0.00000000E+00  0.00000000E+00  0.00000000E+00
  0.00000000E+00  0.00000000E+00  0.00000000E+00
  0.00000000E+00  0.00000000E+00  0.00000000E+00
  0.00000000E+00  0.00000000E+00  0.00000000E+00
  0.00000000E+00  0.00000000E+00  0.00000000E+00
  0.00000000E+00  0.00000000E+00  0.00000000E+00
  0.00000000E+00  0.00000000E+00  0.00000000E+00
  0.00000000E+00  0.00000000E+00  0.00000000E+00
  0.00000000E+00  0.00000000E+00  0.00000000E+00
  0.00000000E+00  0.00000000E+00  0.00000000E+00
  0.00000000E+00  0.00000000E+00  0.00000000E+00
