Title                                   
   1.00000000000000     
     9.8694509999999998    0.0000000000000000    0.0000000000000000
     0.0000000000000000    8.5490480000000009    0.0000000000000000
     0.0000000000000000    0.0000000000000000   20.0000000000000000
    27     4     1
Selective dynamics
Direct
  0.0557981804898417  0.0920700294677005  0.0857012148847835   T   T   T
  0.9309812405303680  0.1745025236163845  0.0867646197547983   T   T   T
  0.0573038670829484  0.9245924535256191  0.0865288454196582   T   T   T
  0.9302510524365044  0.3414028308321497  0.0894104904239245   T   T   T
  0.0569774203537537  0.5897692117969273  0.0865949631122096   T   T   T
  0.9328806075603837  0.6731556425572967  0.0890670871877900   T   T   T
  0.0566951962210015  0.4226975733692641  0.0876796620714472   T   T   T
  0.9330486261224491  0.8404555665247354  0.0880673018528369   T   T   T
  0.3053994517755611  0.0881474741601668  0.0881982234246604   T   T   T
  0.1817187828624801  0.1731241997923577  0.0867582861434489   T   T   T
  0.1831814956721818  0.3401776562162085  0.0883572455066671   T   T   T
  0.3036122539063395  0.5918773345792899  0.0979454653705213   T   T   T
  0.1810904243982968  0.6738061644529657  0.0892842814113688   T   T   T
  0.3097112245802582  0.4248786133756368  0.0949885973567615   T   T   T
  0.1810069197147701  0.8411763551833673  0.0893270326437211   T   T   T
  0.5566163235337580  0.0850428887446538  0.0932315479448188   T   T   T
  0.4306728443778918  0.1681079555868445  0.0917515720999302   T   T   T
  0.5549934461373687  0.9174891298756164  0.0973123592815210   T   T   T
  0.4318553428898707  0.3328703721471428  0.0979018477030838   T   T   T
  0.4255108151660474  0.8409389683301514  0.0997179940457232   T   T   T
  0.8067687877469245  0.0895480899817035  0.0872324094833943   T   T   T
  0.6810339821893502  0.1692662074334760  0.0915980628251408   T   T   T
  0.8074446686601524  0.9235487771732220  0.0891269799882008   T   T   T
  0.6798208146019189  0.3344556986549532  0.0988155074384096   T   T   T
  0.8094780611687732  0.5927160530643301  0.0982847816330540   T   T   T
  0.8030430551598084  0.4246467810919051  0.0965192240204868   T   T   T
  0.6848142547560033  0.8395275139989047  0.0982919855933850   T   T   T
  0.4151603230882311  0.6844985305671113  0.1170154565123330   T   T   T
  0.5554149475674848  0.4043854453425988  0.1122450312259009   T   T   T
  0.6947980789816326  0.6810430754616935  0.1133717547489638   T   T   T
  0.3052193056324718  0.9235249012392176  0.0909618955282201   T   T   T
  0.5573372046351815  0.5868019818564069  0.1776232733628524   T   T   T
 
  0.00000000E+00  0.00000000E+00  0.00000000E+00
  0.00000000E+00  0.00000000E+00  0.00000000E+00
  0.00000000E+00  0.00000000E+00  0.00000000E+00
  0.00000000E+00  0.00000000E+00  0.00000000E+00
  0.00000000E+00  0.00000000E+00  0.00000000E+00
  0.00000000E+00  0.00000000E+00  0.00000000E+00
  0.00000000E+00  0.00000000E+00  0.00000000E+00
  0.00000000E+00  0.00000000E+00  0.00000000E+00
  0.00000000E+00  0.00000000E+00  0.00000000E+00
  0.00000000E+00  0.00000000E+00  0.00000000E+00
  0.00000000E+00  0.00000000E+00  0.00000000E+00
  0.00000000E+00  0.00000000E+00  0.00000000E+00
  0.00000000E+00  0.00000000E+00  0.00000000E+00
  0.00000000E+00  0.00000000E+00  0.00000000E+00
  0.00000000E+00  0.00000000E+00  0.00000000E+00
  0.00000000E+00  0.00000000E+00  0.00000000E+00
  0.00000000E+00  0.00000000E+00  0.00000000E+00
  0.00000000E+00  0.00000000E+00  0.00000000E+00
  0.00000000E+00  0.00000000E+00  0.00000000E+00
  0.00000000E+00  0.00000000E+00  0.00000000E+00
  0.00000000E+00  0.00000000E+00  0.00000000E+00
  0.00000000E+00  0.00000000E+00  0.00000000E+00
  0.00000000E+00  0.00000000E+00  0.00000000E+00
  0.00000000E+00  0.00000000E+00  0.00000000E+00
  0.00000000E+00  0.00000000E+00  0.00000000E+00
  0.00000000E+00  0.00000000E+00  0.00000000E+00
  0.00000000E+00  0.00000000E+00  0.00000000E+00
  0.00000000E+00  0.00000000E+00  0.00000000E+00
  0.00000000E+00  0.00000000E+00  0.00000000E+00
  0.00000000E+00  0.00000000E+00  0.00000000E+00
  0.00000000E+00  0.00000000E+00  0.00000000E+00
  0.00000000E+00  0.00000000E+00  0.00000000E+00
