Title                                   
   1.00000000000000     
     9.8694509999999998    0.0000000000000000    0.0000000000000000
     0.0000000000000000    8.5490480000000009    0.0000000000000000
     0.0000000000000000    0.0000000000000000   20.0000000000000000
    25     5     1
Selective dynamics
Direct
  0.0558730078720876  0.0907743140533504  0.0935391679919295   T   T   T
  0.9305630351888078  0.1729737967190986  0.0942896260585268   T   T   T
  0.0574133700052813  0.9237200336354048  0.0934975127072560   T   T   T
  0.9341040660584615  0.3398438152305004  0.0936549838469597   T   T   T
  0.0571781555583836  0.5899875249784211  0.0916861530247628   T   T   T
  0.9348470642493808  0.6745831933204482  0.0934962236810761   T   T   T
  0.0574571640557732  0.4229948732856944  0.0918702272364252   T   T   T
  0.9325227951359182  0.8412249202226921  0.0942999165716788   T   T   T
  0.3069315432937861  0.0879402243244426  0.0958484178491932   T   T   T
  0.1809764275804655  0.1719852256766246  0.0938351467967498   T   T   T
  0.1804010690731187  0.3383063817639325  0.0930428353994333   T   T   T
  0.3021612060266620  0.5897049409492218  0.0961532801983739   T   T   T
  0.1798645109388671  0.6738991645546669  0.0928038324694344   T   T   T
  0.3033849358030799  0.4219427905174583  0.0960705699389759   T   T   T
  0.1807473229683215  0.8400686198811653  0.0936886517898485   T   T   T
  0.4292435449154859  0.1724218326015803  0.0991250098194172   T   T   T
  0.5539816185902291  0.9182353090222299  0.1006783485352728   T   T   T
  0.4273518562030466  0.8370167297390140  0.0995446997594970   T   T   T
  0.8043521658863636  0.0892202295696261  0.0966071398472654   T   T   T
  0.6793396008646073  0.1750462461585384  0.0997494412577521   T   T   T
  0.8063309844886989  0.9225642589605001  0.0967447804860182   T   T   T
  0.6902968812551692  0.3376985297195556  0.1015526524441974   T   T   T
  0.8132166294455047  0.5927449736210075  0.0971415084930369   T   T   T
  0.8117022836206963  0.4247354316870892  0.0971684715753055   T   T   T
  0.6818558846399920  0.8357963120265078  0.1000247437479295   T   T   T
  0.5544902648492298  0.0915247956565889  0.1006110380941937   T   T   T
  0.4228514625274695  0.3337256486521852  0.1005917587678311   T   T   T
  0.6929963606299510  0.6745078677627886  0.1016968254927192   T   T   T
  0.4192402052052019  0.6787756430553350  0.1016670221432139   T   T   T
  0.3053717760989988  0.9224438572888126  0.0955706138059705   T   T   T
  0.5560878069709712  0.5044675153655315  0.1047144001697922   T   T   T
 
  0.00000000E+00  0.00000000E+00  0.00000000E+00
  0.00000000E+00  0.00000000E+00  0.00000000E+00
  0.00000000E+00  0.00000000E+00  0.00000000E+00
  0.00000000E+00  0.00000000E+00  0.00000000E+00
  0.00000000E+00  0.00000000E+00  0.00000000E+00
  0.00000000E+00  0.00000000E+00  0.00000000E+00
  0.00000000E+00  0.00000000E+00  0.00000000E+00
  0.00000000E+00  0.00000000E+00  0.00000000E+00
  0.00000000E+00  0.00000000E+00  0.00000000E+00
  0.00000000E+00  0.00000000E+00  0.00000000E+00
  0.00000000E+00  0.00000000E+00  0.00000000E+00
  0.00000000E+00  0.00000000E+00  0.00000000E+00
  0.00000000E+00  0.00000000E+00  0.00000000E+00
  0.00000000E+00  0.00000000E+00  0.00000000E+00
  0.00000000E+00  0.00000000E+00  0.00000000E+00
  0.00000000E+00  0.00000000E+00  0.00000000E+00
  0.00000000E+00  0.00000000E+00  0.00000000E+00
  0.00000000E+00  0.00000000E+00  0.00000000E+00
  0.00000000E+00  0.00000000E+00  0.00000000E+00
  0.00000000E+00  0.00000000E+00  0.00000000E+00
  0.00000000E+00  0.00000000E+00  0.00000000E+00
  0.00000000E+00  0.00000000E+00  0.00000000E+00
  0.00000000E+00  0.00000000E+00  0.00000000E+00
  0.00000000E+00  0.00000000E+00  0.00000000E+00
  0.00000000E+00  0.00000000E+00  0.00000000E+00
  0.00000000E+00  0.00000000E+00  0.00000000E+00
  0.00000000E+00  0.00000000E+00  0.00000000E+00
  0.00000000E+00  0.00000000E+00  0.00000000E+00
  0.00000000E+00  0.00000000E+00  0.00000000E+00
  0.00000000E+00  0.00000000E+00  0.00000000E+00
  0.00000000E+00  0.00000000E+00  0.00000000E+00
