Title                                   
   1.00000000000000     
     4.9440799999999996    0.0000000000000000    0.0000000000000000
     0.0000000000000000   17.1295089999999988    0.0000000000000000
     0.0000000000000000    0.0000000000000000   20.0000000000000000
    27     4     1
Selective dynamics
Direct
  0.0015802012785971  0.1045251877979246  0.2895271466912307   T   T   T
  0.2517450317925436  0.1467246968744250  0.2923831948754449   T   T   T
  0.2535513596321467  0.2301401133142478  0.3003607130036686   T   T   T
  0.0113183482258445  0.3537949846554478  0.3178576258646481   T   T   T
  0.0029467470778599  0.2718310688211726  0.3044856337930625   T   T   T
 -0.0163742761454220  0.6032329826181170  0.3101427563302080   T   T   T
  0.2426606299403997  0.7258437957968266  0.2922044476230021   T   T   T
 -0.0036948183863336  0.8528809196145153  0.2867906411017215   T   T   T
  0.2463415165005076  0.8950603034689617  0.2855354921988793   T   T   T
  0.2485060406521560  0.9788420870337404  0.2854975713815653   T   T   T
 -0.0054863585022419  0.7691024801809793  0.2904157717680583   T   T   T
  0.5011452020725859  0.1046377350412825  0.2893576057548219   T   T   T
  0.7522863722316033  0.1466645336611315  0.2915652410433756   T   T   T
  0.7547737814157929  0.2294876265159934  0.2980225592488853   T   T   T
  0.4991312271026903  0.0209795475023737  0.2861304446945169   T   T   T
  0.5016585431183627  0.3523217891100141  0.3170783510533285   T   T   T
  0.7364475181504216  0.4851381728047461  0.3215804266059197   T   T   T
  0.5064980001011042  0.2713514545691390  0.3037732737224553   T   T   T
  0.4966526485796733  0.6009311718476262  0.2983322189693761   T   T   T
  0.7431359452525050  0.7281321611034396  0.2919216993086550   T   T   T
  0.4949506119130100  0.8527257535864785  0.2859496046172682   T   T   T
  0.7462647259096549  0.8948080026982853  0.2854959466995409   T   T   T
  0.7483695697472016  0.9786764369570884  0.2853486689970023   T   T   T
  0.4925376206169290  0.7688903727508731  0.2887190072415919   T   T   T
  0.7413292011484203  0.6451856835579141  0.2992070556128828   T   T   T
  0.2397928846822247  0.6415416800889748  0.2992001678246061   T   T   T
 -0.0008726117360369  0.0208625424760609  0.2863032501312510   T   T   T
  0.5193824886214338  0.5195129558429414  0.2884540999682454   T   T   T
  0.9636163832325356  0.5280436432228045  0.3374484388980449   T   T   T
  0.2583632324024048  0.3876332949143033  0.3305572987420041   T   T   T
  0.7560164404183126  0.3978351123483166  0.3199169448716940   T   T   T
  0.3122487929531215  0.4912127092238461  0.3630017013629966   T   T   T
 
  0.00000000E+00  0.00000000E+00  0.00000000E+00
  0.00000000E+00  0.00000000E+00  0.00000000E+00
  0.00000000E+00  0.00000000E+00  0.00000000E+00
  0.00000000E+00  0.00000000E+00  0.00000000E+00
  0.00000000E+00  0.00000000E+00  0.00000000E+00
  0.00000000E+00  0.00000000E+00  0.00000000E+00
  0.00000000E+00  0.00000000E+00  0.00000000E+00
  0.00000000E+00  0.00000000E+00  0.00000000E+00
  0.00000000E+00  0.00000000E+00  0.00000000E+00
  0.00000000E+00  0.00000000E+00  0.00000000E+00
  0.00000000E+00  0.00000000E+00  0.00000000E+00
  0.00000000E+00  0.00000000E+00  0.00000000E+00
  0.00000000E+00  0.00000000E+00  0.00000000E+00
  0.00000000E+00  0.00000000E+00  0.00000000E+00
  0.00000000E+00  0.00000000E+00  0.00000000E+00
  0.00000000E+00  0.00000000E+00  0.00000000E+00
  0.00000000E+00  0.00000000E+00  0.00000000E+00
  0.00000000E+00  0.00000000E+00  0.00000000E+00
  0.00000000E+00  0.00000000E+00  0.00000000E+00
  0.00000000E+00  0.00000000E+00  0.00000000E+00
  0.00000000E+00  0.00000000E+00  0.00000000E+00
  0.00000000E+00  0.00000000E+00  0.00000000E+00
  0.00000000E+00  0.00000000E+00  0.00000000E+00
  0.00000000E+00  0.00000000E+00  0.00000000E+00
  0.00000000E+00  0.00000000E+00  0.00000000E+00
  0.00000000E+00  0.00000000E+00  0.00000000E+00
  0.00000000E+00  0.00000000E+00  0.00000000E+00
  0.00000000E+00  0.00000000E+00  0.00000000E+00
  0.00000000E+00  0.00000000E+00  0.00000000E+00
  0.00000000E+00  0.00000000E+00  0.00000000E+00
  0.00000000E+00  0.00000000E+00  0.00000000E+00
  0.00000000E+00  0.00000000E+00  0.00000000E+00
