Title                                   
   1.00000000000000     
     9.8694509999999998    0.0000000000000000    0.0000000000000000
     0.0000000000000000    8.5490480000000009    0.0000000000000000
     0.0000000000000000    0.0000000000000000   20.0000000000000000
    27     4     1
Selective dynamics
Direct
  0.0569482156755942  0.0918546907959887  0.0887709042436611   T   T   T
  0.9311028824934772  0.1753347285591255  0.0883622438131245   T   T   T
  0.0583952048615396  0.9242731682318083  0.0883862851120199   T   T   T
  0.9284525841755926  0.3430817862928865  0.0874212809059500   T   T   T
  0.0570591563571865  0.5900930402961306  0.0877647272074434   T   T   T
  0.9327071096875993  0.6739410040070840  0.0863433307373372   T   T   T
  0.0573686424203899  0.4234684479259089  0.0894378911874909   T   T   T
  0.9330451186472306  0.8412293931687438  0.0874760738948546   T   T   T
  0.3065061970461397  0.0864041301386070  0.0929854609738780   T   T   T
  0.1834560229007565  0.1741620003289279  0.0911840613610618   T   T   T
  0.3086865574447534  0.9206868018159445  0.0937101199281767   T   T   T
  0.1835770894491678  0.3402768031898137  0.0932996006229043   T   T   T
  0.3082312834185457  0.5897301293472146  0.1046238036710408   T   T   T
  0.1835831130226868  0.6712665144853414  0.0916243056815898   T   T   T
  0.1832774040543546  0.8379040328949401  0.0911218589281943   T   T   T
  0.5570062352486955  0.0833821379014109  0.0959308796634669   T   T   T
  0.4318912846477426  0.1667552799890543  0.0954975267287251   T   T   T
  0.4363701783307529  0.3342392511635943  0.0940585079009980   T   T   T
  0.4312997158278711  0.8351433045273932  0.1060048972243803   T   T   T
  0.8074051343617962  0.0904028316850029  0.0901244390440291   T   T   T
  0.6800851544743685  0.1696144055608045  0.0912086827100634   T   T   T
  0.8083305898986881  0.9253794563866307  0.0899186152111537   T   T   T
  0.6734133276550948  0.3368841908001068  0.0870969447814679   T   T   T
  0.8032225875207186  0.5965214503962345  0.0858197413011907   T   T   T
  0.8002755886895159  0.4266782892069631  0.0856471738644837   T   T   T
  0.6857919090787347  0.8358841381795550  0.0926243376669111   T   T   T
  0.4228988227325623  0.6767713328869149  0.1252253012775807   T   T   T
  0.5512760941534196  0.4118952592350364  0.0879225583424367   T   T   T
  0.6860387626440702  0.6816420912917068  0.0887670552197189   T   T   T
  0.5585460091690989  0.9176909044183252  0.1009471320188295   T   T   T
  0.3096169576400306  0.4219840698252159  0.0995638153284280   T   T   T
  0.5437740662718311  0.5956709350675857  0.2068054434474249   T   T   T
 
  0.00000000E+00  0.00000000E+00  0.00000000E+00
  0.00000000E+00  0.00000000E+00  0.00000000E+00
  0.00000000E+00  0.00000000E+00  0.00000000E+00
  0.00000000E+00  0.00000000E+00  0.00000000E+00
  0.00000000E+00  0.00000000E+00  0.00000000E+00
  0.00000000E+00  0.00000000E+00  0.00000000E+00
  0.00000000E+00  0.00000000E+00  0.00000000E+00
  0.00000000E+00  0.00000000E+00  0.00000000E+00
  0.00000000E+00  0.00000000E+00  0.00000000E+00
  0.00000000E+00  0.00000000E+00  0.00000000E+00
  0.00000000E+00  0.00000000E+00  0.00000000E+00
  0.00000000E+00  0.00000000E+00  0.00000000E+00
  0.00000000E+00  0.00000000E+00  0.00000000E+00
  0.00000000E+00  0.00000000E+00  0.00000000E+00
  0.00000000E+00  0.00000000E+00  0.00000000E+00
  0.00000000E+00  0.00000000E+00  0.00000000E+00
  0.00000000E+00  0.00000000E+00  0.00000000E+00
  0.00000000E+00  0.00000000E+00  0.00000000E+00
  0.00000000E+00  0.00000000E+00  0.00000000E+00
  0.00000000E+00  0.00000000E+00  0.00000000E+00
  0.00000000E+00  0.00000000E+00  0.00000000E+00
  0.00000000E+00  0.00000000E+00  0.00000000E+00
  0.00000000E+00  0.00000000E+00  0.00000000E+00
  0.00000000E+00  0.00000000E+00  0.00000000E+00
  0.00000000E+00  0.00000000E+00  0.00000000E+00
  0.00000000E+00  0.00000000E+00  0.00000000E+00
  0.00000000E+00  0.00000000E+00  0.00000000E+00
  0.00000000E+00  0.00000000E+00  0.00000000E+00
  0.00000000E+00  0.00000000E+00  0.00000000E+00
  0.00000000E+00  0.00000000E+00  0.00000000E+00
  0.00000000E+00  0.00000000E+00  0.00000000E+00
  0.00000000E+00  0.00000000E+00  0.00000000E+00
