Title                                   
   1.00000000000000     
     9.8694509999999998    0.0000000000000000    0.0000000000000000
     0.0000000000000000    8.5490480000000009    0.0000000000000000
     0.0000000000000000    0.0000000000000000   20.0000000000000000
    30     1     1
Selective dynamics
Direct
  0.0562219020089977  0.0899354354280500  0.0816291231766621   T   T   T
  0.9311137259219386  0.1733113630584602  0.0845238186994559   T   T   T
  0.0562197061457798  0.9230495506283689  0.0811199345033170   T   T   T
  0.9306038406132787  0.3401422065581285  0.0892451935244171   T   T   T
  0.0562343727767338  0.5892891287681634  0.0861862982197106   T   T   T
  0.9315615830211891  0.6726796057617909  0.0875246732486348   T   T   T
  0.0561875573952465  0.4228660949572910  0.0878863540322057   T   T   T
  0.9309498169788133  0.8393075805900011  0.0838108069117182   T   T   T
  0.3053945380627400  0.0892209220346877  0.0853301580679420   T   T   T
  0.1813178310976037  0.1732965842954055  0.0844517215570598   T   T   T
  0.3065476352488919  0.9237726612226655  0.0856007891490656   T   T   T
  0.1818060723714021  0.3401554905521816  0.0891910727363665   T   T   T
  0.3047365856278557  0.5913904927887181  0.0996482992199771   T   T   T
  0.1809469966141011  0.6726548816981810  0.0875790238527740   T   T   T
  0.3063124794819011  0.4226483795220001  0.0984303511488644   T   T   T
  0.1814791485446555  0.8392742802529551  0.0838467180995647   T   T   T
  0.5561938965986454  0.0869076962935362  0.0936229518134475   T   T   T
  0.4308133120405091  0.1692646520951653  0.0922570886750053   T   T   T
  0.4309817277000134  0.3344612302982288  0.1020810626782286   T   T   T
  0.4238188300797552  0.6817102483533934  0.1136689639136881   T   T   T
  0.5561490022439698  0.4078321117416958  0.1160652250510924   T   T   T
  0.4298524661864097  0.8414589278625907  0.0975583480238034   T   T   T
  0.8070275826949186  0.0892782684795809  0.0853813378144301   T   T   T
  0.6815957049347173  0.1692702966902598  0.0922935533132661   T   T   T
  0.8058789787161826  0.9238563618805579  0.0855300226094397   T   T   T
  0.6813657832945521  0.3344730857704106  0.1021036457539557   T   T   T
  0.8077746608154845  0.5913855745762671  0.0994703932423849   T   T   T
  0.6887153084502996  0.6818045212591710  0.1132412208140723   T   T   T
  0.8060700455259100  0.4226434426132107  0.0984130299074008   T   T   T
  0.6825371350501889  0.8415726541265229  0.0973441264361849   T   T   T
  0.5561942170568236  0.9228370622360464  0.0970952397993788   T   T   T
  0.5570365567004973  0.5884952076063231  0.1835444540065205   T   T   T
 
  0.00000000E+00  0.00000000E+00  0.00000000E+00
  0.00000000E+00  0.00000000E+00  0.00000000E+00
  0.00000000E+00  0.00000000E+00  0.00000000E+00
  0.00000000E+00  0.00000000E+00  0.00000000E+00
  0.00000000E+00  0.00000000E+00  0.00000000E+00
  0.00000000E+00  0.00000000E+00  0.00000000E+00
  0.00000000E+00  0.00000000E+00  0.00000000E+00
  0.00000000E+00  0.00000000E+00  0.00000000E+00
  0.00000000E+00  0.00000000E+00  0.00000000E+00
  0.00000000E+00  0.00000000E+00  0.00000000E+00
  0.00000000E+00  0.00000000E+00  0.00000000E+00
  0.00000000E+00  0.00000000E+00  0.00000000E+00
  0.00000000E+00  0.00000000E+00  0.00000000E+00
  0.00000000E+00  0.00000000E+00  0.00000000E+00
  0.00000000E+00  0.00000000E+00  0.00000000E+00
  0.00000000E+00  0.00000000E+00  0.00000000E+00
  0.00000000E+00  0.00000000E+00  0.00000000E+00
  0.00000000E+00  0.00000000E+00  0.00000000E+00
  0.00000000E+00  0.00000000E+00  0.00000000E+00
  0.00000000E+00  0.00000000E+00  0.00000000E+00
  0.00000000E+00  0.00000000E+00  0.00000000E+00
  0.00000000E+00  0.00000000E+00  0.00000000E+00
  0.00000000E+00  0.00000000E+00  0.00000000E+00
  0.00000000E+00  0.00000000E+00  0.00000000E+00
  0.00000000E+00  0.00000000E+00  0.00000000E+00
  0.00000000E+00  0.00000000E+00  0.00000000E+00
  0.00000000E+00  0.00000000E+00  0.00000000E+00
  0.00000000E+00  0.00000000E+00  0.00000000E+00
  0.00000000E+00  0.00000000E+00  0.00000000E+00
  0.00000000E+00  0.00000000E+00  0.00000000E+00
  0.00000000E+00  0.00000000E+00  0.00000000E+00
  0.00000000E+00  0.00000000E+00  0.00000000E+00
