Title                                   
   1.00000000000000     
     9.8694509999999998    0.0000000000000000    0.0000000000000000
     0.0000000000000000    8.5490480000000009    0.0000000000000000
     0.0000000000000000    0.0000000000000000   20.0000000000000000
    27     4     1
Selective dynamics
Direct
  0.0562521741850231  0.0919641972106496  0.0897504801439463   T   T   T
  0.9305853246990211  0.1746000265499960  0.0909372680506980   T   T   T
  0.0562954541162476  0.9245438459295406  0.0890444667408511   T   T   T
  0.9288856003446503  0.3420465349730427  0.0933859172892015   T   T   T
  0.0562541385456930  0.5896778652840625  0.0914803839044565   T   T   T
  0.9316408766329306  0.6735725414649166  0.0919661958398376   T   T   T
  0.0562118864237631  0.4235516970403223  0.0925034573690491   T   T   T
  0.9317549482785559  0.8402038304112193  0.0900562016071806   T   T   T
  0.3054406773263491  0.0892903845667441  0.0898148336944871   T   T   T
  0.1819335097534871  0.1745356238543465  0.0908416693399369   T   T   T
  0.3060421307061574  0.9237935471219376  0.0899391299061941   T   T   T
  0.1835528603174428  0.3419865960417794  0.0930423836129869   T   T   T
  0.3072180203676596  0.5938206491606094  0.0958493490187247   T   T   T
  0.1809238039573504  0.6735708770944504  0.0915081870695646   T   T   T
  0.3103835169863424  0.4247297044225141  0.0966727573013201   T   T   T
  0.1808092076333970  0.8402275533781927  0.0898416362716516   T   T   T
  0.5562706119532249  0.0824321833961011  0.0928899937387468   T   T   T
  0.4323256890413429  0.1674038301449147  0.0927021253831452   T   T   T
  0.4355144014382445  0.3339694794480553  0.0991255395119160   T   T   T
  0.4279654303091507  0.8363923525891348  0.0937165180439107   T   T   T
  0.8070811973721178  0.0893447522746799  0.0899778177456845   T   T   T
  0.6802039043335555  0.1674794507404839  0.0929961310507944   T   T   T
  0.8066125700957445  0.9238427313402311  0.0901849561767225   T   T   T
  0.6769548851863724  0.3340648535319531  0.0996146125920419   T   T   T
  0.8054145119436908  0.5938940565187187  0.0972087786080707   T   T   T
  0.8021163026316878  0.4248340758728247  0.0976214355665977   T   T   T
  0.6847100426383946  0.8364857150104414  0.0945286777651947   T   T   T
  0.4253706062262311  0.6797462297778111  0.0996908025791993   T   T   T
  0.5561616311857661  0.4069014700827922  0.1089364426509576   T   T   T
  0.6878030911004365  0.6802753389585463  0.1020531189924085   T   T   T
  0.5563553436929484  0.9160158352669259  0.0926758714388324   T   T   T
  0.5545946505770268  0.5950481705420611  0.1751178609957064   T   T   T
 
  0.00000000E+00  0.00000000E+00  0.00000000E+00
  0.00000000E+00  0.00000000E+00  0.00000000E+00
  0.00000000E+00  0.00000000E+00  0.00000000E+00
  0.00000000E+00  0.00000000E+00  0.00000000E+00
  0.00000000E+00  0.00000000E+00  0.00000000E+00
  0.00000000E+00  0.00000000E+00  0.00000000E+00
  0.00000000E+00  0.00000000E+00  0.00000000E+00
  0.00000000E+00  0.00000000E+00  0.00000000E+00
  0.00000000E+00  0.00000000E+00  0.00000000E+00
  0.00000000E+00  0.00000000E+00  0.00000000E+00
  0.00000000E+00  0.00000000E+00  0.00000000E+00
  0.00000000E+00  0.00000000E+00  0.00000000E+00
  0.00000000E+00  0.00000000E+00  0.00000000E+00
  0.00000000E+00  0.00000000E+00  0.00000000E+00
  0.00000000E+00  0.00000000E+00  0.00000000E+00
  0.00000000E+00  0.00000000E+00  0.00000000E+00
  0.00000000E+00  0.00000000E+00  0.00000000E+00
  0.00000000E+00  0.00000000E+00  0.00000000E+00
  0.00000000E+00  0.00000000E+00  0.00000000E+00
  0.00000000E+00  0.00000000E+00  0.00000000E+00
  0.00000000E+00  0.00000000E+00  0.00000000E+00
  0.00000000E+00  0.00000000E+00  0.00000000E+00
  0.00000000E+00  0.00000000E+00  0.00000000E+00
  0.00000000E+00  0.00000000E+00  0.00000000E+00
  0.00000000E+00  0.00000000E+00  0.00000000E+00
  0.00000000E+00  0.00000000E+00  0.00000000E+00
  0.00000000E+00  0.00000000E+00  0.00000000E+00
  0.00000000E+00  0.00000000E+00  0.00000000E+00
  0.00000000E+00  0.00000000E+00  0.00000000E+00
  0.00000000E+00  0.00000000E+00  0.00000000E+00
  0.00000000E+00  0.00000000E+00  0.00000000E+00
  0.00000000E+00  0.00000000E+00  0.00000000E+00
