Title                                   
   1.00000000000000     
     4.9440799999999996    0.0000000000000000    0.0000000000000000
     0.0000000000000000   17.1295089999999988    0.0000000000000000
     0.0000000000000000    0.0000000000000000   20.0000000000000000
    29     2     1
Selective dynamics
Direct
  0.0000552432496541  0.1048439533159940  0.2822130063712521   T   T   T
  0.2498623722668296  0.1465972702447775  0.2864608027891751   T   T   T
  0.2498437063808275  0.2290432752493076  0.2976982095454612   T   T   T
  0.0028123568595576  0.3499750757209176  0.3215608747712859   T   T   T
 -0.0012158971250230  0.2703718887627738  0.3033427467168517   T   T   T
 -0.0037791675901361  0.6060707636059011  0.3115186001806307   T   T   T
  0.2499682374809504  0.7286742894708755  0.2910978984714762   T   T   T
  0.0002725474306741  0.8540645917496350  0.2793626989053244   T   T   T
  0.2499448165657758  0.8960012499266660  0.2778028542073203   T   T   T
  0.2499041211566284  0.9795857656614216  0.2769667164343587   T   T   T
  0.0003742010042364  0.7706939842619002  0.2856549543121505   T   T   T
  0.4996869162838528  0.1048425164411946  0.2822144684379969   T   T   T
  0.7498651673764894  0.1467423251534418  0.2853354574271401   T   T   T
  0.7498434824791299  0.2290861913195929  0.2947166054019810   T   T   T
  0.4999117837087421  0.0214979242751393  0.2777518586333953   T   T   T
  0.4969008652677354  0.3499750544048565  0.3215633913467726   T   T   T
  0.7498864864625284  0.4782824540593159  0.3233325833305796   T   T   T
  0.5009059536370425  0.2703681768455946  0.3033452501220985   T   T   T
  0.5036754334193926  0.6060792303898964  0.3115436413670961   T   T   T
  0.7499571929057383  0.7297472226909936  0.2895150670181784   T   T   T
  0.4996203182707402  0.8540655941804802  0.2793655307453947   T   T   T
  0.7499405340268435  0.8958573987081125  0.2775122054730602   T   T   T
  0.7499046194797928  0.9794897854204194  0.2766834677613174   T   T   T
  0.4995519299364102  0.7706934233855474  0.2856591528819870   T   T   T
  0.7499481187047167  0.6473159251059460  0.3014130698195068   T   T   T
  0.2499536698023272  0.6462734474687112  0.3053558939448388   T   T   T
 -0.0001123397184609  0.0214966945068031  0.2777516225102742   T   T   T
  0.5142923876663089  0.5248105077394657  0.3304124652792403   T   T   T
  0.9855256938682492  0.5248004143129938  0.3303691466258268   T   T   T
  0.2498564470224443  0.3841765809949573  0.3402400474810298   T   T   T
  0.7498463733522759  0.3936808980557736  0.3257484716748230   T   T   T
  0.2498194283677336  0.4833471265705839  0.3890562400121286   T   T   T
 
  0.00000000E+00  0.00000000E+00  0.00000000E+00
  0.00000000E+00  0.00000000E+00  0.00000000E+00
  0.00000000E+00  0.00000000E+00  0.00000000E+00
  0.00000000E+00  0.00000000E+00  0.00000000E+00
  0.00000000E+00  0.00000000E+00  0.00000000E+00
  0.00000000E+00  0.00000000E+00  0.00000000E+00
  0.00000000E+00  0.00000000E+00  0.00000000E+00
  0.00000000E+00  0.00000000E+00  0.00000000E+00
  0.00000000E+00  0.00000000E+00  0.00000000E+00
  0.00000000E+00  0.00000000E+00  0.00000000E+00
  0.00000000E+00  0.00000000E+00  0.00000000E+00
  0.00000000E+00  0.00000000E+00  0.00000000E+00
  0.00000000E+00  0.00000000E+00  0.00000000E+00
  0.00000000E+00  0.00000000E+00  0.00000000E+00
  0.00000000E+00  0.00000000E+00  0.00000000E+00
  0.00000000E+00  0.00000000E+00  0.00000000E+00
  0.00000000E+00  0.00000000E+00  0.00000000E+00
  0.00000000E+00  0.00000000E+00  0.00000000E+00
  0.00000000E+00  0.00000000E+00  0.00000000E+00
  0.00000000E+00  0.00000000E+00  0.00000000E+00
  0.00000000E+00  0.00000000E+00  0.00000000E+00
  0.00000000E+00  0.00000000E+00  0.00000000E+00
  0.00000000E+00  0.00000000E+00  0.00000000E+00
  0.00000000E+00  0.00000000E+00  0.00000000E+00
  0.00000000E+00  0.00000000E+00  0.00000000E+00
  0.00000000E+00  0.00000000E+00  0.00000000E+00
  0.00000000E+00  0.00000000E+00  0.00000000E+00
  0.00000000E+00  0.00000000E+00  0.00000000E+00
  0.00000000E+00  0.00000000E+00  0.00000000E+00
  0.00000000E+00  0.00000000E+00  0.00000000E+00
  0.00000000E+00  0.00000000E+00  0.00000000E+00
  0.00000000E+00  0.00000000E+00  0.00000000E+00
