Title                                   
   1.00000000000000     
     4.9440799999999996    0.0000000000000000    0.0000000000000000
     0.0000000000000000   17.1295089999999988    0.0000000000000000
     0.0000000000000000    0.0000000000000000   20.0000000000000000
    29     1     1
Selective dynamics
Direct
 -0.0042386890415377  0.1054015569476991  0.2939608549675313   T   T   T
  0.2441214977440438  0.1479076781130154  0.2948681296209775   T   T   T
  0.2422242364137399  0.2315727558431286  0.2983732265828201   T   T   T
 -0.0071120315186472  0.2743554961856541  0.3026511057511965   T   T   T
  0.0051417759031157  0.6007295020699265  0.3036464565848065   T   T   T
  0.2511934643798012  0.7277626154534593  0.2953810842711380   T   T   T
 -0.0005706650376839  0.8537781753495476  0.2932639216220974   T   T   T
  0.2492188038367340  0.8957899815129968  0.2928330654512012   T   T   T
  0.2476544005336505  0.9796090269835898  0.2926804863081321   T   T   T
  0.0009102137561810  0.7699805297299770  0.2945688675213997   T   T   T
  0.4955441984343162  0.1059027239000457  0.2930623901953566   T   T   T
  0.7462166060935698  0.1476301300611587  0.2938124106369871   T   T   T
  0.7443922403225481  0.2315439626048367  0.2961059500001521   T   T   T
  0.4969188756094033  0.0219589524481343  0.2924780173893466   T   T   T
  0.7502826469012011  0.3934703254130046  0.3061046483038413   T   T   T
  0.7544766667155641  0.4782756695027803  0.3094106957772592   T   T   T
  0.4921277595373370  0.2729413190348083  0.2963456069088793   T   T   T
  0.5022444524068356  0.6026076091383328  0.2990055133112580   T   T   T
  0.7521366942362633  0.7276053729446597  0.2949773273189265   T   T   T
  0.4996704328067496  0.8536016397816291  0.2928818350658342   T   T   T
  0.7488422100812785  0.8957998538970299  0.2926939738816549   T   T   T
  0.7473265066970795  0.9797452010202385  0.2924832079177655   T   T   T
  0.5014305645381979  0.7696839330881611  0.2938570003311267   T   T   T
  0.7540480766480544  0.6435615957638025  0.2979565099884814   T   T   T
  0.2523988005128691  0.6443723666591196  0.2992059178014687   T   T   T
 -0.0028935734462511  0.0216085262964497  0.2929178495043719   T   T   T
  0.5069734099611932  0.5199879904833051  0.3047723651800154   T   T   T
  0.0065159494872025  0.5178521712893840  0.3145377417457728   T   T   T
  0.5028020411035692  0.3553418409375365  0.2979513378101670   T   T   T
 -0.0093529087670078  0.3543997841289496  0.3143112615476981   T   T   T
  0.2893623431506299  0.4365637134176351  0.3479612407022870   T   T   T
 
  0.00000000E+00  0.00000000E+00  0.00000000E+00
  0.00000000E+00  0.00000000E+00  0.00000000E+00
  0.00000000E+00  0.00000000E+00  0.00000000E+00
  0.00000000E+00  0.00000000E+00  0.00000000E+00
  0.00000000E+00  0.00000000E+00  0.00000000E+00
  0.00000000E+00  0.00000000E+00  0.00000000E+00
  0.00000000E+00  0.00000000E+00  0.00000000E+00
  0.00000000E+00  0.00000000E+00  0.00000000E+00
  0.00000000E+00  0.00000000E+00  0.00000000E+00
  0.00000000E+00  0.00000000E+00  0.00000000E+00
  0.00000000E+00  0.00000000E+00  0.00000000E+00
  0.00000000E+00  0.00000000E+00  0.00000000E+00
  0.00000000E+00  0.00000000E+00  0.00000000E+00
  0.00000000E+00  0.00000000E+00  0.00000000E+00
  0.00000000E+00  0.00000000E+00  0.00000000E+00
  0.00000000E+00  0.00000000E+00  0.00000000E+00
  0.00000000E+00  0.00000000E+00  0.00000000E+00
  0.00000000E+00  0.00000000E+00  0.00000000E+00
  0.00000000E+00  0.00000000E+00  0.00000000E+00
  0.00000000E+00  0.00000000E+00  0.00000000E+00
  0.00000000E+00  0.00000000E+00  0.00000000E+00
  0.00000000E+00  0.00000000E+00  0.00000000E+00
  0.00000000E+00  0.00000000E+00  0.00000000E+00
  0.00000000E+00  0.00000000E+00  0.00000000E+00
  0.00000000E+00  0.00000000E+00  0.00000000E+00
  0.00000000E+00  0.00000000E+00  0.00000000E+00
  0.00000000E+00  0.00000000E+00  0.00000000E+00
  0.00000000E+00  0.00000000E+00  0.00000000E+00
  0.00000000E+00  0.00000000E+00  0.00000000E+00
  0.00000000E+00  0.00000000E+00  0.00000000E+00
  0.00000000E+00  0.00000000E+00  0.00000000E+00
