Title                                   
   1.00000000000000     
     4.9440799999999996    0.0000000000000000    0.0000000000000000
     0.0000000000000000   17.1295089999999988    0.0000000000000000
     0.0000000000000000    0.0000000000000000   20.0000000000000000
    27     4     1
Selective dynamics
Direct
  0.0004360042118450  0.1046203399792304  0.2947943482718733   T   T   T
  0.2502278064149338  0.1466821232907016  0.2976356279896631   T   T   T
  0.2492931789446599  0.2301912895381908  0.3046314311368991   T   T   T
  0.0034006423142757  0.3534199673191800  0.3167111756222632   T   T   T
 -0.0026451756445400  0.2719399786371686  0.3066421226526878   T   T   T
 -0.0008932523780654  0.5997254089529174  0.2924812118129763   T   T   T
  0.2540210155780457  0.7257494997752261  0.2926472667947744   T   T   T
  0.0039873753646072  0.8527030382685358  0.2907068660581536   T   T   T
  0.2530675509947929  0.8948614469388377  0.2907908003120845   T   T   T
  0.2520130298448131  0.9788161469542354  0.2913305494686778   T   T   T
  0.0055213002255799  0.7686818841802547  0.2914528371261182   T   T   T
  0.5003783796459788  0.1045628842263269  0.2949860911738169   T   T   T
  0.7498585491417443  0.1468322719758331  0.2965469710373713   T   T   T
  0.7484187716222325  0.2299039571903008  0.3016761626446384   T   T   T
  0.5017696693630590  0.0207942173165670  0.2920809432578305   T   T   T
  0.4913991511391338  0.3544083696457493  0.3181770594446783   T   T   T
  0.7534482626614650  0.4816486668107667  0.3043753639561551   T   T   T
  0.4997527486090278  0.2722465064299198  0.3076563243619617   T   T   T
  0.5123153739221501  0.6021646934247756  0.2971266668189441   T   T   T
  0.7549213431708293  0.7276332119468700  0.2924409796752681   T   T   T
  0.5025875573584823  0.8525989694704511  0.2911343162391876   T   T   T
  0.7529038661099202  0.8945981664577722  0.2906877466661045   T   T   T
  0.7519410530888412  0.9785349811775785  0.2911071827165028   T   T   T
  0.5028849244015998  0.7684726903752703  0.2923156604351981   T   T   T
  0.7562260560048460  0.6443671654056684  0.2939025427765565   T   T   T
  0.2547978180877318  0.6401996971353261  0.2936922283966595   T   T   T
  0.0015106798353892  0.0208501711240779  0.2919444602729004   T   T   T
  0.5284323720882372  0.5231369359688580  0.3163640525324730   T   T   T
  0.9831520742662404  0.5162324357326845  0.2775018388000540   T   T   T
  0.2458324165798810  0.3908194975956443  0.3304387306379247   T   T   T
  0.7478763989991729  0.3983525960265740  0.3161640280178801   T   T   T
  0.1879860580330977  0.5028017907284974  0.3624214128916743   T   T   T
 
  0.00000000E+00  0.00000000E+00  0.00000000E+00
  0.00000000E+00  0.00000000E+00  0.00000000E+00
  0.00000000E+00  0.00000000E+00  0.00000000E+00
  0.00000000E+00  0.00000000E+00  0.00000000E+00
  0.00000000E+00  0.00000000E+00  0.00000000E+00
  0.00000000E+00  0.00000000E+00  0.00000000E+00
  0.00000000E+00  0.00000000E+00  0.00000000E+00
  0.00000000E+00  0.00000000E+00  0.00000000E+00
  0.00000000E+00  0.00000000E+00  0.00000000E+00
  0.00000000E+00  0.00000000E+00  0.00000000E+00
  0.00000000E+00  0.00000000E+00  0.00000000E+00
  0.00000000E+00  0.00000000E+00  0.00000000E+00
  0.00000000E+00  0.00000000E+00  0.00000000E+00
  0.00000000E+00  0.00000000E+00  0.00000000E+00
  0.00000000E+00  0.00000000E+00  0.00000000E+00
  0.00000000E+00  0.00000000E+00  0.00000000E+00
  0.00000000E+00  0.00000000E+00  0.00000000E+00
  0.00000000E+00  0.00000000E+00  0.00000000E+00
  0.00000000E+00  0.00000000E+00  0.00000000E+00
  0.00000000E+00  0.00000000E+00  0.00000000E+00
  0.00000000E+00  0.00000000E+00  0.00000000E+00
  0.00000000E+00  0.00000000E+00  0.00000000E+00
  0.00000000E+00  0.00000000E+00  0.00000000E+00
  0.00000000E+00  0.00000000E+00  0.00000000E+00
  0.00000000E+00  0.00000000E+00  0.00000000E+00
  0.00000000E+00  0.00000000E+00  0.00000000E+00
  0.00000000E+00  0.00000000E+00  0.00000000E+00
  0.00000000E+00  0.00000000E+00  0.00000000E+00
  0.00000000E+00  0.00000000E+00  0.00000000E+00
  0.00000000E+00  0.00000000E+00  0.00000000E+00
  0.00000000E+00  0.00000000E+00  0.00000000E+00
  0.00000000E+00  0.00000000E+00  0.00000000E+00
