Title                                   
   1.00000000000000     
     4.9440799999999996    0.0000000000000000    0.0000000000000000
     0.0000000000000000    8.5647549999999999    0.0000000000000000
     0.0000000000000000    0.0000000000000000   20.0000000000000000
    12     2     1
Selective dynamics
Direct
 -0.0030217708831989  0.2933954997170826  0.0985771770421069   T   T   T
  0.2537918988173840  0.0404910094830690  0.0973678263071236   T   T   T
  0.0060823736419772  0.9560185867454974  0.0953939578489035   T   T   T
  0.7478053687824799  0.2077100811424927  0.0943203902005451   T   T   T
  0.4946503379628325  0.2926374496206094  0.0949296673662745   T   T   T
  0.7543467122171706  0.0401510925118304  0.0947770828897705   T   T   T
  0.7502075157318273  0.7141672734620822  0.1007268984081931   T   T   T
  0.7410897220035174  0.5380615216267400  0.1006582712997708   T   T   T
  0.5072672696916660  0.9567088840274443  0.0996831698059086   T   T   T
  0.4933491036219596  0.4590304250440803  0.0952434912352759   T   T   T
 -0.0083626737687357  0.4571678676368751  0.1074993839304728   T   T   T
 -0.0013110420479484  0.7876720020741350  0.0953822174117101   T   T   T
  0.5124602998989741  0.7958187419795109  0.1081430938386095   T   T   T
  0.2493464812970822  0.2074282404070052  0.0967076615518778   T   T   T
  0.2522984030330123  0.6252223245215484  0.1285697108634607   T   T   T
 
  0.00000000E+00  0.00000000E+00  0.00000000E+00
  0.00000000E+00  0.00000000E+00  0.00000000E+00
  0.00000000E+00  0.00000000E+00  0.00000000E+00
  0.00000000E+00  0.00000000E+00  0.00000000E+00
  0.00000000E+00  0.00000000E+00  0.00000000E+00
  0.00000000E+00  0.00000000E+00  0.00000000E+00
  0.00000000E+00  0.00000000E+00  0.00000000E+00
  0.00000000E+00  0.00000000E+00  0.00000000E+00
  0.00000000E+00  0.00000000E+00  0.00000000E+00
  0.00000000E+00  0.00000000E+00  0.00000000E+00
  0.00000000E+00  0.00000000E+00  0.00000000E+00
  0.00000000E+00  0.00000000E+00  0.00000000E+00
  0.00000000E+00  0.00000000E+00  0.00000000E+00
  0.00000000E+00  0.00000000E+00  0.00000000E+00
  0.00000000E+00  0.00000000E+00  0.00000000E+00
