Title                                   
   1.00000000000000     
     9.8694509999999998    0.0000000000000000    0.0000000000000000
     0.0000000000000000    8.5490480000000009    0.0000000000000000
     0.0000000000000000    0.0000000000000000   20.0000000000000000
    28     3     1
Selective dynamics
Direct
  0.0557269490295232  0.0914907492401309  0.0879419785622244   T   T   T
  0.9309339359094064  0.1723856636114369  0.0889591586519771   T   T   T
  0.0558331347953557  0.9242925254842342  0.0889603047660315   T   T   T
  0.9308307224606996  0.3398841333411856  0.0913968015710203   T   T   T
  0.0562555076316514  0.5902685085372545  0.0897032331801781   T   T   T
  0.9312515370864799  0.6721613707192386  0.0941911083880028   T   T   T
  0.0575358274714414  0.4230721860651026  0.0897046752377496   T   T   T
  0.9310600226729413  0.8387101952623335  0.0926675216443429   T   T   T
  0.3053068995118112  0.0898368661228989  0.0884483617193604   T   T   T
  0.1817242245109524  0.1744694534337561  0.0877311844868980   T   T   T
  0.1846664789148338  0.3420255410946141  0.0881841462024578   T   T   T
  0.3074100443903732  0.5953744455631208  0.0895028953323357   T   T   T
  0.1805624760959028  0.6755559055311763  0.0884688196593963   T   T   T
  0.3114937169312493  0.4272157263143690  0.0889910229540150   T   T   T
  0.1797467549684227  0.8417464986200627  0.0885006077339103   T   T   T
  0.5554657277288534  0.0851942607211071  0.0926295370763290   T   T   T
  0.4312095008345582  0.1702170170321207  0.0901230304885972   T   T   T
  0.5526203211526193  0.9199442343364130  0.0969749379203050   T   T   T
  0.4363249812054117  0.3375106605797499  0.0916921695835680   T   T   T
  0.4251558530314354  0.8391153641484275  0.0929523394187296   T   T   T
  0.8061609307564217  0.0869213990166928  0.0907473315123359   T   T   T
  0.6809094892057528  0.1680545831586978  0.0923554346798985   T   T   T
  0.8053722702097664  0.9210417851215189  0.0940785101091198   T   T   T
  0.6791175093102354  0.3339527275917051  0.0956322079905765   T   T   T
  0.8066767413112614  0.5880292061425827  0.1041798328493691   T   T   T
  0.6926591879795178  0.6788048090312870  0.1218291760645385   T   T   T
  0.8050727603252745  0.4207295821910296  0.0977472490661835   T   T   T
  0.6796464405932695  0.8374322325816960  0.1035294314986638   T   T   T
  0.4234167527046560  0.6831477142553228  0.0931130870177258   T   T   T
  0.5590170836985208  0.4118803326588236  0.0970447134374225   T   T   T
  0.3035321063369454  0.9260826602446117  0.0890406967153055   T   T   T
  0.5569431112344623  0.5836976622473062  0.1786534944814662   T   T   T
 
  0.00000000E+00  0.00000000E+00  0.00000000E+00
  0.00000000E+00  0.00000000E+00  0.00000000E+00
  0.00000000E+00  0.00000000E+00  0.00000000E+00
  0.00000000E+00  0.00000000E+00  0.00000000E+00
  0.00000000E+00  0.00000000E+00  0.00000000E+00
  0.00000000E+00  0.00000000E+00  0.00000000E+00
  0.00000000E+00  0.00000000E+00  0.00000000E+00
  0.00000000E+00  0.00000000E+00  0.00000000E+00
  0.00000000E+00  0.00000000E+00  0.00000000E+00
  0.00000000E+00  0.00000000E+00  0.00000000E+00
  0.00000000E+00  0.00000000E+00  0.00000000E+00
  0.00000000E+00  0.00000000E+00  0.00000000E+00
  0.00000000E+00  0.00000000E+00  0.00000000E+00
  0.00000000E+00  0.00000000E+00  0.00000000E+00
  0.00000000E+00  0.00000000E+00  0.00000000E+00
  0.00000000E+00  0.00000000E+00  0.00000000E+00
  0.00000000E+00  0.00000000E+00  0.00000000E+00
  0.00000000E+00  0.00000000E+00  0.00000000E+00
  0.00000000E+00  0.00000000E+00  0.00000000E+00
  0.00000000E+00  0.00000000E+00  0.00000000E+00
  0.00000000E+00  0.00000000E+00  0.00000000E+00
  0.00000000E+00  0.00000000E+00  0.00000000E+00
  0.00000000E+00  0.00000000E+00  0.00000000E+00
  0.00000000E+00  0.00000000E+00  0.00000000E+00
  0.00000000E+00  0.00000000E+00  0.00000000E+00
  0.00000000E+00  0.00000000E+00  0.00000000E+00
  0.00000000E+00  0.00000000E+00  0.00000000E+00
  0.00000000E+00  0.00000000E+00  0.00000000E+00
  0.00000000E+00  0.00000000E+00  0.00000000E+00
  0.00000000E+00  0.00000000E+00  0.00000000E+00
  0.00000000E+00  0.00000000E+00  0.00000000E+00
  0.00000000E+00  0.00000000E+00  0.00000000E+00
