Title                                   
   1.00000000000000     
     4.9440799999999996    0.0000000000000000    0.0000000000000000
     0.0000000000000000    8.5647549999999999    0.0000000000000000
     0.0000000000000000    0.0000000000000000   20.0000000000000000
    11     3     1
Selective dynamics
Direct
  0.0098024812881179  0.2944080535452858  0.0928479904352175   T   T   T
  0.2456923470187429  0.0409438418483902  0.0973309332154825   T   T   T
 -0.0094829445572766  0.9560847470370744  0.1010233570349624   T   T   T
  0.7567745885106741  0.2083505525409935  0.0929415340906533   T   T   T
  0.5095701023921879  0.2943767500666176  0.0994110684028874   T   T   T
  0.7445901429633824  0.0401101073142237  0.0934176873268464   T   T   T
  0.7411263555936226  0.7124144661123321  0.1023400921117150   T   T   T
  0.7574852735846817  0.5357454212537327  0.1015593693732380   T   T   T
  0.4905898527856097  0.9570000776537071  0.0929164321236757   T   T   T
  0.4977288251977254  0.7868982501712031  0.0920100179618032   T   T   T
  0.0026274333431527  0.4621907746738940  0.0916641583273116   T   T   T
  0.5184610646499727  0.4526694863611009  0.1122790161209210   T   T   T
 -0.0207787668670993  0.7951031033972331  0.1141417806713453   T   T   T
  0.2550870687405164  0.2104835284430338  0.0969999237637501   T   T   T
  0.2507261753559895  0.6249018395811802  0.1270966390401939   T   T   T
 
  0.00000000E+00  0.00000000E+00  0.00000000E+00
  0.00000000E+00  0.00000000E+00  0.00000000E+00
  0.00000000E+00  0.00000000E+00  0.00000000E+00
  0.00000000E+00  0.00000000E+00  0.00000000E+00
  0.00000000E+00  0.00000000E+00  0.00000000E+00
  0.00000000E+00  0.00000000E+00  0.00000000E+00
  0.00000000E+00  0.00000000E+00  0.00000000E+00
  0.00000000E+00  0.00000000E+00  0.00000000E+00
  0.00000000E+00  0.00000000E+00  0.00000000E+00
  0.00000000E+00  0.00000000E+00  0.00000000E+00
  0.00000000E+00  0.00000000E+00  0.00000000E+00
  0.00000000E+00  0.00000000E+00  0.00000000E+00
  0.00000000E+00  0.00000000E+00  0.00000000E+00
  0.00000000E+00  0.00000000E+00  0.00000000E+00
  0.00000000E+00  0.00000000E+00  0.00000000E+00
