Title                                   
   1.00000000000000     
     8.5490480000000009    0.0000000000000000    0.0000000000000000
     0.0000000000000000    8.5490480000000009    0.0000000000000000
     0.0000000000000000    0.0000000000000000   20.0000000000000000
    21     3     1
Selective dynamics
Direct
  0.9104311477480126  0.2067044034349277  0.0977301904336346   T   T   T
  0.9120142625319778  0.8014473094768922  0.0978719778470776   T   T   T
  0.1983291082476274  0.0820991696707481  0.0977891439345374   T   T   T
  0.0737388904126631  0.2030957659983360  0.0977825289567455   T   T   T
  0.1551301363422042  0.6501874293524748  0.0979670507088651   T   T   T
  0.0733046397416122  0.5030930520243633  0.0979571097707145   T   T   T
  0.1546145443595136  0.3551253657588828  0.0978736648429208   T   T   T
  0.0782814244965473  0.7993732043489185  0.0979101539469073   T   T   T
  0.4946447712275233  0.0837054423075615  0.0977539116693109   T   T   T
  0.3448096501173610  0.1630226999791357  0.0977809379931177   T   T   T
  0.4943578867565893  0.9141064672837953  0.0978013584508798   T   T   T
  0.3459718359353341  0.8332080379716962  0.0978932611306606   T   T   T
  0.7874424522362750  0.0855422942569414  0.0977229515507282   T   T   T
  0.6405044975642397  0.1657084216807209  0.0977887282614460   T   T   T
  0.7898029442034055  0.9191146156536413  0.0978154861673889   T   T   T
  0.8297554181557371  0.6520868486732005  0.0980566347474124   T   T   T
  0.8266835983167719  0.3580358938390963  0.0978957492180716   T   T   T
  0.6430771520056411  0.8345969848389824  0.0979204862654292   T   T   T
  0.3209878184681738  0.3333855462917084  0.0980787710527288   T   T   T
  0.3218165362070574  0.6703175319270105  0.0980832324043826   T   T   T
  0.6635030924359923  0.3362195202612661  0.0980441844986124   T   T   T
  0.9071589340628529  0.5048128030111213  0.0980020246959394   T   T   T
  0.6699636585871158  0.6719003256285430  0.0982366353549684   T   T   T
  0.1976276784432303  0.9168984761795245  0.0978846272549457   T   T   T
  0.4914599213965346  0.5010023901505249  0.0990641988425573   T   T   T
 
  0.00000000E+00  0.00000000E+00  0.00000000E+00
  0.00000000E+00  0.00000000E+00  0.00000000E+00
  0.00000000E+00  0.00000000E+00  0.00000000E+00
  0.00000000E+00  0.00000000E+00  0.00000000E+00
  0.00000000E+00  0.00000000E+00  0.00000000E+00
  0.00000000E+00  0.00000000E+00  0.00000000E+00
  0.00000000E+00  0.00000000E+00  0.00000000E+00
  0.00000000E+00  0.00000000E+00  0.00000000E+00
  0.00000000E+00  0.00000000E+00  0.00000000E+00
  0.00000000E+00  0.00000000E+00  0.00000000E+00
  0.00000000E+00  0.00000000E+00  0.00000000E+00
  0.00000000E+00  0.00000000E+00  0.00000000E+00
  0.00000000E+00  0.00000000E+00  0.00000000E+00
  0.00000000E+00  0.00000000E+00  0.00000000E+00
  0.00000000E+00  0.00000000E+00  0.00000000E+00
  0.00000000E+00  0.00000000E+00  0.00000000E+00
  0.00000000E+00  0.00000000E+00  0.00000000E+00
  0.00000000E+00  0.00000000E+00  0.00000000E+00
  0.00000000E+00  0.00000000E+00  0.00000000E+00
  0.00000000E+00  0.00000000E+00  0.00000000E+00
  0.00000000E+00  0.00000000E+00  0.00000000E+00
  0.00000000E+00  0.00000000E+00  0.00000000E+00
  0.00000000E+00  0.00000000E+00  0.00000000E+00
  0.00000000E+00  0.00000000E+00  0.00000000E+00
  0.00000000E+00  0.00000000E+00  0.00000000E+00
