Title                                   
   1.00000000000000     
     9.8694509999999998    0.0000000000000000    0.0000000000000000
     0.0000000000000000    8.5490480000000009    0.0000000000000000
     0.0000000000000000    0.0000000000000000   20.0000000000000000
    26     5     1
Selective dynamics
Direct
  0.0558126145138082  0.0909043013703257  0.0847792627162799   T   T   T
  0.9310719551118614  0.1749307649531868  0.0850931032062404   T   T   T
  0.0574301764409106  0.9231893913936782  0.0851351503090278   T   T   T
  0.9294544776012194  0.3420586095131267  0.0873434066556580   T   T   T
  0.0565243783275245  0.5914071334531861  0.0873632093597815   T   T   T
  0.0555289958949740  0.4243807027013841  0.0881374278639400   T   T   T
  0.9334268675157401  0.8396972850300130  0.0865970866707098   T   T   T
  0.3057941012170244  0.0882515586951198  0.0895918525756000   T   T   T
  0.1818366655348368  0.1732478752207292  0.0873773955315612   T   T   T
  0.1820438282315348  0.3401751259361256  0.0905700948170793   T   T   T
  0.3031195734240070  0.5895351217640858  0.1045058015185133   T   T   T
  0.1811212656572342  0.6744582242918619  0.0909785782659741   T   T   T
  0.3077966022844301  0.4213822262102577  0.0999425525336293   T   T   T
  0.1828697813959049  0.8414047181637589  0.0886046011428852   T   T   T
  0.5568105590412168  0.0850904791878006  0.0942056259958946   T   T   T
  0.5558374347520320  0.9198401996523703  0.1016830684916790   T   T   T
  0.4324859890915275  0.3319579540557388  0.1013457199776938   T   T   T
  0.4263571445203609  0.8403990520385763  0.1080995155719508   T   T   T
  0.8066807064735739  0.0888966731521766  0.0860184892828715   T   T   T
  0.6800916375041773  0.1698726427199424  0.0895645438901456   T   T   T
  0.8081802538952197  0.9232265388088551  0.0884076147641665   T   T   T
  0.6785992774362140  0.3365613854671196  0.0953926400618027   T   T   T
  0.8089684740498343  0.5957263680876104  0.0964540917115486   T   T   T
  0.8026626200600455  0.4262697133534054  0.0927527636143675   T   T   T
  0.6850357166991078  0.8401202693554847  0.0995217958964768   T   T   T
  0.4141594521436330  0.6836925421539066  0.1246496786122650   T   T   T
  0.5537539807595570  0.4020949451360790  0.1077864209005941   T   T   T
  0.6976406064979881  0.6818262774516934  0.1098060141423707   T   T   T
  0.3055307845063789  0.9252042985377243  0.0914677076332941   T   T   T
  0.4294620281945131  0.1661808130451088  0.0938033292847697   T   T   T
  0.9333001834424358  0.6735202068407140  0.0877521825539159   T   T   T
  0.5602508677811768  0.5847426022588534  0.1609442744473292   T   T   T
 
  0.00000000E+00  0.00000000E+00  0.00000000E+00
  0.00000000E+00  0.00000000E+00  0.00000000E+00
  0.00000000E+00  0.00000000E+00  0.00000000E+00
  0.00000000E+00  0.00000000E+00  0.00000000E+00
  0.00000000E+00  0.00000000E+00  0.00000000E+00
  0.00000000E+00  0.00000000E+00  0.00000000E+00
  0.00000000E+00  0.00000000E+00  0.00000000E+00
  0.00000000E+00  0.00000000E+00  0.00000000E+00
  0.00000000E+00  0.00000000E+00  0.00000000E+00
  0.00000000E+00  0.00000000E+00  0.00000000E+00
  0.00000000E+00  0.00000000E+00  0.00000000E+00
  0.00000000E+00  0.00000000E+00  0.00000000E+00
  0.00000000E+00  0.00000000E+00  0.00000000E+00
  0.00000000E+00  0.00000000E+00  0.00000000E+00
  0.00000000E+00  0.00000000E+00  0.00000000E+00
  0.00000000E+00  0.00000000E+00  0.00000000E+00
  0.00000000E+00  0.00000000E+00  0.00000000E+00
  0.00000000E+00  0.00000000E+00  0.00000000E+00
  0.00000000E+00  0.00000000E+00  0.00000000E+00
  0.00000000E+00  0.00000000E+00  0.00000000E+00
  0.00000000E+00  0.00000000E+00  0.00000000E+00
  0.00000000E+00  0.00000000E+00  0.00000000E+00
  0.00000000E+00  0.00000000E+00  0.00000000E+00
  0.00000000E+00  0.00000000E+00  0.00000000E+00
  0.00000000E+00  0.00000000E+00  0.00000000E+00
  0.00000000E+00  0.00000000E+00  0.00000000E+00
  0.00000000E+00  0.00000000E+00  0.00000000E+00
  0.00000000E+00  0.00000000E+00  0.00000000E+00
  0.00000000E+00  0.00000000E+00  0.00000000E+00
  0.00000000E+00  0.00000000E+00  0.00000000E+00
  0.00000000E+00  0.00000000E+00  0.00000000E+00
  0.00000000E+00  0.00000000E+00  0.00000000E+00
