Title                                   
   1.00000000000000     
     9.8694509999999998    0.0000000000000000    0.0000000000000000
     0.0000000000000000    8.5490480000000009    0.0000000000000000
     0.0000000000000000    0.0000000000000000   20.0000000000000000
    26     5     1
Selective dynamics
Direct
  0.0554787635396035  0.0903718336096773  0.0848920715684690   T   T   T
  0.9307081203083214  0.1751401841704878  0.0851469799134454   T   T   T
  0.0575126811841278  0.9225911336843330  0.0859058221250293   T   T   T
  0.9292576691075992  0.3417222898747971  0.0867029258650841   T   T   T
  0.0562831167094699  0.5912982647816427  0.0867896855293476   T   T   T
  0.0552665250670709  0.4238586282481846  0.0868888635532949   T   T   T
  0.9328083674779073  0.8398799806283531  0.0882238655152837   T   T   T
  0.3052932213082818  0.0884893982944879  0.0883164185155386   T   T   T
  0.1813352895705686  0.1727337736083915  0.0865484434288033   T   T   T
  0.1806727057263178  0.3396413333065790  0.0885173767123745   T   T   T
  0.3039238151421753  0.5890560880314890  0.0998723986465671   T   T   T
  0.1806745324451228  0.6736397537840511  0.0895957082806882   T   T   T
  0.3080541990702724  0.4205147667858338  0.0965811217539462   T   T   T
  0.1825866477980082  0.8413225662195671  0.0881272241351568   T   T   T
  0.5560059003236342  0.0873213361330432  0.0934163387264159   T   T   T
  0.5558292576896193  0.9212784542825708  0.0992975028843852   T   T   T
  0.4295985997458395  0.3314953531115143  0.0997830311750370   T   T   T
  0.4272954899641908  0.8408241719456838  0.1024235660546341   T   T   T
  0.8062700339921388  0.0894634105286336  0.0865175675874634   T   T   T
  0.6800536905706296  0.1713791453048801  0.0898829484136325   T   T   T
  0.8082741916674279  0.9238774292019436  0.0898427090336816   T   T   T
  0.6793105281265455  0.3368687778954458  0.0964569546749020   T   T   T
  0.8101116820008936  0.5949691322760339  0.0968869870477158   T   T   T
  0.8019619374286590  0.4271364309808764  0.0931705660128970   T   T   T
  0.6839785967039983  0.8423256166493117  0.0998079800146588   T   T   T
  0.4193875668783266  0.6811491937719349  0.1155454391883421   T   T   T
  0.5528693078499525  0.4001680406256164  0.1147877934295026   T   T   T
  0.6976433465213343  0.6832078366221033  0.1147825203555329   T   T   T
  0.3062006970776193  0.9255595260511248  0.0898936295663342   T   T   T
  0.4293652823289194  0.1672134311448243  0.0925132129239168   T   T   T
  0.9321943760314015  0.6728674174495779  0.0888723947772641   T   T   T
  0.5634328606440290  0.5828813009970083  0.1796849525906716   T   T   T
 
  0.00000000E+00  0.00000000E+00  0.00000000E+00
  0.00000000E+00  0.00000000E+00  0.00000000E+00
  0.00000000E+00  0.00000000E+00  0.00000000E+00
  0.00000000E+00  0.00000000E+00  0.00000000E+00
  0.00000000E+00  0.00000000E+00  0.00000000E+00
  0.00000000E+00  0.00000000E+00  0.00000000E+00
  0.00000000E+00  0.00000000E+00  0.00000000E+00
  0.00000000E+00  0.00000000E+00  0.00000000E+00
  0.00000000E+00  0.00000000E+00  0.00000000E+00
  0.00000000E+00  0.00000000E+00  0.00000000E+00
  0.00000000E+00  0.00000000E+00  0.00000000E+00
  0.00000000E+00  0.00000000E+00  0.00000000E+00
  0.00000000E+00  0.00000000E+00  0.00000000E+00
  0.00000000E+00  0.00000000E+00  0.00000000E+00
  0.00000000E+00  0.00000000E+00  0.00000000E+00
  0.00000000E+00  0.00000000E+00  0.00000000E+00
  0.00000000E+00  0.00000000E+00  0.00000000E+00
  0.00000000E+00  0.00000000E+00  0.00000000E+00
  0.00000000E+00  0.00000000E+00  0.00000000E+00
  0.00000000E+00  0.00000000E+00  0.00000000E+00
  0.00000000E+00  0.00000000E+00  0.00000000E+00
  0.00000000E+00  0.00000000E+00  0.00000000E+00
  0.00000000E+00  0.00000000E+00  0.00000000E+00
  0.00000000E+00  0.00000000E+00  0.00000000E+00
  0.00000000E+00  0.00000000E+00  0.00000000E+00
  0.00000000E+00  0.00000000E+00  0.00000000E+00
  0.00000000E+00  0.00000000E+00  0.00000000E+00
  0.00000000E+00  0.00000000E+00  0.00000000E+00
  0.00000000E+00  0.00000000E+00  0.00000000E+00
  0.00000000E+00  0.00000000E+00  0.00000000E+00
  0.00000000E+00  0.00000000E+00  0.00000000E+00
  0.00000000E+00  0.00000000E+00  0.00000000E+00
