Title                                   
   1.00000000000000     
     9.8694509999999998    0.0000000000000000    0.0000000000000000
     0.0000000000000000    8.5490480000000009    0.0000000000000000
     0.0000000000000000    0.0000000000000000   20.0000000000000000
    23     7     1
Selective dynamics
Direct
  0.0556498907052660  0.0892637048854797  0.0950538495128206   T   T   T
  0.9316950587942667  0.1715285962012292  0.0952226615801296   T   T   T
  0.0572832716919592  0.9212423517658839  0.0951630509483264   T   T   T
  0.9333866352166155  0.3388162481304027  0.0949698684032497   T   T   T
  0.0554936509711720  0.5905421441507012  0.0946649037704049   T   T   T
  0.0557712666952307  0.4238157854348971  0.0944735564273454   T   T   T
  0.9320522885004913  0.8386571908889439  0.0953633324251639   T   T   T
  0.3070657744943547  0.0886863285689296  0.0966124748881146   T   T   T
  0.1807854419717675  0.1711834104146603  0.0955052533466041   T   T   T
  0.1792656147010687  0.3388175603248819  0.0953307918754739   T   T   T
  0.3009738364834375  0.5903696883970864  0.0972591421499455   T   T   T
  0.1787848467144597  0.6739756078524558  0.0956255315754550   T   T   T
  0.3019716231241489  0.4206134740781859  0.0970773599843641   T   T   T
  0.1812228710629424  0.8411556180885760  0.0957994994991081   T   T   T
  0.4292564432157140  0.1768842386712029  0.0981400115802632   T   T   T
  0.5553548012446803  0.9193045644204660  0.0985905108925086   T   T   T
  0.4281867740058687  0.8355849221890000  0.0984128296612875   T   T   T
  0.8055669526939306  0.0886784644194451  0.0962773128936524   T   T   T
  0.6834636152960347  0.1782974115273677  0.0978068257826537   T   T   T
  0.8067307492653399  0.9209460170285803  0.0963616006539805   T   T   T
  0.8111512036707540  0.5919482447547579  0.0966560889684099   T   T   T
  0.8115629414187241  0.4206992111230806  0.0964739964931819   T   T   T
  0.6821687765462849  0.8359370699090354  0.0980014339811633   T   T   T
  0.9336739736550115  0.6726071896231760  0.0950596480046850   T   T   T
  0.5566300807968729  0.0962264357630259  0.0987708795354942   T   T   T
  0.4224607336567459  0.3379348557065330  0.0989634876499269   T   T   T
  0.4203934353451984  0.6756116464400583  0.0993018082305844   T   T   T
  0.6903616308892847  0.3389869793088977  0.0984290150519465   T   T   T
  0.6928280108440009  0.6727953455506430  0.0987296137770000   T   T   T
  0.3053506912473060  0.9226999773646104  0.0967213503561096   T   T   T
  0.5565931150810675  0.5070647170178051  0.1001473101007042   T   T   T
 
  0.00000000E+00  0.00000000E+00  0.00000000E+00
  0.00000000E+00  0.00000000E+00  0.00000000E+00
  0.00000000E+00  0.00000000E+00  0.00000000E+00
  0.00000000E+00  0.00000000E+00  0.00000000E+00
  0.00000000E+00  0.00000000E+00  0.00000000E+00
  0.00000000E+00  0.00000000E+00  0.00000000E+00
  0.00000000E+00  0.00000000E+00  0.00000000E+00
  0.00000000E+00  0.00000000E+00  0.00000000E+00
  0.00000000E+00  0.00000000E+00  0.00000000E+00
  0.00000000E+00  0.00000000E+00  0.00000000E+00
  0.00000000E+00  0.00000000E+00  0.00000000E+00
  0.00000000E+00  0.00000000E+00  0.00000000E+00
  0.00000000E+00  0.00000000E+00  0.00000000E+00
  0.00000000E+00  0.00000000E+00  0.00000000E+00
  0.00000000E+00  0.00000000E+00  0.00000000E+00
  0.00000000E+00  0.00000000E+00  0.00000000E+00
  0.00000000E+00  0.00000000E+00  0.00000000E+00
  0.00000000E+00  0.00000000E+00  0.00000000E+00
  0.00000000E+00  0.00000000E+00  0.00000000E+00
  0.00000000E+00  0.00000000E+00  0.00000000E+00
  0.00000000E+00  0.00000000E+00  0.00000000E+00
  0.00000000E+00  0.00000000E+00  0.00000000E+00
  0.00000000E+00  0.00000000E+00  0.00000000E+00
  0.00000000E+00  0.00000000E+00  0.00000000E+00
  0.00000000E+00  0.00000000E+00  0.00000000E+00
  0.00000000E+00  0.00000000E+00  0.00000000E+00
  0.00000000E+00  0.00000000E+00  0.00000000E+00
  0.00000000E+00  0.00000000E+00  0.00000000E+00
  0.00000000E+00  0.00000000E+00  0.00000000E+00
  0.00000000E+00  0.00000000E+00  0.00000000E+00
  0.00000000E+00  0.00000000E+00  0.00000000E+00
