Title                                   
   1.00000000000000     
     9.8694509999999998    0.0000000000000000    0.0000000000000000
     0.0000000000000000    8.5490480000000009    0.0000000000000000
     0.0000000000000000    0.0000000000000000   20.0000000000000000
    24     6     1
Selective dynamics
Direct
  0.0566707969883681  0.0905767009459539  0.0938804559575641   T   T   T
  0.9319913232758812  0.1727304402660345  0.0977346807129424   T   T   T
  0.0577184564627035  0.9218961641572264  0.0944245388716219   T   T   T
  0.9326541156716918  0.3401896885809115  0.0992955715339914   T   T   T
  0.0577169418888162  0.5895949775082623  0.0955194111952282   T   T   T
  0.9329748893663726  0.6717683108383713  0.0996956835932445   T   T   T
  0.0575591917273344  0.4226569597024805  0.0949978869222184   T   T   T
  0.9327847305394474  0.8391714736589582  0.0982962662363770   T   T   T
  0.3088232602137789  0.0879899982028700  0.0891129112242550   T   T   T
  0.1822239657336008  0.1722682772681078  0.0903634546832449   T   T   T
  0.1816547162557035  0.3385668357091337  0.0902768322764912   T   T   T
  0.3080579863690061  0.5905520217126389  0.0851969079503282   T   T   T
  0.1819704738091924  0.6733024783720137  0.0918689519849786   T   T   T
  0.3077798559172659  0.4204752823539736  0.0843266638878817   T   T   T
  0.1819524057917547  0.8389074398544155  0.0917033292787722   T   T   T
  0.4301003436372329  0.1716731337756308  0.0888773034374116   T   T   T
  0.5558244289643651  0.9206766284159487  0.0968562891706768   T   T   T
  0.4305080115096269  0.8407055548940665  0.0892753798312116   T   T   T
  0.8050039136678474  0.0901296465855813  0.0986820362864648   T   T   T
  0.6823625199026911  0.1775483184943029  0.1021136399496377   T   T   T
  0.8059273124580701  0.9217418301804507  0.0990067171315522   T   T   T
  0.8083056510947602  0.5898267690321919  0.1060701474928712   T   T   T
  0.8081307395177899  0.4215784612706795  0.1057723326272249   T   T   T
  0.6829837006601923  0.8359461981776745  0.1027294111024003   T   T   T
  0.5583909321791289  0.0947409167896959  0.0959721247971469   T   T   T
  0.4281009191444190  0.3330147879470522  0.0831788295291052   T   T   T
  0.4272509693554240  0.6802376654415659  0.0818686548726588   T   T   T
  0.6855985721950731  0.3379774912611792  0.1121122633666208   T   T   T
  0.6873687948336425  0.6735105109166829  0.1127962946018023   T   T   T
  0.3065679261576466  0.9221448801972951  0.0890922542081566   T   T   T
  0.5281781547111709  0.5087751574886499  0.1398677752859763   T   T   T
 
  0.00000000E+00  0.00000000E+00  0.00000000E+00
  0.00000000E+00  0.00000000E+00  0.00000000E+00
  0.00000000E+00  0.00000000E+00  0.00000000E+00
  0.00000000E+00  0.00000000E+00  0.00000000E+00
  0.00000000E+00  0.00000000E+00  0.00000000E+00
  0.00000000E+00  0.00000000E+00  0.00000000E+00
  0.00000000E+00  0.00000000E+00  0.00000000E+00
  0.00000000E+00  0.00000000E+00  0.00000000E+00
  0.00000000E+00  0.00000000E+00  0.00000000E+00
  0.00000000E+00  0.00000000E+00  0.00000000E+00
  0.00000000E+00  0.00000000E+00  0.00000000E+00
  0.00000000E+00  0.00000000E+00  0.00000000E+00
  0.00000000E+00  0.00000000E+00  0.00000000E+00
  0.00000000E+00  0.00000000E+00  0.00000000E+00
  0.00000000E+00  0.00000000E+00  0.00000000E+00
  0.00000000E+00  0.00000000E+00  0.00000000E+00
  0.00000000E+00  0.00000000E+00  0.00000000E+00
  0.00000000E+00  0.00000000E+00  0.00000000E+00
  0.00000000E+00  0.00000000E+00  0.00000000E+00
  0.00000000E+00  0.00000000E+00  0.00000000E+00
  0.00000000E+00  0.00000000E+00  0.00000000E+00
  0.00000000E+00  0.00000000E+00  0.00000000E+00
  0.00000000E+00  0.00000000E+00  0.00000000E+00
  0.00000000E+00  0.00000000E+00  0.00000000E+00
  0.00000000E+00  0.00000000E+00  0.00000000E+00
  0.00000000E+00  0.00000000E+00  0.00000000E+00
  0.00000000E+00  0.00000000E+00  0.00000000E+00
  0.00000000E+00  0.00000000E+00  0.00000000E+00
  0.00000000E+00  0.00000000E+00  0.00000000E+00
  0.00000000E+00  0.00000000E+00  0.00000000E+00
  0.00000000E+00  0.00000000E+00  0.00000000E+00
