Title                                   
   1.00000000000000     
     8.5490480000000009    0.0000000000000000    0.0000000000000000
     0.0000000000000000    8.5490480000000009    0.0000000000000000
     0.0000000000000000    0.0000000000000000   20.0000000000000000
    22     2     1
Selective dynamics
Direct
  0.9111744383637412  0.2063832069515497  0.0954542841094570   T   T   T
  0.9080890304424618  0.5017499859413384  0.0953087625547364   T   T   T
  0.9104080122985135  0.7975036949919865  0.0954688027554163   T   T   T
  0.1973227317647911  0.0843947496988518  0.0954783319323357   T   T   T
  0.0756337125122999  0.2060588840880981  0.0954542736180726   T   T   T
  0.1976408273708512  0.9199509237687421  0.0954923430615698   T   T   T
  0.1572933188673994  0.6480395893459517  0.0953662601314635   T   T   T
  0.0779680597483903  0.5018326661003484  0.0953261207097639   T   T   T
  0.1581377776817347  0.3545535464141350  0.0953131037448670   T   T   T
  0.0748578572373059  0.7971926055529418  0.0954825054921078   T   T   T
  0.4930310039085393  0.0867307873243646  0.0953533225228249   T   T   T
  0.3457963847679567  0.1669248254835750  0.0953402509053281   T   T   T
  0.4929476687868602  0.9168547861303473  0.0953572684010988   T   T   T
  0.3467667711868550  0.8375275646742151  0.0953773425105435   T   T   T
  0.7883905161983590  0.0836345945613440  0.0954687292189522   T   T   T
  0.6392284527121528  0.1660797306298236  0.0953368135832459   T   T   T
  0.7887266283380686  0.9191817621138301  0.0954732387793062   T   T   T
  0.8279066433783816  0.6490220665707281  0.0953017196107061   T   T   T
  0.8287381212053782  0.3555417469728692  0.0953061912999998   T   T   T
  0.6402199744285322  0.8366604626469804  0.0953158274487641   T   T   T
  0.3221665221323722  0.6726562147893032  0.0952755803366520   T   T   T
  0.6638636434990173  0.3309245119399067  0.0952181586272785   T   T   T
  0.3197236596498857  0.3284777160588723  0.0951702793427445   T   T   T
  0.6663371277122422  0.6751037342172638  0.0951507944353603   T   T   T
  0.4930431158079027  0.5018096430326464  0.0951146948673829   T   T   T
 
  0.00000000E+00  0.00000000E+00  0.00000000E+00
  0.00000000E+00  0.00000000E+00  0.00000000E+00
  0.00000000E+00  0.00000000E+00  0.00000000E+00
  0.00000000E+00  0.00000000E+00  0.00000000E+00
  0.00000000E+00  0.00000000E+00  0.00000000E+00
  0.00000000E+00  0.00000000E+00  0.00000000E+00
  0.00000000E+00  0.00000000E+00  0.00000000E+00
  0.00000000E+00  0.00000000E+00  0.00000000E+00
  0.00000000E+00  0.00000000E+00  0.00000000E+00
  0.00000000E+00  0.00000000E+00  0.00000000E+00
  0.00000000E+00  0.00000000E+00  0.00000000E+00
  0.00000000E+00  0.00000000E+00  0.00000000E+00
  0.00000000E+00  0.00000000E+00  0.00000000E+00
  0.00000000E+00  0.00000000E+00  0.00000000E+00
  0.00000000E+00  0.00000000E+00  0.00000000E+00
  0.00000000E+00  0.00000000E+00  0.00000000E+00
  0.00000000E+00  0.00000000E+00  0.00000000E+00
  0.00000000E+00  0.00000000E+00  0.00000000E+00
  0.00000000E+00  0.00000000E+00  0.00000000E+00
  0.00000000E+00  0.00000000E+00  0.00000000E+00
  0.00000000E+00  0.00000000E+00  0.00000000E+00
  0.00000000E+00  0.00000000E+00  0.00000000E+00
  0.00000000E+00  0.00000000E+00  0.00000000E+00
  0.00000000E+00  0.00000000E+00  0.00000000E+00
  0.00000000E+00  0.00000000E+00  0.00000000E+00
