Title                                   
   1.00000000000000     
     4.9440799999999996    0.0000000000000000    0.0000000000000000
     0.0000000000000000   17.1295089999999988    0.0000000000000000
     0.0000000000000000    0.0000000000000000   20.0000000000000000
    28     2     1
Selective dynamics
Direct
 -0.0022570250079742  0.1046368778440777  0.2974399723595618   T   T   T
  0.2462097702635279  0.1473067304022585  0.2983543729524847   T   T   T
  0.2451767490975574  0.2309462668835366  0.2998573882714025   T   T   T
 -0.0072574837294865  0.2728224530008237  0.2989542272957974   T   T   T
  0.0038241203801746  0.6033607880413600  0.3000215557873789   T   T   T
  0.2528431757764544  0.7276639738768087  0.2987915985008335   T   T   T
  0.0022337071821061  0.8537039019318896  0.2971687119060682   T   T   T
  0.2505966224566574  0.8956696271844115  0.2970228822966229   T   T   T
  0.2491986154463253  0.9793015521277748  0.2968899311850599   T   T   T
  0.0035016079080922  0.7697136692694850  0.2980285155556522   T   T   T
  0.4969672867750428  0.1048895464665939  0.2981240691112597   T   T   T
  0.7475478316726522  0.1461302423595426  0.2984919349702649   T   T   T
  0.7455148393339667  0.2296147298886022  0.3002032539575690   T   T   T
  0.4983702213635572  0.0211921825165768  0.2972057105119911   T   T   T
  0.7506680548492762  0.3923930159425403  0.3026872511966220   T   T   T
  0.7564937638917235  0.4800595621511077  0.3024475733186440   T   T   T
  0.4965802031237094  0.2721777930294986  0.3029873937350541   T   T   T
  0.5044131387930931  0.6031608695744497  0.3018390311998330   T   T   T
  0.7527756766757445  0.7291257752837937  0.2986317591158750   T   T   T
  0.4998353881752486  0.8536892989045688  0.2973340505525007   T   T   T
  0.7505412619884942  0.8952458341272407  0.2969543740604846   T   T   T
  0.7490961964090952  0.9791487557249099  0.2968492363164814   T   T   T
  0.5013306124148047  0.7697366365642070  0.2982650332949771   T   T   T
  0.7541773433009432  0.6461756556600825  0.3000381845358067   T   T   T
 -0.0009920642142797  0.0210090235048090  0.2968291006708381   T   T   T
  0.5154087161789908  0.5220229108457689  0.3048331291337596   T   T   T
 -0.0027953396957568  0.5218526796610655  0.2994642289899718   T   T   T
  0.5098368799398592  0.3540614738938126  0.3086330406380393   T   T   T
 -0.0157748391944347  0.3527665038657823  0.2963607234043885   T   T   T
  0.2537626743612509  0.6452358178689979  0.3002053303545766   T   T   T
  0.2521792940835845  0.4365278516036197  0.3041464348201531   T   T   T
 
  0.00000000E+00  0.00000000E+00  0.00000000E+00
  0.00000000E+00  0.00000000E+00  0.00000000E+00
  0.00000000E+00  0.00000000E+00  0.00000000E+00
  0.00000000E+00  0.00000000E+00  0.00000000E+00
  0.00000000E+00  0.00000000E+00  0.00000000E+00
  0.00000000E+00  0.00000000E+00  0.00000000E+00
  0.00000000E+00  0.00000000E+00  0.00000000E+00
  0.00000000E+00  0.00000000E+00  0.00000000E+00
  0.00000000E+00  0.00000000E+00  0.00000000E+00
  0.00000000E+00  0.00000000E+00  0.00000000E+00
  0.00000000E+00  0.00000000E+00  0.00000000E+00
  0.00000000E+00  0.00000000E+00  0.00000000E+00
  0.00000000E+00  0.00000000E+00  0.00000000E+00
  0.00000000E+00  0.00000000E+00  0.00000000E+00
  0.00000000E+00  0.00000000E+00  0.00000000E+00
  0.00000000E+00  0.00000000E+00  0.00000000E+00
  0.00000000E+00  0.00000000E+00  0.00000000E+00
  0.00000000E+00  0.00000000E+00  0.00000000E+00
  0.00000000E+00  0.00000000E+00  0.00000000E+00
  0.00000000E+00  0.00000000E+00  0.00000000E+00
  0.00000000E+00  0.00000000E+00  0.00000000E+00
  0.00000000E+00  0.00000000E+00  0.00000000E+00
  0.00000000E+00  0.00000000E+00  0.00000000E+00
  0.00000000E+00  0.00000000E+00  0.00000000E+00
  0.00000000E+00  0.00000000E+00  0.00000000E+00
  0.00000000E+00  0.00000000E+00  0.00000000E+00
  0.00000000E+00  0.00000000E+00  0.00000000E+00
  0.00000000E+00  0.00000000E+00  0.00000000E+00
  0.00000000E+00  0.00000000E+00  0.00000000E+00
  0.00000000E+00  0.00000000E+00  0.00000000E+00
  0.00000000E+00  0.00000000E+00  0.00000000E+00
