Title                                   
   1.00000000000000     
     9.8694509999999998    0.0000000000000000    0.0000000000000000
     0.0000000000000000    8.5490480000000009    0.0000000000000000
     0.0000000000000000    0.0000000000000000   20.0000000000000000
    26     4     1
Selective dynamics
Direct
  0.0562241308426775  0.0891505635040827  0.0937252194804032   T   T   T
  0.9319674885602874  0.1715514894182446  0.0940466523042544   T   T   T
  0.0562121052913004  0.9231878542551134  0.0937239771509133   T   T   T
  0.9342694768328664  0.3386645608525583  0.0940129811206618   T   T   T
  0.0562350974640503  0.5891759992546052  0.0935822401436341   T   T   T
  0.9342805739269784  0.6736470214579405  0.0939755565691272   T   T   T
  0.0562395950932483  0.4231440552037213  0.0935901688952700   T   T   T
  0.9319500846876737  0.8407661676885485  0.0940295533005533   T   T   T
  0.3060853205842469  0.0902972073844668  0.0948939247559834   T   T   T
  0.1804855134024294  0.1715603070942688  0.0940748757234942   T   T   T
  0.3060543294667055  0.9220207312624498  0.0949017939988191   T   T   T
  0.1782094645647447  0.3386781748977920  0.0940532687904776   T   T   T
  0.2997426206751072  0.5913477579586471  0.0950159694786599   T   T   T
  0.1781838284222561  0.6736530473575614  0.0940644628007253   T   T   T
  0.2997439651112373  0.4209326251535351  0.0950029729467638   T   T   T
  0.1804725702627882  0.8407652347979291  0.0940871803256083   T   T   T
  0.5562107210569426  0.0936146322731535  0.0958842597137350   T   T   T
  0.4292824906105046  0.1780518918575383  0.0956562630802445   T   T   T
  0.5561886171420775  0.9186719560137987  0.0958876608130486   T   T   T
  0.4292516889149894  0.8342396460288143  0.0956705734132560   T   T   T
  0.8063453773052800  0.0902925538903942  0.0948635668290304   T   T   T
  0.6831714586090282  0.1780638629307995  0.0956456325734256   T   T   T
  0.8063457289593398  0.9220232748500820  0.0948496925859328   T   T   T
  0.8127528012376618  0.5913460736609850  0.0949077336584257   T   T   T
  0.8127735776567722  0.4209451193363068  0.0949355691663136   T   T   T
  0.6831512038082259  0.8342486998588243  0.0956169146723120   T   T   T
  0.4197634666900945  0.3405106827792916  0.0959433487469646   T   T   T
  0.4197273416132111  0.6717956856316548  0.0959572121860386   T   T   T
  0.6927624778561129  0.3405152207844645  0.0959026464870192   T   T   T
  0.6927704226672236  0.6718083082179791  0.0958916463029803   T   T   T
  0.5562824606839530  0.5062045943444617  0.0965714819859657   T   T   T
 
  0.00000000E+00  0.00000000E+00  0.00000000E+00
  0.00000000E+00  0.00000000E+00  0.00000000E+00
  0.00000000E+00  0.00000000E+00  0.00000000E+00
  0.00000000E+00  0.00000000E+00  0.00000000E+00
  0.00000000E+00  0.00000000E+00  0.00000000E+00
  0.00000000E+00  0.00000000E+00  0.00000000E+00
  0.00000000E+00  0.00000000E+00  0.00000000E+00
  0.00000000E+00  0.00000000E+00  0.00000000E+00
  0.00000000E+00  0.00000000E+00  0.00000000E+00
  0.00000000E+00  0.00000000E+00  0.00000000E+00
  0.00000000E+00  0.00000000E+00  0.00000000E+00
  0.00000000E+00  0.00000000E+00  0.00000000E+00
  0.00000000E+00  0.00000000E+00  0.00000000E+00
  0.00000000E+00  0.00000000E+00  0.00000000E+00
  0.00000000E+00  0.00000000E+00  0.00000000E+00
  0.00000000E+00  0.00000000E+00  0.00000000E+00
  0.00000000E+00  0.00000000E+00  0.00000000E+00
  0.00000000E+00  0.00000000E+00  0.00000000E+00
  0.00000000E+00  0.00000000E+00  0.00000000E+00
  0.00000000E+00  0.00000000E+00  0.00000000E+00
  0.00000000E+00  0.00000000E+00  0.00000000E+00
  0.00000000E+00  0.00000000E+00  0.00000000E+00
  0.00000000E+00  0.00000000E+00  0.00000000E+00
  0.00000000E+00  0.00000000E+00  0.00000000E+00
  0.00000000E+00  0.00000000E+00  0.00000000E+00
  0.00000000E+00  0.00000000E+00  0.00000000E+00
  0.00000000E+00  0.00000000E+00  0.00000000E+00
  0.00000000E+00  0.00000000E+00  0.00000000E+00
  0.00000000E+00  0.00000000E+00  0.00000000E+00
  0.00000000E+00  0.00000000E+00  0.00000000E+00
  0.00000000E+00  0.00000000E+00  0.00000000E+00
