Title                                   
   1.00000000000000     
     4.9440799999999996    0.0000000000000000    0.0000000000000000
     0.0000000000000000    8.5647549999999999    0.0000000000000000
     0.0000000000000000    0.0000000000000000   20.0000000000000000
    10     4     1
Selective dynamics
Direct
 -0.0034924312402201  0.2901031426517322  0.0936724868711420   T   T   T
  0.2525514555099871  0.0382329593146744  0.0977865456374911   T   T   T
 -0.0002026306425746  0.9598463930700478  0.0916542390765385   T   T   T
  0.7450279677497345  0.2079787232088771  0.0957814557983184   T   T   T
  0.4978299147128547  0.2963664251185256  0.1028756203063309   T   T   T
  0.7482306649443394  0.0400815701428210  0.0954136519548822   T   T   T
  0.7630614746844570  0.7136826103499235  0.0979985646747518   T   T   T
  0.7590077951474866  0.5381299158348085  0.0991831622733396   T   T   T
  0.5045550606679855  0.9534668127516834  0.1028926718756292   T   T   T
  0.5071031940653874  0.4633642819593977  0.1144355398652068   T   T   T
 -0.0065614504774379  0.4498047660680287  0.0908082782429168   T   T   T
 -0.0061149841491164  0.7972637861291589  0.0840560506970495   T   T   T
  0.5224353181892659  0.7887339282124942  0.1169297273026241   T   T   T
  0.2498201431061066  0.2097324405720151  0.0983818627866511   T   T   T
  0.2167485077317436  0.6248932446158150  0.1261101426371312   T   T   T
 
  0.00000000E+00  0.00000000E+00  0.00000000E+00
  0.00000000E+00  0.00000000E+00  0.00000000E+00
  0.00000000E+00  0.00000000E+00  0.00000000E+00
  0.00000000E+00  0.00000000E+00  0.00000000E+00
  0.00000000E+00  0.00000000E+00  0.00000000E+00
  0.00000000E+00  0.00000000E+00  0.00000000E+00
  0.00000000E+00  0.00000000E+00  0.00000000E+00
  0.00000000E+00  0.00000000E+00  0.00000000E+00
  0.00000000E+00  0.00000000E+00  0.00000000E+00
  0.00000000E+00  0.00000000E+00  0.00000000E+00
  0.00000000E+00  0.00000000E+00  0.00000000E+00
  0.00000000E+00  0.00000000E+00  0.00000000E+00
  0.00000000E+00  0.00000000E+00  0.00000000E+00
  0.00000000E+00  0.00000000E+00  0.00000000E+00
  0.00000000E+00  0.00000000E+00  0.00000000E+00
