Title                                   
   1.00000000000000     
     4.9440799999999996    0.0000000000000000    0.0000000000000000
     0.0000000000000000    8.5647549999999999    0.0000000000000000
     0.0000000000000000    0.0000000000000000   20.0000000000000000
    12     2     1
Selective dynamics
Direct
  0.2501570996675602  0.2088665279370685  0.1004656304475293   T   T   T
 -0.0025867463749668  0.2941409010068905  0.1004910985734389   T   T   T
  0.2499061344458668  0.0406884582331413  0.1004665371050175   T   T   T
  0.0001989373664926  0.9583794721218239  0.1004347256578879   T   T   T
  0.7491230667403976  0.2080942559411475  0.1004413620042742   T   T   T
  0.4998054854323022  0.2912067035668007  0.1004685719366155   T   T   T
  0.7508683428010210  0.0414993337103683  0.1004317378033958   T   T   T
  0.7517079319345270  0.7130467735241691  0.1006047948103693   T   T   T
  0.7482640557277843  0.5365051062045573  0.1006243792882119   T   T   T
  0.5026045307548296  0.9553849830684071  0.1005029266619542   T   T   T
  0.5131010271039402  0.4547933618803195  0.1005535513926701   T   T   T
 -0.0131239085124699  0.7947679646717632  0.1004807922491919   T   T   T
 -0.0147254086080973  0.4546965511687223  0.1006542512102090   T   T   T
  0.5147038746625121  0.7948488796228929  0.1006937300050528   T   T   T
  0.2499955768583005  0.6247617273419294  0.1006659108541852   T   T   T
 
  0.00000000E+00  0.00000000E+00  0.00000000E+00
  0.00000000E+00  0.00000000E+00  0.00000000E+00
  0.00000000E+00  0.00000000E+00  0.00000000E+00
  0.00000000E+00  0.00000000E+00  0.00000000E+00
  0.00000000E+00  0.00000000E+00  0.00000000E+00
  0.00000000E+00  0.00000000E+00  0.00000000E+00
  0.00000000E+00  0.00000000E+00  0.00000000E+00
  0.00000000E+00  0.00000000E+00  0.00000000E+00
  0.00000000E+00  0.00000000E+00  0.00000000E+00
  0.00000000E+00  0.00000000E+00  0.00000000E+00
  0.00000000E+00  0.00000000E+00  0.00000000E+00
  0.00000000E+00  0.00000000E+00  0.00000000E+00
  0.00000000E+00  0.00000000E+00  0.00000000E+00
  0.00000000E+00  0.00000000E+00  0.00000000E+00
  0.00000000E+00  0.00000000E+00  0.00000000E+00
