Title                                   
   1.00000000000000     
     9.8694509999999998    0.0000000000000000    0.0000000000000000
     0.0000000000000000    8.5490480000000009    0.0000000000000000
     0.0000000000000000    0.0000000000000000   20.0000000000000000
    29     1     1
Selective dynamics
Direct
  0.0560466982370991  0.0893277485949806  0.0804484472707011   T   T   T
  0.9315244170076996  0.1714505723544632  0.0828445457012170   T   T   T
  0.0568941708704394  0.9238513915340596  0.0809516118751486   T   T   T
  0.9338764786979030  0.3383451859343490  0.0808209949010002   T   T   T
  0.0569482078034133  0.5903593503086028  0.0754663185881460   T   T   T
  0.9338216017578337  0.6739412714247429  0.0807844799279390   T   T   T
  0.0570286742247169  0.4228024008620238  0.0753869705578152   T   T   T
  0.9318074896638487  0.8404748235767097  0.0830418862567810   T   T   T
  0.3059249479846739  0.0889388845436803  0.0930176861501027   T   T   T
  0.1814294771036110  0.1705803250375721  0.0829260156831695   T   T   T
  0.1800458279258275  0.3379614018436382  0.0811029203785479   T   T   T
  0.2981183375137577  0.5915096807532754  0.0964164072750158   T   T   T
  0.1804173242775246  0.6753694092350512  0.0814284473763258   T   T   T
  0.2984458837063673  0.4215032894908137  0.0955061474969455   T   T   T
  0.1820420652216524  0.8419771751928493  0.0838364054460296   T   T   T
  0.5564341894374127  0.0898229556297085  0.1083900217717203   T   T   T
  0.4280337670103915  0.1743733296835380  0.1056481855962866   T   T   T
  0.5547480650420189  0.9227523219024790  0.1079355865525601   T   T   T
  0.4186112831364461  0.3412553920616727  0.1128472881570184   T   T   T
  0.4169589345668075  0.6726558724583642  0.1152056523983703   T   T   T
  0.4259774864266752  0.8369298881994303  0.1066364784957052   T   T   T
  0.8064758963188899  0.0896220780181748  0.0922831053843049   T   T   T
  0.6844538765114405  0.1759993144472734  0.1052463496548748   T   T   T
  0.8060314100034798  0.9220072347868377  0.0920010884767778   T   T   T
  0.6940239666346802  0.3417101208587465  0.1128940026493707   T   T   T
  0.8144807979843239  0.5903865393423885  0.0937413796159387   T   T   T
  0.6930552831949581  0.6696005520711210  0.1105080554641108   T   T   T
  0.8148597400863820  0.4211144698366968  0.0945641258622036   T   T   T
  0.6828453199716105  0.8354992045482531  0.1037656528923039   T   T   T
  0.3050480072392681  0.9228068249095623  0.0931489807361205   T   T   T
  0.5567253744388502  0.5059459905589616  0.1321697614074755   T   T   T
 
  0.00000000E+00  0.00000000E+00  0.00000000E+00
  0.00000000E+00  0.00000000E+00  0.00000000E+00
  0.00000000E+00  0.00000000E+00  0.00000000E+00
  0.00000000E+00  0.00000000E+00  0.00000000E+00
  0.00000000E+00  0.00000000E+00  0.00000000E+00
  0.00000000E+00  0.00000000E+00  0.00000000E+00
  0.00000000E+00  0.00000000E+00  0.00000000E+00
  0.00000000E+00  0.00000000E+00  0.00000000E+00
  0.00000000E+00  0.00000000E+00  0.00000000E+00
  0.00000000E+00  0.00000000E+00  0.00000000E+00
  0.00000000E+00  0.00000000E+00  0.00000000E+00
  0.00000000E+00  0.00000000E+00  0.00000000E+00
  0.00000000E+00  0.00000000E+00  0.00000000E+00
  0.00000000E+00  0.00000000E+00  0.00000000E+00
  0.00000000E+00  0.00000000E+00  0.00000000E+00
  0.00000000E+00  0.00000000E+00  0.00000000E+00
  0.00000000E+00  0.00000000E+00  0.00000000E+00
  0.00000000E+00  0.00000000E+00  0.00000000E+00
  0.00000000E+00  0.00000000E+00  0.00000000E+00
  0.00000000E+00  0.00000000E+00  0.00000000E+00
  0.00000000E+00  0.00000000E+00  0.00000000E+00
  0.00000000E+00  0.00000000E+00  0.00000000E+00
  0.00000000E+00  0.00000000E+00  0.00000000E+00
  0.00000000E+00  0.00000000E+00  0.00000000E+00
  0.00000000E+00  0.00000000E+00  0.00000000E+00
  0.00000000E+00  0.00000000E+00  0.00000000E+00
  0.00000000E+00  0.00000000E+00  0.00000000E+00
  0.00000000E+00  0.00000000E+00  0.00000000E+00
  0.00000000E+00  0.00000000E+00  0.00000000E+00
  0.00000000E+00  0.00000000E+00  0.00000000E+00
  0.00000000E+00  0.00000000E+00  0.00000000E+00
