Title                                   
   1.00000000000000     
     4.9440799999999996    0.0000000000000000    0.0000000000000000
     0.0000000000000000    8.5647549999999999    0.0000000000000000
     0.0000000000000000    0.0000000000000000   20.0000000000000000
    11     4     1
Selective dynamics
Direct
 -0.0055387632913350  0.2952167456030427  0.0961203851633904   T   T   T
  0.2500000000000000  0.0470834519104113  0.0929846415911021   T   T   T
  0.0070691245832041  0.7931723930960455  0.0947077622794796   T   T   T
  0.0008821502244233  0.9621435107338988  0.0930185519423375   T   T   T
  0.7500000000000000  0.2068684000694735  0.0949719845399380   T   T   T
  0.5055387632913348  0.2952167456030427  0.0961203851633904   T   T   T
  0.7500000000000000  0.0422980690991330  0.0927117741377714   T   T   T
  0.7500000000000000  0.7041413983284436  0.0949310081540314   T   T   T
  0.4929308754167959  0.7931723930960455  0.0947077622794796   T   T   T
  0.7500000000000000  0.5306797388835540  0.0975127234906614   T   T   T
  0.4991178497755765  0.9621435107338988  0.0930185519423375   T   T   T
  0.5085246387496661  0.4516235940411885  0.0984700089434549   T   T   T
 -0.0085246387496660  0.4516235940411885  0.0984700089434549   T   T   T
  0.2500000000000000  0.7184357318312151  0.0970689282549697   T   T   T
  0.2500000000000000  0.2137895088745048  0.0931281363271526   T   T   T
  0.2500000000000000  0.5323912140549146  0.1845693868470584   T   T   T
 
  0.00000000E+00  0.00000000E+00  0.00000000E+00
  0.00000000E+00  0.00000000E+00  0.00000000E+00
  0.00000000E+00  0.00000000E+00  0.00000000E+00
  0.00000000E+00  0.00000000E+00  0.00000000E+00
  0.00000000E+00  0.00000000E+00  0.00000000E+00
  0.00000000E+00  0.00000000E+00  0.00000000E+00
  0.00000000E+00  0.00000000E+00  0.00000000E+00
  0.00000000E+00  0.00000000E+00  0.00000000E+00
  0.00000000E+00  0.00000000E+00  0.00000000E+00
  0.00000000E+00  0.00000000E+00  0.00000000E+00
  0.00000000E+00  0.00000000E+00  0.00000000E+00
  0.00000000E+00  0.00000000E+00  0.00000000E+00
  0.00000000E+00  0.00000000E+00  0.00000000E+00
  0.00000000E+00  0.00000000E+00  0.00000000E+00
  0.00000000E+00  0.00000000E+00  0.00000000E+00
  0.00000000E+00  0.00000000E+00  0.00000000E+00
