Title                                   
   1.00000000000000     
     4.9440799999999996    0.0000000000000000    0.0000000000000000
     0.0000000000000000    8.5647549999999999    0.0000000000000000
     0.0000000000000000    0.0000000000000000   20.0000000000000000
    13     1     1
Selective dynamics
Direct
  0.2490266474682137  0.2064133567313727  0.0941259611659502   T   T   T
 -0.0034919699309653  0.2929918914999126  0.0967217679682782   T   T   T
  0.2512229536702510  0.0401661066267349  0.0946567228769491   T   T   T
  0.0008344840405806  0.9557799494089869  0.0966861864879632   T   T   T
  0.7481639392632831  0.2078187527204179  0.0902879331552163   T   T   T
  0.4974783716825766  0.2920664371508023  0.0914362699251201   T   T   T
  0.7513271261300608  0.0407370386245609  0.0907403439895474   T   T   T
  0.7475394831791818  0.7146454646437629  0.1020217946919665   T   T   T
  0.7421820725920055  0.5402071423244791  0.1014541670824311   T   T   T
  0.5038775633177665  0.9554944146376274  0.0932530658230659   T   T   T
  0.4989664154051667  0.4575874430672741  0.0946973549960776   T   T   T
 -0.0088359087751982  0.4568992030716687  0.1075430339743423   T   T   T
 -0.0053516425938027  0.7926015430708291  0.1064051513402859   T   T   T
  0.5080432416987865  0.7948521106007403  0.0970455701199799   T   T   T
  0.2690172228520932  0.6234201458208318  0.1509046764028300   T   T   T
 
  0.00000000E+00  0.00000000E+00  0.00000000E+00
  0.00000000E+00  0.00000000E+00  0.00000000E+00
  0.00000000E+00  0.00000000E+00  0.00000000E+00
  0.00000000E+00  0.00000000E+00  0.00000000E+00
  0.00000000E+00  0.00000000E+00  0.00000000E+00
  0.00000000E+00  0.00000000E+00  0.00000000E+00
  0.00000000E+00  0.00000000E+00  0.00000000E+00
  0.00000000E+00  0.00000000E+00  0.00000000E+00
  0.00000000E+00  0.00000000E+00  0.00000000E+00
  0.00000000E+00  0.00000000E+00  0.00000000E+00
  0.00000000E+00  0.00000000E+00  0.00000000E+00
  0.00000000E+00  0.00000000E+00  0.00000000E+00
  0.00000000E+00  0.00000000E+00  0.00000000E+00
  0.00000000E+00  0.00000000E+00  0.00000000E+00
  0.00000000E+00  0.00000000E+00  0.00000000E+00
