Title                                   
   1.00000000000000     
     4.9440799999999996    0.0000000000000000    0.0000000000000000
     0.0000000000000000    8.5647549999999999    0.0000000000000000
     0.0000000000000000    0.0000000000000000   20.0000000000000000
    11     3     1
Selective dynamics
Direct
  0.0022464787318746  0.2951636539988905  0.1004577919526299   T   T   T
  0.2500965447017682  0.0409364539179650  0.1004720942859584   T   T   T
 -0.0023868192937151  0.9523444942706883  0.1005700323077502   T   T   T
  0.7525143200216819  0.2087452072409225  0.1003886863144590   T   T   T
  0.5030182848486381  0.2980143864506004  0.1004549478169365   T   T   T
  0.7491022385130035  0.0395722348145160  0.1004053115926282   T   T   T
  0.7468979212150099  0.7115661461848332  0.1006284745143656   T   T   T
  0.7516622332404853  0.5362992974125497  0.1006212573984961   T   T   T
  0.4978624568889702  0.9563497653817687  0.1004256493088893   T   T   T
  0.5015990792907427  0.7878378254436147  0.1004937044991866   T   T   T
 -0.0012988920409435  0.4608557468141462  0.1006660408304877   T   T   T
  0.5059437941439737  0.4588866583197961  0.1005649068719861   T   T   T
 -0.0072185580914415  0.7884823629669691  0.1007366999525896   T   T   T
  0.2505995308770184  0.2105688085589583  0.1004760019856231   T   T   T
  0.2493613869529334  0.6260579582237842  0.1006184003680171   T   T   T
 
  0.00000000E+00  0.00000000E+00  0.00000000E+00
  0.00000000E+00  0.00000000E+00  0.00000000E+00
  0.00000000E+00  0.00000000E+00  0.00000000E+00
  0.00000000E+00  0.00000000E+00  0.00000000E+00
  0.00000000E+00  0.00000000E+00  0.00000000E+00
  0.00000000E+00  0.00000000E+00  0.00000000E+00
  0.00000000E+00  0.00000000E+00  0.00000000E+00
  0.00000000E+00  0.00000000E+00  0.00000000E+00
  0.00000000E+00  0.00000000E+00  0.00000000E+00
  0.00000000E+00  0.00000000E+00  0.00000000E+00
  0.00000000E+00  0.00000000E+00  0.00000000E+00
  0.00000000E+00  0.00000000E+00  0.00000000E+00
  0.00000000E+00  0.00000000E+00  0.00000000E+00
  0.00000000E+00  0.00000000E+00  0.00000000E+00
  0.00000000E+00  0.00000000E+00  0.00000000E+00
