Title                                   
   1.00000000000000     
     9.8694509999999998    0.0000000000000000    0.0000000000000000
     0.0000000000000000    8.5490480000000009    0.0000000000000000
     0.0000000000000000    0.0000000000000000   20.0000000000000000
    27     3     1
Selective dynamics
Direct
  0.0563347060572350  0.0896110314318178  0.0944340350279974   T   T   T
  0.9308532213560448  0.1715784262662749  0.0946838900274537   T   T   T
  0.0579212668297624  0.9231791741551804  0.0944840526384938   T   T   T
  0.9343459968917759  0.3379262572714200  0.0945809597815032   T   T   T
  0.0579027960922366  0.5901554577370802  0.0942944334955377   T   T   T
  0.9344413040302835  0.6746647221802958  0.0946321676816560   T   T   T
  0.0579840714474543  0.4226746806717974  0.0942380645411923   T   T   T
  0.9313351485494786  0.8404560630668967  0.0947421349802504   T   T   T
  0.3065928221116678  0.0890007576736848  0.0946331037609063   T   T   T
  0.1805214654165441  0.1706833492579611  0.0943997651476644   T   T   T
  0.1808602117471088  0.3391923509398782  0.0943140895702957   T   T   T
  0.3034425600971395  0.5898106152353514  0.0945119136476910   T   T   T
  0.1812101449828240  0.6730487950961014  0.0943392635065003   T   T   T
  0.3041462021300742  0.4221673754698156  0.0945833495836469   T   T   T
  0.1811375496132065  0.8410972375969559  0.0944249898761988   T   T   T
  0.5537595023945765  0.0914226506207883  0.0954707138334180   T   T   T
  0.4292000260546509  0.1771841801522091  0.0950918751804255   T   T   T
  0.5527991744294041  0.9212738570104334  0.0953881028194450   T   T   T
  0.4285952504647638  0.8345293626664240  0.0949491520373061   T   T   T
  0.8044381377350870  0.0905446543797827  0.0951901031488013   T   T   T
  0.6796846948468814  0.1783658351091156  0.0955585741938361   T   T   T
  0.8046065522898952  0.9213774622382661  0.0951642905326285   T   T   T
  0.6877077933234617  0.3450286894163765  0.0956099758750009   T   T   T
  0.8125462723962875  0.5905037896826379  0.0950984225365798   T   T   T
  0.6877049629991722  0.6673094020853371  0.0955487329672329   T   T   T
  0.8125194462053740  0.4221287428631383  0.0951094870799198   T   T   T
  0.6792403714770506  0.8335883066948551  0.0954577340948093   T   T   T
  0.4251873537020738  0.3409406001426836  0.0950719159734036   T   T   T
  0.4243467284429397  0.6730221583387036  0.0948214651628011   T   T   T
  0.3068431235071717  0.9220666991728115  0.0945613854821673   T   T   T
  0.5549261423783914  0.5063423153759332  0.0955768558152850   T   T   T
 
  0.00000000E+00  0.00000000E+00  0.00000000E+00
  0.00000000E+00  0.00000000E+00  0.00000000E+00
  0.00000000E+00  0.00000000E+00  0.00000000E+00
  0.00000000E+00  0.00000000E+00  0.00000000E+00
  0.00000000E+00  0.00000000E+00  0.00000000E+00
  0.00000000E+00  0.00000000E+00  0.00000000E+00
  0.00000000E+00  0.00000000E+00  0.00000000E+00
  0.00000000E+00  0.00000000E+00  0.00000000E+00
  0.00000000E+00  0.00000000E+00  0.00000000E+00
  0.00000000E+00  0.00000000E+00  0.00000000E+00
  0.00000000E+00  0.00000000E+00  0.00000000E+00
  0.00000000E+00  0.00000000E+00  0.00000000E+00
  0.00000000E+00  0.00000000E+00  0.00000000E+00
  0.00000000E+00  0.00000000E+00  0.00000000E+00
  0.00000000E+00  0.00000000E+00  0.00000000E+00
  0.00000000E+00  0.00000000E+00  0.00000000E+00
  0.00000000E+00  0.00000000E+00  0.00000000E+00
  0.00000000E+00  0.00000000E+00  0.00000000E+00
  0.00000000E+00  0.00000000E+00  0.00000000E+00
  0.00000000E+00  0.00000000E+00  0.00000000E+00
  0.00000000E+00  0.00000000E+00  0.00000000E+00
  0.00000000E+00  0.00000000E+00  0.00000000E+00
  0.00000000E+00  0.00000000E+00  0.00000000E+00
  0.00000000E+00  0.00000000E+00  0.00000000E+00
  0.00000000E+00  0.00000000E+00  0.00000000E+00
  0.00000000E+00  0.00000000E+00  0.00000000E+00
  0.00000000E+00  0.00000000E+00  0.00000000E+00
  0.00000000E+00  0.00000000E+00  0.00000000E+00
  0.00000000E+00  0.00000000E+00  0.00000000E+00
  0.00000000E+00  0.00000000E+00  0.00000000E+00
  0.00000000E+00  0.00000000E+00  0.00000000E+00
