Title                                   
   1.00000000000000     
     4.9440799999999996    0.0000000000000000    0.0000000000000000
     0.0000000000000000   17.1295089999999988    0.0000000000000000
     0.0000000000000000    0.0000000000000000   20.0000000000000000
    29     1     1
Selective dynamics
Direct
  0.0004684661674539  0.1033872037807606  0.2968110152598861   T   T   T
  0.2503791430306930  0.1453667855816073  0.2973221733050061   T   T   T
  0.2503933489366464  0.2285942262120782  0.2994589701964375   T   T   T
 -0.0009341391959257  0.2700869651293193  0.3007683324090077   T   T   T
  0.0004020671093101  0.6053224383301280  0.3000809266875369   T   T   T
  0.2503109395523329  0.7283667035970740  0.2983440504062544   T   T   T
  0.0014165550962705  0.8536985485213842  0.2971781023998649   T   T   T
  0.2503491934476663  0.8954739855434889  0.2970914250266735   T   T   T
  0.2503588018359812  0.9786220527753580  0.2967710970252484   T   T   T
  0.0011024543559696  0.7703425404120575  0.2976021353413906   T   T   T
  0.5003013415652240  0.1033909326701862  0.2968279610851550   T   T   T
  0.7504015118355333  0.1446071348774118  0.2972629607246243   T   T   T
  0.7504100183804543  0.2277230223202718  0.2994888827963204   T   T   T
  0.5003561262731937  0.0201121875435677  0.2966464648590304   T   T   T
  0.7502954650793521  0.3952245010320329  0.2988967517960737   T   T   T
  0.7501983716917381  0.4829874701082102  0.2999082433742635   T   T   T
  0.5017448096682395  0.2700778751596526  0.3008397874469890   T   T   T
  0.5000114791068312  0.6053217165115545  0.2999755252238870   T   T   T
  0.7503296128674063  0.7299123024896355  0.2974116749146237   T   T   T
  0.4992787781532805  0.8537034460305898  0.2971695449082898   T   T   T
  0.7503684403157174  0.8949872436002549  0.2968787431803876   T   T   T
  0.7503593891083432  0.9784402784031495  0.2966417890974888   T   T   T
  0.4995814619599063  0.7703405272440415  0.2975829529267725   T   T   T
  0.7502579308630302  0.6474773842469150  0.2981903513450232   T   T   T
  0.0003744864152972  0.0201099198390857  0.2966364392252850   T   T   T
  0.5072143590586630  0.5239718026719500  0.3030045413035574   T   T   T
  0.9931088055405142  0.5239934136849075  0.3032980220478322   T   T   T
  0.5123669952573051  0.3523498748541654  0.3040001511753462   T   T   T
 -0.0116930561863654  0.3523801056375327  0.3038125183562562   T   T   T
  0.2502404824922461  0.6471197643413260  0.2998364649944694   T   T   T
  0.2502533602176938  0.4378496468502999  0.3193220011609702   T   T   T
 
  0.00000000E+00  0.00000000E+00  0.00000000E+00
  0.00000000E+00  0.00000000E+00  0.00000000E+00
  0.00000000E+00  0.00000000E+00  0.00000000E+00
  0.00000000E+00  0.00000000E+00  0.00000000E+00
  0.00000000E+00  0.00000000E+00  0.00000000E+00
  0.00000000E+00  0.00000000E+00  0.00000000E+00
  0.00000000E+00  0.00000000E+00  0.00000000E+00
  0.00000000E+00  0.00000000E+00  0.00000000E+00
  0.00000000E+00  0.00000000E+00  0.00000000E+00
  0.00000000E+00  0.00000000E+00  0.00000000E+00
  0.00000000E+00  0.00000000E+00  0.00000000E+00
  0.00000000E+00  0.00000000E+00  0.00000000E+00
  0.00000000E+00  0.00000000E+00  0.00000000E+00
  0.00000000E+00  0.00000000E+00  0.00000000E+00
  0.00000000E+00  0.00000000E+00  0.00000000E+00
  0.00000000E+00  0.00000000E+00  0.00000000E+00
  0.00000000E+00  0.00000000E+00  0.00000000E+00
  0.00000000E+00  0.00000000E+00  0.00000000E+00
  0.00000000E+00  0.00000000E+00  0.00000000E+00
  0.00000000E+00  0.00000000E+00  0.00000000E+00
  0.00000000E+00  0.00000000E+00  0.00000000E+00
  0.00000000E+00  0.00000000E+00  0.00000000E+00
  0.00000000E+00  0.00000000E+00  0.00000000E+00
  0.00000000E+00  0.00000000E+00  0.00000000E+00
  0.00000000E+00  0.00000000E+00  0.00000000E+00
  0.00000000E+00  0.00000000E+00  0.00000000E+00
  0.00000000E+00  0.00000000E+00  0.00000000E+00
  0.00000000E+00  0.00000000E+00  0.00000000E+00
  0.00000000E+00  0.00000000E+00  0.00000000E+00
  0.00000000E+00  0.00000000E+00  0.00000000E+00
  0.00000000E+00  0.00000000E+00  0.00000000E+00
