Title                                   
   1.00000000000000     
     9.8694509999999998    0.0000000000000000    0.0000000000000000
     0.0000000000000000    8.5490480000000009    0.0000000000000000
     0.0000000000000000    0.0000000000000000   20.0000000000000000
    28     3     1
Selective dynamics
Direct
  0.0562847210302152  0.0913362573797579  0.0827824674674307   T   T   T
  0.9315821864589795  0.1732906271924591  0.0843045924268299   T   T   T
  0.0570833634546192  0.9243317433381273  0.0830527435130795   T   T   T
  0.9314512353801776  0.3397889536473091  0.0876044744919705   T   T   T
  0.0574043234143591  0.5898773234222707  0.0837443117559337   T   T   T
  0.9324394823224079  0.6721829296187419  0.0862455730789480   T   T   T
  0.0578641573951471  0.4229896833704566  0.0853892588075508   T   T   T
  0.9316945834274012  0.8392358606554585  0.0845445527928312   T   T   T
  0.3054614946922400  0.0892820354876913  0.0873834722804250   T   T   T
  0.1821427262132892  0.1739660978635941  0.0847788236899344   T   T   T
  0.1846012425175360  0.3411818616485480  0.0867622950326268   T   T   T
  0.3041989807285566  0.5935046155570342  0.0973664012447231   T   T   T
  0.1816680736428906  0.6743358854744086  0.0863754714790388   T   T   T
  0.3112244857227662  0.4261584766563728  0.0949935530868354   T   T   T
  0.1806733349744704  0.8417267069793645  0.0862251306540624   T   T   T
  0.5561128121566329  0.0856889680898385  0.0939761937670061   T   T   T
  0.4309264324919766  0.1699320734523018  0.0927131478848133   T   T   T
  0.5534497407565188  0.9199088205519720  0.0983010694414591   T   T   T
  0.4332782585719653  0.3341511805066357  0.1000708181231866   T   T   T
  0.4248530466723588  0.8426878043621392  0.1006186989593689   T   T   T
  0.8069455402374356  0.0886833849452464  0.0854814276390097   T   T   T
  0.6817346822557708  0.1685926204021998  0.0916143149518584   T   T   T
  0.8064473906546465  0.9225613826127407  0.0869054505377045   T   T   T
  0.6815554003926756  0.3329327844489579  0.1004024353283963   T   T   T
  0.8091546663309306  0.5898360585196147  0.0980602971099717   T   T   T
  0.6923543345648117  0.6783013412701103  0.1133726677319495   T   T   T
  0.8054262185188037  0.4214689778388322  0.0965386660425058   T   T   T
  0.6827478940899566  0.8389220935286906  0.0987748606612232   T   T   T
  0.4130493448406543  0.6873889510141147  0.1184431966657938   T   T   T
  0.5582572640812991  0.4022677239613096  0.1166423083118433   T   T   T
  0.3045762017941471  0.9255002274453784  0.0893954842547295   T   T   T
  0.5529953802143666  0.5882325487583316  0.1828108407869944   T   T   T
 
  0.00000000E+00  0.00000000E+00  0.00000000E+00
  0.00000000E+00  0.00000000E+00  0.00000000E+00
  0.00000000E+00  0.00000000E+00  0.00000000E+00
  0.00000000E+00  0.00000000E+00  0.00000000E+00
  0.00000000E+00  0.00000000E+00  0.00000000E+00
  0.00000000E+00  0.00000000E+00  0.00000000E+00
  0.00000000E+00  0.00000000E+00  0.00000000E+00
  0.00000000E+00  0.00000000E+00  0.00000000E+00
  0.00000000E+00  0.00000000E+00  0.00000000E+00
  0.00000000E+00  0.00000000E+00  0.00000000E+00
  0.00000000E+00  0.00000000E+00  0.00000000E+00
  0.00000000E+00  0.00000000E+00  0.00000000E+00
  0.00000000E+00  0.00000000E+00  0.00000000E+00
  0.00000000E+00  0.00000000E+00  0.00000000E+00
  0.00000000E+00  0.00000000E+00  0.00000000E+00
  0.00000000E+00  0.00000000E+00  0.00000000E+00
  0.00000000E+00  0.00000000E+00  0.00000000E+00
  0.00000000E+00  0.00000000E+00  0.00000000E+00
  0.00000000E+00  0.00000000E+00  0.00000000E+00
  0.00000000E+00  0.00000000E+00  0.00000000E+00
  0.00000000E+00  0.00000000E+00  0.00000000E+00
  0.00000000E+00  0.00000000E+00  0.00000000E+00
  0.00000000E+00  0.00000000E+00  0.00000000E+00
  0.00000000E+00  0.00000000E+00  0.00000000E+00
  0.00000000E+00  0.00000000E+00  0.00000000E+00
  0.00000000E+00  0.00000000E+00  0.00000000E+00
  0.00000000E+00  0.00000000E+00  0.00000000E+00
  0.00000000E+00  0.00000000E+00  0.00000000E+00
  0.00000000E+00  0.00000000E+00  0.00000000E+00
  0.00000000E+00  0.00000000E+00  0.00000000E+00
  0.00000000E+00  0.00000000E+00  0.00000000E+00
  0.00000000E+00  0.00000000E+00  0.00000000E+00
