Title                                   
   1.00000000000000     
     8.5490480000000009    0.0000000000000000    0.0000000000000000
     0.0000000000000000    8.5490480000000009    0.0000000000000000
     0.0000000000000000    0.0000000000000000   20.0000000000000000
    22     2     1
Selective dynamics
Direct
  0.9103501368684241  0.2051651633348953  0.0975086853514241   T   T   T
  0.9067813273019868  0.5035144849386873  0.0978063834245662   T   T   T
  0.9117240782908638  0.8024790990169173  0.0977224148603582   T   T   T
  0.1980440880259678  0.0817923034417545  0.0977297492752389   T   T   T
  0.0739489399394389  0.2029564079859892  0.0976645264083143   T   T   T
  0.1571769413067984  0.6502715880406638  0.0977848019808725   T   T   T
  0.0752806718737070  0.5025437738988806  0.0977984916434445   T   T   T
  0.1566466409865551  0.3547571621598118  0.0979176205953706   T   T   T
  0.0783619891899603  0.7991772088598403  0.0976448687625286   T   T   T
  0.4934000116650186  0.0835058415046191  0.0977701760741362   T   T   T
  0.3449860779120781  0.1626594169460523  0.0979398470696762   T   T   T
  0.4926425723861374  0.9151298257508583  0.0978261863402037   T   T   T
  0.3459057683256236  0.8346843269498539  0.0978363764077920   T   T   T
  0.7878708294886908  0.0846003780821367  0.0974972738831228   T   T   T
  0.6392921338225389  0.1649102709202558  0.0976725358771539   T   T   T
  0.7902199029502465  0.9202477830193173  0.0976915321225622   T   T   T
  0.8293195239935688  0.6538209635915485  0.0980328535231824   T   T   T
  0.8271008121527628  0.3561673467989416  0.0976823482288069   T   T   T
  0.6421386312722002  0.8356850033302115  0.0980289214873129   T   T   T
  0.3223396306380736  0.3320587136784423  0.0984645869032301   T   T   T
  0.3225873695287284  0.6714278475348856  0.0980999773520794   T   T   T
  0.6617241420030811  0.3323228672330339  0.0980544981002451   T   T   T
  0.6679245591730461  0.6763674366126115  0.0985130502295643   T   T   T
  0.1973644801754559  0.9176030451496368  0.0977220765345252   T   T   T
  0.4922807407290408  0.5009417412201668  0.1002952175642715   T   T   T
 
  0.00000000E+00  0.00000000E+00  0.00000000E+00
  0.00000000E+00  0.00000000E+00  0.00000000E+00
  0.00000000E+00  0.00000000E+00  0.00000000E+00
  0.00000000E+00  0.00000000E+00  0.00000000E+00
  0.00000000E+00  0.00000000E+00  0.00000000E+00
  0.00000000E+00  0.00000000E+00  0.00000000E+00
  0.00000000E+00  0.00000000E+00  0.00000000E+00
  0.00000000E+00  0.00000000E+00  0.00000000E+00
  0.00000000E+00  0.00000000E+00  0.00000000E+00
  0.00000000E+00  0.00000000E+00  0.00000000E+00
  0.00000000E+00  0.00000000E+00  0.00000000E+00
  0.00000000E+00  0.00000000E+00  0.00000000E+00
  0.00000000E+00  0.00000000E+00  0.00000000E+00
  0.00000000E+00  0.00000000E+00  0.00000000E+00
  0.00000000E+00  0.00000000E+00  0.00000000E+00
  0.00000000E+00  0.00000000E+00  0.00000000E+00
  0.00000000E+00  0.00000000E+00  0.00000000E+00
  0.00000000E+00  0.00000000E+00  0.00000000E+00
  0.00000000E+00  0.00000000E+00  0.00000000E+00
  0.00000000E+00  0.00000000E+00  0.00000000E+00
  0.00000000E+00  0.00000000E+00  0.00000000E+00
  0.00000000E+00  0.00000000E+00  0.00000000E+00
  0.00000000E+00  0.00000000E+00  0.00000000E+00
  0.00000000E+00  0.00000000E+00  0.00000000E+00
  0.00000000E+00  0.00000000E+00  0.00000000E+00
