Title                                   
   1.00000000000000     
     9.8694509999999998    0.0000000000000000    0.0000000000000000
     0.0000000000000000    8.5490480000000009    0.0000000000000000
     0.0000000000000000    0.0000000000000000   20.0000000000000000
    27     4     1
Selective dynamics
Direct
  0.0558377799785328  0.0919899971008799  0.0848675271063877   T   T   T
  0.9297826685403126  0.1747091121858320  0.0870328160443127   T   T   T
  0.0565342922174761  0.9234111944470015  0.0829786767918266   T   T   T
  0.9298955346601463  0.3414814665450319  0.0913876057746402   T   T   T
  0.0560042375320148  0.5899213753642875  0.0855581572883694   T   T   T
  0.9319743281014045  0.6722477311080769  0.0856319034460184   T   T   T
  0.0555451035705463  0.4225971634076111  0.0901906094089612   T   T   T
  0.9316377457028751  0.8397878723896378  0.0843293471869421   T   T   T
  0.3052527137249543  0.0884923230800319  0.0874443826604208   T   T   T
  0.1817879852103377  0.1735587499475378  0.0880067477228663   T   T   T
  0.3070701784622254  0.9229725049103471  0.0871464154081405   T   T   T
  0.1814797872316952  0.3400151823149669  0.0926280582442805   T   T   T
  0.3039908571914504  0.5891205663724498  0.0999468501709603   T   T   T
  0.1805803804117719  0.6709567595601963  0.0870839998316744   T   T   T
  0.1816643778696333  0.8387527384911510  0.0847972961666190   T   T   T
  0.5565949330163120  0.0864662633636414  0.0942171137976134   T   T   T
  0.4306789287665804  0.1694587851403326  0.0938274255026229   T   T   T
  0.4303632378735522  0.3342960174371972  0.1039752698333974   T   T   T
  0.4294665757074915  0.8392548733091328  0.0979014502477372   T   T   T
  0.8066721863517803  0.0895743684884927  0.0859585770201922   T   T   T
  0.6810187174907828  0.1710103523047889  0.0921883548698624   T   T   T
  0.8062852844361025  0.9242431639919714  0.0863602294927071   T   T   T
  0.6796297557603854  0.3357309267507999  0.1016500739343992   T   T   T
  0.8074996615702575  0.5923576820234123  0.0962341235948344   T   T   T
  0.6849097168912600  0.8397775465012567  0.0963499264135329   T   T   T
  0.4191869827702889  0.6791714366338895  0.1177858192858185   T   T   T
  0.5554413700678743  0.4075676642163932  0.1213294011423263   T   T   T
  0.6958691944795993  0.6816306176319400  0.1124874096800199   T   T   T
  0.5572213629182901  0.9184329597371712  0.0965754088343848   T   T   T
  0.3052350392324076  0.4211530474718618  0.1003081821957843   T   T   T
  0.8043097299186684  0.4248207550760726  0.0973690801679065   T   T   T
  0.5602183523429950  0.5952848026966099  0.1721267607344565   T   T   T
 
  0.00000000E+00  0.00000000E+00  0.00000000E+00
  0.00000000E+00  0.00000000E+00  0.00000000E+00
  0.00000000E+00  0.00000000E+00  0.00000000E+00
  0.00000000E+00  0.00000000E+00  0.00000000E+00
  0.00000000E+00  0.00000000E+00  0.00000000E+00
  0.00000000E+00  0.00000000E+00  0.00000000E+00
  0.00000000E+00  0.00000000E+00  0.00000000E+00
  0.00000000E+00  0.00000000E+00  0.00000000E+00
  0.00000000E+00  0.00000000E+00  0.00000000E+00
  0.00000000E+00  0.00000000E+00  0.00000000E+00
  0.00000000E+00  0.00000000E+00  0.00000000E+00
  0.00000000E+00  0.00000000E+00  0.00000000E+00
  0.00000000E+00  0.00000000E+00  0.00000000E+00
  0.00000000E+00  0.00000000E+00  0.00000000E+00
  0.00000000E+00  0.00000000E+00  0.00000000E+00
  0.00000000E+00  0.00000000E+00  0.00000000E+00
  0.00000000E+00  0.00000000E+00  0.00000000E+00
  0.00000000E+00  0.00000000E+00  0.00000000E+00
  0.00000000E+00  0.00000000E+00  0.00000000E+00
  0.00000000E+00  0.00000000E+00  0.00000000E+00
  0.00000000E+00  0.00000000E+00  0.00000000E+00
  0.00000000E+00  0.00000000E+00  0.00000000E+00
  0.00000000E+00  0.00000000E+00  0.00000000E+00
  0.00000000E+00  0.00000000E+00  0.00000000E+00
  0.00000000E+00  0.00000000E+00  0.00000000E+00
  0.00000000E+00  0.00000000E+00  0.00000000E+00
  0.00000000E+00  0.00000000E+00  0.00000000E+00
  0.00000000E+00  0.00000000E+00  0.00000000E+00
  0.00000000E+00  0.00000000E+00  0.00000000E+00
  0.00000000E+00  0.00000000E+00  0.00000000E+00
  0.00000000E+00  0.00000000E+00  0.00000000E+00
  0.00000000E+00  0.00000000E+00  0.00000000E+00
