Title                                   
   1.00000000000000     
     8.5490480000000009    0.0000000000000000    0.0000000000000000
     0.0000000000000000    8.5490480000000009    0.0000000000000000
     0.0000000000000000    0.0000000000000000   20.0000000000000000
    21     3     1
Selective dynamics
Direct
  0.9088718500316252  0.2074299761969687  0.0943623812038304   T   T   T
  0.9107129167209654  0.7991073737490452  0.0943920530621584   T   T   T
  0.1989732500524575  0.0833164684690246  0.0944109406914078   T   T   T
  0.0765254676436191  0.2032675163056522  0.0947298103428686   T   T   T
  0.1569650743870722  0.6497571763688893  0.0968566482492680   T   T   T
  0.0763376173687260  0.5008161914225108  0.0965905462087399   T   T   T
  0.1569608016552342  0.3539966474369721  0.0969222983408433   T   T   T
  0.0784188194145739  0.7985938711381152  0.0946206922165496   T   T   T
  0.3471895019031266  0.1644292295849377  0.0962670880939896   T   T   T
  0.4930517805951858  0.9197059230095019  0.0966331716136025   T   T   T
  0.3451619465378311  0.8377808032858185  0.0972455984933333   T   T   T
  0.7862242912441270  0.0856909265543529  0.0944747539559290   T   T   T
  0.6375922060235102  0.1668241937761402  0.0963889339906884   T   T   T
  0.7881349163231912  0.9189059397502997  0.0947310367608245   T   T   T
  0.8298416158689890  0.6482570863136817  0.0961712334910737   T   T   T
  0.8286707882936987  0.3565709939749270  0.0961867667909240   T   T   T
  0.6385815509317192  0.8375628641702375  0.0968693253185598   T   T   T
  0.3264189389713418  0.3315868353708326  0.1013508286139513   T   T   T
  0.3241011648906031  0.6728846426654891  0.1009735933255454   T   T   T
  0.6598085418954953  0.3355755801926940  0.1018848460577774   T   T   T
  0.6623802631220521  0.6680289435688537  0.1013245221832567   T   T   T
  0.4941500784600430  0.0857197057935821  0.0960944095721309   T   T   T
  0.9096483058965836  0.5016429698142456  0.0959926574936298   T   T   T
  0.1970644890891171  0.9168050930718309  0.0946697431725931   T   T   T
  0.4936258226790984  0.5005330480154030  0.1235611207565045   T   T   T
 
  0.00000000E+00  0.00000000E+00  0.00000000E+00
  0.00000000E+00  0.00000000E+00  0.00000000E+00
  0.00000000E+00  0.00000000E+00  0.00000000E+00
  0.00000000E+00  0.00000000E+00  0.00000000E+00
  0.00000000E+00  0.00000000E+00  0.00000000E+00
  0.00000000E+00  0.00000000E+00  0.00000000E+00
  0.00000000E+00  0.00000000E+00  0.00000000E+00
  0.00000000E+00  0.00000000E+00  0.00000000E+00
  0.00000000E+00  0.00000000E+00  0.00000000E+00
  0.00000000E+00  0.00000000E+00  0.00000000E+00
  0.00000000E+00  0.00000000E+00  0.00000000E+00
  0.00000000E+00  0.00000000E+00  0.00000000E+00
  0.00000000E+00  0.00000000E+00  0.00000000E+00
  0.00000000E+00  0.00000000E+00  0.00000000E+00
  0.00000000E+00  0.00000000E+00  0.00000000E+00
  0.00000000E+00  0.00000000E+00  0.00000000E+00
  0.00000000E+00  0.00000000E+00  0.00000000E+00
  0.00000000E+00  0.00000000E+00  0.00000000E+00
  0.00000000E+00  0.00000000E+00  0.00000000E+00
  0.00000000E+00  0.00000000E+00  0.00000000E+00
  0.00000000E+00  0.00000000E+00  0.00000000E+00
  0.00000000E+00  0.00000000E+00  0.00000000E+00
  0.00000000E+00  0.00000000E+00  0.00000000E+00
  0.00000000E+00  0.00000000E+00  0.00000000E+00
  0.00000000E+00  0.00000000E+00  0.00000000E+00
