Title                                   
   1.00000000000000     
     9.8694509999999998    0.0000000000000000    0.0000000000000000
     0.0000000000000000    8.5490480000000009    0.0000000000000000
     0.0000000000000000    0.0000000000000000   20.0000000000000000
    27     4     1
Selective dynamics
Direct
  0.0558317680675971  0.0926995056468830  0.0843219615359768   T   T   T
  0.9310013291960904  0.1746444637124980  0.0860877769963417   T   T   T
  0.0573290848520427  0.9251077612298518  0.0841155503757100   T   T   T
  0.9296845300951578  0.3420516992033253  0.0895730249061038   T   T   T
  0.0567938936821741  0.5901516020596406  0.0856430723883345   T   T   T
  0.9328684096219864  0.6736103918358262  0.0879712246799747   T   T   T
  0.0568278380750630  0.4232684052334900  0.0876662094265483   T   T   T
  0.9330241209816311  0.8403626648328382  0.0862849610011640   T   T   T
  0.3055023637482636  0.0882687849877122  0.0885092916166763   T   T   T
  0.1820799562049135  0.1738984236173404  0.0865909405466198   T   T   T
  0.1839159332578215  0.3410402098544655  0.0893196517430125   T   T   T
  0.3038137762403691  0.5932351910468739  0.0992334756060816   T   T   T
  0.1808441217204194  0.6747134964303673  0.0876520013371134   T   T   T
  0.3100257797388428  0.4253437335832154  0.0976003291367431   T   T   T
  0.1806808933922212  0.8412249037695136  0.0866174123947136   T   T   T
  0.5565451163100917  0.0831764752914334  0.0947073808082801   T   T   T
  0.4308687011103635  0.1673483486275112  0.0936844098044202   T   T   T
  0.5551183011699999  0.9163922697566366  0.0995522396862536   T   T   T
  0.4333019375991999  0.3324541840223937  0.1017163208083403   T   T   T
  0.4247957728968498  0.8394591309206684  0.1017718451384955   T   T   T
  0.8066757899521713  0.0890471822504858  0.0868483138375481   T   T   T
  0.6808927350371925  0.1682607263258905  0.0921900227335152   T   T   T
  0.8075481321553760  0.9233673105741481  0.0884824644966527   T   T   T
  0.6787633873774329  0.3334386635611042  0.1010581234441912   T   T   T
  0.8089867453177646  0.5935603529865618  0.0995585584108471   T   T   T
  0.8031037313103183  0.4246545659316336  0.0978651597777755   T   T   T
  0.6858484047143827  0.8377851133682152  0.1001458077032947   T   T   T
  0.4137572005999767  0.6853303992468822  0.1166155906157326   T   T   T
  0.5562060871957195  0.4017659180605563  0.1153007349123829   T   T   T
  0.6966393598194682  0.6816600918276936  0.1149221456440440   T   T   T
  0.3049122258855975  0.9241874804461245  0.0894908897286386   T   T   T
  0.5554515726735082  0.5887365497582221  0.1645781087584890   T   T   T
 
  0.00000000E+00  0.00000000E+00  0.00000000E+00
  0.00000000E+00  0.00000000E+00  0.00000000E+00
  0.00000000E+00  0.00000000E+00  0.00000000E+00
  0.00000000E+00  0.00000000E+00  0.00000000E+00
  0.00000000E+00  0.00000000E+00  0.00000000E+00
  0.00000000E+00  0.00000000E+00  0.00000000E+00
  0.00000000E+00  0.00000000E+00  0.00000000E+00
  0.00000000E+00  0.00000000E+00  0.00000000E+00
  0.00000000E+00  0.00000000E+00  0.00000000E+00
  0.00000000E+00  0.00000000E+00  0.00000000E+00
  0.00000000E+00  0.00000000E+00  0.00000000E+00
  0.00000000E+00  0.00000000E+00  0.00000000E+00
  0.00000000E+00  0.00000000E+00  0.00000000E+00
  0.00000000E+00  0.00000000E+00  0.00000000E+00
  0.00000000E+00  0.00000000E+00  0.00000000E+00
  0.00000000E+00  0.00000000E+00  0.00000000E+00
  0.00000000E+00  0.00000000E+00  0.00000000E+00
  0.00000000E+00  0.00000000E+00  0.00000000E+00
  0.00000000E+00  0.00000000E+00  0.00000000E+00
  0.00000000E+00  0.00000000E+00  0.00000000E+00
  0.00000000E+00  0.00000000E+00  0.00000000E+00
  0.00000000E+00  0.00000000E+00  0.00000000E+00
  0.00000000E+00  0.00000000E+00  0.00000000E+00
  0.00000000E+00  0.00000000E+00  0.00000000E+00
  0.00000000E+00  0.00000000E+00  0.00000000E+00
  0.00000000E+00  0.00000000E+00  0.00000000E+00
  0.00000000E+00  0.00000000E+00  0.00000000E+00
  0.00000000E+00  0.00000000E+00  0.00000000E+00
  0.00000000E+00  0.00000000E+00  0.00000000E+00
  0.00000000E+00  0.00000000E+00  0.00000000E+00
  0.00000000E+00  0.00000000E+00  0.00000000E+00
  0.00000000E+00  0.00000000E+00  0.00000000E+00
