Title                                   
   1.00000000000000     
     9.8694509999999998    0.0000000000000000    0.0000000000000000
     0.0000000000000000    8.5490480000000009    0.0000000000000000
     0.0000000000000000    0.0000000000000000   20.0000000000000000
    27     4     1
Selective dynamics
Direct
  0.0561308962698254  0.0921332775779205  0.0895123727097660   T   T   T
  0.9298304698630838  0.1762763028174986  0.0893986619819711   T   T   T
  0.0578262884821424  0.9239125178305163  0.0880961491912422   T   T   T
  0.9288104954254021  0.3431964647934337  0.0912219595270096   T   T   T
  0.0565047598473757  0.5906147612382436  0.0917823769793721   T   T   T
  0.9326343580203056  0.6736638637226056  0.0872665201258135   T   T   T
  0.0549330145993595  0.4230278745852589  0.0938961186703722   T   T   T
  0.9327563799936414  0.8411052422439550  0.0855983103025671   T   T   T
  0.3063672084066351  0.0868097971484574  0.0916934308960373   T   T   T
  0.1822860878001214  0.1728978347961693  0.0927539462120503   T   T   T
  0.3090478817126477  0.9204490398023409  0.0919758289810682   T   T   T
  0.1807402396013917  0.3391121743544798  0.0972085300095346   T   T   T
  0.3059855244764295  0.5873989860594819  0.1047625682238280   T   T   T
  0.1814361840046583  0.6705994813028258  0.0939301973717700   T   T   T
  0.1831817262904196  0.8380831583386980  0.0913242124718690   T   T   T
  0.5571762919019870  0.0868422940239648  0.0928294700239819   T   T   T
  0.4312087350027496  0.1693454495251359  0.0954644429557623   T   T   T
  0.4304656687411578  0.3354114775037094  0.1057758387965381   T   T   T
  0.4339423896224119  0.8349258619586505  0.0990531800620388   T   T   T
  0.8065523969000934  0.0915114136515284  0.0872579700602916   T   T   T
  0.6801166512549872  0.1737505139599018  0.0908396092225366   T   T   T
  0.8074252822910486  0.9259825916529835  0.0850933447785645   T   T   T
  0.6778493495081299  0.3419250464191144  0.0987029927422224   T   T   T
  0.8045743603699340  0.5970775562635429  0.0844852668153576   T   T   T
  0.6862870241637163  0.8362681540760848  0.0835368743504531   T   T   T
  0.4248697684610580  0.6729701396502868  0.1166079780671820   T   T   T
  0.5533236188684515  0.4138178754044964  0.1172893703602490   T   T   T
  0.6887783389683914  0.6788139290449225  0.0783714713944053   T   T   T
  0.5589003695472871  0.9174038694026352  0.0913521937739460   T   T   T
  0.3047342060918786  0.4202634087944243  0.1045947193461071   T   T   T
  0.8020970726427633  0.4278527036391801  0.0909868276679299   T   T   T
  0.5528659608705204  0.5868029384175540  0.1830122659281785   T   T   T
 
  0.00000000E+00  0.00000000E+00  0.00000000E+00
  0.00000000E+00  0.00000000E+00  0.00000000E+00
  0.00000000E+00  0.00000000E+00  0.00000000E+00
  0.00000000E+00  0.00000000E+00  0.00000000E+00
  0.00000000E+00  0.00000000E+00  0.00000000E+00
  0.00000000E+00  0.00000000E+00  0.00000000E+00
  0.00000000E+00  0.00000000E+00  0.00000000E+00
  0.00000000E+00  0.00000000E+00  0.00000000E+00
  0.00000000E+00  0.00000000E+00  0.00000000E+00
  0.00000000E+00  0.00000000E+00  0.00000000E+00
  0.00000000E+00  0.00000000E+00  0.00000000E+00
  0.00000000E+00  0.00000000E+00  0.00000000E+00
  0.00000000E+00  0.00000000E+00  0.00000000E+00
  0.00000000E+00  0.00000000E+00  0.00000000E+00
  0.00000000E+00  0.00000000E+00  0.00000000E+00
  0.00000000E+00  0.00000000E+00  0.00000000E+00
  0.00000000E+00  0.00000000E+00  0.00000000E+00
  0.00000000E+00  0.00000000E+00  0.00000000E+00
  0.00000000E+00  0.00000000E+00  0.00000000E+00
  0.00000000E+00  0.00000000E+00  0.00000000E+00
  0.00000000E+00  0.00000000E+00  0.00000000E+00
  0.00000000E+00  0.00000000E+00  0.00000000E+00
  0.00000000E+00  0.00000000E+00  0.00000000E+00
  0.00000000E+00  0.00000000E+00  0.00000000E+00
  0.00000000E+00  0.00000000E+00  0.00000000E+00
  0.00000000E+00  0.00000000E+00  0.00000000E+00
  0.00000000E+00  0.00000000E+00  0.00000000E+00
  0.00000000E+00  0.00000000E+00  0.00000000E+00
  0.00000000E+00  0.00000000E+00  0.00000000E+00
  0.00000000E+00  0.00000000E+00  0.00000000E+00
  0.00000000E+00  0.00000000E+00  0.00000000E+00
  0.00000000E+00  0.00000000E+00  0.00000000E+00
