Title                                   
   1.00000000000000     
     9.8694509999999998    0.0000000000000000    0.0000000000000000
     0.0000000000000000    8.5490480000000009    0.0000000000000000
     0.0000000000000000    0.0000000000000000   20.0000000000000000
    27     3     1
Selective dynamics
Direct
  0.0556434057718522  0.0885203165531960  0.0884811058161936   T   T   T
  0.9310927224530433  0.1724595792683316  0.0923045182525376   T   T   T
  0.0576609497612855  0.9224808655238579  0.0884933807581851   T   T   T
  0.9330825333229656  0.3397773815378866  0.0954641385499698   T   T   T
  0.0578839550201250  0.5897093908634150  0.0914050077847390   T   T   T
  0.9335265496632871  0.6729361514669885  0.0961071240141284   T   T   T
  0.0576636112926027  0.4223457902558701  0.0912514426585313   T   T   T
  0.9324042195366923  0.8399012629025929  0.0930847480026735   T   T   T
  0.3068411651754728  0.0867356565054516  0.0857528148772273   T   T   T
  0.1816815390751177  0.1705972222930719  0.0866922115849211   T   T   T
  0.1807925064252541  0.3368185897292549  0.0874772763531030   T   T   T
  0.3083472617434377  0.5869051342589475  0.0855632128587833   T   T   T
  0.1826711682569187  0.6722390960606682  0.0873245594264366   T   T   T
  0.3057296046859421  0.4177793274457188  0.0860680770831389   T   T   T
  0.1831780797457056  0.8384817988866106  0.0862798006722061   T   T   T
  0.4305895674552814  0.1735382709590989  0.0887945673944979   T   T   T
  0.5553210563400516  0.9256375075401246  0.0961891242637292   T   T   T
  0.4306305783867883  0.6745760072189326  0.0880409258097366   T   T   T
  0.4320982036300229  0.8397270973235682  0.0887988504099441   T   T   T
  0.8049480693812011  0.0898775616097062  0.0938048009566426   T   T   T
  0.6804077841278134  0.1781811246015601  0.0988851692109779   T   T   T
  0.8064547720199053  0.9236275538537160  0.0949757468513898   T   T   T
  0.6842867797941294  0.3408283912962563  0.1089213542737830   T   T   T
  0.8099208008153729  0.5917725272772331  0.1053854446478508   T   T   T
  0.6853199168559755  0.6746519532225109  0.1129739642314768   T   T   T
  0.8100559861306807  0.4220129153735500  0.1041623929599303   T   T   T
  0.6807451156151821  0.8398919330919751  0.1017998459012376   T   T   T
  0.5554587741763891  0.0940537324608277  0.0946413457950624   T   T   T
  0.4266131386277351  0.3334305383735457  0.0888815988162342   T   T   T
  0.3068359691271175  0.9229634448029773  0.0847312588524673   T   T   T
  0.5352492155866703  0.5084168774425734  0.1482291909323129   T   T   T
 
  0.00000000E+00  0.00000000E+00  0.00000000E+00
  0.00000000E+00  0.00000000E+00  0.00000000E+00
  0.00000000E+00  0.00000000E+00  0.00000000E+00
  0.00000000E+00  0.00000000E+00  0.00000000E+00
  0.00000000E+00  0.00000000E+00  0.00000000E+00
  0.00000000E+00  0.00000000E+00  0.00000000E+00
  0.00000000E+00  0.00000000E+00  0.00000000E+00
  0.00000000E+00  0.00000000E+00  0.00000000E+00
  0.00000000E+00  0.00000000E+00  0.00000000E+00
  0.00000000E+00  0.00000000E+00  0.00000000E+00
  0.00000000E+00  0.00000000E+00  0.00000000E+00
  0.00000000E+00  0.00000000E+00  0.00000000E+00
  0.00000000E+00  0.00000000E+00  0.00000000E+00
  0.00000000E+00  0.00000000E+00  0.00000000E+00
  0.00000000E+00  0.00000000E+00  0.00000000E+00
  0.00000000E+00  0.00000000E+00  0.00000000E+00
  0.00000000E+00  0.00000000E+00  0.00000000E+00
  0.00000000E+00  0.00000000E+00  0.00000000E+00
  0.00000000E+00  0.00000000E+00  0.00000000E+00
  0.00000000E+00  0.00000000E+00  0.00000000E+00
  0.00000000E+00  0.00000000E+00  0.00000000E+00
  0.00000000E+00  0.00000000E+00  0.00000000E+00
  0.00000000E+00  0.00000000E+00  0.00000000E+00
  0.00000000E+00  0.00000000E+00  0.00000000E+00
  0.00000000E+00  0.00000000E+00  0.00000000E+00
  0.00000000E+00  0.00000000E+00  0.00000000E+00
  0.00000000E+00  0.00000000E+00  0.00000000E+00
  0.00000000E+00  0.00000000E+00  0.00000000E+00
  0.00000000E+00  0.00000000E+00  0.00000000E+00
  0.00000000E+00  0.00000000E+00  0.00000000E+00
  0.00000000E+00  0.00000000E+00  0.00000000E+00
