Title                                   
   1.00000000000000     
     4.9440799999999996    0.0000000000000000    0.0000000000000000
     0.0000000000000000    8.5647549999999999    0.0000000000000000
     0.0000000000000000    0.0000000000000000   20.0000000000000000
    13     2     1
Selective dynamics
Direct
 -0.0016303393012152  0.2881454724739539  0.0915814871570325   T   T   T
  0.2500000000000000  0.0444785668767896  0.0861783200402140   T   T   T
  0.0019789916339682  0.7979594804445559  0.0997922641212051   T   T   T
  0.0000378663104884  0.9608074960007547  0.0857747892509200   T   T   T
  0.7500000000000000  0.2062759837545718  0.0817936662615156   T   T   T
  0.5016303393012151  0.2881454724739539  0.0915814871570325   T   T   T
  0.7500000000000000  0.0410134677463449  0.0795389550904812   T   T   T
  0.7500000000000000  0.7089142006777742  0.1039660723526256   T   T   T
  0.4980210083660319  0.7979594804445559  0.0997922641212051   T   T   T
  0.7500000000000000  0.5383330858437050  0.1067233509120265   T   T   T
  0.4999621336895120  0.9608074960007547  0.0857747892509200   T   T   T
  0.5123118809961155  0.4452736740761294  0.1136119754322662   T   T   T
 -0.0123118809961157  0.4452736740761294  0.1136119754322662   T   T   T
  0.2500000000000000  0.7305657217757260  0.1153716088129219   T   T   T
  0.2500000000000000  0.2057839315978265  0.0887864995850348   T   T   T
  0.2500000000000000  0.5402627957364725  0.1686324950223420   T   T   T
 
  0.00000000E+00  0.00000000E+00  0.00000000E+00
  0.00000000E+00  0.00000000E+00  0.00000000E+00
  0.00000000E+00  0.00000000E+00  0.00000000E+00
  0.00000000E+00  0.00000000E+00  0.00000000E+00
  0.00000000E+00  0.00000000E+00  0.00000000E+00
  0.00000000E+00  0.00000000E+00  0.00000000E+00
  0.00000000E+00  0.00000000E+00  0.00000000E+00
  0.00000000E+00  0.00000000E+00  0.00000000E+00
  0.00000000E+00  0.00000000E+00  0.00000000E+00
  0.00000000E+00  0.00000000E+00  0.00000000E+00
  0.00000000E+00  0.00000000E+00  0.00000000E+00
  0.00000000E+00  0.00000000E+00  0.00000000E+00
  0.00000000E+00  0.00000000E+00  0.00000000E+00
  0.00000000E+00  0.00000000E+00  0.00000000E+00
  0.00000000E+00  0.00000000E+00  0.00000000E+00
  0.00000000E+00  0.00000000E+00  0.00000000E+00
