Title                                   
   1.00000000000000     
     4.9440799999999996    0.0000000000000000    0.0000000000000000
     0.0000000000000000   17.1295089999999988    0.0000000000000000
     0.0000000000000000    0.0000000000000000   20.0000000000000000
    28     2     1
Selective dynamics
Direct
  0.0015208621481576  0.1058447341177216  0.2942692159284417   T   T   T
  0.2501136543067832  0.1486043120230069  0.2950628416865940   T   T   T
  0.2499997542628185  0.2331240912074801  0.2987473294921651   T   T   T
  0.0002380336116306  0.2753197815864627  0.3042420129057930   T   T   T
 -0.0025832577316729  0.5997124151473928  0.3072007078703275   T   T   T
  0.2465622979590549  0.7275434380505589  0.2962781486216334   T   T   T
 -0.0012849145749868  0.8538530248082034  0.2936565679411811   T   T   T
  0.2493541736704377  0.8957652653034599  0.2929016770754628   T   T   T
  0.2502079829332258  0.9798161438574823  0.2926162188777181   T   T   T
 -0.0021270817179720  0.7699430383070628  0.2955570288909926   T   T   T
  0.5003671455208921  0.1064204620249849  0.2930109407698063   T   T   T
  0.7522971385128873  0.1477747833553805  0.2940409080255404   T   T   T
  0.7537433248294942  0.2316627483356523  0.2965566677386587   T   T   T
  0.4998379343987293  0.0222147999878710  0.2922964927259450   T   T   T
  0.7468525094251534  0.3927291674092315  0.3051196520461888   T   T   T
  0.7407372661739008  0.4769436604380350  0.3084780510025479   T   T   T
  0.5035866657116753  0.2723880251943864  0.2957596104261356   T   T   T
  0.4954436139561361  0.6033202542879373  0.2967004627545937   T   T   T
  0.7489036444400156  0.7274220069105940  0.2957300330018464   T   T   T
  0.4988378221973187  0.8534698105311407  0.2928584456617800   T   T   T
  0.7487488442613106  0.8958524009279714  0.2927659703220722   T   T   T
  0.7496138514765782  0.9799746110536179  0.2924444315267353   T   T   T
  0.4980555224275318  0.7692954164292979  0.2940946848620431   T   T   T
  0.7492749942277502  0.6432710695278401  0.2985050698082357   T   T   T
  0.2446786165617151  0.6437225680507689  0.3002481144390663   T   T   T
  0.0004918852769600  0.0218377939944244  0.2930348113293043   T   T   T
  0.4988711448023320  0.5207616485540233  0.2981448052199894   T   T   T
 -0.0060892110961628  0.5163793897783343  0.3236746336146933   T   T   T
  0.5114222852447617  0.3525140312812197  0.2946285650773495   T   T   T
 -0.0123657749125088  0.3560468943833542  0.3182829578984110   T   T   T
  0.2946962716960530  0.4378142131350976  0.3381529424587001   T   T   T
 
  0.00000000E+00  0.00000000E+00  0.00000000E+00
  0.00000000E+00  0.00000000E+00  0.00000000E+00
  0.00000000E+00  0.00000000E+00  0.00000000E+00
  0.00000000E+00  0.00000000E+00  0.00000000E+00
  0.00000000E+00  0.00000000E+00  0.00000000E+00
  0.00000000E+00  0.00000000E+00  0.00000000E+00
  0.00000000E+00  0.00000000E+00  0.00000000E+00
  0.00000000E+00  0.00000000E+00  0.00000000E+00
  0.00000000E+00  0.00000000E+00  0.00000000E+00
  0.00000000E+00  0.00000000E+00  0.00000000E+00
  0.00000000E+00  0.00000000E+00  0.00000000E+00
  0.00000000E+00  0.00000000E+00  0.00000000E+00
  0.00000000E+00  0.00000000E+00  0.00000000E+00
  0.00000000E+00  0.00000000E+00  0.00000000E+00
  0.00000000E+00  0.00000000E+00  0.00000000E+00
  0.00000000E+00  0.00000000E+00  0.00000000E+00
  0.00000000E+00  0.00000000E+00  0.00000000E+00
  0.00000000E+00  0.00000000E+00  0.00000000E+00
  0.00000000E+00  0.00000000E+00  0.00000000E+00
  0.00000000E+00  0.00000000E+00  0.00000000E+00
  0.00000000E+00  0.00000000E+00  0.00000000E+00
  0.00000000E+00  0.00000000E+00  0.00000000E+00
  0.00000000E+00  0.00000000E+00  0.00000000E+00
  0.00000000E+00  0.00000000E+00  0.00000000E+00
  0.00000000E+00  0.00000000E+00  0.00000000E+00
  0.00000000E+00  0.00000000E+00  0.00000000E+00
  0.00000000E+00  0.00000000E+00  0.00000000E+00
  0.00000000E+00  0.00000000E+00  0.00000000E+00
  0.00000000E+00  0.00000000E+00  0.00000000E+00
  0.00000000E+00  0.00000000E+00  0.00000000E+00
  0.00000000E+00  0.00000000E+00  0.00000000E+00
