Title                                   
   1.00000000000000     
     9.8694509999999998    0.0000000000000000    0.0000000000000000
     0.0000000000000000    8.5490480000000009    0.0000000000000000
     0.0000000000000000    0.0000000000000000   20.0000000000000000
    29     2     1
Selective dynamics
Direct
  0.0562586137811550  0.0901810227822352  0.0834092402254187   T   T   T
  0.9315973528711315  0.1719545191282557  0.0862952876301886   T   T   T
  0.0570069901846790  0.9232086836168099  0.0825457055473496   T   T   T
  0.9319240785891847  0.3388730827833309  0.0886332434102182   T   T   T
  0.0572973016340689  0.5889235215322742  0.0821643252423183   T   T   T
  0.9330523352376607  0.6713870993877139  0.0861128006269933   T   T   T
  0.0575916867739149  0.4220483740255170  0.0845124662483273   T   T   T
  0.9319007070957595  0.8384972404245827  0.0851440667052234   T   T   T
  0.3060472616809489  0.0890397854434047  0.0888703937951147   T   T   T
  0.1820392746991206  0.1727622835027822  0.0855815415885232   T   T   T
  0.1834721632174954  0.3398638058416641  0.0869765430261987   T   T   T
  0.3030737121528338  0.5913306996649305  0.0946426300438201   T   T   T
  0.1811561023302630  0.6739023092168426  0.0832327238875310   T   T   T
  0.3081337226754298  0.4247231173600214  0.0962229594677986   T   T   T
  0.1808476262836392  0.8403882150622318  0.0837530909787696   T   T   T
  0.5559751578760469  0.0860756158524866  0.0982128090070961   T   T   T
  0.4307107160983814  0.1699387715876256  0.0963265515227554   T   T   T
  0.5536360399286214  0.9183955963232895  0.1009922188470287   T   T   T
  0.4318216018711825  0.3362573588332750  0.1050995218056149   T   T   T
  0.5570392507199156  0.4093833483139271  0.1216703730399305   T   T   T
  0.4249745567412879  0.8404064622734968  0.0996290800717056   T   T   T
  0.8066439056679893  0.0880690681500486  0.0894529181637292   T   T   T
  0.6815177245935237  0.1694042483640371  0.0970197860169498   T   T   T
  0.8067653581048110  0.9222100562447945  0.0898601457141403   T   T   T
  0.6824992657344967  0.3350873572894249  0.1062445047196852   T   T   T
  0.8115687444952430  0.5878706237161453  0.0993520757933586   T   T   T
  0.6951451991455668  0.6757189768140550  0.1152919681938472   T   T   T
  0.8080499123956295  0.4204482188898250  0.0992787439761032   T   T   T
  0.6834984596836827  0.8372447336003438  0.1019471559550841   T   T   T
  0.4134691994801633  0.6831680812038396  0.1123254172626625   T   T   T
  0.3049151727103761  0.9245826449175313  0.0882020072655718   T   T   T
  0.5500098055458039  0.6089010778532453  0.1846727042209888   T   T   T
 
  0.00000000E+00  0.00000000E+00  0.00000000E+00
  0.00000000E+00  0.00000000E+00  0.00000000E+00
  0.00000000E+00  0.00000000E+00  0.00000000E+00
  0.00000000E+00  0.00000000E+00  0.00000000E+00
  0.00000000E+00  0.00000000E+00  0.00000000E+00
  0.00000000E+00  0.00000000E+00  0.00000000E+00
  0.00000000E+00  0.00000000E+00  0.00000000E+00
  0.00000000E+00  0.00000000E+00  0.00000000E+00
  0.00000000E+00  0.00000000E+00  0.00000000E+00
  0.00000000E+00  0.00000000E+00  0.00000000E+00
  0.00000000E+00  0.00000000E+00  0.00000000E+00
  0.00000000E+00  0.00000000E+00  0.00000000E+00
  0.00000000E+00  0.00000000E+00  0.00000000E+00
  0.00000000E+00  0.00000000E+00  0.00000000E+00
  0.00000000E+00  0.00000000E+00  0.00000000E+00
  0.00000000E+00  0.00000000E+00  0.00000000E+00
  0.00000000E+00  0.00000000E+00  0.00000000E+00
  0.00000000E+00  0.00000000E+00  0.00000000E+00
  0.00000000E+00  0.00000000E+00  0.00000000E+00
  0.00000000E+00  0.00000000E+00  0.00000000E+00
  0.00000000E+00  0.00000000E+00  0.00000000E+00
  0.00000000E+00  0.00000000E+00  0.00000000E+00
  0.00000000E+00  0.00000000E+00  0.00000000E+00
  0.00000000E+00  0.00000000E+00  0.00000000E+00
  0.00000000E+00  0.00000000E+00  0.00000000E+00
  0.00000000E+00  0.00000000E+00  0.00000000E+00
  0.00000000E+00  0.00000000E+00  0.00000000E+00
  0.00000000E+00  0.00000000E+00  0.00000000E+00
  0.00000000E+00  0.00000000E+00  0.00000000E+00
  0.00000000E+00  0.00000000E+00  0.00000000E+00
  0.00000000E+00  0.00000000E+00  0.00000000E+00
  0.00000000E+00  0.00000000E+00  0.00000000E+00
