Title                                   
   1.00000000000000     
     9.8694509999999998    0.0000000000000000    0.0000000000000000
     0.0000000000000000    8.5490480000000009    0.0000000000000000
     0.0000000000000000    0.0000000000000000   20.0000000000000000
    28     3     1
Selective dynamics
Direct
  0.0562307865268583  0.0923946003682179  0.0849420193128062   T   T   T
  0.9306418386985548  0.1748343327365676  0.0872457033935568   T   T   T
  0.0562331932006276  0.9251114350860484  0.0836625276685006   T   T   T
  0.9291027476898504  0.3419169652575434  0.0907559057960644   T   T   T
  0.0562328825292392  0.5894200480620223  0.0861307329273488   T   T   T
  0.9324358414143443  0.6737720504130488  0.0872791721789260   T   T   T
  0.0562442090169875  0.4234933486231529  0.0889744477669242   T   T   T
  0.9323391960002537  0.8405540092519871  0.0856300293894795   T   T   T
  0.3057468200075115  0.0894802012101049  0.0878429171640087   T   T   T
  0.1818409849922314  0.1748067830627896  0.0872050646305524   T   T   T
  0.3047940603065918  0.9233296823157218  0.0882797884650391   T   T   T
  0.1833737216307461  0.3418825100391998  0.0907270608900619   T   T   T
  0.3049394786423572  0.5943054325773580  0.0976472601083112   T   T   T
  0.1800136121084287  0.6737874448141454  0.0872260447366518   T   T   T
  0.3096513745239054  0.4246110753284919  0.0974808570401179   T   T   T
  0.1801325403804550  0.8405700909142001  0.0855580973310569   T   T   T
  0.5562583155999190  0.0827443510355794  0.0947707248714288   T   T   T
  0.4316207500412468  0.1685612768100207  0.0926041161635783   T   T   T
  0.5562534281170775  0.9160712555250958  0.0991978167019943   T   T   T
  0.4347389104397643  0.3341454672673817  0.0997580389646595   T   T   T
  0.4262320541788087  0.8370180515494450  0.0986849760736739   T   T   T
  0.8067603797466256  0.0894784716598174  0.0879209554692469   T   T   T
  0.6808970201999937  0.1685613294037210  0.0926344664931089   T   T   T
  0.8077076407184488  0.9233288580958471  0.0884129797446861   T   T   T
  0.6777678602694019  0.3341531548742028  0.0997710896148340   T   T   T
  0.8075424100998614  0.5943008036801537  0.0977647302506628   T   T   T
  0.8028335610817752  0.4246110967774873  0.0975286636302083   T   T   T
  0.6862771342495086  0.8369975639693155  0.0988195141772281   T   T   T
  0.4186627543292537  0.6802247690909043  0.1092331868590165   T   T   T
  0.5562446261590904  0.4060853355153750  0.1100425412748617   T   T   T
  0.6938724773703492  0.6802164536551025  0.1094104873465920   T   T   T
  0.5560163897299389  0.5894777510299606  0.1725330835648481   T   T   T
 
  0.00000000E+00  0.00000000E+00  0.00000000E+00
  0.00000000E+00  0.00000000E+00  0.00000000E+00
  0.00000000E+00  0.00000000E+00  0.00000000E+00
  0.00000000E+00  0.00000000E+00  0.00000000E+00
  0.00000000E+00  0.00000000E+00  0.00000000E+00
  0.00000000E+00  0.00000000E+00  0.00000000E+00
  0.00000000E+00  0.00000000E+00  0.00000000E+00
  0.00000000E+00  0.00000000E+00  0.00000000E+00
  0.00000000E+00  0.00000000E+00  0.00000000E+00
  0.00000000E+00  0.00000000E+00  0.00000000E+00
  0.00000000E+00  0.00000000E+00  0.00000000E+00
  0.00000000E+00  0.00000000E+00  0.00000000E+00
  0.00000000E+00  0.00000000E+00  0.00000000E+00
  0.00000000E+00  0.00000000E+00  0.00000000E+00
  0.00000000E+00  0.00000000E+00  0.00000000E+00
  0.00000000E+00  0.00000000E+00  0.00000000E+00
  0.00000000E+00  0.00000000E+00  0.00000000E+00
  0.00000000E+00  0.00000000E+00  0.00000000E+00
  0.00000000E+00  0.00000000E+00  0.00000000E+00
  0.00000000E+00  0.00000000E+00  0.00000000E+00
  0.00000000E+00  0.00000000E+00  0.00000000E+00
  0.00000000E+00  0.00000000E+00  0.00000000E+00
  0.00000000E+00  0.00000000E+00  0.00000000E+00
  0.00000000E+00  0.00000000E+00  0.00000000E+00
  0.00000000E+00  0.00000000E+00  0.00000000E+00
  0.00000000E+00  0.00000000E+00  0.00000000E+00
  0.00000000E+00  0.00000000E+00  0.00000000E+00
  0.00000000E+00  0.00000000E+00  0.00000000E+00
  0.00000000E+00  0.00000000E+00  0.00000000E+00
  0.00000000E+00  0.00000000E+00  0.00000000E+00
  0.00000000E+00  0.00000000E+00  0.00000000E+00
  0.00000000E+00  0.00000000E+00  0.00000000E+00
