Title                                   
   1.00000000000000     
     9.8694509999999998    0.0000000000000000    0.0000000000000000
     0.0000000000000000    8.5490480000000009    0.0000000000000000
     0.0000000000000000    0.0000000000000000   20.0000000000000000
    28     3     1
Selective dynamics
Direct
  0.0562390296602187  0.0908555123765569  0.0859156459075436   T   T   T
  0.9305106312111225  0.1739019757391129  0.0881689146510376   T   T   T
  0.0562363480981395  0.9226307990314564  0.0851525603754798   T   T   T
  0.9306771818238158  0.3400733361010484  0.0916461192227304   T   T   T
  0.0562276086580875  0.5895471804545075  0.0878727732382019   T   T   T
  0.9314475614133257  0.6709134796090015  0.0891771759557066   T   T   T
  0.0562581279944946  0.4227931168165744  0.0904187295454204   T   T   T
  0.9306217179597769  0.8387531959400184  0.0872701991933414   T   T   T
  0.3055417002336260  0.0891867708085286  0.0875319774987769   T   T   T
  0.1820337794961398  0.1739049361371131  0.0875967136016920   T   T   T
  0.3069827562974844  0.9236964962411628  0.0883224198592076   T   T   T
  0.1818277685876766  0.3400770769452759  0.0910840218938976   T   T   T
  0.3052882413034377  0.5892204426774381  0.0981732041231767   T   T   T
  0.1810579360077016  0.6709387956161406  0.0885103911883193   T   T   T
  0.1818888023759252  0.8387264303183437  0.0866231184410409   T   T   T
  0.5562522394619331  0.0887290480622108  0.0942287578704265   T   T   T
  0.4305643927902634  0.1714392568954062  0.0927039203474083   T   T   T
  0.4310173466675802  0.3365646386642525  0.1007045570637127   T   T   T
  0.4304332415510297  0.8409222041792457  0.0980269268312057   T   T   T
  0.8070261951571565  0.0891864061965467  0.0882736275069648   T   T   T
  0.6820010377429619  0.1714459167782570  0.0931753931716256   T   T   T
  0.8055629488535702  0.9236903269549293  0.0890810112188183   T   T   T
  0.6814881469972152  0.3365612721811306  0.1011583757408605   T   T   T
  0.8072859913778766  0.5892349455069518  0.0989936297093804   T   T   T
  0.6820315682129374  0.8409154522520376  0.0984404288171856   T   T   T
  0.4234090245704237  0.6781009526585696  0.1128630089316735   T   T   T
  0.5561463991757578  0.4119405241122341  0.1156468370289906   T   T   T
  0.6889325846571210  0.6780727549050194  0.1132955549006877   T   T   T
  0.5562374035504848  0.9221469745160810  0.0970370034757668   T   T   T
  0.3067391683022012  0.4224352889104949  0.0970325785199992   T   T   T
  0.8058215909400712  0.4224090247073152  0.0978637627418217   T   T   T
  0.5558505288704496  0.5912314677070403  0.1636856614279159   T   T   T
 
  0.00000000E+00  0.00000000E+00  0.00000000E+00
  0.00000000E+00  0.00000000E+00  0.00000000E+00
  0.00000000E+00  0.00000000E+00  0.00000000E+00
  0.00000000E+00  0.00000000E+00  0.00000000E+00
  0.00000000E+00  0.00000000E+00  0.00000000E+00
  0.00000000E+00  0.00000000E+00  0.00000000E+00
  0.00000000E+00  0.00000000E+00  0.00000000E+00
  0.00000000E+00  0.00000000E+00  0.00000000E+00
  0.00000000E+00  0.00000000E+00  0.00000000E+00
  0.00000000E+00  0.00000000E+00  0.00000000E+00
  0.00000000E+00  0.00000000E+00  0.00000000E+00
  0.00000000E+00  0.00000000E+00  0.00000000E+00
  0.00000000E+00  0.00000000E+00  0.00000000E+00
  0.00000000E+00  0.00000000E+00  0.00000000E+00
  0.00000000E+00  0.00000000E+00  0.00000000E+00
  0.00000000E+00  0.00000000E+00  0.00000000E+00
  0.00000000E+00  0.00000000E+00  0.00000000E+00
  0.00000000E+00  0.00000000E+00  0.00000000E+00
  0.00000000E+00  0.00000000E+00  0.00000000E+00
  0.00000000E+00  0.00000000E+00  0.00000000E+00
  0.00000000E+00  0.00000000E+00  0.00000000E+00
  0.00000000E+00  0.00000000E+00  0.00000000E+00
  0.00000000E+00  0.00000000E+00  0.00000000E+00
  0.00000000E+00  0.00000000E+00  0.00000000E+00
  0.00000000E+00  0.00000000E+00  0.00000000E+00
  0.00000000E+00  0.00000000E+00  0.00000000E+00
  0.00000000E+00  0.00000000E+00  0.00000000E+00
  0.00000000E+00  0.00000000E+00  0.00000000E+00
  0.00000000E+00  0.00000000E+00  0.00000000E+00
  0.00000000E+00  0.00000000E+00  0.00000000E+00
  0.00000000E+00  0.00000000E+00  0.00000000E+00
  0.00000000E+00  0.00000000E+00  0.00000000E+00
