Title                                   
   1.00000000000000     
     9.8694509999999998    0.0000000000000000    0.0000000000000000
     0.0000000000000000    8.5490480000000009    0.0000000000000000
     0.0000000000000000    0.0000000000000000   20.0000000000000000
    30     1     1
Selective dynamics
Direct
  0.0563604007879254  0.0908494810589075  0.0813786676738758   T   T   T
  0.9312122208874422  0.1731205012647702  0.0836092460423786   T   T   T
  0.0557379560223784  0.9237392268288652  0.0818796334800727   T   T   T
  0.9311218081147946  0.3398362736515531  0.0871823794044752   T   T   T
  0.0566515371444404  0.5891644550340718  0.0846782578125936   T   T   T
  0.9326146812362232  0.6726284844243903  0.0882694079844434   T   T   T
  0.0568318830896632  0.4231551273039719  0.0852118068176494   T   T   T
  0.9315494730906796  0.8395138341800251  0.0852373535508052   T   T   T
  0.3056768208625839  0.0898629732777764  0.0857189685751470   T   T   T
  0.1817094734061716  0.1740701531591675  0.0835829829180340   T   T   T
  0.3044131074634439  0.9236042084444201  0.0877835794878959   T   T   T
  0.1827180288436774  0.3414790617370650  0.0866576974417884   T   T   T
  0.3030903515885653  0.5929402937425245  0.0980909733145966   T   T   T
  0.1802867076918337  0.6739370793727677  0.0869059874632045   T   T   T
  0.3075373524809665  0.4243555514744752  0.0963855369670788   T   T   T
  0.1798608383179791  0.8405813727173230  0.0849724083186080   T   T   T
  0.5556703339910325  0.0859133002611317  0.0934258979494756   T   T   T
  0.4308290501292379  0.1707329310766895  0.0918814993386560   T   T   T
  0.5552803948976885  0.9196331431577381  0.0983595704760074   T   T   T
  0.4309343926213905  0.3352590488005096  0.1017759120045382   T   T   T
  0.5569987428716333  0.4047428891641705  0.1202210304984061   T   T   T
  0.4262435542747148  0.8404342134993782  0.0991688900008642   T   T   T
  0.8068755769709864  0.0888942888971605  0.0859280480350688   T   T   T
  0.6818436577630735  0.1695215837727717  0.0926867193793180   T   T   T
  0.8068395920301913  0.9227311976353938  0.0880164765691707   T   T   T
  0.6832566650195071  0.3336543284926051  0.1033262767487241   T   T   T
  0.8109573252474435  0.5893503748835885  0.1014283144205003   T   T   T
  0.6951803883224805  0.6802406933733750  0.1185076097659234   T   T   T
  0.8074778798784867  0.4214002934993568  0.0984740230082254   T   T   T
  0.6839706247916364  0.8405804894671722  0.1005528311880955   T   T   T
  0.4163503942420511  0.6822076333089500  0.1139776538192705   T   T   T
  0.5535577859196836  0.5921115130379426  0.1703993595451429   T   T   T
 
  0.00000000E+00  0.00000000E+00  0.00000000E+00
  0.00000000E+00  0.00000000E+00  0.00000000E+00
  0.00000000E+00  0.00000000E+00  0.00000000E+00
  0.00000000E+00  0.00000000E+00  0.00000000E+00
  0.00000000E+00  0.00000000E+00  0.00000000E+00
  0.00000000E+00  0.00000000E+00  0.00000000E+00
  0.00000000E+00  0.00000000E+00  0.00000000E+00
  0.00000000E+00  0.00000000E+00  0.00000000E+00
  0.00000000E+00  0.00000000E+00  0.00000000E+00
  0.00000000E+00  0.00000000E+00  0.00000000E+00
  0.00000000E+00  0.00000000E+00  0.00000000E+00
  0.00000000E+00  0.00000000E+00  0.00000000E+00
  0.00000000E+00  0.00000000E+00  0.00000000E+00
  0.00000000E+00  0.00000000E+00  0.00000000E+00
  0.00000000E+00  0.00000000E+00  0.00000000E+00
  0.00000000E+00  0.00000000E+00  0.00000000E+00
  0.00000000E+00  0.00000000E+00  0.00000000E+00
  0.00000000E+00  0.00000000E+00  0.00000000E+00
  0.00000000E+00  0.00000000E+00  0.00000000E+00
  0.00000000E+00  0.00000000E+00  0.00000000E+00
  0.00000000E+00  0.00000000E+00  0.00000000E+00
  0.00000000E+00  0.00000000E+00  0.00000000E+00
  0.00000000E+00  0.00000000E+00  0.00000000E+00
  0.00000000E+00  0.00000000E+00  0.00000000E+00
  0.00000000E+00  0.00000000E+00  0.00000000E+00
  0.00000000E+00  0.00000000E+00  0.00000000E+00
  0.00000000E+00  0.00000000E+00  0.00000000E+00
  0.00000000E+00  0.00000000E+00  0.00000000E+00
  0.00000000E+00  0.00000000E+00  0.00000000E+00
  0.00000000E+00  0.00000000E+00  0.00000000E+00
  0.00000000E+00  0.00000000E+00  0.00000000E+00
  0.00000000E+00  0.00000000E+00  0.00000000E+00
