Title                                   
   1.00000000000000     
     9.8694509999999998    0.0000000000000000    0.0000000000000000
     0.0000000000000000    8.5490480000000009    0.0000000000000000
     0.0000000000000000    0.0000000000000000   20.0000000000000000
    26     5     1
Selective dynamics
Direct
  0.0560578000352987  0.0915993940964346  0.0842855602166692   T   T   T
  0.9310803843575752  0.1746215438052187  0.0840592099993679   T   T   T
  0.0574444859558653  0.9233483298899952  0.0849120822675105   T   T   T
  0.9291158923625786  0.3424252516457698  0.0854121847160651   T   T   T
  0.0569278045148500  0.5916401908572839  0.0878842135394991   T   T   T
  0.0557780614607436  0.4247065954343782  0.0879973123498127   T   T   T
  0.9337383147892278  0.8396869518700080  0.0857899547409585   T   T   T
  0.3060442074045094  0.0877884654998595  0.0898345395886939   T   T   T
  0.1824374937537402  0.1734468545190633  0.0871872323430856   T   T   T
  0.1828793638803118  0.3410655089283018  0.0911394429918744   T   T   T
  0.3027745730597975  0.5909123084306157  0.1092078623154546   T   T   T
  0.1813481336053082  0.6747734025010921  0.0930492788237575   T   T   T
  0.3078288760265819  0.4227573529372710  0.1018751374156620   T   T   T
  0.1828569567359367  0.8417639431454962  0.0891853735726873   T   T   T
  0.5568489167467813  0.0837818482054006  0.0952253385008684   T   T   T
  0.5554144143119428  0.9189060711447109  0.1044745835352968   T   T   T
  0.4341595225515730  0.3329363325437339  0.0998304041427970   T   T   T
  0.4251351922107775  0.8399270529249047  0.1128942777638719   T   T   T
  0.8068348331801134  0.0882459157338789  0.0858196684470247   T   T   T
  0.6798327773319424  0.1688705754888372  0.0888256366878077   T   T   T
  0.8077262067136393  0.9227270555454312  0.0882468384507501   T   T   T
  0.6776408428245640  0.3362901425724157  0.0910166558884721   T   T   T
  0.8079688485110768  0.5959899772627638  0.0924816742848351   T   T   T
  0.8027376413991510  0.4257483512226345  0.0883575260191399   T   T   T
  0.6848180580365265  0.8386765222131500  0.0991754551578189   T   T   T
  0.4114158149049271  0.6856956764174785  0.1337346915812928   T   T   T
  0.5538072963513638  0.4048784757659085  0.1002410365191821   T   T   T
  0.6962482830564775  0.6791736116880178  0.1043779034791107   T   T   T
  0.3056798703800668  0.9242616819026458  0.0918064918753733   T   T   T
  0.4294828908483622  0.1657743805377321  0.0944935434679389   T   T   T
  0.9339977881949972  0.6737003593054428  0.0862281670858021   T   T   T
  0.5635774545033977  0.5841258759641268  0.1666257222315355   T   T   T
 
  0.00000000E+00  0.00000000E+00  0.00000000E+00
  0.00000000E+00  0.00000000E+00  0.00000000E+00
  0.00000000E+00  0.00000000E+00  0.00000000E+00
  0.00000000E+00  0.00000000E+00  0.00000000E+00
  0.00000000E+00  0.00000000E+00  0.00000000E+00
  0.00000000E+00  0.00000000E+00  0.00000000E+00
  0.00000000E+00  0.00000000E+00  0.00000000E+00
  0.00000000E+00  0.00000000E+00  0.00000000E+00
  0.00000000E+00  0.00000000E+00  0.00000000E+00
  0.00000000E+00  0.00000000E+00  0.00000000E+00
  0.00000000E+00  0.00000000E+00  0.00000000E+00
  0.00000000E+00  0.00000000E+00  0.00000000E+00
  0.00000000E+00  0.00000000E+00  0.00000000E+00
  0.00000000E+00  0.00000000E+00  0.00000000E+00
  0.00000000E+00  0.00000000E+00  0.00000000E+00
  0.00000000E+00  0.00000000E+00  0.00000000E+00
  0.00000000E+00  0.00000000E+00  0.00000000E+00
  0.00000000E+00  0.00000000E+00  0.00000000E+00
  0.00000000E+00  0.00000000E+00  0.00000000E+00
  0.00000000E+00  0.00000000E+00  0.00000000E+00
  0.00000000E+00  0.00000000E+00  0.00000000E+00
  0.00000000E+00  0.00000000E+00  0.00000000E+00
  0.00000000E+00  0.00000000E+00  0.00000000E+00
  0.00000000E+00  0.00000000E+00  0.00000000E+00
  0.00000000E+00  0.00000000E+00  0.00000000E+00
  0.00000000E+00  0.00000000E+00  0.00000000E+00
  0.00000000E+00  0.00000000E+00  0.00000000E+00
  0.00000000E+00  0.00000000E+00  0.00000000E+00
  0.00000000E+00  0.00000000E+00  0.00000000E+00
  0.00000000E+00  0.00000000E+00  0.00000000E+00
  0.00000000E+00  0.00000000E+00  0.00000000E+00
  0.00000000E+00  0.00000000E+00  0.00000000E+00
