Title                                   
   1.00000000000000     
     8.5490480000000009    0.0000000000000000    0.0000000000000000
     0.0000000000000000    8.5490480000000009    0.0000000000000000
     0.0000000000000000    0.0000000000000000   20.0000000000000000
    23     1     1
Selective dynamics
Direct
  0.9106978424381047  0.2053413135046270  0.0975130189198673   T   T   T
  0.9096943804761453  0.5027222740257368  0.0976120772096172   T   T   T
  0.9127122014780443  0.8010243190227215  0.0975110816750799   T   T   T
  0.1980607790278257  0.0815932967327877  0.0977198638586965   T   T   T
  0.0740081139035916  0.2034705178301111  0.0976091848031240   T   T   T
  0.1585542816291337  0.6498692256652411  0.0977691106026629   T   T   T
  0.0776667129828770  0.5016634900992890  0.0976779777866037   T   T   T
  0.1574552903937233  0.3541687376377872  0.0977498596048066   T   T   T
  0.0771349529618902  0.7988749448154147  0.0976442301091379   T   T   T
  0.4925134441067586  0.0853880127933624  0.0977738534520359   T   T   T
  0.3450880910700608  0.1637327756509259  0.0978498849081054   T   T   T
  0.4916706731698720  0.9178561088035266  0.0977090645167153   T   T   T
  0.3452463797013335  0.8365164814086242  0.0977821263356619   T   T   T
  0.7877832245887804  0.0836084247466118  0.0975350525219221   T   T   T
  0.6387873356855850  0.1667139810982073  0.0977893748839567   T   T   T
  0.7883418018170568  0.9210533366359105  0.0974936024816080   T   T   T
  0.8308212290278100  0.6503955441810585  0.0976336278555709   T   T   T
  0.8283977147037238  0.3553271088300144  0.0976699207266156   T   T   T
  0.6388696839948950  0.8366265451005397  0.0976677016654284   T   T   T
  0.3227313109418027  0.3318919260714014  0.0980129454787405   T   T   T
  0.3230016922861901  0.6721353923765976  0.0979536615581915   T   T   T
  0.6618004725865555  0.3329861612790902  0.0980116580550738   T   T   T
  0.6629038609266718  0.6716135395955378  0.0978976904043821   T   T   T
  0.1978035001568948  0.9189586175906838  0.0977378978554669   T   T   T
  0.4936670299446596  0.5012579245041993  0.0983805327309089   T   T   T
 
  0.00000000E+00  0.00000000E+00  0.00000000E+00
  0.00000000E+00  0.00000000E+00  0.00000000E+00
  0.00000000E+00  0.00000000E+00  0.00000000E+00
  0.00000000E+00  0.00000000E+00  0.00000000E+00
  0.00000000E+00  0.00000000E+00  0.00000000E+00
  0.00000000E+00  0.00000000E+00  0.00000000E+00
  0.00000000E+00  0.00000000E+00  0.00000000E+00
  0.00000000E+00  0.00000000E+00  0.00000000E+00
  0.00000000E+00  0.00000000E+00  0.00000000E+00
  0.00000000E+00  0.00000000E+00  0.00000000E+00
  0.00000000E+00  0.00000000E+00  0.00000000E+00
  0.00000000E+00  0.00000000E+00  0.00000000E+00
  0.00000000E+00  0.00000000E+00  0.00000000E+00
  0.00000000E+00  0.00000000E+00  0.00000000E+00
  0.00000000E+00  0.00000000E+00  0.00000000E+00
  0.00000000E+00  0.00000000E+00  0.00000000E+00
  0.00000000E+00  0.00000000E+00  0.00000000E+00
  0.00000000E+00  0.00000000E+00  0.00000000E+00
  0.00000000E+00  0.00000000E+00  0.00000000E+00
  0.00000000E+00  0.00000000E+00  0.00000000E+00
  0.00000000E+00  0.00000000E+00  0.00000000E+00
  0.00000000E+00  0.00000000E+00  0.00000000E+00
  0.00000000E+00  0.00000000E+00  0.00000000E+00
  0.00000000E+00  0.00000000E+00  0.00000000E+00
  0.00000000E+00  0.00000000E+00  0.00000000E+00
