Title                                   
   1.00000000000000     
     9.8694509999999998    0.0000000000000000    0.0000000000000000
     0.0000000000000000    8.5490480000000009    0.0000000000000000
     0.0000000000000000    0.0000000000000000   20.0000000000000000
    28     3     1
Selective dynamics
Direct
  0.0558915264016749  0.0891867608425858  0.0833348580773260   T   T   T
  0.9312537476553215  0.1734019159310855  0.0839834728865004   T   T   T
  0.0570282826916517  0.9220166919672345  0.0842268208403960   T   T   T
  0.9310694076609567  0.3402080782462273  0.0862482639855976   T   T   T
  0.0563689296787948  0.5910381103510590  0.0866253842300702   T   T   T
  0.0558529874520636  0.4239274177981880  0.0860924703855051   T   T   T
  0.9323202876876810  0.8380413769678878  0.0865075878770395   T   T   T
  0.3059195246221982  0.0889105901665259  0.0880003170854062   T   T   T
  0.1817081341327035  0.1726209942052270  0.0856932982606521   T   T   T
  0.1814660378086101  0.3397704363702598  0.0881504660046219   T   T   T
  0.3039327753307373  0.5887745511992796  0.1010695502739812   T   T   T
  0.1811419688016285  0.6740086870760348  0.0898848391484575   T   T   T
  0.3061942070548006  0.4212657278862652  0.0980541898668069   T   T   T
  0.1827489398726664  0.8408281128975659  0.0873314567144362   T   T   T
  0.5558798423225961  0.0886527561507151  0.0925802030958556   T   T   T
  0.5545753844033814  0.9233028815484556  0.0992325666446123   T   T   T
  0.4303712329110476  0.3334113288972716  0.1027445565162063   T   T   T
  0.4277431282490921  0.8410570184992977  0.1033528303510487   T   T   T
  0.8066301698363818  0.0885894369701283  0.0858970702966107   T   T   T
  0.6805340157346562  0.1717963767945218  0.0902871152395115   T   T   T
  0.8067652963915409  0.9224076655144665  0.0887498865778060   T   T   T
  0.6823425634851952  0.3378837157734154  0.0993641431389712   T   T   T
  0.8097043382291180  0.5921207801702415  0.0999721323562527   T   T   T
  0.8067550592294132  0.4239423409027812  0.0953389683523086   T   T   T
  0.6822326335742029  0.8418203998336320  0.1004569954636634   T   T   T
  0.4198811189913254  0.6808538373599972  0.1176235404662348   T   T   T
  0.5554381758621281  0.4069602174204224  0.1161236431579797   T   T   T
  0.6927835248906113  0.6794630714883231  0.1159928913718710   T   T   T
  0.3057351214837534  0.9250922542042167  0.0896333948422379   T   T   T
  0.4288968933174732  0.1687528511736927  0.0924892964758170   T   T   T
  0.9326761271375561  0.6728195169499871  0.0881486657752085   T   T   T
  0.5577976170990429  0.5873200984430079  0.1724841242410239   T   T   T
 
  0.00000000E+00  0.00000000E+00  0.00000000E+00
  0.00000000E+00  0.00000000E+00  0.00000000E+00
  0.00000000E+00  0.00000000E+00  0.00000000E+00
  0.00000000E+00  0.00000000E+00  0.00000000E+00
  0.00000000E+00  0.00000000E+00  0.00000000E+00
  0.00000000E+00  0.00000000E+00  0.00000000E+00
  0.00000000E+00  0.00000000E+00  0.00000000E+00
  0.00000000E+00  0.00000000E+00  0.00000000E+00
  0.00000000E+00  0.00000000E+00  0.00000000E+00
  0.00000000E+00  0.00000000E+00  0.00000000E+00
  0.00000000E+00  0.00000000E+00  0.00000000E+00
  0.00000000E+00  0.00000000E+00  0.00000000E+00
  0.00000000E+00  0.00000000E+00  0.00000000E+00
  0.00000000E+00  0.00000000E+00  0.00000000E+00
  0.00000000E+00  0.00000000E+00  0.00000000E+00
  0.00000000E+00  0.00000000E+00  0.00000000E+00
  0.00000000E+00  0.00000000E+00  0.00000000E+00
  0.00000000E+00  0.00000000E+00  0.00000000E+00
  0.00000000E+00  0.00000000E+00  0.00000000E+00
  0.00000000E+00  0.00000000E+00  0.00000000E+00
  0.00000000E+00  0.00000000E+00  0.00000000E+00
  0.00000000E+00  0.00000000E+00  0.00000000E+00
  0.00000000E+00  0.00000000E+00  0.00000000E+00
  0.00000000E+00  0.00000000E+00  0.00000000E+00
  0.00000000E+00  0.00000000E+00  0.00000000E+00
  0.00000000E+00  0.00000000E+00  0.00000000E+00
  0.00000000E+00  0.00000000E+00  0.00000000E+00
  0.00000000E+00  0.00000000E+00  0.00000000E+00
  0.00000000E+00  0.00000000E+00  0.00000000E+00
  0.00000000E+00  0.00000000E+00  0.00000000E+00
  0.00000000E+00  0.00000000E+00  0.00000000E+00
  0.00000000E+00  0.00000000E+00  0.00000000E+00
