Title                                   
   1.00000000000000     
     9.8694509999999998    0.0000000000000000    0.0000000000000000
     0.0000000000000000    8.5490480000000009    0.0000000000000000
     0.0000000000000000    0.0000000000000000   20.0000000000000000
    27     4     1
Selective dynamics
Direct
  0.0559855630768633  0.0912404169357155  0.0863971680910336   T   T   T
  0.9309258451458490  0.1748843263771446  0.0869646615798633   T   T   T
  0.0579786538900574  0.9240524060793106  0.0864452249291294   T   T   T
  0.9291393648825176  0.3425075504366272  0.0886883550523856   T   T   T
  0.0572344813070427  0.5907911328341146  0.0877396261059006   T   T   T
  0.9327281274605748  0.6740159695503743  0.0883934738571132   T   T   T
  0.0559371639544975  0.4232279385434170  0.0887946824192179   T   T   T
  0.9332335226400285  0.8407052967053805  0.0874741889377845   T   T   T
  0.3058678815834754  0.0876666496988013  0.0907244577429549   T   T   T
  0.1822011314913017  0.1726593205407263  0.0884893354302220   T   T   T
  0.1819083723766337  0.3392184622475325  0.0908135569794684   T   T   T
  0.3054160490630805  0.5886785208486237  0.1026528709780664   T   T   T
  0.1823485331689474  0.6737083395993679  0.0913237322871381   T   T   T
  0.3075284198209947  0.4210670033286965  0.0984163370157034   T   T   T
  0.1824328207799219  0.8404616202325123  0.0895953344457697   T   T   T
  0.5566601788674512  0.0855344481092940  0.0949190291260004   T   T   T
  0.5556878356681814  0.9215491856963799  0.1010177139231720   T   T   T
  0.4317336987331523  0.3320244572255460  0.0993278251972777   T   T   T
  0.4280507435725097  0.8401694487723790  0.1060683311365112   T   T   T
  0.8061679277596751  0.0898766666683615  0.0878664497933912   T   T   T
  0.6796158149719567  0.1706105604190858  0.0910678210673930   T   T   T
  0.8079808776858729  0.9247307327729732  0.0894081071546576   T   T   T
  0.6777502574866069  0.3363700914851466  0.0950083617188252   T   T   T
  0.8068353886726752  0.5950087121126640  0.0945860215795914   T   T   T
  0.8011050314011695  0.4258863966376794  0.0927394912122176   T   T   T
  0.6848100298842124  0.8404516498924793  0.0982651062830325   T   T   T
  0.4195364291066221  0.6812688575362594  0.1196012090991147   T   T   T
  0.5521635672781241  0.4056087912862860  0.1040498637090463   T   T   T
  0.6905784587506750  0.6816930414720908  0.1047321110717481   T   T   T
  0.3063997998814955  0.9248829410416665  0.0923397101240128   T   T   T
  0.4289288468189493  0.1668111717707393  0.0943392950706567   T   T   T
  0.5647681828188914  0.5828838931426281  0.1674255468816170   T   T   T
 
  0.00000000E+00  0.00000000E+00  0.00000000E+00
  0.00000000E+00  0.00000000E+00  0.00000000E+00
  0.00000000E+00  0.00000000E+00  0.00000000E+00
  0.00000000E+00  0.00000000E+00  0.00000000E+00
  0.00000000E+00  0.00000000E+00  0.00000000E+00
  0.00000000E+00  0.00000000E+00  0.00000000E+00
  0.00000000E+00  0.00000000E+00  0.00000000E+00
  0.00000000E+00  0.00000000E+00  0.00000000E+00
  0.00000000E+00  0.00000000E+00  0.00000000E+00
  0.00000000E+00  0.00000000E+00  0.00000000E+00
  0.00000000E+00  0.00000000E+00  0.00000000E+00
  0.00000000E+00  0.00000000E+00  0.00000000E+00
  0.00000000E+00  0.00000000E+00  0.00000000E+00
  0.00000000E+00  0.00000000E+00  0.00000000E+00
  0.00000000E+00  0.00000000E+00  0.00000000E+00
  0.00000000E+00  0.00000000E+00  0.00000000E+00
  0.00000000E+00  0.00000000E+00  0.00000000E+00
  0.00000000E+00  0.00000000E+00  0.00000000E+00
  0.00000000E+00  0.00000000E+00  0.00000000E+00
  0.00000000E+00  0.00000000E+00  0.00000000E+00
  0.00000000E+00  0.00000000E+00  0.00000000E+00
  0.00000000E+00  0.00000000E+00  0.00000000E+00
  0.00000000E+00  0.00000000E+00  0.00000000E+00
  0.00000000E+00  0.00000000E+00  0.00000000E+00
  0.00000000E+00  0.00000000E+00  0.00000000E+00
  0.00000000E+00  0.00000000E+00  0.00000000E+00
  0.00000000E+00  0.00000000E+00  0.00000000E+00
  0.00000000E+00  0.00000000E+00  0.00000000E+00
  0.00000000E+00  0.00000000E+00  0.00000000E+00
  0.00000000E+00  0.00000000E+00  0.00000000E+00
  0.00000000E+00  0.00000000E+00  0.00000000E+00
  0.00000000E+00  0.00000000E+00  0.00000000E+00
