Title                                   
   1.00000000000000     
     9.8694509999999998    0.0000000000000000    0.0000000000000000
     0.0000000000000000    8.5490480000000009    0.0000000000000000
     0.0000000000000000    0.0000000000000000   20.0000000000000000
    30     1     1
Selective dynamics
Direct
  0.0562553165088790  0.0899189170971172  0.0815147655963022   T   T   T
  0.9310982952801726  0.1733115390784416  0.0839020539438941   T   T   T
  0.0562426381108966  0.9228800533148418  0.0816853128511162   T   T   T
  0.9304070820820252  0.3403970389819017  0.0881453062206353   T   T   T
  0.0562386014490953  0.5891672759145908  0.0862430087489193   T   T   T
  0.9312350719532861  0.6724597771781949  0.0881643755633772   T   T   T
  0.0562314498978101  0.4229576804218109  0.0869700159836438   T   T   T
  0.9308497818974371  0.8393379690536036  0.0846064405518064   T   T   T
  0.3053346587851760  0.0893401864174855  0.0849801437684795   T   T   T
  0.1813929773122646  0.1733262679030959  0.0838796073796323   T   T   T
  0.3066963518422691  0.9235912462998604  0.0860150209119823   T   T   T
  0.1820669711254455  0.3404215928494674  0.0881388118146746   T   T   T
  0.3048815564266913  0.5913704908540856  0.1001119225749221   T   T   T
  0.1812434046781493  0.6724656531742983  0.0881593244657056   T   T   T
  0.3065517679807760  0.4226962821955739  0.0979230191573568   T   T   T
  0.1816147047994385  0.8393385055866112  0.0846004406218397   T   T   T
  0.5562449933099008  0.0869609805845371  0.0923970611029163   T   T   T
  0.4307873950700565  0.1696916830971674  0.0913614161108165   T   T   T
  0.4309055102415702  0.3344847727524135  0.1017924841256051   T   T   T
  0.4234249402138318  0.6823297207369702  0.1158634132946327   T   T   T
  0.5562130171750087  0.4065577890956036  0.1180578965936176   T   T   T
  0.4303743323986485  0.8417748263465960  0.0976954859413721   T   T   T
  0.8071531359426407  0.0893235419572278  0.0850085007695141   T   T   T
  0.6817157843174271  0.1696875170573374  0.0913997320187875   T   T   T
  0.8057687140964455  0.9235782170909460  0.0860363240800202   T   T   T
  0.6815608363765633  0.3344734149896679  0.1018253429582340   T   T   T
  0.8076193887053766  0.5913623752623469  0.1001295558394123   T   T   T
  0.6890963483576836  0.6823233369843360  0.1158976078128505   T   T   T
  0.8059209380838226  0.4226818389298370  0.0979446656335430   T   T   T
  0.6820826545405152  0.8417540996460270  0.0977105705831380   T   T   T
  0.5562285926033040  0.9228208647609673  0.0962064196058645   T   T   T
  0.5562017884373996  0.5874605443870479  0.1813089533754227   T   T   T
 
  0.00000000E+00  0.00000000E+00  0.00000000E+00
  0.00000000E+00  0.00000000E+00  0.00000000E+00
  0.00000000E+00  0.00000000E+00  0.00000000E+00
  0.00000000E+00  0.00000000E+00  0.00000000E+00
  0.00000000E+00  0.00000000E+00  0.00000000E+00
  0.00000000E+00  0.00000000E+00  0.00000000E+00
  0.00000000E+00  0.00000000E+00  0.00000000E+00
  0.00000000E+00  0.00000000E+00  0.00000000E+00
  0.00000000E+00  0.00000000E+00  0.00000000E+00
  0.00000000E+00  0.00000000E+00  0.00000000E+00
  0.00000000E+00  0.00000000E+00  0.00000000E+00
  0.00000000E+00  0.00000000E+00  0.00000000E+00
  0.00000000E+00  0.00000000E+00  0.00000000E+00
  0.00000000E+00  0.00000000E+00  0.00000000E+00
  0.00000000E+00  0.00000000E+00  0.00000000E+00
  0.00000000E+00  0.00000000E+00  0.00000000E+00
  0.00000000E+00  0.00000000E+00  0.00000000E+00
  0.00000000E+00  0.00000000E+00  0.00000000E+00
  0.00000000E+00  0.00000000E+00  0.00000000E+00
  0.00000000E+00  0.00000000E+00  0.00000000E+00
  0.00000000E+00  0.00000000E+00  0.00000000E+00
  0.00000000E+00  0.00000000E+00  0.00000000E+00
  0.00000000E+00  0.00000000E+00  0.00000000E+00
  0.00000000E+00  0.00000000E+00  0.00000000E+00
  0.00000000E+00  0.00000000E+00  0.00000000E+00
  0.00000000E+00  0.00000000E+00  0.00000000E+00
  0.00000000E+00  0.00000000E+00  0.00000000E+00
  0.00000000E+00  0.00000000E+00  0.00000000E+00
  0.00000000E+00  0.00000000E+00  0.00000000E+00
  0.00000000E+00  0.00000000E+00  0.00000000E+00
  0.00000000E+00  0.00000000E+00  0.00000000E+00
  0.00000000E+00  0.00000000E+00  0.00000000E+00
