Title                                   
   1.00000000000000     
     9.8694509999999998    0.0000000000000000    0.0000000000000000
     0.0000000000000000    8.5490480000000009    0.0000000000000000
     0.0000000000000000    0.0000000000000000   20.0000000000000000
    28     3     1
Selective dynamics
Direct
  0.0560928866996812  0.0909088254272931  0.0854214691035514   T   T   T
  0.9311591230808690  0.1741039613565206  0.0863040008789157   T   T   T
  0.0576747234715376  0.9237407398478351  0.0845533871133940   T   T   T
  0.9304385464487922  0.3419866363142353  0.0882216611439569   T   T   T
  0.0570451315365439  0.5906263924313966  0.0869178900858353   T   T   T
  0.9325863230499177  0.6739436802981164  0.0862833980744728   T   T   T
  0.0565148422724551  0.4232630870404788  0.0878840637182792   T   T   T
  0.9328898440444473  0.8403880180889969  0.0848541772714564   T   T   T
  0.3060174646504991  0.0878985818671047  0.0908762039531011   T   T   T
  0.1823618333579231  0.1723872073606583  0.0886363642004718   T   T   T
  0.1817985855169237  0.3393900416243686  0.0914782467524898   T   T   T
  0.3038423591746676  0.5878529233498500  0.1039151329363514   T   T   T
  0.1818631020398740  0.6739855680697657  0.0910049838335273   T   T   T
  0.3055270533080349  0.4207701255554703  0.1022584741149004   T   T   T
  0.1820619705053489  0.8403877643059219  0.0882048462406197   T   T   T
  0.5561107827150549  0.0862789963583291  0.0938241573402223   T   T   T
  0.5555347820541090  0.9209632634901075  0.0973260958055995   T   T   T
  0.4295647704588106  0.3320310275923574  0.1073373990224280   T   T   T
  0.4279605652254703  0.8397629401685334  0.1037456948613801   T   T   T
  0.8058537955461856  0.0896691236331143  0.0863342986579573   T   T   T
  0.6795371829354928  0.1711330994266058  0.0910953018647992   T   T   T
  0.8074014277394687  0.9241406120581586  0.0866739602201439   T   T   T
  0.6807565669487290  0.3369650104887478  0.1006200639091571   T   T   T
  0.8074664467786893  0.5932521304706823  0.0925593811341668   T   T   T
  0.8045780872098656  0.4248965901662217  0.0942068315432169   T   T   T
  0.6838420888125427  0.8398093424642870  0.0937716755539179   T   T   T
  0.4177041478404481  0.6816972052953525  0.1191086044545802   T   T   T
  0.5550017171632350  0.4024101545174666  0.1191065216033209   T   T   T
  0.6896982322887789  0.6793519662586592  0.0985452953206937   T   T   T
  0.3058890870562349  0.9247650394980769  0.0913751852184731   T   T   T
  0.4289291872629434  0.1669669194992730  0.0956936267494296   T   T   T
  0.5659363428064323  0.5945190256760177  0.1675366073192062   T   T   T
 
  0.00000000E+00  0.00000000E+00  0.00000000E+00
  0.00000000E+00  0.00000000E+00  0.00000000E+00
  0.00000000E+00  0.00000000E+00  0.00000000E+00
  0.00000000E+00  0.00000000E+00  0.00000000E+00
  0.00000000E+00  0.00000000E+00  0.00000000E+00
  0.00000000E+00  0.00000000E+00  0.00000000E+00
  0.00000000E+00  0.00000000E+00  0.00000000E+00
  0.00000000E+00  0.00000000E+00  0.00000000E+00
  0.00000000E+00  0.00000000E+00  0.00000000E+00
  0.00000000E+00  0.00000000E+00  0.00000000E+00
  0.00000000E+00  0.00000000E+00  0.00000000E+00
  0.00000000E+00  0.00000000E+00  0.00000000E+00
  0.00000000E+00  0.00000000E+00  0.00000000E+00
  0.00000000E+00  0.00000000E+00  0.00000000E+00
  0.00000000E+00  0.00000000E+00  0.00000000E+00
  0.00000000E+00  0.00000000E+00  0.00000000E+00
  0.00000000E+00  0.00000000E+00  0.00000000E+00
  0.00000000E+00  0.00000000E+00  0.00000000E+00
  0.00000000E+00  0.00000000E+00  0.00000000E+00
  0.00000000E+00  0.00000000E+00  0.00000000E+00
  0.00000000E+00  0.00000000E+00  0.00000000E+00
  0.00000000E+00  0.00000000E+00  0.00000000E+00
  0.00000000E+00  0.00000000E+00  0.00000000E+00
  0.00000000E+00  0.00000000E+00  0.00000000E+00
  0.00000000E+00  0.00000000E+00  0.00000000E+00
  0.00000000E+00  0.00000000E+00  0.00000000E+00
  0.00000000E+00  0.00000000E+00  0.00000000E+00
  0.00000000E+00  0.00000000E+00  0.00000000E+00
  0.00000000E+00  0.00000000E+00  0.00000000E+00
  0.00000000E+00  0.00000000E+00  0.00000000E+00
  0.00000000E+00  0.00000000E+00  0.00000000E+00
  0.00000000E+00  0.00000000E+00  0.00000000E+00
