Title                                   
   1.00000000000000     
     9.8694509999999998    0.0000000000000000    0.0000000000000000
     0.0000000000000000    8.5490480000000009    0.0000000000000000
     0.0000000000000000    0.0000000000000000   20.0000000000000000
    28     3     1
Selective dynamics
Direct
  0.0561996726973411  0.0920749088347927  0.0871364043103512   T   T   T
  0.9307195944394582  0.1745830665955283  0.0887763592189764   T   T   T
  0.0561891067458966  0.9249340723190335  0.0861136299700697   T   T   T
  0.9292863522950890  0.3416785722420247  0.0909500987043044   T   T   T
  0.0562343901869367  0.5894406083217091  0.0875471606397334   T   T   T
  0.9323577279490771  0.6737891473561957  0.0886344323462112   T   T   T
  0.0562268291432571  0.4234688141487426  0.0894105940340464   T   T   T
  0.9322580400989804  0.8405580771934952  0.0875468358667706   T   T   T
  0.3056603907768523  0.0896322587789292  0.0894156966969693   T   T   T
  0.1817074735636767  0.1745876255961711  0.0887344815339522   T   T   T
  0.3047787388393012  0.9233913727262822  0.0897394076824466   T   T   T
  0.1831690783784530  0.3416872025345826  0.0909271917549166   T   T   T
  0.3053131683278303  0.5936241294197565  0.0961428626238604   T   T   T
  0.1800952780090965  0.6738289953193692  0.0886169379495054   T   T   T
  0.3093930767181944  0.4244910907206053  0.0961718744098343   T   T   T
  0.1801486609122414  0.8405934959262720  0.0874801109076809   T   T   T
  0.5562061373872383  0.0833208772607019  0.0946735332107763   T   T   T
  0.4316220026526439  0.1691249091371211  0.0933720266187858   T   T   T
  0.5561978475722453  0.9164943740904907  0.0971159694740050   T   T   T
  0.4342829198710377  0.3349556980430107  0.0989862237397074   T   T   T
  0.4269836347788684  0.8369530568697282  0.0969327188303829   T   T   T
  0.8067903956360375  0.0896087243508990  0.0895059708614138   T   T   T
  0.6808227487392097  0.1690776850826328  0.0934006987856684   T   T   T
  0.8076527437330870  0.9233818310420826  0.0898640341876653   T   T   T
  0.6781936785963675  0.3348759533174057  0.0989853083015534   T   T   T
  0.8071937835218264  0.5935542504866020  0.0961730076677905   T   T   T
  0.8030734038234710  0.4244300313336200  0.0962038111280062   T   T   T
  0.6854321898432479  0.8369684516886108  0.0970078919865814   T   T   T
  0.4206116233776047  0.6789684674237692  0.1046630407641578   T   T   T
  0.5562564259293107  0.4073739909669336  0.1080154994247879   T   T   T
  0.6919688076283494  0.6789693759099432  0.1047203666116538   T   T   T
  0.5566130778277792  0.5898248849629685  0.1727108197574694   T   T   T
 
  0.00000000E+00  0.00000000E+00  0.00000000E+00
  0.00000000E+00  0.00000000E+00  0.00000000E+00
  0.00000000E+00  0.00000000E+00  0.00000000E+00
  0.00000000E+00  0.00000000E+00  0.00000000E+00
  0.00000000E+00  0.00000000E+00  0.00000000E+00
  0.00000000E+00  0.00000000E+00  0.00000000E+00
  0.00000000E+00  0.00000000E+00  0.00000000E+00
  0.00000000E+00  0.00000000E+00  0.00000000E+00
  0.00000000E+00  0.00000000E+00  0.00000000E+00
  0.00000000E+00  0.00000000E+00  0.00000000E+00
  0.00000000E+00  0.00000000E+00  0.00000000E+00
  0.00000000E+00  0.00000000E+00  0.00000000E+00
  0.00000000E+00  0.00000000E+00  0.00000000E+00
  0.00000000E+00  0.00000000E+00  0.00000000E+00
  0.00000000E+00  0.00000000E+00  0.00000000E+00
  0.00000000E+00  0.00000000E+00  0.00000000E+00
  0.00000000E+00  0.00000000E+00  0.00000000E+00
  0.00000000E+00  0.00000000E+00  0.00000000E+00
  0.00000000E+00  0.00000000E+00  0.00000000E+00
  0.00000000E+00  0.00000000E+00  0.00000000E+00
  0.00000000E+00  0.00000000E+00  0.00000000E+00
  0.00000000E+00  0.00000000E+00  0.00000000E+00
  0.00000000E+00  0.00000000E+00  0.00000000E+00
  0.00000000E+00  0.00000000E+00  0.00000000E+00
  0.00000000E+00  0.00000000E+00  0.00000000E+00
  0.00000000E+00  0.00000000E+00  0.00000000E+00
  0.00000000E+00  0.00000000E+00  0.00000000E+00
  0.00000000E+00  0.00000000E+00  0.00000000E+00
  0.00000000E+00  0.00000000E+00  0.00000000E+00
  0.00000000E+00  0.00000000E+00  0.00000000E+00
  0.00000000E+00  0.00000000E+00  0.00000000E+00
  0.00000000E+00  0.00000000E+00  0.00000000E+00
