Title                                   
   1.00000000000000     
     9.8694509999999998    0.0000000000000000    0.0000000000000000
     0.0000000000000000    8.5490480000000009    0.0000000000000000
     0.0000000000000000    0.0000000000000000   20.0000000000000000
    23     7     1
Selective dynamics
Direct
  0.0557494033250689  0.0893422134393003  0.0927141684076428   T   T   T
  0.9317341700351833  0.1716642294652827  0.0933590137681475   T   T   T
  0.0571137493654271  0.9211254706210071  0.0927412289798104   T   T   T
  0.9334578326731050  0.3388992861996055  0.0933866901720909   T   T   T
  0.0555001983899575  0.5905082216416554  0.0921154002468096   T   T   T
  0.0557515812627644  0.4240333014731559  0.0921422936123258   T   T   T
  0.9323352733408836  0.8385482271691188  0.0933897016281625   T   T   T
  0.3070062840177818  0.0885891131005535  0.0956385128835652   T   T   T
  0.1806825166235286  0.1710182631054497  0.0936934299803128   T   T   T
  0.1792638512592111  0.3390543654133550  0.0937009987262485   T   T   T
  0.3007357246477470  0.5903464007312633  0.0970907641659251   T   T   T
  0.1787540687117297  0.6740386710950241  0.0934421361485050   T   T   T
  0.3014742895636960  0.4207411439138148  0.0971743891722772   T   T   T
  0.1813476969488834  0.8412973148245448  0.0936619780183871   T   T   T
  0.4289357293561835  0.1762033475374356  0.0991233603717698   T   T   T
  0.5549381875717839  0.9194683219584140  0.1002632342557180   T   T   T
  0.4283004438887470  0.8365549978310326  0.0997308944408142   T   T   T
  0.8058532696710627  0.0885896718055642  0.0952603006457754   T   T   T
  0.6835965180370137  0.1775439436936331  0.0987177076462551   T   T   T
  0.8066450648640916  0.9211683816662732  0.0954156384127247   T   T   T
  0.8114468111503897  0.5915809219035426  0.0970052425152398   T   T   T
  0.8119027782394329  0.4209975067994267  0.0967543357768282   T   T   T
  0.6826941830899942  0.8366039392855794  0.0994272506938612   T   T   T
  0.9335006124696769  0.6725045731786318  0.0931142055314146   T   T   T
  0.5568551043163126  0.0959789267582204  0.1000970747414617   T   T   T
  0.4222596083312897  0.3376247880141355  0.1015603028210734   T   T   T
  0.4202579357194910  0.6751840662859550  0.1028482279301576   T   T   T
  0.6905222962479690  0.3385936399175786  0.1009594186104057   T   T   T
  0.6929593924758570  0.6732739329289820  0.1026126175420491   T   T   T
  0.3049809099774362  0.9227196445102698  0.0953780589195427   T   T   T
  0.5565805144283006  0.5070781737321935  0.1084464232347558   T   T   T
 
  0.00000000E+00  0.00000000E+00  0.00000000E+00
  0.00000000E+00  0.00000000E+00  0.00000000E+00
  0.00000000E+00  0.00000000E+00  0.00000000E+00
  0.00000000E+00  0.00000000E+00  0.00000000E+00
  0.00000000E+00  0.00000000E+00  0.00000000E+00
  0.00000000E+00  0.00000000E+00  0.00000000E+00
  0.00000000E+00  0.00000000E+00  0.00000000E+00
  0.00000000E+00  0.00000000E+00  0.00000000E+00
  0.00000000E+00  0.00000000E+00  0.00000000E+00
  0.00000000E+00  0.00000000E+00  0.00000000E+00
  0.00000000E+00  0.00000000E+00  0.00000000E+00
  0.00000000E+00  0.00000000E+00  0.00000000E+00
  0.00000000E+00  0.00000000E+00  0.00000000E+00
  0.00000000E+00  0.00000000E+00  0.00000000E+00
  0.00000000E+00  0.00000000E+00  0.00000000E+00
  0.00000000E+00  0.00000000E+00  0.00000000E+00
  0.00000000E+00  0.00000000E+00  0.00000000E+00
  0.00000000E+00  0.00000000E+00  0.00000000E+00
  0.00000000E+00  0.00000000E+00  0.00000000E+00
  0.00000000E+00  0.00000000E+00  0.00000000E+00
  0.00000000E+00  0.00000000E+00  0.00000000E+00
  0.00000000E+00  0.00000000E+00  0.00000000E+00
  0.00000000E+00  0.00000000E+00  0.00000000E+00
  0.00000000E+00  0.00000000E+00  0.00000000E+00
  0.00000000E+00  0.00000000E+00  0.00000000E+00
  0.00000000E+00  0.00000000E+00  0.00000000E+00
  0.00000000E+00  0.00000000E+00  0.00000000E+00
  0.00000000E+00  0.00000000E+00  0.00000000E+00
  0.00000000E+00  0.00000000E+00  0.00000000E+00
  0.00000000E+00  0.00000000E+00  0.00000000E+00
  0.00000000E+00  0.00000000E+00  0.00000000E+00
