Title                                   
   1.00000000000000     
     4.9440799999999996    0.0000000000000000    0.0000000000000000
     0.0000000000000000    8.5647549999999999    0.0000000000000000
     0.0000000000000000    0.0000000000000000   20.0000000000000000
    12     3     1
Selective dynamics
Direct
  0.2500000000000000  0.2113451379116786  0.0925307277900381   T   T   T
 -0.0045746415310236  0.2918519369925925  0.0944081014957661   T   T   T
  0.2500000000000000  0.0438654056199085  0.0887736963981306   T   T   T
  0.0022309103493251  0.7949195438010295  0.0996707501588425   T   T   T
  0.0001046752064449  0.9593618149088551  0.0881762070739738   T   T   T
  0.7500000000000000  0.2074527397289022  0.0860349068117498   T   T   T
  0.5045746415310236  0.2918519369925925  0.0944081014957661   T   T   T
  0.7500000000000000  0.0414811632536416  0.0834039244199715   T   T   T
  0.7500000000000000  0.7050131141745056  0.1036135033886868   T   T   T
  0.4977690896506749  0.7949195438010295  0.0996707501588425   T   T   T
  0.7500000000000000  0.5343606656581598  0.1063154277091492   T   T   T
  0.4998953247935551  0.9593618149088551  0.0881762070739738   T   T   T
  0.5162610375611628  0.4487115478495824  0.1081571594257867   T   T   T
 -0.0162610375611625  0.4487115478495824  0.1081571594257867   T   T   T
  0.2500000000000000  0.7266117166607282  0.1128560006328325   T   T   T
  0.2500000000000000  0.5401803698883552  0.1681593765407103   T   T   T
 
  0.00000000E+00  0.00000000E+00  0.00000000E+00
  0.00000000E+00  0.00000000E+00  0.00000000E+00
  0.00000000E+00  0.00000000E+00  0.00000000E+00
  0.00000000E+00  0.00000000E+00  0.00000000E+00
  0.00000000E+00  0.00000000E+00  0.00000000E+00
  0.00000000E+00  0.00000000E+00  0.00000000E+00
  0.00000000E+00  0.00000000E+00  0.00000000E+00
  0.00000000E+00  0.00000000E+00  0.00000000E+00
  0.00000000E+00  0.00000000E+00  0.00000000E+00
  0.00000000E+00  0.00000000E+00  0.00000000E+00
  0.00000000E+00  0.00000000E+00  0.00000000E+00
  0.00000000E+00  0.00000000E+00  0.00000000E+00
  0.00000000E+00  0.00000000E+00  0.00000000E+00
  0.00000000E+00  0.00000000E+00  0.00000000E+00
  0.00000000E+00  0.00000000E+00  0.00000000E+00
  0.00000000E+00  0.00000000E+00  0.00000000E+00
