Title                                   
   1.00000000000000     
     4.9440799999999996    0.0000000000000000    0.0000000000000000
     0.0000000000000000   17.1295089999999988    0.0000000000000000
     0.0000000000000000    0.0000000000000000   20.0000000000000000
    28     3     1
Selective dynamics
Direct
  0.0004626240644285  0.1040433045129003  0.2917200496453665   T   T   T
  0.2506150582133174  0.1462193358463836  0.2916102401171896   T   T   T
  0.2526704216979929  0.2299744598926094  0.2918074806478870   T   T   T
  0.0137088047418581  0.3550284442690047  0.2942927616085653   T   T   T
  0.0018505742512374  0.2715967656372012  0.2925716548583986   T   T   T
 -0.0135890754340986  0.6017939622305010  0.3005605150328560   T   T   T
  0.2424575684112523  0.7265920501440104  0.2994367070509589   T   T   T
 -0.0045630413150741  0.8529392590403547  0.2935816759654299   T   T   T
  0.2454679289794258  0.8951938361124160  0.2934310433309151   T   T   T
  0.2473422864857934  0.9785545984697597  0.2923775062091381   T   T   T
 -0.0063466950577335  0.7694961456476296  0.2955778910665658   T   T   T
  0.4997302985156671  0.1040919863392623  0.2918163519306472   T   T   T
  0.7507821268694178  0.1459984428176947  0.2919004451570876   T   T   T
  0.7529986616917425  0.2291271169426550  0.2924763108385578   T   T   T
  0.4979105915581123  0.0205966463658428  0.2921177320687816   T   T   T
  0.4967652203362009  0.3545513418509791  0.2947994220563626   T   T   T
  0.7504514253545840  0.4833795870987525  0.3069346441716854   T   T   T
  0.5050233866417446  0.2713522447182474  0.2926804703569852   T   T   T
  0.4951382717127631  0.6024606719412957  0.3126516316673106   T   T   T
  0.7422473456498252  0.7284147003330957  0.2973952759580112   T   T   T
  0.4944871643190347  0.8530588197727118  0.2945205536735312   T   T   T
  0.7455744000010951  0.8949465007806934  0.2930753984891974   T   T   T
  0.7473679598937240  0.9785327135997778  0.2922534504730924   T   T   T
  0.4923893824901376  0.7696963908483215  0.2975519409663739   T   T   T
  0.7403187011010944  0.6453227848929356  0.3014574642194079   T   T   T
  0.2413230503417986  0.6433095731348800  0.3055608680600081   T   T   T
 -0.0019739169613340  0.0205931407947956  0.2919534037962858   T   T   T
  0.5188576612938843  0.5224805108565833  0.3316756317133568   T   T   T
  0.9761440415585728  0.5232301020040593  0.2926644850800723   T   T   T
  0.2562317670018462  0.3919727667380261  0.2942637438886290   T   T   T
  0.7554964294616284  0.3979366962325300  0.2987553705637803   T   T   T
  0.3094825761300657  0.4860661001340804  0.4190928793375170   T   T   T
 
  0.00000000E+00  0.00000000E+00  0.00000000E+00
  0.00000000E+00  0.00000000E+00  0.00000000E+00
  0.00000000E+00  0.00000000E+00  0.00000000E+00
  0.00000000E+00  0.00000000E+00  0.00000000E+00
  0.00000000E+00  0.00000000E+00  0.00000000E+00
  0.00000000E+00  0.00000000E+00  0.00000000E+00
  0.00000000E+00  0.00000000E+00  0.00000000E+00
  0.00000000E+00  0.00000000E+00  0.00000000E+00
  0.00000000E+00  0.00000000E+00  0.00000000E+00
  0.00000000E+00  0.00000000E+00  0.00000000E+00
  0.00000000E+00  0.00000000E+00  0.00000000E+00
  0.00000000E+00  0.00000000E+00  0.00000000E+00
  0.00000000E+00  0.00000000E+00  0.00000000E+00
  0.00000000E+00  0.00000000E+00  0.00000000E+00
  0.00000000E+00  0.00000000E+00  0.00000000E+00
  0.00000000E+00  0.00000000E+00  0.00000000E+00
  0.00000000E+00  0.00000000E+00  0.00000000E+00
  0.00000000E+00  0.00000000E+00  0.00000000E+00
  0.00000000E+00  0.00000000E+00  0.00000000E+00
  0.00000000E+00  0.00000000E+00  0.00000000E+00
  0.00000000E+00  0.00000000E+00  0.00000000E+00
  0.00000000E+00  0.00000000E+00  0.00000000E+00
  0.00000000E+00  0.00000000E+00  0.00000000E+00
  0.00000000E+00  0.00000000E+00  0.00000000E+00
  0.00000000E+00  0.00000000E+00  0.00000000E+00
  0.00000000E+00  0.00000000E+00  0.00000000E+00
  0.00000000E+00  0.00000000E+00  0.00000000E+00
  0.00000000E+00  0.00000000E+00  0.00000000E+00
  0.00000000E+00  0.00000000E+00  0.00000000E+00
  0.00000000E+00  0.00000000E+00  0.00000000E+00
  0.00000000E+00  0.00000000E+00  0.00000000E+00
  0.00000000E+00  0.00000000E+00  0.00000000E+00
