Title                                   
   1.00000000000000     
     4.9440799999999996    0.0000000000000000    0.0000000000000000
     0.0000000000000000    8.5647549999999999    0.0000000000000000
     0.0000000000000000    0.0000000000000000   20.0000000000000000
    14     1     1
Selective dynamics
Direct
  0.2500000000000000  0.2063850334998507  0.0921403742548415   T   T   T
 -0.0022642126860522  0.2883313769259498  0.0959847008721513   T   T   T
  0.2500000000000000  0.0424443681185009  0.0871496472336958   T   T   T
  0.0013881601850599  0.7961447261863114  0.0986859267087234   T   T   T
 -0.0004206426998323  0.9589239454515098  0.0872451410116024   T   T   T
  0.7500000000000000  0.2057443158217850  0.0877938872640360   T   T   T
  0.5022642126860521  0.2883313769259498  0.0959847008721513   T   T   T
  0.7500000000000000  0.0404274677530439  0.0837851844932184   T   T   T
  0.7500000000000000  0.7095374710057950  0.1037956033594712   T   T   T
  0.4986118398149400  0.7961447261863114  0.0986859267087234   T   T   T
  0.7500000000000000  0.5395938246071182  0.1081247651674652   T   T   T
  0.5004206426998323  0.9589239454515098  0.0872451410116024   T   T   T
  0.5104798978366097  0.4492695412249543  0.1106573143595418   T   T   T
 -0.0104798978366095  0.4492695412249543  0.1106573143595418   T   T   T
  0.2500000000000000  0.7254755874656361  0.1101740873441885   T   T   T
  0.2500000000000000  0.5450527521508192  0.1644022849790534   T   T   T
 
  0.00000000E+00  0.00000000E+00  0.00000000E+00
  0.00000000E+00  0.00000000E+00  0.00000000E+00
  0.00000000E+00  0.00000000E+00  0.00000000E+00
  0.00000000E+00  0.00000000E+00  0.00000000E+00
  0.00000000E+00  0.00000000E+00  0.00000000E+00
  0.00000000E+00  0.00000000E+00  0.00000000E+00
  0.00000000E+00  0.00000000E+00  0.00000000E+00
  0.00000000E+00  0.00000000E+00  0.00000000E+00
  0.00000000E+00  0.00000000E+00  0.00000000E+00
  0.00000000E+00  0.00000000E+00  0.00000000E+00
  0.00000000E+00  0.00000000E+00  0.00000000E+00
  0.00000000E+00  0.00000000E+00  0.00000000E+00
  0.00000000E+00  0.00000000E+00  0.00000000E+00
  0.00000000E+00  0.00000000E+00  0.00000000E+00
  0.00000000E+00  0.00000000E+00  0.00000000E+00
  0.00000000E+00  0.00000000E+00  0.00000000E+00
