Title                                   
   1.00000000000000     
     4.9440799999999996    0.0000000000000000    0.0000000000000000
     0.0000000000000000   17.1295089999999988    0.0000000000000000
     0.0000000000000000    0.0000000000000000   20.0000000000000000
    29     1     1
Selective dynamics
Direct
 -0.0031852266116401  0.1053684422437103  0.2908757936117579   T   T   T
  0.2454446791349595  0.1476345904558735  0.2931032134829684   T   T   T
  0.2440948847061961  0.2311635428303798  0.2993271131004372   T   T   T
 -0.0061405266623591  0.2730629267685965  0.3032049678832975   T   T   T
  0.0057748419256924  0.6023946375943611  0.3033140794838695   T   T   T
  0.2528230594579877  0.7278974629666077  0.2936782936682421   T   T   T
  0.0006243923917005  0.8537224592502278  0.2889331769986714   T   T   T
  0.2501480331243538  0.8957560717549181  0.2882990367059146   T   T   T
  0.2486199805312129  0.9795660171023959  0.2880990249839445   T   T   T
  0.0021834365330853  0.7698874973147121  0.2914918507693459   T   T   T
  0.4963613449311675  0.1056336832474725  0.2906779859545980   T   T   T
  0.7467631766347210  0.1474027713190426  0.2922981196362513   T   T   T
  0.7448189797629603  0.2310287797812314  0.2975653977532780   T   T   T
  0.4979043844705590  0.0217620644829767  0.2884488150216294   T   T   T
  0.7506651000886279  0.3930859422852969  0.3130420609033409   T   T   T
  0.7587471239095788  0.4784879436757553  0.3157922510822534   T   T   T
  0.4936680905172219  0.2729134401765514  0.3013370370736883   T   T   T
  0.5039175335630385  0.6021200214598703  0.3034099460145273   T   T   T
  0.7526423129810444  0.7278626108191947  0.2932666270961419   T   T   T
  0.5005815535819059  0.8536813336725175  0.2889122430610097   T   T   T
  0.7500361403042302  0.8957579368810162  0.2881746993447644   T   T   T
  0.7484947888284302  0.9796823065306470  0.2879238647361534   T   T   T
  0.5022465428307653  0.7699456136937765  0.2914740835892328   T   T   T
  0.7543210890280545  0.6441404333867612  0.2988279316501131   T   T   T
  0.2543166132311094  0.6446673216798237  0.2998315249448531   T   T   T
 -0.0017744103143408  0.0215888246042805  0.2885194494454918   T   T   T
  0.5070723503393195  0.5198545107108157  0.3140052973145861   T   T   T
  0.0082843130425248  0.5198447407705269  0.3133152115526414   T   T   T
  0.5010073689890988  0.3552220472937734  0.3085651625051860   T   T   T
 -0.0075341427298180  0.3529805895421427  0.3138892683510278   T   T   T
  0.2570791914786140  0.4372254357047424  0.3554564722807356   T   T   T
 
  0.00000000E+00  0.00000000E+00  0.00000000E+00
  0.00000000E+00  0.00000000E+00  0.00000000E+00
  0.00000000E+00  0.00000000E+00  0.00000000E+00
  0.00000000E+00  0.00000000E+00  0.00000000E+00
  0.00000000E+00  0.00000000E+00  0.00000000E+00
  0.00000000E+00  0.00000000E+00  0.00000000E+00
  0.00000000E+00  0.00000000E+00  0.00000000E+00
  0.00000000E+00  0.00000000E+00  0.00000000E+00
  0.00000000E+00  0.00000000E+00  0.00000000E+00
  0.00000000E+00  0.00000000E+00  0.00000000E+00
  0.00000000E+00  0.00000000E+00  0.00000000E+00
  0.00000000E+00  0.00000000E+00  0.00000000E+00
  0.00000000E+00  0.00000000E+00  0.00000000E+00
  0.00000000E+00  0.00000000E+00  0.00000000E+00
  0.00000000E+00  0.00000000E+00  0.00000000E+00
  0.00000000E+00  0.00000000E+00  0.00000000E+00
  0.00000000E+00  0.00000000E+00  0.00000000E+00
  0.00000000E+00  0.00000000E+00  0.00000000E+00
  0.00000000E+00  0.00000000E+00  0.00000000E+00
  0.00000000E+00  0.00000000E+00  0.00000000E+00
  0.00000000E+00  0.00000000E+00  0.00000000E+00
  0.00000000E+00  0.00000000E+00  0.00000000E+00
  0.00000000E+00  0.00000000E+00  0.00000000E+00
  0.00000000E+00  0.00000000E+00  0.00000000E+00
  0.00000000E+00  0.00000000E+00  0.00000000E+00
  0.00000000E+00  0.00000000E+00  0.00000000E+00
  0.00000000E+00  0.00000000E+00  0.00000000E+00
  0.00000000E+00  0.00000000E+00  0.00000000E+00
  0.00000000E+00  0.00000000E+00  0.00000000E+00
  0.00000000E+00  0.00000000E+00  0.00000000E+00
  0.00000000E+00  0.00000000E+00  0.00000000E+00
