Title                                   
   1.00000000000000     
     8.5490480000000009    0.0000000000000000    0.0000000000000000
     0.0000000000000000    8.5490480000000009    0.0000000000000000
     0.0000000000000000    0.0000000000000000   20.0000000000000000
    19     5     1
Selective dynamics
Direct
  0.9084543746736173  0.2073034285867908  0.0976228818011039   T   T   T
  0.9105893482895473  0.8004968962373271  0.0974883173216700   T   T   T
  0.1974981280014355  0.0850662629068783  0.0978093329910315   T   T   T
  0.0765591408775418  0.2029612023549386  0.0977132067215980   T   T   T
  0.1555696069037898  0.6512114002423581  0.0977564444897065   T   T   T
  0.0747263586011657  0.5017247603914680  0.0977300896597539   T   T   T
  0.1567784620168632  0.3557052616855874  0.0977324505164059   T   T   T
  0.0788666310336897  0.7987580041079596  0.0976237532739556   T   T   T
  0.4943345952802533  0.0849213824357496  0.0978287652702030   T   T   T
  0.3472232067381913  0.1664543695633865  0.0978487689087713   T   T   T
  0.4936184282972224  0.9143380186387562  0.0977610880848199   T   T   T
  0.3438622809610716  0.8336443307799586  0.0978694940121634   T   T   T
  0.7882140009264184  0.0877445548527263  0.0975712150228614   T   T   T
  0.6413343214776340  0.1678538909894282  0.0978237193665169   T   T   T
  0.7889211304445080  0.9183733262665855  0.0974809286228189   T   T   T
  0.8288862768793193  0.6513479879672495  0.0976149522910768   T   T   T
  0.8261389526572568  0.3551613109358043  0.0977613759067134   T   T   T
  0.6429174533718665  0.8341377006389544  0.0976651989610512   T   T   T
  0.3245901453962475  0.3337203656440306  0.0977715751598465   T   T   T
  0.9055922745654560  0.5031191597880749  0.0977725240313972   T   T   T
  0.3187559252374359  0.6738581555361133  0.0979060101887991   T   T   T
  0.6637074880791224  0.3329266842823582  0.0980046570028856   T   T   T
  0.6685872192102632  0.6708310019732321  0.0977814591876176   T   T   T
  0.1984223232733803  0.9155791829011074  0.0978073691422455   T   T   T
  0.4912639268066956  0.4975513602931970  0.0979594220649602   T   T   T
 
  0.00000000E+00  0.00000000E+00  0.00000000E+00
  0.00000000E+00  0.00000000E+00  0.00000000E+00
  0.00000000E+00  0.00000000E+00  0.00000000E+00
  0.00000000E+00  0.00000000E+00  0.00000000E+00
  0.00000000E+00  0.00000000E+00  0.00000000E+00
  0.00000000E+00  0.00000000E+00  0.00000000E+00
  0.00000000E+00  0.00000000E+00  0.00000000E+00
  0.00000000E+00  0.00000000E+00  0.00000000E+00
  0.00000000E+00  0.00000000E+00  0.00000000E+00
  0.00000000E+00  0.00000000E+00  0.00000000E+00
  0.00000000E+00  0.00000000E+00  0.00000000E+00
  0.00000000E+00  0.00000000E+00  0.00000000E+00
  0.00000000E+00  0.00000000E+00  0.00000000E+00
  0.00000000E+00  0.00000000E+00  0.00000000E+00
  0.00000000E+00  0.00000000E+00  0.00000000E+00
  0.00000000E+00  0.00000000E+00  0.00000000E+00
  0.00000000E+00  0.00000000E+00  0.00000000E+00
  0.00000000E+00  0.00000000E+00  0.00000000E+00
  0.00000000E+00  0.00000000E+00  0.00000000E+00
  0.00000000E+00  0.00000000E+00  0.00000000E+00
  0.00000000E+00  0.00000000E+00  0.00000000E+00
  0.00000000E+00  0.00000000E+00  0.00000000E+00
  0.00000000E+00  0.00000000E+00  0.00000000E+00
  0.00000000E+00  0.00000000E+00  0.00000000E+00
  0.00000000E+00  0.00000000E+00  0.00000000E+00
