Title                                   
   1.00000000000000     
     9.8694509999999998    0.0000000000000000    0.0000000000000000
     0.0000000000000000    8.5490480000000009    0.0000000000000000
     0.0000000000000000    0.0000000000000000   20.0000000000000000
    27     4     1
Selective dynamics
Direct
  0.0557361947752304  0.0929711589097549  0.0870093388642924   T   T   T
  0.9310482547096494  0.1748797147013199  0.0888179910862577   T   T   T
  0.0573815830923868  0.9253721261079890  0.0861907491439083   T   T   T
  0.9292948085829923  0.3425946956024857  0.0921106536559361   T   T   T
  0.0566659150242234  0.5904965527373005  0.0878152353410417   T   T   T
  0.9328612865922111  0.6740003252246619  0.0897079334038509   T   T   T
  0.0567103066937596  0.4236143801532931  0.0898936190360020   T   T   T
  0.9330942364528318  0.8403031981427200  0.0879761388964284   T   T   T
  0.3054310988153580  0.0881424719852867  0.0894137506073939   T   T   T
  0.1820224140050012  0.1740988065108164  0.0886240881006299   T   T   T
  0.1839363711058311  0.3413866491426417  0.0907237476393649   T   T   T
  0.3053948536608972  0.5935033269885062  0.0963370594579056   T   T   T
  0.1806608424754013  0.6749817075498976  0.0882565836138444   T   T   T
  0.3102299805303902  0.4253166564230553  0.0961525578563109   T   T   T
  0.1805974188319048  0.8412072914100120  0.0874515738570640   T   T   T
  0.5565248073161800  0.0825849676859984  0.0942782938166239   T   T   T
  0.4310465911849111  0.1668749142051648  0.0931095565324303   T   T   T
  0.5553415115976690  0.9162296075697968  0.0978140912942583   T   T   T
  0.4344860714355306  0.3329923813401245  0.0997713067749563   T   T   T
  0.4256396110447287  0.8370853833214649  0.0983389493860413   T   T   T
  0.8068123326446097  0.0890292809790474  0.0889395044599282   T   T   T
  0.6808935593343650  0.1681177340116004  0.0929871162266342   T   T   T
  0.8079059712128537  0.9235038545241147  0.0897139176225332   T   T   T
  0.6772471690011921  0.3340208262846433  0.1008043066789449   T   T   T
  0.8074928337452898  0.5944027012182374  0.0997484776312284   T   T   T
  0.8028215742490077  0.4249709118431246  0.0989835846584247   T   T   T
  0.6859259188897191  0.8362487148232595  0.0990514078885977   T   T   T
  0.4183500100046159  0.6826966745408216  0.1066527422055933   T   T   T
  0.5555806813015370  0.4045578298066758  0.1101826562585951   T   T   T
  0.6937614095993286  0.6804255270878020  0.1104011871810871   T   T   T
  0.3047205495332665  0.9243778070872970  0.0894278190196321   T   T   T
  0.5540228325571325  0.5892578220810872  0.1689890618042761   T   T   T
 
  0.00000000E+00  0.00000000E+00  0.00000000E+00
  0.00000000E+00  0.00000000E+00  0.00000000E+00
  0.00000000E+00  0.00000000E+00  0.00000000E+00
  0.00000000E+00  0.00000000E+00  0.00000000E+00
  0.00000000E+00  0.00000000E+00  0.00000000E+00
  0.00000000E+00  0.00000000E+00  0.00000000E+00
  0.00000000E+00  0.00000000E+00  0.00000000E+00
  0.00000000E+00  0.00000000E+00  0.00000000E+00
  0.00000000E+00  0.00000000E+00  0.00000000E+00
  0.00000000E+00  0.00000000E+00  0.00000000E+00
  0.00000000E+00  0.00000000E+00  0.00000000E+00
  0.00000000E+00  0.00000000E+00  0.00000000E+00
  0.00000000E+00  0.00000000E+00  0.00000000E+00
  0.00000000E+00  0.00000000E+00  0.00000000E+00
  0.00000000E+00  0.00000000E+00  0.00000000E+00
  0.00000000E+00  0.00000000E+00  0.00000000E+00
  0.00000000E+00  0.00000000E+00  0.00000000E+00
  0.00000000E+00  0.00000000E+00  0.00000000E+00
  0.00000000E+00  0.00000000E+00  0.00000000E+00
  0.00000000E+00  0.00000000E+00  0.00000000E+00
  0.00000000E+00  0.00000000E+00  0.00000000E+00
  0.00000000E+00  0.00000000E+00  0.00000000E+00
  0.00000000E+00  0.00000000E+00  0.00000000E+00
  0.00000000E+00  0.00000000E+00  0.00000000E+00
  0.00000000E+00  0.00000000E+00  0.00000000E+00
  0.00000000E+00  0.00000000E+00  0.00000000E+00
  0.00000000E+00  0.00000000E+00  0.00000000E+00
  0.00000000E+00  0.00000000E+00  0.00000000E+00
  0.00000000E+00  0.00000000E+00  0.00000000E+00
  0.00000000E+00  0.00000000E+00  0.00000000E+00
  0.00000000E+00  0.00000000E+00  0.00000000E+00
  0.00000000E+00  0.00000000E+00  0.00000000E+00
