Title                                   
   1.00000000000000     
     9.8694509999999998    0.0000000000000000    0.0000000000000000
     0.0000000000000000    8.5490480000000009    0.0000000000000000
     0.0000000000000000    0.0000000000000000   20.0000000000000000
    30     1     1
Selective dynamics
Direct
  0.0558442928202233  0.0900928653435647  0.0818161557595862   T   T   T
  0.9313496581889884  0.1732025237134605  0.0835021423463622   T   T   T
  0.0571330590882782  0.9232799849858270  0.0824959500416454   T   T   T
  0.9311798757367530  0.3400903375441569  0.0865173893995716   T   T   T
  0.0570770971845318  0.5896201248786942  0.0841080456328828   T   T   T
  0.9326635600392225  0.6723557347339868  0.0869677528901890   T   T   T
  0.0568182604582580  0.4225235476200322  0.0845899590680641   T   T   T
  0.9322303059047206  0.8394180384340492  0.0848928964455598   T   T   T
  0.3052129076835338  0.0880059984834195  0.0867083613665418   T   T   T
  0.1812074983178658  0.1719042936757116  0.0838516918580258   T   T   T
  0.1821181152255868  0.3389329782635353  0.0861446396128069   T   T   T
  0.3034750560183641  0.5895157706278147  0.0991483986143841   T   T   T
  0.1818851609866809  0.6733396032641326  0.0868994296394679   T   T   T
  0.3059855580551070  0.4222494010106068  0.0963952376354895   T   T   T
  0.1818099957130425  0.8403014920610923  0.0855517843610148   T   T   T
  0.5562378231988766  0.0880509739987783  0.0926146280212942   T   T   T
  0.4298833695922594  0.1696760612372369  0.0922042479206722   T   T   T
  0.5548185697444039  0.9225620026340352  0.0973913436095459   T   T   T
  0.4292179800821252  0.3343444346942371  0.1019232336337997   T   T   T
  0.4178651070077383  0.6818991690007509  0.1180928530936596   T   T   T
  0.5553996553104855  0.4067247981071728  0.1186952516536908   T   T   T
  0.4267008804793968  0.8426685631147502  0.1010399461765205   T   T   T
  0.8067559124399157  0.0893269563787715  0.0853816844607918   T   T   T
  0.6817626958748676  0.1711126082576331  0.0915202726716217   T   T   T
  0.8067906023407824  0.9235282115128309  0.0871894284193057   T   T   T
  0.6822115172044573  0.3355839109997196  0.1018508038049831   T   T   T
  0.8099507090556387  0.5899489470062987  0.0989082806034265   T   T   T
  0.6929729245369737  0.6801581651731510  0.1156050612252384   T   T   T
  0.8066773328701407  0.4224430729394419  0.0966865785510106   T   T   T
  0.6828841275057872  0.8414904588132824  0.0989340042555802   T   T   T
  0.3052781138459348  0.9240858754796157  0.0886413540910648   T   T   T
  0.5582412774890658  0.5918090960122186  0.1794061931362365   T   T   T
 
  0.00000000E+00  0.00000000E+00  0.00000000E+00
  0.00000000E+00  0.00000000E+00  0.00000000E+00
  0.00000000E+00  0.00000000E+00  0.00000000E+00
  0.00000000E+00  0.00000000E+00  0.00000000E+00
  0.00000000E+00  0.00000000E+00  0.00000000E+00
  0.00000000E+00  0.00000000E+00  0.00000000E+00
  0.00000000E+00  0.00000000E+00  0.00000000E+00
  0.00000000E+00  0.00000000E+00  0.00000000E+00
  0.00000000E+00  0.00000000E+00  0.00000000E+00
  0.00000000E+00  0.00000000E+00  0.00000000E+00
  0.00000000E+00  0.00000000E+00  0.00000000E+00
  0.00000000E+00  0.00000000E+00  0.00000000E+00
  0.00000000E+00  0.00000000E+00  0.00000000E+00
  0.00000000E+00  0.00000000E+00  0.00000000E+00
  0.00000000E+00  0.00000000E+00  0.00000000E+00
  0.00000000E+00  0.00000000E+00  0.00000000E+00
  0.00000000E+00  0.00000000E+00  0.00000000E+00
  0.00000000E+00  0.00000000E+00  0.00000000E+00
  0.00000000E+00  0.00000000E+00  0.00000000E+00
  0.00000000E+00  0.00000000E+00  0.00000000E+00
  0.00000000E+00  0.00000000E+00  0.00000000E+00
  0.00000000E+00  0.00000000E+00  0.00000000E+00
  0.00000000E+00  0.00000000E+00  0.00000000E+00
  0.00000000E+00  0.00000000E+00  0.00000000E+00
  0.00000000E+00  0.00000000E+00  0.00000000E+00
  0.00000000E+00  0.00000000E+00  0.00000000E+00
  0.00000000E+00  0.00000000E+00  0.00000000E+00
  0.00000000E+00  0.00000000E+00  0.00000000E+00
  0.00000000E+00  0.00000000E+00  0.00000000E+00
  0.00000000E+00  0.00000000E+00  0.00000000E+00
  0.00000000E+00  0.00000000E+00  0.00000000E+00
  0.00000000E+00  0.00000000E+00  0.00000000E+00
