Title                                   
   1.00000000000000     
     4.9440799999999996    0.0000000000000000    0.0000000000000000
     0.0000000000000000    8.5647549999999999    0.0000000000000000
     0.0000000000000000    0.0000000000000000   20.0000000000000000
    11     3     1
Selective dynamics
Direct
  0.2419344024249863  0.2090260300767060  0.0968245798121616   T   T   T
 -0.0068161272854082  0.2973948492196798  0.1015906470939059   T   T   T
  0.2449762280167226  0.0371534563466350  0.0974109803180751   T   T   T
 -0.0035439606734569  0.9517862798284269  0.1017508706318055   T   T   T
  0.7480104000345367  0.2097426842780256  0.0933494502626789   T   T   T
  0.4930100121141705  0.2898441786098742  0.0906122636849076   T   T   T
  0.7511060337517589  0.0401279899992977  0.0942088354910902   T   T   T
  0.7494311496461513  0.7126241079395057  0.0989959031812287   T   T   T
  0.7442648179403175  0.5415009556793536  0.0992188529963976   T   T   T
  0.5005567769440995  0.9579375525027457  0.0928341990210248   T   T   T
  0.5013549183909650  0.4559260967522472  0.0886857218944344   T   T   T
 -0.0117819430710032  0.4614431794170107  0.1162004398307152   T   T   T
 -0.0129969105334207  0.7887863069774821  0.1137027685409051   T   T   T
  0.5113353828729116  0.7954336841760176  0.0901779453567443   T   T   T
  0.2991588194266689  0.6229536481969935  0.1324165418839284   T   T   T
 
  0.00000000E+00  0.00000000E+00  0.00000000E+00
  0.00000000E+00  0.00000000E+00  0.00000000E+00
  0.00000000E+00  0.00000000E+00  0.00000000E+00
  0.00000000E+00  0.00000000E+00  0.00000000E+00
  0.00000000E+00  0.00000000E+00  0.00000000E+00
  0.00000000E+00  0.00000000E+00  0.00000000E+00
  0.00000000E+00  0.00000000E+00  0.00000000E+00
  0.00000000E+00  0.00000000E+00  0.00000000E+00
  0.00000000E+00  0.00000000E+00  0.00000000E+00
  0.00000000E+00  0.00000000E+00  0.00000000E+00
  0.00000000E+00  0.00000000E+00  0.00000000E+00
  0.00000000E+00  0.00000000E+00  0.00000000E+00
  0.00000000E+00  0.00000000E+00  0.00000000E+00
  0.00000000E+00  0.00000000E+00  0.00000000E+00
  0.00000000E+00  0.00000000E+00  0.00000000E+00
