Title                                   
   1.00000000000000     
     8.5490480000000009    0.0000000000000000    0.0000000000000000
     0.0000000000000000    8.5490480000000009    0.0000000000000000
     0.0000000000000000    0.0000000000000000   20.0000000000000000
    22     2     1
Selective dynamics
Direct
  0.9077350863418716  0.2071409294717301  0.0986228732735741   T   T   T
  0.9080592705305017  0.5032703227415365  0.0963383800004632   T   T   T
  0.9125097489133804  0.7999176135977457  0.0973233607859272   T   T   T
  0.1948678391051382  0.0823272502996877  0.0973537212169207   T   T   T
  0.0735223444622925  0.2036343003182632  0.0972948362018203   T   T   T
  0.1983953097426738  0.9165459693793236  0.0987578632119976   T   T   T
  0.1590008458622701  0.6458968058297994  0.0987415198363367   T   T   T
  0.0780199980192405  0.5002870783606403  0.0963737209747381   T   T   T
  0.1551491954962514  0.3507978098103876  0.0946724997894995   T   T   T
  0.0782899583523344  0.7964334838532071  0.0987287517677990   T   T   T
  0.4914834196011632  0.0867515375107194  0.0964096576314218   T   T   T
  0.3420389491175694  0.1639349567058078  0.0947270715540330   T   T   T
  0.4945045248508856  0.9168060562065222  0.0964324511937354   T   T   T
  0.3489193451456362  0.8358294490177347  0.0987879130366338   T   T   T
  0.7876195336161943  0.0870363615653227  0.0986398217588387   T   T   T
  0.6370812208349325  0.1677625122034290  0.0986356142120389   T   T   T
  0.7911770295729206  0.9212415360243897  0.0973070503012389   T   T   T
  0.8309247442537521  0.6527468817938552  0.0946830785070506   T   T   T
  0.8270194705108179  0.3576802517979493  0.0985924520529420   T   T   T
  0.6439931589793383  0.8396475527852771  0.0946937174396168   T   T   T
  0.3256361919459623  0.6692123660823129  0.1002744713498327   T   T   T
  0.6603811054300668  0.3343993766446920  0.1000678599243625   T   T   T
  0.3172722323016668  0.3260149727269601  0.0904081096666399   T   T   T
  0.6688343780904923  0.6775439238775843  0.0903903508885228   T   T   T
  0.4929770989226380  0.5019307013951346  0.0594478534239937   T   T   T
 
  0.00000000E+00  0.00000000E+00  0.00000000E+00
  0.00000000E+00  0.00000000E+00  0.00000000E+00
  0.00000000E+00  0.00000000E+00  0.00000000E+00
  0.00000000E+00  0.00000000E+00  0.00000000E+00
  0.00000000E+00  0.00000000E+00  0.00000000E+00
  0.00000000E+00  0.00000000E+00  0.00000000E+00
  0.00000000E+00  0.00000000E+00  0.00000000E+00
  0.00000000E+00  0.00000000E+00  0.00000000E+00
  0.00000000E+00  0.00000000E+00  0.00000000E+00
  0.00000000E+00  0.00000000E+00  0.00000000E+00
  0.00000000E+00  0.00000000E+00  0.00000000E+00
  0.00000000E+00  0.00000000E+00  0.00000000E+00
  0.00000000E+00  0.00000000E+00  0.00000000E+00
  0.00000000E+00  0.00000000E+00  0.00000000E+00
  0.00000000E+00  0.00000000E+00  0.00000000E+00
  0.00000000E+00  0.00000000E+00  0.00000000E+00
  0.00000000E+00  0.00000000E+00  0.00000000E+00
  0.00000000E+00  0.00000000E+00  0.00000000E+00
  0.00000000E+00  0.00000000E+00  0.00000000E+00
  0.00000000E+00  0.00000000E+00  0.00000000E+00
  0.00000000E+00  0.00000000E+00  0.00000000E+00
  0.00000000E+00  0.00000000E+00  0.00000000E+00
  0.00000000E+00  0.00000000E+00  0.00000000E+00
  0.00000000E+00  0.00000000E+00  0.00000000E+00
  0.00000000E+00  0.00000000E+00  0.00000000E+00
