Title                                   
   1.00000000000000     
     4.9440799999999996    0.0000000000000000    0.0000000000000000
     0.0000000000000000    8.5647549999999999    0.0000000000000000
     0.0000000000000000    0.0000000000000000   20.0000000000000000
    13     1     1
Selective dynamics
Direct
  0.2509903934582066  0.2061496623386096  0.0996229157764038   T   T   T
  0.0000679309885096  0.2943391219420011  0.1009424473489183   T   T   T
  0.2530379811189907  0.0398491373484261  0.0994744506174788   T   T   T
  0.0027236032198449  0.9546629243235840  0.0985812211101922   T   T   T
  0.7503537269435560  0.2087234098146072  0.0999559739963135   T   T   T
  0.4995521587237822  0.2928442902055922  0.0991160472188224   T   T   T
  0.7528153554319681  0.0400139922226887  0.0997548860483609   T   T   T
  0.7467112331636594  0.7133292035549332  0.0996242571845300   T   T   T
  0.7439564640559536  0.5412229844556672  0.0998699084930541   T   T   T
  0.5049859579127099  0.9536493959787072  0.1008026454631260   T   T   T
  0.4999168832172562  0.4583259068699543  0.0984071842160160   T   T   T
 -0.0050637003564829  0.4606498841919860  0.1033832564248705   T   T   T
 -0.0062182611645796  0.7899041016899968  0.0972077031201846   T   T   T
  0.5088432859174032  0.7927388181267543  0.1033031876574277   T   T   T
  0.2473269873692215  0.6252781669364953  0.1079339153243045   T   T   T
 
  0.00000000E+00  0.00000000E+00  0.00000000E+00
  0.00000000E+00  0.00000000E+00  0.00000000E+00
  0.00000000E+00  0.00000000E+00  0.00000000E+00
  0.00000000E+00  0.00000000E+00  0.00000000E+00
  0.00000000E+00  0.00000000E+00  0.00000000E+00
  0.00000000E+00  0.00000000E+00  0.00000000E+00
  0.00000000E+00  0.00000000E+00  0.00000000E+00
  0.00000000E+00  0.00000000E+00  0.00000000E+00
  0.00000000E+00  0.00000000E+00  0.00000000E+00
  0.00000000E+00  0.00000000E+00  0.00000000E+00
  0.00000000E+00  0.00000000E+00  0.00000000E+00
  0.00000000E+00  0.00000000E+00  0.00000000E+00
  0.00000000E+00  0.00000000E+00  0.00000000E+00
  0.00000000E+00  0.00000000E+00  0.00000000E+00
  0.00000000E+00  0.00000000E+00  0.00000000E+00
