Title                                   
   1.00000000000000     
     4.9440799999999996    0.0000000000000000    0.0000000000000000
     0.0000000000000000    8.5647549999999999    0.0000000000000000
     0.0000000000000000    0.0000000000000000   20.0000000000000000
    12     3     1
Selective dynamics
Direct
  0.2500000000000000  0.2106072630867276  0.0916972627309331   T   T   T
 -0.0044472813145017  0.2907768843468495  0.0944903134918160   T   T   T
  0.2500000000000000  0.0439436862190818  0.0869391624822326   T   T   T
  0.0007726255236936  0.7962961634181742  0.0989591184595465   T   T   T
 -0.0003613023161820  0.9594887977128532  0.0860401706070285   T   T   T
  0.7500000000000000  0.2075398394398764  0.0843968463088014   T   T   T
  0.5044472813145017  0.2907768843468495  0.0944903134918160   T   T   T
  0.7500000000000000  0.0420541080007107  0.0806534994147507   T   T   T
  0.7500000000000000  0.7050631842444196  0.1031799397595054   T   T   T
  0.4992273744763063  0.7962961634181742  0.0989591184595465   T   T   T
  0.7500000000000000  0.5344228140293048  0.1088108012179636   T   T   T
  0.5003613023161818  0.9594887977128532  0.0860401706070285   T   T   T
  0.5182864561456549  0.4454968974093248  0.1124094172954180   T   T   T
 -0.0182864561456552  0.4454968974093248  0.1124094172954180   T   T   T
  0.2500000000000000  0.7298228349183622  0.1145184643339964   T   T   T
  0.2500000000000000  0.5424287842871132  0.1685179840442066   T   T   T
 
  0.00000000E+00  0.00000000E+00  0.00000000E+00
  0.00000000E+00  0.00000000E+00  0.00000000E+00
  0.00000000E+00  0.00000000E+00  0.00000000E+00
  0.00000000E+00  0.00000000E+00  0.00000000E+00
  0.00000000E+00  0.00000000E+00  0.00000000E+00
  0.00000000E+00  0.00000000E+00  0.00000000E+00
  0.00000000E+00  0.00000000E+00  0.00000000E+00
  0.00000000E+00  0.00000000E+00  0.00000000E+00
  0.00000000E+00  0.00000000E+00  0.00000000E+00
  0.00000000E+00  0.00000000E+00  0.00000000E+00
  0.00000000E+00  0.00000000E+00  0.00000000E+00
  0.00000000E+00  0.00000000E+00  0.00000000E+00
  0.00000000E+00  0.00000000E+00  0.00000000E+00
  0.00000000E+00  0.00000000E+00  0.00000000E+00
  0.00000000E+00  0.00000000E+00  0.00000000E+00
  0.00000000E+00  0.00000000E+00  0.00000000E+00
