Title                                   
   1.00000000000000     
     9.8694509999999998    0.0000000000000000    0.0000000000000000
     0.0000000000000000    8.5490480000000009    0.0000000000000000
     0.0000000000000000    0.0000000000000000   20.0000000000000000
    25     6     1
Selective dynamics
Direct
  0.0562274174798827  0.0928756922735532  0.0871837126870188   T   T   T
  0.9300745261193091  0.1754005252194287  0.0891753287042263   T   T   T
  0.0562276476091807  0.9239488699566837  0.0859416261928588   T   T   T
  0.9298984558622482  0.3413791795977719  0.0923048012897774   T   T   T
  0.0562338854001393  0.5899330617479963  0.0873472631695058   T   T   T
  0.9317666433669989  0.6714883026528231  0.0883540057845549   T   T   T
  0.0562450777048796  0.4231835893543665  0.0911211866334835   T   T   T
  0.9312229009437157  0.8396570043976592  0.0873668851076167   T   T   T
  0.3055933608796439  0.0894550717190727  0.0876648675530657   T   T   T
  0.1824489622976424  0.1753973682617455  0.0886416324053194   T   T   T
  0.3064447965703265  0.9239114037778898  0.0882269982474966   T   T   T
  0.1826164512642975  0.3413534972616034  0.0918921403131281   T   T   T
  0.3059634761153944  0.5925236415494012  0.0960016848082124   T   T   T
  0.1807235182114792  0.6715040273304965  0.0879748755654776   T   T   T
  0.1812596682076910  0.8396676319524066  0.0869655740805484   T   T   T
  0.5562597113422768  0.0850673283456630  0.0961755023219059   T   T   T
  0.4312003533097808  0.1695396262344170  0.0935581410849040   T   T   T
  0.4339827539608315  0.3342006801091129  0.1001364646072384   T   T   T
  0.4277245297106523  0.8378479658306680  0.0964472747244890   T   T   T
  0.8069646883209356  0.0894706647632528  0.0884731587331854   T   T   T
  0.6813640853551993  0.1695475140007949  0.0941241590108186   T   T   T
  0.8060922471999435  0.9239285612035834  0.0889105151362788   T   T   T
  0.6785328728554281  0.3342158390008629  0.1005898542800507   T   T   T
  0.8065670188414654  0.5925302118275374  0.0965821373476701   T   T   T
  0.6847826715167052  0.8378355682622839  0.0969065087407068   T   T   T
  0.4199959862706775  0.6797029910643699  0.1093216928706694   T   T   T
  0.5561328788859892  0.4060518539089258  0.1155670379013065   T   T   T
  0.6924865024516178  0.6796565313933381  0.1097946737177274   T   T   T
  0.5562552363157549  0.9156075121527077  0.0968335794382925   T   T   T
  0.3113930255797483  0.4247262946233680  0.0955424077605073   T   T   T
  0.8011589696356199  0.4247163979045345  0.0962189377263340   T   T   T
  0.5557986804145523  0.5939215923216826  0.1743303720556409   T   T   T
 
  0.00000000E+00  0.00000000E+00  0.00000000E+00
  0.00000000E+00  0.00000000E+00  0.00000000E+00
  0.00000000E+00  0.00000000E+00  0.00000000E+00
  0.00000000E+00  0.00000000E+00  0.00000000E+00
  0.00000000E+00  0.00000000E+00  0.00000000E+00
  0.00000000E+00  0.00000000E+00  0.00000000E+00
  0.00000000E+00  0.00000000E+00  0.00000000E+00
  0.00000000E+00  0.00000000E+00  0.00000000E+00
  0.00000000E+00  0.00000000E+00  0.00000000E+00
  0.00000000E+00  0.00000000E+00  0.00000000E+00
  0.00000000E+00  0.00000000E+00  0.00000000E+00
  0.00000000E+00  0.00000000E+00  0.00000000E+00
  0.00000000E+00  0.00000000E+00  0.00000000E+00
  0.00000000E+00  0.00000000E+00  0.00000000E+00
  0.00000000E+00  0.00000000E+00  0.00000000E+00
  0.00000000E+00  0.00000000E+00  0.00000000E+00
  0.00000000E+00  0.00000000E+00  0.00000000E+00
  0.00000000E+00  0.00000000E+00  0.00000000E+00
  0.00000000E+00  0.00000000E+00  0.00000000E+00
  0.00000000E+00  0.00000000E+00  0.00000000E+00
  0.00000000E+00  0.00000000E+00  0.00000000E+00
  0.00000000E+00  0.00000000E+00  0.00000000E+00
  0.00000000E+00  0.00000000E+00  0.00000000E+00
  0.00000000E+00  0.00000000E+00  0.00000000E+00
  0.00000000E+00  0.00000000E+00  0.00000000E+00
  0.00000000E+00  0.00000000E+00  0.00000000E+00
  0.00000000E+00  0.00000000E+00  0.00000000E+00
  0.00000000E+00  0.00000000E+00  0.00000000E+00
  0.00000000E+00  0.00000000E+00  0.00000000E+00
  0.00000000E+00  0.00000000E+00  0.00000000E+00
  0.00000000E+00  0.00000000E+00  0.00000000E+00
  0.00000000E+00  0.00000000E+00  0.00000000E+00
