Title                                   
   1.00000000000000     
     8.5490480000000009    0.0000000000000000    0.0000000000000000
     0.0000000000000000    8.5490480000000009    0.0000000000000000
     0.0000000000000000    0.0000000000000000   20.0000000000000000
    20     4     1
Selective dynamics
Direct
  0.9088940619926933  0.2066953013278772  0.0954060042410677   T   T   T
  0.9117555605823260  0.8008592478353468  0.0957777296578137   T   T   T
  0.1970185901940902  0.0832142411220920  0.0941121342382906   T   T   T
  0.0756998724610023  0.2025925600447010  0.0954742433741689   T   T   T
  0.1548088398660765  0.6492964963955398  0.0974820687024893   T   T   T
  0.0729270994830989  0.5011160558447035  0.0979156816969519   T   T   T
  0.1528765416562200  0.3534950189408029  0.0980318153549308   T   T   T
  0.0794792810864342  0.7982769008678225  0.0955646397529034   T   T   T
  0.4955555017156828  0.0863551627723577  0.0957635286083062   T   T   T
  0.3452432359165439  0.1625661117442594  0.0952179262678678   T   T   T
  0.4954045136272868  0.9178719529379313  0.0954971625105859   T   T   T
  0.3462038295368720  0.8376690830007629  0.0947608934155108   T   T   T
  0.7887608290125260  0.0878276579597395  0.0954838412879222   T   T   T
  0.6427728480571846  0.1685479327397316  0.0972116459596924   T   T   T
  0.7900754137501259  0.9188252663739904  0.0955121545497016   T   T   T
  0.8300603604326430  0.6521026630499154  0.0977179760662563   T   T   T
  0.8282203383375057  0.3547204512720797  0.0972197757916019   T   T   T
  0.6440419826399694  0.8362027311373947  0.0969133765979707   T   T   T
  0.3216033700681549  0.3289126017741718  0.0998332770137676   T   T   T
  0.3231893991098297  0.6742790208803323  0.0977052309050288   T   T   T
  0.9055144585645908  0.5029134644839242  0.0976865204526936   T   T   T
  0.6678232645106403  0.3335708574298739  0.0998772235644601   T   T   T
  0.6700957429497941  0.6724951322103057  0.0998129011535106   T   T   T
  0.1979090435252247  0.9163473220349655  0.0939509526480812   T   T   T
  0.4794780209234761  0.4980367658193972  0.1237762961883987   T   T   T
 
  0.00000000E+00  0.00000000E+00  0.00000000E+00
  0.00000000E+00  0.00000000E+00  0.00000000E+00
  0.00000000E+00  0.00000000E+00  0.00000000E+00
  0.00000000E+00  0.00000000E+00  0.00000000E+00
  0.00000000E+00  0.00000000E+00  0.00000000E+00
  0.00000000E+00  0.00000000E+00  0.00000000E+00
  0.00000000E+00  0.00000000E+00  0.00000000E+00
  0.00000000E+00  0.00000000E+00  0.00000000E+00
  0.00000000E+00  0.00000000E+00  0.00000000E+00
  0.00000000E+00  0.00000000E+00  0.00000000E+00
  0.00000000E+00  0.00000000E+00  0.00000000E+00
  0.00000000E+00  0.00000000E+00  0.00000000E+00
  0.00000000E+00  0.00000000E+00  0.00000000E+00
  0.00000000E+00  0.00000000E+00  0.00000000E+00
  0.00000000E+00  0.00000000E+00  0.00000000E+00
  0.00000000E+00  0.00000000E+00  0.00000000E+00
  0.00000000E+00  0.00000000E+00  0.00000000E+00
  0.00000000E+00  0.00000000E+00  0.00000000E+00
  0.00000000E+00  0.00000000E+00  0.00000000E+00
  0.00000000E+00  0.00000000E+00  0.00000000E+00
  0.00000000E+00  0.00000000E+00  0.00000000E+00
  0.00000000E+00  0.00000000E+00  0.00000000E+00
  0.00000000E+00  0.00000000E+00  0.00000000E+00
  0.00000000E+00  0.00000000E+00  0.00000000E+00
  0.00000000E+00  0.00000000E+00  0.00000000E+00
