Title                                   
   1.00000000000000     
     9.8694509999999998    0.0000000000000000    0.0000000000000000
     0.0000000000000000    8.5490480000000009    0.0000000000000000
     0.0000000000000000    0.0000000000000000   20.0000000000000000
    26     4     1
Selective dynamics
Direct
  0.0553687604366292  0.0893832584583677  0.0867956535188222   T   T   T
  0.9307058465379513  0.1715131966877883  0.0891546814491920   T   T   T
  0.0569106810520086  0.9235764140381207  0.0871574893900521   T   T   T
  0.9350167066006434  0.3384820591097803  0.0884838561602864   T   T   T
  0.0580933074934985  0.5899634546989894  0.0828447462413113   T   T   T
  0.9353986544816594  0.6742524759597424  0.0889457985743246   T   T   T
  0.0580082199209978  0.4228741684875980  0.0825217511383488   T   T   T
  0.9317404225692133  0.8406505983282747  0.0897114566859001   T   T   T
  0.3049647221785289  0.0873457429366589  0.0918198499201829   T   T   T
  0.1809797146314072  0.1706836705367590  0.0867961767915851   T   T   T
  0.1803820541836310  0.3391370275847185  0.0845460177364216   T   T   T
  0.3028850171290285  0.5912130303587327  0.0914339118375359   T   T   T
  0.1807942903657317  0.6733540778335254  0.0847662156990958   T   T   T
  0.3025694278635926  0.4199799227024115  0.0909805603701991   T   T   T
  0.1811177300736940  0.8411261976637128  0.0875662176955888   T   T   T
  0.4285207028526510  0.1749363465380444  0.0986603974381710   T   T   T
  0.5520850649833335  0.9213428201284467  0.1030498768316431   T   T   T
  0.4275092786666226  0.8379109608653484  0.0997751768638274   T   T   T
  0.8042821695168381  0.0896049763461838  0.0949518994652180   T   T   T
  0.6813328920637856  0.1773237387722699  0.1022408105422633   T   T   T
  0.8056392682064883  0.9219060286215370  0.0955131311111480   T   T   T
  0.6908073120943797  0.3423241919960436  0.1083886565568261   T   T   T
  0.8162203881644454  0.5911780641830713  0.0993893334392371   T   T   T
  0.6918661811944719  0.6701641530355552  0.1095507234531244   T   T   T
  0.8163169794344081  0.4209436435775937  0.0989233386720300   T   T   T
  0.6815087913763753  0.8362832922461438  0.1036658366128627   T   T   T
  0.5531213374065237  0.0934036108756621  0.1024287340620092   T   T   T
  0.4198934058059107  0.3337688693940131  0.1013909976726145   T   T   T
  0.4180927759877870  0.6767548346159759  0.1029764450817553   T   T   T
  0.3040791434223024  0.9229257870378902  0.0922983934525961   T   T   T
  0.5569237533054773  0.5065683863810462  0.1142368655358755   T   T   T
 
  0.00000000E+00  0.00000000E+00  0.00000000E+00
  0.00000000E+00  0.00000000E+00  0.00000000E+00
  0.00000000E+00  0.00000000E+00  0.00000000E+00
  0.00000000E+00  0.00000000E+00  0.00000000E+00
  0.00000000E+00  0.00000000E+00  0.00000000E+00
  0.00000000E+00  0.00000000E+00  0.00000000E+00
  0.00000000E+00  0.00000000E+00  0.00000000E+00
  0.00000000E+00  0.00000000E+00  0.00000000E+00
  0.00000000E+00  0.00000000E+00  0.00000000E+00
  0.00000000E+00  0.00000000E+00  0.00000000E+00
  0.00000000E+00  0.00000000E+00  0.00000000E+00
  0.00000000E+00  0.00000000E+00  0.00000000E+00
  0.00000000E+00  0.00000000E+00  0.00000000E+00
  0.00000000E+00  0.00000000E+00  0.00000000E+00
  0.00000000E+00  0.00000000E+00  0.00000000E+00
  0.00000000E+00  0.00000000E+00  0.00000000E+00
  0.00000000E+00  0.00000000E+00  0.00000000E+00
  0.00000000E+00  0.00000000E+00  0.00000000E+00
  0.00000000E+00  0.00000000E+00  0.00000000E+00
  0.00000000E+00  0.00000000E+00  0.00000000E+00
  0.00000000E+00  0.00000000E+00  0.00000000E+00
  0.00000000E+00  0.00000000E+00  0.00000000E+00
  0.00000000E+00  0.00000000E+00  0.00000000E+00
  0.00000000E+00  0.00000000E+00  0.00000000E+00
  0.00000000E+00  0.00000000E+00  0.00000000E+00
  0.00000000E+00  0.00000000E+00  0.00000000E+00
  0.00000000E+00  0.00000000E+00  0.00000000E+00
  0.00000000E+00  0.00000000E+00  0.00000000E+00
  0.00000000E+00  0.00000000E+00  0.00000000E+00
  0.00000000E+00  0.00000000E+00  0.00000000E+00
  0.00000000E+00  0.00000000E+00  0.00000000E+00
