Title                                   
   1.00000000000000     
     4.9440799999999996    0.0000000000000000    0.0000000000000000
     0.0000000000000000   17.1295089999999988    0.0000000000000000
     0.0000000000000000    0.0000000000000000   20.0000000000000000
    30     1     1
Selective dynamics
Direct
  0.0003864384628043  0.1046128448862014  0.2857671815294164   T   T   T
  0.2498545565844922  0.1465494517165437  0.2894568173909057   T   T   T
  0.2498870177839330  0.2295244697928573  0.2993618493954621   T   T   T
  0.0002586888186822  0.3514211936677509  0.3204641661006879   T   T   T
 -0.0020730738597312  0.2703778363428365  0.3045686864340658   T   T   T
 -0.0033258344906125  0.6046771015985312  0.3073512077087971   T   T   T
  0.2499029091208766  0.7284420136230373  0.2913754472192420   T   T   T
  0.0002004741221093  0.8539605130645641  0.2821870150440088   T   T   T
  0.2498778771615153  0.8959146924862637  0.2811944655400197   T   T   T
  0.2498516761648291  0.9793878301063889  0.2809560459856299   T   T   T
  0.0002755298857642  0.7706371588841728  0.2868485782779246   T   T   T
  0.4993320467810370  0.1046144889274450  0.2857661204687168   T   T   T
  0.7498653982729362  0.1462728886268751  0.2886384421317739   T   T   T
  0.7498755747062024  0.2285581684027605  0.2973545817252328   T   T   T
  0.4996355226590198  0.0213144049554560  0.2817397754296465   T   T   T
  0.4995632905208425  0.3514243356741639  0.3204605721262061   T   T   T
  0.7499399264669327  0.4778934379466336  0.3199464693528394   T   T   T
  0.5018533870455233  0.2703808093867988  0.3045686979054379   T   T   T
  0.5031599252990521  0.6046690956753167  0.3073023353847810   T   T   T
  0.7499086499540261  0.7293380084711011  0.2896674769943863   T   T   T
  0.4995731613906648  0.8539568551552961  0.2821803468947351   T   T   T
  0.7498802201735172  0.8958684779505732  0.2808509629648579   T   T   T
  0.7498662404028195  0.9793639494564159  0.2806700563257417   T   T   T
  0.4995168143338165  0.7706315120661359  0.2868352104893517   T   T   T
  0.7499277076559085  0.6467209601186871  0.2989559759777660   T   T   T
  0.2499068930038627  0.6458133383025152  0.3025788868696649   T   T   T
  0.0000782514680002  0.0213148492682602  0.2817449137717697   T   T   T
  0.5115342696795718  0.5229572167600589  0.3218859148402792   T   T   T
  0.9883326591766416  0.5229671123202417  0.3220079982572083   T   T   T
  0.2499220614629057  0.3885342119967226  0.3351774522559759   T   T   T
  0.7499011023803634  0.3938137086870077  0.3230691744555899   T   T   T
  0.2501536374116999  0.4866380636823805  0.3816321747518301   T   T   T
 
  0.00000000E+00  0.00000000E+00  0.00000000E+00
  0.00000000E+00  0.00000000E+00  0.00000000E+00
  0.00000000E+00  0.00000000E+00  0.00000000E+00
  0.00000000E+00  0.00000000E+00  0.00000000E+00
  0.00000000E+00  0.00000000E+00  0.00000000E+00
  0.00000000E+00  0.00000000E+00  0.00000000E+00
  0.00000000E+00  0.00000000E+00  0.00000000E+00
  0.00000000E+00  0.00000000E+00  0.00000000E+00
  0.00000000E+00  0.00000000E+00  0.00000000E+00
  0.00000000E+00  0.00000000E+00  0.00000000E+00
  0.00000000E+00  0.00000000E+00  0.00000000E+00
  0.00000000E+00  0.00000000E+00  0.00000000E+00
  0.00000000E+00  0.00000000E+00  0.00000000E+00
  0.00000000E+00  0.00000000E+00  0.00000000E+00
  0.00000000E+00  0.00000000E+00  0.00000000E+00
  0.00000000E+00  0.00000000E+00  0.00000000E+00
  0.00000000E+00  0.00000000E+00  0.00000000E+00
  0.00000000E+00  0.00000000E+00  0.00000000E+00
  0.00000000E+00  0.00000000E+00  0.00000000E+00
  0.00000000E+00  0.00000000E+00  0.00000000E+00
  0.00000000E+00  0.00000000E+00  0.00000000E+00
  0.00000000E+00  0.00000000E+00  0.00000000E+00
  0.00000000E+00  0.00000000E+00  0.00000000E+00
  0.00000000E+00  0.00000000E+00  0.00000000E+00
  0.00000000E+00  0.00000000E+00  0.00000000E+00
  0.00000000E+00  0.00000000E+00  0.00000000E+00
  0.00000000E+00  0.00000000E+00  0.00000000E+00
  0.00000000E+00  0.00000000E+00  0.00000000E+00
  0.00000000E+00  0.00000000E+00  0.00000000E+00
  0.00000000E+00  0.00000000E+00  0.00000000E+00
  0.00000000E+00  0.00000000E+00  0.00000000E+00
  0.00000000E+00  0.00000000E+00  0.00000000E+00
