Title                                   
   1.00000000000000     
     9.8694509999999998    0.0000000000000000    0.0000000000000000
     0.0000000000000000    8.5490480000000009    0.0000000000000000
     0.0000000000000000    0.0000000000000000   20.0000000000000000
    23     7     1
Selective dynamics
Direct
  0.0556600228690039  0.0896460279188442  0.0957036108814224   T   T   T
  0.9313138028614213  0.1721435894078211  0.0958551901979730   T   T   T
  0.0572784489449722  0.9207835673246374  0.0958807283016908   T   T   T
  0.9324761813728044  0.3387195265911719  0.0957006854000455   T   T   T
  0.0557413716938847  0.5903784455900076  0.0957121448436304   T   T   T
  0.0558109451182184  0.4236279808747231  0.0954509074344213   T   T   T
  0.9314153728348841  0.8384928624965440  0.0961394006640002   T   T   T
  0.3090463116622230  0.0900330250713038  0.0966946210061500   T   T   T
  0.1814439108970576  0.1715387467080210  0.0959582863482795   T   T   T
  0.1803746035766493  0.3389070005455511  0.0959112387693449   T   T   T
  0.3030700234347373  0.5895749791425208  0.0969763523080159   T   T   T
  0.1794261662050671  0.6735925342768796  0.0962102355869564   T   T   T
  0.3043863520689952  0.4220023878091423  0.0969947317377652   T   T   T
  0.1815179597423158  0.8404970869342446  0.0962099581722442   T   T   T
  0.4302293206933998  0.1782869258167463  0.0976666595859463   T   T   T
  0.5552555124568914  0.9186974042779772  0.0979642800799596   T   T   T
  0.4299390063862927  0.8339094955045240  0.0976304397763270   T   T   T
  0.8040610993081826  0.0895646435175888  0.0966022646607444   T   T   T
  0.6816118477389506  0.1802510562268543  0.0974068589379559   T   T   T
  0.8055306371649539  0.9205020329595744  0.0967480033057624   T   T   T
  0.8090105542748027  0.5902912115962669  0.0967464879792394   T   T   T
  0.8092577459556494  0.4222060475083072  0.0965415518206465   T   T   T
  0.6808711042058294  0.8333180069805404  0.0976689852811363   T   T   T
  0.9321621240960827  0.6726858703700497  0.0959167852811105   T   T   T
  0.5568197267837803  0.0968569260754567  0.0980763240286212   T   T   T
  0.4265467461770999  0.3421373341169933  0.0983009403245809   T   T   T
  0.4248705529224533  0.6720833232663411  0.0978460402296995   T   T   T
  0.6860053724821791  0.3429668754061851  0.0975343998708549   T   T   T
  0.6884737134506442  0.6692333804838507  0.0979386091915298   T   T   T
  0.3069070162618965  0.9209800331717621  0.0967353213616588   T   T   T
  0.5566224463586773  0.5069666720295687  0.0982429566323443   T   T   T
 
  0.00000000E+00  0.00000000E+00  0.00000000E+00
  0.00000000E+00  0.00000000E+00  0.00000000E+00
  0.00000000E+00  0.00000000E+00  0.00000000E+00
  0.00000000E+00  0.00000000E+00  0.00000000E+00
  0.00000000E+00  0.00000000E+00  0.00000000E+00
  0.00000000E+00  0.00000000E+00  0.00000000E+00
  0.00000000E+00  0.00000000E+00  0.00000000E+00
  0.00000000E+00  0.00000000E+00  0.00000000E+00
  0.00000000E+00  0.00000000E+00  0.00000000E+00
  0.00000000E+00  0.00000000E+00  0.00000000E+00
  0.00000000E+00  0.00000000E+00  0.00000000E+00
  0.00000000E+00  0.00000000E+00  0.00000000E+00
  0.00000000E+00  0.00000000E+00  0.00000000E+00
  0.00000000E+00  0.00000000E+00  0.00000000E+00
  0.00000000E+00  0.00000000E+00  0.00000000E+00
  0.00000000E+00  0.00000000E+00  0.00000000E+00
  0.00000000E+00  0.00000000E+00  0.00000000E+00
  0.00000000E+00  0.00000000E+00  0.00000000E+00
  0.00000000E+00  0.00000000E+00  0.00000000E+00
  0.00000000E+00  0.00000000E+00  0.00000000E+00
  0.00000000E+00  0.00000000E+00  0.00000000E+00
  0.00000000E+00  0.00000000E+00  0.00000000E+00
  0.00000000E+00  0.00000000E+00  0.00000000E+00
  0.00000000E+00  0.00000000E+00  0.00000000E+00
  0.00000000E+00  0.00000000E+00  0.00000000E+00
  0.00000000E+00  0.00000000E+00  0.00000000E+00
  0.00000000E+00  0.00000000E+00  0.00000000E+00
  0.00000000E+00  0.00000000E+00  0.00000000E+00
  0.00000000E+00  0.00000000E+00  0.00000000E+00
  0.00000000E+00  0.00000000E+00  0.00000000E+00
  0.00000000E+00  0.00000000E+00  0.00000000E+00
