Title                                   
   1.00000000000000     
     4.9440799999999996    0.0000000000000000    0.0000000000000000
     0.0000000000000000   17.1295089999999988    0.0000000000000000
     0.0000000000000000    0.0000000000000000   20.0000000000000000
    30     1     1
Selective dynamics
Direct
  0.0003374457158165  0.1045235213314920  0.2855341094897311   T   T   T
  0.2498994678266259  0.1464789245157965  0.2877613949265337   T   T   T
  0.2498813649073180  0.2298694198699986  0.2944373846159562   T   T   T
  0.0004994073125770  0.3531309924858352  0.3105393183040722   T   T   T
 -0.0013813022502833  0.2709154583888427  0.2984326117915209   T   T   T
 -0.0028463913200717  0.6043801489898565  0.3100296931441802   T   T   T
  0.2498850738916312  0.7282367826938548  0.2956846311080155   T   T   T
  0.0002890921657737  0.8538687669067365  0.2862654310105848   T   T   T
  0.2498878123794850  0.8958088980713689  0.2847439198158334   T   T   T
  0.2499225728325631  0.9792005472705474  0.2832893327081706   T   T   T
  0.0004635568942725  0.7706611833794834  0.2912826683808554   T   T   T
  0.4994304302216240  0.1045257582224981  0.2855326106251797   T   T   T
  0.7498892627975677  0.1462261443131831  0.2874050708743721   T   T   T
  0.7498521965646862  0.2290193007827629  0.2934877411371226   T   T   T
  0.4997742702731146  0.0210990637867014  0.2833416185435346   T   T   T
  0.4992678007046936  0.3531307965373502  0.3105368486673139   T   T   T
  0.7499482730791489  0.4765808767214319  0.3172233791448477   T   T   T
  0.5011115537865751  0.2709230717175393  0.2984276542379380   T   T   T
  0.5026901229791181  0.6043864600082101  0.3100308187223826   T   T   T
  0.7499010992999582  0.7295861238858101  0.2939724925009600   T   T   T
  0.4995355260596471  0.8538767873908366  0.2862614628604705   T   T   T
  0.7499051592513881  0.8956711780980533  0.2844963282537433   T   T   T
  0.7499186698328929  0.9791612899007173  0.2831250089079801   T   T   T
  0.4993117004578025  0.7706623560522475  0.2912810473228513   T   T   T
  0.7499403674809766  0.6470987840756413  0.3028564634926356   T   T   T
  0.2499126250488287  0.6455825178538942  0.3056106137437515   T   T   T
  0.0000449416412903  0.0210943326369186  0.2833417555307786   T   T   T
  0.5205629421341442  0.5230817920357430  0.3213741418180563   T   T   T
  0.9792913977281538  0.5230831827017767  0.3213671601689393   T   T   T
  0.2498874064416182  0.3912802699417101  0.3205377720839311   T   T   T
  0.7499077279690270  0.3936467829393599  0.3145440113128646   T   T   T
  0.2499014258920412  0.4817594864937937  0.3998105047548458   T   T   T
 
  0.00000000E+00  0.00000000E+00  0.00000000E+00
  0.00000000E+00  0.00000000E+00  0.00000000E+00
  0.00000000E+00  0.00000000E+00  0.00000000E+00
  0.00000000E+00  0.00000000E+00  0.00000000E+00
  0.00000000E+00  0.00000000E+00  0.00000000E+00
  0.00000000E+00  0.00000000E+00  0.00000000E+00
  0.00000000E+00  0.00000000E+00  0.00000000E+00
  0.00000000E+00  0.00000000E+00  0.00000000E+00
  0.00000000E+00  0.00000000E+00  0.00000000E+00
  0.00000000E+00  0.00000000E+00  0.00000000E+00
  0.00000000E+00  0.00000000E+00  0.00000000E+00
  0.00000000E+00  0.00000000E+00  0.00000000E+00
  0.00000000E+00  0.00000000E+00  0.00000000E+00
  0.00000000E+00  0.00000000E+00  0.00000000E+00
  0.00000000E+00  0.00000000E+00  0.00000000E+00
  0.00000000E+00  0.00000000E+00  0.00000000E+00
  0.00000000E+00  0.00000000E+00  0.00000000E+00
  0.00000000E+00  0.00000000E+00  0.00000000E+00
  0.00000000E+00  0.00000000E+00  0.00000000E+00
  0.00000000E+00  0.00000000E+00  0.00000000E+00
  0.00000000E+00  0.00000000E+00  0.00000000E+00
  0.00000000E+00  0.00000000E+00  0.00000000E+00
  0.00000000E+00  0.00000000E+00  0.00000000E+00
  0.00000000E+00  0.00000000E+00  0.00000000E+00
  0.00000000E+00  0.00000000E+00  0.00000000E+00
  0.00000000E+00  0.00000000E+00  0.00000000E+00
  0.00000000E+00  0.00000000E+00  0.00000000E+00
  0.00000000E+00  0.00000000E+00  0.00000000E+00
  0.00000000E+00  0.00000000E+00  0.00000000E+00
  0.00000000E+00  0.00000000E+00  0.00000000E+00
  0.00000000E+00  0.00000000E+00  0.00000000E+00
  0.00000000E+00  0.00000000E+00  0.00000000E+00
