Title                                   
   1.00000000000000     
     9.8694509999999998    0.0000000000000000    0.0000000000000000
     0.0000000000000000    8.5490480000000009    0.0000000000000000
     0.0000000000000000    0.0000000000000000   20.0000000000000000
    27     4     1
Selective dynamics
Direct
  0.0557858492641621  0.0928678063039906  0.0873284459357214   T   T   T
  0.9309950179254598  0.1746668628105757  0.0889308533057141   T   T   T
  0.0573529300324404  0.9253040877225193  0.0864806229257871   T   T   T
  0.9293641374868832  0.3424275406590794  0.0920475415577088   T   T   T
  0.0567140239526888  0.5905429814181336  0.0879929171995567   T   T   T
  0.9325877326092519  0.6739373981515538  0.0893074702403329   T   T   T
  0.0568117206530739  0.4235858966313825  0.0901426924198687   T   T   T
  0.9329277861183722  0.8402433014828290  0.0879394573284197   T   T   T
  0.3056702038343087  0.0882051105310021  0.0897433431735297   T   T   T
  0.1821178852785186  0.1740970665946114  0.0890185897676602   T   T   T
  0.1839765371535881  0.3413781651482806  0.0912045794730267   T   T   T
  0.3059430499689947  0.5935990635173285  0.0961955629493492   T   T   T
  0.1809068428376245  0.6750498580295612  0.0884007941063889   T   T   T
  0.3103200958109690  0.4255648237484714  0.0964078719386151   T   T   T
  0.1806583117646492  0.8411755737587918  0.0876505455789814   T   T   T
  0.5565065931194788  0.0827979277368723  0.0945504539333431   T   T   T
  0.4312339608570287  0.1673715400295655  0.0930666672095247   T   T   T
  0.5552224198569028  0.9163311062372645  0.0983066200148629   T   T   T
  0.4348744043993387  0.3339249377053739  0.0987094159512380   T   T   T
  0.4258897697351384  0.8367998705814652  0.0980852284559537   T   T   T
  0.8065655799697277  0.0888533958394759  0.0890155234666860   T   T   T
  0.6806814203247404  0.1684331656481093  0.0926384060776676   T   T   T
  0.8074967222594611  0.9231518339913252  0.0896419318929287   T   T   T
  0.6770413477450863  0.3347292006976864  0.0992558289143139   T   T   T
  0.8067350626951375  0.5941364900802686  0.0982599873517397   T   T   T
  0.8027619274606287  0.4249021814033636  0.0981061205230289   T   T   T
  0.6853068588959149  0.8355265675284594  0.0983412826626661   T   T   T
  0.4196100856090715  0.6821044966432869  0.1061851042692780   T   T   T
  0.5557805585376944  0.4070727953487053  0.1077662090569575   T   T   T
  0.6919041905767966  0.6789582108161415  0.1083301177742887   T   T   T
  0.3049806099740480  0.9241909725171606  0.0895839377105321   T   T   T
  0.5549153632928274  0.5883157706873668  0.1770408768343461   T   T   T
 
  0.00000000E+00  0.00000000E+00  0.00000000E+00
  0.00000000E+00  0.00000000E+00  0.00000000E+00
  0.00000000E+00  0.00000000E+00  0.00000000E+00
  0.00000000E+00  0.00000000E+00  0.00000000E+00
  0.00000000E+00  0.00000000E+00  0.00000000E+00
  0.00000000E+00  0.00000000E+00  0.00000000E+00
  0.00000000E+00  0.00000000E+00  0.00000000E+00
  0.00000000E+00  0.00000000E+00  0.00000000E+00
  0.00000000E+00  0.00000000E+00  0.00000000E+00
  0.00000000E+00  0.00000000E+00  0.00000000E+00
  0.00000000E+00  0.00000000E+00  0.00000000E+00
  0.00000000E+00  0.00000000E+00  0.00000000E+00
  0.00000000E+00  0.00000000E+00  0.00000000E+00
  0.00000000E+00  0.00000000E+00  0.00000000E+00
  0.00000000E+00  0.00000000E+00  0.00000000E+00
  0.00000000E+00  0.00000000E+00  0.00000000E+00
  0.00000000E+00  0.00000000E+00  0.00000000E+00
  0.00000000E+00  0.00000000E+00  0.00000000E+00
  0.00000000E+00  0.00000000E+00  0.00000000E+00
  0.00000000E+00  0.00000000E+00  0.00000000E+00
  0.00000000E+00  0.00000000E+00  0.00000000E+00
  0.00000000E+00  0.00000000E+00  0.00000000E+00
  0.00000000E+00  0.00000000E+00  0.00000000E+00
  0.00000000E+00  0.00000000E+00  0.00000000E+00
  0.00000000E+00  0.00000000E+00  0.00000000E+00
  0.00000000E+00  0.00000000E+00  0.00000000E+00
  0.00000000E+00  0.00000000E+00  0.00000000E+00
  0.00000000E+00  0.00000000E+00  0.00000000E+00
  0.00000000E+00  0.00000000E+00  0.00000000E+00
  0.00000000E+00  0.00000000E+00  0.00000000E+00
  0.00000000E+00  0.00000000E+00  0.00000000E+00
  0.00000000E+00  0.00000000E+00  0.00000000E+00
