Title                                   
   1.00000000000000     
     9.8694509999999998    0.0000000000000000    0.0000000000000000
     0.0000000000000000    8.5490480000000009    0.0000000000000000
     0.0000000000000000    0.0000000000000000   20.0000000000000000
    27     3     1
Selective dynamics
Direct
  0.0554645136417022  0.0888163375753679  0.0812493281303680   T   T   T
  0.9303453633464368  0.1724827411253268  0.0833534998683923   T   T   T
  0.0572002901632870  0.9229097263202231  0.0815322256112893   T   T   T
  0.9325117372492578  0.3401677176997757  0.0841825812371882   T   T   T
  0.0573368584837057  0.5901249034038609  0.0806284988588261   T   T   T
  0.9328238871670191  0.6731481794229668  0.0847863599153523   T   T   T
  0.0573924956030652  0.4230048817921457  0.0802375478640269   T   T   T
  0.9315022972210547  0.8399497211763621  0.0842150371597735   T   T   T
  0.3056774301848106  0.0873211055433067  0.0887151447611094   T   T   T
  0.1816908232843789  0.1702547103491110  0.0832735120804395   T   T   T
  0.1815372308197034  0.3384725156380635  0.0827335609946725   T   T   T
  0.3070196919538026  0.5886892900178315  0.0930827199895526   T   T   T
  0.1828437992309515  0.6723189187897164  0.0829303411950831   T   T   T
  0.3047027197213393  0.4175377613383140  0.0921296759546957   T   T   T
  0.1829497174877174  0.8394642242261333  0.0835331386791935   T   T   T
  0.4290170591599689  0.1744943535633956  0.0982974269457269   T   T   T
  0.5541099207022826  0.9249475371314118  0.1042480842862064   T   T   T
  0.4248101692347892  0.6743321268254607  0.1089614084583754   T   T   T
  0.4292255743855755  0.8394197346907657  0.1018835382221803   T   T   T
  0.8046061697885856  0.0895840245936906  0.0884842619522532   T   T   T
  0.6814821983852895  0.1775846920081552  0.0991500738531065   T   T   T
  0.8058643035633055  0.9230939290993647  0.0897939962786631   T   T   T
  0.6874973361362205  0.3391566897490827  0.1089912552795022   T   T   T
  0.8097530322380044  0.5923008671410793  0.0972987063016375   T   T   T
  0.6891401885498591  0.6746558968870144  0.1135151976515813   T   T   T
  0.8102847534422676  0.4212823851495940  0.0960555062449034   T   T   T
  0.6816587948290341  0.8397756065658399  0.1030909948939894   T   T   T
  0.5541744615807416  0.0939635687280122  0.1014416099771363   T   T   T
  0.4225703255197210  0.3332423708688115  0.1051479752836493   T   T   T
  0.3057709890084950  0.9227152562118673  0.0889635123943723   T   T   T
  0.5521708679176449  0.5056632263679691  0.1690582796768020   T   T   T
 
  0.00000000E+00  0.00000000E+00  0.00000000E+00
  0.00000000E+00  0.00000000E+00  0.00000000E+00
  0.00000000E+00  0.00000000E+00  0.00000000E+00
  0.00000000E+00  0.00000000E+00  0.00000000E+00
  0.00000000E+00  0.00000000E+00  0.00000000E+00
  0.00000000E+00  0.00000000E+00  0.00000000E+00
  0.00000000E+00  0.00000000E+00  0.00000000E+00
  0.00000000E+00  0.00000000E+00  0.00000000E+00
  0.00000000E+00  0.00000000E+00  0.00000000E+00
  0.00000000E+00  0.00000000E+00  0.00000000E+00
  0.00000000E+00  0.00000000E+00  0.00000000E+00
  0.00000000E+00  0.00000000E+00  0.00000000E+00
  0.00000000E+00  0.00000000E+00  0.00000000E+00
  0.00000000E+00  0.00000000E+00  0.00000000E+00
  0.00000000E+00  0.00000000E+00  0.00000000E+00
  0.00000000E+00  0.00000000E+00  0.00000000E+00
  0.00000000E+00  0.00000000E+00  0.00000000E+00
  0.00000000E+00  0.00000000E+00  0.00000000E+00
  0.00000000E+00  0.00000000E+00  0.00000000E+00
  0.00000000E+00  0.00000000E+00  0.00000000E+00
  0.00000000E+00  0.00000000E+00  0.00000000E+00
  0.00000000E+00  0.00000000E+00  0.00000000E+00
  0.00000000E+00  0.00000000E+00  0.00000000E+00
  0.00000000E+00  0.00000000E+00  0.00000000E+00
  0.00000000E+00  0.00000000E+00  0.00000000E+00
  0.00000000E+00  0.00000000E+00  0.00000000E+00
  0.00000000E+00  0.00000000E+00  0.00000000E+00
  0.00000000E+00  0.00000000E+00  0.00000000E+00
  0.00000000E+00  0.00000000E+00  0.00000000E+00
  0.00000000E+00  0.00000000E+00  0.00000000E+00
  0.00000000E+00  0.00000000E+00  0.00000000E+00
