Title                                   
   1.00000000000000     
     4.9440799999999996    0.0000000000000000    0.0000000000000000
     0.0000000000000000   17.1295089999999988    0.0000000000000000
     0.0000000000000000    0.0000000000000000   20.0000000000000000
    30     1     1
Selective dynamics
Direct
  0.0004065073440558  0.1046042411104567  0.2852861206620476   T   T   T
  0.2498649356857993  0.1465992777335077  0.2886678528736029   T   T   T
  0.2498503120406348  0.2296440191441997  0.2979711205339614   T   T   T
 -0.0003395448484345  0.3517228169680691  0.3187369193601364   T   T   T
 -0.0017707651578261  0.2705819429016940  0.3030279098443746   T   T   T
 -0.0030097833398194  0.6048806509366322  0.3086143775083682   T   T   T
  0.2498980294566992  0.7283194656863783  0.2923089223536462   T   T   T
  0.0000903969332870  0.8538549204545267  0.2825678687742131   T   T   T
  0.2498503227920398  0.8959293607665887  0.2814876920876712   T   T   T
  0.2498653999822039  0.9792617329787906  0.2809503069747183   T   T   T
 -0.0000255541631567  0.7706605369500903  0.2873830374080377   T   T   T
  0.4992750409154670  0.1046032553420979  0.2852855915421688   T   T   T
  0.7498621587970725  0.1463737960819738  0.2879821816202940   T   T   T
  0.7498523717002341  0.2287528588576436  0.2961588660856090   T   T   T
  0.4997212098859516  0.0213104106480955  0.2816023195308899   T   T   T
  0.5001653655647317  0.3517264534224639  0.3187310188128882   T   T   T
  0.7500127055364367  0.4777206945360698  0.3197009102485728   T   T   T
  0.5015011183715752  0.2705812344306329  0.3030269138180332   T   T   T
  0.5028732254079936  0.6048818373473860  0.3085750243377631   T   T   T
  0.7499052957942096  0.7293361600790059  0.2900972585893598   T   T   T
  0.4996554939305665  0.8538546308934409  0.2825624997037349   T   T   T
  0.7498600569338250  0.8958168790762790  0.2811091067177642   T   T   T
  0.7498558511159125  0.9793202908960833  0.2806749284381403   T   T   T
  0.4997787593535588  0.7706616845781058  0.2873752122172008   T   T   T
  0.7499276896540810  0.6466106598480603  0.2996365486159444   T   T   T
  0.2499022169621845  0.6463092774221132  0.3039076945516444   T   T   T
  0.0000041370872121  0.0213096470968854  0.2816057021030055   T   T   T
  0.5150242532530532  0.5238385444971299  0.3238226293969451   T   T   T
  0.9849497215021564  0.5238428883331596  0.3239136023568008   T   T   T
  0.2499420424837394  0.3879393498051800  0.3337297456624296   T   T   T
  0.7499322873224691  0.3938804625327021  0.3221225107443345   T   T   T
  0.2501417417020931  0.4838210186445492  0.3839426065256501   T   T   T
 
  0.00000000E+00  0.00000000E+00  0.00000000E+00
  0.00000000E+00  0.00000000E+00  0.00000000E+00
  0.00000000E+00  0.00000000E+00  0.00000000E+00
  0.00000000E+00  0.00000000E+00  0.00000000E+00
  0.00000000E+00  0.00000000E+00  0.00000000E+00
  0.00000000E+00  0.00000000E+00  0.00000000E+00
  0.00000000E+00  0.00000000E+00  0.00000000E+00
  0.00000000E+00  0.00000000E+00  0.00000000E+00
  0.00000000E+00  0.00000000E+00  0.00000000E+00
  0.00000000E+00  0.00000000E+00  0.00000000E+00
  0.00000000E+00  0.00000000E+00  0.00000000E+00
  0.00000000E+00  0.00000000E+00  0.00000000E+00
  0.00000000E+00  0.00000000E+00  0.00000000E+00
  0.00000000E+00  0.00000000E+00  0.00000000E+00
  0.00000000E+00  0.00000000E+00  0.00000000E+00
  0.00000000E+00  0.00000000E+00  0.00000000E+00
  0.00000000E+00  0.00000000E+00  0.00000000E+00
  0.00000000E+00  0.00000000E+00  0.00000000E+00
  0.00000000E+00  0.00000000E+00  0.00000000E+00
  0.00000000E+00  0.00000000E+00  0.00000000E+00
  0.00000000E+00  0.00000000E+00  0.00000000E+00
  0.00000000E+00  0.00000000E+00  0.00000000E+00
  0.00000000E+00  0.00000000E+00  0.00000000E+00
  0.00000000E+00  0.00000000E+00  0.00000000E+00
  0.00000000E+00  0.00000000E+00  0.00000000E+00
  0.00000000E+00  0.00000000E+00  0.00000000E+00
  0.00000000E+00  0.00000000E+00  0.00000000E+00
  0.00000000E+00  0.00000000E+00  0.00000000E+00
  0.00000000E+00  0.00000000E+00  0.00000000E+00
  0.00000000E+00  0.00000000E+00  0.00000000E+00
  0.00000000E+00  0.00000000E+00  0.00000000E+00
  0.00000000E+00  0.00000000E+00  0.00000000E+00
