Title                                   
   1.00000000000000     
     8.5490480000000009    0.0000000000000000    0.0000000000000000
     0.0000000000000000    8.5490480000000009    0.0000000000000000
     0.0000000000000000    0.0000000000000000   20.0000000000000000
    19     5     1
Selective dynamics
Direct
  0.9089299354229088  0.2071274006322432  0.0973058915610132   T   T   T
  0.9112847666614453  0.8004098998360988  0.0976458348774110   T   T   T
  0.1968959781236074  0.0827463922914139  0.0977021469074896   T   T   T
  0.0762442505771331  0.2015872905722309  0.0976559841984103   T   T   T
  0.1575620707372977  0.6498976716963185  0.0976306903307951   T   T   T
  0.0778080430558548  0.5010753304730706  0.0977493775614068   T   T   T
  0.1576750417344692  0.3513244792920854  0.0979192436500654   T   T   T
  0.0788468110807349  0.7990823848412932  0.0975242993382020   T   T   T
  0.3439774708051849  0.1651906521180637  0.0979164707578619   T   T   T
  0.4922954258334551  0.9180073641038232  0.0977900112324436   T   T   T
  0.3452252606992117  0.8368973395347513  0.0976680338195069   T   T   T
  0.7865651734128211  0.0854752103874772  0.0973596105339252   T   T   T
  0.6382537803369384  0.1674980046170280  0.0974809736259178   T   T   T
  0.7895611515046512  0.9193817545914945  0.0976760169067633   T   T   T
  0.8295985057998441  0.6513881101199147  0.0978162850142937   T   T   T
  0.8280633105229849  0.3555321280507224  0.0973866710670942   T   T   T
  0.6414574675004840  0.8369672513148059  0.0979136356017522   T   T   T
  0.3244107581300407  0.6720366518600188  0.0978588607580922   T   T   T
  0.6599944032050692  0.3351719376538090  0.0976800556181772   T   T   T
  0.4930760788060320  0.0875282030480772  0.0977977277273080   T   T   T
  0.9079962613404217  0.5024436323844637  0.0976822817081471   T   T   T
  0.3215574530710006  0.3271865874219770  0.0982238378039211   T   T   T
  0.6671211152924673  0.6730618149387858  0.0981264396076647   T   T   T
  0.1960702615080140  0.9166067324748958  0.0975582664088237   T   T   T
  0.4949412248379143  0.5011657757451516  0.0986363533834938   T   T   T
 
  0.00000000E+00  0.00000000E+00  0.00000000E+00
  0.00000000E+00  0.00000000E+00  0.00000000E+00
  0.00000000E+00  0.00000000E+00  0.00000000E+00
  0.00000000E+00  0.00000000E+00  0.00000000E+00
  0.00000000E+00  0.00000000E+00  0.00000000E+00
  0.00000000E+00  0.00000000E+00  0.00000000E+00
  0.00000000E+00  0.00000000E+00  0.00000000E+00
  0.00000000E+00  0.00000000E+00  0.00000000E+00
  0.00000000E+00  0.00000000E+00  0.00000000E+00
  0.00000000E+00  0.00000000E+00  0.00000000E+00
  0.00000000E+00  0.00000000E+00  0.00000000E+00
  0.00000000E+00  0.00000000E+00  0.00000000E+00
  0.00000000E+00  0.00000000E+00  0.00000000E+00
  0.00000000E+00  0.00000000E+00  0.00000000E+00
  0.00000000E+00  0.00000000E+00  0.00000000E+00
  0.00000000E+00  0.00000000E+00  0.00000000E+00
  0.00000000E+00  0.00000000E+00  0.00000000E+00
  0.00000000E+00  0.00000000E+00  0.00000000E+00
  0.00000000E+00  0.00000000E+00  0.00000000E+00
  0.00000000E+00  0.00000000E+00  0.00000000E+00
  0.00000000E+00  0.00000000E+00  0.00000000E+00
  0.00000000E+00  0.00000000E+00  0.00000000E+00
  0.00000000E+00  0.00000000E+00  0.00000000E+00
  0.00000000E+00  0.00000000E+00  0.00000000E+00
  0.00000000E+00  0.00000000E+00  0.00000000E+00
