Title                                   
   1.00000000000000     
     9.8694509999999998    0.0000000000000000    0.0000000000000000
     0.0000000000000000    8.5490480000000009    0.0000000000000000
     0.0000000000000000    0.0000000000000000   20.0000000000000000
    30     1     1
Selective dynamics
Direct
  0.0559231562434647  0.0901016556276163  0.0853327299884726   T   T   T
  0.9315230108694903  0.1715646269949526  0.0856363629769303   T   T   T
  0.0566251473547644  0.9236210305543080  0.0857825691573969   T   T   T
  0.9322562873093211  0.3390576979346085  0.0868324707093154   T   T   T
  0.0571072147846378  0.5898700740088236  0.0860986647438569   T   T   T
  0.9324750338349727  0.6723471295940618  0.0870836286889342   T   T   T
  0.0576593379106447  0.4228022929370150  0.0868644537328141   T   T   T
  0.9313272298973031  0.8386693419155634  0.0866797809604735   T   T   T
  0.3053507227573930  0.0899513571492630  0.0907311278220519   T   T   T
  0.1814390076153881  0.1727988335875013  0.0876708070830131   T   T   T
  0.1828896116609595  0.3402831096287212  0.0898731280859414   T   T   T
  0.3035540516843073  0.5915273456264429  0.1024015996744287   T   T   T
  0.1813660203369516  0.6747963065694814  0.0900227704355455   T   T   T
  0.3061787127134858  0.4241984124278398  0.0986686092121000   T   T   T
  0.1809879667932381  0.8415580217516051  0.0890714135463040   T   T   T
  0.5558969971610829  0.0878376117199046  0.0944420356316543   T   T   T
  0.4307454141848171  0.1716121048198123  0.0947890081152611   T   T   T
  0.5533799225769763  0.9226864409762564  0.0985869209258747   T   T   T
  0.4314766266070179  0.3390032572927472  0.1010577967825098   T   T   T
  0.4160693380079185  0.6844074430764903  0.1207194516625745   T   T   T
  0.5598876353085418  0.4104407282384431  0.1094128599572328   T   T   T
  0.4255921965444982  0.8432898938036724  0.1042040939449946   T   T   T
  0.8064798757821877  0.0873400693096046  0.0875369412239343   T   T   T
  0.6818391957754283  0.1697350302826560  0.0915173427121296   T   T   T
  0.8056635247901645  0.9211813421871575  0.0891170166498014   T   T   T
  0.6834388425453859  0.3358592245460663  0.0967633119324995   T   T   T
  0.8083848118403614  0.5878445734697718  0.0939906959795759   T   T   T
  0.6895178062145660  0.6740181553769492  0.1049684554219901   T   T   T
  0.8086483541542711  0.4205390707635240  0.0920287660353104   T   T   T
  0.6795303833894405  0.8377253583649665  0.0973313085812907   T   T   T
  0.3042993602062503  0.9256792999194287  0.0922872901440795   T   T   T
  0.5621262031447763  0.5878991595447530  0.1581715874817425   T   T   T
 
  0.00000000E+00  0.00000000E+00  0.00000000E+00
  0.00000000E+00  0.00000000E+00  0.00000000E+00
  0.00000000E+00  0.00000000E+00  0.00000000E+00
  0.00000000E+00  0.00000000E+00  0.00000000E+00
  0.00000000E+00  0.00000000E+00  0.00000000E+00
  0.00000000E+00  0.00000000E+00  0.00000000E+00
  0.00000000E+00  0.00000000E+00  0.00000000E+00
  0.00000000E+00  0.00000000E+00  0.00000000E+00
  0.00000000E+00  0.00000000E+00  0.00000000E+00
  0.00000000E+00  0.00000000E+00  0.00000000E+00
  0.00000000E+00  0.00000000E+00  0.00000000E+00
  0.00000000E+00  0.00000000E+00  0.00000000E+00
  0.00000000E+00  0.00000000E+00  0.00000000E+00
  0.00000000E+00  0.00000000E+00  0.00000000E+00
  0.00000000E+00  0.00000000E+00  0.00000000E+00
  0.00000000E+00  0.00000000E+00  0.00000000E+00
  0.00000000E+00  0.00000000E+00  0.00000000E+00
  0.00000000E+00  0.00000000E+00  0.00000000E+00
  0.00000000E+00  0.00000000E+00  0.00000000E+00
  0.00000000E+00  0.00000000E+00  0.00000000E+00
  0.00000000E+00  0.00000000E+00  0.00000000E+00
  0.00000000E+00  0.00000000E+00  0.00000000E+00
  0.00000000E+00  0.00000000E+00  0.00000000E+00
  0.00000000E+00  0.00000000E+00  0.00000000E+00
  0.00000000E+00  0.00000000E+00  0.00000000E+00
  0.00000000E+00  0.00000000E+00  0.00000000E+00
  0.00000000E+00  0.00000000E+00  0.00000000E+00
  0.00000000E+00  0.00000000E+00  0.00000000E+00
  0.00000000E+00  0.00000000E+00  0.00000000E+00
  0.00000000E+00  0.00000000E+00  0.00000000E+00
  0.00000000E+00  0.00000000E+00  0.00000000E+00
  0.00000000E+00  0.00000000E+00  0.00000000E+00
