Title                                   
   1.00000000000000     
     8.5490480000000009    0.0000000000000000    0.0000000000000000
     0.0000000000000000    8.5490480000000009    0.0000000000000000
     0.0000000000000000    0.0000000000000000   20.0000000000000000
    19     5     1
Selective dynamics
Direct
  0.9079168920043813  0.2068993631766023  0.0976290257846838   T   T   T
  0.9110539630027850  0.8000884137774343  0.0976559816930888   T   T   T
  0.1995121768378222  0.0842955043807280  0.0978435635648828   T   T   T
  0.0773015596055578  0.2028541552697431  0.0977169721938629   T   T   T
  0.1569290407731482  0.6478748150050726  0.0977228941827684   T   T   T
  0.0722393350791134  0.5003677817106208  0.0977324297723026   T   T   T
  0.1563107008059483  0.3552554238869847  0.0976976533807511   T   T   T
  0.0803033293614963  0.7979400065327454  0.0977685152711620   T   T   T
  0.3490421145266346  0.1691968596043193  0.0978331488127664   T   T   T
  0.4947736679755003  0.9183575409342805  0.0978127201324697   T   T   T
  0.3479766801629923  0.8334249630719047  0.0978460498999819   T   T   T
  0.7877556103403767  0.0869050315568634  0.0975922434585104   T   T   T
  0.6406874887353781  0.1684439358533205  0.0977292839316638   T   T   T
  0.7901820010103603  0.9186138687445449  0.0976031700108190   T   T   T
  0.8253571508141653  0.6514577544137640  0.0977498410906626   T   T   T
  0.8231849634245628  0.3536654359724978  0.0977264904871771   T   T   T
  0.6425217779726473  0.8367589743927550  0.0977145201864029   T   T   T
  0.3273870443095914  0.3374388945333218  0.0977188441242363   T   T   T
  0.3257061220629331  0.6664658716670849  0.0977161262141039   T   T   T
  0.4956219126961686  0.0873947254385306  0.0978708948276301   T   T   T
  0.9019438381670023  0.5019286298462204  0.0978055867319795   T   T   T
  0.6599346262466297  0.3313199638326287  0.0978053100983673   T   T   T
  0.6647611674121278  0.6725087741643290  0.0978041906319132   T   T   T
  0.1988696069715439  0.9153473472550725  0.0979294612682741   T   T   T
  0.4881392297011263  0.4999859649786513  0.0976800822495123   T   T   T
 
  0.00000000E+00  0.00000000E+00  0.00000000E+00
  0.00000000E+00  0.00000000E+00  0.00000000E+00
  0.00000000E+00  0.00000000E+00  0.00000000E+00
  0.00000000E+00  0.00000000E+00  0.00000000E+00
  0.00000000E+00  0.00000000E+00  0.00000000E+00
  0.00000000E+00  0.00000000E+00  0.00000000E+00
  0.00000000E+00  0.00000000E+00  0.00000000E+00
  0.00000000E+00  0.00000000E+00  0.00000000E+00
  0.00000000E+00  0.00000000E+00  0.00000000E+00
  0.00000000E+00  0.00000000E+00  0.00000000E+00
  0.00000000E+00  0.00000000E+00  0.00000000E+00
  0.00000000E+00  0.00000000E+00  0.00000000E+00
  0.00000000E+00  0.00000000E+00  0.00000000E+00
  0.00000000E+00  0.00000000E+00  0.00000000E+00
  0.00000000E+00  0.00000000E+00  0.00000000E+00
  0.00000000E+00  0.00000000E+00  0.00000000E+00
  0.00000000E+00  0.00000000E+00  0.00000000E+00
  0.00000000E+00  0.00000000E+00  0.00000000E+00
  0.00000000E+00  0.00000000E+00  0.00000000E+00
  0.00000000E+00  0.00000000E+00  0.00000000E+00
  0.00000000E+00  0.00000000E+00  0.00000000E+00
  0.00000000E+00  0.00000000E+00  0.00000000E+00
  0.00000000E+00  0.00000000E+00  0.00000000E+00
  0.00000000E+00  0.00000000E+00  0.00000000E+00
  0.00000000E+00  0.00000000E+00  0.00000000E+00
