Title                                   
   1.00000000000000     
     9.8694509999999998    0.0000000000000000    0.0000000000000000
     0.0000000000000000    8.5490480000000009    0.0000000000000000
     0.0000000000000000    0.0000000000000000   20.0000000000000000
    29     2     1
Selective dynamics
Direct
  0.0565877766901369  0.0912562635368175  0.0820138645632553   T   T   T
  0.9313601773859757  0.1735963946195679  0.0840772163007811   T   T   T
  0.0558853945048099  0.9239222405905535  0.0822714681851696   T   T   T
  0.9308131900680608  0.3397114000753901  0.0876109423811037   T   T   T
  0.0566957476530362  0.5891241295402225  0.0847412178664321   T   T   T
  0.9324641621345688  0.6724881863867063  0.0875189564670546   T   T   T
  0.0569923365092886  0.4229291054180405  0.0860345349547514   T   T   T
  0.9314807037170650  0.8395587226623983  0.0852216303854229   T   T   T
  0.3057091421511827  0.0902908053977080  0.0856029810888968   T   T   T
  0.1818097325597832  0.1747538275336031  0.0839026811385582   T   T   T
  0.3045217724659896  0.9245011360166122  0.0881533955962389   T   T   T
  0.1834863476845277  0.3415505075348227  0.0870926161565849   T   T   T
  0.3034052065167307  0.5935190340143751  0.0979969562379604   T   T   T
  0.1802714654201238  0.6737433296304215  0.0869986864673701   T   T   T
  0.3100262842810121  0.4254160650987424  0.0955874444875762   T   T   T
  0.1798891980653629  0.8408451792289326  0.0853271302856417   T   T   T
  0.5558491064293720  0.0856772819301930  0.0938461120923911   T   T   T
  0.4312369848754498  0.1706602099859054  0.0911942084046602   T   T   T
  0.5552853208651838  0.9198615694629565  0.0996164712754590   T   T   T
  0.4330282191994322  0.3344078650877701  0.0993122631471243   T   T   T
  0.4261727215579513  0.8418576643123170  0.1001870938213892   T   T   T
  0.8070693429293285  0.0890959491967548  0.0859693705644415   T   T   T
  0.6816724430147122  0.1690352393036041  0.0919101278399475   T   T   T
  0.8067425913088609  0.9231931859044479  0.0882760854498840   T   T   T
  0.6816733967687029  0.3329082385529020  0.1005324259275303   T   T   T
  0.8099937793493625  0.5900549592509150  0.1000937835913209   T   T   T
  0.6946021779191721  0.6801147405823691  0.1174840942456743   T   T   T
  0.8052695114670126  0.4220423986614169  0.0971507305352594   T   T   T
  0.6842845512845995  0.8409386877651126  0.1012703124646024   T   T   T
  0.4158274620421128  0.6837183081450805  0.1158893372940192   T   T   T
  0.5574147846702914  0.4024526794172287  0.1165594946475100   T   T   T
  0.5521179685108074  0.5870206951561197  0.1762313661360234   T   T   T
 
  0.00000000E+00  0.00000000E+00  0.00000000E+00
  0.00000000E+00  0.00000000E+00  0.00000000E+00
  0.00000000E+00  0.00000000E+00  0.00000000E+00
  0.00000000E+00  0.00000000E+00  0.00000000E+00
  0.00000000E+00  0.00000000E+00  0.00000000E+00
  0.00000000E+00  0.00000000E+00  0.00000000E+00
  0.00000000E+00  0.00000000E+00  0.00000000E+00
  0.00000000E+00  0.00000000E+00  0.00000000E+00
  0.00000000E+00  0.00000000E+00  0.00000000E+00
  0.00000000E+00  0.00000000E+00  0.00000000E+00
  0.00000000E+00  0.00000000E+00  0.00000000E+00
  0.00000000E+00  0.00000000E+00  0.00000000E+00
  0.00000000E+00  0.00000000E+00  0.00000000E+00
  0.00000000E+00  0.00000000E+00  0.00000000E+00
  0.00000000E+00  0.00000000E+00  0.00000000E+00
  0.00000000E+00  0.00000000E+00  0.00000000E+00
  0.00000000E+00  0.00000000E+00  0.00000000E+00
  0.00000000E+00  0.00000000E+00  0.00000000E+00
  0.00000000E+00  0.00000000E+00  0.00000000E+00
  0.00000000E+00  0.00000000E+00  0.00000000E+00
  0.00000000E+00  0.00000000E+00  0.00000000E+00
  0.00000000E+00  0.00000000E+00  0.00000000E+00
  0.00000000E+00  0.00000000E+00  0.00000000E+00
  0.00000000E+00  0.00000000E+00  0.00000000E+00
  0.00000000E+00  0.00000000E+00  0.00000000E+00
  0.00000000E+00  0.00000000E+00  0.00000000E+00
  0.00000000E+00  0.00000000E+00  0.00000000E+00
  0.00000000E+00  0.00000000E+00  0.00000000E+00
  0.00000000E+00  0.00000000E+00  0.00000000E+00
  0.00000000E+00  0.00000000E+00  0.00000000E+00
  0.00000000E+00  0.00000000E+00  0.00000000E+00
  0.00000000E+00  0.00000000E+00  0.00000000E+00
