Title                                   
   1.00000000000000     
     8.5490480000000009    0.0000000000000000    0.0000000000000000
     0.0000000000000000    8.5490480000000009    0.0000000000000000
     0.0000000000000000    0.0000000000000000   20.0000000000000000
    22     2     1
Selective dynamics
Direct
  0.9078190650954895  0.2072208254403263  0.0983468314150958   T   T   T
  0.9080231127332600  0.5030335885198238  0.0963546970587866   T   T   T
  0.9115400662387303  0.7989176562263745  0.0961516532320696   T   T   T
  0.1959114308316098  0.0833150551462853  0.0960942517318236   T   T   T
  0.0745345515859821  0.2046615319709855  0.0960424870238480   T   T   T
  0.1984766143681504  0.9166116372745592  0.0985005766464520   T   T   T
  0.1587983270926918  0.6460982122097153  0.0994164651571240   T   T   T
  0.0780418825977435  0.5005195074694548  0.0964022364718213   T   T   T
  0.1555755613520946  0.3517048604749578  0.0935340561438887   T   T   T
  0.0782379464302722  0.7963513535408127  0.0985238787119978   T   T   T
  0.4917260823308671  0.0867787061452634  0.0964292250305328   T   T   T
  0.3429471469372814  0.1643427604607299  0.0935715902334219   T   T   T
  0.4942343692797130  0.9167582884974714  0.0964899831470046   T   T   T
  0.3486749398692695  0.8359908080032787  0.0993915824251889   T   T   T
  0.7875462524264305  0.0869907605377643  0.0984125076220264   T   T   T
  0.6372878357450089  0.1675709697490704  0.0992843290299449   T   T   T
  0.7901603996030853  0.9202801530235207  0.0961405092562764   T   T   T
  0.8305053145103524  0.6518671419101200  0.0936356331687557   T   T   T
  0.8272042045879926  0.3574442883531738  0.0991795384600273   T   T   T
  0.6430890046023473  0.8392536562028610  0.0936935234714354   T   T   T
  0.3263050333131144  0.6684516533799651  0.1012502103633846   T   T   T
  0.6596441967177541  0.3351027758006950  0.1010298431554552   T   T   T
  0.3196281945185570  0.3283508155590788  0.0881251774042701   T   T   T
  0.6665005370449995  0.6752466773010281  0.0882640949214721   T   T   T
  0.4929999301871973  0.5019263168026963  0.0694401187178738   T   T   T
 
  0.00000000E+00  0.00000000E+00  0.00000000E+00
  0.00000000E+00  0.00000000E+00  0.00000000E+00
  0.00000000E+00  0.00000000E+00  0.00000000E+00
  0.00000000E+00  0.00000000E+00  0.00000000E+00
  0.00000000E+00  0.00000000E+00  0.00000000E+00
  0.00000000E+00  0.00000000E+00  0.00000000E+00
  0.00000000E+00  0.00000000E+00  0.00000000E+00
  0.00000000E+00  0.00000000E+00  0.00000000E+00
  0.00000000E+00  0.00000000E+00  0.00000000E+00
  0.00000000E+00  0.00000000E+00  0.00000000E+00
  0.00000000E+00  0.00000000E+00  0.00000000E+00
  0.00000000E+00  0.00000000E+00  0.00000000E+00
  0.00000000E+00  0.00000000E+00  0.00000000E+00
  0.00000000E+00  0.00000000E+00  0.00000000E+00
  0.00000000E+00  0.00000000E+00  0.00000000E+00
  0.00000000E+00  0.00000000E+00  0.00000000E+00
  0.00000000E+00  0.00000000E+00  0.00000000E+00
  0.00000000E+00  0.00000000E+00  0.00000000E+00
  0.00000000E+00  0.00000000E+00  0.00000000E+00
  0.00000000E+00  0.00000000E+00  0.00000000E+00
  0.00000000E+00  0.00000000E+00  0.00000000E+00
  0.00000000E+00  0.00000000E+00  0.00000000E+00
  0.00000000E+00  0.00000000E+00  0.00000000E+00
  0.00000000E+00  0.00000000E+00  0.00000000E+00
  0.00000000E+00  0.00000000E+00  0.00000000E+00
