Title                                   
   1.00000000000000     
     9.8694509999999998    0.0000000000000000    0.0000000000000000
     0.0000000000000000    8.5490480000000009    0.0000000000000000
     0.0000000000000000    0.0000000000000000   20.0000000000000000
    24     6     1
Selective dynamics
Direct
  0.0557615594801034  0.0899972234112700  0.0936730143377796   T   T   T
  0.9312146916756399  0.1724922918327547  0.0942498138392540   T   T   T
  0.0571091470094443  0.9221039647711665  0.0938970949140015   T   T   T
  0.9352386658514010  0.3387734769342392  0.0937297189689992   T   T   T
  0.0563284960368005  0.5908696314924310  0.0926622810236670   T   T   T
  0.0567832009642137  0.4238507217997580  0.0923114653758000   T   T   T
  0.9324537727283206  0.8401652199114811  0.0946387615872355   T   T   T
  0.3073519408999277  0.0891787160244855  0.0962258626047654   T   T   T
  0.1804855568770950  0.1718233585928341  0.0941422161208881   T   T   T
  0.1794273318650369  0.3385249838629809  0.0935315154322407   T   T   T
  0.2997494321686843  0.5897495108739170  0.0965178013285151   T   T   T
  0.1776469460065294  0.6744065417369502  0.0938183145597206   T   T   T
  0.3014277454256062  0.4221933663632637  0.0964926774591652   T   T   T
  0.1808809214483467  0.8411020678346652  0.0943843265054759   T   T   T
  0.4291003433655034  0.1729748915545677  0.0990343740514480   T   T   T
  0.5541404230729957  0.9178718176292465  0.0999600589030566   T   T   T
  0.4270624585257196  0.8374199287319861  0.0992031699318551   T   T   T
  0.8052221063839207  0.0882655768846744  0.0964828283252715   T   T   T
  0.6806149578009031  0.1753575727908752  0.0991722556409296   T   T   T
  0.8067804693725158  0.9213184049726386  0.0967411698746444   T   T   T
  0.6916733791042132  0.3390934945257068  0.1005118674168251   T   T   T
  0.8147928226724532  0.5922301069462045  0.0972929845870574   T   T   T
  0.8142032225616469  0.4243464952391446  0.0969876819841346   T   T   T
  0.6814279308172032  0.8361852011895066  0.0995522621489919   T   T   T
  0.9345028540020923  0.6742343904955127  0.0939322813728276   T   T   T
  0.5552407201934486  0.0925146961118646  0.1001695154964998   T   T   T
  0.4214219755440992  0.3363608625326171  0.1005063110875374   T   T   T
  0.6957474379381768  0.6729228359714107  0.1011603936955486   T   T   T
  0.4175768710894547  0.6777143183227008  0.1008425492874743   T   T   T
  0.3049649802919467  0.9223293684545968  0.0960705066005772   T   T   T
  0.5568026388265678  0.5045039622045617  0.1030699255378493   T   T   T
 
  0.00000000E+00  0.00000000E+00  0.00000000E+00
  0.00000000E+00  0.00000000E+00  0.00000000E+00
  0.00000000E+00  0.00000000E+00  0.00000000E+00
  0.00000000E+00  0.00000000E+00  0.00000000E+00
  0.00000000E+00  0.00000000E+00  0.00000000E+00
  0.00000000E+00  0.00000000E+00  0.00000000E+00
  0.00000000E+00  0.00000000E+00  0.00000000E+00
  0.00000000E+00  0.00000000E+00  0.00000000E+00
  0.00000000E+00  0.00000000E+00  0.00000000E+00
  0.00000000E+00  0.00000000E+00  0.00000000E+00
  0.00000000E+00  0.00000000E+00  0.00000000E+00
  0.00000000E+00  0.00000000E+00  0.00000000E+00
  0.00000000E+00  0.00000000E+00  0.00000000E+00
  0.00000000E+00  0.00000000E+00  0.00000000E+00
  0.00000000E+00  0.00000000E+00  0.00000000E+00
  0.00000000E+00  0.00000000E+00  0.00000000E+00
  0.00000000E+00  0.00000000E+00  0.00000000E+00
  0.00000000E+00  0.00000000E+00  0.00000000E+00
  0.00000000E+00  0.00000000E+00  0.00000000E+00
  0.00000000E+00  0.00000000E+00  0.00000000E+00
  0.00000000E+00  0.00000000E+00  0.00000000E+00
  0.00000000E+00  0.00000000E+00  0.00000000E+00
  0.00000000E+00  0.00000000E+00  0.00000000E+00
  0.00000000E+00  0.00000000E+00  0.00000000E+00
  0.00000000E+00  0.00000000E+00  0.00000000E+00
  0.00000000E+00  0.00000000E+00  0.00000000E+00
  0.00000000E+00  0.00000000E+00  0.00000000E+00
  0.00000000E+00  0.00000000E+00  0.00000000E+00
  0.00000000E+00  0.00000000E+00  0.00000000E+00
  0.00000000E+00  0.00000000E+00  0.00000000E+00
  0.00000000E+00  0.00000000E+00  0.00000000E+00
