Title                                   
   1.00000000000000     
     4.9440799999999996    0.0000000000000000    0.0000000000000000
     0.0000000000000000   17.1295089999999988    0.0000000000000000
     0.0000000000000000    0.0000000000000000   20.0000000000000000
    26     4     1
Selective dynamics
Direct
  0.0016084561842548  0.1057486902798853  0.2990583147393968   T   T   T
  0.2502592825198027  0.1486097228726070  0.2993137113347043   T   T   T
  0.2502986803786537  0.2336113452552666  0.2997924061602991   T   T   T
 -0.0029507691542760  0.2743564638585840  0.3001003162384947   T   T   T
 -0.0029040445954346  0.6005630467595496  0.2998866008253567   T   T   T
  0.2503643103589274  0.7263104901707206  0.2992361291503931   T   T   T
  0.0010769277953022  0.8531788784081883  0.2987248518526987   T   T   T
  0.2503632829577866  0.8954267340638976  0.2986545009890949   T   T   T
  0.2503147897966266  0.9794985899174993  0.2986245392854238   T   T   T
  0.0017132957034507  0.7691828934334830  0.2989932654860941   T   T   T
  0.4989396222587693  0.1057479851577381  0.2990387764922504   T   T   T
  0.7502751024447103  0.1475418591216511  0.2992101121215225   T   T   T
  0.7502895218014753  0.2306088520277844  0.2995898527685464   T   T   T
  0.4996009423878000  0.0217546635333397  0.2986822365598851   T   T   T
  0.7503042637748355  0.3935427780069315  0.3000504339311475   T   T   T
  0.7503128946495542  0.4813712954321945  0.3000896625636801   T   T   T
  0.5035298507204220  0.2743675132850367  0.2997278769772147   T   T   T
  0.5036153439186871  0.6005718558924515  0.3002133054220442   T   T   T
  0.7503668284902296  0.7274106413869991  0.2992075830116667   T   T   T
  0.4996285469549533  0.8531707992320507  0.2987364657510008   T   T   T
  0.7503575242259896  0.8955192073143687  0.2987078484044548   T   T   T
  0.7503401902073944  0.9794101505147731  0.2986606242695812   T   T   T
  0.4990127536871892  0.7691760785314364  0.2990047215593170   T   T   T
  0.7503642153556159  0.6443361645748804  0.2997054953394989   T   T   T
  0.2503538968782615  0.6413151726167682  0.2998605735332789   T   T   T
  0.0010470881295973  0.0217535211243711  0.2987033472527958   T   T   T
  0.5151924968263014  0.5204842407757564  0.3008840598504498   T   T   T
  0.9854448041397726  0.5204695443661788  0.2996227362846157   T   T   T
  0.5151909230738804  0.3544410718692974  0.2994613546864021   T   T   T
 -0.0146219870912663  0.3544313043129647  0.3009336726471970   T   T   T
  0.2503179652207349  0.4374304459033419  0.3025846245114442   T   T   T
 
  0.00000000E+00  0.00000000E+00  0.00000000E+00
  0.00000000E+00  0.00000000E+00  0.00000000E+00
  0.00000000E+00  0.00000000E+00  0.00000000E+00
  0.00000000E+00  0.00000000E+00  0.00000000E+00
  0.00000000E+00  0.00000000E+00  0.00000000E+00
  0.00000000E+00  0.00000000E+00  0.00000000E+00
  0.00000000E+00  0.00000000E+00  0.00000000E+00
  0.00000000E+00  0.00000000E+00  0.00000000E+00
  0.00000000E+00  0.00000000E+00  0.00000000E+00
  0.00000000E+00  0.00000000E+00  0.00000000E+00
  0.00000000E+00  0.00000000E+00  0.00000000E+00
  0.00000000E+00  0.00000000E+00  0.00000000E+00
  0.00000000E+00  0.00000000E+00  0.00000000E+00
  0.00000000E+00  0.00000000E+00  0.00000000E+00
  0.00000000E+00  0.00000000E+00  0.00000000E+00
  0.00000000E+00  0.00000000E+00  0.00000000E+00
  0.00000000E+00  0.00000000E+00  0.00000000E+00
  0.00000000E+00  0.00000000E+00  0.00000000E+00
  0.00000000E+00  0.00000000E+00  0.00000000E+00
  0.00000000E+00  0.00000000E+00  0.00000000E+00
  0.00000000E+00  0.00000000E+00  0.00000000E+00
  0.00000000E+00  0.00000000E+00  0.00000000E+00
  0.00000000E+00  0.00000000E+00  0.00000000E+00
  0.00000000E+00  0.00000000E+00  0.00000000E+00
  0.00000000E+00  0.00000000E+00  0.00000000E+00
  0.00000000E+00  0.00000000E+00  0.00000000E+00
  0.00000000E+00  0.00000000E+00  0.00000000E+00
  0.00000000E+00  0.00000000E+00  0.00000000E+00
  0.00000000E+00  0.00000000E+00  0.00000000E+00
  0.00000000E+00  0.00000000E+00  0.00000000E+00
  0.00000000E+00  0.00000000E+00  0.00000000E+00
