Title                                   
   1.00000000000000     
     8.5490480000000009    0.0000000000000000    0.0000000000000000
     0.0000000000000000    8.5490480000000009    0.0000000000000000
     0.0000000000000000    0.0000000000000000   20.0000000000000000
    22     2     1
Selective dynamics
Direct
  0.9116187249316814  0.2059575142067413  0.0905745046999524   T   T   T
  0.9141289766878191  0.8009097610117106  0.0909578793113306   T   T   T
  0.1961667389669012  0.0816674586954483  0.0922117232169178   T   T   T
  0.0736922077369436  0.2006573423479822  0.0909577522164399   T   T   T
  0.1563068491166881  0.6499148994699319  0.0955771857144695   T   T   T
  0.0754093905638002  0.5015218335936199  0.0957583264293712   T   T   T
  0.1549496344051360  0.3533496765322585  0.0959074604069330   T   T   T
  0.0776140281244292  0.8005188308887148  0.0911491201466029   T   T   T
  0.4931765059956852  0.0860242554542667  0.0965168307223042   T   T   T
  0.3425567427622920  0.1630202513883734  0.0968971377241347   T   T   T
  0.4926757239824848  0.9176275697656571  0.0963253692544887   T   T   T
  0.3440489850808214  0.8362032508730328  0.0963683950800759   T   T   T
  0.7883580999641819  0.0842073353913220  0.0915214482503932   T   T   T
  0.6396456753015288  0.1670614519256197  0.0963044694298509   T   T   T
  0.7895064796582741  0.9212996503938844  0.0915326142817196   T   T   T
  0.8328713092740284  0.6506359021701020  0.0954408108312007   T   T   T
  0.8302339499216304  0.3560859675557725  0.0948841114485082   T   T   T
  0.6406545576288756  0.8367699090014472  0.0964359382960145   T   T   T
  0.3173364821806978  0.3293060817099328  0.1024615736748909   T   T   T
  0.3196925983931491  0.6735980432846137  0.1005168132643488   T   T   T
  0.6676068058938808  0.3332973123550043  0.1023125475798629   T   T   T
  0.6692483396249581  0.6721955585573737  0.1027386755421182   T   T   T
  0.9111376645696488  0.5031206287837430  0.0952112667280171   T   T   T
  0.1962515386975241  0.9175524178220320  0.0917086271302432   T   T   T
  0.4905239905369245  0.5022870968214218  0.1534344186197913   T   T   T
 
  0.00000000E+00  0.00000000E+00  0.00000000E+00
  0.00000000E+00  0.00000000E+00  0.00000000E+00
  0.00000000E+00  0.00000000E+00  0.00000000E+00
  0.00000000E+00  0.00000000E+00  0.00000000E+00
  0.00000000E+00  0.00000000E+00  0.00000000E+00
  0.00000000E+00  0.00000000E+00  0.00000000E+00
  0.00000000E+00  0.00000000E+00  0.00000000E+00
  0.00000000E+00  0.00000000E+00  0.00000000E+00
  0.00000000E+00  0.00000000E+00  0.00000000E+00
  0.00000000E+00  0.00000000E+00  0.00000000E+00
  0.00000000E+00  0.00000000E+00  0.00000000E+00
  0.00000000E+00  0.00000000E+00  0.00000000E+00
  0.00000000E+00  0.00000000E+00  0.00000000E+00
  0.00000000E+00  0.00000000E+00  0.00000000E+00
  0.00000000E+00  0.00000000E+00  0.00000000E+00
  0.00000000E+00  0.00000000E+00  0.00000000E+00
  0.00000000E+00  0.00000000E+00  0.00000000E+00
  0.00000000E+00  0.00000000E+00  0.00000000E+00
  0.00000000E+00  0.00000000E+00  0.00000000E+00
  0.00000000E+00  0.00000000E+00  0.00000000E+00
  0.00000000E+00  0.00000000E+00  0.00000000E+00
  0.00000000E+00  0.00000000E+00  0.00000000E+00
  0.00000000E+00  0.00000000E+00  0.00000000E+00
  0.00000000E+00  0.00000000E+00  0.00000000E+00
  0.00000000E+00  0.00000000E+00  0.00000000E+00
