Title                                   
   1.00000000000000     
     8.5490480000000009    0.0000000000000000    0.0000000000000000
     0.0000000000000000    8.5490480000000009    0.0000000000000000
     0.0000000000000000    0.0000000000000000   20.0000000000000000
    21     3     1
Selective dynamics
Direct
  0.9094643109650219  0.2033274648302120  0.0972457360115670   T   T   T
  0.9043241176731899  0.5030982428607295  0.0974987071866975   T   T   T
  0.9117042921914740  0.8032342812407025  0.0988173629189185   T   T   T
  0.1975761673299117  0.0812731733314448  0.0974433425145262   T   T   T
  0.0740261960920874  0.2024605434314192  0.0976184742439498   T   T   T
  0.1568181083059608  0.6494824891035632  0.0955407101613538   T   T   T
  0.0740325083436564  0.5016223840723522  0.0977740683306076   T   T   T
  0.1549779075865024  0.3538673056607911  0.1000882564195531   T   T   T
  0.0779809204065961  0.7989854951052960  0.0978180655075557   T   T   T
  0.4952124075182966  0.0866027406973740  0.0975556845332561   T   T   T
  0.3463800886959918  0.1631292511663611  0.0994290510699467   T   T   T
  0.4948569402580202  0.9169797195009054  0.0968370032148876   T   T   T
  0.3475718888918383  0.8356900539204605  0.0950915748735742   T   T   T
  0.7890623778601888  0.0858797793799199  0.0977430567718148   T   T   T
  0.6427524959326113  0.1675156920776582  0.0964750231032519   T   T   T
  0.7903584271206883  0.9198138377925981  0.0986147096846901   T   T   T
  0.8277190709722436  0.6527300449274962  0.0988842257345360   T   T   T
  0.8250614602223374  0.3545403423542310  0.0961151350323798   T   T   T
  0.6431876912770458  0.8364732623951491  0.0985071918326296   T   T   T
  0.3189193294291492  0.3281581775948543  0.1072857207267923   T   T   T
  0.3214465147857274  0.6739342370498335  0.0908055290088726   T   T   T
  0.6671617737325957  0.3300871996666397  0.0940905524210512   T   T   T
  0.6686092553675201  0.6757645089466154  0.0999625192669496   T   T   T
  0.1975528298588937  0.9179197412852880  0.0974862071733129   T   T   T
  0.4886549191824442  0.5022200316081266  0.0989770922572984   T   T   T
 
  0.00000000E+00  0.00000000E+00  0.00000000E+00
  0.00000000E+00  0.00000000E+00  0.00000000E+00
  0.00000000E+00  0.00000000E+00  0.00000000E+00
  0.00000000E+00  0.00000000E+00  0.00000000E+00
  0.00000000E+00  0.00000000E+00  0.00000000E+00
  0.00000000E+00  0.00000000E+00  0.00000000E+00
  0.00000000E+00  0.00000000E+00  0.00000000E+00
  0.00000000E+00  0.00000000E+00  0.00000000E+00
  0.00000000E+00  0.00000000E+00  0.00000000E+00
  0.00000000E+00  0.00000000E+00  0.00000000E+00
  0.00000000E+00  0.00000000E+00  0.00000000E+00
  0.00000000E+00  0.00000000E+00  0.00000000E+00
  0.00000000E+00  0.00000000E+00  0.00000000E+00
  0.00000000E+00  0.00000000E+00  0.00000000E+00
  0.00000000E+00  0.00000000E+00  0.00000000E+00
  0.00000000E+00  0.00000000E+00  0.00000000E+00
  0.00000000E+00  0.00000000E+00  0.00000000E+00
  0.00000000E+00  0.00000000E+00  0.00000000E+00
  0.00000000E+00  0.00000000E+00  0.00000000E+00
  0.00000000E+00  0.00000000E+00  0.00000000E+00
  0.00000000E+00  0.00000000E+00  0.00000000E+00
  0.00000000E+00  0.00000000E+00  0.00000000E+00
  0.00000000E+00  0.00000000E+00  0.00000000E+00
  0.00000000E+00  0.00000000E+00  0.00000000E+00
  0.00000000E+00  0.00000000E+00  0.00000000E+00
