Title                                   
   1.00000000000000     
     8.5490480000000009    0.0000000000000000    0.0000000000000000
     0.0000000000000000    8.5490480000000009    0.0000000000000000
     0.0000000000000000    0.0000000000000000   20.0000000000000000
    17     7     1
Selective dynamics
Direct
  0.9077267508817304  0.2056052211920211  0.0938974823438831   T   T   T
  0.9108723841474907  0.8009374230449257  0.0936706593678863   T   T   T
  0.1966910686868087  0.0830168290595463  0.0940942895817597   T   T   T
  0.0767284050060929  0.2008893328420877  0.0941510428617588   T   T   T
  0.1553476416798417  0.6521311354435392  0.0959753880635499   T   T   T
  0.0785770083914492  0.5008687610413367  0.0967446418063731   T   T   T
  0.1559479681543664  0.3491047506343464  0.0967231754259024   T   T   T
  0.0786095137463343  0.7994232382790938  0.0934026938041139   T   T   T
  0.3434717634777999  0.1631561193867450  0.0966630392887432   T   T   T
  0.4915707086436551  0.9165182669042370  0.0972391802661855   T   T   T
  0.3438078078468900  0.8395083941926280  0.0966264793658007   T   T   T
  0.7877065274627829  0.0873815926757496  0.0937426802025783   T   T   T
  0.6423564978671402  0.1675769148011476  0.0962244896672044   T   T   T
  0.7897453843105559  0.9179860917250626  0.0936750921954435   T   T   T
  0.8318037099550994  0.6515905819427230  0.0966998706880830   T   T   T
  0.8290294843685349  0.3528273776436548  0.0963611200533514   T   T   T
  0.6441678589352814  0.8378171223220945  0.0965216162057416   T   T   T
  0.4933634730626603  0.0898300443573262  0.0962239272172180   T   T   T
  0.9070349683168755  0.5022196076506104  0.0964224067208862   T   T   T
  0.3193070858640701  0.3229376225873168  0.0993514112760236   T   T   T
  0.3180566870322178  0.6791630810784275  0.0989919648778005   T   T   T
  0.6667170802679815  0.3292803909695262  0.0992941114292242   T   T   T
  0.6712968324774422  0.6745586153621203  0.0994515371004017   T   T   T
  0.1956382873740351  0.9155680336962353  0.0933571347476505   T   T   T
  0.4898371020428554  0.5048934511674975  0.1381995654424165   T   T   T
 
  0.00000000E+00  0.00000000E+00  0.00000000E+00
  0.00000000E+00  0.00000000E+00  0.00000000E+00
  0.00000000E+00  0.00000000E+00  0.00000000E+00
  0.00000000E+00  0.00000000E+00  0.00000000E+00
  0.00000000E+00  0.00000000E+00  0.00000000E+00
  0.00000000E+00  0.00000000E+00  0.00000000E+00
  0.00000000E+00  0.00000000E+00  0.00000000E+00
  0.00000000E+00  0.00000000E+00  0.00000000E+00
  0.00000000E+00  0.00000000E+00  0.00000000E+00
  0.00000000E+00  0.00000000E+00  0.00000000E+00
  0.00000000E+00  0.00000000E+00  0.00000000E+00
  0.00000000E+00  0.00000000E+00  0.00000000E+00
  0.00000000E+00  0.00000000E+00  0.00000000E+00
  0.00000000E+00  0.00000000E+00  0.00000000E+00
  0.00000000E+00  0.00000000E+00  0.00000000E+00
  0.00000000E+00  0.00000000E+00  0.00000000E+00
  0.00000000E+00  0.00000000E+00  0.00000000E+00
  0.00000000E+00  0.00000000E+00  0.00000000E+00
  0.00000000E+00  0.00000000E+00  0.00000000E+00
  0.00000000E+00  0.00000000E+00  0.00000000E+00
  0.00000000E+00  0.00000000E+00  0.00000000E+00
  0.00000000E+00  0.00000000E+00  0.00000000E+00
  0.00000000E+00  0.00000000E+00  0.00000000E+00
  0.00000000E+00  0.00000000E+00  0.00000000E+00
  0.00000000E+00  0.00000000E+00  0.00000000E+00
