Title                                   
   1.00000000000000     
     4.9440799999999996    0.0000000000000000    0.0000000000000000
     0.0000000000000000    8.5647549999999999    0.0000000000000000
     0.0000000000000000    0.0000000000000000   20.0000000000000000
     9     5     1
Selective dynamics
Direct
 -0.0041982590950104  0.2965140834480343  0.0958205953114525   T   T   T
  0.2500000000000000  0.0378539391421305  0.0962311850656237   T   T   T
 -0.0031369288268032  0.9544066167192025  0.0962443337916082   T   T   T
  0.7500000000000000  0.2066517281034026  0.0949851873174129   T   T   T
  0.5041982590950105  0.2965140834480343  0.0958205953114525   T   T   T
  0.7500000000000000  0.0406883781477380  0.0951579408401869   T   T   T
  0.7500000000000000  0.7169641430990982  0.0954468678043565   T   T   T
  0.7500000000000000  0.5324189408941034  0.0950006019957233   T   T   T
  0.5031369288268033  0.9544066167192025  0.0962443337916082   T   T   T
  0.5103173618898671  0.4545355042768254  0.0962968899907260   T   T   T
 -0.0103173618898669  0.4545355042768254  0.0962968899907260   T   T   T
 -0.0103846381168335  0.7923105868600757  0.0969356655028951   T   T   T
  0.5103846381168335  0.7923105868600757  0.0969356655028951   T   T   T
  0.2500000000000000  0.2134009620776254  0.0959106766616732   T   T   T
  0.2500000000000000  0.6281693259276292  0.1646525711216632   T   T   T
 
  0.00000000E+00  0.00000000E+00  0.00000000E+00
  0.00000000E+00  0.00000000E+00  0.00000000E+00
  0.00000000E+00  0.00000000E+00  0.00000000E+00
  0.00000000E+00  0.00000000E+00  0.00000000E+00
  0.00000000E+00  0.00000000E+00  0.00000000E+00
  0.00000000E+00  0.00000000E+00  0.00000000E+00
  0.00000000E+00  0.00000000E+00  0.00000000E+00
  0.00000000E+00  0.00000000E+00  0.00000000E+00
  0.00000000E+00  0.00000000E+00  0.00000000E+00
  0.00000000E+00  0.00000000E+00  0.00000000E+00
  0.00000000E+00  0.00000000E+00  0.00000000E+00
  0.00000000E+00  0.00000000E+00  0.00000000E+00
  0.00000000E+00  0.00000000E+00  0.00000000E+00
  0.00000000E+00  0.00000000E+00  0.00000000E+00
  0.00000000E+00  0.00000000E+00  0.00000000E+00
