Title                                   
   1.00000000000000     
     8.5490480000000009    0.0000000000000000    0.0000000000000000
     0.0000000000000000    8.5490480000000009    0.0000000000000000
     0.0000000000000000    0.0000000000000000   20.0000000000000000
    23     1     1
Selective dynamics
Direct
  0.9115712546482861  0.2065501563422393  0.0954332803951545   T   T   T
  0.9058462047841418  0.5030673563838816  0.0952938463790570   T   T   T
  0.9109080458108900  0.7993356274969080  0.0954540437593418   T   T   T
  0.1978759441936984  0.0832660011440227  0.0954618822985200   T   T   T
  0.0744936491913606  0.2066175299258740  0.0954405114739650   T   T   T
  0.1978036544726740  0.9203454153563174  0.0954743703235021   T   T   T
  0.1548813332578059  0.6491402249803550  0.0953508130926320   T   T   T
  0.0744578041408103  0.5033906241988205  0.0953145553325544   T   T   T
  0.1569174542984296  0.3570203776258370  0.0953447129725784   T   T   T
  0.0748270439800297  0.7980042507729338  0.0954636750411667   T   T   T
  0.4945793769321089  0.0832439574136104  0.0953562587999309   T   T   T
  0.3482340049724926  0.1657258934776582  0.0953740423047291   T   T   T
  0.4942695585691952  0.9146133354651976  0.0953467533025736   T   T   T
  0.3474719299342127  0.8353425643227493  0.0953768870513995   T   T   T
  0.7892200293305528  0.0835924467216694  0.0954513479177107   T   T   T
  0.6403352335520736  0.1636617667262283  0.0953336125142835   T   T   T
  0.7905779958800999  0.9196715703883291  0.0954589684892390   T   T   T
  0.8274939544683753  0.6511457813535559  0.0952901267902749   T   T   T
  0.8265771490126945  0.3562521646742560  0.0953096275323780   T   T   T
  0.6423540339984436  0.8362481595722708  0.0953032089083880   T   T   T
  0.3222524408789168  0.3310431912654502  0.0952924357689686   T   T   T
  0.3209638924358842  0.6717021714306856  0.0952798165923981   T   T   T
  0.6629324232224744  0.3297273858250695  0.0952185505787576   T   T   T
  0.6676888756834141  0.6764394397945360  0.0951391596448712   T   T   T
  0.4908787123509278  0.4996426073415570  0.0951425127356031   T   T   T
 
  0.00000000E+00  0.00000000E+00  0.00000000E+00
  0.00000000E+00  0.00000000E+00  0.00000000E+00
  0.00000000E+00  0.00000000E+00  0.00000000E+00
  0.00000000E+00  0.00000000E+00  0.00000000E+00
  0.00000000E+00  0.00000000E+00  0.00000000E+00
  0.00000000E+00  0.00000000E+00  0.00000000E+00
  0.00000000E+00  0.00000000E+00  0.00000000E+00
  0.00000000E+00  0.00000000E+00  0.00000000E+00
  0.00000000E+00  0.00000000E+00  0.00000000E+00
  0.00000000E+00  0.00000000E+00  0.00000000E+00
  0.00000000E+00  0.00000000E+00  0.00000000E+00
  0.00000000E+00  0.00000000E+00  0.00000000E+00
  0.00000000E+00  0.00000000E+00  0.00000000E+00
  0.00000000E+00  0.00000000E+00  0.00000000E+00
  0.00000000E+00  0.00000000E+00  0.00000000E+00
  0.00000000E+00  0.00000000E+00  0.00000000E+00
  0.00000000E+00  0.00000000E+00  0.00000000E+00
  0.00000000E+00  0.00000000E+00  0.00000000E+00
  0.00000000E+00  0.00000000E+00  0.00000000E+00
  0.00000000E+00  0.00000000E+00  0.00000000E+00
  0.00000000E+00  0.00000000E+00  0.00000000E+00
  0.00000000E+00  0.00000000E+00  0.00000000E+00
  0.00000000E+00  0.00000000E+00  0.00000000E+00
  0.00000000E+00  0.00000000E+00  0.00000000E+00
  0.00000000E+00  0.00000000E+00  0.00000000E+00
