Title                                   
   1.00000000000000     
     9.8694509999999998    0.0000000000000000    0.0000000000000000
     0.0000000000000000    8.5490480000000009    0.0000000000000000
     0.0000000000000000    0.0000000000000000   20.0000000000000000
    27     4     1
Selective dynamics
Direct
  0.0558825057928355  0.0920987077256140  0.0832638447654866   T   T   T
  0.9307226298692155  0.1747072223548798  0.0840329074873009   T   T   T
  0.0571364041015131  0.9250730930427017  0.0850115663233176   T   T   T
  0.9300150894125754  0.3416139762759077  0.0860442516910337   T   T   T
  0.0569724489420232  0.5899476038097832  0.0835457707886711   T   T   T
  0.9328720721408328  0.6733165718761510  0.0880632535750921   T   T   T
  0.0569077241571134  0.4232387870487819  0.0840794621082352   T   T   T
  0.9331250304301636  0.8407939394540332  0.0874482400336796   T   T   T
  0.3052565380010591  0.0880718557994126  0.0875614348603853   T   T   T
  0.1817547597949895  0.1732813834287251  0.0845399200900609   T   T   T
  0.1836298747529102  0.3405581322051356  0.0856307832611890   T   T   T
  0.3025573252208999  0.5918504120123751  0.0982857524948420   T   T   T
  0.1812344742045334  0.6739928956434234  0.0876495009306125   T   T   T
  0.3101635485009480  0.4247045435005973  0.0946112019839991   T   T   T
  0.1810961543289685  0.8415652571771088  0.0882283339176309   T   T   T
  0.5564508037262468  0.0840577077990459  0.0943861613922514   T   T   T
  0.4307951887335130  0.1677805439703542  0.0932814449371142   T   T   T
  0.5550381057018947  0.9168905884978392  0.0982580141895753   T   T   T
  0.4312062248696132  0.3316663906125658  0.1009478502164212   T   T   T
  0.4246421199909254  0.8416854601282446  0.1012640779007588   T   T   T
  0.8067674123369298  0.0894799601065790  0.0860365374807696   T   T   T
  0.6811982073513803  0.1691643810497926  0.0922885388996621   T   T   T
  0.8073848482677988  0.9235496765462965  0.0893091151138082   T   T   T
  0.6809776805863610  0.3329250093656916  0.1009643844288705   T   T   T
  0.8108701554519481  0.5922481038637210  0.0990434441598336   T   T   T
  0.8030561997461669  0.4246008224524034  0.0954494866652187   T   T   T
  0.6852465128182360  0.8401268569846496  0.1001669775756568   T   T   T
  0.4111736890549704  0.6861513648838141  0.1216493114782814   T   T   T
  0.5559089232351072  0.3992728283456489  0.1206452799725792   T   T   T
  0.6982830469583718  0.6823674294884167  0.1189831039651412   T   T   T
  0.3050574252438348  0.9239210990238541  0.0909670055614947   T   T   T
  0.5562558762761285  0.5895433955264536  0.1740380417510430   T   T   T
 
  0.00000000E+00  0.00000000E+00  0.00000000E+00
  0.00000000E+00  0.00000000E+00  0.00000000E+00
  0.00000000E+00  0.00000000E+00  0.00000000E+00
  0.00000000E+00  0.00000000E+00  0.00000000E+00
  0.00000000E+00  0.00000000E+00  0.00000000E+00
  0.00000000E+00  0.00000000E+00  0.00000000E+00
  0.00000000E+00  0.00000000E+00  0.00000000E+00
  0.00000000E+00  0.00000000E+00  0.00000000E+00
  0.00000000E+00  0.00000000E+00  0.00000000E+00
  0.00000000E+00  0.00000000E+00  0.00000000E+00
  0.00000000E+00  0.00000000E+00  0.00000000E+00
  0.00000000E+00  0.00000000E+00  0.00000000E+00
  0.00000000E+00  0.00000000E+00  0.00000000E+00
  0.00000000E+00  0.00000000E+00  0.00000000E+00
  0.00000000E+00  0.00000000E+00  0.00000000E+00
  0.00000000E+00  0.00000000E+00  0.00000000E+00
  0.00000000E+00  0.00000000E+00  0.00000000E+00
  0.00000000E+00  0.00000000E+00  0.00000000E+00
  0.00000000E+00  0.00000000E+00  0.00000000E+00
  0.00000000E+00  0.00000000E+00  0.00000000E+00
  0.00000000E+00  0.00000000E+00  0.00000000E+00
  0.00000000E+00  0.00000000E+00  0.00000000E+00
  0.00000000E+00  0.00000000E+00  0.00000000E+00
  0.00000000E+00  0.00000000E+00  0.00000000E+00
  0.00000000E+00  0.00000000E+00  0.00000000E+00
  0.00000000E+00  0.00000000E+00  0.00000000E+00
  0.00000000E+00  0.00000000E+00  0.00000000E+00
  0.00000000E+00  0.00000000E+00  0.00000000E+00
  0.00000000E+00  0.00000000E+00  0.00000000E+00
  0.00000000E+00  0.00000000E+00  0.00000000E+00
  0.00000000E+00  0.00000000E+00  0.00000000E+00
  0.00000000E+00  0.00000000E+00  0.00000000E+00
