Title                                   
   1.00000000000000     
     9.8694509999999998    0.0000000000000000    0.0000000000000000
     0.0000000000000000    8.5490480000000009    0.0000000000000000
     0.0000000000000000    0.0000000000000000   20.0000000000000000
    27     4     1
Selective dynamics
Direct
  0.0559796878305300  0.0918182973959019  0.0841719869284324   T   T   T
  0.9304160536919783  0.1754832652336615  0.0867952230602612   T   T   T
  0.0571210483573319  0.9238749450319109  0.0834652197318946   T   T   T
  0.9285542053007234  0.3423470950270070  0.0905884796476502   T   T   T
  0.0558543092922903  0.5896795430861567  0.0869562883746004   T   T   T
  0.9320146131785524  0.6737449875311404  0.0877360753763955   T   T   T
  0.0562647427307413  0.4234035435379314  0.0898104232097039   T   T   T
  0.9319040375106042  0.8414381102898388  0.0851304217909958   T   T   T
  0.3051628098893588  0.0880271902898587  0.0857037377071019   T   T   T
  0.1819371287079978  0.1742639830092044  0.0861429805320261   T   T   T
  0.3073997667723276  0.9221578133052049  0.0877216257723208   T   T   T
  0.1817074942282985  0.3399482433888515  0.0908406954391140   T   T   T
  0.3054671054389687  0.5898083918601825  0.1005631678302840   T   T   T
  0.1817739230665357  0.6706048299628617  0.0885240432905645   T   T   T
  0.1823908257944183  0.8383076594394524  0.0860596983866861   T   T   T
  0.5557424259340180  0.0857311976080197  0.0949826252505565   T   T   T
  0.4301544948685790  0.1683632608165417  0.0914063310228254   T   T   T
  0.4306003584153617  0.3332352286421451  0.0992060114950696   T   T   T
  0.4292845170148462  0.8376858616159230  0.1002840483105802   T   T   T
  0.8065981164309128  0.0911390836776266  0.0869578214342628   T   T   T
  0.6801403061066751  0.1702190460588698  0.0932674273413747   T   T   T
  0.8068941389493554  0.9257768838425088  0.0865010724106340   T   T   T
  0.6765914142747538  0.3345696048576131  0.1004849827404129   T   T   T
  0.8069740853488989  0.5956044678154203  0.0974484137788089   T   T   T
  0.8003547111824509  0.4264961824595678  0.0970552892671847   T   T   T
  0.6840634751343108  0.8421126807997500  0.0964206728229380   T   T   T
  0.4216789877282364  0.6783526582881393  0.1192493277763673   T   T   T
  0.5505517578492154  0.4040308346323288  0.1150052814089455   T   T   T
  0.6920547791743661  0.6865965066938743  0.1108590511002332   T   T   T
  0.5573262989905550  0.9197282688185375  0.0983314555875059   T   T   T
  0.3081055359802224  0.4215486240552380  0.0978108830930061   T   T   T
  0.5685758448265931  0.5841477109287319  0.1801942380812794   T   T   T
 
  0.00000000E+00  0.00000000E+00  0.00000000E+00
  0.00000000E+00  0.00000000E+00  0.00000000E+00
  0.00000000E+00  0.00000000E+00  0.00000000E+00
  0.00000000E+00  0.00000000E+00  0.00000000E+00
  0.00000000E+00  0.00000000E+00  0.00000000E+00
  0.00000000E+00  0.00000000E+00  0.00000000E+00
  0.00000000E+00  0.00000000E+00  0.00000000E+00
  0.00000000E+00  0.00000000E+00  0.00000000E+00
  0.00000000E+00  0.00000000E+00  0.00000000E+00
  0.00000000E+00  0.00000000E+00  0.00000000E+00
  0.00000000E+00  0.00000000E+00  0.00000000E+00
  0.00000000E+00  0.00000000E+00  0.00000000E+00
  0.00000000E+00  0.00000000E+00  0.00000000E+00
  0.00000000E+00  0.00000000E+00  0.00000000E+00
  0.00000000E+00  0.00000000E+00  0.00000000E+00
  0.00000000E+00  0.00000000E+00  0.00000000E+00
  0.00000000E+00  0.00000000E+00  0.00000000E+00
  0.00000000E+00  0.00000000E+00  0.00000000E+00
  0.00000000E+00  0.00000000E+00  0.00000000E+00
  0.00000000E+00  0.00000000E+00  0.00000000E+00
  0.00000000E+00  0.00000000E+00  0.00000000E+00
  0.00000000E+00  0.00000000E+00  0.00000000E+00
  0.00000000E+00  0.00000000E+00  0.00000000E+00
  0.00000000E+00  0.00000000E+00  0.00000000E+00
  0.00000000E+00  0.00000000E+00  0.00000000E+00
  0.00000000E+00  0.00000000E+00  0.00000000E+00
  0.00000000E+00  0.00000000E+00  0.00000000E+00
  0.00000000E+00  0.00000000E+00  0.00000000E+00
  0.00000000E+00  0.00000000E+00  0.00000000E+00
  0.00000000E+00  0.00000000E+00  0.00000000E+00
  0.00000000E+00  0.00000000E+00  0.00000000E+00
  0.00000000E+00  0.00000000E+00  0.00000000E+00
