Title                                   
   1.00000000000000     
     4.9440799999999996    0.0000000000000000    0.0000000000000000
     0.0000000000000000   17.1295089999999988    0.0000000000000000
     0.0000000000000000    0.0000000000000000   20.0000000000000000
    27     3     1
Selective dynamics
Direct
  0.0007457104270964  0.1060565718887906  0.2962181820533151   T   T   T
  0.2500957967038850  0.1487529919504855  0.2966263141462513   T   T   T
  0.2506559930234848  0.2334444875124615  0.2991695497953319   T   T   T
 -0.0001959558408268  0.2753406799103639  0.3036593167572748   T   T   T
 -0.0067202277337224  0.5995254632521085  0.3032026518007228   T   T   T
  0.2447322524187761  0.7266596733340733  0.2968242642739626   T   T   T
 -0.0025930630416918  0.8535142591747841  0.2960101432253944   T   T   T
  0.2478106004152527  0.8955566702273030  0.2956593689606714   T   T   T
  0.2489033429833158  0.9796960519214595  0.2954925231173076   T   T   T
 -0.0035454231242689  0.7694262027740810  0.2966162171365200   T   T   T
  0.4996268596385194  0.1062798299751452  0.2951237579227074   T   T   T
  0.7509860520818106  0.1480029529979671  0.2955707403145038   T   T   T
  0.7520967106239976  0.2318954085168175  0.2966826228544490   T   T   T
  0.4988294283804630  0.0220452147125064  0.2950376063577169   T   T   T
  0.7541623607028602  0.3942945895951065  0.3024221021629267   T   T   T
  0.7504337115473471  0.4784122398159721  0.3015194910834997   T   T   T
  0.5032862266088838  0.2737509117561659  0.2958976118592651   T   T   T
  0.4940484389243091  0.6014090141679842  0.2942156850884581   T   T   T
  0.7472471621503275  0.7270419332019596  0.2956133110673453   T   T   T
  0.4972644436508140  0.8531001491625777  0.2952817519737927   T   T   T
  0.7475294686218211  0.8955977822764903  0.2954033809890249   T   T   T
  0.7486123040696636  0.9797712372109435  0.2952632919783355   T   T   T
  0.4961602252413042  0.7689286225085805  0.2952658795133698   T   T   T
  0.7461677862157559  0.6429980304619169  0.2960673659243044   T   T   T
  0.2427629141602066  0.6425160882999166  0.2987975884281959   T   T   T
 -0.0006474225082482  0.0219047214666128  0.2956646674291262   T   T   T
  0.5037091218307995  0.5192177663053573  0.2920884860002304   T   T   T
  0.9916447705720534  0.5188303790700100  0.3159096223182262   T   T   T
  0.5123719217126828  0.3543149426852888  0.2941341695887045   T   T   T
 -0.0075515464331649  0.3551349243369168  0.3160397934193276   T   T   T
  0.3013770359764945  0.4379222095298480  0.3435825424596898   T   T   T
 
  0.00000000E+00  0.00000000E+00  0.00000000E+00
  0.00000000E+00  0.00000000E+00  0.00000000E+00
  0.00000000E+00  0.00000000E+00  0.00000000E+00
  0.00000000E+00  0.00000000E+00  0.00000000E+00
  0.00000000E+00  0.00000000E+00  0.00000000E+00
  0.00000000E+00  0.00000000E+00  0.00000000E+00
  0.00000000E+00  0.00000000E+00  0.00000000E+00
  0.00000000E+00  0.00000000E+00  0.00000000E+00
  0.00000000E+00  0.00000000E+00  0.00000000E+00
  0.00000000E+00  0.00000000E+00  0.00000000E+00
  0.00000000E+00  0.00000000E+00  0.00000000E+00
  0.00000000E+00  0.00000000E+00  0.00000000E+00
  0.00000000E+00  0.00000000E+00  0.00000000E+00
  0.00000000E+00  0.00000000E+00  0.00000000E+00
  0.00000000E+00  0.00000000E+00  0.00000000E+00
  0.00000000E+00  0.00000000E+00  0.00000000E+00
  0.00000000E+00  0.00000000E+00  0.00000000E+00
  0.00000000E+00  0.00000000E+00  0.00000000E+00
  0.00000000E+00  0.00000000E+00  0.00000000E+00
  0.00000000E+00  0.00000000E+00  0.00000000E+00
  0.00000000E+00  0.00000000E+00  0.00000000E+00
  0.00000000E+00  0.00000000E+00  0.00000000E+00
  0.00000000E+00  0.00000000E+00  0.00000000E+00
  0.00000000E+00  0.00000000E+00  0.00000000E+00
  0.00000000E+00  0.00000000E+00  0.00000000E+00
  0.00000000E+00  0.00000000E+00  0.00000000E+00
  0.00000000E+00  0.00000000E+00  0.00000000E+00
  0.00000000E+00  0.00000000E+00  0.00000000E+00
  0.00000000E+00  0.00000000E+00  0.00000000E+00
  0.00000000E+00  0.00000000E+00  0.00000000E+00
  0.00000000E+00  0.00000000E+00  0.00000000E+00
