Title                                   
   1.00000000000000     
     9.8694509999999998    0.0000000000000000    0.0000000000000000
     0.0000000000000000    8.5490480000000009    0.0000000000000000
     0.0000000000000000    0.0000000000000000   20.0000000000000000
    26     5     1
Selective dynamics
Direct
  0.0562710783321311  0.0917617056212599  0.0842394617689355   T   T   T
  0.9308614586010490  0.1749843575799564  0.0856908271568834   T   T   T
  0.0579589092330475  0.9244538144257721  0.0844996518012218   T   T   T
  0.9296052630312153  0.3420478271015658  0.0875467534106510   T   T   T
  0.0571710417121377  0.5902539622264343  0.0837460348502717   T   T   T
  0.9327791995557341  0.6733553289562533  0.0879343733450082   T   T   T
  0.0565680679745958  0.4230685591749244  0.0850637738431490   T   T   T
  0.9330929565731261  0.8408512622075726  0.0873653147869100   T   T   T
  0.3062051260183698  0.0883048440228059  0.0881910861118623   T   T   T
  0.1827748504433612  0.1734440355741641  0.0856729700440277   T   T   T
  0.1828865039341587  0.3400360160154230  0.0863900098364210   T   T   T
  0.3052832869916132  0.5905429363568033  0.0946650093179630   T   T   T
  0.1821487391608697  0.6736310426515243  0.0852898005564952   T   T   T
  0.3105150405295186  0.4225234946117106  0.0938391442077185   T   T   T
  0.1819374469409021  0.8408609434477540  0.0856961893447204   T   T   T
  0.5556210564512719  0.0852533913094346  0.0967939657618756   T   T   T
  0.5547241288119965  0.9182236013068691  0.1001855231019439   T   T   T
  0.4312514750358162  0.3304142441239582  0.1013703035088653   T   T   T
  0.4266702421806049  0.8387839868470993  0.0988383538707038   T   T   T
  0.8060474533468486  0.0901029381580851  0.0876520817998130   T   T   T
  0.6798249319289492  0.1705646700260721  0.0934585657833365   T   T   T
  0.8079077142069711  0.9244881622368035  0.0901758702546200   T   T   T
  0.6795538249607559  0.3346185951787162  0.1010661904086080   T   T   T
  0.8093013033603453  0.5934599972374135  0.0986558215438502   T   T   T
  0.8017443440835139  0.4251399873842853  0.0960514731075347   T   T   T
  0.6852906965199246  0.8404086357298372  0.1010324084484666   T   T   T
  0.4161327935784527  0.6827127795666239  0.1124189205446094   T   T   T
  0.5530607579930911  0.3975955221150395  0.1209876803605869   T   T   T
  0.6963347390765598  0.6826303014400414  0.1159989764470801   T   T   T
  0.3070641125815027  0.9246273962997587  0.0887748867148400   T   T   T
  0.4296215086330829  0.1676172676024655  0.0944777729623604   T   T   T
  0.5534289482184898  0.5934843934635744  0.1819058049986832   T   T   T
 
  0.00000000E+00  0.00000000E+00  0.00000000E+00
  0.00000000E+00  0.00000000E+00  0.00000000E+00
  0.00000000E+00  0.00000000E+00  0.00000000E+00
  0.00000000E+00  0.00000000E+00  0.00000000E+00
  0.00000000E+00  0.00000000E+00  0.00000000E+00
  0.00000000E+00  0.00000000E+00  0.00000000E+00
  0.00000000E+00  0.00000000E+00  0.00000000E+00
  0.00000000E+00  0.00000000E+00  0.00000000E+00
  0.00000000E+00  0.00000000E+00  0.00000000E+00
  0.00000000E+00  0.00000000E+00  0.00000000E+00
  0.00000000E+00  0.00000000E+00  0.00000000E+00
  0.00000000E+00  0.00000000E+00  0.00000000E+00
  0.00000000E+00  0.00000000E+00  0.00000000E+00
  0.00000000E+00  0.00000000E+00  0.00000000E+00
  0.00000000E+00  0.00000000E+00  0.00000000E+00
  0.00000000E+00  0.00000000E+00  0.00000000E+00
  0.00000000E+00  0.00000000E+00  0.00000000E+00
  0.00000000E+00  0.00000000E+00  0.00000000E+00
  0.00000000E+00  0.00000000E+00  0.00000000E+00
  0.00000000E+00  0.00000000E+00  0.00000000E+00
  0.00000000E+00  0.00000000E+00  0.00000000E+00
  0.00000000E+00  0.00000000E+00  0.00000000E+00
  0.00000000E+00  0.00000000E+00  0.00000000E+00
  0.00000000E+00  0.00000000E+00  0.00000000E+00
  0.00000000E+00  0.00000000E+00  0.00000000E+00
  0.00000000E+00  0.00000000E+00  0.00000000E+00
  0.00000000E+00  0.00000000E+00  0.00000000E+00
  0.00000000E+00  0.00000000E+00  0.00000000E+00
  0.00000000E+00  0.00000000E+00  0.00000000E+00
  0.00000000E+00  0.00000000E+00  0.00000000E+00
  0.00000000E+00  0.00000000E+00  0.00000000E+00
  0.00000000E+00  0.00000000E+00  0.00000000E+00
