Title                                   
   1.00000000000000     
     9.8694509999999998    0.0000000000000000    0.0000000000000000
     0.0000000000000000    8.5490480000000009    0.0000000000000000
     0.0000000000000000    0.0000000000000000   20.0000000000000000
    26     5     1
Selective dynamics
Direct
  0.0565159109737454  0.0924262484645704  0.0869513685988506   T   T   T
  0.9308895025224544  0.1750434102562088  0.0894868279667195   T   T   T
  0.0567514158714659  0.9241221295872774  0.0862973283398122   T   T   T
  0.9297277503759617  0.3417536838450483  0.0929888604635694   T   T   T
  0.0560315473815013  0.5897948731731660  0.0888741580433806   T   T   T
  0.9322028590458576  0.6734147197348304  0.0903905746060287   T   T   T
  0.0572048453399765  0.4231038836238504  0.0914208919728080   T   T   T
  0.9318451464900847  0.8410099590686861  0.0881164282420584   T   T   T
  0.3055521880232022  0.0884611108447663  0.0866474811541304   T   T   T
  0.1825483910388107  0.1750659566419796  0.0879098609941318   T   T   T
  0.3065501091645004  0.9230915177551796  0.0879736977048826   T   T   T
  0.1826950916503881  0.3410441565468521  0.0914187344123426   T   T   T
  0.3061782198112498  0.5918594500833193  0.0964484646967302   T   T   T
  0.1810922307271583  0.6714186186040588  0.0889678664323724   T   T   T
  0.1814921474111931  0.8389110379756652  0.0875026090031798   T   T   T
  0.5555231833113424  0.0846623561420329  0.0954838264535366   T   T   T
  0.4309027470320980  0.1687464997026483  0.0920354539860635   T   T   T
  0.4324486259333772  0.3336485942864383  0.0986880954806416   T   T   T
  0.4280116057334703  0.8367006221091297  0.0960614147597926   T   T   T
  0.8068342942196830  0.0906775448278631  0.0892122897138264   T   T   T
  0.6803048773999839  0.1688213828547278  0.0950757212663798   T   T   T
  0.8065385009044613  0.9249164989922468  0.0887546053485849   T   T   T
  0.6777677888085684  0.3339320093568843  0.1022190067184673   T   T   T
  0.8070642940311332  0.5941547827748289  0.0990605600635496   T   T   T
  0.8015267622377172  0.4250118361312918  0.0988324292248832   T   T   T
  0.6843869530132110  0.8400195360598752  0.0960947613464264   T   T   T
  0.4212380897579864  0.6789056409059009  0.1085578993543352   T   T   T
  0.5524708710363752  0.4051549705881117  0.1149234168855207   T   T   T
  0.6911905896978879  0.6837476132135087  0.1095820901452837   T   T   T
  0.5559923876889320  0.9164128098089334  0.0960493980026701   T   T   T
  0.3109801826335638  0.4240176470126762  0.0953485578447405   T   T   T
  0.5591798907326648  0.5901948990274463  0.1683003207743169   T   T   T
 
  0.00000000E+00  0.00000000E+00  0.00000000E+00
  0.00000000E+00  0.00000000E+00  0.00000000E+00
  0.00000000E+00  0.00000000E+00  0.00000000E+00
  0.00000000E+00  0.00000000E+00  0.00000000E+00
  0.00000000E+00  0.00000000E+00  0.00000000E+00
  0.00000000E+00  0.00000000E+00  0.00000000E+00
  0.00000000E+00  0.00000000E+00  0.00000000E+00
  0.00000000E+00  0.00000000E+00  0.00000000E+00
  0.00000000E+00  0.00000000E+00  0.00000000E+00
  0.00000000E+00  0.00000000E+00  0.00000000E+00
  0.00000000E+00  0.00000000E+00  0.00000000E+00
  0.00000000E+00  0.00000000E+00  0.00000000E+00
  0.00000000E+00  0.00000000E+00  0.00000000E+00
  0.00000000E+00  0.00000000E+00  0.00000000E+00
  0.00000000E+00  0.00000000E+00  0.00000000E+00
  0.00000000E+00  0.00000000E+00  0.00000000E+00
  0.00000000E+00  0.00000000E+00  0.00000000E+00
  0.00000000E+00  0.00000000E+00  0.00000000E+00
  0.00000000E+00  0.00000000E+00  0.00000000E+00
  0.00000000E+00  0.00000000E+00  0.00000000E+00
  0.00000000E+00  0.00000000E+00  0.00000000E+00
  0.00000000E+00  0.00000000E+00  0.00000000E+00
  0.00000000E+00  0.00000000E+00  0.00000000E+00
  0.00000000E+00  0.00000000E+00  0.00000000E+00
  0.00000000E+00  0.00000000E+00  0.00000000E+00
  0.00000000E+00  0.00000000E+00  0.00000000E+00
  0.00000000E+00  0.00000000E+00  0.00000000E+00
  0.00000000E+00  0.00000000E+00  0.00000000E+00
  0.00000000E+00  0.00000000E+00  0.00000000E+00
  0.00000000E+00  0.00000000E+00  0.00000000E+00
  0.00000000E+00  0.00000000E+00  0.00000000E+00
  0.00000000E+00  0.00000000E+00  0.00000000E+00
