Title                                   
   1.00000000000000     
     4.9440799999999996    0.0000000000000000    0.0000000000000000
     0.0000000000000000    8.5647549999999999    0.0000000000000000
     0.0000000000000000    0.0000000000000000   20.0000000000000000
     9     5     1
Selective dynamics
Direct
 -0.0025427185219669  0.2942464067578097  0.0971703020725194   T   T   T
  0.2500000000000000  0.0393103214586842  0.0987077937850897   T   T   T
 -0.0022526098643652  0.9568663679294502  0.0980335667690061   T   T   T
  0.7500000000000000  0.2069552589749201  0.0933583501279366   T   T   T
  0.5025427185219669  0.2942464067578097  0.0971703020725194   T   T   T
  0.7500000000000000  0.0414098901876685  0.0941096724924373   T   T   T
  0.7500000000000000  0.7115497853566682  0.0994805709216989   T   T   T
  0.7500000000000000  0.5375504048969021  0.0990670723788022   T   T   T
  0.5022526098643653  0.9568663679294502  0.0980335667690061   T   T   T
  0.5108554243562139  0.4527728229607950  0.1026818358384171   T   T   T
 -0.0108554243562137  0.4527728229607950  0.1026818358384171   T   T   T
 -0.0114786557294387  0.7951043570494218  0.1029143440794579   T   T   T
  0.5114786557294384  0.7951043570494218  0.1029143440794579   T   T   T
  0.2500000000000000  0.2124318849538849  0.0984669180601734   T   T   T
  0.2500000000000000  0.6244935447763202  0.1231895247150642   T   T   T
 
  0.00000000E+00  0.00000000E+00  0.00000000E+00
  0.00000000E+00  0.00000000E+00  0.00000000E+00
  0.00000000E+00  0.00000000E+00  0.00000000E+00
  0.00000000E+00  0.00000000E+00  0.00000000E+00
  0.00000000E+00  0.00000000E+00  0.00000000E+00
  0.00000000E+00  0.00000000E+00  0.00000000E+00
  0.00000000E+00  0.00000000E+00  0.00000000E+00
  0.00000000E+00  0.00000000E+00  0.00000000E+00
  0.00000000E+00  0.00000000E+00  0.00000000E+00
  0.00000000E+00  0.00000000E+00  0.00000000E+00
  0.00000000E+00  0.00000000E+00  0.00000000E+00
  0.00000000E+00  0.00000000E+00  0.00000000E+00
  0.00000000E+00  0.00000000E+00  0.00000000E+00
  0.00000000E+00  0.00000000E+00  0.00000000E+00
  0.00000000E+00  0.00000000E+00  0.00000000E+00
