Title                                   
   1.00000000000000     
     9.8694509999999998    0.0000000000000000    0.0000000000000000
     0.0000000000000000    8.5490480000000009    0.0000000000000000
     0.0000000000000000    0.0000000000000000   20.0000000000000000
    27     4     1
Selective dynamics
Direct
  0.0560948118007751  0.0917821960502954  0.0846901961877791   T   T   T
  0.9304620544531866  0.1755851675039678  0.0874923671590655   T   T   T
  0.0571500618654585  0.9238310351349627  0.0840703609441327   T   T   T
  0.9286331329195971  0.3423375422109786  0.0909394350240908   T   T   T
  0.0557297255955508  0.5896416509243572  0.0870765029077304   T   T   T
  0.9319947192837988  0.6738768287234506  0.0884690784677952   T   T   T
  0.0562197778369698  0.4232819761713685  0.0896771776127863   T   T   T
  0.9320323101223074  0.8415468271692965  0.0862523820065433   T   T   T
  0.3051368724424846  0.0877773256314677  0.0864840694470309   T   T   T
  0.1819647585504764  0.1740502596618947  0.0864274217991262   T   T   T
  0.3074660105393192  0.9220289071288457  0.0881599117253539   T   T   T
  0.1816622415100926  0.3398723216749741  0.0904454339141229   T   T   T
  0.3055054984215975  0.5891358157999633  0.0993112641566509   T   T   T
  0.1813944234497209  0.6703776471981706  0.0882201396915629   T   T   T
  0.1825107355091036  0.8380083892715502  0.0861906407091805   T   T   T
  0.5556815217604579  0.0857576440847454  0.0957100517354129   T   T   T
  0.4300298595031516  0.1681925969986814  0.0923541730698728   T   T   T
  0.4304349179199042  0.3331315399121084  0.0994483842138705   T   T   T
  0.4297235879431367  0.8373662704752061  0.1000430895993842   T   T   T
  0.8065940343704949  0.0915049065044634  0.0881758361560752   T   T   T
  0.6800101648808886  0.1706294954651902  0.0940508642473446   T   T   T
  0.8069762853128627  0.9261763163549313  0.0880773191380544   T   T   T
  0.6765031046169278  0.3354261289528542  0.1003445666593096   T   T   T
  0.8070000722396868  0.5955833184227354  0.0977903232072893   T   T   T
  0.8003813323024230  0.4266384031590763  0.0970902252617501   T   T   T
  0.6845682817194397  0.8423301611431198  0.0976728541659564   T   T   T
  0.4225367430843542  0.6766803003410470  0.1159580749608883   T   T   T
  0.5503407465646589  0.4057928399339244  0.1138594651774176   T   T   T
  0.6921844819585359  0.6861601601190183  0.1110512435773601   T   T   T
  0.5573405396610021  0.9194220541791591  0.0987307699748828   T   T   T
  0.3081605404467551  0.4215575654886024  0.0971027108041486   T   T   T
  0.5672156514148862  0.5847624082095961  0.1743086662980475   T   T   T
 
  0.00000000E+00  0.00000000E+00  0.00000000E+00
  0.00000000E+00  0.00000000E+00  0.00000000E+00
  0.00000000E+00  0.00000000E+00  0.00000000E+00
  0.00000000E+00  0.00000000E+00  0.00000000E+00
  0.00000000E+00  0.00000000E+00  0.00000000E+00
  0.00000000E+00  0.00000000E+00  0.00000000E+00
  0.00000000E+00  0.00000000E+00  0.00000000E+00
  0.00000000E+00  0.00000000E+00  0.00000000E+00
  0.00000000E+00  0.00000000E+00  0.00000000E+00
  0.00000000E+00  0.00000000E+00  0.00000000E+00
  0.00000000E+00  0.00000000E+00  0.00000000E+00
  0.00000000E+00  0.00000000E+00  0.00000000E+00
  0.00000000E+00  0.00000000E+00  0.00000000E+00
  0.00000000E+00  0.00000000E+00  0.00000000E+00
  0.00000000E+00  0.00000000E+00  0.00000000E+00
  0.00000000E+00  0.00000000E+00  0.00000000E+00
  0.00000000E+00  0.00000000E+00  0.00000000E+00
  0.00000000E+00  0.00000000E+00  0.00000000E+00
  0.00000000E+00  0.00000000E+00  0.00000000E+00
  0.00000000E+00  0.00000000E+00  0.00000000E+00
  0.00000000E+00  0.00000000E+00  0.00000000E+00
  0.00000000E+00  0.00000000E+00  0.00000000E+00
  0.00000000E+00  0.00000000E+00  0.00000000E+00
  0.00000000E+00  0.00000000E+00  0.00000000E+00
  0.00000000E+00  0.00000000E+00  0.00000000E+00
  0.00000000E+00  0.00000000E+00  0.00000000E+00
  0.00000000E+00  0.00000000E+00  0.00000000E+00
  0.00000000E+00  0.00000000E+00  0.00000000E+00
  0.00000000E+00  0.00000000E+00  0.00000000E+00
  0.00000000E+00  0.00000000E+00  0.00000000E+00
  0.00000000E+00  0.00000000E+00  0.00000000E+00
  0.00000000E+00  0.00000000E+00  0.00000000E+00
