Title                                   
   1.00000000000000     
     4.9440799999999996    0.0000000000000000    0.0000000000000000
     0.0000000000000000   17.1295089999999988    0.0000000000000000
     0.0000000000000000    0.0000000000000000   20.0000000000000000
    26     4     1
Selective dynamics
Direct
  0.0022593784040837  0.1058215382900528  0.2969325805582272   T   T   T
  0.2514453918023921  0.1487220582065888  0.2974218213775191   T   T   T
  0.2523219065988888  0.2337281545347043  0.2998423422678250   T   T   T
  0.0017975330568234  0.2755156874434545  0.3033457804248811   T   T   T
 -0.0077809287383339  0.5997335967466615  0.3031673046705181   T   T   T
  0.2441752121656841  0.7259611111920629  0.2975854683039469   T   T   T
 -0.0011649263066043  0.8529284245887534  0.2969125496113997   T   T   T
  0.2483226309140475  0.8950900462681278  0.2965445390164990   T   T   T
  0.2498421990443155  0.9794274601942958  0.2963468111811237   T   T   T
 -0.0025536391135818  0.7684630894729091  0.2974638309088860   T   T   T
  0.5008440679810993  0.1061167127125847  0.2961137490253800   T   T   T
  0.7527482332909464  0.1479308271671692  0.2965246973553807   T   T   T
  0.7550430917005700  0.2316979348195962  0.2979696791766303   T   T   T
  0.4998169382277742  0.0217929166790762  0.2959845885070027   T   T   T
  0.7547227361543452  0.3947328759220445  0.3022232366311589   T   T   T
  0.7466686407114803  0.4799037217608422  0.3013432109648830   T   T   T
  0.5064684710632795  0.2741292568378775  0.2976522002832754   T   T   T
  0.4930391001810294  0.6013067099197742  0.2941252692299872   T   T   T
  0.7471289989144722  0.7268189200726819  0.2965381519462811   T   T   T
  0.4964530670479260  0.8524047448599886  0.2962887822061170   T   T   T
  0.7480204614573296  0.8948381672444399  0.2963534605011603   T   T   T
  0.7494681735716535  0.9791581879470556  0.2961625118797874   T   T   T
  0.4947861207473669  0.7679284737804689  0.2963656614496278   T   T   T
  0.7448224181748930  0.6439758113935447  0.2969422877756271   T   T   T
  0.0004793958711077  0.0215229129228028  0.2964790673163265   T   T   T
  0.5013337177679688  0.5203771967708545  0.2897156027143422   T   T   T
  0.9912307815076913  0.5204033852917069  0.3148161996527896   T   T   T
  0.5154454727854378  0.3541338621493872  0.2964018801054628   T   T   T
 -0.0058200368615877  0.3565602489862968  0.3126432388248728   T   T   T
  0.2405345847248470  0.6419630146509229  0.2987381077441549   T   T   T
  0.2881078071526565  0.4382549511732677  0.3301153883888775   T   T   T
 
  0.00000000E+00  0.00000000E+00  0.00000000E+00
  0.00000000E+00  0.00000000E+00  0.00000000E+00
  0.00000000E+00  0.00000000E+00  0.00000000E+00
  0.00000000E+00  0.00000000E+00  0.00000000E+00
  0.00000000E+00  0.00000000E+00  0.00000000E+00
  0.00000000E+00  0.00000000E+00  0.00000000E+00
  0.00000000E+00  0.00000000E+00  0.00000000E+00
  0.00000000E+00  0.00000000E+00  0.00000000E+00
  0.00000000E+00  0.00000000E+00  0.00000000E+00
  0.00000000E+00  0.00000000E+00  0.00000000E+00
  0.00000000E+00  0.00000000E+00  0.00000000E+00
  0.00000000E+00  0.00000000E+00  0.00000000E+00
  0.00000000E+00  0.00000000E+00  0.00000000E+00
  0.00000000E+00  0.00000000E+00  0.00000000E+00
  0.00000000E+00  0.00000000E+00  0.00000000E+00
  0.00000000E+00  0.00000000E+00  0.00000000E+00
  0.00000000E+00  0.00000000E+00  0.00000000E+00
  0.00000000E+00  0.00000000E+00  0.00000000E+00
  0.00000000E+00  0.00000000E+00  0.00000000E+00
  0.00000000E+00  0.00000000E+00  0.00000000E+00
  0.00000000E+00  0.00000000E+00  0.00000000E+00
  0.00000000E+00  0.00000000E+00  0.00000000E+00
  0.00000000E+00  0.00000000E+00  0.00000000E+00
  0.00000000E+00  0.00000000E+00  0.00000000E+00
  0.00000000E+00  0.00000000E+00  0.00000000E+00
  0.00000000E+00  0.00000000E+00  0.00000000E+00
  0.00000000E+00  0.00000000E+00  0.00000000E+00
  0.00000000E+00  0.00000000E+00  0.00000000E+00
  0.00000000E+00  0.00000000E+00  0.00000000E+00
  0.00000000E+00  0.00000000E+00  0.00000000E+00
  0.00000000E+00  0.00000000E+00  0.00000000E+00
