Title                                   
   1.00000000000000     
     9.8694509999999998    0.0000000000000000    0.0000000000000000
     0.0000000000000000    8.5490480000000009    0.0000000000000000
     0.0000000000000000    0.0000000000000000   20.0000000000000000
    25     5     1
Selective dynamics
Direct
  0.0552332286543627  0.0886746883498613  0.0945881535811600   T   T   T
  0.9305403944550958  0.1723460392046820  0.0945118629660495   T   T   T
  0.0566967708782338  0.9219322812731775  0.0945902713306469   T   T   T
  0.9331070418601890  0.3400930803871989  0.0944110534579802   T   T   T
  0.0552874945623840  0.5909059105620954  0.0944840638094995   T   T   T
  0.0562767757983869  0.4242795797750063  0.0944786945434922   T   T   T
  0.9320011633315635  0.8396534934345430  0.0944787767732097   T   T   T
  0.3073650610427099  0.0889568461236944  0.0950364567800989   T   T   T
  0.1810388481568568  0.1703588468891403  0.0948212268352180   T   T   T
  0.1804749755218574  0.3377840641953048  0.0948485880750999   T   T   T
  0.3026508388150562  0.5871421920503589  0.0954073653743018   T   T   T
  0.1796450893792355  0.6740863910930367  0.0949167332607873   T   T   T
  0.3029010820079497  0.4189195073250778  0.0952725182569846   T   T   T
  0.1829687493035907  0.8403673634278604  0.0948659130669864   T   T   T
  0.4311501755695407  0.1776536827801043  0.0951734748616042   T   T   T
  0.5559297350327098  0.9207558605467880  0.0950741197265974   T   T   T
  0.4268156967411667  0.6687434783275307  0.0957306045620463   T   T   T
  0.4302631800309957  0.8344766491407312  0.0953788637713049   T   T   T
  0.8044334887936344  0.0890854773782769  0.0946534465600920   T   T   T
  0.6805811313480955  0.1799485565320274  0.0948247745001732   T   T   T
  0.8055961881705478  0.9211626480455228  0.0946584608285352   T   T   T
  0.6843278476231411  0.3452694406683128  0.0949194336432588   T   T   T
  0.8101501167828516  0.5933759769365778  0.0945347519224554   T   T   T
  0.8107504486770527  0.4239219567681616  0.0945568966274252   T   T   T
  0.6803539442632140  0.8349044598912079  0.0948660575815847   T   T   T
  0.9323759846671490  0.6736755616671334  0.0943190721525167   T   T   T
  0.5558435248289075  0.0936717989778601  0.0949189772454993   T   T   T
  0.4269109775837983  0.3405855292076270  0.0953732010816678   T   T   T
  0.6886453656634084  0.6688356669122983  0.0948063718378762   T   T   T
  0.3062950392475547  0.9224711883227839  0.0950416193658026   T   T   T
  0.5565246412087632  0.5068367838060440  0.0954231956200794   T   T   T
 
  0.00000000E+00  0.00000000E+00  0.00000000E+00
  0.00000000E+00  0.00000000E+00  0.00000000E+00
  0.00000000E+00  0.00000000E+00  0.00000000E+00
  0.00000000E+00  0.00000000E+00  0.00000000E+00
  0.00000000E+00  0.00000000E+00  0.00000000E+00
  0.00000000E+00  0.00000000E+00  0.00000000E+00
  0.00000000E+00  0.00000000E+00  0.00000000E+00
  0.00000000E+00  0.00000000E+00  0.00000000E+00
  0.00000000E+00  0.00000000E+00  0.00000000E+00
  0.00000000E+00  0.00000000E+00  0.00000000E+00
  0.00000000E+00  0.00000000E+00  0.00000000E+00
  0.00000000E+00  0.00000000E+00  0.00000000E+00
  0.00000000E+00  0.00000000E+00  0.00000000E+00
  0.00000000E+00  0.00000000E+00  0.00000000E+00
  0.00000000E+00  0.00000000E+00  0.00000000E+00
  0.00000000E+00  0.00000000E+00  0.00000000E+00
  0.00000000E+00  0.00000000E+00  0.00000000E+00
  0.00000000E+00  0.00000000E+00  0.00000000E+00
  0.00000000E+00  0.00000000E+00  0.00000000E+00
  0.00000000E+00  0.00000000E+00  0.00000000E+00
  0.00000000E+00  0.00000000E+00  0.00000000E+00
  0.00000000E+00  0.00000000E+00  0.00000000E+00
  0.00000000E+00  0.00000000E+00  0.00000000E+00
  0.00000000E+00  0.00000000E+00  0.00000000E+00
  0.00000000E+00  0.00000000E+00  0.00000000E+00
  0.00000000E+00  0.00000000E+00  0.00000000E+00
  0.00000000E+00  0.00000000E+00  0.00000000E+00
  0.00000000E+00  0.00000000E+00  0.00000000E+00
  0.00000000E+00  0.00000000E+00  0.00000000E+00
  0.00000000E+00  0.00000000E+00  0.00000000E+00
  0.00000000E+00  0.00000000E+00  0.00000000E+00
