Title                                   
   1.00000000000000     
     8.5490480000000009    0.0000000000000000    0.0000000000000000
     0.0000000000000000    8.5490480000000009    0.0000000000000000
     0.0000000000000000    0.0000000000000000   20.0000000000000000
    22     2     1
Selective dynamics
Direct
  0.9109497431725734  0.2057786357222438  0.0954479237664256   T   T   T
  0.9081538535504887  0.5014612944194328  0.0953069477216341   T   T   T
  0.9101299713863419  0.7981352350852267  0.0954666658701257   T   T   T
  0.1966879358013044  0.0846675629570606  0.0954790871035542   T   T   T
  0.0759180668402783  0.2054352012674214  0.0954628892640100   T   T   T
  0.1970170590349395  0.9197195764676578  0.0954853003198988   T   T   T
  0.1564274409695062  0.6491681981081203  0.0953596634837985   T   T   T
  0.0779008293680925  0.5021369157915968  0.0953251039837604   T   T   T
  0.1580597382296682  0.3531490036539074  0.0953232424572678   T   T   T
  0.0750853280176313  0.7977924861152916  0.0954716483201697   T   T   T
  0.4933393438176404  0.0866628550817923  0.0953553568792457   T   T   T
  0.3444010811018695  0.1668307017854479  0.0953476749462338   T   T   T
  0.4926574934080288  0.9169275999779082  0.0953580578791128   T   T   T
  0.3456462436303631  0.8383813102433691  0.0953776444018245   T   T   T
  0.7890098307009039  0.0838601989091993  0.0954634990832249   T   T   T
  0.6403623540956018  0.1652130550258173  0.0953437239933766   T   T   T
  0.7893486687232264  0.9189106948548259  0.0954738389927835   T   T   T
  0.8279749938860794  0.6504365759261223  0.0953149643301780   T   T   T
  0.8296122398962601  0.3544180926136611  0.0953036824915819   T   T   T
  0.6416068971372778  0.8367546177781967  0.0953312241902822   T   T   T
  0.3227913268824404  0.6720506314107612  0.0953005928953784   T   T   T
  0.6632525384203810  0.3315336642413207  0.0952349972421425   T   T   T
  0.3202705789855850  0.3290006175321967  0.0951981829469086   T   T   T
  0.6657760891885529  0.6745752833552868  0.0951839577957720   T   T   T
  0.4930323537549584  0.5017899916761488  0.0949891296412878   T   T   T
 
  0.00000000E+00  0.00000000E+00  0.00000000E+00
  0.00000000E+00  0.00000000E+00  0.00000000E+00
  0.00000000E+00  0.00000000E+00  0.00000000E+00
  0.00000000E+00  0.00000000E+00  0.00000000E+00
  0.00000000E+00  0.00000000E+00  0.00000000E+00
  0.00000000E+00  0.00000000E+00  0.00000000E+00
  0.00000000E+00  0.00000000E+00  0.00000000E+00
  0.00000000E+00  0.00000000E+00  0.00000000E+00
  0.00000000E+00  0.00000000E+00  0.00000000E+00
  0.00000000E+00  0.00000000E+00  0.00000000E+00
  0.00000000E+00  0.00000000E+00  0.00000000E+00
  0.00000000E+00  0.00000000E+00  0.00000000E+00
  0.00000000E+00  0.00000000E+00  0.00000000E+00
  0.00000000E+00  0.00000000E+00  0.00000000E+00
  0.00000000E+00  0.00000000E+00  0.00000000E+00
  0.00000000E+00  0.00000000E+00  0.00000000E+00
  0.00000000E+00  0.00000000E+00  0.00000000E+00
  0.00000000E+00  0.00000000E+00  0.00000000E+00
  0.00000000E+00  0.00000000E+00  0.00000000E+00
  0.00000000E+00  0.00000000E+00  0.00000000E+00
  0.00000000E+00  0.00000000E+00  0.00000000E+00
  0.00000000E+00  0.00000000E+00  0.00000000E+00
  0.00000000E+00  0.00000000E+00  0.00000000E+00
  0.00000000E+00  0.00000000E+00  0.00000000E+00
  0.00000000E+00  0.00000000E+00  0.00000000E+00
