Title                                   
   1.00000000000000     
     8.5490480000000009    0.0000000000000000    0.0000000000000000
     0.0000000000000000    8.5490480000000009    0.0000000000000000
     0.0000000000000000    0.0000000000000000   20.0000000000000000
    18     6     1
Selective dynamics
Direct
  0.9085145687525616  0.2056195683122762  0.0953056436076911   T   T   T
  0.9105611890680863  0.8006056265169693  0.0954641944775031   T   T   T
  0.1958231226866430  0.0835289386564720  0.0958028496805677   T   T   T
  0.0759505316012655  0.2012105461614426  0.0954947537912266   T   T   T
  0.1549519431729394  0.6522128299175912  0.0972557704372351   T   T   T
  0.0781688906410413  0.5010633847678801  0.0971369775518117   T   T   T
  0.1540079180206333  0.3503293424267267  0.0972419189297633   T   T   T
  0.0786966286021572  0.7994767609997603  0.0955676923868121   T   T   T
  0.4933956000610406  0.0886555924771151  0.0975697802097987   T   T   T
  0.3429055606868874  0.1633136116270488  0.0975724270008572   T   T   T
  0.4923223030472672  0.9164741325818421  0.0974025860892816   T   T   T
  0.3435701709122492  0.8387203082578154  0.0974155552722716   T   T   T
  0.7887707729936191  0.0874842053424703  0.0957927400378784   T   T   T
  0.6423506484375493  0.1674239045352269  0.0975747356291093   T   T   T
  0.7891684345470016  0.9183518189958129  0.0958067402952630   T   T   T
  0.8320515589074819  0.6515487213048063  0.0968840038726761   T   T   T
  0.8308406766579493  0.3538885604350551  0.0967650877256560   T   T   T
  0.6431409446914552  0.8370088928762686  0.0973929083448015   T   T   T
  0.9071492433772702  0.5023482747971176  0.0967942471220460   T   T   T
  0.3163079608679744  0.3254158085930512  0.0993861515846849   T   T   T
  0.3173478848510628  0.6790658823963832  0.0995139765956554   T   T   T
  0.6700785622560624  0.3317150830376683  0.0991963504784853   T   T   T
  0.6712213840232121  0.6733233677431459  0.0989247099773237   T   T   T
  0.1967603400395956  0.9163008346719407  0.0956244878294265   T   T   T
  0.4913551610969872  0.4997040025681129  0.1148187110721540   T   T   T
 
  0.00000000E+00  0.00000000E+00  0.00000000E+00
  0.00000000E+00  0.00000000E+00  0.00000000E+00
  0.00000000E+00  0.00000000E+00  0.00000000E+00
  0.00000000E+00  0.00000000E+00  0.00000000E+00
  0.00000000E+00  0.00000000E+00  0.00000000E+00
  0.00000000E+00  0.00000000E+00  0.00000000E+00
  0.00000000E+00  0.00000000E+00  0.00000000E+00
  0.00000000E+00  0.00000000E+00  0.00000000E+00
  0.00000000E+00  0.00000000E+00  0.00000000E+00
  0.00000000E+00  0.00000000E+00  0.00000000E+00
  0.00000000E+00  0.00000000E+00  0.00000000E+00
  0.00000000E+00  0.00000000E+00  0.00000000E+00
  0.00000000E+00  0.00000000E+00  0.00000000E+00
  0.00000000E+00  0.00000000E+00  0.00000000E+00
  0.00000000E+00  0.00000000E+00  0.00000000E+00
  0.00000000E+00  0.00000000E+00  0.00000000E+00
  0.00000000E+00  0.00000000E+00  0.00000000E+00
  0.00000000E+00  0.00000000E+00  0.00000000E+00
  0.00000000E+00  0.00000000E+00  0.00000000E+00
  0.00000000E+00  0.00000000E+00  0.00000000E+00
  0.00000000E+00  0.00000000E+00  0.00000000E+00
  0.00000000E+00  0.00000000E+00  0.00000000E+00
  0.00000000E+00  0.00000000E+00  0.00000000E+00
  0.00000000E+00  0.00000000E+00  0.00000000E+00
  0.00000000E+00  0.00000000E+00  0.00000000E+00
