Title                                   
   1.00000000000000     
     4.9440799999999996    0.0000000000000000    0.0000000000000000
     0.0000000000000000   17.1295089999999988    0.0000000000000000
     0.0000000000000000    0.0000000000000000   20.0000000000000000
    27     4     1
Selective dynamics
Direct
  0.0001642389069928  0.1050225190001698  0.2883276428373803   T   T   T
  0.2498843243021803  0.1472051675519309  0.2905379648965347   T   T   T
  0.2499049273632845  0.2309159554721192  0.2974380674352964   T   T   T
  0.0072022467812287  0.3537943981737741  0.3145032124134323   T   T   T
 -0.0020841397652306  0.2723815747767471  0.3010714614917788   T   T   T
 -0.0054054271426173  0.6013715567106601  0.3030370611332748   T   T   T
  0.2499506891639437  0.7261802358619998  0.2934584770129839   T   T   T
  0.0005186604111320  0.8530228468283250  0.2875569268814011   T   T   T
  0.2499094389659460  0.8952520391233497  0.2869366156129601   T   T   T
  0.2498699022460576  0.9791832392568283  0.2863432329507559   T   T   T
  0.0008542364565145  0.7691181810440268  0.2903212807993787   T   T   T
  0.4995854787082073  0.1050187061988149  0.2883312284845321   T   T   T
  0.7498756934656078  0.1471882777520603  0.2898345363424931   T   T   T
  0.7498966661303220  0.2300255278429478  0.2952805579377272   T   T   T
  0.4998360887927819  0.0212631107043342  0.2864696270576123   T   T   T
  0.4926405221312585  0.3537941037290921  0.3145103853901345   T   T   T
  0.7498840227825558  0.4843514827748196  0.3128744320415515   T   T   T
  0.5019067114919741  0.2723815368547240  0.3010778282577927   T   T   T
  0.5052532479827514  0.6013649618235417  0.3030069328902645   T   T   T
  0.7499432922528488  0.7278486577829298  0.2913691934050213   T   T   T
  0.4993260591898703  0.8530246826529799  0.2875542107081421   T   T   T
  0.7499108687079095  0.8951000017495065  0.2866198326446462   T   T   T
  0.7498741679816698  0.9789622758501997  0.2861045224865436   T   T   T
  0.4990410850095428  0.7691189799042225  0.2903175110840890   T   T   T
  0.7499417384093002  0.6446008568564100  0.2962744999864754   T   T   T
  0.2499301172783331  0.6420488309962749  0.3008555796137298   T   T   T
 -0.0001227043824669  0.0212654492216748  0.2864665203100910   T   T   T
  0.5121976370403526  0.5219796952184297  0.3132815533823072   T   T   T
  0.9875702177171508  0.5219993744984980  0.3133927656505037   T   T   T
  0.2499194995205604  0.3884455563712668  0.3263030338274742   T   T   T
  0.7499198885645979  0.3994336330714318  0.3183249822187527   T   T   T
  0.2497236035354463  0.4858875843459045  0.3947833228148888   T   T   T
 
  0.00000000E+00  0.00000000E+00  0.00000000E+00
  0.00000000E+00  0.00000000E+00  0.00000000E+00
  0.00000000E+00  0.00000000E+00  0.00000000E+00
  0.00000000E+00  0.00000000E+00  0.00000000E+00
  0.00000000E+00  0.00000000E+00  0.00000000E+00
  0.00000000E+00  0.00000000E+00  0.00000000E+00
  0.00000000E+00  0.00000000E+00  0.00000000E+00
  0.00000000E+00  0.00000000E+00  0.00000000E+00
  0.00000000E+00  0.00000000E+00  0.00000000E+00
  0.00000000E+00  0.00000000E+00  0.00000000E+00
  0.00000000E+00  0.00000000E+00  0.00000000E+00
  0.00000000E+00  0.00000000E+00  0.00000000E+00
  0.00000000E+00  0.00000000E+00  0.00000000E+00
  0.00000000E+00  0.00000000E+00  0.00000000E+00
  0.00000000E+00  0.00000000E+00  0.00000000E+00
  0.00000000E+00  0.00000000E+00  0.00000000E+00
  0.00000000E+00  0.00000000E+00  0.00000000E+00
  0.00000000E+00  0.00000000E+00  0.00000000E+00
  0.00000000E+00  0.00000000E+00  0.00000000E+00
  0.00000000E+00  0.00000000E+00  0.00000000E+00
  0.00000000E+00  0.00000000E+00  0.00000000E+00
  0.00000000E+00  0.00000000E+00  0.00000000E+00
  0.00000000E+00  0.00000000E+00  0.00000000E+00
  0.00000000E+00  0.00000000E+00  0.00000000E+00
  0.00000000E+00  0.00000000E+00  0.00000000E+00
  0.00000000E+00  0.00000000E+00  0.00000000E+00
  0.00000000E+00  0.00000000E+00  0.00000000E+00
  0.00000000E+00  0.00000000E+00  0.00000000E+00
  0.00000000E+00  0.00000000E+00  0.00000000E+00
  0.00000000E+00  0.00000000E+00  0.00000000E+00
  0.00000000E+00  0.00000000E+00  0.00000000E+00
  0.00000000E+00  0.00000000E+00  0.00000000E+00
