Title                                   
   1.00000000000000     
     4.9440799999999996    0.0000000000000000    0.0000000000000000
     0.0000000000000000    8.5647549999999999    0.0000000000000000
     0.0000000000000000    0.0000000000000000   20.0000000000000000
    13     1     1
Selective dynamics
Direct
  0.0026664319104886  0.2935598939728276  0.0950750612367990   T   T   T
  0.2500000000000000  0.0431206257705324  0.0956176216713494   T   T   T
  0.0016717275794370  0.9573743646477275  0.0958598779470458   T   T   T
  0.7500000000000000  0.2081798585314422  0.0925088307502552   T   T   T
  0.4973335680895113  0.2935598939728276  0.0950750612367990   T   T   T
  0.7500000000000000  0.0408550611543488  0.0929673884230994   T   T   T
  0.7500000000000000  0.7092843602005228  0.0999021143125673   T   T   T
  0.7500000000000000  0.5377099549461272  0.1002207654893478   T   T   T
  0.4983282724205628  0.9573743646477275  0.0958598779470458   T   T   T
  0.4977161549764254  0.4584464434189541  0.1010474571386058   T   T   T
  0.0022838450235748  0.4584464434189541  0.1010474571386058   T   T   T
  0.0000579912807040  0.7899364432065323  0.1017378810589149   T   T   T
  0.4999420087192962  0.7899364432065323  0.1017378810589149   T   T   T
  0.2500000000000000  0.2077780203605298  0.0948577334114804   T   T   T
  0.2500000000000000  0.6261188285444163  0.1444649911791729   T   T   T
 
  0.00000000E+00  0.00000000E+00  0.00000000E+00
  0.00000000E+00  0.00000000E+00  0.00000000E+00
  0.00000000E+00  0.00000000E+00  0.00000000E+00
  0.00000000E+00  0.00000000E+00  0.00000000E+00
  0.00000000E+00  0.00000000E+00  0.00000000E+00
  0.00000000E+00  0.00000000E+00  0.00000000E+00
  0.00000000E+00  0.00000000E+00  0.00000000E+00
  0.00000000E+00  0.00000000E+00  0.00000000E+00
  0.00000000E+00  0.00000000E+00  0.00000000E+00
  0.00000000E+00  0.00000000E+00  0.00000000E+00
  0.00000000E+00  0.00000000E+00  0.00000000E+00
  0.00000000E+00  0.00000000E+00  0.00000000E+00
  0.00000000E+00  0.00000000E+00  0.00000000E+00
  0.00000000E+00  0.00000000E+00  0.00000000E+00
  0.00000000E+00  0.00000000E+00  0.00000000E+00
