Title                                   
   1.00000000000000     
     4.9440799999999996    0.0000000000000000    0.0000000000000000
     0.0000000000000000   17.1295089999999988    0.0000000000000000
     0.0000000000000000    0.0000000000000000   20.0000000000000000
    26     4     1
Selective dynamics
Direct
  0.0008784309866466  0.1061507569357224  0.2941518885675192   T   T   T
  0.2503029758189416  0.1487025282689409  0.2957566584237459   T   T   T
  0.2501876653652063  0.2334268168618173  0.2999333543265197   T   T   T
 -0.0016653189346603  0.2744337488721479  0.3009641837854725   T   T   T
 -0.0015072252694061  0.6004986004947496  0.3012075743716090   T   T   T
  0.2503806955899471  0.7262256051091384  0.2958049146116565   T   T   T
  0.0007199430844995  0.8530410185335702  0.2932833302453451   T   T   T
  0.2504282795085960  0.8953271216740640  0.2933397248718894   T   T   T
  0.2503876053166877  0.9795808900589972  0.2933828618019877   T   T   T
  0.0009525926020688  0.7687701600521579  0.2941319389819176   T   T   T
  0.4997665886086224  0.1061531026310475  0.2941414408411184   T   T   T
  0.7502970835993339  0.1480593207772638  0.2941086424943460   T   T   T
  0.7501865949608075  0.2319841635654106  0.2960651054356689   T   T   T
  0.5001041506751694  0.0218752441281624  0.2933502339647264   T   T   T
  0.7502438294024016  0.3960183682233247  0.3015602307964630   T   T   T
  0.7502822619854554  0.4789662024934606  0.3017121289859157   T   T   T
  0.5020234760139100  0.2744081845933972  0.3009074062673937   T   T   T
  0.5021561847080166  0.6005294552524595  0.3011712528509471   T   T   T
  0.7503965358038205  0.7268604851186988  0.2941456312088641   T   T   T
  0.5001652099604796  0.8530467824646781  0.2932776691562076   T   T   T
  0.7504745129934494  0.8953273661328097  0.2929653371843175   T   T   T
  0.7504334582227132  0.9796044385600093  0.2930058273054640   T   T   T
  0.4998571842359861  0.7687629639439821  0.2941303342771673   T   T   T
  0.7503403700718236  0.6429407565669620  0.2962543271702291   T   T   T
  0.2503222074122619  0.6415046262787849  0.3001244179356007   T   T   T
  0.0006781535957039  0.0218873052662290  0.2933611142112423   T   T   T
  0.5105852093655554  0.5200459569478980  0.3103261580265492   T   T   T
  0.9899759674366878  0.5200314400411483  0.3104359713909113   T   T   T
  0.5104768640794555  0.3548859587092726  0.3099996953715225   T   T   T
 -0.0100896228242695  0.3548886280125327  0.3101420964957109   T   T   T
  0.2502651356240900  0.4374040034311599  0.3419185486419222   T   T   T
 
  0.00000000E+00  0.00000000E+00  0.00000000E+00
  0.00000000E+00  0.00000000E+00  0.00000000E+00
  0.00000000E+00  0.00000000E+00  0.00000000E+00
  0.00000000E+00  0.00000000E+00  0.00000000E+00
  0.00000000E+00  0.00000000E+00  0.00000000E+00
  0.00000000E+00  0.00000000E+00  0.00000000E+00
  0.00000000E+00  0.00000000E+00  0.00000000E+00
  0.00000000E+00  0.00000000E+00  0.00000000E+00
  0.00000000E+00  0.00000000E+00  0.00000000E+00
  0.00000000E+00  0.00000000E+00  0.00000000E+00
  0.00000000E+00  0.00000000E+00  0.00000000E+00
  0.00000000E+00  0.00000000E+00  0.00000000E+00
  0.00000000E+00  0.00000000E+00  0.00000000E+00
  0.00000000E+00  0.00000000E+00  0.00000000E+00
  0.00000000E+00  0.00000000E+00  0.00000000E+00
  0.00000000E+00  0.00000000E+00  0.00000000E+00
  0.00000000E+00  0.00000000E+00  0.00000000E+00
  0.00000000E+00  0.00000000E+00  0.00000000E+00
  0.00000000E+00  0.00000000E+00  0.00000000E+00
  0.00000000E+00  0.00000000E+00  0.00000000E+00
  0.00000000E+00  0.00000000E+00  0.00000000E+00
  0.00000000E+00  0.00000000E+00  0.00000000E+00
  0.00000000E+00  0.00000000E+00  0.00000000E+00
  0.00000000E+00  0.00000000E+00  0.00000000E+00
  0.00000000E+00  0.00000000E+00  0.00000000E+00
  0.00000000E+00  0.00000000E+00  0.00000000E+00
  0.00000000E+00  0.00000000E+00  0.00000000E+00
  0.00000000E+00  0.00000000E+00  0.00000000E+00
  0.00000000E+00  0.00000000E+00  0.00000000E+00
  0.00000000E+00  0.00000000E+00  0.00000000E+00
  0.00000000E+00  0.00000000E+00  0.00000000E+00
