Title                                   
   1.00000000000000     
     8.5490480000000009    0.0000000000000000    0.0000000000000000
     0.0000000000000000    8.5490480000000009    0.0000000000000000
     0.0000000000000000    0.0000000000000000   20.0000000000000000
    23     1     1
Selective dynamics
Direct
  0.9109280861288814  0.2060332625582321  0.0954359441164310   T   T   T
  0.9059448130541033  0.5030394531653598  0.0952944097571361   T   T   T
  0.9101947929868593  0.7990913631856978  0.0954451520709882   T   T   T
  0.1972714372037746  0.0830625041609520  0.0954583120756534   T   T   T
  0.0742802806633835  0.2060022997353935  0.0954403957676266   T   T   T
  0.1973014810816819  0.9197138621583018  0.0954707025366248   T   T   T
  0.1554941811412109  0.6491894455762192  0.0953596081619536   T   T   T
  0.0747858825807497  0.5032227315850079  0.0953154211616792   T   T   T
  0.1572613908061248  0.3562702083776756  0.0953469050168274   T   T   T
  0.0752274809983257  0.7975008554392954  0.0954551289683781   T   T   T
  0.4944214534558979  0.0835666683322809  0.0953548519693526   T   T   T
  0.3474973428568677  0.1660716485654759  0.0953708728120601   T   T   T
  0.4942531155612609  0.9147112412872165  0.0953469791130685   T   T   T
  0.3475172174413367  0.8349731034099174  0.0953916301261035   T   T   T
  0.7887081417740522  0.0839826643222038  0.0954464541370974   T   T   T
  0.6403815938587304  0.1642811400373229  0.0953416029414687   T   T   T
  0.7903339936960787  0.9189467180054590  0.0954481758947344   T   T   T
  0.8268921517348768  0.6512504341530408  0.0952891859488739   T   T   T
  0.8261986906447383  0.3562893390262810  0.0953219989340052   T   T   T
  0.6424672427807738  0.8356339375219730  0.0953031155451862   T   T   T
  0.3236580317442041  0.3324544018187725  0.0952841249724439   T   T   T
  0.3233498380970735  0.6704776316402979  0.0953161133281013   T   T   T
  0.6616856444023018  0.3321251926745055  0.0952406839082116   T   T   T
  0.6659503739650581  0.6747033917425987  0.0951491867053438   T   T   T
  0.4934073413416471  0.5021965015205323  0.0950780440306283   T   T   T
 
  0.00000000E+00  0.00000000E+00  0.00000000E+00
  0.00000000E+00  0.00000000E+00  0.00000000E+00
  0.00000000E+00  0.00000000E+00  0.00000000E+00
  0.00000000E+00  0.00000000E+00  0.00000000E+00
  0.00000000E+00  0.00000000E+00  0.00000000E+00
  0.00000000E+00  0.00000000E+00  0.00000000E+00
  0.00000000E+00  0.00000000E+00  0.00000000E+00
  0.00000000E+00  0.00000000E+00  0.00000000E+00
  0.00000000E+00  0.00000000E+00  0.00000000E+00
  0.00000000E+00  0.00000000E+00  0.00000000E+00
  0.00000000E+00  0.00000000E+00  0.00000000E+00
  0.00000000E+00  0.00000000E+00  0.00000000E+00
  0.00000000E+00  0.00000000E+00  0.00000000E+00
  0.00000000E+00  0.00000000E+00  0.00000000E+00
  0.00000000E+00  0.00000000E+00  0.00000000E+00
  0.00000000E+00  0.00000000E+00  0.00000000E+00
  0.00000000E+00  0.00000000E+00  0.00000000E+00
  0.00000000E+00  0.00000000E+00  0.00000000E+00
  0.00000000E+00  0.00000000E+00  0.00000000E+00
  0.00000000E+00  0.00000000E+00  0.00000000E+00
  0.00000000E+00  0.00000000E+00  0.00000000E+00
  0.00000000E+00  0.00000000E+00  0.00000000E+00
  0.00000000E+00  0.00000000E+00  0.00000000E+00
  0.00000000E+00  0.00000000E+00  0.00000000E+00
  0.00000000E+00  0.00000000E+00  0.00000000E+00
