Title                                   
   1.00000000000000     
     9.8694509999999998    0.0000000000000000    0.0000000000000000
     0.0000000000000000    8.5490480000000009    0.0000000000000000
     0.0000000000000000    0.0000000000000000   20.0000000000000000
    29     2     1
Selective dynamics
Direct
  0.0554804964506156  0.0918402813700906  0.0876399885491538   T   T   T
  0.9305643233554953  0.1726218336742986  0.0911746933270215   T   T   T
  0.0557275284317127  0.9248296293532258  0.0862068971648833   T   T   T
  0.9309777237906054  0.3401834009122123  0.0957020396602645   T   T   T
  0.0560013194411672  0.5907898872975856  0.0890533127791579   T   T   T
  0.9314566468931358  0.6728439612994203  0.0943721705346590   T   T   T
  0.0570502168526120  0.4240127452388586  0.0904883132764826   T   T   T
  0.9308638366593640  0.8391494490566407  0.0908279174553353   T   T   T
  0.3053334576371285  0.0906658869275455  0.0868997642718361   T   T   T
  0.1812879459420249  0.1744238419330333  0.0882381010417010   T   T   T
  0.1833911670464823  0.3431316182142379  0.0893232439817248   T   T   T
  0.3065706762088143  0.5960702946250283  0.0836046889161088   T   T   T
  0.1802704545249205  0.6757199000467857  0.0840089867086871   T   T   T
  0.3088091723564170  0.4279762238615296  0.0916227344789382   T   T   T
  0.1797758084612383  0.8428645135732864  0.0834966944779016   T   T   T
  0.5549774082729924  0.0853296940403210  0.0939368212961252   T   T   T
  0.4311969999190994  0.1716784152533679  0.0914581399956526   T   T   T
  0.5524725485997890  0.9188846170327604  0.0938428133667840   T   T   T
  0.4325072161766792  0.3391969649660985  0.1013753720005324   T   T   T
  0.5561409224429036  0.4059575734460434  0.1235685206547300   T   T   T
  0.4254660407785960  0.8364993899748707  0.0838832167435756   T   T   T
  0.8058011308812548  0.0875754303714220  0.0919901329697272   T   T   T
  0.6809219333241302  0.1691233204094807  0.0976003462269749   T   T   T
  0.8050713132454971  0.9206161424504054  0.0929283311342984   T   T   T
  0.6820992844239571  0.3335350679498942  0.1102603853754688   T   T   T
  0.8089167278968603  0.5897551510228503  0.1089772951468854   T   T   T
  0.6918941934568996  0.6783740986410453  0.1234836781714939   T   T   T
  0.8080823929151283  0.4205347090751071  0.1074909933672765   T   T   T
  0.6795800017101091  0.8364868891867908  0.1026439221980740   T   T   T
  0.4227478285484217  0.6818732914286909  0.0782295902352586   T   T   T
  0.3036036556695532  0.9259574141968783  0.0840042571461313   T   T   T
  0.5645986276864008  0.5817443631701834  0.1853416373472007   T   T   T
 
  0.00000000E+00  0.00000000E+00  0.00000000E+00
  0.00000000E+00  0.00000000E+00  0.00000000E+00
  0.00000000E+00  0.00000000E+00  0.00000000E+00
  0.00000000E+00  0.00000000E+00  0.00000000E+00
  0.00000000E+00  0.00000000E+00  0.00000000E+00
  0.00000000E+00  0.00000000E+00  0.00000000E+00
  0.00000000E+00  0.00000000E+00  0.00000000E+00
  0.00000000E+00  0.00000000E+00  0.00000000E+00
  0.00000000E+00  0.00000000E+00  0.00000000E+00
  0.00000000E+00  0.00000000E+00  0.00000000E+00
  0.00000000E+00  0.00000000E+00  0.00000000E+00
  0.00000000E+00  0.00000000E+00  0.00000000E+00
  0.00000000E+00  0.00000000E+00  0.00000000E+00
  0.00000000E+00  0.00000000E+00  0.00000000E+00
  0.00000000E+00  0.00000000E+00  0.00000000E+00
  0.00000000E+00  0.00000000E+00  0.00000000E+00
  0.00000000E+00  0.00000000E+00  0.00000000E+00
  0.00000000E+00  0.00000000E+00  0.00000000E+00
  0.00000000E+00  0.00000000E+00  0.00000000E+00
  0.00000000E+00  0.00000000E+00  0.00000000E+00
  0.00000000E+00  0.00000000E+00  0.00000000E+00
  0.00000000E+00  0.00000000E+00  0.00000000E+00
  0.00000000E+00  0.00000000E+00  0.00000000E+00
  0.00000000E+00  0.00000000E+00  0.00000000E+00
  0.00000000E+00  0.00000000E+00  0.00000000E+00
  0.00000000E+00  0.00000000E+00  0.00000000E+00
  0.00000000E+00  0.00000000E+00  0.00000000E+00
  0.00000000E+00  0.00000000E+00  0.00000000E+00
  0.00000000E+00  0.00000000E+00  0.00000000E+00
  0.00000000E+00  0.00000000E+00  0.00000000E+00
  0.00000000E+00  0.00000000E+00  0.00000000E+00
  0.00000000E+00  0.00000000E+00  0.00000000E+00
