Title                                   
   1.00000000000000     
     9.8694509999999998    0.0000000000000000    0.0000000000000000
     0.0000000000000000    8.5490480000000009    0.0000000000000000
     0.0000000000000000    0.0000000000000000   20.0000000000000000
    25     5     1
Selective dynamics
Direct
  0.0552514673521526  0.0886497833814538  0.0888219895049513   T   T   T
  0.9311729870240000  0.1723904699623546  0.0887156337678188   T   T   T
  0.0567538705924707  0.9221720174378855  0.0895102000513606   T   T   T
  0.9342581004196455  0.3399556103813668  0.0879787088200637   T   T   T
  0.0554552301247468  0.5909519685332222  0.0884803951701241   T   T   T
  0.0565166752844555  0.4244199636737593  0.0874904709041388   T   T   T
  0.9326295475625626  0.8396232294455146  0.0901845407685543   T   T   T
  0.3058404635981278  0.0881866171360618  0.0947503089284208   T   T   T
  0.1805800304363321  0.1705122419376201  0.0908124111289591   T   T   T
  0.1794674871323712  0.3377173540601515  0.0906953111645529   T   T   T
  0.3002996988156533  0.5877261154210220  0.0981508193671508   T   T   T
  0.1786541574948466  0.6742612398603955  0.0918267467017246   T   T   T
  0.3007205117964501  0.4182183829031602  0.0974562494586364   T   T   T
  0.1823826005580801  0.8405043773497196  0.0916685526670369   T   T   T
  0.4294903189581761  0.1751022393373169  0.0996544374870492   T   T   T
  0.5558750454958268  0.9210271395765912  0.1001494836435146   T   T   T
  0.4209296097923107  0.6739848869702014  0.1050292876787866   T   T   T
  0.4282022866372435  0.8370732727891287  0.1009586036016905   T   T   T
  0.8058193566630298  0.0882219612349417  0.0920771040743016   T   T   T
  0.6823395065531902  0.1772064124224509  0.0966195081237557   T   T   T
  0.8070422652357376  0.9218205123068316  0.0929319531680997   T   T   T
  0.6897963796090523  0.3401050173160871  0.0985332757318708   T   T   T
  0.8123199291916319  0.5941612631182316  0.0935739669540924   T   T   T
  0.8129031319684226  0.4234438434983381  0.0924028032750592   T   T   T
  0.6818355758571687  0.8373333808522279  0.0980251527036447   T   T   T
  0.9337463853604878  0.6739369689935141  0.0895509384086336   T   T   T
  0.5557334757937121  0.0930778691422673  0.0996324256465485   T   T   T
  0.4213145474587232  0.3352513138667705  0.1033429677589903   T   T   T
  0.6942372626178164  0.6737946550376921  0.0998767468596349   T   T   T
  0.3047433978185263  0.9234218695890921  0.0948957778788412   T   T   T
  0.5568236967970535  0.5066230224646564  0.1071682286020278   T   T   T
 
  0.00000000E+00  0.00000000E+00  0.00000000E+00
  0.00000000E+00  0.00000000E+00  0.00000000E+00
  0.00000000E+00  0.00000000E+00  0.00000000E+00
  0.00000000E+00  0.00000000E+00  0.00000000E+00
  0.00000000E+00  0.00000000E+00  0.00000000E+00
  0.00000000E+00  0.00000000E+00  0.00000000E+00
  0.00000000E+00  0.00000000E+00  0.00000000E+00
  0.00000000E+00  0.00000000E+00  0.00000000E+00
  0.00000000E+00  0.00000000E+00  0.00000000E+00
  0.00000000E+00  0.00000000E+00  0.00000000E+00
  0.00000000E+00  0.00000000E+00  0.00000000E+00
  0.00000000E+00  0.00000000E+00  0.00000000E+00
  0.00000000E+00  0.00000000E+00  0.00000000E+00
  0.00000000E+00  0.00000000E+00  0.00000000E+00
  0.00000000E+00  0.00000000E+00  0.00000000E+00
  0.00000000E+00  0.00000000E+00  0.00000000E+00
  0.00000000E+00  0.00000000E+00  0.00000000E+00
  0.00000000E+00  0.00000000E+00  0.00000000E+00
  0.00000000E+00  0.00000000E+00  0.00000000E+00
  0.00000000E+00  0.00000000E+00  0.00000000E+00
  0.00000000E+00  0.00000000E+00  0.00000000E+00
  0.00000000E+00  0.00000000E+00  0.00000000E+00
  0.00000000E+00  0.00000000E+00  0.00000000E+00
  0.00000000E+00  0.00000000E+00  0.00000000E+00
  0.00000000E+00  0.00000000E+00  0.00000000E+00
  0.00000000E+00  0.00000000E+00  0.00000000E+00
  0.00000000E+00  0.00000000E+00  0.00000000E+00
  0.00000000E+00  0.00000000E+00  0.00000000E+00
  0.00000000E+00  0.00000000E+00  0.00000000E+00
  0.00000000E+00  0.00000000E+00  0.00000000E+00
  0.00000000E+00  0.00000000E+00  0.00000000E+00
