Title                                   
   1.00000000000000     
     9.8694509999999998    0.0000000000000000    0.0000000000000000
     0.0000000000000000    8.5490480000000009    0.0000000000000000
     0.0000000000000000    0.0000000000000000   20.0000000000000000
    28     2     1
Selective dynamics
Direct
  0.0554432468384051  0.0888316254774759  0.0831428398453478   T   T   T
  0.9311960219740504  0.1715645745459715  0.0875873757421983   T   T   T
  0.0554469387029753  0.9235096743900377  0.0831336343599881   T   T   T
  0.9348388364256294  0.3379423118112659  0.0877525829647479   T   T   T
  0.0572143242785874  0.5891836703169031  0.0816063083266215   T   T   T
  0.9348461779171593  0.6743612440829282  0.0877098145468245   T   T   T
  0.0571771352176707  0.4231556804034999  0.0816160841679900   T   T   T
  0.9312018028720225  0.8407708433818164  0.0875377940516917   T   T   T
  0.3044227556083855  0.0895320564754233  0.0904641018117241   T   T   T
  0.1803038811933260  0.1720043953261979  0.0842756402369741   T   T   T
  0.3044245921189355  0.9226880760638155  0.0904739430278381   T   T   T
  0.1802045391893727  0.3388919893173775  0.0834611094020360   T   T   T
  0.3029536182727805  0.5925527877864176  0.0918180172486130   T   T   T
  0.1802340541584083  0.6734195751766198  0.0834566877657999   T   T   T
  0.3029684047244361  0.4197298726377484  0.0918136219899272   T   T   T
  0.1802948215203881  0.8402888797895270  0.0842849091981291   T   T   T
  0.5545691205298851  0.0902175007359206  0.1058395203327874   T   T   T
  0.4261395464410986  0.1767300147546359  0.1002613147051903   T   T   T
  0.5545727685688244  0.9220952704326492  0.1058291151120826   T   T   T
  0.4261471867486388  0.8355655296618937  0.1002687980885634   T   T   T
  0.8060326050842179  0.0898558377876436  0.0955834653439519   T   T   T
  0.6828306134703446  0.1772486547045706  0.1055560822598865   T   T   T
  0.8060331775441607  0.9224651315813950  0.0955611012396735   T   T   T
  0.6923455018194105  0.3421449292579927  0.1115405387145371   T   T   T
  0.8159431959757799  0.5906956030201803  0.1002231178664420   T   T   T
  0.6923319594954127  0.6701914519626812  0.1115153595068959   T   T   T
  0.8159508429377771  0.4215996817650990  0.1002365483833458   T   T   T
  0.6828268508937024  0.8350798268950329  0.1055201498490368   T   T   T
  0.4190318848280564  0.3360378031484132  0.1025939907199431   T   T   T
  0.4189736566980787  0.6762869563285758  0.1026001784690597   T   T   T
  0.5562349379520866  0.5062335509803018  0.1177012547221936   T   T   T
 
  0.00000000E+00  0.00000000E+00  0.00000000E+00
  0.00000000E+00  0.00000000E+00  0.00000000E+00
  0.00000000E+00  0.00000000E+00  0.00000000E+00
  0.00000000E+00  0.00000000E+00  0.00000000E+00
  0.00000000E+00  0.00000000E+00  0.00000000E+00
  0.00000000E+00  0.00000000E+00  0.00000000E+00
  0.00000000E+00  0.00000000E+00  0.00000000E+00
  0.00000000E+00  0.00000000E+00  0.00000000E+00
  0.00000000E+00  0.00000000E+00  0.00000000E+00
  0.00000000E+00  0.00000000E+00  0.00000000E+00
  0.00000000E+00  0.00000000E+00  0.00000000E+00
  0.00000000E+00  0.00000000E+00  0.00000000E+00
  0.00000000E+00  0.00000000E+00  0.00000000E+00
  0.00000000E+00  0.00000000E+00  0.00000000E+00
  0.00000000E+00  0.00000000E+00  0.00000000E+00
  0.00000000E+00  0.00000000E+00  0.00000000E+00
  0.00000000E+00  0.00000000E+00  0.00000000E+00
  0.00000000E+00  0.00000000E+00  0.00000000E+00
  0.00000000E+00  0.00000000E+00  0.00000000E+00
  0.00000000E+00  0.00000000E+00  0.00000000E+00
  0.00000000E+00  0.00000000E+00  0.00000000E+00
  0.00000000E+00  0.00000000E+00  0.00000000E+00
  0.00000000E+00  0.00000000E+00  0.00000000E+00
  0.00000000E+00  0.00000000E+00  0.00000000E+00
  0.00000000E+00  0.00000000E+00  0.00000000E+00
  0.00000000E+00  0.00000000E+00  0.00000000E+00
  0.00000000E+00  0.00000000E+00  0.00000000E+00
  0.00000000E+00  0.00000000E+00  0.00000000E+00
  0.00000000E+00  0.00000000E+00  0.00000000E+00
  0.00000000E+00  0.00000000E+00  0.00000000E+00
  0.00000000E+00  0.00000000E+00  0.00000000E+00
