Title                                   
   1.00000000000000     
     4.9440799999999996    0.0000000000000000    0.0000000000000000
     0.0000000000000000   17.1295089999999988    0.0000000000000000
     0.0000000000000000    0.0000000000000000   20.0000000000000000
    27     3     1
Selective dynamics
Direct
 -0.0039801884576664  0.1049301268002317  0.2950539456295810   T   T   T
  0.2438328611704336  0.1478723776334391  0.2959665706646831   T   T   T
  0.2411366666233233  0.2318122145073281  0.2991373959992401   T   T   T
 -0.0110680104034387  0.2741529373687278  0.3028744338358919   T   T   T
  0.0060929630860583  0.6016577174865084  0.3019233480272926   T   T   T
  0.2552458322353422  0.7269606994632676  0.2956264422416571   T   T   T
  0.0029555358372539  0.8529154189606388  0.2937702433975998   T   T   T
  0.2509841737966377  0.8952872942228560  0.2937124766601570   T   T   T
  0.2486862045171893  0.9792155171383530  0.2938926498270920   T   T   T
  0.0056227840264463  0.7686971097303689  0.2944760001792783   T   T   T
  0.4951585931615363  0.1054036445782521  0.2941587293430148   T   T   T
  0.7458735687354000  0.1469742476189210  0.2946083968102398   T   T   T
  0.7431798206975723  0.2307056158915093  0.2963684725919870   T   T   T
  0.4976207653560990  0.0213451495684047  0.2936777449165041   T   T   T
  0.7444314663090854  0.3950590782882502  0.3045889923555737   T   T   T
  0.7539343359523460  0.4817851175082641  0.3069201810876559   T   T   T
  0.4928787397965501  0.2734038673817035  0.2965881818451977   T   T   T
  0.5086628017528866  0.6013598359461935  0.2988693692362409   T   T   T
  0.7537030188995161  0.7277432350077706  0.2943300694554642   T   T   T
  0.5003193807536876  0.8531574652068205  0.2935137338318308   T   T   T
  0.7508897777713998  0.8948139886627410  0.2934611103406854   T   T   T
  0.7485568398225750  0.9789416994455182  0.2936107150236446   T   T   T
  0.5021120236402625  0.7689377725306656  0.2941726617755498   T   T   T
  0.7571060279310158  0.6450075732064878  0.2965850567589672   T   T   T
 -0.0018376004713569  0.0211031710116895  0.2941607900331462   T   T   T
  0.0011297664138680  0.5210454223368854  0.3125326493006892   T   T   T
  0.5009100614561540  0.3558359140701959  0.2954359674012892   T   T   T
  0.5097283181826863  0.5225376747088573  0.3018308567935299   T   T   T
 -0.0149064858770720  0.3539986283089885  0.3140389784777017   T   T   T
  0.2580591997574742  0.6431967592143351  0.2988433395867624   T   T   T
  0.2729877575267372  0.4354847261958212  0.3503304965718042   T   T   T
 
  0.00000000E+00  0.00000000E+00  0.00000000E+00
  0.00000000E+00  0.00000000E+00  0.00000000E+00
  0.00000000E+00  0.00000000E+00  0.00000000E+00
  0.00000000E+00  0.00000000E+00  0.00000000E+00
  0.00000000E+00  0.00000000E+00  0.00000000E+00
  0.00000000E+00  0.00000000E+00  0.00000000E+00
  0.00000000E+00  0.00000000E+00  0.00000000E+00
  0.00000000E+00  0.00000000E+00  0.00000000E+00
  0.00000000E+00  0.00000000E+00  0.00000000E+00
  0.00000000E+00  0.00000000E+00  0.00000000E+00
  0.00000000E+00  0.00000000E+00  0.00000000E+00
  0.00000000E+00  0.00000000E+00  0.00000000E+00
  0.00000000E+00  0.00000000E+00  0.00000000E+00
  0.00000000E+00  0.00000000E+00  0.00000000E+00
  0.00000000E+00  0.00000000E+00  0.00000000E+00
  0.00000000E+00  0.00000000E+00  0.00000000E+00
  0.00000000E+00  0.00000000E+00  0.00000000E+00
  0.00000000E+00  0.00000000E+00  0.00000000E+00
  0.00000000E+00  0.00000000E+00  0.00000000E+00
  0.00000000E+00  0.00000000E+00  0.00000000E+00
  0.00000000E+00  0.00000000E+00  0.00000000E+00
  0.00000000E+00  0.00000000E+00  0.00000000E+00
  0.00000000E+00  0.00000000E+00  0.00000000E+00
  0.00000000E+00  0.00000000E+00  0.00000000E+00
  0.00000000E+00  0.00000000E+00  0.00000000E+00
  0.00000000E+00  0.00000000E+00  0.00000000E+00
  0.00000000E+00  0.00000000E+00  0.00000000E+00
  0.00000000E+00  0.00000000E+00  0.00000000E+00
  0.00000000E+00  0.00000000E+00  0.00000000E+00
  0.00000000E+00  0.00000000E+00  0.00000000E+00
  0.00000000E+00  0.00000000E+00  0.00000000E+00
