Title                                   
   1.00000000000000     
     9.8694509999999998    0.0000000000000000    0.0000000000000000
     0.0000000000000000    8.5490480000000009    0.0000000000000000
     0.0000000000000000    0.0000000000000000   20.0000000000000000
    27     4     1
Selective dynamics
Direct
  0.0552593506782556  0.0897124972183228  0.0829086172110346   T   T   T
  0.9304776254173188  0.1746712875232661  0.0829805817831490   T   T   T
  0.0577644447936347  0.9223889445650544  0.0845017250401687   T   T   T
  0.9296844897569841  0.3413380961404068  0.0846696089869309   T   T   T
  0.0564695318147390  0.5906446123200529  0.0854034185255574   T   T   T
  0.0552326655969445  0.4234868604896661  0.0847474786768928   T   T   T
  0.9331820633138730  0.8394928874821375  0.0868617792840317   T   T   T
  0.3052151309308538  0.0878175970661527  0.0876450360716896   T   T   T
  0.1811612193590045  0.1717640029760274  0.0851066066510854   T   T   T
  0.1801072466795300  0.3389295930302701  0.0871523002383253   T   T   T
  0.3020760679894139  0.5872936905169208  0.1018111414221287   T   T   T
  0.1805007063040796  0.6730429243553964  0.0896743522977172   T   T   T
  0.3052773603357951  0.4195231493173524  0.0980416487778915   T   T   T
  0.1827312715781310  0.8407368058201115  0.0878414978847658   T   T   T
  0.5557135362146478  0.0873315129997071  0.0917468395947812   T   T   T
  0.5556989852453794  0.9200610978638559  0.0978669641715987   T   T   T
  0.4279680205587485  0.3307043051991146  0.1032990945446397   T   T   T
  0.4272219257631412  0.8405225960966689  0.1028224924169910   T   T   T
  0.8059874149282683  0.0896087422662277  0.0847174993297796   T   T   T
  0.6800066828337162  0.1722316894173186  0.0891815553458457   T   T   T
  0.8080610162790931  0.9236089372064981  0.0883473115049260   T   T   T
  0.6806894559766055  0.3384384876525261  0.0987081258269654   T   T   T
  0.8117083414933259  0.5942946357746446  0.0988535047627775   T   T   T
  0.8043460813695636  0.4267937649860860  0.0937853083038030   T   T   T
  0.6850184452779110  0.8425381565316578  0.0997594955047664   T   T   T
  0.4168327467108408  0.6801110480657240  0.1199780153128655   T   T   T
  0.5531469777985271  0.4038783612373294  0.1184366618565371   T   T   T
  0.7016494270041469  0.6846813951320456  0.1196597062290374   T   T   T
  0.3067942349832050  0.9241731448066935  0.0901872908363340   T   T   T
  0.4286576250738058  0.1670728814891785  0.0924491800220173   T   T   T
  0.9327508276387493  0.6733021962010831  0.0879991158456011   T   T   T
  0.5622480803017720  0.5900500982525049  0.1785310457393808   T   T   T
 
  0.00000000E+00  0.00000000E+00  0.00000000E+00
  0.00000000E+00  0.00000000E+00  0.00000000E+00
  0.00000000E+00  0.00000000E+00  0.00000000E+00
  0.00000000E+00  0.00000000E+00  0.00000000E+00
  0.00000000E+00  0.00000000E+00  0.00000000E+00
  0.00000000E+00  0.00000000E+00  0.00000000E+00
  0.00000000E+00  0.00000000E+00  0.00000000E+00
  0.00000000E+00  0.00000000E+00  0.00000000E+00
  0.00000000E+00  0.00000000E+00  0.00000000E+00
  0.00000000E+00  0.00000000E+00  0.00000000E+00
  0.00000000E+00  0.00000000E+00  0.00000000E+00
  0.00000000E+00  0.00000000E+00  0.00000000E+00
  0.00000000E+00  0.00000000E+00  0.00000000E+00
  0.00000000E+00  0.00000000E+00  0.00000000E+00
  0.00000000E+00  0.00000000E+00  0.00000000E+00
  0.00000000E+00  0.00000000E+00  0.00000000E+00
  0.00000000E+00  0.00000000E+00  0.00000000E+00
  0.00000000E+00  0.00000000E+00  0.00000000E+00
  0.00000000E+00  0.00000000E+00  0.00000000E+00
  0.00000000E+00  0.00000000E+00  0.00000000E+00
  0.00000000E+00  0.00000000E+00  0.00000000E+00
  0.00000000E+00  0.00000000E+00  0.00000000E+00
  0.00000000E+00  0.00000000E+00  0.00000000E+00
  0.00000000E+00  0.00000000E+00  0.00000000E+00
  0.00000000E+00  0.00000000E+00  0.00000000E+00
  0.00000000E+00  0.00000000E+00  0.00000000E+00
  0.00000000E+00  0.00000000E+00  0.00000000E+00
  0.00000000E+00  0.00000000E+00  0.00000000E+00
  0.00000000E+00  0.00000000E+00  0.00000000E+00
  0.00000000E+00  0.00000000E+00  0.00000000E+00
  0.00000000E+00  0.00000000E+00  0.00000000E+00
  0.00000000E+00  0.00000000E+00  0.00000000E+00
