Title                                   
   1.00000000000000     
     4.9440799999999996    0.0000000000000000    0.0000000000000000
     0.0000000000000000   17.1295089999999988    0.0000000000000000
     0.0000000000000000    0.0000000000000000   20.0000000000000000
    26     4     1
Selective dynamics
Direct
  0.0047244519069246  0.1057943900038534  0.2982659650045668   T   T   T
  0.2539656826643026  0.1486315071628066  0.2986231822121500   T   T   T
  0.2557679628129564  0.2339035992234978  0.2996972535202360   T   T   T
  0.0031839245777186  0.2744856479283901  0.3021988474221441   T   T   T
 -0.0099046916563497  0.6004831250970792  0.2959776716864032   T   T   T
  0.2451473710471885  0.7260869935222327  0.2986941434136722   T   T   T
 -0.0002096615911177  0.8530066903053948  0.2972225383201613   T   T   T
  0.2489378282975136  0.8950956580438868  0.2972050792662800   T   T   T
  0.2510333388434574  0.9794425236252438  0.2971742776622873   T   T   T
 -0.0021288363364029  0.7683572515915554  0.2979339460248828   T   T   T
  0.5024944135989460  0.1058511207293473  0.2977661885108790   T   T   T
  0.7544032116292352  0.1474192953334214  0.2983397880247905   T   T   T
  0.7564319878633545  0.2310240353364493  0.2992581609608210   T   T   T
  0.5010194295233723  0.0215855553829004  0.2972031456789956   T   T   T
  0.7551310659236329  0.3932804776816430  0.2990876355935755   T   T   T
  0.7500949906254548  0.4819575843409477  0.3000533954569533   T   T   T
  0.5101279121919741  0.2745091160099846  0.2975371514013143   T   T   T
  0.4951575976479526  0.6008319647322071  0.3049419193813491   T   T   T
  0.7463371158110979  0.7275209483526262  0.2986063619510386   T   T   T
  0.4969747085882800  0.8527614702362224  0.2975495929860791   T   T   T
  0.7490059826255020  0.8948505989235880  0.2971611637517084   T   T   T
  0.7509771656848901  0.9791633410575645  0.2971311646142721   T   T   T
  0.4947439737063518  0.7682425416669532  0.2983878352404463   T   T   T
  0.7431493696789400  0.6443632094776555  0.2996190349351406   T   T   T
  0.0021703847851200  0.0214547265089624  0.2974653711139579   T   T   T
  0.5108415962530464  0.5199693565626768  0.3164912532336577   T   T   T
  0.9842352532033888  0.5222753127622760  0.2868301451417976   T   T   T
  0.5217127990635619  0.3545479559566219  0.2913489861944354   T   T   T
 -0.0109254535212221  0.3552225415064193  0.3089236275039630   T   T   T
  0.2430629071554906  0.6416302645938481  0.2999265812480078   T   T   T
  0.2523432173954400  0.4375931963437405  0.3184385925439850   T   T   T
 
  0.00000000E+00  0.00000000E+00  0.00000000E+00
  0.00000000E+00  0.00000000E+00  0.00000000E+00
  0.00000000E+00  0.00000000E+00  0.00000000E+00
  0.00000000E+00  0.00000000E+00  0.00000000E+00
  0.00000000E+00  0.00000000E+00  0.00000000E+00
  0.00000000E+00  0.00000000E+00  0.00000000E+00
  0.00000000E+00  0.00000000E+00  0.00000000E+00
  0.00000000E+00  0.00000000E+00  0.00000000E+00
  0.00000000E+00  0.00000000E+00  0.00000000E+00
  0.00000000E+00  0.00000000E+00  0.00000000E+00
  0.00000000E+00  0.00000000E+00  0.00000000E+00
  0.00000000E+00  0.00000000E+00  0.00000000E+00
  0.00000000E+00  0.00000000E+00  0.00000000E+00
  0.00000000E+00  0.00000000E+00  0.00000000E+00
  0.00000000E+00  0.00000000E+00  0.00000000E+00
  0.00000000E+00  0.00000000E+00  0.00000000E+00
  0.00000000E+00  0.00000000E+00  0.00000000E+00
  0.00000000E+00  0.00000000E+00  0.00000000E+00
  0.00000000E+00  0.00000000E+00  0.00000000E+00
  0.00000000E+00  0.00000000E+00  0.00000000E+00
  0.00000000E+00  0.00000000E+00  0.00000000E+00
  0.00000000E+00  0.00000000E+00  0.00000000E+00
  0.00000000E+00  0.00000000E+00  0.00000000E+00
  0.00000000E+00  0.00000000E+00  0.00000000E+00
  0.00000000E+00  0.00000000E+00  0.00000000E+00
  0.00000000E+00  0.00000000E+00  0.00000000E+00
  0.00000000E+00  0.00000000E+00  0.00000000E+00
  0.00000000E+00  0.00000000E+00  0.00000000E+00
  0.00000000E+00  0.00000000E+00  0.00000000E+00
  0.00000000E+00  0.00000000E+00  0.00000000E+00
  0.00000000E+00  0.00000000E+00  0.00000000E+00
