Title                                   
   1.00000000000000     
     9.8694509999999998    0.0000000000000000    0.0000000000000000
     0.0000000000000000    8.5490480000000009    0.0000000000000000
     0.0000000000000000    0.0000000000000000   20.0000000000000000
    28     3     1
Selective dynamics
Direct
  0.0559088577697634  0.0907474371143719  0.0841761858260541   T   T   T
  0.9308166231176772  0.1741793726680924  0.0859835405165358   T   T   T
  0.0576529035764321  0.9233728022712921  0.0832555748679934   T   T   T
  0.9299912355703777  0.3417434462693252  0.0884703772758809   T   T   T
  0.0567897573111603  0.5901988533557204  0.0854525849474629   T   T   T
  0.9327371571861161  0.6735145134218725  0.0861820038378837   T   T   T
  0.0559005090646061  0.4226742268262646  0.0871972746685893   T   T   T
  0.9330226170896468  0.8402183404644501  0.0849247800242600   T   T   T
  0.3057723914187997  0.0875641392733635  0.0887306765656833   T   T   T
  0.1819532578942060  0.1721551373950423  0.0871238322544283   T   T   T
  0.1812787880849259  0.3388299250037139  0.0902315859342217   T   T   T
  0.3038177387944987  0.5881683552265027  0.1013546047425737   T   T   T
  0.1816430081070708  0.6730968427472346  0.0883634337817283   T   T   T
  0.3052124465760388  0.4203822864159755  0.1005391046722440   T   T   T
  0.1820625423544725  0.8398504685283756  0.0856629103316778   T   T   T
  0.5559393654188711  0.0866001536294098  0.0940714916393146   T   T   T
  0.5553642122922207  0.9204309996437036  0.0989944774661027   T   T   T
  0.4296881532059973  0.3319700966516214  0.1056299351151156   T   T   T
  0.4272552038029821  0.8387560359199084  0.1027764140477954   T   T   T
  0.8057812551862037  0.0895781142194862  0.0869002399505552   T   T   T
  0.6793683065333262  0.1711488314500093  0.0918596869267838   T   T   T
  0.8076058741904264  0.9243763403975359  0.0875816610428726   T   T   T
  0.6796655470611661  0.3373211262218081  0.1010374939231153   T   T   T
  0.8082711038660454  0.5935938792775175  0.0954427754512019   T   T   T
  0.8037077472135350  0.4250065561486448  0.0958577593939232   T   T   T
  0.6846589088382982  0.8401619087178930  0.0971159361243051   T   T   T
  0.4192056281854044  0.6800548268041626  0.1159393427244684   T   T   T
  0.5531798339276307  0.4061022392088589  0.1163268824427934   T   T   T
  0.6930603181700081  0.6809418459254587  0.1073502347330424   T   T   T
  0.3060151366749889  0.9243675937075005  0.0883035017667111   T   T   T
  0.4284978608866106  0.1665328547665155  0.0941402710200748   T   T   T
  0.5678147106304993  0.5966064503283705  0.1786984259846237   T   T   T
 
  0.00000000E+00  0.00000000E+00  0.00000000E+00
  0.00000000E+00  0.00000000E+00  0.00000000E+00
  0.00000000E+00  0.00000000E+00  0.00000000E+00
  0.00000000E+00  0.00000000E+00  0.00000000E+00
  0.00000000E+00  0.00000000E+00  0.00000000E+00
  0.00000000E+00  0.00000000E+00  0.00000000E+00
  0.00000000E+00  0.00000000E+00  0.00000000E+00
  0.00000000E+00  0.00000000E+00  0.00000000E+00
  0.00000000E+00  0.00000000E+00  0.00000000E+00
  0.00000000E+00  0.00000000E+00  0.00000000E+00
  0.00000000E+00  0.00000000E+00  0.00000000E+00
  0.00000000E+00  0.00000000E+00  0.00000000E+00
  0.00000000E+00  0.00000000E+00  0.00000000E+00
  0.00000000E+00  0.00000000E+00  0.00000000E+00
  0.00000000E+00  0.00000000E+00  0.00000000E+00
  0.00000000E+00  0.00000000E+00  0.00000000E+00
  0.00000000E+00  0.00000000E+00  0.00000000E+00
  0.00000000E+00  0.00000000E+00  0.00000000E+00
  0.00000000E+00  0.00000000E+00  0.00000000E+00
  0.00000000E+00  0.00000000E+00  0.00000000E+00
  0.00000000E+00  0.00000000E+00  0.00000000E+00
  0.00000000E+00  0.00000000E+00  0.00000000E+00
  0.00000000E+00  0.00000000E+00  0.00000000E+00
  0.00000000E+00  0.00000000E+00  0.00000000E+00
  0.00000000E+00  0.00000000E+00  0.00000000E+00
  0.00000000E+00  0.00000000E+00  0.00000000E+00
  0.00000000E+00  0.00000000E+00  0.00000000E+00
  0.00000000E+00  0.00000000E+00  0.00000000E+00
  0.00000000E+00  0.00000000E+00  0.00000000E+00
  0.00000000E+00  0.00000000E+00  0.00000000E+00
  0.00000000E+00  0.00000000E+00  0.00000000E+00
  0.00000000E+00  0.00000000E+00  0.00000000E+00
