Title                                   
   1.00000000000000     
     4.9440799999999996    0.0000000000000000    0.0000000000000000
     0.0000000000000000   17.1295089999999988    0.0000000000000000
     0.0000000000000000    0.0000000000000000   20.0000000000000000
    28     3     1
Selective dynamics
Direct
  0.0026189787677989  0.1046596371118660  0.2866902894048022   T   T   T
  0.2529019932137333  0.1466602639163777  0.2893781785531521   T   T   T
  0.2545795865294740  0.2298939511419129  0.2969213109864390   T   T   T
  0.0112524789517620  0.3524150616506140  0.3128275369081870   T   T   T
  0.0031110466818649  0.2713103569871635  0.3003012662675796   T   T   T
 -0.0088647969913125  0.6026084537055626  0.3039937120539692   T   T   T
  0.2465632799896826  0.7274886869499312  0.2947805395083311   T   T   T
 -0.0008868646255810  0.8535692338146820  0.2867195446417046   T   T   T
  0.2491331558004127  0.8955794824915296  0.2857063836170302   T   T   T
  0.2505231569467296  0.9791814355952143  0.2844738621053434   T   T   T
 -0.0020625428521607  0.7700106455097209  0.2906789926114324   T   T   T
  0.5022877364145552  0.1046602979146088  0.2869034566022073   T   T   T
  0.7528628011459507  0.1466261224073380  0.2885811892238395   T   T   T
  0.7543103910285753  0.2292928930296914  0.2946657761347851   T   T   T
  0.5009900330554315  0.0211283502579495  0.2846402495793157   T   T   T
  0.5009451705192552  0.3524869024859784  0.3144861670233361   T   T   T
  0.7505610938032475  0.4819637760575586  0.3167324701539711   T   T   T
  0.5066798772093927  0.2712385097740108  0.3011418868186680   T   T   T
  0.4993916102029192  0.6040768181012147  0.3105751296965469   T   T   T
  0.7472728231117584  0.7288418883860718  0.2934790135460791   T   T   T
  0.4983218750642318  0.8535092984062111  0.2872547911601926   T   T   T
  0.7491118582295553  0.8954012491990823  0.2854593949979560   T   T   T
  0.7505113131333001  0.9790649219122802  0.2842340626280266   T   T   T
  0.4967927156834057  0.7699865045210916  0.2917985088844265   T   T   T
  0.7454629723954160  0.6458127490718660  0.3006640229829483   T   T   T
  0.2458347398568218  0.6440769757462125  0.3033863893106126   T   T   T
  0.0009282671784679  0.0211549563218126  0.2844808425590119   T   T   T
  0.5151227811206621  0.5240218541318999  0.3310911393441371   T   T   T
  0.9874247310812024  0.5215480745332474  0.3054243955874671   T   T   T
  0.2564901599515277  0.3881427892362669  0.3250716966723236   T   T   T
  0.7564514078966640  0.3970073584005399  0.3166052300412306   T   T   T
  0.2201991695052621  0.4851315012304850  0.3834175703948998   T   T   T
 
  0.00000000E+00  0.00000000E+00  0.00000000E+00
  0.00000000E+00  0.00000000E+00  0.00000000E+00
  0.00000000E+00  0.00000000E+00  0.00000000E+00
  0.00000000E+00  0.00000000E+00  0.00000000E+00
  0.00000000E+00  0.00000000E+00  0.00000000E+00
  0.00000000E+00  0.00000000E+00  0.00000000E+00
  0.00000000E+00  0.00000000E+00  0.00000000E+00
  0.00000000E+00  0.00000000E+00  0.00000000E+00
  0.00000000E+00  0.00000000E+00  0.00000000E+00
  0.00000000E+00  0.00000000E+00  0.00000000E+00
  0.00000000E+00  0.00000000E+00  0.00000000E+00
  0.00000000E+00  0.00000000E+00  0.00000000E+00
  0.00000000E+00  0.00000000E+00  0.00000000E+00
  0.00000000E+00  0.00000000E+00  0.00000000E+00
  0.00000000E+00  0.00000000E+00  0.00000000E+00
  0.00000000E+00  0.00000000E+00  0.00000000E+00
  0.00000000E+00  0.00000000E+00  0.00000000E+00
  0.00000000E+00  0.00000000E+00  0.00000000E+00
  0.00000000E+00  0.00000000E+00  0.00000000E+00
  0.00000000E+00  0.00000000E+00  0.00000000E+00
  0.00000000E+00  0.00000000E+00  0.00000000E+00
  0.00000000E+00  0.00000000E+00  0.00000000E+00
  0.00000000E+00  0.00000000E+00  0.00000000E+00
  0.00000000E+00  0.00000000E+00  0.00000000E+00
  0.00000000E+00  0.00000000E+00  0.00000000E+00
  0.00000000E+00  0.00000000E+00  0.00000000E+00
  0.00000000E+00  0.00000000E+00  0.00000000E+00
  0.00000000E+00  0.00000000E+00  0.00000000E+00
  0.00000000E+00  0.00000000E+00  0.00000000E+00
  0.00000000E+00  0.00000000E+00  0.00000000E+00
  0.00000000E+00  0.00000000E+00  0.00000000E+00
  0.00000000E+00  0.00000000E+00  0.00000000E+00
