Title                                   
   1.00000000000000     
     8.5490480000000009    0.0000000000000000    0.0000000000000000
     0.0000000000000000    8.5490480000000009    0.0000000000000000
     0.0000000000000000    0.0000000000000000   20.0000000000000000
    20     4     1
Selective dynamics
Direct
  0.9092255314361988  0.2061063889606598  0.0954549750349998   T   T   T
  0.9076846672757218  0.5018121953365369  0.0953140305775007   T   T   T
  0.9092366846082978  0.7974849828682085  0.0954732243748806   T   T   T
  0.1973456926191756  0.0855498385825146  0.0954911411001084   T   T   T
  0.0767902165616764  0.2060834839277315  0.0954727524001060   T   T   T
  0.1973628396500686  0.9179934700016344  0.0954966638263620   T   T   T
  0.1561880168657719  0.6506704150538583  0.0953510946774275   T   T   T
  0.0783634853576241  0.5017889370209840  0.0953319615960835   T   T   T
  0.1561730257842161  0.3528911230380466  0.0953372117500415   T   T   T
  0.0768097674233667  0.7974628937441414  0.0954839194260524   T   T   T
  0.4929833428053914  0.0871349010917213  0.0953556319231216   T   T   T
  0.3441280528128994  0.1649638937406904  0.0953584542463978   T   T   T
  0.4929906204814960  0.9164682438630264  0.0953619597763351   T   T   T
  0.3441497988513750  0.8386123441074113  0.0953639432913914   T   T   T
  0.7886614573838545  0.0855846915995127  0.0954745985907905   T   T   T
  0.6418619070390387  0.1649675590270909  0.0953267031167550   T   T   T
  0.7886753053326687  0.9180219251612479  0.0954799805294594   T   T   T
  0.8298514795056154  0.6506995643757626  0.0953239023789279   T   T   T
  0.8298602578598999  0.3529246600764643  0.0952986496918711   T   T   T
  0.6418739496945738  0.8386486576825960  0.0953410881183328   T   T   T
  0.3205632785071872  0.3293247556019188  0.0952007971552189   T   T   T
  0.3205844630557800  0.6742327484611293  0.0952110611838607   T   T   T
  0.6654818362026661  0.3293228380390770  0.0951695871013233   T   T   T
  0.6654693574105911  0.6742753012535853  0.0951865568191461   T   T   T
  0.4930969654748380  0.5017641873844629  0.0950451113134836   T   T   T
 
  0.00000000E+00  0.00000000E+00  0.00000000E+00
  0.00000000E+00  0.00000000E+00  0.00000000E+00
  0.00000000E+00  0.00000000E+00  0.00000000E+00
  0.00000000E+00  0.00000000E+00  0.00000000E+00
  0.00000000E+00  0.00000000E+00  0.00000000E+00
  0.00000000E+00  0.00000000E+00  0.00000000E+00
  0.00000000E+00  0.00000000E+00  0.00000000E+00
  0.00000000E+00  0.00000000E+00  0.00000000E+00
  0.00000000E+00  0.00000000E+00  0.00000000E+00
  0.00000000E+00  0.00000000E+00  0.00000000E+00
  0.00000000E+00  0.00000000E+00  0.00000000E+00
  0.00000000E+00  0.00000000E+00  0.00000000E+00
  0.00000000E+00  0.00000000E+00  0.00000000E+00
  0.00000000E+00  0.00000000E+00  0.00000000E+00
  0.00000000E+00  0.00000000E+00  0.00000000E+00
  0.00000000E+00  0.00000000E+00  0.00000000E+00
  0.00000000E+00  0.00000000E+00  0.00000000E+00
  0.00000000E+00  0.00000000E+00  0.00000000E+00
  0.00000000E+00  0.00000000E+00  0.00000000E+00
  0.00000000E+00  0.00000000E+00  0.00000000E+00
  0.00000000E+00  0.00000000E+00  0.00000000E+00
  0.00000000E+00  0.00000000E+00  0.00000000E+00
  0.00000000E+00  0.00000000E+00  0.00000000E+00
  0.00000000E+00  0.00000000E+00  0.00000000E+00
  0.00000000E+00  0.00000000E+00  0.00000000E+00
