Title                                   
   1.00000000000000     
     9.8694509999999998    0.0000000000000000    0.0000000000000000
     0.0000000000000000    8.5490480000000009    0.0000000000000000
     0.0000000000000000    0.0000000000000000   20.0000000000000000
    28     2     1
Selective dynamics
Direct
  0.0546322540383963  0.0887463086186864  0.0823925414660816   T   T   T
  0.9302030708770987  0.1724605180751677  0.0839597439933503   T   T   T
  0.0576064944358700  0.9227260779344328  0.0831371773858180   T   T   T
  0.9334361197205475  0.3396436496221778  0.0821974028651493   T   T   T
  0.0576488137239041  0.5901113035906725  0.0781613542958619   T   T   T
  0.9344764783006005  0.6750650016396065  0.0837572123758761   T   T   T
  0.0572662140652044  0.4229802797437607  0.0777691254251212   T   T   T
  0.9323155740009775  0.8413991302761287  0.0857855816646530   T   T   T
  0.3047238809223662  0.0868990409926417  0.0924507082429957   T   T   T
  0.1796718087083095  0.1689344905209466  0.0845192914768765   T   T   T
  0.1797128313685097  0.3360036119920000  0.0824202601656723   T   T   T
  0.3021963061638834  0.5859599687579075  0.0923904122474884   T   T   T
  0.1822615799611871  0.6723297052738333  0.0822733933791241   T   T   T
  0.3000794596786244  0.4169644205819033  0.0946400321281611   T   T   T
  0.1831241219698485  0.8398042099838587  0.0844152066558938   T   T   T
  0.5545736396515120  0.0927163894467643  0.1059886726154051   T   T   T
  0.4249433829422357  0.1756837211063667  0.1044480828872616   T   T   T
  0.5549887545312214  0.9243438878393685  0.1065514163932358   T   T   T
  0.4236853992312841  0.6681791909409601  0.1064356832700729   T   T   T
  0.4298868977626558  0.8354231193761705  0.1019925136677649   T   T   T
  0.8040263728947113  0.0917496147383221  0.0919967170196455   T   T   T
  0.6804361169502977  0.1795423998756436  0.1013336146995128   T   T   T
  0.8056074191046791  0.9233991780793328  0.0936448419508016   T   T   T
  0.6898552414021032  0.3475242242028357  0.1072123768060501   T   T   T
  0.8152668907836991  0.5926737339661876  0.0963475096546653   T   T   T
  0.6928035081532934  0.6702946113951330  0.1159033838357677   T   T   T
  0.8140225621257517  0.4249064624431338  0.0933444616780423   T   T   T
  0.6831327036479522  0.8372198899766767  0.1058507731148564   T   T   T
  0.4155005064050867  0.3359274489067708  0.1122932474248563   T   T   T
  0.3069894543331422  0.9213272971904094  0.0916331197686523   T   T   T
  0.5580611421450622  0.5099361129122193  0.1357191414453343   T   T   T
 
  0.00000000E+00  0.00000000E+00  0.00000000E+00
  0.00000000E+00  0.00000000E+00  0.00000000E+00
  0.00000000E+00  0.00000000E+00  0.00000000E+00
  0.00000000E+00  0.00000000E+00  0.00000000E+00
  0.00000000E+00  0.00000000E+00  0.00000000E+00
  0.00000000E+00  0.00000000E+00  0.00000000E+00
  0.00000000E+00  0.00000000E+00  0.00000000E+00
  0.00000000E+00  0.00000000E+00  0.00000000E+00
  0.00000000E+00  0.00000000E+00  0.00000000E+00
  0.00000000E+00  0.00000000E+00  0.00000000E+00
  0.00000000E+00  0.00000000E+00  0.00000000E+00
  0.00000000E+00  0.00000000E+00  0.00000000E+00
  0.00000000E+00  0.00000000E+00  0.00000000E+00
  0.00000000E+00  0.00000000E+00  0.00000000E+00
  0.00000000E+00  0.00000000E+00  0.00000000E+00
  0.00000000E+00  0.00000000E+00  0.00000000E+00
  0.00000000E+00  0.00000000E+00  0.00000000E+00
  0.00000000E+00  0.00000000E+00  0.00000000E+00
  0.00000000E+00  0.00000000E+00  0.00000000E+00
  0.00000000E+00  0.00000000E+00  0.00000000E+00
  0.00000000E+00  0.00000000E+00  0.00000000E+00
  0.00000000E+00  0.00000000E+00  0.00000000E+00
  0.00000000E+00  0.00000000E+00  0.00000000E+00
  0.00000000E+00  0.00000000E+00  0.00000000E+00
  0.00000000E+00  0.00000000E+00  0.00000000E+00
  0.00000000E+00  0.00000000E+00  0.00000000E+00
  0.00000000E+00  0.00000000E+00  0.00000000E+00
  0.00000000E+00  0.00000000E+00  0.00000000E+00
  0.00000000E+00  0.00000000E+00  0.00000000E+00
  0.00000000E+00  0.00000000E+00  0.00000000E+00
  0.00000000E+00  0.00000000E+00  0.00000000E+00
