Title                                   
   1.00000000000000     
     9.8694509999999998    0.0000000000000000    0.0000000000000000
     0.0000000000000000    8.5490480000000009    0.0000000000000000
     0.0000000000000000    0.0000000000000000   20.0000000000000000
    27     4     1
Selective dynamics
Direct
  0.0561930313724625  0.0914853105551263  0.0828427551135001   T   T   T
  0.9312234881222047  0.1750823376780671  0.0833088334947022   T   T   T
  0.0577029345697354  0.9231639151427631  0.0824546741117940   T   T   T
  0.9298303547588607  0.3426265800375728  0.0862382032533049   T   T   T
  0.0564684024829053  0.5916381065711661  0.0870724195617729   T   T   T
  0.0557753899451889  0.4249070569431621  0.0877926087654066   T   T   T
  0.9336166881533545  0.8399213073612865  0.0827198719870098   T   T   T
  0.3061460683943981  0.0880252581526354  0.0885797523720756   T   T   T
  0.1820859825502495  0.1731980119051350  0.0872617111275373   T   T   T
  0.1819848318296489  0.3406212593383349  0.0924549968099379   T   T   T
  0.3013352895079603  0.5891163499811113  0.1087568670858936   T   T   T
  0.1808937658106096  0.6741068829733021  0.0918956575606270   T   T   T
  0.3051997351422618  0.4207705093460112  0.1063296977183473   T   T   T
  0.1827881306128543  0.8410473612332279  0.0869161453868022   T   T   T
  0.5558980844825957  0.0850585087260750  0.0924109096348052   T   T   T
  0.5558805804379491  0.9190194709894441  0.0975092593701693   T   T   T
  0.4309974406451499  0.3298525657395583  0.1106396371088447   T   T   T
  0.4266744256695710  0.8385402457584931  0.1057965035758196   T   T   T
  0.8066262282712802  0.0895363815914025  0.0833337994537116   T   T   T
  0.6799815804685261  0.1713198916386516  0.0889617498207178   T   T   T
  0.8079980279747758  0.9238165338966211  0.0840003062151314   T   T   T
  0.6803866179762865  0.3366699231495208  0.1004395186098795   T   T   T
  0.8082719974706326  0.5959106165664322  0.0934411351257741   T   T   T
  0.8048713056497335  0.4260403152149309  0.0933442519215972   T   T   T
  0.6850464307838986  0.8391941347859080  0.0937061983294959   T   T   T
  0.4133139143204317  0.6850464243381378  0.1264781741423116   T   T   T
  0.5557384747160354  0.3983139280297408  0.1237619220374248   T   T   T
  0.6964013468599592  0.6807551760489667  0.1020137455050796   T   T   T
  0.3058038390966095  0.9241541816490044  0.0888262526706916   T   T   T
  0.4291303910315454  0.1659560006357524  0.0943799228259935   T   T   T
  0.9339016556739157  0.6741133089430528  0.0844508658824718   T   T   T
  0.5614725652184148  0.5912381450794042  0.1675566534213858   T   T   T
 
  0.00000000E+00  0.00000000E+00  0.00000000E+00
  0.00000000E+00  0.00000000E+00  0.00000000E+00
  0.00000000E+00  0.00000000E+00  0.00000000E+00
  0.00000000E+00  0.00000000E+00  0.00000000E+00
  0.00000000E+00  0.00000000E+00  0.00000000E+00
  0.00000000E+00  0.00000000E+00  0.00000000E+00
  0.00000000E+00  0.00000000E+00  0.00000000E+00
  0.00000000E+00  0.00000000E+00  0.00000000E+00
  0.00000000E+00  0.00000000E+00  0.00000000E+00
  0.00000000E+00  0.00000000E+00  0.00000000E+00
  0.00000000E+00  0.00000000E+00  0.00000000E+00
  0.00000000E+00  0.00000000E+00  0.00000000E+00
  0.00000000E+00  0.00000000E+00  0.00000000E+00
  0.00000000E+00  0.00000000E+00  0.00000000E+00
  0.00000000E+00  0.00000000E+00  0.00000000E+00
  0.00000000E+00  0.00000000E+00  0.00000000E+00
  0.00000000E+00  0.00000000E+00  0.00000000E+00
  0.00000000E+00  0.00000000E+00  0.00000000E+00
  0.00000000E+00  0.00000000E+00  0.00000000E+00
  0.00000000E+00  0.00000000E+00  0.00000000E+00
  0.00000000E+00  0.00000000E+00  0.00000000E+00
  0.00000000E+00  0.00000000E+00  0.00000000E+00
  0.00000000E+00  0.00000000E+00  0.00000000E+00
  0.00000000E+00  0.00000000E+00  0.00000000E+00
  0.00000000E+00  0.00000000E+00  0.00000000E+00
  0.00000000E+00  0.00000000E+00  0.00000000E+00
  0.00000000E+00  0.00000000E+00  0.00000000E+00
  0.00000000E+00  0.00000000E+00  0.00000000E+00
  0.00000000E+00  0.00000000E+00  0.00000000E+00
  0.00000000E+00  0.00000000E+00  0.00000000E+00
  0.00000000E+00  0.00000000E+00  0.00000000E+00
  0.00000000E+00  0.00000000E+00  0.00000000E+00
