Title                                   
   1.00000000000000     
     8.5490480000000009    0.0000000000000000    0.0000000000000000
     0.0000000000000000    8.5490480000000009    0.0000000000000000
     0.0000000000000000    0.0000000000000000   20.0000000000000000
    24     1
Selective dynamics
Direct
  0.9119707819789906  0.2050867049862239  0.0954460959676253   T   T   T
  0.9095478026578584  0.5017998173594060  0.0953045113332836   T   T   T
  0.9119836185720850  0.7984854318456535  0.0954586112225272   T   T   T
  0.1963251245687146  0.0828268992241054  0.0954755377915868   T   T   T
  0.0740615838705773  0.2050711821548703  0.0954574491422613   T   T   T
  0.1963251061125191  0.9207356723480195  0.0954820078517669   T   T   T
  0.1558861226140469  0.6482327265461325  0.0953463136631457   T   T   T
  0.0764864020965363  0.5017944303651909  0.0953245769911691   T   T   T
  0.1558660349953984  0.3553451326190368  0.0953309559764514   T   T   T
  0.0740699993077673  0.7984839424231410  0.0954698249045779   T   T   T
  0.4929971871886858  0.0852548862127348  0.0953574260962099   T   T   T
  0.3465740816190493  0.1646519516116174  0.0953562891205614   T   T   T
  0.4930022071168194  0.9183234299428726  0.0953648396189512   T   T   T
  0.3465828604587506  0.8389401632741966  0.0953658021136511   T   T   T
  0.7897151603940465  0.0828416047875953  0.0954566190077959   T   T   T
  0.6394311598190885  0.1646535308827239  0.0953207063892660   T   T   T
  0.7897297314583078  0.9207435604132786  0.0954594705105837   T   T   T
  0.8301581285207558  0.6482380714553739  0.0953085763838279   T   T   T
  0.8301506707495514  0.3553516642328217  0.0952960666128679   T   T   T
  0.6394455809134596  0.8389358553670900  0.0953329628474648   T   T   T
  0.3180819023046920  0.3268572353496961  0.0952350065273041   T   T   T
  0.3181101542800717  0.6767371634003247  0.0952563691797392   T   T   T
  0.6679386898063170  0.3268564138170125  0.0951950784613149   T   T   T
  0.6679544434490825  0.6767328987895868  0.0952197212107507   T   T   T
  0.4930174651468209  0.5018096305913080  0.0950841810752940   T   T   T
 
  0.00000000E+00  0.00000000E+00  0.00000000E+00
  0.00000000E+00  0.00000000E+00  0.00000000E+00
  0.00000000E+00  0.00000000E+00  0.00000000E+00
  0.00000000E+00  0.00000000E+00  0.00000000E+00
  0.00000000E+00  0.00000000E+00  0.00000000E+00
  0.00000000E+00  0.00000000E+00  0.00000000E+00
  0.00000000E+00  0.00000000E+00  0.00000000E+00
  0.00000000E+00  0.00000000E+00  0.00000000E+00
  0.00000000E+00  0.00000000E+00  0.00000000E+00
  0.00000000E+00  0.00000000E+00  0.00000000E+00
  0.00000000E+00  0.00000000E+00  0.00000000E+00
  0.00000000E+00  0.00000000E+00  0.00000000E+00
  0.00000000E+00  0.00000000E+00  0.00000000E+00
  0.00000000E+00  0.00000000E+00  0.00000000E+00
  0.00000000E+00  0.00000000E+00  0.00000000E+00
  0.00000000E+00  0.00000000E+00  0.00000000E+00
  0.00000000E+00  0.00000000E+00  0.00000000E+00
  0.00000000E+00  0.00000000E+00  0.00000000E+00
  0.00000000E+00  0.00000000E+00  0.00000000E+00
  0.00000000E+00  0.00000000E+00  0.00000000E+00
  0.00000000E+00  0.00000000E+00  0.00000000E+00
  0.00000000E+00  0.00000000E+00  0.00000000E+00
  0.00000000E+00  0.00000000E+00  0.00000000E+00
  0.00000000E+00  0.00000000E+00  0.00000000E+00
  0.00000000E+00  0.00000000E+00  0.00000000E+00
