Title                                   
   1.00000000000000     
     9.8694509999999998    0.0000000000000000    0.0000000000000000
     0.0000000000000000    8.5490480000000009    0.0000000000000000
     0.0000000000000000    0.0000000000000000   20.0000000000000000
    27     3     1
Selective dynamics
Direct
  0.0552630209652096  0.0883038197504851  0.0825541202134508   T   T   T
  0.9308020766269801  0.1715167193470484  0.0846909191389189   T   T   T
  0.0568821473854411  0.9232493439853442  0.0832305959569481   T   T   T
  0.9346483990529786  0.3388276117815895  0.0838733107068710   T   T   T
  0.0574032047754288  0.5900980804086391  0.0795942926970948   T   T   T
  0.9344004359912964  0.6740506892335535  0.0850567478291232   T   T   T
  0.0577096909985188  0.4231477847748411  0.0789190382227936   T   T   T
  0.9317411509754789  0.8406304191121085  0.0859844445750446   T   T   T
  0.3050277830013053  0.0873589870959234  0.0919125556511406   T   T   T
  0.1812137074339217  0.1697816669194437  0.0845599704988562   T   T   T
  0.1803809717313296  0.3372406134581437  0.0831342162316890   T   T   T
  0.3015729439302513  0.5889008157181360  0.0952803250818205   T   T   T
  0.1811578127140910  0.6734035263420246  0.0840048864869582   T   T   T
  0.3003540617219394  0.4177013807503556  0.0948308584701477   T   T   T
  0.1821421301790003  0.8402628516138444  0.0854964635231899   T   T   T
  0.4274051354782572  0.1753582969519284  0.1021617305751185   T   T   T
  0.5536202869767513  0.9247799891546964  0.1065281118566417   T   T   T
  0.4206503376478094  0.6736986170847271  0.1100478574365632   T   T   T
  0.4276413393119721  0.8395003643002185  0.1040732215032519   T   T   T
  0.8049018023672918  0.0894191572377450  0.0919815807631608   T   T   T
  0.6826571434710673  0.1781609703772707  0.1021382730754670   T   T   T
  0.8060994141182327  0.9226212754450138  0.0932879036985046   T   T   T
  0.6921295696127204  0.3409312711076280  0.1097736428275716   T   T   T
  0.8149726180651011  0.5911968147611005  0.0970195243866951   T   T   T
  0.6915143793380150  0.6711929706356156  0.1111600106006686   T   T   T
  0.8155367938348994  0.4211959085856141  0.0962757354115267   T   T   T
  0.6817210128863259  0.8380271600864723  0.1048181253080543   T   T   T
  0.5543648347990406  0.0939178577113994  0.1051613633784066   T   T   T
  0.4174291372753838  0.3336504178584168  0.1082058864029787   T   T   T
  0.3048162380649813  0.9229527127668887  0.0924890426143217   T   T   T
  0.5569754192689963  0.5097969056438046  0.1227202448770701   T   T   T
 
  0.00000000E+00  0.00000000E+00  0.00000000E+00
  0.00000000E+00  0.00000000E+00  0.00000000E+00
  0.00000000E+00  0.00000000E+00  0.00000000E+00
  0.00000000E+00  0.00000000E+00  0.00000000E+00
  0.00000000E+00  0.00000000E+00  0.00000000E+00
  0.00000000E+00  0.00000000E+00  0.00000000E+00
  0.00000000E+00  0.00000000E+00  0.00000000E+00
  0.00000000E+00  0.00000000E+00  0.00000000E+00
  0.00000000E+00  0.00000000E+00  0.00000000E+00
  0.00000000E+00  0.00000000E+00  0.00000000E+00
  0.00000000E+00  0.00000000E+00  0.00000000E+00
  0.00000000E+00  0.00000000E+00  0.00000000E+00
  0.00000000E+00  0.00000000E+00  0.00000000E+00
  0.00000000E+00  0.00000000E+00  0.00000000E+00
  0.00000000E+00  0.00000000E+00  0.00000000E+00
  0.00000000E+00  0.00000000E+00  0.00000000E+00
  0.00000000E+00  0.00000000E+00  0.00000000E+00
  0.00000000E+00  0.00000000E+00  0.00000000E+00
  0.00000000E+00  0.00000000E+00  0.00000000E+00
  0.00000000E+00  0.00000000E+00  0.00000000E+00
  0.00000000E+00  0.00000000E+00  0.00000000E+00
  0.00000000E+00  0.00000000E+00  0.00000000E+00
  0.00000000E+00  0.00000000E+00  0.00000000E+00
  0.00000000E+00  0.00000000E+00  0.00000000E+00
  0.00000000E+00  0.00000000E+00  0.00000000E+00
  0.00000000E+00  0.00000000E+00  0.00000000E+00
  0.00000000E+00  0.00000000E+00  0.00000000E+00
  0.00000000E+00  0.00000000E+00  0.00000000E+00
  0.00000000E+00  0.00000000E+00  0.00000000E+00
  0.00000000E+00  0.00000000E+00  0.00000000E+00
  0.00000000E+00  0.00000000E+00  0.00000000E+00
