Title                                   
   1.00000000000000     
     4.9440799999999996    0.0000000000000000    0.0000000000000000
     0.0000000000000000    8.5647549999999999    0.0000000000000000
     0.0000000000000000    0.0000000000000000   20.0000000000000000
    13     2     1
Selective dynamics
Direct
 -0.0007745341862483  0.2892494342687827  0.0947897419477789   T   T   T
  0.2500000000000000  0.0435296345954182  0.0879741160775948   T   T   T
  0.0026550881247625  0.7958529475712027  0.0962028123867682   T   T   T
  0.0002071453119850  0.9611135534550819  0.0872044146795889   T   T   T
  0.7500000000000000  0.2071097900788418  0.0849182056722920   T   T   T
  0.5007745341862485  0.2892494342687827  0.0947897419477789   T   T   T
  0.7500000000000000  0.0421219639145490  0.0830023902481401   T   T   T
  0.7500000000000000  0.7083951408618134  0.1009442031572194   T   T   T
  0.4973449118752377  0.7958529475712027  0.0962028123867682   T   T   T
  0.7500000000000000  0.5388998530148079  0.1079903602814314   T   T   T
  0.4997928546880152  0.9611135534550819  0.0872044146795889   T   T   T
  0.5122920004174241  0.4458619229338239  0.1136700520005096   T   T   T
 -0.0122920004174243  0.4458619229338239  0.1136700520005096   T   T   T
  0.2500000000000000  0.7238202775977263  0.1038261624118999   T   T   T
  0.2500000000000000  0.2064022650689961  0.0917721640324056   T   T   T
  0.2500000000000000  0.5455653584100633  0.1683503560897353   T   T   T
 
  0.00000000E+00  0.00000000E+00  0.00000000E+00
  0.00000000E+00  0.00000000E+00  0.00000000E+00
  0.00000000E+00  0.00000000E+00  0.00000000E+00
  0.00000000E+00  0.00000000E+00  0.00000000E+00
  0.00000000E+00  0.00000000E+00  0.00000000E+00
  0.00000000E+00  0.00000000E+00  0.00000000E+00
  0.00000000E+00  0.00000000E+00  0.00000000E+00
  0.00000000E+00  0.00000000E+00  0.00000000E+00
  0.00000000E+00  0.00000000E+00  0.00000000E+00
  0.00000000E+00  0.00000000E+00  0.00000000E+00
  0.00000000E+00  0.00000000E+00  0.00000000E+00
  0.00000000E+00  0.00000000E+00  0.00000000E+00
  0.00000000E+00  0.00000000E+00  0.00000000E+00
  0.00000000E+00  0.00000000E+00  0.00000000E+00
  0.00000000E+00  0.00000000E+00  0.00000000E+00
  0.00000000E+00  0.00000000E+00  0.00000000E+00
