Title                                   
   1.00000000000000     
     8.5490480000000009    0.0000000000000000    0.0000000000000000
     0.0000000000000000    8.5490480000000009    0.0000000000000000
     0.0000000000000000    0.0000000000000000   20.0000000000000000
    20     4     1
Selective dynamics
Direct
  0.9090583908061887  0.2062559252998546  0.0977924389388651   T   T   T
  0.9118803124808443  0.8019849968869651  0.0976776501989806   T   T   T
  0.1975716476882589  0.0827425600888651  0.0980047676904434   T   T   T
  0.0756989754928054  0.2012925010359010  0.0979853754278657   T   T   T
  0.1555055134221873  0.6498503406351444  0.0979999057427792   T   T   T
  0.0739569055290405  0.5018779977050036  0.0980112925696727   T   T   T
  0.1564487560652845  0.3551017751317641  0.0980784668325436   T   T   T
  0.0793974505781660  0.8001903660723287  0.0978264965822469   T   T   T
  0.3475031526585645  0.1637404567221721  0.0980421458809001   T   T   T
  0.4942602748680286  0.9162401660449521  0.0979886038417899   T   T   T
  0.3460553155726118  0.8348352845358252  0.0981190617938284   T   T   T
  0.7880459816118351  0.0858811866625863  0.0976606735881066   T   T   T
  0.6386091996118375  0.1651907136452492  0.0977715388637528   T   T   T
  0.7912174748694297  0.9196789491974273  0.0976744677547456   T   T   T
  0.8296751321932879  0.6527291284045017  0.0979259360558286   T   T   T
  0.8248751867979770  0.3570436513895067  0.0978761908630893   T   T   T
  0.6431692118723413  0.8371713014859901  0.0979390799207113   T   T   T
  0.3225945787067088  0.3295059105866549  0.0981114955049255   T   T   T
  0.3205296839925175  0.6724160663985049  0.0981381647692306   T   T   T
  0.6607259053315027  0.3313400595313476  0.0978432550468128   T   T   T
  0.4946171347819229  0.0835889287888862  0.0979608415891132   T   T   T
  0.9057767003210128  0.5040400827645726  0.0980024024997396   T   T   T
  0.6701315831084538  0.6751905541226988  0.0981479675662100   T   T   T
  0.1965211965878736  0.9159685759552403  0.0980230217689538   T   T   T
  0.4915863350513110  0.5009325209080706  0.0981037587088471   T   T   T
 
  0.00000000E+00  0.00000000E+00  0.00000000E+00
  0.00000000E+00  0.00000000E+00  0.00000000E+00
  0.00000000E+00  0.00000000E+00  0.00000000E+00
  0.00000000E+00  0.00000000E+00  0.00000000E+00
  0.00000000E+00  0.00000000E+00  0.00000000E+00
  0.00000000E+00  0.00000000E+00  0.00000000E+00
  0.00000000E+00  0.00000000E+00  0.00000000E+00
  0.00000000E+00  0.00000000E+00  0.00000000E+00
  0.00000000E+00  0.00000000E+00  0.00000000E+00
  0.00000000E+00  0.00000000E+00  0.00000000E+00
  0.00000000E+00  0.00000000E+00  0.00000000E+00
  0.00000000E+00  0.00000000E+00  0.00000000E+00
  0.00000000E+00  0.00000000E+00  0.00000000E+00
  0.00000000E+00  0.00000000E+00  0.00000000E+00
  0.00000000E+00  0.00000000E+00  0.00000000E+00
  0.00000000E+00  0.00000000E+00  0.00000000E+00
  0.00000000E+00  0.00000000E+00  0.00000000E+00
  0.00000000E+00  0.00000000E+00  0.00000000E+00
  0.00000000E+00  0.00000000E+00  0.00000000E+00
  0.00000000E+00  0.00000000E+00  0.00000000E+00
  0.00000000E+00  0.00000000E+00  0.00000000E+00
  0.00000000E+00  0.00000000E+00  0.00000000E+00
  0.00000000E+00  0.00000000E+00  0.00000000E+00
  0.00000000E+00  0.00000000E+00  0.00000000E+00
  0.00000000E+00  0.00000000E+00  0.00000000E+00
