Title                                   
   1.00000000000000     
     9.8694509999999998    0.0000000000000000    0.0000000000000000
     0.0000000000000000    8.5490480000000009    0.0000000000000000
     0.0000000000000000    0.0000000000000000   20.0000000000000000
    30     1     1
Selective dynamics
Direct
  0.0562572997084520  0.0899920013898733  0.0816215959763824   T   T   T
  0.9308952804707032  0.1730602690356252  0.0848940191419317   T   T   T
  0.0562476155177906  0.9231979354208999  0.0802725229841397   T   T   T
  0.9302110425733777  0.3406644359744040  0.0900507560984374   T   T   T
  0.0562304582890194  0.5892715977371371  0.0859168970582208   T   T   T
  0.9312791282335695  0.6725849673460057  0.0869220171137370   T   T   T
  0.0562213344872083  0.4232585066388260  0.0883071668120178   T   T   T
  0.9308339367273675  0.8394053484850615  0.0828172878873498   T   T   T
  0.3053407695029576  0.0893107985109046  0.0853552729442951   T   T   T
  0.1815944516258446  0.1730713632441369  0.0848627239888485   T   T   T
  0.3065579166668705  0.9233905207176317  0.0849040617338826   T   T   T
  0.1822452395814259  0.3406555297364407  0.0900270249626803   T   T   T
  0.3050371468727082  0.5922007532702735  0.0998168437145167   T   T   T
  0.1811897893446563  0.6725655220294221  0.0869217817070240   T   T   T
  0.3061024824830310  0.4224906015733403  0.0994467861432007   T   T   T
  0.1816407551772729  0.8393765555776683  0.0828152215085434   T   T   T
  0.5562393557925360  0.0863229064544486  0.0931039462880860   T   T   T
  0.4312161735354348  0.1692589306414438  0.0922008349731508   T   T   T
  0.4320630887902298  0.3346337621958528  0.1028231978190536   T   T   T
  0.4243179201564335  0.6812530214947154  0.1132547890790890   T   T   T
  0.5562127667901978  0.4091580283180303  0.1162657822600894   T   T   T
  0.4297515027489892  0.8402028910304430  0.0972600671603040   T   T   T
  0.8071429863305597  0.0893111768843430  0.0853958672395779   T   T   T
  0.6812822698178755  0.1692649238757028  0.0922397905649230   T   T   T
  0.8059002899370417  0.9233951444969581  0.0849154260575344   T   T   T
  0.6804046897471084  0.3346364821485632  0.1028566581895759   T   T   T
  0.8074616316907268  0.5922032972167558  0.0998298535074359   T   T   T
  0.6881989401105221  0.6812686834206299  0.1132472689539133   T   T   T
  0.8063562671660159  0.4225058327959000  0.0994815957277636   T   T   T
  0.6827080441060781  0.8402015461024642  0.0972514330967818   T   T   T
  0.5562317770981600  0.9222690084883192  0.0966989534535703   T   T   T
  0.5562666489198411  0.5898636577477890  0.1838975558539778   T   T   T
 
  0.00000000E+00  0.00000000E+00  0.00000000E+00
  0.00000000E+00  0.00000000E+00  0.00000000E+00
  0.00000000E+00  0.00000000E+00  0.00000000E+00
  0.00000000E+00  0.00000000E+00  0.00000000E+00
  0.00000000E+00  0.00000000E+00  0.00000000E+00
  0.00000000E+00  0.00000000E+00  0.00000000E+00
  0.00000000E+00  0.00000000E+00  0.00000000E+00
  0.00000000E+00  0.00000000E+00  0.00000000E+00
  0.00000000E+00  0.00000000E+00  0.00000000E+00
  0.00000000E+00  0.00000000E+00  0.00000000E+00
  0.00000000E+00  0.00000000E+00  0.00000000E+00
  0.00000000E+00  0.00000000E+00  0.00000000E+00
  0.00000000E+00  0.00000000E+00  0.00000000E+00
  0.00000000E+00  0.00000000E+00  0.00000000E+00
  0.00000000E+00  0.00000000E+00  0.00000000E+00
  0.00000000E+00  0.00000000E+00  0.00000000E+00
  0.00000000E+00  0.00000000E+00  0.00000000E+00
  0.00000000E+00  0.00000000E+00  0.00000000E+00
  0.00000000E+00  0.00000000E+00  0.00000000E+00
  0.00000000E+00  0.00000000E+00  0.00000000E+00
  0.00000000E+00  0.00000000E+00  0.00000000E+00
  0.00000000E+00  0.00000000E+00  0.00000000E+00
  0.00000000E+00  0.00000000E+00  0.00000000E+00
  0.00000000E+00  0.00000000E+00  0.00000000E+00
  0.00000000E+00  0.00000000E+00  0.00000000E+00
  0.00000000E+00  0.00000000E+00  0.00000000E+00
  0.00000000E+00  0.00000000E+00  0.00000000E+00
  0.00000000E+00  0.00000000E+00  0.00000000E+00
  0.00000000E+00  0.00000000E+00  0.00000000E+00
  0.00000000E+00  0.00000000E+00  0.00000000E+00
  0.00000000E+00  0.00000000E+00  0.00000000E+00
  0.00000000E+00  0.00000000E+00  0.00000000E+00
