Title                                   
   1.00000000000000     
     9.8694509999999998    0.0000000000000000    0.0000000000000000
     0.0000000000000000    8.5490480000000009    0.0000000000000000
     0.0000000000000000    0.0000000000000000   20.0000000000000000
    29     2     1
Selective dynamics
Direct
  0.0560371943130700  0.0909308537343143  0.0877941491659435   T   T   T
  0.9301920439786094  0.1720004428217677  0.0912743119931116   T   T   T
  0.0545080827671647  0.9243645474783921  0.0861522212258580   T   T   T
  0.9310666304394524  0.3399599186214369  0.0958434883987959   T   T   T
  0.0560733642521900  0.5899277905276469  0.0893505875096407   T   T   T
  0.9309550465798837  0.6722766996285896  0.0942365183986651   T   T   T
  0.0570950390692849  0.4240978033665724  0.0907489871945168   T   T   T
  0.9294696238365270  0.8388622751859857  0.0899528414661964   T   T   T
  0.3053860347999547  0.0919834506551176  0.0884648303175187   T   T   T
  0.1817980509196781  0.1752571441270825  0.0889134663208193   T   T   T
  0.3043997374278355  0.9258232915280359  0.0855741168394989   T   T   T
  0.1840853905557673  0.3439852401716958  0.0897408282271926   T   T   T
  0.3077754013865783  0.5972893368756500  0.0844112907830059   T   T   T
  0.1802749862659781  0.6747521849348855  0.0846340938314686   T   T   T
  0.3096714753633421  0.4277351791690368  0.0917227991073873   T   T   T
  0.1795908785750158  0.8416843904202044  0.0841340280950494   T   T   T
  0.5550320071654186  0.0847378948816469  0.0951391759138708   T   T   T
  0.4325555875407430  0.1717095284861751  0.0935448304890085   T   T   T
  0.4344898782772348  0.3402786999267957  0.1015983669087505   T   T   T
  0.5582671092119019  0.4092235535951708  0.1214488563047108   T   T   T
  0.4262671540068942  0.8366102740280701  0.0853208989488170   T   T   T
  0.8062049587301807  0.0872851816064819  0.0914523493768331   T   T   T
  0.6804142978587574  0.1676178528943590  0.0977799297710840   T   T   T
  0.8037579883244139  0.9201466054422968  0.0908851283920858   T   T   T
  0.6819570106010912  0.3333119061583319  0.1098133572188782   T   T   T
  0.8080914000301097  0.5899696263815045  0.1078334819768043   T   T   T
  0.6883403705588578  0.6772984562285286  0.1200400257310506   T   T   T
  0.8081806916914496  0.4204525739731298  0.1069108551499143   T   T   T
  0.6788419082802200  0.8352501632342686  0.1002915329563698   T   T   T
  0.4260185026521533  0.6815568053351395  0.0805359539886979   T   T   T
  0.5532327043134986  0.9178597796951252  0.0934736514800365   T   T   T
  0.5596084502267509  0.5860065488865493  0.1846580465184646   T   T   T
 
  0.00000000E+00  0.00000000E+00  0.00000000E+00
  0.00000000E+00  0.00000000E+00  0.00000000E+00
  0.00000000E+00  0.00000000E+00  0.00000000E+00
  0.00000000E+00  0.00000000E+00  0.00000000E+00
  0.00000000E+00  0.00000000E+00  0.00000000E+00
  0.00000000E+00  0.00000000E+00  0.00000000E+00
  0.00000000E+00  0.00000000E+00  0.00000000E+00
  0.00000000E+00  0.00000000E+00  0.00000000E+00
  0.00000000E+00  0.00000000E+00  0.00000000E+00
  0.00000000E+00  0.00000000E+00  0.00000000E+00
  0.00000000E+00  0.00000000E+00  0.00000000E+00
  0.00000000E+00  0.00000000E+00  0.00000000E+00
  0.00000000E+00  0.00000000E+00  0.00000000E+00
  0.00000000E+00  0.00000000E+00  0.00000000E+00
  0.00000000E+00  0.00000000E+00  0.00000000E+00
  0.00000000E+00  0.00000000E+00  0.00000000E+00
  0.00000000E+00  0.00000000E+00  0.00000000E+00
  0.00000000E+00  0.00000000E+00  0.00000000E+00
  0.00000000E+00  0.00000000E+00  0.00000000E+00
  0.00000000E+00  0.00000000E+00  0.00000000E+00
  0.00000000E+00  0.00000000E+00  0.00000000E+00
  0.00000000E+00  0.00000000E+00  0.00000000E+00
  0.00000000E+00  0.00000000E+00  0.00000000E+00
  0.00000000E+00  0.00000000E+00  0.00000000E+00
  0.00000000E+00  0.00000000E+00  0.00000000E+00
  0.00000000E+00  0.00000000E+00  0.00000000E+00
  0.00000000E+00  0.00000000E+00  0.00000000E+00
  0.00000000E+00  0.00000000E+00  0.00000000E+00
  0.00000000E+00  0.00000000E+00  0.00000000E+00
  0.00000000E+00  0.00000000E+00  0.00000000E+00
  0.00000000E+00  0.00000000E+00  0.00000000E+00
  0.00000000E+00  0.00000000E+00  0.00000000E+00
