Title                                   
   1.00000000000000     
     4.9440799999999996    0.0000000000000000    0.0000000000000000
     0.0000000000000000    8.5647549999999999    0.0000000000000000
     0.0000000000000000    0.0000000000000000   20.0000000000000000
    14     1     1
Selective dynamics
Direct
 -0.0016618866409790  0.2895395185423859  0.0864212391405867   T   T   T
  0.2500000000000000  0.0433447117994339  0.0870134533029958   T   T   T
  0.0006383312711828  0.7970596645635897  0.1067687601369882   T   T   T
  0.0006581847620064  0.9599972893106379  0.0895515277480407   T   T   T
  0.7500000000000000  0.2037811610063485  0.0804693121086742   T   T   T
  0.5016618866409785  0.2895395185423859  0.0864212391405867   T   T   T
  0.7500000000000000  0.0394743792118537  0.0822199190953275   T   T   T
  0.7500000000000000  0.7103608533272678  0.1068795756684693   T   T   T
  0.4993616687288172  0.7970596645635897  0.1067687601369882   T   T   T
  0.7500000000000000  0.5416389817329845  0.1013667351137365   T   T   T
  0.4993418152379935  0.9599972893106379  0.0895515277480407   T   T   T
  0.5091979246066419  0.4492790454009174  0.0985912622732848   T   T   T
 -0.0091979246066415  0.4492790454009174  0.0985912622732848   T   T   T
  0.2500000000000000  0.7324719780021299  0.1257575630403663   T   T   T
  0.2500000000000000  0.2065851688685874  0.0838120538520857   T   T   T
  0.2500000000000000  0.5305917304163319  0.1823278092205534   T   T   T
 
  0.00000000E+00  0.00000000E+00  0.00000000E+00
  0.00000000E+00  0.00000000E+00  0.00000000E+00
  0.00000000E+00  0.00000000E+00  0.00000000E+00
  0.00000000E+00  0.00000000E+00  0.00000000E+00
  0.00000000E+00  0.00000000E+00  0.00000000E+00
  0.00000000E+00  0.00000000E+00  0.00000000E+00
  0.00000000E+00  0.00000000E+00  0.00000000E+00
  0.00000000E+00  0.00000000E+00  0.00000000E+00
  0.00000000E+00  0.00000000E+00  0.00000000E+00
  0.00000000E+00  0.00000000E+00  0.00000000E+00
  0.00000000E+00  0.00000000E+00  0.00000000E+00
  0.00000000E+00  0.00000000E+00  0.00000000E+00
  0.00000000E+00  0.00000000E+00  0.00000000E+00
  0.00000000E+00  0.00000000E+00  0.00000000E+00
  0.00000000E+00  0.00000000E+00  0.00000000E+00
  0.00000000E+00  0.00000000E+00  0.00000000E+00
