Title                                   
   1.00000000000000     
     8.5490480000000009    0.0000000000000000    0.0000000000000000
     0.0000000000000000    8.5490480000000009    0.0000000000000000
     0.0000000000000000    0.0000000000000000   20.0000000000000000
    23     1     1
Selective dynamics
Direct
  0.9086252452082657  0.2072552528797870  0.0982869969533686   T   T   T
  0.9063190918375221  0.5040753161989311  0.0968777519290220   T   T   T
  0.9113023319025249  0.7991592216351368  0.0970113706403935   T   T   T
  0.1970573811026426  0.0822292942984811  0.0975220689260072   T   T   T
  0.0734328132233423  0.2058025290593382  0.0975228588758135   T   T   T
  0.1985380227423689  0.9174210466352360  0.0983177560449096   T   T   T
  0.1571575276448045  0.6467776264136804  0.0981633337946588   T   T   T
  0.0751805304342688  0.5020238855151345  0.0969953567559744   T   T   T
  0.1550635073911970  0.3547943932174493  0.0954910822004054   T   T   T
  0.0774921296076124  0.7962032940514107  0.0981552386872780   T   T   T
  0.4932122924486869  0.0839505870107407  0.0969346129769478   T   T   T
  0.3460177163346798  0.1638625266473340  0.0954629754627878   T   T   T
  0.4953059156893450  0.9150814456514793  0.0968352017113568   T   T   T
  0.3494823359714140  0.8344394970186474  0.0982569347553014   T   T   T
  0.7873915155290727  0.0862498390935025  0.0980822561751771   T   T   T
  0.6379501988859084  0.1659523699053596  0.0980960497443050   T   T   T
  0.7904010402658054  0.9200499112775580  0.0969702863225043   T   T   T
  0.8291187138299667  0.6520579028623786  0.0949760379053720   T   T   T
  0.8256630551051223  0.3582449524394555  0.0982306602470731   T   T   T
  0.6432969248976746  0.8378732651164233  0.0949274557675974   T   T   T
  0.3226174764327246  0.3313899608694030  0.0905531946144926   T   T   T
  0.3262856787375702  0.6684197162040728  0.0981995490488459   T   T   T
  0.6596303252151476  0.3350651613047473  0.0981551419606718   T   T   T
  0.6665115361391789  0.6752522549903401  0.0907692087311224   T   T   T
  0.4923586934231453  0.5011587497039863  0.0629116197685915   T   T   T
 
  0.00000000E+00  0.00000000E+00  0.00000000E+00
  0.00000000E+00  0.00000000E+00  0.00000000E+00
  0.00000000E+00  0.00000000E+00  0.00000000E+00
  0.00000000E+00  0.00000000E+00  0.00000000E+00
  0.00000000E+00  0.00000000E+00  0.00000000E+00
  0.00000000E+00  0.00000000E+00  0.00000000E+00
  0.00000000E+00  0.00000000E+00  0.00000000E+00
  0.00000000E+00  0.00000000E+00  0.00000000E+00
  0.00000000E+00  0.00000000E+00  0.00000000E+00
  0.00000000E+00  0.00000000E+00  0.00000000E+00
  0.00000000E+00  0.00000000E+00  0.00000000E+00
  0.00000000E+00  0.00000000E+00  0.00000000E+00
  0.00000000E+00  0.00000000E+00  0.00000000E+00
  0.00000000E+00  0.00000000E+00  0.00000000E+00
  0.00000000E+00  0.00000000E+00  0.00000000E+00
  0.00000000E+00  0.00000000E+00  0.00000000E+00
  0.00000000E+00  0.00000000E+00  0.00000000E+00
  0.00000000E+00  0.00000000E+00  0.00000000E+00
  0.00000000E+00  0.00000000E+00  0.00000000E+00
  0.00000000E+00  0.00000000E+00  0.00000000E+00
  0.00000000E+00  0.00000000E+00  0.00000000E+00
  0.00000000E+00  0.00000000E+00  0.00000000E+00
  0.00000000E+00  0.00000000E+00  0.00000000E+00
  0.00000000E+00  0.00000000E+00  0.00000000E+00
  0.00000000E+00  0.00000000E+00  0.00000000E+00
