Title                                   
   1.00000000000000     
     9.8694509999999998    0.0000000000000000    0.0000000000000000
     0.0000000000000000    8.5490480000000009    0.0000000000000000
     0.0000000000000000    0.0000000000000000   20.0000000000000000
    30     1
Selective dynamics
Direct
  0.0562443171229613  0.0889479642773938  0.0922868972872361   T   T   T
  0.9312392553910986  0.1721144817481728  0.0928099816061020   T   T   T
  0.0562370569025500  0.9233776541707686  0.0922931245436325   T   T   T
  0.9322588163110374  0.3386076673772769  0.0950206745685845   T   T   T
  0.0562190551864261  0.5896491176270645  0.0959560696870970   T   T   T
  0.9322553530275540  0.6736988162327197  0.0950298486310537   T   T   T
  0.0562115909264330  0.4226571256445159  0.0959491263303441   T   T   T
  0.9312298334918179  0.8402063126214966  0.0928175590402431   T   T   T
  0.3065614127004740  0.0898962222404133  0.0912508433250083   T   T   T
  0.1812402929604812  0.1721150311830198  0.0928012316575323   T   T   T
  0.3065669338496776  0.9224093167120658  0.0912730085429732   T   T   T
  0.1801761319406494  0.3386097117437725  0.0950327961355780   T   T   T
  0.3046192669824299  0.5908690510034097  0.0954373731645678   T   T   T
  0.1801810023498200  0.6737081400476514  0.0950591246763684   T   T   T
  0.3046060989808894  0.4214389021238709  0.0954062009445749   T   T   T
  0.1812402528176387  0.8402148962508370  0.0928244490632546   T   T   T
  0.5562408490349282  0.0890260880215324  0.0920168465976648   T   T   T
  0.4314278652631874  0.1757873804343316  0.0922006952549603   T   T   T
  0.5562511281670394  0.9232827545038507  0.0920360648054873   T   T   T
  0.4294035484907450  0.3412655065015673  0.0954981583452972   T   T   T
  0.4294059994458581  0.6710857257163010  0.0955561072998669   T   T   T
  0.4314483526834628  0.8365405707431639  0.0922563759817413   T   T   T
  0.8059229458482110  0.0898992554932193  0.0912653872098996   T   T   T
  0.6810339515692746  0.1757871113990012  0.0922065127406545   T   T   T
  0.8059149376036021  0.9224158722054528  0.0912734178322358   T   T   T
  0.6830286426888960  0.3412553176792853  0.0954643555110623   T   T   T
  0.8078202483712427  0.5908589414915574  0.0953520965723621   T   T   T
  0.6830430475723963  0.6710737531497567  0.0954629097674165   T   T   T
  0.8078102009683690  0.4214337151749006  0.0953535925325986   T   T   T
  0.6810444921088652  0.8365339712536682  0.0922284352178376   T   T   T
  0.5562521192419935  0.5061086252279743  0.1315457351268058   T   T   T
 
  0.00000000E+00  0.00000000E+00  0.00000000E+00
  0.00000000E+00  0.00000000E+00  0.00000000E+00
  0.00000000E+00  0.00000000E+00  0.00000000E+00
  0.00000000E+00  0.00000000E+00  0.00000000E+00
  0.00000000E+00  0.00000000E+00  0.00000000E+00
  0.00000000E+00  0.00000000E+00  0.00000000E+00
  0.00000000E+00  0.00000000E+00  0.00000000E+00
  0.00000000E+00  0.00000000E+00  0.00000000E+00
  0.00000000E+00  0.00000000E+00  0.00000000E+00
  0.00000000E+00  0.00000000E+00  0.00000000E+00
  0.00000000E+00  0.00000000E+00  0.00000000E+00
  0.00000000E+00  0.00000000E+00  0.00000000E+00
  0.00000000E+00  0.00000000E+00  0.00000000E+00
  0.00000000E+00  0.00000000E+00  0.00000000E+00
  0.00000000E+00  0.00000000E+00  0.00000000E+00
  0.00000000E+00  0.00000000E+00  0.00000000E+00
  0.00000000E+00  0.00000000E+00  0.00000000E+00
  0.00000000E+00  0.00000000E+00  0.00000000E+00
  0.00000000E+00  0.00000000E+00  0.00000000E+00
  0.00000000E+00  0.00000000E+00  0.00000000E+00
  0.00000000E+00  0.00000000E+00  0.00000000E+00
  0.00000000E+00  0.00000000E+00  0.00000000E+00
  0.00000000E+00  0.00000000E+00  0.00000000E+00
  0.00000000E+00  0.00000000E+00  0.00000000E+00
  0.00000000E+00  0.00000000E+00  0.00000000E+00
  0.00000000E+00  0.00000000E+00  0.00000000E+00
  0.00000000E+00  0.00000000E+00  0.00000000E+00
  0.00000000E+00  0.00000000E+00  0.00000000E+00
  0.00000000E+00  0.00000000E+00  0.00000000E+00
  0.00000000E+00  0.00000000E+00  0.00000000E+00
  0.00000000E+00  0.00000000E+00  0.00000000E+00
