Title                                   
   1.00000000000000     
     9.8694509999999998    0.0000000000000000    0.0000000000000000
     0.0000000000000000    8.5490480000000009    0.0000000000000000
     0.0000000000000000    0.0000000000000000   20.0000000000000000
    29     2     1
Selective dynamics
Direct
  0.0564254412436618  0.0905963106958119  0.0854679241462388   T   T   T
  0.9308797922735849  0.1724659552890127  0.0887171698645712   T   T   T
  0.0556969328135132  0.9237799375490990  0.0846661830392682   T   T   T
  0.9308903540078191  0.3399530897664843  0.0933092212875994   T   T   T
  0.0563709352454831  0.5894108962554283  0.0883517908206043   T   T   T
  0.9315194650862157  0.6724821172186360  0.0923354898789136   T   T   T
  0.0569167813177714  0.4234839658312149  0.0895947503163232   T   T   T
  0.9305573556771768  0.8389623800125388  0.0881711187718836   T   T   T
  0.3058454273672502  0.0906443408370044  0.0874723120141594   T   T   T
  0.1820406590779754  0.1745092893931327  0.0872245398037133   T   T   T
  0.3057805011356169  0.9247185541250534  0.0864902900780754   T   T   T
  0.1833422737799585  0.3423347309127847  0.0896470264506326   T   T   T
  0.3065346899755855  0.5941327094367856  0.0920703477316793   T   T   T
  0.1808949688485637  0.6739876419933466  0.0866332914346845   T   T   T
  0.3087579606390370  0.4258474721834475  0.0950897286100815   T   T   T
  0.1806549865134022  0.8405122369483701  0.0849155052482283   T   T   T
  0.5557293621890396  0.0853267086184114  0.0955814780641252   T   T   T
  0.4321911054830624  0.1701199721368582  0.0937197640906728   T   T   T
  0.4333774115615747  0.3368308105205531  0.1026608594880432   T   T   T
  0.5571629797358433  0.4061192912985218  0.1212218295532236   T   T   T
  0.4283240728728054  0.8391516929148618  0.0922795586557065   T   T   T
  0.8068821420812927  0.0879058062634323  0.0897063231389686   T   T   T
  0.6810858662435989  0.1679159215135509  0.0968400372186146   T   T   T
  0.8051952286920566  0.9217901425606700  0.0894915967281293   T   T   T
  0.6821981891498605  0.3334839711540944  0.1080104049378420   T   T   T
  0.8086482946221575  0.5900086728065725  0.1056939162754235   T   T   T
  0.6906411407460241  0.6802682166489796  0.1194511704563225   T   T   T
  0.8075605043278216  0.4212737810428934  0.1043080462438702   T   T   T
  0.6813510145219183  0.8374811397235804  0.0998658629994519   T   T   T
  0.4256999943379622  0.6809302987601167  0.0968734038741221   T   T   T
  0.5543293984853138  0.9189332237154230  0.0957018666336283   T   T   T
  0.5461537699470587  0.5948847218733181  0.1721121921452443   T   T   T
 
  0.00000000E+00  0.00000000E+00  0.00000000E+00
  0.00000000E+00  0.00000000E+00  0.00000000E+00
  0.00000000E+00  0.00000000E+00  0.00000000E+00
  0.00000000E+00  0.00000000E+00  0.00000000E+00
  0.00000000E+00  0.00000000E+00  0.00000000E+00
  0.00000000E+00  0.00000000E+00  0.00000000E+00
  0.00000000E+00  0.00000000E+00  0.00000000E+00
  0.00000000E+00  0.00000000E+00  0.00000000E+00
  0.00000000E+00  0.00000000E+00  0.00000000E+00
  0.00000000E+00  0.00000000E+00  0.00000000E+00
  0.00000000E+00  0.00000000E+00  0.00000000E+00
  0.00000000E+00  0.00000000E+00  0.00000000E+00
  0.00000000E+00  0.00000000E+00  0.00000000E+00
  0.00000000E+00  0.00000000E+00  0.00000000E+00
  0.00000000E+00  0.00000000E+00  0.00000000E+00
  0.00000000E+00  0.00000000E+00  0.00000000E+00
  0.00000000E+00  0.00000000E+00  0.00000000E+00
  0.00000000E+00  0.00000000E+00  0.00000000E+00
  0.00000000E+00  0.00000000E+00  0.00000000E+00
  0.00000000E+00  0.00000000E+00  0.00000000E+00
  0.00000000E+00  0.00000000E+00  0.00000000E+00
  0.00000000E+00  0.00000000E+00  0.00000000E+00
  0.00000000E+00  0.00000000E+00  0.00000000E+00
  0.00000000E+00  0.00000000E+00  0.00000000E+00
  0.00000000E+00  0.00000000E+00  0.00000000E+00
  0.00000000E+00  0.00000000E+00  0.00000000E+00
  0.00000000E+00  0.00000000E+00  0.00000000E+00
  0.00000000E+00  0.00000000E+00  0.00000000E+00
  0.00000000E+00  0.00000000E+00  0.00000000E+00
  0.00000000E+00  0.00000000E+00  0.00000000E+00
  0.00000000E+00  0.00000000E+00  0.00000000E+00
  0.00000000E+00  0.00000000E+00  0.00000000E+00
