Title                                   
   1.00000000000000     
     8.5490480000000009    0.0000000000000000    0.0000000000000000
     0.0000000000000000    8.5490480000000009    0.0000000000000000
     0.0000000000000000    0.0000000000000000   20.0000000000000000
    20     4     1
Selective dynamics
Direct
  0.9080130673997108  0.2072370391349736  0.0942887656172044   T   T   T
  0.9118259187424569  0.8005684490227221  0.0963886166863475   T   T   T
  0.1954791527579254  0.0821540924198885  0.0964072413910451   T   T   T
  0.0739064760548148  0.2017077150550282  0.0959925198744506   T   T   T
  0.1589748786752975  0.6489974559976687  0.0960523241646279   T   T   T
  0.0772064729427689  0.5014498570051774  0.0967608323536661   T   T   T
  0.1522592428719458  0.3502083697344048  0.0979976736948410   T   T   T
  0.0800829557501702  0.7977226506865160  0.0955002704498813   T   T   T
  0.4935988896290219  0.0873228632544674  0.0976657149237861   T   T   T
  0.3410119744486639  0.1615110489434294  0.0985053805239667   T   T   T
  0.4945096232013748  0.9186440218533841  0.0975278985302044   T   T   T
  0.3468060649003422  0.8374086512657257  0.0952915777690544   T   T   T
  0.7870422613280010  0.0888107129941312  0.0958182244251313   T   T   T
  0.6388819350209567  0.1708801513407389  0.0969452015586209   T   T   T
  0.7892938615887563  0.9196952970087927  0.0969837004521790   T   T   T
  0.8314761812694620  0.6518223292539072  0.0982389113957111   T   T   T
  0.8307746328275786  0.3589415722539108  0.0934308240227935   T   T   T
  0.6432753471598223  0.8367738089764863  0.0991820138468380   T   T   T
  0.3268538983261239  0.6748688524264154  0.0951723317816589   T   T   T
  0.6664935780777235  0.3411910275779053  0.0950075133496152   T   T   T
  0.9104067067556942  0.5045160893690113  0.0959161592486946   T   T   T
  0.3155419720233596  0.3249661037657376  0.1017964973563813   T   T   T
  0.6686676770952819  0.6713137991009730  0.1024596986978253   T   T   T
  0.1974131221936561  0.9156409000525497  0.0949842750173900   T   T   T
  0.4856161089590771  0.4904371415060682  0.1193908328680659   T   T   T
 
  0.00000000E+00  0.00000000E+00  0.00000000E+00
  0.00000000E+00  0.00000000E+00  0.00000000E+00
  0.00000000E+00  0.00000000E+00  0.00000000E+00
  0.00000000E+00  0.00000000E+00  0.00000000E+00
  0.00000000E+00  0.00000000E+00  0.00000000E+00
  0.00000000E+00  0.00000000E+00  0.00000000E+00
  0.00000000E+00  0.00000000E+00  0.00000000E+00
  0.00000000E+00  0.00000000E+00  0.00000000E+00
  0.00000000E+00  0.00000000E+00  0.00000000E+00
  0.00000000E+00  0.00000000E+00  0.00000000E+00
  0.00000000E+00  0.00000000E+00  0.00000000E+00
  0.00000000E+00  0.00000000E+00  0.00000000E+00
  0.00000000E+00  0.00000000E+00  0.00000000E+00
  0.00000000E+00  0.00000000E+00  0.00000000E+00
  0.00000000E+00  0.00000000E+00  0.00000000E+00
  0.00000000E+00  0.00000000E+00  0.00000000E+00
  0.00000000E+00  0.00000000E+00  0.00000000E+00
  0.00000000E+00  0.00000000E+00  0.00000000E+00
  0.00000000E+00  0.00000000E+00  0.00000000E+00
  0.00000000E+00  0.00000000E+00  0.00000000E+00
  0.00000000E+00  0.00000000E+00  0.00000000E+00
  0.00000000E+00  0.00000000E+00  0.00000000E+00
  0.00000000E+00  0.00000000E+00  0.00000000E+00
  0.00000000E+00  0.00000000E+00  0.00000000E+00
  0.00000000E+00  0.00000000E+00  0.00000000E+00
