Title                                   
   1.00000000000000     
     9.8694509999999998    0.0000000000000000    0.0000000000000000
     0.0000000000000000    8.5490480000000009    0.0000000000000000
     0.0000000000000000    0.0000000000000000   20.0000000000000000
    26     5     1
Selective dynamics
Direct
  0.0560561907166674  0.0918562302892114  0.0884901016865368   T   T   T
  0.9307753758793160  0.1740609790706423  0.0893292703817691   T   T   T
  0.0572365923610508  0.9244120508228354  0.0884340020901731   T   T   T
  0.9294556276995444  0.3419293446312219  0.0917229758479670   T   T   T
  0.0566193533612505  0.5905410849467434  0.0886917959588166   T   T   T
  0.9320032008911863  0.6736264694368563  0.0917625686038934   T   T   T
  0.0564747323116036  0.4230955787879265  0.0898468653716184   T   T   T
  0.9326710577460766  0.8402091444793671  0.0906645181224622   T   T   T
  0.3061836033056117  0.0882611206027402  0.0905060256529766   T   T   T
  0.1828379603363856  0.1734825940230232  0.0893979915733960   T   T   T
  0.1834383452489217  0.3408198442465543  0.0900604714756192   T   T   T
  0.3067492391163350  0.5918735857124134  0.0931947468938724   T   T   T
  0.1814335578307107  0.6744231836003115  0.0888167644424530   T   T   T
  0.3101166929989563  0.4236334223214283  0.0929404930898960   T   T   T
  0.1807975135086687  0.8409408551754968  0.0888382198337835   T   T   T
  0.5557065280002634  0.0838028288672379  0.0943921788497113   T   T   T
  0.5545335058142328  0.9184842550323566  0.0982719174043882   T   T   T
  0.4343954767566482  0.3336149175684965  0.0958018296952597   T   T   T
  0.4264290056842722  0.8364559080588199  0.0960320096266172   T   T   T
  0.8057416478782384  0.0887755316836335  0.0896202740321608   T   T   T
  0.6793861742968684  0.1696200207522540  0.0923752725783449   T   T   T
  0.8071837327872926  0.9230488722855865  0.0918325121401934   T   T   T
  0.6780016910777514  0.3354374966876243  0.0973359735657078   T   T   T
  0.8069333172117126  0.5932699846733113  0.1006438937052030   T   T   T
  0.8021633623285539  0.4243740423430536  0.0974719291249192   T   T   T
  0.6841379163038518  0.8381971346607046  0.1007114278278923   T   T   T
  0.4220567791184929  0.6811585604618370  0.1011603881785570   T   T   T
  0.5540723479310808  0.4065003074889293  0.1041381546599654   T   T   T
  0.6927640535717862  0.6808271750199850  0.1137352887688596   T   T   T
  0.3058007224073842  0.9247626064586505  0.0906213482339908   T   T   T
  0.4299824519731929  0.1668388518829095  0.0928279879803134   T   T   T
  0.5575012435460976  0.5919120179278399  0.1760058026026989   T   T   T
 
  0.00000000E+00  0.00000000E+00  0.00000000E+00
  0.00000000E+00  0.00000000E+00  0.00000000E+00
  0.00000000E+00  0.00000000E+00  0.00000000E+00
  0.00000000E+00  0.00000000E+00  0.00000000E+00
  0.00000000E+00  0.00000000E+00  0.00000000E+00
  0.00000000E+00  0.00000000E+00  0.00000000E+00
  0.00000000E+00  0.00000000E+00  0.00000000E+00
  0.00000000E+00  0.00000000E+00  0.00000000E+00
  0.00000000E+00  0.00000000E+00  0.00000000E+00
  0.00000000E+00  0.00000000E+00  0.00000000E+00
  0.00000000E+00  0.00000000E+00  0.00000000E+00
  0.00000000E+00  0.00000000E+00  0.00000000E+00
  0.00000000E+00  0.00000000E+00  0.00000000E+00
  0.00000000E+00  0.00000000E+00  0.00000000E+00
  0.00000000E+00  0.00000000E+00  0.00000000E+00
  0.00000000E+00  0.00000000E+00  0.00000000E+00
  0.00000000E+00  0.00000000E+00  0.00000000E+00
  0.00000000E+00  0.00000000E+00  0.00000000E+00
  0.00000000E+00  0.00000000E+00  0.00000000E+00
  0.00000000E+00  0.00000000E+00  0.00000000E+00
  0.00000000E+00  0.00000000E+00  0.00000000E+00
  0.00000000E+00  0.00000000E+00  0.00000000E+00
  0.00000000E+00  0.00000000E+00  0.00000000E+00
  0.00000000E+00  0.00000000E+00  0.00000000E+00
  0.00000000E+00  0.00000000E+00  0.00000000E+00
  0.00000000E+00  0.00000000E+00  0.00000000E+00
  0.00000000E+00  0.00000000E+00  0.00000000E+00
  0.00000000E+00  0.00000000E+00  0.00000000E+00
  0.00000000E+00  0.00000000E+00  0.00000000E+00
  0.00000000E+00  0.00000000E+00  0.00000000E+00
  0.00000000E+00  0.00000000E+00  0.00000000E+00
  0.00000000E+00  0.00000000E+00  0.00000000E+00
