Title                                   
   1.00000000000000     
     9.8694509999999998    0.0000000000000000    0.0000000000000000
     0.0000000000000000    8.5490480000000009    0.0000000000000000
     0.0000000000000000    0.0000000000000000   20.0000000000000000
    27     4     1
Selective dynamics
Direct
  0.0559083411783850  0.0922989050555836  0.0875901394902255   T   T   T
  0.9311942557077124  0.1744551913226108  0.0890811708023306   T   T   T
  0.0574268274986466  0.9245614546994417  0.0872305663415061   T   T   T
  0.9302043934723441  0.3416456051797694  0.0912907966217857   T   T   T
  0.0568057597666741  0.5899524441406763  0.0873812257501081   T   T   T
  0.9326753910274153  0.6733196029321011  0.0895554864174862   T   T   T
  0.0565015709141686  0.4226386998488637  0.0892678614513454   T   T   T
  0.9331160103666628  0.8403384093197740  0.0889257512095994   T   T   T
  0.3057400691779636  0.0884193274212997  0.0891659605424669   T   T   T
  0.1818094974584002  0.1733007228868224  0.0886332006452353   T   T   T
  0.1831741576214752  0.3401902281361840  0.0902896218916225   T   T   T
  0.3046576846660177  0.5923768795894381  0.0960579401288426   T   T   T
  0.1806100414401162  0.6740224650532265  0.0884630307679968   T   T   T
  0.3096757586847054  0.4249932842707144  0.0954460298977467   T   T   T
  0.1809275272810355  0.8409222323330582  0.0882970935843545   T   T   T
  0.5569704679179603  0.0850016552373809  0.0943115334138174   T   T   T
  0.4306940220381815  0.1678777353398504  0.0926434626455612   T   T   T
  0.5552968749043241  0.9174763121632992  0.0978606328624961   T   T   T
  0.4328258772896848  0.3335197848505549  0.0980021821567445   T   T   T
  0.4260679036877275  0.8397462490239870  0.0981047364415751   T   T   T
  0.8069343831141039  0.0894107388618549  0.0896093142714893   T   T   T
  0.6809394387978310  0.1690311071694525  0.0929734903709524   T   T   T
  0.8076901814803062  0.9235788851669048  0.0907480053079410   T   T   T
  0.6791745114985471  0.3353707300837530  0.0987782975623455   T   T   T
  0.8085288696014276  0.5932032527254194  0.0983729373729194   T   T   T
  0.8028700116348656  0.4247879948761590  0.0972744700833047   T   T   T
  0.6849587645225674  0.8383956001648499  0.0990568798568128   T   T   T
  0.4181421331983144  0.6830434832609081  0.1089589342842908   T   T   T
  0.5554464536507422  0.4065182131526128  0.1080414352220027   T   T   T
  0.6935369823794036  0.6801180068853870  0.1110744130856990   T   T   T
  0.3052079424107645  0.9235511725830808  0.0898046151403809   T   T   T
  0.5539268956115303  0.5861796262649841  0.1733837843790307   T   T   T
 
  0.00000000E+00  0.00000000E+00  0.00000000E+00
  0.00000000E+00  0.00000000E+00  0.00000000E+00
  0.00000000E+00  0.00000000E+00  0.00000000E+00
  0.00000000E+00  0.00000000E+00  0.00000000E+00
  0.00000000E+00  0.00000000E+00  0.00000000E+00
  0.00000000E+00  0.00000000E+00  0.00000000E+00
  0.00000000E+00  0.00000000E+00  0.00000000E+00
  0.00000000E+00  0.00000000E+00  0.00000000E+00
  0.00000000E+00  0.00000000E+00  0.00000000E+00
  0.00000000E+00  0.00000000E+00  0.00000000E+00
  0.00000000E+00  0.00000000E+00  0.00000000E+00
  0.00000000E+00  0.00000000E+00  0.00000000E+00
  0.00000000E+00  0.00000000E+00  0.00000000E+00
  0.00000000E+00  0.00000000E+00  0.00000000E+00
  0.00000000E+00  0.00000000E+00  0.00000000E+00
  0.00000000E+00  0.00000000E+00  0.00000000E+00
  0.00000000E+00  0.00000000E+00  0.00000000E+00
  0.00000000E+00  0.00000000E+00  0.00000000E+00
  0.00000000E+00  0.00000000E+00  0.00000000E+00
  0.00000000E+00  0.00000000E+00  0.00000000E+00
  0.00000000E+00  0.00000000E+00  0.00000000E+00
  0.00000000E+00  0.00000000E+00  0.00000000E+00
  0.00000000E+00  0.00000000E+00  0.00000000E+00
  0.00000000E+00  0.00000000E+00  0.00000000E+00
  0.00000000E+00  0.00000000E+00  0.00000000E+00
  0.00000000E+00  0.00000000E+00  0.00000000E+00
  0.00000000E+00  0.00000000E+00  0.00000000E+00
  0.00000000E+00  0.00000000E+00  0.00000000E+00
  0.00000000E+00  0.00000000E+00  0.00000000E+00
  0.00000000E+00  0.00000000E+00  0.00000000E+00
  0.00000000E+00  0.00000000E+00  0.00000000E+00
  0.00000000E+00  0.00000000E+00  0.00000000E+00
