Title                                   
   1.00000000000000     
     4.9440799999999996    0.0000000000000000    0.0000000000000000
     0.0000000000000000   17.1295089999999988    0.0000000000000000
     0.0000000000000000    0.0000000000000000   20.0000000000000000
    27     3     1
Selective dynamics
Direct
  0.0014925804625837  0.1046852249665350  0.2976968070599690   T   T   T
  0.2503272110967779  0.1472024745859266  0.2983169504376994   T   T   T
  0.2503090974756661  0.2316715755837680  0.2998432426894518   T   T   T
 -0.0028042230807132  0.2721505249039221  0.3006989775707924   T   T   T
  0.0008185897089399  0.6035702169788796  0.3012984277936701   T   T   T
  0.2503500190523052  0.7279494107029769  0.2989935034243889   T   T   T
  0.0016859366984572  0.8535494754133253  0.2973205208882150   T   T   T
  0.2503155834619784  0.8955782390747260  0.2969652886297476   T   T   T
  0.2503097702817316  0.9792771343101989  0.2967553976192794   T   T   T
  0.0017537557467913  0.7698601523140959  0.2983868271870992   T   T   T
  0.4991455346222954  0.1046861157390365  0.2976957260401293   T   T   T
  0.7503217916010294  0.1461494848483791  0.2982780489749542   T   T   T
  0.7502972800486368  0.2288835717296170  0.2997869857571015   T   T   T
  0.4996828680630649  0.0211047698349425  0.2969164695908939   T   T   T
  0.7503228260902127  0.3923593963360384  0.3028139250333966   T   T   T
  0.7503276803061456  0.4792372199855501  0.3030461839205836   T   T   T
  0.5034467592449229  0.2721403726796053  0.3007019020421249   T   T   T
  0.4998216872505086  0.6035715797494330  0.3012867729038002   T   T   T
  0.7503370136386833  0.7286768306014478  0.2990641035243164   T   T   T
  0.4989805510784067  0.8535498931635732  0.2973101194839113   T   T   T
  0.7503376200779841  0.8954051916452963  0.2969469141175529   T   T   T
  0.7503243260773750  0.9789435115729700  0.2967295505896855   T   T   T
  0.4989309870826945  0.7698612228770780  0.2983771425176180   T   T   T
  0.7503172168189681  0.6464286765545179  0.3005565268517788   T   T   T
  0.0009488796499131  0.0211053205531761  0.2969156427031142   T   T   T
  0.5100216672932474  0.5225477078914578  0.3024716889320334   T   T   T
  0.9906303010390917  0.5225512280131043  0.3024797513211044   T   T   T
  0.5177108812632626  0.3516495725858126  0.3023437949423947   T   T   T
 -0.0171103687656401  0.3516578370316284  0.3023375497670368   T   T   T
  0.2503249695430638  0.6456708553958103  0.3003979787341383   T   T   T
  0.2503282070716175  0.4396672123771681  0.3023272789519707   T   T   T
 
  0.00000000E+00  0.00000000E+00  0.00000000E+00
  0.00000000E+00  0.00000000E+00  0.00000000E+00
  0.00000000E+00  0.00000000E+00  0.00000000E+00
  0.00000000E+00  0.00000000E+00  0.00000000E+00
  0.00000000E+00  0.00000000E+00  0.00000000E+00
  0.00000000E+00  0.00000000E+00  0.00000000E+00
  0.00000000E+00  0.00000000E+00  0.00000000E+00
  0.00000000E+00  0.00000000E+00  0.00000000E+00
  0.00000000E+00  0.00000000E+00  0.00000000E+00
  0.00000000E+00  0.00000000E+00  0.00000000E+00
  0.00000000E+00  0.00000000E+00  0.00000000E+00
  0.00000000E+00  0.00000000E+00  0.00000000E+00
  0.00000000E+00  0.00000000E+00  0.00000000E+00
  0.00000000E+00  0.00000000E+00  0.00000000E+00
  0.00000000E+00  0.00000000E+00  0.00000000E+00
  0.00000000E+00  0.00000000E+00  0.00000000E+00
  0.00000000E+00  0.00000000E+00  0.00000000E+00
  0.00000000E+00  0.00000000E+00  0.00000000E+00
  0.00000000E+00  0.00000000E+00  0.00000000E+00
  0.00000000E+00  0.00000000E+00  0.00000000E+00
  0.00000000E+00  0.00000000E+00  0.00000000E+00
  0.00000000E+00  0.00000000E+00  0.00000000E+00
  0.00000000E+00  0.00000000E+00  0.00000000E+00
  0.00000000E+00  0.00000000E+00  0.00000000E+00
  0.00000000E+00  0.00000000E+00  0.00000000E+00
  0.00000000E+00  0.00000000E+00  0.00000000E+00
  0.00000000E+00  0.00000000E+00  0.00000000E+00
  0.00000000E+00  0.00000000E+00  0.00000000E+00
  0.00000000E+00  0.00000000E+00  0.00000000E+00
  0.00000000E+00  0.00000000E+00  0.00000000E+00
  0.00000000E+00  0.00000000E+00  0.00000000E+00
