Title                                   
   1.00000000000000     
     4.9440799999999996    0.0000000000000000    0.0000000000000000
     0.0000000000000000    8.5647549999999999    0.0000000000000000
     0.0000000000000000    0.0000000000000000   20.0000000000000000
    12     3     1
Selective dynamics
Direct
 -0.0081144936297590  0.2902772030289701  0.0912283678319652   T   T   T
  0.2499221406949397  0.0445901650810644  0.0877673979762374   T   T   T
  0.0085139737602266  0.7970116612964151  0.1003064307250804   T   T   T
  0.0016213412568235  0.9612077288490691  0.0872253697678578   T   T   T
  0.7456463683588478  0.2065033569742752  0.0841662095808974   T   T   T
  0.4983424155259535  0.2904133101329074  0.0941484450657522   T   T   T
  0.7505937130143030  0.0415133740813441  0.0820880029250792   T   T   T
  0.7577756568112239  0.7066581412692110  0.1044228725220784   T   T   T
  0.5022497466945081  0.7971583175507645  0.1009969077903735   T   T   T
  0.7523109496571553  0.5352687657184224  0.1081620058651726   T   T   T
  0.5014545325995300  0.9612683977596398  0.0882297086658213   T   T   T
  0.5101349724970454  0.4468704331151837  0.1163985125363637   T   T   T
 -0.0113585581759394  0.4448024751852765  0.1046413672974493   T   T   T
  0.2566739270730025  0.7288737802477988  0.1143444967785733   T   T   T
  0.2465167398783540  0.2094349054008740  0.0893763935398911   T   T   T
  0.2377165739837847  0.5381479843087830  0.1590095111314164   T   T   T
 
  0.00000000E+00  0.00000000E+00  0.00000000E+00
  0.00000000E+00  0.00000000E+00  0.00000000E+00
  0.00000000E+00  0.00000000E+00  0.00000000E+00
  0.00000000E+00  0.00000000E+00  0.00000000E+00
  0.00000000E+00  0.00000000E+00  0.00000000E+00
  0.00000000E+00  0.00000000E+00  0.00000000E+00
  0.00000000E+00  0.00000000E+00  0.00000000E+00
  0.00000000E+00  0.00000000E+00  0.00000000E+00
  0.00000000E+00  0.00000000E+00  0.00000000E+00
  0.00000000E+00  0.00000000E+00  0.00000000E+00
  0.00000000E+00  0.00000000E+00  0.00000000E+00
  0.00000000E+00  0.00000000E+00  0.00000000E+00
  0.00000000E+00  0.00000000E+00  0.00000000E+00
  0.00000000E+00  0.00000000E+00  0.00000000E+00
  0.00000000E+00  0.00000000E+00  0.00000000E+00
  0.00000000E+00  0.00000000E+00  0.00000000E+00
