Title                                   
   1.00000000000000     
     9.8694509999999998    0.0000000000000000    0.0000000000000000
     0.0000000000000000    8.5490480000000009    0.0000000000000000
     0.0000000000000000    0.0000000000000000   20.0000000000000000
    26     5     1
Selective dynamics
Direct
  0.0575689087484906  0.0917203728609396  0.0891657350052252   T   T   T
  0.9311339991286169  0.1756764233182985  0.0889843607592558   T   T   T
  0.0588584023011155  0.9232353028214996  0.0887303851733715   T   T   T
  0.9291646641214738  0.3425190332964926  0.0874992851534888   T   T   T
  0.0585323189375062  0.5896734316875442  0.0869033424189175   T   T   T
  0.9333901911572864  0.6719727721315680  0.0861771446474573   T   T   T
  0.0569340186531820  0.4224510584824456  0.0887829665422879   T   T   T
  0.9335288231912662  0.8395261887292284  0.0878032691945577   T   T   T
  0.3076841947000726  0.0861221975364415  0.0926661962430845   T   T   T
  0.1842005720378879  0.1730862241796435  0.0909826671515577   T   T   T
  0.3096821778504733  0.9202337857959945  0.0939787672290767   T   T   T
  0.1841157209531243  0.3393294597495868  0.0924949451527187   T   T   T
  0.3093726311789415  0.5881124000558132  0.1039843028820095   T   T   T
  0.1844024511695057  0.6700808897905336  0.0909968546969197   T   T   T
  0.1841258128717625  0.8376757892667511  0.0912458585359269   T   T   T
  0.5586846099512498  0.0839930311434591  0.0952391726894908   T   T   T
  0.4331203326061782  0.1673820920716724  0.0946815634180879   T   T   T
  0.4377779175793978  0.3342082195172846  0.0931539077114271   T   T   T
  0.4332121591080847  0.8357407544255038  0.1057830453523619   T   T   T
  0.8083080706099824  0.0896092661061759  0.0910799692700755   T   T   T
  0.6818850032167844  0.1700548987053984  0.0917762004517345   T   T   T
  0.8087105055810710  0.9241222086371000  0.0907761543771405   T   T   T
  0.6739666332470512  0.3377098162556229  0.0875129858361711   T   T   T
  0.8034498826011249  0.5960729244652379  0.0857463489889294   T   T   T
  0.6870759414509668  0.8345652635452051  0.0926348116527994   T   T   T
  0.4226471554987491  0.6767125194663683  0.1261885026182739   T   T   T
  0.5544492362245709  0.4123007435387019  0.0867334055637134   T   T   T
  0.6879440541330358  0.6786630756670622  0.0878299949564983   T   T   T
  0.5595945041707034  0.9168472077801437  0.0996752068452779   T   T   T
  0.3109085671516842  0.4212293107468573  0.0981188109001237   T   T   T
  0.8002371980116256  0.4264194774616896  0.0855803940241252   T   T   T
  0.5149723418570417  0.6131998607637390  0.2127684445579302   T   T   T
 
  0.00000000E+00  0.00000000E+00  0.00000000E+00
  0.00000000E+00  0.00000000E+00  0.00000000E+00
  0.00000000E+00  0.00000000E+00  0.00000000E+00
  0.00000000E+00  0.00000000E+00  0.00000000E+00
  0.00000000E+00  0.00000000E+00  0.00000000E+00
  0.00000000E+00  0.00000000E+00  0.00000000E+00
  0.00000000E+00  0.00000000E+00  0.00000000E+00
  0.00000000E+00  0.00000000E+00  0.00000000E+00
  0.00000000E+00  0.00000000E+00  0.00000000E+00
  0.00000000E+00  0.00000000E+00  0.00000000E+00
  0.00000000E+00  0.00000000E+00  0.00000000E+00
  0.00000000E+00  0.00000000E+00  0.00000000E+00
  0.00000000E+00  0.00000000E+00  0.00000000E+00
  0.00000000E+00  0.00000000E+00  0.00000000E+00
  0.00000000E+00  0.00000000E+00  0.00000000E+00
  0.00000000E+00  0.00000000E+00  0.00000000E+00
  0.00000000E+00  0.00000000E+00  0.00000000E+00
  0.00000000E+00  0.00000000E+00  0.00000000E+00
  0.00000000E+00  0.00000000E+00  0.00000000E+00
  0.00000000E+00  0.00000000E+00  0.00000000E+00
  0.00000000E+00  0.00000000E+00  0.00000000E+00
  0.00000000E+00  0.00000000E+00  0.00000000E+00
  0.00000000E+00  0.00000000E+00  0.00000000E+00
  0.00000000E+00  0.00000000E+00  0.00000000E+00
  0.00000000E+00  0.00000000E+00  0.00000000E+00
  0.00000000E+00  0.00000000E+00  0.00000000E+00
  0.00000000E+00  0.00000000E+00  0.00000000E+00
  0.00000000E+00  0.00000000E+00  0.00000000E+00
  0.00000000E+00  0.00000000E+00  0.00000000E+00
  0.00000000E+00  0.00000000E+00  0.00000000E+00
  0.00000000E+00  0.00000000E+00  0.00000000E+00
  0.00000000E+00  0.00000000E+00  0.00000000E+00
