Title                                   
   1.00000000000000     
     9.8694509999999998    0.0000000000000000    0.0000000000000000
     0.0000000000000000    8.5490480000000009    0.0000000000000000
     0.0000000000000000    0.0000000000000000   20.0000000000000000
    27     4     1
Selective dynamics
Direct
  0.0558313388496181  0.0914276955354676  0.0856814158001509   T   T   T
  0.9298271046207603  0.1748918942570759  0.0882628509239844   T   T   T
  0.0564364108885846  0.9228642160491268  0.0835570187782018   T   T   T
  0.9298040912762526  0.3410955106142618  0.0918867014650411   T   T   T
  0.0560573522458586  0.5890481896803156  0.0860237814668539   T   T   T
  0.9317455170160063  0.6713266926082124  0.0857502240387539   T   T   T
  0.0556200711861867  0.4225026176912768  0.0905799306075406   T   T   T
  0.9314717111377295  0.8394890408017646  0.0848982084213668   T   T   T
  0.3052922729662697  0.0888536404728162  0.0874943788602950   T   T   T
  0.1815566914129216  0.1735405986257874  0.0883500790980248   T   T   T
  0.3069140618723227  0.9229093359422567  0.0867400925780850   T   T   T
  0.1808337745684037  0.3394688957829853  0.0925865675559293   T   T   T
  0.3043819430541160  0.5884819301335958  0.0978415662277931   T   T   T
  0.1806314075427493  0.6699472015095386  0.0866205494927850   T   T   T
  0.1820920872307622  0.8382692917095218  0.0846233423448084   T   T   T
  0.5563098868209625  0.0872136308273431  0.0950036969471791   T   T   T
  0.4303492837663664  0.1695649153514340  0.0936569166430484   T   T   T
  0.4305398291455951  0.3352181394689322  0.1029125482733698   T   T   T
  0.4295374320604792  0.8383546098816055  0.0965834838725795   T   T   T
  0.8066583371487582  0.0899113761372675  0.0877644504408331   T   T   T
  0.6814699148333406  0.1713159475151552  0.0933848689805793   T   T   T
  0.8065458710512116  0.9242378738068411  0.0875703640832209   T   T   T
  0.6791940932863713  0.3363866446000756  0.1017373074400703   T   T   T
  0.8075989916730492  0.5919634715273704  0.0945476747821288   T   T   T
  0.6849746251219738  0.8395585549030645  0.0961015505929106   T   T   T
  0.4220549584666147  0.6761686047225312  0.1119230875633593   T   T   T
  0.5546294601218077  0.4112163336609854  0.1180303823561199   T   T   T
  0.6927964529194245  0.6790586786070227  0.1080621938276836   T   T   T
  0.5570800683661125  0.9178993983564716  0.0971307061602244   T   T   T
  0.3059872237631830  0.4210280673290347  0.0995014211747706   T   T   T
  0.8034540859576255  0.4248463446671614  0.0977698265833556   T   T   T
  0.5619626496285882  0.6021866572237032  0.1830978126189687   T   T   T
 
  0.00000000E+00  0.00000000E+00  0.00000000E+00
  0.00000000E+00  0.00000000E+00  0.00000000E+00
  0.00000000E+00  0.00000000E+00  0.00000000E+00
  0.00000000E+00  0.00000000E+00  0.00000000E+00
  0.00000000E+00  0.00000000E+00  0.00000000E+00
  0.00000000E+00  0.00000000E+00  0.00000000E+00
  0.00000000E+00  0.00000000E+00  0.00000000E+00
  0.00000000E+00  0.00000000E+00  0.00000000E+00
  0.00000000E+00  0.00000000E+00  0.00000000E+00
  0.00000000E+00  0.00000000E+00  0.00000000E+00
  0.00000000E+00  0.00000000E+00  0.00000000E+00
  0.00000000E+00  0.00000000E+00  0.00000000E+00
  0.00000000E+00  0.00000000E+00  0.00000000E+00
  0.00000000E+00  0.00000000E+00  0.00000000E+00
  0.00000000E+00  0.00000000E+00  0.00000000E+00
  0.00000000E+00  0.00000000E+00  0.00000000E+00
  0.00000000E+00  0.00000000E+00  0.00000000E+00
  0.00000000E+00  0.00000000E+00  0.00000000E+00
  0.00000000E+00  0.00000000E+00  0.00000000E+00
  0.00000000E+00  0.00000000E+00  0.00000000E+00
  0.00000000E+00  0.00000000E+00  0.00000000E+00
  0.00000000E+00  0.00000000E+00  0.00000000E+00
  0.00000000E+00  0.00000000E+00  0.00000000E+00
  0.00000000E+00  0.00000000E+00  0.00000000E+00
  0.00000000E+00  0.00000000E+00  0.00000000E+00
  0.00000000E+00  0.00000000E+00  0.00000000E+00
  0.00000000E+00  0.00000000E+00  0.00000000E+00
  0.00000000E+00  0.00000000E+00  0.00000000E+00
  0.00000000E+00  0.00000000E+00  0.00000000E+00
  0.00000000E+00  0.00000000E+00  0.00000000E+00
  0.00000000E+00  0.00000000E+00  0.00000000E+00
  0.00000000E+00  0.00000000E+00  0.00000000E+00
