Title                                   
   1.00000000000000     
     9.8694509999999998    0.0000000000000000    0.0000000000000000
     0.0000000000000000    8.5490480000000009    0.0000000000000000
     0.0000000000000000    0.0000000000000000   20.0000000000000000
    31     1
Selective dynamics
Direct
  0.0562453287218447  0.0898615373448775  0.0818274746467756   T   T   T
  0.9314058548886719  0.1729811891223956  0.0843686905922233   T   T   T
  0.0562193009332522  0.9229746759968046  0.0812891316994816   T   T   T
  0.9309698384251722  0.3395670133967121  0.0880151118637161   T   T   T
  0.0562367585013741  0.5888810007426383  0.0844597727869308   T   T   T
  0.9323471242529641  0.6725632941707169  0.0865234748302652   T   T   T
  0.0562203150677757  0.4225195957958806  0.0860743077363966   T   T   T
  0.9316025162254090  0.8394735950951432  0.0841485882728688   T   T   T
  0.3054030275114391  0.0894632811168944  0.0863667030815874   T   T   T
  0.1810712852443224  0.1730042724147621  0.0843424977454873   T   T   T
  0.3051182170199009  0.9236305896520427  0.0877169144098677   T   T   T
  0.1814858282271902  0.3395946576628884  0.0880055497599528   T   T   T
  0.3026324317337025  0.5901187570533318  0.0990375846845008   T   T   T
  0.1801297552124061  0.6725725538765849  0.0865693822270706   T   T   T
  0.3052785664283262  0.4219953122679336  0.0976288860044013   T   T   T
  0.1808233992738676  0.8394922337172650  0.0841996575189057   T   T   T
  0.5562301881853399  0.0878907334179096  0.0937826023200770   T   T   T
  0.4304177147627019  0.1708591516913682  0.0924424965993621   T   T   T
  0.5562058896596553  0.9224824573632407  0.0988621979230930   T   T   T
  0.4302005868808867  0.3354246301558001  0.1019878608996172   T   T   T
  0.4197891053579431  0.6794217551330082  0.1135270011371125   T   T   T
  0.5562230286785605  0.4087306502948653  0.1159098045601048   T   T   T
  0.4283165805859643  0.8415401683928070  0.0999915289765379   T   T   T
  0.8070669802727549  0.0894455679115162  0.0863728264845371   T   T   T
  0.6820585616882245  0.1708376867999119  0.0924417813525052   T   T   T
  0.8073055396466849  0.9236147309709929  0.0876534456341131   T   T   T
  0.6822405538542731  0.3354176070234201  0.1019690257438332   T   T   T
  0.8098654141037444  0.5900790123322278  0.0989387167003847   T   T   T
  0.6927117695302416  0.6794019879757309  0.1132931347650845   T   T   T
  0.8071693399544554  0.4219621198973409  0.0975883483789233   T   T   T
  0.6840877993253429  0.8415190664875728  0.0998627798396951   T   T   T
  0.5565603998456135  0.5929251147254241  0.1804777208246217   T   T   T
 
  0.00000000E+00  0.00000000E+00  0.00000000E+00
  0.00000000E+00  0.00000000E+00  0.00000000E+00
  0.00000000E+00  0.00000000E+00  0.00000000E+00
  0.00000000E+00  0.00000000E+00  0.00000000E+00
  0.00000000E+00  0.00000000E+00  0.00000000E+00
  0.00000000E+00  0.00000000E+00  0.00000000E+00
  0.00000000E+00  0.00000000E+00  0.00000000E+00
  0.00000000E+00  0.00000000E+00  0.00000000E+00
  0.00000000E+00  0.00000000E+00  0.00000000E+00
  0.00000000E+00  0.00000000E+00  0.00000000E+00
  0.00000000E+00  0.00000000E+00  0.00000000E+00
  0.00000000E+00  0.00000000E+00  0.00000000E+00
  0.00000000E+00  0.00000000E+00  0.00000000E+00
  0.00000000E+00  0.00000000E+00  0.00000000E+00
  0.00000000E+00  0.00000000E+00  0.00000000E+00
  0.00000000E+00  0.00000000E+00  0.00000000E+00
  0.00000000E+00  0.00000000E+00  0.00000000E+00
  0.00000000E+00  0.00000000E+00  0.00000000E+00
  0.00000000E+00  0.00000000E+00  0.00000000E+00
  0.00000000E+00  0.00000000E+00  0.00000000E+00
  0.00000000E+00  0.00000000E+00  0.00000000E+00
  0.00000000E+00  0.00000000E+00  0.00000000E+00
  0.00000000E+00  0.00000000E+00  0.00000000E+00
  0.00000000E+00  0.00000000E+00  0.00000000E+00
  0.00000000E+00  0.00000000E+00  0.00000000E+00
  0.00000000E+00  0.00000000E+00  0.00000000E+00
  0.00000000E+00  0.00000000E+00  0.00000000E+00
  0.00000000E+00  0.00000000E+00  0.00000000E+00
  0.00000000E+00  0.00000000E+00  0.00000000E+00
  0.00000000E+00  0.00000000E+00  0.00000000E+00
  0.00000000E+00  0.00000000E+00  0.00000000E+00
  0.00000000E+00  0.00000000E+00  0.00000000E+00
