Title                                   
   1.00000000000000     
     4.9440799999999996    0.0000000000000000    0.0000000000000000
     0.0000000000000000   17.1295089999999988    0.0000000000000000
     0.0000000000000000    0.0000000000000000   20.0000000000000000
    28     3     1
Selective dynamics
Direct
 -0.0009078225040571  0.1045592679485672  0.2895043722868153   T   T   T
  0.2492940960797944  0.1463031171728507  0.2921290406484001   T   T   T
  0.2497660869309569  0.2296074670158791  0.2991920046873608   T   T   T
  0.0028493759789560  0.3541067256381654  0.3144645603776780   T   T   T
 -0.0003563232219520  0.2711625704787026  0.3026441876876730   T   T   T
 -0.0092815066368939  0.6020033209733319  0.2970995156347253   T   T   T
  0.2467703932290563  0.7269024702191127  0.2926480353955709   T   T   T
 -0.0018048331382704  0.8534224326514579  0.2868093644315465   T   T   T
  0.2477623010107917  0.8955224253494841  0.2865142650545736   T   T   T
  0.2484190701389811  0.9791143110148927  0.2863833451067779   T   T   T
 -0.0020789817233301  0.7697618882730394  0.2893031190931440   T   T   T
  0.4992394789119352  0.1045723245473895  0.2895421059124199   T   T   T
  0.7493946386378472  0.1463785286548769  0.2913082246303575   T   T   T
  0.7500857489013522  0.2298291682867332  0.2972062105859807   T   T   T
  0.4987331078202937  0.0209300405302166  0.2869287829540368   T   T   T
  0.4976794751845770  0.3537362502756403  0.3146271885620323   T   T   T
  0.7503965360100738  0.3982288647758792  0.3151760237675886   T   T   T
  0.7526946175051539  0.4851250929725273  0.3113952686882659   T   T   T
  0.5004985517804339  0.2710546140324117  0.3024825598300627   T   T   T
  0.5013094413192988  0.6037598429680499  0.3065725831156187   T   T   T
  0.7465499027197748  0.7290135313675208  0.2915838130751462   T   T   T
  0.4969393288272054  0.8534799405926563  0.2875469238431233   T   T   T
  0.7477614949114347  0.8951840004368338  0.2863638895053082   T   T   T
  0.7484114648740021  0.9789824221026019  0.2861907650627568   T   T   T
  0.4959201047528407  0.7698897578137076  0.2906779411425380   T   T   T
  0.7465423525203340  0.6460416892464853  0.2970645876481538   T   T   T
  0.2462273804613226  0.6430596345208986  0.2987760030605540   T   T   T
 -0.0015439464526121  0.0209279336643035  0.2868157044857112   T   T   T
  0.5219205380216178  0.5265992194421637  0.3253031317074035   T   T   T
  0.9819540153014986  0.5225195731291230  0.2947503881675631   T   T   T
  0.2507600012516106  0.3882244665034305  0.3274272592513645   T   T   T
  0.2849169105959784  0.4785481074010572  0.3981338345996993   T   T   T
 
  0.00000000E+00  0.00000000E+00  0.00000000E+00
  0.00000000E+00  0.00000000E+00  0.00000000E+00
  0.00000000E+00  0.00000000E+00  0.00000000E+00
  0.00000000E+00  0.00000000E+00  0.00000000E+00
  0.00000000E+00  0.00000000E+00  0.00000000E+00
  0.00000000E+00  0.00000000E+00  0.00000000E+00
  0.00000000E+00  0.00000000E+00  0.00000000E+00
  0.00000000E+00  0.00000000E+00  0.00000000E+00
  0.00000000E+00  0.00000000E+00  0.00000000E+00
  0.00000000E+00  0.00000000E+00  0.00000000E+00
  0.00000000E+00  0.00000000E+00  0.00000000E+00
  0.00000000E+00  0.00000000E+00  0.00000000E+00
  0.00000000E+00  0.00000000E+00  0.00000000E+00
  0.00000000E+00  0.00000000E+00  0.00000000E+00
  0.00000000E+00  0.00000000E+00  0.00000000E+00
  0.00000000E+00  0.00000000E+00  0.00000000E+00
  0.00000000E+00  0.00000000E+00  0.00000000E+00
  0.00000000E+00  0.00000000E+00  0.00000000E+00
  0.00000000E+00  0.00000000E+00  0.00000000E+00
  0.00000000E+00  0.00000000E+00  0.00000000E+00
  0.00000000E+00  0.00000000E+00  0.00000000E+00
  0.00000000E+00  0.00000000E+00  0.00000000E+00
  0.00000000E+00  0.00000000E+00  0.00000000E+00
  0.00000000E+00  0.00000000E+00  0.00000000E+00
  0.00000000E+00  0.00000000E+00  0.00000000E+00
  0.00000000E+00  0.00000000E+00  0.00000000E+00
  0.00000000E+00  0.00000000E+00  0.00000000E+00
  0.00000000E+00  0.00000000E+00  0.00000000E+00
  0.00000000E+00  0.00000000E+00  0.00000000E+00
  0.00000000E+00  0.00000000E+00  0.00000000E+00
  0.00000000E+00  0.00000000E+00  0.00000000E+00
  0.00000000E+00  0.00000000E+00  0.00000000E+00
