Title                                   
   1.00000000000000     
     4.9440799999999996    0.0000000000000000    0.0000000000000000
     0.0000000000000000   17.1295089999999988    0.0000000000000000
     0.0000000000000000    0.0000000000000000   20.0000000000000000
    27     3     1
Selective dynamics
Direct
  0.0039614943437319  0.1058055598293547  0.2984730439131200   T   T   T
  0.2533032444245296  0.1486840071725265  0.2988182778480895   T   T   T
  0.2546930958442167  0.2336362008174230  0.2998848160235200   T   T   T
  0.0018222784624615  0.2742272190751801  0.3024562003686790   T   T   T
 -0.0081931178996791  0.6001538741212276  0.2959667321287440   T   T   T
  0.2464885759691687  0.7261853680923205  0.2987876001831667   T   T   T
 -0.0006329364931810  0.8532863536754235  0.2968364141450159   T   T   T
  0.2494890891245606  0.8954721641056497  0.2970176245916960   T   T   T
  0.2510431733923292  0.9794388462974201  0.2971097587553793   T   T   T
 -0.0018981549045175  0.7693002611833145  0.2973665612772743   T   T   T
  0.5019408454562280  0.1058820263063021  0.2978020665754287   T   T   T
  0.7535475938198639  0.1471926273845927  0.2984935060190581   T   T   T
  0.7550346506168630  0.2309690420166976  0.2993399759812568   T   T   T
  0.5009164179719133  0.0217004189025203  0.2971855953959197   T   T   T
  0.7535048733755646  0.3922382057127091  0.2986693818626389   T   T   T
  0.7495160817054042  0.4812017946324415  0.2999734348722492   T   T   T
  0.5088284396383750  0.2741817106460499  0.2972117852371962   T   T   T
  0.4974001153054414  0.6010798100271567  0.3065049510145491   T   T   T
  0.7475939651277796  0.7276491747430371  0.2990437577842199   T   T   T
  0.4985177789371605  0.8531703161352195  0.2976347145381910   T   T   T
  0.7493564990248799  0.8953702895941892  0.2969935589852500   T   T   T
  0.7509653722744613  0.9796141885606146  0.2970405944365885   T   T   T
  0.4969298927722872  0.7690675422698692  0.2990755495983634   T   T   T
  0.7453773209377403  0.6438529943520183  0.3007357124606299   T   T   T
  0.2453760151552818  0.6420758810580172  0.3003128665201753   T   T   T
  0.0020464918412665  0.0216524425752072  0.2974614201022150   T   T   T
  0.5145792840763611  0.5191905816701199  0.3179808401958771   T   T   T
  0.9819434983743213  0.5208227611558222  0.2856767189411026   T   T   T
  0.5199255585305309  0.3542252664672955  0.2897878545220151   T   T   T
 -0.0128189727105537  0.3547970004725403  0.3093667144664754   T   T   T
  0.2494485355052113  0.4392180709477363  0.3160519712558670   T   T   T
 
  0.00000000E+00  0.00000000E+00  0.00000000E+00
  0.00000000E+00  0.00000000E+00  0.00000000E+00
  0.00000000E+00  0.00000000E+00  0.00000000E+00
  0.00000000E+00  0.00000000E+00  0.00000000E+00
  0.00000000E+00  0.00000000E+00  0.00000000E+00
  0.00000000E+00  0.00000000E+00  0.00000000E+00
  0.00000000E+00  0.00000000E+00  0.00000000E+00
  0.00000000E+00  0.00000000E+00  0.00000000E+00
  0.00000000E+00  0.00000000E+00  0.00000000E+00
  0.00000000E+00  0.00000000E+00  0.00000000E+00
  0.00000000E+00  0.00000000E+00  0.00000000E+00
  0.00000000E+00  0.00000000E+00  0.00000000E+00
  0.00000000E+00  0.00000000E+00  0.00000000E+00
  0.00000000E+00  0.00000000E+00  0.00000000E+00
  0.00000000E+00  0.00000000E+00  0.00000000E+00
  0.00000000E+00  0.00000000E+00  0.00000000E+00
  0.00000000E+00  0.00000000E+00  0.00000000E+00
  0.00000000E+00  0.00000000E+00  0.00000000E+00
  0.00000000E+00  0.00000000E+00  0.00000000E+00
  0.00000000E+00  0.00000000E+00  0.00000000E+00
  0.00000000E+00  0.00000000E+00  0.00000000E+00
  0.00000000E+00  0.00000000E+00  0.00000000E+00
  0.00000000E+00  0.00000000E+00  0.00000000E+00
  0.00000000E+00  0.00000000E+00  0.00000000E+00
  0.00000000E+00  0.00000000E+00  0.00000000E+00
  0.00000000E+00  0.00000000E+00  0.00000000E+00
  0.00000000E+00  0.00000000E+00  0.00000000E+00
  0.00000000E+00  0.00000000E+00  0.00000000E+00
  0.00000000E+00  0.00000000E+00  0.00000000E+00
  0.00000000E+00  0.00000000E+00  0.00000000E+00
  0.00000000E+00  0.00000000E+00  0.00000000E+00
