Title                                   
   1.00000000000000     
     8.5490480000000009    0.0000000000000000    0.0000000000000000
     0.0000000000000000    8.5490480000000009    0.0000000000000000
     0.0000000000000000    0.0000000000000000   20.0000000000000000
    22     2     1
Selective dynamics
Direct
  0.9095836597264225  0.2081723305749861  0.0954212957925395   T   T   T
  0.9078072092397567  0.5021706851713610  0.0952977572654505   T   T   T
  0.9111937047401021  0.7979788868011791  0.0954384785761529   T   T   T
  0.1968447797180845  0.0835931856733733  0.0954502755115992   T   T   T
  0.0748491660752320  0.2055579602437616  0.0954152393809584   T   T   T
  0.1994334636004268  0.9183343973816022  0.0954880034974264   T   T   T
  0.1595385757155305  0.6464191575587804  0.0953621957310855   T   T   T
  0.0782275144428700  0.5013933156951235  0.0953107693140587   T   T   T
  0.1594342844523195  0.3534686551495637  0.0952893332468819   T   T   T
  0.0764596038853619  0.7953862765352561  0.0954680470170150   T   T   T
  0.4926277882605740  0.0870042766347037  0.0953517205573554   T   T   T
  0.3447304240441859  0.1682131290420227  0.0953393199769985   T   T   T
  0.4933685925530648  0.9165818950426885  0.0953545062599355   T   T   T
  0.3483789121178128  0.8352339877085677  0.0953982454489792   T   T   T
  0.7866112956628727  0.0852334222117541  0.0954477334579628   T   T   T
  0.6376278652820242  0.1683498805135804  0.0953562360860135   T   T   T
  0.7892166408412099  0.9199627059443157  0.0954429424122166   T   T   T
  0.8265947725935644  0.6500842080283077  0.0952926274290365   T   T   T
  0.8264687249367803  0.3571522799140845  0.0953321408205292   T   T   T
  0.6412857372263209  0.8353750452653471  0.0953097496778855   T   T   T
  0.3276824700018042  0.6671179309893914  0.0953158338220883   T   T   T
  0.6583343472027180  0.3364954561933957  0.0952837150595432   T   T   T
  0.3217695326743999  0.3305246370827311  0.0951919753166999   T   T   T
  0.6642606755051776  0.6730646755866663  0.0951752048185759   T   T   T
  0.4930822595013766  0.5019216190574700  0.0951716535229900   T   T   T
 
  0.00000000E+00  0.00000000E+00  0.00000000E+00
  0.00000000E+00  0.00000000E+00  0.00000000E+00
  0.00000000E+00  0.00000000E+00  0.00000000E+00
  0.00000000E+00  0.00000000E+00  0.00000000E+00
  0.00000000E+00  0.00000000E+00  0.00000000E+00
  0.00000000E+00  0.00000000E+00  0.00000000E+00
  0.00000000E+00  0.00000000E+00  0.00000000E+00
  0.00000000E+00  0.00000000E+00  0.00000000E+00
  0.00000000E+00  0.00000000E+00  0.00000000E+00
  0.00000000E+00  0.00000000E+00  0.00000000E+00
  0.00000000E+00  0.00000000E+00  0.00000000E+00
  0.00000000E+00  0.00000000E+00  0.00000000E+00
  0.00000000E+00  0.00000000E+00  0.00000000E+00
  0.00000000E+00  0.00000000E+00  0.00000000E+00
  0.00000000E+00  0.00000000E+00  0.00000000E+00
  0.00000000E+00  0.00000000E+00  0.00000000E+00
  0.00000000E+00  0.00000000E+00  0.00000000E+00
  0.00000000E+00  0.00000000E+00  0.00000000E+00
  0.00000000E+00  0.00000000E+00  0.00000000E+00
  0.00000000E+00  0.00000000E+00  0.00000000E+00
  0.00000000E+00  0.00000000E+00  0.00000000E+00
  0.00000000E+00  0.00000000E+00  0.00000000E+00
  0.00000000E+00  0.00000000E+00  0.00000000E+00
  0.00000000E+00  0.00000000E+00  0.00000000E+00
  0.00000000E+00  0.00000000E+00  0.00000000E+00
