Title                                   
   1.00000000000000     
     4.9440799999999996    0.0000000000000000    0.0000000000000000
     0.0000000000000000    8.5647549999999999    0.0000000000000000
     0.0000000000000000    0.0000000000000000   20.0000000000000000
    11     3     1
Selective dynamics
Direct
  0.2484629272911421  0.2080539494432968  0.1006141126192729   T   T   T
 -0.0042524738096047  0.2942892156596764  0.1004443180581890   T   T   T
  0.2484104355514718  0.0382626468036467  0.1004483629692603   T   T   T
 -0.0036394974672748  0.9561801912913244  0.1001817070201740   T   T   T
  0.7472631160829621  0.2084676964013879  0.1006484391750014   T   T   T
  0.4976870581743684  0.2927970318468311  0.1008447853146576   T   T   T
  0.7488006808559169  0.0417432552246082  0.1005416025744357   T   T   T
  0.7552271003098560  0.7162891405642188  0.1004980995932101   T   T   T
  0.7536814647860555  0.5379193294245147  0.1005529203426309   T   T   T
  0.5028198563727215  0.9540456624115597  0.1007647264572473   T   T   T
  0.5118996957860644  0.4586244109183166  0.1009845795518746   T   T   T
 -0.0107671677419153  0.4540384717119995  0.1001089701958384   T   T   T
 -0.0146703468611051  0.7962289245900158  0.0997322365361532   T   T   T
  0.5172180339302697  0.7938612425429441  0.1012528916565342   T   T   T
  0.2518591167390724  0.6208798311656611  0.1003622479355237   T   T   T
 
  0.00000000E+00  0.00000000E+00  0.00000000E+00
  0.00000000E+00  0.00000000E+00  0.00000000E+00
  0.00000000E+00  0.00000000E+00  0.00000000E+00
  0.00000000E+00  0.00000000E+00  0.00000000E+00
  0.00000000E+00  0.00000000E+00  0.00000000E+00
  0.00000000E+00  0.00000000E+00  0.00000000E+00
  0.00000000E+00  0.00000000E+00  0.00000000E+00
  0.00000000E+00  0.00000000E+00  0.00000000E+00
  0.00000000E+00  0.00000000E+00  0.00000000E+00
  0.00000000E+00  0.00000000E+00  0.00000000E+00
  0.00000000E+00  0.00000000E+00  0.00000000E+00
  0.00000000E+00  0.00000000E+00  0.00000000E+00
  0.00000000E+00  0.00000000E+00  0.00000000E+00
  0.00000000E+00  0.00000000E+00  0.00000000E+00
  0.00000000E+00  0.00000000E+00  0.00000000E+00
