Title                                   
   1.00000000000000     
     9.8694509999999998    0.0000000000000000    0.0000000000000000
     0.0000000000000000    8.5490480000000009    0.0000000000000000
     0.0000000000000000    0.0000000000000000   20.0000000000000000
    27     4     1
Selective dynamics
Direct
  0.0559667866909045  0.0917188382090001  0.0828563141340642   T   T   T
  0.9308862056702343  0.1748370941428694  0.0837976669085548   T   T   T
  0.0578036665668612  0.9244740030839280  0.0829383299907834   T   T   T
  0.9293784454595282  0.3425536284871136  0.0869146512527187   T   T   T
  0.0569924278399970  0.5911055824933112  0.0845996018838270   T   T   T
  0.9326813626509816  0.6742217874638043  0.0867699528201472   T   T   T
  0.0563116952088167  0.4235204615197637  0.0859870365043531   T   T   T
  0.9331667738371402  0.8409127977890416  0.0852630256458480   T   T   T
  0.3057270452388249  0.0882375932366071  0.0885046078006534   T   T   T
  0.1822839227479144  0.1731478538997744  0.0856575846161872   T   T   T
  0.1825118179809950  0.3397814840821007  0.0885665523900290   T   T   T
  0.3036179578225466  0.5894092539335476  0.1020917119563637   T   T   T
  0.1821178533697533  0.6744040857765378  0.0883687863802155   T   T   T
  0.3078421136702810  0.4214734503390374  0.0989841808035779   T   T   T
  0.1822195784899125  0.8412952726329634  0.0862035744191498   T   T   T
  0.5567586650162432  0.0846101182550513  0.0943042155202237   T   T   T
  0.5553339326685113  0.9211332264089660  0.1014979484013659   T   T   T
  0.4309147126639352  0.3304348644129446  0.1036897015709314   T   T   T
  0.4265130454833512  0.8418466081049090  0.1062884487911984   T   T   T
  0.8061083981861890  0.0897082742665080  0.0846667603966882   T   T   T
  0.6796755569524641  0.1699300431227322  0.0897031706897823   T   T   T
  0.8078184664623371  0.9244154316290740  0.0877085729260998   T   T   T
  0.6794410237918261  0.3340281295936899  0.0988652894143434   T   T   T
  0.8085806649446431  0.5942568421061362  0.0976340542522925   T   T   T
  0.8019300104189714  0.4251251873584291  0.0951596178110850   T   T   T
  0.6852802538051096  0.8414525798284722  0.1002855912355410   T   T   T
  0.4158922984429839  0.6830139605847532  0.1222024783289435   T   T   T
  0.5542190168486844  0.3963051210415849  0.1180108543766982   T   T   T
  0.6964383297957946  0.6840335620557952  0.1143530671302168   T   T   T
  0.3060129897393890  0.9256313452488063  0.0901386450996485   T   T   T
  0.4287685021761152  0.1668337092502261  0.0941523793949532   T   T   T
  0.5604454793587673  0.5863938096425221  0.1695106271535314   T   T   T
 
  0.00000000E+00  0.00000000E+00  0.00000000E+00
  0.00000000E+00  0.00000000E+00  0.00000000E+00
  0.00000000E+00  0.00000000E+00  0.00000000E+00
  0.00000000E+00  0.00000000E+00  0.00000000E+00
  0.00000000E+00  0.00000000E+00  0.00000000E+00
  0.00000000E+00  0.00000000E+00  0.00000000E+00
  0.00000000E+00  0.00000000E+00  0.00000000E+00
  0.00000000E+00  0.00000000E+00  0.00000000E+00
  0.00000000E+00  0.00000000E+00  0.00000000E+00
  0.00000000E+00  0.00000000E+00  0.00000000E+00
  0.00000000E+00  0.00000000E+00  0.00000000E+00
  0.00000000E+00  0.00000000E+00  0.00000000E+00
  0.00000000E+00  0.00000000E+00  0.00000000E+00
  0.00000000E+00  0.00000000E+00  0.00000000E+00
  0.00000000E+00  0.00000000E+00  0.00000000E+00
  0.00000000E+00  0.00000000E+00  0.00000000E+00
  0.00000000E+00  0.00000000E+00  0.00000000E+00
  0.00000000E+00  0.00000000E+00  0.00000000E+00
  0.00000000E+00  0.00000000E+00  0.00000000E+00
  0.00000000E+00  0.00000000E+00  0.00000000E+00
  0.00000000E+00  0.00000000E+00  0.00000000E+00
  0.00000000E+00  0.00000000E+00  0.00000000E+00
  0.00000000E+00  0.00000000E+00  0.00000000E+00
  0.00000000E+00  0.00000000E+00  0.00000000E+00
  0.00000000E+00  0.00000000E+00  0.00000000E+00
  0.00000000E+00  0.00000000E+00  0.00000000E+00
  0.00000000E+00  0.00000000E+00  0.00000000E+00
  0.00000000E+00  0.00000000E+00  0.00000000E+00
  0.00000000E+00  0.00000000E+00  0.00000000E+00
  0.00000000E+00  0.00000000E+00  0.00000000E+00
  0.00000000E+00  0.00000000E+00  0.00000000E+00
  0.00000000E+00  0.00000000E+00  0.00000000E+00
