Title                                   
   1.00000000000000     
     4.9440799999999996    0.0000000000000000    0.0000000000000000
     0.0000000000000000   17.1295089999999988    0.0000000000000000
     0.0000000000000000    0.0000000000000000   20.0000000000000000
    28     3     1
Selective dynamics
Direct
  0.0024955130303099  0.1034403436023868  0.2987633662186160   T   T   T
  0.2531301033101352  0.1452236017475443  0.3003620863038897   T   T   T
  0.2535356198880136  0.2284363050069118  0.3040669450610975   T   T   T
  0.0064249320660104  0.3526134536147101  0.3091766001503042   T   T   T
  0.0028032843310622  0.2699548655795788  0.3045955448375322   T   T   T
 -0.0053132848815721  0.6008415318025684  0.2889733542921139   T   T   T
  0.2517448245674897  0.7266593807997999  0.2948568485218708   T   T   T
  0.0028691442222400  0.8527953066981440  0.2956357753997170   T   T   T
  0.2523950043397164  0.8948291413547242  0.2962232156967131   T   T   T
  0.2525162223720021  0.9782569533257587  0.2969780730196560   T   T   T
  0.0034816967351175  0.7694707025354560  0.2945864659026697   T   T   T
  0.5029961211873657  0.1033921272667183  0.2989641972044898   T   T   T
  0.7524397665723777  0.1453813210018247  0.2995508061414650   T   T   T
  0.7523612246086055  0.2287315558332028  0.3021186883492332   T   T   T
  0.5027070434369906  0.0199444076774362  0.2975129446863902   T   T   T
  0.4994451972896466  0.3541610676778362  0.3111994063636129   T   T   T
  0.7545613489004958  0.3975437603431039  0.3071683072884395   T   T   T
  0.7560595862507162  0.4818216054799943  0.2951337223680732   T   T   T
  0.5031822462107161  0.2706885866867370  0.3056100142038587   T   T   T
  0.5082403054871810  0.6035749517782820  0.2974881482515904   T   T   T
  0.7521609663350420  0.7284376993474297  0.2949949090589152   T   T   T
  0.5015032513713193  0.8528348395069428  0.2963138534388913   T   T   T
  0.7520597876908317  0.8945164421285349  0.2962550325317934   T   T   T
  0.7523862220290416  0.9779855958447191  0.2968781559636673   T   T   T
  0.5005288525290758  0.7691637517219484  0.2960837890729640   T   T   T
  0.7520842401940687  0.6460072741972936  0.2946944893174805   T   T   T
  0.2520171476460666  0.6416780438732774  0.2925610549157273   T   T   T
  0.0023014441645575  0.0200728138534411  0.2973186850824113   T   T   T
  0.5297066922823725  0.5233733104337061  0.3119306869865904   T   T   T
  0.9794140226290786  0.5203524830884168  0.2658686390544305   T   T   T
  0.2514207033317897  0.3908793646392168  0.3188717325345404   T   T   T
  0.1631637698721417  0.5054884115523471  0.3618294617812086   T   T   T
 
  0.00000000E+00  0.00000000E+00  0.00000000E+00
  0.00000000E+00  0.00000000E+00  0.00000000E+00
  0.00000000E+00  0.00000000E+00  0.00000000E+00
  0.00000000E+00  0.00000000E+00  0.00000000E+00
  0.00000000E+00  0.00000000E+00  0.00000000E+00
  0.00000000E+00  0.00000000E+00  0.00000000E+00
  0.00000000E+00  0.00000000E+00  0.00000000E+00
  0.00000000E+00  0.00000000E+00  0.00000000E+00
  0.00000000E+00  0.00000000E+00  0.00000000E+00
  0.00000000E+00  0.00000000E+00  0.00000000E+00
  0.00000000E+00  0.00000000E+00  0.00000000E+00
  0.00000000E+00  0.00000000E+00  0.00000000E+00
  0.00000000E+00  0.00000000E+00  0.00000000E+00
  0.00000000E+00  0.00000000E+00  0.00000000E+00
  0.00000000E+00  0.00000000E+00  0.00000000E+00
  0.00000000E+00  0.00000000E+00  0.00000000E+00
  0.00000000E+00  0.00000000E+00  0.00000000E+00
  0.00000000E+00  0.00000000E+00  0.00000000E+00
  0.00000000E+00  0.00000000E+00  0.00000000E+00
  0.00000000E+00  0.00000000E+00  0.00000000E+00
  0.00000000E+00  0.00000000E+00  0.00000000E+00
  0.00000000E+00  0.00000000E+00  0.00000000E+00
  0.00000000E+00  0.00000000E+00  0.00000000E+00
  0.00000000E+00  0.00000000E+00  0.00000000E+00
  0.00000000E+00  0.00000000E+00  0.00000000E+00
  0.00000000E+00  0.00000000E+00  0.00000000E+00
  0.00000000E+00  0.00000000E+00  0.00000000E+00
  0.00000000E+00  0.00000000E+00  0.00000000E+00
  0.00000000E+00  0.00000000E+00  0.00000000E+00
  0.00000000E+00  0.00000000E+00  0.00000000E+00
  0.00000000E+00  0.00000000E+00  0.00000000E+00
  0.00000000E+00  0.00000000E+00  0.00000000E+00
