Title                                   
   1.00000000000000     
     9.8694509999999998    0.0000000000000000    0.0000000000000000
     0.0000000000000000    8.5490480000000009    0.0000000000000000
     0.0000000000000000    0.0000000000000000   20.0000000000000000
    29     2     1
Selective dynamics
Direct
  0.0557796395255703  0.0915424325821816  0.0887663478087108   T   T   T
  0.9309672504364024  0.1719481170251481  0.0920462408137248   T   T   T
  0.0557059637109917  0.9246089835696886  0.0875498950214759   T   T   T
  0.9317273760547855  0.3395575625673340  0.0960143603725485   T   T   T
  0.0561481834617604  0.5905865402312368  0.0898175011457251   T   T   T
  0.9315429917270985  0.6723069867746021  0.0947276958645353   T   T   T
  0.0576488303064150  0.4237575992421689  0.0910003385367514   T   T   T
  0.9307665522796760  0.8386156445748517  0.0917021377397789   T   T   T
  0.3055725444834313  0.0910577361182259  0.0876605508025970   T   T   T
  0.1816334295651968  0.1745295450422938  0.0889288207592955   T   T   T
  0.1839338719834850  0.3430808807969404  0.0896320022808830   T   T   T
  0.3062896231774117  0.5963205356966285  0.0844336466386802   T   T   T
  0.1801977561304365  0.6759047670100446  0.0852327110309796   T   T   T
  0.3093150761858098  0.4281071503538643  0.0912133199251878   T   T   T
  0.1797251612221035  0.8429720178707004  0.0849091124865711   T   T   T
  0.5553772633709155  0.0855008349294806  0.0938569293871443   T   T   T
  0.4317441699830243  0.1721849260573262  0.0915883589474755   T   T   T
  0.5525410774873540  0.9188201909851437  0.0932606424814072   T   T   T
  0.4338063709425705  0.3404800479649439  0.1000220656603789   T   T   T
  0.5582094599528163  0.4098176025274773  0.1195993036010390   T   T   T
  0.4250442691691958  0.8372262820629399  0.0846417492853015   T   T   T
  0.8060185093178237  0.0867889712542561  0.0929144534336875   T   T   T
  0.6813345450143260  0.1688619564820007  0.0976286182029871   T   T   T
  0.8048575333108697  0.9198218173865892  0.0935696774221634   T   T   T
  0.6825982263650445  0.3339851109558336  0.1088662796623591   T   T   T
  0.8084936038841242  0.5887070858314956  0.1076832598126875   T   T   T
  0.6896984659439157  0.6745266723040798  0.1195986818396611   T   T   T
  0.8088949966832991  0.4198794071759383  0.1066143719236855   T   T   T
  0.6789090198433247  0.8346750698535235  0.1014093144032553   T   T   T
  0.4223207429472883  0.6824676838600032  0.0797387158772779   T   T   T
  0.3033889723781935  0.9264859140488414  0.0851577300995625   T   T   T
  0.5594475231553462  0.5851199268642034  0.1838901667325267   T   T   T
 
  0.00000000E+00  0.00000000E+00  0.00000000E+00
  0.00000000E+00  0.00000000E+00  0.00000000E+00
  0.00000000E+00  0.00000000E+00  0.00000000E+00
  0.00000000E+00  0.00000000E+00  0.00000000E+00
  0.00000000E+00  0.00000000E+00  0.00000000E+00
  0.00000000E+00  0.00000000E+00  0.00000000E+00
  0.00000000E+00  0.00000000E+00  0.00000000E+00
  0.00000000E+00  0.00000000E+00  0.00000000E+00
  0.00000000E+00  0.00000000E+00  0.00000000E+00
  0.00000000E+00  0.00000000E+00  0.00000000E+00
  0.00000000E+00  0.00000000E+00  0.00000000E+00
  0.00000000E+00  0.00000000E+00  0.00000000E+00
  0.00000000E+00  0.00000000E+00  0.00000000E+00
  0.00000000E+00  0.00000000E+00  0.00000000E+00
  0.00000000E+00  0.00000000E+00  0.00000000E+00
  0.00000000E+00  0.00000000E+00  0.00000000E+00
  0.00000000E+00  0.00000000E+00  0.00000000E+00
  0.00000000E+00  0.00000000E+00  0.00000000E+00
  0.00000000E+00  0.00000000E+00  0.00000000E+00
  0.00000000E+00  0.00000000E+00  0.00000000E+00
  0.00000000E+00  0.00000000E+00  0.00000000E+00
  0.00000000E+00  0.00000000E+00  0.00000000E+00
  0.00000000E+00  0.00000000E+00  0.00000000E+00
  0.00000000E+00  0.00000000E+00  0.00000000E+00
  0.00000000E+00  0.00000000E+00  0.00000000E+00
  0.00000000E+00  0.00000000E+00  0.00000000E+00
  0.00000000E+00  0.00000000E+00  0.00000000E+00
  0.00000000E+00  0.00000000E+00  0.00000000E+00
  0.00000000E+00  0.00000000E+00  0.00000000E+00
  0.00000000E+00  0.00000000E+00  0.00000000E+00
  0.00000000E+00  0.00000000E+00  0.00000000E+00
  0.00000000E+00  0.00000000E+00  0.00000000E+00
