Title                                   
   1.00000000000000     
     4.9440799999999996    0.0000000000000000    0.0000000000000000
     0.0000000000000000   17.1295089999999988    0.0000000000000000
     0.0000000000000000    0.0000000000000000   20.0000000000000000
    30     1
Selective dynamics
Direct
 -0.0010360573789175  0.1052100173310653  0.2942546217981938   T   T   T
  0.2491155432889982  0.1472968212607934  0.2952702316373818   T   T   T
  0.2487348723035568  0.2304557460055472  0.2991266674939366   T   T   T
  0.0019558403276839  0.2742955537118144  0.3029498923864147   T   T   T
  0.0020562829609306  0.6006268991912062  0.3023879293123327   T   T   T
  0.2491962620500621  0.7275922798090603  0.2944972251081456   T   T   T
 -0.0006324182537580  0.8534363120897552  0.2924173525461968   T   T   T
  0.2497551074540895  0.8955660488744930  0.2921392605392055   T   T   T
  0.2497028282411830  0.9793762474163513  0.2923139348140270   T   T   T
 -0.0009377209314790  0.7696848769420853  0.2935482391870370   T   T   T
  0.5001209543622538  0.1054679379539570  0.2937206782802776   T   T   T
  0.7499281659105468  0.1477425171090086  0.2948120040495840   T   T   T
  0.7501806296926621  0.2318978143264137  0.2979345540323834   T   T   T
  0.4999342799492148  0.0215832505869074  0.2925008174796950   T   T   T
  0.7483294598102825  0.3952828742544748  0.3074083547197680   T   T   T
  0.7483352605340753  0.4796506245386372  0.3072809113526877   T   T   T
  0.4967995007342683  0.2728065002661285  0.2993513134765042   T   T   T
  0.4968727585634123  0.6021162749633214  0.2988419615816350   T   T   T
  0.7500186900734005  0.7271529772483311  0.2940359477251817   T   T   T
  0.4999542530324956  0.8533348660288191  0.2921420502172349   T   T   T
  0.7495680634349864  0.8955162434806339  0.2920526806473501   T   T   T
  0.7495054553837097  0.9793996255069929  0.2922321213495669   T   T   T
  0.5001593440769476  0.7694282552098102  0.2930050577243011   T   T   T
  0.7502443590969258  0.6430007686392527  0.2972543094046475   T   T   T
  0.2487985291504473  0.6444533821230601  0.2984535561895904   T   T   T
 -0.0007326236694423  0.0214799389245194  0.2927760003901396   T   T   T
  0.5020559054809276  0.5195132377459668  0.3050756616103317   T   T   T
  0.9981477261855058  0.5178935340287294  0.3129385366061299   T   T   T
  0.5019469561824544  0.3554441682090814  0.3052855640147429   T   T   T
 -0.0018218172934267  0.3570722663117642  0.3131980680308383   T   T   T
  0.2737506092460060  0.4375641399120155  0.3458544962944902   T   T   T
 
  0.00000000E+00  0.00000000E+00  0.00000000E+00
  0.00000000E+00  0.00000000E+00  0.00000000E+00
  0.00000000E+00  0.00000000E+00  0.00000000E+00
  0.00000000E+00  0.00000000E+00  0.00000000E+00
  0.00000000E+00  0.00000000E+00  0.00000000E+00
  0.00000000E+00  0.00000000E+00  0.00000000E+00
  0.00000000E+00  0.00000000E+00  0.00000000E+00
  0.00000000E+00  0.00000000E+00  0.00000000E+00
  0.00000000E+00  0.00000000E+00  0.00000000E+00
  0.00000000E+00  0.00000000E+00  0.00000000E+00
  0.00000000E+00  0.00000000E+00  0.00000000E+00
  0.00000000E+00  0.00000000E+00  0.00000000E+00
  0.00000000E+00  0.00000000E+00  0.00000000E+00
  0.00000000E+00  0.00000000E+00  0.00000000E+00
  0.00000000E+00  0.00000000E+00  0.00000000E+00
  0.00000000E+00  0.00000000E+00  0.00000000E+00
  0.00000000E+00  0.00000000E+00  0.00000000E+00
  0.00000000E+00  0.00000000E+00  0.00000000E+00
  0.00000000E+00  0.00000000E+00  0.00000000E+00
  0.00000000E+00  0.00000000E+00  0.00000000E+00
  0.00000000E+00  0.00000000E+00  0.00000000E+00
  0.00000000E+00  0.00000000E+00  0.00000000E+00
  0.00000000E+00  0.00000000E+00  0.00000000E+00
  0.00000000E+00  0.00000000E+00  0.00000000E+00
  0.00000000E+00  0.00000000E+00  0.00000000E+00
  0.00000000E+00  0.00000000E+00  0.00000000E+00
  0.00000000E+00  0.00000000E+00  0.00000000E+00
  0.00000000E+00  0.00000000E+00  0.00000000E+00
  0.00000000E+00  0.00000000E+00  0.00000000E+00
  0.00000000E+00  0.00000000E+00  0.00000000E+00
  0.00000000E+00  0.00000000E+00  0.00000000E+00
