Title                                   
   1.00000000000000     
     9.8694509999999998    0.0000000000000000    0.0000000000000000
     0.0000000000000000    8.5490480000000009    0.0000000000000000
     0.0000000000000000    0.0000000000000000   20.0000000000000000
    29     2     1
Selective dynamics
Direct
  0.0563022439954715  0.0914770004999486  0.0793987388746065   T   T   T
  0.9311205541942100  0.1739342370214507  0.0851418954010248   T   T   T
  0.0566881071543491  0.9235412745706492  0.0761715741858942   T   T   T
  0.9296192233245480  0.3407295286351333  0.0930051922196477   T   T   T
  0.0555531972642837  0.5893905405786345  0.0838064786613500   T   T   T
  0.9316681769624096  0.6727290105198864  0.0866251030498958   T   T   T
  0.0569711418690457  0.4234513742213086  0.0891537510828014   T   T   T
  0.9314294956082140  0.8398904076227329  0.0805113310154278   T   T   T
  0.3058757473709107  0.0892561124915945  0.0814727814535292   T   T   T
  0.1823700742773757  0.1745185997357643  0.0830487124793085   T   T   T
  0.3072595471861695  0.9235546942453101  0.0799687791631482   T   T   T
  0.1829027367184918  0.3411114456139608  0.0903966085655650   T   T   T
  0.3037113949346805  0.5916667080313118  0.0973474635189659   T   T   T
  0.1807373281076763  0.6710791633454078  0.0815932442568942   T   T   T
  0.1820238314925164  0.8387293943540971  0.0772327773701539   T   T   T
  0.5560133441733445  0.0848025258698811  0.0935576982364652   T   T   T
  0.4307349006919353  0.1690459344346686  0.0901752655981210   T   T   T
  0.4318252356987635  0.3320914827705555  0.1061619574300481   T   T   T
  0.4279066170134059  0.8393742252540674  0.0959815792196034   T   T   T
  0.8070833461830973  0.0897408899564702  0.0852758213122021   T   T   T
  0.6814960547694981  0.1689251392712723  0.0946582544588683   T   T   T
  0.8065408902008436  0.9241964464258585  0.0841258890310307   T   T   T
  0.6792830557633127  0.3311874484837548  0.1112958276852787   T   T   T
  0.8106540977887345  0.5941254231838937  0.1074525165530367   T   T   T
  0.8059981657009337  0.4226097830158125  0.1071074512045289   T   T   T
  0.6855378247365077  0.8416431482220528  0.1018457721857131   T   T   T
  0.4157435621211464  0.6828903147661678  0.1152152280321140   T   T   T
  0.5520935527356243  0.3961858766616173  0.1303341773093916   T   T   T
  0.7000990162296840  0.6903792663588636  0.1271142131984066   T   T   T
  0.5561890691519964  0.9208568494150758  0.0987893364537965   T   T   T
  0.3058868634728730  0.4220858854598919  0.1002567124749506   T   T   T
  0.5523206031079515  0.5950458689629077  0.1714528683182480   T   T   T
 
  0.00000000E+00  0.00000000E+00  0.00000000E+00
  0.00000000E+00  0.00000000E+00  0.00000000E+00
  0.00000000E+00  0.00000000E+00  0.00000000E+00
  0.00000000E+00  0.00000000E+00  0.00000000E+00
  0.00000000E+00  0.00000000E+00  0.00000000E+00
  0.00000000E+00  0.00000000E+00  0.00000000E+00
  0.00000000E+00  0.00000000E+00  0.00000000E+00
  0.00000000E+00  0.00000000E+00  0.00000000E+00
  0.00000000E+00  0.00000000E+00  0.00000000E+00
  0.00000000E+00  0.00000000E+00  0.00000000E+00
  0.00000000E+00  0.00000000E+00  0.00000000E+00
  0.00000000E+00  0.00000000E+00  0.00000000E+00
  0.00000000E+00  0.00000000E+00  0.00000000E+00
  0.00000000E+00  0.00000000E+00  0.00000000E+00
  0.00000000E+00  0.00000000E+00  0.00000000E+00
  0.00000000E+00  0.00000000E+00  0.00000000E+00
  0.00000000E+00  0.00000000E+00  0.00000000E+00
  0.00000000E+00  0.00000000E+00  0.00000000E+00
  0.00000000E+00  0.00000000E+00  0.00000000E+00
  0.00000000E+00  0.00000000E+00  0.00000000E+00
  0.00000000E+00  0.00000000E+00  0.00000000E+00
  0.00000000E+00  0.00000000E+00  0.00000000E+00
  0.00000000E+00  0.00000000E+00  0.00000000E+00
  0.00000000E+00  0.00000000E+00  0.00000000E+00
  0.00000000E+00  0.00000000E+00  0.00000000E+00
  0.00000000E+00  0.00000000E+00  0.00000000E+00
  0.00000000E+00  0.00000000E+00  0.00000000E+00
  0.00000000E+00  0.00000000E+00  0.00000000E+00
  0.00000000E+00  0.00000000E+00  0.00000000E+00
  0.00000000E+00  0.00000000E+00  0.00000000E+00
  0.00000000E+00  0.00000000E+00  0.00000000E+00
  0.00000000E+00  0.00000000E+00  0.00000000E+00
