Title                                   
   1.00000000000000     
     9.8694509999999998    0.0000000000000000    0.0000000000000000
     0.0000000000000000    8.5490480000000009    0.0000000000000000
     0.0000000000000000    0.0000000000000000   20.0000000000000000
    28     2     1
Selective dynamics
Direct
  0.0561543922060916  0.0887672134532247  0.0933476954556408   T   T   T
  0.9317905175080877  0.1713687253235926  0.0937566326206599   T   T   T
  0.0561396507720168  0.9235875897091832  0.0933457402241038   T   T   T
  0.9361660636059321  0.3372986183087244  0.0937312450684877   T   T   T
  0.0576048652686178  0.5893350801521771  0.0931187703810417   T   T   T
  0.9361567915861025  0.6750297773161151  0.0937365927145014   T   T   T
  0.0576079517753573  0.4230160373274728  0.0931032352758698   T   T   T
  0.9317665742082689  0.8409702778343998  0.0937593154877912   T   T   T
  0.3042631741764655  0.0894138220721783  0.0946328290648398   T   T   T
  0.1798107395120230  0.1717838061265419  0.0936791807539940   T   T   T
  0.3042620607735767  0.9228880241329446  0.0946448739985561   T   T   T
  0.1787845294283520  0.3388303909446514  0.0934712903431026   T   T   T
  0.3007830516459592  0.5916916921884451  0.0946344550666443   T   T   T
  0.1787798084706509  0.6735229091968544  0.0934999207361792   T   T   T
  0.3008064935812431  0.4205933118293771  0.0946170732362985   T   T   T
  0.1797890705623466  0.8405698695804548  0.0936873235783889   T   T   T
  0.5540521612338606  0.0909932231255746  0.0963563606984693   T   T   T
  0.4273702926794257  0.1756357413994437  0.0957745726198898   T   T   T
  0.5540613510184150  0.9212558865342347  0.0963554602281518   T   T   T
  0.4273681583373731  0.8366385643876795  0.0957884491138103   T   T   T
  0.8062826531159604  0.0897989299895335  0.0948117966752565   T   T   T
  0.6817730451566977  0.1763404495345589  0.0961707668986228   T   T   T
  0.8062717505234729  0.9225240256120413  0.0947963010202110   T   T   T
  0.6935612376687948  0.3406440171828474  0.0968541711911211   T   T   T
  0.8162265681276659  0.5909883000870464  0.0952819412006676   T   T   T
  0.6935716414182501  0.6716791314486054  0.0968183944164701   T   T   T
  0.8162251869633635  0.4213200169562631  0.0953016792410982   T   T   T
  0.6817889015560681  0.8359631678682682  0.0961326810940062   T   T   T
  0.4184320884926799  0.3360854368266621  0.0960545927362188   T   T   T
  0.4184172133296634  0.6761863208710720  0.0960559106549657   T   T   T
  0.5570670152972268  0.5061546426798449  0.0976457482049823   T   T   T
 
  0.00000000E+00  0.00000000E+00  0.00000000E+00
  0.00000000E+00  0.00000000E+00  0.00000000E+00
  0.00000000E+00  0.00000000E+00  0.00000000E+00
  0.00000000E+00  0.00000000E+00  0.00000000E+00
  0.00000000E+00  0.00000000E+00  0.00000000E+00
  0.00000000E+00  0.00000000E+00  0.00000000E+00
  0.00000000E+00  0.00000000E+00  0.00000000E+00
  0.00000000E+00  0.00000000E+00  0.00000000E+00
  0.00000000E+00  0.00000000E+00  0.00000000E+00
  0.00000000E+00  0.00000000E+00  0.00000000E+00
  0.00000000E+00  0.00000000E+00  0.00000000E+00
  0.00000000E+00  0.00000000E+00  0.00000000E+00
  0.00000000E+00  0.00000000E+00  0.00000000E+00
  0.00000000E+00  0.00000000E+00  0.00000000E+00
  0.00000000E+00  0.00000000E+00  0.00000000E+00
  0.00000000E+00  0.00000000E+00  0.00000000E+00
  0.00000000E+00  0.00000000E+00  0.00000000E+00
  0.00000000E+00  0.00000000E+00  0.00000000E+00
  0.00000000E+00  0.00000000E+00  0.00000000E+00
  0.00000000E+00  0.00000000E+00  0.00000000E+00
  0.00000000E+00  0.00000000E+00  0.00000000E+00
  0.00000000E+00  0.00000000E+00  0.00000000E+00
  0.00000000E+00  0.00000000E+00  0.00000000E+00
  0.00000000E+00  0.00000000E+00  0.00000000E+00
  0.00000000E+00  0.00000000E+00  0.00000000E+00
  0.00000000E+00  0.00000000E+00  0.00000000E+00
  0.00000000E+00  0.00000000E+00  0.00000000E+00
  0.00000000E+00  0.00000000E+00  0.00000000E+00
  0.00000000E+00  0.00000000E+00  0.00000000E+00
  0.00000000E+00  0.00000000E+00  0.00000000E+00
  0.00000000E+00  0.00000000E+00  0.00000000E+00
