Title                                   
   1.00000000000000     
     9.8694509999999998    0.0000000000000000    0.0000000000000000
     0.0000000000000000    8.5490480000000009    0.0000000000000000
     0.0000000000000000    0.0000000000000000   20.0000000000000000
    27     4     1
Selective dynamics
Direct
  0.0562858587540017  0.0923981391143627  0.0869242685931507   T   T   T
  0.9306897089478978  0.1751617757255196  0.0876473923804295   T   T   T
  0.0574863509168015  0.9247545391097822  0.0858216261282694   T   T   T
  0.9286542621622007  0.3428162521968434  0.0881665954247549   T   T   T
  0.0565881114111387  0.5903383415137288  0.0862446403704692   T   T   T
  0.9329778904768729  0.6741152271535058  0.0857586336983838   T   T   T
  0.0571941546702705  0.4238181971599531  0.0893125829064820   T   T   T
  0.9322656822006516  0.8414541540446167  0.0860580405287425   T   T   T
  0.3053395218125076  0.0878116097685559  0.0919048412609911   T   T   T
  0.1825611680127227  0.1749933118352334  0.0900766505091918   T   T   T
  0.3072068551800848  0.9222600113569294  0.0924521675888606   T   T   T
  0.1829940055999239  0.3410360069500300  0.0933398342767163   T   T   T
  0.3052401931514990  0.5922708905929415  0.1051856591921790   T   T   T
  0.1822738276878429  0.6720323297245865  0.0896750441964363   T   T   T
  0.1820453432605670  0.8390185356722357  0.0885692811497607   T   T   T
  0.5562367097713440  0.0834806063678385  0.0980132681725676   T   T   T
  0.4308292308283942  0.1674626604645229  0.0964246598118200   T   T   T
  0.4344632370387907  0.3346039953124331  0.0978036486435739   T   T   T
  0.4275479698768063  0.8368929287650954  0.1074821459234844   T   T   T
  0.8070019411068053  0.0901313249770076  0.0897809099978424   T   T   T
  0.6799875818914738  0.1687318570096330  0.0932559567398044   T   T   T
  0.8073967140920948  0.9252093647811811  0.0895583910551628   T   T   T
  0.6748317515658006  0.3353047443159425  0.0918328602249303   T   T   T
  0.8055055711511129  0.5957791418857574  0.0902966846784274   T   T   T
  0.8012023158860045  0.4260120526560583  0.0892213948103288   T   T   T
  0.6849697882343577  0.8375768871165494  0.0972981305071076   T   T   T
  0.4167720018047141  0.6801398144454669  0.1284410390722705   T   T   T
  0.5524517904447923  0.4106398626827098  0.0959815525868232   T   T   T
  0.6896830037611600  0.6815570394397847  0.0996399080358179   T   T   T
  0.5573315582301307  0.9180204737583822  0.1037593206759784   T   T   T
  0.3086651070787850  0.4229495476220342  0.1008805545808909   T   T   T
  0.5649597929924557  0.5814743764807808  0.1688673162783678   T   T   T
 
  0.00000000E+00  0.00000000E+00  0.00000000E+00
  0.00000000E+00  0.00000000E+00  0.00000000E+00
  0.00000000E+00  0.00000000E+00  0.00000000E+00
  0.00000000E+00  0.00000000E+00  0.00000000E+00
  0.00000000E+00  0.00000000E+00  0.00000000E+00
  0.00000000E+00  0.00000000E+00  0.00000000E+00
  0.00000000E+00  0.00000000E+00  0.00000000E+00
  0.00000000E+00  0.00000000E+00  0.00000000E+00
  0.00000000E+00  0.00000000E+00  0.00000000E+00
  0.00000000E+00  0.00000000E+00  0.00000000E+00
  0.00000000E+00  0.00000000E+00  0.00000000E+00
  0.00000000E+00  0.00000000E+00  0.00000000E+00
  0.00000000E+00  0.00000000E+00  0.00000000E+00
  0.00000000E+00  0.00000000E+00  0.00000000E+00
  0.00000000E+00  0.00000000E+00  0.00000000E+00
  0.00000000E+00  0.00000000E+00  0.00000000E+00
  0.00000000E+00  0.00000000E+00  0.00000000E+00
  0.00000000E+00  0.00000000E+00  0.00000000E+00
  0.00000000E+00  0.00000000E+00  0.00000000E+00
  0.00000000E+00  0.00000000E+00  0.00000000E+00
  0.00000000E+00  0.00000000E+00  0.00000000E+00
  0.00000000E+00  0.00000000E+00  0.00000000E+00
  0.00000000E+00  0.00000000E+00  0.00000000E+00
  0.00000000E+00  0.00000000E+00  0.00000000E+00
  0.00000000E+00  0.00000000E+00  0.00000000E+00
  0.00000000E+00  0.00000000E+00  0.00000000E+00
  0.00000000E+00  0.00000000E+00  0.00000000E+00
  0.00000000E+00  0.00000000E+00  0.00000000E+00
  0.00000000E+00  0.00000000E+00  0.00000000E+00
  0.00000000E+00  0.00000000E+00  0.00000000E+00
  0.00000000E+00  0.00000000E+00  0.00000000E+00
  0.00000000E+00  0.00000000E+00  0.00000000E+00
