Title                                   
   1.00000000000000     
     4.9440799999999996    0.0000000000000000    0.0000000000000000
     0.0000000000000000   17.1295089999999988    0.0000000000000000
     0.0000000000000000    0.0000000000000000   20.0000000000000000
    28     3     1
Selective dynamics
Direct
 -0.0002836850129385  0.1045372340046280  0.2827243195639714   T   T   T
  0.2497262687254441  0.1463161357809978  0.2867859698030252   T   T   T
  0.2496331739093799  0.2289211356333594  0.2977558731788972   T   T   T
  0.0014360397897661  0.3509955690648913  0.3212719555836681   T   T   T
 -0.0016713600879114  0.2701992557534141  0.3033475940400404   T   T   T
 -0.0048701300671914  0.6049566210026694  0.3100200312108565   T   T   T
  0.2502925208215318  0.7277626713999547  0.2922449602316148   T   T   T
  0.0007294879326087  0.8535323668646827  0.2810877791029166   T   T   T
  0.2500623325710821  0.8955814365021560  0.2794463108755206   T   T   T
  0.2499222626899405  0.9791807251776234  0.2781219218788161   T   T   T
  0.0012357714248064  0.7701047978994956  0.2869675826167272   T   T   T
  0.4997721236784575  0.1045278456611646  0.2827420858833861   T   T   T
  0.7496874954106079  0.1463435786020969  0.2858478345678089   T   T   T
  0.7495399015996308  0.2290559215410470  0.2953535561635758   T   T   T
  0.4999535771576502  0.0210677149868530  0.2786007904134016   T   T   T
  0.4973514230113176  0.3510498348238392  0.3214199959628184   T   T   T
  0.7494414796197972  0.3972585435991709  0.3253314971401128   T   T   T
  0.7500544864998149  0.4842359408135071  0.3258560772874720   T   T   T
  0.5007664414451349  0.2702217073494428  0.3034361445948649   T   T   T
  0.5058692662233801  0.6051205237042104  0.3107250306282436   T   T   T
  0.7502481569767953  0.7292438847439568  0.2901310301845504   T   T   T
  0.4994931947754701  0.8535497115979372  0.2811342260733887   T   T   T
  0.7500792242357779  0.8953126435054957  0.2791168172121804   T   T   T
  0.7499305807137364  0.9789913465009228  0.2778346469913584   T   T   T
  0.4992230369336454  0.7701207416185553  0.2870550439651781   T   T   T
  0.7503667581852608  0.6469088741059417  0.3005223307352492   T   T   T
  0.2504959036800648  0.6445732285241569  0.3048690670533639   T   T   T
 -0.0001898336444864  0.0210803944956441  0.2785881380332119   T   T   T
  0.5169217732076027  0.5270857276669791  0.3283699086377377   T   T   T
  0.9844465609823845  0.5265012340933751  0.3258332016833029   T   T   T
  0.2492574425884103  0.3833222706949706  0.3378464843679459   T   T   T
  0.2479013240230361  0.4808913822868536  0.3821767943347485   T   T   T
 
  0.00000000E+00  0.00000000E+00  0.00000000E+00
  0.00000000E+00  0.00000000E+00  0.00000000E+00
  0.00000000E+00  0.00000000E+00  0.00000000E+00
  0.00000000E+00  0.00000000E+00  0.00000000E+00
  0.00000000E+00  0.00000000E+00  0.00000000E+00
  0.00000000E+00  0.00000000E+00  0.00000000E+00
  0.00000000E+00  0.00000000E+00  0.00000000E+00
  0.00000000E+00  0.00000000E+00  0.00000000E+00
  0.00000000E+00  0.00000000E+00  0.00000000E+00
  0.00000000E+00  0.00000000E+00  0.00000000E+00
  0.00000000E+00  0.00000000E+00  0.00000000E+00
  0.00000000E+00  0.00000000E+00  0.00000000E+00
  0.00000000E+00  0.00000000E+00  0.00000000E+00
  0.00000000E+00  0.00000000E+00  0.00000000E+00
  0.00000000E+00  0.00000000E+00  0.00000000E+00
  0.00000000E+00  0.00000000E+00  0.00000000E+00
  0.00000000E+00  0.00000000E+00  0.00000000E+00
  0.00000000E+00  0.00000000E+00  0.00000000E+00
  0.00000000E+00  0.00000000E+00  0.00000000E+00
  0.00000000E+00  0.00000000E+00  0.00000000E+00
  0.00000000E+00  0.00000000E+00  0.00000000E+00
  0.00000000E+00  0.00000000E+00  0.00000000E+00
  0.00000000E+00  0.00000000E+00  0.00000000E+00
  0.00000000E+00  0.00000000E+00  0.00000000E+00
  0.00000000E+00  0.00000000E+00  0.00000000E+00
  0.00000000E+00  0.00000000E+00  0.00000000E+00
  0.00000000E+00  0.00000000E+00  0.00000000E+00
  0.00000000E+00  0.00000000E+00  0.00000000E+00
  0.00000000E+00  0.00000000E+00  0.00000000E+00
  0.00000000E+00  0.00000000E+00  0.00000000E+00
  0.00000000E+00  0.00000000E+00  0.00000000E+00
  0.00000000E+00  0.00000000E+00  0.00000000E+00
