Title                                   
   1.00000000000000     
     8.5490480000000009    0.0000000000000000    0.0000000000000000
     0.0000000000000000    8.5490480000000009    0.0000000000000000
     0.0000000000000000    0.0000000000000000   20.0000000000000000
    21     3     1
Selective dynamics
Direct
  0.9097693646649456  0.2076142595165444  0.0976032512852404   T   T   T
  0.9117156760086340  0.7985535362348177  0.0976580186692746   T   T   T
  0.1996276596523224  0.0823346782260532  0.0977842872131168   T   T   T
  0.0754774538905337  0.2036060524980486  0.0976766918412671   T   T   T
  0.1592051494857009  0.6487248205924453  0.0978596735333122   T   T   T
  0.0765143910688313  0.5007950350266921  0.0977499441582118   T   T   T
  0.1584503212634298  0.3548209694844376  0.0977675848776413   T   T   T
  0.0784084388556669  0.7981605454106424  0.0977328337319265   T   T   T
  0.3471282510387377  0.1662536881276703  0.0978451189231025   T   T   T
  0.4930631143484374  0.9190447615661024  0.0977440063075504   T   T   T
  0.3463639135135732  0.8352641722009031  0.0978715141667396   T   T   T
  0.7859485565490277  0.0845665648532880  0.0976091875948509   T   T   T
  0.6368551708137359  0.1686816088825164  0.0976733274015634   T   T   T
  0.7880446444788054  0.9197559315242251  0.0976115466168777   T   T   T
  0.8280948212248438  0.6481282646350268  0.0977160392169286   T   T   T
  0.8262366739242781  0.3572614504675829  0.0976325567776588   T   T   T
  0.6379865238951699  0.8359410766345318  0.0976889279272242   T   T   T
  0.3276390935514756  0.3346287139117982  0.0978687109959526   T   T   T
  0.3267899962532971  0.6693816592264251  0.0979341466661889   T   T   T
  0.6574336755755866  0.3380843817742542  0.0976788730744004   T   T   T
  0.6598643557443358  0.6665666766180509  0.0977481447324539   T   T   T
  0.4941706759817799  0.0863505680398132  0.0978115651208816   T   T   T
  0.9088780119754027  0.5018069138361512  0.0977186854574426   T   T   T
  0.1976067233827571  0.9171183176563765  0.0978180325111496   T   T   T
  0.4941393428586779  0.5013453530556079  0.0979023311990238   T   T   T
 
  0.00000000E+00  0.00000000E+00  0.00000000E+00
  0.00000000E+00  0.00000000E+00  0.00000000E+00
  0.00000000E+00  0.00000000E+00  0.00000000E+00
  0.00000000E+00  0.00000000E+00  0.00000000E+00
  0.00000000E+00  0.00000000E+00  0.00000000E+00
  0.00000000E+00  0.00000000E+00  0.00000000E+00
  0.00000000E+00  0.00000000E+00  0.00000000E+00
  0.00000000E+00  0.00000000E+00  0.00000000E+00
  0.00000000E+00  0.00000000E+00  0.00000000E+00
  0.00000000E+00  0.00000000E+00  0.00000000E+00
  0.00000000E+00  0.00000000E+00  0.00000000E+00
  0.00000000E+00  0.00000000E+00  0.00000000E+00
  0.00000000E+00  0.00000000E+00  0.00000000E+00
  0.00000000E+00  0.00000000E+00  0.00000000E+00
  0.00000000E+00  0.00000000E+00  0.00000000E+00
  0.00000000E+00  0.00000000E+00  0.00000000E+00
  0.00000000E+00  0.00000000E+00  0.00000000E+00
  0.00000000E+00  0.00000000E+00  0.00000000E+00
  0.00000000E+00  0.00000000E+00  0.00000000E+00
  0.00000000E+00  0.00000000E+00  0.00000000E+00
  0.00000000E+00  0.00000000E+00  0.00000000E+00
  0.00000000E+00  0.00000000E+00  0.00000000E+00
  0.00000000E+00  0.00000000E+00  0.00000000E+00
  0.00000000E+00  0.00000000E+00  0.00000000E+00
  0.00000000E+00  0.00000000E+00  0.00000000E+00
