Title                                   
   1.00000000000000     
     9.8694509999999998    0.0000000000000000    0.0000000000000000
     0.0000000000000000    8.5490480000000009    0.0000000000000000
     0.0000000000000000    0.0000000000000000   20.0000000000000000
    29     2     1
Selective dynamics
Direct
  0.0562187278489780  0.0899490250276842  0.0827015547311635   T   T   T
  0.9312418017472245  0.1736925563290277  0.0841931794711918   T   T   T
  0.0575877138264393  0.9231706536618575  0.0833350869727486   T   T   T
  0.9308229773347423  0.3406435445471758  0.0867752598038836   T   T   T
  0.0572228747766463  0.5900067326095225  0.0843879722826837   T   T   T
  0.9326404793146467  0.6727199100541577  0.0885748527778445   T   T   T
  0.0565905474632809  0.4226647951878666  0.0846585814716247   T   T   T
  0.9325546122656063  0.8399572170845561  0.0867537616069037   T   T   T
  0.3057634003948785  0.0881504709714897  0.0868152415742354   T   T   T
  0.1821607873905065  0.1720122987828328  0.0843956891559948   T   T   T
  0.1817126005857003  0.3387060532107840  0.0860415333584373   T   T   T
  0.3048806543655123  0.5880742876185100  0.0977340062450267   T   T   T
  0.1825579467616005  0.6730315484611344  0.0862898600569082   T   T   T
  0.3063618899215850  0.4204613467789962  0.0958120037365157   T   T   T
  0.1825838212219265  0.8401594978261033  0.0851317892124013   T   T   T
  0.5555787683429252  0.0886037190151244  0.0929460965594534   T   T   T
  0.5547506767157080  0.9235909721937411  0.0992904830249059   T   T   T
  0.4289996753706479  0.3315259947279006  0.1028246724302476   T   T   T
  0.4278981551860828  0.8416090318252194  0.1012001564676782   T   T   T
  0.8062534474467894  0.0899610224541316  0.0862527756937515   T   T   T
  0.6801982081094801  0.1723640116394297  0.0914311050893165   T   T   T
  0.8071530881922430  0.9246024995926846  0.0895123032854505   T   T   T
  0.6818355895736637  0.3367570022503861  0.1019032530809018   T   T   T
  0.8099406002986093  0.5910564485763123  0.1012019399629777   T   T   T
  0.8058371707206187  0.4232860394421868  0.0972936717360651   T   T   T
  0.6833786327705802  0.8434801771237873  0.1021551977205391   T   T   T
  0.4194499838005017  0.6804444542414819  0.1158767019776464   T   T   T
  0.5535331818329873  0.4037507421424957  0.1200439377558314   T   T   T
  0.6936876119724832  0.6818118976699902  0.1195597290993673   T   T   T
  0.3067755722386826  0.9246920514666923  0.0881790227145404   T   T   T
  0.4287637037433584  0.1687771643951629  0.0921091494611635   T   T   T
  0.5547040984653703  0.5905328330915749  0.1802944314826160   T   T   T
 
  0.00000000E+00  0.00000000E+00  0.00000000E+00
  0.00000000E+00  0.00000000E+00  0.00000000E+00
  0.00000000E+00  0.00000000E+00  0.00000000E+00
  0.00000000E+00  0.00000000E+00  0.00000000E+00
  0.00000000E+00  0.00000000E+00  0.00000000E+00
  0.00000000E+00  0.00000000E+00  0.00000000E+00
  0.00000000E+00  0.00000000E+00  0.00000000E+00
  0.00000000E+00  0.00000000E+00  0.00000000E+00
  0.00000000E+00  0.00000000E+00  0.00000000E+00
  0.00000000E+00  0.00000000E+00  0.00000000E+00
  0.00000000E+00  0.00000000E+00  0.00000000E+00
  0.00000000E+00  0.00000000E+00  0.00000000E+00
  0.00000000E+00  0.00000000E+00  0.00000000E+00
  0.00000000E+00  0.00000000E+00  0.00000000E+00
  0.00000000E+00  0.00000000E+00  0.00000000E+00
  0.00000000E+00  0.00000000E+00  0.00000000E+00
  0.00000000E+00  0.00000000E+00  0.00000000E+00
  0.00000000E+00  0.00000000E+00  0.00000000E+00
  0.00000000E+00  0.00000000E+00  0.00000000E+00
  0.00000000E+00  0.00000000E+00  0.00000000E+00
  0.00000000E+00  0.00000000E+00  0.00000000E+00
  0.00000000E+00  0.00000000E+00  0.00000000E+00
  0.00000000E+00  0.00000000E+00  0.00000000E+00
  0.00000000E+00  0.00000000E+00  0.00000000E+00
  0.00000000E+00  0.00000000E+00  0.00000000E+00
  0.00000000E+00  0.00000000E+00  0.00000000E+00
  0.00000000E+00  0.00000000E+00  0.00000000E+00
  0.00000000E+00  0.00000000E+00  0.00000000E+00
  0.00000000E+00  0.00000000E+00  0.00000000E+00
  0.00000000E+00  0.00000000E+00  0.00000000E+00
  0.00000000E+00  0.00000000E+00  0.00000000E+00
  0.00000000E+00  0.00000000E+00  0.00000000E+00
