Title                                   
   1.00000000000000     
     4.9440799999999996    0.0000000000000000    0.0000000000000000
     0.0000000000000000    8.5647549999999999    0.0000000000000000
     0.0000000000000000    0.0000000000000000   20.0000000000000000
    14     1     1
Selective dynamics
Direct
  0.2500000000000000  0.2073142331957775  0.0903526427339895   T   T   T
 -0.0029118607980874  0.2865787918323559  0.0959812880802754   T   T   T
  0.2500000000000000  0.0422818077435331  0.0826891175427209   T   T   T
  0.0006059026211837  0.7971465237781065  0.0973770723123476   T   T   T
 -0.0001653159240840  0.9589237374472069  0.0829638991915220   T   T   T
  0.7500000000000000  0.2057468225063647  0.0855670752659807   T   T   T
  0.5029118607980871  0.2865787918323559  0.0959812880802754   T   T   T
  0.7500000000000000  0.0402762501859732  0.0788798837761217   T   T   T
  0.7500000000000000  0.7096923832589538  0.1032201546901299   T   T   T
  0.4993940973788163  0.7971465237781065  0.0973770723123476   T   T   T
  0.7500000000000000  0.5411234862898447  0.1102806430765130   T   T   T
  0.5001653159240842  0.9589237374472069  0.0829638991915220   T   T   T
  0.5143153253686050  0.4460958945154295  0.1166646403822177   T   T   T
 -0.0143153253686051  0.4460958945154295  0.1166646403822177   T   T   T
  0.2500000000000000  0.7301634879406016  0.1146994977541312   T   T   T
  0.2500000000000000  0.5459116337327529  0.1708491852276952   T   T   T
 
  0.00000000E+00  0.00000000E+00  0.00000000E+00
  0.00000000E+00  0.00000000E+00  0.00000000E+00
  0.00000000E+00  0.00000000E+00  0.00000000E+00
  0.00000000E+00  0.00000000E+00  0.00000000E+00
  0.00000000E+00  0.00000000E+00  0.00000000E+00
  0.00000000E+00  0.00000000E+00  0.00000000E+00
  0.00000000E+00  0.00000000E+00  0.00000000E+00
  0.00000000E+00  0.00000000E+00  0.00000000E+00
  0.00000000E+00  0.00000000E+00  0.00000000E+00
  0.00000000E+00  0.00000000E+00  0.00000000E+00
  0.00000000E+00  0.00000000E+00  0.00000000E+00
  0.00000000E+00  0.00000000E+00  0.00000000E+00
  0.00000000E+00  0.00000000E+00  0.00000000E+00
  0.00000000E+00  0.00000000E+00  0.00000000E+00
  0.00000000E+00  0.00000000E+00  0.00000000E+00
  0.00000000E+00  0.00000000E+00  0.00000000E+00
