Title                                   
   1.00000000000000     
     9.8694509999999998    0.0000000000000000    0.0000000000000000
     0.0000000000000000    8.5490480000000009    0.0000000000000000
     0.0000000000000000    0.0000000000000000   20.0000000000000000
    27     3     1
Selective dynamics
Direct
  0.0554133276070503  0.0880011986260522  0.0940561762308329   T   T   T
  0.9309424561323139  0.1714116121091935  0.0939915512508269   T   T   T
  0.0566671942849105  0.9226892675732622  0.0941129601123874   T   T   T
  0.9332299347964614  0.3386973499519208  0.0936457505538227   T   T   T
  0.0555244516548582  0.5907819128320868  0.0936492192303347   T   T   T
  0.0559174724593778  0.4243810183171076  0.0935333596415562   T   T   T
  0.9314767281633407  0.8384387140127739  0.0940901707876593   T   T   T
  0.3071338001230274  0.0892175629066072  0.0949093428306562   T   T   T
  0.1818068576461741  0.1708733926937107  0.0942950966468206   T   T   T
  0.1795669878444348  0.3388181743101037  0.0941937611616046   T   T   T
  0.3012581620328124  0.5902154753604477  0.0954610828316948   T   T   T
  0.1790143626593725  0.6753616248953985  0.0943522107106292   T   T   T
  0.3017583469483414  0.4209173325459789  0.0953633002533719   T   T   T
  0.1824790761467067  0.8413702999470076  0.0944296935563011   T   T   T
  0.4324580488094259  0.1760759394566632  0.0956750643593412   T   T   T
  0.5556126592484216  0.9229349864434315  0.0957235548904594   T   T   T
  0.4275353640100671  0.3413108094978771  0.0963414128233447   T   T   T
  0.4251916992632668  0.6707657764082834  0.0965536732951951   T   T   T
  0.4303007740876850  0.8364698737580607  0.0958964190219286   T   T   T
  0.8054308532818670  0.0887945916812064  0.0945971706980860   T   T   T
  0.6804170196723279  0.1775235084538823  0.0952270038337981   T   T   T
  0.8061489444616371  0.9204718696339900  0.0946693239024899   T   T   T
  0.6856017846087270  0.3431059563707962  0.0954147446835573   T   T   T
  0.8110043896213863  0.5918424608162663  0.0944605761155338   T   T   T
  0.6874031778262562  0.6688747691973618  0.0955627554402275   T   T   T
  0.8119716744380930  0.4209753038129406  0.0943345740547637   T   T   T
  0.6793482596607513  0.8363825915995260  0.0954051468557496   T   T   T
  0.9336738734527493  0.6732207520019982  0.0937059370615600   T   T   T
  0.5569017948801738  0.0917633056075548  0.0955455464132479   T   T   T
  0.3053122844911833  0.9223587038054739  0.0949557280728192   T   T   T
  0.5566332396868017  0.5068288653730553  0.0968126926794259   T   T   T
 
  0.00000000E+00  0.00000000E+00  0.00000000E+00
  0.00000000E+00  0.00000000E+00  0.00000000E+00
  0.00000000E+00  0.00000000E+00  0.00000000E+00
  0.00000000E+00  0.00000000E+00  0.00000000E+00
  0.00000000E+00  0.00000000E+00  0.00000000E+00
  0.00000000E+00  0.00000000E+00  0.00000000E+00
  0.00000000E+00  0.00000000E+00  0.00000000E+00
  0.00000000E+00  0.00000000E+00  0.00000000E+00
  0.00000000E+00  0.00000000E+00  0.00000000E+00
  0.00000000E+00  0.00000000E+00  0.00000000E+00
  0.00000000E+00  0.00000000E+00  0.00000000E+00
  0.00000000E+00  0.00000000E+00  0.00000000E+00
  0.00000000E+00  0.00000000E+00  0.00000000E+00
  0.00000000E+00  0.00000000E+00  0.00000000E+00
  0.00000000E+00  0.00000000E+00  0.00000000E+00
  0.00000000E+00  0.00000000E+00  0.00000000E+00
  0.00000000E+00  0.00000000E+00  0.00000000E+00
  0.00000000E+00  0.00000000E+00  0.00000000E+00
  0.00000000E+00  0.00000000E+00  0.00000000E+00
  0.00000000E+00  0.00000000E+00  0.00000000E+00
  0.00000000E+00  0.00000000E+00  0.00000000E+00
  0.00000000E+00  0.00000000E+00  0.00000000E+00
  0.00000000E+00  0.00000000E+00  0.00000000E+00
  0.00000000E+00  0.00000000E+00  0.00000000E+00
  0.00000000E+00  0.00000000E+00  0.00000000E+00
  0.00000000E+00  0.00000000E+00  0.00000000E+00
  0.00000000E+00  0.00000000E+00  0.00000000E+00
  0.00000000E+00  0.00000000E+00  0.00000000E+00
  0.00000000E+00  0.00000000E+00  0.00000000E+00
  0.00000000E+00  0.00000000E+00  0.00000000E+00
  0.00000000E+00  0.00000000E+00  0.00000000E+00
