Title                                   
   1.00000000000000     
     9.8694509999999998    0.0000000000000000    0.0000000000000000
     0.0000000000000000    8.5490480000000009    0.0000000000000000
     0.0000000000000000    0.0000000000000000   20.0000000000000000
    28     2     1
Selective dynamics
Direct
  0.0558376997261507  0.0892481295839062  0.0879304637076462   T   T   T
  0.9304970704373609  0.1720523708927830  0.0884840047136762   T   T   T
  0.0569166007382486  0.9236791068768997  0.0881218811310702   T   T   T
  0.9321277513096646  0.3396839646737407  0.0889134863038060   T   T   T
  0.0565708724208231  0.5900459994245532  0.0884642496180723   T   T   T
  0.9323294742725375  0.6727366490602077  0.0894223801695544   T   T   T
  0.0567427258866445  0.4229389673104909  0.0881573365131554   T   T   T
  0.9312802784836368  0.8397424191567812  0.0889816412603331   T   T   T
  0.3071955844637543  0.0884243841983747  0.0918231185522398   T   T   T
  0.1824146219769315  0.1711804748135881  0.0893617976614504   T   T   T
  0.1812981206402212  0.3390697187659003  0.0899438514040707   T   T   T
  0.3048947907139116  0.5906573955236543  0.0960838012887142   T   T   T
  0.1815289107394975  0.6740076484310985  0.0902360981173495   T   T   T
  0.3046218952518744  0.4207971452849897  0.0956654469056037   T   T   T
  0.1824279378590490  0.8408328500910145  0.0897218864302103   T   T   T
  0.4324176651163317  0.1744355983189832  0.0970020811269369   T   T   T
  0.5546908499878740  0.9237374960550524  0.0981512934459757   T   T   T
  0.4299087764551679  0.3394855260669191  0.1026531543442641   T   T   T
  0.4282128954158890  0.6725479588754973  0.1042071121752332   T   T   T
  0.4303543902300505  0.8386394882230155  0.0986665233042480   T   T   T
  0.8046426317668235  0.0890136071219313  0.0902763619783356   T   T   T
  0.6792769652992368  0.1758919705659429  0.0947631199249538   T   T   T
  0.8054759351408809  0.9221766996627254  0.0907700823249573   T   T   T
  0.6816730810698830  0.3407349526981900  0.0986925987813446   T   T   T
  0.8078008519052040  0.5904001877832590  0.0931409941874270   T   T   T
  0.6825872787938595  0.6704316928078440  0.0997204272645275   T   T   T
  0.8081622898091440  0.4209048170030958  0.0927412258477601   T   T   T
  0.6792907027510205  0.8372147167768719  0.0961156695931781   T   T   T
  0.5563275170738996  0.0905618471884341  0.0969402309325226   T   T   T
  0.3055658972417971  0.9228185874542497  0.0920794617317767   T   T   T
  0.5600629370226328  0.5067826293100262  0.1437332192596333   T   T   T
 
  0.00000000E+00  0.00000000E+00  0.00000000E+00
  0.00000000E+00  0.00000000E+00  0.00000000E+00
  0.00000000E+00  0.00000000E+00  0.00000000E+00
  0.00000000E+00  0.00000000E+00  0.00000000E+00
  0.00000000E+00  0.00000000E+00  0.00000000E+00
  0.00000000E+00  0.00000000E+00  0.00000000E+00
  0.00000000E+00  0.00000000E+00  0.00000000E+00
  0.00000000E+00  0.00000000E+00  0.00000000E+00
  0.00000000E+00  0.00000000E+00  0.00000000E+00
  0.00000000E+00  0.00000000E+00  0.00000000E+00
  0.00000000E+00  0.00000000E+00  0.00000000E+00
  0.00000000E+00  0.00000000E+00  0.00000000E+00
  0.00000000E+00  0.00000000E+00  0.00000000E+00
  0.00000000E+00  0.00000000E+00  0.00000000E+00
  0.00000000E+00  0.00000000E+00  0.00000000E+00
  0.00000000E+00  0.00000000E+00  0.00000000E+00
  0.00000000E+00  0.00000000E+00  0.00000000E+00
  0.00000000E+00  0.00000000E+00  0.00000000E+00
  0.00000000E+00  0.00000000E+00  0.00000000E+00
  0.00000000E+00  0.00000000E+00  0.00000000E+00
  0.00000000E+00  0.00000000E+00  0.00000000E+00
  0.00000000E+00  0.00000000E+00  0.00000000E+00
  0.00000000E+00  0.00000000E+00  0.00000000E+00
  0.00000000E+00  0.00000000E+00  0.00000000E+00
  0.00000000E+00  0.00000000E+00  0.00000000E+00
  0.00000000E+00  0.00000000E+00  0.00000000E+00
  0.00000000E+00  0.00000000E+00  0.00000000E+00
  0.00000000E+00  0.00000000E+00  0.00000000E+00
  0.00000000E+00  0.00000000E+00  0.00000000E+00
  0.00000000E+00  0.00000000E+00  0.00000000E+00
  0.00000000E+00  0.00000000E+00  0.00000000E+00
