Title                                   
   1.00000000000000     
     4.9440799999999996    0.0000000000000000    0.0000000000000000
     0.0000000000000000   17.1295089999999988    0.0000000000000000
     0.0000000000000000    0.0000000000000000   20.0000000000000000
    29     2     1
Selective dynamics
Direct
  0.0000287062008832  0.1046444402391033  0.2823174059516159   T   T   T
  0.2498851623179640  0.1462904333808459  0.2866678002256774   T   T   T
  0.2498659111212565  0.2286336168919532  0.2982014269380193   T   T   T
  0.0018796859095267  0.3493965730157734  0.3215389606326347   T   T   T
 -0.0013208580113154  0.2698159300199648  0.3036483129333707   T   T   T
 -0.0044783909209919  0.6068229739915900  0.3123514811598687   T   T   T
  0.2499150956015902  0.7290875101252647  0.2922750521556511   T   T   T
  0.0002819906805363  0.8542950583780721  0.2797033640434392   T   T   T
  0.2499076427660281  0.8961700290806381  0.2779912087198794   T   T   T
  0.2499043184986194  0.9796191775187383  0.2771079687887080   T   T   T
  0.0003931562496712  0.7711208827317881  0.2864857737038604   T   T   T
  0.4997376445716490  0.1046461088457862  0.2823218239095797   T   T   T
  0.7498670322867375  0.1465131857404429  0.2853129906757892   T   T   T
  0.7498542382445926  0.2286457683260104  0.2946704225920687   T   T   T
  0.4999742057497542  0.0214504381899566  0.2778633826674728   T   T   T
  0.4978960810348572  0.3493953212725788  0.3215356984848066   T   T   T
  0.7499256403794996  0.4781925080550857  0.3195513965950365   T   T   T
  0.5010243076913533  0.2698135596107482  0.3036567140581791   T   T   T
  0.5043066338174358  0.6068181977651285  0.3123433918285966   T   T   T
  0.7499333321356894  0.7303606533267324  0.2904169467456445   T   T   T
  0.4995471945915980  0.8542915727433033  0.2796997735461743   T   T   T
  0.7499162150130525  0.8960211944101091  0.2777025140451032   T   T   T
  0.7499068276778813  0.9795007993592197  0.2767738142470793   T   T   T
  0.4994565138529860  0.7711173664677212  0.2864818331261034   T   T   T
  0.7499239520923617  0.6481779199819374  0.3024744821419879   T   T   T
  0.2499106369882966  0.6468005571228008  0.3065772047746436   T   T   T
 -0.0001797461994620  0.0214477008795226  0.2778596674228906   T   T   T
  0.5181980868915901  0.5250704924513037  0.3294653034618784   T   T   T
  0.9816274451559847  0.5250672993397325  0.3294822151001233   T   T   T
  0.2498901754848865  0.3831929594870018  0.3391730948562601   T   T   T
  0.7498989950285033  0.3933269156280083  0.3248058235134437   T   T   T
  0.2499451670969920  0.4828038556231300  0.3861077509543657   T   T   T
 
  0.00000000E+00  0.00000000E+00  0.00000000E+00
  0.00000000E+00  0.00000000E+00  0.00000000E+00
  0.00000000E+00  0.00000000E+00  0.00000000E+00
  0.00000000E+00  0.00000000E+00  0.00000000E+00
  0.00000000E+00  0.00000000E+00  0.00000000E+00
  0.00000000E+00  0.00000000E+00  0.00000000E+00
  0.00000000E+00  0.00000000E+00  0.00000000E+00
  0.00000000E+00  0.00000000E+00  0.00000000E+00
  0.00000000E+00  0.00000000E+00  0.00000000E+00
  0.00000000E+00  0.00000000E+00  0.00000000E+00
  0.00000000E+00  0.00000000E+00  0.00000000E+00
  0.00000000E+00  0.00000000E+00  0.00000000E+00
  0.00000000E+00  0.00000000E+00  0.00000000E+00
  0.00000000E+00  0.00000000E+00  0.00000000E+00
  0.00000000E+00  0.00000000E+00  0.00000000E+00
  0.00000000E+00  0.00000000E+00  0.00000000E+00
  0.00000000E+00  0.00000000E+00  0.00000000E+00
  0.00000000E+00  0.00000000E+00  0.00000000E+00
  0.00000000E+00  0.00000000E+00  0.00000000E+00
  0.00000000E+00  0.00000000E+00  0.00000000E+00
  0.00000000E+00  0.00000000E+00  0.00000000E+00
  0.00000000E+00  0.00000000E+00  0.00000000E+00
  0.00000000E+00  0.00000000E+00  0.00000000E+00
  0.00000000E+00  0.00000000E+00  0.00000000E+00
  0.00000000E+00  0.00000000E+00  0.00000000E+00
  0.00000000E+00  0.00000000E+00  0.00000000E+00
  0.00000000E+00  0.00000000E+00  0.00000000E+00
  0.00000000E+00  0.00000000E+00  0.00000000E+00
  0.00000000E+00  0.00000000E+00  0.00000000E+00
  0.00000000E+00  0.00000000E+00  0.00000000E+00
  0.00000000E+00  0.00000000E+00  0.00000000E+00
  0.00000000E+00  0.00000000E+00  0.00000000E+00
