Title                                   
   1.00000000000000     
     4.9440799999999996    0.0000000000000000    0.0000000000000000
     0.0000000000000000   17.1295089999999988    0.0000000000000000
     0.0000000000000000    0.0000000000000000   20.0000000000000000
    30     1
Selective dynamics
Direct
 -0.0000318319224874  0.1042339783865205  0.2920767772277540   T   T   T
  0.2502802708227942  0.1463177069186157  0.2943797741042894   T   T   T
  0.2503085124422775  0.2289433397132324  0.3002464074755288   T   T   T
  0.0001024646846821  0.2713047531448059  0.3029520389535630   T   T   T
  0.0001069837608154  0.6036251511465942  0.3031429160268842   T   T   T
  0.2503237267486150  0.7286088284324109  0.2948727432512082   T   T   T
  0.0002514482682972  0.8539372752209493  0.2898863224738394   T   T   T
  0.2504307966082298  0.8958696351892719  0.2892328623962464   T   T   T
  0.2504544918068970  0.9790417426721525  0.2890758496510029   T   T   T
  0.0000384914609277  0.7706961323591169  0.2925744999567977   T   T   T
  0.5006054991181687  0.1042284985732735  0.2920774172462328   T   T   T
  0.7502833454120812  0.1459065790331635  0.2936497935178250   T   T   T
  0.7503525386851388  0.2292826971246380  0.2986276862734798   T   T   T
  0.5006189164949362  0.0209731314942421  0.2895731805873480   T   T   T
  0.7502346446479931  0.3940292161927945  0.3109208411219956   T   T   T
  0.7502746728058575  0.4808617189249540  0.3109475997663415   T   T   T
  0.5005190693021599  0.2713104510308247  0.3029163777045963   T   T   T
  0.5005992600952300  0.6036340151415418  0.3031685524923717   T   T   T
  0.7502915023183165  0.7290547045244171  0.2941776583368527   T   T   T
  0.5005874303266566  0.8539360698252279  0.2898969401971624   T   T   T
  0.7503936131961751  0.8957157800701429  0.2890594345625542   T   T   T
  0.7504099622109027  0.9791833825414961  0.2889070952933938   T   T   T
  0.5006086782926630  0.7707058880973093  0.2925788764221793   T   T   T
  0.7503605260317054  0.6456739977655711  0.2989651077442693   T   T   T
  0.2503735040484939  0.6459893536744665  0.3005784519538942   T   T   T
  0.0002357086102722  0.0209712644100917  0.2895639980524871   T   T   T
  0.5031764123432658  0.5213439272372447  0.3103810153791778   T   T   T
  0.9973184383878565  0.5213365640493861  0.3102903582065126   T   T   T
  0.5030336481184053  0.3535723493800672  0.3103378472267180   T   T   T
 -0.0026259592479038  0.3535571198532137  0.3103324905721698   T   T   T
  0.2500902341205812  0.4374967478722585  0.3496690858252772   T   T   T
 
  0.00000000E+00  0.00000000E+00  0.00000000E+00
  0.00000000E+00  0.00000000E+00  0.00000000E+00
  0.00000000E+00  0.00000000E+00  0.00000000E+00
  0.00000000E+00  0.00000000E+00  0.00000000E+00
  0.00000000E+00  0.00000000E+00  0.00000000E+00
  0.00000000E+00  0.00000000E+00  0.00000000E+00
  0.00000000E+00  0.00000000E+00  0.00000000E+00
  0.00000000E+00  0.00000000E+00  0.00000000E+00
  0.00000000E+00  0.00000000E+00  0.00000000E+00
  0.00000000E+00  0.00000000E+00  0.00000000E+00
  0.00000000E+00  0.00000000E+00  0.00000000E+00
  0.00000000E+00  0.00000000E+00  0.00000000E+00
  0.00000000E+00  0.00000000E+00  0.00000000E+00
  0.00000000E+00  0.00000000E+00  0.00000000E+00
  0.00000000E+00  0.00000000E+00  0.00000000E+00
  0.00000000E+00  0.00000000E+00  0.00000000E+00
  0.00000000E+00  0.00000000E+00  0.00000000E+00
  0.00000000E+00  0.00000000E+00  0.00000000E+00
  0.00000000E+00  0.00000000E+00  0.00000000E+00
  0.00000000E+00  0.00000000E+00  0.00000000E+00
  0.00000000E+00  0.00000000E+00  0.00000000E+00
  0.00000000E+00  0.00000000E+00  0.00000000E+00
  0.00000000E+00  0.00000000E+00  0.00000000E+00
  0.00000000E+00  0.00000000E+00  0.00000000E+00
  0.00000000E+00  0.00000000E+00  0.00000000E+00
  0.00000000E+00  0.00000000E+00  0.00000000E+00
  0.00000000E+00  0.00000000E+00  0.00000000E+00
  0.00000000E+00  0.00000000E+00  0.00000000E+00
  0.00000000E+00  0.00000000E+00  0.00000000E+00
  0.00000000E+00  0.00000000E+00  0.00000000E+00
  0.00000000E+00  0.00000000E+00  0.00000000E+00
