Title                                   
   1.00000000000000     
     4.9440799999999996    0.0000000000000000    0.0000000000000000
     0.0000000000000000    8.5647549999999999    0.0000000000000000
     0.0000000000000000    0.0000000000000000   20.0000000000000000
    13     1     1
Selective dynamics
Direct
  0.0009067512158796  0.2934139232800627  0.1006265398572027   T   T   T
  0.2500000000000000  0.0439199757665051  0.1005705741073025   T   T   T
  0.0001514203373276  0.9572722559547701  0.1005919252378910   T   T   T
  0.7500000000000000  0.2078663106192811  0.1007451336439312   T   T   T
  0.4990932487841204  0.2934139232800627  0.1006265398572027   T   T   T
  0.7500000000000000  0.0411092301025309  0.1007390602353656   T   T   T
  0.7500000000000000  0.7104523137678150  0.1004857311447873   T   T   T
  0.7500000000000000  0.5370748744454070  0.1004771686191859   T   T   T
  0.4998485796626724  0.9572722559547701  0.1005919252378910   T   T   T
  0.5017816998786554  0.4575007179230083  0.1004496203989923   T   T   T
 -0.0017816998786558  0.4575007179230083  0.1004496203989923   T   T   T
 -0.0037574886197535  0.7913364423755365  0.1004308480517997   T   T   T
  0.5037574886197533  0.7913364423755365  0.1004308480517997   T   T   T
  0.2500000000000000  0.2068717975951841  0.1005870321507180   T   T   T
  0.2500000000000000  0.6253398186365242  0.1001774330069415   T   T   T
 
  0.00000000E+00  0.00000000E+00  0.00000000E+00
  0.00000000E+00  0.00000000E+00  0.00000000E+00
  0.00000000E+00  0.00000000E+00  0.00000000E+00
  0.00000000E+00  0.00000000E+00  0.00000000E+00
  0.00000000E+00  0.00000000E+00  0.00000000E+00
  0.00000000E+00  0.00000000E+00  0.00000000E+00
  0.00000000E+00  0.00000000E+00  0.00000000E+00
  0.00000000E+00  0.00000000E+00  0.00000000E+00
  0.00000000E+00  0.00000000E+00  0.00000000E+00
  0.00000000E+00  0.00000000E+00  0.00000000E+00
  0.00000000E+00  0.00000000E+00  0.00000000E+00
  0.00000000E+00  0.00000000E+00  0.00000000E+00
  0.00000000E+00  0.00000000E+00  0.00000000E+00
  0.00000000E+00  0.00000000E+00  0.00000000E+00
  0.00000000E+00  0.00000000E+00  0.00000000E+00
