Title                                   
   1.00000000000000     
     4.9440799999999996    0.0000000000000000    0.0000000000000000
     0.0000000000000000   17.1295089999999988    0.0000000000000000
     0.0000000000000000    0.0000000000000000   20.0000000000000000
    29     2     1
Selective dynamics
Direct
 -0.0000294709395736  0.1048638307685611  0.2833345859792745   T   T   T
  0.2498929005498846  0.1466670847391086  0.2877745264418502   T   T   T
  0.2499131294421944  0.2288632933366708  0.2993047683665900   T   T   T
  0.0027647938676809  0.3498317171668754  0.3225683754577446   T   T   T
 -0.0013532720925222  0.2702764058820356  0.3047530289986181   T   T   T
 -0.0037801623173170  0.6054101576412512  0.3086045579308442   T   T   T
  0.2498994919729827  0.7287666905951951  0.2909039951801676   T   T   T
  0.0001637269854488  0.8542030108887461  0.2801664086763729   T   T   T
  0.2499072504728992  0.8961449096576882  0.2787562239483624   T   T   T
  0.2499093505930880  0.9796455145410417  0.2779532901885847   T   T   T
  0.0003333439863143  0.7708293856220552  0.2857819680262055   T   T   T
  0.4998607535365703  0.1048632367145237  0.2833306579940281   T   T   T
  0.7499069295663778  0.1467058347548899  0.2865259606934644   T   T   T
  0.7498989970852462  0.2290710225966162  0.2959596014914797   T   T   T
  0.4999203256844069  0.0215844939471297  0.2787256729942352   T   T   T
  0.4970300501621258  0.3498340289959412  0.3225674899273528   T   T   T
  0.7498913602682573  0.4780558985333327  0.3203191863677343   T   T   T
  0.5012074710446822  0.2702804963512425  0.3047550540667209   T   T   T
  0.5035174424418652  0.6054041528973432  0.3086005017092839   T   T   T
  0.7498773832936400  0.7296994263789746  0.2890211764747584   T   T   T
  0.4996331023684535  0.8541943278326333  0.2801632889921430   T   T   T
  0.7499075074916668  0.8960028047697346  0.2783250374083006   T   T   T
  0.7498928834467525  0.9795984593514759  0.2776191728296178   T   T   T
  0.4994333199861002  0.7708272205045084  0.2857799100179308   T   T   T
  0.7498847427806562  0.6470990847671856  0.2991889144057011   T   T   T
  0.2498785240327771  0.6461176641736563  0.3036264767357522   T   T   T
 -0.0001255848942218  0.0215860765585082  0.2787293809231066   T   T   T
  0.5140233282913675  0.5239169052536363  0.3255862717634424   T   T   T
  0.9857695289573484  0.5239176324414563  0.3255977677445036   T   T   T
  0.2499157639043780  0.3840437462938256  0.3403582539678927   T   T   T
  0.7499105489970658  0.3935462189478849  0.3261039135221548   T   T   T
  0.2499675390334093  0.4867002670962634  0.3917795807757340   T   T   T
 
  0.00000000E+00  0.00000000E+00  0.00000000E+00
  0.00000000E+00  0.00000000E+00  0.00000000E+00
  0.00000000E+00  0.00000000E+00  0.00000000E+00
  0.00000000E+00  0.00000000E+00  0.00000000E+00
  0.00000000E+00  0.00000000E+00  0.00000000E+00
  0.00000000E+00  0.00000000E+00  0.00000000E+00
  0.00000000E+00  0.00000000E+00  0.00000000E+00
  0.00000000E+00  0.00000000E+00  0.00000000E+00
  0.00000000E+00  0.00000000E+00  0.00000000E+00
  0.00000000E+00  0.00000000E+00  0.00000000E+00
  0.00000000E+00  0.00000000E+00  0.00000000E+00
  0.00000000E+00  0.00000000E+00  0.00000000E+00
  0.00000000E+00  0.00000000E+00  0.00000000E+00
  0.00000000E+00  0.00000000E+00  0.00000000E+00
  0.00000000E+00  0.00000000E+00  0.00000000E+00
  0.00000000E+00  0.00000000E+00  0.00000000E+00
  0.00000000E+00  0.00000000E+00  0.00000000E+00
  0.00000000E+00  0.00000000E+00  0.00000000E+00
  0.00000000E+00  0.00000000E+00  0.00000000E+00
  0.00000000E+00  0.00000000E+00  0.00000000E+00
  0.00000000E+00  0.00000000E+00  0.00000000E+00
  0.00000000E+00  0.00000000E+00  0.00000000E+00
  0.00000000E+00  0.00000000E+00  0.00000000E+00
  0.00000000E+00  0.00000000E+00  0.00000000E+00
  0.00000000E+00  0.00000000E+00  0.00000000E+00
  0.00000000E+00  0.00000000E+00  0.00000000E+00
  0.00000000E+00  0.00000000E+00  0.00000000E+00
  0.00000000E+00  0.00000000E+00  0.00000000E+00
  0.00000000E+00  0.00000000E+00  0.00000000E+00
  0.00000000E+00  0.00000000E+00  0.00000000E+00
  0.00000000E+00  0.00000000E+00  0.00000000E+00
  0.00000000E+00  0.00000000E+00  0.00000000E+00
