Title                                   
   1.00000000000000     
     9.8694509999999998    0.0000000000000000    0.0000000000000000
     0.0000000000000000    8.5490480000000009    0.0000000000000000
     0.0000000000000000    0.0000000000000000   20.0000000000000000
    26     4     1
Selective dynamics
Direct
  0.0562085018643260  0.0900314811247822  0.0893113881069676   T   T   T
  0.9316455188097896  0.1728402531811261  0.0899505334688960   T   T   T
  0.0562022347719708  0.9222942605645890  0.0893133629268852   T   T   T
  0.9323640086915077  0.3393390854233196  0.0902981941373971   T   T   T
  0.0562199265869404  0.5893552641319468  0.0895513080862377   T   T   T
  0.9323706970547840  0.6729582300770762  0.0903044898978632   T   T   T
  0.0562179952860717  0.4229700158696901  0.0895488145905582   T   T   T
  0.9316450051219455  0.8394585270641234  0.0899549206307308   T   T   T
  0.3068967639052770  0.0896684779967988  0.0922871903780485   T   T   T
  0.1807471322508662  0.1728503113386095  0.0905218081086077   T   T   T
  0.3068828458583249  0.9226994794657493  0.0922810746679923   T   T   T
  0.1800738259507657  0.3394019019757126  0.0909521824482069   T   T   T
  0.3045165313718411  0.5904125050406199  0.0948481106591934   T   T   T
  0.1800871679853671  0.6729589610913476  0.0909427490302641   T   T   T
  0.3045282132982007  0.4219082809109146  0.0948572497807315   T   T   T
  0.1807373793609488  0.8395106344169824  0.0905092775137046   T   T   T
  0.5561522766786603  0.0925781939920477  0.0970714571045035   T   T   T
  0.4296163415042980  0.1768840747960140  0.0963729046691989   T   T   T
  0.5561417125232001  0.9196900266822894  0.0970554348828747   T   T   T
  0.4295780396374453  0.8354315985733188  0.0963626320879694   T   T   T
  0.8055030857174823  0.0895860956363174  0.0915279393208268   T   T   T
  0.6827477875015668  0.1767217471743861  0.0955713230303012   T   T   T
  0.8054997950530501  0.9226842290659117  0.0915278910045924   T   T   T
  0.8078193532876062  0.5904151203986857  0.0936232679295310   T   T   T
  0.8078163407820945  0.4218694726896880  0.0936319714389263   T   T   T
  0.6827431646362043  0.8355466044872496  0.0955442123673144   T   T   T
  0.4251988935452071  0.3392442193085968  0.1002526833398589   T   T   T
  0.4251733359159836  0.6730980031775692  0.1002407252853519   T   T   T
  0.6871586298549563  0.3390738236853590  0.0988124332743245   T   T   T
  0.6871538202281423  0.6732067857425431  0.0987610588442445   T   T   T
  0.5574896749651821  0.5061873349166339  0.1391764109879379   T   T   T
 
  0.00000000E+00  0.00000000E+00  0.00000000E+00
  0.00000000E+00  0.00000000E+00  0.00000000E+00
  0.00000000E+00  0.00000000E+00  0.00000000E+00
  0.00000000E+00  0.00000000E+00  0.00000000E+00
  0.00000000E+00  0.00000000E+00  0.00000000E+00
  0.00000000E+00  0.00000000E+00  0.00000000E+00
  0.00000000E+00  0.00000000E+00  0.00000000E+00
  0.00000000E+00  0.00000000E+00  0.00000000E+00
  0.00000000E+00  0.00000000E+00  0.00000000E+00
  0.00000000E+00  0.00000000E+00  0.00000000E+00
  0.00000000E+00  0.00000000E+00  0.00000000E+00
  0.00000000E+00  0.00000000E+00  0.00000000E+00
  0.00000000E+00  0.00000000E+00  0.00000000E+00
  0.00000000E+00  0.00000000E+00  0.00000000E+00
  0.00000000E+00  0.00000000E+00  0.00000000E+00
  0.00000000E+00  0.00000000E+00  0.00000000E+00
  0.00000000E+00  0.00000000E+00  0.00000000E+00
  0.00000000E+00  0.00000000E+00  0.00000000E+00
  0.00000000E+00  0.00000000E+00  0.00000000E+00
  0.00000000E+00  0.00000000E+00  0.00000000E+00
  0.00000000E+00  0.00000000E+00  0.00000000E+00
  0.00000000E+00  0.00000000E+00  0.00000000E+00
  0.00000000E+00  0.00000000E+00  0.00000000E+00
  0.00000000E+00  0.00000000E+00  0.00000000E+00
  0.00000000E+00  0.00000000E+00  0.00000000E+00
  0.00000000E+00  0.00000000E+00  0.00000000E+00
  0.00000000E+00  0.00000000E+00  0.00000000E+00
  0.00000000E+00  0.00000000E+00  0.00000000E+00
  0.00000000E+00  0.00000000E+00  0.00000000E+00
  0.00000000E+00  0.00000000E+00  0.00000000E+00
  0.00000000E+00  0.00000000E+00  0.00000000E+00
