Title                                   
   1.00000000000000     
     4.9440799999999996    0.0000000000000000    0.0000000000000000
     0.0000000000000000   17.1295089999999988    0.0000000000000000
     0.0000000000000000    0.0000000000000000   20.0000000000000000
    28     2     1
Selective dynamics
Direct
 -0.0013172016878581  0.1049613203814203  0.2974241068914180   T   T   T
  0.2469059509185025  0.1476042114283004  0.2978665590717134   T   T   T
  0.2459772892048117  0.2314875978988202  0.2993720477830056   T   T   T
 -0.0053204124227340  0.2740079403407085  0.3007061839932704   T   T   T
  0.0031401020710872  0.6027285752723461  0.2999698590019343   T   T   T
  0.2536927775031274  0.7273238741945683  0.2981754410105453   T   T   T
  0.0014552318624424  0.8534631407753437  0.2972190677893113   T   T   T
  0.2508137258551260  0.8956000458162164  0.2972821253342788   T   T   T
  0.2498548609292862  0.9793399639367669  0.2972864340926307   T   T   T
  0.0026532475723808  0.7695169880884564  0.2974481737919106   T   T   T
  0.4980038618515654  0.1054156506473786  0.2971625755948057   T   T   T
  0.7489840576544089  0.1467889728798811  0.2971918316128682   T   T   T
  0.7472854403025915  0.2305669566568768  0.2979580519450263   T   T   T
  0.4992278574411422  0.0214761834234261  0.2971402552837394   T   T   T
  0.7470058378248318  0.3937210606163948  0.3014295055884987   T   T   T
  0.7536556923510926  0.4811981458504004  0.3018672027326776   T   T   T
  0.4973757743229998  0.2722146419525108  0.2986557109594548   T   T   T
  0.5058139136595574  0.6009159852938456  0.3009555819546822   T   T   T
  0.7516798850489990  0.7281349465036298  0.2975775119122903   T   T   T
  0.5009830894341136  0.8536954910091088  0.2972578560029737   T   T   T
  0.7509362549596066  0.8955023804479709  0.2971906220850722   T   T   T
  0.7497721739603455  0.9794298294931301  0.2971845054341843   T   T   T
  0.5019840749796531  0.7699659963936235  0.2975472228978701   T   T   T
  0.7532859424989813  0.6443658107925334  0.2987397817986880   T   T   T
  0.2544993979660945  0.6434565348353047  0.3000132990905365   T   T   T
 -0.0003098285638668  0.0212457499392078  0.2972601046471814   T   T   T
  0.9955319598782953  0.5202382465833888  0.3017560821542897   T   T   T
  0.5051288295295158  0.3547262359501079  0.2993719328274565   T   T   T
  0.5120813974720207  0.5201639726034186  0.3039140513528199   T   T   T
 -0.0116273187122466  0.3547119197127714  0.3047890788296950   T   T   T
  0.2508531343341274  0.4373736302821402  0.3173472365351217   T   T   T
 
  0.00000000E+00  0.00000000E+00  0.00000000E+00
  0.00000000E+00  0.00000000E+00  0.00000000E+00
  0.00000000E+00  0.00000000E+00  0.00000000E+00
  0.00000000E+00  0.00000000E+00  0.00000000E+00
  0.00000000E+00  0.00000000E+00  0.00000000E+00
  0.00000000E+00  0.00000000E+00  0.00000000E+00
  0.00000000E+00  0.00000000E+00  0.00000000E+00
  0.00000000E+00  0.00000000E+00  0.00000000E+00
  0.00000000E+00  0.00000000E+00  0.00000000E+00
  0.00000000E+00  0.00000000E+00  0.00000000E+00
  0.00000000E+00  0.00000000E+00  0.00000000E+00
  0.00000000E+00  0.00000000E+00  0.00000000E+00
  0.00000000E+00  0.00000000E+00  0.00000000E+00
  0.00000000E+00  0.00000000E+00  0.00000000E+00
  0.00000000E+00  0.00000000E+00  0.00000000E+00
  0.00000000E+00  0.00000000E+00  0.00000000E+00
  0.00000000E+00  0.00000000E+00  0.00000000E+00
  0.00000000E+00  0.00000000E+00  0.00000000E+00
  0.00000000E+00  0.00000000E+00  0.00000000E+00
  0.00000000E+00  0.00000000E+00  0.00000000E+00
  0.00000000E+00  0.00000000E+00  0.00000000E+00
  0.00000000E+00  0.00000000E+00  0.00000000E+00
  0.00000000E+00  0.00000000E+00  0.00000000E+00
  0.00000000E+00  0.00000000E+00  0.00000000E+00
  0.00000000E+00  0.00000000E+00  0.00000000E+00
  0.00000000E+00  0.00000000E+00  0.00000000E+00
  0.00000000E+00  0.00000000E+00  0.00000000E+00
  0.00000000E+00  0.00000000E+00  0.00000000E+00
  0.00000000E+00  0.00000000E+00  0.00000000E+00
  0.00000000E+00  0.00000000E+00  0.00000000E+00
  0.00000000E+00  0.00000000E+00  0.00000000E+00
