Title                                   
   1.00000000000000     
     9.8694509999999998    0.0000000000000000    0.0000000000000000
     0.0000000000000000    8.5490480000000009    0.0000000000000000
     0.0000000000000000    0.0000000000000000   20.0000000000000000
    27     4     1
Selective dynamics
Direct
  0.0561973078896552  0.0917046087170769  0.0837832531958068   T   T   T
  0.9305145850565198  0.1751818898691068  0.0859956256637904   T   T   T
  0.0572177582969150  0.9237914727868716  0.0838632367448320   T   T   T
  0.9286825250072788  0.3421994141847467  0.0896803392677971   T   T   T
  0.0558100098863877  0.5895374152041852  0.0869715711581505   T   T   T
  0.9319432490343199  0.6736570983287639  0.0887908639667808   T   T   T
  0.0564337228305535  0.4234102378969020  0.0890247139781137   T   T   T
  0.9320309236701406  0.8413644189800051  0.0861682640043803   T   T   T
  0.3053469074043228  0.0882050167928627  0.0854099804110576   T   T   T
  0.1821448185753440  0.1742465301251838  0.0854981147226196   T   T   T
  0.3075387933732954  0.9224789618314390  0.0880720815595088   T   T   T
  0.1819398172413259  0.3399899050728512  0.0898272941467214   T   T   T
  0.3049092012572691  0.5890532122111267  0.1004043281132138   T   T   T
  0.1815842657985607  0.6706085971840537  0.0888277075889664   T   T   T
  0.1824767249358709  0.8383670532468981  0.0866017772448297   T   T   T
  0.5558965803107333  0.0855280491946909  0.0946073066027232   T   T   T
  0.4304764371286726  0.1685802803754927  0.0911782386061321   T   T   T
  0.4308128048097042  0.3331412706134347  0.0990570809808154   T   T   T
  0.4297082265104025  0.8388372592689772  0.1002904211922799   T   T   T
  0.8067830461918332  0.0908998944468843  0.0864605483540439   T   T   T
  0.6803888129574771  0.1702187527151264  0.0928080667309810   T   T   T
  0.8068757651228002  0.9253375619368353  0.0872212099269484   T   T   T
  0.6773354167407374  0.3341740009656725  0.1004425609311767   T   T   T
  0.8075440444509602  0.5949410292851525  0.0987707926790218   T   T   T
  0.8009449370225881  0.4261800926792262  0.0968413793376737   T   T   T
  0.6841283491938269  0.8421188982697041  0.0973295497104573   T   T   T
  0.4202562676814913  0.6792399848264968  0.1201813086644702   T   T   T
  0.5513065180728628  0.4032981601494412  0.1163059830757010   T   T   T
  0.6931862872166955  0.6867549601512400  0.1143784784504197   T   T   T
  0.5572671788825631  0.9194059422101440  0.0979802882849077   T   T   T
  0.3084994951550495  0.4217681842357176  0.0968534807913566   T   T   T
  0.5634582222938503  0.5860258462436925  0.1760491539143381   T   T   T
 
  0.00000000E+00  0.00000000E+00  0.00000000E+00
  0.00000000E+00  0.00000000E+00  0.00000000E+00
  0.00000000E+00  0.00000000E+00  0.00000000E+00
  0.00000000E+00  0.00000000E+00  0.00000000E+00
  0.00000000E+00  0.00000000E+00  0.00000000E+00
  0.00000000E+00  0.00000000E+00  0.00000000E+00
  0.00000000E+00  0.00000000E+00  0.00000000E+00
  0.00000000E+00  0.00000000E+00  0.00000000E+00
  0.00000000E+00  0.00000000E+00  0.00000000E+00
  0.00000000E+00  0.00000000E+00  0.00000000E+00
  0.00000000E+00  0.00000000E+00  0.00000000E+00
  0.00000000E+00  0.00000000E+00  0.00000000E+00
  0.00000000E+00  0.00000000E+00  0.00000000E+00
  0.00000000E+00  0.00000000E+00  0.00000000E+00
  0.00000000E+00  0.00000000E+00  0.00000000E+00
  0.00000000E+00  0.00000000E+00  0.00000000E+00
  0.00000000E+00  0.00000000E+00  0.00000000E+00
  0.00000000E+00  0.00000000E+00  0.00000000E+00
  0.00000000E+00  0.00000000E+00  0.00000000E+00
  0.00000000E+00  0.00000000E+00  0.00000000E+00
  0.00000000E+00  0.00000000E+00  0.00000000E+00
  0.00000000E+00  0.00000000E+00  0.00000000E+00
  0.00000000E+00  0.00000000E+00  0.00000000E+00
  0.00000000E+00  0.00000000E+00  0.00000000E+00
  0.00000000E+00  0.00000000E+00  0.00000000E+00
  0.00000000E+00  0.00000000E+00  0.00000000E+00
  0.00000000E+00  0.00000000E+00  0.00000000E+00
  0.00000000E+00  0.00000000E+00  0.00000000E+00
  0.00000000E+00  0.00000000E+00  0.00000000E+00
  0.00000000E+00  0.00000000E+00  0.00000000E+00
  0.00000000E+00  0.00000000E+00  0.00000000E+00
  0.00000000E+00  0.00000000E+00  0.00000000E+00
