Title                                   
   1.00000000000000     
     9.8694509999999998    0.0000000000000000    0.0000000000000000
     0.0000000000000000    8.5490480000000009    0.0000000000000000
     0.0000000000000000    0.0000000000000000   20.0000000000000000
    29     1     1
Selective dynamics
Direct
  0.0557111192775472  0.0889718839791486  0.0905452291917744   T   T   T
  0.9315622598513992  0.1715828516355848  0.0913406286430095   T   T   T
  0.0574331926432890  0.9239363635128058  0.0906630510346187   T   T   T
  0.9338572599813372  0.3384824791270604  0.0903659837353628   T   T   T
  0.0569014515899325  0.5904467392774242  0.0887037694523351   T   T   T
  0.9341675747859224  0.6743709119294228  0.0903673445755971   T   T   T
  0.0565765868759222  0.4227516197113063  0.0887721666706348   T   T   T
  0.9320559736597427  0.8402751760047378  0.0913824302084682   T   T   T
  0.3059273540100054  0.0887075665025864  0.0949686456956769   T   T   T
  0.1810091878569342  0.1706218640332875  0.0914497934061368   T   T   T
  0.1791490125895575  0.3376605228057399  0.0907332833015684   T   T   T
  0.3009490077372903  0.5903029792148010  0.0949321502809874   T   T   T
  0.1796372234230230  0.6751817094278200  0.0906471907504435   T   T   T
  0.3008989858955969  0.4219043862305306  0.0949056357669658   T   T   T
  0.1817492838216766  0.8416091146439746  0.0916626025270441   T   T   T
  0.5565732487494321  0.0890831406121155  0.0998313002968681   T   T   T
  0.4302711053076173  0.1746909867353693  0.0989640619221559   T   T   T
  0.5550568741737267  0.9230600708677272  0.0997899461378647   T   T   T
  0.4230827978727975  0.3394849741289188  0.1000996006497031   T   T   T
  0.4225544503713676  0.6730151472537637  0.1002984979696123   T   T   T
  0.4293725726177668  0.8370354702738254  0.0989162287434655   T   T   T
  0.8060149310931836  0.0895037698900400  0.0946659006404430   T   T   T
  0.6812828883125448  0.1757954587682847  0.0984056341757821   T   T   T
  0.8062346714233051  0.9222135812611536  0.0947125117760886   T   T   T
  0.6889344708785529  0.3409090494886256  0.0990985676152472   T   T   T
  0.8120786833841540  0.5904897016903866  0.0940585451627596   T   T   T
  0.6896545965783216  0.6714486764543734  0.0992346030274713   T   T   T
  0.8115697711322588  0.4220790255070753  0.0940506549203000   T   T   T
  0.6809418716581246  0.8355895113507140  0.0984806983250342   T   T   T
  0.3059946659748320  0.9230534708265007  0.0949089630900326   T   T   T
  0.5559319264728416  0.5066167968549165  0.1040093803065753   T   T   T
 
  0.00000000E+00  0.00000000E+00  0.00000000E+00
  0.00000000E+00  0.00000000E+00  0.00000000E+00
  0.00000000E+00  0.00000000E+00  0.00000000E+00
  0.00000000E+00  0.00000000E+00  0.00000000E+00
  0.00000000E+00  0.00000000E+00  0.00000000E+00
  0.00000000E+00  0.00000000E+00  0.00000000E+00
  0.00000000E+00  0.00000000E+00  0.00000000E+00
  0.00000000E+00  0.00000000E+00  0.00000000E+00
  0.00000000E+00  0.00000000E+00  0.00000000E+00
  0.00000000E+00  0.00000000E+00  0.00000000E+00
  0.00000000E+00  0.00000000E+00  0.00000000E+00
  0.00000000E+00  0.00000000E+00  0.00000000E+00
  0.00000000E+00  0.00000000E+00  0.00000000E+00
  0.00000000E+00  0.00000000E+00  0.00000000E+00
  0.00000000E+00  0.00000000E+00  0.00000000E+00
  0.00000000E+00  0.00000000E+00  0.00000000E+00
  0.00000000E+00  0.00000000E+00  0.00000000E+00
  0.00000000E+00  0.00000000E+00  0.00000000E+00
  0.00000000E+00  0.00000000E+00  0.00000000E+00
  0.00000000E+00  0.00000000E+00  0.00000000E+00
  0.00000000E+00  0.00000000E+00  0.00000000E+00
  0.00000000E+00  0.00000000E+00  0.00000000E+00
  0.00000000E+00  0.00000000E+00  0.00000000E+00
  0.00000000E+00  0.00000000E+00  0.00000000E+00
  0.00000000E+00  0.00000000E+00  0.00000000E+00
  0.00000000E+00  0.00000000E+00  0.00000000E+00
  0.00000000E+00  0.00000000E+00  0.00000000E+00
  0.00000000E+00  0.00000000E+00  0.00000000E+00
  0.00000000E+00  0.00000000E+00  0.00000000E+00
  0.00000000E+00  0.00000000E+00  0.00000000E+00
  0.00000000E+00  0.00000000E+00  0.00000000E+00
