Title                                   
   1.00000000000000     
     4.9440799999999996    0.0000000000000000    0.0000000000000000
     0.0000000000000000    8.5647549999999999    0.0000000000000000
     0.0000000000000000    0.0000000000000000   20.0000000000000000
    12     3     1
Selective dynamics
Direct
  0.2500000000000000  0.2123585107095291  0.0914210205045690   T   T   T
 -0.0049368338460182  0.2932433023422852  0.0932862571295490   T   T   T
  0.2500000000000000  0.0449537460472111  0.0901156374337975   T   T   T
  0.0039607586034668  0.7943868200537151  0.1006199072289491   T   T   T
  0.0001341970619461  0.9599306865729925  0.0906569658091418   T   T   T
  0.7500000000000000  0.2075354033165199  0.0881420066630272   T   T   T
  0.5049368338460181  0.2932433023422852  0.0932862571295490   T   T   T
  0.7500000000000000  0.0413226515990120  0.0870027946231899   T   T   T
  0.7500000000000000  0.7053560700417431  0.1028957804210674   T   T   T
  0.4960392413965330  0.7943868200537151  0.1006199072289491   T   T   T
  0.7500000000000000  0.5329705807349536  0.1027467991783522   T   T   T
  0.4998658029380540  0.9599306865729925  0.0906569658091418   T   T   T
  0.5131815549966539  0.4515548276508154  0.1024033648462305   T   T   T
 -0.0131815549966538  0.4515548276508154  0.1024033648462305   T   T   T
  0.2500000000000000  0.7245081384848637  0.1114380781254002   T   T   T
  0.2500000000000000  0.5327636258265506  0.1748168930228630   T   T   T
 
  0.00000000E+00  0.00000000E+00  0.00000000E+00
  0.00000000E+00  0.00000000E+00  0.00000000E+00
  0.00000000E+00  0.00000000E+00  0.00000000E+00
  0.00000000E+00  0.00000000E+00  0.00000000E+00
  0.00000000E+00  0.00000000E+00  0.00000000E+00
  0.00000000E+00  0.00000000E+00  0.00000000E+00
  0.00000000E+00  0.00000000E+00  0.00000000E+00
  0.00000000E+00  0.00000000E+00  0.00000000E+00
  0.00000000E+00  0.00000000E+00  0.00000000E+00
  0.00000000E+00  0.00000000E+00  0.00000000E+00
  0.00000000E+00  0.00000000E+00  0.00000000E+00
  0.00000000E+00  0.00000000E+00  0.00000000E+00
  0.00000000E+00  0.00000000E+00  0.00000000E+00
  0.00000000E+00  0.00000000E+00  0.00000000E+00
  0.00000000E+00  0.00000000E+00  0.00000000E+00
  0.00000000E+00  0.00000000E+00  0.00000000E+00
