Title                                   
   1.00000000000000     
     8.5490480000000009    0.0000000000000000    0.0000000000000000
     0.0000000000000000    8.5490480000000009    0.0000000000000000
     0.0000000000000000    0.0000000000000000   20.0000000000000000
    20     4     1
Selective dynamics
Direct
  0.9076570979183674  0.2056878959579239  0.0925946612081736   T   T   T
  0.9137519065028926  0.8033194690955962  0.0937506531928216   T   T   T
  0.1937332110452508  0.0815758462875912  0.0944561410480364   T   T   T
  0.0732047567150706  0.1990162374722562  0.0939076632276575   T   T   T
  0.1573360936650263  0.6486750369775938  0.0944937200164474   T   T   T
  0.0762863413391130  0.5007743159369041  0.0960499234247286   T   T   T
  0.1534752749399095  0.3487376660503549  0.0974407560564248   T   T   T
  0.0798096206877661  0.7998334963080242  0.0927798419958676   T   T   T
  0.4930838982080748  0.0873120686948261  0.0971150339051092   T   T   T
  0.3397211146375977  0.1629583004661740  0.0979457054281640   T   T   T
  0.4944100782107053  0.9165576237013877  0.0972749231689360   T   T   T
  0.3461901541516812  0.8344137210036967  0.0952079164213385   T   T   T
  0.7885348468454830  0.0879678837468184  0.0932962050114988   T   T   T
  0.6388340686001389  0.1692978617049122  0.0953252242167801   T   T   T
  0.7916972452042379  0.9211178475991917  0.0945653492892814   T   T   T
  0.8332240547236209  0.6534299287799061  0.0970200839501102   T   T   T
  0.8271714675270353  0.3577230256205894  0.0943494537657280   T   T   T
  0.6452845706529718  0.8377414241922742  0.0982970635441468   T   T   T
  0.3223771979468310  0.6721610414413014  0.0954066919119720   T   T   T
  0.6642087420733686  0.3372527263269993  0.0958353060629963   T   T   T
  0.9092514459251410  0.5044725373743592  0.0958320442938326   T   T   T
  0.3137014491637226  0.3240970797585180  0.1016531544867560   T   T   T
  0.6743453634183731  0.6747348355872792  0.1021016363306120   T   T   T
  0.1964584822147092  0.9151395844832433  0.0929181325556755   T   T   T
  0.4916635176828977  0.5007925454322915  0.1440877154868850   T   T   T
 
  0.00000000E+00  0.00000000E+00  0.00000000E+00
  0.00000000E+00  0.00000000E+00  0.00000000E+00
  0.00000000E+00  0.00000000E+00  0.00000000E+00
  0.00000000E+00  0.00000000E+00  0.00000000E+00
  0.00000000E+00  0.00000000E+00  0.00000000E+00
  0.00000000E+00  0.00000000E+00  0.00000000E+00
  0.00000000E+00  0.00000000E+00  0.00000000E+00
  0.00000000E+00  0.00000000E+00  0.00000000E+00
  0.00000000E+00  0.00000000E+00  0.00000000E+00
  0.00000000E+00  0.00000000E+00  0.00000000E+00
  0.00000000E+00  0.00000000E+00  0.00000000E+00
  0.00000000E+00  0.00000000E+00  0.00000000E+00
  0.00000000E+00  0.00000000E+00  0.00000000E+00
  0.00000000E+00  0.00000000E+00  0.00000000E+00
  0.00000000E+00  0.00000000E+00  0.00000000E+00
  0.00000000E+00  0.00000000E+00  0.00000000E+00
  0.00000000E+00  0.00000000E+00  0.00000000E+00
  0.00000000E+00  0.00000000E+00  0.00000000E+00
  0.00000000E+00  0.00000000E+00  0.00000000E+00
  0.00000000E+00  0.00000000E+00  0.00000000E+00
  0.00000000E+00  0.00000000E+00  0.00000000E+00
  0.00000000E+00  0.00000000E+00  0.00000000E+00
  0.00000000E+00  0.00000000E+00  0.00000000E+00
  0.00000000E+00  0.00000000E+00  0.00000000E+00
  0.00000000E+00  0.00000000E+00  0.00000000E+00
