Title                                   
   1.00000000000000     
     9.8694509999999998    0.0000000000000000    0.0000000000000000
     0.0000000000000000    8.5490480000000009    0.0000000000000000
     0.0000000000000000    0.0000000000000000   20.0000000000000000
    29     2     1
Selective dynamics
Direct
  0.0560422662497408  0.0909638923238849  0.0876463904661716   T   T   T
  0.9307164626482882  0.1723068592996831  0.0887256285982347   T   T   T
  0.0547572655801862  0.9240615945458277  0.0883644150299478   T   T   T
  0.9305529533523675  0.3392754857888045  0.0909304298816670   T   T   T
  0.0556615497885990  0.5891945610624134  0.0894468995989284   T   T   T
  0.9309219084701585  0.6720672740928072  0.0931629350948324   T   T   T
  0.0571547173168596  0.4231978764770352  0.0896493520731945   T   T   T
  0.9303482196412114  0.8387325664290765  0.0919532470680057   T   T   T
  0.3052455990755443  0.0913194572091509  0.0886301793182318   T   T   T
  0.1816278982138328  0.1753608390428771  0.0878175071071136   T   T   T
  0.3032731910684164  0.9252348871639352  0.0892777954608073   T   T   T
  0.1843554038818080  0.3428167360570465  0.0887715316202845   T   T   T
  0.3071734429392171  0.5958962556708037  0.0915944157993907   T   T   T
  0.1799528227846384  0.6744927504124502  0.0890107783761568   T   T   T
  0.3114238714046196  0.4266101010021602  0.0904029854344596   T   T   T
  0.1790329436676381  0.8411020193976282  0.0883699401357220   T   T   T
  0.5552119506348251  0.0849300434262557  0.0932195473044367   T   T   T
  0.4317065301602673  0.1715024087788810  0.0906480055255519   T   T   T
  0.5535063441042694  0.9197940785973968  0.0976442732701079   T   T   T
  0.4370130942393127  0.3379261890930188  0.0921823568575873   T   T   T
  0.4254903810323807  0.8391958806553339  0.0943728268932506   T   T   T
  0.8064171103908520  0.0872257407286842  0.0908682405195237   T   T   T
  0.6811153097397262  0.1678308732405452  0.0926899787567541   T   T   T
  0.8056938158875693  0.9210381690536481  0.0940297363212941   T   T   T
  0.6793428165449643  0.3330566024470454  0.0951807865115248   T   T   T
  0.8064380102040709  0.5874708207569505  0.1025435621575330   T   T   T
  0.6926214179352561  0.6785263323678099  0.1195070991663108   T   T   T
  0.8053147259471430  0.4200065334181232  0.0967941846160776   T   T   T
  0.6800976120080481  0.8380286076159240  0.1032950687915315   T   T   T
  0.4241582702697452  0.6811838494590222  0.0961023828353068   T   T   T
  0.5601032841263609  0.4119977635455731  0.0963048309014277   T   T   T
  0.5571678106920901  0.5878989508402130  0.1765376885086673   T   T   T
 
  0.00000000E+00  0.00000000E+00  0.00000000E+00
  0.00000000E+00  0.00000000E+00  0.00000000E+00
  0.00000000E+00  0.00000000E+00  0.00000000E+00
  0.00000000E+00  0.00000000E+00  0.00000000E+00
  0.00000000E+00  0.00000000E+00  0.00000000E+00
  0.00000000E+00  0.00000000E+00  0.00000000E+00
  0.00000000E+00  0.00000000E+00  0.00000000E+00
  0.00000000E+00  0.00000000E+00  0.00000000E+00
  0.00000000E+00  0.00000000E+00  0.00000000E+00
  0.00000000E+00  0.00000000E+00  0.00000000E+00
  0.00000000E+00  0.00000000E+00  0.00000000E+00
  0.00000000E+00  0.00000000E+00  0.00000000E+00
  0.00000000E+00  0.00000000E+00  0.00000000E+00
  0.00000000E+00  0.00000000E+00  0.00000000E+00
  0.00000000E+00  0.00000000E+00  0.00000000E+00
  0.00000000E+00  0.00000000E+00  0.00000000E+00
  0.00000000E+00  0.00000000E+00  0.00000000E+00
  0.00000000E+00  0.00000000E+00  0.00000000E+00
  0.00000000E+00  0.00000000E+00  0.00000000E+00
  0.00000000E+00  0.00000000E+00  0.00000000E+00
  0.00000000E+00  0.00000000E+00  0.00000000E+00
  0.00000000E+00  0.00000000E+00  0.00000000E+00
  0.00000000E+00  0.00000000E+00  0.00000000E+00
  0.00000000E+00  0.00000000E+00  0.00000000E+00
  0.00000000E+00  0.00000000E+00  0.00000000E+00
  0.00000000E+00  0.00000000E+00  0.00000000E+00
  0.00000000E+00  0.00000000E+00  0.00000000E+00
  0.00000000E+00  0.00000000E+00  0.00000000E+00
  0.00000000E+00  0.00000000E+00  0.00000000E+00
  0.00000000E+00  0.00000000E+00  0.00000000E+00
  0.00000000E+00  0.00000000E+00  0.00000000E+00
  0.00000000E+00  0.00000000E+00  0.00000000E+00
