Title                                   
   1.00000000000000     
     9.8694509999999998    0.0000000000000000    0.0000000000000000
     0.0000000000000000    8.5490480000000009    0.0000000000000000
     0.0000000000000000    0.0000000000000000   20.0000000000000000
    29     2     1
Selective dynamics
Direct
  0.0570978122664390  0.0908466677217570  0.0835752916116740   T   T   T
  0.9318194980244762  0.1726950007900879  0.0871105596092991   T   T   T
  0.0559564383613559  0.9235847856363892  0.0833276920277583   T   T   T
  0.9320945680649003  0.3397738019723092  0.0921729244691590   T   T   T
  0.0563790927407772  0.5894517524650935  0.0887982136113590   T   T   T
  0.9313676280803295  0.6720555351083835  0.0922608215954116   T   T   T
  0.0577044339521167  0.4231777934484515  0.0900869974319264   T   T   T
  0.9310294243184395  0.8386582904062179  0.0878676789722935   T   T   T
  0.3062477896821232  0.0908213120284341  0.0845612655684350   T   T   T
  0.1825211059974200  0.1752413539511062  0.0853043679907107   T   T   T
  0.3060006735467611  0.9255716098586525  0.0836089432600572   T   T   T
  0.1839131209655310  0.3421777876720306  0.0898308616476375   T   T   T
  0.3056403420111301  0.5948162547275462  0.0964521008073544   T   T   T
  0.1804156189116329  0.6742302075009854  0.0874845356195333   T   T   T
  0.3100642489086392  0.4262143168845727  0.0971001763724133   T   T   T
  0.1808135392535870  0.8404068998348692  0.0838563038753413   T   T   T
  0.5565741562998124  0.0857129757658181  0.0938210090975519   T   T   T
  0.4321840296169754  0.1699680020291750  0.0915774625039466   T   T   T
  0.4340666610727388  0.3355111116582792  0.1017366758995829   T   T   T
  0.5595991536560215  0.4055480442109525  0.1176443871976727   T   T   T
  0.4284312908756724  0.8423959563318334  0.0933418134798978   T   T   T
  0.8079521761337132  0.0872972525030648  0.0879835672318366   T   T   T
  0.6827331333671163  0.1673194993424947  0.0940355123104170   T   T   T
  0.8056286272915365  0.9217291830738008  0.0891075419697351   T   T   T
  0.6840874258013896  0.3320510936778222  0.1043285784491752   T   T   T
  0.8080616927197108  0.5901512059476298  0.1052254944553686   T   T   T
  0.6884962916264843  0.6797575654864544  0.1196146068417978   T   T   T
  0.8078411806180744  0.4214862951829462  0.1023407345816729   T   T   T
  0.6822757604505918  0.8378465277996440  0.1004832154614497   T   T   T
  0.4213870534772928  0.6866555473128058  0.1077307177666783   T   T   T
  0.5549761801368178  0.9197254990985522  0.0964606050994709   T   T   T
  0.5362788517703990  0.5873668705718270  0.1848443431834275   T   T   T
 
  0.00000000E+00  0.00000000E+00  0.00000000E+00
  0.00000000E+00  0.00000000E+00  0.00000000E+00
  0.00000000E+00  0.00000000E+00  0.00000000E+00
  0.00000000E+00  0.00000000E+00  0.00000000E+00
  0.00000000E+00  0.00000000E+00  0.00000000E+00
  0.00000000E+00  0.00000000E+00  0.00000000E+00
  0.00000000E+00  0.00000000E+00  0.00000000E+00
  0.00000000E+00  0.00000000E+00  0.00000000E+00
  0.00000000E+00  0.00000000E+00  0.00000000E+00
  0.00000000E+00  0.00000000E+00  0.00000000E+00
  0.00000000E+00  0.00000000E+00  0.00000000E+00
  0.00000000E+00  0.00000000E+00  0.00000000E+00
  0.00000000E+00  0.00000000E+00  0.00000000E+00
  0.00000000E+00  0.00000000E+00  0.00000000E+00
  0.00000000E+00  0.00000000E+00  0.00000000E+00
  0.00000000E+00  0.00000000E+00  0.00000000E+00
  0.00000000E+00  0.00000000E+00  0.00000000E+00
  0.00000000E+00  0.00000000E+00  0.00000000E+00
  0.00000000E+00  0.00000000E+00  0.00000000E+00
  0.00000000E+00  0.00000000E+00  0.00000000E+00
  0.00000000E+00  0.00000000E+00  0.00000000E+00
  0.00000000E+00  0.00000000E+00  0.00000000E+00
  0.00000000E+00  0.00000000E+00  0.00000000E+00
  0.00000000E+00  0.00000000E+00  0.00000000E+00
  0.00000000E+00  0.00000000E+00  0.00000000E+00
  0.00000000E+00  0.00000000E+00  0.00000000E+00
  0.00000000E+00  0.00000000E+00  0.00000000E+00
  0.00000000E+00  0.00000000E+00  0.00000000E+00
  0.00000000E+00  0.00000000E+00  0.00000000E+00
  0.00000000E+00  0.00000000E+00  0.00000000E+00
  0.00000000E+00  0.00000000E+00  0.00000000E+00
  0.00000000E+00  0.00000000E+00  0.00000000E+00
