Title                                   
   1.00000000000000     
     8.5490480000000009    0.0000000000000000    0.0000000000000000
     0.0000000000000000    8.5490480000000009    0.0000000000000000
     0.0000000000000000    0.0000000000000000   20.0000000000000000
    21     3     1
Selective dynamics
Direct
  0.9100706995258462  0.2069736036532758  0.0954472503465387   T   T   T
  0.9038618796246065  0.5027859619598430  0.0953069087080211   T   T   T
  0.9101503226530208  0.7990839723054859  0.0954727016437071   T   T   T
  0.1994812993907455  0.0847771476550319  0.0954847343865747   T   T   T
  0.0760062585272378  0.2082325599851246  0.0954554136726696   T   T   T
  0.1982282514297475  0.9188449683047840  0.0954920297833298   T   T   T
  0.1572141648319846  0.6507938327742886  0.0953387087026635   T   T   T
  0.0753968504913532  0.5025600149098307  0.0953266496848970   T   T   T
  0.1569255822805616  0.3575170166582044  0.0953617386462418   T   T   T
  0.0766971141835906  0.7981476848579057  0.0954745342148011   T   T   T
  0.4937268677312410  0.0841978334634495  0.0953621345369770   T   T   T
  0.3487058260944288  0.1657444110322526  0.0953876587033041   T   T   T
  0.4939850307422450  0.9126707617801239  0.0953539779038164   T   T   T
  0.3458323386431185  0.8336270275909954  0.0953558285198392   T   T   T
  0.7893320894072310  0.0854487507192221  0.0954682085759543   T   T   T
  0.6419639873354714  0.1659767188880769  0.0953244426112655   T   T   T
  0.7903004041034812  0.9189188505036312  0.0954754838961812   T   T   T
  0.8261549005766409  0.6513252385930460  0.0953130340032095   T   T   T
  0.8248536077527178  0.3546000102939126  0.0953030311787114   T   T   T
  0.6425099179679462  0.8349155624374708  0.0953235589670941   T   T   T
  0.3271560851299692  0.3359325036904418  0.0952721953813088   T   T   T
  0.3199303828564206  0.6708862362836376  0.0952052115008720   T   T   T
  0.6620873571846995  0.3286373900810728  0.0951714689301040   T   T   T
  0.6659921877660171  0.6747560125991442  0.0951737382687043   T   T   T
  0.4888485937696705  0.4974359289797612  0.0950543572331916   T   T   T
 
  0.00000000E+00  0.00000000E+00  0.00000000E+00
  0.00000000E+00  0.00000000E+00  0.00000000E+00
  0.00000000E+00  0.00000000E+00  0.00000000E+00
  0.00000000E+00  0.00000000E+00  0.00000000E+00
  0.00000000E+00  0.00000000E+00  0.00000000E+00
  0.00000000E+00  0.00000000E+00  0.00000000E+00
  0.00000000E+00  0.00000000E+00  0.00000000E+00
  0.00000000E+00  0.00000000E+00  0.00000000E+00
  0.00000000E+00  0.00000000E+00  0.00000000E+00
  0.00000000E+00  0.00000000E+00  0.00000000E+00
  0.00000000E+00  0.00000000E+00  0.00000000E+00
  0.00000000E+00  0.00000000E+00  0.00000000E+00
  0.00000000E+00  0.00000000E+00  0.00000000E+00
  0.00000000E+00  0.00000000E+00  0.00000000E+00
  0.00000000E+00  0.00000000E+00  0.00000000E+00
  0.00000000E+00  0.00000000E+00  0.00000000E+00
  0.00000000E+00  0.00000000E+00  0.00000000E+00
  0.00000000E+00  0.00000000E+00  0.00000000E+00
  0.00000000E+00  0.00000000E+00  0.00000000E+00
  0.00000000E+00  0.00000000E+00  0.00000000E+00
  0.00000000E+00  0.00000000E+00  0.00000000E+00
  0.00000000E+00  0.00000000E+00  0.00000000E+00
  0.00000000E+00  0.00000000E+00  0.00000000E+00
  0.00000000E+00  0.00000000E+00  0.00000000E+00
  0.00000000E+00  0.00000000E+00  0.00000000E+00
