Title                                   
   1.00000000000000     
     9.8694509999999998    0.0000000000000000    0.0000000000000000
     0.0000000000000000    8.5490480000000009    0.0000000000000000
     0.0000000000000000    0.0000000000000000   20.0000000000000000
    24     6     1
Selective dynamics
Direct
  0.0550095075424398  0.0905723045937940  0.0875585943870777   T   T   T
  0.9301255940892664  0.1734893916328161  0.0879793323393400   T   T   T
  0.0576330358636054  0.9217226793731904  0.0881554800959833   T   T   T
  0.9325019603963495  0.3409549804208412  0.0878852120062253   T   T   T
  0.0565200405687069  0.5908119345714611  0.0863599647281944   T   T   T
  0.0562936551178391  0.4240021248375723  0.0856598330694656   T   T   T
  0.9326049432226517  0.8400419756577413  0.0899339515535449   T   T   T
  0.3070635672423456  0.0879131061344376  0.0934520847606007   T   T   T
  0.1803971260401760  0.1713432173249899  0.0895366152916852   T   T   T
  0.1804439117947436  0.3389812002874947  0.0883957110633762   T   T   T
  0.3033920764048444  0.5886830998507682  0.0939264943153924   T   T   T
  0.1801225818772902  0.6729962106402592  0.0880460715109795   T   T   T
  0.3040424752743463  0.4199249026224758  0.0957792400157420   T   T   T
  0.1817771659661445  0.8403302524795759  0.0891120898580098   T   T   T
  0.4279720045329780  0.1722615094936177  0.1018896321326570   T   T   T
  0.5547926104505327  0.9185195275019674  0.1029132019817020   T   T   T
  0.4283394693012678  0.8361140809124912  0.1001277657413686   T   T   T
  0.8038276719747594  0.0897036064812820  0.0916956216229083   T   T   T
  0.6802532274564137  0.1757605222285972  0.0996280530441363   T   T   T
  0.8067011207752315  0.9219788108127637  0.0931900445716639   T   T   T
  0.6870448109311390  0.3412221366516831  0.1076796178399510   T   T   T
  0.8127790277104260  0.5943185126217557  0.0987114575733950   T   T   T
  0.8106857514545722  0.4254884172971552  0.0964339208105548   T   T   T
  0.6835159996702571  0.8374241865392894  0.1026499278526881   T   T   T
  0.9336892396196661  0.6739212197903380  0.0897094918001295   T   T   T
  0.5549850860304656  0.0918915965728294  0.1029612456866929   T   T   T
  0.4214300811969864  0.3335432763060426  0.1104013732281297   T   T   T
  0.6961248381061916  0.6761649124091936  0.1126080389481923   T   T   T
  0.4211097223786052  0.6756140919900911  0.1049441231964606   T   T   T
  0.3062053657984553  0.9211131201337991  0.0919982454452314   T   T   T
  0.5557513312113135  0.5040680918296989  0.1416425635285576   T   T   T
 
  0.00000000E+00  0.00000000E+00  0.00000000E+00
  0.00000000E+00  0.00000000E+00  0.00000000E+00
  0.00000000E+00  0.00000000E+00  0.00000000E+00
  0.00000000E+00  0.00000000E+00  0.00000000E+00
  0.00000000E+00  0.00000000E+00  0.00000000E+00
  0.00000000E+00  0.00000000E+00  0.00000000E+00
  0.00000000E+00  0.00000000E+00  0.00000000E+00
  0.00000000E+00  0.00000000E+00  0.00000000E+00
  0.00000000E+00  0.00000000E+00  0.00000000E+00
  0.00000000E+00  0.00000000E+00  0.00000000E+00
  0.00000000E+00  0.00000000E+00  0.00000000E+00
  0.00000000E+00  0.00000000E+00  0.00000000E+00
  0.00000000E+00  0.00000000E+00  0.00000000E+00
  0.00000000E+00  0.00000000E+00  0.00000000E+00
  0.00000000E+00  0.00000000E+00  0.00000000E+00
  0.00000000E+00  0.00000000E+00  0.00000000E+00
  0.00000000E+00  0.00000000E+00  0.00000000E+00
  0.00000000E+00  0.00000000E+00  0.00000000E+00
  0.00000000E+00  0.00000000E+00  0.00000000E+00
  0.00000000E+00  0.00000000E+00  0.00000000E+00
  0.00000000E+00  0.00000000E+00  0.00000000E+00
  0.00000000E+00  0.00000000E+00  0.00000000E+00
  0.00000000E+00  0.00000000E+00  0.00000000E+00
  0.00000000E+00  0.00000000E+00  0.00000000E+00
  0.00000000E+00  0.00000000E+00  0.00000000E+00
  0.00000000E+00  0.00000000E+00  0.00000000E+00
  0.00000000E+00  0.00000000E+00  0.00000000E+00
  0.00000000E+00  0.00000000E+00  0.00000000E+00
  0.00000000E+00  0.00000000E+00  0.00000000E+00
  0.00000000E+00  0.00000000E+00  0.00000000E+00
  0.00000000E+00  0.00000000E+00  0.00000000E+00
