Title                                   
   1.00000000000000     
     4.9440799999999996    0.0000000000000000    0.0000000000000000
     0.0000000000000000   17.1295089999999988    0.0000000000000000
     0.0000000000000000    0.0000000000000000   20.0000000000000000
    31     1
Selective dynamics
Direct
 -0.0008646114917086  0.1040844206015809  0.2809814825841006   T   T   T
  0.2489447653579288  0.1454973255662466  0.2851145195556286   T   T   T
  0.2483568340194390  0.2280461444392405  0.2961323299103817   T   T   T
 -0.0034287076671743  0.3508510552809075  0.3174604386993670   T   T   T
 -0.0025422622915145  0.2687413428989294  0.3019319088624723   T   T   T
 -0.0008682533425874  0.6065994219585363  0.3135496324720921   T   T   T
  0.2514610344450876  0.7293972025105527  0.2939413708220525   T   T   T
  0.0011573527616228  0.8542181870942268  0.2799825485117227   T   T   T
  0.2505693247776425  0.8959729869810569  0.2776933538595737   T   T   T
  0.2499369207398760  0.9792119103865539  0.2757708090358170   T   T   T
  0.0020228510640465  0.7714250519501766  0.2875845569517499   T   T   T
  0.4990666845627056  0.1040666243039155  0.2809889288763822   T   T   T
  0.7488753555689436  0.1454542404547575  0.2845281247734052   T   T   T
  0.7482093040285092  0.2280312018151029  0.2947632665460723   T   T   T
  0.4998193037739859  0.0208472080184917  0.2763972721531818   T   T   T
  0.4982225305514836  0.3510953946271824  0.3175222918167155   T   T   T
  0.7475380188965571  0.3931790700111096  0.3204238089134192   T   T   T
  0.7499586740113903  0.4770394951105010  0.3240943506275488   T   T   T
  0.4987104225643880  0.2688609060687243  0.3020038582134502   T   T   T
  0.5055577889663648  0.6072347781325115  0.3150222716246737   T   T   T
  0.7515875816524115  0.7308012555082173  0.2922018574626252   T   T   T
  0.5003555141613328  0.8542165270410418  0.2800805201475802   T   T   T
  0.7505726706817187  0.8957118645928459  0.2774823232391024   T   T   T
  0.7499538634704881  0.9791305238415723  0.2756606952153665   T   T   T
  0.5006899939149754  0.7714436102842501  0.2878666241079883   T   T   T
  0.7521694251602193  0.6494372327285182  0.3053903167751149   T   T   T
  0.2519809135324917  0.6476459388415636  0.3077642583908423   T   T   T
 -0.0003221689008522  0.0208565222681601  0.2763767062560586   T   T   T
  0.5266435884860114  0.5275762308826952  0.3306161139264288   T   T   T
  0.9790637840597938  0.5260168253066579  0.3257854648578322   T   T   T
  0.2468179089827984  0.3853329283843835  0.3317784073469692   T   T   T
  0.2466065935016344  0.4805275721097808  0.4056745874642360   T   T   T
 
  0.00000000E+00  0.00000000E+00  0.00000000E+00
  0.00000000E+00  0.00000000E+00  0.00000000E+00
  0.00000000E+00  0.00000000E+00  0.00000000E+00
  0.00000000E+00  0.00000000E+00  0.00000000E+00
  0.00000000E+00  0.00000000E+00  0.00000000E+00
  0.00000000E+00  0.00000000E+00  0.00000000E+00
  0.00000000E+00  0.00000000E+00  0.00000000E+00
  0.00000000E+00  0.00000000E+00  0.00000000E+00
  0.00000000E+00  0.00000000E+00  0.00000000E+00
  0.00000000E+00  0.00000000E+00  0.00000000E+00
  0.00000000E+00  0.00000000E+00  0.00000000E+00
  0.00000000E+00  0.00000000E+00  0.00000000E+00
  0.00000000E+00  0.00000000E+00  0.00000000E+00
  0.00000000E+00  0.00000000E+00  0.00000000E+00
  0.00000000E+00  0.00000000E+00  0.00000000E+00
  0.00000000E+00  0.00000000E+00  0.00000000E+00
  0.00000000E+00  0.00000000E+00  0.00000000E+00
  0.00000000E+00  0.00000000E+00  0.00000000E+00
  0.00000000E+00  0.00000000E+00  0.00000000E+00
  0.00000000E+00  0.00000000E+00  0.00000000E+00
  0.00000000E+00  0.00000000E+00  0.00000000E+00
  0.00000000E+00  0.00000000E+00  0.00000000E+00
  0.00000000E+00  0.00000000E+00  0.00000000E+00
  0.00000000E+00  0.00000000E+00  0.00000000E+00
  0.00000000E+00  0.00000000E+00  0.00000000E+00
  0.00000000E+00  0.00000000E+00  0.00000000E+00
  0.00000000E+00  0.00000000E+00  0.00000000E+00
  0.00000000E+00  0.00000000E+00  0.00000000E+00
  0.00000000E+00  0.00000000E+00  0.00000000E+00
  0.00000000E+00  0.00000000E+00  0.00000000E+00
  0.00000000E+00  0.00000000E+00  0.00000000E+00
  0.00000000E+00  0.00000000E+00  0.00000000E+00
