Title                                   
   1.00000000000000     
     8.5490480000000009    0.0000000000000000    0.0000000000000000
     0.0000000000000000    8.5490480000000009    0.0000000000000000
     0.0000000000000000    0.0000000000000000   20.0000000000000000
    18     6     1
Selective dynamics
Direct
  0.9089315909264076  0.2049646571078680  0.0974250696202333   T   T   T
  0.9112416557873942  0.8016245814326083  0.0974638048143139   T   T   T
  0.1951594170820761  0.0833333158532518  0.0977391864934567   T   T   T
  0.0754280482910830  0.2004668308774821  0.0975789622898177   T   T   T
  0.1554061471889940  0.6523610117114474  0.0977757295065707   T   T   T
  0.0775114287916753  0.5007558349110677  0.0977812402677755   T   T   T
  0.1552047654543144  0.3500292127675841  0.0978216843164764   T   T   T
  0.0779624803919122  0.7999132262072266  0.0976194634415637   T   T   T
  0.4935471210095354  0.0880635822475604  0.0979026197164111   T   T   T
  0.3422106092906694  0.1648284454671738  0.0979804019744987   T   T   T
  0.4929976633280216  0.9165970186139617  0.0978123611285651   T   T   T
  0.3424470636698175  0.8368163759240704  0.0978615127266693   T   T   T
  0.7894223671455540  0.0869734649506902  0.0974776302242357   T   T   T
  0.6427762633395147  0.1679887491039733  0.0977738838236952   T   T   T
  0.7900614799752446  0.9190074937508274  0.0974744718466485   T   T   T
  0.8311068154653892  0.6519139146515790  0.0976247880152106   T   T   T
  0.8293358908416575  0.3533875442333221  0.0976619189929176   T   T   T
  0.6437362332245792  0.8365721944950444  0.0976632273786151   T   T   T
  0.9078345751771286  0.5022964704479849  0.0977202699779310   T   T   T
  0.3163950452490585  0.3254721964847011  0.0981232719396311   T   T   T
  0.3166326538019246  0.6789296084694296  0.0979627845593193   T   T   T
  0.6695474720378884  0.3309698292055954  0.0979047043444453   T   T   T
  0.6717886275482033  0.6737964567992255  0.0977471603520497   T   T   T
  0.1962005673442278  0.9162887794044653  0.0977428806951803   T   T   T
  0.4925260176377220  0.5014392048818569  0.0980659715537485   T   T   T
 
  0.00000000E+00  0.00000000E+00  0.00000000E+00
  0.00000000E+00  0.00000000E+00  0.00000000E+00
  0.00000000E+00  0.00000000E+00  0.00000000E+00
  0.00000000E+00  0.00000000E+00  0.00000000E+00
  0.00000000E+00  0.00000000E+00  0.00000000E+00
  0.00000000E+00  0.00000000E+00  0.00000000E+00
  0.00000000E+00  0.00000000E+00  0.00000000E+00
  0.00000000E+00  0.00000000E+00  0.00000000E+00
  0.00000000E+00  0.00000000E+00  0.00000000E+00
  0.00000000E+00  0.00000000E+00  0.00000000E+00
  0.00000000E+00  0.00000000E+00  0.00000000E+00
  0.00000000E+00  0.00000000E+00  0.00000000E+00
  0.00000000E+00  0.00000000E+00  0.00000000E+00
  0.00000000E+00  0.00000000E+00  0.00000000E+00
  0.00000000E+00  0.00000000E+00  0.00000000E+00
  0.00000000E+00  0.00000000E+00  0.00000000E+00
  0.00000000E+00  0.00000000E+00  0.00000000E+00
  0.00000000E+00  0.00000000E+00  0.00000000E+00
  0.00000000E+00  0.00000000E+00  0.00000000E+00
  0.00000000E+00  0.00000000E+00  0.00000000E+00
  0.00000000E+00  0.00000000E+00  0.00000000E+00
  0.00000000E+00  0.00000000E+00  0.00000000E+00
  0.00000000E+00  0.00000000E+00  0.00000000E+00
  0.00000000E+00  0.00000000E+00  0.00000000E+00
  0.00000000E+00  0.00000000E+00  0.00000000E+00
