Title                                   
   1.00000000000000     
     9.8694509999999998    0.0000000000000000    0.0000000000000000
     0.0000000000000000    8.5490480000000009    0.0000000000000000
     0.0000000000000000    0.0000000000000000   20.0000000000000000
    29     1     1
Selective dynamics
Direct
  0.0560232680194018  0.0893573809139110  0.0848253845893798   T   T   T
  0.9312997645602689  0.1719048836935222  0.0814261895389844   T   T   T
  0.0574940415071157  0.9237073191708334  0.0850660955998927   T   T   T
  0.9335399333143366  0.3390535913669699  0.0805949354971945   T   T   T
  0.0573692058358219  0.5903464433031577  0.0849602597149942   T   T   T
  0.9337685081399248  0.6736388411379228  0.0808378991447725   T   T   T
  0.0573341390209043  0.4228456996635110  0.0849282876543913   T   T   T
  0.9317612061086668  0.8400120166263831  0.0819194848148471   T   T   T
  0.3052268067278613  0.0885835095593745  0.0991171754522716   T   T   T
  0.1808098230650458  0.1713144680388901  0.0920973272144125   T   T   T
  0.1801460823454210  0.3386734463274643  0.0939410189310162   T   T   T
  0.3006274496293695  0.5913212243081352  0.1089036845890243   T   T   T
  0.1808605689920826  0.6742889555833856  0.0937597281085433   T   T   T
  0.3007086797703489  0.4208957728852735  0.1090321649928417   T   T   T
  0.1817092696272143  0.8411301923561100  0.0918975621489409   T   T   T
  0.5555259254203377  0.0890466639455193  0.1008119009136742   T   T   T
  0.4287712181222960  0.1737517905523596  0.1083087287173806   T   T   T
  0.5542391850471164  0.9231910165555609  0.1006995795184705   T   T   T
  0.4232618507459390  0.3384889483170569  0.1198637349489146   T   T   T
  0.4224423288546582  0.6749965937584118  0.1199469998597299   T   T   T
  0.4277109988213435  0.8376145035643762  0.1080035735721330   T   T   T
  0.8052192025876468  0.0891486776566295  0.0833160859361476   T   T   T
  0.6803661118577836  0.1750479630466183  0.0897245918899952   T   T   T
  0.8054121917949342  0.9224356277970064  0.0836425398696406   T   T   T
  0.6842770101745557  0.3406904116341667  0.0874712701911542   T   T   T
  0.8089267534533414  0.5913347113447129  0.0805038835290311   T   T   T
  0.6845431726352246  0.6712865735659449  0.0873463841836216   T   T   T
  0.8088152518838497  0.4209414540699813  0.0803963828897304   T   T   T
  0.6797728179306972  0.8362510343759579  0.0900155851240791   T   T   T
  0.3049847093529035  0.9233474984269877  0.0984388281369158   T   T   T
  0.5801875246535917  0.5062277864538856  0.1491677327279011   T   T   T
 
  0.00000000E+00  0.00000000E+00  0.00000000E+00
  0.00000000E+00  0.00000000E+00  0.00000000E+00
  0.00000000E+00  0.00000000E+00  0.00000000E+00
  0.00000000E+00  0.00000000E+00  0.00000000E+00
  0.00000000E+00  0.00000000E+00  0.00000000E+00
  0.00000000E+00  0.00000000E+00  0.00000000E+00
  0.00000000E+00  0.00000000E+00  0.00000000E+00
  0.00000000E+00  0.00000000E+00  0.00000000E+00
  0.00000000E+00  0.00000000E+00  0.00000000E+00
  0.00000000E+00  0.00000000E+00  0.00000000E+00
  0.00000000E+00  0.00000000E+00  0.00000000E+00
  0.00000000E+00  0.00000000E+00  0.00000000E+00
  0.00000000E+00  0.00000000E+00  0.00000000E+00
  0.00000000E+00  0.00000000E+00  0.00000000E+00
  0.00000000E+00  0.00000000E+00  0.00000000E+00
  0.00000000E+00  0.00000000E+00  0.00000000E+00
  0.00000000E+00  0.00000000E+00  0.00000000E+00
  0.00000000E+00  0.00000000E+00  0.00000000E+00
  0.00000000E+00  0.00000000E+00  0.00000000E+00
  0.00000000E+00  0.00000000E+00  0.00000000E+00
  0.00000000E+00  0.00000000E+00  0.00000000E+00
  0.00000000E+00  0.00000000E+00  0.00000000E+00
  0.00000000E+00  0.00000000E+00  0.00000000E+00
  0.00000000E+00  0.00000000E+00  0.00000000E+00
  0.00000000E+00  0.00000000E+00  0.00000000E+00
  0.00000000E+00  0.00000000E+00  0.00000000E+00
  0.00000000E+00  0.00000000E+00  0.00000000E+00
  0.00000000E+00  0.00000000E+00  0.00000000E+00
  0.00000000E+00  0.00000000E+00  0.00000000E+00
  0.00000000E+00  0.00000000E+00  0.00000000E+00
  0.00000000E+00  0.00000000E+00  0.00000000E+00
