Title                                   
   1.00000000000000     
     9.8694509999999998    0.0000000000000000    0.0000000000000000
     0.0000000000000000    8.5490480000000009    0.0000000000000000
     0.0000000000000000    0.0000000000000000   20.0000000000000000
    28     3     1
Selective dynamics
Direct
  0.0562778051039242  0.0907831611281281  0.0839889942416946   T   T   T
  0.9304741447771882  0.1740392338635538  0.0870606879597160   T   T   T
  0.0562812438891851  0.9227371913241305  0.0819871290332487   T   T   T
  0.9306143384039740  0.3401206464404541  0.0914200461034109   T   T   T
  0.0562049548697082  0.5894493183583127  0.0853118291415264   T   T   T
  0.9312718071176818  0.6708088407955157  0.0860722981855738   T   T   T
  0.0562111903710101  0.4229236097859307  0.0896709444684372   T   T   T
  0.9305180818862770  0.8386989386588326  0.0838828477768300   T   T   T
  0.3056627676025770  0.0892390351140730  0.0865230756501437   T   T   T
  0.1820990184225829  0.1740095887521121  0.0867242405215484   T   T   T
  0.3069040600944993  0.9236391855574233  0.0862213877672973   T   T   T
  0.1818029859597041  0.3400195296412013  0.0910957420462254   T   T   T
  0.3050725657995849  0.5897628898300958  0.0975348907257452   T   T   T
  0.1811611161460701  0.6708007212945545  0.0855692119454059   T   T   T
  0.1820232388587412  0.8386668254293337  0.0834542967034295   T   T   T
  0.5563128071723961  0.0883084108689884  0.0949838682643390   T   T   T
  0.4306888337726946  0.1710842215849951  0.0929923022477541   T   T   T
  0.4312605865807201  0.3360789439687598  0.1023184049696263   T   T   T
  0.4297489097157423  0.8403347018150225  0.0979459341084432   T   T   T
  0.8069466363642808  0.0892865238940818  0.0871156763079636   T   T   T
  0.6819278541789778  0.1711107392497977  0.0935394588952026   T   T   T
  0.8056851350884215  0.9237274469851959  0.0868323724095582   T   T   T
  0.6811790294486386  0.3360800702606699  0.1027823889453110   T   T   T
  0.8074164574045998  0.5898476255587465  0.0982843233764603   T   T   T
  0.6828445219514320  0.8404780208495214  0.0985276364921988   T   T   T
  0.4214296131731772  0.6789973904992731  0.1141636689151186   T   T   T
  0.5560843320535184  0.4095453328255323  0.1193652762330134   T   T   T
  0.6911343932788737  0.6791664683937395  0.1148418997521193   T   T   T
  0.5562897028656646  0.9217429677881382  0.0983307815217865   T   T   T
  0.3066521676078045  0.4222552236924882  0.0982148932050632   T   T   T
  0.8057327576266333  0.4222785144059139  0.0988084363197303   T   T   T
  0.5557259424137234  0.5942246813854840  0.1801100557660943   T   T   T
 
  0.00000000E+00  0.00000000E+00  0.00000000E+00
  0.00000000E+00  0.00000000E+00  0.00000000E+00
  0.00000000E+00  0.00000000E+00  0.00000000E+00
  0.00000000E+00  0.00000000E+00  0.00000000E+00
  0.00000000E+00  0.00000000E+00  0.00000000E+00
  0.00000000E+00  0.00000000E+00  0.00000000E+00
  0.00000000E+00  0.00000000E+00  0.00000000E+00
  0.00000000E+00  0.00000000E+00  0.00000000E+00
  0.00000000E+00  0.00000000E+00  0.00000000E+00
  0.00000000E+00  0.00000000E+00  0.00000000E+00
  0.00000000E+00  0.00000000E+00  0.00000000E+00
  0.00000000E+00  0.00000000E+00  0.00000000E+00
  0.00000000E+00  0.00000000E+00  0.00000000E+00
  0.00000000E+00  0.00000000E+00  0.00000000E+00
  0.00000000E+00  0.00000000E+00  0.00000000E+00
  0.00000000E+00  0.00000000E+00  0.00000000E+00
  0.00000000E+00  0.00000000E+00  0.00000000E+00
  0.00000000E+00  0.00000000E+00  0.00000000E+00
  0.00000000E+00  0.00000000E+00  0.00000000E+00
  0.00000000E+00  0.00000000E+00  0.00000000E+00
  0.00000000E+00  0.00000000E+00  0.00000000E+00
  0.00000000E+00  0.00000000E+00  0.00000000E+00
  0.00000000E+00  0.00000000E+00  0.00000000E+00
  0.00000000E+00  0.00000000E+00  0.00000000E+00
  0.00000000E+00  0.00000000E+00  0.00000000E+00
  0.00000000E+00  0.00000000E+00  0.00000000E+00
  0.00000000E+00  0.00000000E+00  0.00000000E+00
  0.00000000E+00  0.00000000E+00  0.00000000E+00
  0.00000000E+00  0.00000000E+00  0.00000000E+00
  0.00000000E+00  0.00000000E+00  0.00000000E+00
  0.00000000E+00  0.00000000E+00  0.00000000E+00
  0.00000000E+00  0.00000000E+00  0.00000000E+00
