Title                                   
   1.00000000000000     
     8.5490480000000009    0.0000000000000000    0.0000000000000000
     0.0000000000000000    8.5490480000000009    0.0000000000000000
     0.0000000000000000    0.0000000000000000   20.0000000000000000
    20     4     1
Selective dynamics
Direct
  0.9096752318637786  0.2073073368514428  0.0970974594746360   T   T   T
  0.9113518796234737  0.8001695212208505  0.0974255338754878   T   T   T
  0.1962025312299476  0.0835464750081720  0.0975128721050538   T   T   T
  0.0755243331315801  0.2022872826008457  0.0974613208679999   T   T   T
  0.1558406958933524  0.6503832350457065  0.0974494233109543   T   T   T
  0.0767576558300698  0.5020963993581221  0.0977645370429686   T   T   T
  0.1554778825547518  0.3520645654837748  0.0979766238304928   T   T   T
  0.0780851543542387  0.7993106678643387  0.0972751804829594   T   T   T
  0.4937513891771131  0.0865405972097899  0.0976890557126863   T   T   T
  0.3424578382246558  0.1644084204806462  0.0979629093880863   T   T   T
  0.4927305831619284  0.9169792310133776  0.0976630509575070   T   T   T
  0.3445838107032603  0.8367152883121494  0.0974900345135257   T   T   T
  0.7874794380185477  0.0859097795436805  0.0971014982611194   T   T   T
  0.6400115858508092  0.1664889952912262  0.0974687804005972   T   T   T
  0.7888443122249719  0.9188518230443717  0.0973955615093063   T   T   T
  0.8313257269793609  0.6508342341554063  0.0979105158368504   T   T   T
  0.8306429532309599  0.3563059029365865  0.0974431210356728   T   T   T
  0.6418420198959668  0.8360857119607308  0.0978796940864386   T   T   T
  0.3220764601013364  0.6734710341075559  0.0977122117330349   T   T   T
  0.6647129292634404  0.3359818786259659  0.0980414465882176   T   T   T
  0.9094522108643683  0.5031471049129356  0.0977819841052041   T   T   T
  0.3178272339584320  0.3277469031882768  0.0985765453947983   T   T   T
  0.6689988542970499  0.6719183095116444  0.0984940581888140   T   T   T
  0.1965649397424889  0.9171576134395192  0.0972750196104715   T   T   T
  0.4931943498241047  0.4990816888328959  0.0998565616870971   T   T   T
 
  0.00000000E+00  0.00000000E+00  0.00000000E+00
  0.00000000E+00  0.00000000E+00  0.00000000E+00
  0.00000000E+00  0.00000000E+00  0.00000000E+00
  0.00000000E+00  0.00000000E+00  0.00000000E+00
  0.00000000E+00  0.00000000E+00  0.00000000E+00
  0.00000000E+00  0.00000000E+00  0.00000000E+00
  0.00000000E+00  0.00000000E+00  0.00000000E+00
  0.00000000E+00  0.00000000E+00  0.00000000E+00
  0.00000000E+00  0.00000000E+00  0.00000000E+00
  0.00000000E+00  0.00000000E+00  0.00000000E+00
  0.00000000E+00  0.00000000E+00  0.00000000E+00
  0.00000000E+00  0.00000000E+00  0.00000000E+00
  0.00000000E+00  0.00000000E+00  0.00000000E+00
  0.00000000E+00  0.00000000E+00  0.00000000E+00
  0.00000000E+00  0.00000000E+00  0.00000000E+00
  0.00000000E+00  0.00000000E+00  0.00000000E+00
  0.00000000E+00  0.00000000E+00  0.00000000E+00
  0.00000000E+00  0.00000000E+00  0.00000000E+00
  0.00000000E+00  0.00000000E+00  0.00000000E+00
  0.00000000E+00  0.00000000E+00  0.00000000E+00
  0.00000000E+00  0.00000000E+00  0.00000000E+00
  0.00000000E+00  0.00000000E+00  0.00000000E+00
  0.00000000E+00  0.00000000E+00  0.00000000E+00
  0.00000000E+00  0.00000000E+00  0.00000000E+00
  0.00000000E+00  0.00000000E+00  0.00000000E+00
