Title                                   
   1.00000000000000     
     9.8694509999999998    0.0000000000000000    0.0000000000000000
     0.0000000000000000    8.5490480000000009    0.0000000000000000
     0.0000000000000000    0.0000000000000000   20.0000000000000000
    27     3     1
Selective dynamics
Direct
  0.0554978601421495  0.0880240804751033  0.0822278550622069   T   T   T
  0.9310853952440805  0.1713552384917617  0.0837864378954504   T   T   T
  0.0567868583239783  0.9228603020574779  0.0835211535155893   T   T   T
  0.9340107399069741  0.3386358729507646  0.0824924120958399   T   T   T
  0.0556746585428123  0.5909677173950203  0.0803366944971230   T   T   T
  0.0560187558417747  0.4246580870930561  0.0784382592021087   T   T   T
  0.9318338099672407  0.8385738575618810  0.0860492546035482   T   T   T
  0.3060781284249089  0.0886800241434957  0.0925855227754004   T   T   T
  0.1816447967518825  0.1707571067486697  0.0845679578625787   T   T   T
  0.1788469238010783  0.3388241827682775  0.0835730045615417   T   T   T
  0.2974099178751716  0.5907872431299110  0.0977375101789150   T   T   T
  0.1783342813838533  0.6756415052621091  0.0858671393373181   T   T   T
  0.2977299046556155  0.4201868573028799  0.0967627364061816   T   T   T
  0.1821622321183352  0.8416136236051043  0.0869257330133697   T   T   T
  0.4300805174886900  0.1740490855148008  0.1028535728653313   T   T   T
  0.5555911390898348  0.9225699416070122  0.1057466859722273   T   T   T
  0.4189772064127087  0.3370893002784195  0.1098795828434158   T   T   T
  0.4166778161198791  0.6746924761031958  0.1117758061717198   T   T   T
  0.4277060951809534  0.8384389420369978  0.1052486690835377   T   T   T
  0.8065057950207066  0.0883073378199713  0.0915078972150814   T   T   T
  0.6826542000745816  0.1753570356957005  0.1013615336629224   T   T   T
  0.8072165927874653  0.9209072363458155  0.0927847264617686   T   T   T
  0.6937710661525475  0.3388286159518589  0.1074831472844879   T   T   T
  0.8150195991501301  0.5926566423824090  0.0964429394399706   T   T   T
  0.6958319137699628  0.6729813217391178  0.1094331835426500   T   T   T
  0.8156449388418902  0.4203480759055659  0.0947422985578691   T   T   T
  0.6815626913939374  0.8384651533472516  0.1035014928538198   T   T   T
  0.9347362486600410  0.6736146341509849  0.0848083831229687   T   T   T
  0.5568940181279062  0.0917127379353917  0.1043889270009960   T   T   T
  0.3043230606699022  0.9229051727521747  0.0936311307368442   T   T   T
  0.5568278380790109  0.5063855914478398  0.1205033521772446   T   T   T
 
  0.00000000E+00  0.00000000E+00  0.00000000E+00
  0.00000000E+00  0.00000000E+00  0.00000000E+00
  0.00000000E+00  0.00000000E+00  0.00000000E+00
  0.00000000E+00  0.00000000E+00  0.00000000E+00
  0.00000000E+00  0.00000000E+00  0.00000000E+00
  0.00000000E+00  0.00000000E+00  0.00000000E+00
  0.00000000E+00  0.00000000E+00  0.00000000E+00
  0.00000000E+00  0.00000000E+00  0.00000000E+00
  0.00000000E+00  0.00000000E+00  0.00000000E+00
  0.00000000E+00  0.00000000E+00  0.00000000E+00
  0.00000000E+00  0.00000000E+00  0.00000000E+00
  0.00000000E+00  0.00000000E+00  0.00000000E+00
  0.00000000E+00  0.00000000E+00  0.00000000E+00
  0.00000000E+00  0.00000000E+00  0.00000000E+00
  0.00000000E+00  0.00000000E+00  0.00000000E+00
  0.00000000E+00  0.00000000E+00  0.00000000E+00
  0.00000000E+00  0.00000000E+00  0.00000000E+00
  0.00000000E+00  0.00000000E+00  0.00000000E+00
  0.00000000E+00  0.00000000E+00  0.00000000E+00
  0.00000000E+00  0.00000000E+00  0.00000000E+00
  0.00000000E+00  0.00000000E+00  0.00000000E+00
  0.00000000E+00  0.00000000E+00  0.00000000E+00
  0.00000000E+00  0.00000000E+00  0.00000000E+00
  0.00000000E+00  0.00000000E+00  0.00000000E+00
  0.00000000E+00  0.00000000E+00  0.00000000E+00
  0.00000000E+00  0.00000000E+00  0.00000000E+00
  0.00000000E+00  0.00000000E+00  0.00000000E+00
  0.00000000E+00  0.00000000E+00  0.00000000E+00
  0.00000000E+00  0.00000000E+00  0.00000000E+00
  0.00000000E+00  0.00000000E+00  0.00000000E+00
  0.00000000E+00  0.00000000E+00  0.00000000E+00
