Title                                   
   1.00000000000000     
     8.5490480000000009    0.0000000000000000    0.0000000000000000
     0.0000000000000000    8.5490480000000009    0.0000000000000000
     0.0000000000000000    0.0000000000000000   20.0000000000000000
    20     4     1
Selective dynamics
Direct
  0.9086880470068160  0.2050636739762366  0.0955981863073223   T   T   T
  0.9070272672617237  0.5029456457454174  0.0968212510743515   T   T   T
  0.9095811324403431  0.8013558492445017  0.0946148913568857   T   T   T
  0.1975892400056776  0.0842617625044847  0.0945243742479889   T   T   T
  0.0762459772804034  0.2032157888309616  0.0944780523550447   T   T   T
  0.1555679622147745  0.6523907457067251  0.0977661165022703   T   T   T
  0.0760504488549622  0.5022555969171156  0.0968676852197337   T   T   T
  0.1562070546581787  0.3538490065741111  0.0958655163054456   T   T   T
  0.0778083036445916  0.7989249201299178  0.0954886673805005   T   T   T
  0.4936114135192670  0.0846115981830285  0.0970273831840905   T   T   T
  0.3462031044206603  0.1634528854273210  0.0960281521560731   T   T   T
  0.4923580965301603  0.9157613934664012  0.0964778603009212   T   T   T
  0.3425720784820113  0.8379206896660104  0.0976822264932937   T   T   T
  0.7880406667568087  0.0859705142289214  0.0958134826215498   T   T   T
  0.6414963972830378  0.1645221481592450  0.0983092255640021   T   T   T
  0.7881228876314171  0.9188201386472827  0.0945944799216023   T   T   T
  0.8299964637514030  0.6525309724280695  0.0955465463024948   T   T   T
  0.8295197917768586  0.3525387636489620  0.0979018976130124   T   T   T
  0.6414897877512704  0.8368550181657387  0.0952905987827605   T   T   T
  0.3230691992797313  0.3310167936797253  0.0980979166097825   T   T   T
  0.3186383700439770  0.6783886414710787  0.1011960667057727   T   T   T
  0.6660741542520278  0.3284760390600321  0.1019739264936120   T   T   T
  0.6669693784775683  0.6750427616968053  0.0960707463128680   T   T   T
  0.1977753536175592  0.9170761296405801  0.0954151728310916   T   T   T
  0.4947094230587640  0.4975425228013458  0.1242545773575023   T   T   T
 
  0.00000000E+00  0.00000000E+00  0.00000000E+00
  0.00000000E+00  0.00000000E+00  0.00000000E+00
  0.00000000E+00  0.00000000E+00  0.00000000E+00
  0.00000000E+00  0.00000000E+00  0.00000000E+00
  0.00000000E+00  0.00000000E+00  0.00000000E+00
  0.00000000E+00  0.00000000E+00  0.00000000E+00
  0.00000000E+00  0.00000000E+00  0.00000000E+00
  0.00000000E+00  0.00000000E+00  0.00000000E+00
  0.00000000E+00  0.00000000E+00  0.00000000E+00
  0.00000000E+00  0.00000000E+00  0.00000000E+00
  0.00000000E+00  0.00000000E+00  0.00000000E+00
  0.00000000E+00  0.00000000E+00  0.00000000E+00
  0.00000000E+00  0.00000000E+00  0.00000000E+00
  0.00000000E+00  0.00000000E+00  0.00000000E+00
  0.00000000E+00  0.00000000E+00  0.00000000E+00
  0.00000000E+00  0.00000000E+00  0.00000000E+00
  0.00000000E+00  0.00000000E+00  0.00000000E+00
  0.00000000E+00  0.00000000E+00  0.00000000E+00
  0.00000000E+00  0.00000000E+00  0.00000000E+00
  0.00000000E+00  0.00000000E+00  0.00000000E+00
  0.00000000E+00  0.00000000E+00  0.00000000E+00
  0.00000000E+00  0.00000000E+00  0.00000000E+00
  0.00000000E+00  0.00000000E+00  0.00000000E+00
  0.00000000E+00  0.00000000E+00  0.00000000E+00
  0.00000000E+00  0.00000000E+00  0.00000000E+00
