Title                                   
   1.00000000000000     
     4.9440799999999996    0.0000000000000000    0.0000000000000000
     0.0000000000000000    8.5647549999999999    0.0000000000000000
     0.0000000000000000    0.0000000000000000   20.0000000000000000
     9     5     1
Selective dynamics
Direct
 -0.0013931189720735  0.2975014151310620  0.1005562997583578   T   T   T
  0.2500000000000000  0.0376057897956051  0.1005158997912625   T   T   T
 -0.0010891122932830  0.9536208989194508  0.1005405381575564   T   T   T
  0.7500000000000000  0.2077350855688246  0.1005425287366281   T   T   T
  0.5013931189720738  0.2975014151310620  0.1005562997583578   T   T   T
  0.7500000000000000  0.0402556625964429  0.1005801569869759   T   T   T
  0.7500000000000000  0.7109377684003552  0.1004808375330125   T   T   T
  0.7500000000000000  0.5379811867316334  0.1005378654373649   T   T   T
  0.5010891122932828  0.9536208989194508  0.1005405381575564   T   T   T
  0.5078655983910701  0.4580321705263091  0.1005659953239054   T   T   T
 -0.0078655983910702  0.4580321705263091  0.1005659953239054   T   T   T
 -0.0087140186797741  0.7895484189204005  0.1005346351541954   T   T   T
  0.5087140186797739  0.7895484189204005  0.1005346351541954   T   T   T
  0.2500000000000000  0.2139834229942325  0.1004949794811327   T   T   T
  0.2500000000000000  0.6257762769184638  0.1004327952455972   T   T   T
 
  0.00000000E+00  0.00000000E+00  0.00000000E+00
  0.00000000E+00  0.00000000E+00  0.00000000E+00
  0.00000000E+00  0.00000000E+00  0.00000000E+00
  0.00000000E+00  0.00000000E+00  0.00000000E+00
  0.00000000E+00  0.00000000E+00  0.00000000E+00
  0.00000000E+00  0.00000000E+00  0.00000000E+00
  0.00000000E+00  0.00000000E+00  0.00000000E+00
  0.00000000E+00  0.00000000E+00  0.00000000E+00
  0.00000000E+00  0.00000000E+00  0.00000000E+00
  0.00000000E+00  0.00000000E+00  0.00000000E+00
  0.00000000E+00  0.00000000E+00  0.00000000E+00
  0.00000000E+00  0.00000000E+00  0.00000000E+00
  0.00000000E+00  0.00000000E+00  0.00000000E+00
  0.00000000E+00  0.00000000E+00  0.00000000E+00
  0.00000000E+00  0.00000000E+00  0.00000000E+00
