Title                                   
   1.00000000000000     
     4.9440799999999996    0.0000000000000000    0.0000000000000000
     0.0000000000000000    8.5647549999999999    0.0000000000000000
     0.0000000000000000    0.0000000000000000   20.0000000000000000
    13     1     1
Selective dynamics
Direct
  0.0027874534458794  0.2931471363833331  0.0945260045696696   T   T   T
  0.2500000000000000  0.0427736523393571  0.0942770269865713   T   T   T
  0.0019163967624177  0.9578157458193475  0.0954399126301477   T   T   T
  0.7500000000000000  0.2078736815454222  0.0918260076107631   T   T   T
  0.4972125465541205  0.2931471363833331  0.0945260045696696   T   T   T
  0.7500000000000000  0.0409279955650739  0.0924387162558514   T   T   T
  0.7500000000000000  0.7092637621443516  0.1024496102799775   T   T   T
  0.7500000000000000  0.5376933034443309  0.1023439210590312   T   T   T
  0.4980836032375821  0.9578157458193475  0.0954399126301477   T   T   T
  0.4981288457586411  0.4577213157910321  0.1016991371923740   T   T   T
  0.0018711542413588  0.4577213157910321  0.1016991371923740   T   T   T
  0.0000429776682235  0.7907726375340104  0.1027712862589852   T   T   T
  0.4999570223317767  0.7907726375340104  0.1027712862589852   T   T   T
  0.2500000000000000  0.2083685407666496  0.0934192590402649   T   T   T
  0.2500000000000000  0.6258663931393705  0.1423527774651911   T   T   T
 
  0.00000000E+00  0.00000000E+00  0.00000000E+00
  0.00000000E+00  0.00000000E+00  0.00000000E+00
  0.00000000E+00  0.00000000E+00  0.00000000E+00
  0.00000000E+00  0.00000000E+00  0.00000000E+00
  0.00000000E+00  0.00000000E+00  0.00000000E+00
  0.00000000E+00  0.00000000E+00  0.00000000E+00
  0.00000000E+00  0.00000000E+00  0.00000000E+00
  0.00000000E+00  0.00000000E+00  0.00000000E+00
  0.00000000E+00  0.00000000E+00  0.00000000E+00
  0.00000000E+00  0.00000000E+00  0.00000000E+00
  0.00000000E+00  0.00000000E+00  0.00000000E+00
  0.00000000E+00  0.00000000E+00  0.00000000E+00
  0.00000000E+00  0.00000000E+00  0.00000000E+00
  0.00000000E+00  0.00000000E+00  0.00000000E+00
  0.00000000E+00  0.00000000E+00  0.00000000E+00
