Title                                   
   1.00000000000000     
     4.9440799999999996    0.0000000000000000    0.0000000000000000
     0.0000000000000000    8.5647549999999999    0.0000000000000000
     0.0000000000000000    0.0000000000000000   20.0000000000000000
    12     3     1
Selective dynamics
Direct
 -0.0031012778581426  0.2898439542216782  0.0884408834034645   T   T   T
  0.2539858808836993  0.0435455888023798  0.0893749229451084   T   T   T
  0.0114449701600316  0.7953433606108686  0.0972897126802037   T   T   T
  0.0053087035918990  0.9612680231048824  0.0887582589747085   T   T   T
  0.7489178232919972  0.2063265071544456  0.0866382684526192   T   T   T
  0.5013891675029942  0.2918525424749415  0.0979826922156228   T   T   T
  0.7541920282682936  0.0416665839738621  0.0857474699941546   T   T   T
  0.7617113315697199  0.7044065201026585  0.1017959369372456   T   T   T
  0.5091125292735962  0.7951100110447957  0.0991874090305312   T   T   T
  0.7561991124452241  0.5314445353604961  0.1090345080270254   T   T   T
  0.5060418876562414  0.9605218732922324  0.0903701727878195   T   T   T
  0.5104691141694572  0.4459144335009650  0.1235728912029351   T   T   T
 -0.0072624090945308  0.4474441527697878  0.0898000961210113   T   T   T
  0.2619679037782418  0.7248136692116472  0.1076108269596416   T   T   T
  0.2505029350840097  0.2097096764781571  0.0907934384534554   T   T   T
  0.1791202992772672  0.5507885678962028  0.1661145118144627   T   T   T
 
  0.00000000E+00  0.00000000E+00  0.00000000E+00
  0.00000000E+00  0.00000000E+00  0.00000000E+00
  0.00000000E+00  0.00000000E+00  0.00000000E+00
  0.00000000E+00  0.00000000E+00  0.00000000E+00
  0.00000000E+00  0.00000000E+00  0.00000000E+00
  0.00000000E+00  0.00000000E+00  0.00000000E+00
  0.00000000E+00  0.00000000E+00  0.00000000E+00
  0.00000000E+00  0.00000000E+00  0.00000000E+00
  0.00000000E+00  0.00000000E+00  0.00000000E+00
  0.00000000E+00  0.00000000E+00  0.00000000E+00
  0.00000000E+00  0.00000000E+00  0.00000000E+00
  0.00000000E+00  0.00000000E+00  0.00000000E+00
  0.00000000E+00  0.00000000E+00  0.00000000E+00
  0.00000000E+00  0.00000000E+00  0.00000000E+00
  0.00000000E+00  0.00000000E+00  0.00000000E+00
  0.00000000E+00  0.00000000E+00  0.00000000E+00
