Title                                   
   1.00000000000000     
     9.8694509999999998    0.0000000000000000    0.0000000000000000
     0.0000000000000000    8.5490480000000009    0.0000000000000000
     0.0000000000000000    0.0000000000000000   20.0000000000000000
    27     4     1
Selective dynamics
Direct
  0.0560259101069072  0.0906844289126859  0.0837906646617919   T   T   T
  0.9313351007920054  0.1746062675717323  0.0841660063097192   T   T   T
  0.0572383877666187  0.9227301471604650  0.0837488952138929   T   T   T
  0.9303498465059737  0.3420643629220781  0.0863155763910072   T   T   T
  0.0564810877283429  0.5913954314231697  0.0876092736635709   T   T   T
  0.0560499124086595  0.4246051938126025  0.0873318648828586   T   T   T
  0.9333972645526717  0.8396496499865430  0.0838544852191260   T   T   T
  0.3060517185569715  0.0880813091742044  0.0894070479721590   T   T   T
  0.1821448110942860  0.1725647248988823  0.0874151339315629   T   T   T
  0.1815968376832747  0.3401520088008682  0.0912828186197685   T   T   T
  0.3017228633802004  0.5878592254752983  0.1071895568583427   T   T   T
  0.1804666495542698  0.6743020046274621  0.0928850289068927   T   T   T
  0.3054443917609946  0.4206348113930231  0.1038336116483695   T   T   T
  0.1828196172094123  0.8408768072416651  0.0885712035570964   T   T   T
  0.5563537744583722  0.0862811465100455  0.0928180601197354   T   T   T
  0.5560394760441052  0.9200087861716660  0.0972879884391658   T   T   T
  0.4300099136194125  0.3312724378870919  0.1080800626751039   T   T   T
  0.4270665926508440  0.8399895881795172  0.1051443479977260   T   T   T
  0.8064570470757693  0.0892613988864730  0.0841821976408022   T   T   T
  0.6800045690543104  0.1713817753953098  0.0897169451877398   T   T   T
  0.8075470109111805  0.9232052282274437  0.0847441481831470   T   T   T
  0.6814971290297663  0.3374884243872066  0.0998463658506832   T   T   T
  0.8085835266070165  0.5948751021247893  0.0920733283044088   T   T   T
  0.8054516948880232  0.4256833928761161  0.0928300368579979   T   T   T
  0.6837745221542663  0.8401270925164738  0.0930885096987282   T   T   T
  0.4154007292406390  0.6830935725096186  0.1240214987642085   T   T   T
  0.5555383993864720  0.4016233783580707  0.1212321884964806   T   T   T
  0.6937109910823863  0.6790399604523726  0.1003143948718398   T   T   T
  0.3054197290085423  0.9242240248328318  0.0907825145124796   T   T   T
  0.4296131570233287  0.1664641862549554  0.0946180046647006   T   T   T
  0.9329836584616302  0.6739837068601539  0.0855705572662250   T   T   T
  0.5630626802033533  0.5920364241691849  0.1719226826326859   T   T   T
 
  0.00000000E+00  0.00000000E+00  0.00000000E+00
  0.00000000E+00  0.00000000E+00  0.00000000E+00
  0.00000000E+00  0.00000000E+00  0.00000000E+00
  0.00000000E+00  0.00000000E+00  0.00000000E+00
  0.00000000E+00  0.00000000E+00  0.00000000E+00
  0.00000000E+00  0.00000000E+00  0.00000000E+00
  0.00000000E+00  0.00000000E+00  0.00000000E+00
  0.00000000E+00  0.00000000E+00  0.00000000E+00
  0.00000000E+00  0.00000000E+00  0.00000000E+00
  0.00000000E+00  0.00000000E+00  0.00000000E+00
  0.00000000E+00  0.00000000E+00  0.00000000E+00
  0.00000000E+00  0.00000000E+00  0.00000000E+00
  0.00000000E+00  0.00000000E+00  0.00000000E+00
  0.00000000E+00  0.00000000E+00  0.00000000E+00
  0.00000000E+00  0.00000000E+00  0.00000000E+00
  0.00000000E+00  0.00000000E+00  0.00000000E+00
  0.00000000E+00  0.00000000E+00  0.00000000E+00
  0.00000000E+00  0.00000000E+00  0.00000000E+00
  0.00000000E+00  0.00000000E+00  0.00000000E+00
  0.00000000E+00  0.00000000E+00  0.00000000E+00
  0.00000000E+00  0.00000000E+00  0.00000000E+00
  0.00000000E+00  0.00000000E+00  0.00000000E+00
  0.00000000E+00  0.00000000E+00  0.00000000E+00
  0.00000000E+00  0.00000000E+00  0.00000000E+00
  0.00000000E+00  0.00000000E+00  0.00000000E+00
  0.00000000E+00  0.00000000E+00  0.00000000E+00
  0.00000000E+00  0.00000000E+00  0.00000000E+00
  0.00000000E+00  0.00000000E+00  0.00000000E+00
  0.00000000E+00  0.00000000E+00  0.00000000E+00
  0.00000000E+00  0.00000000E+00  0.00000000E+00
  0.00000000E+00  0.00000000E+00  0.00000000E+00
  0.00000000E+00  0.00000000E+00  0.00000000E+00
