Title                                   
   1.00000000000000     
     8.5490480000000009    0.0000000000000000    0.0000000000000000
     0.0000000000000000    8.5490480000000009    0.0000000000000000
     0.0000000000000000    0.0000000000000000   20.0000000000000000
    20     4     1
Selective dynamics
Direct
  0.9085096583169836  0.2085378079121000  0.0978931186205833   T   T   T
  0.9115701752800054  0.8008620711888238  0.0978161996587019   T   T   T
  0.2001127441346160  0.0828459758452111  0.0980662303211336   T   T   T
  0.0753855225320632  0.2045024023203015  0.0980447155670536   T   T   T
  0.1576131236116792  0.6492521325700185  0.0979489367917418   T   T   T
  0.0742139502205817  0.5020101548467272  0.0979853460865797   T   T   T
  0.1576980910786412  0.3560101615026516  0.0980755546001149   T   T   T
  0.0798084136760176  0.7987448260444224  0.0979110376965109   T   T   T
  0.3477806181309204  0.1649288266746531  0.0980241684723139   T   T   T
  0.4943857060197132  0.9153566723125030  0.0979489571115340   T   T   T
  0.3475350928181289  0.8321849687825907  0.0980505774671825   T   T   T
  0.7858477231991874  0.0862494062479048  0.0977769244200862   T   T   T
  0.6374637494604923  0.1666868023127256  0.0978038920926108   T   T   T
  0.7898147765416937  0.9192511269355804  0.0977997755423469   T   T   T
  0.8276932777189271  0.6519855122250451  0.0979456938093096   T   T   T
  0.8225233660236848  0.3585545494757943  0.0979058127095842   T   T   T
  0.6423101365191219  0.8349165709008430  0.0979481346822093   T   T   T
  0.3283601998150573  0.3353955974191987  0.0980085479940440   T   T   T
  0.3257903768212959  0.6672021882061620  0.0979929458433981   T   T   T
  0.6547608543280399  0.3375529617035985  0.0978237954656270   T   T   T
  0.4948473627679999  0.0833447183094701  0.0979436878856751   T   T   T
  0.9053484691581563  0.5039470438748533  0.0980110074500739   T   T   T
  0.6665178041894571  0.6713026501304163  0.0980549328757263   T   T   T
  0.1982085970498687  0.9160140010758017  0.0980906604218240   T   T   T
  0.4913122105876588  0.4971508711826168  0.0978343464140172   T   T   T
 
  0.00000000E+00  0.00000000E+00  0.00000000E+00
  0.00000000E+00  0.00000000E+00  0.00000000E+00
  0.00000000E+00  0.00000000E+00  0.00000000E+00
  0.00000000E+00  0.00000000E+00  0.00000000E+00
  0.00000000E+00  0.00000000E+00  0.00000000E+00
  0.00000000E+00  0.00000000E+00  0.00000000E+00
  0.00000000E+00  0.00000000E+00  0.00000000E+00
  0.00000000E+00  0.00000000E+00  0.00000000E+00
  0.00000000E+00  0.00000000E+00  0.00000000E+00
  0.00000000E+00  0.00000000E+00  0.00000000E+00
  0.00000000E+00  0.00000000E+00  0.00000000E+00
  0.00000000E+00  0.00000000E+00  0.00000000E+00
  0.00000000E+00  0.00000000E+00  0.00000000E+00
  0.00000000E+00  0.00000000E+00  0.00000000E+00
  0.00000000E+00  0.00000000E+00  0.00000000E+00
  0.00000000E+00  0.00000000E+00  0.00000000E+00
  0.00000000E+00  0.00000000E+00  0.00000000E+00
  0.00000000E+00  0.00000000E+00  0.00000000E+00
  0.00000000E+00  0.00000000E+00  0.00000000E+00
  0.00000000E+00  0.00000000E+00  0.00000000E+00
  0.00000000E+00  0.00000000E+00  0.00000000E+00
  0.00000000E+00  0.00000000E+00  0.00000000E+00
  0.00000000E+00  0.00000000E+00  0.00000000E+00
  0.00000000E+00  0.00000000E+00  0.00000000E+00
  0.00000000E+00  0.00000000E+00  0.00000000E+00
