Title                                   
   1.00000000000000     
     8.5490480000000009    0.0000000000000000    0.0000000000000000
     0.0000000000000000    8.5490480000000009    0.0000000000000000
     0.0000000000000000    0.0000000000000000   20.0000000000000000
    21     3     1
Selective dynamics
Direct
  0.9084404621422741  0.2065387552255669  0.0945123009441974   T   T   T
  0.9113502756388764  0.8005081102085371  0.0940881720591146   T   T   T
  0.1976126730083219  0.0828320009480741  0.0940845344787694   T   T   T
  0.0761103713084172  0.2015361057419419  0.0948776906230924   T   T   T
  0.1570137634720015  0.6494525559581268  0.0958258935986407   T   T   T
  0.0764543922569500  0.5000730356396442  0.0965243737124154   T   T   T
  0.1571975709566878  0.3531153861132592  0.0975915921168222   T   T   T
  0.0788155085085644  0.7988480187637006  0.0940441245911664   T   T   T
  0.3467818532682437  0.1637675378302296  0.0960336363082554   T   T   T
  0.4937141158960491  0.9197268474808429  0.0964893862703710   T   T   T
  0.3453124661779143  0.8379712243058274  0.0959153325074756   T   T   T
  0.7869068279167015  0.0862493337030109  0.0946006468838789   T   T   T
  0.6375728099927320  0.1679379386671485  0.0965131517025223   T   T   T
  0.7895277648006265  0.9193398712792842  0.0948131256315995   T   T   T
  0.8304672165339472  0.6486494938483335  0.0961305193153811   T   T   T
  0.8277656337283067  0.3567053525426516  0.0962505866976242   T   T   T
  0.6395125536290838  0.8374036741537290  0.0975436282763811   T   T   T
  0.3263022986321820  0.3296701420832869  0.1007647549549625   T   T   T
  0.3239201456153892  0.6733713056503530  0.0976251030867534   T   T   T
  0.6595216897252220  0.3362476059426420  0.0997464705847179   T   T   T
  0.6644590923249929  0.6679580273107669  0.1010308838368020   T   T   T
  0.4939707750241575  0.0856681195637981  0.0959854812092789   T   T   T
  0.9098094016113358  0.5017037090179993  0.0959774898271979   T   T   T
  0.1969483315388487  0.9161466103770876  0.0939574107711691   T   T   T
  0.4899240062921594  0.5033692376441642  0.1327787100113908   T   T   T
 
  0.00000000E+00  0.00000000E+00  0.00000000E+00
  0.00000000E+00  0.00000000E+00  0.00000000E+00
  0.00000000E+00  0.00000000E+00  0.00000000E+00
  0.00000000E+00  0.00000000E+00  0.00000000E+00
  0.00000000E+00  0.00000000E+00  0.00000000E+00
  0.00000000E+00  0.00000000E+00  0.00000000E+00
  0.00000000E+00  0.00000000E+00  0.00000000E+00
  0.00000000E+00  0.00000000E+00  0.00000000E+00
  0.00000000E+00  0.00000000E+00  0.00000000E+00
  0.00000000E+00  0.00000000E+00  0.00000000E+00
  0.00000000E+00  0.00000000E+00  0.00000000E+00
  0.00000000E+00  0.00000000E+00  0.00000000E+00
  0.00000000E+00  0.00000000E+00  0.00000000E+00
  0.00000000E+00  0.00000000E+00  0.00000000E+00
  0.00000000E+00  0.00000000E+00  0.00000000E+00
  0.00000000E+00  0.00000000E+00  0.00000000E+00
  0.00000000E+00  0.00000000E+00  0.00000000E+00
  0.00000000E+00  0.00000000E+00  0.00000000E+00
  0.00000000E+00  0.00000000E+00  0.00000000E+00
  0.00000000E+00  0.00000000E+00  0.00000000E+00
  0.00000000E+00  0.00000000E+00  0.00000000E+00
  0.00000000E+00  0.00000000E+00  0.00000000E+00
  0.00000000E+00  0.00000000E+00  0.00000000E+00
  0.00000000E+00  0.00000000E+00  0.00000000E+00
  0.00000000E+00  0.00000000E+00  0.00000000E+00
