Title                                   
   1.00000000000000     
     8.5490480000000009    0.0000000000000000    0.0000000000000000
     0.0000000000000000    8.5490480000000009    0.0000000000000000
     0.0000000000000000    0.0000000000000000   20.0000000000000000
    19     5     1
Selective dynamics
Direct
  0.9081037249021632  0.2061112805778214  0.0975418355431876   T   T   T
  0.9079476450988293  0.5024058227899526  0.0977226670521612   T   T   T
  0.9099405295487263  0.8001643170327178  0.0975189725868806   T   T   T
  0.1978564873841400  0.0839090638813628  0.0976212268518078   T   T   T
  0.0760222060331039  0.2035207643110301  0.0975616951550014   T   T   T
  0.1589638671212765  0.6510193659170795  0.0977287675795006   T   T   T
  0.0794133784853435  0.5012939023852807  0.0977238072120690   T   T   T
  0.1590510797175753  0.3521950709724861  0.0977775014909292   T   T   T
  0.0783315846775447  0.7978377857546167  0.0975504827143568   T   T   T
  0.4929664205656794  0.0876597967100202  0.0978209846734952   T   T   T
  0.3442921053039749  0.1656117892552021  0.0978534429353118   T   T   T
  0.4921211807365645  0.9163378192373515  0.0977593623487176   T   T   T
  0.3442268827987939  0.8358258985656131  0.0977722403226425   T   T   T
  0.7868600437593892  0.0861408476219744  0.0975684091088151   T   T   T
  0.6398664481429492  0.1681182193575669  0.0978297909677928   T   T   T
  0.7872399583489836  0.9190444143713015  0.0975339298938680   T   T   T
  0.8293140233651382  0.6512020141569458  0.0977106950990753   T   T   T
  0.8272759806409883  0.3540576932413632  0.0977629599538950   T   T   T
  0.6402117218504623  0.8355422295767791  0.0977445000084594   T   T   T
  0.3220896444460666  0.3294851850108777  0.0980215238968000   T   T   T
  0.3215671895438948  0.6755317530137037  0.0979282119675614   T   T   T
  0.6632330352287180  0.3320745897466900  0.0980024926889443   T   T   T
  0.6645384911839277  0.6723251381574337  0.0979044632310434   T   T   T
  0.1986351744703919  0.9163788720830083  0.0976150015542340   T   T   T
  0.4953431966453676  0.5009963662718203  0.0981300351634299   T   T   T
 
  0.00000000E+00  0.00000000E+00  0.00000000E+00
  0.00000000E+00  0.00000000E+00  0.00000000E+00
  0.00000000E+00  0.00000000E+00  0.00000000E+00
  0.00000000E+00  0.00000000E+00  0.00000000E+00
  0.00000000E+00  0.00000000E+00  0.00000000E+00
  0.00000000E+00  0.00000000E+00  0.00000000E+00
  0.00000000E+00  0.00000000E+00  0.00000000E+00
  0.00000000E+00  0.00000000E+00  0.00000000E+00
  0.00000000E+00  0.00000000E+00  0.00000000E+00
  0.00000000E+00  0.00000000E+00  0.00000000E+00
  0.00000000E+00  0.00000000E+00  0.00000000E+00
  0.00000000E+00  0.00000000E+00  0.00000000E+00
  0.00000000E+00  0.00000000E+00  0.00000000E+00
  0.00000000E+00  0.00000000E+00  0.00000000E+00
  0.00000000E+00  0.00000000E+00  0.00000000E+00
  0.00000000E+00  0.00000000E+00  0.00000000E+00
  0.00000000E+00  0.00000000E+00  0.00000000E+00
  0.00000000E+00  0.00000000E+00  0.00000000E+00
  0.00000000E+00  0.00000000E+00  0.00000000E+00
  0.00000000E+00  0.00000000E+00  0.00000000E+00
  0.00000000E+00  0.00000000E+00  0.00000000E+00
  0.00000000E+00  0.00000000E+00  0.00000000E+00
  0.00000000E+00  0.00000000E+00  0.00000000E+00
  0.00000000E+00  0.00000000E+00  0.00000000E+00
  0.00000000E+00  0.00000000E+00  0.00000000E+00
