Title                                   
   1.00000000000000     
     8.5490480000000009    0.0000000000000000    0.0000000000000000
     0.0000000000000000    8.5490480000000009    0.0000000000000000
     0.0000000000000000    0.0000000000000000   20.0000000000000000
    22     2     1
Selective dynamics
Direct
  0.9102828527564439  0.2081959531341671  0.0955756072176125   T   T   T
  0.9119014472339361  0.7982959016837581  0.0953817812559714   T   T   T
  0.1992853691908755  0.0833410869805436  0.0955820691745896   T   T   T
  0.0751532758757859  0.2048227823342966  0.0956062717997314   T   T   T
  0.1566006939905977  0.6493746994097596  0.0973710777046896   T   T   T
  0.0753461076575728  0.5015388508263985  0.0969332385449356   T   T   T
  0.1555516924210277  0.3551387672388027  0.0969424189394277   T   T   T
  0.0778543015070627  0.7979811410488722  0.0956364440179095   T   T   T
  0.4937143806285785  0.0857526693121165  0.0966769549525067   T   T   T
  0.3456968775038658  0.1649769505366442  0.0969046727780114   T   T   T
  0.4925752566394590  0.9175303350559045  0.0967371892308026   T   T   T
  0.3454867051890628  0.8356433233858750  0.0976397687516282   T   T   T
  0.7871946617134533  0.0854519760819815  0.0956577657741219   T   T   T
  0.6393625253568205  0.1674386883301781  0.0970263832975246   T   T   T
  0.7876619713540335  0.9192232415362634  0.0955503643120200   T   T   T
  0.8304696743227383  0.6478599962342060  0.0963934306114890   T   T   T
  0.8289255694512779  0.3575949759397078  0.0967427832444925   T   T   T
  0.6393108963218604  0.8356030483154694  0.0967428977171692   T   T   T
  0.3243674376789167  0.3346927262409552  0.1009544363941064   T   T   T
  0.3235528822305491  0.6696641039544842  0.1012730923631771   T   T   T
  0.6609172955367927  0.3369957904336534  0.1010962515502245   T   T   T
  0.6622363987143537  0.6670334071506573  0.1001292923999524   T   T   T
  0.9095156201609770  0.5024613669962794  0.0964991715521519   T   T   T
  0.1986445828626696  0.9177245267413001  0.0957054046765344   T   T   T
  0.4938035237012741  0.5004536910977324  0.1129462317392001   T   T   T
 
  0.00000000E+00  0.00000000E+00  0.00000000E+00
  0.00000000E+00  0.00000000E+00  0.00000000E+00
  0.00000000E+00  0.00000000E+00  0.00000000E+00
  0.00000000E+00  0.00000000E+00  0.00000000E+00
  0.00000000E+00  0.00000000E+00  0.00000000E+00
  0.00000000E+00  0.00000000E+00  0.00000000E+00
  0.00000000E+00  0.00000000E+00  0.00000000E+00
  0.00000000E+00  0.00000000E+00  0.00000000E+00
  0.00000000E+00  0.00000000E+00  0.00000000E+00
  0.00000000E+00  0.00000000E+00  0.00000000E+00
  0.00000000E+00  0.00000000E+00  0.00000000E+00
  0.00000000E+00  0.00000000E+00  0.00000000E+00
  0.00000000E+00  0.00000000E+00  0.00000000E+00
  0.00000000E+00  0.00000000E+00  0.00000000E+00
  0.00000000E+00  0.00000000E+00  0.00000000E+00
  0.00000000E+00  0.00000000E+00  0.00000000E+00
  0.00000000E+00  0.00000000E+00  0.00000000E+00
  0.00000000E+00  0.00000000E+00  0.00000000E+00
  0.00000000E+00  0.00000000E+00  0.00000000E+00
  0.00000000E+00  0.00000000E+00  0.00000000E+00
  0.00000000E+00  0.00000000E+00  0.00000000E+00
  0.00000000E+00  0.00000000E+00  0.00000000E+00
  0.00000000E+00  0.00000000E+00  0.00000000E+00
  0.00000000E+00  0.00000000E+00  0.00000000E+00
  0.00000000E+00  0.00000000E+00  0.00000000E+00
