Title                                   
   1.00000000000000     
     8.5490480000000009    0.0000000000000000    0.0000000000000000
     0.0000000000000000    8.5490480000000009    0.0000000000000000
     0.0000000000000000    0.0000000000000000   20.0000000000000000
    19     5     1
Selective dynamics
Direct
  0.9082143267377318  0.2057193256208733  0.0975730289641468   T   T   T
  0.9076114033674835  0.5024616070706940  0.0977577457689255   T   T   T
  0.9103134534080828  0.8005626437535128  0.0975602143762609   T   T   T
  0.1973899392985907  0.0837523179109563  0.0976500809090644   T   T   T
  0.0759405939963586  0.2029146668270490  0.0976062729350166   T   T   T
  0.1595520311814927  0.6506140038892606  0.0977425589020259   T   T   T
  0.0795085202161495  0.5012292088260335  0.0977679211966690   T   T   T
  0.1595292377073458  0.3522809172857171  0.0977954767135488   T   T   T
  0.0784167331696393  0.7980256195549813  0.0976168140326822   T   T   T
  0.4928155723764370  0.0879797285831966  0.0978436908570850   T   T   T
  0.3443202145143862  0.1661278155739591  0.0978465570380120   T   T   T
  0.4921444571586610  0.9161827658980026  0.0977793057648120   T   T   T
  0.3444451544539889  0.8352784808571569  0.0977487424400538   T   T   T
  0.7873499308370837  0.0860108046714834  0.0975902224624609   T   T   T
  0.6396169466254000  0.1687618294124964  0.0978199054572078   T   T   T
  0.7878617559681923  0.9193563212625960  0.0975713185803834   T   T   T
  0.8287616423122907  0.6511108065875538  0.0977103343589156   T   T   T
  0.8266326121812532  0.3541787587311788  0.0977661242888872   T   T   T
  0.6401106881472560  0.8351791892620775  0.0977394628939954   T   T   T
  0.3217450665448822  0.3294122708081813  0.0979781746705949   T   T   T
  0.3217328358379201  0.6752201351366757  0.0978563515066242   T   T   T
  0.6633758228309563  0.3317986336477990  0.0979346974164888   T   T   T
  0.6647182407507934  0.6728309516417608  0.0978421881067227   T   T   T
  0.1984132459443569  0.9162145056050983  0.0976620512039987   T   T   T
  0.4948915744332606  0.5015866915817051  0.0979457591553976   T   T   T
 
  0.00000000E+00  0.00000000E+00  0.00000000E+00
  0.00000000E+00  0.00000000E+00  0.00000000E+00
  0.00000000E+00  0.00000000E+00  0.00000000E+00
  0.00000000E+00  0.00000000E+00  0.00000000E+00
  0.00000000E+00  0.00000000E+00  0.00000000E+00
  0.00000000E+00  0.00000000E+00  0.00000000E+00
  0.00000000E+00  0.00000000E+00  0.00000000E+00
  0.00000000E+00  0.00000000E+00  0.00000000E+00
  0.00000000E+00  0.00000000E+00  0.00000000E+00
  0.00000000E+00  0.00000000E+00  0.00000000E+00
  0.00000000E+00  0.00000000E+00  0.00000000E+00
  0.00000000E+00  0.00000000E+00  0.00000000E+00
  0.00000000E+00  0.00000000E+00  0.00000000E+00
  0.00000000E+00  0.00000000E+00  0.00000000E+00
  0.00000000E+00  0.00000000E+00  0.00000000E+00
  0.00000000E+00  0.00000000E+00  0.00000000E+00
  0.00000000E+00  0.00000000E+00  0.00000000E+00
  0.00000000E+00  0.00000000E+00  0.00000000E+00
  0.00000000E+00  0.00000000E+00  0.00000000E+00
  0.00000000E+00  0.00000000E+00  0.00000000E+00
  0.00000000E+00  0.00000000E+00  0.00000000E+00
  0.00000000E+00  0.00000000E+00  0.00000000E+00
  0.00000000E+00  0.00000000E+00  0.00000000E+00
  0.00000000E+00  0.00000000E+00  0.00000000E+00
  0.00000000E+00  0.00000000E+00  0.00000000E+00
