Title                                   
   1.00000000000000     
     8.5490480000000009    0.0000000000000000    0.0000000000000000
     0.0000000000000000    8.5490480000000009    0.0000000000000000
     0.0000000000000000    0.0000000000000000   20.0000000000000000
    22     2     1
Selective dynamics
Direct
  0.9100737677146210  0.2047062622927496  0.0954506405652600   T   T   T
  0.9029707663077812  0.5018127843336452  0.0952805119810904   T   T   T
  0.9100887251418175  0.7988934028365190  0.0954632063381789   T   T   T
  0.1978315797154337  0.0829878984826598  0.0954589122559904   T   T   T
  0.0743509797205611  0.2065836042422322  0.0954520715918108   T   T   T
  0.1978392361296861  0.9205813005136054  0.0954683174948910   T   T   T
  0.1540881354235879  0.6479338463473500  0.0953614041609043   T   T   T
  0.0722133793038776  0.5018039169567202  0.0953217097033227   T   T   T
  0.1540660125216792  0.3556547933609274  0.0953549115856506   T   T   T
  0.0743672163897678  0.7969919754740624  0.0954653882292448   T   T   T
  0.4965619020332467  0.0866789262676831  0.0953510929129121   T   T   T
  0.3494879012268878  0.1671736789657537  0.0953630062669070   T   T   T
  0.4965662413550924  0.9169163564632966  0.0953576712790176   T   T   T
  0.3495044663112428  0.8364090889372866  0.0953758747566611   T   T   T
  0.7900696645453724  0.0848539382628680  0.0954601567754958   T   T   T
  0.6434680077197309  0.1664579537379760  0.0953031166422835   T   T   T
  0.7900804430321904  0.9187489137171820  0.0954653061590934   T   T   T
  0.8249938796526665  0.6499104319430949  0.0952932340181609   T   T   T
  0.8249965091460767  0.3537059491209789  0.0952838851913515   T   T   T
  0.6434774928832262  0.8371405779376486  0.0953147818394287   T   T   T
  0.3201215773440963  0.3297410813310285  0.0952923492856223   T   T   T
  0.3201563364219470  0.6738390232458821  0.0953056292537128   T   T   T
  0.6664140030988959  0.3287861117772287  0.0951321443371494   T   T   T
  0.6664121771053216  0.6747878209661179  0.0951495845838181   T   T   T
  0.4952115997551859  0.5016903624855165  0.0951800927920195   T   T   T
 
  0.00000000E+00  0.00000000E+00  0.00000000E+00
  0.00000000E+00  0.00000000E+00  0.00000000E+00
  0.00000000E+00  0.00000000E+00  0.00000000E+00
  0.00000000E+00  0.00000000E+00  0.00000000E+00
  0.00000000E+00  0.00000000E+00  0.00000000E+00
  0.00000000E+00  0.00000000E+00  0.00000000E+00
  0.00000000E+00  0.00000000E+00  0.00000000E+00
  0.00000000E+00  0.00000000E+00  0.00000000E+00
  0.00000000E+00  0.00000000E+00  0.00000000E+00
  0.00000000E+00  0.00000000E+00  0.00000000E+00
  0.00000000E+00  0.00000000E+00  0.00000000E+00
  0.00000000E+00  0.00000000E+00  0.00000000E+00
  0.00000000E+00  0.00000000E+00  0.00000000E+00
  0.00000000E+00  0.00000000E+00  0.00000000E+00
  0.00000000E+00  0.00000000E+00  0.00000000E+00
  0.00000000E+00  0.00000000E+00  0.00000000E+00
  0.00000000E+00  0.00000000E+00  0.00000000E+00
  0.00000000E+00  0.00000000E+00  0.00000000E+00
  0.00000000E+00  0.00000000E+00  0.00000000E+00
  0.00000000E+00  0.00000000E+00  0.00000000E+00
  0.00000000E+00  0.00000000E+00  0.00000000E+00
  0.00000000E+00  0.00000000E+00  0.00000000E+00
  0.00000000E+00  0.00000000E+00  0.00000000E+00
  0.00000000E+00  0.00000000E+00  0.00000000E+00
  0.00000000E+00  0.00000000E+00  0.00000000E+00
