Title                                   
   1.00000000000000     
     8.5490480000000009    0.0000000000000000    0.0000000000000000
     0.0000000000000000    8.5490480000000009    0.0000000000000000
     0.0000000000000000    0.0000000000000000   20.0000000000000000
    19     5     1
Selective dynamics
Direct
  0.9079865228147763  0.2057859233282093  0.0976160643948903   T   T   T
  0.9084049114065715  0.5025144917836769  0.0977376992604709   T   T   T
  0.9098511311652064  0.8009469494652962  0.0975538203910738   T   T   T
  0.1970926029910903  0.0837337214290248  0.0976620500606251   T   T   T
  0.0758331089890584  0.2030119526391993  0.0975966625274581   T   T   T
  0.1584444448230659  0.6518143092322964  0.0976759923396353   T   T   T
  0.0791634835721765  0.5013064835989302  0.0977155847232038   T   T   T
  0.1585235014681298  0.3513052282606774  0.0977408201312050   T   T   T
  0.0781873452217482  0.7983469252074314  0.0975261982500015   T   T   T
  0.4928655880745070  0.0873018886179610  0.0978462920650149   T   T   T
  0.3435306232059693  0.1651279175346093  0.0978569462484288   T   T   T
  0.4922343363213119  0.9168493826636336  0.0977619617377619   T   T   T
  0.3434382449281376  0.8363317626686386  0.0977373931065478   T   T   T
  0.7871509286243030  0.0863517505447374  0.0976623207763668   T   T   T
  0.6405169457848440  0.1678842292037605  0.0978606882230036   T   T   T
  0.7877025087693604  0.9191369517977855  0.0976009618948732   T   T   T
  0.8295748161247836  0.6520031355888696  0.0977009701643738   T   T   T
  0.8278419636310297  0.3535451784538738  0.0977885718870616   T   T   T
  0.6408780330624841  0.8359132483521843  0.0977147650996502   T   T   T
  0.3209315981597390  0.3277797740660467  0.0979726939842010   T   T   T
  0.3205761321202436  0.6772993650978035  0.0978687656100119   T   T   T
  0.6643659580979721  0.3311699637433718  0.0979840302993981   T   T   T
  0.6659573470512808  0.6733611850735355  0.0978411785898845   T   T   T
  0.1980409479299375  0.9164557443012371  0.0976099321338267   T   T   T
  0.4963189756622655  0.4995125373472073  0.0980726361010113   T   T   T
 
  0.00000000E+00  0.00000000E+00  0.00000000E+00
  0.00000000E+00  0.00000000E+00  0.00000000E+00
  0.00000000E+00  0.00000000E+00  0.00000000E+00
  0.00000000E+00  0.00000000E+00  0.00000000E+00
  0.00000000E+00  0.00000000E+00  0.00000000E+00
  0.00000000E+00  0.00000000E+00  0.00000000E+00
  0.00000000E+00  0.00000000E+00  0.00000000E+00
  0.00000000E+00  0.00000000E+00  0.00000000E+00
  0.00000000E+00  0.00000000E+00  0.00000000E+00
  0.00000000E+00  0.00000000E+00  0.00000000E+00
  0.00000000E+00  0.00000000E+00  0.00000000E+00
  0.00000000E+00  0.00000000E+00  0.00000000E+00
  0.00000000E+00  0.00000000E+00  0.00000000E+00
  0.00000000E+00  0.00000000E+00  0.00000000E+00
  0.00000000E+00  0.00000000E+00  0.00000000E+00
  0.00000000E+00  0.00000000E+00  0.00000000E+00
  0.00000000E+00  0.00000000E+00  0.00000000E+00
  0.00000000E+00  0.00000000E+00  0.00000000E+00
  0.00000000E+00  0.00000000E+00  0.00000000E+00
  0.00000000E+00  0.00000000E+00  0.00000000E+00
  0.00000000E+00  0.00000000E+00  0.00000000E+00
  0.00000000E+00  0.00000000E+00  0.00000000E+00
  0.00000000E+00  0.00000000E+00  0.00000000E+00
  0.00000000E+00  0.00000000E+00  0.00000000E+00
  0.00000000E+00  0.00000000E+00  0.00000000E+00
