Title                                   
   1.00000000000000     
     4.9440799999999996    0.0000000000000000    0.0000000000000000
     0.0000000000000000   17.1295089999999988    0.0000000000000000
     0.0000000000000000    0.0000000000000000   20.0000000000000000
    30     1     1
Selective dynamics
Direct
 -0.0001726511787928  0.1042518244835494  0.2797210785274244   T   T   T
  0.2499063132882005  0.1457760079850565  0.2846509120694581   T   T   T
  0.2499167330017595  0.2277124511822456  0.2975416286540687   T   T   T
  0.0006478716903205  0.3495666912325443  0.3213289847091945   T   T   T
 -0.0008937096809914  0.2686091797750704  0.3043884928748059   T   T   T
 -0.0025253751714843  0.6075814278872915  0.3161717940454203   T   T   T
  0.2498889576364429  0.7297847387388434  0.2937683262027776   T   T   T
  0.0001119468250640  0.8541823626498561  0.2778450131109763   T   T   T
  0.2498955660332145  0.8960293220246478  0.2751772627565637   T   T   T
  0.2498764266071611  0.9792893446909776  0.2732666801690888   T   T   T
  0.0001632797978896  0.7714479099447387  0.2868317429227243   T   T   T
  0.4999879773111290  0.1042506939821684  0.2797263191325820   T   T   T
  0.7499173602798693  0.1457189362103303  0.2840425288526049   T   T   T
  0.7499262591120682  0.2279285740105422  0.2961237916129111   T   T   T
  0.4999715616364363  0.0211189469581377  0.2740602974385232   T   T   T
  0.4991032286860280  0.3495695223376457  0.3213290877492872   T   T   T
  0.7498790517444504  0.3938733987829325  0.3270166917212259   T   T   T
  0.7499199899151053  0.4803570045301337  0.3305651393910778   T   T   T
  0.5007284405212219  0.2686107717858323  0.3043915482720586   T   T   T
  0.5023204598099177  0.6075924623418142  0.3161797817209183   T   T   T
  0.7499036325393943  0.7305536143655097  0.2921130885067142   T   T   T
  0.4996697282109326  0.8541822903248563  0.2778390402364307   T   T   T
  0.7499007234188123  0.8957961205384994  0.2748903227140248   T   T   T
  0.7498814101432396  0.9792927030240306  0.2730140873065831   T   T   T
  0.4996157111573859  0.7714432560890160  0.2868295624586241   T   T   T
  0.7499109591616223  0.6487901739327081  0.3060645809624665   T   T   T
  0.2498808228105330  0.6484607004252291  0.3094559075583466   T   T   T
 -0.0001920399398764  0.0211225382511424  0.2740571795764666   T   T   T
  0.5112297975439771  0.5267038218470721  0.3325397595342119   T   T   T
  0.9886185187934520  0.5266932477785761  0.3325527963219329   T   T   T
  0.2498672527966971  0.3844095156628832  0.3337499707183131   T   T   T
  0.2499667954988253  0.4778514462261101  0.3853316021721460   T   T   T
 
  0.00000000E+00  0.00000000E+00  0.00000000E+00
  0.00000000E+00  0.00000000E+00  0.00000000E+00
  0.00000000E+00  0.00000000E+00  0.00000000E+00
  0.00000000E+00  0.00000000E+00  0.00000000E+00
  0.00000000E+00  0.00000000E+00  0.00000000E+00
  0.00000000E+00  0.00000000E+00  0.00000000E+00
  0.00000000E+00  0.00000000E+00  0.00000000E+00
  0.00000000E+00  0.00000000E+00  0.00000000E+00
  0.00000000E+00  0.00000000E+00  0.00000000E+00
  0.00000000E+00  0.00000000E+00  0.00000000E+00
  0.00000000E+00  0.00000000E+00  0.00000000E+00
  0.00000000E+00  0.00000000E+00  0.00000000E+00
  0.00000000E+00  0.00000000E+00  0.00000000E+00
  0.00000000E+00  0.00000000E+00  0.00000000E+00
  0.00000000E+00  0.00000000E+00  0.00000000E+00
  0.00000000E+00  0.00000000E+00  0.00000000E+00
  0.00000000E+00  0.00000000E+00  0.00000000E+00
  0.00000000E+00  0.00000000E+00  0.00000000E+00
  0.00000000E+00  0.00000000E+00  0.00000000E+00
  0.00000000E+00  0.00000000E+00  0.00000000E+00
  0.00000000E+00  0.00000000E+00  0.00000000E+00
  0.00000000E+00  0.00000000E+00  0.00000000E+00
  0.00000000E+00  0.00000000E+00  0.00000000E+00
  0.00000000E+00  0.00000000E+00  0.00000000E+00
  0.00000000E+00  0.00000000E+00  0.00000000E+00
  0.00000000E+00  0.00000000E+00  0.00000000E+00
  0.00000000E+00  0.00000000E+00  0.00000000E+00
  0.00000000E+00  0.00000000E+00  0.00000000E+00
  0.00000000E+00  0.00000000E+00  0.00000000E+00
  0.00000000E+00  0.00000000E+00  0.00000000E+00
  0.00000000E+00  0.00000000E+00  0.00000000E+00
  0.00000000E+00  0.00000000E+00  0.00000000E+00
