Title                                   
   1.00000000000000     
     8.5490480000000009    0.0000000000000000    0.0000000000000000
     0.0000000000000000    8.5490480000000009    0.0000000000000000
     0.0000000000000000    0.0000000000000000   20.0000000000000000
    22     2     1
Selective dynamics
Direct
  0.9111466915116945  0.2068606870118483  0.0957955715145418   T   T   T
  0.9130039124823175  0.7996373012834952  0.0957405665593352   T   T   T
  0.1979061207312110  0.0826061923613490  0.0959574030568387   T   T   T
  0.0744998921139108  0.2026722920374032  0.0959491694833219   T   T   T
  0.1568059920213851  0.6495386506453327  0.0972997973948533   T   T   T
  0.0753826236930736  0.5016642813500577  0.0970800051108525   T   T   T
  0.1558103000713155  0.3545250406791342  0.0972460566544583   T   T   T
  0.0777664059127799  0.7992729314094978  0.0958158327762316   T   T   T
  0.4934070862169666  0.0860238129797081  0.0969834788826004   T   T   T
  0.3443696295116728  0.1645268996179283  0.0972597238265096   T   T   T
  0.4925422646044661  0.9175481565571002  0.0970093292356481   T   T   T
  0.3449298882736727  0.8355297307248227  0.0975284426039726   T   T   T
  0.7878773079013012  0.0846573245146733  0.0958966948005012   T   T   T
  0.6393707747412556  0.1677794672801881  0.0970603902802517   T   T   T
  0.7886769719850267  0.9202392105981930  0.0959288129491434   T   T   T
  0.8310805717130860  0.6490567198748484  0.0967162818980444   T   T   T
  0.8291310557142331  0.3569701853025598  0.0967779621477187   T   T   T
  0.6396216169389086  0.8354839537239012  0.0970715548197082   T   T   T
  0.3215068464897107  0.3330437160760963  0.0999952450901788   T   T   T
  0.3221820540739075  0.6710594207273745  0.0999378712953590   T   T   T
  0.6637563557858227  0.3358159129447946  0.0994899309187122   T   T   T
  0.6646213693980612  0.6687662503762618  0.0993047823575480   T   T   T
  0.9101443592145427  0.5028638640704332  0.0967001144795264   T   T   T
  0.1975937365042724  0.9174839242545499  0.0958466054310491   T   T   T
  0.4922781723953927  0.5011640735984549  0.1133133764330746   T   T   T
 
  0.00000000E+00  0.00000000E+00  0.00000000E+00
  0.00000000E+00  0.00000000E+00  0.00000000E+00
  0.00000000E+00  0.00000000E+00  0.00000000E+00
  0.00000000E+00  0.00000000E+00  0.00000000E+00
  0.00000000E+00  0.00000000E+00  0.00000000E+00
  0.00000000E+00  0.00000000E+00  0.00000000E+00
  0.00000000E+00  0.00000000E+00  0.00000000E+00
  0.00000000E+00  0.00000000E+00  0.00000000E+00
  0.00000000E+00  0.00000000E+00  0.00000000E+00
  0.00000000E+00  0.00000000E+00  0.00000000E+00
  0.00000000E+00  0.00000000E+00  0.00000000E+00
  0.00000000E+00  0.00000000E+00  0.00000000E+00
  0.00000000E+00  0.00000000E+00  0.00000000E+00
  0.00000000E+00  0.00000000E+00  0.00000000E+00
  0.00000000E+00  0.00000000E+00  0.00000000E+00
  0.00000000E+00  0.00000000E+00  0.00000000E+00
  0.00000000E+00  0.00000000E+00  0.00000000E+00
  0.00000000E+00  0.00000000E+00  0.00000000E+00
  0.00000000E+00  0.00000000E+00  0.00000000E+00
  0.00000000E+00  0.00000000E+00  0.00000000E+00
  0.00000000E+00  0.00000000E+00  0.00000000E+00
  0.00000000E+00  0.00000000E+00  0.00000000E+00
  0.00000000E+00  0.00000000E+00  0.00000000E+00
  0.00000000E+00  0.00000000E+00  0.00000000E+00
  0.00000000E+00  0.00000000E+00  0.00000000E+00
