Title                                   
   1.00000000000000     
     8.5490480000000009    0.0000000000000000    0.0000000000000000
     0.0000000000000000    8.5490480000000009    0.0000000000000000
     0.0000000000000000    0.0000000000000000   20.0000000000000000
    20     4     1
Selective dynamics
Direct
  0.9101970531880543  0.2047660571427094  0.0954668270038284   T   T   T
  0.9068777753163273  0.5018151246856866  0.0953078130762143   T   T   T
  0.9102165843129763  0.7988389957529626  0.0954797800323360   T   T   T
  0.1959863284021623  0.0845814800471638  0.0954933762860477   T   T   T
  0.0758313989150267  0.2047377962526421  0.0954761887332505   T   T   T
  0.1960011613789653  0.9189596679225482  0.0954976818173705   T   T   T
  0.1586205774073447  0.6506515086334397  0.0953398958905512   T   T   T
  0.0791864445916389  0.5017908312203552  0.0953271050899120   T   T   T
  0.1586010829832620  0.3529031062319898  0.0953259746767554   T   T   T
  0.0758491788486863  0.7988153002586996  0.0954828330896336   T   T   T
  0.4929860905912775  0.0879495145482924  0.0953539227203274   T   T   T
  0.3441384001874148  0.1673809181667613  0.0953537735095547   T   T   T
  0.4929935383377258  0.9156528812826636  0.0953601436690661   T   T   T
  0.3441677953107721  0.8361726705823436  0.0953608589416470   T   T   T
  0.7900391931181747  0.0846207833821899  0.0954775654256904   T   T   T
  0.6418465421443145  0.1674184944392260  0.0953224503044149   T   T   T
  0.7900559786070797  0.9189977481204424  0.0954843907919466   T   T   T
  0.8274375747000539  0.6506881452248557  0.0953183998752324   T   T   T
  0.8274312233364514  0.3529378910940538  0.0952980186735825   T   T   T
  0.6418606805074483  0.8362019780132365  0.0953347711375707   T   T   T
  0.3194185830595352  0.3281596226676994  0.0951952834191853   T   T   T
  0.3194456545123814  0.6753791128350282  0.0952055683394881   T   T   T
  0.6666243385282500  0.3281917819433413  0.0951629806932416   T   T   T
  0.6666267154680531  0.6754127820019595  0.0951800206597314   T   T   T
  0.4929721062466167  0.5017658075497219  0.0950993761433991   T   T   T
 
  0.00000000E+00  0.00000000E+00  0.00000000E+00
  0.00000000E+00  0.00000000E+00  0.00000000E+00
  0.00000000E+00  0.00000000E+00  0.00000000E+00
  0.00000000E+00  0.00000000E+00  0.00000000E+00
  0.00000000E+00  0.00000000E+00  0.00000000E+00
  0.00000000E+00  0.00000000E+00  0.00000000E+00
  0.00000000E+00  0.00000000E+00  0.00000000E+00
  0.00000000E+00  0.00000000E+00  0.00000000E+00
  0.00000000E+00  0.00000000E+00  0.00000000E+00
  0.00000000E+00  0.00000000E+00  0.00000000E+00
  0.00000000E+00  0.00000000E+00  0.00000000E+00
  0.00000000E+00  0.00000000E+00  0.00000000E+00
  0.00000000E+00  0.00000000E+00  0.00000000E+00
  0.00000000E+00  0.00000000E+00  0.00000000E+00
  0.00000000E+00  0.00000000E+00  0.00000000E+00
  0.00000000E+00  0.00000000E+00  0.00000000E+00
  0.00000000E+00  0.00000000E+00  0.00000000E+00
  0.00000000E+00  0.00000000E+00  0.00000000E+00
  0.00000000E+00  0.00000000E+00  0.00000000E+00
  0.00000000E+00  0.00000000E+00  0.00000000E+00
  0.00000000E+00  0.00000000E+00  0.00000000E+00
  0.00000000E+00  0.00000000E+00  0.00000000E+00
  0.00000000E+00  0.00000000E+00  0.00000000E+00
  0.00000000E+00  0.00000000E+00  0.00000000E+00
  0.00000000E+00  0.00000000E+00  0.00000000E+00
