Title                                   
   1.00000000000000     
     4.9440799999999996    0.0000000000000000    0.0000000000000000
     0.0000000000000000    8.5647549999999999    0.0000000000000000
     0.0000000000000000    0.0000000000000000   20.0000000000000000
    13     2     1
Selective dynamics
Direct
  0.2528690687276871  0.2102808336669337  0.0915645562393662   T   T   T
 -0.0022019661073447  0.2927120914645845  0.0883459162550727   T   T   T
  0.2543647556317876  0.0438603247671035  0.0887258756588629   T   T   T
  0.0109498295515071  0.7963289934481645  0.0988496482506489   T   T   T
  0.0051368436775254  0.9599979051706437  0.0877089782955506   T   T   T
  0.7515572956131966  0.2066566349863797  0.0852141824020977   T   T   T
  0.5064015113807238  0.2912103794530351  0.0969760945453677   T   T   T
  0.7545312057474381  0.0417361895843736  0.0844380649395669   T   T   T
  0.7602072350432291  0.7060342298651284  0.1038574409309632   T   T   T
  0.5049396022801336  0.7957272717770740  0.1015186641768610   T   T   T
  0.7529875792572153  0.5340449889689500  0.1028002927285754   T   T   T
  0.5057379305218207  0.9593779237890160  0.0901258022369388   T   T   T
  0.5173481464421208  0.4485236163277358  0.1186102667415479   T   T   T
 -0.0099249368819068  0.4522604236177435  0.0894960396653563   T   T   T
  0.2577631369498542  0.7257959201433797  0.1117106752141502   T   T   T
  0.1773327621650122  0.5354522729697543  0.1825695017190813   T   T   T
 
  0.00000000E+00  0.00000000E+00  0.00000000E+00
  0.00000000E+00  0.00000000E+00  0.00000000E+00
  0.00000000E+00  0.00000000E+00  0.00000000E+00
  0.00000000E+00  0.00000000E+00  0.00000000E+00
  0.00000000E+00  0.00000000E+00  0.00000000E+00
  0.00000000E+00  0.00000000E+00  0.00000000E+00
  0.00000000E+00  0.00000000E+00  0.00000000E+00
  0.00000000E+00  0.00000000E+00  0.00000000E+00
  0.00000000E+00  0.00000000E+00  0.00000000E+00
  0.00000000E+00  0.00000000E+00  0.00000000E+00
  0.00000000E+00  0.00000000E+00  0.00000000E+00
  0.00000000E+00  0.00000000E+00  0.00000000E+00
  0.00000000E+00  0.00000000E+00  0.00000000E+00
  0.00000000E+00  0.00000000E+00  0.00000000E+00
  0.00000000E+00  0.00000000E+00  0.00000000E+00
  0.00000000E+00  0.00000000E+00  0.00000000E+00
