Title                                   
   1.00000000000000     
     4.9440799999999996    0.0000000000000000    0.0000000000000000
     0.0000000000000000   17.1295089999999988    0.0000000000000000
     0.0000000000000000    0.0000000000000000   20.0000000000000000
    30     1
Selective dynamics
Direct
 -0.0011816018143407  0.1050807663483510  0.2936799966753169   T   T   T
  0.2485139962702982  0.1472354658398657  0.2949147556925684   T   T   T
  0.2480381046794409  0.2304662273928323  0.2996175050476078   T   T   T
  0.0015062293231800  0.2745069787294348  0.3051085837261838   T   T   T
  0.0016685304243282  0.6004445026421532  0.3050740451003570   T   T   T
  0.2485811785932838  0.7276387441789467  0.2940589186039893   T   T   T
 -0.0009647327324792  0.8534911208297069  0.2906298666878340   T   T   T
  0.2495016632932450  0.8955227189135847  0.2901123579985798   T   T   T
  0.2494462889878477  0.9793667669508673  0.2904800061125367   T   T   T
 -0.0010928558866048  0.7697962210538276  0.2926992549504653   T   T   T
  0.4997486442063623  0.1055501295688028  0.2927755550035402   T   T   T
  0.7500497402318138  0.1475924596867020  0.2945078596782476   T   T   T
  0.7506399255091061  0.2316781306253088  0.2983276626526418   T   T   T
  0.4995228390142524  0.0216048414527675  0.2908752681130160   T   T   T
  0.7467079614113772  0.3951585349505219  0.3091720035081318   T   T   T
  0.7466843953103557  0.4798689670268359  0.3094646909895046   T   T   T
  0.4969893516400625  0.2719795025020334  0.2989156626410466   T   T   T
  0.4971311485493590  0.6030033456842323  0.2989450180950954   T   T   T
  0.7501592230295860  0.7272924476367650  0.2936973201840451   T   T   T
  0.4995680009090702  0.8532739622644823  0.2901794456222496   T   T   T
  0.7490761847207684  0.8954938971198134  0.2900042864074696   T   T   T
  0.7490320947947232  0.9794060801707748  0.2903786190506421   T   T   T
  0.4998069541153434  0.7693196036052703  0.2918290531547725   T   T   T
  0.7508137611935362  0.6432556068004249  0.2980347357078052   T   T   T
  0.2481353364150574  0.6444628257218589  0.2993085272355417   T   T   T
 -0.0010224982316960  0.0213892076449572  0.2913479644159436   T   T   T
  0.5028632918875541  0.5205127389869642  0.3047102524258310   T   T   T
  0.9968340289927660  0.5177056735189567  0.3184124917794508   T   T   T
  0.5028365617046815  0.3545316470926006  0.3043405873076330   T   T   T
 -0.0032222474910207  0.3572937819154592  0.3181019914832037   T   T   T
  0.2836355009487442  0.4374191031448955  0.3453557139487029   T   T   T
 
  0.00000000E+00  0.00000000E+00  0.00000000E+00
  0.00000000E+00  0.00000000E+00  0.00000000E+00
  0.00000000E+00  0.00000000E+00  0.00000000E+00
  0.00000000E+00  0.00000000E+00  0.00000000E+00
  0.00000000E+00  0.00000000E+00  0.00000000E+00
  0.00000000E+00  0.00000000E+00  0.00000000E+00
  0.00000000E+00  0.00000000E+00  0.00000000E+00
  0.00000000E+00  0.00000000E+00  0.00000000E+00
  0.00000000E+00  0.00000000E+00  0.00000000E+00
  0.00000000E+00  0.00000000E+00  0.00000000E+00
  0.00000000E+00  0.00000000E+00  0.00000000E+00
  0.00000000E+00  0.00000000E+00  0.00000000E+00
  0.00000000E+00  0.00000000E+00  0.00000000E+00
  0.00000000E+00  0.00000000E+00  0.00000000E+00
  0.00000000E+00  0.00000000E+00  0.00000000E+00
  0.00000000E+00  0.00000000E+00  0.00000000E+00
  0.00000000E+00  0.00000000E+00  0.00000000E+00
  0.00000000E+00  0.00000000E+00  0.00000000E+00
  0.00000000E+00  0.00000000E+00  0.00000000E+00
  0.00000000E+00  0.00000000E+00  0.00000000E+00
  0.00000000E+00  0.00000000E+00  0.00000000E+00
  0.00000000E+00  0.00000000E+00  0.00000000E+00
  0.00000000E+00  0.00000000E+00  0.00000000E+00
  0.00000000E+00  0.00000000E+00  0.00000000E+00
  0.00000000E+00  0.00000000E+00  0.00000000E+00
  0.00000000E+00  0.00000000E+00  0.00000000E+00
  0.00000000E+00  0.00000000E+00  0.00000000E+00
  0.00000000E+00  0.00000000E+00  0.00000000E+00
  0.00000000E+00  0.00000000E+00  0.00000000E+00
  0.00000000E+00  0.00000000E+00  0.00000000E+00
  0.00000000E+00  0.00000000E+00  0.00000000E+00
