Title                                   
   1.00000000000000     
     9.8694509999999998    0.0000000000000000    0.0000000000000000
     0.0000000000000000    8.5490480000000009    0.0000000000000000
     0.0000000000000000    0.0000000000000000   20.0000000000000000
    26     5     1
Selective dynamics
Direct
  0.0565011317264982  0.0929411124647975  0.0892599719402507   T   T   T
  0.9304829086176591  0.1752686350923618  0.0910952997882925   T   T   T
  0.0566607782882914  0.9251770696423259  0.0885755976680054   T   T   T
  0.9287845900712619  0.3426497843988096  0.0938623500674313   T   T   T
  0.0555153364872529  0.5904444461761673  0.0910229904623516   T   T   T
  0.9317066588067795  0.6738189371213391  0.0923874708014490   T   T   T
  0.0573341517371979  0.4239811940356848  0.0923422724815912   T   T   T
  0.9319840533354085  0.8411170478620615  0.0903617048921565   T   T   T
  0.3054943037140624  0.0886638591118309  0.0891739099760647   T   T   T
  0.1828513812522175  0.1762207726063133  0.0897930101935641   T   T   T
  0.3061568784947541  0.9235121200956082  0.0886115650859835   T   T   T
  0.1839038166358510  0.3424772271437505  0.0915163547462201   T   T   T
  0.3089337008454761  0.5947358679105124  0.0905961463866096   T   T   T
  0.1809562423787558  0.6726014655123890  0.0893063915777636   T   T   T
  0.1813463539031423  0.8392019917536302  0.0882267491537988   T   T   T
  0.5556753585725330  0.0824263836360846  0.0934681549099186   T   T   T
  0.4316049139417260  0.1680561473280677  0.0916113412823114   T   T   T
  0.4366125536973054  0.3351401318218026  0.0962359798471529   T   T   T
  0.4273823064577664  0.8330794360823249  0.0902912093876206   T   T   T
  0.8068186481022315  0.0897167004482470  0.0907854610002947   T   T   T
  0.6796191240598699  0.1683250619798698  0.0940417412146488   T   T   T
  0.8068740088960135  0.9243883098345858  0.0905446221995579   T   T   T
  0.6750339339326751  0.3351149962657808  0.0995512470559146   T   T   T
  0.8040849408118868  0.5954314344395589  0.0993420048489669   T   T   T
  0.8009594583629325  0.4256677540337628  0.0985086585830551   T   T   T
  0.6849284444092799  0.8353606736503548  0.0959289653384915   T   T   T
  0.4248699403662654  0.6770586639675732  0.0906271843765135   T   T   T
  0.5531138697922132  0.4107425827862063  0.1057159798080767   T   T   T
  0.6873347961231194  0.6812416253749657  0.1058015832164872   T   T   T
  0.5563203138092513  0.9152465776220927  0.0935627261111084   T   T   T
  0.3119102387302894  0.4253621314769453  0.0927978601361311   T   T   T
  0.5578838636400391  0.5850758583241972  0.2007284954622338   T   T   T
 
  0.00000000E+00  0.00000000E+00  0.00000000E+00
  0.00000000E+00  0.00000000E+00  0.00000000E+00
  0.00000000E+00  0.00000000E+00  0.00000000E+00
  0.00000000E+00  0.00000000E+00  0.00000000E+00
  0.00000000E+00  0.00000000E+00  0.00000000E+00
  0.00000000E+00  0.00000000E+00  0.00000000E+00
  0.00000000E+00  0.00000000E+00  0.00000000E+00
  0.00000000E+00  0.00000000E+00  0.00000000E+00
  0.00000000E+00  0.00000000E+00  0.00000000E+00
  0.00000000E+00  0.00000000E+00  0.00000000E+00
  0.00000000E+00  0.00000000E+00  0.00000000E+00
  0.00000000E+00  0.00000000E+00  0.00000000E+00
  0.00000000E+00  0.00000000E+00  0.00000000E+00
  0.00000000E+00  0.00000000E+00  0.00000000E+00
  0.00000000E+00  0.00000000E+00  0.00000000E+00
  0.00000000E+00  0.00000000E+00  0.00000000E+00
  0.00000000E+00  0.00000000E+00  0.00000000E+00
  0.00000000E+00  0.00000000E+00  0.00000000E+00
  0.00000000E+00  0.00000000E+00  0.00000000E+00
  0.00000000E+00  0.00000000E+00  0.00000000E+00
  0.00000000E+00  0.00000000E+00  0.00000000E+00
  0.00000000E+00  0.00000000E+00  0.00000000E+00
  0.00000000E+00  0.00000000E+00  0.00000000E+00
  0.00000000E+00  0.00000000E+00  0.00000000E+00
  0.00000000E+00  0.00000000E+00  0.00000000E+00
  0.00000000E+00  0.00000000E+00  0.00000000E+00
  0.00000000E+00  0.00000000E+00  0.00000000E+00
  0.00000000E+00  0.00000000E+00  0.00000000E+00
  0.00000000E+00  0.00000000E+00  0.00000000E+00
  0.00000000E+00  0.00000000E+00  0.00000000E+00
  0.00000000E+00  0.00000000E+00  0.00000000E+00
  0.00000000E+00  0.00000000E+00  0.00000000E+00
