Title                                   
   1.00000000000000     
     9.8694509999999998    0.0000000000000000    0.0000000000000000
     0.0000000000000000    8.5490480000000009    0.0000000000000000
     0.0000000000000000    0.0000000000000000   20.0000000000000000
    27     4     1
Selective dynamics
Direct
  0.0561636901051318  0.0912456817453843  0.0869227521405936   T   T   T
  0.9311130268186003  0.1749085900567675  0.0870814012887929   T   T   T
  0.0582039715658530  0.9239476061896753  0.0872446709148173   T   T   T
  0.9291177557803554  0.3426670195062911  0.0883868251261351   T   T   T
  0.0573404935971004  0.5908410376357682  0.0884302876678147   T   T   T
  0.9326857788327269  0.6741494089026329  0.0886682683420573   T   T   T
  0.0560302221794121  0.4231601884667916  0.0891511812024494   T   T   T
  0.9334872357657358  0.8406862007399380  0.0879182862733923   T   T   T
  0.3062549314206233  0.0872328625912744  0.0911892624721875   T   T   T
  0.1824883676462465  0.1722861068555441  0.0888510325950027   T   T   T
  0.1821052209044010  0.3390737075001417  0.0911775118481742   T   T   T
  0.3059178692448451  0.5879222043938406  0.1032132181090940   T   T   T
  0.1827176286554843  0.6737027070293907  0.0921996879539713   T   T   T
  0.3076247721923903  0.4206133082493121  0.0984900515519793   T   T   T
  0.1826750258151455  0.8403766066135617  0.0904829517575935   T   T   T
  0.5568761333178094  0.0851791512857056  0.0946134025207289   T   T   T
  0.5561250423305899  0.9213804330744600  0.1006744945480418   T   T   T
  0.4323401693109873  0.3320538089824499  0.0982320515700635   T   T   T
  0.4286875833017528  0.8397521796094221  0.1065553601495429   T   T   T
  0.8062807826285123  0.0900369137794373  0.0879291146928353   T   T   T
  0.6796646360101264  0.1707625622696380  0.0906569715716327   T   T   T
  0.8081207316472437  0.9247159696633449  0.0894508875484379   T   T   T
  0.6773598556817088  0.3369115794462156  0.0932605652383068   T   T   T
  0.8060681712563883  0.5951479570744999  0.0934876697488999   T   T   T
  0.8010953413047606  0.4258788717562391  0.0913289215822883   T   T   T
  0.6848696149012135  0.8402114739554720  0.0973343953737296   T   T   T
  0.4189137671822235  0.6811576249969649  0.1218826158235035   T   T   T
  0.5521994426430711  0.4068982315940480  0.1003497211891066   T   T   T
  0.6896998922965746  0.6813113244184800  0.1021279992644962   T   T   T
  0.3067610260368941  0.9241729360130670  0.0930814377050310   T   T   T
  0.4292407561111379  0.1667001714953266  0.0944968293738234   T   T   T
  0.5614100635149610  0.5851615741089164  0.1708051728554927   T   T   T
 
  0.00000000E+00  0.00000000E+00  0.00000000E+00
  0.00000000E+00  0.00000000E+00  0.00000000E+00
  0.00000000E+00  0.00000000E+00  0.00000000E+00
  0.00000000E+00  0.00000000E+00  0.00000000E+00
  0.00000000E+00  0.00000000E+00  0.00000000E+00
  0.00000000E+00  0.00000000E+00  0.00000000E+00
  0.00000000E+00  0.00000000E+00  0.00000000E+00
  0.00000000E+00  0.00000000E+00  0.00000000E+00
  0.00000000E+00  0.00000000E+00  0.00000000E+00
  0.00000000E+00  0.00000000E+00  0.00000000E+00
  0.00000000E+00  0.00000000E+00  0.00000000E+00
  0.00000000E+00  0.00000000E+00  0.00000000E+00
  0.00000000E+00  0.00000000E+00  0.00000000E+00
  0.00000000E+00  0.00000000E+00  0.00000000E+00
  0.00000000E+00  0.00000000E+00  0.00000000E+00
  0.00000000E+00  0.00000000E+00  0.00000000E+00
  0.00000000E+00  0.00000000E+00  0.00000000E+00
  0.00000000E+00  0.00000000E+00  0.00000000E+00
  0.00000000E+00  0.00000000E+00  0.00000000E+00
  0.00000000E+00  0.00000000E+00  0.00000000E+00
  0.00000000E+00  0.00000000E+00  0.00000000E+00
  0.00000000E+00  0.00000000E+00  0.00000000E+00
  0.00000000E+00  0.00000000E+00  0.00000000E+00
  0.00000000E+00  0.00000000E+00  0.00000000E+00
  0.00000000E+00  0.00000000E+00  0.00000000E+00
  0.00000000E+00  0.00000000E+00  0.00000000E+00
  0.00000000E+00  0.00000000E+00  0.00000000E+00
  0.00000000E+00  0.00000000E+00  0.00000000E+00
  0.00000000E+00  0.00000000E+00  0.00000000E+00
  0.00000000E+00  0.00000000E+00  0.00000000E+00
  0.00000000E+00  0.00000000E+00  0.00000000E+00
  0.00000000E+00  0.00000000E+00  0.00000000E+00
