Title                                   
   1.00000000000000     
     4.9440799999999996    0.0000000000000000    0.0000000000000000
     0.0000000000000000   17.1295089999999988    0.0000000000000000
     0.0000000000000000    0.0000000000000000   20.0000000000000000
    30     1     1
Selective dynamics
Direct
  0.0010077854645860  0.1044752379729775  0.2879902386946647   T   T   T
  0.2504804059154930  0.1462957436735448  0.2926197713344873   T   T   T
  0.2501346834045527  0.2290590494496653  0.3038333361724591   T   T   T
  0.0014234959893454  0.3508209658504335  0.3261855302824925   T   T   T
 -0.0018700907286344  0.2698551059367530  0.3091405139016952   T   T   T
 -0.0003904128377941  0.6027572958714363  0.2985989103745099   T   T   T
  0.2521754535387012  0.7278343948609434  0.2875256585990998   T   T   T
  0.0019882424513366  0.8537039766950080  0.2795208794092975   T   T   T
  0.2514522387198618  0.8957806542262584  0.2794280947594506   T   T   T
  0.2510517122876130  0.9792227424065613  0.2806523131848072   T   T   T
  0.0024855017816870  0.7702143775011897  0.2827924399366476   T   T   T
  0.5000261364643135  0.1044053489945409  0.2880673814407619   T   T   T
  0.7502763918344640  0.1460108917097032  0.2916092885167005   T   T   T
  0.7497789610524214  0.2284051045415081  0.3015869402485473   T   T   T
  0.5007354622047255  0.0211457410323678  0.2822893505787833   T   T   T
  0.4976685647104878  0.3512382391852243  0.3267650015695339   T   T   T
  0.7505406042125272  0.4790062631022458  0.3179093805184310   T   T   T
  0.5016242941469763  0.2701030075354215  0.3095150439877354   T   T   T
  0.5072789890557805  0.6040348205521167  0.3038815668205896   T   T   T
  0.7520458675334423  0.7288682019984626  0.2850362571277136   T   T   T
  0.5012309292244272  0.8537482914212350  0.2798997777292151   T   T   T
  0.7515050094122170  0.8956347565540757  0.2789135155818949   T   T   T
  0.7511202539899853  0.9792625178614328  0.2803235810428772   T   T   T
  0.5015093876965623  0.7703294004513384  0.2835966442830442   T   T   T
  0.7523825435826815  0.6459654704080670  0.2927703300902288   T   T   T
  0.2531121312990754  0.6450399778283051  0.2976483082502717   T   T   T
  0.0011446873379842  0.0211841508563225  0.2822077278696958   T   T   T
  0.5135628163696295  0.5236520060170097  0.3239229283416210   T   T   T
  0.9917759759829613  0.5199951276892604  0.3068360104486123   T   T   T
  0.2489602881396509  0.3880986308983018  0.3427637016057527   T   T   T
  0.7499955369835294  0.3933987690696906  0.3281143755255722   T   T   T
  0.2106091527794175  0.4990047378485910  0.3906202017727575   T   T   T
 
  0.00000000E+00  0.00000000E+00  0.00000000E+00
  0.00000000E+00  0.00000000E+00  0.00000000E+00
  0.00000000E+00  0.00000000E+00  0.00000000E+00
  0.00000000E+00  0.00000000E+00  0.00000000E+00
  0.00000000E+00  0.00000000E+00  0.00000000E+00
  0.00000000E+00  0.00000000E+00  0.00000000E+00
  0.00000000E+00  0.00000000E+00  0.00000000E+00
  0.00000000E+00  0.00000000E+00  0.00000000E+00
  0.00000000E+00  0.00000000E+00  0.00000000E+00
  0.00000000E+00  0.00000000E+00  0.00000000E+00
  0.00000000E+00  0.00000000E+00  0.00000000E+00
  0.00000000E+00  0.00000000E+00  0.00000000E+00
  0.00000000E+00  0.00000000E+00  0.00000000E+00
  0.00000000E+00  0.00000000E+00  0.00000000E+00
  0.00000000E+00  0.00000000E+00  0.00000000E+00
  0.00000000E+00  0.00000000E+00  0.00000000E+00
  0.00000000E+00  0.00000000E+00  0.00000000E+00
  0.00000000E+00  0.00000000E+00  0.00000000E+00
  0.00000000E+00  0.00000000E+00  0.00000000E+00
  0.00000000E+00  0.00000000E+00  0.00000000E+00
  0.00000000E+00  0.00000000E+00  0.00000000E+00
  0.00000000E+00  0.00000000E+00  0.00000000E+00
  0.00000000E+00  0.00000000E+00  0.00000000E+00
  0.00000000E+00  0.00000000E+00  0.00000000E+00
  0.00000000E+00  0.00000000E+00  0.00000000E+00
  0.00000000E+00  0.00000000E+00  0.00000000E+00
  0.00000000E+00  0.00000000E+00  0.00000000E+00
  0.00000000E+00  0.00000000E+00  0.00000000E+00
  0.00000000E+00  0.00000000E+00  0.00000000E+00
  0.00000000E+00  0.00000000E+00  0.00000000E+00
  0.00000000E+00  0.00000000E+00  0.00000000E+00
  0.00000000E+00  0.00000000E+00  0.00000000E+00
