Title                                   
   1.00000000000000     
     9.8694509999999998    0.0000000000000000    0.0000000000000000
     0.0000000000000000    8.5490480000000009    0.0000000000000000
     0.0000000000000000    0.0000000000000000   20.0000000000000000
    29     1     1
Selective dynamics
Direct
  0.0555850346320802  0.0885275871034093  0.0909676945041753   T   T   T
  0.9305382177532914  0.1726703367346179  0.0887886210275799   T   T   T
  0.0560883311884232  0.9223052669882785  0.0913609894887851   T   T   T
  0.9324470913208555  0.3390224227808488  0.0909926214548724   T   T   T
  0.0564309466588267  0.5895074772069155  0.0950542986448006   T   T   T
  0.9325495406004112  0.6741495758700761  0.0923405701919670   T   T   T
  0.0557508653470339  0.4226048984059242  0.0946530135540770   T   T   T
  0.9309928489474112  0.8403186065369984  0.0899238960950352   T   T   T
  0.3056302288532200  0.0894087404310046  0.0951955207157937   T   T   T
  0.1796998741970123  0.1709923314332724  0.0943078646433292   T   T   T
  0.3068660194064821  0.9215018637326162  0.0950960556347918   T   T   T
  0.1794237361341424  0.3374650028834789  0.0964300901391749   T   T   T
  0.3054810075748064  0.5875073754089462  0.1012594161425431   T   T   T
  0.1808049025955010  0.6718412917162028  0.0971264260933212   T   T   T
  0.3027219330223981  0.4188347173475780  0.1009974366109581   T   T   T
  0.1814214245890578  0.8388123889876989  0.0946986961528363   T   T   T
  0.5538152208199387  0.0929133311136394  0.0932162091510852   T   T   T
  0.4284174369863645  0.1774962514797641  0.0977230707474818   T   T   T
  0.5544211562380387  0.9248125191450907  0.0933079054903251   T   T   T
  0.4313623082817102  0.6682768836005546  0.1032961643318494   T   T   T
  0.4317651094513688  0.8357563509588189  0.0971939978855057   T   T   T
  0.8050665916041636  0.0906679361261543  0.0864146698962733   T   T   T
  0.6793922337292253  0.1765187885692516  0.0872451452248869   T   T   T
  0.8051191649881696  0.9238365411937012  0.0871962772235434   T   T   T
  0.6836181434011144  0.3415825082458517  0.0858468955794458   T   T   T
  0.8080131379023210  0.5919346609089359  0.0904037124398754   T   T   T
  0.6827206420299087  0.6742222280837165  0.0907974149373447   T   T   T
  0.8081367882977016  0.4229696462178710  0.0881694087639086   T   T   T
  0.6797780657890309  0.8402919468399427  0.0887672632432857   T   T   T
  0.4247736595558023  0.3398129930756877  0.1042117841843496   T   T   T
  0.5743033381041979  0.5043125308731653  0.1379818698068398   T   T   T
 
  0.00000000E+00  0.00000000E+00  0.00000000E+00
  0.00000000E+00  0.00000000E+00  0.00000000E+00
  0.00000000E+00  0.00000000E+00  0.00000000E+00
  0.00000000E+00  0.00000000E+00  0.00000000E+00
  0.00000000E+00  0.00000000E+00  0.00000000E+00
  0.00000000E+00  0.00000000E+00  0.00000000E+00
  0.00000000E+00  0.00000000E+00  0.00000000E+00
  0.00000000E+00  0.00000000E+00  0.00000000E+00
  0.00000000E+00  0.00000000E+00  0.00000000E+00
  0.00000000E+00  0.00000000E+00  0.00000000E+00
  0.00000000E+00  0.00000000E+00  0.00000000E+00
  0.00000000E+00  0.00000000E+00  0.00000000E+00
  0.00000000E+00  0.00000000E+00  0.00000000E+00
  0.00000000E+00  0.00000000E+00  0.00000000E+00
  0.00000000E+00  0.00000000E+00  0.00000000E+00
  0.00000000E+00  0.00000000E+00  0.00000000E+00
  0.00000000E+00  0.00000000E+00  0.00000000E+00
  0.00000000E+00  0.00000000E+00  0.00000000E+00
  0.00000000E+00  0.00000000E+00  0.00000000E+00
  0.00000000E+00  0.00000000E+00  0.00000000E+00
  0.00000000E+00  0.00000000E+00  0.00000000E+00
  0.00000000E+00  0.00000000E+00  0.00000000E+00
  0.00000000E+00  0.00000000E+00  0.00000000E+00
  0.00000000E+00  0.00000000E+00  0.00000000E+00
  0.00000000E+00  0.00000000E+00  0.00000000E+00
  0.00000000E+00  0.00000000E+00  0.00000000E+00
  0.00000000E+00  0.00000000E+00  0.00000000E+00
  0.00000000E+00  0.00000000E+00  0.00000000E+00
  0.00000000E+00  0.00000000E+00  0.00000000E+00
  0.00000000E+00  0.00000000E+00  0.00000000E+00
  0.00000000E+00  0.00000000E+00  0.00000000E+00
