Title                                   
   1.00000000000000     
     9.8694509999999998    0.0000000000000000    0.0000000000000000
     0.0000000000000000    8.5490480000000009    0.0000000000000000
     0.0000000000000000    0.0000000000000000   20.0000000000000000
    29     2     1
Selective dynamics
Direct
  0.0565717411265474  0.0904530460736201  0.0839780301072374   T   T   T
  0.9313806204711341  0.1732710135710091  0.0879888053805625   T   T   T
  0.0568299360828736  0.9230017013390214  0.0826468663820900   T   T   T
  0.9304691347239508  0.3401299497749973  0.0939352540633262   T   T   T
  0.0559328776166688  0.5893779941020250  0.0894113985476592   T   T   T
  0.9316162127725466  0.6723566909586999  0.0908587096370158   T   T   T
  0.0570451665452981  0.4229237305295622  0.0921436473886410   T   T   T
  0.9311462359034338  0.8396991821412824  0.0856051978372460   T   T   T
  0.3058455587995317  0.0889653912950653  0.0835065289361486   T   T   T
  0.1823452047065044  0.1744958672387278  0.0858707649302026   T   T   T
  0.3070807258713825  0.9237796873227967  0.0836459729147344   T   T   T
  0.1820648272798804  0.3398672726054189  0.0920036267042047   T   T   T
  0.3067602500857116  0.5885925276926269  0.0973959482007279   T   T   T
  0.1821870017120458  0.6713605829946319  0.0876660288251022   T   T   T
  0.1825953289053240  0.8380217226346153  0.0838012374048843   T   T   T
  0.5557187719193909  0.0881010542778294  0.0918029784507979   T   T   T
  0.4308682598719887  0.1706423194498125  0.0896384042399206   T   T   T
  0.4302447080104823  0.3345644510611239  0.1029455066298551   T   T   T
  0.4311860049310756  0.8406914793180459  0.0928653970711382   T   T   T
  0.8072894219287707  0.0895028305183712  0.0870065608792228   T   T   T
  0.6811707110821225  0.1698535754320829  0.0940317985976442   T   T   T
  0.8066087366602382  0.9244677440637179  0.0858870413100274   T   T   T
  0.6801914601856236  0.3327621662663053  0.1075842498831703   T   T   T
  0.8066364408483866  0.5908571643292903  0.1031090372956749   T   T   T
  0.8052522907019477  0.4222545420887434  0.1035158215187365   T   T   T
  0.6808777121559371  0.8429256688180157  0.0952908341958502   T   T   T
  0.4248630076274914  0.6806323177134374  0.1079500706652877   T   T   T
  0.5524937569581453  0.3989578222861789  0.1248310268701846   T   T   T
  0.6894794832275075  0.6861448410383159  0.1134877785763034   T   T   T
  0.5560309003565701  0.9236611134763646  0.0920605279419093   T   T   T
  0.3066780665845449  0.4220331346561648  0.0990395574588872   T   T   T
  0.5541784443469495  0.5958974149321017  0.1741703911556229   T   T   T
 
  0.00000000E+00  0.00000000E+00  0.00000000E+00
  0.00000000E+00  0.00000000E+00  0.00000000E+00
  0.00000000E+00  0.00000000E+00  0.00000000E+00
  0.00000000E+00  0.00000000E+00  0.00000000E+00
  0.00000000E+00  0.00000000E+00  0.00000000E+00
  0.00000000E+00  0.00000000E+00  0.00000000E+00
  0.00000000E+00  0.00000000E+00  0.00000000E+00
  0.00000000E+00  0.00000000E+00  0.00000000E+00
  0.00000000E+00  0.00000000E+00  0.00000000E+00
  0.00000000E+00  0.00000000E+00  0.00000000E+00
  0.00000000E+00  0.00000000E+00  0.00000000E+00
  0.00000000E+00  0.00000000E+00  0.00000000E+00
  0.00000000E+00  0.00000000E+00  0.00000000E+00
  0.00000000E+00  0.00000000E+00  0.00000000E+00
  0.00000000E+00  0.00000000E+00  0.00000000E+00
  0.00000000E+00  0.00000000E+00  0.00000000E+00
  0.00000000E+00  0.00000000E+00  0.00000000E+00
  0.00000000E+00  0.00000000E+00  0.00000000E+00
  0.00000000E+00  0.00000000E+00  0.00000000E+00
  0.00000000E+00  0.00000000E+00  0.00000000E+00
  0.00000000E+00  0.00000000E+00  0.00000000E+00
  0.00000000E+00  0.00000000E+00  0.00000000E+00
  0.00000000E+00  0.00000000E+00  0.00000000E+00
  0.00000000E+00  0.00000000E+00  0.00000000E+00
  0.00000000E+00  0.00000000E+00  0.00000000E+00
  0.00000000E+00  0.00000000E+00  0.00000000E+00
  0.00000000E+00  0.00000000E+00  0.00000000E+00
  0.00000000E+00  0.00000000E+00  0.00000000E+00
  0.00000000E+00  0.00000000E+00  0.00000000E+00
  0.00000000E+00  0.00000000E+00  0.00000000E+00
  0.00000000E+00  0.00000000E+00  0.00000000E+00
  0.00000000E+00  0.00000000E+00  0.00000000E+00
