Title                                   
   1.00000000000000     
     4.9440799999999996    0.0000000000000000    0.0000000000000000
     0.0000000000000000   17.1295089999999988    0.0000000000000000
     0.0000000000000000    0.0000000000000000   20.0000000000000000
    26     4     1
Selective dynamics
Direct
  0.0011188098744968  0.1073129251249485  0.2979220766534362   T   T   T
  0.2503844790722275  0.1502335356514242  0.2985633695009334   T   T   T
  0.2503374130222446  0.2353769150345575  0.2999660610168285   T   T   T
  0.0000669760623304  0.2774722134854735  0.3006622827384710   T   T   T
  0.0000425772874897  0.5974363039214472  0.3011109475166719   T   T   T
  0.2503163114808352  0.7246900405715648  0.2991756905488825   T   T   T
  0.0007173627807954  0.8523220397300481  0.2974633219042660   T   T   T
  0.2503240584216828  0.8950724283704138  0.2971496178801302   T   T   T
  0.2503413841419929  0.9798860242044710  0.2969615187721704   T   T   T
  0.0010751363221245  0.7676186810780428  0.2985217958714501   T   T   T
  0.4996311404895524  0.1073099393228273  0.2979226688251775   T   T   T
  0.7503920825742640  0.1500031028079861  0.2985212047908309   T   T   T
  0.7503289460997287  0.2341264170266919  0.2999213029249412   T   T   T
  0.4999621351491338  0.0226201403094811  0.2970987454257203   T   T   T
  0.7502773350138501  0.3957744230024375  0.3023007268931281   T   T   T
  0.7502724125183856  0.4791459480804300  0.3024372303397544   T   T   T
  0.5005813146527934  0.2774697787113897  0.3006872138176643   T   T   T
  0.5005651019910525  0.5974355178884022  0.3011189170983195   T   T   T
  0.7503173934748205  0.7249138695530272  0.2991153884982620   T   T   T
  0.4999391917196960  0.8523232179454080  0.2974610999277649   T   T   T
  0.7503495103070780  0.8951573997832318  0.2970834922330449   T   T   T
  0.7503551047901381  0.9797780615873319  0.2968958733106938   T   T   T
  0.4995788915108502  0.7676159791256831  0.2985211249264730   T   T   T
  0.7502994507774229  0.6407882069543870  0.3004208364390550   T   T   T
  0.2502872381699838  0.6395286319571988  0.3004975767742287   T   T   T
  0.0007271277683726  0.0226266115791115  0.2970954383224832   T   T   T
  0.5083228714995641  0.5168240983102176  0.3022037680924115   T   T   T
  0.9922310968320666  0.5168254408485509  0.3021867533005316   T   T   T
  0.5083401507124422  0.3580869064149111  0.3019660665301078   T   T   T
 -0.0077611860402918  0.3580880854149585  0.3018937430500301   T   T   T
  0.2502851815228774  0.4374791162039390  0.3022141460760898   T   T   T
 
  0.00000000E+00  0.00000000E+00  0.00000000E+00
  0.00000000E+00  0.00000000E+00  0.00000000E+00
  0.00000000E+00  0.00000000E+00  0.00000000E+00
  0.00000000E+00  0.00000000E+00  0.00000000E+00
  0.00000000E+00  0.00000000E+00  0.00000000E+00
  0.00000000E+00  0.00000000E+00  0.00000000E+00
  0.00000000E+00  0.00000000E+00  0.00000000E+00
  0.00000000E+00  0.00000000E+00  0.00000000E+00
  0.00000000E+00  0.00000000E+00  0.00000000E+00
  0.00000000E+00  0.00000000E+00  0.00000000E+00
  0.00000000E+00  0.00000000E+00  0.00000000E+00
  0.00000000E+00  0.00000000E+00  0.00000000E+00
  0.00000000E+00  0.00000000E+00  0.00000000E+00
  0.00000000E+00  0.00000000E+00  0.00000000E+00
  0.00000000E+00  0.00000000E+00  0.00000000E+00
  0.00000000E+00  0.00000000E+00  0.00000000E+00
  0.00000000E+00  0.00000000E+00  0.00000000E+00
  0.00000000E+00  0.00000000E+00  0.00000000E+00
  0.00000000E+00  0.00000000E+00  0.00000000E+00
  0.00000000E+00  0.00000000E+00  0.00000000E+00
  0.00000000E+00  0.00000000E+00  0.00000000E+00
  0.00000000E+00  0.00000000E+00  0.00000000E+00
  0.00000000E+00  0.00000000E+00  0.00000000E+00
  0.00000000E+00  0.00000000E+00  0.00000000E+00
  0.00000000E+00  0.00000000E+00  0.00000000E+00
  0.00000000E+00  0.00000000E+00  0.00000000E+00
  0.00000000E+00  0.00000000E+00  0.00000000E+00
  0.00000000E+00  0.00000000E+00  0.00000000E+00
  0.00000000E+00  0.00000000E+00  0.00000000E+00
  0.00000000E+00  0.00000000E+00  0.00000000E+00
  0.00000000E+00  0.00000000E+00  0.00000000E+00
