Title                                   
   1.00000000000000     
     9.8694509999999998    0.0000000000000000    0.0000000000000000
     0.0000000000000000    8.5490480000000009    0.0000000000000000
     0.0000000000000000    0.0000000000000000   20.0000000000000000
    27     4     1
Selective dynamics
Direct
  0.0562474281575676  0.0927112668438061  0.0844986598104954   T   T   T
  0.9301351271217710  0.1751962336634982  0.0870365415683986   T   T   T
  0.0564132862883995  0.9238704744663546  0.0812731602191025   T   T   T
  0.9302390171411418  0.3414759297469497  0.0927923445567345   T   T   T
  0.0564220578484510  0.5898662491653536  0.0881292117131950   T   T   T
  0.9323023088848208  0.6714921082183217  0.0852871797100146   T   T   T
  0.0561731360489911  0.4230323526094646  0.0939080098401174   T   T   T
  0.9315426921252463  0.8393961583966073  0.0820625904066509   T   T   T
  0.3052936068225034  0.0901043969778511  0.0858076535067179   T   T   T
  0.1820292413571477  0.1753942599460682  0.0891956929689153   T   T   T
  0.3059264394477197  0.9247380473200112  0.0839744312458769   T   T   T
  0.1826172127709619  0.3409467582247656  0.0974853279925081   T   T   T
  0.3037758520133491  0.5927218877233260  0.1061550531672423   T   T   T
  0.1806324657290706  0.6711563397319447  0.0887431820625802   T   T   T
  0.1815229986621148  0.8391608182395430  0.0833619814825884   T   T   T
  0.5567293979288689  0.0858529863655854  0.0916818551892924   T   T   T
  0.4307947794490810  0.1694268110396633  0.0935014381618093   T   T   T
  0.4330490053012943  0.3321067470705823  0.1102882044588061   T   T   T
  0.4273564901701951  0.8409284540400547  0.0976478801944881   T   T   T
  0.8072289118194907  0.0889762303735325  0.0840064145170675   T   T   T
  0.6815709289023755  0.1690500297686902  0.0898449873163016   T   T   T
  0.8065076024613178  0.9240444313342238  0.0831333201568303   T   T   T
  0.6800701017681310  0.3323695423152364  0.1039250833279616   T   T   T
  0.8064534664119994  0.5929389531936207  0.0933718875764058   T   T   T
  0.6845187854743704  0.8375457048532432  0.0910080930937130   T   T   T
  0.4149881114946398  0.6881348216648356  0.1218780592408383   T   T   T
  0.5593643544514330  0.3973639861981511  0.1277113203757661   T   T   T
  0.6917760657570681  0.6795321266182612  0.1001246052779160   T   T   T
  0.5564818631249219  0.9176476118279141  0.0933813965960613   T   T   T
  0.3069504919465482  0.4224577635484467  0.1085177493394336   T   T   T
  0.8034086944883708  0.4242566445069111  0.0978851838942865   T   T   T
  0.5611170786306429  0.5963498740071840  0.1680565010319011   T   T   T
 
  0.00000000E+00  0.00000000E+00  0.00000000E+00
  0.00000000E+00  0.00000000E+00  0.00000000E+00
  0.00000000E+00  0.00000000E+00  0.00000000E+00
  0.00000000E+00  0.00000000E+00  0.00000000E+00
  0.00000000E+00  0.00000000E+00  0.00000000E+00
  0.00000000E+00  0.00000000E+00  0.00000000E+00
  0.00000000E+00  0.00000000E+00  0.00000000E+00
  0.00000000E+00  0.00000000E+00  0.00000000E+00
  0.00000000E+00  0.00000000E+00  0.00000000E+00
  0.00000000E+00  0.00000000E+00  0.00000000E+00
  0.00000000E+00  0.00000000E+00  0.00000000E+00
  0.00000000E+00  0.00000000E+00  0.00000000E+00
  0.00000000E+00  0.00000000E+00  0.00000000E+00
  0.00000000E+00  0.00000000E+00  0.00000000E+00
  0.00000000E+00  0.00000000E+00  0.00000000E+00
  0.00000000E+00  0.00000000E+00  0.00000000E+00
  0.00000000E+00  0.00000000E+00  0.00000000E+00
  0.00000000E+00  0.00000000E+00  0.00000000E+00
  0.00000000E+00  0.00000000E+00  0.00000000E+00
  0.00000000E+00  0.00000000E+00  0.00000000E+00
  0.00000000E+00  0.00000000E+00  0.00000000E+00
  0.00000000E+00  0.00000000E+00  0.00000000E+00
  0.00000000E+00  0.00000000E+00  0.00000000E+00
  0.00000000E+00  0.00000000E+00  0.00000000E+00
  0.00000000E+00  0.00000000E+00  0.00000000E+00
  0.00000000E+00  0.00000000E+00  0.00000000E+00
  0.00000000E+00  0.00000000E+00  0.00000000E+00
  0.00000000E+00  0.00000000E+00  0.00000000E+00
  0.00000000E+00  0.00000000E+00  0.00000000E+00
  0.00000000E+00  0.00000000E+00  0.00000000E+00
  0.00000000E+00  0.00000000E+00  0.00000000E+00
  0.00000000E+00  0.00000000E+00  0.00000000E+00
