Title                                   
   1.00000000000000     
     9.8694509999999998    0.0000000000000000    0.0000000000000000
     0.0000000000000000    8.5490480000000009    0.0000000000000000
     0.0000000000000000    0.0000000000000000   20.0000000000000000
    28     3     1
Selective dynamics
Direct
  0.0565888489539850  0.0913299415473768  0.0812997810010952   T   T   T
  0.9307334272660117  0.1736438470375095  0.0835882406799164   T   T   T
  0.0557107559761908  0.9242522594294530  0.0819200752428439   T   T   T
  0.9301505708751443  0.3405601952006594  0.0879404704926772   T   T   T
  0.0567089532847191  0.5893555110529974  0.0852155215862580   T   T   T
  0.9319706409645144  0.6727336387831400  0.0884313377298936   T   T   T
  0.0569234834971868  0.4234704416140605  0.0864532908275070   T   T   T
  0.9308776035601520  0.8397709751905466  0.0850942300927543   T   T   T
  0.3055859723616679  0.0899589095811600  0.0847214425433001   T   T   T
  0.1821576136251055  0.1745011687491159  0.0835934648587233   T   T   T
  0.3057393246196568  0.9241305235681749  0.0862779243833309   T   T   T
  0.1841068631063327  0.3422707508454209  0.0875993920876661   T   T   T
  0.3042328774448352  0.5943942946931416  0.0988562166415281   T   T   T
  0.1809394838862700  0.6738441600598686  0.0874564195678392   T   T   T
  0.3103333454083702  0.4254440972417480  0.0965380130761847   T   T   T
  0.1806133473622570  0.8408769401210596  0.0848992583991506   T   T   T
  0.5557596683354648  0.0840566192614722  0.0944465359460801   T   T   T
  0.4317604021680227  0.1690729106643781  0.0917762689239643   T   T   T
  0.4336872547928650  0.3330438467512250  0.1006317050991837   T   T   T
  0.4277892773466645  0.8407367282575330  0.0975587526103084   T   T   T
  0.8072030641807572  0.0892462729265545  0.0850225598938477   T   T   T
  0.6809417463347253  0.1676980471240517  0.0925372757571131   T   T   T
  0.8051982839497444  0.9230257477920447  0.0867603117908992   T   T   T
  0.6807485558360136  0.3320352227197648  0.1019515102031615   T   T   T
  0.8096810446058377  0.5911600445744117  0.1017500274727777   T   T   T
  0.6931034623688682  0.6826229008428021  0.1205002853502460   T   T   T
  0.8047972115464489  0.4226676449808952  0.0981047630952412   T   T   T
  0.6829409616237490  0.8406184293870601  0.0991324841957860   T   T   T
  0.4177692573288240  0.6863335024966626  0.1170216604212594   T   T   T
  0.5570433369773761  0.4010837401742337  0.1187884000012510   T   T   T
  0.5548756495054644  0.9195769204921185  0.0977275256658676   T   T   T
  0.5529667109067798  0.5867297668393663  0.1720798543623794   T   T   T
 
  0.00000000E+00  0.00000000E+00  0.00000000E+00
  0.00000000E+00  0.00000000E+00  0.00000000E+00
  0.00000000E+00  0.00000000E+00  0.00000000E+00
  0.00000000E+00  0.00000000E+00  0.00000000E+00
  0.00000000E+00  0.00000000E+00  0.00000000E+00
  0.00000000E+00  0.00000000E+00  0.00000000E+00
  0.00000000E+00  0.00000000E+00  0.00000000E+00
  0.00000000E+00  0.00000000E+00  0.00000000E+00
  0.00000000E+00  0.00000000E+00  0.00000000E+00
  0.00000000E+00  0.00000000E+00  0.00000000E+00
  0.00000000E+00  0.00000000E+00  0.00000000E+00
  0.00000000E+00  0.00000000E+00  0.00000000E+00
  0.00000000E+00  0.00000000E+00  0.00000000E+00
  0.00000000E+00  0.00000000E+00  0.00000000E+00
  0.00000000E+00  0.00000000E+00  0.00000000E+00
  0.00000000E+00  0.00000000E+00  0.00000000E+00
  0.00000000E+00  0.00000000E+00  0.00000000E+00
  0.00000000E+00  0.00000000E+00  0.00000000E+00
  0.00000000E+00  0.00000000E+00  0.00000000E+00
  0.00000000E+00  0.00000000E+00  0.00000000E+00
  0.00000000E+00  0.00000000E+00  0.00000000E+00
  0.00000000E+00  0.00000000E+00  0.00000000E+00
  0.00000000E+00  0.00000000E+00  0.00000000E+00
  0.00000000E+00  0.00000000E+00  0.00000000E+00
  0.00000000E+00  0.00000000E+00  0.00000000E+00
  0.00000000E+00  0.00000000E+00  0.00000000E+00
  0.00000000E+00  0.00000000E+00  0.00000000E+00
  0.00000000E+00  0.00000000E+00  0.00000000E+00
  0.00000000E+00  0.00000000E+00  0.00000000E+00
  0.00000000E+00  0.00000000E+00  0.00000000E+00
  0.00000000E+00  0.00000000E+00  0.00000000E+00
  0.00000000E+00  0.00000000E+00  0.00000000E+00
