Title                                   
   1.00000000000000     
     8.5490480000000009    0.0000000000000000    0.0000000000000000
     0.0000000000000000    8.5490480000000009    0.0000000000000000
     0.0000000000000000    0.0000000000000000   20.0000000000000000
    19     5     1
Selective dynamics
Direct
  0.9086582341208159  0.2053887450352199  0.0975255000857708   T   T   T
  0.9107956118833241  0.8007701804469749  0.0975399026822143   T   T   T
  0.1983260350381364  0.0833691945328599  0.0978427369302946   T   T   T
  0.0762323325626361  0.2027322771510467  0.0977002302769096   T   T   T
  0.1557965064097748  0.6501170507496604  0.0978194116645032   T   T   T
  0.0730554718811901  0.5006593468452740  0.0977642599456558   T   T   T
  0.1549194356739167  0.3540121020479592  0.0977248102624297   T   T   T
  0.0789666572441630  0.7995281736977337  0.0977492387630426   T   T   T
  0.3469935831063364  0.1662034587087913  0.0978258781517418   T   T   T
  0.4942533807428413  0.9185113615419664  0.0978284412207955   T   T   T
  0.3458813066872724  0.8361594330930486  0.0979273107790913   T   T   T
  0.7883259511548204  0.0859493020383808  0.0974531091695792   T   T   T
  0.6419403056995803  0.1669292573137713  0.0976547601853711   T   T   T
  0.7901204636174690  0.9184508196135022  0.0974756252013047   T   T   T
  0.8271614978859380  0.6521322419020045  0.0976988192098449   T   T   T
  0.8251679838369970  0.3526065089741223  0.0976617710300834   T   T   T
  0.6427194422939260  0.8373146632143307  0.0976979523050163   T   T   T
  0.3253863264761620  0.3327600889171463  0.0977697035436389   T   T   T
  0.3233791434172963  0.6718908002779301  0.0978867432046928   T   T   T
  0.4957452772653323  0.0868414493058114  0.0978591746437225   T   T   T
  0.9029469932367968  0.5018242861121623  0.0978011029192943   T   T   T
  0.6639433023525079  0.3293235906330235  0.0977915645164414   T   T   T
  0.6672740660013521  0.6737785259174802  0.0978366968776658   T   T   T
  0.1961091674961647  0.9169750401625152  0.0979425718478298   T   T   T
  0.4913135239152430  0.5005621017673039  0.0979276845830386   T   T   T
 
  0.00000000E+00  0.00000000E+00  0.00000000E+00
  0.00000000E+00  0.00000000E+00  0.00000000E+00
  0.00000000E+00  0.00000000E+00  0.00000000E+00
  0.00000000E+00  0.00000000E+00  0.00000000E+00
  0.00000000E+00  0.00000000E+00  0.00000000E+00
  0.00000000E+00  0.00000000E+00  0.00000000E+00
  0.00000000E+00  0.00000000E+00  0.00000000E+00
  0.00000000E+00  0.00000000E+00  0.00000000E+00
  0.00000000E+00  0.00000000E+00  0.00000000E+00
  0.00000000E+00  0.00000000E+00  0.00000000E+00
  0.00000000E+00  0.00000000E+00  0.00000000E+00
  0.00000000E+00  0.00000000E+00  0.00000000E+00
  0.00000000E+00  0.00000000E+00  0.00000000E+00
  0.00000000E+00  0.00000000E+00  0.00000000E+00
  0.00000000E+00  0.00000000E+00  0.00000000E+00
  0.00000000E+00  0.00000000E+00  0.00000000E+00
  0.00000000E+00  0.00000000E+00  0.00000000E+00
  0.00000000E+00  0.00000000E+00  0.00000000E+00
  0.00000000E+00  0.00000000E+00  0.00000000E+00
  0.00000000E+00  0.00000000E+00  0.00000000E+00
  0.00000000E+00  0.00000000E+00  0.00000000E+00
  0.00000000E+00  0.00000000E+00  0.00000000E+00
  0.00000000E+00  0.00000000E+00  0.00000000E+00
  0.00000000E+00  0.00000000E+00  0.00000000E+00
  0.00000000E+00  0.00000000E+00  0.00000000E+00
