Title                                   
   1.00000000000000     
     9.8694509999999998    0.0000000000000000    0.0000000000000000
     0.0000000000000000    8.5490480000000009    0.0000000000000000
     0.0000000000000000    0.0000000000000000   20.0000000000000000
    27     3     1
Selective dynamics
Direct
  0.0548464856590193  0.0896355687690356  0.0854953518658782   T   T   T
  0.9293791694566849  0.1740301432765574  0.0852387801756457   T   T   T
  0.0585321520929592  0.9234245625993519  0.0861262371731940   T   T   T
  0.9319926756771680  0.3416857946645270  0.0836449263300802   T   T   T
  0.0571013962193841  0.5903443539334885  0.0818813522718461   T   T   T
  0.9342221792749580  0.6765744534275290  0.0859904898713885   T   T   T
  0.0563900750148515  0.4231229206799701  0.0815717755487999   T   T   T
  0.9335905576433658  0.8425883023500919  0.0883708253955891   T   T   T
  0.3057344950279523  0.0863184145196440  0.0945000501207496   T   T   T
  0.1793995156073172  0.1684847068548530  0.0881586093893941   T   T   T
  0.1789740109019948  0.3356263183316044  0.0861819962105301   T   T   T
  0.3026876698415848  0.5841294577849629  0.0911239916173818   T   T   T
  0.1816644076241085  0.6721464351603211  0.0848959332414749   T   T   T
  0.2996411811771918  0.4160749775314336  0.0958355232331548   T   T   T
  0.1837393556250613  0.8393559290967010  0.0866996676699646   T   T   T
  0.5550930613862003  0.0912682729355468  0.1039294484215460   T   T   T
  0.4259888349264362  0.1740761409119774  0.1049532700319220   T   T   T
  0.5567714024593323  0.9211483397266315  0.1043143698177360   T   T   T
  0.4271448668269052  0.6638027204083795  0.0985215266615485   T   T   T
  0.4326240441343649  0.8319718935458930  0.0987618135684467   T   T   T
  0.8034695376093588  0.0932509218233891  0.0913030313587970   T   T   T
  0.6784737064479305  0.1806654941495080  0.0974115095131514   T   T   T
  0.8066525080248466  0.9242210214492832  0.0939564032498179   T   T   T
  0.6844440731202804  0.3508748055241958  0.0974604861337313   T   T   T
  0.8128846258256950  0.5963078576003188  0.0950257377272344   T   T   T
  0.8099374405891061  0.4279906447347928  0.0899921223031809   T   T   T
  0.6856601764435265  0.8360747593507929  0.1042665400318222   T   T   T
  0.4169635342005723  0.3370693878439500  0.1145629742331568   T   T   T
  0.6948919756485895  0.6730635945703709  0.1134927841495269   T   T   T
  0.3084165299920932  0.9199173888371012  0.0921815349930341   T   T   T
  0.5558233555211625  0.5056294176078250  0.1351159376903102   T   T   T
 
  0.00000000E+00  0.00000000E+00  0.00000000E+00
  0.00000000E+00  0.00000000E+00  0.00000000E+00
  0.00000000E+00  0.00000000E+00  0.00000000E+00
  0.00000000E+00  0.00000000E+00  0.00000000E+00
  0.00000000E+00  0.00000000E+00  0.00000000E+00
  0.00000000E+00  0.00000000E+00  0.00000000E+00
  0.00000000E+00  0.00000000E+00  0.00000000E+00
  0.00000000E+00  0.00000000E+00  0.00000000E+00
  0.00000000E+00  0.00000000E+00  0.00000000E+00
  0.00000000E+00  0.00000000E+00  0.00000000E+00
  0.00000000E+00  0.00000000E+00  0.00000000E+00
  0.00000000E+00  0.00000000E+00  0.00000000E+00
  0.00000000E+00  0.00000000E+00  0.00000000E+00
  0.00000000E+00  0.00000000E+00  0.00000000E+00
  0.00000000E+00  0.00000000E+00  0.00000000E+00
  0.00000000E+00  0.00000000E+00  0.00000000E+00
  0.00000000E+00  0.00000000E+00  0.00000000E+00
  0.00000000E+00  0.00000000E+00  0.00000000E+00
  0.00000000E+00  0.00000000E+00  0.00000000E+00
  0.00000000E+00  0.00000000E+00  0.00000000E+00
  0.00000000E+00  0.00000000E+00  0.00000000E+00
  0.00000000E+00  0.00000000E+00  0.00000000E+00
  0.00000000E+00  0.00000000E+00  0.00000000E+00
  0.00000000E+00  0.00000000E+00  0.00000000E+00
  0.00000000E+00  0.00000000E+00  0.00000000E+00
  0.00000000E+00  0.00000000E+00  0.00000000E+00
  0.00000000E+00  0.00000000E+00  0.00000000E+00
  0.00000000E+00  0.00000000E+00  0.00000000E+00
  0.00000000E+00  0.00000000E+00  0.00000000E+00
  0.00000000E+00  0.00000000E+00  0.00000000E+00
  0.00000000E+00  0.00000000E+00  0.00000000E+00
