Title                                   
   1.00000000000000     
     9.8694509999999998    0.0000000000000000    0.0000000000000000
     0.0000000000000000    8.5490480000000009    0.0000000000000000
     0.0000000000000000    0.0000000000000000   20.0000000000000000
    27     4     1
Selective dynamics
Direct
  0.0560199281095084  0.0914150837992040  0.0830706700720152   T   T   T
  0.9306816868986337  0.1748395159496289  0.0839570195103705   T   T   T
  0.0579186954176646  0.9243549944857676  0.0834618202963724   T   T   T
  0.9292061039738283  0.3422475898926504  0.0862167711324168   T   T   T
  0.0570510271107440  0.5906634063586250  0.0838198310850730   T   T   T
  0.9325021400450452  0.6737890820306610  0.0865150413312007   T   T   T
  0.0562621835240820  0.4233513522339374  0.0849272657899819   T   T   T
  0.9331000454541322  0.8409409404235583  0.0857200471092210   T   T   T
  0.3058695645003213  0.0884017748700761  0.0884644194745691   T   T   T
  0.1822279733639249  0.1730658898312535  0.0853184219589150   T   T   T
  0.1822768923326517  0.3394782832931747  0.0871589447880051   T   T   T
  0.3042308543303740  0.5889486472526241  0.1004110273531272   T   T   T
  0.1824506236832038  0.6736005926463635  0.0874820834810696   T   T   T
  0.3083340170509214  0.4211824566507504  0.0969060173595653   T   T   T
  0.1825213924333550  0.8410401023470931  0.0863901277134368   T   T   T
  0.5562834956485719  0.0855906776071566  0.0948193886088246   T   T   T
  0.5552607410794302  0.9208454307709447  0.1014294720071309   T   T   T
  0.4308981559926413  0.3308889117143438  0.1025585447865462   T   T   T
  0.4266715147404698  0.8415855014144592  0.1056623855874455   T   T   T
  0.8059631230525786  0.0898970875982527  0.0854523620227901   T   T   T
  0.6797549340829770  0.1708693486879665  0.0906260070632507   T   T   T
  0.8076795476428267  0.9244017697904520  0.0884791392528012   T   T   T
  0.6792173472655992  0.3348617179914125  0.0989949801372019   T   T   T
  0.8085692756911985  0.5940788540089788  0.0970273892604397   T   T   T
  0.8017132577326254  0.4254338048648243  0.0944298840147142   T   T   T
  0.6850114362874297  0.8410691568633273  0.1005777520612664   T   T   T
  0.4159493806467536  0.6820911548917634  0.1219099221422376   T   T   T
  0.5538786488872786  0.3979055327939162  0.1189245383703108   T   T   T
  0.6958331682064092  0.6828418115242246  0.1148454980380886   T   T   T
  0.3066741972941332  0.9254371875074537  0.0905431197753359   T   T   T
  0.4293008941776392  0.1674969399023499  0.0943331270567657   T   T   T
  0.5603267533430552  0.5876314000028076  0.1752419813595263   T   T   T
 
  0.00000000E+00  0.00000000E+00  0.00000000E+00
  0.00000000E+00  0.00000000E+00  0.00000000E+00
  0.00000000E+00  0.00000000E+00  0.00000000E+00
  0.00000000E+00  0.00000000E+00  0.00000000E+00
  0.00000000E+00  0.00000000E+00  0.00000000E+00
  0.00000000E+00  0.00000000E+00  0.00000000E+00
  0.00000000E+00  0.00000000E+00  0.00000000E+00
  0.00000000E+00  0.00000000E+00  0.00000000E+00
  0.00000000E+00  0.00000000E+00  0.00000000E+00
  0.00000000E+00  0.00000000E+00  0.00000000E+00
  0.00000000E+00  0.00000000E+00  0.00000000E+00
  0.00000000E+00  0.00000000E+00  0.00000000E+00
  0.00000000E+00  0.00000000E+00  0.00000000E+00
  0.00000000E+00  0.00000000E+00  0.00000000E+00
  0.00000000E+00  0.00000000E+00  0.00000000E+00
  0.00000000E+00  0.00000000E+00  0.00000000E+00
  0.00000000E+00  0.00000000E+00  0.00000000E+00
  0.00000000E+00  0.00000000E+00  0.00000000E+00
  0.00000000E+00  0.00000000E+00  0.00000000E+00
  0.00000000E+00  0.00000000E+00  0.00000000E+00
  0.00000000E+00  0.00000000E+00  0.00000000E+00
  0.00000000E+00  0.00000000E+00  0.00000000E+00
  0.00000000E+00  0.00000000E+00  0.00000000E+00
  0.00000000E+00  0.00000000E+00  0.00000000E+00
  0.00000000E+00  0.00000000E+00  0.00000000E+00
  0.00000000E+00  0.00000000E+00  0.00000000E+00
  0.00000000E+00  0.00000000E+00  0.00000000E+00
  0.00000000E+00  0.00000000E+00  0.00000000E+00
  0.00000000E+00  0.00000000E+00  0.00000000E+00
  0.00000000E+00  0.00000000E+00  0.00000000E+00
  0.00000000E+00  0.00000000E+00  0.00000000E+00
  0.00000000E+00  0.00000000E+00  0.00000000E+00
