Title                                   
   1.00000000000000     
     9.8694509999999998    0.0000000000000000    0.0000000000000000
     0.0000000000000000    8.5490480000000009    0.0000000000000000
     0.0000000000000000    0.0000000000000000   20.0000000000000000
    26     5     1
Selective dynamics
Direct
  0.0562951672688311  0.0924720509558667  0.0870956261009086   T   T   T
  0.9310923385290285  0.1748628947421441  0.0886572256868884   T   T   T
  0.0576021143054490  0.9249771048394487  0.0863559939007078   T   T   T
  0.9294380307547991  0.3427649187681108  0.0916588109279071   T   T   T
  0.0569029002485796  0.5909680574881117  0.0875724101091950   T   T   T
  0.9328539929621462  0.6741218320546286  0.0901299851363080   T   T   T
  0.0564419841653201  0.4235553931660134  0.0894774292964759   T   T   T
  0.9332372075183591  0.8405561517834914  0.0885402226315693   T   T   T
  0.3061530026703738  0.0881679143131665  0.0895021990153903   T   T   T
  0.1829922606173963  0.1740869107504649  0.0886054117410583   T   T   T
  0.1837026063372080  0.3411981520138468  0.0901602290269345   T   T   T
  0.3061461308262391  0.5926486208050010  0.0953557415106014   T   T   T
  0.1811162472833582  0.6747892362274005  0.0878483785065554   T   T   T
  0.3102770756298962  0.4237009352650805  0.0951090708289930   T   T   T
  0.1809215874061697  0.8412099043995432  0.0870977400882417   T   T   T
  0.5562914364211490  0.0830808786751571  0.0947722123534336   T   T   T
  0.5550245357753718  0.9177978211665346  0.0994788226214827   T   T   T
  0.4342784777815651  0.3322405322228413  0.0994487743319131   T   T   T
  0.4262962564524566  0.8363380656594523  0.0988302739959585   T   T   T
  0.8063962057162665  0.0891536001518735  0.0889684006054222   T   T   T
  0.6796502680260433  0.1688612267449658  0.0926276283758121   T   T   T
  0.8080667736844194  0.9238344457872579  0.0904416426907953   T   T   T
  0.6778964491256566  0.3349714549804688  0.0998425100568655   T   T   T
  0.8075748077550090  0.5953354407720207  0.1006262739628296   T   T   T
  0.8018474247777456  0.4252101154623988  0.0985540830159359   T   T   T
  0.6861880406888496  0.8376421309374072  0.1008062778826593   T   T   T
  0.4187088445434110  0.6828640116861375  0.1057025309933887   T   T   T
  0.5535520693862703  0.4022951457011101  0.1090974903731240   T   T   T
  0.6944528313102428  0.6818973763634429  0.1129310227699052   T   T   T
  0.3056163117675069  0.9254077525101577  0.0889686976604856   T   T   T
  0.4295718259184543  0.1659562099544301  0.0930216558342760   T   T   T
  0.5530537943464333  0.5872797136520255  0.1683902279679936   T   T   T
 
  0.00000000E+00  0.00000000E+00  0.00000000E+00
  0.00000000E+00  0.00000000E+00  0.00000000E+00
  0.00000000E+00  0.00000000E+00  0.00000000E+00
  0.00000000E+00  0.00000000E+00  0.00000000E+00
  0.00000000E+00  0.00000000E+00  0.00000000E+00
  0.00000000E+00  0.00000000E+00  0.00000000E+00
  0.00000000E+00  0.00000000E+00  0.00000000E+00
  0.00000000E+00  0.00000000E+00  0.00000000E+00
  0.00000000E+00  0.00000000E+00  0.00000000E+00
  0.00000000E+00  0.00000000E+00  0.00000000E+00
  0.00000000E+00  0.00000000E+00  0.00000000E+00
  0.00000000E+00  0.00000000E+00  0.00000000E+00
  0.00000000E+00  0.00000000E+00  0.00000000E+00
  0.00000000E+00  0.00000000E+00  0.00000000E+00
  0.00000000E+00  0.00000000E+00  0.00000000E+00
  0.00000000E+00  0.00000000E+00  0.00000000E+00
  0.00000000E+00  0.00000000E+00  0.00000000E+00
  0.00000000E+00  0.00000000E+00  0.00000000E+00
  0.00000000E+00  0.00000000E+00  0.00000000E+00
  0.00000000E+00  0.00000000E+00  0.00000000E+00
  0.00000000E+00  0.00000000E+00  0.00000000E+00
  0.00000000E+00  0.00000000E+00  0.00000000E+00
  0.00000000E+00  0.00000000E+00  0.00000000E+00
  0.00000000E+00  0.00000000E+00  0.00000000E+00
  0.00000000E+00  0.00000000E+00  0.00000000E+00
  0.00000000E+00  0.00000000E+00  0.00000000E+00
  0.00000000E+00  0.00000000E+00  0.00000000E+00
  0.00000000E+00  0.00000000E+00  0.00000000E+00
  0.00000000E+00  0.00000000E+00  0.00000000E+00
  0.00000000E+00  0.00000000E+00  0.00000000E+00
  0.00000000E+00  0.00000000E+00  0.00000000E+00
  0.00000000E+00  0.00000000E+00  0.00000000E+00
