Title                                   
   1.00000000000000     
     9.8694509999999998    0.0000000000000000    0.0000000000000000
     0.0000000000000000    8.5490480000000009    0.0000000000000000
     0.0000000000000000    0.0000000000000000   20.0000000000000000
    27     4     1
Selective dynamics
Direct
  0.0553639333404604  0.0896369698763056  0.0844024650966531   T   T   T
  0.9307351047264397  0.1746163513100777  0.0849672419279180   T   T   T
  0.0576215743427120  0.9221455816494527  0.0853035426640957   T   T   T
  0.9300287376739896  0.3411668027741392  0.0869507762098364   T   T   T
  0.0563649044783757  0.5906198294518288  0.0868903330947566   T   T   T
  0.0552302839454939  0.4234818720690195  0.0867536319196025   T   T   T
  0.9329660939218886  0.8395134975455536  0.0871118253927536   T   T   T
  0.3057167584396528  0.0878466957888432  0.0882219973567435   T   T   T
  0.1813060063369063  0.1718571099269332  0.0864880413639550   T   T   T
  0.1802247839187670  0.3388319606318253  0.0888511029696157   T   T   T
  0.3029004140815941  0.5874632541377776  0.1013421016739405   T   T   T
  0.1804990858102559  0.6730904803273439  0.0904325454359903   T   T   T
  0.3053652373663835  0.4197540848364350  0.0983863550164366   T   T   T
  0.1826803056017902  0.8405202489137624  0.0882284655267088   T   T   T
  0.5558124034193220  0.0876145071432943  0.0923377673801884   T   T   T
  0.5558231850427111  0.9202382820608599  0.0974997469296016   T   T   T
  0.4286947919298492  0.3318348659374044  0.1030891340192302   T   T   T
  0.4277335939565680  0.8395205588998300  0.1019766128184079   T   T   T
  0.8058640997765815  0.0895396602662638  0.0861168553911757   T   T   T
  0.6800382294787016  0.1720500349849013  0.0904047850107581   T   T   T
  0.8080317570859440  0.9234792133899520  0.0884024097093973   T   T   T
  0.6804071095229742  0.3390584566974768  0.0994577978630132   T   T   T
  0.8104178173588334  0.5944933363008884  0.0976426226249173   T   T   T
  0.8045307914767127  0.4266481655330025  0.0947575151567335   T   T   T
  0.6843531620931304  0.8414815527650642  0.0982134918302841   T   T   T
  0.4188846480117052  0.6796723973796873  0.1169438170071025   T   T   T
  0.5530162113270498  0.4059234127094118  0.1161687259149661   T   T   T
  0.6976990811873157  0.6825480183258652  0.1139460661768881   T   T   T
  0.3067471601718213  0.9242964357626181  0.0898356323627613   T   T   T
  0.4289215350719005  0.1669713290571409  0.0926062670957566   T   T   T
  0.9323502698481422  0.6730849220748502  0.0882013726958671   T   T   T
  0.5633099292560338  0.5912461114721921  0.1737439543639604   T   T   T
 
  0.00000000E+00  0.00000000E+00  0.00000000E+00
  0.00000000E+00  0.00000000E+00  0.00000000E+00
  0.00000000E+00  0.00000000E+00  0.00000000E+00
  0.00000000E+00  0.00000000E+00  0.00000000E+00
  0.00000000E+00  0.00000000E+00  0.00000000E+00
  0.00000000E+00  0.00000000E+00  0.00000000E+00
  0.00000000E+00  0.00000000E+00  0.00000000E+00
  0.00000000E+00  0.00000000E+00  0.00000000E+00
  0.00000000E+00  0.00000000E+00  0.00000000E+00
  0.00000000E+00  0.00000000E+00  0.00000000E+00
  0.00000000E+00  0.00000000E+00  0.00000000E+00
  0.00000000E+00  0.00000000E+00  0.00000000E+00
  0.00000000E+00  0.00000000E+00  0.00000000E+00
  0.00000000E+00  0.00000000E+00  0.00000000E+00
  0.00000000E+00  0.00000000E+00  0.00000000E+00
  0.00000000E+00  0.00000000E+00  0.00000000E+00
  0.00000000E+00  0.00000000E+00  0.00000000E+00
  0.00000000E+00  0.00000000E+00  0.00000000E+00
  0.00000000E+00  0.00000000E+00  0.00000000E+00
  0.00000000E+00  0.00000000E+00  0.00000000E+00
  0.00000000E+00  0.00000000E+00  0.00000000E+00
  0.00000000E+00  0.00000000E+00  0.00000000E+00
  0.00000000E+00  0.00000000E+00  0.00000000E+00
  0.00000000E+00  0.00000000E+00  0.00000000E+00
  0.00000000E+00  0.00000000E+00  0.00000000E+00
  0.00000000E+00  0.00000000E+00  0.00000000E+00
  0.00000000E+00  0.00000000E+00  0.00000000E+00
  0.00000000E+00  0.00000000E+00  0.00000000E+00
  0.00000000E+00  0.00000000E+00  0.00000000E+00
  0.00000000E+00  0.00000000E+00  0.00000000E+00
  0.00000000E+00  0.00000000E+00  0.00000000E+00
  0.00000000E+00  0.00000000E+00  0.00000000E+00
