Title                                   
   1.00000000000000     
     4.9440799999999996    0.0000000000000000    0.0000000000000000
     0.0000000000000000   17.1295089999999988    0.0000000000000000
     0.0000000000000000    0.0000000000000000   20.0000000000000000
    26     4     1
Selective dynamics
Direct
  0.0012600869562382  0.1060011562379095  0.2932815479033620   T   T   T
  0.2503893811470628  0.1487774519996707  0.2947418376600235   T   T   T
  0.2502754135094586  0.2334405121394769  0.2986739467593285   T   T   T
 -0.0023160172994911  0.2749235626744405  0.2997751567689092   T   T   T
 -0.0024485505758827  0.6000096032519407  0.3001992971665094   T   T   T
  0.2502959255362576  0.7261784786218952  0.2952818384799590   T   T   T
  0.0008457748732660  0.8530570385901539  0.2929545215032769   T   T   T
  0.2504918267944466  0.8953617961978547  0.2930001164777521   T   T   T
  0.2505350571381011  0.9795955855396469  0.2929447146827335   T   T   T
  0.0011772380950232  0.7689504452895171  0.2937538208270737   T   T   T
  0.4995697637677997  0.1060060367378227  0.2932644151422210   T   T   T
  0.7503942101702405  0.1480917340651809  0.2932093048247724   T   T   T
  0.7503130727735644  0.2313850097269148  0.2950210998715879   T   T   T
  0.5001140054769946  0.0219131353639856  0.2927916300622210   T   T   T
  0.7501824045144060  0.3950477903091132  0.3057144657353961   T   T   T
  0.7501364728130285  0.4798187194337344  0.3058468073721581   T   T   T
  0.5028354173385334  0.2749216453264831  0.2996545387865193   T   T   T
  0.5026912858158775  0.6000041149585289  0.3000731016526737   T   T   T
  0.7502856563141412  0.7268489232063892  0.2937945938892231   T   T   T
  0.5000218709789246  0.8530464000676372  0.2929452134069982   T   T   T
  0.7504405511692595  0.8954580436514197  0.2925974795079476   T   T   T
  0.7504750939694154  0.9794803672504205  0.2925340847794463   T   T   T
  0.4994591003997197  0.7689470670678796  0.2937349392487059   T   T   T
  0.7501576896123949  0.6435566627868432  0.2956257902135810   T   T   T
  0.2501561640087872  0.6415105505528329  0.2992353747697369   T   T   T
  0.0009023448054404  0.0218952297354492  0.2927957360071954   T   T   T
  0.5078903976799247  0.5204646681826537  0.3069133995125243   T   T   T
  0.9922444599016238  0.5205121852537323  0.3073120577749334   T   T   T
  0.5079886751873223  0.3543926819333313  0.3067749330466212   T   T   T
 -0.0076436016141671  0.3543604303262890  0.3071337504500488   T   T   T
  0.2508858287422928  0.4373849735208504  0.3634804857165125   T   T   T
 
  0.00000000E+00  0.00000000E+00  0.00000000E+00
  0.00000000E+00  0.00000000E+00  0.00000000E+00
  0.00000000E+00  0.00000000E+00  0.00000000E+00
  0.00000000E+00  0.00000000E+00  0.00000000E+00
  0.00000000E+00  0.00000000E+00  0.00000000E+00
  0.00000000E+00  0.00000000E+00  0.00000000E+00
  0.00000000E+00  0.00000000E+00  0.00000000E+00
  0.00000000E+00  0.00000000E+00  0.00000000E+00
  0.00000000E+00  0.00000000E+00  0.00000000E+00
  0.00000000E+00  0.00000000E+00  0.00000000E+00
  0.00000000E+00  0.00000000E+00  0.00000000E+00
  0.00000000E+00  0.00000000E+00  0.00000000E+00
  0.00000000E+00  0.00000000E+00  0.00000000E+00
  0.00000000E+00  0.00000000E+00  0.00000000E+00
  0.00000000E+00  0.00000000E+00  0.00000000E+00
  0.00000000E+00  0.00000000E+00  0.00000000E+00
  0.00000000E+00  0.00000000E+00  0.00000000E+00
  0.00000000E+00  0.00000000E+00  0.00000000E+00
  0.00000000E+00  0.00000000E+00  0.00000000E+00
  0.00000000E+00  0.00000000E+00  0.00000000E+00
  0.00000000E+00  0.00000000E+00  0.00000000E+00
  0.00000000E+00  0.00000000E+00  0.00000000E+00
  0.00000000E+00  0.00000000E+00  0.00000000E+00
  0.00000000E+00  0.00000000E+00  0.00000000E+00
  0.00000000E+00  0.00000000E+00  0.00000000E+00
  0.00000000E+00  0.00000000E+00  0.00000000E+00
  0.00000000E+00  0.00000000E+00  0.00000000E+00
  0.00000000E+00  0.00000000E+00  0.00000000E+00
  0.00000000E+00  0.00000000E+00  0.00000000E+00
  0.00000000E+00  0.00000000E+00  0.00000000E+00
  0.00000000E+00  0.00000000E+00  0.00000000E+00
