Title                                   
   1.00000000000000     
     4.9440799999999996    0.0000000000000000    0.0000000000000000
     0.0000000000000000    8.5647549999999999    0.0000000000000000
     0.0000000000000000    0.0000000000000000   20.0000000000000000
    13     2     1
Selective dynamics
Direct
 -0.0012893353875733  0.2885062750873456  0.0942521209099532   T   T   T
  0.2500000000000000  0.0444990419815788  0.0889676082015325   T   T   T
  0.0025271079930146  0.7962538392836735  0.0994818863322906   T   T   T
  0.0003117715645457  0.9607600412694158  0.0889006316059373   T   T   T
  0.7500000000000000  0.2057572327109597  0.0868365961556041   T   T   T
  0.5012893353875737  0.2885062750873456  0.0942521209099532   T   T   T
  0.7500000000000000  0.0407342478505222  0.0847473678424188   T   T   T
  0.7500000000000000  0.7087166767494543  0.1029636341999462   T   T   T
  0.4974728920069856  0.7962538392836735  0.0994818863322906   T   T   T
  0.7500000000000000  0.5383383212533087  0.1059433925917485   T   T   T
  0.4996882284354544  0.9607600412694158  0.0889006316059373   T   T   T
  0.5079800833213156  0.4489627951079859  0.1100241563206119   T   T   T
 -0.0079800833213159  0.4489627951079859  0.1100241563206119   T   T   T
  0.2500000000000000  0.7249888073460266  0.1110947450606987   T   T   T
  0.2500000000000000  0.2061493047339034  0.0913214504735426   T   T   T
  0.2500000000000000  0.5418504658774050  0.1553196151369322   T   T   T
 
  0.00000000E+00  0.00000000E+00  0.00000000E+00
  0.00000000E+00  0.00000000E+00  0.00000000E+00
  0.00000000E+00  0.00000000E+00  0.00000000E+00
  0.00000000E+00  0.00000000E+00  0.00000000E+00
  0.00000000E+00  0.00000000E+00  0.00000000E+00
  0.00000000E+00  0.00000000E+00  0.00000000E+00
  0.00000000E+00  0.00000000E+00  0.00000000E+00
  0.00000000E+00  0.00000000E+00  0.00000000E+00
  0.00000000E+00  0.00000000E+00  0.00000000E+00
  0.00000000E+00  0.00000000E+00  0.00000000E+00
  0.00000000E+00  0.00000000E+00  0.00000000E+00
  0.00000000E+00  0.00000000E+00  0.00000000E+00
  0.00000000E+00  0.00000000E+00  0.00000000E+00
  0.00000000E+00  0.00000000E+00  0.00000000E+00
  0.00000000E+00  0.00000000E+00  0.00000000E+00
  0.00000000E+00  0.00000000E+00  0.00000000E+00
