Title                                   
   1.00000000000000     
     4.9440799999999996    0.0000000000000000    0.0000000000000000
     0.0000000000000000   17.1295089999999988    0.0000000000000000
     0.0000000000000000    0.0000000000000000   20.0000000000000000
    30     1     1
Selective dynamics
Direct
  0.0008137597809734  0.1043293907164151  0.2791919839021973   T   T   T
  0.2509719704295996  0.1459002974794690  0.2840049429522298   T   T   T
  0.2513356911751888  0.2279059734343337  0.2967047667781620   T   T   T
  0.0024668558849899  0.3491042180446626  0.3222626472351287   T   T   T
  0.0002347469185197  0.2687488322262235  0.3036813072899733   T   T   T
 -0.0041398903253702  0.6080703982959431  0.3154446896764778   T   T   T
  0.2491930609684948  0.7297870573972928  0.2918523324904553   T   T   T
 -0.0000787897422542  0.8542003238770668  0.2765994226776129   T   T   T
  0.2497765190478886  0.8960432370181582  0.2743057667102332   T   T   T
  0.2502647256753903  0.9794032634252267  0.2728783317610342   T   T   T
 -0.0004604913757001  0.7713030766539993  0.2849018406922318   T   T   T
  0.5008697269242585  0.1043367765783921  0.2792000106011387   T   T   T
  0.7509899352844630  0.1458084169184535  0.2833288099358421   T   T   T
  0.7513958412351149  0.2279166177393428  0.2951199310481508   T   T   T
  0.5004562673274139  0.0211996309864731  0.2737744627871003   T   T   T
  0.5012854864952989  0.3489200671155954  0.3223590510947291   T   T   T
  0.7515052715451078  0.3940278816248403  0.3293336074681394   T   T   T
  0.7494953636953576  0.4806542300635794  0.3344068478715117   T   T   T
  0.5026767057272004  0.2686952786754208  0.3036729225360677   T   T   T
  0.5011108550243891  0.6076215632261120  0.3159254789795513   T   T   T
  0.7488316799707861  0.7303997791941843  0.2900630261606109   T   T   T
  0.4994371234433129  0.8542623390741690  0.2766171815290788   T   T   T
  0.7498385866464895  0.8958868722842402  0.2739921069038200   T   T   T
  0.7502856205701531  0.9793518176766769  0.2725954666827330   T   T   T
  0.4988009132119858  0.7713993786565199  0.2849598089607189   T   T   T
  0.7482217337142248  0.6487587817902700  0.3044412067452175   T   T   T
  0.2489203448432481  0.6484656200565415  0.3084206130544736   T   T   T
  0.0003697116048726  0.0212007824333450  0.2737573482264032   T   T   T
  0.5078571057564423  0.5274147497577701  0.3356202329718514   T   T   T
  0.9892630219577999  0.5279100188817065  0.3340084969804458   T   T   T
  0.2522548200708824  0.3828639906875801  0.3361415237785746   T   T   T
  0.2425787265134857  0.4766603380099860  0.3929988335180580   T   T   T
 
  0.00000000E+00  0.00000000E+00  0.00000000E+00
  0.00000000E+00  0.00000000E+00  0.00000000E+00
  0.00000000E+00  0.00000000E+00  0.00000000E+00
  0.00000000E+00  0.00000000E+00  0.00000000E+00
  0.00000000E+00  0.00000000E+00  0.00000000E+00
  0.00000000E+00  0.00000000E+00  0.00000000E+00
  0.00000000E+00  0.00000000E+00  0.00000000E+00
  0.00000000E+00  0.00000000E+00  0.00000000E+00
  0.00000000E+00  0.00000000E+00  0.00000000E+00
  0.00000000E+00  0.00000000E+00  0.00000000E+00
  0.00000000E+00  0.00000000E+00  0.00000000E+00
  0.00000000E+00  0.00000000E+00  0.00000000E+00
  0.00000000E+00  0.00000000E+00  0.00000000E+00
  0.00000000E+00  0.00000000E+00  0.00000000E+00
  0.00000000E+00  0.00000000E+00  0.00000000E+00
  0.00000000E+00  0.00000000E+00  0.00000000E+00
  0.00000000E+00  0.00000000E+00  0.00000000E+00
  0.00000000E+00  0.00000000E+00  0.00000000E+00
  0.00000000E+00  0.00000000E+00  0.00000000E+00
  0.00000000E+00  0.00000000E+00  0.00000000E+00
  0.00000000E+00  0.00000000E+00  0.00000000E+00
  0.00000000E+00  0.00000000E+00  0.00000000E+00
  0.00000000E+00  0.00000000E+00  0.00000000E+00
  0.00000000E+00  0.00000000E+00  0.00000000E+00
  0.00000000E+00  0.00000000E+00  0.00000000E+00
  0.00000000E+00  0.00000000E+00  0.00000000E+00
  0.00000000E+00  0.00000000E+00  0.00000000E+00
  0.00000000E+00  0.00000000E+00  0.00000000E+00
  0.00000000E+00  0.00000000E+00  0.00000000E+00
  0.00000000E+00  0.00000000E+00  0.00000000E+00
  0.00000000E+00  0.00000000E+00  0.00000000E+00
  0.00000000E+00  0.00000000E+00  0.00000000E+00
