Title                                   
   1.00000000000000     
     9.8694509999999998    0.0000000000000000    0.0000000000000000
     0.0000000000000000    8.5490480000000009    0.0000000000000000
     0.0000000000000000    0.0000000000000000   20.0000000000000000
    27     4     1
Selective dynamics
Direct
  0.0557865341669935  0.0924309533794179  0.0830745096894494   T   T   T
  0.9308922189241241  0.1746050627872195  0.0837676879915322   T   T   T
  0.0571907450872109  0.9251704387054782  0.0841936044506194   T   T   T
  0.9299055363771039  0.3419941335374924  0.0865256317437310   T   T   T
  0.0569041134178231  0.5902597365824579  0.0842354011350441   T   T   T
  0.9328189414682156  0.6736279371547836  0.0877986136911925   T   T   T
  0.0569139697872529  0.4235407295297413  0.0851138337498721   T   T   T
  0.9330336449431306  0.8406907995645845  0.0864380591890893   T   T   T
  0.3051922503019024  0.0882369658352085  0.0884112181763770   T   T   T
  0.1820000239149199  0.1737914103450711  0.0853266102955809   T   T   T
  0.1837483582243051  0.3409160596304256  0.0871560698085632   T   T   T
  0.3026205437725299  0.5921214815383317  0.0997797084408183   T   T   T
  0.1811274958088876  0.6749129892541725  0.0880169773150954   T   T   T
  0.3098541340614983  0.4250988299418866  0.0966564901683419   T   T   T
  0.1808532340754736  0.8415314768964166  0.0875880890088918   T   T   T
  0.5564872170927287  0.0834830106444777  0.0942341403716794   T   T   T
  0.4306485887867756  0.1675925268838965  0.0939826182723710   T   T   T
  0.5549986194491165  0.9166760654549526  0.0985984845581582   T   T   T
  0.4314024916776700  0.3314906409042871  0.1021001688442524   T   T   T
  0.4251135878596455  0.8408970524453372  0.1018211666918118   T   T   T
  0.8066316653801250  0.0892491489694826  0.0850328270477195   T   T   T
  0.6809675514530745  0.1686673014033241  0.0913767141487006   T   T   T
  0.8073487890431201  0.9234063817265153  0.0879935691379074   T   T   T
  0.6805787531103729  0.3326676597667022  0.1003036268377823   T   T   T
  0.8102777666031473  0.5924738090380082  0.0991435650153025   T   T   T
  0.8032434307041425  0.4245948281578227  0.0956865866693789   T   T   T
  0.6853539878562741  0.8397283961370808  0.0996072233300632   T   T   T
  0.4121632335395962  0.6858968495441151  0.1212186598221292   T   T   T
  0.5566285977290879  0.3993331083409345  0.1198778583641641   T   T   T
  0.6979004009020595  0.6827950350425686  0.1183692752502032   T   T   T
  0.3046926337033985  0.9242966931953044  0.0907290854885726   T   T   T
  0.5563599407782998  0.5880684876625056  0.1715169252956215   T   T   T
 
  0.00000000E+00  0.00000000E+00  0.00000000E+00
  0.00000000E+00  0.00000000E+00  0.00000000E+00
  0.00000000E+00  0.00000000E+00  0.00000000E+00
  0.00000000E+00  0.00000000E+00  0.00000000E+00
  0.00000000E+00  0.00000000E+00  0.00000000E+00
  0.00000000E+00  0.00000000E+00  0.00000000E+00
  0.00000000E+00  0.00000000E+00  0.00000000E+00
  0.00000000E+00  0.00000000E+00  0.00000000E+00
  0.00000000E+00  0.00000000E+00  0.00000000E+00
  0.00000000E+00  0.00000000E+00  0.00000000E+00
  0.00000000E+00  0.00000000E+00  0.00000000E+00
  0.00000000E+00  0.00000000E+00  0.00000000E+00
  0.00000000E+00  0.00000000E+00  0.00000000E+00
  0.00000000E+00  0.00000000E+00  0.00000000E+00
  0.00000000E+00  0.00000000E+00  0.00000000E+00
  0.00000000E+00  0.00000000E+00  0.00000000E+00
  0.00000000E+00  0.00000000E+00  0.00000000E+00
  0.00000000E+00  0.00000000E+00  0.00000000E+00
  0.00000000E+00  0.00000000E+00  0.00000000E+00
  0.00000000E+00  0.00000000E+00  0.00000000E+00
  0.00000000E+00  0.00000000E+00  0.00000000E+00
  0.00000000E+00  0.00000000E+00  0.00000000E+00
  0.00000000E+00  0.00000000E+00  0.00000000E+00
  0.00000000E+00  0.00000000E+00  0.00000000E+00
  0.00000000E+00  0.00000000E+00  0.00000000E+00
  0.00000000E+00  0.00000000E+00  0.00000000E+00
  0.00000000E+00  0.00000000E+00  0.00000000E+00
  0.00000000E+00  0.00000000E+00  0.00000000E+00
  0.00000000E+00  0.00000000E+00  0.00000000E+00
  0.00000000E+00  0.00000000E+00  0.00000000E+00
  0.00000000E+00  0.00000000E+00  0.00000000E+00
  0.00000000E+00  0.00000000E+00  0.00000000E+00
