Title                                   
   1.00000000000000     
     9.8694509999999998    0.0000000000000000    0.0000000000000000
     0.0000000000000000    8.5490480000000009    0.0000000000000000
     0.0000000000000000    0.0000000000000000   20.0000000000000000
    30     1     1
Selective dynamics
Direct
  0.0564373890156603  0.0908347987519393  0.0822171473682147   T   T   T
  0.9311643661036021  0.1729359694951532  0.0845163609632012   T   T   T
  0.0557291033366415  0.9238206784517541  0.0822960231213355   T   T   T
  0.9311405238525193  0.3397553094076778  0.0879069251939658   T   T   T
  0.0566401249292593  0.5892159915826467  0.0849750006391635   T   T   T
  0.9324768041485727  0.6726894662128909  0.0881908868233296   T   T   T
  0.0568301747854040  0.4232382806952540  0.0858445581240617   T   T   T
  0.9314228526998946  0.8394905092444527  0.0854127216347378   T   T   T
  0.3057872083172136  0.0900029555200954  0.0864173601899919   T   T   T
  0.1817229318294017  0.1740860592046915  0.0844295880236721   T   T   T
  0.3045100286849028  0.9236058650509825  0.0879143717021420   T   T   T
  0.1827401843417890  0.3416615104007931  0.0874382297422232   T   T   T
  0.3037496964813667  0.5933172580367734  0.0976316466478956   T   T   T
  0.1803770298231450  0.6739803156836403  0.0867968436155016   T   T   T
  0.3073924953076559  0.4246129564111572  0.0965277817566098   T   T   T
  0.1799282617612016  0.8406597659759956  0.0850128969117958   T   T   T
  0.5555659473108605  0.0859361587245507  0.0939648511698490   T   T   T
  0.4309158102745804  0.1710495104715949  0.0923526046968083   T   T   T
  0.5550343750686154  0.9196546065462513  0.0985556762679218   T   T   T
  0.4313605106988917  0.3361230301653073  0.1015053066325543   T   T   T
  0.5571032099003643  0.4062891434435359  0.1184689754120234   T   T   T
  0.4264486612056829  0.8396978018911977  0.0988556632534019   T   T   T
  0.8068146607997383  0.0887307505251764  0.0867765103926023   T   T   T
  0.6816785571574846  0.1695085051038560  0.0931425648819549   T   T   T
  0.8066567026396299  0.9224441870904703  0.0883961592674071   T   T   T
  0.6829196318842251  0.3341502434032718  0.1029301765637784   T   T   T
  0.8103242500874016  0.5893998367468269  0.1007575836825209   T   T   T
  0.6940463930639563  0.6792429981401560  0.1166567225039583   T   T   T
  0.8075628591125383  0.4212756066733206  0.0984207823909790   T   T   T
  0.6834760908980828  0.8397634124435289  0.1002325092725699   T   T   T
  0.4174131571876789  0.6815055673481658  0.1122058238793460   T   T   T
  0.5542690072920444  0.5915669511568997  0.1689247472745169   T   T   T
 
  0.00000000E+00  0.00000000E+00  0.00000000E+00
  0.00000000E+00  0.00000000E+00  0.00000000E+00
  0.00000000E+00  0.00000000E+00  0.00000000E+00
  0.00000000E+00  0.00000000E+00  0.00000000E+00
  0.00000000E+00  0.00000000E+00  0.00000000E+00
  0.00000000E+00  0.00000000E+00  0.00000000E+00
  0.00000000E+00  0.00000000E+00  0.00000000E+00
  0.00000000E+00  0.00000000E+00  0.00000000E+00
  0.00000000E+00  0.00000000E+00  0.00000000E+00
  0.00000000E+00  0.00000000E+00  0.00000000E+00
  0.00000000E+00  0.00000000E+00  0.00000000E+00
  0.00000000E+00  0.00000000E+00  0.00000000E+00
  0.00000000E+00  0.00000000E+00  0.00000000E+00
  0.00000000E+00  0.00000000E+00  0.00000000E+00
  0.00000000E+00  0.00000000E+00  0.00000000E+00
  0.00000000E+00  0.00000000E+00  0.00000000E+00
  0.00000000E+00  0.00000000E+00  0.00000000E+00
  0.00000000E+00  0.00000000E+00  0.00000000E+00
  0.00000000E+00  0.00000000E+00  0.00000000E+00
  0.00000000E+00  0.00000000E+00  0.00000000E+00
  0.00000000E+00  0.00000000E+00  0.00000000E+00
  0.00000000E+00  0.00000000E+00  0.00000000E+00
  0.00000000E+00  0.00000000E+00  0.00000000E+00
  0.00000000E+00  0.00000000E+00  0.00000000E+00
  0.00000000E+00  0.00000000E+00  0.00000000E+00
  0.00000000E+00  0.00000000E+00  0.00000000E+00
  0.00000000E+00  0.00000000E+00  0.00000000E+00
  0.00000000E+00  0.00000000E+00  0.00000000E+00
  0.00000000E+00  0.00000000E+00  0.00000000E+00
  0.00000000E+00  0.00000000E+00  0.00000000E+00
  0.00000000E+00  0.00000000E+00  0.00000000E+00
  0.00000000E+00  0.00000000E+00  0.00000000E+00
