Title                                   
   1.00000000000000     
     9.8694509999999998    0.0000000000000000    0.0000000000000000
     0.0000000000000000    8.5490480000000009    0.0000000000000000
     0.0000000000000000    0.0000000000000000   20.0000000000000000
    29     2     1
Selective dynamics
Direct
  0.0564910339680003  0.0903546835130003  0.0851444347657835   T   T   T
  0.9313335891629052  0.1732087135709796  0.0885064329314876   T   T   T
  0.0567952988553882  0.9230833222820192  0.0842070509151878   T   T   T
  0.9307910094252740  0.3400852624715947  0.0926305132020429   T   T   T
  0.0559777521864294  0.5894656509764591  0.0882976594345689   T   T   T
  0.9321420713032615  0.6726037079745790  0.0904423306258579   T   T   T
  0.0571224392192368  0.4230009236958080  0.0906242047434480   T   T   T
  0.9312241485989365  0.8399177300939560  0.0870060382043270   T   T   T
  0.3056405736892445  0.0884856480903800  0.0861413217767304   T   T   T
  0.1822713969243173  0.1742659982158328  0.0865421356685402   T   T   T
  0.3070916780183828  0.9231733542133447  0.0867537234424187   T   T   T
  0.1820205881086074  0.3400124365964422  0.0906541737218458   T   T   T
  0.3058574568120299  0.5893251696654638  0.0969990368121399   T   T   T
  0.1816494120919298  0.6714150695000900  0.0874879123553575   T   T   T
  0.1822270905633025  0.8380538828371805  0.0852963211142335   T   T   T
  0.5555096925055174  0.0877664758029392  0.0941873700504892   T   T   T
  0.4303504244501132  0.1704262321978749  0.0916202199058325   T   T   T
  0.4303937690541641  0.3363892015456293  0.1000633931327666   T   T   T
  0.4301852704301983  0.8392827675639221  0.0969362092999210   T   T   T
  0.8070857526136278  0.0895140031735333  0.0890573780733008   T   T   T
  0.6809554113489528  0.1701826814084058  0.0947124591458174   T   T   T
  0.8063005502473353  0.9244351430687492  0.0886266358334970   T   T   T
  0.6797830323086429  0.3353657145975519  0.1034715470054382   T   T   T
  0.8075069330575566  0.5912459865445600  0.1011898176933176   T   T   T
  0.8057411585892092  0.4227912995705450  0.1005684523398600   T   T   T
  0.6816396835634644  0.8415486456796982  0.0980609370465545   T   T   T
  0.4247947401012292  0.6769227526993254  0.1107684678992219   T   T   T
  0.5529831976199563  0.4105853224859408  0.1147419069588285   T   T   T
  0.6882340402752347  0.6815488757442940  0.1123481134158094   T   T   T
  0.5556848789624821  0.9223137371035611  0.0967239854409666   T   T   T
  0.3062487118399371  0.4226291965935196  0.0965306647356601   T   T   T
  0.5576062141051380  0.5908464105228228  0.1693341523087653   T   T   T
 
  0.00000000E+00  0.00000000E+00  0.00000000E+00
  0.00000000E+00  0.00000000E+00  0.00000000E+00
  0.00000000E+00  0.00000000E+00  0.00000000E+00
  0.00000000E+00  0.00000000E+00  0.00000000E+00
  0.00000000E+00  0.00000000E+00  0.00000000E+00
  0.00000000E+00  0.00000000E+00  0.00000000E+00
  0.00000000E+00  0.00000000E+00  0.00000000E+00
  0.00000000E+00  0.00000000E+00  0.00000000E+00
  0.00000000E+00  0.00000000E+00  0.00000000E+00
  0.00000000E+00  0.00000000E+00  0.00000000E+00
  0.00000000E+00  0.00000000E+00  0.00000000E+00
  0.00000000E+00  0.00000000E+00  0.00000000E+00
  0.00000000E+00  0.00000000E+00  0.00000000E+00
  0.00000000E+00  0.00000000E+00  0.00000000E+00
  0.00000000E+00  0.00000000E+00  0.00000000E+00
  0.00000000E+00  0.00000000E+00  0.00000000E+00
  0.00000000E+00  0.00000000E+00  0.00000000E+00
  0.00000000E+00  0.00000000E+00  0.00000000E+00
  0.00000000E+00  0.00000000E+00  0.00000000E+00
  0.00000000E+00  0.00000000E+00  0.00000000E+00
  0.00000000E+00  0.00000000E+00  0.00000000E+00
  0.00000000E+00  0.00000000E+00  0.00000000E+00
  0.00000000E+00  0.00000000E+00  0.00000000E+00
  0.00000000E+00  0.00000000E+00  0.00000000E+00
  0.00000000E+00  0.00000000E+00  0.00000000E+00
  0.00000000E+00  0.00000000E+00  0.00000000E+00
  0.00000000E+00  0.00000000E+00  0.00000000E+00
  0.00000000E+00  0.00000000E+00  0.00000000E+00
  0.00000000E+00  0.00000000E+00  0.00000000E+00
  0.00000000E+00  0.00000000E+00  0.00000000E+00
  0.00000000E+00  0.00000000E+00  0.00000000E+00
  0.00000000E+00  0.00000000E+00  0.00000000E+00
