Title                                   
   1.00000000000000     
     8.5490480000000009    0.0000000000000000    0.0000000000000000
     0.0000000000000000    8.5490480000000009    0.0000000000000000
     0.0000000000000000    0.0000000000000000   20.0000000000000000
    18     6     1
Selective dynamics
Direct
  0.9086873163747549  0.2054265743658359  0.0945407816224132   T   T   T
  0.9106716856175368  0.8007767181437844  0.0947786571043960   T   T   T
  0.1955693532927784  0.0834154592074377  0.0949779504193518   T   T   T
  0.0758871466969580  0.2009358894216192  0.0947386894230450   T   T   T
  0.1550543158414178  0.6525070873764943  0.0970912184032829   T   T   T
  0.0782899270266111  0.5010252243145062  0.0969661989724259   T   T   T
  0.1539959787546646  0.3501390037670307  0.0969281332124282   T   T   T
  0.0785680600254042  0.7996505841441480  0.0949475711426809   T   T   T
  0.4933872545870337  0.0886734132599169  0.0972610090940012   T   T   T
  0.3427205048822002  0.1631399409170570  0.0971176947051099   T   T   T
  0.4923493796584262  0.9165639125431276  0.0970710283435436   T   T   T
  0.3432797106994930  0.8389008568469315  0.0970636629932452   T   T   T
  0.7889542747468018  0.0874379469506265  0.0952477509268726   T   T   T
  0.6425663601909565  0.1677057058062322  0.0974058127505733   T   T   T
  0.7893663000158544  0.9183568852954046  0.0952515990916164   T   T   T
  0.8321013228343305  0.6515759797352431  0.0966003871135770   T   T   T
  0.8310381172542853  0.3538031083571755  0.0964039842006701   T   T   T
  0.6432621638531039  0.8367897553886182  0.0971640550259647   T   T   T
  0.9074925003411427  0.5023869736082057  0.0965371029366235   T   T   T
  0.3157486736324718  0.3246206269941588  0.0995855672326476   T   T   T
  0.3168917235629020  0.6799827437394166  0.0998916922081980   T   T   T
  0.6708154724120999  0.3315538698268109  0.0994771152044349   T   T   T
  0.6717544037290202  0.6735207601729701  0.0991326528764821   T   T   T
  0.1964728518413352  0.9164638351206231  0.0948279991686674   T   T   T
  0.4904872021284094  0.4994371446966240  0.1226966858277287   T   T   T
 
  0.00000000E+00  0.00000000E+00  0.00000000E+00
  0.00000000E+00  0.00000000E+00  0.00000000E+00
  0.00000000E+00  0.00000000E+00  0.00000000E+00
  0.00000000E+00  0.00000000E+00  0.00000000E+00
  0.00000000E+00  0.00000000E+00  0.00000000E+00
  0.00000000E+00  0.00000000E+00  0.00000000E+00
  0.00000000E+00  0.00000000E+00  0.00000000E+00
  0.00000000E+00  0.00000000E+00  0.00000000E+00
  0.00000000E+00  0.00000000E+00  0.00000000E+00
  0.00000000E+00  0.00000000E+00  0.00000000E+00
  0.00000000E+00  0.00000000E+00  0.00000000E+00
  0.00000000E+00  0.00000000E+00  0.00000000E+00
  0.00000000E+00  0.00000000E+00  0.00000000E+00
  0.00000000E+00  0.00000000E+00  0.00000000E+00
  0.00000000E+00  0.00000000E+00  0.00000000E+00
  0.00000000E+00  0.00000000E+00  0.00000000E+00
  0.00000000E+00  0.00000000E+00  0.00000000E+00
  0.00000000E+00  0.00000000E+00  0.00000000E+00
  0.00000000E+00  0.00000000E+00  0.00000000E+00
  0.00000000E+00  0.00000000E+00  0.00000000E+00
  0.00000000E+00  0.00000000E+00  0.00000000E+00
  0.00000000E+00  0.00000000E+00  0.00000000E+00
  0.00000000E+00  0.00000000E+00  0.00000000E+00
  0.00000000E+00  0.00000000E+00  0.00000000E+00
  0.00000000E+00  0.00000000E+00  0.00000000E+00
