Title                                   
   1.00000000000000     
     4.9440799999999996    0.0000000000000000    0.0000000000000000
     0.0000000000000000    8.5647549999999999    0.0000000000000000
     0.0000000000000000    0.0000000000000000   20.0000000000000000
    12     2     1
Selective dynamics
Direct
  0.2500000000000000  0.2059678963030408  0.0942525968600147   T   T   T
  0.0007967699041777  0.2920895885185286  0.0949466424583639   T   T   T
  0.2500000000000000  0.0368872200844964  0.0938910686431959   T   T   T
 -0.0019098886475661  0.9545291677131279  0.0939933491001104   T   T   T
  0.7500000000000000  0.2077671793892710  0.0911970821122790   T   T   T
  0.4992032300958224  0.2920895885185286  0.0949466424583639   T   T   T
  0.7500000000000000  0.0402762364161450  0.0908022488230807   T   T   T
  0.7500000000000000  0.7158072163065794  0.1011169810102855   T   T   T
  0.7500000000000000  0.5427784101027867  0.1032566767978532   T   T   T
  0.5019098886475660  0.9545291677131279  0.0939933491001104   T   T   T
  0.5010359136314997  0.4579234394756348  0.1031219337989712   T   T   T
 -0.0010359136314996  0.4579234394756348  0.1031219337989712   T   T   T
 -0.0093116083730588  0.7936949460245463  0.0996505608421329   T   T   T
  0.5093116083730590  0.7936949460245463  0.0996505608421329   T   T   T
  0.2500000000000000  0.6257225579340079  0.1500383733541374   T   T   T
 
  0.00000000E+00  0.00000000E+00  0.00000000E+00
  0.00000000E+00  0.00000000E+00  0.00000000E+00
  0.00000000E+00  0.00000000E+00  0.00000000E+00
  0.00000000E+00  0.00000000E+00  0.00000000E+00
  0.00000000E+00  0.00000000E+00  0.00000000E+00
  0.00000000E+00  0.00000000E+00  0.00000000E+00
  0.00000000E+00  0.00000000E+00  0.00000000E+00
  0.00000000E+00  0.00000000E+00  0.00000000E+00
  0.00000000E+00  0.00000000E+00  0.00000000E+00
  0.00000000E+00  0.00000000E+00  0.00000000E+00
  0.00000000E+00  0.00000000E+00  0.00000000E+00
  0.00000000E+00  0.00000000E+00  0.00000000E+00
  0.00000000E+00  0.00000000E+00  0.00000000E+00
  0.00000000E+00  0.00000000E+00  0.00000000E+00
  0.00000000E+00  0.00000000E+00  0.00000000E+00
