Title                                   
   1.00000000000000     
     8.5490480000000009    0.0000000000000000    0.0000000000000000
     0.0000000000000000    8.5490480000000009    0.0000000000000000
     0.0000000000000000    0.0000000000000000   20.0000000000000000
    21     3     1
Selective dynamics
Direct
  0.9102265950961035  0.2069439299376576  0.0957663525116386   T   T   T
  0.9121726207293650  0.7995440574945692  0.0956214997971284   T   T   T
  0.1987234666280459  0.0825154077423353  0.0955769639938098   T   T   T
  0.0757739338537730  0.2027533130119812  0.0957613821983650   T   T   T
  0.1575144213541118  0.6499524838607477  0.0976902980494710   T   T   T
  0.0764114009709972  0.5005643264247939  0.0973434656251820   T   T   T
  0.1573761103387761  0.3537609326950823  0.0971775563085451   T   T   T
  0.0779098071834476  0.7994011624249497  0.0959262644417792   T   T   T
  0.3464742191311593  0.1648105995317757  0.0969192279496493   T   T   T
  0.4928613303319901  0.9195578833354543  0.0973315420845061   T   T   T
  0.3446992470204921  0.8371898350047893  0.0978602815496938   T   T   T
  0.7870466445050053  0.0843989346860690  0.0957811152185103   T   T   T
  0.6378007579492274  0.1674673411404176  0.0970902530846940   T   T   T
  0.7889964494643699  0.9202568106561648  0.0957862098425980   T   T   T
  0.8296864006880919  0.6491266557645999  0.0967343564477643   T   T   T
  0.8280423030628328  0.3558279965156250  0.0970423130975123   T   T   T
  0.6389807896455441  0.8373291887224504  0.0970395030830771   T   T   T
  0.3257839590471199  0.3312764094144146  0.0994890876050893   T   T   T
  0.3232899572617319  0.6728616642048735  0.1002334118927505   T   T   T
  0.6599610254555300  0.3342479048426999  0.0998123614415795   T   T   T
  0.6633029025070902  0.6694286177557094  0.0990051385894999   T   T   T
  0.4939720699459370  0.0855964568752364  0.0970190618340632   T   T   T
  0.9093140715677095  0.5013651191643939  0.0969427402607810   T   T   T
  0.1965700610934767  0.9177227179385111  0.0958351939454781   T   T   T
  0.4925214551680571  0.5008902508547042  0.1129194191468143   T   T   T
 
  0.00000000E+00  0.00000000E+00  0.00000000E+00
  0.00000000E+00  0.00000000E+00  0.00000000E+00
  0.00000000E+00  0.00000000E+00  0.00000000E+00
  0.00000000E+00  0.00000000E+00  0.00000000E+00
  0.00000000E+00  0.00000000E+00  0.00000000E+00
  0.00000000E+00  0.00000000E+00  0.00000000E+00
  0.00000000E+00  0.00000000E+00  0.00000000E+00
  0.00000000E+00  0.00000000E+00  0.00000000E+00
  0.00000000E+00  0.00000000E+00  0.00000000E+00
  0.00000000E+00  0.00000000E+00  0.00000000E+00
  0.00000000E+00  0.00000000E+00  0.00000000E+00
  0.00000000E+00  0.00000000E+00  0.00000000E+00
  0.00000000E+00  0.00000000E+00  0.00000000E+00
  0.00000000E+00  0.00000000E+00  0.00000000E+00
  0.00000000E+00  0.00000000E+00  0.00000000E+00
  0.00000000E+00  0.00000000E+00  0.00000000E+00
  0.00000000E+00  0.00000000E+00  0.00000000E+00
  0.00000000E+00  0.00000000E+00  0.00000000E+00
  0.00000000E+00  0.00000000E+00  0.00000000E+00
  0.00000000E+00  0.00000000E+00  0.00000000E+00
  0.00000000E+00  0.00000000E+00  0.00000000E+00
  0.00000000E+00  0.00000000E+00  0.00000000E+00
  0.00000000E+00  0.00000000E+00  0.00000000E+00
  0.00000000E+00  0.00000000E+00  0.00000000E+00
  0.00000000E+00  0.00000000E+00  0.00000000E+00
