Title                                   
   1.00000000000000     
     8.5490480000000009    0.0000000000000000    0.0000000000000000
     0.0000000000000000    8.5490480000000009    0.0000000000000000
     0.0000000000000000    0.0000000000000000   20.0000000000000000
    17     7     1
Selective dynamics
Direct
  0.9076887673941659  0.2054971928678546  0.0974310275077935   T   T   T
  0.9108966985523457  0.8011928845715887  0.0975328674193553   T   T   T
  0.1965024260469433  0.0831634526786080  0.0976004722006976   T   T   T
  0.0765037190256726  0.2001779172814311  0.0975189847503314   T   T   T
  0.1583102409680433  0.6510573593598727  0.0978326027684944   T   T   T
  0.0784538676436682  0.5000620834418347  0.0977760621560047   T   T   T
  0.1575847372975592  0.3501961216848568  0.0978064739208578   T   T   T
  0.0792366759099713  0.7990699546646441  0.0975852294524843   T   T   T
  0.3440593851167452  0.1664464665374626  0.0978537962286250   T   T   T
  0.4929803029031433  0.9174484312032114  0.0977717895352024   T   T   T
  0.3440945205492989  0.8363702409868620  0.0978240372728491   T   T   T
  0.7878689740924407  0.0870137477225735  0.0974518040760777   T   T   T
  0.6408945708761499  0.1692097703293119  0.0977211139438030   T   T   T
  0.7905063081904778  0.9188740469368984  0.0974939165523531   T   T   T
  0.8280887638319613  0.6513016689730454  0.0977517127384328   T   T   T
  0.8265018908987928  0.3533751427056100  0.0976739355955860   T   T   T
  0.6425826849635153  0.8371476660190803  0.0977599009556372   T   T   T
  0.4932186409935305  0.0898077673766072  0.0978479455655407   T   T   T
  0.9058852482455908  0.5020338836575751  0.0977835787370035   T   T   T
  0.3213036169494002  0.3270337637974672  0.0980609394564447   T   T   T
  0.3214104530045814  0.6759534784974794  0.0980042666641494   T   T   T
  0.6637635895601074  0.3314342232973038  0.0979368040845928   T   T   T
  0.6674859622017570  0.6731031664099171  0.0979581135011406   T   T   T
  0.1964777040923364  0.9149695246039630  0.0976315514525509   T   T   T
  0.4931122506917950  0.5028500443949413  0.0980960734639720   T   T   T
 
  0.00000000E+00  0.00000000E+00  0.00000000E+00
  0.00000000E+00  0.00000000E+00  0.00000000E+00
  0.00000000E+00  0.00000000E+00  0.00000000E+00
  0.00000000E+00  0.00000000E+00  0.00000000E+00
  0.00000000E+00  0.00000000E+00  0.00000000E+00
  0.00000000E+00  0.00000000E+00  0.00000000E+00
  0.00000000E+00  0.00000000E+00  0.00000000E+00
  0.00000000E+00  0.00000000E+00  0.00000000E+00
  0.00000000E+00  0.00000000E+00  0.00000000E+00
  0.00000000E+00  0.00000000E+00  0.00000000E+00
  0.00000000E+00  0.00000000E+00  0.00000000E+00
  0.00000000E+00  0.00000000E+00  0.00000000E+00
  0.00000000E+00  0.00000000E+00  0.00000000E+00
  0.00000000E+00  0.00000000E+00  0.00000000E+00
  0.00000000E+00  0.00000000E+00  0.00000000E+00
  0.00000000E+00  0.00000000E+00  0.00000000E+00
  0.00000000E+00  0.00000000E+00  0.00000000E+00
  0.00000000E+00  0.00000000E+00  0.00000000E+00
  0.00000000E+00  0.00000000E+00  0.00000000E+00
  0.00000000E+00  0.00000000E+00  0.00000000E+00
  0.00000000E+00  0.00000000E+00  0.00000000E+00
  0.00000000E+00  0.00000000E+00  0.00000000E+00
  0.00000000E+00  0.00000000E+00  0.00000000E+00
  0.00000000E+00  0.00000000E+00  0.00000000E+00
  0.00000000E+00  0.00000000E+00  0.00000000E+00
