Title                                   
   1.00000000000000     
     9.8694509999999998    0.0000000000000000    0.0000000000000000
     0.0000000000000000    8.5490480000000009    0.0000000000000000
     0.0000000000000000    0.0000000000000000   20.0000000000000000
    27     3     1
Selective dynamics
Direct
  0.0555296582996570  0.0885073355890839  0.0857385897360058   T   T   T
  0.9309058467878284  0.1708149210666714  0.0866701694541221   T   T   T
  0.0563505953957594  0.9222864785096615  0.0866995067214977   T   T   T
  0.9327976870602243  0.3381797835320106  0.0861393739949309   T   T   T
  0.0554655856789862  0.5906606779983359  0.0856967690155252   T   T   T
  0.0564060844660925  0.4241744283126114  0.0846823388537107   T   T   T
  0.9304271443344214  0.8375967200082850  0.0879044518029684   T   T   T
  0.3085053650384030  0.0912401750666824  0.0916433845251570   T   T   T
  0.1826893063794416  0.1722177334104089  0.0869317462438657   T   T   T
  0.1813760577544753  0.3397022844254389  0.0864503265835726   T   T   T
  0.3017738544267184  0.5914827592354495  0.0952157558541644   T   T   T
  0.1795233355969187  0.6758897764210695  0.0881966832059301   T   T   T
  0.3040694258883306  0.4236208710019455  0.0928985193336289   T   T   T
  0.1820768028389312  0.8420819401013976  0.0888425739666434   T   T   T
  0.4338628170343336  0.1779174169602138  0.0976131066273449   T   T   T
  0.5547186050703923  0.9229987976871578  0.1010241900235621   T   T   T
  0.4305734129491738  0.3457147287645871  0.1011123419147121   T   T   T
  0.4239244822753131  0.6724352250770517  0.1095829047824965   T   T   T
  0.4291854933858685  0.8379997484171250  0.1016580890335780   T   T   T
  0.8047360375075933  0.0871769150455922  0.0909849723082961   T   T   T
  0.6811069516999643  0.1755312886460495  0.0982098074989504   T   T   T
  0.8047661582923579  0.9186675774859644  0.0915312844417225   T   T   T
  0.6861842182658570  0.3408148891051856  0.1054293500888230   T   T   T
  0.8096088999351626  0.5893964660095073  0.0937279666957980   T   T   T
  0.6843997973781761  0.6657316453129319  0.1024440812368136   T   T   T
  0.8110398611351028  0.4201114319001257  0.0935164568783574   T   T   T
  0.6772032560981255  0.8345659805152569  0.0980158376325072   T   T   T
  0.9319209380870128  0.6719142872787498  0.0874256679685924   T   T   T
  0.5572056813411526  0.0913962091846902  0.1001982047213374   T   T   T
  0.3059504762238743  0.9238451957309171  0.0925316361417388   T   T   T
  0.5588511633743550  0.5062013121998616  0.1422489127136736   T   T   T
 
  0.00000000E+00  0.00000000E+00  0.00000000E+00
  0.00000000E+00  0.00000000E+00  0.00000000E+00
  0.00000000E+00  0.00000000E+00  0.00000000E+00
  0.00000000E+00  0.00000000E+00  0.00000000E+00
  0.00000000E+00  0.00000000E+00  0.00000000E+00
  0.00000000E+00  0.00000000E+00  0.00000000E+00
  0.00000000E+00  0.00000000E+00  0.00000000E+00
  0.00000000E+00  0.00000000E+00  0.00000000E+00
  0.00000000E+00  0.00000000E+00  0.00000000E+00
  0.00000000E+00  0.00000000E+00  0.00000000E+00
  0.00000000E+00  0.00000000E+00  0.00000000E+00
  0.00000000E+00  0.00000000E+00  0.00000000E+00
  0.00000000E+00  0.00000000E+00  0.00000000E+00
  0.00000000E+00  0.00000000E+00  0.00000000E+00
  0.00000000E+00  0.00000000E+00  0.00000000E+00
  0.00000000E+00  0.00000000E+00  0.00000000E+00
  0.00000000E+00  0.00000000E+00  0.00000000E+00
  0.00000000E+00  0.00000000E+00  0.00000000E+00
  0.00000000E+00  0.00000000E+00  0.00000000E+00
  0.00000000E+00  0.00000000E+00  0.00000000E+00
  0.00000000E+00  0.00000000E+00  0.00000000E+00
  0.00000000E+00  0.00000000E+00  0.00000000E+00
  0.00000000E+00  0.00000000E+00  0.00000000E+00
  0.00000000E+00  0.00000000E+00  0.00000000E+00
  0.00000000E+00  0.00000000E+00  0.00000000E+00
  0.00000000E+00  0.00000000E+00  0.00000000E+00
  0.00000000E+00  0.00000000E+00  0.00000000E+00
  0.00000000E+00  0.00000000E+00  0.00000000E+00
  0.00000000E+00  0.00000000E+00  0.00000000E+00
  0.00000000E+00  0.00000000E+00  0.00000000E+00
  0.00000000E+00  0.00000000E+00  0.00000000E+00
