Title                                   
   1.00000000000000     
     4.9440799999999996    0.0000000000000000    0.0000000000000000
     0.0000000000000000    8.5647549999999999    0.0000000000000000
     0.0000000000000000    0.0000000000000000   20.0000000000000000
    12     2     1
Selective dynamics
Direct
  0.2500000000000000  0.2062959884493439  0.0957280530125337   T   T   T
  0.0011452663791944  0.2928628229725830  0.0964436369068703   T   T   T
  0.2500000000000000  0.0366741736570426  0.0955076104102173   T   T   T
 -0.0016007708748362  0.9538688173509382  0.0957100271689046   T   T   T
  0.7500000000000000  0.2081912360432150  0.0940801381690472   T   T   T
  0.4988547336208057  0.2928628229725830  0.0964436369068703   T   T   T
  0.7500000000000000  0.0399311862512243  0.0936998008854732   T   T   T
  0.7500000000000000  0.7154849105661171  0.1005278457161039   T   T   T
  0.7500000000000000  0.5434558483491549  0.1022907067390814   T   T   T
  0.5016007708748363  0.9538688173509382  0.0957100271689046   T   T   T
  0.4989787947982831  0.4599871954783499  0.1020310084267288   T   T   T
  0.0010212052017171  0.4599871954783499  0.1020310084267288   T   T   T
 -0.0084103745979991  0.7919787823651543  0.0994770318520071   T   T   T
  0.5084103745979992  0.7919787823651543  0.0994770318520071   T   T   T
  0.2500000000000000  0.6242524203498538  0.1388224363585248   T   T   T
 
  0.00000000E+00  0.00000000E+00  0.00000000E+00
  0.00000000E+00  0.00000000E+00  0.00000000E+00
  0.00000000E+00  0.00000000E+00  0.00000000E+00
  0.00000000E+00  0.00000000E+00  0.00000000E+00
  0.00000000E+00  0.00000000E+00  0.00000000E+00
  0.00000000E+00  0.00000000E+00  0.00000000E+00
  0.00000000E+00  0.00000000E+00  0.00000000E+00
  0.00000000E+00  0.00000000E+00  0.00000000E+00
  0.00000000E+00  0.00000000E+00  0.00000000E+00
  0.00000000E+00  0.00000000E+00  0.00000000E+00
  0.00000000E+00  0.00000000E+00  0.00000000E+00
  0.00000000E+00  0.00000000E+00  0.00000000E+00
  0.00000000E+00  0.00000000E+00  0.00000000E+00
  0.00000000E+00  0.00000000E+00  0.00000000E+00
  0.00000000E+00  0.00000000E+00  0.00000000E+00
