Title                                   
   1.00000000000000     
     4.9440799999999996    0.0000000000000000    0.0000000000000000
     0.0000000000000000    8.5647549999999999    0.0000000000000000
     0.0000000000000000    0.0000000000000000   20.0000000000000000
    11     3     1
Selective dynamics
Direct
  0.2472562972176578  0.2091401309191495  0.0959194885328573   T   T   T
 -0.0031321535748705  0.2938895145216212  0.0962188344318723   T   T   T
  0.2495721519658920  0.0376122239082434  0.0958335916608635   T   T   T
 -0.0005615932868984  0.9547543516376442  0.0955723644851149   T   T   T
  0.7486976936772199  0.2083210397579713  0.0926845302711558   T   T   T
  0.4972257199215688  0.2941044959237751  0.0954567523213601   T   T   T
  0.7508554003880228  0.0406715356548950  0.0928046859984997   T   T   T
  0.7545212623441435  0.7126039623482104  0.0989124566130379   T   T   T
  0.7506508330035154  0.5407854675916460  0.0993111765349537   T   T   T
  0.5022745004314655  0.9542806552752335  0.0960976188544908   T   T   T
  0.5039014898816698  0.4597898954714179  0.0996194700168898   T   T   T
 -0.0055594519667150  0.4572631238273933  0.1025188496284717   T   T   T
 -0.0051871327447220  0.7923086043664123  0.0994319583236962   T   T   T
  0.5115320176477011  0.7923117415801736  0.1014310518905404   T   T   T
  0.2479529650943489  0.6238442572162144  0.1461671704361996   T   T   T
 
  0.00000000E+00  0.00000000E+00  0.00000000E+00
  0.00000000E+00  0.00000000E+00  0.00000000E+00
  0.00000000E+00  0.00000000E+00  0.00000000E+00
  0.00000000E+00  0.00000000E+00  0.00000000E+00
  0.00000000E+00  0.00000000E+00  0.00000000E+00
  0.00000000E+00  0.00000000E+00  0.00000000E+00
  0.00000000E+00  0.00000000E+00  0.00000000E+00
  0.00000000E+00  0.00000000E+00  0.00000000E+00
  0.00000000E+00  0.00000000E+00  0.00000000E+00
  0.00000000E+00  0.00000000E+00  0.00000000E+00
  0.00000000E+00  0.00000000E+00  0.00000000E+00
  0.00000000E+00  0.00000000E+00  0.00000000E+00
  0.00000000E+00  0.00000000E+00  0.00000000E+00
  0.00000000E+00  0.00000000E+00  0.00000000E+00
  0.00000000E+00  0.00000000E+00  0.00000000E+00
