Title                                   
   1.00000000000000     
     9.8694509999999998    0.0000000000000000    0.0000000000000000
     0.0000000000000000    8.5490480000000009    0.0000000000000000
     0.0000000000000000    0.0000000000000000   20.0000000000000000
    27     3     1
Selective dynamics
Direct
  0.0556637866448284  0.0899924671781801  0.0885297391406394   T   T   T
  0.9310682939859324  0.1737569268293363  0.0939634004957983   T   T   T
  0.0565384527361008  0.9239135703269309  0.0882197657473544   T   T   T
  0.9324891048139918  0.3404152093428269  0.0930858065970735   T   T   T
  0.0561473370108432  0.5894747238137930  0.0852086355639560   T   T   T
  0.9341063907646847  0.6750666646282736  0.0917238369518901   T   T   T
  0.0555385274161936  0.4228453519114462  0.0855459125414623   T   T   T
  0.9321824288892941  0.8414985641788695  0.0918450819709024   T   T   T
  0.3055318975270431  0.0885343814014101  0.0886771067831924   T   T   T
  0.1801596781594421  0.1715625579056472  0.0856911907318882   T   T   T
  0.3060079696525614  0.9209327789508190  0.0899649323745939   T   T   T
  0.1786195820598382  0.3387557960322387  0.0838883826939929   T   T   T
  0.3034437313206563  0.5909665208023090  0.0867296855482716   T   T   T
  0.1792918709358909  0.6725188815834447  0.0840022984607198   T   T   T
  0.3035993944956441  0.4183173994903104  0.0839358389755686   T   T   T
  0.1805605552631418  0.8398326000965524  0.0868229352480624   T   T   T
  0.5549684517411034  0.0902636237250705  0.1016684790811762   T   T   T
  0.4283737968929913  0.1760663827063093  0.0919474080407888   T   T   T
  0.5554395376932568  0.9184693999839254  0.1013118184722112   T   T   T
  0.4286876723972346  0.8324120299557946  0.0963878874728753   T   T   T
  0.8062149520513966  0.0914897535940519  0.1000093330130758   T   T   T
  0.6820831844701194  0.1764139728592896  0.1084327014351540   T   T   T
  0.8075077205107171  0.9240640862847398  0.0978946465517447   T   T   T
  0.6910143761857994  0.3410010866769677  0.1197008650731242   T   T   T
  0.8113057039383800  0.5956265671021215  0.1013664626716220   T   T   T
  0.8101899908929538  0.4229640737833172  0.1052266746443541   T   T   T
  0.6853598230222138  0.8362069629648673  0.1023962424456455   T   T   T
  0.4218957083634025  0.3370990226817497  0.0852332394710591   T   T   T
  0.6936656799538626  0.6762552434507192  0.1046220974272577   T   T   T
  0.4206984209220760  0.6704953083567168  0.0978449807409184   T   T   T
  0.5547809792884144  0.5036630914019856  0.1190876136336680   T   T   T
 
  0.00000000E+00  0.00000000E+00  0.00000000E+00
  0.00000000E+00  0.00000000E+00  0.00000000E+00
  0.00000000E+00  0.00000000E+00  0.00000000E+00
  0.00000000E+00  0.00000000E+00  0.00000000E+00
  0.00000000E+00  0.00000000E+00  0.00000000E+00
  0.00000000E+00  0.00000000E+00  0.00000000E+00
  0.00000000E+00  0.00000000E+00  0.00000000E+00
  0.00000000E+00  0.00000000E+00  0.00000000E+00
  0.00000000E+00  0.00000000E+00  0.00000000E+00
  0.00000000E+00  0.00000000E+00  0.00000000E+00
  0.00000000E+00  0.00000000E+00  0.00000000E+00
  0.00000000E+00  0.00000000E+00  0.00000000E+00
  0.00000000E+00  0.00000000E+00  0.00000000E+00
  0.00000000E+00  0.00000000E+00  0.00000000E+00
  0.00000000E+00  0.00000000E+00  0.00000000E+00
  0.00000000E+00  0.00000000E+00  0.00000000E+00
  0.00000000E+00  0.00000000E+00  0.00000000E+00
  0.00000000E+00  0.00000000E+00  0.00000000E+00
  0.00000000E+00  0.00000000E+00  0.00000000E+00
  0.00000000E+00  0.00000000E+00  0.00000000E+00
  0.00000000E+00  0.00000000E+00  0.00000000E+00
  0.00000000E+00  0.00000000E+00  0.00000000E+00
  0.00000000E+00  0.00000000E+00  0.00000000E+00
  0.00000000E+00  0.00000000E+00  0.00000000E+00
  0.00000000E+00  0.00000000E+00  0.00000000E+00
  0.00000000E+00  0.00000000E+00  0.00000000E+00
  0.00000000E+00  0.00000000E+00  0.00000000E+00
  0.00000000E+00  0.00000000E+00  0.00000000E+00
  0.00000000E+00  0.00000000E+00  0.00000000E+00
  0.00000000E+00  0.00000000E+00  0.00000000E+00
  0.00000000E+00  0.00000000E+00  0.00000000E+00
