Title                                   
   1.00000000000000     
     4.9440799999999996    0.0000000000000000    0.0000000000000000
     0.0000000000000000   17.1295089999999988    0.0000000000000000
     0.0000000000000000    0.0000000000000000   20.0000000000000000
    27     3     1
Selective dynamics
Direct
  0.0048197631241655  0.1062613464406941  0.2953294460518297   T   T   T
  0.2553164924425908  0.1490391145063139  0.2969401333521375   T   T   T
  0.2583538595489174  0.2336778249246635  0.2991011780355722   T   T   T
  0.0056721398552510  0.2736717636516753  0.2947870392123626   T   T   T
 -0.0100176352776607  0.6012973610691253  0.3004952467996003   T   T   T
  0.2444079850734587  0.7268088563291355  0.2969230029449062   T   T   T
 -0.0022377462115288  0.8534559449917576  0.2956106840131379   T   T   T
  0.2483667937835966  0.8956932968304800  0.2957661824466498   T   T   T
  0.2507275605636738  0.9797070053841679  0.2957627606117708   T   T   T
 -0.0045516592539660  0.7693632607463721  0.2959529874022408   T   T   T
  0.5032987697276485  0.1060430990946752  0.2966878264155159   T   T   T
  0.7543983110845313  0.1476575388638060  0.2957751385796318   T   T   T
  0.7568722671432423  0.2314383643525834  0.2969356033642994   T   T   T
  0.5011238337205283  0.0219659134747768  0.2960319463530861   T   T   T
  0.7648612769242653  0.3924424370911051  0.3045542789184571   T   T   T
  0.7520159738049097  0.4797182695007567  0.3033070152533278   T   T   T
  0.5121353490861957  0.2748353916489116  0.3042648913564776   T   T   T
  0.4920914652880611  0.6006077298540669  0.3009800483386292   T   T   T
  0.7445372786335627  0.7274356325448642  0.2960995136875358   T   T   T
  0.4974905358926474  0.8534616919627398  0.2957952031253244   T   T   T
  0.7484016618522212  0.8956776120885955  0.2955469145005864   T   T   T
  0.7508595003969392  0.9798991042292641  0.2955258578950987   T   T   T
  0.4950107815881012  0.7693381345741521  0.2961169826872076   T   T   T
  0.7407895000394809  0.6434192544212902  0.2978551334219920   T   T   T
  0.2429140694714231  0.6427074367543845  0.2997330364856063   T   T   T
  0.0020050618452735  0.0220769035249785  0.2953395898944911   T   T   T
  0.5033168883266051  0.5168701147693859  0.3073947423079860   T   T   T
  0.9854136328154671  0.5211615993689327  0.3054016875412231   T   T   T
  0.5276553554381536  0.3543050789896920  0.3190775857634047   T   T   T
 -0.0055753615448670  0.3539663328468542  0.2883977323137082   T   T   T
  0.2395332948171127  0.4373385851697954  0.3275706109261553   T   T   T
 
  0.00000000E+00  0.00000000E+00  0.00000000E+00
  0.00000000E+00  0.00000000E+00  0.00000000E+00
  0.00000000E+00  0.00000000E+00  0.00000000E+00
  0.00000000E+00  0.00000000E+00  0.00000000E+00
  0.00000000E+00  0.00000000E+00  0.00000000E+00
  0.00000000E+00  0.00000000E+00  0.00000000E+00
  0.00000000E+00  0.00000000E+00  0.00000000E+00
  0.00000000E+00  0.00000000E+00  0.00000000E+00
  0.00000000E+00  0.00000000E+00  0.00000000E+00
  0.00000000E+00  0.00000000E+00  0.00000000E+00
  0.00000000E+00  0.00000000E+00  0.00000000E+00
  0.00000000E+00  0.00000000E+00  0.00000000E+00
  0.00000000E+00  0.00000000E+00  0.00000000E+00
  0.00000000E+00  0.00000000E+00  0.00000000E+00
  0.00000000E+00  0.00000000E+00  0.00000000E+00
  0.00000000E+00  0.00000000E+00  0.00000000E+00
  0.00000000E+00  0.00000000E+00  0.00000000E+00
  0.00000000E+00  0.00000000E+00  0.00000000E+00
  0.00000000E+00  0.00000000E+00  0.00000000E+00
  0.00000000E+00  0.00000000E+00  0.00000000E+00
  0.00000000E+00  0.00000000E+00  0.00000000E+00
  0.00000000E+00  0.00000000E+00  0.00000000E+00
  0.00000000E+00  0.00000000E+00  0.00000000E+00
  0.00000000E+00  0.00000000E+00  0.00000000E+00
  0.00000000E+00  0.00000000E+00  0.00000000E+00
  0.00000000E+00  0.00000000E+00  0.00000000E+00
  0.00000000E+00  0.00000000E+00  0.00000000E+00
  0.00000000E+00  0.00000000E+00  0.00000000E+00
  0.00000000E+00  0.00000000E+00  0.00000000E+00
  0.00000000E+00  0.00000000E+00  0.00000000E+00
  0.00000000E+00  0.00000000E+00  0.00000000E+00
