Title                                   
   1.00000000000000     
     4.9440799999999996    0.0000000000000000    0.0000000000000000
     0.0000000000000000   17.1295089999999988    0.0000000000000000
     0.0000000000000000    0.0000000000000000   20.0000000000000000
    29     2     1
Selective dynamics
Direct
  0.0018565369291524  0.1043524971295027  0.2800497353717017   T   T   T
  0.2523343862880971  0.1461151824010821  0.2843986823833453   T   T   T
  0.2535714859838463  0.2286477668997409  0.2956128268041882   T   T   T
  0.0049214802115260  0.3502247763701684  0.3191196258522161   T   T   T
  0.0023471070609145  0.2697976560144189  0.3011356716262837   T   T   T
 -0.0074304439809821  0.6069932805554775  0.3139563647896522   T   T   T
  0.2472831052512048  0.7283983124431856  0.2911039683055636   T   T   T
 -0.0007726761875570  0.8534643368998894  0.2769959862740072   T   T   T
  0.2493422334178311  0.8954179601356561  0.2752167616674400   T   T   T
  0.2505237517229922  0.9790229234293202  0.2742839183261970   T   T   T
 -0.0018215230537988  0.7702015489468590  0.2843855168717792   T   T   T
  0.5019653842071530  0.1043307350759518  0.2801629870370694   T   T   T
  0.7520872930546254  0.1460289436969571  0.2835401133701284   T   T   T
  0.7530803800687396  0.2286970032759636  0.2934324529971074   T   T   T
  0.5009859690066867  0.0208711815732420  0.2752300495641257   T   T   T
  0.5049923997730448  0.3505145061840391  0.3201878435153619   T   T   T
  0.7559781448553362  0.3962847572864144  0.3258766123756923   T   T   T
  0.7503267615802175  0.4822050285514863  0.3343525936989413   T   T   T
  0.5050568190621081  0.2698430203853067  0.3018673076149457   T   T   T
  0.4996652654298059  0.6075189171815859  0.3178514465384788   T   T   T
  0.7475025446400364  0.7293906478164736  0.2894045312879110   T   T   T
  0.4986766786549289  0.8535345636823515  0.2772112814241858   T   T   T
  0.7492669588763644  0.8952282244160386  0.2749429382676884   T   T   T
  0.7505349540986284  0.9789675505983182  0.2740271317744569   T   T   T
  0.4973452208755927  0.7701772491763507  0.2848716788768679   T   T   T
  0.7454401840793665  0.6474371017326048  0.3042183448323725   T   T   T
  0.2472811010268750  0.6464873343137423  0.3077831301212798   T   T   T
  0.0007513456318049  0.0209512121790632  0.2751585359958723   T   T   T
  0.5131921391079212  0.5284333901847955  0.3438549666009101   T   T   T
  0.9847910629015607  0.5284809382504534  0.3324936823286848   T   T   T
  0.2547490034596855  0.3833857194648304  0.3359165760717456   T   T   T
  0.2309979459662962  0.4771467337487200  0.3939217374337536   T   T   T
 
  0.00000000E+00  0.00000000E+00  0.00000000E+00
  0.00000000E+00  0.00000000E+00  0.00000000E+00
  0.00000000E+00  0.00000000E+00  0.00000000E+00
  0.00000000E+00  0.00000000E+00  0.00000000E+00
  0.00000000E+00  0.00000000E+00  0.00000000E+00
  0.00000000E+00  0.00000000E+00  0.00000000E+00
  0.00000000E+00  0.00000000E+00  0.00000000E+00
  0.00000000E+00  0.00000000E+00  0.00000000E+00
  0.00000000E+00  0.00000000E+00  0.00000000E+00
  0.00000000E+00  0.00000000E+00  0.00000000E+00
  0.00000000E+00  0.00000000E+00  0.00000000E+00
  0.00000000E+00  0.00000000E+00  0.00000000E+00
  0.00000000E+00  0.00000000E+00  0.00000000E+00
  0.00000000E+00  0.00000000E+00  0.00000000E+00
  0.00000000E+00  0.00000000E+00  0.00000000E+00
  0.00000000E+00  0.00000000E+00  0.00000000E+00
  0.00000000E+00  0.00000000E+00  0.00000000E+00
  0.00000000E+00  0.00000000E+00  0.00000000E+00
  0.00000000E+00  0.00000000E+00  0.00000000E+00
  0.00000000E+00  0.00000000E+00  0.00000000E+00
  0.00000000E+00  0.00000000E+00  0.00000000E+00
  0.00000000E+00  0.00000000E+00  0.00000000E+00
  0.00000000E+00  0.00000000E+00  0.00000000E+00
  0.00000000E+00  0.00000000E+00  0.00000000E+00
  0.00000000E+00  0.00000000E+00  0.00000000E+00
  0.00000000E+00  0.00000000E+00  0.00000000E+00
  0.00000000E+00  0.00000000E+00  0.00000000E+00
  0.00000000E+00  0.00000000E+00  0.00000000E+00
  0.00000000E+00  0.00000000E+00  0.00000000E+00
  0.00000000E+00  0.00000000E+00  0.00000000E+00
  0.00000000E+00  0.00000000E+00  0.00000000E+00
  0.00000000E+00  0.00000000E+00  0.00000000E+00
