Title                                   
   1.00000000000000     
     9.8694509999999998    0.0000000000000000    0.0000000000000000
     0.0000000000000000    8.5490480000000009    0.0000000000000000
     0.0000000000000000    0.0000000000000000   20.0000000000000000
    23     7     1
Selective dynamics
Direct
  0.0556590940636454  0.0899674686061997  0.0965173823118424   T   T   T
  0.9321253357856096  0.1727934708626782  0.0984901149095196   T   T   T
  0.0574113968026512  0.9214387738525242  0.0970672398164597   T   T   T
  0.9343122168024426  0.3383779631807741  0.0999525893371712   T   T   T
  0.0560965096340148  0.5908476132633690  0.0973739826655554   T   T   T
  0.0558473170452316  0.4237652619214925  0.0967185067041957   T   T   T
  0.9319177727015862  0.8395780877986490  0.0990557623551183   T   T   T
  0.3078176927826590  0.0887746611806078  0.0949110672150422   T   T   T
  0.1806408627388746  0.1713353070876755  0.0944630470852426   T   T   T
  0.1785859382411161  0.3383527738177831  0.0934164861137370   T   T   T
  0.2993719370335975  0.5892855635804108  0.0908324217479667   T   T   T
  0.1773303661691656  0.6737726473320901  0.0941318072242363   T   T   T
  0.3008191826098573  0.4217029858831641  0.0904118542619907   T   T   T
  0.1805124316424444  0.8414022568330534  0.0953489742898116   T   T   T
  0.4290888677837211  0.1737197003728305  0.0945252357722516   T   T   T
  0.5552692587434439  0.9189351419294993  0.0964111081413237   T   T   T
  0.4280557295052611  0.8375712447275863  0.0940006550350401   T   T   T
  0.8047318874167609  0.0892913946160479  0.0980027576046505   T   T   T
  0.6835209037054709  0.1758882917285356  0.1003114746298432   T   T   T
  0.8075523281249458  0.9214440391148083  0.0989905204310663   T   T   T
  0.8131030854191079  0.5899678215550711  0.1017433332654651   T   T   T
  0.8126118615227229  0.4231945267977642  0.1042246502536348   T   T   T
  0.6820446817418254  0.8368647380975360  0.0980270417877109   T   T   T
  0.9343360934942994  0.6733300904569312  0.1010782562131510   T   T   T
  0.5564604321997698  0.0957021506986869  0.0981292745746307   T   T   T
  0.4206116595689895  0.3360998515598586  0.0884943237446824   T   T   T
  0.4181086513554547  0.6771365704909403  0.0913602655980969   T   T   T
  0.6917148654554646  0.3374148070047174  0.1104963342746804   T   T   T
  0.6950469818762731  0.6748077271976335  0.0954523745701649   T   T   T
  0.3054987767092258  0.9219175052114061  0.0946901468618914   T   T   T
  0.5569318813243680  0.5061945632396738  0.0963360112038845   T   T   T
 
  0.00000000E+00  0.00000000E+00  0.00000000E+00
  0.00000000E+00  0.00000000E+00  0.00000000E+00
  0.00000000E+00  0.00000000E+00  0.00000000E+00
  0.00000000E+00  0.00000000E+00  0.00000000E+00
  0.00000000E+00  0.00000000E+00  0.00000000E+00
  0.00000000E+00  0.00000000E+00  0.00000000E+00
  0.00000000E+00  0.00000000E+00  0.00000000E+00
  0.00000000E+00  0.00000000E+00  0.00000000E+00
  0.00000000E+00  0.00000000E+00  0.00000000E+00
  0.00000000E+00  0.00000000E+00  0.00000000E+00
  0.00000000E+00  0.00000000E+00  0.00000000E+00
  0.00000000E+00  0.00000000E+00  0.00000000E+00
  0.00000000E+00  0.00000000E+00  0.00000000E+00
  0.00000000E+00  0.00000000E+00  0.00000000E+00
  0.00000000E+00  0.00000000E+00  0.00000000E+00
  0.00000000E+00  0.00000000E+00  0.00000000E+00
  0.00000000E+00  0.00000000E+00  0.00000000E+00
  0.00000000E+00  0.00000000E+00  0.00000000E+00
  0.00000000E+00  0.00000000E+00  0.00000000E+00
  0.00000000E+00  0.00000000E+00  0.00000000E+00
  0.00000000E+00  0.00000000E+00  0.00000000E+00
  0.00000000E+00  0.00000000E+00  0.00000000E+00
  0.00000000E+00  0.00000000E+00  0.00000000E+00
  0.00000000E+00  0.00000000E+00  0.00000000E+00
  0.00000000E+00  0.00000000E+00  0.00000000E+00
  0.00000000E+00  0.00000000E+00  0.00000000E+00
  0.00000000E+00  0.00000000E+00  0.00000000E+00
  0.00000000E+00  0.00000000E+00  0.00000000E+00
  0.00000000E+00  0.00000000E+00  0.00000000E+00
  0.00000000E+00  0.00000000E+00  0.00000000E+00
  0.00000000E+00  0.00000000E+00  0.00000000E+00
