Title                                   
   1.00000000000000     
     9.8694509999999998    0.0000000000000000    0.0000000000000000
     0.0000000000000000    8.5490480000000009    0.0000000000000000
     0.0000000000000000    0.0000000000000000   20.0000000000000000
    30     1
Selective dynamics
Direct
  0.0562287341757686  0.0887918284325206  0.0813867469658659   T   T   T
  0.9311238860584206  0.1720342473371794  0.0841278399943851   T   T   T
  0.0562350925451054  0.9235365722085532  0.0813966562610972   T   T   T
  0.9323954988768292  0.3387132677410605  0.0844557037176747   T   T   T
  0.0562340228017762  0.5892509883385916  0.0813294627909338   T   T   T
  0.9324189151514183  0.6736209853323556  0.0844738669203027   T   T   T
  0.0562233387231534  0.4230943923484796  0.0813284696257565   T   T   T
  0.9311178060626184  0.8402936604931612  0.0841299237309856   T   T   T
  0.3060015793976300  0.0896850146397618  0.0906510933127533   T   T   T
  0.1813300958437506  0.1720336102532088  0.0842422098397384   T   T   T
  0.3060085509831457  0.9226016808319345  0.0906464567347002   T   T   T
  0.1800315552574796  0.3387209908369535  0.0846427551524128   T   T   T
  0.3021896434525126  0.5912172841703113  0.0948066213960619   T   T   T
  0.1800469684873172  0.6736098666492025  0.0846532878427674   T   T   T
  0.3021806906985495  0.4210797052946431  0.0947951451930662   T   T   T
  0.1813290298050055  0.8402823208031520  0.0842448037245568   T   T   T
  0.5562157982548517  0.0886118607283329  0.1046744720387250   T   T   T
  0.4292955982090912  0.1753112247383521  0.1014493640376890   T   T   T
  0.5562273399415516  0.9236657091496232  0.1046520319047922   T   T   T
  0.4242409372642314  0.3397536773445685  0.1066454200108078   T   T   T
  0.4242662872333146  0.6725408725916932  0.1066298118306357   T   T   T
  0.4293281071532750  0.8369816640627847  0.1014217153844667   T   T   T
  0.8064579305170967  0.0896906144058967  0.0905222173662795   T   T   T
  0.6831299937826394  0.1752922450471929  0.1013134667110330   T   T   T
  0.8064528147564707  0.9226253710357506  0.0905141061546873   T   T   T
  0.6881861779589444  0.3397726501475576  0.1063602448521696   T   T   T
  0.8102379941767665  0.5912274172305699  0.0944898271117337   T   T   T
  0.6882142157560914  0.6725671201361322  0.1063708567803512   T   T   T
  0.8102098081667352  0.4211019575130716  0.0944737538507805   T   T   T
  0.6831303525929712  0.8370191099260946  0.1012876640210128   T   T   T
  0.5564462359154980  0.5061470902313219  0.1588490047418188   T   T   T
 
  0.00000000E+00  0.00000000E+00  0.00000000E+00
  0.00000000E+00  0.00000000E+00  0.00000000E+00
  0.00000000E+00  0.00000000E+00  0.00000000E+00
  0.00000000E+00  0.00000000E+00  0.00000000E+00
  0.00000000E+00  0.00000000E+00  0.00000000E+00
  0.00000000E+00  0.00000000E+00  0.00000000E+00
  0.00000000E+00  0.00000000E+00  0.00000000E+00
  0.00000000E+00  0.00000000E+00  0.00000000E+00
  0.00000000E+00  0.00000000E+00  0.00000000E+00
  0.00000000E+00  0.00000000E+00  0.00000000E+00
  0.00000000E+00  0.00000000E+00  0.00000000E+00
  0.00000000E+00  0.00000000E+00  0.00000000E+00
  0.00000000E+00  0.00000000E+00  0.00000000E+00
  0.00000000E+00  0.00000000E+00  0.00000000E+00
  0.00000000E+00  0.00000000E+00  0.00000000E+00
  0.00000000E+00  0.00000000E+00  0.00000000E+00
  0.00000000E+00  0.00000000E+00  0.00000000E+00
  0.00000000E+00  0.00000000E+00  0.00000000E+00
  0.00000000E+00  0.00000000E+00  0.00000000E+00
  0.00000000E+00  0.00000000E+00  0.00000000E+00
  0.00000000E+00  0.00000000E+00  0.00000000E+00
  0.00000000E+00  0.00000000E+00  0.00000000E+00
  0.00000000E+00  0.00000000E+00  0.00000000E+00
  0.00000000E+00  0.00000000E+00  0.00000000E+00
  0.00000000E+00  0.00000000E+00  0.00000000E+00
  0.00000000E+00  0.00000000E+00  0.00000000E+00
  0.00000000E+00  0.00000000E+00  0.00000000E+00
  0.00000000E+00  0.00000000E+00  0.00000000E+00
  0.00000000E+00  0.00000000E+00  0.00000000E+00
  0.00000000E+00  0.00000000E+00  0.00000000E+00
  0.00000000E+00  0.00000000E+00  0.00000000E+00
