Title                                   
   1.00000000000000     
     4.9440799999999996    0.0000000000000000    0.0000000000000000
     0.0000000000000000    8.5647549999999999    0.0000000000000000
     0.0000000000000000    0.0000000000000000   20.0000000000000000
    12     3     1
Selective dynamics
Direct
 -0.0052165470930425  0.2919640585888744  0.0904656509449847   T   T   T
  0.2522322481364509  0.0447173897793335  0.0906343297071115   T   T   T
  0.0098967200745838  0.7960153385618111  0.0983373592545295   T   T   T
  0.0036031612052765  0.9615817269834850  0.0900774689155851   T   T   T
  0.7489133165036784  0.2063958536497038  0.0887371685117638   T   T   T
  0.5012693920362153  0.2911853329748517  0.0975337308717078   T   T   T
  0.7524213950394730  0.0416940992595765  0.0873255708411926   T   T   T
  0.7577630465836209  0.7060642659553783  0.1018472412585286   T   T   T
  0.5029832173168504  0.7952360046006983  0.1005486219448549   T   T   T
  0.7546087663636051  0.5337753569429174  0.1045245051673687   T   T   T
  0.5029076295098125  0.9613496125652212  0.0917319663171071   T   T   T
  0.5155235049673081  0.4475686166148431  0.1194797293024863   T   T   T
 -0.0071083326693352  0.4507026636355988  0.0878508085491767   T   T   T
  0.2566430716297727  0.7242036516363647  0.1086906589909144   T   T   T
  0.2496698456735892  0.2104663444675446  0.0913262560040708   T   T   T
  0.2038895647221408  0.5370796837837969  0.1634009334186270   T   T   T
 
  0.00000000E+00  0.00000000E+00  0.00000000E+00
  0.00000000E+00  0.00000000E+00  0.00000000E+00
  0.00000000E+00  0.00000000E+00  0.00000000E+00
  0.00000000E+00  0.00000000E+00  0.00000000E+00
  0.00000000E+00  0.00000000E+00  0.00000000E+00
  0.00000000E+00  0.00000000E+00  0.00000000E+00
  0.00000000E+00  0.00000000E+00  0.00000000E+00
  0.00000000E+00  0.00000000E+00  0.00000000E+00
  0.00000000E+00  0.00000000E+00  0.00000000E+00
  0.00000000E+00  0.00000000E+00  0.00000000E+00
  0.00000000E+00  0.00000000E+00  0.00000000E+00
  0.00000000E+00  0.00000000E+00  0.00000000E+00
  0.00000000E+00  0.00000000E+00  0.00000000E+00
  0.00000000E+00  0.00000000E+00  0.00000000E+00
  0.00000000E+00  0.00000000E+00  0.00000000E+00
  0.00000000E+00  0.00000000E+00  0.00000000E+00
