Title                                   
   1.00000000000000     
     9.8694509999999998    0.0000000000000000    0.0000000000000000
     0.0000000000000000    8.5490480000000009    0.0000000000000000
     0.0000000000000000    0.0000000000000000   20.0000000000000000
    27     3     1
Selective dynamics
Direct
  0.0551638857774921  0.0898361750670374  0.0870940607069215   T   T   T
  0.9305647757044633  0.1736518233234605  0.0868169347592848   T   T   T
  0.0577160647826205  0.9231951641489423  0.0874236625216826   T   T   T
  0.9322364693578165  0.3412445504816264  0.0873806696438437   T   T   T
  0.0570465960119844  0.5903923738074157  0.0876022210599438   T   T   T
  0.9337774611469848  0.6750203391948102  0.0884677598572029   T   T   T
  0.0565359233609298  0.4228805619947756  0.0874640459066956   T   T   T
  0.9329349282500277  0.8412684496309183  0.0881802693281632   T   T   T
  0.3054197995403938  0.0867686745612014  0.0934267349763615   T   T   T
  0.1799934443092577  0.1702682677508575  0.0899619953081337   T   T   T
  0.1796814937844216  0.3368106480358314  0.0905754855279562   T   T   T
  0.3045704490084223  0.5860164508024769  0.0964135955992928   T   T   T
  0.1816705347560266  0.6726687246369243  0.0900910962371321   T   T   T
  0.3025842760972939  0.4181642548614495  0.0976913105867900   T   T   T
  0.1825746525389464  0.8391070224751963  0.0893213893185204   T   T   T
  0.5552440029728417  0.0908410714055052  0.0979268426943042   T   T   T
  0.4279640271480079  0.1728524704116793  0.0996381800941052   T   T   T
  0.5557448918018262  0.9215556469830561  0.0980789010128883   T   T   T
  0.4267016308767615  0.6716672886464826  0.1030064407908530   T   T   T
  0.4302341376183412  0.8355387314065562  0.0981749139760015   T   T   T
  0.8047711251423812  0.0906763611878560  0.0888422814122686   T   T   T
  0.6800062041237842  0.1769660588992797  0.0936462038322553   T   T   T
  0.8063303731242285  0.9241073367909831  0.0900250366174569   T   T   T
  0.6836282967081255  0.3430318433211331  0.0955488189086555   T   T   T
  0.8098175887215394  0.5947043294936738  0.0926834593962861   T   T   T
  0.8075108706371350  0.4257626002922427  0.0909155814048209   T   T   T
  0.6827346615794954  0.8376180282398591  0.0958457576998313   T   T   T
  0.4220600156411973  0.3351254510053043  0.1068480506898244   T   T   T
  0.6892149977456875  0.6755463292335905  0.1002854386012200   T   T   T
  0.3067790235074383  0.9224923754809353  0.0921824718011295   T   T   T
  0.5619223982241297  0.5050955964289673  0.1494053897302084   T   T   T
 
  0.00000000E+00  0.00000000E+00  0.00000000E+00
  0.00000000E+00  0.00000000E+00  0.00000000E+00
  0.00000000E+00  0.00000000E+00  0.00000000E+00
  0.00000000E+00  0.00000000E+00  0.00000000E+00
  0.00000000E+00  0.00000000E+00  0.00000000E+00
  0.00000000E+00  0.00000000E+00  0.00000000E+00
  0.00000000E+00  0.00000000E+00  0.00000000E+00
  0.00000000E+00  0.00000000E+00  0.00000000E+00
  0.00000000E+00  0.00000000E+00  0.00000000E+00
  0.00000000E+00  0.00000000E+00  0.00000000E+00
  0.00000000E+00  0.00000000E+00  0.00000000E+00
  0.00000000E+00  0.00000000E+00  0.00000000E+00
  0.00000000E+00  0.00000000E+00  0.00000000E+00
  0.00000000E+00  0.00000000E+00  0.00000000E+00
  0.00000000E+00  0.00000000E+00  0.00000000E+00
  0.00000000E+00  0.00000000E+00  0.00000000E+00
  0.00000000E+00  0.00000000E+00  0.00000000E+00
  0.00000000E+00  0.00000000E+00  0.00000000E+00
  0.00000000E+00  0.00000000E+00  0.00000000E+00
  0.00000000E+00  0.00000000E+00  0.00000000E+00
  0.00000000E+00  0.00000000E+00  0.00000000E+00
  0.00000000E+00  0.00000000E+00  0.00000000E+00
  0.00000000E+00  0.00000000E+00  0.00000000E+00
  0.00000000E+00  0.00000000E+00  0.00000000E+00
  0.00000000E+00  0.00000000E+00  0.00000000E+00
  0.00000000E+00  0.00000000E+00  0.00000000E+00
  0.00000000E+00  0.00000000E+00  0.00000000E+00
  0.00000000E+00  0.00000000E+00  0.00000000E+00
  0.00000000E+00  0.00000000E+00  0.00000000E+00
  0.00000000E+00  0.00000000E+00  0.00000000E+00
  0.00000000E+00  0.00000000E+00  0.00000000E+00
