Title                                   
   1.00000000000000     
     9.8694509999999998    0.0000000000000000    0.0000000000000000
     0.0000000000000000    8.5490480000000009    0.0000000000000000
     0.0000000000000000    0.0000000000000000   20.0000000000000000
    23     7     1
Selective dynamics
Direct
  0.0557875134598383  0.0903782186006558  0.0933589878750620   T   T   T
  0.9316501171073333  0.1731606140463145  0.0938227763254598   T   T   T
  0.0572635938638845  0.9208791287000336  0.0932427878410714   T   T   T
  0.9326339023975283  0.3395339518749984  0.0942492768405128   T   T   T
  0.0563031482131270  0.5906515429032232  0.0933647411836082   T   T   T
  0.0561226142363332  0.4236636075109079  0.0936175391808362   T   T   T
  0.9316738430574414  0.8389132630741686  0.0934065521282028   T   T   T
  0.3081017667298911  0.0888470261241691  0.0939811385106631   T   T   T
  0.1811328647584455  0.1721408860145568  0.0938921551418487   T   T   T
  0.1806645012957517  0.3394965290955144  0.0943026343070445   T   T   T
  0.3047312896498965  0.5899291541438655  0.0960742884186537   T   T   T
  0.1794995934080395  0.6725945743799009  0.0940656429026284   T   T   T
  0.3061658035199719  0.4212952716023371  0.0960842132293871   T   T   T
  0.1812714141358885  0.8408058199561748  0.0936286815941080   T   T   T
  0.4293855088250257  0.1734128194014244  0.0958004839086757   T   T   T
  0.5552130175675473  0.9201143793910960  0.0964676187893939   T   T   T
  0.4284830887295349  0.8386253904358598  0.0962668246030354   T   T   T
  0.8047660690291697  0.0891105020876107  0.0939412795208612   T   T   T
  0.6832862989417195  0.1764981656411633  0.0962224939111466   T   T   T
  0.8068305287772267  0.9209762714899682  0.0937615886748118   T   T   T
  0.8081563519124988  0.5905402367144649  0.0963345614815217   T   T   T
  0.8080078209281790  0.4225761049487867  0.0967878108177362   T   T   T
  0.6817616515855593  0.8365047295873750  0.0962437479593373   T   T   T
  0.9324611994881565  0.6717118616585156  0.0930284335911149   T   T   T
  0.5569421988782951  0.0948350091087834  0.0960952564174495   T   T   T
  0.4266175320789040  0.3357583046947641  0.0991091866202041   T   T   T
  0.4242233989105521  0.6777549264447871  0.1003344664190680   T   T   T
  0.6860313905755697  0.3384052273161964  0.1006559010694705   T   T   T
  0.6889677771759974  0.6735340130723102  0.1003507303328800   T   T   T
  0.3054900968664814  0.9218316206047937  0.0933235761514033   T   T   T
  0.5535101038962117  0.5063958493752778  0.1391496242528608   T   T   T
 
  0.00000000E+00  0.00000000E+00  0.00000000E+00
  0.00000000E+00  0.00000000E+00  0.00000000E+00
  0.00000000E+00  0.00000000E+00  0.00000000E+00
  0.00000000E+00  0.00000000E+00  0.00000000E+00
  0.00000000E+00  0.00000000E+00  0.00000000E+00
  0.00000000E+00  0.00000000E+00  0.00000000E+00
  0.00000000E+00  0.00000000E+00  0.00000000E+00
  0.00000000E+00  0.00000000E+00  0.00000000E+00
  0.00000000E+00  0.00000000E+00  0.00000000E+00
  0.00000000E+00  0.00000000E+00  0.00000000E+00
  0.00000000E+00  0.00000000E+00  0.00000000E+00
  0.00000000E+00  0.00000000E+00  0.00000000E+00
  0.00000000E+00  0.00000000E+00  0.00000000E+00
  0.00000000E+00  0.00000000E+00  0.00000000E+00
  0.00000000E+00  0.00000000E+00  0.00000000E+00
  0.00000000E+00  0.00000000E+00  0.00000000E+00
  0.00000000E+00  0.00000000E+00  0.00000000E+00
  0.00000000E+00  0.00000000E+00  0.00000000E+00
  0.00000000E+00  0.00000000E+00  0.00000000E+00
  0.00000000E+00  0.00000000E+00  0.00000000E+00
  0.00000000E+00  0.00000000E+00  0.00000000E+00
  0.00000000E+00  0.00000000E+00  0.00000000E+00
  0.00000000E+00  0.00000000E+00  0.00000000E+00
  0.00000000E+00  0.00000000E+00  0.00000000E+00
  0.00000000E+00  0.00000000E+00  0.00000000E+00
  0.00000000E+00  0.00000000E+00  0.00000000E+00
  0.00000000E+00  0.00000000E+00  0.00000000E+00
  0.00000000E+00  0.00000000E+00  0.00000000E+00
  0.00000000E+00  0.00000000E+00  0.00000000E+00
  0.00000000E+00  0.00000000E+00  0.00000000E+00
  0.00000000E+00  0.00000000E+00  0.00000000E+00
