Title                                   
   1.00000000000000     
     4.9440799999999996    0.0000000000000000    0.0000000000000000
     0.0000000000000000   17.1295089999999988    0.0000000000000000
     0.0000000000000000    0.0000000000000000   20.0000000000000000
    28     2     1
Selective dynamics
Direct
  0.0005322319854054  0.1057978279893973  0.2953243509444525   T   T   T
  0.2491302355527710  0.1483866464094515  0.2959065814668771   T   T   T
  0.2486323830567384  0.2329357726738506  0.2988126643986063   T   T   T
 -0.0014652422087539  0.2747979723623539  0.3032949407113916   T   T   T
 -0.0004887735076190  0.6001684262499073  0.3041104105387506   T   T   T
  0.2480922624605149  0.7276590858634123  0.2956313949076795   T   T   T
 -0.0007845862995993  0.8538935155834525  0.2944488622078667   T   T   T
  0.2494293564331177  0.8958500133484992  0.2941172048104171   T   T   T
  0.2496253017926984  0.9798009044338960  0.2941772613554948   T   T   T
 -0.0009687281639236  0.7700301506310937  0.2952948021717481   T   T   T
  0.4990739305143269  0.1061952900025786  0.2942822587760353   T   T   T
  0.7506766542948534  0.1477100545678862  0.2949168952294702   T   T   T
  0.7513767952414779  0.2314310702665327  0.2967378538168956   T   T   T
  0.4991266453258448  0.0221179878358630  0.2939002422698218   T   T   T
  0.7469475687668345  0.3927182081833488  0.3042091169884358   T   T   T
  0.7435370366301839  0.4770317245836584  0.3067742277410481   T   T   T
  0.5013363780770216  0.2727402511452005  0.2962842180092263   T   T   T
  0.4973729651673784  0.6029887704678077  0.2962642842819985   T   T   T
  0.7498799226526638  0.7275933269125687  0.2949994338044696   T   T   T
  0.4991420515903086  0.8536208194625702  0.2938330211863640   T   T   T
  0.7490483497935947  0.8959285453747750  0.2939231713583474   T   T   T
  0.7492310044023887  0.9799452706548151  0.2939496279509257   T   T   T
  0.4990722945467368  0.7695814083944496  0.2941281233669807   T   T   T
  0.7505460719198793  0.6435557011521662  0.2969509025707913   T   T   T
  0.2469227161763308  0.6439815976998816  0.2986435369915682   T   T   T
 -0.0001183045572632  0.0218412929990438  0.2944744398980826   T   T   T
  0.4996926754458423  0.5204100984157157  0.2986293134898594   T   T   T
 -0.0032594482939544  0.5169637786561455  0.3183393319472873   T   T   T
  0.5093503045551977  0.3530657627544731  0.2946236720547852   T   T   T
 -0.0122019263216634  0.3551941621404971  0.3157636547112010   T   T   T
  0.2915188729706694  0.4374065627847048  0.3423142000430737   T   T   T
 
  0.00000000E+00  0.00000000E+00  0.00000000E+00
  0.00000000E+00  0.00000000E+00  0.00000000E+00
  0.00000000E+00  0.00000000E+00  0.00000000E+00
  0.00000000E+00  0.00000000E+00  0.00000000E+00
  0.00000000E+00  0.00000000E+00  0.00000000E+00
  0.00000000E+00  0.00000000E+00  0.00000000E+00
  0.00000000E+00  0.00000000E+00  0.00000000E+00
  0.00000000E+00  0.00000000E+00  0.00000000E+00
  0.00000000E+00  0.00000000E+00  0.00000000E+00
  0.00000000E+00  0.00000000E+00  0.00000000E+00
  0.00000000E+00  0.00000000E+00  0.00000000E+00
  0.00000000E+00  0.00000000E+00  0.00000000E+00
  0.00000000E+00  0.00000000E+00  0.00000000E+00
  0.00000000E+00  0.00000000E+00  0.00000000E+00
  0.00000000E+00  0.00000000E+00  0.00000000E+00
  0.00000000E+00  0.00000000E+00  0.00000000E+00
  0.00000000E+00  0.00000000E+00  0.00000000E+00
  0.00000000E+00  0.00000000E+00  0.00000000E+00
  0.00000000E+00  0.00000000E+00  0.00000000E+00
  0.00000000E+00  0.00000000E+00  0.00000000E+00
  0.00000000E+00  0.00000000E+00  0.00000000E+00
  0.00000000E+00  0.00000000E+00  0.00000000E+00
  0.00000000E+00  0.00000000E+00  0.00000000E+00
  0.00000000E+00  0.00000000E+00  0.00000000E+00
  0.00000000E+00  0.00000000E+00  0.00000000E+00
  0.00000000E+00  0.00000000E+00  0.00000000E+00
  0.00000000E+00  0.00000000E+00  0.00000000E+00
  0.00000000E+00  0.00000000E+00  0.00000000E+00
  0.00000000E+00  0.00000000E+00  0.00000000E+00
  0.00000000E+00  0.00000000E+00  0.00000000E+00
  0.00000000E+00  0.00000000E+00  0.00000000E+00
