Title                                   
   1.00000000000000     
     4.9440799999999996    0.0000000000000000    0.0000000000000000
     0.0000000000000000   17.1295089999999988    0.0000000000000000
     0.0000000000000000    0.0000000000000000   20.0000000000000000
    27     3     1
Selective dynamics
Direct
  0.0012193641033103  0.1054777734520316  0.2977028015290526   T   T   T
  0.2508629633650313  0.1481518262585984  0.2984342963728188   T   T   T
  0.2512112138803210  0.2325452817447465  0.2998946675099122   T   T   T
 -0.0027745140093529  0.2725017071621943  0.3002386909422712   T   T   T
 -0.0039785853453880  0.6014386899112497  0.3013385413769622   T   T   T
  0.2480686588352358  0.7271850782099115  0.2991458567657147   T   T   T
 -0.0005063329647353  0.8536519093942935  0.2971776254752277   T   T   T
  0.2494518495164453  0.8956888769971821  0.2968252129919941   T   T   T
  0.2496929535117882  0.9793904895443071  0.2966482936069871   T   T   T
 -0.0007489937247766  0.7699707926089115  0.2983547114712597   T   T   T
  0.4992533454274046  0.1052625735263259  0.2978002738240589   T   T   T
  0.7499682270065738  0.1466307928670652  0.2983474421296339   T   T   T
  0.7500566451332321  0.2299894203796674  0.2997975046301461   T   T   T
  0.4993421397001023  0.0214757382257553  0.2968737653049288   T   T   T
  0.7562210325172081  0.3917904323916185  0.3024014122440988   T   T   T
  0.7547985581156175  0.4806948252864106  0.3028354146758939   T   T   T
  0.5043963053892770  0.2738348114979161  0.3009819468705267   T   T   T
  0.4995390204657458  0.6023635733754701  0.3017735941700607   T   T   T
  0.7493683695549599  0.7282744158451849  0.2991390933349134   T   T   T
  0.4989058931464611  0.8535436585601008  0.2972341677055584   T   T   T
  0.7493385017328507  0.8956330829435717  0.2967867551065885   T   T   T
  0.7497281528588720  0.9796110815269098  0.2965972242107121   T   T   T
  0.4985835417337305  0.7696666753799415  0.2984489177615179   T   T   T
  0.7480257153263291  0.6445749129718920  0.3007988261549946   T   T   T
  0.2482943859710870  0.6436078123810585  0.3007527606234611   T   T   T
  0.0004517918937669  0.0215812010815880  0.2968235190587400   T   T   T
  0.5134242459515356  0.5198508558181032  0.3032416886338711   T   T   T
  0.9892876895845927  0.5218321548969380  0.3020644799103719   T   T   T
  0.5195031427060035  0.3538080973761537  0.3031146009280632   T   T   T
 -0.0138046641979284  0.3521590457701631  0.3008286021244830   T   T   T
  0.2528263828147003  0.4391544126147352  0.3026573125551267   T   T   T
 
  0.00000000E+00  0.00000000E+00  0.00000000E+00
  0.00000000E+00  0.00000000E+00  0.00000000E+00
  0.00000000E+00  0.00000000E+00  0.00000000E+00
  0.00000000E+00  0.00000000E+00  0.00000000E+00
  0.00000000E+00  0.00000000E+00  0.00000000E+00
  0.00000000E+00  0.00000000E+00  0.00000000E+00
  0.00000000E+00  0.00000000E+00  0.00000000E+00
  0.00000000E+00  0.00000000E+00  0.00000000E+00
  0.00000000E+00  0.00000000E+00  0.00000000E+00
  0.00000000E+00  0.00000000E+00  0.00000000E+00
  0.00000000E+00  0.00000000E+00  0.00000000E+00
  0.00000000E+00  0.00000000E+00  0.00000000E+00
  0.00000000E+00  0.00000000E+00  0.00000000E+00
  0.00000000E+00  0.00000000E+00  0.00000000E+00
  0.00000000E+00  0.00000000E+00  0.00000000E+00
  0.00000000E+00  0.00000000E+00  0.00000000E+00
  0.00000000E+00  0.00000000E+00  0.00000000E+00
  0.00000000E+00  0.00000000E+00  0.00000000E+00
  0.00000000E+00  0.00000000E+00  0.00000000E+00
  0.00000000E+00  0.00000000E+00  0.00000000E+00
  0.00000000E+00  0.00000000E+00  0.00000000E+00
  0.00000000E+00  0.00000000E+00  0.00000000E+00
  0.00000000E+00  0.00000000E+00  0.00000000E+00
  0.00000000E+00  0.00000000E+00  0.00000000E+00
  0.00000000E+00  0.00000000E+00  0.00000000E+00
  0.00000000E+00  0.00000000E+00  0.00000000E+00
  0.00000000E+00  0.00000000E+00  0.00000000E+00
  0.00000000E+00  0.00000000E+00  0.00000000E+00
  0.00000000E+00  0.00000000E+00  0.00000000E+00
  0.00000000E+00  0.00000000E+00  0.00000000E+00
  0.00000000E+00  0.00000000E+00  0.00000000E+00
