Title                                   
   1.00000000000000     
     4.9440799999999996    0.0000000000000000    0.0000000000000000
     0.0000000000000000   17.1295089999999988    0.0000000000000000
     0.0000000000000000    0.0000000000000000   20.0000000000000000
    28     2     1
Selective dynamics
Direct
 -0.0095965405798994  0.1060672923902450  0.2950523963005376   T   T   T
  0.2383141197880463  0.1486749766750108  0.2958334672841693   T   T   T
  0.2331288663514919  0.2326869024366393  0.2991715035215722   T   T   T
 -0.0196151356043843  0.2745215386837886  0.3041288807789724   T   T   T
  0.0199654241770802  0.5998397740237023  0.2966234513154802   T   T   T
  0.2622008954968567  0.7262495214161804  0.2958961334202575   T   T   T
  0.0048829154837588  0.8529813359893638  0.2937599168946998   T   T   T
  0.2530078636550948  0.8954061129065877  0.2939836570669982   T   T   T
  0.2475601988982996  0.9795420773532491  0.2939404035420545   T   T   T
  0.0103461645003248  0.7687275905073813  0.2940869438599473   T   T   T
  0.4902804849231563  0.1062283889967520  0.2939799894689482   T   T   T
  0.7388848389126583  0.1483109708303869  0.2946559686037351   T   T   T
  0.7324076569628575  0.2325638662233752  0.2968549936070674   T   T   T
  0.4957378455378014  0.0219687499406528  0.2936634939277458   T   T   T
  0.7396239222649049  0.3942990510559248  0.3081537233857639   T   T   T
  0.7611535125561169  0.4806020440470600  0.3081174033789227   T   T   T
  0.4805482019886867  0.2750630970944958  0.2966144872280264   T   T   T
  0.5201327013125835  0.6004024365797009  0.3040144653759661   T   T   T
  0.7617712297484310  0.7266282233583874  0.2947415005387459   T   T   T
  0.5047692670163372  0.8530372778690861  0.2941929007241991   T   T   T
  0.7531204028070554  0.8953172571562863  0.2937322277761852   T   T   T
  0.7475309357002261  0.9796323164607882  0.2936828184602989   T   T   T
  0.5102002933632244  0.7688520002126077  0.2951468097558262   T   T   T
  0.7681628994927809  0.6423550811595867  0.2968421535842728   T   T   T
  0.2673199648558920  0.6422237825832193  0.2991364211881205   T   T   T
 -0.0041436817950591  0.0219140480505387  0.2941039089842631   T   T   T
  0.0078426073046758  0.5159641516891339  0.2971220440840234   T   T   T
  0.4929659713319183  0.3589275816843876  0.2970237779197225   T   T   T
  0.5258608353462405  0.5212565618300821  0.3176411627295441   T   T   T
 -0.0251418877927360  0.3536361619565730  0.3178249860812241   T   T   T
  0.2507842259955803  0.4374618288388223  0.3353380092126621   T   T   T
 
  0.00000000E+00  0.00000000E+00  0.00000000E+00
  0.00000000E+00  0.00000000E+00  0.00000000E+00
  0.00000000E+00  0.00000000E+00  0.00000000E+00
  0.00000000E+00  0.00000000E+00  0.00000000E+00
  0.00000000E+00  0.00000000E+00  0.00000000E+00
  0.00000000E+00  0.00000000E+00  0.00000000E+00
  0.00000000E+00  0.00000000E+00  0.00000000E+00
  0.00000000E+00  0.00000000E+00  0.00000000E+00
  0.00000000E+00  0.00000000E+00  0.00000000E+00
  0.00000000E+00  0.00000000E+00  0.00000000E+00
  0.00000000E+00  0.00000000E+00  0.00000000E+00
  0.00000000E+00  0.00000000E+00  0.00000000E+00
  0.00000000E+00  0.00000000E+00  0.00000000E+00
  0.00000000E+00  0.00000000E+00  0.00000000E+00
  0.00000000E+00  0.00000000E+00  0.00000000E+00
  0.00000000E+00  0.00000000E+00  0.00000000E+00
  0.00000000E+00  0.00000000E+00  0.00000000E+00
  0.00000000E+00  0.00000000E+00  0.00000000E+00
  0.00000000E+00  0.00000000E+00  0.00000000E+00
  0.00000000E+00  0.00000000E+00  0.00000000E+00
  0.00000000E+00  0.00000000E+00  0.00000000E+00
  0.00000000E+00  0.00000000E+00  0.00000000E+00
  0.00000000E+00  0.00000000E+00  0.00000000E+00
  0.00000000E+00  0.00000000E+00  0.00000000E+00
  0.00000000E+00  0.00000000E+00  0.00000000E+00
  0.00000000E+00  0.00000000E+00  0.00000000E+00
  0.00000000E+00  0.00000000E+00  0.00000000E+00
  0.00000000E+00  0.00000000E+00  0.00000000E+00
  0.00000000E+00  0.00000000E+00  0.00000000E+00
  0.00000000E+00  0.00000000E+00  0.00000000E+00
  0.00000000E+00  0.00000000E+00  0.00000000E+00
