Title                                   
   1.00000000000000     
     9.8694509999999998    0.0000000000000000    0.0000000000000000
     0.0000000000000000    8.5490480000000009    0.0000000000000000
     0.0000000000000000    0.0000000000000000   20.0000000000000000
    25     6     1
Selective dynamics
Direct
  0.0560550397150504  0.0918861968551364  0.0921648369383237   T   T   T
  0.9309566763871349  0.1748419547276708  0.0920848363996510   T   T   T
  0.0570662334183694  0.9238257166089560  0.0925508301509088   T   T   T
  0.9293364704929483  0.3427540181966156  0.0923600613414086   T   T   T
  0.0562926373230301  0.5921449517330104  0.0917923333894327   T   T   T
  0.0555660704484243  0.4250647537403790  0.0917036422656819   T   T   T
  0.9332470634869086  0.8395654679601227  0.0932447147281615   T   T   T
  0.3064297997519734  0.0885834477133661  0.0926099941496093   T   T   T
  0.1824827461015653  0.1743702770276494  0.0919536831958766   T   T   T
  0.1832882518752286  0.3419632720224461  0.0915193135582443   T   T   T
  0.3071348117589541  0.5923889435554036  0.0930845481175320   T   T   T
  0.1808535453077189  0.6750766858886063  0.0922483064936657   T   T   T
  0.3101556899797747  0.4239058446808889  0.0921063909742796   T   T   T
  0.1819878003453062  0.8417900830402033  0.0927521323430516   T   T   T
  0.5562699281733314  0.0837447690975526  0.0933579509049516   T   T   T
  0.5551359355951415  0.9166366509841322  0.0935567979560758   T   T   T
  0.4359242107546379  0.3347238221890144  0.0940263013148601   T   T   T
  0.4275188690232138  0.8336447952756620  0.0939113558216415   T   T   T
  0.8067561235670195  0.0886218746080782  0.0925170869848555   T   T   T
  0.6796972854465453  0.1695943957663440  0.0934309785826657   T   T   T
  0.8076309901867166  0.9224977501913988  0.0935487477343875   T   T   T
  0.6774663406711032  0.3374331303699988  0.0949695635061338   T   T   T
  0.8055387119910749  0.5961000613096470  0.0956425929269109   T   T   T
  0.8025798253111905  0.4259520447264280  0.0939545705823268   T   T   T
  0.6841280646879483  0.8362673485011501  0.0954461532348838   T   T   T
  0.4234542718541842  0.6793549586530204  0.0957721349267478   T   T   T
  0.5538596405252951  0.4090808431167839  0.0975547910524296   T   T   T
  0.6905809935673327  0.6768825428469811  0.0995574132712498   T   T   T
  0.3049737490427791  0.9248774596408844  0.0933318056496858   T   T   T
  0.4302112103307124  0.1659882549293642  0.0932343355440771   T   T   T
  0.9329632540709962  0.6743206888848960  0.0932338612757419   T   T   T
  0.5540967588083971  0.5863629951582113  0.1864529346845640   T   T   T
 
  0.00000000E+00  0.00000000E+00  0.00000000E+00
  0.00000000E+00  0.00000000E+00  0.00000000E+00
  0.00000000E+00  0.00000000E+00  0.00000000E+00
  0.00000000E+00  0.00000000E+00  0.00000000E+00
  0.00000000E+00  0.00000000E+00  0.00000000E+00
  0.00000000E+00  0.00000000E+00  0.00000000E+00
  0.00000000E+00  0.00000000E+00  0.00000000E+00
  0.00000000E+00  0.00000000E+00  0.00000000E+00
  0.00000000E+00  0.00000000E+00  0.00000000E+00
  0.00000000E+00  0.00000000E+00  0.00000000E+00
  0.00000000E+00  0.00000000E+00  0.00000000E+00
  0.00000000E+00  0.00000000E+00  0.00000000E+00
  0.00000000E+00  0.00000000E+00  0.00000000E+00
  0.00000000E+00  0.00000000E+00  0.00000000E+00
  0.00000000E+00  0.00000000E+00  0.00000000E+00
  0.00000000E+00  0.00000000E+00  0.00000000E+00
  0.00000000E+00  0.00000000E+00  0.00000000E+00
  0.00000000E+00  0.00000000E+00  0.00000000E+00
  0.00000000E+00  0.00000000E+00  0.00000000E+00
  0.00000000E+00  0.00000000E+00  0.00000000E+00
  0.00000000E+00  0.00000000E+00  0.00000000E+00
  0.00000000E+00  0.00000000E+00  0.00000000E+00
  0.00000000E+00  0.00000000E+00  0.00000000E+00
  0.00000000E+00  0.00000000E+00  0.00000000E+00
  0.00000000E+00  0.00000000E+00  0.00000000E+00
  0.00000000E+00  0.00000000E+00  0.00000000E+00
  0.00000000E+00  0.00000000E+00  0.00000000E+00
  0.00000000E+00  0.00000000E+00  0.00000000E+00
  0.00000000E+00  0.00000000E+00  0.00000000E+00
  0.00000000E+00  0.00000000E+00  0.00000000E+00
  0.00000000E+00  0.00000000E+00  0.00000000E+00
  0.00000000E+00  0.00000000E+00  0.00000000E+00
