Title                                   
   1.00000000000000     
     9.8694509999999998    0.0000000000000000    0.0000000000000000
     0.0000000000000000    8.5490480000000009    0.0000000000000000
     0.0000000000000000    0.0000000000000000   20.0000000000000000
    25     5     1
Selective dynamics
Direct
  0.0551550225767831  0.0886406983940921  0.0858729513828263   T   T   T
  0.9306823072785118  0.1714593563539265  0.0880688258101392   T   T   T
  0.0571908867990867  0.9215987615007901  0.0869149694280810   T   T   T
  0.9335267103167925  0.3388608044533968  0.0885897084972061   T   T   T
  0.0568366878078123  0.5902906625911997  0.0854483571390086   T   T   T
  0.0568807396407402  0.4239188005775493  0.0843230821563211   T   T   T
  0.9316433631221898  0.8381710822058871  0.0895091439788864   T   T   T
  0.3063541793903539  0.0886328041658017  0.0905708464564732   T   T   T
  0.1812011157575490  0.1716810280217584  0.0862290451982347   T   T   T
  0.1809572122081886  0.3396191921667803  0.0848186560248717   T   T   T
  0.3041849233007861  0.5903573559113876  0.0909740470634042   T   T   T
  0.1806101178689643  0.6735511717359081  0.0863710672291744   T   T   T
  0.3049032799208696  0.4210761940849000  0.0903297653699673   T   T   T
  0.1816258190035057  0.8401797401873227  0.0879003666078524   T   T   T
  0.4291033267928567  0.1757994782713427  0.0970961884629461   T   T   T
  0.5530732423871008  0.9218513874436337  0.1015573658678961   T   T   T
  0.4281751616656047  0.8370936725494661  0.0985522769487703   T   T   T
  0.8047525738206792  0.0887118106060121  0.0926613245931884   T   T   T
  0.6816726025403087  0.1769138278882386  0.1007209456379751   T   T   T
  0.8060587166574825  0.9206330789580583  0.0934017809257168   T   T   T
  0.6881751231173007  0.3409458536330740  0.1090201002496429   T   T   T
  0.8130938094211858  0.5923110737175949  0.1003111125503266   T   T   T
  0.6902579719006237  0.6720527296778327  0.1102516376626389   T   T   T
  0.8133114675938461  0.4210407925606952  0.0991080828782862   T   T   T
  0.6808984561476771  0.8372539430418064  0.1020086530476474   T   T   T
  0.9341316160339722  0.6727328336460929  0.0902729214988256   T   T   T
  0.5538255857874193  0.0936810874682310  0.1009219166472187   T   T   T
  0.4236903245688068  0.3360334932507530  0.1001224679792929   T   T   T
  0.4218274240597240  0.6767318848266883  0.1018454281576322   T   T   T
  0.3054230253140394  0.9227614163883076  0.0911380064675723   T   T   T
  0.5539122071992553  0.5062889837214755  0.1260539580820252   T   T   T
 
  0.00000000E+00  0.00000000E+00  0.00000000E+00
  0.00000000E+00  0.00000000E+00  0.00000000E+00
  0.00000000E+00  0.00000000E+00  0.00000000E+00
  0.00000000E+00  0.00000000E+00  0.00000000E+00
  0.00000000E+00  0.00000000E+00  0.00000000E+00
  0.00000000E+00  0.00000000E+00  0.00000000E+00
  0.00000000E+00  0.00000000E+00  0.00000000E+00
  0.00000000E+00  0.00000000E+00  0.00000000E+00
  0.00000000E+00  0.00000000E+00  0.00000000E+00
  0.00000000E+00  0.00000000E+00  0.00000000E+00
  0.00000000E+00  0.00000000E+00  0.00000000E+00
  0.00000000E+00  0.00000000E+00  0.00000000E+00
  0.00000000E+00  0.00000000E+00  0.00000000E+00
  0.00000000E+00  0.00000000E+00  0.00000000E+00
  0.00000000E+00  0.00000000E+00  0.00000000E+00
  0.00000000E+00  0.00000000E+00  0.00000000E+00
  0.00000000E+00  0.00000000E+00  0.00000000E+00
  0.00000000E+00  0.00000000E+00  0.00000000E+00
  0.00000000E+00  0.00000000E+00  0.00000000E+00
  0.00000000E+00  0.00000000E+00  0.00000000E+00
  0.00000000E+00  0.00000000E+00  0.00000000E+00
  0.00000000E+00  0.00000000E+00  0.00000000E+00
  0.00000000E+00  0.00000000E+00  0.00000000E+00
  0.00000000E+00  0.00000000E+00  0.00000000E+00
  0.00000000E+00  0.00000000E+00  0.00000000E+00
  0.00000000E+00  0.00000000E+00  0.00000000E+00
  0.00000000E+00  0.00000000E+00  0.00000000E+00
  0.00000000E+00  0.00000000E+00  0.00000000E+00
  0.00000000E+00  0.00000000E+00  0.00000000E+00
  0.00000000E+00  0.00000000E+00  0.00000000E+00
  0.00000000E+00  0.00000000E+00  0.00000000E+00
