Title                                   
   1.00000000000000     
     8.5490480000000009    0.0000000000000000    0.0000000000000000
     0.0000000000000000    8.5490480000000009    0.0000000000000000
     0.0000000000000000    0.0000000000000000   20.0000000000000000
    20     4     1
Selective dynamics
Direct
  0.9090479045982790  0.2065113291102525  0.0954576690316249   T   T   T
  0.9066913624641145  0.5018128865348561  0.0953112228255160   T   T   T
  0.9090615609550905  0.7970749705944319  0.0954689084134555   T   T   T
  0.1977584148030301  0.0857230080035915  0.0954898057712886   T   T   T
  0.0769762241810648  0.2064864621018284  0.0954721020236808   T   T   T
  0.1977760182731489  0.9178019921937549  0.0954953592732365   T   T   T
  0.1601776572491987  0.6491388359034016  0.0953363458608327   T   T   T
  0.0793834603235053  0.5017863848940708  0.0953299616502232   T   T   T
  0.1601545194947458  0.3544091413921492  0.0953234039408837   T   T   T
  0.0769971313097222  0.7970477314813890  0.0954785452619368   T   T   T
  0.4929936356001925  0.0881375474722009  0.0953530691607202   T   T   T
  0.3456559416576572  0.1689223115734325  0.0953542071340607   T   T   T
  0.4930002658347470  0.9154606207027378  0.0953607124836324   T   T   T
  0.3456779079639066  0.8346357760287115  0.0953587731083120   T   T   T
  0.7882616521634911  0.0857685890684772  0.0954742123791277   T   T   T
  0.6403409841111035  0.1689589174385638  0.0953234782953088   T   T   T
  0.7882769897823516  0.9178393774568641  0.0954766116364333   T   T   T
  0.8258785763183264  0.6491648588752189  0.0953161515248156   T   T   T
  0.8258814038815654  0.3544555639099049  0.0953022165470016   T   T   T
  0.6403478072571391  0.8346643693670462  0.0953343575842152   T   T   T
  0.3236343847612034  0.3323775587314465  0.0951956295511499   T   T   T
  0.3236598762550093  0.6711750345564299  0.0952086816786783   T   T   T
  0.6623910935447593  0.3324176937191649  0.0951715962844457   T   T   T
  0.6623888561050866  0.6712023253641730  0.0951878878992325   T   T   T
  0.4929983711115541  0.5018167135259145  0.0951240906801652   T   T   T
 
  0.00000000E+00  0.00000000E+00  0.00000000E+00
  0.00000000E+00  0.00000000E+00  0.00000000E+00
  0.00000000E+00  0.00000000E+00  0.00000000E+00
  0.00000000E+00  0.00000000E+00  0.00000000E+00
  0.00000000E+00  0.00000000E+00  0.00000000E+00
  0.00000000E+00  0.00000000E+00  0.00000000E+00
  0.00000000E+00  0.00000000E+00  0.00000000E+00
  0.00000000E+00  0.00000000E+00  0.00000000E+00
  0.00000000E+00  0.00000000E+00  0.00000000E+00
  0.00000000E+00  0.00000000E+00  0.00000000E+00
  0.00000000E+00  0.00000000E+00  0.00000000E+00
  0.00000000E+00  0.00000000E+00  0.00000000E+00
  0.00000000E+00  0.00000000E+00  0.00000000E+00
  0.00000000E+00  0.00000000E+00  0.00000000E+00
  0.00000000E+00  0.00000000E+00  0.00000000E+00
  0.00000000E+00  0.00000000E+00  0.00000000E+00
  0.00000000E+00  0.00000000E+00  0.00000000E+00
  0.00000000E+00  0.00000000E+00  0.00000000E+00
  0.00000000E+00  0.00000000E+00  0.00000000E+00
  0.00000000E+00  0.00000000E+00  0.00000000E+00
  0.00000000E+00  0.00000000E+00  0.00000000E+00
  0.00000000E+00  0.00000000E+00  0.00000000E+00
  0.00000000E+00  0.00000000E+00  0.00000000E+00
  0.00000000E+00  0.00000000E+00  0.00000000E+00
  0.00000000E+00  0.00000000E+00  0.00000000E+00
