Title                                   
   1.00000000000000     
     9.8694509999999998    0.0000000000000000    0.0000000000000000
     0.0000000000000000    8.5490480000000009    0.0000000000000000
     0.0000000000000000    0.0000000000000000   20.0000000000000000
    28     3     1
Selective dynamics
Direct
  0.0562514514884358  0.0911340669264463  0.0886953470238548   T   T   T
  0.9303748769729157  0.1740689344901367  0.0903865107642959   T   T   T
  0.0562163080183906  0.9231675112409269  0.0873615680904774   T   T   T
  0.9302254336596700  0.3405595098429815  0.0927351434911197   T   T   T
  0.0562670676283898  0.5902202649380770  0.0890586742286685   T   T   T
  0.9313167932729925  0.6716045726801247  0.0894420009771410   T   T   T
  0.0562270111389302  0.4231124397830532  0.0915775412575274   T   T   T
  0.9306591212235864  0.8389801755665298  0.0883620718164051   T   T   T
  0.3058347279099609  0.0888196480300443  0.0897682116858255   T   T   T
  0.1821620253732654  0.1740398135824703  0.0900621213454973   T   T   T
  0.3070343068764944  0.9234826785244385  0.0893719937868973   T   T   T
  0.1822158155541257  0.3405211862079161  0.0922961606714462   T   T   T
  0.3073549837692325  0.5897020177835187  0.0949198250239199   T   T   T
  0.1812181191154902  0.6715818523265398  0.0888086159803090   T   T   T
  0.1818405471016774  0.8390071710544046  0.0878927124256538   T   T   T
  0.5562263629853881  0.0878755309461566  0.0938863405241652   T   T   T
  0.4310241094161729  0.1712791899986149  0.0928658738749874   T   T   T
  0.4326374433644929  0.3379438660563894  0.0976028149741772   T   T   T
  0.4311989147196617  0.8383730769656645  0.0953300700979789   T   T   T
  0.8066918013230531  0.0888643125883410  0.0900674083087981   T   T   T
  0.6814277423068505  0.1713259627665512  0.0930161925043702   T   T   T
  0.8055281989514518  0.9235180359403700  0.0898290899674932   T   T   T
  0.6798016780861773  0.3380221478107573  0.0979277706152866   T   T   T
  0.8052756458263565  0.5898105858123130  0.0959287664043295   T   T   T
  0.6813740265088927  0.8384136205854927  0.0958205167289985   T   T   T
  0.4267273792979033  0.6756503922691121  0.1038228251564301   T   T   T
  0.5561687681455896  0.4157023277698246  0.1065480509234569   T   T   T
  0.6859248464075361  0.6758325918647082  0.1049513000940751   T   T   T
  0.5562610081839634  0.9216980063574657  0.0955719951698634   T   T   T
  0.3067293682345575  0.4226793452322999  0.0955087752461500   T   T   T
  0.8058107255569388  0.4227572761932681  0.0962953941442098   T   T   T
  0.5556323915814609  0.5904978878650632  0.1899633166962076   T   T   T
 
  0.00000000E+00  0.00000000E+00  0.00000000E+00
  0.00000000E+00  0.00000000E+00  0.00000000E+00
  0.00000000E+00  0.00000000E+00  0.00000000E+00
  0.00000000E+00  0.00000000E+00  0.00000000E+00
  0.00000000E+00  0.00000000E+00  0.00000000E+00
  0.00000000E+00  0.00000000E+00  0.00000000E+00
  0.00000000E+00  0.00000000E+00  0.00000000E+00
  0.00000000E+00  0.00000000E+00  0.00000000E+00
  0.00000000E+00  0.00000000E+00  0.00000000E+00
  0.00000000E+00  0.00000000E+00  0.00000000E+00
  0.00000000E+00  0.00000000E+00  0.00000000E+00
  0.00000000E+00  0.00000000E+00  0.00000000E+00
  0.00000000E+00  0.00000000E+00  0.00000000E+00
  0.00000000E+00  0.00000000E+00  0.00000000E+00
  0.00000000E+00  0.00000000E+00  0.00000000E+00
  0.00000000E+00  0.00000000E+00  0.00000000E+00
  0.00000000E+00  0.00000000E+00  0.00000000E+00
  0.00000000E+00  0.00000000E+00  0.00000000E+00
  0.00000000E+00  0.00000000E+00  0.00000000E+00
  0.00000000E+00  0.00000000E+00  0.00000000E+00
  0.00000000E+00  0.00000000E+00  0.00000000E+00
  0.00000000E+00  0.00000000E+00  0.00000000E+00
  0.00000000E+00  0.00000000E+00  0.00000000E+00
  0.00000000E+00  0.00000000E+00  0.00000000E+00
  0.00000000E+00  0.00000000E+00  0.00000000E+00
  0.00000000E+00  0.00000000E+00  0.00000000E+00
  0.00000000E+00  0.00000000E+00  0.00000000E+00
  0.00000000E+00  0.00000000E+00  0.00000000E+00
  0.00000000E+00  0.00000000E+00  0.00000000E+00
  0.00000000E+00  0.00000000E+00  0.00000000E+00
  0.00000000E+00  0.00000000E+00  0.00000000E+00
  0.00000000E+00  0.00000000E+00  0.00000000E+00
