Title                                   
   1.00000000000000     
     4.9440799999999996    0.0000000000000000    0.0000000000000000
     0.0000000000000000   17.1295089999999988    0.0000000000000000
     0.0000000000000000    0.0000000000000000   20.0000000000000000
    28     2     1
Selective dynamics
Direct
 -0.0043434071426170  0.1050517951228255  0.2912744814867370   T   T   T
  0.2436046577471312  0.1477287250957680  0.2941687466755578   T   T   T
  0.2412298310133561  0.2313579797009125  0.3013876755024346   T   T   T
 -0.0123141332711719  0.2727923167757033  0.3068422071672869   T   T   T
  0.0041828258396376  0.6032481690310458  0.3078154644836356   T   T   T
  0.2546270308646048  0.7272134216010783  0.2939971328872918   T   T   T
  0.0012977324991334  0.8534268900571249  0.2875632532233744   T   T   T
  0.2502066420524174  0.8956037181171046  0.2866633984565667   T   T   T
  0.2480316750852059  0.9793669849487039  0.2868318942173279   T   T   T
  0.0036550128232642  0.7695992967764080  0.2911043486744582   T   T   T
  0.4946401157525048  0.1054590809508252  0.2901783935895558   T   T   T
  0.7452621555443073  0.1468323407016396  0.2919915957157128   T   T   T
  0.7421015784673637  0.2302833543296214  0.2970017368311132   T   T   T
  0.4969334920161482  0.0215887893714284  0.2872412327921881   T   T   T
  0.7472521709641256  0.3932236567894333  0.3097093994758411   T   T   T
  0.7574906675397970  0.4820579880393250  0.3122803692379445   T   T   T
  0.4925708399726744  0.2730814144793441  0.2989929895243587   T   T   T
  0.5090310627783945  0.6012720570791393  0.3023181754042152   T   T   T
  0.7531922550783444  0.7282022292866626  0.2925296030940776   T   T   T
  0.5006263332505093  0.8535471264128679  0.2870054754962669   T   T   T
  0.7502162905947674  0.8954960548655122  0.2863268196701138   T   T   T
  0.7479510451375893  0.9794693371649646  0.2864562796031124   T   T   T
  0.5026339263937486  0.7698360533149262  0.2901037326422517   T   T   T
  0.7559606223029642  0.6448603998272323  0.2989336522801165   T   T   T
  0.2559530277336609  0.6438038510989760  0.3021938948089082   T   T   T
 -0.0024384032505788  0.0213561446482943  0.2878304188703699   T   T   T
 -0.0023385843731211  0.5219986566810324  0.3227749689637631   T   T   T
  0.5035943661796574  0.3559226392692028  0.2983568828140690   T   T   T
  0.5157613761413380  0.5210429079915184  0.3047109965828839   T   T   T
 -0.0178438183373928  0.3514836455299325  0.3222736623281003   T   T   T
  0.2812786126022380  0.4351349749414424  0.3682011175003190   T   T   T
 
  0.00000000E+00  0.00000000E+00  0.00000000E+00
  0.00000000E+00  0.00000000E+00  0.00000000E+00
  0.00000000E+00  0.00000000E+00  0.00000000E+00
  0.00000000E+00  0.00000000E+00  0.00000000E+00
  0.00000000E+00  0.00000000E+00  0.00000000E+00
  0.00000000E+00  0.00000000E+00  0.00000000E+00
  0.00000000E+00  0.00000000E+00  0.00000000E+00
  0.00000000E+00  0.00000000E+00  0.00000000E+00
  0.00000000E+00  0.00000000E+00  0.00000000E+00
  0.00000000E+00  0.00000000E+00  0.00000000E+00
  0.00000000E+00  0.00000000E+00  0.00000000E+00
  0.00000000E+00  0.00000000E+00  0.00000000E+00
  0.00000000E+00  0.00000000E+00  0.00000000E+00
  0.00000000E+00  0.00000000E+00  0.00000000E+00
  0.00000000E+00  0.00000000E+00  0.00000000E+00
  0.00000000E+00  0.00000000E+00  0.00000000E+00
  0.00000000E+00  0.00000000E+00  0.00000000E+00
  0.00000000E+00  0.00000000E+00  0.00000000E+00
  0.00000000E+00  0.00000000E+00  0.00000000E+00
  0.00000000E+00  0.00000000E+00  0.00000000E+00
  0.00000000E+00  0.00000000E+00  0.00000000E+00
  0.00000000E+00  0.00000000E+00  0.00000000E+00
  0.00000000E+00  0.00000000E+00  0.00000000E+00
  0.00000000E+00  0.00000000E+00  0.00000000E+00
  0.00000000E+00  0.00000000E+00  0.00000000E+00
  0.00000000E+00  0.00000000E+00  0.00000000E+00
  0.00000000E+00  0.00000000E+00  0.00000000E+00
  0.00000000E+00  0.00000000E+00  0.00000000E+00
  0.00000000E+00  0.00000000E+00  0.00000000E+00
  0.00000000E+00  0.00000000E+00  0.00000000E+00
  0.00000000E+00  0.00000000E+00  0.00000000E+00
