Title                                   
   1.00000000000000     
     8.5490480000000009    0.0000000000000000    0.0000000000000000
     0.0000000000000000    8.5490480000000009    0.0000000000000000
     0.0000000000000000    0.0000000000000000   20.0000000000000000
    21     3     1
Selective dynamics
Direct
  0.9087664208538143  0.2032384003351241  0.0950969129733483   T   T   T
  0.9044955601804738  0.5028199142140366  0.0964652659456977   T   T   T
  0.9110281131695923  0.8030886801890853  0.0951589443408305   T   T   T
  0.1962699231274478  0.0816480013125626  0.0948431145895336   T   T   T
  0.0738271737639281  0.2021073568490571  0.0950475023534779   T   T   T
  0.1560973470113504  0.6500100636906048  0.0967701851723013   T   T   T
  0.0737153609629055  0.5012938005249267  0.0967745339277358   T   T   T
  0.1541912705423734  0.3529809926561658  0.0969028092353175   T   T   T
  0.0776027842857962  0.7991477849820668  0.0950751504287748   T   T   T
  0.4943277316889889  0.0864263453640177  0.0965362093140864   T   T   T
  0.3451475960653496  0.1633429546807051  0.0966223338120663   T   T   T
  0.4939934048551488  0.9174435331180451  0.0965223950928010   T   T   T
  0.3458934480312247  0.8362194410991876  0.0966969583345855   T   T   T
  0.7887510099386194  0.0858754889994496  0.0953662690934853   T   T   T
  0.6423426132124549  0.1662556567786154  0.0966013709244961   T   T   T
  0.7898484166521349  0.9196908788285678  0.0953471842698666   T   T   T
  0.8285626117063993  0.6531487529338696  0.0965769782604408   T   T   T
  0.8262433964376431  0.3533136659753904  0.0963878627936851   T   T   T
  0.6427690915907264  0.8379845431199545  0.0966968451779935   T   T   T
  0.3200853385785469  0.3290525077817003  0.0999129625742912   T   T   T
  0.3216917000112570  0.6740305646767585  0.0988637226972126   T   T   T
  0.6671220852645631  0.3287511460788439  0.0980755026944278   T   T   T
  0.6685934216834659  0.6767152072046847  0.0984563656184809   T   T   T
  0.1964267825514475  0.9178073791603520  0.0947428389157393   T   T   T
  0.4976193978343408  0.5023969394462486  0.1281647814592971   T   T   T
 
  0.00000000E+00  0.00000000E+00  0.00000000E+00
  0.00000000E+00  0.00000000E+00  0.00000000E+00
  0.00000000E+00  0.00000000E+00  0.00000000E+00
  0.00000000E+00  0.00000000E+00  0.00000000E+00
  0.00000000E+00  0.00000000E+00  0.00000000E+00
  0.00000000E+00  0.00000000E+00  0.00000000E+00
  0.00000000E+00  0.00000000E+00  0.00000000E+00
  0.00000000E+00  0.00000000E+00  0.00000000E+00
  0.00000000E+00  0.00000000E+00  0.00000000E+00
  0.00000000E+00  0.00000000E+00  0.00000000E+00
  0.00000000E+00  0.00000000E+00  0.00000000E+00
  0.00000000E+00  0.00000000E+00  0.00000000E+00
  0.00000000E+00  0.00000000E+00  0.00000000E+00
  0.00000000E+00  0.00000000E+00  0.00000000E+00
  0.00000000E+00  0.00000000E+00  0.00000000E+00
  0.00000000E+00  0.00000000E+00  0.00000000E+00
  0.00000000E+00  0.00000000E+00  0.00000000E+00
  0.00000000E+00  0.00000000E+00  0.00000000E+00
  0.00000000E+00  0.00000000E+00  0.00000000E+00
  0.00000000E+00  0.00000000E+00  0.00000000E+00
  0.00000000E+00  0.00000000E+00  0.00000000E+00
  0.00000000E+00  0.00000000E+00  0.00000000E+00
  0.00000000E+00  0.00000000E+00  0.00000000E+00
  0.00000000E+00  0.00000000E+00  0.00000000E+00
  0.00000000E+00  0.00000000E+00  0.00000000E+00
