Title                                   
   1.00000000000000     
     9.8694509999999998    0.0000000000000000    0.0000000000000000
     0.0000000000000000    8.5490480000000009    0.0000000000000000
     0.0000000000000000    0.0000000000000000   20.0000000000000000
    28     3     1
Selective dynamics
Direct
  0.0559917055963741  0.0917287282966397  0.0828745715491429   T   T   T
  0.9313477344899600  0.1734455171894393  0.0841879785773585   T   T   T
  0.0568592444084614  0.9244135010171169  0.0832848586434282   T   T   T
  0.9307551319451772  0.3404814203860809  0.0877778225521323   T   T   T
  0.0572562336160532  0.5901659106713057  0.0849677781943630   T   T   T
  0.9325810204285935  0.6727374813339331  0.0882507520467852   T   T   T
  0.0575020972793782  0.4231602522161233  0.0861665892416318   T   T   T
  0.9320193120843298  0.8396888891893964  0.0857993660827040   T   T   T
  0.3054326844537019  0.0886639080973033  0.0873154977020716   T   T   T
  0.1821406217954588  0.1735665723717014  0.0850803414498168   T   T   T
  0.1843015601002935  0.3411232813473826  0.0874931713894491   T   T   T
  0.3041707543697549  0.5932402082860189  0.0977521514845072   T   T   T
  0.1813960025008267  0.6749736048406232  0.0869991072308607   T   T   T
  0.3101946308614657  0.4257416724893475  0.0957239172344617   T   T   T
  0.1805616317824083  0.8415940137673067  0.0861347606090674   T   T   T
  0.5558499066150194  0.0850594452855783  0.0928302852051329   T   T   T
  0.4308423204022551  0.1691842524712950  0.0919063992571633   T   T   T
  0.5540322454039531  0.9194821162041007  0.0984052183208579   T   T   T
  0.4330774127946648  0.3337103976233001  0.0997311322139483   T   T   T
  0.4253677181719019  0.8410981937260986  0.1006470518197761   T   T   T
  0.8066178873302132  0.0889072927477483  0.0853865928275871   T   T   T
  0.6809530203126400  0.1688178482331238  0.0906889919918360   T   T   T
  0.8064875450751510  0.9230050888807140  0.0880543826796172   T   T   T
  0.6804214720513090  0.3335312990338226  0.0998654725058484   T   T   T
  0.8099594740854213  0.5900847803300022  0.1007316002546057   T   T   T
  0.6942327962788511  0.6802448579602660  0.1186214780089277   T   T   T
  0.8053423171115000  0.4222386637689827  0.0971741687786753   T   T   T
  0.6832914236315234  0.8402558655120392  0.1006084092489287   T   T   T
  0.4147581383700635  0.6855397265400016  0.1165848222447814   T   T   T
  0.5572776122056758  0.4024508086264640  0.1155624250401422   T   T   T
  0.3046848553637775  0.9246288458827400  0.0890599419135569   T   T   T
  0.5539324890838490  0.5872815556740124  0.1700079637008690   T   T   T
 
  0.00000000E+00  0.00000000E+00  0.00000000E+00
  0.00000000E+00  0.00000000E+00  0.00000000E+00
  0.00000000E+00  0.00000000E+00  0.00000000E+00
  0.00000000E+00  0.00000000E+00  0.00000000E+00
  0.00000000E+00  0.00000000E+00  0.00000000E+00
  0.00000000E+00  0.00000000E+00  0.00000000E+00
  0.00000000E+00  0.00000000E+00  0.00000000E+00
  0.00000000E+00  0.00000000E+00  0.00000000E+00
  0.00000000E+00  0.00000000E+00  0.00000000E+00
  0.00000000E+00  0.00000000E+00  0.00000000E+00
  0.00000000E+00  0.00000000E+00  0.00000000E+00
  0.00000000E+00  0.00000000E+00  0.00000000E+00
  0.00000000E+00  0.00000000E+00  0.00000000E+00
  0.00000000E+00  0.00000000E+00  0.00000000E+00
  0.00000000E+00  0.00000000E+00  0.00000000E+00
  0.00000000E+00  0.00000000E+00  0.00000000E+00
  0.00000000E+00  0.00000000E+00  0.00000000E+00
  0.00000000E+00  0.00000000E+00  0.00000000E+00
  0.00000000E+00  0.00000000E+00  0.00000000E+00
  0.00000000E+00  0.00000000E+00  0.00000000E+00
  0.00000000E+00  0.00000000E+00  0.00000000E+00
  0.00000000E+00  0.00000000E+00  0.00000000E+00
  0.00000000E+00  0.00000000E+00  0.00000000E+00
  0.00000000E+00  0.00000000E+00  0.00000000E+00
  0.00000000E+00  0.00000000E+00  0.00000000E+00
  0.00000000E+00  0.00000000E+00  0.00000000E+00
  0.00000000E+00  0.00000000E+00  0.00000000E+00
  0.00000000E+00  0.00000000E+00  0.00000000E+00
  0.00000000E+00  0.00000000E+00  0.00000000E+00
  0.00000000E+00  0.00000000E+00  0.00000000E+00
  0.00000000E+00  0.00000000E+00  0.00000000E+00
  0.00000000E+00  0.00000000E+00  0.00000000E+00
