Title                                   
   1.00000000000000     
     9.8694509999999998    0.0000000000000000    0.0000000000000000
     0.0000000000000000    8.5490480000000009    0.0000000000000000
     0.0000000000000000    0.0000000000000000   20.0000000000000000
    26     4     1
Selective dynamics
Direct
  0.0555204796373339  0.0892866788544709  0.0885083662582281   T   T   T
  0.9309469284908886  0.1725909584428216  0.0890008144004450   T   T   T
  0.0571248702015326  0.9235699165092675  0.0888082659796697   T   T   T
  0.9341685669395089  0.3401986484790769  0.0877205215375760   T   T   T
  0.0567219351442226  0.5899426398529162  0.0859357039771027   T   T   T
  0.9341085995042127  0.6742510215167233  0.0881288562442644   T   T   T
  0.0572776895453743  0.4229360036417161  0.0857729119949886   T   T   T
  0.9327218519534212  0.8408326003457632  0.0895835624823930   T   T   T
  0.3060670137573224  0.0873717287949508  0.0947403416238799   T   T   T
  0.1811873445330175  0.1707343542087148  0.0901661662625948   T   T   T
  0.1798457065584968  0.3368114128160209  0.0891978946707311   T   T   T
  0.3016223253920809  0.5873047035280514  0.0969657825745801   T   T   T
  0.1799718190234652  0.6738557334800560  0.0895142561810315   T   T   T
  0.3010498146686453  0.4188806049775718  0.0961254311925655   T   T   T
  0.1820185661728169  0.8396059355697560  0.0904550256754898   T   T   T
  0.4296012134798710  0.1736576376774765  0.1001085580489251   T   T   T
  0.5556579122581600  0.9214625375024597  0.1014272884071481   T   T   T
  0.4196871206070242  0.6764398216682338  0.1062460482550559   T   T   T
  0.4286485499788660  0.8384849774174055  0.1018712988356128   T   T   T
  0.8052795126689772  0.0885589989344527  0.0929638902992736   T   T   T
  0.6810569980967542  0.1762503834148590  0.0984083133013148   T   T   T
  0.8068529665418345  0.9230725178339710  0.0934468939463464   T   T   T
  0.6904670659492099  0.3377556807953406  0.1010127052168011   T   T   T
  0.8121626542319191  0.5927031159274698  0.0932999920186875   T   T   T
  0.8117866429470301  0.4241948907955192  0.0931326636238762   T   T   T
  0.6817004315354661  0.8374833168681288  0.0990579799077941   T   T   T
  0.5554169915760638  0.0927086334734228  0.1008635218183419   T   T   T
  0.4208333344713466  0.3338054447372061  0.1032640646333494   T   T   T
  0.6921567712673737  0.6752748189599709  0.1007749323601247   T   T   T
  0.3052273972228743  0.9237148943617733  0.0947803822365970   T   T   T
  0.5562459256448928  0.5071343886144598  0.1096825660352455   T   T   T
 
  0.00000000E+00  0.00000000E+00  0.00000000E+00
  0.00000000E+00  0.00000000E+00  0.00000000E+00
  0.00000000E+00  0.00000000E+00  0.00000000E+00
  0.00000000E+00  0.00000000E+00  0.00000000E+00
  0.00000000E+00  0.00000000E+00  0.00000000E+00
  0.00000000E+00  0.00000000E+00  0.00000000E+00
  0.00000000E+00  0.00000000E+00  0.00000000E+00
  0.00000000E+00  0.00000000E+00  0.00000000E+00
  0.00000000E+00  0.00000000E+00  0.00000000E+00
  0.00000000E+00  0.00000000E+00  0.00000000E+00
  0.00000000E+00  0.00000000E+00  0.00000000E+00
  0.00000000E+00  0.00000000E+00  0.00000000E+00
  0.00000000E+00  0.00000000E+00  0.00000000E+00
  0.00000000E+00  0.00000000E+00  0.00000000E+00
  0.00000000E+00  0.00000000E+00  0.00000000E+00
  0.00000000E+00  0.00000000E+00  0.00000000E+00
  0.00000000E+00  0.00000000E+00  0.00000000E+00
  0.00000000E+00  0.00000000E+00  0.00000000E+00
  0.00000000E+00  0.00000000E+00  0.00000000E+00
  0.00000000E+00  0.00000000E+00  0.00000000E+00
  0.00000000E+00  0.00000000E+00  0.00000000E+00
  0.00000000E+00  0.00000000E+00  0.00000000E+00
  0.00000000E+00  0.00000000E+00  0.00000000E+00
  0.00000000E+00  0.00000000E+00  0.00000000E+00
  0.00000000E+00  0.00000000E+00  0.00000000E+00
  0.00000000E+00  0.00000000E+00  0.00000000E+00
  0.00000000E+00  0.00000000E+00  0.00000000E+00
  0.00000000E+00  0.00000000E+00  0.00000000E+00
  0.00000000E+00  0.00000000E+00  0.00000000E+00
  0.00000000E+00  0.00000000E+00  0.00000000E+00
  0.00000000E+00  0.00000000E+00  0.00000000E+00
