Title                                   
   1.00000000000000     
     4.9440799999999996    0.0000000000000000    0.0000000000000000
     0.0000000000000000    8.5647549999999999    0.0000000000000000
     0.0000000000000000    0.0000000000000000   20.0000000000000000
    14     1     1
Selective dynamics
Direct
  0.2500000000000000  0.2063210862522168  0.0884463451782328   T   T   T
 -0.0027676622636309  0.2869804985056649  0.0933750127724783   T   T   T
  0.2500000000000000  0.0417293127722769  0.0826309866916009   T   T   T
 -0.0000605113424833  0.7981658379368475  0.0992995787881546   T   T   T
 -0.0008734382366240  0.9585502083364456  0.0834861401628206   T   T   T
  0.7500000000000000  0.2056094553285083  0.0830111970979435   T   T   T
  0.5027676622636310  0.2869804985056649  0.0933750127724783   T   T   T
  0.7500000000000000  0.0403698726623358  0.0784115675959254   T   T   T
  0.7500000000000000  0.7090856272694890  0.1057389888439275   T   T   T
  0.5000605113424831  0.7981658379368475  0.0992995787881546   T   T   T
  0.7500000000000000  0.5390430887621679  0.1117142572682276   T   T   T
  0.5008734382366241  0.9585502083364456  0.0834861401628206   T   T   T
  0.5094652957685997  0.4454000206486345  0.1138660192790733   T   T   T
 -0.0094652957685995  0.4454000206486345  0.1138660192790733   T   T   T
  0.2500000000000000  0.7325045042601178  0.1163989811188361   T   T   T
  0.2500000000000000  0.5471439218377030  0.1761061742002603   T   T   T
 
  0.00000000E+00  0.00000000E+00  0.00000000E+00
  0.00000000E+00  0.00000000E+00  0.00000000E+00
  0.00000000E+00  0.00000000E+00  0.00000000E+00
  0.00000000E+00  0.00000000E+00  0.00000000E+00
  0.00000000E+00  0.00000000E+00  0.00000000E+00
  0.00000000E+00  0.00000000E+00  0.00000000E+00
  0.00000000E+00  0.00000000E+00  0.00000000E+00
  0.00000000E+00  0.00000000E+00  0.00000000E+00
  0.00000000E+00  0.00000000E+00  0.00000000E+00
  0.00000000E+00  0.00000000E+00  0.00000000E+00
  0.00000000E+00  0.00000000E+00  0.00000000E+00
  0.00000000E+00  0.00000000E+00  0.00000000E+00
  0.00000000E+00  0.00000000E+00  0.00000000E+00
  0.00000000E+00  0.00000000E+00  0.00000000E+00
  0.00000000E+00  0.00000000E+00  0.00000000E+00
  0.00000000E+00  0.00000000E+00  0.00000000E+00
