Title                                   
   1.00000000000000     
     9.8694509999999998    0.0000000000000000    0.0000000000000000
     0.0000000000000000    8.5490480000000009    0.0000000000000000
     0.0000000000000000    0.0000000000000000   20.0000000000000000
    29     2     1
Selective dynamics
Direct
  0.0564096092463994  0.0914185510872899  0.0815688073788267   T   T   T
  0.9311930701029341  0.1738107574964922  0.0836343441304003   T   T   T
  0.0557090217624253  0.9241205010352895  0.0821814105058119   T   T   T
  0.9304540782828863  0.3401389231606936  0.0871038802610849   T   T   T
  0.0566959002672612  0.5892673043934836  0.0847527257171798   T   T   T
  0.9325943500561061  0.6727622477092389  0.0880357579626675   T   T   T
  0.0568543699328273  0.4232790576069048  0.0856908275503983   T   T   T
  0.9315934915752105  0.8399180459917067  0.0855127140092795   T   T   T
  0.3056766473227190  0.0900648065196379  0.0853642252762418   T   T   T
  0.1818551572777598  0.1746674105523891  0.0834571532502649   T   T   T
  0.3045084358307690  0.9240525870915214  0.0884361274128827   T   T   T
  0.1835244824617867  0.3416247883905590  0.0867705029407834   T   T   T
  0.3032339833034333  0.5933301043799813  0.0984976653764154   T   T   T
  0.1804366208983442  0.6740591126581288  0.0872316990079233   T   T   T
  0.3097425280406356  0.4251216277912426  0.0957068405631304   T   T   T
  0.1798609265075830  0.8408442788078748  0.0854710830435565   T   T   T
  0.5557242926019523  0.0850723469425525  0.0935766687937307   T   T   T
  0.4312445555784458  0.1701875128696248  0.0910373543064659   T   T   T
  0.5554229301401467  0.9193932094990672  0.0996133713800875   T   T   T
  0.4327586665671288  0.3339586137553102  0.0996135615180083   T   T   T
  0.4259460659930795  0.8413464512714811  0.1008477694727755   T   T   T
  0.8069975262327280  0.0893219394285523  0.0858222406338137   T   T   T
  0.6813508810436549  0.1690327188822141  0.0919223103714508   T   T   T
  0.8068107462126595  0.9234891289739475  0.0886026918259460   T   T   T
  0.6811862073110202  0.3326888680510274  0.1009075045693522   T   T   T
  0.8106389554129245  0.5899192623192010  0.1007539326951388   T   T   T
  0.6957674052982054  0.6810572128357650  0.1195923840920864   T   T   T
  0.8051712633401134  0.4224060229421085  0.0970856328649613   T   T   T
  0.6844017434547572  0.8416850509311733  0.1017882011025219   T   T   T
  0.4151137416063687  0.6833886837204765  0.1172790429473828   T   T   T
  0.5568066669088897  0.4012576501985798  0.1176760288347291   T   T   T
  0.5539546794288512  0.5875612227064946  0.1701405402047360   T   T   T
 
  0.00000000E+00  0.00000000E+00  0.00000000E+00
  0.00000000E+00  0.00000000E+00  0.00000000E+00
  0.00000000E+00  0.00000000E+00  0.00000000E+00
  0.00000000E+00  0.00000000E+00  0.00000000E+00
  0.00000000E+00  0.00000000E+00  0.00000000E+00
  0.00000000E+00  0.00000000E+00  0.00000000E+00
  0.00000000E+00  0.00000000E+00  0.00000000E+00
  0.00000000E+00  0.00000000E+00  0.00000000E+00
  0.00000000E+00  0.00000000E+00  0.00000000E+00
  0.00000000E+00  0.00000000E+00  0.00000000E+00
  0.00000000E+00  0.00000000E+00  0.00000000E+00
  0.00000000E+00  0.00000000E+00  0.00000000E+00
  0.00000000E+00  0.00000000E+00  0.00000000E+00
  0.00000000E+00  0.00000000E+00  0.00000000E+00
  0.00000000E+00  0.00000000E+00  0.00000000E+00
  0.00000000E+00  0.00000000E+00  0.00000000E+00
  0.00000000E+00  0.00000000E+00  0.00000000E+00
  0.00000000E+00  0.00000000E+00  0.00000000E+00
  0.00000000E+00  0.00000000E+00  0.00000000E+00
  0.00000000E+00  0.00000000E+00  0.00000000E+00
  0.00000000E+00  0.00000000E+00  0.00000000E+00
  0.00000000E+00  0.00000000E+00  0.00000000E+00
  0.00000000E+00  0.00000000E+00  0.00000000E+00
  0.00000000E+00  0.00000000E+00  0.00000000E+00
  0.00000000E+00  0.00000000E+00  0.00000000E+00
  0.00000000E+00  0.00000000E+00  0.00000000E+00
  0.00000000E+00  0.00000000E+00  0.00000000E+00
  0.00000000E+00  0.00000000E+00  0.00000000E+00
  0.00000000E+00  0.00000000E+00  0.00000000E+00
  0.00000000E+00  0.00000000E+00  0.00000000E+00
  0.00000000E+00  0.00000000E+00  0.00000000E+00
  0.00000000E+00  0.00000000E+00  0.00000000E+00
