Title                                   
   1.00000000000000     
     8.5490480000000009    0.0000000000000000    0.0000000000000000
     0.0000000000000000    8.5490480000000009    0.0000000000000000
     0.0000000000000000    0.0000000000000000   20.0000000000000000
    19     5     1
Selective dynamics
Direct
  0.9090035878452751  0.2061292471040785  0.0970057595232780   T   T   T
  0.9110672995664665  0.8011249688383653  0.0968921460049768   T   T   T
  0.1963348665829686  0.0838752904939725  0.0970141865180295   T   T   T
  0.0754328037423116  0.2016191515842426  0.0968354505765642   T   T   T
  0.1548028197335613  0.6521455707909825  0.0976598017579173   T   T   T
  0.0748759579244138  0.5013443203914665  0.0974281762290801   T   T   T
  0.1546590340136089  0.3535226376555095  0.0972029900918171   T   T   T
  0.0784007917927859  0.7992897875825674  0.0970887243845443   T   T   T
  0.4940700483379655  0.0850974682031028  0.0977006564090390   T   T   T
  0.3451025725280084  0.1646388771773447  0.0974951773107589   T   T   T
  0.4935503789992889  0.9151737922327715  0.0976259800532871   T   T   T
  0.3424578255216967  0.8358218886227871  0.0978520357115502   T   T   T
  0.7884558954902030  0.0872043833880789  0.0971926659840650   T   T   T
  0.6422838461325161  0.1670815181500371  0.0979390616350919   T   T   T
  0.7895202807485661  0.9188360586794622  0.0970120790988631   T   T   T
  0.8305423250773243  0.6522954071751691  0.0972556810190663   T   T   T
  0.8285175756774564  0.3539941127377031  0.0975997180577683   T   T   T
  0.6437309369401958  0.8354353725861566  0.0974702747482105   T   T   T
  0.3214139418319175  0.3310185514547133  0.0978551141137299   T   T   T
  0.9065077425045446  0.5030619367322516  0.0974602720110917   T   T   T
  0.3170835399456680  0.6773368078329957  0.0985042914138743   T   T   T
  0.6675960171618065  0.3318758334397921  0.0987171029746224   T   T   T
  0.6710758091346710  0.6730189046485942  0.0977825079960830   T   T   T
  0.1972292295736019  0.9162861820640396  0.0972147890803309   T   T   T
  0.4916968731931705  0.4975619304338368  0.1039003572963333   T   T   T
 
  0.00000000E+00  0.00000000E+00  0.00000000E+00
  0.00000000E+00  0.00000000E+00  0.00000000E+00
  0.00000000E+00  0.00000000E+00  0.00000000E+00
  0.00000000E+00  0.00000000E+00  0.00000000E+00
  0.00000000E+00  0.00000000E+00  0.00000000E+00
  0.00000000E+00  0.00000000E+00  0.00000000E+00
  0.00000000E+00  0.00000000E+00  0.00000000E+00
  0.00000000E+00  0.00000000E+00  0.00000000E+00
  0.00000000E+00  0.00000000E+00  0.00000000E+00
  0.00000000E+00  0.00000000E+00  0.00000000E+00
  0.00000000E+00  0.00000000E+00  0.00000000E+00
  0.00000000E+00  0.00000000E+00  0.00000000E+00
  0.00000000E+00  0.00000000E+00  0.00000000E+00
  0.00000000E+00  0.00000000E+00  0.00000000E+00
  0.00000000E+00  0.00000000E+00  0.00000000E+00
  0.00000000E+00  0.00000000E+00  0.00000000E+00
  0.00000000E+00  0.00000000E+00  0.00000000E+00
  0.00000000E+00  0.00000000E+00  0.00000000E+00
  0.00000000E+00  0.00000000E+00  0.00000000E+00
  0.00000000E+00  0.00000000E+00  0.00000000E+00
  0.00000000E+00  0.00000000E+00  0.00000000E+00
  0.00000000E+00  0.00000000E+00  0.00000000E+00
  0.00000000E+00  0.00000000E+00  0.00000000E+00
  0.00000000E+00  0.00000000E+00  0.00000000E+00
  0.00000000E+00  0.00000000E+00  0.00000000E+00
