Title                                   
   1.00000000000000     
     4.9440799999999996    0.0000000000000000    0.0000000000000000
     0.0000000000000000   17.1295089999999988    0.0000000000000000
     0.0000000000000000    0.0000000000000000   20.0000000000000000
    29     1     1
Selective dynamics
Direct
 -0.0004639244198155  0.1042496126592196  0.2911980824263047   T   T   T
  0.2496687782096190  0.1464539785925557  0.2934440052045174   T   T   T
  0.2496708843834104  0.2293538524691981  0.3002886448443579   T   T   T
 -0.0012712794495092  0.2709711011696310  0.3057467657279293   T   T   T
 -0.0007257065699199  0.6044879139839939  0.3053313340319455   T   T   T
  0.2492734546566232  0.7275556381442636  0.2933098622436028   T   T   T
  0.0003870161893081  0.8532532973799705  0.2883895667530217   T   T   T
  0.2492987492239816  0.8953507388678128  0.2877736242242989   T   T   T
  0.2494249211465249  0.9788851252170641  0.2878526946779693   T   T   T
  0.0001059925920434  0.7695307949204041  0.2910061966645693   T   T   T
  0.4996070929896634  0.1042577973421813  0.2904000289663258   T   T   T
  0.7494940472804948  0.1459461240822921  0.2923093259362801   T   T   T
  0.7494975477968751  0.2294370647284306  0.2980272485681284   T   T   T
  0.4994245898436146  0.0207008979718996  0.2880864026580084   T   T   T
  0.7529144157939101  0.3950675640230319  0.3132863737472800   T   T   T
  0.7528940722862153  0.4829693036435356  0.3127159111559026   T   T   T
  0.4997479788964314  0.2720599949052969  0.3010721580752633   T   T   T
  0.4982811564160222  0.6032841762788472  0.3001996952310827   T   T   T
  0.7490892625500298  0.7286035204732952  0.2916272486615357   T   T   T
  0.4982262576656157  0.8532692720199296  0.2878966111240427   T   T   T
  0.7493684800898189  0.8948805637269347  0.2874524024677704   T   T   T
  0.7494326924071182  0.9786867383586737  0.2875697778096169   T   T   T
  0.4982778496055515  0.7695123641324149  0.2900615682331334   T   T   T
  0.7488621000595463  0.6460940053916783  0.2967991490874464   T   T   T
 -0.0005384004018298  0.0207197877204051  0.2885210257813796   T   T   T
  0.5026358555985652  0.5214760973794890  0.3052013768947890   T   T   T
 -0.0013664148750421  0.5245853684744841  0.3205124445653804   T   T   T
  0.5067362113531191  0.3549994298583058  0.3058321675725145   T   T   T
 -0.0035487237052394  0.3523536873237264  0.3197819066632872   T   T   T
  0.2490121971934729  0.6460391514553383  0.3001121135051329   T   T   T
  0.2665898451937821  0.4363070373056916  0.3632542864971343   T   T   T
 
  0.00000000E+00  0.00000000E+00  0.00000000E+00
  0.00000000E+00  0.00000000E+00  0.00000000E+00
  0.00000000E+00  0.00000000E+00  0.00000000E+00
  0.00000000E+00  0.00000000E+00  0.00000000E+00
  0.00000000E+00  0.00000000E+00  0.00000000E+00
  0.00000000E+00  0.00000000E+00  0.00000000E+00
  0.00000000E+00  0.00000000E+00  0.00000000E+00
  0.00000000E+00  0.00000000E+00  0.00000000E+00
  0.00000000E+00  0.00000000E+00  0.00000000E+00
  0.00000000E+00  0.00000000E+00  0.00000000E+00
  0.00000000E+00  0.00000000E+00  0.00000000E+00
  0.00000000E+00  0.00000000E+00  0.00000000E+00
  0.00000000E+00  0.00000000E+00  0.00000000E+00
  0.00000000E+00  0.00000000E+00  0.00000000E+00
  0.00000000E+00  0.00000000E+00  0.00000000E+00
  0.00000000E+00  0.00000000E+00  0.00000000E+00
  0.00000000E+00  0.00000000E+00  0.00000000E+00
  0.00000000E+00  0.00000000E+00  0.00000000E+00
  0.00000000E+00  0.00000000E+00  0.00000000E+00
  0.00000000E+00  0.00000000E+00  0.00000000E+00
  0.00000000E+00  0.00000000E+00  0.00000000E+00
  0.00000000E+00  0.00000000E+00  0.00000000E+00
  0.00000000E+00  0.00000000E+00  0.00000000E+00
  0.00000000E+00  0.00000000E+00  0.00000000E+00
  0.00000000E+00  0.00000000E+00  0.00000000E+00
  0.00000000E+00  0.00000000E+00  0.00000000E+00
  0.00000000E+00  0.00000000E+00  0.00000000E+00
  0.00000000E+00  0.00000000E+00  0.00000000E+00
  0.00000000E+00  0.00000000E+00  0.00000000E+00
  0.00000000E+00  0.00000000E+00  0.00000000E+00
  0.00000000E+00  0.00000000E+00  0.00000000E+00
