Title                                   
   1.00000000000000     
     9.8694509999999998    0.0000000000000000    0.0000000000000000
     0.0000000000000000    8.5490480000000009    0.0000000000000000
     0.0000000000000000    0.0000000000000000   20.0000000000000000
    28     2     1
Selective dynamics
Direct
  0.0560445436335040  0.0889083989671952  0.0933379551278822   T   T   T
  0.9315977559911660  0.1725030428889390  0.0937210248239012   T   T   T
  0.0564005801017155  0.9234108568237681  0.0933498700822759   T   T   T
  0.9346471579518911  0.3392234100580380  0.0936438954109817   T   T   T
  0.0559443830783591  0.5893421490631050  0.0930991052306009   T   T   T
  0.9343989425613120  0.6751322576275655  0.0935452420065407   T   T   T
  0.0565165822424421  0.4229629693864287  0.0930903323277916   T   T   T
  0.9328369268198323  0.8412828621239784  0.0936745002777538   T   T   T
  0.3051404019472189  0.0896093526072173  0.0947075785734078   T   T   T
  0.1796097001088711  0.1710467426893543  0.0937171535937140   T   T   T
  0.3054761656292946  0.9227307942621435  0.0947352097241517   T   T   T
  0.1780649356996534  0.3371911578630856  0.0936060457693990   T   T   T
  0.2999802134137741  0.5887092812280833  0.0951333033504193   T   T   T
  0.1778067962701839  0.6730979635958831  0.0937423790887446   T   T   T
  0.2997170797523543  0.4185940067609253  0.0950215963212265   T   T   T
  0.1808419029767225  0.8398152785864111  0.0937983533067594   T   T   T
  0.5559432102564443  0.0905341619605206  0.0961442119909203   T   T   T
  0.4283000880913106  0.1756414475436330  0.0958718402755745   T   T   T
  0.5565000470859532  0.9217577725816674  0.0961371214853930   T   T   T
  0.4201438129537314  0.6739657072160370  0.0966860051210250   T   T   T
  0.4295119825433456  0.8369129586748835  0.0959598063096533   T   T   T
  0.8069623685105012  0.0895905197438465  0.0946739522250796   T   T   T
  0.6829319199750004  0.1754181731533541  0.0959310088293366   T   T   T
  0.8072959382497530  0.9227031257554512  0.0946389866559703   T   T   T
  0.6923556284668214  0.3383763265372637  0.0966339232121481   T   T   T
  0.8127760244812697  0.5936967679407252  0.0949062528432068   T   T   T
  0.8125073135681721  0.4236169907496526  0.0950158817575172   T   T   T
  0.6841516346948757  0.8366393973707315  0.0958096267807582   T   T   T
  0.4189302753250823  0.3370339542995699  0.0964037133951956   T   T   T
  0.6935617811460635  0.6752558256720612  0.0963066805596153   T   T   T
  0.5562389064733894  0.5061713462684944  0.0979224435430972   T   T   T
 
  0.00000000E+00  0.00000000E+00  0.00000000E+00
  0.00000000E+00  0.00000000E+00  0.00000000E+00
  0.00000000E+00  0.00000000E+00  0.00000000E+00
  0.00000000E+00  0.00000000E+00  0.00000000E+00
  0.00000000E+00  0.00000000E+00  0.00000000E+00
  0.00000000E+00  0.00000000E+00  0.00000000E+00
  0.00000000E+00  0.00000000E+00  0.00000000E+00
  0.00000000E+00  0.00000000E+00  0.00000000E+00
  0.00000000E+00  0.00000000E+00  0.00000000E+00
  0.00000000E+00  0.00000000E+00  0.00000000E+00
  0.00000000E+00  0.00000000E+00  0.00000000E+00
  0.00000000E+00  0.00000000E+00  0.00000000E+00
  0.00000000E+00  0.00000000E+00  0.00000000E+00
  0.00000000E+00  0.00000000E+00  0.00000000E+00
  0.00000000E+00  0.00000000E+00  0.00000000E+00
  0.00000000E+00  0.00000000E+00  0.00000000E+00
  0.00000000E+00  0.00000000E+00  0.00000000E+00
  0.00000000E+00  0.00000000E+00  0.00000000E+00
  0.00000000E+00  0.00000000E+00  0.00000000E+00
  0.00000000E+00  0.00000000E+00  0.00000000E+00
  0.00000000E+00  0.00000000E+00  0.00000000E+00
  0.00000000E+00  0.00000000E+00  0.00000000E+00
  0.00000000E+00  0.00000000E+00  0.00000000E+00
  0.00000000E+00  0.00000000E+00  0.00000000E+00
  0.00000000E+00  0.00000000E+00  0.00000000E+00
  0.00000000E+00  0.00000000E+00  0.00000000E+00
  0.00000000E+00  0.00000000E+00  0.00000000E+00
  0.00000000E+00  0.00000000E+00  0.00000000E+00
  0.00000000E+00  0.00000000E+00  0.00000000E+00
  0.00000000E+00  0.00000000E+00  0.00000000E+00
  0.00000000E+00  0.00000000E+00  0.00000000E+00
