Title                                   
   1.00000000000000     
     8.5490480000000009    0.0000000000000000    0.0000000000000000
     0.0000000000000000    8.5490480000000009    0.0000000000000000
     0.0000000000000000    0.0000000000000000   20.0000000000000000
    20     4     1
Selective dynamics
Direct
  0.9090243031106792  0.2055561609642719  0.0977085812155346   T   T   T
  0.9057235337271515  0.5035892475646178  0.0977147263752999   T   T   T
  0.9104596430426889  0.8023632017671828  0.0974203033771880   T   T   T
  0.1988290017809827  0.0834560767860334  0.0977793707854788   T   T   T
  0.0753473619111554  0.2044747483359959  0.0977096685996334   T   T   T
  0.1560637426813571  0.6524322136785414  0.0977069110095257   T   T   T
  0.0757059891335908  0.5024077111185342  0.0976961521944377   T   T   T
  0.1559793303437201  0.3548709242221746  0.0977313899671376   T   T   T
  0.0781829098355112  0.7994519471452983  0.0975728236808236   T   T   T
  0.4939173344854363  0.0839909366128017  0.0978192734353601   T   T   T
  0.3464093328273309  0.1622210008254306  0.0978343787085344   T   T   T
  0.4932341513048216  0.9142791242448308  0.0977649746637457   T   T   T
  0.3439614635284785  0.8352741143954643  0.0978509578946070   T   T   T
  0.7884342557805594  0.0859271778631351  0.0976429383545398   T   T   T
  0.6414376590513255  0.1650407344119098  0.0978461144892062   T   T   T
  0.7893620116538774  0.9196161839738364  0.0974627542559202   T   T   T
  0.8295705465379613  0.6534047803395514  0.0976049120224048   T   T   T
  0.8267698762021556  0.3541086555078610  0.0978444229363436   T   T   T
  0.6422256572334878  0.8360168079774263  0.0976497076430459   T   T   T
  0.3237446547791781  0.3318808608870799  0.0978272688918496   T   T   T
  0.3181499648586316  0.6768360891090800  0.0979087689591470   T   T   T
  0.6649545794670605  0.3283274315956832  0.0980134523400820   T   T   T
  0.6681720236196350  0.6759113077968608  0.0977931512477710   T   T   T
  0.1981478257322313  0.9169055338701975  0.0977804242027993   T   T   T
  0.4916048473709847  0.4964470290062207  0.0980215727495571   T   T   T
 
  0.00000000E+00  0.00000000E+00  0.00000000E+00
  0.00000000E+00  0.00000000E+00  0.00000000E+00
  0.00000000E+00  0.00000000E+00  0.00000000E+00
  0.00000000E+00  0.00000000E+00  0.00000000E+00
  0.00000000E+00  0.00000000E+00  0.00000000E+00
  0.00000000E+00  0.00000000E+00  0.00000000E+00
  0.00000000E+00  0.00000000E+00  0.00000000E+00
  0.00000000E+00  0.00000000E+00  0.00000000E+00
  0.00000000E+00  0.00000000E+00  0.00000000E+00
  0.00000000E+00  0.00000000E+00  0.00000000E+00
  0.00000000E+00  0.00000000E+00  0.00000000E+00
  0.00000000E+00  0.00000000E+00  0.00000000E+00
  0.00000000E+00  0.00000000E+00  0.00000000E+00
  0.00000000E+00  0.00000000E+00  0.00000000E+00
  0.00000000E+00  0.00000000E+00  0.00000000E+00
  0.00000000E+00  0.00000000E+00  0.00000000E+00
  0.00000000E+00  0.00000000E+00  0.00000000E+00
  0.00000000E+00  0.00000000E+00  0.00000000E+00
  0.00000000E+00  0.00000000E+00  0.00000000E+00
  0.00000000E+00  0.00000000E+00  0.00000000E+00
  0.00000000E+00  0.00000000E+00  0.00000000E+00
  0.00000000E+00  0.00000000E+00  0.00000000E+00
  0.00000000E+00  0.00000000E+00  0.00000000E+00
  0.00000000E+00  0.00000000E+00  0.00000000E+00
  0.00000000E+00  0.00000000E+00  0.00000000E+00
