Title                                   
   1.00000000000000     
     4.9440799999999996    0.0000000000000000    0.0000000000000000
     0.0000000000000000    8.5647549999999999    0.0000000000000000
     0.0000000000000000    0.0000000000000000   20.0000000000000000
    14     1     1
Selective dynamics
Direct
  0.2500000000000000  0.2072953986075980  0.0844226899972293   T   T   T
 -0.0043228229307228  0.2878470663564420  0.0889415787772910   T   T   T
  0.2500000000000000  0.0426405907834106  0.0852205077211337   T   T   T
  0.0033195836249314  0.8000984300514020  0.1074752292530605   T   T   T
  0.0002134964587719  0.9589984635329117  0.0885184385501640   T   T   T
  0.7500000000000000  0.2027633320174707  0.0817936331447034   T   T   T
  0.5043228229307229  0.2878470663564420  0.0889415787772910   T   T   T
  0.7500000000000000  0.0380778618233405  0.0812930937429630   T   T   T
  0.7500000000000000  0.7130132939003896  0.1115705682561320   T   T   T
  0.4966804163750686  0.8000984300514020  0.1074752292530605   T   T   T
  0.7500000000000000  0.5429400127339773  0.1079513287693246   T   T   T
  0.4997865035412280  0.9589984635329117  0.0885184385501640   T   T   T
  0.5179478233254637  0.4461070843171136  0.1053764238673989   T   T   T
 -0.0179478233254641  0.4461070843171136  0.1053764238673989   T   T   T
  0.2500000000000000  0.7349629900026970  0.1239186034943635   T   T   T
  0.2500000000000000  0.5322044316153763  0.1657182339783292   T   T   T
 
  0.00000000E+00  0.00000000E+00  0.00000000E+00
  0.00000000E+00  0.00000000E+00  0.00000000E+00
  0.00000000E+00  0.00000000E+00  0.00000000E+00
  0.00000000E+00  0.00000000E+00  0.00000000E+00
  0.00000000E+00  0.00000000E+00  0.00000000E+00
  0.00000000E+00  0.00000000E+00  0.00000000E+00
  0.00000000E+00  0.00000000E+00  0.00000000E+00
  0.00000000E+00  0.00000000E+00  0.00000000E+00
  0.00000000E+00  0.00000000E+00  0.00000000E+00
  0.00000000E+00  0.00000000E+00  0.00000000E+00
  0.00000000E+00  0.00000000E+00  0.00000000E+00
  0.00000000E+00  0.00000000E+00  0.00000000E+00
  0.00000000E+00  0.00000000E+00  0.00000000E+00
  0.00000000E+00  0.00000000E+00  0.00000000E+00
  0.00000000E+00  0.00000000E+00  0.00000000E+00
  0.00000000E+00  0.00000000E+00  0.00000000E+00
