Title                                   
   1.00000000000000     
     4.9440799999999996    0.0000000000000000    0.0000000000000000
     0.0000000000000000   17.1295089999999988    0.0000000000000000
     0.0000000000000000    0.0000000000000000   20.0000000000000000
    27     4     1
Selective dynamics
Direct
  0.0005995174133249  0.1041953950457312  0.3001574340459717   T   T   T
  0.2507531394473673  0.1464820527081021  0.3024173921877271   T   T   T
  0.2504613445954893  0.2299360792648863  0.3071286920086710   T   T   T
  0.0059319104973139  0.3539157268842451  0.3146950374788464   T   T   T
 -0.0011816950700427  0.2719405574735358  0.3076184199674312   T   T   T
 -0.0038761663932391  0.5991606257903463  0.2865450807213040   T   T   T
  0.2521469469720176  0.7254131406762707  0.2906202402332371   T   T   T
  0.0026535856228679  0.8522301302580583  0.2927893182761891   T   T   T
  0.2518647348820562  0.8945049214432407  0.2940252191752282   T   T   T
  0.2513470342829984  0.9783196990361581  0.2964172336663939   T   T   T
  0.0039868255407439  0.7683777825140249  0.2909164794509838   T   T   T
  0.5007987406525047  0.1041607495918305  0.3003260844746651   T   T   T
  0.7503310581023450  0.1464678937729286  0.3011725854222286   T   T   T
  0.7497308774369005  0.2298681594400449  0.3039825444865815   T   T   T
  0.5012339382693710  0.0203935072210821  0.2976201676858289   T   T   T
  0.4930618779707634  0.3549390554815202  0.3157470920749303   T   T   T
  0.7554602985714729  0.4805276396273992  0.2965922114262197   T   T   T
  0.5011293178682781  0.2723925992832582  0.3083778948234852   T   T   T
  0.5092518239346098  0.6013300889230907  0.2921357713376079   T   T   T
  0.7528188750136595  0.7270341907997382  0.2908137601633564   T   T   T
  0.5011835692772926  0.8521891050254125  0.2931369446820706   T   T   T
  0.7516442091882904  0.8942274961023411  0.2939501807733224   T   T   T
  0.7512545812966027  0.9780889614194459  0.2961750326816625   T   T   T
  0.5007345953591688  0.7680961265813662  0.2917097871780158   T   T   T
  0.7535651666621253  0.6441683984455996  0.2904453537672799   T   T   T
  0.2526069070084643  0.6396219872717405  0.2884415842323199   T   T   T
  0.0010596614881832  0.0204880867605690  0.2974763045672997   T   T   T
  0.5265074572268212  0.5206071466123616  0.3054181394056993   T   T   T
  0.9862923160118194  0.5157562608517501  0.2731021231111085   T   T   T
  0.2479468804081165  0.3923656513926621  0.3270820265560182   T   T   T
  0.7510688824601550  0.3982629292512248  0.3119896751665071   T   T   T
  0.1944547880021662  0.5130888550500283  0.3635391887717604   T   T   T
 
  0.00000000E+00  0.00000000E+00  0.00000000E+00
  0.00000000E+00  0.00000000E+00  0.00000000E+00
  0.00000000E+00  0.00000000E+00  0.00000000E+00
  0.00000000E+00  0.00000000E+00  0.00000000E+00
  0.00000000E+00  0.00000000E+00  0.00000000E+00
  0.00000000E+00  0.00000000E+00  0.00000000E+00
  0.00000000E+00  0.00000000E+00  0.00000000E+00
  0.00000000E+00  0.00000000E+00  0.00000000E+00
  0.00000000E+00  0.00000000E+00  0.00000000E+00
  0.00000000E+00  0.00000000E+00  0.00000000E+00
  0.00000000E+00  0.00000000E+00  0.00000000E+00
  0.00000000E+00  0.00000000E+00  0.00000000E+00
  0.00000000E+00  0.00000000E+00  0.00000000E+00
  0.00000000E+00  0.00000000E+00  0.00000000E+00
  0.00000000E+00  0.00000000E+00  0.00000000E+00
  0.00000000E+00  0.00000000E+00  0.00000000E+00
  0.00000000E+00  0.00000000E+00  0.00000000E+00
  0.00000000E+00  0.00000000E+00  0.00000000E+00
  0.00000000E+00  0.00000000E+00  0.00000000E+00
  0.00000000E+00  0.00000000E+00  0.00000000E+00
  0.00000000E+00  0.00000000E+00  0.00000000E+00
  0.00000000E+00  0.00000000E+00  0.00000000E+00
  0.00000000E+00  0.00000000E+00  0.00000000E+00
  0.00000000E+00  0.00000000E+00  0.00000000E+00
  0.00000000E+00  0.00000000E+00  0.00000000E+00
  0.00000000E+00  0.00000000E+00  0.00000000E+00
  0.00000000E+00  0.00000000E+00  0.00000000E+00
  0.00000000E+00  0.00000000E+00  0.00000000E+00
  0.00000000E+00  0.00000000E+00  0.00000000E+00
  0.00000000E+00  0.00000000E+00  0.00000000E+00
  0.00000000E+00  0.00000000E+00  0.00000000E+00
  0.00000000E+00  0.00000000E+00  0.00000000E+00
