Title                                   
   1.00000000000000     
     9.8694509999999998    0.0000000000000000    0.0000000000000000
     0.0000000000000000    8.5490480000000009    0.0000000000000000
     0.0000000000000000    0.0000000000000000   20.0000000000000000
    26     4     1
Selective dynamics
Direct
  0.0554532691328632  0.0893991482494156  0.0871708516492370   T   T   T
  0.9306242830258289  0.1716622541362209  0.0893728272788490   T   T   T
  0.0569247958729826  0.9235104429843819  0.0875407979841218   T   T   T
  0.9347332288564519  0.3385523509346771  0.0887834412380952   T   T   T
  0.0581246946041591  0.5899910470089188  0.0837763296016653   T   T   T
  0.9350954194553942  0.6741445000174889  0.0892227499524921   T   T   T
  0.0580359610388011  0.4228197880046111  0.0834605665486587   T   T   T
  0.9316185598140728  0.8404562124158663  0.0899366377985447   T   T   T
  0.3049626176753339  0.0872987800311976  0.0918411398968492   T   T   T
  0.1810654140195952  0.1709390237757331  0.0872288008737940   T   T   T
  0.1808120036011471  0.3394434506314319  0.0852446028292258   T   T   T
  0.3041978131992620  0.5913582182114683  0.0916542202316161   T   T   T
  0.1812193829317527  0.6731373387933778  0.0855535773675071   T   T   T
  0.3038649830445911  0.4199447660295067  0.0911297713767916   T   T   T
  0.1811627153370570  0.8408825943557852  0.0880264708964634   T   T   T
  0.4285766933472087  0.1749162854145536  0.0981683990802432   T   T   T
  0.5521927011790230  0.9215932466077914  0.1025831896163840   T   T   T
  0.4275382899987239  0.8379179250562004  0.0993996322274786   T   T   T
  0.8042624498854773  0.0894975188495283  0.0948344816494225   T   T   T
  0.6811363262523975  0.1774831085443212  0.1018421402724196   T   T   T
  0.8055844288714522  0.9219198317166645  0.0954052856093295   T   T   T
  0.6901738658969341  0.3418450719905914  0.1079644699386185   T   T   T
  0.8149424633820164  0.5910934740154892  0.0990763491471139   T   T   T
  0.6910879946016157  0.6703501554124748  0.1090281548999115   T   T   T
  0.8150730498278029  0.4209601677355296  0.0986478624506278   T   T   T
  0.6811779723879565  0.8361382839835479  0.1032342252083960   T   T   T
  0.5531686482948486  0.0930807308737756  0.1018936736339909   T   T   T
  0.4210003271219373  0.3330914987891435  0.1004486174716992   T   T   T
  0.4191496353037573  0.6776756402889231  0.1021778316400234   T   T   T
  0.3040575398928224  0.9230989438979292  0.0923410459736968   T   T   T
  0.5561174721467507  0.5066732012434602  0.1139768556567818   T   T   T
 
  0.00000000E+00  0.00000000E+00  0.00000000E+00
  0.00000000E+00  0.00000000E+00  0.00000000E+00
  0.00000000E+00  0.00000000E+00  0.00000000E+00
  0.00000000E+00  0.00000000E+00  0.00000000E+00
  0.00000000E+00  0.00000000E+00  0.00000000E+00
  0.00000000E+00  0.00000000E+00  0.00000000E+00
  0.00000000E+00  0.00000000E+00  0.00000000E+00
  0.00000000E+00  0.00000000E+00  0.00000000E+00
  0.00000000E+00  0.00000000E+00  0.00000000E+00
  0.00000000E+00  0.00000000E+00  0.00000000E+00
  0.00000000E+00  0.00000000E+00  0.00000000E+00
  0.00000000E+00  0.00000000E+00  0.00000000E+00
  0.00000000E+00  0.00000000E+00  0.00000000E+00
  0.00000000E+00  0.00000000E+00  0.00000000E+00
  0.00000000E+00  0.00000000E+00  0.00000000E+00
  0.00000000E+00  0.00000000E+00  0.00000000E+00
  0.00000000E+00  0.00000000E+00  0.00000000E+00
  0.00000000E+00  0.00000000E+00  0.00000000E+00
  0.00000000E+00  0.00000000E+00  0.00000000E+00
  0.00000000E+00  0.00000000E+00  0.00000000E+00
  0.00000000E+00  0.00000000E+00  0.00000000E+00
  0.00000000E+00  0.00000000E+00  0.00000000E+00
  0.00000000E+00  0.00000000E+00  0.00000000E+00
  0.00000000E+00  0.00000000E+00  0.00000000E+00
  0.00000000E+00  0.00000000E+00  0.00000000E+00
  0.00000000E+00  0.00000000E+00  0.00000000E+00
  0.00000000E+00  0.00000000E+00  0.00000000E+00
  0.00000000E+00  0.00000000E+00  0.00000000E+00
  0.00000000E+00  0.00000000E+00  0.00000000E+00
  0.00000000E+00  0.00000000E+00  0.00000000E+00
  0.00000000E+00  0.00000000E+00  0.00000000E+00
