Title                                   
   1.00000000000000     
     9.8694509999999998    0.0000000000000000    0.0000000000000000
     0.0000000000000000    8.5490480000000009    0.0000000000000000
     0.0000000000000000    0.0000000000000000   20.0000000000000000
    25     5     1
Selective dynamics
Direct
  0.0550128432639698  0.0904522644209580  0.0920842924403539   T   T   T
  0.9307370002028199  0.1727504177788781  0.0929001614615109   T   T   T
  0.0571260897315547  0.9244061685932647  0.0920135621858117   T   T   T
  0.9341803377462872  0.3405716131220361  0.0926311796992116   T   T   T
  0.0575647119460035  0.5897855804250782  0.0905156864499339   T   T   T
  0.9345579965342462  0.6746138644936912  0.0925328489413683   T   T   T
  0.0578706172359706  0.4236508755366327  0.0906216488262662   T   T   T
  0.9323539434783138  0.8411650588715112  0.0929609750549145   T   T   T
  0.3056744472787407  0.0878288443373974  0.0957082417983851   T   T   T
  0.1814173719549842  0.1714864332839565  0.0930094837110992   T   T   T
  0.1811454075856056  0.3390162246104754  0.0925304081086603   T   T   T
  0.3028144798447732  0.5910942150947019  0.0965708033882366   T   T   T
  0.1804398926434211  0.6739847112752075  0.0921104763597589   T   T   T
  0.3031852548450445  0.4202268742726966  0.0967471206557474   T   T   T
  0.1809650008519248  0.8411309122736637  0.0927605030922291   T   T   T
  0.4294456498508818  0.1747457733899326  0.1000586085083845   T   T   T
  0.5536409032999828  0.9183489996651423  0.1013332919683555   T   T   T
  0.4276252105531475  0.8360231070781664  0.1000247792340992   T   T   T
  0.8038478268280236  0.0894016989904643  0.0955212859415364   T   T   T
  0.6806570719422080  0.1757892883787822  0.0996437554203739   T   T   T
  0.8064634403552754  0.9219604557897207  0.0957323685303401   T   T   T
  0.6867227241518052  0.3418571532241202  0.1029149485068841   T   T   T
  0.8133268562103907  0.5928801927918675  0.0973187752930618   T   T   T
  0.8127343760569637  0.4234896955725052  0.0970499996492310   T   T   T
  0.6830861159946587  0.8334463161645557  0.1005119457463632   T   T   T
  0.5545659037826174  0.0911976242286071  0.1011231339742163   T   T   T
  0.4232637753836571  0.3347608655242070  0.1029255609454271   T   T   T
  0.6918082216702655  0.6725846033573607  0.1035861543235776   T   T   T
  0.4196270970325867  0.6767073842565703  0.1027234548946356   T   T   T
  0.3047612359092181  0.9233532948562099  0.0953175144400150   T   T   T
  0.5565131958346679  0.5021644883416522  0.1094820304500476   T   T   T
 
  0.00000000E+00  0.00000000E+00  0.00000000E+00
  0.00000000E+00  0.00000000E+00  0.00000000E+00
  0.00000000E+00  0.00000000E+00  0.00000000E+00
  0.00000000E+00  0.00000000E+00  0.00000000E+00
  0.00000000E+00  0.00000000E+00  0.00000000E+00
  0.00000000E+00  0.00000000E+00  0.00000000E+00
  0.00000000E+00  0.00000000E+00  0.00000000E+00
  0.00000000E+00  0.00000000E+00  0.00000000E+00
  0.00000000E+00  0.00000000E+00  0.00000000E+00
  0.00000000E+00  0.00000000E+00  0.00000000E+00
  0.00000000E+00  0.00000000E+00  0.00000000E+00
  0.00000000E+00  0.00000000E+00  0.00000000E+00
  0.00000000E+00  0.00000000E+00  0.00000000E+00
  0.00000000E+00  0.00000000E+00  0.00000000E+00
  0.00000000E+00  0.00000000E+00  0.00000000E+00
  0.00000000E+00  0.00000000E+00  0.00000000E+00
  0.00000000E+00  0.00000000E+00  0.00000000E+00
  0.00000000E+00  0.00000000E+00  0.00000000E+00
  0.00000000E+00  0.00000000E+00  0.00000000E+00
  0.00000000E+00  0.00000000E+00  0.00000000E+00
  0.00000000E+00  0.00000000E+00  0.00000000E+00
  0.00000000E+00  0.00000000E+00  0.00000000E+00
  0.00000000E+00  0.00000000E+00  0.00000000E+00
  0.00000000E+00  0.00000000E+00  0.00000000E+00
  0.00000000E+00  0.00000000E+00  0.00000000E+00
  0.00000000E+00  0.00000000E+00  0.00000000E+00
  0.00000000E+00  0.00000000E+00  0.00000000E+00
  0.00000000E+00  0.00000000E+00  0.00000000E+00
  0.00000000E+00  0.00000000E+00  0.00000000E+00
  0.00000000E+00  0.00000000E+00  0.00000000E+00
  0.00000000E+00  0.00000000E+00  0.00000000E+00
