Title                                   
   1.00000000000000     
     9.8694509999999998    0.0000000000000000    0.0000000000000000
     0.0000000000000000    8.5490480000000009    0.0000000000000000
     0.0000000000000000    0.0000000000000000   20.0000000000000000
    26     5     1
Selective dynamics
Direct
  0.0561762284643685  0.0910209844872505  0.0830084382200477   T   T   T
  0.9310973663736705  0.1748152056821416  0.0834751521363310   T   T   T
  0.0572968882409202  0.9232058537155555  0.0830333734784765   T   T   T
  0.9296132301718639  0.3417425359155141  0.0858954692244891   T   T   T
  0.0565501520349119  0.5914187225538514  0.0855026509934483   T   T   T
  0.0558736720863767  0.4243105049711807  0.0868784109623164   T   T   T
  0.9332956180806380  0.8395603249231230  0.0846849235727409   T   T   T
  0.3059491821985461  0.0886217269568862  0.0888820234267067   T   T   T
  0.1820508155341890  0.1736061714854057  0.0865793894976987   T   T   T
  0.1824808364480788  0.3406689068332698  0.0906326587779107   T   T   T
  0.3022768980135731  0.5907919662971922  0.1068337561047681   T   T   T
  0.1809653210872502  0.6745821273861780  0.0900847661361293   T   T   T
  0.3081166634867878  0.4220196736593393  0.1018852896394765   T   T   T
  0.1829183270715827  0.8417045800334433  0.0868635504655689   T   T   T
  0.5568143243361268  0.0845229043554630  0.0949040935437222   T   T   T
  0.5555563984493056  0.9195628713853073  0.1029372177238955   T   T   T
  0.4333138661765333  0.3323248397180307  0.1024390138801998   T   T   T
  0.4250322447242129  0.8409223596043199  0.1097794678407866   T   T   T
  0.8066672779680456  0.0883777653762466  0.0847226821608424   T   T   T
  0.6802764619223810  0.1693540192973436  0.0890281732294479   T   T   T
  0.8077296027970944  0.9226435104604780  0.0872277154096801   T   T   T
  0.6788652392166695  0.3356350360650460  0.0955137664510451   T   T   T
  0.8090199597868919  0.5954208430183172  0.0949838891716717   T   T   T
  0.8027511061362416  0.4258516920944795  0.0919832576862033   T   T   T
  0.6848705327779590  0.8391429743980453  0.0994940679570526   T   T   T
  0.4115806671612973  0.6864843184473848  0.1280717329477485   T   T   T
  0.5546587981743063  0.4014580420156190  0.1099498296756016   T   T   T
  0.6976864008149528  0.6802608258102071  0.1093413197601908   T   T   T
  0.3051631361768574  0.9257268890298053  0.0902212642305105   T   T   T
  0.4296585274523402  0.1662823794734749  0.0940220798939427   T   T   T
  0.9331678253652078  0.6731467059871692  0.0855194977301787   T   T   T
  0.5621654312708262  0.5850587385629332  0.1712960780711871   T   T   T
 
  0.00000000E+00  0.00000000E+00  0.00000000E+00
  0.00000000E+00  0.00000000E+00  0.00000000E+00
  0.00000000E+00  0.00000000E+00  0.00000000E+00
  0.00000000E+00  0.00000000E+00  0.00000000E+00
  0.00000000E+00  0.00000000E+00  0.00000000E+00
  0.00000000E+00  0.00000000E+00  0.00000000E+00
  0.00000000E+00  0.00000000E+00  0.00000000E+00
  0.00000000E+00  0.00000000E+00  0.00000000E+00
  0.00000000E+00  0.00000000E+00  0.00000000E+00
  0.00000000E+00  0.00000000E+00  0.00000000E+00
  0.00000000E+00  0.00000000E+00  0.00000000E+00
  0.00000000E+00  0.00000000E+00  0.00000000E+00
  0.00000000E+00  0.00000000E+00  0.00000000E+00
  0.00000000E+00  0.00000000E+00  0.00000000E+00
  0.00000000E+00  0.00000000E+00  0.00000000E+00
  0.00000000E+00  0.00000000E+00  0.00000000E+00
  0.00000000E+00  0.00000000E+00  0.00000000E+00
  0.00000000E+00  0.00000000E+00  0.00000000E+00
  0.00000000E+00  0.00000000E+00  0.00000000E+00
  0.00000000E+00  0.00000000E+00  0.00000000E+00
  0.00000000E+00  0.00000000E+00  0.00000000E+00
  0.00000000E+00  0.00000000E+00  0.00000000E+00
  0.00000000E+00  0.00000000E+00  0.00000000E+00
  0.00000000E+00  0.00000000E+00  0.00000000E+00
  0.00000000E+00  0.00000000E+00  0.00000000E+00
  0.00000000E+00  0.00000000E+00  0.00000000E+00
  0.00000000E+00  0.00000000E+00  0.00000000E+00
  0.00000000E+00  0.00000000E+00  0.00000000E+00
  0.00000000E+00  0.00000000E+00  0.00000000E+00
  0.00000000E+00  0.00000000E+00  0.00000000E+00
  0.00000000E+00  0.00000000E+00  0.00000000E+00
  0.00000000E+00  0.00000000E+00  0.00000000E+00
