Title                                   
   1.00000000000000     
     8.5490480000000009    0.0000000000000000    0.0000000000000000
     0.0000000000000000    8.5490480000000009    0.0000000000000000
     0.0000000000000000    0.0000000000000000   20.0000000000000000
    21     3     1
Selective dynamics
Direct
  0.9091067860941097  0.2075450402498047  0.0979202045767687   T   T   T
  0.9141227181018848  0.8029531755485373  0.0978056854283424   T   T   T
  0.1966757256348844  0.0805398440040326  0.0980911262635134   T   T   T
  0.0721504329885898  0.2008232240220965  0.0981017490533775   T   T   T
  0.1567914081538938  0.6482105191640752  0.0980158768470878   T   T   T
  0.0730093714791862  0.5031043576724928  0.0980552731535200   T   T   T
  0.1531876375611603  0.3549636824825123  0.0981095377195106   T   T   T
  0.0802959809093777  0.7989189034075475  0.0979795168690497   T   T   T
  0.4942149953529315  0.0834850083128215  0.0978692126771906   T   T   T
  0.3435273498861962  0.1611665157769921  0.0980043191627052   T   T   T
  0.4956337718060833  0.9139213024642222  0.0978692859016419   T   T   T
  0.3481370852027562  0.8312990381836730  0.0980602329895263   T   T   T
  0.7868114305935457  0.0869941462151588  0.0977815818216071   T   T   T
  0.6385820259938835  0.1668196894335527  0.0978410907506290   T   T   T
  0.7915277871908863  0.9211513787813110  0.0977344430189398   T   T   T
  0.8313690162450199  0.6541124526805017  0.0978504592046352   T   T   T
  0.8249923048263086  0.3605016269830333  0.0979845309384217   T   T   T
  0.6445967485342979  0.8358752152156621  0.0977345347008522   T   T   T
  0.3150507435671689  0.3279844164493620  0.0980017716249704   T   T   T
  0.3227293122888251  0.6692286639990001  0.0980607372179721   T   T   T
  0.6629644106059291  0.3369074889289118  0.0979653270120472   T   T   T
  0.9071481337811588  0.5065278223244134  0.0980241705437331   T   T   T
  0.6723908876603828  0.6747352235927994  0.0977812708302596   T   T   T
  0.1985021743240058  0.9145215568277764  0.0981442726210652   T   T   T
  0.4918937612175269  0.5024997072797234  0.0979187890726159   T   T   T
 
  0.00000000E+00  0.00000000E+00  0.00000000E+00
  0.00000000E+00  0.00000000E+00  0.00000000E+00
  0.00000000E+00  0.00000000E+00  0.00000000E+00
  0.00000000E+00  0.00000000E+00  0.00000000E+00
  0.00000000E+00  0.00000000E+00  0.00000000E+00
  0.00000000E+00  0.00000000E+00  0.00000000E+00
  0.00000000E+00  0.00000000E+00  0.00000000E+00
  0.00000000E+00  0.00000000E+00  0.00000000E+00
  0.00000000E+00  0.00000000E+00  0.00000000E+00
  0.00000000E+00  0.00000000E+00  0.00000000E+00
  0.00000000E+00  0.00000000E+00  0.00000000E+00
  0.00000000E+00  0.00000000E+00  0.00000000E+00
  0.00000000E+00  0.00000000E+00  0.00000000E+00
  0.00000000E+00  0.00000000E+00  0.00000000E+00
  0.00000000E+00  0.00000000E+00  0.00000000E+00
  0.00000000E+00  0.00000000E+00  0.00000000E+00
  0.00000000E+00  0.00000000E+00  0.00000000E+00
  0.00000000E+00  0.00000000E+00  0.00000000E+00
  0.00000000E+00  0.00000000E+00  0.00000000E+00
  0.00000000E+00  0.00000000E+00  0.00000000E+00
  0.00000000E+00  0.00000000E+00  0.00000000E+00
  0.00000000E+00  0.00000000E+00  0.00000000E+00
  0.00000000E+00  0.00000000E+00  0.00000000E+00
  0.00000000E+00  0.00000000E+00  0.00000000E+00
  0.00000000E+00  0.00000000E+00  0.00000000E+00
