Title                                   
   1.00000000000000     
     8.5490480000000009    0.0000000000000000    0.0000000000000000
     0.0000000000000000    8.5490480000000009    0.0000000000000000
     0.0000000000000000    0.0000000000000000   20.0000000000000000
    22     2     1
Selective dynamics
Direct
  0.9101143024801787  0.2062380533628455  0.1001950509967419   T   T   T
  0.9082624807377042  0.5026355121324235  0.0965530327296650   T   T   T
  0.9125894900150464  0.7998404777344061  0.0992677030090225   T   T   T
  0.1949844501991891  0.0822358320855812  0.0992248441060991   T   T   T
  0.0734542670164313  0.2037197448473365  0.0991774058502766   T   T   T
  0.1974902179689403  0.9189093263600419  0.1003870100415191   T   T   T
  0.1573528817798481  0.6479271775662199  0.0981408686843688   T   T   T
  0.0778218811344689  0.5009166033235806  0.0966271193339435   T   T   T
  0.1559591816140500  0.3511786283207927  0.0958335469711250   T   T   T
  0.0758971038579824  0.7973500647861218  0.1003822369349057   T   T   T
  0.4921514384376935  0.0865440100092015  0.0966045450569994   T   T   T
  0.3424550756517826  0.1647115633569762  0.0958673703460634   T   T   T
  0.4938412347679785  0.9170147480368918  0.0966868297550630   T   T   T
  0.3468791588981497  0.8374644547917099  0.0981616964979883   T   T   T
  0.7885742761910921  0.0846789645124963  0.1002325596178197   T   T   T
  0.6391438576209310  0.1661030947574548  0.0979192744358593   T   T   T
  0.7910675156527279  0.9213565647764835  0.0992512003015655   T   T   T
  0.8301264507189735  0.6523756410119596  0.0958657219959994   T   T   T
  0.8286723310721805  0.3556479548706143  0.0978659229366657   T   T   T
  0.6435976404712617  0.8388648299192907  0.0958878204702063   T   T   T
  0.3222305119009199  0.6725881957208882  0.0961688495063699   T   T   T
  0.6637976712357576  0.3309516919409828  0.0957225761886297   T   T   T
  0.3161647321519416  0.3248869783126722  0.0919368315060396   T   T   T
  0.6699458568340778  0.6786774252809518  0.0919683249788073   T   T   T
  0.4928379915906863  0.5019724621820894  0.0477766577482341   T   T   T
 
  0.00000000E+00  0.00000000E+00  0.00000000E+00
  0.00000000E+00  0.00000000E+00  0.00000000E+00
  0.00000000E+00  0.00000000E+00  0.00000000E+00
  0.00000000E+00  0.00000000E+00  0.00000000E+00
  0.00000000E+00  0.00000000E+00  0.00000000E+00
  0.00000000E+00  0.00000000E+00  0.00000000E+00
  0.00000000E+00  0.00000000E+00  0.00000000E+00
  0.00000000E+00  0.00000000E+00  0.00000000E+00
  0.00000000E+00  0.00000000E+00  0.00000000E+00
  0.00000000E+00  0.00000000E+00  0.00000000E+00
  0.00000000E+00  0.00000000E+00  0.00000000E+00
  0.00000000E+00  0.00000000E+00  0.00000000E+00
  0.00000000E+00  0.00000000E+00  0.00000000E+00
  0.00000000E+00  0.00000000E+00  0.00000000E+00
  0.00000000E+00  0.00000000E+00  0.00000000E+00
  0.00000000E+00  0.00000000E+00  0.00000000E+00
  0.00000000E+00  0.00000000E+00  0.00000000E+00
  0.00000000E+00  0.00000000E+00  0.00000000E+00
  0.00000000E+00  0.00000000E+00  0.00000000E+00
  0.00000000E+00  0.00000000E+00  0.00000000E+00
  0.00000000E+00  0.00000000E+00  0.00000000E+00
  0.00000000E+00  0.00000000E+00  0.00000000E+00
  0.00000000E+00  0.00000000E+00  0.00000000E+00
  0.00000000E+00  0.00000000E+00  0.00000000E+00
  0.00000000E+00  0.00000000E+00  0.00000000E+00
