Title                                   
   1.00000000000000     
     9.8694509999999998    0.0000000000000000    0.0000000000000000
     0.0000000000000000    8.5490480000000009    0.0000000000000000
     0.0000000000000000    0.0000000000000000   20.0000000000000000
    29     2     1
Selective dynamics
Direct
  0.0556522616606030  0.0912087284318134  0.0897558822644789   T   T   T
  0.9308954934181076  0.1707264115366439  0.0918065228383106   T   T   T
  0.0545638060596847  0.9244450465399939  0.0894301819465155   T   T   T
  0.9332983399546698  0.3380798678926429  0.0937459409723157   T   T   T
  0.0557395827685647  0.5906879534636506  0.0898786273964325   T   T   T
  0.9309991217613777  0.6719009367966869  0.0940161991773625   T   T   T
  0.0581205411905439  0.4234153985906359  0.0904545141028961   T   T   T
  0.9296147234888734  0.8380694437127608  0.0926970184966257   T   T   T
  0.3055151464327829  0.0926905868525871  0.0895362675892382   T   T   T
  0.1813611508779553  0.1754252124975580  0.0896358066100318   T   T   T
  0.1843859745272837  0.3432950965562112  0.0898635350815920   T   T   T
  0.3053310033229426  0.5977374526874600  0.0871362210067218   T   T   T
  0.1791005920571583  0.6769303322211911  0.0870872694062810   T   T   T
  0.3095227754022336  0.4296253503988955  0.0914944455087879   T   T   T
  0.1787417948675118  0.8435079885014652  0.0873880463568563   T   T   T
  0.5550530580078276  0.0866610297914199  0.0948047330509465   T   T   T
  0.4318234453810950  0.1748885255930197  0.0930219198163926   T   T   T
  0.5512969972754000  0.9195428469077092  0.0946267828289515   T   T   T
  0.4345368258298947  0.3445943988965323  0.0982293958240743   T   T   T
  0.5628254081162231  0.4166787302624834  0.1117379618858846   T   T   T
  0.4231390910810650  0.8388574725119375  0.0884218573025005   T   T   T
  0.8051307396108331  0.0852625581851208  0.0931079008089643   T   T   T
  0.6812296839440127  0.1686463458943845  0.0964484906776102   T   T   T
  0.8027496358922068  0.9180061838700937  0.0944210434033743   T   T   T
  0.6845492068411660  0.3352671678290132  0.1033589342027817   T   T   T
  0.8079053887006611  0.5859602646253317  0.1027690244634378   T   T   T
  0.6861059443428915  0.6671030889887024  0.1125367068532000   T   T   T
  0.8100365492555348  0.4189126033064060  0.1006407106421217   T   T   T
  0.6757661493150589  0.8322726353748392  0.1002018726073881   T   T   T
  0.4202369951992585  0.6846783519236076  0.0855399722000507   T   T   T
  0.3023388323964436  0.9284666885040671  0.0878298599076283   T   T   T
  0.5720727410201407  0.5767013008551233  0.1920513547702914   T   T   T
 
  0.00000000E+00  0.00000000E+00  0.00000000E+00
  0.00000000E+00  0.00000000E+00  0.00000000E+00
  0.00000000E+00  0.00000000E+00  0.00000000E+00
  0.00000000E+00  0.00000000E+00  0.00000000E+00
  0.00000000E+00  0.00000000E+00  0.00000000E+00
  0.00000000E+00  0.00000000E+00  0.00000000E+00
  0.00000000E+00  0.00000000E+00  0.00000000E+00
  0.00000000E+00  0.00000000E+00  0.00000000E+00
  0.00000000E+00  0.00000000E+00  0.00000000E+00
  0.00000000E+00  0.00000000E+00  0.00000000E+00
  0.00000000E+00  0.00000000E+00  0.00000000E+00
  0.00000000E+00  0.00000000E+00  0.00000000E+00
  0.00000000E+00  0.00000000E+00  0.00000000E+00
  0.00000000E+00  0.00000000E+00  0.00000000E+00
  0.00000000E+00  0.00000000E+00  0.00000000E+00
  0.00000000E+00  0.00000000E+00  0.00000000E+00
  0.00000000E+00  0.00000000E+00  0.00000000E+00
  0.00000000E+00  0.00000000E+00  0.00000000E+00
  0.00000000E+00  0.00000000E+00  0.00000000E+00
  0.00000000E+00  0.00000000E+00  0.00000000E+00
  0.00000000E+00  0.00000000E+00  0.00000000E+00
  0.00000000E+00  0.00000000E+00  0.00000000E+00
  0.00000000E+00  0.00000000E+00  0.00000000E+00
  0.00000000E+00  0.00000000E+00  0.00000000E+00
  0.00000000E+00  0.00000000E+00  0.00000000E+00
  0.00000000E+00  0.00000000E+00  0.00000000E+00
  0.00000000E+00  0.00000000E+00  0.00000000E+00
  0.00000000E+00  0.00000000E+00  0.00000000E+00
  0.00000000E+00  0.00000000E+00  0.00000000E+00
  0.00000000E+00  0.00000000E+00  0.00000000E+00
  0.00000000E+00  0.00000000E+00  0.00000000E+00
  0.00000000E+00  0.00000000E+00  0.00000000E+00
