Title                                   
   1.00000000000000     
     9.8694509999999998    0.0000000000000000    0.0000000000000000
     0.0000000000000000    8.5490480000000009    0.0000000000000000
     0.0000000000000000    0.0000000000000000   20.0000000000000000
    25     5     1
Selective dynamics
Direct
  0.0554679848513397  0.0890141572484399  0.0947808693125304   T   T   T
  0.9306798357082472  0.1727276358660651  0.0949111028185487   T   T   T
  0.0572292213082880  0.9212977642133016  0.0943828394258518   T   T   T
  0.9332233401671630  0.3397829635135485  0.0940106558848169   T   T   T
  0.0556743422165606  0.5907688420217403  0.0925458114619839   T   T   T
  0.0562094067305347  0.4236437803425305  0.0931268569462633   T   T   T
  0.9320932802235790  0.8396048212314576  0.0938991941416433   T   T   T
  0.3076558670891615  0.0888080883996988  0.0958730665842690   T   T   T
  0.1806275414309200  0.1703620487320781  0.0946665834752555   T   T   T
  0.1799325444300455  0.3373495894895885  0.0937645692723893   T   T   T
  0.3025118526678968  0.5864853154204355  0.0943055606516833   T   T   T
  0.1792534529633813  0.6732480468543389  0.0925857360568222   T   T   T
  0.3029423822846095  0.4190266480813592  0.0932625217432099   T   T   T
  0.1826042765620469  0.8402829348204182  0.0941321253594512   T   T   T
  0.4306936289612416  0.1758488238379359  0.0947848344606078   T   T   T
  0.5561026269481548  0.9210480474467205  0.0956408506940965   T   T   T
  0.4249382384264523  0.6711355217559321  0.1003208931279151   T   T   T
  0.4302497466768428  0.8351015707625778  0.0974419691077406   T   T   T
  0.8045141372147695  0.0892371433643530  0.0954395645643500   T   T   T
  0.6805625136349873  0.1788660415354243  0.0966390787990112   T   T   T
  0.8062745159293877  0.9215336343811017  0.0948863957241333   T   T   T
  0.6859504298733872  0.3434047034179030  0.0992911072552156   T   T   T
  0.8107048140207773  0.5933410485755999  0.0939718507673284   T   T   T
  0.8104969637987235  0.4248338223997010  0.0954022156082960   T   T   T
  0.6805679945634326  0.8364278511035321  0.0945886757540594   T   T   T
  0.9323391097352084  0.6736743130433517  0.0934185832905671   T   T   T
  0.5556506774693297  0.0937544388187180  0.0953145955225824   T   T   T
  0.4258123585602330  0.3391525220624509  0.0909166337102829   T   T   T
  0.6895426540813043  0.6713380826719568  0.0922880900981828   T   T   T
  0.3061262093624181  0.9222871488303100  0.0954823775424313   T   T   T
  0.5565030521095785  0.5074876497574575  0.0988897908385152   T   T   T
 
  0.00000000E+00  0.00000000E+00  0.00000000E+00
  0.00000000E+00  0.00000000E+00  0.00000000E+00
  0.00000000E+00  0.00000000E+00  0.00000000E+00
  0.00000000E+00  0.00000000E+00  0.00000000E+00
  0.00000000E+00  0.00000000E+00  0.00000000E+00
  0.00000000E+00  0.00000000E+00  0.00000000E+00
  0.00000000E+00  0.00000000E+00  0.00000000E+00
  0.00000000E+00  0.00000000E+00  0.00000000E+00
  0.00000000E+00  0.00000000E+00  0.00000000E+00
  0.00000000E+00  0.00000000E+00  0.00000000E+00
  0.00000000E+00  0.00000000E+00  0.00000000E+00
  0.00000000E+00  0.00000000E+00  0.00000000E+00
  0.00000000E+00  0.00000000E+00  0.00000000E+00
  0.00000000E+00  0.00000000E+00  0.00000000E+00
  0.00000000E+00  0.00000000E+00  0.00000000E+00
  0.00000000E+00  0.00000000E+00  0.00000000E+00
  0.00000000E+00  0.00000000E+00  0.00000000E+00
  0.00000000E+00  0.00000000E+00  0.00000000E+00
  0.00000000E+00  0.00000000E+00  0.00000000E+00
  0.00000000E+00  0.00000000E+00  0.00000000E+00
  0.00000000E+00  0.00000000E+00  0.00000000E+00
  0.00000000E+00  0.00000000E+00  0.00000000E+00
  0.00000000E+00  0.00000000E+00  0.00000000E+00
  0.00000000E+00  0.00000000E+00  0.00000000E+00
  0.00000000E+00  0.00000000E+00  0.00000000E+00
  0.00000000E+00  0.00000000E+00  0.00000000E+00
  0.00000000E+00  0.00000000E+00  0.00000000E+00
  0.00000000E+00  0.00000000E+00  0.00000000E+00
  0.00000000E+00  0.00000000E+00  0.00000000E+00
  0.00000000E+00  0.00000000E+00  0.00000000E+00
  0.00000000E+00  0.00000000E+00  0.00000000E+00
