Title                                   
   1.00000000000000     
     9.8694509999999998    0.0000000000000000    0.0000000000000000
     0.0000000000000000    8.5490480000000009    0.0000000000000000
     0.0000000000000000    0.0000000000000000   20.0000000000000000
    27     3     1
Selective dynamics
Direct
  0.0549289052484832  0.0885726197946414  0.0872720684530943   T   T   T
  0.9301537699201514  0.1725279943739944  0.0876198571490069   T   T   T
  0.0570064234478769  0.9224420859219039  0.0878457036861901   T   T   T
  0.9328009599642912  0.3396943967530434  0.0873706681337833   T   T   T
  0.0574474825029984  0.5897183921310795  0.0863023609060811   T   T   T
  0.9330489487919754  0.6732481279153271  0.0893257374872112   T   T   T
  0.0572855641753053  0.4225631732304211  0.0857813980552151   T   T   T
  0.9313685439830770  0.8403634280075007  0.0896111587125407   T   T   T
  0.3064747405501990  0.0867708850042696  0.0922303555562841   T   T   T
  0.1810823117165370  0.1700283203893400  0.0884861322890679   T   T   T
  0.1808647820416102  0.3365536418224738  0.0874338377379937   T   T   T
  0.3063659390701530  0.5860917155035669  0.0927827228197201   T   T   T
  0.1827381471432594  0.6723888048172950  0.0874206487550845   T   T   T
  0.3041544180189348  0.4182410662094271  0.0930436404404514   T   T   T
  0.1826691595190445  0.8386143240454790  0.0884244954248325   T   T   T
  0.4286799704164869  0.1755560603036892  0.0980954094137561   T   T   T
  0.5542779908187292  0.9251562155158332  0.0998118358238384   T   T   T
  0.4292555832311505  0.6694809688676425  0.1033619558379382   T   T   T
  0.4311990408933022  0.8367306139754930  0.0988577249925211   T   T   T
  0.8032382533098483  0.0906783780376702  0.0907607102493352   T   T   T
  0.6783434238866921  0.1787483351303673  0.0957671645189801   T   T   T
  0.8050618347933807  0.9239945000852090  0.0924080273685349   T   T   T
  0.6834285478804220  0.3436345473331912  0.0997203577022938   T   T   T
  0.8096441022230592  0.5911071903355987  0.0947897420964943   T   T   T
  0.6849363227225974  0.6732091099866319  0.1061855973362158   T   T   T
  0.8095732867442638  0.4230171481457738  0.0925717393607911   T   T   T
  0.6791421645752179  0.8405416240463733  0.0990140859356563   T   T   T
  0.5538886601167935  0.0943716416024800  0.0986161589294274   T   T   T
  0.4244283757436943  0.3364506361033461  0.1026234507496381   T   T   T
  0.3067305370676681  0.9215889419781796  0.0916747570514348   T   T   T
  0.5629168094828139  0.5087901126327775  0.1457554970266356   T   T   T
 
  0.00000000E+00  0.00000000E+00  0.00000000E+00
  0.00000000E+00  0.00000000E+00  0.00000000E+00
  0.00000000E+00  0.00000000E+00  0.00000000E+00
  0.00000000E+00  0.00000000E+00  0.00000000E+00
  0.00000000E+00  0.00000000E+00  0.00000000E+00
  0.00000000E+00  0.00000000E+00  0.00000000E+00
  0.00000000E+00  0.00000000E+00  0.00000000E+00
  0.00000000E+00  0.00000000E+00  0.00000000E+00
  0.00000000E+00  0.00000000E+00  0.00000000E+00
  0.00000000E+00  0.00000000E+00  0.00000000E+00
  0.00000000E+00  0.00000000E+00  0.00000000E+00
  0.00000000E+00  0.00000000E+00  0.00000000E+00
  0.00000000E+00  0.00000000E+00  0.00000000E+00
  0.00000000E+00  0.00000000E+00  0.00000000E+00
  0.00000000E+00  0.00000000E+00  0.00000000E+00
  0.00000000E+00  0.00000000E+00  0.00000000E+00
  0.00000000E+00  0.00000000E+00  0.00000000E+00
  0.00000000E+00  0.00000000E+00  0.00000000E+00
  0.00000000E+00  0.00000000E+00  0.00000000E+00
  0.00000000E+00  0.00000000E+00  0.00000000E+00
  0.00000000E+00  0.00000000E+00  0.00000000E+00
  0.00000000E+00  0.00000000E+00  0.00000000E+00
  0.00000000E+00  0.00000000E+00  0.00000000E+00
  0.00000000E+00  0.00000000E+00  0.00000000E+00
  0.00000000E+00  0.00000000E+00  0.00000000E+00
  0.00000000E+00  0.00000000E+00  0.00000000E+00
  0.00000000E+00  0.00000000E+00  0.00000000E+00
  0.00000000E+00  0.00000000E+00  0.00000000E+00
  0.00000000E+00  0.00000000E+00  0.00000000E+00
  0.00000000E+00  0.00000000E+00  0.00000000E+00
  0.00000000E+00  0.00000000E+00  0.00000000E+00
