Title                                   
   1.00000000000000     
     9.8694509999999998    0.0000000000000000    0.0000000000000000
     0.0000000000000000    8.5490480000000009    0.0000000000000000
     0.0000000000000000    0.0000000000000000   20.0000000000000000
    27     4     1
Selective dynamics
Direct
  0.0563833436979688  0.0921135538123257  0.0870722033808286   T   T   T
  0.9310547392513380  0.1748437786118445  0.0891872775717406   T   T   T
  0.0563270099364183  0.9243950676792467  0.0868862379291587   T   T   T
  0.9299416413528291  0.3417723683528914  0.0929836400018941   T   T   T
  0.0562402779504995  0.5899078087172377  0.0906123707073636   T   T   T
  0.9317840280474859  0.6734056386485811  0.0924405572301167   T   T   T
  0.0564132194935366  0.4231573821637892  0.0921164245952916   T   T   T
  0.9318821453390924  0.8403306032021275  0.0897201749658592   T   T   T
  0.3053940111735864  0.0898809970654264  0.0873191741724556   T   T   T
  0.1817496753203045  0.1749481676809709  0.0884100141067055   T   T   T
  0.3061686627751969  0.9244382799276111  0.0871079562724585   T   T   T
  0.1829220710695111  0.3416925256273646  0.0920879407696379   T   T   T
  0.3063244125046718  0.5940819139548037  0.0967580464711557   T   T   T
  0.1805457332776718  0.6735560452160746  0.0901082537502597   T   T   T
  0.3107637752170686  0.4248744602497598  0.0966362694224655   T   T   T
  0.1810113110638672  0.8403787084058958  0.0875336358686069   T   T   T
  0.5566026310845965  0.0841492259492756  0.0936102631733895   T   T   T
  0.4317477993515891  0.1677938652997244  0.0918656041902082   T   T   T
  0.4337779025834009  0.3331429915876407  0.0980261468714969   T   T   T
  0.4285003923854194  0.8395073062108178  0.0938388995820951   T   T   T
  0.8075113811121108  0.0895419337907327  0.0887468934595442   T   T   T
  0.6812252442084595  0.1678683461906452  0.0927725360288375   T   T   T
  0.8066489274825447  0.9240455600448250  0.0897179200169689   T   T   T
  0.6795746443239660  0.3332576369966836  0.0990699781793969   T   T   T
  0.8065433902918452  0.5939669626412374  0.1007290992690133   T   T   T
  0.8023154364401646  0.4248407006133587  0.0987317506323436   T   T   T
  0.6844676275489353  0.8390131559554639  0.0971637529357634   T   T   T
  0.4234624784339215  0.6828141285920066  0.1049126911158591   T   T   T
  0.5564883593692516  0.4051866177928470  0.1090664587496338   T   T   T
  0.6898674694467786  0.6830177867999311  0.1114194402988083   T   T   T
  0.5566652680075852  0.9170535296512725  0.0951921413616077   T   T   T
  0.5493339904583909  0.5812689525675896  0.1738312469190513   T   T   T
 
  0.00000000E+00  0.00000000E+00  0.00000000E+00
  0.00000000E+00  0.00000000E+00  0.00000000E+00
  0.00000000E+00  0.00000000E+00  0.00000000E+00
  0.00000000E+00  0.00000000E+00  0.00000000E+00
  0.00000000E+00  0.00000000E+00  0.00000000E+00
  0.00000000E+00  0.00000000E+00  0.00000000E+00
  0.00000000E+00  0.00000000E+00  0.00000000E+00
  0.00000000E+00  0.00000000E+00  0.00000000E+00
  0.00000000E+00  0.00000000E+00  0.00000000E+00
  0.00000000E+00  0.00000000E+00  0.00000000E+00
  0.00000000E+00  0.00000000E+00  0.00000000E+00
  0.00000000E+00  0.00000000E+00  0.00000000E+00
  0.00000000E+00  0.00000000E+00  0.00000000E+00
  0.00000000E+00  0.00000000E+00  0.00000000E+00
  0.00000000E+00  0.00000000E+00  0.00000000E+00
  0.00000000E+00  0.00000000E+00  0.00000000E+00
  0.00000000E+00  0.00000000E+00  0.00000000E+00
  0.00000000E+00  0.00000000E+00  0.00000000E+00
  0.00000000E+00  0.00000000E+00  0.00000000E+00
  0.00000000E+00  0.00000000E+00  0.00000000E+00
  0.00000000E+00  0.00000000E+00  0.00000000E+00
  0.00000000E+00  0.00000000E+00  0.00000000E+00
  0.00000000E+00  0.00000000E+00  0.00000000E+00
  0.00000000E+00  0.00000000E+00  0.00000000E+00
  0.00000000E+00  0.00000000E+00  0.00000000E+00
  0.00000000E+00  0.00000000E+00  0.00000000E+00
  0.00000000E+00  0.00000000E+00  0.00000000E+00
  0.00000000E+00  0.00000000E+00  0.00000000E+00
  0.00000000E+00  0.00000000E+00  0.00000000E+00
  0.00000000E+00  0.00000000E+00  0.00000000E+00
  0.00000000E+00  0.00000000E+00  0.00000000E+00
  0.00000000E+00  0.00000000E+00  0.00000000E+00
