Title                                   
   1.00000000000000     
     4.9440799999999996    0.0000000000000000    0.0000000000000000
     0.0000000000000000   17.1295089999999988    0.0000000000000000
     0.0000000000000000    0.0000000000000000   20.0000000000000000
    26     4     1
Selective dynamics
Direct
  0.0005928923931349  0.1061655201468552  0.2958950673113359   T   T   T
  0.2490536246331745  0.1491468278264940  0.2967266997315073   T   T   T
  0.2481435200300469  0.2340620208395633  0.2999356783287864   T   T   T
 -0.0028833402280250  0.2758948731342151  0.3044846476368432   T   T   T
 -0.0030864882364196  0.5990241836806817  0.3042913608217915   T   T   T
  0.2489456207831532  0.7257711965142460  0.2965895188409355   T   T   T
  0.0001719178621511  0.8530473379812417  0.2946626492433115   T   T   T
  0.2499156679788593  0.8953098410400229  0.2942669522148390   T   T   T
  0.2499331490847032  0.9796243793060189  0.2942718381132877   T   T   T
  0.0004927318346533  0.7687652113272655  0.2958520466953747   T   T   T
  0.4990334470407322  0.1065171432722956  0.2949626611516385   T   T   T
  0.7505976315987086  0.1482762907270572  0.2959184869320585   T   T   T
  0.7513200962280441  0.2320028939002638  0.2982593402655294   T   T   T
  0.4994023732566319  0.0221537069851787  0.2941124794407801   T   T   T
  0.7463131966360004  0.3949286146773665  0.3049411305536132   T   T   T
  0.7461792438547884  0.4799873014878553  0.3049821573128046   T   T   T
  0.5019772333313043  0.2743556548630836  0.2977388477946292   T   T   T
  0.5018408105073818  0.6005565166033580  0.2975134842309149   T   T   T
  0.7504635261385961  0.7266420783814102  0.2958101715314482   T   T   T
  0.4993621430120535  0.8527850756782265  0.2941180114963309   T   T   T
  0.7496568015938434  0.8952981189866542  0.2940292818720416   T   T   T
  0.7496752375077018  0.9796366251075997  0.2940145015493002   T   T   T
  0.4989130184134535  0.7684057185732507  0.2948872682830613   T   T   T
  0.7511376832058233  0.6429163247831300  0.2980140148997310   T   T   T
  0.2479764570436900  0.6408454376736058  0.2997206936126056   T   T   T
  0.0002017346522700  0.0218897297755602  0.2946345406569872   T   T   T
  0.5095260267702111  0.5206728195339154  0.2957144073351333   T   T   T
  0.9879583665834852  0.5185480571448704  0.3165096305508479   T   T   T
  0.5095745588336789  0.3542234422337060  0.2958331863640165   T   T   T
 -0.0119277474245883  0.3563949680837982  0.3165666596582734   T   T   T
  0.2795458650807603  0.4374940897312062  0.3298025855701944   T   T   T
 
  0.00000000E+00  0.00000000E+00  0.00000000E+00
  0.00000000E+00  0.00000000E+00  0.00000000E+00
  0.00000000E+00  0.00000000E+00  0.00000000E+00
  0.00000000E+00  0.00000000E+00  0.00000000E+00
  0.00000000E+00  0.00000000E+00  0.00000000E+00
  0.00000000E+00  0.00000000E+00  0.00000000E+00
  0.00000000E+00  0.00000000E+00  0.00000000E+00
  0.00000000E+00  0.00000000E+00  0.00000000E+00
  0.00000000E+00  0.00000000E+00  0.00000000E+00
  0.00000000E+00  0.00000000E+00  0.00000000E+00
  0.00000000E+00  0.00000000E+00  0.00000000E+00
  0.00000000E+00  0.00000000E+00  0.00000000E+00
  0.00000000E+00  0.00000000E+00  0.00000000E+00
  0.00000000E+00  0.00000000E+00  0.00000000E+00
  0.00000000E+00  0.00000000E+00  0.00000000E+00
  0.00000000E+00  0.00000000E+00  0.00000000E+00
  0.00000000E+00  0.00000000E+00  0.00000000E+00
  0.00000000E+00  0.00000000E+00  0.00000000E+00
  0.00000000E+00  0.00000000E+00  0.00000000E+00
  0.00000000E+00  0.00000000E+00  0.00000000E+00
  0.00000000E+00  0.00000000E+00  0.00000000E+00
  0.00000000E+00  0.00000000E+00  0.00000000E+00
  0.00000000E+00  0.00000000E+00  0.00000000E+00
  0.00000000E+00  0.00000000E+00  0.00000000E+00
  0.00000000E+00  0.00000000E+00  0.00000000E+00
  0.00000000E+00  0.00000000E+00  0.00000000E+00
  0.00000000E+00  0.00000000E+00  0.00000000E+00
  0.00000000E+00  0.00000000E+00  0.00000000E+00
  0.00000000E+00  0.00000000E+00  0.00000000E+00
  0.00000000E+00  0.00000000E+00  0.00000000E+00
  0.00000000E+00  0.00000000E+00  0.00000000E+00
