Title                                   
   1.00000000000000     
     4.9440799999999996    0.0000000000000000    0.0000000000000000
     0.0000000000000000    8.5647549999999999    0.0000000000000000
     0.0000000000000000    0.0000000000000000   20.0000000000000000
    12     2     1
Selective dynamics
Direct
  0.0011162972194837  0.2932695707487787  0.0949707403410283   T   T   T
  0.2533663541427053  0.0404361155194792  0.0951351756215626   T   T   T
  0.0046948935965517  0.9566830335866818  0.0948948348661064   T   T   T
  0.7493735873683618  0.2071827780198636  0.0918198713260115   T   T   T
  0.4970399065550417  0.2925002593908262  0.0949271197477959   T   T   T
  0.7525573913023117  0.0405549113645138  0.0923155192972862   T   T   T
  0.7499481015994158  0.7121201583958242  0.1006563591054310   T   T   T
  0.7432573402342123  0.5401253956153910  0.1017142648941252   T   T   T
  0.5039900836438217  0.9565240098174007  0.0962561713614851   T   T   T
  0.4933255343643976  0.4568480819808042  0.1015858677938119   T   T   T
 -0.0025741460243162  0.4575558195354735  0.1019828101517237   T   T   T
 -0.0011299542180665  0.7903004850774125  0.0994041385793970   T   T   T
  0.5063130237450995  0.7941040702814863  0.1031781900384616   T   T   T
  0.2508036110230563  0.2074496385387835  0.0942223581422236   T   T   T
  0.2479179754479245  0.6260266721272834  0.1449165787335533   T   T   T
 
  0.00000000E+00  0.00000000E+00  0.00000000E+00
  0.00000000E+00  0.00000000E+00  0.00000000E+00
  0.00000000E+00  0.00000000E+00  0.00000000E+00
  0.00000000E+00  0.00000000E+00  0.00000000E+00
  0.00000000E+00  0.00000000E+00  0.00000000E+00
  0.00000000E+00  0.00000000E+00  0.00000000E+00
  0.00000000E+00  0.00000000E+00  0.00000000E+00
  0.00000000E+00  0.00000000E+00  0.00000000E+00
  0.00000000E+00  0.00000000E+00  0.00000000E+00
  0.00000000E+00  0.00000000E+00  0.00000000E+00
  0.00000000E+00  0.00000000E+00  0.00000000E+00
  0.00000000E+00  0.00000000E+00  0.00000000E+00
  0.00000000E+00  0.00000000E+00  0.00000000E+00
  0.00000000E+00  0.00000000E+00  0.00000000E+00
  0.00000000E+00  0.00000000E+00  0.00000000E+00
