Title                                   
   1.00000000000000     
     8.5490480000000009    0.0000000000000000    0.0000000000000000
     0.0000000000000000    8.5490480000000009    0.0000000000000000
     0.0000000000000000    0.0000000000000000   20.0000000000000000
    18     6     1
Selective dynamics
Direct
  0.9086732190272302  0.2058831589544296  0.0974571300670252   T   T   T
  0.9105910987714145  0.8005449119731859  0.0974471681180399   T   T   T
  0.1959923998170317  0.0838158275758127  0.0977050332573244   T   T   T
  0.0758687917649513  0.2014623421319990  0.0975723178958294   T   T   T
  0.1559939057768994  0.6521819100925800  0.0977489817444062   T   T   T
  0.0778901745044242  0.5008774097549895  0.0977637470226803   T   T   T
  0.1556281947513961  0.3507964233528795  0.0977951896562010   T   T   T
  0.0784369778143381  0.7991844992431540  0.0975493113952667   T   T   T
  0.4933665779347357  0.0883924747992651  0.0978809720393920   T   T   T
  0.3429513159599716  0.1651512593059117  0.0979134357436594   T   T   T
  0.4926208228450341  0.9163937967443208  0.0978208908525760   T   T   T
  0.3431799852462474  0.8367070046835101  0.0978391841757939   T   T   T
  0.7885850916838726  0.0872895615508209  0.0975011056357091   T   T   T
  0.6423675106097133  0.1683952216821718  0.0977792028100128   T   T   T
  0.7891156946292849  0.9183932188817805  0.0974797452968412   T   T   T
  0.8306117367426504  0.6513613290024847  0.0976657353115811   T   T   T
  0.8291052412210997  0.3538649843466679  0.0977066487476163   T   T   T
  0.6429392833126926  0.8358570906853068  0.0976886206922479   T   T   T
  0.9072810773895150  0.5024042695261417  0.0977571306989230   T   T   T
  0.3178144313662949  0.3270136668460982  0.0980543537595987   T   T   T
  0.3179805023958208  0.6778649389385736  0.0979876948403045   T   T   T
  0.6684782953619351  0.3323042447734678  0.0979174421912177   T   T   T
  0.6700709847383209  0.6723609428830369  0.0978006713896414   T   T   T
  0.1969572716226247  0.9161878538255142  0.0976900467590688   T   T   T
  0.4929114147124933  0.5001016584458959  0.0981832398990232   T   T   T
 
  0.00000000E+00  0.00000000E+00  0.00000000E+00
  0.00000000E+00  0.00000000E+00  0.00000000E+00
  0.00000000E+00  0.00000000E+00  0.00000000E+00
  0.00000000E+00  0.00000000E+00  0.00000000E+00
  0.00000000E+00  0.00000000E+00  0.00000000E+00
  0.00000000E+00  0.00000000E+00  0.00000000E+00
  0.00000000E+00  0.00000000E+00  0.00000000E+00
  0.00000000E+00  0.00000000E+00  0.00000000E+00
  0.00000000E+00  0.00000000E+00  0.00000000E+00
  0.00000000E+00  0.00000000E+00  0.00000000E+00
  0.00000000E+00  0.00000000E+00  0.00000000E+00
  0.00000000E+00  0.00000000E+00  0.00000000E+00
  0.00000000E+00  0.00000000E+00  0.00000000E+00
  0.00000000E+00  0.00000000E+00  0.00000000E+00
  0.00000000E+00  0.00000000E+00  0.00000000E+00
  0.00000000E+00  0.00000000E+00  0.00000000E+00
  0.00000000E+00  0.00000000E+00  0.00000000E+00
  0.00000000E+00  0.00000000E+00  0.00000000E+00
  0.00000000E+00  0.00000000E+00  0.00000000E+00
  0.00000000E+00  0.00000000E+00  0.00000000E+00
  0.00000000E+00  0.00000000E+00  0.00000000E+00
  0.00000000E+00  0.00000000E+00  0.00000000E+00
  0.00000000E+00  0.00000000E+00  0.00000000E+00
  0.00000000E+00  0.00000000E+00  0.00000000E+00
  0.00000000E+00  0.00000000E+00  0.00000000E+00
