Title                                   
   1.00000000000000     
     9.8694509999999998    0.0000000000000000    0.0000000000000000
     0.0000000000000000    8.5490480000000009    0.0000000000000000
     0.0000000000000000    0.0000000000000000   20.0000000000000000
    27     3     1
Selective dynamics
Direct
  0.0552621563688562  0.0889299516678375  0.0819347268745430   T   T   T
  0.9304073064990092  0.1721201209167933  0.0832106188892634   T   T   T
  0.0574792418562473  0.9227400863230306  0.0831349423177558   T   T   T
  0.9338664260378722  0.3393100714950215  0.0822789420081394   T   T   T
  0.0574618467800803  0.5898743972328119  0.0794495054708966   T   T   T
  0.9339110681332359  0.6739906255639578  0.0849854794428039   T   T   T
  0.0575753550481121  0.4232548974907409  0.0784056041682440   T   T   T
  0.9317432719070233  0.8410299851583551  0.0862224799897773   T   T   T
  0.3059824553195331  0.0873286018480704  0.0908774426140957   T   T   T
  0.1808016921426600  0.1697208656012168  0.0838901501268528   T   T   T
  0.1806087885233119  0.3371028823798505  0.0825684912918307   T   T   T
  0.3019787292667682  0.5870681461825371  0.0945839032836258   T   T   T
  0.1823019071257232  0.6721672548130071  0.0837455739697305   T   T   T
  0.3005267360510640  0.4179776998163346  0.0949558275120567   T   T   T
  0.1828758748166842  0.8403562830692731  0.0851064142616115   T   T   T
  0.4269305106090887  0.1757833530178541  0.1021727465295578   T   T   T
  0.5544057701860611  0.9249993359150770  0.1063246632405162   T   T   T
  0.4231869617477988  0.6709029831662995  0.1115309007146806   T   T   T
  0.4292659891455964  0.8381257445905019  0.1031732555429781   T   T   T
  0.8037334200616413  0.0905943463544739  0.0904569666184337   T   T   T
  0.6814407923734669  0.1789951635565726  0.0996127840596092   T   T   T
  0.8057085930286525  0.9227892099111870  0.0931670879244886   T   T   T
  0.6896821243961475  0.3438299998609237  0.1076657172245744   T   T   T
  0.8145994361160872  0.5913361619198519  0.0968710071829311   T   T   T
  0.6900213669607119  0.6694765388402169  0.1148356845055360   T   T   T
  0.8143174491379249  0.4227992193941017  0.0941493443145965   T   T   T
  0.6815369692936553  0.8385935663172369  0.1054042372926943   T   T   T
  0.5543901612989570  0.0936337286199962  0.1043269298737650   T   T   T
  0.4178353344432173  0.3343979404612430  0.1115499709115695   T   T   T
  0.3062606280168684  0.9222767911787692  0.0912995231706980   T   T   T
  0.5570366373079592  0.5093690473368759  0.1330740786721918   T   T   T
 
  0.00000000E+00  0.00000000E+00  0.00000000E+00
  0.00000000E+00  0.00000000E+00  0.00000000E+00
  0.00000000E+00  0.00000000E+00  0.00000000E+00
  0.00000000E+00  0.00000000E+00  0.00000000E+00
  0.00000000E+00  0.00000000E+00  0.00000000E+00
  0.00000000E+00  0.00000000E+00  0.00000000E+00
  0.00000000E+00  0.00000000E+00  0.00000000E+00
  0.00000000E+00  0.00000000E+00  0.00000000E+00
  0.00000000E+00  0.00000000E+00  0.00000000E+00
  0.00000000E+00  0.00000000E+00  0.00000000E+00
  0.00000000E+00  0.00000000E+00  0.00000000E+00
  0.00000000E+00  0.00000000E+00  0.00000000E+00
  0.00000000E+00  0.00000000E+00  0.00000000E+00
  0.00000000E+00  0.00000000E+00  0.00000000E+00
  0.00000000E+00  0.00000000E+00  0.00000000E+00
  0.00000000E+00  0.00000000E+00  0.00000000E+00
  0.00000000E+00  0.00000000E+00  0.00000000E+00
  0.00000000E+00  0.00000000E+00  0.00000000E+00
  0.00000000E+00  0.00000000E+00  0.00000000E+00
  0.00000000E+00  0.00000000E+00  0.00000000E+00
  0.00000000E+00  0.00000000E+00  0.00000000E+00
  0.00000000E+00  0.00000000E+00  0.00000000E+00
  0.00000000E+00  0.00000000E+00  0.00000000E+00
  0.00000000E+00  0.00000000E+00  0.00000000E+00
  0.00000000E+00  0.00000000E+00  0.00000000E+00
  0.00000000E+00  0.00000000E+00  0.00000000E+00
  0.00000000E+00  0.00000000E+00  0.00000000E+00
  0.00000000E+00  0.00000000E+00  0.00000000E+00
  0.00000000E+00  0.00000000E+00  0.00000000E+00
  0.00000000E+00  0.00000000E+00  0.00000000E+00
  0.00000000E+00  0.00000000E+00  0.00000000E+00
