Title                                   
   1.00000000000000     
     8.5490480000000009    0.0000000000000000    0.0000000000000000
     0.0000000000000000    8.5490480000000009    0.0000000000000000
     0.0000000000000000    0.0000000000000000   20.0000000000000000
    17     7     1
Selective dynamics
Direct
  0.9074218153469208  0.2059440698994261  0.0974420789436485   T   T   T
  0.9106690828541230  0.8006203693617570  0.0975637518294546   T   T   T
  0.1970472031828744  0.0835076696104047  0.0976025356784295   T   T   T
  0.0768116636015622  0.2006246570070235  0.0975724131517733   T   T   T
  0.1589181465646343  0.6504239521714952  0.0978333369335515   T   T   T
  0.0784983743037176  0.5000747228452872  0.0978028345931662   T   T   T
  0.1580882009320948  0.3508518518161018  0.0978096669819332   T   T   T
  0.0796082128845901  0.7985800466029145  0.0976636229981090   T   T   T
  0.3447060636297574  0.1671003011984975  0.0978539715149394   T   T   T
  0.4930194152505222  0.9173415288036924  0.0977868411896896   T   T   T
  0.3447717118426767  0.8357490280291850  0.0977536467086416   T   T   T
  0.7875144454710201  0.0872550270311837  0.0974355010825818   T   T   T
  0.6402367659460463  0.1696590487839702  0.0977249961718427   T   T   T
  0.7901415971211114  0.9185719857330885  0.0975374542301358   T   T   T
  0.8274316641591350  0.6506788852988215  0.0977339710478205   T   T   T
  0.8259040256868330  0.3540159056761141  0.0976912401080700   T   T   T
  0.6420231382687847  0.8367063993853481  0.0977643587736580   T   T   T
  0.4932705872121430  0.0899571417323800  0.0979149969206740   T   T   T
  0.9056243521700627  0.5019885063542280  0.0977718722512854   T   T   T
  0.3224747248461115  0.3284502050165728  0.0980270856881637   T   T   T
  0.3226632103536982  0.6745945969175440  0.0979804435616149   T   T   T
  0.6624554000064770  0.3325868023674680  0.0978981425920128   T   T   T
  0.6661658204457733  0.6719928108432343  0.0979194957584601   T   T   T
  0.1970603889217068  0.9145803679591167  0.0976339638455263   T   T   T
  0.4928859889976168  0.5029341195551444  0.0979867774447977   T   T   T
 
  0.00000000E+00  0.00000000E+00  0.00000000E+00
  0.00000000E+00  0.00000000E+00  0.00000000E+00
  0.00000000E+00  0.00000000E+00  0.00000000E+00
  0.00000000E+00  0.00000000E+00  0.00000000E+00
  0.00000000E+00  0.00000000E+00  0.00000000E+00
  0.00000000E+00  0.00000000E+00  0.00000000E+00
  0.00000000E+00  0.00000000E+00  0.00000000E+00
  0.00000000E+00  0.00000000E+00  0.00000000E+00
  0.00000000E+00  0.00000000E+00  0.00000000E+00
  0.00000000E+00  0.00000000E+00  0.00000000E+00
  0.00000000E+00  0.00000000E+00  0.00000000E+00
  0.00000000E+00  0.00000000E+00  0.00000000E+00
  0.00000000E+00  0.00000000E+00  0.00000000E+00
  0.00000000E+00  0.00000000E+00  0.00000000E+00
  0.00000000E+00  0.00000000E+00  0.00000000E+00
  0.00000000E+00  0.00000000E+00  0.00000000E+00
  0.00000000E+00  0.00000000E+00  0.00000000E+00
  0.00000000E+00  0.00000000E+00  0.00000000E+00
  0.00000000E+00  0.00000000E+00  0.00000000E+00
  0.00000000E+00  0.00000000E+00  0.00000000E+00
  0.00000000E+00  0.00000000E+00  0.00000000E+00
  0.00000000E+00  0.00000000E+00  0.00000000E+00
  0.00000000E+00  0.00000000E+00  0.00000000E+00
  0.00000000E+00  0.00000000E+00  0.00000000E+00
  0.00000000E+00  0.00000000E+00  0.00000000E+00
