Title                                   
   1.00000000000000     
     4.9440799999999996    0.0000000000000000    0.0000000000000000
     0.0000000000000000   17.1295089999999988    0.0000000000000000
     0.0000000000000000    0.0000000000000000   20.0000000000000000
    27     3     1
Selective dynamics
Direct
  0.0038747350706782  0.1061958204894137  0.2950168889377371   T   T   T
  0.2543726656642542  0.1488284397967544  0.2968125654866862   T   T   T
  0.2573381488911939  0.2334841474127226  0.2992831877408464   T   T   T
  0.0039180889511111  0.2729716972479700  0.2948253760299581   T   T   T
 -0.0079025812187099  0.6017644905149314  0.3002162112446211   T   T   T
  0.2458674475464940  0.7269898706955141  0.2967553961995827   T   T   T
 -0.0014427016794532  0.8534895904379173  0.2946356213895804   T   T   T
  0.2489320619538368  0.8956936626502023  0.2947538363645465   T   T   T
  0.2506431031798335  0.9796769824141793  0.2950023313782327   T   T   T
 -0.0032119637598248  0.7694364560836888  0.2953820280384513   T   T   T
  0.5022567496552752  0.1058764142111281  0.2965378377082724   T   T   T
  0.7529657452248845  0.1474764728629192  0.2957381613488604   T   T   T
  0.7546785747333720  0.2311947992518888  0.2972013303259157   T   T   T
  0.5008223860620431  0.0218414752982207  0.2955192405913722   T   T   T
  0.7645813970056489  0.3927988099998481  0.3052569133176917   T   T   T
  0.7525995983231560  0.4799631047991286  0.3038865172094651   T   T   T
  0.5103678094957659  0.2746042741722131  0.3049541436400678   T   T   T
  0.4941455850814701  0.6010072253293737  0.3029294131094092   T   T   T
  0.7458504665936802  0.7276061926478514  0.2960345867384078   T   T   T
  0.4982136289986838  0.8535532822892764  0.2948842811933385   T   T   T
  0.7490196637149150  0.8957059218250030  0.2946003399012607   T   T   T
  0.7508057222637770  0.9798624964917600  0.2948164615138971   T   T   T
  0.4961330008909099  0.7694631350501183  0.2957646302562210   T   T   T
  0.7425061263805856  0.6436822194165215  0.2985662409100466   T   T   T
  0.2449408549352655  0.6428612039672141  0.3002015945567777   T   T   T
  0.0017628130542756  0.0220384279424227  0.2947311158741388   T   T   T
  0.5055562598566500  0.5172703262027826  0.3115161947926252   T   T   T
  0.9862185704311381  0.5214148616102698  0.3037173750103303   T   T   T
  0.5258892801603858  0.3546708289869496  0.3204336898968462   T   T   T
 -0.0079170255706099  0.3530995883990944  0.2890163409344696   T   T   T
  0.2362207881093143  0.4368197815027174  0.3260701483602940   T   T   T
 
  0.00000000E+00  0.00000000E+00  0.00000000E+00
  0.00000000E+00  0.00000000E+00  0.00000000E+00
  0.00000000E+00  0.00000000E+00  0.00000000E+00
  0.00000000E+00  0.00000000E+00  0.00000000E+00
  0.00000000E+00  0.00000000E+00  0.00000000E+00
  0.00000000E+00  0.00000000E+00  0.00000000E+00
  0.00000000E+00  0.00000000E+00  0.00000000E+00
  0.00000000E+00  0.00000000E+00  0.00000000E+00
  0.00000000E+00  0.00000000E+00  0.00000000E+00
  0.00000000E+00  0.00000000E+00  0.00000000E+00
  0.00000000E+00  0.00000000E+00  0.00000000E+00
  0.00000000E+00  0.00000000E+00  0.00000000E+00
  0.00000000E+00  0.00000000E+00  0.00000000E+00
  0.00000000E+00  0.00000000E+00  0.00000000E+00
  0.00000000E+00  0.00000000E+00  0.00000000E+00
  0.00000000E+00  0.00000000E+00  0.00000000E+00
  0.00000000E+00  0.00000000E+00  0.00000000E+00
  0.00000000E+00  0.00000000E+00  0.00000000E+00
  0.00000000E+00  0.00000000E+00  0.00000000E+00
  0.00000000E+00  0.00000000E+00  0.00000000E+00
  0.00000000E+00  0.00000000E+00  0.00000000E+00
  0.00000000E+00  0.00000000E+00  0.00000000E+00
  0.00000000E+00  0.00000000E+00  0.00000000E+00
  0.00000000E+00  0.00000000E+00  0.00000000E+00
  0.00000000E+00  0.00000000E+00  0.00000000E+00
  0.00000000E+00  0.00000000E+00  0.00000000E+00
  0.00000000E+00  0.00000000E+00  0.00000000E+00
  0.00000000E+00  0.00000000E+00  0.00000000E+00
  0.00000000E+00  0.00000000E+00  0.00000000E+00
  0.00000000E+00  0.00000000E+00  0.00000000E+00
  0.00000000E+00  0.00000000E+00  0.00000000E+00
