Title                                   
   1.00000000000000     
     4.9440799999999996    0.0000000000000000    0.0000000000000000
     0.0000000000000000   17.1295089999999988    0.0000000000000000
     0.0000000000000000    0.0000000000000000   20.0000000000000000
    27     4     1
Selective dynamics
Direct
  0.0003675498279557  0.1044254006635134  0.2967650972894497   T   T   T
  0.2499329910921465  0.1466332969131073  0.2967709793916596   T   T   T
  0.2499033637024637  0.2304536439912991  0.2966386588190539   T   T   T
  0.0075068688192213  0.3549897312903021  0.2967666165775767   T   T   T
 -0.0021808583338908  0.2719526665182891  0.2965981526295670   T   T   T
 -0.0050393696313618  0.6018837569615911  0.3014527319111460   T   T   T
  0.2499115557423636  0.7266916026285407  0.2978175164731980   T   T   T
  0.0005640522678165  0.8533101688660214  0.2962055763340939   T   T   T
  0.2499191178583750  0.8953984293484815  0.2962292060729944   T   T   T
  0.2499204227081073  0.9789406680689083  0.2965105006702766   T   T   T
  0.0008052404854723  0.7696932756375831  0.2968382758995510   T   T   T
  0.4994946759187441  0.1044267862895329  0.2967624424028395   T   T   T
  0.7499311312717829  0.1463271337489157  0.2966621826795735   T   T   T
  0.7499045472406235  0.2293523021418153  0.2964550753026977   T   T   T
  0.4997538102438038  0.0208984542370036  0.2966234637040209   T   T   T
  0.4922560252540304  0.3549927571868398  0.2967604652027527   T   T   T
  0.7498778236096886  0.4847830438058688  0.3020005635240851   T   T   T
  0.5019885543362670  0.2719518590401407  0.2965948607208632   T   T   T
  0.5048376920527350  0.6018847150573038  0.3014352733439432   T   T   T
  0.7499100580873467  0.7286326504446488  0.2971565071393137   T   T   T
  0.4992691505140929  0.8533064221487061  0.2961998201700362   T   T   T
  0.7499176408693774  0.8952110608492987  0.2961083811116458   T   T   T
  0.7499110580476671  0.9788275484149788  0.2964099208953296   T   T   T
  0.4990115059679580  0.7696926310316462  0.2968306620705750   T   T   T
  0.7499004623768465  0.6454647033988234  0.2992726738049938   T   T   T
  0.2498947501789563  0.6427085956772653  0.3001723918601790   T   T   T
  0.0000885040697400  0.0208961328225963  0.2966228065320762   T   T   T
  0.5109602098503830  0.5219505420012012  0.3042216644869206   T   T   T
  0.9887965534413513  0.5219501848367603  0.3042851489803017   T   T   T
  0.2498809080077090  0.3919885654920049  0.2974253754221869   T   T   T
  0.7498841730888655  0.3996722097424022  0.2964584326208394   T   T   T
  0.2497428310333692  0.4792600607446015  0.3895135759562115   T   T   T
 
  0.00000000E+00  0.00000000E+00  0.00000000E+00
  0.00000000E+00  0.00000000E+00  0.00000000E+00
  0.00000000E+00  0.00000000E+00  0.00000000E+00
  0.00000000E+00  0.00000000E+00  0.00000000E+00
  0.00000000E+00  0.00000000E+00  0.00000000E+00
  0.00000000E+00  0.00000000E+00  0.00000000E+00
  0.00000000E+00  0.00000000E+00  0.00000000E+00
  0.00000000E+00  0.00000000E+00  0.00000000E+00
  0.00000000E+00  0.00000000E+00  0.00000000E+00
  0.00000000E+00  0.00000000E+00  0.00000000E+00
  0.00000000E+00  0.00000000E+00  0.00000000E+00
  0.00000000E+00  0.00000000E+00  0.00000000E+00
  0.00000000E+00  0.00000000E+00  0.00000000E+00
  0.00000000E+00  0.00000000E+00  0.00000000E+00
  0.00000000E+00  0.00000000E+00  0.00000000E+00
  0.00000000E+00  0.00000000E+00  0.00000000E+00
  0.00000000E+00  0.00000000E+00  0.00000000E+00
  0.00000000E+00  0.00000000E+00  0.00000000E+00
  0.00000000E+00  0.00000000E+00  0.00000000E+00
  0.00000000E+00  0.00000000E+00  0.00000000E+00
  0.00000000E+00  0.00000000E+00  0.00000000E+00
  0.00000000E+00  0.00000000E+00  0.00000000E+00
  0.00000000E+00  0.00000000E+00  0.00000000E+00
  0.00000000E+00  0.00000000E+00  0.00000000E+00
  0.00000000E+00  0.00000000E+00  0.00000000E+00
  0.00000000E+00  0.00000000E+00  0.00000000E+00
  0.00000000E+00  0.00000000E+00  0.00000000E+00
  0.00000000E+00  0.00000000E+00  0.00000000E+00
  0.00000000E+00  0.00000000E+00  0.00000000E+00
  0.00000000E+00  0.00000000E+00  0.00000000E+00
  0.00000000E+00  0.00000000E+00  0.00000000E+00
  0.00000000E+00  0.00000000E+00  0.00000000E+00
