Title                                   
   1.00000000000000     
     4.9440799999999996    0.0000000000000000    0.0000000000000000
     0.0000000000000000    8.5647549999999999    0.0000000000000000
     0.0000000000000000    0.0000000000000000   20.0000000000000000
    12     3     1
Selective dynamics
Direct
  0.2500000000000000  0.2117848753826116  0.0908277751570794   T   T   T
 -0.0054839586226270  0.2913405362314119  0.0935820635038826   T   T   T
  0.2500000000000000  0.0441963280130424  0.0877007694226145   T   T   T
  0.0027761009020600  0.7961716512244130  0.1018310071457203   T   T   T
 -0.0002299310015751  0.9593983449738241  0.0880407780826353   T   T   T
  0.7500000000000000  0.2067284654534986  0.0853033991230703   T   T   T
  0.5054839586226271  0.2913405362314119  0.0935820635038826   T   T   T
  0.7500000000000000  0.0409852188109333  0.0829009917960944   T   T   T
  0.7500000000000000  0.7048563722204010  0.1050530053821226   T   T   T
  0.4972238990979401  0.7961716512244130  0.1018310071457203   T   T   T
  0.7500000000000000  0.5326681717607454  0.1061217738418029   T   T   T
  0.5002299310015751  0.9593983449738241  0.0880407780826353   T   T   T
  0.5160200307742910  0.4481657614165539  0.1081477027657589   T   T   T
 -0.0160200307742908  0.4481657614165539  0.1081477027657589   T   T   T
  0.2500000000000000  0.7303495005399570  0.1176608091112060   T   T   T
  0.2500000000000000  0.5382784801264047  0.1637403731700233   T   T   T
 
  0.00000000E+00  0.00000000E+00  0.00000000E+00
  0.00000000E+00  0.00000000E+00  0.00000000E+00
  0.00000000E+00  0.00000000E+00  0.00000000E+00
  0.00000000E+00  0.00000000E+00  0.00000000E+00
  0.00000000E+00  0.00000000E+00  0.00000000E+00
  0.00000000E+00  0.00000000E+00  0.00000000E+00
  0.00000000E+00  0.00000000E+00  0.00000000E+00
  0.00000000E+00  0.00000000E+00  0.00000000E+00
  0.00000000E+00  0.00000000E+00  0.00000000E+00
  0.00000000E+00  0.00000000E+00  0.00000000E+00
  0.00000000E+00  0.00000000E+00  0.00000000E+00
  0.00000000E+00  0.00000000E+00  0.00000000E+00
  0.00000000E+00  0.00000000E+00  0.00000000E+00
  0.00000000E+00  0.00000000E+00  0.00000000E+00
  0.00000000E+00  0.00000000E+00  0.00000000E+00
  0.00000000E+00  0.00000000E+00  0.00000000E+00
