Title                                   
   1.00000000000000     
     9.8694509999999998    0.0000000000000000    0.0000000000000000
     0.0000000000000000    8.5490480000000009    0.0000000000000000
     0.0000000000000000    0.0000000000000000   20.0000000000000000
    27     3     1
Selective dynamics
Direct
  0.0555628783478857  0.0880798703940588  0.0915599181995835   T   T   T
  0.9310427290909201  0.1714016458844734  0.0917490159793005   T   T   T
  0.0570034115009370  0.9226436555489359  0.0917789311271722   T   T   T
  0.9332203666335541  0.3385546500040464  0.0911502197471121   T   T   T
  0.0555144202364422  0.5910229672342135  0.0909901145344668   T   T   T
  0.0558664585261924  0.4243230053552494  0.0905403743991882   T   T   T
  0.9316672655457331  0.8384803288564749  0.0922528669093797   T   T   T
  0.3071416773060095  0.0893943017290429  0.0948010044850747   T   T   T
  0.1815222432660008  0.1707536433287108  0.0924678712736978   T   T   T
  0.1794798026160009  0.3388760358456713  0.0922300686409426   T   T   T
  0.3008156077911210  0.5903074037571915  0.0960591037190709   T   T   T
  0.1793330860801360  0.6752193539409539  0.0926771660380449   T   T   T
  0.3014865598043561  0.4208199142938386  0.0959860833966629   T   T   T
  0.1825611188072236  0.8418744242751701  0.0928839643567056   T   T   T
  0.4316445084759606  0.1767225430072950  0.0977600749180068   T   T   T
  0.5553662394031815  0.9235062954730855  0.0981643335424581   T   T   T
  0.4283240855532818  0.3429216775107110  0.0997234240437584   T   T   T
  0.4264456689094486  0.6691988392960823  0.0998088386113700   T   T   T
  0.4296897841902648  0.8357714419959261  0.0980642434711714   T   T   T
  0.8053887922059059  0.0890548962559640  0.0938638792400325   T   T   T
  0.6812869019975710  0.1780494912072438  0.0963791042421837   T   T   T
  0.8062190939758289  0.9202778825032165  0.0941210344490098   T   T   T
  0.6845956310342717  0.3447435184259914  0.0971756015204824   T   T   T
  0.8113049944995580  0.5918147730683189  0.0941760571802805   T   T   T
  0.6860032049912335  0.6675116380107565  0.0975648229189866   T   T   T
  0.8120057362535316  0.4210732346016202  0.0936986043704194   T   T   T
  0.6802064014563748  0.8355449713270150  0.0968624197461580   T   T   T
  0.9335515079832984  0.6733057183872061  0.0918163687952348   T   T   T
  0.5568567242356246  0.0908258157894171  0.0980612537933579   T   T   T
  0.3053072001519808  0.9223621819575404  0.0948946806878211   T   T   T
  0.5567208991301712  0.5064388807345994  0.1017035556628933   T   T   T
 
  0.00000000E+00  0.00000000E+00  0.00000000E+00
  0.00000000E+00  0.00000000E+00  0.00000000E+00
  0.00000000E+00  0.00000000E+00  0.00000000E+00
  0.00000000E+00  0.00000000E+00  0.00000000E+00
  0.00000000E+00  0.00000000E+00  0.00000000E+00
  0.00000000E+00  0.00000000E+00  0.00000000E+00
  0.00000000E+00  0.00000000E+00  0.00000000E+00
  0.00000000E+00  0.00000000E+00  0.00000000E+00
  0.00000000E+00  0.00000000E+00  0.00000000E+00
  0.00000000E+00  0.00000000E+00  0.00000000E+00
  0.00000000E+00  0.00000000E+00  0.00000000E+00
  0.00000000E+00  0.00000000E+00  0.00000000E+00
  0.00000000E+00  0.00000000E+00  0.00000000E+00
  0.00000000E+00  0.00000000E+00  0.00000000E+00
  0.00000000E+00  0.00000000E+00  0.00000000E+00
  0.00000000E+00  0.00000000E+00  0.00000000E+00
  0.00000000E+00  0.00000000E+00  0.00000000E+00
  0.00000000E+00  0.00000000E+00  0.00000000E+00
  0.00000000E+00  0.00000000E+00  0.00000000E+00
  0.00000000E+00  0.00000000E+00  0.00000000E+00
  0.00000000E+00  0.00000000E+00  0.00000000E+00
  0.00000000E+00  0.00000000E+00  0.00000000E+00
  0.00000000E+00  0.00000000E+00  0.00000000E+00
  0.00000000E+00  0.00000000E+00  0.00000000E+00
  0.00000000E+00  0.00000000E+00  0.00000000E+00
  0.00000000E+00  0.00000000E+00  0.00000000E+00
  0.00000000E+00  0.00000000E+00  0.00000000E+00
  0.00000000E+00  0.00000000E+00  0.00000000E+00
  0.00000000E+00  0.00000000E+00  0.00000000E+00
  0.00000000E+00  0.00000000E+00  0.00000000E+00
  0.00000000E+00  0.00000000E+00  0.00000000E+00
