Title                                   
   1.00000000000000     
     8.5490480000000009    0.0000000000000000    0.0000000000000000
     0.0000000000000000    8.5490480000000009    0.0000000000000000
     0.0000000000000000    0.0000000000000000   20.0000000000000000
    21     3     1
Selective dynamics
Direct
  0.9096740457397132  0.2078459563841100  0.0959407569969696   T   T   T
  0.9110756422054651  0.7981960447348089  0.0958097106283028   T   T   T
  0.2000610185184854  0.0829041536852017  0.0958613659630395   T   T   T
  0.0760715976684080  0.2042953758082272  0.0959420874799881   T   T   T
  0.1573379921219949  0.6499338204970708  0.0978201244598550   T   T   T
  0.0763000051397693  0.5010999775621523  0.0972299965291706   T   T   T
  0.1569228550544538  0.3543984553064461  0.0970091303651686   T   T   T
  0.0780444816683081  0.7985965844740470  0.0962383901894031   T   T   T
  0.3471228107441224  0.1648442215310620  0.0967751481148404   T   T   T
  0.4928502822204048  0.9193647680847515  0.0972714842471961   T   T   T
  0.3453271848366372  0.8369154783231948  0.0980731895455430   T   T   T
  0.7859727048230648  0.0847942300475638  0.0960012587644273   T   T   T
  0.6377239625860543  0.1666417318568368  0.0971104775238613   T   T   T
  0.7875759002312596  0.9193024583920718  0.0959248534955559   T   T   T
  0.8294430986303053  0.6483939221749879  0.0966407009014138   T   T   T
  0.8284308756722887  0.3564073717245025  0.0969819227964594   T   T   T
  0.6384119912268712  0.8375234256117799  0.0969409281144019   T   T   T
  0.3270001016506797  0.3333227154398926  0.0997318683041301   T   T   T
  0.3248560514957566  0.6713945785589369  0.1008053299869506   T   T   T
  0.6588303060918891  0.3360719898374250  0.1006654780686347   T   T   T
  0.6609471783477250  0.6675831990149609  0.0995794027480736   T   T   T
  0.4944745528112658  0.0858238408816681  0.0969562459626645   T   T   T
  0.9092657488022468  0.5014550688229802  0.0968027977564067   T   T   T
  0.1970791963977478  0.9175510692666082  0.0963004300545412   T   T   T
  0.4946124153150687  0.5001295619787196  0.1092919210029821   T   T   T
 
  0.00000000E+00  0.00000000E+00  0.00000000E+00
  0.00000000E+00  0.00000000E+00  0.00000000E+00
  0.00000000E+00  0.00000000E+00  0.00000000E+00
  0.00000000E+00  0.00000000E+00  0.00000000E+00
  0.00000000E+00  0.00000000E+00  0.00000000E+00
  0.00000000E+00  0.00000000E+00  0.00000000E+00
  0.00000000E+00  0.00000000E+00  0.00000000E+00
  0.00000000E+00  0.00000000E+00  0.00000000E+00
  0.00000000E+00  0.00000000E+00  0.00000000E+00
  0.00000000E+00  0.00000000E+00  0.00000000E+00
  0.00000000E+00  0.00000000E+00  0.00000000E+00
  0.00000000E+00  0.00000000E+00  0.00000000E+00
  0.00000000E+00  0.00000000E+00  0.00000000E+00
  0.00000000E+00  0.00000000E+00  0.00000000E+00
  0.00000000E+00  0.00000000E+00  0.00000000E+00
  0.00000000E+00  0.00000000E+00  0.00000000E+00
  0.00000000E+00  0.00000000E+00  0.00000000E+00
  0.00000000E+00  0.00000000E+00  0.00000000E+00
  0.00000000E+00  0.00000000E+00  0.00000000E+00
  0.00000000E+00  0.00000000E+00  0.00000000E+00
  0.00000000E+00  0.00000000E+00  0.00000000E+00
  0.00000000E+00  0.00000000E+00  0.00000000E+00
  0.00000000E+00  0.00000000E+00  0.00000000E+00
  0.00000000E+00  0.00000000E+00  0.00000000E+00
  0.00000000E+00  0.00000000E+00  0.00000000E+00
