Title                                   
   1.00000000000000     
     9.8694509999999998    0.0000000000000000    0.0000000000000000
     0.0000000000000000    8.5490480000000009    0.0000000000000000
     0.0000000000000000    0.0000000000000000   20.0000000000000000
    25     5     1
Selective dynamics
Direct
  0.0557471170334930  0.0899396261401445  0.0930366398708856   T   T   T
  0.9319819106526933  0.1721434663160848  0.0937413462710362   T   T   T
  0.0573232628403568  0.9229091520995099  0.0931982077733380   T   T   T
  0.9332210583355021  0.3396778675094930  0.0930938498428542   T   T   T
  0.0567511530026506  0.5898939869511535  0.0914631813372043   T   T   T
  0.9333327694234176  0.6731201535810155  0.0931148265930663   T   T   T
  0.0567614638881050  0.4231699041747646  0.0914349360278919   T   T   T
  0.9323111868732609  0.8398666086421347  0.0938385610396146   T   T   T
  0.3062096811188414  0.0882899784381193  0.0961613994433169   T   T   T
  0.1808912073011744  0.1714550235416829  0.0936545801092194   T   T   T
  0.1798907467394664  0.3386169210740498  0.0930343566980964   T   T   T
  0.3024967707401406  0.5902582338464722  0.0965336334561442   T   T   T
  0.1802538657367570  0.6739609683172156  0.0930923595144382   T   T   T
  0.3029194324293957  0.4216917534940894  0.0966205232598848   T   T   T
  0.1811069978952084  0.8402501093162483  0.0938230694410308   T   T   T
  0.5563432786045110  0.0927192337057310  0.1006222130775385   T   T   T
  0.4287932664477886  0.1756187709781613  0.0997571416536916   T   T   T
  0.5551928721760359  0.9199469238675997  0.1004594712607376   T   T   T
  0.4283220007840535  0.8356989622030930  0.0995480317015429   T   T   T
  0.8058168824665497  0.0896299095849814  0.0962187723552619   T   T   T
  0.6830625685034488  0.1773958292683317  0.0996766838878661   T   T   T
  0.8060254332842011  0.9225175436878884  0.0962036276542297   T   T   T
  0.8100597937049379  0.5910913102218407  0.0965754299303196   T   T   T
  0.8100014762376953  0.4213338000600647  0.0966136583891520   T   T   T
  0.6827417417470263  0.8343784134013004  0.0995437014178327   T   T   T
  0.4223355873553992  0.3376327553928173  0.1016831044667452   T   T   T
  0.4217281641930803  0.6762762427896448  0.1015078957953258   T   T   T
  0.6894651943945802  0.3395796978465302  0.1013543790673742   T   T   T
  0.6897345066047137  0.6729616048179218  0.1012506494740446   T   T   T
  0.3065842178017193  0.9230903314528284  0.0959964946140594   T   T   T
  0.5557303916837948  0.5057599172790871  0.1081122745763141   T   T   T
 
  0.00000000E+00  0.00000000E+00  0.00000000E+00
  0.00000000E+00  0.00000000E+00  0.00000000E+00
  0.00000000E+00  0.00000000E+00  0.00000000E+00
  0.00000000E+00  0.00000000E+00  0.00000000E+00
  0.00000000E+00  0.00000000E+00  0.00000000E+00
  0.00000000E+00  0.00000000E+00  0.00000000E+00
  0.00000000E+00  0.00000000E+00  0.00000000E+00
  0.00000000E+00  0.00000000E+00  0.00000000E+00
  0.00000000E+00  0.00000000E+00  0.00000000E+00
  0.00000000E+00  0.00000000E+00  0.00000000E+00
  0.00000000E+00  0.00000000E+00  0.00000000E+00
  0.00000000E+00  0.00000000E+00  0.00000000E+00
  0.00000000E+00  0.00000000E+00  0.00000000E+00
  0.00000000E+00  0.00000000E+00  0.00000000E+00
  0.00000000E+00  0.00000000E+00  0.00000000E+00
  0.00000000E+00  0.00000000E+00  0.00000000E+00
  0.00000000E+00  0.00000000E+00  0.00000000E+00
  0.00000000E+00  0.00000000E+00  0.00000000E+00
  0.00000000E+00  0.00000000E+00  0.00000000E+00
  0.00000000E+00  0.00000000E+00  0.00000000E+00
  0.00000000E+00  0.00000000E+00  0.00000000E+00
  0.00000000E+00  0.00000000E+00  0.00000000E+00
  0.00000000E+00  0.00000000E+00  0.00000000E+00
  0.00000000E+00  0.00000000E+00  0.00000000E+00
  0.00000000E+00  0.00000000E+00  0.00000000E+00
  0.00000000E+00  0.00000000E+00  0.00000000E+00
  0.00000000E+00  0.00000000E+00  0.00000000E+00
  0.00000000E+00  0.00000000E+00  0.00000000E+00
  0.00000000E+00  0.00000000E+00  0.00000000E+00
  0.00000000E+00  0.00000000E+00  0.00000000E+00
  0.00000000E+00  0.00000000E+00  0.00000000E+00
