Title                                   
   1.00000000000000     
     9.8694509999999998    0.0000000000000000    0.0000000000000000
     0.0000000000000000    8.5490480000000009    0.0000000000000000
     0.0000000000000000    0.0000000000000000   20.0000000000000000
    26     4     1
Selective dynamics
Direct
  0.0553914653998475  0.0895665492272069  0.0886808667649528   T   T   T
  0.9303630237979253  0.1728233287844368  0.0886734248819109   T   T   T
  0.0572019158577497  0.9234683702365241  0.0889301030429673   T   T   T
  0.9329341477497990  0.3406092031779097  0.0873287327619883   T   T   T
  0.0566979994961637  0.5897827123145954  0.0859174052079431   T   T   T
  0.9330706026344977  0.6738751598628748  0.0879848891850021   T   T   T
  0.0571362053658825  0.4230922076368953  0.0857938900271833   T   T   T
  0.9323819572194699  0.8407847222208074  0.0896220580001585   T   T   T
  0.3067651331397995  0.0880272852917096  0.0945789111705677   T   T   T
  0.1813137734580181  0.1706821462963118  0.0904112816890761   T   T   T
  0.1806371972420164  0.3374182350427877  0.0893415565995626   T   T   T
  0.3033599724818105  0.5874162377959529  0.0961386819712735   T   T   T
  0.1811341749632100  0.6729999505218786  0.0892249047954613   T   T   T
  0.3024705984598116  0.4188972085788917  0.0960853322270134   T   T   T
  0.1825360051592269  0.8397458042264193  0.0902424094481726   T   T   T
  0.4302125252126334  0.1749599978570776  0.1002362965825974   T   T   T
  0.5557269368004325  0.9217406552060157  0.1009431367029606   T   T   T
  0.4247426536595192  0.6733663914184677  0.1053831232244957   T   T   T
  0.4292964457994791  0.8373097829236291  0.1008557531483450   T   T   T
  0.8042396361035771  0.0890105007677904  0.0922735522207776   T   T   T
  0.6808022698548226  0.1775488975023105  0.0972607216579774   T   T   T
  0.8061834911287833  0.9223390044474747  0.0932115325603471   T   T   T
  0.6857083169472006  0.3410963284230643  0.0999409058791272   T   T   T
  0.8104835615316954  0.5928592995545899  0.0928796940551149   T   T   T
  0.8098359538783144  0.4240465315704409  0.0921382321416327   T   T   T
  0.6813606717189059  0.8361235574886197  0.0989973019368990   T   T   T
  0.5553800574897297  0.0928415062635884  0.1003536305265248   T   T   T
  0.4243874980395992  0.3365043145907360  0.1046397570673717   T   T   T
  0.6882906438103024  0.6722550299052182  0.1015974206753507   T   T   T
  0.3062942548016795  0.9230480533595773  0.0941687455231841   T   T   T
  0.5567959107980989  0.5066360275062247  0.1171307483240948   T   T   T
 
  0.00000000E+00  0.00000000E+00  0.00000000E+00
  0.00000000E+00  0.00000000E+00  0.00000000E+00
  0.00000000E+00  0.00000000E+00  0.00000000E+00
  0.00000000E+00  0.00000000E+00  0.00000000E+00
  0.00000000E+00  0.00000000E+00  0.00000000E+00
  0.00000000E+00  0.00000000E+00  0.00000000E+00
  0.00000000E+00  0.00000000E+00  0.00000000E+00
  0.00000000E+00  0.00000000E+00  0.00000000E+00
  0.00000000E+00  0.00000000E+00  0.00000000E+00
  0.00000000E+00  0.00000000E+00  0.00000000E+00
  0.00000000E+00  0.00000000E+00  0.00000000E+00
  0.00000000E+00  0.00000000E+00  0.00000000E+00
  0.00000000E+00  0.00000000E+00  0.00000000E+00
  0.00000000E+00  0.00000000E+00  0.00000000E+00
  0.00000000E+00  0.00000000E+00  0.00000000E+00
  0.00000000E+00  0.00000000E+00  0.00000000E+00
  0.00000000E+00  0.00000000E+00  0.00000000E+00
  0.00000000E+00  0.00000000E+00  0.00000000E+00
  0.00000000E+00  0.00000000E+00  0.00000000E+00
  0.00000000E+00  0.00000000E+00  0.00000000E+00
  0.00000000E+00  0.00000000E+00  0.00000000E+00
  0.00000000E+00  0.00000000E+00  0.00000000E+00
  0.00000000E+00  0.00000000E+00  0.00000000E+00
  0.00000000E+00  0.00000000E+00  0.00000000E+00
  0.00000000E+00  0.00000000E+00  0.00000000E+00
  0.00000000E+00  0.00000000E+00  0.00000000E+00
  0.00000000E+00  0.00000000E+00  0.00000000E+00
  0.00000000E+00  0.00000000E+00  0.00000000E+00
  0.00000000E+00  0.00000000E+00  0.00000000E+00
  0.00000000E+00  0.00000000E+00  0.00000000E+00
  0.00000000E+00  0.00000000E+00  0.00000000E+00
