Title                                   
   1.00000000000000     
     4.9440799999999996    0.0000000000000000    0.0000000000000000
     0.0000000000000000    8.5647549999999999    0.0000000000000000
     0.0000000000000000    0.0000000000000000   20.0000000000000000
    14     1     1
Selective dynamics
Direct
  0.2500000000000000  0.2073797739268673  0.0905668090507300   T   T   T
 -0.0027066824527504  0.2872848167152930  0.0957901182601654   T   T   T
  0.2500000000000000  0.0422888039030220  0.0834697568809023   T   T   T
  0.0012789004776034  0.7966360648195426  0.0976788297350811   T   T   T
 -0.0001303013548169  0.9589771145177501  0.0837878068043263   T   T   T
  0.7500000000000000  0.2060058648660952  0.0858555215375177   T   T   T
  0.5027066824527504  0.2872848167152930  0.0957901182601654   T   T   T
  0.7500000000000000  0.0404114835922097  0.0799273203151015   T   T   T
  0.7500000000000000  0.7100077371241396  0.1036654735390686   T   T   T
  0.4987210995223966  0.7966360648195426  0.0976788297350811   T   T   T
  0.7500000000000000  0.5407488018088388  0.1098000123217212   T   T   T
  0.5001303013548165  0.9589771145177501  0.0837878068043263   T   T   T
  0.5134183610389168  0.4469665058707324  0.1154912345949896   T   T   T
 -0.0134183610389170  0.4469665058707324  0.1154912345949896   T   T   T
  0.2500000000000000  0.7286619077044215  0.1134922423438439   T   T   T
  0.2500000000000000  0.5447666232277688  0.1702388852219975   T   T   T
 
  0.00000000E+00  0.00000000E+00  0.00000000E+00
  0.00000000E+00  0.00000000E+00  0.00000000E+00
  0.00000000E+00  0.00000000E+00  0.00000000E+00
  0.00000000E+00  0.00000000E+00  0.00000000E+00
  0.00000000E+00  0.00000000E+00  0.00000000E+00
  0.00000000E+00  0.00000000E+00  0.00000000E+00
  0.00000000E+00  0.00000000E+00  0.00000000E+00
  0.00000000E+00  0.00000000E+00  0.00000000E+00
  0.00000000E+00  0.00000000E+00  0.00000000E+00
  0.00000000E+00  0.00000000E+00  0.00000000E+00
  0.00000000E+00  0.00000000E+00  0.00000000E+00
  0.00000000E+00  0.00000000E+00  0.00000000E+00
  0.00000000E+00  0.00000000E+00  0.00000000E+00
  0.00000000E+00  0.00000000E+00  0.00000000E+00
  0.00000000E+00  0.00000000E+00  0.00000000E+00
  0.00000000E+00  0.00000000E+00  0.00000000E+00
