Title                                   
   1.00000000000000     
     9.8694509999999998    0.0000000000000000    0.0000000000000000
     0.0000000000000000    8.5490480000000009    0.0000000000000000
     0.0000000000000000    0.0000000000000000   20.0000000000000000
    28     3     1
Selective dynamics
Direct
  0.0556212074755977  0.0908075103067476  0.0866976640350442   T   T   T
  0.9294052765218430  0.1723086445290520  0.0887951962956122   T   T   T
  0.0545437068739067  0.9239022820804720  0.0866606829417886   T   T   T
  0.9287718081306043  0.3404243418078448  0.0926082266476139   T   T   T
  0.0551922556955839  0.5891241530511394  0.0878360046150951   T   T   T
  0.9298195218916385  0.6719483541417488  0.0926766862978415   T   T   T
  0.0563803569022377  0.4233341187408870  0.0892093410891975   T   T   T
  0.9298310315159790  0.8385909199783369  0.0897377718624675   T   T   T
  0.3045977607537016  0.0901551682776291  0.0888255298004352   T   T   T
  0.1815273986063641  0.1746945435526396  0.0870843644871342   T   T   T
  0.3041041832186627  0.9244175452093422  0.0883806772301183   T   T   T
  0.1845888609062639  0.3433078035022762  0.0868278916681404   T   T   T
  0.3090828438799630  0.5963738783889313  0.0849705818933187   T   T   T
  0.1804413086435536  0.6736028479942657  0.0851926258877382   T   T   T
  0.3117078898991356  0.4260365172633064  0.0857734479814978   T   T   T
  0.1796315599623259  0.8403252821989057  0.0860081453086006   T   T   T
  0.5547172814341941  0.0823309886442017  0.0945353858384457   T   T   T
  0.4319772487391156  0.1685639114764908  0.0907086584929522   T   T   T
  0.4386671632173057  0.3364898195037697  0.0887550960913266   T   T   T
  0.4261276474014268  0.8354691578206891  0.0910406919954766   T   T   T
  0.8060462412970230  0.0866229022352518  0.0902539209193362   T   T   T
  0.6795983587769561  0.1660855268998509  0.0939272544286990   T   T   T
  0.8041666786323936  0.9200364193256167  0.0908751800590657   T   T   T
  0.6759873939942251  0.3334715669980117  0.0960985422990564   T   T   T
  0.8053073184625517  0.5909405745538453  0.1064610939811215   T   T   T
  0.6896468796488032  0.6810699651123715  0.1256287849604104   T   T   T
  0.8035375998530638  0.4218587897315320  0.1003600937119317   T   T   T
  0.6807475204219777  0.8358789456871332  0.1037922804439100   T   T   T
  0.4265997515806993  0.6814087769469704  0.0872633178921194   T   T   T
  0.5581268693149308  0.4121797031512068  0.0925931189802532   T   T   T
  0.5535240676571316  0.9178560274374356  0.0989825027170092   T   T   T
  0.5696140086908469  0.6006290134521066  0.2071142391472767   T   T   T
 
  0.00000000E+00  0.00000000E+00  0.00000000E+00
  0.00000000E+00  0.00000000E+00  0.00000000E+00
  0.00000000E+00  0.00000000E+00  0.00000000E+00
  0.00000000E+00  0.00000000E+00  0.00000000E+00
  0.00000000E+00  0.00000000E+00  0.00000000E+00
  0.00000000E+00  0.00000000E+00  0.00000000E+00
  0.00000000E+00  0.00000000E+00  0.00000000E+00
  0.00000000E+00  0.00000000E+00  0.00000000E+00
  0.00000000E+00  0.00000000E+00  0.00000000E+00
  0.00000000E+00  0.00000000E+00  0.00000000E+00
  0.00000000E+00  0.00000000E+00  0.00000000E+00
  0.00000000E+00  0.00000000E+00  0.00000000E+00
  0.00000000E+00  0.00000000E+00  0.00000000E+00
  0.00000000E+00  0.00000000E+00  0.00000000E+00
  0.00000000E+00  0.00000000E+00  0.00000000E+00
  0.00000000E+00  0.00000000E+00  0.00000000E+00
  0.00000000E+00  0.00000000E+00  0.00000000E+00
  0.00000000E+00  0.00000000E+00  0.00000000E+00
  0.00000000E+00  0.00000000E+00  0.00000000E+00
  0.00000000E+00  0.00000000E+00  0.00000000E+00
  0.00000000E+00  0.00000000E+00  0.00000000E+00
  0.00000000E+00  0.00000000E+00  0.00000000E+00
  0.00000000E+00  0.00000000E+00  0.00000000E+00
  0.00000000E+00  0.00000000E+00  0.00000000E+00
  0.00000000E+00  0.00000000E+00  0.00000000E+00
  0.00000000E+00  0.00000000E+00  0.00000000E+00
  0.00000000E+00  0.00000000E+00  0.00000000E+00
  0.00000000E+00  0.00000000E+00  0.00000000E+00
  0.00000000E+00  0.00000000E+00  0.00000000E+00
  0.00000000E+00  0.00000000E+00  0.00000000E+00
  0.00000000E+00  0.00000000E+00  0.00000000E+00
  0.00000000E+00  0.00000000E+00  0.00000000E+00
