Title                                   
   1.00000000000000     
     9.8694509999999998    0.0000000000000000    0.0000000000000000
     0.0000000000000000    8.5490480000000009    0.0000000000000000
     0.0000000000000000    0.0000000000000000   20.0000000000000000
    24     6     1
Selective dynamics
Direct
  0.0558915955890886  0.0900569484366417  0.0920172066150876   T   T   T
  0.9310825266473448  0.1733419612030745  0.0947763472750498   T   T   T
  0.0577405077398816  0.9214575078554799  0.0925991361804081   T   T   T
  0.9330127371526964  0.3405897471613122  0.0957180733277239   T   T   T
  0.0571399372717660  0.5905182252808718  0.0928102429198788   T   T   T
  0.0566857390963453  0.4236184009532056  0.0920910639649105   T   T   T
  0.9329859019601806  0.8401727237048623  0.0961296196555037   T   T   T
  0.3081083139274403  0.0876516974510151  0.0899925055120456   T   T   T
  0.1812767896730161  0.1717683550361296  0.0901464427103243   T   T   T
  0.1807044571398908  0.3386129333190115  0.0899592156008746   T   T   T
  0.3062234706572050  0.5888370640596020  0.0872787375773856   T   T   T
  0.1804499372910445  0.6728973355676141  0.0906234811419907   T   T   T
  0.3065685373213092  0.4198739259276102  0.0885731756261208   T   T   T
  0.1824717462741693  0.8396451882408592  0.0905423417731287   T   T   T
  0.4298664789895575  0.1705111079700156  0.0927931243813485   T   T   T
  0.5557415863089431  0.9191886536930305  0.0977762071881719   T   T   T
  0.4295775450950953  0.8384003795594674  0.0912035862474829   T   T   T
  0.8050898872945526  0.0895263441298100  0.0972203798944398   T   T   T
  0.6808865412036271  0.1773360367226927  0.1017265491648720   T   T   T
  0.8072523022106236  0.9218863832255846  0.0982810695590205   T   T   T
  0.6846951961867634  0.3423157956178954  0.1099277538727541   T   T   T
  0.8113249230337737  0.5932301497083293  0.1041395724709103   T   T   T
  0.8097462661669743  0.4243059504651847  0.1035016342929313   T   T   T
  0.6825174492126543  0.8369775519472021  0.1025417754720500   T   T   T
  0.9332362099101057  0.6728527487840539  0.0965633478937630   T   T   T
  0.5563014451700578  0.0918779897540752  0.0981436858967391   T   T   T
  0.4269459605678978  0.3330975144645780  0.0928989040226022   T   T   T
  0.6919682441192896  0.6733536040168112  0.1115432932509915   T   T   T
  0.4266608694249702  0.6769940537546218  0.0868850651351421   T   T   T
  0.3063972376880672  0.9208907398455100  0.0896486149250468   T   T   T
  0.5345846596756790  0.5090879821438591  0.1429128464513381   T   T   T
 
  0.00000000E+00  0.00000000E+00  0.00000000E+00
  0.00000000E+00  0.00000000E+00  0.00000000E+00
  0.00000000E+00  0.00000000E+00  0.00000000E+00
  0.00000000E+00  0.00000000E+00  0.00000000E+00
  0.00000000E+00  0.00000000E+00  0.00000000E+00
  0.00000000E+00  0.00000000E+00  0.00000000E+00
  0.00000000E+00  0.00000000E+00  0.00000000E+00
  0.00000000E+00  0.00000000E+00  0.00000000E+00
  0.00000000E+00  0.00000000E+00  0.00000000E+00
  0.00000000E+00  0.00000000E+00  0.00000000E+00
  0.00000000E+00  0.00000000E+00  0.00000000E+00
  0.00000000E+00  0.00000000E+00  0.00000000E+00
  0.00000000E+00  0.00000000E+00  0.00000000E+00
  0.00000000E+00  0.00000000E+00  0.00000000E+00
  0.00000000E+00  0.00000000E+00  0.00000000E+00
  0.00000000E+00  0.00000000E+00  0.00000000E+00
  0.00000000E+00  0.00000000E+00  0.00000000E+00
  0.00000000E+00  0.00000000E+00  0.00000000E+00
  0.00000000E+00  0.00000000E+00  0.00000000E+00
  0.00000000E+00  0.00000000E+00  0.00000000E+00
  0.00000000E+00  0.00000000E+00  0.00000000E+00
  0.00000000E+00  0.00000000E+00  0.00000000E+00
  0.00000000E+00  0.00000000E+00  0.00000000E+00
  0.00000000E+00  0.00000000E+00  0.00000000E+00
  0.00000000E+00  0.00000000E+00  0.00000000E+00
  0.00000000E+00  0.00000000E+00  0.00000000E+00
  0.00000000E+00  0.00000000E+00  0.00000000E+00
  0.00000000E+00  0.00000000E+00  0.00000000E+00
  0.00000000E+00  0.00000000E+00  0.00000000E+00
  0.00000000E+00  0.00000000E+00  0.00000000E+00
  0.00000000E+00  0.00000000E+00  0.00000000E+00
