Title                                   
   1.00000000000000     
     9.8694509999999998    0.0000000000000000    0.0000000000000000
     0.0000000000000000    8.5490480000000009    0.0000000000000000
     0.0000000000000000    0.0000000000000000   20.0000000000000000
    25     5     1
Selective dynamics
Direct
  0.0556799369301955  0.0898170092884803  0.0959720035842383   T   T   T
  0.9314085850459312  0.1717636225861955  0.0961858800919795   T   T   T
  0.0572928241077961  0.9229815470983889  0.0960375170528635   T   T   T
  0.9326261345088019  0.3393467188802763  0.0961095638961926   T   T   T
  0.0566983339618778  0.5900822466060662  0.0956664615260482   T   T   T
  0.9326601811893683  0.6734010105088126  0.0960981848898780   T   T   T
  0.0566999100655733  0.4229907055372122  0.0956464492796278   T   T   T
  0.9316953225189079  0.8400637624743785  0.0961937093913174   T   T   T
  0.3077047946972333  0.0893087550987450  0.0967685318951134   T   T   T
  0.1814926085169883  0.1712704836166370  0.0961053432606110   T   T   T
  0.1806397822943152  0.3383859554321070  0.0959692163676519   T   T   T
  0.3034203258386149  0.5895400390817264  0.0967523791418214   T   T   T
  0.1807724656476854  0.6744359904590636  0.0960529689604030   T   T   T
  0.3037758895478810  0.4226890473193620  0.0967099474361491   T   T   T
  0.1816090932178732  0.8403997087802069  0.0962295058297550   T   T   T
  0.5563661785579150  0.0934892320626902  0.0977064886595442   T   T   T
  0.4304663443174111  0.1791361349642179  0.0974627102652421   T   T   T
  0.5551855353130328  0.9189328277268199  0.0977255280650818   T   T   T
  0.4303520983402102  0.8324043097734620  0.0975059840624772   T   T   T
  0.8042143712646059  0.0903108609763542  0.0967704462998037   T   T   T
  0.6810427564615734  0.1805702997032855  0.0974667667910329   T   T   T
  0.8044165484263613  0.9216979632665177  0.0967573358148750   T   T   T
  0.8091937529389001  0.5900390478205226  0.0968614966452594   T   T   T
  0.8090594234351620  0.4222205060767201  0.0968752903654988   T   T   T
  0.6809515752907745  0.8309824665282389  0.0974730069215316   T   T   T
  0.4257031252854614  0.3431426467693088  0.0976716309297219   T   T   T
  0.4250633353618704  0.6706382169472898  0.0977232360090328   T   T   T
  0.6861442381934041  0.3448937434789746  0.0977422563507226   T   T   T
  0.6865503244891676  0.6675877658332640  0.0977688787711543   T   T   T
  0.3080954718511540  0.9222687870290743  0.0968011132109871   T   T   T
  0.5561547323839505  0.5060835882755997  0.0981551682344419   T   T   T
 
  0.00000000E+00  0.00000000E+00  0.00000000E+00
  0.00000000E+00  0.00000000E+00  0.00000000E+00
  0.00000000E+00  0.00000000E+00  0.00000000E+00
  0.00000000E+00  0.00000000E+00  0.00000000E+00
  0.00000000E+00  0.00000000E+00  0.00000000E+00
  0.00000000E+00  0.00000000E+00  0.00000000E+00
  0.00000000E+00  0.00000000E+00  0.00000000E+00
  0.00000000E+00  0.00000000E+00  0.00000000E+00
  0.00000000E+00  0.00000000E+00  0.00000000E+00
  0.00000000E+00  0.00000000E+00  0.00000000E+00
  0.00000000E+00  0.00000000E+00  0.00000000E+00
  0.00000000E+00  0.00000000E+00  0.00000000E+00
  0.00000000E+00  0.00000000E+00  0.00000000E+00
  0.00000000E+00  0.00000000E+00  0.00000000E+00
  0.00000000E+00  0.00000000E+00  0.00000000E+00
  0.00000000E+00  0.00000000E+00  0.00000000E+00
  0.00000000E+00  0.00000000E+00  0.00000000E+00
  0.00000000E+00  0.00000000E+00  0.00000000E+00
  0.00000000E+00  0.00000000E+00  0.00000000E+00
  0.00000000E+00  0.00000000E+00  0.00000000E+00
  0.00000000E+00  0.00000000E+00  0.00000000E+00
  0.00000000E+00  0.00000000E+00  0.00000000E+00
  0.00000000E+00  0.00000000E+00  0.00000000E+00
  0.00000000E+00  0.00000000E+00  0.00000000E+00
  0.00000000E+00  0.00000000E+00  0.00000000E+00
  0.00000000E+00  0.00000000E+00  0.00000000E+00
  0.00000000E+00  0.00000000E+00  0.00000000E+00
  0.00000000E+00  0.00000000E+00  0.00000000E+00
  0.00000000E+00  0.00000000E+00  0.00000000E+00
  0.00000000E+00  0.00000000E+00  0.00000000E+00
  0.00000000E+00  0.00000000E+00  0.00000000E+00
