Title                                   
   1.00000000000000     
     4.9440799999999996    0.0000000000000000    0.0000000000000000
     0.0000000000000000   17.1295089999999988    0.0000000000000000
     0.0000000000000000    0.0000000000000000   20.0000000000000000
    26     4     1
Selective dynamics
Direct
 -0.0000294810925700  0.1058867693432291  0.2948663898240143   T   T   T
  0.2484399362095463  0.1487553848204876  0.2957267459158429   T   T   T
  0.2473230846687019  0.2335406713600564  0.2995448970338565   T   T   T
 -0.0033527909943498  0.2755488155867107  0.3051343342040218   T   T   T
 -0.0035691904730279  0.5993588133600150  0.3049954188532532   T   T   T
  0.2483656407767206  0.7261747414690387  0.2958961314157301   T   T   T
 -0.0003717749026802  0.8532685157288784  0.2939971354974890   T   T   T
  0.2496017233501480  0.8953657968810116  0.2935480686971803   T   T   T
  0.2496463335739387  0.9795790300240076  0.2934204783551327   T   T   T
 -0.0001373548389459  0.7690458123470032  0.2951351049241355   T   T   T
  0.4988682295852991  0.1063783632937010  0.2936888137833967   T   T   T
  0.7504496898064410  0.1478424685641841  0.2944947206028543   T   T   T
  0.7512546768631991  0.2319188311778391  0.2968198365468167   T   T   T
  0.4991160470788093  0.0220042483957375  0.2930836571145251   T   T   T
  0.7459158791312503  0.3953249129280539  0.3042895189098151   T   T   T
  0.7457715729953404  0.4795701750245719  0.3042015985909729   T   T   T
  0.5013092933221693  0.2728461213195145  0.2964266993605287   T   T   T
  0.5011538610379834  0.6020667227271179  0.2962495650681600   T   T   T
  0.7503373150996865  0.7270705069842083  0.2946887101228624   T   T   T
  0.4990592729991880  0.8529364547510719  0.2933320898084296   T   T   T
  0.7491085283220230  0.8953141377981282  0.2933182318928400   T   T   T
  0.7491613813400467  0.9796334986054663  0.2931895842518544   T   T   T
  0.4987994112578235  0.7685467539723666  0.2939672855369719   T   T   T
  0.7510399802930501  0.6429921565377609  0.2967115369977641   T   T   T
  0.2471741615268177  0.6413739678584085  0.2994471252228235   T   T   T
 -0.0003017052960923  0.0216812017753946  0.2937524716557493   T   T   T
  0.5075634842946048  0.5214995609410653  0.2958463800904308   T   T   T
  0.9858865297085148  0.5186163008967485  0.3207042055300881   T   T   T
  0.5076914485476579  0.3533739317181009  0.2961255597582366   T   T   T
 -0.0139051763160203  0.3563215727450587  0.3208200467133672   T   T   T
  0.2986369921247280  0.4375057610650590  0.3416376577208086   T   T   T
 
  0.00000000E+00  0.00000000E+00  0.00000000E+00
  0.00000000E+00  0.00000000E+00  0.00000000E+00
  0.00000000E+00  0.00000000E+00  0.00000000E+00
  0.00000000E+00  0.00000000E+00  0.00000000E+00
  0.00000000E+00  0.00000000E+00  0.00000000E+00
  0.00000000E+00  0.00000000E+00  0.00000000E+00
  0.00000000E+00  0.00000000E+00  0.00000000E+00
  0.00000000E+00  0.00000000E+00  0.00000000E+00
  0.00000000E+00  0.00000000E+00  0.00000000E+00
  0.00000000E+00  0.00000000E+00  0.00000000E+00
  0.00000000E+00  0.00000000E+00  0.00000000E+00
  0.00000000E+00  0.00000000E+00  0.00000000E+00
  0.00000000E+00  0.00000000E+00  0.00000000E+00
  0.00000000E+00  0.00000000E+00  0.00000000E+00
  0.00000000E+00  0.00000000E+00  0.00000000E+00
  0.00000000E+00  0.00000000E+00  0.00000000E+00
  0.00000000E+00  0.00000000E+00  0.00000000E+00
  0.00000000E+00  0.00000000E+00  0.00000000E+00
  0.00000000E+00  0.00000000E+00  0.00000000E+00
  0.00000000E+00  0.00000000E+00  0.00000000E+00
  0.00000000E+00  0.00000000E+00  0.00000000E+00
  0.00000000E+00  0.00000000E+00  0.00000000E+00
  0.00000000E+00  0.00000000E+00  0.00000000E+00
  0.00000000E+00  0.00000000E+00  0.00000000E+00
  0.00000000E+00  0.00000000E+00  0.00000000E+00
  0.00000000E+00  0.00000000E+00  0.00000000E+00
  0.00000000E+00  0.00000000E+00  0.00000000E+00
  0.00000000E+00  0.00000000E+00  0.00000000E+00
  0.00000000E+00  0.00000000E+00  0.00000000E+00
  0.00000000E+00  0.00000000E+00  0.00000000E+00
  0.00000000E+00  0.00000000E+00  0.00000000E+00
