Title                                   
   1.00000000000000     
     8.5490480000000009    0.0000000000000000    0.0000000000000000
     0.0000000000000000    8.5490480000000009    0.0000000000000000
     0.0000000000000000    0.0000000000000000   20.0000000000000000
    19     5     1
Selective dynamics
Direct
  0.9081884176513393  0.2050254710764194  0.0931468708908418   T   T   T
  0.9113178624390874  0.8017706651004263  0.0925866746977617   T   T   T
  0.1949579279683848  0.0830940878700626  0.0926559956589980   T   T   T
  0.0761911714304472  0.1998075226352312  0.0934039258833478   T   T   T
  0.1552884191260779  0.6505522342385062  0.0967120820652724   T   T   T
  0.0738131678795251  0.4998710299880310  0.0973073805512845   T   T   T
  0.1550802649246237  0.3521032984347877  0.0978820671747797   T   T   T
  0.0790630576525907  0.8001788545598603  0.0925769710022795   T   T   T
  0.3451585097278814  0.1650827508742893  0.0967269807890552   T   T   T
  0.4941324812896687  0.9195296486716691  0.0965018077020600   T   T   T
  0.3437424126369262  0.8383253684604941  0.0965530000224150   T   T   T
  0.7884266639338923  0.0863677984030929  0.0931879199262784   T   T   T
  0.6418520582522111  0.1667241085335971  0.0957896607483243   T   T   T
  0.7906428625479955  0.9191409106192925  0.0933372325021504   T   T   T
  0.8295782959461010  0.6533813597408651  0.0953018486283067   T   T   T
  0.8269814093202674  0.3512673223335138  0.0956274595874349   T   T   T
  0.6435334469693681  0.8384780424224478  0.0962934720487670   T   T   T
  0.3229804023987014  0.3281677954878277  0.1013684287031584   T   T   T
  0.3210238095150726  0.6757340241541184  0.0999705091802283   T   T   T
  0.4951218404626441  0.0861746198282463  0.0963828167537455   T   T   T
  0.9047454244605483  0.5018602584408692  0.0960643690133620   T   T   T
  0.6649550667640384  0.3279063047476552  0.0981990515871714   T   T   T
  0.6703348369515546  0.6753949295723775  0.0984287075252518   T   T   T
  0.1945433361732707  0.9165583305387964  0.0922081172947063   T   T   T
  0.4937588535777758  0.5022932632675435  0.1454916500629921   T   T   T
 
  0.00000000E+00  0.00000000E+00  0.00000000E+00
  0.00000000E+00  0.00000000E+00  0.00000000E+00
  0.00000000E+00  0.00000000E+00  0.00000000E+00
  0.00000000E+00  0.00000000E+00  0.00000000E+00
  0.00000000E+00  0.00000000E+00  0.00000000E+00
  0.00000000E+00  0.00000000E+00  0.00000000E+00
  0.00000000E+00  0.00000000E+00  0.00000000E+00
  0.00000000E+00  0.00000000E+00  0.00000000E+00
  0.00000000E+00  0.00000000E+00  0.00000000E+00
  0.00000000E+00  0.00000000E+00  0.00000000E+00
  0.00000000E+00  0.00000000E+00  0.00000000E+00
  0.00000000E+00  0.00000000E+00  0.00000000E+00
  0.00000000E+00  0.00000000E+00  0.00000000E+00
  0.00000000E+00  0.00000000E+00  0.00000000E+00
  0.00000000E+00  0.00000000E+00  0.00000000E+00
  0.00000000E+00  0.00000000E+00  0.00000000E+00
  0.00000000E+00  0.00000000E+00  0.00000000E+00
  0.00000000E+00  0.00000000E+00  0.00000000E+00
  0.00000000E+00  0.00000000E+00  0.00000000E+00
  0.00000000E+00  0.00000000E+00  0.00000000E+00
  0.00000000E+00  0.00000000E+00  0.00000000E+00
  0.00000000E+00  0.00000000E+00  0.00000000E+00
  0.00000000E+00  0.00000000E+00  0.00000000E+00
  0.00000000E+00  0.00000000E+00  0.00000000E+00
  0.00000000E+00  0.00000000E+00  0.00000000E+00
