Title                                   
   1.00000000000000     
     8.5490480000000009    0.0000000000000000    0.0000000000000000
     0.0000000000000000    8.5490480000000009    0.0000000000000000
     0.0000000000000000    0.0000000000000000   20.0000000000000000
    18     6     1
Selective dynamics
Direct
  0.9073062893614205  0.2068256960773699  0.0974816154480440   T   T   T
  0.9109967408153398  0.8010028753306673  0.0973872244017678   T   T   T
  0.1974259915829900  0.0840885130513151  0.0977154235370728   T   T   T
  0.0774343212025208  0.2010888405202103  0.0975830142687647   T   T   T
  0.1556247822529709  0.6506493009942481  0.0978376740452771   T   T   T
  0.0750509338492138  0.5012449854334495  0.0977524678615529   T   T   T
  0.1567161343162834  0.3540998464198327  0.0976629916973789   T   T   T
  0.0797563303499805  0.7990975059330994  0.0975734909841331   T   T   T
  0.3487948364805443  0.1656503705258079  0.0977760495614478   T   T   T
  0.4933724704906950  0.9158933642617241  0.0977925805859960   T   T   T
  0.3448502088168479  0.8365523218941490  0.0979128892899058   T   T   T
  0.7877912776569754  0.0877435188273689  0.0974286746201432   T   T   T
  0.6402040258122125  0.1662153570485534  0.0978062400548643   T   T   T
  0.7902473314485001  0.9186045736677394  0.0973452952749333   T   T   T
  0.8293358920380627  0.6518371607584624  0.0977128034756393   T   T   T
  0.8261933212545374  0.3542200650126205  0.0977790584893251   T   T   T
  0.6436612114574993  0.8371802215047508  0.0977089683100440   T   T   T
  0.3229812704413867  0.3293936228731784  0.0976519369481258   T   T   T
  0.4945007451119899  0.0859599780191911  0.0978732787552133   T   T   T
  0.9044121321969169  0.5030824197777558  0.0978400530804095   T   T   T
  0.3178656734101135  0.6757238319038109  0.0981592749465392   T   T   T
  0.6626405181511597  0.3283582268288673  0.0982415739561630   T   T   T
  0.6697021977455372  0.6752358948273935  0.0980102677815785   T   T   T
  0.1981172477153927  0.9151160486887308  0.0977347967892268   T   T   T
  0.4904301160409020  0.4999254598197236  0.0979373558364266   T   T   T
 
  0.00000000E+00  0.00000000E+00  0.00000000E+00
  0.00000000E+00  0.00000000E+00  0.00000000E+00
  0.00000000E+00  0.00000000E+00  0.00000000E+00
  0.00000000E+00  0.00000000E+00  0.00000000E+00
  0.00000000E+00  0.00000000E+00  0.00000000E+00
  0.00000000E+00  0.00000000E+00  0.00000000E+00
  0.00000000E+00  0.00000000E+00  0.00000000E+00
  0.00000000E+00  0.00000000E+00  0.00000000E+00
  0.00000000E+00  0.00000000E+00  0.00000000E+00
  0.00000000E+00  0.00000000E+00  0.00000000E+00
  0.00000000E+00  0.00000000E+00  0.00000000E+00
  0.00000000E+00  0.00000000E+00  0.00000000E+00
  0.00000000E+00  0.00000000E+00  0.00000000E+00
  0.00000000E+00  0.00000000E+00  0.00000000E+00
  0.00000000E+00  0.00000000E+00  0.00000000E+00
  0.00000000E+00  0.00000000E+00  0.00000000E+00
  0.00000000E+00  0.00000000E+00  0.00000000E+00
  0.00000000E+00  0.00000000E+00  0.00000000E+00
  0.00000000E+00  0.00000000E+00  0.00000000E+00
  0.00000000E+00  0.00000000E+00  0.00000000E+00
  0.00000000E+00  0.00000000E+00  0.00000000E+00
  0.00000000E+00  0.00000000E+00  0.00000000E+00
  0.00000000E+00  0.00000000E+00  0.00000000E+00
  0.00000000E+00  0.00000000E+00  0.00000000E+00
  0.00000000E+00  0.00000000E+00  0.00000000E+00
