Title                                   
   1.00000000000000     
     8.5490480000000009    0.0000000000000000    0.0000000000000000
     0.0000000000000000    8.5490480000000009    0.0000000000000000
     0.0000000000000000    0.0000000000000000   20.0000000000000000
    20     4     1
Selective dynamics
Direct
  0.9087342384255782  0.2066782636947595  0.0957878094064310   T   T   T
  0.9119457766754466  0.8008272009591371  0.0970232817279512   T   T   T
  0.1962283528093769  0.0830842559579400  0.0972740860511767   T   T   T
  0.0746220774635773  0.2019651996358491  0.0971916284864844   T   T   T
  0.1575585647928058  0.6492853722846808  0.0959472788358522   T   T   T
  0.0766137505055848  0.5016226566799412  0.0972776028283203   T   T   T
  0.1554695907350232  0.3513746967087027  0.0987292211196843   T   T   T
  0.0787643406940785  0.7990812282865795  0.0959776190361724   T   T   T
  0.4937188056213688  0.0871261202061062  0.0973626691452389   T   T   T
  0.3420492355990236  0.1648570724801513  0.0987240159307641   T   T   T
  0.4937015449819053  0.9167702196500618  0.0974958076473078   T   T   T
  0.3458529651742883  0.8351053849361770  0.0962436374719422   T   T   T
  0.7875043650712217  0.0871000194004751  0.0959359116151792   T   T   T
  0.6392950023143569  0.1689123542272229  0.0960297152409825   T   T   T
  0.7890440786449642  0.9193079502288785  0.0972358257657742   T   T   T
  0.8306611862550269  0.6510121394615610  0.0982686928779447   T   T   T
  0.8281968066292568  0.3578272938797342  0.0956654307328484   T   T   T
  0.6427128400009382  0.8355971858558753  0.0986520945830269   T   T   T
  0.3236561322325242  0.6719078170187571  0.0959166087039987   T   T   T
  0.6638279125648661  0.3384253114838160  0.0961253250572459   T   T   T
  0.9093243327239888  0.5037264101173683  0.0970546618265480   T   T   T
  0.3178250203504896  0.3281240744775085  0.1011717519304064   T   T   T
  0.6692807288001035  0.6704665979178553  0.1008913559325372   T   T   T
  0.1972542219642385  0.9164596353779704  0.0958705245911420   T   T   T
  0.4915701289699521  0.4981455390729046  0.1098524434550205   T   T   T
 
  0.00000000E+00  0.00000000E+00  0.00000000E+00
  0.00000000E+00  0.00000000E+00  0.00000000E+00
  0.00000000E+00  0.00000000E+00  0.00000000E+00
  0.00000000E+00  0.00000000E+00  0.00000000E+00
  0.00000000E+00  0.00000000E+00  0.00000000E+00
  0.00000000E+00  0.00000000E+00  0.00000000E+00
  0.00000000E+00  0.00000000E+00  0.00000000E+00
  0.00000000E+00  0.00000000E+00  0.00000000E+00
  0.00000000E+00  0.00000000E+00  0.00000000E+00
  0.00000000E+00  0.00000000E+00  0.00000000E+00
  0.00000000E+00  0.00000000E+00  0.00000000E+00
  0.00000000E+00  0.00000000E+00  0.00000000E+00
  0.00000000E+00  0.00000000E+00  0.00000000E+00
  0.00000000E+00  0.00000000E+00  0.00000000E+00
  0.00000000E+00  0.00000000E+00  0.00000000E+00
  0.00000000E+00  0.00000000E+00  0.00000000E+00
  0.00000000E+00  0.00000000E+00  0.00000000E+00
  0.00000000E+00  0.00000000E+00  0.00000000E+00
  0.00000000E+00  0.00000000E+00  0.00000000E+00
  0.00000000E+00  0.00000000E+00  0.00000000E+00
  0.00000000E+00  0.00000000E+00  0.00000000E+00
  0.00000000E+00  0.00000000E+00  0.00000000E+00
  0.00000000E+00  0.00000000E+00  0.00000000E+00
  0.00000000E+00  0.00000000E+00  0.00000000E+00
  0.00000000E+00  0.00000000E+00  0.00000000E+00
