Title                                   
   1.00000000000000     
     4.9440799999999996    0.0000000000000000    0.0000000000000000
     0.0000000000000000   17.1295089999999988    0.0000000000000000
     0.0000000000000000    0.0000000000000000   20.0000000000000000
    29     1     1
Selective dynamics
Direct
 -0.0013352979618750  0.1041477586810519  0.2967426537111094   T   T   T
  0.2476161508374380  0.1468470960165052  0.2981589333899187   T   T   T
  0.2472995917360034  0.2299029153584441  0.3000761076460329   T   T   T
 -0.0060149208132208  0.2712789470779322  0.2976116418612453   T   T   T
 -0.0002295768391182  0.6046763945968029  0.2983257001046717   T   T   T
  0.2511873911862542  0.7288947920824097  0.2994588038747136   T   T   T
 -0.0001495166973579  0.8542889470993147  0.2971585470642092   T   T   T
  0.2498175667088300  0.8961658239813191  0.2968871125153050   T   T   T
  0.2491846047964947  0.9791099644511446  0.2963585042907233   T   T   T
  0.0004402018587023  0.7711313104580987  0.2982301137282432   T   T   T
  0.4981578015070375  0.1043133107956028  0.2981219407385873   T   T   T
  0.7487771375830318  0.1452817997317041  0.2983523894560832   T   T   T
  0.7474070881819284  0.2283642689957034  0.3006521809169214   T   T   T
  0.4988419131414544  0.0211391027099810  0.2968436965814937   T   T   T
  0.7540397801761862  0.3911546767282696  0.3025695570556790   T   T   T
  0.7571918661546362  0.4797890428707614  0.3009692200125326   T   T   T
  0.5000271104344652  0.2708730432098115  0.3054329644389471   T   T   T
  0.5032842934885146  0.6036788049845545  0.3032732124136926   T   T   T
  0.7505965939157341  0.7298433930603120  0.2992117861307401   T   T   T
  0.5002482575165432  0.8543570147270940  0.2976495658685959   T   T   T
  0.7498991833091988  0.8960406915030648  0.2968536082138558   T   T   T
  0.7492055272145922  0.9794484986580704  0.2963761712260885   T   T   T
  0.5009990541538346  0.7713078417262536  0.2991200137313592   T   T   T
  0.7509225687744546  0.6466481328175974  0.3002114524534281   T   T   T
  0.2518079169589669  0.6461774813177260  0.3006307285022775   T   T   T
 -0.0008478602160000  0.0209901663923906  0.2961140930879350   T   T   T
  0.5171057543414896  0.5217585434612189  0.3077550897985974   T   T   T
  0.9923039813304056  0.5232580091967959  0.2947125490327588   T   T   T
  0.5159720586962870  0.3518841802990842  0.3148247617349494   T   T   T
 -0.0156231788611259  0.3504798762420625  0.2914320266281245   T   T   T
  0.2518739573862168  0.4381101707689157  0.3049448737911318   T   T   T
 
  0.00000000E+00  0.00000000E+00  0.00000000E+00
  0.00000000E+00  0.00000000E+00  0.00000000E+00
  0.00000000E+00  0.00000000E+00  0.00000000E+00
  0.00000000E+00  0.00000000E+00  0.00000000E+00
  0.00000000E+00  0.00000000E+00  0.00000000E+00
  0.00000000E+00  0.00000000E+00  0.00000000E+00
  0.00000000E+00  0.00000000E+00  0.00000000E+00
  0.00000000E+00  0.00000000E+00  0.00000000E+00
  0.00000000E+00  0.00000000E+00  0.00000000E+00
  0.00000000E+00  0.00000000E+00  0.00000000E+00
  0.00000000E+00  0.00000000E+00  0.00000000E+00
  0.00000000E+00  0.00000000E+00  0.00000000E+00
  0.00000000E+00  0.00000000E+00  0.00000000E+00
  0.00000000E+00  0.00000000E+00  0.00000000E+00
  0.00000000E+00  0.00000000E+00  0.00000000E+00
  0.00000000E+00  0.00000000E+00  0.00000000E+00
  0.00000000E+00  0.00000000E+00  0.00000000E+00
  0.00000000E+00  0.00000000E+00  0.00000000E+00
  0.00000000E+00  0.00000000E+00  0.00000000E+00
  0.00000000E+00  0.00000000E+00  0.00000000E+00
  0.00000000E+00  0.00000000E+00  0.00000000E+00
  0.00000000E+00  0.00000000E+00  0.00000000E+00
  0.00000000E+00  0.00000000E+00  0.00000000E+00
  0.00000000E+00  0.00000000E+00  0.00000000E+00
  0.00000000E+00  0.00000000E+00  0.00000000E+00
  0.00000000E+00  0.00000000E+00  0.00000000E+00
  0.00000000E+00  0.00000000E+00  0.00000000E+00
  0.00000000E+00  0.00000000E+00  0.00000000E+00
  0.00000000E+00  0.00000000E+00  0.00000000E+00
  0.00000000E+00  0.00000000E+00  0.00000000E+00
  0.00000000E+00  0.00000000E+00  0.00000000E+00
