Title                                   
   1.00000000000000     
     9.8694509999999998    0.0000000000000000    0.0000000000000000
     0.0000000000000000    8.5490480000000009    0.0000000000000000
     0.0000000000000000    0.0000000000000000   20.0000000000000000
    26     5     1
Selective dynamics
Direct
  0.0564115775171170  0.0923351739846803  0.0894336703267272   T   T   T
  0.9305274094343154  0.1744077750408418  0.0908232187702286   T   T   T
  0.0566060067487505  0.9243136815046519  0.0891146326509823   T   T   T
  0.9291759712087643  0.3417715809274904  0.0935063504463969   T   T   T
  0.0556632626826856  0.5898115505982466  0.0904143385847359   T   T   T
  0.9315388301216277  0.6733739831089278  0.0927946869705155   T   T   T
  0.0573143953165144  0.4233581587145627  0.0918465028957657   T   T   T
  0.9316918440190716  0.8408176156186612  0.0910500282144347   T   T   T
  0.3055391295265242  0.0885055483784872  0.0897810380074988   T   T   T
  0.1826534149955050  0.1753150584984825  0.0900318687675373   T   T   T
  0.3065717887760205  0.9228669591587173  0.0899361747541175   T   T   T
  0.1834877627772648  0.3417434826908011  0.0913347328804344   T   T   T
  0.3079103863990202  0.5930932960453248  0.0918450171399749   T   T   T
  0.1811276033969156  0.6720226225043618  0.0895272475579780   T   T   T
  0.1812798064036697  0.8389906902314371  0.0891236425193325   T   T   T
  0.5553814624432214  0.0833525426449628  0.0940215409817298   T   T   T
  0.4313000862792107  0.1682823972757719  0.0924897087079094   T   T   T
  0.4350170787790071  0.3351694468512085  0.0958819992375364   T   T   T
  0.4279979049043205  0.8349824865641504  0.0931864714530733   T   T   T
  0.8065442683499603  0.0895456003382350  0.0906169617497065   T   T   T
  0.6797166717527026  0.1686795757802760  0.0940805638381977   T   T   T
  0.8063040359477762  0.9238184935730577  0.0913757244464169   T   T   T
  0.6762816689469751  0.3347230103744972  0.0991795178039948   T   T   T
  0.8057852114028261  0.5936404986858913  0.1006660663513362   T   T   T
  0.8018898685763222  0.4247689973615490  0.0986494046391998   T   T   T
  0.6836547729855316  0.8378516472506587  0.0980996637531410   T   T   T
  0.4256236799971898  0.6759674921873589  0.0961298288919868   T   T   T
  0.5534176503871832  0.4107193093140867  0.1050538485663016   T   T   T
  0.6896835459692479  0.6819170188361618  0.1114781771713081   T   T   T
  0.5560664097923657  0.9158813556187748  0.0946323322949919   T   T   T
  0.3109908435378596  0.4246039362565389  0.0926438359202699   T   T   T
  0.5564846506245402  0.5936150140811476  0.1769262037062560   T   T   T
 
  0.00000000E+00  0.00000000E+00  0.00000000E+00
  0.00000000E+00  0.00000000E+00  0.00000000E+00
  0.00000000E+00  0.00000000E+00  0.00000000E+00
  0.00000000E+00  0.00000000E+00  0.00000000E+00
  0.00000000E+00  0.00000000E+00  0.00000000E+00
  0.00000000E+00  0.00000000E+00  0.00000000E+00
  0.00000000E+00  0.00000000E+00  0.00000000E+00
  0.00000000E+00  0.00000000E+00  0.00000000E+00
  0.00000000E+00  0.00000000E+00  0.00000000E+00
  0.00000000E+00  0.00000000E+00  0.00000000E+00
  0.00000000E+00  0.00000000E+00  0.00000000E+00
  0.00000000E+00  0.00000000E+00  0.00000000E+00
  0.00000000E+00  0.00000000E+00  0.00000000E+00
  0.00000000E+00  0.00000000E+00  0.00000000E+00
  0.00000000E+00  0.00000000E+00  0.00000000E+00
  0.00000000E+00  0.00000000E+00  0.00000000E+00
  0.00000000E+00  0.00000000E+00  0.00000000E+00
  0.00000000E+00  0.00000000E+00  0.00000000E+00
  0.00000000E+00  0.00000000E+00  0.00000000E+00
  0.00000000E+00  0.00000000E+00  0.00000000E+00
  0.00000000E+00  0.00000000E+00  0.00000000E+00
  0.00000000E+00  0.00000000E+00  0.00000000E+00
  0.00000000E+00  0.00000000E+00  0.00000000E+00
  0.00000000E+00  0.00000000E+00  0.00000000E+00
  0.00000000E+00  0.00000000E+00  0.00000000E+00
  0.00000000E+00  0.00000000E+00  0.00000000E+00
  0.00000000E+00  0.00000000E+00  0.00000000E+00
  0.00000000E+00  0.00000000E+00  0.00000000E+00
  0.00000000E+00  0.00000000E+00  0.00000000E+00
  0.00000000E+00  0.00000000E+00  0.00000000E+00
  0.00000000E+00  0.00000000E+00  0.00000000E+00
  0.00000000E+00  0.00000000E+00  0.00000000E+00
