Title                                   
   1.00000000000000     
     8.5490480000000009    0.0000000000000000    0.0000000000000000
     0.0000000000000000    8.5490480000000009    0.0000000000000000
     0.0000000000000000    0.0000000000000000   20.0000000000000000
    22     2     1
Selective dynamics
Direct
  0.9105862589383312  0.2046604364838411  0.0954451749569210   T   T   T
  0.9023370547894988  0.5018070039190478  0.0952884399889245   T   T   T
  0.9105789248387847  0.7989110391669677  0.0954636895995565   T   T   T
  0.1988994305898051  0.0832372142066015  0.0954684694298081   T   T   T
  0.0748103461097871  0.2066107391263146  0.0954514611607725   T   T   T
  0.1988884555418573  0.9203232800141705  0.0954737782015189   T   T   T
  0.1536517055060393  0.6476215408815178  0.0953639050730200   T   T   T
  0.0714710830226270  0.5018038754620014  0.0953281279622377   T   T   T
  0.1536339224044263  0.3559660273439367  0.0953610765555488   T   T   T
  0.0748124976274531  0.7969523429011838  0.0954670069856890   T   T   T
  0.4965463701530216  0.0866320700576698  0.0953523353806784   T   T   T
  0.3499399567883588  0.1680581788483753  0.0953713258661506   T   T   T
  0.4965395591293290  0.9169600469265740  0.0953539980807723   T   T   T
  0.3499463632084301  0.8355193638273595  0.0953732805788572   T   T   T
  0.7908810577320505  0.0845560313254251  0.0954603029831707   T   T   T
  0.6439045467937341  0.1652610234483965  0.0953022213234272   T   T   T
  0.7908783325015531  0.9190258439724968  0.0954694166667583   T   T   T
  0.8249630235935252  0.6502059417516178  0.0952930137395353   T   T   T
  0.8249698866709839  0.3533926402151500  0.0952835802366337   T   T   T
  0.6438957081848971  0.8383277962964166  0.0953139898724922   T   T   T
  0.3195878338065294  0.3311161988954393  0.0953019549267567   T   T   T
  0.3195986965458293  0.6724649104141714  0.0952981669722465   T   T   T
  0.6669623071777778  0.3265033080737132  0.0951335563155304   T   T   T
  0.6669570916762568  0.6770770104884694  0.0951447747130001   T   T   T
  0.4901715866691059  0.5017961359531569  0.0951419524299710   T   T   T
 
  0.00000000E+00  0.00000000E+00  0.00000000E+00
  0.00000000E+00  0.00000000E+00  0.00000000E+00
  0.00000000E+00  0.00000000E+00  0.00000000E+00
  0.00000000E+00  0.00000000E+00  0.00000000E+00
  0.00000000E+00  0.00000000E+00  0.00000000E+00
  0.00000000E+00  0.00000000E+00  0.00000000E+00
  0.00000000E+00  0.00000000E+00  0.00000000E+00
  0.00000000E+00  0.00000000E+00  0.00000000E+00
  0.00000000E+00  0.00000000E+00  0.00000000E+00
  0.00000000E+00  0.00000000E+00  0.00000000E+00
  0.00000000E+00  0.00000000E+00  0.00000000E+00
  0.00000000E+00  0.00000000E+00  0.00000000E+00
  0.00000000E+00  0.00000000E+00  0.00000000E+00
  0.00000000E+00  0.00000000E+00  0.00000000E+00
  0.00000000E+00  0.00000000E+00  0.00000000E+00
  0.00000000E+00  0.00000000E+00  0.00000000E+00
  0.00000000E+00  0.00000000E+00  0.00000000E+00
  0.00000000E+00  0.00000000E+00  0.00000000E+00
  0.00000000E+00  0.00000000E+00  0.00000000E+00
  0.00000000E+00  0.00000000E+00  0.00000000E+00
  0.00000000E+00  0.00000000E+00  0.00000000E+00
  0.00000000E+00  0.00000000E+00  0.00000000E+00
  0.00000000E+00  0.00000000E+00  0.00000000E+00
  0.00000000E+00  0.00000000E+00  0.00000000E+00
  0.00000000E+00  0.00000000E+00  0.00000000E+00
