Title                                   
   1.00000000000000     
     8.5490480000000009    0.0000000000000000    0.0000000000000000
     0.0000000000000000    8.5490480000000009    0.0000000000000000
     0.0000000000000000    0.0000000000000000   20.0000000000000000
    19     5     1
Selective dynamics
Direct
  0.9081782370358211  0.2052141214159658  0.0957047720032662   T   T   T
  0.9088483592166675  0.5024992608379323  0.0974198515051000   T   T   T
  0.9101806856814041  0.8015818252422053  0.0957908640952995   T   T   T
  0.1965899136894904  0.0832492713231338  0.0959876098811083   T   T   T
  0.0754884561848285  0.2023402498668168  0.0957854091209555   T   T   T
  0.1568265622223435  0.6525681619365233  0.0969531004453791   T   T   T
  0.0787888093386071  0.5011994461261100  0.0972287761653300   T   T   T
  0.1566696495663121  0.3501250520291736  0.0973388587537888   T   T   T
  0.0778514350612770  0.7988890561580901  0.0956638111915271   T   T   T
  0.4929438034528253  0.0869516711750079  0.0974755197190450   T   T   T
  0.3427271127668325  0.1633614332605630  0.0976017707326095   T   T   T
  0.4923487567382192  0.9172776936349726  0.0972246517007604   T   T   T
  0.3427014505777976  0.8381157230811856  0.0971677128357075   T   T   T
  0.7876542686365345  0.0861646554079262  0.0957089267308778   T   T   T
  0.6413382479065921  0.1662021146040124  0.0974396982167884   T   T   T
  0.7882572556922235  0.9194663584366721  0.0957063520902395   T   T   T
  0.8313152160716849  0.6528876194170544  0.0973844901362864   T   T   T
  0.8295926643263444  0.3526952560773558  0.0974542407644300   T   T   T
  0.6419777876562665  0.8376984903504558  0.0972232752280620   T   T   T
  0.3185461898372927  0.3252298211996513  0.0995169180111549   T   T   T
  0.3184037640962084  0.6795986077121569  0.0987230956925148   T   T   T
  0.6667303046035098  0.3288997601605507  0.0998476888014141   T   T   T
  0.6684414011742443  0.6757698708366714  0.0994403443091043   T   T   T
  0.1976001715443721  0.9168708141616772  0.0956990461064283   T   T   T
  0.4954114969222934  0.4999336655481341  0.1122182157628030   T   T   T
 
  0.00000000E+00  0.00000000E+00  0.00000000E+00
  0.00000000E+00  0.00000000E+00  0.00000000E+00
  0.00000000E+00  0.00000000E+00  0.00000000E+00
  0.00000000E+00  0.00000000E+00  0.00000000E+00
  0.00000000E+00  0.00000000E+00  0.00000000E+00
  0.00000000E+00  0.00000000E+00  0.00000000E+00
  0.00000000E+00  0.00000000E+00  0.00000000E+00
  0.00000000E+00  0.00000000E+00  0.00000000E+00
  0.00000000E+00  0.00000000E+00  0.00000000E+00
  0.00000000E+00  0.00000000E+00  0.00000000E+00
  0.00000000E+00  0.00000000E+00  0.00000000E+00
  0.00000000E+00  0.00000000E+00  0.00000000E+00
  0.00000000E+00  0.00000000E+00  0.00000000E+00
  0.00000000E+00  0.00000000E+00  0.00000000E+00
  0.00000000E+00  0.00000000E+00  0.00000000E+00
  0.00000000E+00  0.00000000E+00  0.00000000E+00
  0.00000000E+00  0.00000000E+00  0.00000000E+00
  0.00000000E+00  0.00000000E+00  0.00000000E+00
  0.00000000E+00  0.00000000E+00  0.00000000E+00
  0.00000000E+00  0.00000000E+00  0.00000000E+00
  0.00000000E+00  0.00000000E+00  0.00000000E+00
  0.00000000E+00  0.00000000E+00  0.00000000E+00
  0.00000000E+00  0.00000000E+00  0.00000000E+00
  0.00000000E+00  0.00000000E+00  0.00000000E+00
  0.00000000E+00  0.00000000E+00  0.00000000E+00
