Title                                   
   1.00000000000000     
     9.8694509999999998    0.0000000000000000    0.0000000000000000
     0.0000000000000000    8.5490480000000009    0.0000000000000000
     0.0000000000000000    0.0000000000000000   20.0000000000000000
    26     5     1
Selective dynamics
Direct
  0.0562932663448896  0.0916285322927804  0.0849583309510269   T   T   T
  0.9308846815573297  0.1746659283981087  0.0859756934303235   T   T   T
  0.0578639089218753  0.9243586542393287  0.0857618887462252   T   T   T
  0.9299227817268388  0.3416642410219812  0.0871100328757713   T   T   T
  0.0572929442940272  0.5901853865511345  0.0836836269405291   T   T   T
  0.9327600600710689  0.6731277897933420  0.0880103297102079   T   T   T
  0.0567331861795592  0.4229016966308017  0.0846304209440207   T   T   T
  0.9330204527421238  0.8407370716587574  0.0882703971588211   T   T   T
  0.3062812971259267  0.0886852253440951  0.0888736229230111   T   T   T
  0.1827618208477430  0.1734975762758626  0.0859671233518137   T   T   T
  0.1829545071123085  0.3399367637437948  0.0860043754589555   T   T   T
  0.3052277988524457  0.5904316876407643  0.0940976862600184   T   T   T
  0.1821315040813258  0.6736020509029335  0.0857019269541714   T   T   T
  0.3107098756632221  0.4227068813168919  0.0929703020195628   T   T   T
  0.1818608219052465  0.8409133044454428  0.0869373546112173   T   T   T
  0.5556354250349445  0.0858035667949620  0.0974134131353290   T   T   T
  0.5545810488826088  0.9184063131391631  0.1003687049474595   T   T   T
  0.4314582201305193  0.3309228848055444  0.1006509066216010   T   T   T
  0.4263332929555672  0.8397612434654986  0.0992915665940385   T   T   T
  0.8059580079921101  0.0897865284069131  0.0883173035700555   T   T   T
  0.6798632286934054  0.1706403454755563  0.0940253885780450   T   T   T
  0.8076498779634801  0.9241627168089949  0.0909958529936220   T   T   T
  0.6801331328714678  0.3346960937918144  0.1007612402312413   T   T   T
  0.8093982178494435  0.5928309316166933  0.0975224702890041   T   T   T
  0.8020164463725126  0.4248282923579491  0.0951350915675088   T   T   T
  0.6847114638353073  0.8399874082696738  0.1008665964999686   T   T   T
  0.4163068369877226  0.6827584297452339  0.1125262632801020   T   T   T
  0.5534623297934363  0.3992184923625544  0.1204171678862987   T   T   T
  0.6950330592427570  0.6807602069932449  0.1145790338680342   T   T   T
  0.3070969029557470  0.9248049229326055  0.0899282234260818   T   T   T
  0.4298409332021996  0.1682665875448881  0.0950941040278576   T   T   T
  0.5534616678108462  0.5935682452326924  0.1788285601480929   T   T   T
 
  0.00000000E+00  0.00000000E+00  0.00000000E+00
  0.00000000E+00  0.00000000E+00  0.00000000E+00
  0.00000000E+00  0.00000000E+00  0.00000000E+00
  0.00000000E+00  0.00000000E+00  0.00000000E+00
  0.00000000E+00  0.00000000E+00  0.00000000E+00
  0.00000000E+00  0.00000000E+00  0.00000000E+00
  0.00000000E+00  0.00000000E+00  0.00000000E+00
  0.00000000E+00  0.00000000E+00  0.00000000E+00
  0.00000000E+00  0.00000000E+00  0.00000000E+00
  0.00000000E+00  0.00000000E+00  0.00000000E+00
  0.00000000E+00  0.00000000E+00  0.00000000E+00
  0.00000000E+00  0.00000000E+00  0.00000000E+00
  0.00000000E+00  0.00000000E+00  0.00000000E+00
  0.00000000E+00  0.00000000E+00  0.00000000E+00
  0.00000000E+00  0.00000000E+00  0.00000000E+00
  0.00000000E+00  0.00000000E+00  0.00000000E+00
  0.00000000E+00  0.00000000E+00  0.00000000E+00
  0.00000000E+00  0.00000000E+00  0.00000000E+00
  0.00000000E+00  0.00000000E+00  0.00000000E+00
  0.00000000E+00  0.00000000E+00  0.00000000E+00
  0.00000000E+00  0.00000000E+00  0.00000000E+00
  0.00000000E+00  0.00000000E+00  0.00000000E+00
  0.00000000E+00  0.00000000E+00  0.00000000E+00
  0.00000000E+00  0.00000000E+00  0.00000000E+00
  0.00000000E+00  0.00000000E+00  0.00000000E+00
  0.00000000E+00  0.00000000E+00  0.00000000E+00
  0.00000000E+00  0.00000000E+00  0.00000000E+00
  0.00000000E+00  0.00000000E+00  0.00000000E+00
  0.00000000E+00  0.00000000E+00  0.00000000E+00
  0.00000000E+00  0.00000000E+00  0.00000000E+00
  0.00000000E+00  0.00000000E+00  0.00000000E+00
  0.00000000E+00  0.00000000E+00  0.00000000E+00
