Title                                   
   1.00000000000000     
     4.9440799999999996    0.0000000000000000    0.0000000000000000
     0.0000000000000000   17.1295089999999988    0.0000000000000000
     0.0000000000000000    0.0000000000000000   20.0000000000000000
    26     4     1
Selective dynamics
Direct
  0.0001331162170807  0.1058879554566053  0.2952197687137029   T   T   T
  0.2486004005426423  0.1487106182539260  0.2958917677096316   T   T   T
  0.2474850566479760  0.2335789762157171  0.2993481198247269   T   T   T
 -0.0029168391789865  0.2756311501518811  0.3049852448755659   T   T   T
 -0.0031700978484606  0.5993009241456474  0.3049097654594893   T   T   T
  0.2484420913316177  0.7262079751193520  0.2959167790872896   T   T   T
 -0.0001027880299352  0.8532672784730641  0.2943497285337366   T   T   T
  0.2499246482230190  0.8953268638433246  0.2939501180482228   T   T   T
  0.2499869039911090  0.9795621145497280  0.2938821145166972   T   T   T
  0.0000017838396446  0.7690381026831716  0.2953277288805610   T   T   T
  0.4991386148059871  0.1064122684113553  0.2940391123216915   T   T   T
  0.7507261041214781  0.1478640269450376  0.2947821819982746   T   T   T
  0.7514721797002470  0.2320223105103215  0.2968316436705604   T   T   T
  0.4994235104761989  0.0219916073793899  0.2935552470968711   T   T   T
  0.7453612398431351  0.3955752106668384  0.3034728227590052   T   T   T
  0.7452615747224257  0.4793593917593769  0.3034555059695666   T   T   T
  0.5013788584343708  0.2726531574345473  0.2960816672841505   T   T   T
  0.5011856929270109  0.6022840867624467  0.2959290475052880   T   T   T
  0.7505653132358929  0.7270568218906245  0.2948383538541908   T   T   T
  0.4993540490670847  0.8529214755202409  0.2936577698211965   T   T   T
  0.7493942153885980  0.8952996427846905  0.2937603642079760   T   T   T
  0.7494402498804112  0.9796231077305166  0.2936858051299720   T   T   T
  0.4990265460429930  0.7685048358216117  0.2941189035344527   T   T   T
  0.7512376229843497  0.6429027003555486  0.2967314367914577   T   T   T
  0.2472742827353668  0.6413360996084657  0.2992604465425451   T   T   T
  0.0000004265347380  0.0216528026962653  0.2942307629904345   T   T   T
  0.5068521021623308  0.5216122601009456  0.2957236457810689   T   T   T
  0.9859224908243296  0.5180466978601571  0.3203589387638610   T   T   T
  0.5069369430820300  0.3532832490450540  0.2959300287854859   T   T   T
 -0.0138642871486003  0.3569128334032650  0.3202892646713215   T   T   T
  0.2955349944439165  0.4375154544208810  0.3405459148709573   T   T   T
 
  0.00000000E+00  0.00000000E+00  0.00000000E+00
  0.00000000E+00  0.00000000E+00  0.00000000E+00
  0.00000000E+00  0.00000000E+00  0.00000000E+00
  0.00000000E+00  0.00000000E+00  0.00000000E+00
  0.00000000E+00  0.00000000E+00  0.00000000E+00
  0.00000000E+00  0.00000000E+00  0.00000000E+00
  0.00000000E+00  0.00000000E+00  0.00000000E+00
  0.00000000E+00  0.00000000E+00  0.00000000E+00
  0.00000000E+00  0.00000000E+00  0.00000000E+00
  0.00000000E+00  0.00000000E+00  0.00000000E+00
  0.00000000E+00  0.00000000E+00  0.00000000E+00
  0.00000000E+00  0.00000000E+00  0.00000000E+00
  0.00000000E+00  0.00000000E+00  0.00000000E+00
  0.00000000E+00  0.00000000E+00  0.00000000E+00
  0.00000000E+00  0.00000000E+00  0.00000000E+00
  0.00000000E+00  0.00000000E+00  0.00000000E+00
  0.00000000E+00  0.00000000E+00  0.00000000E+00
  0.00000000E+00  0.00000000E+00  0.00000000E+00
  0.00000000E+00  0.00000000E+00  0.00000000E+00
  0.00000000E+00  0.00000000E+00  0.00000000E+00
  0.00000000E+00  0.00000000E+00  0.00000000E+00
  0.00000000E+00  0.00000000E+00  0.00000000E+00
  0.00000000E+00  0.00000000E+00  0.00000000E+00
  0.00000000E+00  0.00000000E+00  0.00000000E+00
  0.00000000E+00  0.00000000E+00  0.00000000E+00
  0.00000000E+00  0.00000000E+00  0.00000000E+00
  0.00000000E+00  0.00000000E+00  0.00000000E+00
  0.00000000E+00  0.00000000E+00  0.00000000E+00
  0.00000000E+00  0.00000000E+00  0.00000000E+00
  0.00000000E+00  0.00000000E+00  0.00000000E+00
  0.00000000E+00  0.00000000E+00  0.00000000E+00
