Title                                   
   1.00000000000000     
     8.5490480000000009    0.0000000000000000    0.0000000000000000
     0.0000000000000000    8.5490480000000009    0.0000000000000000
     0.0000000000000000    0.0000000000000000   20.0000000000000000
    21     3     1
Selective dynamics
Direct
  0.9097178783366286  0.2044698879990114  0.0975448402043162   T   T   T
  0.9026212246204788  0.5026712845528213  0.0977056388722934   T   T   T
  0.9111110279092214  0.8014996694673810  0.0975893443580277   T   T   T
  0.2009032543779850  0.0822668265350583  0.0978155730139798   T   T   T
  0.0747859790485102  0.2052991956662591  0.0976520975397437   T   T   T
  0.1559578107640533  0.6489539178261524  0.0976824089016167   T   T   T
  0.0724400789420881  0.5017693456168341  0.0976482004859000   T   T   T
  0.1545369121295328  0.3553542420697859  0.0977031312984354   T   T   T
  0.0776591541833680  0.7973016703070356  0.0977242755755867   T   T   T
  0.4954057502340717  0.0862549749869357  0.0978102626999156   T   T   T
  0.3482707608318721  0.1657820140432709  0.0979188373865291   T   T   T
  0.4944164434379670  0.9168602213571911  0.0977593407357669   T   T   T
  0.3482552046075291  0.8345201007990447  0.0978458737244206   T   T   T
  0.7892688248398200  0.0851850349197358  0.0974849167920246   T   T   T
  0.6427018352951661  0.1662593653620742  0.0977439609833871   T   T   T
  0.7896336898279465  0.9193136528317973  0.0974906785498535   T   T   T
  0.8260723763738774  0.6517752649101345  0.0977453692787769   T   T   T
  0.8241255318299933  0.3539669682048548  0.0977755518198617   T   T   T
  0.6423727273346638  0.8369109252354876  0.0976840785818423   T   T   T
  0.3232124491113144  0.3352754995165569  0.0978352089834039   T   T   T
  0.3230986078149738  0.6691139100807965  0.0977508276310478   T   T   T
  0.6650031765488822  0.3286191697740506  0.0980139299160714   T   T   T
  0.6656313420664091  0.6758529326659918  0.0979412848009299   T   T   T
  0.2004600610509302  0.9186218571097839  0.0978903130115695   T   T   T
  0.4877498984827101  0.5008920681619755  0.0979490548546724   T   T   T
 
  0.00000000E+00  0.00000000E+00  0.00000000E+00
  0.00000000E+00  0.00000000E+00  0.00000000E+00
  0.00000000E+00  0.00000000E+00  0.00000000E+00
  0.00000000E+00  0.00000000E+00  0.00000000E+00
  0.00000000E+00  0.00000000E+00  0.00000000E+00
  0.00000000E+00  0.00000000E+00  0.00000000E+00
  0.00000000E+00  0.00000000E+00  0.00000000E+00
  0.00000000E+00  0.00000000E+00  0.00000000E+00
  0.00000000E+00  0.00000000E+00  0.00000000E+00
  0.00000000E+00  0.00000000E+00  0.00000000E+00
  0.00000000E+00  0.00000000E+00  0.00000000E+00
  0.00000000E+00  0.00000000E+00  0.00000000E+00
  0.00000000E+00  0.00000000E+00  0.00000000E+00
  0.00000000E+00  0.00000000E+00  0.00000000E+00
  0.00000000E+00  0.00000000E+00  0.00000000E+00
  0.00000000E+00  0.00000000E+00  0.00000000E+00
  0.00000000E+00  0.00000000E+00  0.00000000E+00
  0.00000000E+00  0.00000000E+00  0.00000000E+00
  0.00000000E+00  0.00000000E+00  0.00000000E+00
  0.00000000E+00  0.00000000E+00  0.00000000E+00
  0.00000000E+00  0.00000000E+00  0.00000000E+00
  0.00000000E+00  0.00000000E+00  0.00000000E+00
  0.00000000E+00  0.00000000E+00  0.00000000E+00
  0.00000000E+00  0.00000000E+00  0.00000000E+00
  0.00000000E+00  0.00000000E+00  0.00000000E+00
