Title                                   
   1.00000000000000     
     4.9440799999999996    0.0000000000000000    0.0000000000000000
     0.0000000000000000    8.5647549999999999    0.0000000000000000
     0.0000000000000000    0.0000000000000000   20.0000000000000000
    14     1
Selective dynamics
Direct
  0.2500000000000000  0.2062978953074038  0.0948181429847149   T   T   T
 -0.0016591280414745  0.2916774211065968  0.0953090272970050   T   T   T
  0.2500000000000000  0.0433240175999350  0.0948457830563581   T   T   T
 -0.0016381720530291  0.9579147626129365  0.0953928725403872   T   T   T
  0.7500000000000000  0.2074766274687920  0.0921728101633136   T   T   T
  0.5016591280414746  0.2916774211065968  0.0953090272970050   T   T   T
  0.7500000000000000  0.0420739249056532  0.0922310143674633   T   T   T
  0.7500000000000000  0.7114317012016816  0.1001821018157585   T   T   T
  0.7500000000000000  0.5381316459319563  0.1001506522223057   T   T   T
  0.5016381720530289  0.9579147626129365  0.0953928725403872   T   T   T
  0.5050916072530174  0.4543414966749609  0.1005898462804026   T   T   T
 -0.0050916072530174  0.4543414966749609  0.1005898462804026   T   T   T
 -0.0051058834317492  0.7952515807250357  0.1006845570933210   T   T   T
  0.5051058834317491  0.7952515807250357  0.1006845570933210   T   T   T
  0.2500000000000000  0.6245746653455196  0.1496268889678579   T   T   T
 
  0.00000000E+00  0.00000000E+00  0.00000000E+00
  0.00000000E+00  0.00000000E+00  0.00000000E+00
  0.00000000E+00  0.00000000E+00  0.00000000E+00
  0.00000000E+00  0.00000000E+00  0.00000000E+00
  0.00000000E+00  0.00000000E+00  0.00000000E+00
  0.00000000E+00  0.00000000E+00  0.00000000E+00
  0.00000000E+00  0.00000000E+00  0.00000000E+00
  0.00000000E+00  0.00000000E+00  0.00000000E+00
  0.00000000E+00  0.00000000E+00  0.00000000E+00
  0.00000000E+00  0.00000000E+00  0.00000000E+00
  0.00000000E+00  0.00000000E+00  0.00000000E+00
  0.00000000E+00  0.00000000E+00  0.00000000E+00
  0.00000000E+00  0.00000000E+00  0.00000000E+00
  0.00000000E+00  0.00000000E+00  0.00000000E+00
  0.00000000E+00  0.00000000E+00  0.00000000E+00
