Title                                   
   1.00000000000000     
     8.5490480000000009    0.0000000000000000    0.0000000000000000
     0.0000000000000000    8.5490480000000009    0.0000000000000000
     0.0000000000000000    0.0000000000000000   20.0000000000000000
    24     1
Selective dynamics
Direct
  0.9107117886209051  0.2067092788897615  0.0980589250388777   T   T   T
  0.9088108713981462  0.5018103296516196  0.0966094541460910   T   T   T
  0.9107502732623637  0.7968553644672292  0.0980222097512959   T   T   T
  0.1980030174600850  0.0841049181287042  0.0981696975476434   T   T   T
  0.0753367158802961  0.2067010787113964  0.0980971333457165   T   T   T
  0.1980281721894620  0.9194765182479756  0.0981590579733121   T   T   T
  0.1576529444107852  0.6480381462504851  0.0962533216138360   T   T   T
  0.0771634025882220  0.5018008871542424  0.0966326504411497   T   T   T
  0.1576289347009749  0.3555343238462083  0.0962702972958456   T   T   T
  0.0753634250839108  0.7968606098569454  0.0980607395922740   T   T   T
  0.4930068384785333  0.0859728000446681  0.0968210756610190   T   T   T
  0.3467695925960732  0.1664548936933210  0.0964011348109592   T   T   T
  0.4930166747416482  0.9176144914365730  0.0968135226661845   T   T   T
  0.3467947342297779  0.8371275682727211  0.0963984902208416   T   T   T
  0.7880617629448970  0.0840972404017240  0.0981057667277895   T   T   T
  0.6392320426245770  0.1664335957497743  0.0963602076095511   T   T   T
  0.7880876126892837  0.9194794870942233  0.0980908513973331   T   T   T
  0.8283736517722776  0.6480738559222742  0.0961998798834433   T   T   T
  0.8283363180440395  0.3555340569257713  0.0962461280258823   T   T   T
  0.6392650160242863  0.8371514296473962  0.0963347065930484   T   T   T
  0.3256141686312097  0.3344255947305048  0.0912677071572603   T   T   T
  0.3256278180397773  0.6691446692479680  0.0912714957697107   T   T   T
  0.6603634820284486  0.3343673818015584  0.0912496466632633   T   T   T
  0.6604063830428989  0.6692260997762642  0.0911988673565334   T   T   T
  0.4930063585171132  0.5017953800507029  0.0766120327111162   T   T   T
 
  0.00000000E+00  0.00000000E+00  0.00000000E+00
  0.00000000E+00  0.00000000E+00  0.00000000E+00
  0.00000000E+00  0.00000000E+00  0.00000000E+00
  0.00000000E+00  0.00000000E+00  0.00000000E+00
  0.00000000E+00  0.00000000E+00  0.00000000E+00
  0.00000000E+00  0.00000000E+00  0.00000000E+00
  0.00000000E+00  0.00000000E+00  0.00000000E+00
  0.00000000E+00  0.00000000E+00  0.00000000E+00
  0.00000000E+00  0.00000000E+00  0.00000000E+00
  0.00000000E+00  0.00000000E+00  0.00000000E+00
  0.00000000E+00  0.00000000E+00  0.00000000E+00
  0.00000000E+00  0.00000000E+00  0.00000000E+00
  0.00000000E+00  0.00000000E+00  0.00000000E+00
  0.00000000E+00  0.00000000E+00  0.00000000E+00
  0.00000000E+00  0.00000000E+00  0.00000000E+00
  0.00000000E+00  0.00000000E+00  0.00000000E+00
  0.00000000E+00  0.00000000E+00  0.00000000E+00
  0.00000000E+00  0.00000000E+00  0.00000000E+00
  0.00000000E+00  0.00000000E+00  0.00000000E+00
  0.00000000E+00  0.00000000E+00  0.00000000E+00
  0.00000000E+00  0.00000000E+00  0.00000000E+00
  0.00000000E+00  0.00000000E+00  0.00000000E+00
  0.00000000E+00  0.00000000E+00  0.00000000E+00
  0.00000000E+00  0.00000000E+00  0.00000000E+00
  0.00000000E+00  0.00000000E+00  0.00000000E+00
