Title                                   
   1.00000000000000     
     4.9440799999999996    0.0000000000000000    0.0000000000000000
     0.0000000000000000   17.1295089999999988    0.0000000000000000
     0.0000000000000000    0.0000000000000000   20.0000000000000000
    28     2     1
Selective dynamics
Direct
 -0.0042514501676531  0.1053846418086856  0.2936991091472123   T   T   T
  0.2434737001274914  0.1478757203695317  0.2948974791052915   T   T   T
  0.2404962582013086  0.2319122636651123  0.2990663679108760   T   T   T
 -0.0094553357616203  0.2739542264292331  0.3030998195608028   T   T   T
  0.0087066959088058  0.6012310401259553  0.3021592226955567   T   T   T
  0.2558263364854907  0.7271444255290914  0.2951509739855350   T   T   T
  0.0021394328500499  0.8532833813560435  0.2922890962938112   T   T   T
  0.2512197773803071  0.8955145230687351  0.2919821038277137   T   T   T
  0.2486451220890823  0.9794793279279684  0.2919565696176856   T   T   T
  0.0046932105246351  0.7692826605721677  0.2937055193346153   T   T   T
  0.4950236451400724  0.1058542605949522  0.2930410297892590   T   T   T
  0.7457335474080586  0.1475887111771098  0.2940651609552852   T   T   T
  0.7433792532725738  0.2314042357836858  0.2971768361754633   T   T   T
  0.4976182333575695  0.0218127845094396  0.2919675137068314   T   T   T
  0.7425034610548611  0.3953152620958706  0.3069049983763937   T   T   T
  0.7552303314592307  0.4800005532190222  0.3082682822247216   T   T   T
  0.4910372427209143  0.2733018936854414  0.2984229046536852   T   T   T
  0.5087208654768054  0.6014466323452292  0.3010780776350842   T   T   T
  0.7546184551371132  0.7273626894742927  0.2944398318556271   T   T   T
  0.5018278929285916  0.8534622459893163  0.2921520057381794   T   T   T
  0.7511593381360034  0.8954943763630466  0.2918098755964580   T   T   T
  0.7485914865212682  0.9795234524379491  0.2917604152952248   T   T   T
  0.5041914880234675  0.7695093768301282  0.2935202125311777   T   T   T
  0.7573670214910000  0.6435458037553669  0.2978627570227491   T   T   T
  0.2581307960555625  0.6432138645895311  0.2994210175367987   T   T   T
 -0.0019780627455788  0.0214452191516929  0.2922874818151323   T   T   T
  0.0042375702624734  0.5188753065890801  0.3103017551476188   T   T   T
  0.4972181045157841  0.3557558773915865  0.3000421341060531   T   T   T
  0.5115740219892295  0.5206181727104472  0.3078021193072740   T   T   T
 -0.0134355747507428  0.3546584074046336  0.3151729764832135   T   T   T
  0.2657641349078474  0.4360906630496499  0.3495563525686218   T   T   T
 
  0.00000000E+00  0.00000000E+00  0.00000000E+00
  0.00000000E+00  0.00000000E+00  0.00000000E+00
  0.00000000E+00  0.00000000E+00  0.00000000E+00
  0.00000000E+00  0.00000000E+00  0.00000000E+00
  0.00000000E+00  0.00000000E+00  0.00000000E+00
  0.00000000E+00  0.00000000E+00  0.00000000E+00
  0.00000000E+00  0.00000000E+00  0.00000000E+00
  0.00000000E+00  0.00000000E+00  0.00000000E+00
  0.00000000E+00  0.00000000E+00  0.00000000E+00
  0.00000000E+00  0.00000000E+00  0.00000000E+00
  0.00000000E+00  0.00000000E+00  0.00000000E+00
  0.00000000E+00  0.00000000E+00  0.00000000E+00
  0.00000000E+00  0.00000000E+00  0.00000000E+00
  0.00000000E+00  0.00000000E+00  0.00000000E+00
  0.00000000E+00  0.00000000E+00  0.00000000E+00
  0.00000000E+00  0.00000000E+00  0.00000000E+00
  0.00000000E+00  0.00000000E+00  0.00000000E+00
  0.00000000E+00  0.00000000E+00  0.00000000E+00
  0.00000000E+00  0.00000000E+00  0.00000000E+00
  0.00000000E+00  0.00000000E+00  0.00000000E+00
  0.00000000E+00  0.00000000E+00  0.00000000E+00
  0.00000000E+00  0.00000000E+00  0.00000000E+00
  0.00000000E+00  0.00000000E+00  0.00000000E+00
  0.00000000E+00  0.00000000E+00  0.00000000E+00
  0.00000000E+00  0.00000000E+00  0.00000000E+00
  0.00000000E+00  0.00000000E+00  0.00000000E+00
  0.00000000E+00  0.00000000E+00  0.00000000E+00
  0.00000000E+00  0.00000000E+00  0.00000000E+00
  0.00000000E+00  0.00000000E+00  0.00000000E+00
  0.00000000E+00  0.00000000E+00  0.00000000E+00
  0.00000000E+00  0.00000000E+00  0.00000000E+00
