Title                                   
   1.00000000000000     
     9.8694509999999998    0.0000000000000000    0.0000000000000000
     0.0000000000000000    8.5490480000000009    0.0000000000000000
     0.0000000000000000    0.0000000000000000   20.0000000000000000
    26     5     1
Selective dynamics
Direct
  0.0558408558531159  0.0921314529050492  0.0852233558036214   T   T   T
  0.9297119689201806  0.1755534463579149  0.0872974801666684   T   T   T
  0.0565247887687503  0.9234857437150801  0.0840157578801654   T   T   T
  0.9290651720857395  0.3416753161203547  0.0902742351966671   T   T   T
  0.0561150174873065  0.5898955203782604  0.0854700773729351   T   T   T
  0.9314212784766377  0.6718567854762890  0.0860483254939249   T   T   T
  0.0556019863355481  0.4231493124672339  0.0894969800673900   T   T   T
  0.9313801240319450  0.8399567174468262  0.0855563453213855   T   T   T
  0.3053497094123589  0.0890059399261951  0.0876457062548302   T   T   T
  0.1818316514288853  0.1742149942251103  0.0874580170284845   T   T   T
  0.3072795907218318  0.9231609758554555  0.0885878009199427   T   T   T
  0.1816586711579131  0.3400501624910886  0.0913024235420627   T   T   T
  0.3055720033178327  0.5902008830604814  0.0994953875221859   T   T   T
  0.1812685121094623  0.6705709093096446  0.0874903608237510   T   T   T
  0.1822232563136074  0.8389214792037292  0.0859532036854011   T   T   T
  0.5565035737052719  0.0863449751827223  0.0964581051576106   T   T   T
  0.4307551244750822  0.1693758373134276  0.0937035039418884   T   T   T
  0.4324252652938073  0.3344748915834633  0.0999881686342572   T   T   T
  0.4294540559988859  0.8390534507094363  0.1005572339154309   T   T   T
  0.8066585038754609  0.0898944448798821  0.0877257339616019   T   T   T
  0.6811699944410469  0.1711938652642211  0.0931955539682170   T   T   T
  0.8063225059228590  0.9245685661194315  0.0884230185341106   T   T   T
  0.6775678874509827  0.3354734072667636  0.0982517416005576   T   T   T
  0.8059974088086725  0.5937886496173567  0.0943740446416425   T   T   T
  0.6844957260756099  0.8395989083795917  0.0981190702596359   T   T   T
  0.4208545773333514  0.6789112694164950  0.1182174480160868   T   T   T
  0.5546936104984067  0.4077702818319199  0.1129027747168848   T   T   T
  0.6920052873652722  0.6807084533191985  0.1094679767966672   T   T   T
  0.5575173531214650  0.9194368102616184  0.0994639639202894   T   T   T
  0.3089091362116887  0.4218248329173777  0.0974900183676981   T   T   T
  0.8006440219288563  0.4257970854307445  0.0942728571689489   T   T   T
  0.5628203810721711  0.5882006315676381  0.1817483293190728   T   T   T
 
  0.00000000E+00  0.00000000E+00  0.00000000E+00
  0.00000000E+00  0.00000000E+00  0.00000000E+00
  0.00000000E+00  0.00000000E+00  0.00000000E+00
  0.00000000E+00  0.00000000E+00  0.00000000E+00
  0.00000000E+00  0.00000000E+00  0.00000000E+00
  0.00000000E+00  0.00000000E+00  0.00000000E+00
  0.00000000E+00  0.00000000E+00  0.00000000E+00
  0.00000000E+00  0.00000000E+00  0.00000000E+00
  0.00000000E+00  0.00000000E+00  0.00000000E+00
  0.00000000E+00  0.00000000E+00  0.00000000E+00
  0.00000000E+00  0.00000000E+00  0.00000000E+00
  0.00000000E+00  0.00000000E+00  0.00000000E+00
  0.00000000E+00  0.00000000E+00  0.00000000E+00
  0.00000000E+00  0.00000000E+00  0.00000000E+00
  0.00000000E+00  0.00000000E+00  0.00000000E+00
  0.00000000E+00  0.00000000E+00  0.00000000E+00
  0.00000000E+00  0.00000000E+00  0.00000000E+00
  0.00000000E+00  0.00000000E+00  0.00000000E+00
  0.00000000E+00  0.00000000E+00  0.00000000E+00
  0.00000000E+00  0.00000000E+00  0.00000000E+00
  0.00000000E+00  0.00000000E+00  0.00000000E+00
  0.00000000E+00  0.00000000E+00  0.00000000E+00
  0.00000000E+00  0.00000000E+00  0.00000000E+00
  0.00000000E+00  0.00000000E+00  0.00000000E+00
  0.00000000E+00  0.00000000E+00  0.00000000E+00
  0.00000000E+00  0.00000000E+00  0.00000000E+00
  0.00000000E+00  0.00000000E+00  0.00000000E+00
  0.00000000E+00  0.00000000E+00  0.00000000E+00
  0.00000000E+00  0.00000000E+00  0.00000000E+00
  0.00000000E+00  0.00000000E+00  0.00000000E+00
  0.00000000E+00  0.00000000E+00  0.00000000E+00
  0.00000000E+00  0.00000000E+00  0.00000000E+00
