Title                                   
   1.00000000000000     
     4.9440799999999996    0.0000000000000000    0.0000000000000000
     0.0000000000000000   17.1295089999999988    0.0000000000000000
     0.0000000000000000    0.0000000000000000   20.0000000000000000
    25     5     1
Selective dynamics
Direct
  0.0047546233807172  0.1075695098754457  0.2968186297311538   T   T   T
  0.2539458421787411  0.1511001587183762  0.2966672197052662   T   T   T
  0.2541871634834790  0.2360563210158307  0.2974558418253070   T   T   T
 -0.0002182694931054  0.2770085023537871  0.3015396237712208   T   T   T
 -0.0038009909421000  0.5997478120073625  0.2942105893704371   T   T   T
  0.2522064487567135  0.7258184819704930  0.2950261093748375   T   T   T
  0.0043744934208901  0.8537088138327027  0.2959112752206592   T   T   T
  0.2530201819878063  0.8962499653881657  0.2960436929568905   T   T   T
  0.2533881010944528  0.9807191614792461  0.2962405991424740   T   T   T
  0.0042560613544382  0.7687769781127574  0.2953435909648835   T   T   T
  0.5031495388609027  0.1076457042433682  0.2958600670438972   T   T   T
  0.7543442802613066  0.1491953803590147  0.2961709047410440   T   T   T
  0.7546476648732715  0.2332070778250011  0.2969026095591827   T   T   T
  0.5029835992186932  0.0231289549140715  0.2959957063867572   T   T   T
  0.7498150068331264  0.3950871433025326  0.2970421817047540   T   T   T
  0.7508570179268990  0.4849246881561209  0.2944471492827206   T   T   T
  0.5093397581780714  0.2774821117906351  0.2946537516348248   T   T   T
  0.5073191143691543  0.5998002514662476  0.2945493838000394   T   T   T
  0.7523112465224354  0.7281732158824779  0.2948758233049823   T   T   T
  0.5013445106218072  0.8536761514619113  0.2958230529178751   T   T   T
  0.7529863489324402  0.8957533292905034  0.2960315751173502   T   T   T
  0.7533496659142447  0.9805481355670129  0.2962002884873387   T   T   T
  0.5005550569952611  0.7687614281825049  0.2952552545831032   T   T   T
  0.7519243362002618  0.6448716152497178  0.2943324365920566   T   T   T
  0.0039982989973647  0.0230359023968102  0.2965314562371060   T   T   T
  0.5098627714955561  0.5216875207484568  0.2952992308695071   T   T   T
  0.9926818582243245  0.5216416343822645  0.2938296121332449   T   T   T
  0.5172808344973391  0.3572761001254642  0.2877242335191353   T   T   T
 -0.0117468012439119  0.3575285399577974  0.3110137871895182   T   T   T
  0.2518536825323255  0.6411606030807937  0.2944133331950388   T   T   T
  0.1750355545670967  0.4000008068631190  0.4028509896373442   T   T   T
 
  0.00000000E+00  0.00000000E+00  0.00000000E+00
  0.00000000E+00  0.00000000E+00  0.00000000E+00
  0.00000000E+00  0.00000000E+00  0.00000000E+00
  0.00000000E+00  0.00000000E+00  0.00000000E+00
  0.00000000E+00  0.00000000E+00  0.00000000E+00
  0.00000000E+00  0.00000000E+00  0.00000000E+00
  0.00000000E+00  0.00000000E+00  0.00000000E+00
  0.00000000E+00  0.00000000E+00  0.00000000E+00
  0.00000000E+00  0.00000000E+00  0.00000000E+00
  0.00000000E+00  0.00000000E+00  0.00000000E+00
  0.00000000E+00  0.00000000E+00  0.00000000E+00
  0.00000000E+00  0.00000000E+00  0.00000000E+00
  0.00000000E+00  0.00000000E+00  0.00000000E+00
  0.00000000E+00  0.00000000E+00  0.00000000E+00
  0.00000000E+00  0.00000000E+00  0.00000000E+00
  0.00000000E+00  0.00000000E+00  0.00000000E+00
  0.00000000E+00  0.00000000E+00  0.00000000E+00
  0.00000000E+00  0.00000000E+00  0.00000000E+00
  0.00000000E+00  0.00000000E+00  0.00000000E+00
  0.00000000E+00  0.00000000E+00  0.00000000E+00
  0.00000000E+00  0.00000000E+00  0.00000000E+00
  0.00000000E+00  0.00000000E+00  0.00000000E+00
  0.00000000E+00  0.00000000E+00  0.00000000E+00
  0.00000000E+00  0.00000000E+00  0.00000000E+00
  0.00000000E+00  0.00000000E+00  0.00000000E+00
  0.00000000E+00  0.00000000E+00  0.00000000E+00
  0.00000000E+00  0.00000000E+00  0.00000000E+00
  0.00000000E+00  0.00000000E+00  0.00000000E+00
  0.00000000E+00  0.00000000E+00  0.00000000E+00
  0.00000000E+00  0.00000000E+00  0.00000000E+00
  0.00000000E+00  0.00000000E+00  0.00000000E+00
