Title                                   
   1.00000000000000     
     4.9440799999999996    0.0000000000000000    0.0000000000000000
     0.0000000000000000   17.1295089999999988    0.0000000000000000
     0.0000000000000000    0.0000000000000000   20.0000000000000000
    30     1     1
Selective dynamics
Direct
 -0.0001886784764237  0.1036289488132924  0.2720152240873007   T   T   T
  0.2499036812077891  0.1451001821819979  0.2751630157134520   T   T   T
  0.2499079608480970  0.2277832591944881  0.2857338178090642   T   T   T
  0.0057129474216659  0.3498247732032638  0.3106437331382101   T   T   T
 -0.0004287499211432  0.2685754031179779  0.2925872397383524   T   T   T
 -0.0053606241256164  0.6083826332734170  0.3264987952830716   T   T   T
  0.2499303464945548  0.7299418792475023  0.3029103330441703   T   T   T
  0.0006129149921556  0.8539989462034797  0.2824595969471417   T   T   T
  0.2499356779540094  0.8955367393388877  0.2777153212714020   T   T   T
  0.2499256654235698  0.9785686545595700  0.2714358003225713   T   T   T
  0.0010459286391130  0.7718360825963742  0.2946211159411706   T   T   T
  0.5000101118892605  0.1036260201650195  0.2720195474973706   T   T   T
  0.7498984263424786  0.1452085617216255  0.2750328055014469   T   T   T
  0.7499082940979394  0.2278712957908762  0.2852776394445277   T   T   T
  0.5000972403630558  0.0201538554029728  0.2701919296256904   T   T   T
  0.4941210512291945  0.3498236223087841  0.3106436390580662   T   T   T
  0.7499032861402766  0.3923658584102298  0.3190153096757726   T   T   T
  0.7498386196793494  0.4762315086327593  0.3305527350757168   T   T   T
  0.5002345519956438  0.2685768770994976  0.2925847446436171   T   T   T
  0.5051446115758867  0.6083825532351229  0.3265275211283437   T   T   T
  0.7499118154431252  0.7318932289778350  0.3009271227188305   T   T   T
  0.4992735781288301  0.8540051302568794  0.2824528506978859   T   T   T
  0.7499497705857607  0.8951524428071936  0.2775380784247338   T   T   T
  0.7499403180072363  0.9783719219296115  0.2713465516749953   T   T   T
  0.4987962182164162  0.7718436699806486  0.2946227537109588   T   T   T
  0.7498837144347040  0.6513540668787376  0.3170033307235453   T   T   T
  0.2499064904171027  0.6483816875969948  0.3195629213120565   T   T   T
 -0.0002424200207657  0.0201590035356997  0.2701872963048803   T   T   T
  0.5294158618406879  0.5279354962855146  0.3402328463521478   T   T   T
  0.9702906517697328  0.5279376708767842  0.3401633987950475   T   T   T
  0.2499113056632960  0.3856197323306066  0.3214583481169170   T   T   T
  0.2496324317430211  0.4804792940463486  0.4134396362214948   T   T   T
 
  0.00000000E+00  0.00000000E+00  0.00000000E+00
  0.00000000E+00  0.00000000E+00  0.00000000E+00
  0.00000000E+00  0.00000000E+00  0.00000000E+00
  0.00000000E+00  0.00000000E+00  0.00000000E+00
  0.00000000E+00  0.00000000E+00  0.00000000E+00
  0.00000000E+00  0.00000000E+00  0.00000000E+00
  0.00000000E+00  0.00000000E+00  0.00000000E+00
  0.00000000E+00  0.00000000E+00  0.00000000E+00
  0.00000000E+00  0.00000000E+00  0.00000000E+00
  0.00000000E+00  0.00000000E+00  0.00000000E+00
  0.00000000E+00  0.00000000E+00  0.00000000E+00
  0.00000000E+00  0.00000000E+00  0.00000000E+00
  0.00000000E+00  0.00000000E+00  0.00000000E+00
  0.00000000E+00  0.00000000E+00  0.00000000E+00
  0.00000000E+00  0.00000000E+00  0.00000000E+00
  0.00000000E+00  0.00000000E+00  0.00000000E+00
  0.00000000E+00  0.00000000E+00  0.00000000E+00
  0.00000000E+00  0.00000000E+00  0.00000000E+00
  0.00000000E+00  0.00000000E+00  0.00000000E+00
  0.00000000E+00  0.00000000E+00  0.00000000E+00
  0.00000000E+00  0.00000000E+00  0.00000000E+00
  0.00000000E+00  0.00000000E+00  0.00000000E+00
  0.00000000E+00  0.00000000E+00  0.00000000E+00
  0.00000000E+00  0.00000000E+00  0.00000000E+00
  0.00000000E+00  0.00000000E+00  0.00000000E+00
  0.00000000E+00  0.00000000E+00  0.00000000E+00
  0.00000000E+00  0.00000000E+00  0.00000000E+00
  0.00000000E+00  0.00000000E+00  0.00000000E+00
  0.00000000E+00  0.00000000E+00  0.00000000E+00
  0.00000000E+00  0.00000000E+00  0.00000000E+00
  0.00000000E+00  0.00000000E+00  0.00000000E+00
  0.00000000E+00  0.00000000E+00  0.00000000E+00
