Title                                   
   1.00000000000000     
     8.5490480000000009    0.0000000000000000    0.0000000000000000
     0.0000000000000000    8.5490480000000009    0.0000000000000000
     0.0000000000000000    0.0000000000000000   20.0000000000000000
    20     4     1
Selective dynamics
Direct
  0.9091135830381083  0.2064493748970153  0.0954652772299046   T   T   T
  0.9065998396878515  0.5018008355868480  0.0953152777543167   T   T   T
  0.9091267205995236  0.7971130852849244  0.0954737063884802   T   T   T
  0.1976958728979082  0.0856406326662034  0.0954941078310393   T   T   T
  0.0768994802501062  0.2064189156762412  0.0954762571055711   T   T   T
  0.1977105454473372  0.9178634670514443  0.0954984286951819   T   T   T
  0.1607722849314641  0.6486863685531054  0.0953400956392998   T   T   T
  0.0794610588724825  0.5017746788427995  0.0953327887107601   T   T   T
  0.1607455975387400  0.3548335089943872  0.0953256411709077   T   T   T
  0.0769220953094756  0.7970862669797700  0.0954824900402430   T   T   T
  0.4929878378311843  0.0882115836301467  0.0953571972436202   T   T   T
  0.3460906116939424  0.1695085600249274  0.0953587598292673   T   T   T
  0.4929915513062243  0.9153679046813054  0.0953646991889766   T   T   T
  0.3461042569886671  0.8340428010834661  0.0953611757399361   T   T   T
  0.7883096238051677  0.0856874845919799  0.0954798230909189   T   T   T
  0.6398951799516063  0.1695437429889667  0.0953258597821905   T   T   T
  0.7883269329955985  0.9179020048670963  0.0954830265359556   T   T   T
  0.8252814286911939  0.6487164791862110  0.0953210531249772   T   T   T
  0.8252877921816810  0.3548840406074153  0.0953076054895758   T   T   T
  0.6399082690000308  0.8340647631441322  0.0953381658047947   T   T   T
  0.3235005059527374  0.3322537260245087  0.0951820247105313   T   T   T
  0.3235399519282396  0.6713109531519612  0.0951957773321082   T   T   T
  0.6625280886861206  0.3322944716148384  0.0951545463518795   T   T   T
  0.6625144355614301  0.6713350549298714  0.0951710998511912   T   T   T
  0.4930984548531719  0.5019992949404478  0.0951001153583503   T   T   T
 
  0.00000000E+00  0.00000000E+00  0.00000000E+00
  0.00000000E+00  0.00000000E+00  0.00000000E+00
  0.00000000E+00  0.00000000E+00  0.00000000E+00
  0.00000000E+00  0.00000000E+00  0.00000000E+00
  0.00000000E+00  0.00000000E+00  0.00000000E+00
  0.00000000E+00  0.00000000E+00  0.00000000E+00
  0.00000000E+00  0.00000000E+00  0.00000000E+00
  0.00000000E+00  0.00000000E+00  0.00000000E+00
  0.00000000E+00  0.00000000E+00  0.00000000E+00
  0.00000000E+00  0.00000000E+00  0.00000000E+00
  0.00000000E+00  0.00000000E+00  0.00000000E+00
  0.00000000E+00  0.00000000E+00  0.00000000E+00
  0.00000000E+00  0.00000000E+00  0.00000000E+00
  0.00000000E+00  0.00000000E+00  0.00000000E+00
  0.00000000E+00  0.00000000E+00  0.00000000E+00
  0.00000000E+00  0.00000000E+00  0.00000000E+00
  0.00000000E+00  0.00000000E+00  0.00000000E+00
  0.00000000E+00  0.00000000E+00  0.00000000E+00
  0.00000000E+00  0.00000000E+00  0.00000000E+00
  0.00000000E+00  0.00000000E+00  0.00000000E+00
  0.00000000E+00  0.00000000E+00  0.00000000E+00
  0.00000000E+00  0.00000000E+00  0.00000000E+00
  0.00000000E+00  0.00000000E+00  0.00000000E+00
  0.00000000E+00  0.00000000E+00  0.00000000E+00
  0.00000000E+00  0.00000000E+00  0.00000000E+00
