Title                                   
   1.00000000000000     
     4.9440799999999996    0.0000000000000000    0.0000000000000000
     0.0000000000000000   17.1295089999999988    0.0000000000000000
     0.0000000000000000    0.0000000000000000   20.0000000000000000
    30     1     1
Selective dynamics
Direct
 -0.0002928244916869  0.1044018521141970  0.2775216901096777   T   T   T
  0.2498234189458244  0.1458851469211986  0.2824156819403222   T   T   T
  0.2498535870598975  0.2280098688187412  0.2953175205142509   T   T   T
  0.0005445437083078  0.3494860177288104  0.3210951536018478   T   T   T
 -0.0006915262978277  0.2690335049085252  0.3022329580308464   T   T   T
 -0.0028077374510264  0.6082617456027299  0.3188991295465570   T   T   T
  0.2499288348073944  0.7295349476977016  0.2933373811025515   T   T   T
  0.0001152701241727  0.8539121525314780  0.2764837330009696   T   T   T
  0.2498571183595694  0.8956784423555494  0.2735770069070996   T   T   T
  0.2498038682410375  0.9792178357195342  0.2713829122787683   T   T   T
  0.0003116879213044  0.7709979969891719  0.2860630266578274   T   T   T
  0.4999462664468647  0.1043995734666927  0.2775184850194360   T   T   T
  0.7498316711385667  0.1459783219160959  0.2817449378429034   T   T   T
  0.7498600368415387  0.2284183680022875  0.2935584040760043   T   T   T
  0.4999038757926770  0.0210173335436725  0.2721489529209947   T   T   T
  0.4992958735340678  0.3494851431878125  0.3210904243763624   T   T   T
  0.7499376106659837  0.3938333950270962  0.3273148974739867   T   T   T
  0.7499779217642880  0.4798944692004045  0.3329337933116919   T   T   T
  0.5004393112180624  0.2690353307103335  0.3022241931866964   T   T   T
  0.5027736545955480  0.6082681435597135  0.3188606168326953   T   T   T
  0.7499504283016106  0.7303142749108055  0.2919230557351287   T   T   T
  0.4996278312704791  0.8539140591457510  0.2764857746153458   T   T   T
  0.7498667157051276  0.8955116274126852  0.2734226996901316   T   T   T
  0.7498348307635896  0.9791651451591955  0.2712588429877235   T   T   T
  0.4995335265366043  0.7709938788818173  0.2860608582092548   T   T   T
  0.7499936148872687  0.6487417613495425  0.3075051086618269   T   T   T
  0.2499562852215750  0.6481790788980836  0.3109984634371323   T   T   T
 -0.0002692062189761  0.0210280346127275  0.2721516377755877   T   T   T
  0.5138337769118742  0.5276455397873594  0.3385742427889010   T   T   T
  0.9861342947048076  0.5276485576181154  0.3386132428578246   T   T   T
  0.2499009003775587  0.3833195250685813  0.3373438740467304   T   T   T
  0.2500475386139248  0.4773399271535806  0.3925063004628753   T   T   T
 
  0.00000000E+00  0.00000000E+00  0.00000000E+00
  0.00000000E+00  0.00000000E+00  0.00000000E+00
  0.00000000E+00  0.00000000E+00  0.00000000E+00
  0.00000000E+00  0.00000000E+00  0.00000000E+00
  0.00000000E+00  0.00000000E+00  0.00000000E+00
  0.00000000E+00  0.00000000E+00  0.00000000E+00
  0.00000000E+00  0.00000000E+00  0.00000000E+00
  0.00000000E+00  0.00000000E+00  0.00000000E+00
  0.00000000E+00  0.00000000E+00  0.00000000E+00
  0.00000000E+00  0.00000000E+00  0.00000000E+00
  0.00000000E+00  0.00000000E+00  0.00000000E+00
  0.00000000E+00  0.00000000E+00  0.00000000E+00
  0.00000000E+00  0.00000000E+00  0.00000000E+00
  0.00000000E+00  0.00000000E+00  0.00000000E+00
  0.00000000E+00  0.00000000E+00  0.00000000E+00
  0.00000000E+00  0.00000000E+00  0.00000000E+00
  0.00000000E+00  0.00000000E+00  0.00000000E+00
  0.00000000E+00  0.00000000E+00  0.00000000E+00
  0.00000000E+00  0.00000000E+00  0.00000000E+00
  0.00000000E+00  0.00000000E+00  0.00000000E+00
  0.00000000E+00  0.00000000E+00  0.00000000E+00
  0.00000000E+00  0.00000000E+00  0.00000000E+00
  0.00000000E+00  0.00000000E+00  0.00000000E+00
  0.00000000E+00  0.00000000E+00  0.00000000E+00
  0.00000000E+00  0.00000000E+00  0.00000000E+00
  0.00000000E+00  0.00000000E+00  0.00000000E+00
  0.00000000E+00  0.00000000E+00  0.00000000E+00
  0.00000000E+00  0.00000000E+00  0.00000000E+00
  0.00000000E+00  0.00000000E+00  0.00000000E+00
  0.00000000E+00  0.00000000E+00  0.00000000E+00
  0.00000000E+00  0.00000000E+00  0.00000000E+00
  0.00000000E+00  0.00000000E+00  0.00000000E+00
