Title                                   
   1.00000000000000     
     4.9440799999999996    0.0000000000000000    0.0000000000000000
     0.0000000000000000   17.1295089999999988    0.0000000000000000
     0.0000000000000000    0.0000000000000000   20.0000000000000000
    29     2     1
Selective dynamics
Direct
  0.0035834176238792  0.1041766231662339  0.2818588641751190   T   T   T
  0.2543530887409510  0.1458017892382361  0.2858708055087641   T   T   T
  0.2570609023681009  0.2283571945979828  0.2968148196710013   T   T   T
  0.0122024417572437  0.3505031343661535  0.3200772272926609   T   T   T
  0.0068488551529581  0.2693427824309996  0.3027795329497070   T   T   T
 -0.0140760689183216  0.6064691339454192  0.3129158645794147   T   T   T
  0.2428822412424597  0.7287141761084264  0.2934116505263403   T   T   T
 -0.0030525649983181  0.8538038665085621  0.2802823878144070   T   T   T
  0.2473751481210755  0.8957029902031775  0.2782454194329974   T   T   T
  0.2500440867655447  0.9790715993522627  0.2768453985732719   T   T   T
 -0.0055514100050719  0.7708044919579315  0.2873448980508547   T   T   T
  0.5035639041887155  0.1042215397630616  0.2818712934403891   T   T   T
  0.7544384662300275  0.1457181043484066  0.2852031525548477   T   T   T
  0.7572108442724984  0.2283626597061205  0.2951922581194346   T   T   T
  0.5009415589037545  0.0208521606850013  0.2774769621152821   T   T   T
  0.5088936964809303  0.3501915703554305  0.3203116337491767   T   T   T
  0.7610447566361856  0.3954774985454274  0.3255038148013544   T   T   T
  0.7499524916672438  0.4822708329301208  0.3292884484806648   T   T   T
  0.5090475481658837  0.2691549321157846  0.3028101289142339   T   T   T
  0.4930650473899921  0.6065444470048087  0.3147180254191115   T   T   T
  0.7433640248724169  0.7299701853661484  0.2917747371942691   T   T   T
  0.4961524453057603  0.8538195523775544  0.2804019303254890   T   T   T
  0.7473551487712926  0.8954288224765300  0.2780655976204536   T   T   T
  0.7500282041661778  0.9790265804231149  0.2766481478642183   T   T   T
  0.4934287742442475  0.7707408084409760  0.2876831156354226   T   T   T
  0.7400278114283257  0.6479076747619886  0.3040871015629663   T   T   T
  0.2408239393733820  0.6468320728451800  0.3072848566623033   T   T   T
  0.0007929202876820  0.0208599853581867  0.2774395605266074   T   T   T
  0.5095370469260133  0.5265528862242856  0.3337781833845351   T   T   T
  0.9813903894265942  0.5285045680444788  0.3276581879596283   T   T   T
  0.2623581933936530  0.3835205629375808  0.3340203556069074   T   T   T
  0.2417356500187245  0.4798457734144210  0.3749006394881202   T   T   T
 
  0.00000000E+00  0.00000000E+00  0.00000000E+00
  0.00000000E+00  0.00000000E+00  0.00000000E+00
  0.00000000E+00  0.00000000E+00  0.00000000E+00
  0.00000000E+00  0.00000000E+00  0.00000000E+00
  0.00000000E+00  0.00000000E+00  0.00000000E+00
  0.00000000E+00  0.00000000E+00  0.00000000E+00
  0.00000000E+00  0.00000000E+00  0.00000000E+00
  0.00000000E+00  0.00000000E+00  0.00000000E+00
  0.00000000E+00  0.00000000E+00  0.00000000E+00
  0.00000000E+00  0.00000000E+00  0.00000000E+00
  0.00000000E+00  0.00000000E+00  0.00000000E+00
  0.00000000E+00  0.00000000E+00  0.00000000E+00
  0.00000000E+00  0.00000000E+00  0.00000000E+00
  0.00000000E+00  0.00000000E+00  0.00000000E+00
  0.00000000E+00  0.00000000E+00  0.00000000E+00
  0.00000000E+00  0.00000000E+00  0.00000000E+00
  0.00000000E+00  0.00000000E+00  0.00000000E+00
  0.00000000E+00  0.00000000E+00  0.00000000E+00
  0.00000000E+00  0.00000000E+00  0.00000000E+00
  0.00000000E+00  0.00000000E+00  0.00000000E+00
  0.00000000E+00  0.00000000E+00  0.00000000E+00
  0.00000000E+00  0.00000000E+00  0.00000000E+00
  0.00000000E+00  0.00000000E+00  0.00000000E+00
  0.00000000E+00  0.00000000E+00  0.00000000E+00
  0.00000000E+00  0.00000000E+00  0.00000000E+00
  0.00000000E+00  0.00000000E+00  0.00000000E+00
  0.00000000E+00  0.00000000E+00  0.00000000E+00
  0.00000000E+00  0.00000000E+00  0.00000000E+00
  0.00000000E+00  0.00000000E+00  0.00000000E+00
  0.00000000E+00  0.00000000E+00  0.00000000E+00
  0.00000000E+00  0.00000000E+00  0.00000000E+00
  0.00000000E+00  0.00000000E+00  0.00000000E+00
