Title                                   
   1.00000000000000     
     9.8694509999999998    0.0000000000000000    0.0000000000000000
     0.0000000000000000    8.5490480000000009    0.0000000000000000
     0.0000000000000000    0.0000000000000000   20.0000000000000000
    31     1
Selective dynamics
Direct
  0.0562938694152549  0.0895420420056156  0.0864623707996890   T   T   T
  0.9313236830050164  0.1726470292851507  0.0876550459629040   T   T   T
  0.0562896337204060  0.9229212847936396  0.0866406633602614   T   T   T
  0.9309925546019255  0.3397424470527917  0.0891322015384557   T   T   T
  0.0562632582182039  0.5892938463999833  0.0875800281724444   T   T   T
  0.9316832224180225  0.6728530960774135  0.0891335436625975   T   T   T
  0.0562606321827955  0.4230226167122981  0.0881384455866680   T   T   T
  0.9314264933950186  0.8395309585025232  0.0882662463769216   T   T   T
  0.3058915111082275  0.0894147519477756  0.0888631207921845   T   T   T
  0.1812609755741082  0.1726467072482102  0.0875669138945341   T   T   T
  0.3057780190909306  0.9228759452698243  0.0898198580697931   T   T   T
  0.1815385300560095  0.3397436355967161  0.0890168819001185   T   T   T
  0.3057031738483095  0.5896711950060599  0.0952296069492834   T   T   T
  0.1808498090423660  0.6728625301372819  0.0889632979828869   T   T   T
  0.3056233046438894  0.4222296493786734  0.0936981947867155   T   T   T
  0.1811552748086690  0.8395483869003647  0.0881155564398409   T   T   T
  0.5563169997779586  0.0884539963928082  0.0930228470060297   T   T   T
  0.4309313520259457  0.1719417655814713  0.0920514703186198   T   T   T
  0.5563057856281260  0.9229803090284570  0.0952416108259139   T   T   T
  0.4311950390581782  0.3385996546960672  0.0966459580850096   T   T   T
  0.4252817291035699  0.6762254232654247  0.1040147746813465   T   T   T
  0.5562190982793318  0.4149912152594664  0.1055003813849719   T   T   T
  0.4307135058909000  0.8392400707514663  0.0960872103732256   T   T   T
  0.8067143856045155  0.0894170559826254  0.0890154661792266   T   T   T
  0.6816914541627243  0.1719701212964616  0.0921666957526751   T   T   T
  0.8068258410004449  0.9228732474071882  0.0900343570710739   T   T   T
  0.6813230097241337  0.3386365245529346  0.0968072793908558   T   T   T
  0.8068454108535286  0.5896737018934103  0.0955705000311833   T   T   T
  0.6873418958230061  0.6762560177619829  0.1044725137442577   T   T   T
  0.8069119754377162  0.4222369886930424  0.0939534100673534   T   T   T
  0.6818910306077366  0.8392219543758493  0.0963517392554184   T   T   T
  0.5547965418930364  0.5889818307470320  0.2004568095575746   T   T   T
 
  0.00000000E+00  0.00000000E+00  0.00000000E+00
  0.00000000E+00  0.00000000E+00  0.00000000E+00
  0.00000000E+00  0.00000000E+00  0.00000000E+00
  0.00000000E+00  0.00000000E+00  0.00000000E+00
  0.00000000E+00  0.00000000E+00  0.00000000E+00
  0.00000000E+00  0.00000000E+00  0.00000000E+00
  0.00000000E+00  0.00000000E+00  0.00000000E+00
  0.00000000E+00  0.00000000E+00  0.00000000E+00
  0.00000000E+00  0.00000000E+00  0.00000000E+00
  0.00000000E+00  0.00000000E+00  0.00000000E+00
  0.00000000E+00  0.00000000E+00  0.00000000E+00
  0.00000000E+00  0.00000000E+00  0.00000000E+00
  0.00000000E+00  0.00000000E+00  0.00000000E+00
  0.00000000E+00  0.00000000E+00  0.00000000E+00
  0.00000000E+00  0.00000000E+00  0.00000000E+00
  0.00000000E+00  0.00000000E+00  0.00000000E+00
  0.00000000E+00  0.00000000E+00  0.00000000E+00
  0.00000000E+00  0.00000000E+00  0.00000000E+00
  0.00000000E+00  0.00000000E+00  0.00000000E+00
  0.00000000E+00  0.00000000E+00  0.00000000E+00
  0.00000000E+00  0.00000000E+00  0.00000000E+00
  0.00000000E+00  0.00000000E+00  0.00000000E+00
  0.00000000E+00  0.00000000E+00  0.00000000E+00
  0.00000000E+00  0.00000000E+00  0.00000000E+00
  0.00000000E+00  0.00000000E+00  0.00000000E+00
  0.00000000E+00  0.00000000E+00  0.00000000E+00
  0.00000000E+00  0.00000000E+00  0.00000000E+00
  0.00000000E+00  0.00000000E+00  0.00000000E+00
  0.00000000E+00  0.00000000E+00  0.00000000E+00
  0.00000000E+00  0.00000000E+00  0.00000000E+00
  0.00000000E+00  0.00000000E+00  0.00000000E+00
  0.00000000E+00  0.00000000E+00  0.00000000E+00
