Title                                   
   1.00000000000000     
     8.5490480000000009    0.0000000000000000    0.0000000000000000
     0.0000000000000000    8.5490480000000009    0.0000000000000000
     0.0000000000000000    0.0000000000000000   20.0000000000000000
    18     6     1
Selective dynamics
Direct
  0.9076914506694724  0.2070314060335285  0.0975532571475639   T   T   T
  0.9100536723512554  0.7993517726748571  0.0975056229927888   T   T   T
  0.1970725905509442  0.0847871595407583  0.0977295377261784   T   T   T
  0.0762801994709969  0.2027700794333719  0.0976482164252698   T   T   T
  0.1588476341026799  0.6502053420308048  0.0977433820020740   T   T   T
  0.0779685526635619  0.5008368327568871  0.0977351053096825   T   T   T
  0.1585963655486102  0.3526122122887955  0.0977679405918519   T   T   T
  0.0791850154398635  0.7977395777057090  0.0975957189102724   T   T   T
  0.4934067650228971  0.0884915793556324  0.0977846584124964   T   T   T
  0.3441697177418943  0.1681388417369118  0.0978237904370575   T   T   T
  0.4929038842781928  0.9160225912430326  0.0977338694483257   T   T   T
  0.3446876873248018  0.8331077377009060  0.0978210167503685   T   T   T
  0.7874559186640560  0.0880340690657520  0.0975142249579983   T   T   T
  0.6403193560519055  0.1712038212836223  0.0977874715313254   T   T   T
  0.7879897678433200  0.9179412797088545  0.0974688561789719   T   T   T
  0.8277550896124053  0.6497976756378074  0.0977227155078668   T   T   T
  0.8254046178207184  0.3557655974430913  0.0977622523273068   T   T   T
  0.6413509974007375  0.8335038452665692  0.0977066774161644   T   T   T
  0.9069030494348781  0.5023799626123129  0.0977576782440703   T   T   T
  0.3221093844256339  0.3311521326994718  0.0978534812682902   T   T   T
  0.3223009397522894  0.6732173437026486  0.0979205424506167   T   T   T
  0.6635377473852319  0.3363814109624410  0.0980324891671483   T   T   T
  0.6658600811567263  0.6685001306530355  0.0979674514378024   T   T   T
  0.1982238386724673  0.9148408947667466  0.0977389365115605   T   T   T
  0.4953376766144525  0.5009767036964510  0.0980301068469282   T   T   T
 
  0.00000000E+00  0.00000000E+00  0.00000000E+00
  0.00000000E+00  0.00000000E+00  0.00000000E+00
  0.00000000E+00  0.00000000E+00  0.00000000E+00
  0.00000000E+00  0.00000000E+00  0.00000000E+00
  0.00000000E+00  0.00000000E+00  0.00000000E+00
  0.00000000E+00  0.00000000E+00  0.00000000E+00
  0.00000000E+00  0.00000000E+00  0.00000000E+00
  0.00000000E+00  0.00000000E+00  0.00000000E+00
  0.00000000E+00  0.00000000E+00  0.00000000E+00
  0.00000000E+00  0.00000000E+00  0.00000000E+00
  0.00000000E+00  0.00000000E+00  0.00000000E+00
  0.00000000E+00  0.00000000E+00  0.00000000E+00
  0.00000000E+00  0.00000000E+00  0.00000000E+00
  0.00000000E+00  0.00000000E+00  0.00000000E+00
  0.00000000E+00  0.00000000E+00  0.00000000E+00
  0.00000000E+00  0.00000000E+00  0.00000000E+00
  0.00000000E+00  0.00000000E+00  0.00000000E+00
  0.00000000E+00  0.00000000E+00  0.00000000E+00
  0.00000000E+00  0.00000000E+00  0.00000000E+00
  0.00000000E+00  0.00000000E+00  0.00000000E+00
  0.00000000E+00  0.00000000E+00  0.00000000E+00
  0.00000000E+00  0.00000000E+00  0.00000000E+00
  0.00000000E+00  0.00000000E+00  0.00000000E+00
  0.00000000E+00  0.00000000E+00  0.00000000E+00
  0.00000000E+00  0.00000000E+00  0.00000000E+00
