Title                                   
   1.00000000000000     
     9.8694509999999998    0.0000000000000000    0.0000000000000000
     0.0000000000000000    8.5490480000000009    0.0000000000000000
     0.0000000000000000    0.0000000000000000   20.0000000000000000
    28     3     1
Selective dynamics
Direct
  0.0564255096724243  0.0915290089012704  0.0868183684720967   T   T   T
  0.9312227202560817  0.1754429503789732  0.0864522034541381   T   T   T
  0.0589143068678467  0.9248252802212489  0.0854527829394315   T   T   T
  0.9294432689670503  0.3435483058834946  0.0871429164685769   T   T   T
  0.0574363599854072  0.5914209983585599  0.0882712078078834   T   T   T
  0.9335863908098190  0.6754526472341260  0.0835206619009922   T   T   T
  0.0563858947773826  0.4238172076234767  0.0890942506296776   T   T   T
  0.9339895087722655  0.8418089218004157  0.0826042004326219   T   T   T
  0.3066693501006161  0.0865079016605869  0.0932415422819014   T   T   T
  0.1829692611492741  0.1721166912634296  0.0912252754969683   T   T   T
  0.1814304008992985  0.3392639022371912  0.0948119066333620   T   T   T
  0.3040805912973306  0.5875098316891907  0.1084527603545295   T   T   T
  0.1826644087668371  0.6737381953438546  0.0940404608987215   T   T   T
  0.3044937035607539  0.4199377871077939  0.1069872579418870   T   T   T
  0.1831624586827775  0.8404101349547657  0.0905731572326111   T   T   T
  0.5564636590763754  0.0853849632622728  0.0941659701083301   T   T   T
  0.5569565777840014  0.9193101652949609  0.0939847859103325   T   T   T
  0.4299783513599507  0.3314073034641920  0.1111218208028202   T   T   T
  0.4309969220844895  0.8360465899047170  0.1045404051504251   T   T   T
  0.8058103148707247  0.0912707043323097  0.0853855896146902   T   T   T
  0.6792324782303532  0.1732917835412470  0.0906803368823760   T   T   T
  0.8082269124099692  0.9255686101372909  0.0830219523203738   T   T   T
  0.6791913911224733  0.3406645542341807  0.0991195589595258   T   T   T
  0.8054748112197595  0.5972490044040308  0.0829949287829292   T   T   T
  0.8032104368740536  0.4274564551412650  0.0890932533284179   T   T   T
  0.6854443782144515  0.8369410443862698  0.0843371932715482   T   T   T
  0.4203153310539343  0.6783797732764112  0.1225731295156857   T   T   T
  0.5540949533010856  0.4057530554211189  0.1209881843072398   T   T   T
  0.6879380543134966  0.6787895697766155  0.0802276277977406   T   T   T
  0.3075213029930774  0.9232506346564024  0.0934672960803034   T   T   T
  0.4298883400651565  0.1664293063518387  0.0984702840062679   T   T   T
  0.5560206504614882  0.5857227177564998  0.1828137302156106   T   T   T
 
  0.00000000E+00  0.00000000E+00  0.00000000E+00
  0.00000000E+00  0.00000000E+00  0.00000000E+00
  0.00000000E+00  0.00000000E+00  0.00000000E+00
  0.00000000E+00  0.00000000E+00  0.00000000E+00
  0.00000000E+00  0.00000000E+00  0.00000000E+00
  0.00000000E+00  0.00000000E+00  0.00000000E+00
  0.00000000E+00  0.00000000E+00  0.00000000E+00
  0.00000000E+00  0.00000000E+00  0.00000000E+00
  0.00000000E+00  0.00000000E+00  0.00000000E+00
  0.00000000E+00  0.00000000E+00  0.00000000E+00
  0.00000000E+00  0.00000000E+00  0.00000000E+00
  0.00000000E+00  0.00000000E+00  0.00000000E+00
  0.00000000E+00  0.00000000E+00  0.00000000E+00
  0.00000000E+00  0.00000000E+00  0.00000000E+00
  0.00000000E+00  0.00000000E+00  0.00000000E+00
  0.00000000E+00  0.00000000E+00  0.00000000E+00
  0.00000000E+00  0.00000000E+00  0.00000000E+00
  0.00000000E+00  0.00000000E+00  0.00000000E+00
  0.00000000E+00  0.00000000E+00  0.00000000E+00
  0.00000000E+00  0.00000000E+00  0.00000000E+00
  0.00000000E+00  0.00000000E+00  0.00000000E+00
  0.00000000E+00  0.00000000E+00  0.00000000E+00
  0.00000000E+00  0.00000000E+00  0.00000000E+00
  0.00000000E+00  0.00000000E+00  0.00000000E+00
  0.00000000E+00  0.00000000E+00  0.00000000E+00
  0.00000000E+00  0.00000000E+00  0.00000000E+00
  0.00000000E+00  0.00000000E+00  0.00000000E+00
  0.00000000E+00  0.00000000E+00  0.00000000E+00
  0.00000000E+00  0.00000000E+00  0.00000000E+00
  0.00000000E+00  0.00000000E+00  0.00000000E+00
  0.00000000E+00  0.00000000E+00  0.00000000E+00
  0.00000000E+00  0.00000000E+00  0.00000000E+00
