Title                                   
   1.00000000000000     
     8.5490480000000009    0.0000000000000000    0.0000000000000000
     0.0000000000000000    8.5490480000000009    0.0000000000000000
     0.0000000000000000    0.0000000000000000   20.0000000000000000
    17     7     1
Selective dynamics
Direct
  0.9067755676201383  0.2068467288570348  0.0975143230473663   T   T   T
  0.9100889040852452  0.7999775721240290  0.0975725751844870   T   T   T
  0.1976108840159266  0.0838997504996281  0.0976358148324328   T   T   T
  0.0770914028007417  0.2014911600965336  0.0975602793893768   T   T   T
  0.1600218664182744  0.6501295015783495  0.0977743893413749   T   T   T
  0.0789465979154054  0.5000889964542058  0.0977498164936749   T   T   T
  0.1593778916401591  0.3512328022599427  0.0977495203317368   T   T   T
  0.0798481924371197  0.7976736517901741  0.0976042830417560   T   T   T
  0.3452376364985492  0.1678579369864736  0.0978262213693660   T   T   T
  0.4930365717480300  0.9171121061074355  0.0977748761195495   T   T   T
  0.3451015533517450  0.8346491848046123  0.0978373906269185   T   T   T
  0.7864289050287431  0.0878151109173533  0.0975543920754243   T   T   T
  0.6395711731436787  0.1711584883237468  0.0977678948907219   T   T   T
  0.7892110055032676  0.9180845194532420  0.0975678264587432   T   T   T
  0.8266330446878268  0.6500657647341873  0.0977518899713651   T   T   T
  0.8246512974976870  0.3546874747641109  0.0977000529161808   T   T   T
  0.6413990981999970  0.8352055825971068  0.0977473702693477   T   T   T
  0.4929377820738419  0.0900445621987622  0.0978564882336739   T   T   T
  0.9056459662613560  0.5023084159444566  0.0977963524566216   T   T   T
  0.3243173029603984  0.3294936740208537  0.0979762795045808   T   T   T
  0.3241766506977194  0.6735741740882679  0.0979370218419070   T   T   T
  0.6606355032227412  0.3346951568470607  0.0979266721357717   T   T   T
  0.6646682945337239  0.6700041805385747  0.0979005514263887   T   T   T
  0.1978718025479290  0.9142976939131349  0.0976767093901680   T   T   T
  0.4941271051097493  0.5023958101007215  0.0979460086510462   T   T   T
 
  0.00000000E+00  0.00000000E+00  0.00000000E+00
  0.00000000E+00  0.00000000E+00  0.00000000E+00
  0.00000000E+00  0.00000000E+00  0.00000000E+00
  0.00000000E+00  0.00000000E+00  0.00000000E+00
  0.00000000E+00  0.00000000E+00  0.00000000E+00
  0.00000000E+00  0.00000000E+00  0.00000000E+00
  0.00000000E+00  0.00000000E+00  0.00000000E+00
  0.00000000E+00  0.00000000E+00  0.00000000E+00
  0.00000000E+00  0.00000000E+00  0.00000000E+00
  0.00000000E+00  0.00000000E+00  0.00000000E+00
  0.00000000E+00  0.00000000E+00  0.00000000E+00
  0.00000000E+00  0.00000000E+00  0.00000000E+00
  0.00000000E+00  0.00000000E+00  0.00000000E+00
  0.00000000E+00  0.00000000E+00  0.00000000E+00
  0.00000000E+00  0.00000000E+00  0.00000000E+00
  0.00000000E+00  0.00000000E+00  0.00000000E+00
  0.00000000E+00  0.00000000E+00  0.00000000E+00
  0.00000000E+00  0.00000000E+00  0.00000000E+00
  0.00000000E+00  0.00000000E+00  0.00000000E+00
  0.00000000E+00  0.00000000E+00  0.00000000E+00
  0.00000000E+00  0.00000000E+00  0.00000000E+00
  0.00000000E+00  0.00000000E+00  0.00000000E+00
  0.00000000E+00  0.00000000E+00  0.00000000E+00
  0.00000000E+00  0.00000000E+00  0.00000000E+00
  0.00000000E+00  0.00000000E+00  0.00000000E+00
