Title                                   
   1.00000000000000     
     4.9440799999999996    0.0000000000000000    0.0000000000000000
     0.0000000000000000    8.5647549999999999    0.0000000000000000
     0.0000000000000000    0.0000000000000000   20.0000000000000000
    12     3     1
Selective dynamics
Direct
 -0.0052376924377468  0.2907976131228439  0.0905549672280564   T   T   T
  0.2501533010843670  0.0442717633670213  0.0865624278574111   T   T   T
  0.0063580435678164  0.7964894939046820  0.0979720103980288   T   T   T
  0.0013404782852422  0.9607146507169629  0.0853013088053270   T   T   T
  0.7465151923218787  0.2075871945980333  0.0824513949258236   T   T   T
  0.4999595212274767  0.2904014758095659  0.0932887141401407   T   T   T
  0.7509256535841294  0.0416662701787526  0.0800163584369629   T   T   T
  0.7560234626989533  0.7061008654906286  0.1029356108082265   T   T   T
  0.5018266831395546  0.7959618575120532  0.0989231418456532   T   T   T
  0.7521041011890155  0.5349569852811998  0.1085421663725006   T   T   T
  0.5011160015643510  0.9609357283476966  0.0863369196783088   T   T   T
  0.5112269706187137  0.4459387505699811  0.1181573528467152   T   T   T
 -0.0118266830687655  0.4443093763664415  0.1085090698574429   T   T   T
  0.2542591227695526  0.7281861436816532  0.1138618045945710   T   T   T
  0.2470960258638950  0.2091743132757853  0.0891931155609470   T   T   T
  0.2381598175915659  0.5425075177766984  0.1699056366438939   T   T   T
 
  0.00000000E+00  0.00000000E+00  0.00000000E+00
  0.00000000E+00  0.00000000E+00  0.00000000E+00
  0.00000000E+00  0.00000000E+00  0.00000000E+00
  0.00000000E+00  0.00000000E+00  0.00000000E+00
  0.00000000E+00  0.00000000E+00  0.00000000E+00
  0.00000000E+00  0.00000000E+00  0.00000000E+00
  0.00000000E+00  0.00000000E+00  0.00000000E+00
  0.00000000E+00  0.00000000E+00  0.00000000E+00
  0.00000000E+00  0.00000000E+00  0.00000000E+00
  0.00000000E+00  0.00000000E+00  0.00000000E+00
  0.00000000E+00  0.00000000E+00  0.00000000E+00
  0.00000000E+00  0.00000000E+00  0.00000000E+00
  0.00000000E+00  0.00000000E+00  0.00000000E+00
  0.00000000E+00  0.00000000E+00  0.00000000E+00
  0.00000000E+00  0.00000000E+00  0.00000000E+00
  0.00000000E+00  0.00000000E+00  0.00000000E+00
