Title                                   
   1.00000000000000     
     8.5490480000000009    0.0000000000000000    0.0000000000000000
     0.0000000000000000    8.5490480000000009    0.0000000000000000
     0.0000000000000000    0.0000000000000000   20.0000000000000000
    22     2     1
Selective dynamics
Direct
  0.9099270265853582  0.2057246729894831  0.0954392167953960   T   T   T
  0.9019094276584131  0.5018177344052385  0.0952888048484053   T   T   T
  0.9099280353745564  0.7978763402888317  0.0954461667649718   T   T   T
  0.1998161730313889  0.0837666854143277  0.0954472549718930   T   T   T
  0.0753062617538399  0.2076179293157213  0.0954286187699857   T   T   T
  0.1998266946094290  0.9197897131808139  0.0954668224918049   T   T   T
  0.1552026642853082  0.6464738170332374  0.0953659789868895   T   T   T
  0.0715182984926612  0.5018071251807577  0.0953226355313331   T   T   T
  0.1551990744234319  0.3571267826988246  0.0953445312803874   T   T   T
  0.0753136690621066  0.7959610303764891  0.0954577011453805   T   T   T
  0.4965759980291855  0.0868929960095121  0.0953454003139875   T   T   T
  0.3512471646307229  0.1700393911618920  0.0953526579211085   T   T   T
  0.4965598944377180  0.9166957849737116  0.0953529984724180   T   T   T
  0.3512501364712940  0.8335265699596019  0.0953803039034294   T   T   T
  0.7898505582038199  0.0851910584648106  0.0954514596189688   T   T   T
  0.6428254300754165  0.1670213009024499  0.0953084458488763   T   T   T
  0.7898497841473940  0.9184145070237817  0.0954547940569706   T   T   T
  0.8230465030815570  0.6491124234686069  0.0952935551030148   T   T   T
  0.8230509644576116  0.3545135466341449  0.0952903217415347   T   T   T
  0.6428240332167369  0.8365772243395050  0.0953134440421267   T   T   T
  0.3227801249031523  0.3345905508716597  0.0953068780376992   T   T   T
  0.3227944459471794  0.6689700478425018  0.0953240560465496   T   T   T
  0.6635529317551517  0.3298711128572187  0.0951540240954081   T   T   T
  0.6635509229397246  0.6737152350618100  0.0951647804226229   T   T   T
  0.4917057824268349  0.5016964195450818  0.0952041487888153   T   T   T
 
  0.00000000E+00  0.00000000E+00  0.00000000E+00
  0.00000000E+00  0.00000000E+00  0.00000000E+00
  0.00000000E+00  0.00000000E+00  0.00000000E+00
  0.00000000E+00  0.00000000E+00  0.00000000E+00
  0.00000000E+00  0.00000000E+00  0.00000000E+00
  0.00000000E+00  0.00000000E+00  0.00000000E+00
  0.00000000E+00  0.00000000E+00  0.00000000E+00
  0.00000000E+00  0.00000000E+00  0.00000000E+00
  0.00000000E+00  0.00000000E+00  0.00000000E+00
  0.00000000E+00  0.00000000E+00  0.00000000E+00
  0.00000000E+00  0.00000000E+00  0.00000000E+00
  0.00000000E+00  0.00000000E+00  0.00000000E+00
  0.00000000E+00  0.00000000E+00  0.00000000E+00
  0.00000000E+00  0.00000000E+00  0.00000000E+00
  0.00000000E+00  0.00000000E+00  0.00000000E+00
  0.00000000E+00  0.00000000E+00  0.00000000E+00
  0.00000000E+00  0.00000000E+00  0.00000000E+00
  0.00000000E+00  0.00000000E+00  0.00000000E+00
  0.00000000E+00  0.00000000E+00  0.00000000E+00
  0.00000000E+00  0.00000000E+00  0.00000000E+00
  0.00000000E+00  0.00000000E+00  0.00000000E+00
  0.00000000E+00  0.00000000E+00  0.00000000E+00
  0.00000000E+00  0.00000000E+00  0.00000000E+00
  0.00000000E+00  0.00000000E+00  0.00000000E+00
  0.00000000E+00  0.00000000E+00  0.00000000E+00
