Title                                   
   1.00000000000000     
     4.9440799999999996    0.0000000000000000    0.0000000000000000
     0.0000000000000000   17.1295089999999988    0.0000000000000000
     0.0000000000000000    0.0000000000000000   20.0000000000000000
    30     1     1
Selective dynamics
Direct
  0.0003433473674584  0.1048572386079251  0.2805639513958759   T   T   T
  0.2498783723364774  0.1467489849640656  0.2850574816495617   T   T   T
  0.2499096864779307  0.2293786749793666  0.2970297137156364   T   T   T
 -0.0005771540641225  0.3502934229243929  0.3228623602431752   T   T   T
 -0.0019702952788530  0.2701636774097796  0.3033968477398681   T   T   T
 -0.0043434211348213  0.6063637509459340  0.3133659493301527   T   T   T
  0.2498897734143523  0.7285512477275791  0.2916304276129756   T   T   T
  0.0002102603879996  0.8539122458855484  0.2783832693075439   T   T   T
  0.2498424957095821  0.8957899557368141  0.2763966523827114   T   T   T
  0.2498435325062409  0.9794270615590889  0.2750463709360789   T   T   T
  0.0004274066495530  0.7705414233693191  0.2856099749374601   T   T   T
  0.4993778986240346  0.1048529415426077  0.2805661453289736   T   T   T
  0.7498445444761098  0.1463786546967303  0.2840726588208872   T   T   T
  0.7498812529364299  0.2287956656840377  0.2946555686125242   T   T   T
  0.4995879388829985  0.0213580358077182  0.2758024448584201   T   T   T
  0.5005254156469945  0.3502937299679222  0.3228586459491642   T   T   T
  0.7499690204763966  0.4775397728301450  0.3241544708243014   T   T   T
  0.5017892878574407  0.2701698138044267  0.3033932842120123   T   T   T
  0.5042207243012288  0.6063493658068847  0.3133462237127645   T   T   T
  0.7498851139101339  0.7297589635203063  0.2898810016391809   T   T   T
  0.4994346085720247  0.8539029899656906  0.2783834219184994   T   T   T
  0.7497976415827364  0.8956443534233538  0.2761420245080886   T   T   T
  0.7498206098376290  0.9794424397824807  0.2748716209009491   T   T   T
  0.4993113902178478  0.7705391898578531  0.2856047279646932   T   T   T
  0.7499243105803963  0.6475213692690102  0.3027787431400167   T   T   T
  0.2499480856138537  0.6461873472073061  0.3068218337916697   T   T   T
  0.0000786619639854  0.0213546098555439  0.2757985390809355   T   T   T
  0.5177264236952605  0.5250076937918601  0.3328331859619169   T   T   T
  0.9822197490517317  0.5250094123007937  0.3328562658629072   T   T   T
  0.2499911431234166  0.3857636631905152  0.3422144139274502   T   T   T
  0.7499623251914986  0.3929384913369037  0.3262399421587738   T   T   T
  0.2500728490860595  0.4837148122480853  0.3899468375747845   T   T   T
 
  0.00000000E+00  0.00000000E+00  0.00000000E+00
  0.00000000E+00  0.00000000E+00  0.00000000E+00
  0.00000000E+00  0.00000000E+00  0.00000000E+00
  0.00000000E+00  0.00000000E+00  0.00000000E+00
  0.00000000E+00  0.00000000E+00  0.00000000E+00
  0.00000000E+00  0.00000000E+00  0.00000000E+00
  0.00000000E+00  0.00000000E+00  0.00000000E+00
  0.00000000E+00  0.00000000E+00  0.00000000E+00
  0.00000000E+00  0.00000000E+00  0.00000000E+00
  0.00000000E+00  0.00000000E+00  0.00000000E+00
  0.00000000E+00  0.00000000E+00  0.00000000E+00
  0.00000000E+00  0.00000000E+00  0.00000000E+00
  0.00000000E+00  0.00000000E+00  0.00000000E+00
  0.00000000E+00  0.00000000E+00  0.00000000E+00
  0.00000000E+00  0.00000000E+00  0.00000000E+00
  0.00000000E+00  0.00000000E+00  0.00000000E+00
  0.00000000E+00  0.00000000E+00  0.00000000E+00
  0.00000000E+00  0.00000000E+00  0.00000000E+00
  0.00000000E+00  0.00000000E+00  0.00000000E+00
  0.00000000E+00  0.00000000E+00  0.00000000E+00
  0.00000000E+00  0.00000000E+00  0.00000000E+00
  0.00000000E+00  0.00000000E+00  0.00000000E+00
  0.00000000E+00  0.00000000E+00  0.00000000E+00
  0.00000000E+00  0.00000000E+00  0.00000000E+00
  0.00000000E+00  0.00000000E+00  0.00000000E+00
  0.00000000E+00  0.00000000E+00  0.00000000E+00
  0.00000000E+00  0.00000000E+00  0.00000000E+00
  0.00000000E+00  0.00000000E+00  0.00000000E+00
  0.00000000E+00  0.00000000E+00  0.00000000E+00
  0.00000000E+00  0.00000000E+00  0.00000000E+00
  0.00000000E+00  0.00000000E+00  0.00000000E+00
  0.00000000E+00  0.00000000E+00  0.00000000E+00
