Title                                   
   1.00000000000000     
     9.8694509999999998    0.0000000000000000    0.0000000000000000
     0.0000000000000000    8.5490480000000009    0.0000000000000000
     0.0000000000000000    0.0000000000000000   20.0000000000000000
    26     4     1
Selective dynamics
Direct
  0.0556570610136447  0.0904933326319191  0.0930827819746991   T   T   T
  0.9311561463338653  0.1726767219977767  0.0940153863127653   T   T   T
  0.0574056738887089  0.9242135935805673  0.0932082584791218   T   T   T
  0.9345123044419599  0.3398327639158786  0.0932580845534939   T   T   T
  0.0572872411520737  0.5904093712860173  0.0910767532298510   T   T   T
  0.9351193645724796  0.6753924541413848  0.0930851350512543   T   T   T
  0.0574986801371495  0.4232869701534203  0.0912481754779010   T   T   T
  0.9327751924360544  0.8413602040447545  0.0939712780445197   T   T   T
  0.3056150437172543  0.0881097154335953  0.0963665269830161   T   T   T
  0.1805312257581443  0.1717134626864288  0.0935290777707532   T   T   T
  0.1800479429235949  0.3384314790918301  0.0926951724314864   T   T   T
  0.3012088848579406  0.5897589567845463  0.0961448215236142   T   T   T
  0.1795358089299705  0.6746953481192777  0.0924923527471363   T   T   T
  0.3023520302637621  0.4225435048019100  0.0961559201250718   T   T   T
  0.1807253173739400  0.8405002666993547  0.0935770029089212   T   T   T
  0.5544697864359188  0.0891057078823896  0.1009973022971058   T   T   T
  0.4287821428813992  0.1732815927470936  0.0998505582074649   T   T   T
  0.5540204719327635  0.9178125529782710  0.1009033399439360   T   T   T
  0.4269602213418970  0.8355718529316070  0.0998158566239898   T   T   T
  0.8054717261854695  0.0893078816240676  0.0968739058647495   T   T   T
  0.6801611579362759  0.1750101747703946  0.1004213385920043   T   T   T
  0.8061159791958105  0.9228301172521515  0.0967424687014159   T   T   T
  0.6919240407115753  0.3385034841831761  0.1019723112196152   T   T   T
  0.8137241592602269  0.5931214819062027  0.0969077760748795   T   T   T
  0.8124278450600098  0.4251469346757945  0.0970840051226329   T   T   T
  0.6824028829630336  0.8341716167330544  0.1000370895092115   T   T   T
  0.4210791973192849  0.3355502935673986  0.1010154896112258   T   T   T
  0.6937683006648666  0.6736087028187909  0.1013679798935570   T   T   T
  0.4181861231223203  0.6776253219891958  0.1016964623731471   T   T   T
  0.3059874725027333  0.9235160521645649  0.0961420170515704   T   T   T
  0.5562255746858802  0.5032930864071988  0.1052303712999254   T   T   T
 
  0.00000000E+00  0.00000000E+00  0.00000000E+00
  0.00000000E+00  0.00000000E+00  0.00000000E+00
  0.00000000E+00  0.00000000E+00  0.00000000E+00
  0.00000000E+00  0.00000000E+00  0.00000000E+00
  0.00000000E+00  0.00000000E+00  0.00000000E+00
  0.00000000E+00  0.00000000E+00  0.00000000E+00
  0.00000000E+00  0.00000000E+00  0.00000000E+00
  0.00000000E+00  0.00000000E+00  0.00000000E+00
  0.00000000E+00  0.00000000E+00  0.00000000E+00
  0.00000000E+00  0.00000000E+00  0.00000000E+00
  0.00000000E+00  0.00000000E+00  0.00000000E+00
  0.00000000E+00  0.00000000E+00  0.00000000E+00
  0.00000000E+00  0.00000000E+00  0.00000000E+00
  0.00000000E+00  0.00000000E+00  0.00000000E+00
  0.00000000E+00  0.00000000E+00  0.00000000E+00
  0.00000000E+00  0.00000000E+00  0.00000000E+00
  0.00000000E+00  0.00000000E+00  0.00000000E+00
  0.00000000E+00  0.00000000E+00  0.00000000E+00
  0.00000000E+00  0.00000000E+00  0.00000000E+00
  0.00000000E+00  0.00000000E+00  0.00000000E+00
  0.00000000E+00  0.00000000E+00  0.00000000E+00
  0.00000000E+00  0.00000000E+00  0.00000000E+00
  0.00000000E+00  0.00000000E+00  0.00000000E+00
  0.00000000E+00  0.00000000E+00  0.00000000E+00
  0.00000000E+00  0.00000000E+00  0.00000000E+00
  0.00000000E+00  0.00000000E+00  0.00000000E+00
  0.00000000E+00  0.00000000E+00  0.00000000E+00
  0.00000000E+00  0.00000000E+00  0.00000000E+00
  0.00000000E+00  0.00000000E+00  0.00000000E+00
  0.00000000E+00  0.00000000E+00  0.00000000E+00
  0.00000000E+00  0.00000000E+00  0.00000000E+00
