Title                                   
   1.00000000000000     
     9.8694509999999998    0.0000000000000000    0.0000000000000000
     0.0000000000000000    8.5490480000000009    0.0000000000000000
     0.0000000000000000    0.0000000000000000   20.0000000000000000
    27     4     1
Selective dynamics
Direct
  0.0556851016214886  0.0913226201117574  0.0855481201228329   T   T   T
  0.9305841367612409  0.1750966601889131  0.0865536151130544   T   T   T
  0.0575426390979883  0.9241824280888042  0.0853094237531501   T   T   T
  0.9290571345343394  0.3422899171706100  0.0889180295396491   T   T   T
  0.0569760255962185  0.5908611105906060  0.0875293855417418   T   T   T
  0.9328407460955956  0.6738719414230387  0.0877691351005738   T   T   T
  0.0556950455537506  0.4231330269302421  0.0888754775367018   T   T   T
  0.9328752898432229  0.8409542942332934  0.0865646125044117   T   T   T
  0.3053917660350816  0.0879608920610876  0.0896310636599929   T   T   T
  0.1816576524628238  0.1729851374350411  0.0879691324132262   T   T   T
  0.1813144833379580  0.3392005041688078  0.0908782950456782   T   T   T
  0.3053589092333872  0.5895586040866989  0.1023938532911573   T   T   T
  0.1822498549924147  0.6737260203601753  0.0904986022872133   T   T   T
  0.3074829942174986  0.4211891628692173  0.0990107015933516   T   T   T
  0.1822685360437495  0.8406457588178204  0.0881669170069249   T   T   T
  0.5560876022546283  0.0862868448809133  0.0942933226625354   T   T   T
  0.5550920786010215  0.9216963256084901  0.1000795788521589   T   T   T
  0.4304133073246377  0.3320916590550667  0.1001121058507978   T   T   T
  0.4275071836550206  0.8397470216160491  0.1045254428638498   T   T   T
  0.8058279924515290  0.0900390658184154  0.0871620215855330   T   T   T
  0.6793192030245873  0.1708691173704819  0.0907121180881218   T   T   T
  0.8076554081416419  0.9249655211792966  0.0884508236282280   T   T   T
  0.6778422029041133  0.3361439710850249  0.0964586172636843   T   T   T
  0.8072866580937648  0.5948806222628927  0.0947163764024250   T   T   T
  0.8008371134529770  0.4260147874978457  0.0939323884569720   T   T   T
  0.6839876111723373  0.8409724400778100  0.0973537682766516   T   T   T
  0.4204934184682068  0.6811242132049898  0.1179355321826445   T   T   T
  0.5519571368902043  0.4034147280915174  0.1087836519461255   T   T   T
  0.6913032926006297  0.6820367133769549  0.1054905028671376   T   T   T
  0.3059728402559040  0.9251920368626529  0.0906297623890090   T   T   T
  0.4285937143510157  0.1674076308046219  0.0935077243434699   T   T   T
  0.5724819209310275  0.5803852226708642  0.1759148978310119   T   T   T
 
  0.00000000E+00  0.00000000E+00  0.00000000E+00
  0.00000000E+00  0.00000000E+00  0.00000000E+00
  0.00000000E+00  0.00000000E+00  0.00000000E+00
  0.00000000E+00  0.00000000E+00  0.00000000E+00
  0.00000000E+00  0.00000000E+00  0.00000000E+00
  0.00000000E+00  0.00000000E+00  0.00000000E+00
  0.00000000E+00  0.00000000E+00  0.00000000E+00
  0.00000000E+00  0.00000000E+00  0.00000000E+00
  0.00000000E+00  0.00000000E+00  0.00000000E+00
  0.00000000E+00  0.00000000E+00  0.00000000E+00
  0.00000000E+00  0.00000000E+00  0.00000000E+00
  0.00000000E+00  0.00000000E+00  0.00000000E+00
  0.00000000E+00  0.00000000E+00  0.00000000E+00
  0.00000000E+00  0.00000000E+00  0.00000000E+00
  0.00000000E+00  0.00000000E+00  0.00000000E+00
  0.00000000E+00  0.00000000E+00  0.00000000E+00
  0.00000000E+00  0.00000000E+00  0.00000000E+00
  0.00000000E+00  0.00000000E+00  0.00000000E+00
  0.00000000E+00  0.00000000E+00  0.00000000E+00
  0.00000000E+00  0.00000000E+00  0.00000000E+00
  0.00000000E+00  0.00000000E+00  0.00000000E+00
  0.00000000E+00  0.00000000E+00  0.00000000E+00
  0.00000000E+00  0.00000000E+00  0.00000000E+00
  0.00000000E+00  0.00000000E+00  0.00000000E+00
  0.00000000E+00  0.00000000E+00  0.00000000E+00
  0.00000000E+00  0.00000000E+00  0.00000000E+00
  0.00000000E+00  0.00000000E+00  0.00000000E+00
  0.00000000E+00  0.00000000E+00  0.00000000E+00
  0.00000000E+00  0.00000000E+00  0.00000000E+00
  0.00000000E+00  0.00000000E+00  0.00000000E+00
  0.00000000E+00  0.00000000E+00  0.00000000E+00
  0.00000000E+00  0.00000000E+00  0.00000000E+00
