Title                                   
   1.00000000000000     
     9.8694509999999998    0.0000000000000000    0.0000000000000000
     0.0000000000000000    8.5490480000000009    0.0000000000000000
     0.0000000000000000    0.0000000000000000   20.0000000000000000
    25     5     1
Selective dynamics
Direct
  0.0545526709709324  0.0890369274360238  0.0871182736401999   T   T   T
  0.9292460109311175  0.1740029663024423  0.0854492906854458   T   T   T
  0.0580259409138098  0.9217886981459672  0.0877257623107877   T   T   T
  0.9320595236745646  0.3415913176315300  0.0848894385472979   T   T   T
  0.0558543624871827  0.5910027658829363  0.0863603438106137   T   T   T
  0.0554617572532133  0.4242807955594655  0.0855979962816195   T   T   T
  0.9331364424884493  0.8411805147999326  0.0896941877572573   T   T   T
  0.3066026861715281  0.0864044389921471  0.0946524568160149   T   T   T
  0.1796936754832461  0.1685353089667782  0.0906130930259135   T   T   T
  0.1790906499731456  0.3362774290103438  0.0900097223095233   T   T   T
  0.3017549904654994  0.5836680149309289  0.0939273015482489   T   T   T
  0.1803678863384489  0.6725212202696947  0.0884354795661929   T   T   T
  0.2996839009966132  0.4159410569316058  0.0987904793941048   T   T   T
  0.1837841273339762  0.8391982354403097  0.0886574229026591   T   T   T
  0.4279788927977128  0.1739657898964524  0.1028218547426605   T   T   T
  0.5572209264829053  0.9204305421051400  0.1007154284677652   T   T   T
  0.4268336157454119  0.6643749542902692  0.0985782111979092   T   T   T
  0.4327286745049631  0.8326235280301035  0.0971106072483001   T   T   T
  0.8029627213712583  0.0919001031973671  0.0889149444187081   T   T   T
  0.6775307250575638  0.1807110799321920  0.0920953704857249   T   T   T
  0.8068609398650464  0.9237657187686780  0.0927216057388442   T   T   T
  0.6830568554222277  0.3493480777523026  0.0916687714622759   T   T   T
  0.8131081869453100  0.5965833689467992  0.0952566061615312   T   T   T
  0.8102213541492959  0.4282443454530191  0.0883617240166696   T   T   T
  0.6837642573150047  0.8387535339221482  0.1017932368680515   T   T   T
  0.9338634370432624  0.6755213522578922  0.0885901213603965   T   T   T
  0.5547558545808233  0.0939073680428881  0.0993819472412808   T   T   T
  0.4202618961588275  0.3354702298408925  0.1152805928187145   T   T   T
  0.6961325963909007  0.6749610387924940  0.1125773095221709   T   T   T
  0.3077615218718953  0.9198493197507548  0.0921053010440358   T   T   T
  0.5587779188158676  0.5050349587205288  0.1310701186091157   T   T   T
 
  0.00000000E+00  0.00000000E+00  0.00000000E+00
  0.00000000E+00  0.00000000E+00  0.00000000E+00
  0.00000000E+00  0.00000000E+00  0.00000000E+00
  0.00000000E+00  0.00000000E+00  0.00000000E+00
  0.00000000E+00  0.00000000E+00  0.00000000E+00
  0.00000000E+00  0.00000000E+00  0.00000000E+00
  0.00000000E+00  0.00000000E+00  0.00000000E+00
  0.00000000E+00  0.00000000E+00  0.00000000E+00
  0.00000000E+00  0.00000000E+00  0.00000000E+00
  0.00000000E+00  0.00000000E+00  0.00000000E+00
  0.00000000E+00  0.00000000E+00  0.00000000E+00
  0.00000000E+00  0.00000000E+00  0.00000000E+00
  0.00000000E+00  0.00000000E+00  0.00000000E+00
  0.00000000E+00  0.00000000E+00  0.00000000E+00
  0.00000000E+00  0.00000000E+00  0.00000000E+00
  0.00000000E+00  0.00000000E+00  0.00000000E+00
  0.00000000E+00  0.00000000E+00  0.00000000E+00
  0.00000000E+00  0.00000000E+00  0.00000000E+00
  0.00000000E+00  0.00000000E+00  0.00000000E+00
  0.00000000E+00  0.00000000E+00  0.00000000E+00
  0.00000000E+00  0.00000000E+00  0.00000000E+00
  0.00000000E+00  0.00000000E+00  0.00000000E+00
  0.00000000E+00  0.00000000E+00  0.00000000E+00
  0.00000000E+00  0.00000000E+00  0.00000000E+00
  0.00000000E+00  0.00000000E+00  0.00000000E+00
  0.00000000E+00  0.00000000E+00  0.00000000E+00
  0.00000000E+00  0.00000000E+00  0.00000000E+00
  0.00000000E+00  0.00000000E+00  0.00000000E+00
  0.00000000E+00  0.00000000E+00  0.00000000E+00
  0.00000000E+00  0.00000000E+00  0.00000000E+00
  0.00000000E+00  0.00000000E+00  0.00000000E+00
