Title                                   
   1.00000000000000     
     8.5490480000000009    0.0000000000000000    0.0000000000000000
     0.0000000000000000    8.5490480000000009    0.0000000000000000
     0.0000000000000000    0.0000000000000000   20.0000000000000000
    21     3     1
Selective dynamics
Direct
  0.9098039621462157  0.2092209805773333  0.0978510497679383   T   T   T
  0.9114370113677116  0.8005431453232542  0.0979265782959202   T   T   T
  0.2006866196813563  0.0834733379833956  0.0979739572791073   T   T   T
  0.0750680595175830  0.2067996488295709  0.0979810741750494   T   T   T
  0.1544473747284629  0.6502343512080664  0.0979883325263302   T   T   T
  0.0727759208016831  0.5028512296207984  0.0980340108333158   T   T   T
  0.1541794266505776  0.3567730380118844  0.0980718835680530   T   T   T
  0.0784129980295925  0.7986350385274285  0.0979894689195389   T   T   T
  0.4948967074072681  0.0824413287331982  0.0977320489835236   T   T   T
  0.3468477827759860  0.1633132679763138  0.0979283447346699   T   T   T
  0.4941389106967553  0.9133291337450979  0.0978339649644389   T   T   T
  0.3465323062900600  0.8327200880742793  0.0979419381190593   T   T   T
  0.7872828243830758  0.0861011294871614  0.0977167517218171   T   T   T
  0.6401475078779862  0.1649445884535191  0.0976435300362581   T   T   T
  0.7894820813777388  0.9187730917281922  0.0977814370933183   T   T   T
  0.8289971771609456  0.6514161064366459  0.0979967696369274   T   T   T
  0.8263469785756113  0.3583640806723223  0.0978701185474340   T   T   T
  0.6429202678767902  0.8342407790873611  0.0978694488772639   T   T   T
  0.3263258662227386  0.3365600945181971  0.0981280336531014   T   T   T
  0.3223389559930935  0.6680021681448942  0.0980184299827818   T   T   T
  0.6588164038919347  0.3358429081928829  0.0978673524129297   T   T   T
  0.9057008851348056  0.5039525293462629  0.0980585831626528   T   T   T
  0.6686286655220557  0.6715974211390223  0.0981084597098459   T   T   T
  0.1990553236043074  0.9175244004217523  0.0980319019425879   T   T   T
  0.4901419822856593  0.4971361137611785  0.0983615310561199   T   T   T
 
  0.00000000E+00  0.00000000E+00  0.00000000E+00
  0.00000000E+00  0.00000000E+00  0.00000000E+00
  0.00000000E+00  0.00000000E+00  0.00000000E+00
  0.00000000E+00  0.00000000E+00  0.00000000E+00
  0.00000000E+00  0.00000000E+00  0.00000000E+00
  0.00000000E+00  0.00000000E+00  0.00000000E+00
  0.00000000E+00  0.00000000E+00  0.00000000E+00
  0.00000000E+00  0.00000000E+00  0.00000000E+00
  0.00000000E+00  0.00000000E+00  0.00000000E+00
  0.00000000E+00  0.00000000E+00  0.00000000E+00
  0.00000000E+00  0.00000000E+00  0.00000000E+00
  0.00000000E+00  0.00000000E+00  0.00000000E+00
  0.00000000E+00  0.00000000E+00  0.00000000E+00
  0.00000000E+00  0.00000000E+00  0.00000000E+00
  0.00000000E+00  0.00000000E+00  0.00000000E+00
  0.00000000E+00  0.00000000E+00  0.00000000E+00
  0.00000000E+00  0.00000000E+00  0.00000000E+00
  0.00000000E+00  0.00000000E+00  0.00000000E+00
  0.00000000E+00  0.00000000E+00  0.00000000E+00
  0.00000000E+00  0.00000000E+00  0.00000000E+00
  0.00000000E+00  0.00000000E+00  0.00000000E+00
  0.00000000E+00  0.00000000E+00  0.00000000E+00
  0.00000000E+00  0.00000000E+00  0.00000000E+00
  0.00000000E+00  0.00000000E+00  0.00000000E+00
  0.00000000E+00  0.00000000E+00  0.00000000E+00
