Title                                   
   1.00000000000000     
     8.5490480000000009    0.0000000000000000    0.0000000000000000
     0.0000000000000000    8.5490480000000009    0.0000000000000000
     0.0000000000000000    0.0000000000000000   20.0000000000000000
    18     6     1
Selective dynamics
Direct
  0.9084374048154837  0.2050082803595586  0.0974522331213611   T   T   T
  0.9114582685726048  0.8015876704818421  0.0974212311442006   T   T   T
  0.1971368412637060  0.0831733811582802  0.0975589122765061   T   T   T
  0.0763303362379591  0.2007253149589092  0.0974542000952331   T   T   T
  0.1550301065187164  0.6522992340540070  0.0978928824400313   T   T   T
  0.0755727204064196  0.5005179438303189  0.0977542777716790   T   T   T
  0.1548861986268756  0.3525631281556192  0.0976894839274992   T   T   T
  0.0787729508542751  0.8001556157068519  0.0975641224902444   T   T   T
  0.3467671392795478  0.1636739665523068  0.0977433793489587   T   T   T
  0.4933445861870259  0.9160387090422510  0.0977870056537094   T   T   T
  0.3429939748117387  0.8377400688032390  0.0979734436011880   T   T   T
  0.7885973987557697  0.0862203487694033  0.0974334446623829   T   T   T
  0.6414536125851017  0.1654879559201196  0.0977713114716205   T   T   T
  0.7909358594819581  0.9190782439370140  0.0973726021715717   T   T   T
  0.8302943500607592  0.6526995844785718  0.0976329600315927   T   T   T
  0.8270037040791163  0.3523414372230234  0.0977448965603249   T   T   T
  0.6440629663714998  0.8380822898851600  0.0976338660546023   T   T   T
  0.3235688571961394  0.3292024805741141  0.0978951180127681   T   T   T
  0.4942499299430068  0.0861868021748512  0.0978260762019516   T   T   T
  0.9042395612228045  0.5026285917070688  0.0977682420032240   T   T   T
  0.3171286322351918  0.6783359340361287  0.0982251882760674   T   T   T
  0.6649145933026404  0.3272919050584128  0.0980978461712058   T   T   T
  0.6710177069946175  0.6761622492248067  0.0978332081716728   T   T   T
  0.1961009777607563  0.9162802200231572  0.0976904102206116   T   T   T
  0.4911133224362790  0.5013086438850033  0.0984886581197656   T   T   T
 
  0.00000000E+00  0.00000000E+00  0.00000000E+00
  0.00000000E+00  0.00000000E+00  0.00000000E+00
  0.00000000E+00  0.00000000E+00  0.00000000E+00
  0.00000000E+00  0.00000000E+00  0.00000000E+00
  0.00000000E+00  0.00000000E+00  0.00000000E+00
  0.00000000E+00  0.00000000E+00  0.00000000E+00
  0.00000000E+00  0.00000000E+00  0.00000000E+00
  0.00000000E+00  0.00000000E+00  0.00000000E+00
  0.00000000E+00  0.00000000E+00  0.00000000E+00
  0.00000000E+00  0.00000000E+00  0.00000000E+00
  0.00000000E+00  0.00000000E+00  0.00000000E+00
  0.00000000E+00  0.00000000E+00  0.00000000E+00
  0.00000000E+00  0.00000000E+00  0.00000000E+00
  0.00000000E+00  0.00000000E+00  0.00000000E+00
  0.00000000E+00  0.00000000E+00  0.00000000E+00
  0.00000000E+00  0.00000000E+00  0.00000000E+00
  0.00000000E+00  0.00000000E+00  0.00000000E+00
  0.00000000E+00  0.00000000E+00  0.00000000E+00
  0.00000000E+00  0.00000000E+00  0.00000000E+00
  0.00000000E+00  0.00000000E+00  0.00000000E+00
  0.00000000E+00  0.00000000E+00  0.00000000E+00
  0.00000000E+00  0.00000000E+00  0.00000000E+00
  0.00000000E+00  0.00000000E+00  0.00000000E+00
  0.00000000E+00  0.00000000E+00  0.00000000E+00
  0.00000000E+00  0.00000000E+00  0.00000000E+00
