Title                                   
   1.00000000000000     
     8.5490480000000009    0.0000000000000000    0.0000000000000000
     0.0000000000000000    8.5490480000000009    0.0000000000000000
     0.0000000000000000    0.0000000000000000   20.0000000000000000
    23     1     1
Selective dynamics
Direct
  0.9098073673562569  0.2056782544395269  0.0953134437575085   T   T   T
  0.9100036609280625  0.5030949161890481  0.0957934029819748   T   T   T
  0.9118828964833882  0.8007414203196286  0.0949809492683563   T   T   T
  0.1977808930479325  0.0828601374972772  0.0949387026434324   T   T   T
  0.0750592461572713  0.2024503742680774  0.0953035164205345   T   T   T
  0.1588461832374608  0.6485920141048500  0.0961776984967110   T   T   T
  0.0774589504550997  0.5019024247372122  0.0958951691467683   T   T   T
  0.1583111238398311  0.3550712222709278  0.0966159892230672   T   T   T
  0.0786213327971286  0.7986097133235779  0.0949972142369748   T   T   T
  0.4924157598591343  0.0856098918119039  0.0957204660955002   T   T   T
  0.3449896572239633  0.1635098239021517  0.0959514397129865   T   T   T
  0.4917679828970407  0.9179829672242906  0.0957863525836743   T   T   T
  0.3459841201980475  0.8364900323504527  0.0961186240336939   T   T   T
  0.7872934635386689  0.0847419196773093  0.0953679080852610   T   T   T
  0.6374638562392780  0.1668047593288388  0.0962808610505887   T   T   T
  0.7883914110763682  0.9202928281766480  0.0952885336625523   T   T   T
  0.8310480439426994  0.6500551052707253  0.0961130046151024   T   T   T
  0.8284349897027522  0.3565859854962572  0.0961469937360621   T   T   T
  0.6378016254752024  0.8364128246532561  0.0965569981379440   T   T   T
  0.3236121643790521  0.3328476980483359  0.0992509751897281   T   T   T
  0.3249354986843506  0.6712611083801614  0.0984293538028280   T   T   T
  0.6614307666506802  0.3345980182000959  0.0986063723419174   T   T   T
  0.6622822869904611  0.6704761982433672  0.0994729539693306   T   T   T
  0.1980820338611074  0.9164737055893926  0.0949049932242245   T   T   T
  0.4917066849787476  0.5016466564966934  0.1336930835832582   T   T   T
 
  0.00000000E+00  0.00000000E+00  0.00000000E+00
  0.00000000E+00  0.00000000E+00  0.00000000E+00
  0.00000000E+00  0.00000000E+00  0.00000000E+00
  0.00000000E+00  0.00000000E+00  0.00000000E+00
  0.00000000E+00  0.00000000E+00  0.00000000E+00
  0.00000000E+00  0.00000000E+00  0.00000000E+00
  0.00000000E+00  0.00000000E+00  0.00000000E+00
  0.00000000E+00  0.00000000E+00  0.00000000E+00
  0.00000000E+00  0.00000000E+00  0.00000000E+00
  0.00000000E+00  0.00000000E+00  0.00000000E+00
  0.00000000E+00  0.00000000E+00  0.00000000E+00
  0.00000000E+00  0.00000000E+00  0.00000000E+00
  0.00000000E+00  0.00000000E+00  0.00000000E+00
  0.00000000E+00  0.00000000E+00  0.00000000E+00
  0.00000000E+00  0.00000000E+00  0.00000000E+00
  0.00000000E+00  0.00000000E+00  0.00000000E+00
  0.00000000E+00  0.00000000E+00  0.00000000E+00
  0.00000000E+00  0.00000000E+00  0.00000000E+00
  0.00000000E+00  0.00000000E+00  0.00000000E+00
  0.00000000E+00  0.00000000E+00  0.00000000E+00
  0.00000000E+00  0.00000000E+00  0.00000000E+00
  0.00000000E+00  0.00000000E+00  0.00000000E+00
  0.00000000E+00  0.00000000E+00  0.00000000E+00
  0.00000000E+00  0.00000000E+00  0.00000000E+00
  0.00000000E+00  0.00000000E+00  0.00000000E+00
