Title                                   
   1.00000000000000     
     4.9440799999999996    0.0000000000000000    0.0000000000000000
     0.0000000000000000    8.5647549999999999    0.0000000000000000
     0.0000000000000000    0.0000000000000000   20.0000000000000000
    11     3     1
Selective dynamics
Direct
  0.0014194394107038  0.2911182666703970  0.1004990972232264   T   T   T
  0.2500000000000000  0.0381006251245046  0.1005768435913601   T   T   T
 -0.0023421057787883  0.9575527603795898  0.1005404038993779   T   T   T
  0.7500000000000000  0.2066824383050530  0.1005252324482903   T   T   T
  0.4985805605892964  0.2911182666703970  0.1004990972232264   T   T   T
  0.7500000000000000  0.0419466332321267  0.1005158209625199   T   T   T
  0.7500000000000000  0.7178255227801612  0.1006760184126414   T   T   T
  0.7500000000000000  0.5416719595725017  0.1005124256478407   T   T   T
  0.5023421057787879  0.9575527603795898  0.1005404038993779   T   T   T
  0.5090408750013251  0.4534100528226406  0.1004010613904986   T   T   T
 -0.0090408750013250  0.4534100528226406  0.1004010613904986   T   T   T
 -0.0158446945473787  0.7970867233709599  0.1006863322974077   T   T   T
  0.5158446945473785  0.7970867233709599  0.1006863322974077   T   T   T
  0.2500000000000000  0.2066080575400134  0.1005630049014757   T   T   T
  0.2500000000000000  0.6205101569584676  0.1003568644148544   T   T   T
 
  0.00000000E+00  0.00000000E+00  0.00000000E+00
  0.00000000E+00  0.00000000E+00  0.00000000E+00
  0.00000000E+00  0.00000000E+00  0.00000000E+00
  0.00000000E+00  0.00000000E+00  0.00000000E+00
  0.00000000E+00  0.00000000E+00  0.00000000E+00
  0.00000000E+00  0.00000000E+00  0.00000000E+00
  0.00000000E+00  0.00000000E+00  0.00000000E+00
  0.00000000E+00  0.00000000E+00  0.00000000E+00
  0.00000000E+00  0.00000000E+00  0.00000000E+00
  0.00000000E+00  0.00000000E+00  0.00000000E+00
  0.00000000E+00  0.00000000E+00  0.00000000E+00
  0.00000000E+00  0.00000000E+00  0.00000000E+00
  0.00000000E+00  0.00000000E+00  0.00000000E+00
  0.00000000E+00  0.00000000E+00  0.00000000E+00
  0.00000000E+00  0.00000000E+00  0.00000000E+00
