Title                                   
   1.00000000000000     
     8.5490480000000009    0.0000000000000000    0.0000000000000000
     0.0000000000000000    8.5490480000000009    0.0000000000000000
     0.0000000000000000    0.0000000000000000   20.0000000000000000
    24     1
Selective dynamics
Direct
  0.9105752928338838  0.2065936339543850  0.0981712462790640   T   T   T
  0.9089275800518566  0.5016924020847486  0.0975454041266042   T   T   T
  0.9103416592718500  0.7967637365398405  0.0980775560303642   T   T   T
  0.1981091924405411  0.0845006680326500  0.0985314004330138   T   T   T
  0.0757245569739585  0.2068207397256148  0.0983830689897609   T   T   T
  0.1978859172769316  0.9193710122118944  0.0984295086805356   T   T   T
  0.1577949190898664  0.6474739345969460  0.0967354041499659   T   T   T
  0.0769820151430777  0.5019108662682326  0.0976712171135471   T   T   T
  0.1580158122681737  0.3564076178225826  0.0970503114260748   T   T   T
  0.0754720188809688  0.7969870989540279  0.0982177734488560   T   T   T
  0.4930759289296015  0.0857885296558900  0.0978953993210726   T   T   T
  0.3476351532066724  0.1668596705434773  0.0972433663157434   T   T   T
  0.4928676619206974  0.9177203253582445  0.0978372025270270   T   T   T
  0.3473523128474922  0.8369392385620094  0.0969472170655202   T   T   T
  0.7881530541105094  0.0842104856699403  0.0981391083121344   T   T   T
  0.6386325650732966  0.1665339832197937  0.0967347551429144   T   T   T
  0.7879800363412593  0.9190729083485051  0.0981047403957602   T   T   T
  0.8280158487075998  0.6472330180737222  0.0966730794853527   T   T   T
  0.8281727901715156  0.3561058536991518  0.0966049987640810   T   T   T
  0.6384128513702583  0.8368069124505474  0.0968182661955943   T   T   T
  0.3257409885882151  0.3345348376169348  0.0924122889141528   T   T   T
  0.3253900331790041  0.6693822842062639  0.0916637205046427   T   T   T
  0.6605966875442056  0.3341118087927938  0.0914719126544696   T   T   T
  0.6603356560648829  0.6691576356327208  0.0919821951187895   T   T   T
  0.4932214677136748  0.5018107979790956  0.0643638586049366   T   T   T
 
  0.00000000E+00  0.00000000E+00  0.00000000E+00
  0.00000000E+00  0.00000000E+00  0.00000000E+00
  0.00000000E+00  0.00000000E+00  0.00000000E+00
  0.00000000E+00  0.00000000E+00  0.00000000E+00
  0.00000000E+00  0.00000000E+00  0.00000000E+00
  0.00000000E+00  0.00000000E+00  0.00000000E+00
  0.00000000E+00  0.00000000E+00  0.00000000E+00
  0.00000000E+00  0.00000000E+00  0.00000000E+00
  0.00000000E+00  0.00000000E+00  0.00000000E+00
  0.00000000E+00  0.00000000E+00  0.00000000E+00
  0.00000000E+00  0.00000000E+00  0.00000000E+00
  0.00000000E+00  0.00000000E+00  0.00000000E+00
  0.00000000E+00  0.00000000E+00  0.00000000E+00
  0.00000000E+00  0.00000000E+00  0.00000000E+00
  0.00000000E+00  0.00000000E+00  0.00000000E+00
  0.00000000E+00  0.00000000E+00  0.00000000E+00
  0.00000000E+00  0.00000000E+00  0.00000000E+00
  0.00000000E+00  0.00000000E+00  0.00000000E+00
  0.00000000E+00  0.00000000E+00  0.00000000E+00
  0.00000000E+00  0.00000000E+00  0.00000000E+00
  0.00000000E+00  0.00000000E+00  0.00000000E+00
  0.00000000E+00  0.00000000E+00  0.00000000E+00
  0.00000000E+00  0.00000000E+00  0.00000000E+00
  0.00000000E+00  0.00000000E+00  0.00000000E+00
  0.00000000E+00  0.00000000E+00  0.00000000E+00
