Title                                   
   1.00000000000000     
     4.9440799999999996    0.0000000000000000    0.0000000000000000
     0.0000000000000000    8.5647549999999999    0.0000000000000000
     0.0000000000000000    0.0000000000000000   20.0000000000000000
    11     3     1
Selective dynamics
Direct
  0.0024839383225962  0.2928124338236453  0.0953725287078269   T   T   T
  0.2500000000000000  0.0377317854291352  0.0960035143150768   T   T   T
 -0.0008298838023307  0.9559965950968917  0.0962749993870676   T   T   T
  0.7500000000000000  0.2076919106465080  0.0925155933002927   T   T   T
  0.4975160616774038  0.2928124338236453  0.0953725287078269   T   T   T
  0.7500000000000000  0.0398073750190745  0.0935701617084283   T   T   T
  0.7500000000000000  0.7140056250578184  0.0992229981961745   T   T   T
  0.7500000000000000  0.5420045092196225  0.0997768882827142   T   T   T
  0.5008298838023307  0.9559965950968917  0.0962749993870676   T   T   T
  0.4991463020831782  0.4594293818468096  0.1025621053566417   T   T   T
  0.0008536979168218  0.4594293818468096  0.1025621053566417   T   T   T
 -0.0085105800490980  0.7912828231170760  0.1010713415771960   T   T   T
  0.5085105800490978  0.7912828231170760  0.1010713415771960   T   T   T
  0.2500000000000000  0.2076836861958200  0.0954507048861872   T   T   T
  0.2500000000000000  0.6237136406631787  0.1408781892536655   T   T   T
 
  0.00000000E+00  0.00000000E+00  0.00000000E+00
  0.00000000E+00  0.00000000E+00  0.00000000E+00
  0.00000000E+00  0.00000000E+00  0.00000000E+00
  0.00000000E+00  0.00000000E+00  0.00000000E+00
  0.00000000E+00  0.00000000E+00  0.00000000E+00
  0.00000000E+00  0.00000000E+00  0.00000000E+00
  0.00000000E+00  0.00000000E+00  0.00000000E+00
  0.00000000E+00  0.00000000E+00  0.00000000E+00
  0.00000000E+00  0.00000000E+00  0.00000000E+00
  0.00000000E+00  0.00000000E+00  0.00000000E+00
  0.00000000E+00  0.00000000E+00  0.00000000E+00
  0.00000000E+00  0.00000000E+00  0.00000000E+00
  0.00000000E+00  0.00000000E+00  0.00000000E+00
  0.00000000E+00  0.00000000E+00  0.00000000E+00
  0.00000000E+00  0.00000000E+00  0.00000000E+00
