Title                                   
   1.00000000000000     
     9.8694509999999998    0.0000000000000000    0.0000000000000000
     0.0000000000000000    8.5490480000000009    0.0000000000000000
     0.0000000000000000    0.0000000000000000   20.0000000000000000
    26     5     1
Selective dynamics
Direct
  0.0561823813601555  0.0923422785035925  0.0920464339852030   T   T   T
  0.9307235942794224  0.1747363809316108  0.0923284264556615   T   T   T
  0.0572959684430210  0.9252552744361766  0.0924065500746938   T   T   T
  0.9290205175737209  0.3425925368180673  0.0926371596073714   T   T   T
  0.0568663629466508  0.5912514432701108  0.0913223864968760   T   T   T
  0.9322588365550596  0.6741173980195357  0.0937233256211488   T   T   T
  0.0565794646673283  0.4237708615448585  0.0913169176392037   T   T   T
  0.9328288444134144  0.8406118280090401  0.0936209668479992   T   T   T
  0.3060283117478323  0.0880273656908445  0.0923295971232721   T   T   T
  0.1828662710202989  0.1741819096434101  0.0915385791203444   T   T   T
  0.1835286910844700  0.3416208184886579  0.0908890486068326   T   T   T
  0.3078646298301982  0.5927514839690485  0.0917327490193407   T   T   T
  0.1815958600978455  0.6746608183410585  0.0912260871612074   T   T   T
  0.3103800145532690  0.4240254906255078  0.0910475966718277   T   T   T
  0.1810908504805034  0.8416100932061643  0.0920392175414177   T   T   T
  0.5555120908786213  0.0827818515270147  0.0939706739926879   T   T   T
  0.5546738391963086  0.9171685770886939  0.0945629498821003   T   T   T
  0.4357323533564026  0.3344655799580279  0.0934574093775530   T   T   T
  0.4269579093323361  0.8339779538811615  0.0933869869537242   T   T   T
  0.8060681357369733  0.0888041916134693  0.0931024281054409   T   T   T
  0.6794719785562529  0.1692048332904227  0.0940978017063286   T   T   T
  0.8074602684874244  0.9233324539139749  0.0943254398673022   T   T   T
  0.6768638182078814  0.3357114378913104  0.0954581120391308   T   T   T
  0.8051551687643432  0.5949694750984347  0.0970058213304138   T   T   T
  0.8016062041463162  0.4248878537529004  0.0949768153565017   T   T   T
  0.6843853664314560  0.8355755743258297  0.0970410489626589   T   T   T
  0.4238094533188732  0.6795251916104280  0.0942980002102094   T   T   T
  0.5536069410888513  0.4084786400015114  0.0971418632227067   T   T   T
  0.6874926312809431  0.6770068427899840  0.1012191683669275   T   T   T
  0.3052070634312267  0.9251610713240670  0.0927388308374865   T   T   T
  0.4301365693568495  0.1658985346864348  0.0931939966312351   T   T   T
  0.5603886093757555  0.5917399557486541  0.1854926111852086   T   T   T
 
  0.00000000E+00  0.00000000E+00  0.00000000E+00
  0.00000000E+00  0.00000000E+00  0.00000000E+00
  0.00000000E+00  0.00000000E+00  0.00000000E+00
  0.00000000E+00  0.00000000E+00  0.00000000E+00
  0.00000000E+00  0.00000000E+00  0.00000000E+00
  0.00000000E+00  0.00000000E+00  0.00000000E+00
  0.00000000E+00  0.00000000E+00  0.00000000E+00
  0.00000000E+00  0.00000000E+00  0.00000000E+00
  0.00000000E+00  0.00000000E+00  0.00000000E+00
  0.00000000E+00  0.00000000E+00  0.00000000E+00
  0.00000000E+00  0.00000000E+00  0.00000000E+00
  0.00000000E+00  0.00000000E+00  0.00000000E+00
  0.00000000E+00  0.00000000E+00  0.00000000E+00
  0.00000000E+00  0.00000000E+00  0.00000000E+00
  0.00000000E+00  0.00000000E+00  0.00000000E+00
  0.00000000E+00  0.00000000E+00  0.00000000E+00
  0.00000000E+00  0.00000000E+00  0.00000000E+00
  0.00000000E+00  0.00000000E+00  0.00000000E+00
  0.00000000E+00  0.00000000E+00  0.00000000E+00
  0.00000000E+00  0.00000000E+00  0.00000000E+00
  0.00000000E+00  0.00000000E+00  0.00000000E+00
  0.00000000E+00  0.00000000E+00  0.00000000E+00
  0.00000000E+00  0.00000000E+00  0.00000000E+00
  0.00000000E+00  0.00000000E+00  0.00000000E+00
  0.00000000E+00  0.00000000E+00  0.00000000E+00
  0.00000000E+00  0.00000000E+00  0.00000000E+00
  0.00000000E+00  0.00000000E+00  0.00000000E+00
  0.00000000E+00  0.00000000E+00  0.00000000E+00
  0.00000000E+00  0.00000000E+00  0.00000000E+00
  0.00000000E+00  0.00000000E+00  0.00000000E+00
  0.00000000E+00  0.00000000E+00  0.00000000E+00
  0.00000000E+00  0.00000000E+00  0.00000000E+00
