Title                                   
   1.00000000000000     
     4.9440799999999996    0.0000000000000000    0.0000000000000000
     0.0000000000000000    8.5647549999999999    0.0000000000000000
     0.0000000000000000    0.0000000000000000   20.0000000000000000
    10     4     1
Selective dynamics
Direct
  0.2500000000000000  0.2118246601999882  0.0965761340296301   T   T   T
 -0.0015646147217515  0.2954462846847328  0.0964586397846123   T   T   T
  0.2500000000000000  0.0377084277895736  0.0965733603827099   T   T   T
 -0.0015731927589875  0.9541062876294890  0.0964502114017853   T   T   T
  0.7500000000000000  0.2085233300165050  0.0944926644391420   T   T   T
  0.5015646147217515  0.2954462846847328  0.0964586397846123   T   T   T
  0.7500000000000000  0.0410613054057175  0.0944857218997075   T   T   T
  0.7500000000000000  0.7112164431924457  0.0997756827267441   T   T   T
  0.7500000000000000  0.5383845482216547  0.0997752008007513   T   T   T
  0.5015731927589875  0.9541062876294890  0.0964502114017853   T   T   T
  0.5082884556656005  0.4577683844786453  0.0998943366794224   T   T   T
 -0.0082884556656002  0.4577683844786453  0.0998943366794224   T   T   T
 -0.0082484919645005  0.7917945722458166  0.0998827924979442   T   T   T
  0.5082484919645004  0.7917945722458166  0.0998827924979442   T   T   T
  0.2500000000000000  0.6247312270967501  0.1409292749937904   T   T   T
 
  0.00000000E+00  0.00000000E+00  0.00000000E+00
  0.00000000E+00  0.00000000E+00  0.00000000E+00
  0.00000000E+00  0.00000000E+00  0.00000000E+00
  0.00000000E+00  0.00000000E+00  0.00000000E+00
  0.00000000E+00  0.00000000E+00  0.00000000E+00
  0.00000000E+00  0.00000000E+00  0.00000000E+00
  0.00000000E+00  0.00000000E+00  0.00000000E+00
  0.00000000E+00  0.00000000E+00  0.00000000E+00
  0.00000000E+00  0.00000000E+00  0.00000000E+00
  0.00000000E+00  0.00000000E+00  0.00000000E+00
  0.00000000E+00  0.00000000E+00  0.00000000E+00
  0.00000000E+00  0.00000000E+00  0.00000000E+00
  0.00000000E+00  0.00000000E+00  0.00000000E+00
  0.00000000E+00  0.00000000E+00  0.00000000E+00
  0.00000000E+00  0.00000000E+00  0.00000000E+00
