Title                                   
   1.00000000000000     
     9.8694509999999998    0.0000000000000000    0.0000000000000000
     0.0000000000000000    8.5490480000000009    0.0000000000000000
     0.0000000000000000    0.0000000000000000   20.0000000000000000
    30     1     1
Selective dynamics
Direct
  0.0558805064701872  0.0899162109913783  0.0838070252870410   T   T   T
  0.9315272991236887  0.1726862940385237  0.0853925682846779   T   T   T
  0.0570618230262409  0.9231663304330973  0.0837869083371962   T   T   T
  0.9314568262546534  0.3397450863586048  0.0877896746262740   T   T   T
  0.0568765239192885  0.5897528790349903  0.0850225094152371   T   T   T
  0.9325484676324349  0.6722887904643619  0.0873786132691527   T   T   T
  0.0568470881320865  0.4224186004158493  0.0859438681643467   T   T   T
  0.9321448368386500  0.8391904972852750  0.0860310863082340   T   T   T
  0.3054091747515348  0.0881967791068578  0.0885285001472377   T   T   T
  0.1811698317657270  0.1721190574743584  0.0858607194360843   T   T   T
  0.1820316152056138  0.3387950609089627  0.0878371596283049   T   T   T
  0.3041153919949844  0.5893248200433904  0.0972463157730836   T   T   T
  0.1814855359775208  0.6736331880243930  0.0867431064782385   T   T   T
  0.3059755741800161  0.4223844059556521  0.0964883495508039   T   T   T
  0.1818221744068375  0.8401752671079044  0.0857473015833944   T   T   T
  0.5563912457523573  0.0880872133850196  0.0942936118566749   T   T   T
  0.4301279909890935  0.1698305389635767  0.0938182965264642   T   T   T
  0.5548884358327605  0.9225882355908104  0.0981726069015749   T   T   T
  0.4302534269630992  0.3356359345078759  0.1020226959975314   T   T   T
  0.4202675224392490  0.6801354568363885  0.1117237717740385   T   T   T
  0.5561203443176751  0.4103586524686209  0.1151032078972264   T   T   T
  0.4272743681611496  0.8416615196086007  0.0999205890832772   T   T   T
  0.8067268535746971  0.0888038332486715  0.0874432875292819   T   T   T
  0.6816758580177074  0.1710065796655575  0.0928168049080140   T   T   T
  0.8068388100573064  0.9232976716997618  0.0889497176405391   T   T   T
  0.6818789476946587  0.3363719139470045  0.1011482401154380   T   T   T
  0.8091158865499670  0.5893901592874421  0.0975940111417007   T   T   T
  0.6908039739534523  0.6773568110414553  0.1113100158959121   T   T   T
  0.8070201571420577  0.4219651495230595  0.0962659051954314   T   T   T
  0.6824831858427900  0.8399861905773518  0.0992407117154876   T   T   T
  0.3050441314331405  0.9247380749410660  0.0889237941105281   T   T   T
  0.5563751915993804  0.5952387970641462  0.1733240254216070   T   T   T
 
  0.00000000E+00  0.00000000E+00  0.00000000E+00
  0.00000000E+00  0.00000000E+00  0.00000000E+00
  0.00000000E+00  0.00000000E+00  0.00000000E+00
  0.00000000E+00  0.00000000E+00  0.00000000E+00
  0.00000000E+00  0.00000000E+00  0.00000000E+00
  0.00000000E+00  0.00000000E+00  0.00000000E+00
  0.00000000E+00  0.00000000E+00  0.00000000E+00
  0.00000000E+00  0.00000000E+00  0.00000000E+00
  0.00000000E+00  0.00000000E+00  0.00000000E+00
  0.00000000E+00  0.00000000E+00  0.00000000E+00
  0.00000000E+00  0.00000000E+00  0.00000000E+00
  0.00000000E+00  0.00000000E+00  0.00000000E+00
  0.00000000E+00  0.00000000E+00  0.00000000E+00
  0.00000000E+00  0.00000000E+00  0.00000000E+00
  0.00000000E+00  0.00000000E+00  0.00000000E+00
  0.00000000E+00  0.00000000E+00  0.00000000E+00
  0.00000000E+00  0.00000000E+00  0.00000000E+00
  0.00000000E+00  0.00000000E+00  0.00000000E+00
  0.00000000E+00  0.00000000E+00  0.00000000E+00
  0.00000000E+00  0.00000000E+00  0.00000000E+00
  0.00000000E+00  0.00000000E+00  0.00000000E+00
  0.00000000E+00  0.00000000E+00  0.00000000E+00
  0.00000000E+00  0.00000000E+00  0.00000000E+00
  0.00000000E+00  0.00000000E+00  0.00000000E+00
  0.00000000E+00  0.00000000E+00  0.00000000E+00
  0.00000000E+00  0.00000000E+00  0.00000000E+00
  0.00000000E+00  0.00000000E+00  0.00000000E+00
  0.00000000E+00  0.00000000E+00  0.00000000E+00
  0.00000000E+00  0.00000000E+00  0.00000000E+00
  0.00000000E+00  0.00000000E+00  0.00000000E+00
  0.00000000E+00  0.00000000E+00  0.00000000E+00
  0.00000000E+00  0.00000000E+00  0.00000000E+00
