Title                                   
   1.00000000000000     
     9.8694509999999998    0.0000000000000000    0.0000000000000000
     0.0000000000000000    8.5490480000000009    0.0000000000000000
     0.0000000000000000    0.0000000000000000   20.0000000000000000
    27     4     1
Selective dynamics
Direct
  0.0558465978462436  0.0906697091272911  0.0832716454622814   T   T   T
  0.9310992099868672  0.1749089940218985  0.0839482730916651   T   T   T
  0.0571499329717352  0.9227518627439686  0.0837004763675926   T   T   T
  0.9301271356674637  0.3423443192669672  0.0865346311574386   T   T   T
  0.0558717800048399  0.5913204901764295  0.0861559675771620   T   T   T
  0.0555375560831053  0.4246850627483237  0.0860884139714677   T   T   T
  0.9332883522058540  0.8397720738932833  0.0856201230943834   T   T   T
  0.3059114438214653  0.0876150874521348  0.0882623666977428   T   T   T
  0.1819819244586178  0.1722273260808558  0.0859439737985372   T   T   T
  0.1814903853718195  0.3399168945447109  0.0888228526724812   T   T   T
  0.3021076920748892  0.5876008378780144  0.1031830760549077   T   T   T
  0.1803531966746081  0.6740133360887879  0.0903625461707817   T   T   T
  0.3053894059772039  0.4202303285652984  0.1003918713197304   T   T   T
  0.1828596995489391  0.8407277522084063  0.0870907532875882   T   T   T
  0.5563280544532799  0.0862357673293709  0.0924913964539891   T   T   T
  0.5562814322424061  0.9199565020752885  0.0982559597872169   T   T   T
  0.4298720285886060  0.3309362270481514  0.1058415610965633   T   T   T
  0.4271561793912196  0.8394273152435570  0.1036467799615809   T   T   T
  0.8065718868724198  0.0893432235115911  0.0851210998826880   T   T   T
  0.6800147720560230  0.1716924100992086  0.0900563466492302   T   T   T
  0.8077736921604792  0.9236783568223361  0.0874278169475145   T   T   T
  0.6813383387191169  0.3372821126025686  0.1000982623997385   T   T   T
  0.8091046399615951  0.5951275247530255  0.0979182941292224   T   T   T
  0.8052195944926119  0.4260998113684030  0.0952935081628097   T   T   T
  0.6844271970733593  0.8412673710575740  0.0979721928330368   T   T   T
  0.4171231815157791  0.6809761116167846  0.1200786326013832   T   T   T
  0.5547640317626201  0.4029459832386106  0.1195251716215270   T   T   T
  0.6976935915660409  0.6823677400794643  0.1125691851900872   T   T   T
  0.3056056179766804  0.9238743428566418  0.0897940189177962   T   T   T
  0.4294277044940074  0.1659323345310138  0.0934578617702982   T   T   T
  0.9321579384452884  0.6743816257603653  0.0868381260740112   T   T   T
  0.5597648055348210  0.5899371652096733  0.1699118147975628   T   T   T
 
  0.00000000E+00  0.00000000E+00  0.00000000E+00
  0.00000000E+00  0.00000000E+00  0.00000000E+00
  0.00000000E+00  0.00000000E+00  0.00000000E+00
  0.00000000E+00  0.00000000E+00  0.00000000E+00
  0.00000000E+00  0.00000000E+00  0.00000000E+00
  0.00000000E+00  0.00000000E+00  0.00000000E+00
  0.00000000E+00  0.00000000E+00  0.00000000E+00
  0.00000000E+00  0.00000000E+00  0.00000000E+00
  0.00000000E+00  0.00000000E+00  0.00000000E+00
  0.00000000E+00  0.00000000E+00  0.00000000E+00
  0.00000000E+00  0.00000000E+00  0.00000000E+00
  0.00000000E+00  0.00000000E+00  0.00000000E+00
  0.00000000E+00  0.00000000E+00  0.00000000E+00
  0.00000000E+00  0.00000000E+00  0.00000000E+00
  0.00000000E+00  0.00000000E+00  0.00000000E+00
  0.00000000E+00  0.00000000E+00  0.00000000E+00
  0.00000000E+00  0.00000000E+00  0.00000000E+00
  0.00000000E+00  0.00000000E+00  0.00000000E+00
  0.00000000E+00  0.00000000E+00  0.00000000E+00
  0.00000000E+00  0.00000000E+00  0.00000000E+00
  0.00000000E+00  0.00000000E+00  0.00000000E+00
  0.00000000E+00  0.00000000E+00  0.00000000E+00
  0.00000000E+00  0.00000000E+00  0.00000000E+00
  0.00000000E+00  0.00000000E+00  0.00000000E+00
  0.00000000E+00  0.00000000E+00  0.00000000E+00
  0.00000000E+00  0.00000000E+00  0.00000000E+00
  0.00000000E+00  0.00000000E+00  0.00000000E+00
  0.00000000E+00  0.00000000E+00  0.00000000E+00
  0.00000000E+00  0.00000000E+00  0.00000000E+00
  0.00000000E+00  0.00000000E+00  0.00000000E+00
  0.00000000E+00  0.00000000E+00  0.00000000E+00
  0.00000000E+00  0.00000000E+00  0.00000000E+00
