Title                                   
   1.00000000000000     
     9.8694509999999998    0.0000000000000000    0.0000000000000000
     0.0000000000000000    8.5490480000000009    0.0000000000000000
     0.0000000000000000    0.0000000000000000   20.0000000000000000
    25     5     1
Selective dynamics
Direct
  0.0555329157100041  0.0886498393352804  0.0899204162616393   T   T   T
  0.9308274245728430  0.1712028085308158  0.0914850289475201   T   T   T
  0.0571700152394737  0.9214364173337426  0.0905453861286703   T   T   T
  0.9341146065408027  0.3384765255892365  0.0915109914609543   T   T   T
  0.0569396984171784  0.5902895485602154  0.0894701289294446   T   T   T
  0.0570830484861970  0.4238152657592005  0.0887661632975675   T   T   T
  0.9318333242807958  0.8383805112665904  0.0923408124368754   T   T   T
  0.3067864983261062  0.0886834293667810  0.0922975819589266   T   T   T
  0.1808729004285064  0.1716413991722335  0.0897893544370576   T   T   T
  0.1806318810142906  0.3392274651172596  0.0889506830947106   T   T   T
  0.3033749115647424  0.5897914662189266  0.0922871260353344   T   T   T
  0.1803013765557592  0.6736782170982718  0.0898730309016273   T   T   T
  0.3042528303657819  0.4214849123615710  0.0919937299789805   T   T   T
  0.1816445694294793  0.8402147007853950  0.0908012023698272   T   T   T
  0.4290359140288464  0.1754135451773471  0.0961719202710641   T   T   T
  0.5532435553411019  0.9219604675355961  0.0991103120243196   T   T   T
  0.4283610533039029  0.8375458183927205  0.0969951284457285   T   T   T
  0.8049365463273953  0.0887226325990544  0.0945409808910821   T   T   T
  0.6807754544594378  0.1772853320769313  0.0988470827945501   T   T   T
  0.8058161084762269  0.9206433803385621  0.0950230824841840   T   T   T
  0.6873970652906801  0.3423354745049907  0.1027872487509275   T   T   T
  0.8131410917261228  0.5917017919578491  0.0980567679573187   T   T   T
  0.6891578309325407  0.6704450694449190  0.1034622259318182   T   T   T
  0.8135340874703150  0.4214652706042348  0.0974454334592566   T   T   T
  0.6801203431146744  0.8370911843921938  0.0996029827522770   T   T   T
  0.9345484069598088  0.6727364972032084  0.0924681709079548   T   T   T
  0.5544067364457945  0.0938783090927014  0.0988702979617361   T   T   T
  0.4245766034139221  0.3364376639203465  0.0976344710445959   T   T   T
  0.4228202178696990  0.6765303287930360  0.0986089550397197   T   T   T
  0.3053884031462502  0.9226739338184120  0.0925853498986786   T   T   T
  0.5545095807613369  0.5070357936523818  0.1087229531457010   T   T   T
 
  0.00000000E+00  0.00000000E+00  0.00000000E+00
  0.00000000E+00  0.00000000E+00  0.00000000E+00
  0.00000000E+00  0.00000000E+00  0.00000000E+00
  0.00000000E+00  0.00000000E+00  0.00000000E+00
  0.00000000E+00  0.00000000E+00  0.00000000E+00
  0.00000000E+00  0.00000000E+00  0.00000000E+00
  0.00000000E+00  0.00000000E+00  0.00000000E+00
  0.00000000E+00  0.00000000E+00  0.00000000E+00
  0.00000000E+00  0.00000000E+00  0.00000000E+00
  0.00000000E+00  0.00000000E+00  0.00000000E+00
  0.00000000E+00  0.00000000E+00  0.00000000E+00
  0.00000000E+00  0.00000000E+00  0.00000000E+00
  0.00000000E+00  0.00000000E+00  0.00000000E+00
  0.00000000E+00  0.00000000E+00  0.00000000E+00
  0.00000000E+00  0.00000000E+00  0.00000000E+00
  0.00000000E+00  0.00000000E+00  0.00000000E+00
  0.00000000E+00  0.00000000E+00  0.00000000E+00
  0.00000000E+00  0.00000000E+00  0.00000000E+00
  0.00000000E+00  0.00000000E+00  0.00000000E+00
  0.00000000E+00  0.00000000E+00  0.00000000E+00
  0.00000000E+00  0.00000000E+00  0.00000000E+00
  0.00000000E+00  0.00000000E+00  0.00000000E+00
  0.00000000E+00  0.00000000E+00  0.00000000E+00
  0.00000000E+00  0.00000000E+00  0.00000000E+00
  0.00000000E+00  0.00000000E+00  0.00000000E+00
  0.00000000E+00  0.00000000E+00  0.00000000E+00
  0.00000000E+00  0.00000000E+00  0.00000000E+00
  0.00000000E+00  0.00000000E+00  0.00000000E+00
  0.00000000E+00  0.00000000E+00  0.00000000E+00
  0.00000000E+00  0.00000000E+00  0.00000000E+00
  0.00000000E+00  0.00000000E+00  0.00000000E+00
