Title                                   
   1.00000000000000     
     9.8694509999999998    0.0000000000000000    0.0000000000000000
     0.0000000000000000    8.5490480000000009    0.0000000000000000
     0.0000000000000000    0.0000000000000000   20.0000000000000000
    29     1     1
Selective dynamics
Direct
  0.0559865402275387  0.0893082703528397  0.0842664399821450   T   T   T
  0.9312442239547236  0.1715921885937632  0.0859482402222686   T   T   T
  0.0570231950787124  0.9237889240566757  0.0845891181544420   T   T   T
  0.9328512738465293  0.3386516703479379  0.0848714430070577   T   T   T
  0.0566500259827610  0.5900726086495638  0.0821801382057515   T   T   T
  0.9324926005372004  0.6734730967753302  0.0847788117282962   T   T   T
  0.0569563663058949  0.4231440906307152  0.0820755087995968   T   T   T
  0.9312958364001980  0.8398252296925051  0.0858642798758850   T   T   T
  0.3067598913570067  0.0896773240428696  0.0927097349883461   T   T   T
  0.1817155387179542  0.1711849471928999  0.0860447812533046   T   T   T
  0.1809402005470901  0.3385314492687765  0.0851677172336852   T   T   T
  0.3020475291267734  0.5911752206279700  0.0946951282829810   T   T   T
  0.1810347368172486  0.6749998483935730  0.0855604149222620   T   T   T
  0.3026378590058632  0.4224433515580394  0.0939126532096094   T   T   T
  0.1821657460906719  0.8418258281921288  0.0868862495539058   T   T   T
  0.5565250986053434  0.0890444387165923  0.1037639641826893   T   T   T
  0.4305760727266215  0.1758489692913763  0.1014865279335325   T   T   T
  0.5547120075725972  0.9234797944831373  0.1035405224600510   T   T   T
  0.4251184239055099  0.3424458659425352  0.1063442977925285   T   T   T
  0.4230160212623658  0.6724293162919681  0.1091617526774634   T   T   T
  0.4283818331056120  0.8367602006794369  0.1024811451205482   T   T   T
  0.8056015371923905  0.0892858192225018  0.0919383618187852   T   T   T
  0.6820707225419982  0.1758189610072657  0.1010753399038756   T   T   T
  0.8052164893154233  0.9212814895787917  0.0916757720482116   T   T   T
  0.6884745149239710  0.3414449343376479  0.1076119285365663   T   T   T
  0.8101025957999947  0.5898122822173191  0.0924327504959293   T   T   T
  0.6866817816987024  0.6687519151143733  0.1041910743698080   T   T   T
  0.8107319229480243  0.4212287252518886  0.0931974287952227   T   T   T
  0.6802214643319111  0.8345595793167347  0.0999450203862897   T   T   T
  0.3060382125952644  0.9231407759829992  0.0928933086459118   T   T   T
  0.5578647374781076  0.5058478841898635  0.1396751454130771   T   T   T
 
  0.00000000E+00  0.00000000E+00  0.00000000E+00
  0.00000000E+00  0.00000000E+00  0.00000000E+00
  0.00000000E+00  0.00000000E+00  0.00000000E+00
  0.00000000E+00  0.00000000E+00  0.00000000E+00
  0.00000000E+00  0.00000000E+00  0.00000000E+00
  0.00000000E+00  0.00000000E+00  0.00000000E+00
  0.00000000E+00  0.00000000E+00  0.00000000E+00
  0.00000000E+00  0.00000000E+00  0.00000000E+00
  0.00000000E+00  0.00000000E+00  0.00000000E+00
  0.00000000E+00  0.00000000E+00  0.00000000E+00
  0.00000000E+00  0.00000000E+00  0.00000000E+00
  0.00000000E+00  0.00000000E+00  0.00000000E+00
  0.00000000E+00  0.00000000E+00  0.00000000E+00
  0.00000000E+00  0.00000000E+00  0.00000000E+00
  0.00000000E+00  0.00000000E+00  0.00000000E+00
  0.00000000E+00  0.00000000E+00  0.00000000E+00
  0.00000000E+00  0.00000000E+00  0.00000000E+00
  0.00000000E+00  0.00000000E+00  0.00000000E+00
  0.00000000E+00  0.00000000E+00  0.00000000E+00
  0.00000000E+00  0.00000000E+00  0.00000000E+00
  0.00000000E+00  0.00000000E+00  0.00000000E+00
  0.00000000E+00  0.00000000E+00  0.00000000E+00
  0.00000000E+00  0.00000000E+00  0.00000000E+00
  0.00000000E+00  0.00000000E+00  0.00000000E+00
  0.00000000E+00  0.00000000E+00  0.00000000E+00
  0.00000000E+00  0.00000000E+00  0.00000000E+00
  0.00000000E+00  0.00000000E+00  0.00000000E+00
  0.00000000E+00  0.00000000E+00  0.00000000E+00
  0.00000000E+00  0.00000000E+00  0.00000000E+00
  0.00000000E+00  0.00000000E+00  0.00000000E+00
  0.00000000E+00  0.00000000E+00  0.00000000E+00
