Title                                   
   1.00000000000000     
     8.5490480000000009    0.0000000000000000    0.0000000000000000
     0.0000000000000000    8.5490480000000009    0.0000000000000000
     0.0000000000000000    0.0000000000000000   20.0000000000000000
    22     2     1
Selective dynamics
Direct
  0.9106247027313619  0.2063817094176384  0.0936438264179267   T   T   T
  0.9127018335202333  0.8003492690436117  0.0936841644092227   T   T   T
  0.1969328399189776  0.0826030295893409  0.0941272776865167   T   T   T
  0.0744541207860210  0.2014297113262377  0.0937512453772197   T   T   T
  0.1564555656278810  0.6490426873205798  0.0956483589869797   T   T   T
  0.0756216756171215  0.5017436722909194  0.0956199225000661   T   T   T
  0.1557789292688430  0.3545004910426445  0.0960059756188639   T   T   T
  0.0780196956165158  0.7994739350253989  0.0935889849171469   T   T   T
  0.4936341800446861  0.0861667228063090  0.0965248336915327   T   T   T
  0.3440928174418760  0.1638447976938498  0.0963902481905874   T   T   T
  0.4930699543307086  0.9175238422027123  0.0964957179549672   T   T   T
  0.3453352807059756  0.8357667877664491  0.0961923370856251   T   T   T
  0.7877251265682430  0.0853344223474114  0.0945403649992144   T   T   T
  0.6391814380698805  0.1676289397049996  0.0968291824127044   T   T   T
  0.7889739430434521  0.9199724873209080  0.0945803886423859   T   T   T
  0.8315416208000203  0.6488643861932371  0.0957092126460872   T   T   T
  0.8294087184521981  0.3577039532788299  0.0954420726879981   T   T   T
  0.6396778306311431  0.8358090864917237  0.0971065616221196   T   T   T
  0.3204039478710051  0.3318175071114071  0.0991038414320380   T   T   T
  0.3220358313170953  0.6718915602413084  0.0981502999141048   T   T   T
  0.6650109354670118  0.3368998405528955  0.0994720774196049   T   T   T
  0.6659730481486600  0.6684398704103028  0.1000137550519709   T   T   T
  0.9106181364460898  0.5031290161672783  0.0953190394462573   T   T   T
  0.1970592846716883  0.9165384655881604  0.0937927735736796   T   T   T
  0.4910805429032968  0.5019338090658535  0.1419725373151601   T   T   T
 
  0.00000000E+00  0.00000000E+00  0.00000000E+00
  0.00000000E+00  0.00000000E+00  0.00000000E+00
  0.00000000E+00  0.00000000E+00  0.00000000E+00
  0.00000000E+00  0.00000000E+00  0.00000000E+00
  0.00000000E+00  0.00000000E+00  0.00000000E+00
  0.00000000E+00  0.00000000E+00  0.00000000E+00
  0.00000000E+00  0.00000000E+00  0.00000000E+00
  0.00000000E+00  0.00000000E+00  0.00000000E+00
  0.00000000E+00  0.00000000E+00  0.00000000E+00
  0.00000000E+00  0.00000000E+00  0.00000000E+00
  0.00000000E+00  0.00000000E+00  0.00000000E+00
  0.00000000E+00  0.00000000E+00  0.00000000E+00
  0.00000000E+00  0.00000000E+00  0.00000000E+00
  0.00000000E+00  0.00000000E+00  0.00000000E+00
  0.00000000E+00  0.00000000E+00  0.00000000E+00
  0.00000000E+00  0.00000000E+00  0.00000000E+00
  0.00000000E+00  0.00000000E+00  0.00000000E+00
  0.00000000E+00  0.00000000E+00  0.00000000E+00
  0.00000000E+00  0.00000000E+00  0.00000000E+00
  0.00000000E+00  0.00000000E+00  0.00000000E+00
  0.00000000E+00  0.00000000E+00  0.00000000E+00
  0.00000000E+00  0.00000000E+00  0.00000000E+00
  0.00000000E+00  0.00000000E+00  0.00000000E+00
  0.00000000E+00  0.00000000E+00  0.00000000E+00
  0.00000000E+00  0.00000000E+00  0.00000000E+00
