Title                                   
   1.00000000000000     
     4.9440799999999996    0.0000000000000000    0.0000000000000000
     0.0000000000000000   17.1295089999999988    0.0000000000000000
     0.0000000000000000    0.0000000000000000   20.0000000000000000
    31     1
Selective dynamics
Direct
  0.0002669515682229  0.1041754287870749  0.2804503144509856   T   T   T
  0.2499402946010690  0.1458321416181275  0.2850961976424682   T   T   T
  0.2499359160442783  0.2282782900468057  0.2970968453150621   T   T   T
 -0.0022353805950299  0.3502279209638952  0.3206840855991648   T   T   T
 -0.0019147622455191  0.2687745924056579  0.3037036047027045   T   T   T
 -0.0024893360978931  0.6073533560264632  0.3145742288219152   T   T   T
  0.2499328313070469  0.7296773138064437  0.2924797526031875   T   T   T
  0.0001757123097873  0.8541683899117648  0.2779468955034121   T   T   T
  0.2499267305686457  0.8959045593712129  0.2757276704414778   T   T   T
  0.2499254788407839  0.9792200579677415  0.2742401368864269   T   T   T
  0.0002714895244207  0.7712805054329817  0.2859145705102403   T   T   T
  0.4996213679357034  0.1041743808326376  0.2804478172871822   T   T   T
  0.7499462826123301  0.1453718698156043  0.2844239441263093   T   T   T
  0.7499385757629419  0.2275873207580892  0.2959191893274817   T   T   T
  0.4997685156480908  0.0209650157964104  0.2751133619718116   T   T   T
  0.5020659901374415  0.3502264201417801  0.3206998961979606   T   T   T
  0.7499123965484685  0.3940388155792967  0.3268222400343140   T   T   T
  0.7498939731471358  0.4801757037584086  0.3316161429456556   T   T   T
  0.5017815326533459  0.2687786710870646  0.3037080395395152   T   T   T
  0.5023311751758188  0.6073463321890521  0.3146761893695297   T   T   T
  0.7499004046426032  0.7303071333407530  0.2907032646907784   T   T   T
  0.4996644928554201  0.8541691988941493  0.2779557131210833   T   T   T
  0.7499177190115353  0.8957744488424640  0.2754415523633519   T   T   T
  0.7499310908207674  0.9792699243162573  0.2741272747767110   T   T   T
  0.4995628792621339  0.7712905761790793  0.2859380151994034   T   T   T
  0.7498933111155436  0.6484444760253680  0.3040142851087687   T   T   T
  0.2499431192582952  0.6482179063647960  0.3079564242091369   T   T   T
  0.0000848463781659  0.0209683216988006  0.2751102488813230   T   T   T
  0.5086736904398471  0.5268522782763931  0.3325290926399308   T   T   T
  0.9910856879200743  0.5268332697456903  0.3322535946218310   T   T   T
  0.2499150473212838  0.3857977749071240  0.3334728836203431   T   T   T
  0.2492549755272452  0.4770686051126020  0.3917215274904872   T   T   T
 
  0.00000000E+00  0.00000000E+00  0.00000000E+00
  0.00000000E+00  0.00000000E+00  0.00000000E+00
  0.00000000E+00  0.00000000E+00  0.00000000E+00
  0.00000000E+00  0.00000000E+00  0.00000000E+00
  0.00000000E+00  0.00000000E+00  0.00000000E+00
  0.00000000E+00  0.00000000E+00  0.00000000E+00
  0.00000000E+00  0.00000000E+00  0.00000000E+00
  0.00000000E+00  0.00000000E+00  0.00000000E+00
  0.00000000E+00  0.00000000E+00  0.00000000E+00
  0.00000000E+00  0.00000000E+00  0.00000000E+00
  0.00000000E+00  0.00000000E+00  0.00000000E+00
  0.00000000E+00  0.00000000E+00  0.00000000E+00
  0.00000000E+00  0.00000000E+00  0.00000000E+00
  0.00000000E+00  0.00000000E+00  0.00000000E+00
  0.00000000E+00  0.00000000E+00  0.00000000E+00
  0.00000000E+00  0.00000000E+00  0.00000000E+00
  0.00000000E+00  0.00000000E+00  0.00000000E+00
  0.00000000E+00  0.00000000E+00  0.00000000E+00
  0.00000000E+00  0.00000000E+00  0.00000000E+00
  0.00000000E+00  0.00000000E+00  0.00000000E+00
  0.00000000E+00  0.00000000E+00  0.00000000E+00
  0.00000000E+00  0.00000000E+00  0.00000000E+00
  0.00000000E+00  0.00000000E+00  0.00000000E+00
  0.00000000E+00  0.00000000E+00  0.00000000E+00
  0.00000000E+00  0.00000000E+00  0.00000000E+00
  0.00000000E+00  0.00000000E+00  0.00000000E+00
  0.00000000E+00  0.00000000E+00  0.00000000E+00
  0.00000000E+00  0.00000000E+00  0.00000000E+00
  0.00000000E+00  0.00000000E+00  0.00000000E+00
  0.00000000E+00  0.00000000E+00  0.00000000E+00
  0.00000000E+00  0.00000000E+00  0.00000000E+00
  0.00000000E+00  0.00000000E+00  0.00000000E+00
