Title                                   
   1.00000000000000     
     9.8694509999999998    0.0000000000000000    0.0000000000000000
     0.0000000000000000    8.5490480000000009    0.0000000000000000
     0.0000000000000000    0.0000000000000000   20.0000000000000000
    29     2     1
Selective dynamics
Direct
  0.0562471621535038  0.0911113381609287  0.0842955417627655   T   T   T
  0.9305691275447351  0.1729435280652343  0.0883599430638868   T   T   T
  0.0552693169033680  0.9241637050993972  0.0825488215654381   T   T   T
  0.9304484004236933  0.3405478741547380  0.0942031531228890   T   T   T
  0.0560900708635253  0.5895423136473928  0.0873587329245630   T   T   T
  0.9315380386257766  0.6724011489017652  0.0913477785853129   T   T   T
  0.0567512490522171  0.4238889589958902  0.0896440855817970   T   T   T
  0.9303696381771476  0.8390837965671241  0.0861449281264641   T   T   T
  0.3053645486944652  0.0910051218667821  0.0867010576760971   T   T   T
  0.1817957507761624  0.1747899887765513  0.0866937539523184   T   T   T
  0.3049068915246796  0.9253276488644476  0.0850599580026673   T   T   T
  0.1836486843106277  0.3431671189754966  0.0899201415969895   T   T   T
  0.3062521308635896  0.5956673310206423  0.0923645019148672   T   T   T
  0.1803383734229308  0.6739765682024154  0.0850970631510955   T   T   T
  0.3090365389627702  0.4257281159936326  0.0963177552574296   T   T   T
  0.1802576042471760  0.8409012921626797  0.0829954207447004   T   T   T
  0.5555090359745229  0.0841695819472782  0.0952449227845128   T   T   T
  0.4321129330627264  0.1696720499352244  0.0933535506731711   T   T   T
  0.4337148827768127  0.3359099502339786  0.1044891013087087   T   T   T
  0.5567792721938903  0.4026674530579738  0.1253937122299860   T   T   T
  0.4267186131456953  0.8379078326226533  0.0920227718704009   T   T   T
  0.8069328910135262  0.0882098259190002  0.0887416543449769   T   T   T
  0.6811205346823351  0.1672192068452054  0.0969582896758331   T   T   T
  0.8052190020879971  0.9218160229776863  0.0876076388068719   T   T   T
  0.6815361107342494  0.3316698349118875  0.1108895813035804   T   T   T
  0.8094472240897994  0.5913543119795609  0.1073934856878077   T   T   T
  0.6929957263689093  0.6826310994800764  0.1212648944767589   T   T   T
  0.8073964827169292  0.4211647462100282  0.1068299772451313   T   T   T
  0.6819900479828415  0.8375051633492085  0.0999139242025440   T   T   T
  0.4230492616639009  0.6824584363810358  0.0976926415260945   T   T   T
  0.5543070049923909  0.9182325069981306  0.0957808499542759   T   T   T
  0.5519264499671100  0.5934121276959419  0.1710453668801095   T   T   T
 
  0.00000000E+00  0.00000000E+00  0.00000000E+00
  0.00000000E+00  0.00000000E+00  0.00000000E+00
  0.00000000E+00  0.00000000E+00  0.00000000E+00
  0.00000000E+00  0.00000000E+00  0.00000000E+00
  0.00000000E+00  0.00000000E+00  0.00000000E+00
  0.00000000E+00  0.00000000E+00  0.00000000E+00
  0.00000000E+00  0.00000000E+00  0.00000000E+00
  0.00000000E+00  0.00000000E+00  0.00000000E+00
  0.00000000E+00  0.00000000E+00  0.00000000E+00
  0.00000000E+00  0.00000000E+00  0.00000000E+00
  0.00000000E+00  0.00000000E+00  0.00000000E+00
  0.00000000E+00  0.00000000E+00  0.00000000E+00
  0.00000000E+00  0.00000000E+00  0.00000000E+00
  0.00000000E+00  0.00000000E+00  0.00000000E+00
  0.00000000E+00  0.00000000E+00  0.00000000E+00
  0.00000000E+00  0.00000000E+00  0.00000000E+00
  0.00000000E+00  0.00000000E+00  0.00000000E+00
  0.00000000E+00  0.00000000E+00  0.00000000E+00
  0.00000000E+00  0.00000000E+00  0.00000000E+00
  0.00000000E+00  0.00000000E+00  0.00000000E+00
  0.00000000E+00  0.00000000E+00  0.00000000E+00
  0.00000000E+00  0.00000000E+00  0.00000000E+00
  0.00000000E+00  0.00000000E+00  0.00000000E+00
  0.00000000E+00  0.00000000E+00  0.00000000E+00
  0.00000000E+00  0.00000000E+00  0.00000000E+00
  0.00000000E+00  0.00000000E+00  0.00000000E+00
  0.00000000E+00  0.00000000E+00  0.00000000E+00
  0.00000000E+00  0.00000000E+00  0.00000000E+00
  0.00000000E+00  0.00000000E+00  0.00000000E+00
  0.00000000E+00  0.00000000E+00  0.00000000E+00
  0.00000000E+00  0.00000000E+00  0.00000000E+00
  0.00000000E+00  0.00000000E+00  0.00000000E+00
