Title                                   
   1.00000000000000     
     4.9440799999999996    0.0000000000000000    0.0000000000000000
     0.0000000000000000    8.5647549999999999    0.0000000000000000
     0.0000000000000000    0.0000000000000000   20.0000000000000000
    11     3     1
Selective dynamics
Direct
  0.2487773776829063  0.2079916327106101  0.1004310380590413   T   T   T
 -0.0028882392101720  0.2932662359006875  0.1002291928542007   T   T   T
  0.2485263513271089  0.0381048626233210  0.1003797377160269   T   T   T
 -0.0048571957011998  0.9571326784908316  0.1000012021588254   T   T   T
  0.7478749909689556  0.2087871404897468  0.1004061065513088   T   T   T
  0.4995952269324594  0.2912276142810942  0.1008194005228734   T   T   T
  0.7485425515294918  0.0411731859363321  0.1003250349378115   T   T   T
  0.7543759096166277  0.7173235180378410  0.1005094067985382   T   T   T
  0.7545182955722367  0.5350822828873647  0.1006287993865702   T   T   T
  0.5019769688024545  0.9553854627301256  0.1007350767433177   T   T   T
  0.5103647441550440  0.4584133404210874  0.1014181928145429   T   T   T
 -0.0102535662432366  0.4564146213187402  0.1000740344646221   T   T   T
 -0.0155741891326422  0.7966216344477781  0.0995842205365986   T   T   T
  0.5165940044142756  0.7920510355814395  0.1014222343738506   T   T   T
  0.2524267692856908  0.6227057541430020  0.1010163220818749   T   T   T
 
  0.00000000E+00  0.00000000E+00  0.00000000E+00
  0.00000000E+00  0.00000000E+00  0.00000000E+00
  0.00000000E+00  0.00000000E+00  0.00000000E+00
  0.00000000E+00  0.00000000E+00  0.00000000E+00
  0.00000000E+00  0.00000000E+00  0.00000000E+00
  0.00000000E+00  0.00000000E+00  0.00000000E+00
  0.00000000E+00  0.00000000E+00  0.00000000E+00
  0.00000000E+00  0.00000000E+00  0.00000000E+00
  0.00000000E+00  0.00000000E+00  0.00000000E+00
  0.00000000E+00  0.00000000E+00  0.00000000E+00
  0.00000000E+00  0.00000000E+00  0.00000000E+00
  0.00000000E+00  0.00000000E+00  0.00000000E+00
  0.00000000E+00  0.00000000E+00  0.00000000E+00
  0.00000000E+00  0.00000000E+00  0.00000000E+00
  0.00000000E+00  0.00000000E+00  0.00000000E+00
