Title                                   
   1.00000000000000     
     9.8694509999999998    0.0000000000000000    0.0000000000000000
     0.0000000000000000    8.5490480000000009    0.0000000000000000
     0.0000000000000000    0.0000000000000000   20.0000000000000000
    29     2     1
Selective dynamics
Direct
  0.0561163044057841  0.0907943770754288  0.0829659486122148   T   T   T
  0.9313724639182006  0.1729461394057469  0.0845156630818624   T   T   T
  0.0567054660265142  0.9239748526207626  0.0841490304835072   T   T   T
  0.9318719175572588  0.3396674914251473  0.0877694665178818   T   T   T
  0.0574973273318142  0.5896002579690064  0.0848053258518874   T   T   T
  0.9332175981026910  0.6721729193787224  0.0884794744856873   T   T   T
  0.0576251909948361  0.4227010530077921  0.0850455776732830   T   T   T
  0.9321482406999689  0.8391531505938998  0.0858771855342948   T   T   T
  0.3054055586300042  0.0883168763758105  0.0879127351894735   T   T   T
  0.1817977591244105  0.1729245617595222  0.0845688991499808   T   T   T
  0.1836241954391666  0.3405808046257086  0.0861178031077228   T   T   T
  0.3027481643921894  0.5921671276807862  0.0996642944229150   T   T   T
  0.1815936555411806  0.6743286558967422  0.0884843198435315   T   T   T
  0.3085212600626195  0.4249644131235577  0.0958748114041823   T   T   T
  0.1807401956751489  0.8414237566472820  0.0882837932543673   T   T   T
  0.5561101614593292  0.0861203997821311  0.0937290143266511   T   T   T
  0.4305312069662535  0.1700463560180572  0.0930291558773882   T   T   T
  0.5538599785489665  0.9198509560209668  0.0980276242325506   T   T   T
  0.4306447315885567  0.3344609954986308  0.1021208963764102   T   T   T
  0.5570693239458583  0.4046042642061559  0.1216152428601373   T   T   T
  0.4246727511368142  0.8423532699978914  0.1022204024914678   T   T   T
  0.8068976697068329  0.0884328437087770  0.0860707819492238   T   T   T
  0.6821654866822017  0.1691956549403422  0.0931103209040616   T   T   T
  0.8063098016582583  0.9223251810957627  0.0873845418034411   T   T   T
  0.6835973814100335  0.3332498955578818  0.1047054331423901   T   T   T
  0.8113253255149312  0.5892448248590971  0.1014789706284024   T   T   T
  0.6941291281778912  0.6793771145376002  0.1177199285729857   T   T   T
  0.8076239150088327  0.4213925332259026  0.0992358998196319   T   T   T
  0.6829726038816074  0.8399521173047532  0.0992488029446627   T   T   T
  0.4118795036708496  0.6865045780658933  0.1220369870546728   T   T   T
  0.3043775222474858  0.9247046261257922  0.0915674536015411   T   T   T
  0.5544872104935157  0.5927139514684375  0.1758592148016352   T   T   T
 
  0.00000000E+00  0.00000000E+00  0.00000000E+00
  0.00000000E+00  0.00000000E+00  0.00000000E+00
  0.00000000E+00  0.00000000E+00  0.00000000E+00
  0.00000000E+00  0.00000000E+00  0.00000000E+00
  0.00000000E+00  0.00000000E+00  0.00000000E+00
  0.00000000E+00  0.00000000E+00  0.00000000E+00
  0.00000000E+00  0.00000000E+00  0.00000000E+00
  0.00000000E+00  0.00000000E+00  0.00000000E+00
  0.00000000E+00  0.00000000E+00  0.00000000E+00
  0.00000000E+00  0.00000000E+00  0.00000000E+00
  0.00000000E+00  0.00000000E+00  0.00000000E+00
  0.00000000E+00  0.00000000E+00  0.00000000E+00
  0.00000000E+00  0.00000000E+00  0.00000000E+00
  0.00000000E+00  0.00000000E+00  0.00000000E+00
  0.00000000E+00  0.00000000E+00  0.00000000E+00
  0.00000000E+00  0.00000000E+00  0.00000000E+00
  0.00000000E+00  0.00000000E+00  0.00000000E+00
  0.00000000E+00  0.00000000E+00  0.00000000E+00
  0.00000000E+00  0.00000000E+00  0.00000000E+00
  0.00000000E+00  0.00000000E+00  0.00000000E+00
  0.00000000E+00  0.00000000E+00  0.00000000E+00
  0.00000000E+00  0.00000000E+00  0.00000000E+00
  0.00000000E+00  0.00000000E+00  0.00000000E+00
  0.00000000E+00  0.00000000E+00  0.00000000E+00
  0.00000000E+00  0.00000000E+00  0.00000000E+00
  0.00000000E+00  0.00000000E+00  0.00000000E+00
  0.00000000E+00  0.00000000E+00  0.00000000E+00
  0.00000000E+00  0.00000000E+00  0.00000000E+00
  0.00000000E+00  0.00000000E+00  0.00000000E+00
  0.00000000E+00  0.00000000E+00  0.00000000E+00
  0.00000000E+00  0.00000000E+00  0.00000000E+00
  0.00000000E+00  0.00000000E+00  0.00000000E+00
