Title                                   
   1.00000000000000     
     4.9440799999999996    0.0000000000000000    0.0000000000000000
     0.0000000000000000   17.1295089999999988    0.0000000000000000
     0.0000000000000000    0.0000000000000000   20.0000000000000000
    25     5     1
Selective dynamics
Direct
  0.0012600972646819  0.1062893257671060  0.2990689451569469   T   T   T
  0.2503558294940988  0.1494606514173490  0.2990667239414431   T   T   T
  0.2503130199457655  0.2345660419706369  0.2999830545621872   T   T   T
 -0.0028100092337467  0.2758315134793198  0.3027473935413513   T   T   T
 -0.0025571127707013  0.5992940650268965  0.2988926681628953   T   T   T
  0.2503536633853224  0.7256046091954013  0.2992227351117565   T   T   T
  0.0017427019055657  0.8525452979862004  0.2980831171491008   T   T   T
  0.2502902843881135  0.8950108163675907  0.2978630458228799   T   T   T
  0.2503247962492778  0.9795232328500859  0.2977806492816795   T   T   T
  0.0021428370236527  0.7677495442583178  0.2988252206585294   T   T   T
  0.4994105914727147  0.1062874543327901  0.2980959347958245   T   T   T
  0.7503403169932249  0.1482701915402276  0.2989714527584629   T   T   T
  0.7503563786038772  0.2319279392977367  0.2998220724528857   T   T   T
  0.4998510269627679  0.0218571177100524  0.2976965992737046   T   T   T
  0.7502928560202919  0.3950435600903552  0.3013528942448384   T   T   T
  0.7502902166372744  0.4813289959961162  0.3014643148419662   T   T   T
  0.5034094996747452  0.2758802341373812  0.2979686460329521   T   T   T
  0.5033020688246378  0.5993196427912530  0.3022714417040895   T   T   T
  0.7502954063347552  0.7267407717160477  0.2992043727089267   T   T   T
  0.4988846819407332  0.8525609013390433  0.2980876337075057   T   T   T
  0.7503334990228407  0.8947344149513003  0.2978667139606261   T   T   T
  0.7503625320270110  0.9792067368569892  0.2977820115935966   T   T   T
  0.4984905070278510  0.7677740455047486  0.2987540438535656   T   T   T
  0.7503088981526517  0.6438012749060806  0.3001161209613520   T   T   T
  0.0008322382922426  0.0218754285042315  0.2981822663005149   T   T   T
  0.5119181554281017  0.5207247389107994  0.3089528336629567   T   T   T
  0.9885341048587043  0.5205982677516277  0.2935441598642696   T   T   T
  0.5150711564741434  0.3558285342189826  0.2918397265003216   T   T   T
 -0.0143949912632939  0.3556366882316335  0.3104539399527423   T   T   T
  0.2504112016484735  0.6396735248350669  0.3001245222488527   T   T   T
  0.2502905472142244  0.4363964380586260  0.3009747451912270   T   T   T
 
  0.00000000E+00  0.00000000E+00  0.00000000E+00
  0.00000000E+00  0.00000000E+00  0.00000000E+00
  0.00000000E+00  0.00000000E+00  0.00000000E+00
  0.00000000E+00  0.00000000E+00  0.00000000E+00
  0.00000000E+00  0.00000000E+00  0.00000000E+00
  0.00000000E+00  0.00000000E+00  0.00000000E+00
  0.00000000E+00  0.00000000E+00  0.00000000E+00
  0.00000000E+00  0.00000000E+00  0.00000000E+00
  0.00000000E+00  0.00000000E+00  0.00000000E+00
  0.00000000E+00  0.00000000E+00  0.00000000E+00
  0.00000000E+00  0.00000000E+00  0.00000000E+00
  0.00000000E+00  0.00000000E+00  0.00000000E+00
  0.00000000E+00  0.00000000E+00  0.00000000E+00
  0.00000000E+00  0.00000000E+00  0.00000000E+00
  0.00000000E+00  0.00000000E+00  0.00000000E+00
  0.00000000E+00  0.00000000E+00  0.00000000E+00
  0.00000000E+00  0.00000000E+00  0.00000000E+00
  0.00000000E+00  0.00000000E+00  0.00000000E+00
  0.00000000E+00  0.00000000E+00  0.00000000E+00
  0.00000000E+00  0.00000000E+00  0.00000000E+00
  0.00000000E+00  0.00000000E+00  0.00000000E+00
  0.00000000E+00  0.00000000E+00  0.00000000E+00
  0.00000000E+00  0.00000000E+00  0.00000000E+00
  0.00000000E+00  0.00000000E+00  0.00000000E+00
  0.00000000E+00  0.00000000E+00  0.00000000E+00
  0.00000000E+00  0.00000000E+00  0.00000000E+00
  0.00000000E+00  0.00000000E+00  0.00000000E+00
  0.00000000E+00  0.00000000E+00  0.00000000E+00
  0.00000000E+00  0.00000000E+00  0.00000000E+00
  0.00000000E+00  0.00000000E+00  0.00000000E+00
  0.00000000E+00  0.00000000E+00  0.00000000E+00
