Title                                   
   1.00000000000000     
     4.9440799999999996    0.0000000000000000    0.0000000000000000
     0.0000000000000000    8.5647549999999999    0.0000000000000000
     0.0000000000000000    0.0000000000000000   20.0000000000000000
    13     2     1
Selective dynamics
Direct
  0.2499921159968433  0.2093571274451943  0.0902514396813461   T   T   T
 -0.0048066681111662  0.2896941143879248  0.0923196322815221   T   T   T
  0.2512208322647043  0.0431862586852893  0.0839354924674751   T   T   T
  0.0051030943794446  0.7964678632687695  0.0966954650440702   T   T   T
  0.0009477270954439  0.9593996217765178  0.0831650394778880   T   T   T
  0.7480021272843131  0.2074417381591082  0.0855111206807590   T   T   T
  0.5024085462644986  0.2887722082029516  0.0981456416120693   T   T   T
  0.7509411635741837  0.0412011566760828  0.0801001443020828   T   T   T
  0.7552671296780538  0.7066455886721345  0.1035537271744165   T   T   T
  0.5025996191734503  0.7955627252054114  0.0981331603173998   T   T   T
  0.7529710942869874  0.5357565894091705  0.1117233126856546   T   T   T
  0.5024980642387687  0.9591498757642591  0.0846734418645846   T   T   T
  0.5159461286564745  0.4456266451440721  0.1236108100707875   T   T   T
 -0.0118371946046575  0.4474776239903019  0.1054435118158385   T   T   T
  0.2535920515453772  0.7287306762057427  0.1117534190902896   T   T   T
  0.2251541682772796  0.5455301870070708  0.1734966414338238   T   T   T
 
  0.00000000E+00  0.00000000E+00  0.00000000E+00
  0.00000000E+00  0.00000000E+00  0.00000000E+00
  0.00000000E+00  0.00000000E+00  0.00000000E+00
  0.00000000E+00  0.00000000E+00  0.00000000E+00
  0.00000000E+00  0.00000000E+00  0.00000000E+00
  0.00000000E+00  0.00000000E+00  0.00000000E+00
  0.00000000E+00  0.00000000E+00  0.00000000E+00
  0.00000000E+00  0.00000000E+00  0.00000000E+00
  0.00000000E+00  0.00000000E+00  0.00000000E+00
  0.00000000E+00  0.00000000E+00  0.00000000E+00
  0.00000000E+00  0.00000000E+00  0.00000000E+00
  0.00000000E+00  0.00000000E+00  0.00000000E+00
  0.00000000E+00  0.00000000E+00  0.00000000E+00
  0.00000000E+00  0.00000000E+00  0.00000000E+00
  0.00000000E+00  0.00000000E+00  0.00000000E+00
  0.00000000E+00  0.00000000E+00  0.00000000E+00
