Title                                   
   1.00000000000000     
     9.8694509999999998    0.0000000000000000    0.0000000000000000
     0.0000000000000000    8.5490480000000009    0.0000000000000000
     0.0000000000000000    0.0000000000000000   20.0000000000000000
    26     4     1
Selective dynamics
Direct
  0.0549594866211050  0.0876246348678698  0.0864443034265485   T   T   T
  0.9307131707806998  0.1713669597246688  0.0874619841247835   T   T   T
  0.0568738746642350  0.9212045680766048  0.0875246273516843   T   T   T
  0.9335530989489570  0.3389225549680576  0.0869654422763013   T   T   T
  0.0564304005172382  0.5903705960748835  0.0858713040069362   T   T   T
  0.0568415968550184  0.4240918079300193  0.0844248726269286   T   T   T
  0.9316272804736119  0.8382249928368111  0.0895966312212706   T   T   T
  0.3060218363110338  0.0882528748442921  0.0924888122339851   T   T   T
  0.1809002830248626  0.1707069209212667  0.0877305258307034   T   T   T
  0.1803549511170723  0.3380503095447963  0.0865858818087921   T   T   T
  0.3040763336611792  0.5875034228007093  0.0940387347263174   T   T   T
  0.1808135081669802  0.6734194342999369  0.0881164176728992   T   T   T
  0.3028581966349851  0.4189440671436157  0.0934816947405095   T   T   T
  0.1826736315993890  0.8395249343864449  0.0889951126584198   T   T   T
  0.4292673774606394  0.1760345966004959  0.0989183233365410   T   T   T
  0.5548000474928719  0.9249611287671186  0.1018126205842730   T   T   T
  0.4256852749497131  0.6738365261136852  0.1042603697007520   T   T   T
  0.4296230808428538  0.8384311105043878  0.1004250299286132   T   T   T
  0.8049346257296925  0.0886586169868882  0.0921579948067913   T   T   T
  0.6815350132823677  0.1783806088930151  0.0987745238057050   T   T   T
  0.8060013434282549  0.9210629986797633  0.0936000901893707   T   T   T
  0.6880997416649286  0.3422431603225736  0.1038767072075146   T   T   T
  0.8114219380565155  0.5922954027495653  0.0963875895524085   T   T   T
  0.6879745567619275  0.6711715871708333  0.1054613463994193   T   T   T
  0.8129469349418864  0.4215008640096596  0.0949282624795172   T   T   T
  0.6796607877418570  0.8387614317115335  0.1009719907707614   T   T   T
  0.9335524857381649  0.6727618279727837  0.0891468872078455   T   T   T
  0.5547221913372598  0.0951355335486342  0.1008020879262155   T   T   T
  0.4229923024359893  0.3362148694164332  0.1028550523298225   T   T   T
  0.3056162559738274  0.9233049269945637  0.0927005456207242   T   T   T
  0.5556033927849011  0.5079117311381104  0.1241592334476940   T   T   T
 
  0.00000000E+00  0.00000000E+00  0.00000000E+00
  0.00000000E+00  0.00000000E+00  0.00000000E+00
  0.00000000E+00  0.00000000E+00  0.00000000E+00
  0.00000000E+00  0.00000000E+00  0.00000000E+00
  0.00000000E+00  0.00000000E+00  0.00000000E+00
  0.00000000E+00  0.00000000E+00  0.00000000E+00
  0.00000000E+00  0.00000000E+00  0.00000000E+00
  0.00000000E+00  0.00000000E+00  0.00000000E+00
  0.00000000E+00  0.00000000E+00  0.00000000E+00
  0.00000000E+00  0.00000000E+00  0.00000000E+00
  0.00000000E+00  0.00000000E+00  0.00000000E+00
  0.00000000E+00  0.00000000E+00  0.00000000E+00
  0.00000000E+00  0.00000000E+00  0.00000000E+00
  0.00000000E+00  0.00000000E+00  0.00000000E+00
  0.00000000E+00  0.00000000E+00  0.00000000E+00
  0.00000000E+00  0.00000000E+00  0.00000000E+00
  0.00000000E+00  0.00000000E+00  0.00000000E+00
  0.00000000E+00  0.00000000E+00  0.00000000E+00
  0.00000000E+00  0.00000000E+00  0.00000000E+00
  0.00000000E+00  0.00000000E+00  0.00000000E+00
  0.00000000E+00  0.00000000E+00  0.00000000E+00
  0.00000000E+00  0.00000000E+00  0.00000000E+00
  0.00000000E+00  0.00000000E+00  0.00000000E+00
  0.00000000E+00  0.00000000E+00  0.00000000E+00
  0.00000000E+00  0.00000000E+00  0.00000000E+00
  0.00000000E+00  0.00000000E+00  0.00000000E+00
  0.00000000E+00  0.00000000E+00  0.00000000E+00
  0.00000000E+00  0.00000000E+00  0.00000000E+00
  0.00000000E+00  0.00000000E+00  0.00000000E+00
  0.00000000E+00  0.00000000E+00  0.00000000E+00
  0.00000000E+00  0.00000000E+00  0.00000000E+00
