Title                                   
   1.00000000000000     
     9.8694509999999998    0.0000000000000000    0.0000000000000000
     0.0000000000000000    8.5490480000000009    0.0000000000000000
     0.0000000000000000    0.0000000000000000   20.0000000000000000
    26     4     1
Selective dynamics
Direct
  0.0559207691607849  0.0902153523215604  0.0925637254485547   T   T   T
  0.9312269399302239  0.1732204227942192  0.0870594489790646   T   T   T
  0.0559028606278315  0.9221311117518650  0.0925854852630743   T   T   T
  0.9318104405862955  0.3389240292781679  0.0885877160025872   T   T   T
  0.0550602982804273  0.5894604763425652  0.0941306798799373   T   T   T
  0.9318029009103347  0.6734088736725274  0.0886144782109860   T   T   T
  0.0550513199439528  0.4228833347372671  0.0941170314010574   T   T   T
  0.9312147959545467  0.8391034069822038  0.0870910434794533   T   T   T
  0.3076434929937936  0.0907712192558119  0.1016743660991133   T   T   T
  0.1799399404287328  0.1722834251961594  0.0988306574551270   T   T   T
  0.3076371556300783  0.9215577956669618  0.1016833379544007   T   T   T
  0.1791364526824120  0.3392607928116798  0.0994035988566638   T   T   T
  0.3017515975647446  0.5892602864685694  0.1062308828847726   T   T   T
  0.1791423181107978  0.6730973680662514  0.0994316939081250   T   T   T
  0.3017389195476650  0.4230603935083460  0.1062195165174869   T   T   T
  0.1799360175119873  0.8400685888499947  0.0988520705140855   T   T   T
  0.5543110838573383  0.0926044752874432  0.0933524566759531   T   T   T
  0.4300759939517008  0.1788354810631900  0.1033713642440073   T   T   T
  0.5542997300069447  0.9196867417078046  0.0933694692165769   T   T   T
  0.4300758367976379  0.8334839712720485  0.1033918809843802   T   T   T
  0.8047025814188016  0.0895736020021844  0.0827234916484111   T   T   T
  0.6810413548790788  0.1719209615236404  0.0833733695644457   T   T   T
  0.8046833499946261  0.9227199512489377  0.0827328324495658   T   T   T
  0.8064441424625480  0.5907098079295952  0.0815004651768615   T   T   T
  0.8064467099044375  0.4215975558787267  0.0814801244190129   T   T   T
  0.6810173510256160  0.8403494317911724  0.0833989216857343   T   T   T
  0.4256888231377263  0.3446498313605381  0.1134545280081246   T   T   T
  0.4257057315314990  0.6676607774142599  0.1134658049828721   T   T   T
  0.6846262893962700  0.3353057306081935  0.0805991096468197   T   T   T
  0.6846200331200341  0.6769603325195043  0.0806354571609723   T   T   T
  0.5844807686511392  0.5061094706886092  0.1270399912818142   T   T   T
 
  0.00000000E+00  0.00000000E+00  0.00000000E+00
  0.00000000E+00  0.00000000E+00  0.00000000E+00
  0.00000000E+00  0.00000000E+00  0.00000000E+00
  0.00000000E+00  0.00000000E+00  0.00000000E+00
  0.00000000E+00  0.00000000E+00  0.00000000E+00
  0.00000000E+00  0.00000000E+00  0.00000000E+00
  0.00000000E+00  0.00000000E+00  0.00000000E+00
  0.00000000E+00  0.00000000E+00  0.00000000E+00
  0.00000000E+00  0.00000000E+00  0.00000000E+00
  0.00000000E+00  0.00000000E+00  0.00000000E+00
  0.00000000E+00  0.00000000E+00  0.00000000E+00
  0.00000000E+00  0.00000000E+00  0.00000000E+00
  0.00000000E+00  0.00000000E+00  0.00000000E+00
  0.00000000E+00  0.00000000E+00  0.00000000E+00
  0.00000000E+00  0.00000000E+00  0.00000000E+00
  0.00000000E+00  0.00000000E+00  0.00000000E+00
  0.00000000E+00  0.00000000E+00  0.00000000E+00
  0.00000000E+00  0.00000000E+00  0.00000000E+00
  0.00000000E+00  0.00000000E+00  0.00000000E+00
  0.00000000E+00  0.00000000E+00  0.00000000E+00
  0.00000000E+00  0.00000000E+00  0.00000000E+00
  0.00000000E+00  0.00000000E+00  0.00000000E+00
  0.00000000E+00  0.00000000E+00  0.00000000E+00
  0.00000000E+00  0.00000000E+00  0.00000000E+00
  0.00000000E+00  0.00000000E+00  0.00000000E+00
  0.00000000E+00  0.00000000E+00  0.00000000E+00
  0.00000000E+00  0.00000000E+00  0.00000000E+00
  0.00000000E+00  0.00000000E+00  0.00000000E+00
  0.00000000E+00  0.00000000E+00  0.00000000E+00
  0.00000000E+00  0.00000000E+00  0.00000000E+00
  0.00000000E+00  0.00000000E+00  0.00000000E+00
