Title                                   
   1.00000000000000     
     9.8694509999999998    0.0000000000000000    0.0000000000000000
     0.0000000000000000    8.5490480000000009    0.0000000000000000
     0.0000000000000000    0.0000000000000000   20.0000000000000000
    24     6     1
Selective dynamics
Direct
  0.0554644301680384  0.0898996914964514  0.0957580309307726   T   T   T
  0.9303804039648158  0.1722642356967241  0.0958994135879238   T   T   T
  0.0571038463731911  0.9221522264864758  0.0958389550162164   T   T   T
  0.9331331647063599  0.3399122117863421  0.0955995126328037   T   T   T
  0.0561389769310789  0.5907723679962844  0.0952305198020953   T   T   T
  0.0567453568199354  0.4239400473909874  0.0951615709212210   T   T   T
  0.9319280981088633  0.8398126365554054  0.0959986062244024   T   T   T
  0.3079453514888830  0.0894410318655517  0.0968953943912797   T   T   T
  0.1812019171245917  0.1715301644717278  0.0960018404834808   T   T   T
  0.1812750728296943  0.3393029976151471  0.0957497774246017   T   T   T
  0.3031830487989242  0.5897095635520693  0.0968925398160461   T   T   T
  0.1797651392075637  0.6741761691550713  0.0958672901389443   T   T   T
  0.3048028580111352  0.4215410446315501  0.0968381880633402   T   T   T
  0.1819515470880099  0.8411949409808687  0.0961481299433714   T   T   T
  0.4311256409536965  0.1770456775630662  0.0977384017480475   T   T   T
  0.5545581352645792  0.9178073993734923  0.0980339823943491   T   T   T
  0.4287853725082211  0.8332673485743982  0.0978612489299358   T   T   T
  0.8036780264178870  0.0893572533330393  0.0967283902261137   T   T   T
  0.6800439198100096  0.1786170566490513  0.0975259318167780   T   T   T
  0.8054282676264582  0.9204551656063189  0.0968076824781556   T   T   T
  0.6833930300315229  0.3460470696123334  0.0977083441470894   T   T   T
  0.8112714216825807  0.5929130892452520  0.0966330418384831   T   T   T
  0.8109330439401392  0.4239185810056503  0.0965022173634780   T   T   T
  0.6809618063349714  0.8331361023180499  0.0976902857539163   T   T   T
  0.9328176839196831  0.6734590301628789  0.0956544024078826   T   T   T
  0.5550808260325100  0.0926059454564075  0.0981025930124839   T   T   T
  0.4285329329449731  0.3413013961022862  0.0981359988423815   T   T   T
  0.6891143545606796  0.6680529835909856  0.0979725941323152   T   T   T
  0.4238579601309099  0.6721128306103387  0.0982417825408774   T   T   T
  0.3062195062398272  0.9223997431022680  0.0970078438712493   T   T   T
  0.5563138599802756  0.5027289980135397  0.0987404891200007   T   T   T
 
  0.00000000E+00  0.00000000E+00  0.00000000E+00
  0.00000000E+00  0.00000000E+00  0.00000000E+00
  0.00000000E+00  0.00000000E+00  0.00000000E+00
  0.00000000E+00  0.00000000E+00  0.00000000E+00
  0.00000000E+00  0.00000000E+00  0.00000000E+00
  0.00000000E+00  0.00000000E+00  0.00000000E+00
  0.00000000E+00  0.00000000E+00  0.00000000E+00
  0.00000000E+00  0.00000000E+00  0.00000000E+00
  0.00000000E+00  0.00000000E+00  0.00000000E+00
  0.00000000E+00  0.00000000E+00  0.00000000E+00
  0.00000000E+00  0.00000000E+00  0.00000000E+00
  0.00000000E+00  0.00000000E+00  0.00000000E+00
  0.00000000E+00  0.00000000E+00  0.00000000E+00
  0.00000000E+00  0.00000000E+00  0.00000000E+00
  0.00000000E+00  0.00000000E+00  0.00000000E+00
  0.00000000E+00  0.00000000E+00  0.00000000E+00
  0.00000000E+00  0.00000000E+00  0.00000000E+00
  0.00000000E+00  0.00000000E+00  0.00000000E+00
  0.00000000E+00  0.00000000E+00  0.00000000E+00
  0.00000000E+00  0.00000000E+00  0.00000000E+00
  0.00000000E+00  0.00000000E+00  0.00000000E+00
  0.00000000E+00  0.00000000E+00  0.00000000E+00
  0.00000000E+00  0.00000000E+00  0.00000000E+00
  0.00000000E+00  0.00000000E+00  0.00000000E+00
  0.00000000E+00  0.00000000E+00  0.00000000E+00
  0.00000000E+00  0.00000000E+00  0.00000000E+00
  0.00000000E+00  0.00000000E+00  0.00000000E+00
  0.00000000E+00  0.00000000E+00  0.00000000E+00
  0.00000000E+00  0.00000000E+00  0.00000000E+00
  0.00000000E+00  0.00000000E+00  0.00000000E+00
  0.00000000E+00  0.00000000E+00  0.00000000E+00
