Title                                   
   1.00000000000000     
     9.8694509999999998    0.0000000000000000    0.0000000000000000
     0.0000000000000000    8.5490480000000009    0.0000000000000000
     0.0000000000000000    0.0000000000000000   20.0000000000000000
    28     2     1
Selective dynamics
Direct
  0.0562562530503060  0.0891740580174459  0.0905292225275248   T   T   T
  0.9313511927951554  0.1718710762911040  0.0946983732811869   T   T   T
  0.0574871125537032  0.9235671436806264  0.0906924433034363   T   T   T
  0.9330735603016995  0.3392233140725683  0.0966698723344310   T   T   T
  0.0577788251959674  0.5900490851028696  0.0934493335087381   T   T   T
  0.9333338641221047  0.6729594711474809  0.0971349556113942   T   T   T
  0.0577044975783847  0.4225575070405053  0.0930661020968576   T   T   T
  0.9321351074038535  0.8401290487739166  0.0951209657821691   T   T   T
  0.3082222920027372  0.0876620350491946  0.0849344757018166   T   T   T
  0.1829349756084880  0.1715275364114339  0.0874801250130908   T   T   T
  0.1812417002758025  0.3380941263898705  0.0888049301406425   T   T   T
  0.3061033521732014  0.5902594292839420  0.0849877435462211   T   T   T
  0.1819416308435542  0.6741743313674065  0.0895754026241474   T   T   T
  0.3057686041071826  0.4206672605499214  0.0847142814150103   T   T   T
  0.1829862000613738  0.8403250459789706  0.0881044300122205   T   T   T
  0.4342603758789270  0.1713384242557801  0.0861620869519063   T   T   T
  0.5566030147510408  0.9239259014553874  0.0953033764199798   T   T   T
  0.4306911678882789  0.3360959748082135  0.0859349334170435   T   T   T
  0.4298582203815494  0.6762036036084776  0.0860258739243188   T   T   T
  0.4322082195235064  0.8415643154632809  0.0870501083375318   T   T   T
  0.8046573298776644  0.0895849442891506  0.0968252218908835   T   T   T
  0.6798804808097627  0.1782585339144117  0.1005190377965137   T   T   T
  0.8057274949155421  0.9219734773332511  0.0973241712478294   T   T   T
  0.6823872584604025  0.3446931105817779  0.1098230056924592   T   T   T
  0.8106922832087077  0.5899013278894716  0.1042865658354246   T   T   T
  0.6834353279461356  0.6670552555811768  0.1109184545351211   T   T   T
  0.8106160751078203  0.4217033630130657  0.1039326468674439   T   T   T
  0.6798531469530187  0.8349999038671628  0.1018096452626259   T   T   T
  0.5581766168739121  0.0907483739868129  0.0943791053540742   T   T   T
  0.3067418498827208  0.9234331481412602  0.0850420321726511   T   T   T
  0.5290269694674995  0.5071548726540809  0.1356660773953336   T   T   T
 
  0.00000000E+00  0.00000000E+00  0.00000000E+00
  0.00000000E+00  0.00000000E+00  0.00000000E+00
  0.00000000E+00  0.00000000E+00  0.00000000E+00
  0.00000000E+00  0.00000000E+00  0.00000000E+00
  0.00000000E+00  0.00000000E+00  0.00000000E+00
  0.00000000E+00  0.00000000E+00  0.00000000E+00
  0.00000000E+00  0.00000000E+00  0.00000000E+00
  0.00000000E+00  0.00000000E+00  0.00000000E+00
  0.00000000E+00  0.00000000E+00  0.00000000E+00
  0.00000000E+00  0.00000000E+00  0.00000000E+00
  0.00000000E+00  0.00000000E+00  0.00000000E+00
  0.00000000E+00  0.00000000E+00  0.00000000E+00
  0.00000000E+00  0.00000000E+00  0.00000000E+00
  0.00000000E+00  0.00000000E+00  0.00000000E+00
  0.00000000E+00  0.00000000E+00  0.00000000E+00
  0.00000000E+00  0.00000000E+00  0.00000000E+00
  0.00000000E+00  0.00000000E+00  0.00000000E+00
  0.00000000E+00  0.00000000E+00  0.00000000E+00
  0.00000000E+00  0.00000000E+00  0.00000000E+00
  0.00000000E+00  0.00000000E+00  0.00000000E+00
  0.00000000E+00  0.00000000E+00  0.00000000E+00
  0.00000000E+00  0.00000000E+00  0.00000000E+00
  0.00000000E+00  0.00000000E+00  0.00000000E+00
  0.00000000E+00  0.00000000E+00  0.00000000E+00
  0.00000000E+00  0.00000000E+00  0.00000000E+00
  0.00000000E+00  0.00000000E+00  0.00000000E+00
  0.00000000E+00  0.00000000E+00  0.00000000E+00
  0.00000000E+00  0.00000000E+00  0.00000000E+00
  0.00000000E+00  0.00000000E+00  0.00000000E+00
  0.00000000E+00  0.00000000E+00  0.00000000E+00
  0.00000000E+00  0.00000000E+00  0.00000000E+00
