Title                                   
   1.00000000000000     
     9.8694509999999998    0.0000000000000000    0.0000000000000000
     0.0000000000000000    8.5490480000000009    0.0000000000000000
     0.0000000000000000    0.0000000000000000   20.0000000000000000
    24     6     1
Selective dynamics
Direct
  0.0560059610620378  0.0900909917869686  0.0954043651644464   T   T   T
  0.9313856525296006  0.1722184255090805  0.0958419233032892   T   T   T
  0.0574151325120770  0.9224482811427932  0.0954627183697833   T   T   T
  0.9327434311928462  0.3393683120312452  0.0954108111403677   T   T   T
  0.0565791065426054  0.5894520330608876  0.0944219978400104   T   T   T
  0.9328969451932392  0.6723019494572143  0.0952908219054766   T   T   T
  0.0567087803943062  0.4226324606049972  0.0944682851691063   T   T   T
  0.9318125600966898  0.8395278551821211  0.0957448499983252   T   T   T
  0.3078003715844256  0.0884651241397682  0.0966839802940969   T   T   T
  0.1815996743736238  0.1717284318186446  0.0955459014676297   T   T   T
  0.1803244152426996  0.3385295385608804  0.0951062907849149   T   T   T
  0.3036591776169519  0.5903654675390339  0.0966323793963610   T   T   T
  0.1804989616993893  0.6732648001644864  0.0950850958889361   T   T   T
  0.3042362371618890  0.4213907871231196  0.0964460478675598   T   T   T
  0.1810056695830363  0.8400077857873712  0.0956644384198443   T   T   T
  0.4295818704382353  0.1770739941882284  0.0978865541247532   T   T   T
  0.5549203316852991  0.9196931789965662  0.0984625700099461   T   T   T
  0.4289383627310970  0.8357897477178551  0.0982595776699397   T   T   T
  0.8046402243244092  0.0892687558595883  0.0969580949431460   T   T   T
  0.6824522852312219  0.1786708604757557  0.0982257584853344   T   T   T
  0.8060370361493169  0.9217621618706852  0.0968479941084785   T   T   T
  0.8088298820983393  0.5906620329888210  0.0966954769440120   T   T   T
  0.8088080669920480  0.4207176843837981  0.0968741032677996   T   T   T
  0.6819567346639979  0.8342628238760511  0.0979757924401553   T   T   T
  0.5565247065345135  0.0959788753924214  0.0986152732146561   T   T   T
  0.4240968932382257  0.3377699080504559  0.0979165692307700   T   T   T
  0.4227702857366158  0.6760149486584275  0.0992927167983946   T   T   T
  0.6880367373817895  0.3386449335354050  0.0988348859353400   T   T   T
  0.6887887068096508  0.6725963264973622  0.0982507984669478   T   T   T
  0.3062733488327780  0.9222869960993098  0.0966519933159417   T   T   T
  0.5558084503670431  0.5078895275006541  0.1000069340342948   T   T   T
 
  0.00000000E+00  0.00000000E+00  0.00000000E+00
  0.00000000E+00  0.00000000E+00  0.00000000E+00
  0.00000000E+00  0.00000000E+00  0.00000000E+00
  0.00000000E+00  0.00000000E+00  0.00000000E+00
  0.00000000E+00  0.00000000E+00  0.00000000E+00
  0.00000000E+00  0.00000000E+00  0.00000000E+00
  0.00000000E+00  0.00000000E+00  0.00000000E+00
  0.00000000E+00  0.00000000E+00  0.00000000E+00
  0.00000000E+00  0.00000000E+00  0.00000000E+00
  0.00000000E+00  0.00000000E+00  0.00000000E+00
  0.00000000E+00  0.00000000E+00  0.00000000E+00
  0.00000000E+00  0.00000000E+00  0.00000000E+00
  0.00000000E+00  0.00000000E+00  0.00000000E+00
  0.00000000E+00  0.00000000E+00  0.00000000E+00
  0.00000000E+00  0.00000000E+00  0.00000000E+00
  0.00000000E+00  0.00000000E+00  0.00000000E+00
  0.00000000E+00  0.00000000E+00  0.00000000E+00
  0.00000000E+00  0.00000000E+00  0.00000000E+00
  0.00000000E+00  0.00000000E+00  0.00000000E+00
  0.00000000E+00  0.00000000E+00  0.00000000E+00
  0.00000000E+00  0.00000000E+00  0.00000000E+00
  0.00000000E+00  0.00000000E+00  0.00000000E+00
  0.00000000E+00  0.00000000E+00  0.00000000E+00
  0.00000000E+00  0.00000000E+00  0.00000000E+00
  0.00000000E+00  0.00000000E+00  0.00000000E+00
  0.00000000E+00  0.00000000E+00  0.00000000E+00
  0.00000000E+00  0.00000000E+00  0.00000000E+00
  0.00000000E+00  0.00000000E+00  0.00000000E+00
  0.00000000E+00  0.00000000E+00  0.00000000E+00
  0.00000000E+00  0.00000000E+00  0.00000000E+00
  0.00000000E+00  0.00000000E+00  0.00000000E+00
