Title                                   
   1.00000000000000     
     4.9440799999999996    0.0000000000000000    0.0000000000000000
     0.0000000000000000   17.1295089999999988    0.0000000000000000
     0.0000000000000000    0.0000000000000000   20.0000000000000000
    28     2     1
Selective dynamics
Direct
 -0.0037934775310537  0.1054726268588567  0.2941179394726816   T   T   T
  0.2442210750344602  0.1479890329734947  0.2952305662406375   T   T   T
  0.2418350836447466  0.2319644636478113  0.2988167449132341   T   T   T
 -0.0088941467501632  0.2743708244471820  0.3012854129685030   T   T   T
  0.0091674767298443  0.6012620184631299  0.2998022827485278   T   T   T
  0.2564785734160610  0.7269484625016001  0.2957228628613052   T   T   T
  0.0025770938742717  0.8532058709996652  0.2933798304295152   T   T   T
  0.2515542374566785  0.8954685002890733  0.2932206819381781   T   T   T
  0.2491144399517002  0.9794450896721172  0.2930904650415433   T   T   T
  0.0051830629978039  0.7691071146149723  0.2943860844079648   T   T   T
  0.4954989192589584  0.1058169425056194  0.2939608447689216   T   T   T
  0.7458816417600547  0.1476623832476179  0.2946189251206940   T   T   T
  0.7429820236399364  0.2315399799585639  0.2973960120428745   T   T   T
  0.4980883901640213  0.0217304886227244  0.2930984558277294   T   T   T
  0.7445559211212863  0.3948491728409934  0.3073717219452842   T   T   T
  0.7562208851524809  0.4800661143190416  0.3074235784181874   T   T   T
  0.4915636867234910  0.2736689287817440  0.2997174166686014   T   T   T
  0.5096430115342787  0.6005591853635920  0.3017687019077605   T   T   T
  0.7548077684359837  0.7272592188060191  0.2951103537413357   T   T   T
  0.5022083074650473  0.8533953493187209  0.2934790301598345   T   T   T
  0.7516127546713103  0.8954418011176514  0.2931152396617749   T   T   T
  0.7490182278445106  0.9794955051282060  0.2929746910708328   T   T   T
  0.5045418521674953  0.7694560622134290  0.2945989381698845   T   T   T
  0.7577267423387541  0.6433903109148483  0.2977768043651172   T   T   T
  0.2589194574766887  0.6429640136435503  0.2992001160890873   T   T   T
 -0.0014886682637739  0.0215290008034799  0.2931742871030055   T   T   T
  0.0042948444832941  0.5186025762465201  0.3039708306279513   T   T   T
  0.4963007727045375  0.3563036680983948  0.3044581231769174   T   T   T
  0.5114383647973093  0.5200072894783054  0.3093571342158244   T   T   T
 -0.0106519572191270  0.3549152613583153  0.3086003438582181   T   T   T
  0.2494006349191153  0.4374547427647573  0.3448355800380248   T   T   T
 
  0.00000000E+00  0.00000000E+00  0.00000000E+00
  0.00000000E+00  0.00000000E+00  0.00000000E+00
  0.00000000E+00  0.00000000E+00  0.00000000E+00
  0.00000000E+00  0.00000000E+00  0.00000000E+00
  0.00000000E+00  0.00000000E+00  0.00000000E+00
  0.00000000E+00  0.00000000E+00  0.00000000E+00
  0.00000000E+00  0.00000000E+00  0.00000000E+00
  0.00000000E+00  0.00000000E+00  0.00000000E+00
  0.00000000E+00  0.00000000E+00  0.00000000E+00
  0.00000000E+00  0.00000000E+00  0.00000000E+00
  0.00000000E+00  0.00000000E+00  0.00000000E+00
  0.00000000E+00  0.00000000E+00  0.00000000E+00
  0.00000000E+00  0.00000000E+00  0.00000000E+00
  0.00000000E+00  0.00000000E+00  0.00000000E+00
  0.00000000E+00  0.00000000E+00  0.00000000E+00
  0.00000000E+00  0.00000000E+00  0.00000000E+00
  0.00000000E+00  0.00000000E+00  0.00000000E+00
  0.00000000E+00  0.00000000E+00  0.00000000E+00
  0.00000000E+00  0.00000000E+00  0.00000000E+00
  0.00000000E+00  0.00000000E+00  0.00000000E+00
  0.00000000E+00  0.00000000E+00  0.00000000E+00
  0.00000000E+00  0.00000000E+00  0.00000000E+00
  0.00000000E+00  0.00000000E+00  0.00000000E+00
  0.00000000E+00  0.00000000E+00  0.00000000E+00
  0.00000000E+00  0.00000000E+00  0.00000000E+00
  0.00000000E+00  0.00000000E+00  0.00000000E+00
  0.00000000E+00  0.00000000E+00  0.00000000E+00
  0.00000000E+00  0.00000000E+00  0.00000000E+00
  0.00000000E+00  0.00000000E+00  0.00000000E+00
  0.00000000E+00  0.00000000E+00  0.00000000E+00
  0.00000000E+00  0.00000000E+00  0.00000000E+00
