Title                                   
   1.00000000000000     
     9.8694509999999998    0.0000000000000000    0.0000000000000000
     0.0000000000000000    8.5490480000000009    0.0000000000000000
     0.0000000000000000    0.0000000000000000   20.0000000000000000
    27     4     1
Selective dynamics
Direct
  0.0558798943611538  0.0919409229697400  0.0882515548270773   T   T   T
  0.9297110048959084  0.1751968761807163  0.0891798465492300   T   T   T
  0.0568091777662224  0.9235052481874224  0.0865824043038276   T   T   T
  0.9293737939867462  0.3420696151132431  0.0918285684026433   T   T   T
  0.0564378487074524  0.5902073036915289  0.0901517079861307   T   T   T
  0.9321859703789883  0.6725866236001998  0.0879232702443346   T   T   T
  0.0552861308156974  0.4227560791810835  0.0929971610948265   T   T   T
  0.9319723184659656  0.8401558182982354  0.0860645650581058   T   T   T
  0.3057224172096162  0.0878711305437739  0.0899632173048378   T   T   T
  0.1818779862203209  0.1733803980068178  0.0911363881519774   T   T   T
  0.3075232469788177  0.9220027581874043  0.0897752906520508   T   T   T
  0.1811627018074967  0.3396405558879413  0.0957622125330418   T   T   T
  0.3055730404457312  0.5884994361112190  0.1025396066467887   T   T   T
  0.1811418933590470  0.6708487162478638  0.0912970701142414   T   T   T
  0.1822537227399013  0.8385077992847253  0.0887363833609278   T   T   T
  0.5567204997564595  0.0867482924803688  0.0930060156076358   T   T   T
  0.4309059381064294  0.1697326105516504  0.0944634770330886   T   T   T
  0.4308027541251769  0.3353986948718155  0.1046889169615941   T   T   T
  0.4313197555755033  0.8370374394283105  0.0980950590400077   T   T   T
  0.8064836829559250  0.0901593953174880  0.0874250448116726   T   T   T
  0.6803802158008243  0.1718749860466352  0.0913291447334446   T   T   T
  0.8064698444905972  0.9246463513357117  0.0865500222656957   T   T   T
  0.6784051725032288  0.3385979373789241  0.0995711229646000   T   T   T
  0.8054354351570951  0.5942021795940529  0.0903298976557441   T   T   T
  0.6847146530410340  0.8372787088045136  0.0894352276813857   T   T   T
  0.4225209457545573  0.6763849441231535  0.1165626523729145   T   T   T
  0.5546598760622620  0.4110667548445463  0.1181249536041917   T   T   T
  0.6877744677245475  0.6773483900445154  0.0909550572078616   T   T   T
  0.5574859521376924  0.9180360296645588  0.0931361070235356   T   T   T
  0.3051184579553594  0.4209676621902376  0.1031876487717578   T   T   T
  0.8030531260999088  0.4257528143295256  0.0938117570315026   T   T   T
  0.5644770746143400  0.5958435275020786  0.1728136480033419   T   T   T
 
  0.00000000E+00  0.00000000E+00  0.00000000E+00
  0.00000000E+00  0.00000000E+00  0.00000000E+00
  0.00000000E+00  0.00000000E+00  0.00000000E+00
  0.00000000E+00  0.00000000E+00  0.00000000E+00
  0.00000000E+00  0.00000000E+00  0.00000000E+00
  0.00000000E+00  0.00000000E+00  0.00000000E+00
  0.00000000E+00  0.00000000E+00  0.00000000E+00
  0.00000000E+00  0.00000000E+00  0.00000000E+00
  0.00000000E+00  0.00000000E+00  0.00000000E+00
  0.00000000E+00  0.00000000E+00  0.00000000E+00
  0.00000000E+00  0.00000000E+00  0.00000000E+00
  0.00000000E+00  0.00000000E+00  0.00000000E+00
  0.00000000E+00  0.00000000E+00  0.00000000E+00
  0.00000000E+00  0.00000000E+00  0.00000000E+00
  0.00000000E+00  0.00000000E+00  0.00000000E+00
  0.00000000E+00  0.00000000E+00  0.00000000E+00
  0.00000000E+00  0.00000000E+00  0.00000000E+00
  0.00000000E+00  0.00000000E+00  0.00000000E+00
  0.00000000E+00  0.00000000E+00  0.00000000E+00
  0.00000000E+00  0.00000000E+00  0.00000000E+00
  0.00000000E+00  0.00000000E+00  0.00000000E+00
  0.00000000E+00  0.00000000E+00  0.00000000E+00
  0.00000000E+00  0.00000000E+00  0.00000000E+00
  0.00000000E+00  0.00000000E+00  0.00000000E+00
  0.00000000E+00  0.00000000E+00  0.00000000E+00
  0.00000000E+00  0.00000000E+00  0.00000000E+00
  0.00000000E+00  0.00000000E+00  0.00000000E+00
  0.00000000E+00  0.00000000E+00  0.00000000E+00
  0.00000000E+00  0.00000000E+00  0.00000000E+00
  0.00000000E+00  0.00000000E+00  0.00000000E+00
  0.00000000E+00  0.00000000E+00  0.00000000E+00
  0.00000000E+00  0.00000000E+00  0.00000000E+00
