Title                                   
   1.00000000000000     
     4.9440799999999996    0.0000000000000000    0.0000000000000000
     0.0000000000000000   17.1295089999999988    0.0000000000000000
     0.0000000000000000    0.0000000000000000   20.0000000000000000
    27     3     1
Selective dynamics
Direct
 -0.0002617059230591  0.1044564315951695  0.2998725714757146   T   T   T
  0.2482301220487532  0.1474702972286377  0.2996813061538084   T   T   T
  0.2482546713767468  0.2311331752363369  0.2995422726670898   T   T   T
 -0.0039476751419187  0.2737807379353929  0.3015286971459186   T   T   T
 -0.0002043937488840  0.6036587043603269  0.3038847386537514   T   T   T
  0.2525640919431806  0.7266341738550720  0.2985884691459946   T   T   T
  0.0021868120614115  0.8529928508486296  0.2983266408864726   T   T   T
  0.2507313144130533  0.8953423947997926  0.2981737254158479   T   T   T
  0.2503804024755522  0.9790092836152166  0.2987420757054260   T   T   T
  0.0025095250639941  0.7688803441639266  0.2987854520013440   T   T   T
  0.4993490016451446  0.1050346918392053  0.2990790928181736   T   T   T
  0.7504312648576783  0.1462672724561385  0.2994431130784753   T   T   T
  0.7491875273436491  0.2299570068414530  0.2990131190159171   T   T   T
  0.4998762116104774  0.0210942896345855  0.2987920931235052   T   T   T
  0.7478546859850751  0.3936410195199598  0.3000361080788457   T   T   T
  0.7514472437590387  0.4830453286822604  0.3021754184565700   T   T   T
  0.5006728578619984  0.2715389601998687  0.2966238939397167   T   T   T
  0.5045301329023271  0.6017758754406239  0.2985193958030850   T   T   T
  0.7504674221532099  0.7285416998707469  0.2989029541991010   T   T   T
  0.4996327021702519  0.8532685794784214  0.2978566950071688   T   T   T
  0.7506792007505554  0.8947929695464054  0.2982219687449568   T   T   T
  0.7501183839886160  0.9788340665530358  0.2987324893225447   T   T   T
  0.5001232356210028  0.7692670584873567  0.2979243856393041   T   T   T
  0.7520762214074892  0.6457040746387804  0.3006486804807613   T   T   T
  0.0001999155743143  0.0208641731469659  0.2992618201323006   T   T   T
  0.9912045261704185  0.5227102207521421  0.3092890637908066   T   T   T
  0.5109042353195984  0.3537511953635927  0.2926494524829357   T   T   T
  0.5138633798990754  0.5227047413330527  0.2951642871418893   T   T   T
 -0.0154884270587808  0.3538704754913861  0.3055119233115855   T   T   T
  0.2529795938848818  0.6438169888895093  0.2997798062640115   T   T   T
  0.2494545195851508  0.4375029181960057  0.3003082899169287   T   T   T
 
  0.00000000E+00  0.00000000E+00  0.00000000E+00
  0.00000000E+00  0.00000000E+00  0.00000000E+00
  0.00000000E+00  0.00000000E+00  0.00000000E+00
  0.00000000E+00  0.00000000E+00  0.00000000E+00
  0.00000000E+00  0.00000000E+00  0.00000000E+00
  0.00000000E+00  0.00000000E+00  0.00000000E+00
  0.00000000E+00  0.00000000E+00  0.00000000E+00
  0.00000000E+00  0.00000000E+00  0.00000000E+00
  0.00000000E+00  0.00000000E+00  0.00000000E+00
  0.00000000E+00  0.00000000E+00  0.00000000E+00
  0.00000000E+00  0.00000000E+00  0.00000000E+00
  0.00000000E+00  0.00000000E+00  0.00000000E+00
  0.00000000E+00  0.00000000E+00  0.00000000E+00
  0.00000000E+00  0.00000000E+00  0.00000000E+00
  0.00000000E+00  0.00000000E+00  0.00000000E+00
  0.00000000E+00  0.00000000E+00  0.00000000E+00
  0.00000000E+00  0.00000000E+00  0.00000000E+00
  0.00000000E+00  0.00000000E+00  0.00000000E+00
  0.00000000E+00  0.00000000E+00  0.00000000E+00
  0.00000000E+00  0.00000000E+00  0.00000000E+00
  0.00000000E+00  0.00000000E+00  0.00000000E+00
  0.00000000E+00  0.00000000E+00  0.00000000E+00
  0.00000000E+00  0.00000000E+00  0.00000000E+00
  0.00000000E+00  0.00000000E+00  0.00000000E+00
  0.00000000E+00  0.00000000E+00  0.00000000E+00
  0.00000000E+00  0.00000000E+00  0.00000000E+00
  0.00000000E+00  0.00000000E+00  0.00000000E+00
  0.00000000E+00  0.00000000E+00  0.00000000E+00
  0.00000000E+00  0.00000000E+00  0.00000000E+00
  0.00000000E+00  0.00000000E+00  0.00000000E+00
  0.00000000E+00  0.00000000E+00  0.00000000E+00
