Title                                   
   1.00000000000000     
     4.9440799999999996    0.0000000000000000    0.0000000000000000
     0.0000000000000000   17.1295089999999988    0.0000000000000000
     0.0000000000000000    0.0000000000000000   20.0000000000000000
    28     3     1
Selective dynamics
Direct
 -0.0001392151485413  0.1043401853474846  0.2864789286850912   T   T   T
  0.2498071509362402  0.1461217419598071  0.2894552084282720   T   T   T
  0.2498538702393638  0.2292637494458782  0.2976716464690574   T   T   T
  0.0034633457607760  0.3524918860502702  0.3166367686920792   T   T   T
 -0.0009928861132549  0.2706003822259566  0.3021263737277640   T   T   T
 -0.0050626510922637  0.6035655449075374  0.3064688393013792   T   T   T
  0.2499586129697141  0.7274166033156418  0.2930275536981308   T   T   T
  0.0004934693677635  0.8534318333161486  0.2845979748360538   T   T   T
  0.2498411797840199  0.8954691992485129  0.2835904634003468   T   T   T
  0.2497900355010806  0.9790611553347339  0.2829521770222339   T   T   T
  0.0009468066195174  0.7699747504976958  0.2887913427784287   T   T   T
  0.4997484292754830  0.1043385613948934  0.2864756886723659   T   T   T
  0.7498114818875121  0.1462333973605822  0.2886943713133763   T   T   T
  0.7498545021035236  0.2291563731439392  0.2959238959947425   T   T   T
  0.4997919375439026  0.0208767065757220  0.2833863183966196   T   T   T
  0.4963713469493335  0.3524949001586420  0.3166362031676517   T   T   T
  0.7499390609196160  0.3978923938029103  0.3205685178268342   T   T   T
  0.7500087706151030  0.4842225674314380  0.3187253190325250   T   T   T
  0.5007388708919887  0.2705999487386079  0.3021272976102463   T   T   T
  0.5051007624442487  0.6035661892219288  0.3064752525257485   T   T   T
  0.7499494655545641  0.7288646998245067  0.2907742162019244   T   T   T
  0.4992330391964686  0.8534357924453108  0.2845995780121441   T   T   T
  0.7498443352684883  0.8952682188968294  0.2832376620166129   T   T   T
  0.7497943182801361  0.9788192613623432  0.2827057543346038   T   T   T
  0.4989203332600891  0.7699768694926918  0.2887912837625228   T   T   T
  0.7500088265858977  0.6463125815682704  0.2981574996243230   T   T   T
  0.2500104892216636  0.6439644703681930  0.3029056491956461   T   T   T
 -0.0002364171899109  0.0208775501282731  0.2833851626654469   T   T   T
  0.5131115918879301  0.5250542443406480  0.3190503811665248   T   T   T
  0.9869332378522319  0.5250459346047951  0.3190294172835929   T   T   T
  0.2499216223784285  0.3867306034396703  0.3289077904489461   T   T   T
  0.2500072762488926  0.4830827040501294  0.3902104637087166   T   T   T
 
  0.00000000E+00  0.00000000E+00  0.00000000E+00
  0.00000000E+00  0.00000000E+00  0.00000000E+00
  0.00000000E+00  0.00000000E+00  0.00000000E+00
  0.00000000E+00  0.00000000E+00  0.00000000E+00
  0.00000000E+00  0.00000000E+00  0.00000000E+00
  0.00000000E+00  0.00000000E+00  0.00000000E+00
  0.00000000E+00  0.00000000E+00  0.00000000E+00
  0.00000000E+00  0.00000000E+00  0.00000000E+00
  0.00000000E+00  0.00000000E+00  0.00000000E+00
  0.00000000E+00  0.00000000E+00  0.00000000E+00
  0.00000000E+00  0.00000000E+00  0.00000000E+00
  0.00000000E+00  0.00000000E+00  0.00000000E+00
  0.00000000E+00  0.00000000E+00  0.00000000E+00
  0.00000000E+00  0.00000000E+00  0.00000000E+00
  0.00000000E+00  0.00000000E+00  0.00000000E+00
  0.00000000E+00  0.00000000E+00  0.00000000E+00
  0.00000000E+00  0.00000000E+00  0.00000000E+00
  0.00000000E+00  0.00000000E+00  0.00000000E+00
  0.00000000E+00  0.00000000E+00  0.00000000E+00
  0.00000000E+00  0.00000000E+00  0.00000000E+00
  0.00000000E+00  0.00000000E+00  0.00000000E+00
  0.00000000E+00  0.00000000E+00  0.00000000E+00
  0.00000000E+00  0.00000000E+00  0.00000000E+00
  0.00000000E+00  0.00000000E+00  0.00000000E+00
  0.00000000E+00  0.00000000E+00  0.00000000E+00
  0.00000000E+00  0.00000000E+00  0.00000000E+00
  0.00000000E+00  0.00000000E+00  0.00000000E+00
  0.00000000E+00  0.00000000E+00  0.00000000E+00
  0.00000000E+00  0.00000000E+00  0.00000000E+00
  0.00000000E+00  0.00000000E+00  0.00000000E+00
  0.00000000E+00  0.00000000E+00  0.00000000E+00
  0.00000000E+00  0.00000000E+00  0.00000000E+00
