Title                                   
   1.00000000000000     
     4.9440799999999996    0.0000000000000000    0.0000000000000000
     0.0000000000000000   17.1295089999999988    0.0000000000000000
     0.0000000000000000    0.0000000000000000   20.0000000000000000
    27     3     1
Selective dynamics
Direct
  0.0029396785202437  0.1058007983305663  0.2914277958039220   T   T   T
  0.2523602898551762  0.1483289944899411  0.2936945424191456   T   T   T
  0.2531228611253245  0.2327642640995405  0.2989551745890922   T   T   T
  0.0006140355781893  0.2735151480119526  0.2998145751766615   T   T   T
 -0.0046296169957326  0.6012048402425878  0.3014743095411456   T   T   T
  0.2476485501218109  0.7270096449689766  0.2944701926675710   T   T   T
 -0.0000179992719372  0.8535932370623945  0.2897373421169630   T   T   T
  0.2499479774639359  0.8956470931567824  0.2894745632796584   T   T   T
  0.2508185016927685  0.9795521181410152  0.2894061071438848   T   T   T
 -0.0007726704147128  0.7697162041217833  0.2917870630844201   T   T   T
  0.5008615027230805  0.1056795116376457  0.2917339084368445   T   T   T
  0.7519471263905715  0.1474659863009201  0.2924690905442017   T   T   T
  0.7527624454408581  0.2307461884648381  0.2962293385309070   T   T   T
  0.5005977020299753  0.0217536853057163  0.2897877660346775   T   T   T
  0.7555087600684286  0.3929532905736871  0.3099648155309714   T   T   T
  0.7522917124762500  0.4798431810164372  0.3110913053512502   T   T   T
  0.5059927137761098  0.2741672014340113  0.3022045563299512   T   T   T
  0.4987522838917365  0.6015207091279851  0.3034236925175889   T   T   T
  0.7492457181506437  0.7277301851798803  0.2929320412837723   T   T   T
  0.4993028179285580  0.8533806840268860  0.2899283270840247   T   T   T
  0.7499449837943540  0.8956493349090570  0.2891631611276453   T   T   T
  0.7508491143893311  0.9796960748034431  0.2891254483053771   T   T   T
  0.4982618585430888  0.7694420223248278  0.2921613740923645   T   T   T
  0.7482017912171062  0.6441199301389786  0.2969471597351844   T   T   T
  0.2468877284048405  0.6433227008099685  0.3004694392251980   T   T   T
  0.0016390358794570  0.0217974492427798  0.2896168753613207   T   T   T
  0.5061119818960547  0.5201168035859862  0.3147373260843806   T   T   T
  0.9945842785605428  0.5208089564602775  0.3082883169663901   T   T   T
  0.5138969648349664  0.3534324492946602  0.3126564264971193   T   T   T
 -0.0050981025335274  0.3535217123581060  0.3057137141896759   T   T   T
  0.2354329744625104  0.4370616003783622  0.3661742509486426   T   T   T
 
  0.00000000E+00  0.00000000E+00  0.00000000E+00
  0.00000000E+00  0.00000000E+00  0.00000000E+00
  0.00000000E+00  0.00000000E+00  0.00000000E+00
  0.00000000E+00  0.00000000E+00  0.00000000E+00
  0.00000000E+00  0.00000000E+00  0.00000000E+00
  0.00000000E+00  0.00000000E+00  0.00000000E+00
  0.00000000E+00  0.00000000E+00  0.00000000E+00
  0.00000000E+00  0.00000000E+00  0.00000000E+00
  0.00000000E+00  0.00000000E+00  0.00000000E+00
  0.00000000E+00  0.00000000E+00  0.00000000E+00
  0.00000000E+00  0.00000000E+00  0.00000000E+00
  0.00000000E+00  0.00000000E+00  0.00000000E+00
  0.00000000E+00  0.00000000E+00  0.00000000E+00
  0.00000000E+00  0.00000000E+00  0.00000000E+00
  0.00000000E+00  0.00000000E+00  0.00000000E+00
  0.00000000E+00  0.00000000E+00  0.00000000E+00
  0.00000000E+00  0.00000000E+00  0.00000000E+00
  0.00000000E+00  0.00000000E+00  0.00000000E+00
  0.00000000E+00  0.00000000E+00  0.00000000E+00
  0.00000000E+00  0.00000000E+00  0.00000000E+00
  0.00000000E+00  0.00000000E+00  0.00000000E+00
  0.00000000E+00  0.00000000E+00  0.00000000E+00
  0.00000000E+00  0.00000000E+00  0.00000000E+00
  0.00000000E+00  0.00000000E+00  0.00000000E+00
  0.00000000E+00  0.00000000E+00  0.00000000E+00
  0.00000000E+00  0.00000000E+00  0.00000000E+00
  0.00000000E+00  0.00000000E+00  0.00000000E+00
  0.00000000E+00  0.00000000E+00  0.00000000E+00
  0.00000000E+00  0.00000000E+00  0.00000000E+00
  0.00000000E+00  0.00000000E+00  0.00000000E+00
  0.00000000E+00  0.00000000E+00  0.00000000E+00
