Title                                   
   1.00000000000000     
     4.9440799999999996    0.0000000000000000    0.0000000000000000
     0.0000000000000000    8.5647549999999999    0.0000000000000000
     0.0000000000000000    0.0000000000000000   20.0000000000000000
    12     3     1
Selective dynamics
Direct
  0.2500000000000000  0.2120031865468457  0.0913892269270036   T   T   T
 -0.0047246585559309  0.2908397243034981  0.0939376900441515   T   T   T
  0.2500000000000000  0.0434778861277421  0.0882576740122722   T   T   T
  0.0022862971168221  0.7956806558068121  0.0999388361926976   T   T   T
 -0.0003415269663890  0.9596044588520198  0.0883441392197463   T   T   T
  0.7500000000000000  0.2069698560796814  0.0867204571115917   T   T   T
  0.5047246585559307  0.2908397243034981  0.0939376900441515   T   T   T
  0.7500000000000000  0.0412600832223629  0.0839839325773873   T   T   T
  0.7500000000000000  0.7046842756179273  0.1035278819094526   T   T   T
  0.4977137028831779  0.7956806558068121  0.0999388361926976   T   T   T
  0.7500000000000000  0.5342602548667554  0.1049871964519926   T   T   T
  0.5003415269663892  0.9596044588520198  0.0883441392197463   T   T   T
  0.5149616803818368  0.4493155485873749  0.1080248118343990   T   T   T
 -0.0149616803818367  0.4493155485873749  0.1080248118343990   T   T   T
  0.2500000000000000  0.7275560032717737  0.1132985676708921   T   T   T
  0.2500000000000000  0.5389076791675018  0.1698561087574264   T   T   T
 
  0.00000000E+00  0.00000000E+00  0.00000000E+00
  0.00000000E+00  0.00000000E+00  0.00000000E+00
  0.00000000E+00  0.00000000E+00  0.00000000E+00
  0.00000000E+00  0.00000000E+00  0.00000000E+00
  0.00000000E+00  0.00000000E+00  0.00000000E+00
  0.00000000E+00  0.00000000E+00  0.00000000E+00
  0.00000000E+00  0.00000000E+00  0.00000000E+00
  0.00000000E+00  0.00000000E+00  0.00000000E+00
  0.00000000E+00  0.00000000E+00  0.00000000E+00
  0.00000000E+00  0.00000000E+00  0.00000000E+00
  0.00000000E+00  0.00000000E+00  0.00000000E+00
  0.00000000E+00  0.00000000E+00  0.00000000E+00
  0.00000000E+00  0.00000000E+00  0.00000000E+00
  0.00000000E+00  0.00000000E+00  0.00000000E+00
  0.00000000E+00  0.00000000E+00  0.00000000E+00
  0.00000000E+00  0.00000000E+00  0.00000000E+00
