Title                                   
   1.00000000000000     
     4.9440799999999996    0.0000000000000000    0.0000000000000000
     0.0000000000000000    8.5647549999999999    0.0000000000000000
     0.0000000000000000    0.0000000000000000   20.0000000000000000
    12     3     1
Selective dynamics
Direct
 -0.0041659492569295  0.2898107604456224  0.0896184133134680   T   T   T
  0.2503044256717322  0.0439758798941590  0.0873699223726895   T   T   T
  0.0046702442277311  0.7971212255803474  0.0985647146261458   T   T   T
  0.0014772724877401  0.9610422372817432  0.0858104560682623   T   T   T
  0.7478255187279530  0.2067680595455376  0.0829595075043355   T   T   T
  0.5014157794808078  0.2900744590164446  0.0946059064003604   T   T   T
  0.7507468593804481  0.0412399372336408  0.0803225021472679   T   T   T
  0.7549021098796096  0.7069291019387766  0.1026554343084703   T   T   T
  0.5018515109632962  0.7962756785409570  0.1001197287507529   T   T   T
  0.7530072909809434  0.5348533771654048  0.1079995356144925   T   T   T
  0.5009649073423155  0.9608235924028776  0.0875414873976150   T   T   T
  0.5157205561124101  0.4452637736593624  0.1201019741255965   T   T   T
 -0.0100694827086686  0.4460318115929611  0.1023337619680598   T   T   T
  0.2526509122241178  0.7296867603985417  0.1149515522229974   T   T   T
  0.2484908894432489  0.2093650252704764  0.0892479581821879   T   T   T
  0.2302071550432447  0.5407383200331470  0.1683091449973077   T   T   T
 
  0.00000000E+00  0.00000000E+00  0.00000000E+00
  0.00000000E+00  0.00000000E+00  0.00000000E+00
  0.00000000E+00  0.00000000E+00  0.00000000E+00
  0.00000000E+00  0.00000000E+00  0.00000000E+00
  0.00000000E+00  0.00000000E+00  0.00000000E+00
  0.00000000E+00  0.00000000E+00  0.00000000E+00
  0.00000000E+00  0.00000000E+00  0.00000000E+00
  0.00000000E+00  0.00000000E+00  0.00000000E+00
  0.00000000E+00  0.00000000E+00  0.00000000E+00
  0.00000000E+00  0.00000000E+00  0.00000000E+00
  0.00000000E+00  0.00000000E+00  0.00000000E+00
  0.00000000E+00  0.00000000E+00  0.00000000E+00
  0.00000000E+00  0.00000000E+00  0.00000000E+00
  0.00000000E+00  0.00000000E+00  0.00000000E+00
  0.00000000E+00  0.00000000E+00  0.00000000E+00
  0.00000000E+00  0.00000000E+00  0.00000000E+00
