Title                                   
   1.00000000000000     
     8.5490480000000009    0.0000000000000000    0.0000000000000000
     0.0000000000000000    8.5490480000000009    0.0000000000000000
     0.0000000000000000    0.0000000000000000   20.0000000000000000
    21     3     1
Selective dynamics
Direct
  0.9091831324891804  0.2048461996697406  0.0975239467231172   T   T   T
  0.9026906310206146  0.5026324832947997  0.0976980189327675   T   T   T
  0.9111910303097817  0.8017817389713014  0.0975053654554315   T   T   T
  0.2006241003725079  0.0826988093058138  0.0976104557582804   T   T   T
  0.0752818537878479  0.2049585151741361  0.0975181826111806   T   T   T
  0.1553977641152040  0.6492371545642621  0.0976366930260401   T   T   T
  0.0718636298352610  0.5014671061817295  0.0976278365161714   T   T   T
  0.1539081703834687  0.3547820925367756  0.0976543289539134   T   T   T
  0.0784416430116132  0.7970776065340897  0.0975370852936755   T   T   T
  0.4948333211415915  0.0865793744561489  0.0977621904528758   T   T   T
  0.3478181844790990  0.1648055380814928  0.0978135685015411   T   T   T
  0.4939319910568654  0.9167056682426806  0.0977486105145978   T   T   T
  0.3479211545813253  0.8358255386117655  0.0978281921726452   T   T   T
  0.7890881693125195  0.0857090671939443  0.0975124587712729   T   T   T
  0.6426857130203176  0.1663113580536130  0.0977835831350293   T   T   T
  0.7899270103344552  0.9192543619854883  0.0974905485431180   T   T   T
  0.8269633399942784  0.6525877786896305  0.0977053255209769   T   T   T
  0.8247661956138436  0.3532558019059812  0.0977763551948621   T   T   T
  0.6430473933417782  0.8370256648848327  0.0977063377791259   T   T   T
  0.3235605854817503  0.3359659641005448  0.0980373079588769   T   T   T
  0.3234185613310361  0.6681473047631460  0.0979820747301487   T   T   T
  0.6646289926514656  0.3282067160832936  0.0980675866152405   T   T   T
  0.6663592181255868  0.6765060583725926  0.0979349427366848   T   T   T
  0.2007891732993516  0.9181991091177427  0.0976792490760603   T   T   T
  0.4870910409092497  0.5002229892244742  0.0985647550263391   T   T   T
 
  0.00000000E+00  0.00000000E+00  0.00000000E+00
  0.00000000E+00  0.00000000E+00  0.00000000E+00
  0.00000000E+00  0.00000000E+00  0.00000000E+00
  0.00000000E+00  0.00000000E+00  0.00000000E+00
  0.00000000E+00  0.00000000E+00  0.00000000E+00
  0.00000000E+00  0.00000000E+00  0.00000000E+00
  0.00000000E+00  0.00000000E+00  0.00000000E+00
  0.00000000E+00  0.00000000E+00  0.00000000E+00
  0.00000000E+00  0.00000000E+00  0.00000000E+00
  0.00000000E+00  0.00000000E+00  0.00000000E+00
  0.00000000E+00  0.00000000E+00  0.00000000E+00
  0.00000000E+00  0.00000000E+00  0.00000000E+00
  0.00000000E+00  0.00000000E+00  0.00000000E+00
  0.00000000E+00  0.00000000E+00  0.00000000E+00
  0.00000000E+00  0.00000000E+00  0.00000000E+00
  0.00000000E+00  0.00000000E+00  0.00000000E+00
  0.00000000E+00  0.00000000E+00  0.00000000E+00
  0.00000000E+00  0.00000000E+00  0.00000000E+00
  0.00000000E+00  0.00000000E+00  0.00000000E+00
  0.00000000E+00  0.00000000E+00  0.00000000E+00
  0.00000000E+00  0.00000000E+00  0.00000000E+00
  0.00000000E+00  0.00000000E+00  0.00000000E+00
  0.00000000E+00  0.00000000E+00  0.00000000E+00
  0.00000000E+00  0.00000000E+00  0.00000000E+00
  0.00000000E+00  0.00000000E+00  0.00000000E+00
