Title                                   
   1.00000000000000     
     9.8694509999999998    0.0000000000000000    0.0000000000000000
     0.0000000000000000    8.5490480000000009    0.0000000000000000
     0.0000000000000000    0.0000000000000000   20.0000000000000000
    24     6     1
Selective dynamics
Direct
  0.0562773535127098  0.0904751650354584  0.0958810682649035   T   T   T
  0.9318831142119437  0.1722216833914640  0.0966970722106028   T   T   T
  0.0573177929077451  0.9222046423983493  0.0959390028844804   T   T   T
  0.9341255399961378  0.3387582810451585  0.0961064005620519   T   T   T
  0.0564426193167682  0.5896461774856366  0.0927270749511926   T   T   T
  0.9341201601515019  0.6731940379827365  0.0960260581741809   T   T   T
  0.0566559849462433  0.4226683746228633  0.0929831563166355   T   T   T
  0.9322742990203389  0.8397962266983563  0.0968435571562532   T   T   T
  0.3081703490886312  0.0886626116995609  0.0971344818886833   T   T   T
  0.1810301055525992  0.1714806251413655  0.0947321868329000   T   T   T
  0.1791342651955281  0.3377436447714591  0.0923156381976942   T   T   T
  0.3003636049101933  0.5896394214351206  0.0928257094470347   T   T   T
  0.1787291727759105  0.6744421599442910  0.0919875133185797   T   T   T
  0.3010540452197984  0.4222403061497911  0.0914716293240131   T   T   T
  0.1801553061565971  0.8401140529953581  0.0946787026908287   T   T   T
  0.4285110170729562  0.1744010150126406  0.0966263235063409   T   T   T
  0.5545288993976756  0.9191415547978242  0.0990262980086394   T   T   T
  0.4290170375176869  0.8378446861303908  0.0983597774013520   T   T   T
  0.8050400169738635  0.0897532791303419  0.0981688462012953   T   T   T
  0.6822780575242314  0.1763326125575470  0.0998210592846205   T   T   T
  0.8061855658074909  0.9222030221875330  0.0986170170085715   T   T   T
  0.8121915050655136  0.5897518774290963  0.0994238082164234   T   T   T
  0.8121723776701331  0.4217050902553159  0.0998669704929435   T   T   T
  0.6828152331826601  0.8365679313636114  0.0999888261055035   T   T   T
  0.5571208281458369  0.0960210803571511  0.0980800367999869   T   T   T
  0.4210319450999481  0.3366486173304521  0.0904435997307924   T   T   T
  0.4187004256643764  0.6767744749958162  0.1001799681746426   T   T   T
  0.6914917008859350  0.3367650195199322  0.1040824950647082   T   T   T
  0.6929645446801356  0.6748521800644310  0.1011350854345892   T   T   T
  0.3057766421675986  0.9218318925740160  0.0963016127584576   T   T   T
  0.5555764901813118  0.5069932554969303  0.1024940235911567   T   T   T
 
  0.00000000E+00  0.00000000E+00  0.00000000E+00
  0.00000000E+00  0.00000000E+00  0.00000000E+00
  0.00000000E+00  0.00000000E+00  0.00000000E+00
  0.00000000E+00  0.00000000E+00  0.00000000E+00
  0.00000000E+00  0.00000000E+00  0.00000000E+00
  0.00000000E+00  0.00000000E+00  0.00000000E+00
  0.00000000E+00  0.00000000E+00  0.00000000E+00
  0.00000000E+00  0.00000000E+00  0.00000000E+00
  0.00000000E+00  0.00000000E+00  0.00000000E+00
  0.00000000E+00  0.00000000E+00  0.00000000E+00
  0.00000000E+00  0.00000000E+00  0.00000000E+00
  0.00000000E+00  0.00000000E+00  0.00000000E+00
  0.00000000E+00  0.00000000E+00  0.00000000E+00
  0.00000000E+00  0.00000000E+00  0.00000000E+00
  0.00000000E+00  0.00000000E+00  0.00000000E+00
  0.00000000E+00  0.00000000E+00  0.00000000E+00
  0.00000000E+00  0.00000000E+00  0.00000000E+00
  0.00000000E+00  0.00000000E+00  0.00000000E+00
  0.00000000E+00  0.00000000E+00  0.00000000E+00
  0.00000000E+00  0.00000000E+00  0.00000000E+00
  0.00000000E+00  0.00000000E+00  0.00000000E+00
  0.00000000E+00  0.00000000E+00  0.00000000E+00
  0.00000000E+00  0.00000000E+00  0.00000000E+00
  0.00000000E+00  0.00000000E+00  0.00000000E+00
  0.00000000E+00  0.00000000E+00  0.00000000E+00
  0.00000000E+00  0.00000000E+00  0.00000000E+00
  0.00000000E+00  0.00000000E+00  0.00000000E+00
  0.00000000E+00  0.00000000E+00  0.00000000E+00
  0.00000000E+00  0.00000000E+00  0.00000000E+00
  0.00000000E+00  0.00000000E+00  0.00000000E+00
  0.00000000E+00  0.00000000E+00  0.00000000E+00
