Title                                   
   1.00000000000000     
     8.5490480000000009    0.0000000000000000    0.0000000000000000
     0.0000000000000000    8.5490480000000009    0.0000000000000000
     0.0000000000000000    0.0000000000000000   20.0000000000000000
    18     6     1
Selective dynamics
Direct
  0.9083885025605862  0.2060092439465564  0.0972466123229955   T   T   T
  0.9106504945515139  0.8004917509951396  0.0972825256543561   T   T   T
  0.1961030888865519  0.0840164196637264  0.0975248628098910   T   T   T
  0.0760464575602278  0.2013903762456062  0.0973733132548330   T   T   T
  0.1561170058453772  0.6513793695447795  0.0977993996128783   T   T   T
  0.0777519987040374  0.5007475524773922  0.0978299168876960   T   T   T
  0.1558545900466127  0.3512243722125757  0.0978219882729873   T   T   T
  0.0786922295361528  0.7989958738536941  0.0974032239145261   T   T   T
  0.4932848080656394  0.0885340667501039  0.0979184432231332   T   T   T
  0.3434156725053791  0.1656713051904378  0.0979742352566953   T   T   T
  0.4925977035578112  0.9160278480754830  0.0978387207545205   T   T   T
  0.3438556260134318  0.8359192259918158  0.0978785040569975   T   T   T
  0.7885304275754923  0.0874356536497479  0.0972830386913452   T   T   T
  0.6417748447780752  0.1682789032294590  0.0978053243673283   T   T   T
  0.7891906280875572  0.9184934594524449  0.0972694801726078   T   T   T
  0.8303686344690074  0.6510641637881673  0.0976637542566345   T   T   T
  0.8285487494355247  0.3542500548542846  0.0976926582961433   T   T   T
  0.6427704248293811  0.8361840566735255  0.0977009635314215   T   T   T
  0.9068751848629519  0.5023282949435206  0.0978078903118537   T   T   T
  0.3187426555571531  0.3282375740008852  0.0982418654859833   T   T   T
  0.3189054647035506  0.6760184567358409  0.0981593180922251   T   T   T
  0.6670045215962590  0.3326283969988879  0.0981351574668280   T   T   T
  0.6692027726089742  0.6722335371862158  0.0980152808821536   T   T   T
  0.1971774628623260  0.9156493313646369  0.0975240978263997   T   T   T
  0.4935620508004192  0.5015807121750725  0.0985144245975463   T   T   T
 
  0.00000000E+00  0.00000000E+00  0.00000000E+00
  0.00000000E+00  0.00000000E+00  0.00000000E+00
  0.00000000E+00  0.00000000E+00  0.00000000E+00
  0.00000000E+00  0.00000000E+00  0.00000000E+00
  0.00000000E+00  0.00000000E+00  0.00000000E+00
  0.00000000E+00  0.00000000E+00  0.00000000E+00
  0.00000000E+00  0.00000000E+00  0.00000000E+00
  0.00000000E+00  0.00000000E+00  0.00000000E+00
  0.00000000E+00  0.00000000E+00  0.00000000E+00
  0.00000000E+00  0.00000000E+00  0.00000000E+00
  0.00000000E+00  0.00000000E+00  0.00000000E+00
  0.00000000E+00  0.00000000E+00  0.00000000E+00
  0.00000000E+00  0.00000000E+00  0.00000000E+00
  0.00000000E+00  0.00000000E+00  0.00000000E+00
  0.00000000E+00  0.00000000E+00  0.00000000E+00
  0.00000000E+00  0.00000000E+00  0.00000000E+00
  0.00000000E+00  0.00000000E+00  0.00000000E+00
  0.00000000E+00  0.00000000E+00  0.00000000E+00
  0.00000000E+00  0.00000000E+00  0.00000000E+00
  0.00000000E+00  0.00000000E+00  0.00000000E+00
  0.00000000E+00  0.00000000E+00  0.00000000E+00
  0.00000000E+00  0.00000000E+00  0.00000000E+00
  0.00000000E+00  0.00000000E+00  0.00000000E+00
  0.00000000E+00  0.00000000E+00  0.00000000E+00
  0.00000000E+00  0.00000000E+00  0.00000000E+00
