Title                                   
   1.00000000000000     
     4.9440799999999996    0.0000000000000000    0.0000000000000000
     0.0000000000000000   17.1295089999999988    0.0000000000000000
     0.0000000000000000    0.0000000000000000   20.0000000000000000
    30     1     1
Selective dynamics
Direct
 -0.0001598856880474  0.1043323049473679  0.2775847805396024   T   T   T
  0.2499030474582933  0.1457593288491844  0.2831152334028715   T   T   T
  0.2499299959464593  0.2274566719097614  0.2975723598812747   T   T   T
  0.0013853922952363  0.3478945302720793  0.3261385051628839   T   T   T
 -0.0012610567820580  0.2680423547221744  0.3053280343677994   T   T   T
 -0.0030089878566240  0.6083260085639657  0.3168460623954171   T   T   T
  0.2498868111976420  0.7299870294885131  0.2919639224344026   T   T   T
  0.0001335206366895  0.8542355974106967  0.2746387224154507   T   T   T
  0.2498778997205542  0.8960620891075155  0.2717963374162150   T   T   T
  0.2498658628087485  0.9793866813072507  0.2701205389861051   T   T   T
  0.0002239933195439  0.7715955621503986  0.2844546850810862   T   T   T
  0.4999700346275459  0.1043365659610907  0.2775890391572723   T   T   T
  0.7499161219669963  0.1457165071262149  0.2823560260397219   T   T   T
  0.7499356022980506  0.2276357771890421  0.2957841792386799   T   T   T
  0.4999461659418761  0.0212170865146161  0.2712075032634597   T   T   T
  0.4984700572226023  0.3478960360351167  0.3261370504281139   T   T   T
  0.7499246421496840  0.3929364038387958  0.3326417837665821   T   T   T
  0.7499165330751383  0.4802468701833179  0.3355909707312120   T   T   T
  0.5011309848998887  0.2680443545863289  0.3053226941984099   T   T   T
  0.5028040424299458  0.6083280731586600  0.3168501576837947   T   T   T
  0.7498931252769612  0.7308274650516795  0.2903832024117903   T   T   T
  0.4996182577900037  0.8542355717966558  0.2746385457209217   T   T   T
  0.7498716856110473  0.8958608606904448  0.2715670579157864   T   T   T
  0.7498563155196403  0.9793862790387181  0.2698939819823091   T   T   T
  0.4995535333146820  0.7715939161639140  0.2844528615694932   T   T   T
  0.7498872308931230  0.6494567652860972  0.3057342333313818   T   T   T
  0.2498881921572048  0.6489424825927759  0.3090187671023293   T   T   T
 -0.0002216012111750  0.0212111546941578  0.2712076080453468   T   T   T
  0.5112515655055186  0.5284496480995178  0.3357596519281261   T   T   T
  0.9885789524341587  0.5284473732345256  0.3357528924885917   T   T   T
  0.2499293416322583  0.3803625565854482  0.3417977999990142   T   T   T
  0.2499256234084191  0.4803410934439660  0.3893198109145056   T   T   T
 
  0.00000000E+00  0.00000000E+00  0.00000000E+00
  0.00000000E+00  0.00000000E+00  0.00000000E+00
  0.00000000E+00  0.00000000E+00  0.00000000E+00
  0.00000000E+00  0.00000000E+00  0.00000000E+00
  0.00000000E+00  0.00000000E+00  0.00000000E+00
  0.00000000E+00  0.00000000E+00  0.00000000E+00
  0.00000000E+00  0.00000000E+00  0.00000000E+00
  0.00000000E+00  0.00000000E+00  0.00000000E+00
  0.00000000E+00  0.00000000E+00  0.00000000E+00
  0.00000000E+00  0.00000000E+00  0.00000000E+00
  0.00000000E+00  0.00000000E+00  0.00000000E+00
  0.00000000E+00  0.00000000E+00  0.00000000E+00
  0.00000000E+00  0.00000000E+00  0.00000000E+00
  0.00000000E+00  0.00000000E+00  0.00000000E+00
  0.00000000E+00  0.00000000E+00  0.00000000E+00
  0.00000000E+00  0.00000000E+00  0.00000000E+00
  0.00000000E+00  0.00000000E+00  0.00000000E+00
  0.00000000E+00  0.00000000E+00  0.00000000E+00
  0.00000000E+00  0.00000000E+00  0.00000000E+00
  0.00000000E+00  0.00000000E+00  0.00000000E+00
  0.00000000E+00  0.00000000E+00  0.00000000E+00
  0.00000000E+00  0.00000000E+00  0.00000000E+00
  0.00000000E+00  0.00000000E+00  0.00000000E+00
  0.00000000E+00  0.00000000E+00  0.00000000E+00
  0.00000000E+00  0.00000000E+00  0.00000000E+00
  0.00000000E+00  0.00000000E+00  0.00000000E+00
  0.00000000E+00  0.00000000E+00  0.00000000E+00
  0.00000000E+00  0.00000000E+00  0.00000000E+00
  0.00000000E+00  0.00000000E+00  0.00000000E+00
  0.00000000E+00  0.00000000E+00  0.00000000E+00
  0.00000000E+00  0.00000000E+00  0.00000000E+00
  0.00000000E+00  0.00000000E+00  0.00000000E+00
