Title                                   
   1.00000000000000     
     8.5490480000000009    0.0000000000000000    0.0000000000000000
     0.0000000000000000    8.5490480000000009    0.0000000000000000
     0.0000000000000000    0.0000000000000000   20.0000000000000000
    22     2     1
Selective dynamics
Direct
  0.9104604382037632  0.2043946793858925  0.0954389707571992   T   T   T
  0.9030096300091909  0.5017972991891606  0.0952819556022379   T   T   T
  0.9104555036321031  0.7991614739032122  0.0954539024320952   T   T   T
  0.1987400538957576  0.0842089116037378  0.0954719708192520   T   T   T
  0.0758324435321163  0.2061790004608140  0.0954497661853674   T   T   T
  0.1987278245583699  0.9193632868319755  0.0954750992048161   T   T   T
  0.1538287245646215  0.6483126635593712  0.0953773923311345   T   T   T
  0.0720469523486036  0.5018018602050858  0.0953366782599777   T   T   T
  0.1538182677457446  0.3552781969500146  0.0953715970417013   T   T   T
  0.0758270166802415  0.7973828218229528  0.0954567316672036   T   T   T
  0.4949192015940163  0.0868601382449768  0.0953633973914379   T   T   T
  0.3478179613292893  0.1658579054520281  0.0953942300535801   T   T   T
  0.4949166455884376  0.9167301502504406  0.0953629855890664   T   T   T
  0.3478120289685901  0.8377539309269009  0.0954035445330894   T   T   T
  0.7906549887559703  0.0849988647289644  0.0954595289992870   T   T   T
  0.6438429865692381  0.1653851450698424  0.0953110330847976   T   T   T
  0.7906560915778181  0.9185779767903908  0.0954661009194376   T   T   T
  0.8264502955582450  0.6511616024417501  0.0952957111162928   T   T   T
  0.8264597318093528  0.3524128511884518  0.0952761337208865   T   T   T
  0.6438343533883960  0.8381900928659128  0.0953200468849616   T   T   T
  0.3222452100067301  0.3344638028154082  0.0952966026896588   T   T   T
  0.3222650319353338  0.6691379296175962  0.0953134448030702   T   T   T
  0.6668299806246560  0.3270558086230083  0.0951396979640618   T   T   T
  0.6668159640238501  0.6765082268055962  0.0951553680476071   T   T   T
  0.4871446730995567  0.5018153802665282  0.0950331099017582   T   T   T
 
  0.00000000E+00  0.00000000E+00  0.00000000E+00
  0.00000000E+00  0.00000000E+00  0.00000000E+00
  0.00000000E+00  0.00000000E+00  0.00000000E+00
  0.00000000E+00  0.00000000E+00  0.00000000E+00
  0.00000000E+00  0.00000000E+00  0.00000000E+00
  0.00000000E+00  0.00000000E+00  0.00000000E+00
  0.00000000E+00  0.00000000E+00  0.00000000E+00
  0.00000000E+00  0.00000000E+00  0.00000000E+00
  0.00000000E+00  0.00000000E+00  0.00000000E+00
  0.00000000E+00  0.00000000E+00  0.00000000E+00
  0.00000000E+00  0.00000000E+00  0.00000000E+00
  0.00000000E+00  0.00000000E+00  0.00000000E+00
  0.00000000E+00  0.00000000E+00  0.00000000E+00
  0.00000000E+00  0.00000000E+00  0.00000000E+00
  0.00000000E+00  0.00000000E+00  0.00000000E+00
  0.00000000E+00  0.00000000E+00  0.00000000E+00
  0.00000000E+00  0.00000000E+00  0.00000000E+00
  0.00000000E+00  0.00000000E+00  0.00000000E+00
  0.00000000E+00  0.00000000E+00  0.00000000E+00
  0.00000000E+00  0.00000000E+00  0.00000000E+00
  0.00000000E+00  0.00000000E+00  0.00000000E+00
  0.00000000E+00  0.00000000E+00  0.00000000E+00
  0.00000000E+00  0.00000000E+00  0.00000000E+00
  0.00000000E+00  0.00000000E+00  0.00000000E+00
  0.00000000E+00  0.00000000E+00  0.00000000E+00
