Title                                   
   1.00000000000000     
     4.9440799999999996    0.0000000000000000    0.0000000000000000
     0.0000000000000000   17.1295089999999988    0.0000000000000000
     0.0000000000000000    0.0000000000000000   20.0000000000000000
    27     3     1
Selective dynamics
Direct
 -0.0040686732721333  0.1052004368845012  0.2950451693607734   T   T   T
  0.2439217611121121  0.1479791782746727  0.2959702237593629   T   T   T
  0.2411348667018979  0.2320684911620605  0.2990602657146237   T   T   T
 -0.0099451980673351  0.2746234976495756  0.3016942967196503   T   T   T
  0.0091962923547409  0.6011197586608404  0.2997861172614360   T   T   T
  0.2564937726457930  0.7266131862365989  0.2959579292490479   T   T   T
  0.0035154184306315  0.8526771523078402  0.2942943387853388   T   T   T
  0.2516332933039306  0.8951223249332900  0.2942275820813359   T   T   T
  0.2490210203952173  0.9792470268851248  0.2942195874142395   T   T   T
  0.0062928073472282  0.7683465925338280  0.2949238352837073   T   T   T
  0.4953779341400867  0.1056281292398049  0.2947009061500179   T   T   T
  0.7457894053239491  0.1475114814022954  0.2951630480339416   T   T   T
  0.7429336537261176  0.2313657007851504  0.2973002563976224   T   T   T
  0.4980397930187341  0.0214531166906410  0.2941489580767657   T   T   T
  0.7433359866714119  0.3957990868610448  0.3052848300348133   T   T   T
  0.7552645929658075  0.4812165794252379  0.3057095691194229   T   T   T
  0.4917848727013078  0.2737669927441549  0.2988839908342261   T   T   T
  0.5093434238236598  0.6010678131484976  0.3001157180916986   T   T   T
  0.7547512801645178  0.7272282587175590  0.2950283594882828   T   T   T
  0.5011651425684758  0.8529591109407784  0.2942713687869007   T   T   T
  0.7514922680251030  0.8947652173654117  0.2940774838866105   T   T   T
  0.7489580058310523  0.9789230640247489  0.2940470884098643   T   T   T
  0.5035133298626429  0.7685880857531526  0.2949261981255032   T   T   T
  0.7583771646114394  0.6443132789777035  0.2970646551415208   T   T   T
 -0.0016194614850678  0.0212353777403115  0.2943207907435050   T   T   T
  0.0048643955027271  0.5197070351765494  0.3049760845177562   T   T   T
  0.4969733826090010  0.3562890368952577  0.3013970751491676   T   T   T
  0.5094221749980929  0.5218949697739850  0.3062437897726761   T   T   T
 -0.0129864616760684  0.3551710002061622  0.3095402679595832   T   T   T
  0.2600830813708284  0.6426717439527148  0.2983296384693311   T   T   T
  0.2559476742940994  0.4367892746505022  0.3443505771812263   T   T   T
 
  0.00000000E+00  0.00000000E+00  0.00000000E+00
  0.00000000E+00  0.00000000E+00  0.00000000E+00
  0.00000000E+00  0.00000000E+00  0.00000000E+00
  0.00000000E+00  0.00000000E+00  0.00000000E+00
  0.00000000E+00  0.00000000E+00  0.00000000E+00
  0.00000000E+00  0.00000000E+00  0.00000000E+00
  0.00000000E+00  0.00000000E+00  0.00000000E+00
  0.00000000E+00  0.00000000E+00  0.00000000E+00
  0.00000000E+00  0.00000000E+00  0.00000000E+00
  0.00000000E+00  0.00000000E+00  0.00000000E+00
  0.00000000E+00  0.00000000E+00  0.00000000E+00
  0.00000000E+00  0.00000000E+00  0.00000000E+00
  0.00000000E+00  0.00000000E+00  0.00000000E+00
  0.00000000E+00  0.00000000E+00  0.00000000E+00
  0.00000000E+00  0.00000000E+00  0.00000000E+00
  0.00000000E+00  0.00000000E+00  0.00000000E+00
  0.00000000E+00  0.00000000E+00  0.00000000E+00
  0.00000000E+00  0.00000000E+00  0.00000000E+00
  0.00000000E+00  0.00000000E+00  0.00000000E+00
  0.00000000E+00  0.00000000E+00  0.00000000E+00
  0.00000000E+00  0.00000000E+00  0.00000000E+00
  0.00000000E+00  0.00000000E+00  0.00000000E+00
  0.00000000E+00  0.00000000E+00  0.00000000E+00
  0.00000000E+00  0.00000000E+00  0.00000000E+00
  0.00000000E+00  0.00000000E+00  0.00000000E+00
  0.00000000E+00  0.00000000E+00  0.00000000E+00
  0.00000000E+00  0.00000000E+00  0.00000000E+00
  0.00000000E+00  0.00000000E+00  0.00000000E+00
  0.00000000E+00  0.00000000E+00  0.00000000E+00
  0.00000000E+00  0.00000000E+00  0.00000000E+00
  0.00000000E+00  0.00000000E+00  0.00000000E+00
