Title                                   
   1.00000000000000     
     8.5490480000000009    0.0000000000000000    0.0000000000000000
     0.0000000000000000    8.5490480000000009    0.0000000000000000
     0.0000000000000000    0.0000000000000000   20.0000000000000000
    20     4     1
Selective dynamics
Direct
  0.9080367355994043  0.2074759196195174  0.0957866756939597   T   T   T
  0.9119618082547507  0.8015881032012351  0.0967810658168905   T   T   T
  0.1979463207951416  0.0822665334779163  0.0968029243824366   T   T   T
  0.0750995197201636  0.2026451100575501  0.0966806550694385   T   T   T
  0.1580530590252773  0.6498720876237285  0.0965530174484707   T   T   T
  0.0750201443216793  0.5014634786638301  0.0972543939892128   T   T   T
  0.1546453380472401  0.3531028295054391  0.0982001172811238   T   T   T
  0.0800439280510163  0.7989699442627322  0.0961508968489208   T   T   T
  0.3459918910295373  0.1623460075057408  0.0985327589130122   T   T   T
  0.4948672762354516  0.9175571591600931  0.0978421769469160   T   T   T
  0.3463216975946153  0.8364753464642485  0.0966497876770271   T   T   T
  0.7864332374228996  0.0873323810136113  0.0966077614282893   T   T   T
  0.6377955423799445  0.1680195438943151  0.0974335005274476   T   T   T
  0.7903484472167596  0.9200105460631280  0.0972523246630823   T   T   T
  0.8292321232150605  0.6530524216416598  0.0978686069019662   T   T   T
  0.8267908197492551  0.3575645813644417  0.0955600635821447   T   T   T
  0.6434155928281980  0.8366655367017971  0.0986798126692289   T   T   T
  0.3240672999266361  0.3291412981774712  0.1012923026054607   T   T   T
  0.3255796694117660  0.6735141850981315  0.0968360130350976   T   T   T
  0.6601249074042203  0.3373062117266585  0.0971532555091632   T   T   T
  0.4947135150064387  0.0839574066050978  0.0979299327830796   T   T   T
  0.9073456277230503  0.5038971642063845  0.0966723024138710   T   T   T
  0.6687837642340732  0.6729752133683344  0.1003977806157228   T   T   T
  0.1969577815730445  0.9163253762127841  0.0959186815061007   T   T   T
  0.4858359532343696  0.4912656143841682  0.1118681916919192   T   T   T
 
  0.00000000E+00  0.00000000E+00  0.00000000E+00
  0.00000000E+00  0.00000000E+00  0.00000000E+00
  0.00000000E+00  0.00000000E+00  0.00000000E+00
  0.00000000E+00  0.00000000E+00  0.00000000E+00
  0.00000000E+00  0.00000000E+00  0.00000000E+00
  0.00000000E+00  0.00000000E+00  0.00000000E+00
  0.00000000E+00  0.00000000E+00  0.00000000E+00
  0.00000000E+00  0.00000000E+00  0.00000000E+00
  0.00000000E+00  0.00000000E+00  0.00000000E+00
  0.00000000E+00  0.00000000E+00  0.00000000E+00
  0.00000000E+00  0.00000000E+00  0.00000000E+00
  0.00000000E+00  0.00000000E+00  0.00000000E+00
  0.00000000E+00  0.00000000E+00  0.00000000E+00
  0.00000000E+00  0.00000000E+00  0.00000000E+00
  0.00000000E+00  0.00000000E+00  0.00000000E+00
  0.00000000E+00  0.00000000E+00  0.00000000E+00
  0.00000000E+00  0.00000000E+00  0.00000000E+00
  0.00000000E+00  0.00000000E+00  0.00000000E+00
  0.00000000E+00  0.00000000E+00  0.00000000E+00
  0.00000000E+00  0.00000000E+00  0.00000000E+00
  0.00000000E+00  0.00000000E+00  0.00000000E+00
  0.00000000E+00  0.00000000E+00  0.00000000E+00
  0.00000000E+00  0.00000000E+00  0.00000000E+00
  0.00000000E+00  0.00000000E+00  0.00000000E+00
  0.00000000E+00  0.00000000E+00  0.00000000E+00
