Title                                   
   1.00000000000000     
     8.5490480000000009    0.0000000000000000    0.0000000000000000
     0.0000000000000000    8.5490480000000009    0.0000000000000000
     0.0000000000000000    0.0000000000000000   20.0000000000000000
    19     5     1
Selective dynamics
Direct
  0.9089936775382158  0.2056333661361753  0.0973703442520599   T   T   T
  0.9109639960335978  0.8007493983814864  0.0977003786021522   T   T   T
  0.1966171133459459  0.0830248090014252  0.0977105005470191   T   T   T
  0.0764496529245897  0.2012003338820299  0.0976928541308357   T   T   T
  0.1567228083070561  0.6505867511841360  0.0976372704232672   T   T   T
  0.0776366717478969  0.5011084690309935  0.0977971111515968   T   T   T
  0.1567125195186567  0.3506913651267115  0.0979219165329843   T   T   T
  0.0785875205678845  0.8000174084590477  0.0975887224687764   T   T   T
  0.3438001442984535  0.1637577917514613  0.0979321706918775   T   T   T
  0.4924201141889734  0.9185871822481931  0.0977748935359749   T   T   T
  0.3445581105663484  0.8383821060015140  0.0976265369780661   T   T   T
  0.7879413960665990  0.0858712456323863  0.0974040814936366   T   T   T
  0.6392209393281382  0.1674325984886791  0.0974649644568554   T   T   T
  0.7898454895765272  0.9189835147580233  0.0977217938093165   T   T   T
  0.8304211507610409  0.6513563524171950  0.0978551349956468   T   T   T
  0.8287310826206670  0.3551495661760471  0.0974096798263079   T   T   T
  0.6420276791241130  0.8378662241237240  0.0979000264511920   T   T   T
  0.3227836208766607  0.6750447517741981  0.0977645782682183   T   T   T
  0.6624079630075351  0.3335257717227358  0.0974992140189933   T   T   T
  0.4932485063420495  0.0873948281362878  0.0977916443542182   T   T   T
  0.9083200120454816  0.5022950112643807  0.0977210598210371   T   T   T
  0.3205478708004629  0.3252210765489275  0.0981925926519835   T   T   T
  0.6686741941762926  0.6735680167829341  0.0980884103759619   T   T   T
  0.1949695312973897  0.9166911383250552  0.0976007148141197   T   T   T
  0.4928102349394094  0.5006509226462659  0.0985384053478826   T   T   T
 
  0.00000000E+00  0.00000000E+00  0.00000000E+00
  0.00000000E+00  0.00000000E+00  0.00000000E+00
  0.00000000E+00  0.00000000E+00  0.00000000E+00
  0.00000000E+00  0.00000000E+00  0.00000000E+00
  0.00000000E+00  0.00000000E+00  0.00000000E+00
  0.00000000E+00  0.00000000E+00  0.00000000E+00
  0.00000000E+00  0.00000000E+00  0.00000000E+00
  0.00000000E+00  0.00000000E+00  0.00000000E+00
  0.00000000E+00  0.00000000E+00  0.00000000E+00
  0.00000000E+00  0.00000000E+00  0.00000000E+00
  0.00000000E+00  0.00000000E+00  0.00000000E+00
  0.00000000E+00  0.00000000E+00  0.00000000E+00
  0.00000000E+00  0.00000000E+00  0.00000000E+00
  0.00000000E+00  0.00000000E+00  0.00000000E+00
  0.00000000E+00  0.00000000E+00  0.00000000E+00
  0.00000000E+00  0.00000000E+00  0.00000000E+00
  0.00000000E+00  0.00000000E+00  0.00000000E+00
  0.00000000E+00  0.00000000E+00  0.00000000E+00
  0.00000000E+00  0.00000000E+00  0.00000000E+00
  0.00000000E+00  0.00000000E+00  0.00000000E+00
  0.00000000E+00  0.00000000E+00  0.00000000E+00
  0.00000000E+00  0.00000000E+00  0.00000000E+00
  0.00000000E+00  0.00000000E+00  0.00000000E+00
  0.00000000E+00  0.00000000E+00  0.00000000E+00
  0.00000000E+00  0.00000000E+00  0.00000000E+00
