Title                                   
   1.00000000000000     
     9.8694509999999998    0.0000000000000000    0.0000000000000000
     0.0000000000000000    8.5490480000000009    0.0000000000000000
     0.0000000000000000    0.0000000000000000   20.0000000000000000
    28     2     1
Selective dynamics
Direct
  0.0556731675440591  0.0893811772177657  0.0872113026762697   T   T   T
  0.9303726718782463  0.1736750319636635  0.0878155549954486   T   T   T
  0.0567327939874771  0.9229144315667170  0.0872398421924829   T   T   T
  0.9321878953945750  0.3409286805522641  0.0881363338430970   T   T   T
  0.0565431888470211  0.5893573079495117  0.0869565332798999   T   T   T
  0.9334502617461017  0.6749784463244497  0.0895254378192481   T   T   T
  0.0559213180626029  0.4229212311166280  0.0869379259351676   T   T   T
  0.9324516045728756  0.8417654750297391  0.0893455364617092   T   T   T
  0.3059096508768165  0.0884203528107976  0.0922915076275380   T   T   T
  0.1799748652521803  0.1705228759401982  0.0893957367495899   T   T   T
  0.3074500814878246  0.9205611752435380  0.0908141343877407   T   T   T
  0.1790178056001991  0.3372983807543773  0.0895668130150588   T   T   T
  0.3038955632424373  0.5866674735606477  0.0931103537259449   T   T   T
  0.1802558806760891  0.6713820127371468  0.0882449308825188   T   T   T
  0.3014134005271809  0.4175529636013416  0.0956471784329295   T   T   T
  0.1820481307000866  0.8386492506993166  0.0879238971653098   T   T   T
  0.5553400821429714  0.0914330388510090  0.0987002762549953   T   T   T
  0.4285869303200538  0.1743176860912871  0.0987991298352871   T   T   T
  0.5571010124800528  0.9208700202480833  0.0986820521638037   T   T   T
  0.4279699006858494  0.6676534261188529  0.0981995059337730   T   T   T
  0.4321460985180119  0.8343153809301195  0.0956916437251279   T   T   T
  0.8049910851542618  0.0917513403479285  0.0907020083853416   T   T   T
  0.6802927147166864  0.1779653949113170  0.0956792276190229   T   T   T
  0.8065438434805621  0.9239077798073361  0.0921843658087255   T   T   T
  0.6845032293652488  0.3446361928195283  0.0982368574222316   T   T   T
  0.8110630821988914  0.5947249321403368  0.0955374033137284   T   T   T
  0.8085507745192478  0.4256192497287749  0.0930311858322750   T   T   T
  0.6838777743660285  0.8380402986353125  0.0987121615617610   T   T   T
  0.4221696290179761  0.3376159845240075  0.1050987319221592   T   T   T
  0.6903598399337658  0.6747548643802364  0.1049524695574115   T   T   T
  0.5563407227046284  0.5062931433977803  0.1465949614744438   T   T   T
 
  0.00000000E+00  0.00000000E+00  0.00000000E+00
  0.00000000E+00  0.00000000E+00  0.00000000E+00
  0.00000000E+00  0.00000000E+00  0.00000000E+00
  0.00000000E+00  0.00000000E+00  0.00000000E+00
  0.00000000E+00  0.00000000E+00  0.00000000E+00
  0.00000000E+00  0.00000000E+00  0.00000000E+00
  0.00000000E+00  0.00000000E+00  0.00000000E+00
  0.00000000E+00  0.00000000E+00  0.00000000E+00
  0.00000000E+00  0.00000000E+00  0.00000000E+00
  0.00000000E+00  0.00000000E+00  0.00000000E+00
  0.00000000E+00  0.00000000E+00  0.00000000E+00
  0.00000000E+00  0.00000000E+00  0.00000000E+00
  0.00000000E+00  0.00000000E+00  0.00000000E+00
  0.00000000E+00  0.00000000E+00  0.00000000E+00
  0.00000000E+00  0.00000000E+00  0.00000000E+00
  0.00000000E+00  0.00000000E+00  0.00000000E+00
  0.00000000E+00  0.00000000E+00  0.00000000E+00
  0.00000000E+00  0.00000000E+00  0.00000000E+00
  0.00000000E+00  0.00000000E+00  0.00000000E+00
  0.00000000E+00  0.00000000E+00  0.00000000E+00
  0.00000000E+00  0.00000000E+00  0.00000000E+00
  0.00000000E+00  0.00000000E+00  0.00000000E+00
  0.00000000E+00  0.00000000E+00  0.00000000E+00
  0.00000000E+00  0.00000000E+00  0.00000000E+00
  0.00000000E+00  0.00000000E+00  0.00000000E+00
  0.00000000E+00  0.00000000E+00  0.00000000E+00
  0.00000000E+00  0.00000000E+00  0.00000000E+00
  0.00000000E+00  0.00000000E+00  0.00000000E+00
  0.00000000E+00  0.00000000E+00  0.00000000E+00
  0.00000000E+00  0.00000000E+00  0.00000000E+00
  0.00000000E+00  0.00000000E+00  0.00000000E+00
