Title                                   
   1.00000000000000     
     4.9440799999999996    0.0000000000000000    0.0000000000000000
     0.0000000000000000    8.5647549999999999    0.0000000000000000
     0.0000000000000000    0.0000000000000000   20.0000000000000000
    14     1     1
Selective dynamics
Direct
  0.2500000000000000  0.2061264250639357  0.0935544605058717   T   T   T
 -0.0017145210263695  0.2882861796211442  0.0977265353060695   T   T   T
  0.2500000000000000  0.0430603726909475  0.0871009452027562   T   T   T
  0.0012609633709856  0.7956184454835130  0.0960587877214463   T   T   T
 -0.0004418073528986  0.9592911469908889  0.0863549784673450   T   T   T
  0.7500000000000000  0.2064935539832795  0.0888926313172682   T   T   T
  0.5017145210263689  0.2882861796211442  0.0977265353060695   T   T   T
  0.7500000000000000  0.0408267084505847  0.0838103451981268   T   T   T
  0.7500000000000000  0.7102843006168725  0.1018707192546791   T   T   T
  0.4987390366290145  0.7956184454835130  0.0960587877214463   T   T   T
  0.7500000000000000  0.5405951931095145  0.1081476693189338   T   T   T
  0.5004418073528986  0.9592911469908889  0.0863549784673450   T   T   T
  0.5162314347913645  0.4478275007306311  0.1139046406693875   T   T   T
 -0.0162314347913648  0.4478275007306311  0.1139046406693875   T   T   T
  0.2500000000000000  0.7233211454410519  0.1043297734814672   T   T   T
  0.2500000000000000  0.5472457549914593  0.1667155713924080   T   T   T
 
  0.00000000E+00  0.00000000E+00  0.00000000E+00
  0.00000000E+00  0.00000000E+00  0.00000000E+00
  0.00000000E+00  0.00000000E+00  0.00000000E+00
  0.00000000E+00  0.00000000E+00  0.00000000E+00
  0.00000000E+00  0.00000000E+00  0.00000000E+00
  0.00000000E+00  0.00000000E+00  0.00000000E+00
  0.00000000E+00  0.00000000E+00  0.00000000E+00
  0.00000000E+00  0.00000000E+00  0.00000000E+00
  0.00000000E+00  0.00000000E+00  0.00000000E+00
  0.00000000E+00  0.00000000E+00  0.00000000E+00
  0.00000000E+00  0.00000000E+00  0.00000000E+00
  0.00000000E+00  0.00000000E+00  0.00000000E+00
  0.00000000E+00  0.00000000E+00  0.00000000E+00
  0.00000000E+00  0.00000000E+00  0.00000000E+00
  0.00000000E+00  0.00000000E+00  0.00000000E+00
  0.00000000E+00  0.00000000E+00  0.00000000E+00
