Title                                   
   1.00000000000000     
     4.9440799999999996    0.0000000000000000    0.0000000000000000
     0.0000000000000000    8.5647549999999999    0.0000000000000000
     0.0000000000000000    0.0000000000000000   20.0000000000000000
    15     1
Selective dynamics
Direct
  0.2500000000000000  0.2070783562487124  0.0918755548917921   T   T   T
 -0.0018816768232906  0.2890789062000634  0.0955544598433480   T   T   T
  0.2500000000000000  0.0418295293003925  0.0868419860699253   T   T   T
 -0.0014783057938296  0.7948401305794366  0.0987118742710670   T   T   T
 -0.0011307605570093  0.9591160291567823  0.0874993503479707   T   T   T
  0.7500000000000000  0.2069011893556460  0.0876031636352561   T   T   T
  0.5018816768232907  0.2890789062000634  0.0955544598433480   T   T   T
  0.7500000000000000  0.0414050367315070  0.0842699986935250   T   T   T
  0.7500000000000000  0.7099356789849351  0.1035064913431348   T   T   T
  0.5014783057938297  0.7948401305794366  0.0987118742710670   T   T   T
  0.7500000000000000  0.5407136546695865  0.1077031610861127   T   T   T
  0.5011307605570092  0.9591160291567823  0.0874993503479707   T   T   T
  0.5100972302298137  0.4504550421138044  0.1107399534409958   T   T   T
 -0.0100972302298135  0.4504550421138044  0.1107399534409958   T   T   T
  0.2500000000000000  0.7217204014347287  0.1114083013545807   T   T   T
  0.2500000000000000  0.5434359371743185  0.1642920671189181   T   T   T
 
  0.00000000E+00  0.00000000E+00  0.00000000E+00
  0.00000000E+00  0.00000000E+00  0.00000000E+00
  0.00000000E+00  0.00000000E+00  0.00000000E+00
  0.00000000E+00  0.00000000E+00  0.00000000E+00
  0.00000000E+00  0.00000000E+00  0.00000000E+00
  0.00000000E+00  0.00000000E+00  0.00000000E+00
  0.00000000E+00  0.00000000E+00  0.00000000E+00
  0.00000000E+00  0.00000000E+00  0.00000000E+00
  0.00000000E+00  0.00000000E+00  0.00000000E+00
  0.00000000E+00  0.00000000E+00  0.00000000E+00
  0.00000000E+00  0.00000000E+00  0.00000000E+00
  0.00000000E+00  0.00000000E+00  0.00000000E+00
  0.00000000E+00  0.00000000E+00  0.00000000E+00
  0.00000000E+00  0.00000000E+00  0.00000000E+00
  0.00000000E+00  0.00000000E+00  0.00000000E+00
  0.00000000E+00  0.00000000E+00  0.00000000E+00
