Title                                   
   1.00000000000000     
     9.8694509999999998    0.0000000000000000    0.0000000000000000
     0.0000000000000000    8.5490480000000009    0.0000000000000000
     0.0000000000000000    0.0000000000000000   20.0000000000000000
    28     2     1
Selective dynamics
Direct
  0.0557130724316183  0.0888793479252707  0.0842248082062774   T   T   T
  0.9310145701906333  0.1722921562360022  0.0856959252974067   T   T   T
  0.0574340779600605  0.9229125145963358  0.0848664623132831   T   T   T
  0.9332239292263995  0.3396459595525078  0.0861975882158304   T   T   T
  0.0573348174057484  0.5903153514362431  0.0844699053715434   T   T   T
  0.9333488808687644  0.6739619974881376  0.0875032758232507   T   T   T
  0.0573906998667471  0.4231307235412518  0.0838115224727671   T   T   T
  0.9317991977788301  0.8403152903120428  0.0870074579836729   T   T   T
  0.3056624829050360  0.0881760366756911  0.0909440133855863   T   T   T
  0.1805975154706770  0.1702556516401444  0.0860557748577610   T   T   T
  0.1807832894049895  0.3378028663048447  0.0861292474521916   T   T   T
  0.3048582708029521  0.5875093548447234  0.0942614402533251   T   T   T
  0.1821099701492873  0.6729422383345209  0.0867308025944129   T   T   T
  0.3031110067939684  0.4191418886630233  0.0939920024325133   T   T   T
  0.1826582740298051  0.8398099094603522  0.0867551049473211   T   T   T
  0.5546713478270596  0.0923710489322312  0.1002914599066662   T   T   T
  0.4282706115131659  0.1749722061084598  0.0988083009814136   T   T   T
  0.5542718468649164  0.9243748856046633  0.1011470879255668   T   T   T
  0.4263267584789704  0.6721452830436149  0.1054133494976342   T   T   T
  0.4297837328416496  0.8374162947857575  0.0996314023650698   T   T   T
  0.8055379885286424  0.0901021793955155  0.0899520898257758   T   T   T
  0.6811533567675364  0.1770901522626617  0.0976968815878281   T   T   T
  0.8056297701544164  0.9231833804411389  0.0908616758171280   T   T   T
  0.6867195699066774  0.3418578321959458  0.1027002964774599   T   T   T
  0.8102115589005595  0.5917662069829022  0.0953426295757966   T   T   T
  0.6865410764486511  0.6724106178619713  0.1059045691025664   T   T   T
  0.8106181646753988  0.4224635227740310  0.0939499713545359   T   T   T
  0.6807706196955299  0.8380144104017525  0.0996369919638342   T   T   T
  0.4229208270845399  0.3376527750408798  0.1049102322314304   T   T   T
  0.3066979398418004  0.9229086331126505  0.0908251334847868   T   T   T
  0.5559697751849850  0.5050542840447519  0.1552475962954121   T   T   T
 
  0.00000000E+00  0.00000000E+00  0.00000000E+00
  0.00000000E+00  0.00000000E+00  0.00000000E+00
  0.00000000E+00  0.00000000E+00  0.00000000E+00
  0.00000000E+00  0.00000000E+00  0.00000000E+00
  0.00000000E+00  0.00000000E+00  0.00000000E+00
  0.00000000E+00  0.00000000E+00  0.00000000E+00
  0.00000000E+00  0.00000000E+00  0.00000000E+00
  0.00000000E+00  0.00000000E+00  0.00000000E+00
  0.00000000E+00  0.00000000E+00  0.00000000E+00
  0.00000000E+00  0.00000000E+00  0.00000000E+00
  0.00000000E+00  0.00000000E+00  0.00000000E+00
  0.00000000E+00  0.00000000E+00  0.00000000E+00
  0.00000000E+00  0.00000000E+00  0.00000000E+00
  0.00000000E+00  0.00000000E+00  0.00000000E+00
  0.00000000E+00  0.00000000E+00  0.00000000E+00
  0.00000000E+00  0.00000000E+00  0.00000000E+00
  0.00000000E+00  0.00000000E+00  0.00000000E+00
  0.00000000E+00  0.00000000E+00  0.00000000E+00
  0.00000000E+00  0.00000000E+00  0.00000000E+00
  0.00000000E+00  0.00000000E+00  0.00000000E+00
  0.00000000E+00  0.00000000E+00  0.00000000E+00
  0.00000000E+00  0.00000000E+00  0.00000000E+00
  0.00000000E+00  0.00000000E+00  0.00000000E+00
  0.00000000E+00  0.00000000E+00  0.00000000E+00
  0.00000000E+00  0.00000000E+00  0.00000000E+00
  0.00000000E+00  0.00000000E+00  0.00000000E+00
  0.00000000E+00  0.00000000E+00  0.00000000E+00
  0.00000000E+00  0.00000000E+00  0.00000000E+00
  0.00000000E+00  0.00000000E+00  0.00000000E+00
  0.00000000E+00  0.00000000E+00  0.00000000E+00
  0.00000000E+00  0.00000000E+00  0.00000000E+00
