Title                                   
   1.00000000000000     
     9.8694509999999998    0.0000000000000000    0.0000000000000000
     0.0000000000000000    8.5490480000000009    0.0000000000000000
     0.0000000000000000    0.0000000000000000   20.0000000000000000
    28     3     1
Selective dynamics
Direct
  0.0561236963966198  0.0914895938113730  0.0834701405048415   T   T   T
  0.9310521666499677  0.1744922436235281  0.0847222204231855   T   T   T
  0.0578886367592251  0.9242502190092832  0.0825827550489323   T   T   T
  0.9300009833221932  0.3423374573948002  0.0876891881674942   T   T   T
  0.0570256727862809  0.5907399339664091  0.0851608466101819   T   T   T
  0.9329376227302845  0.6741708819740782  0.0854416071792828   T   T   T
  0.0565950575120012  0.4233711700194051  0.0870016995345737   T   T   T
  0.9330363020413854  0.8406450796031590  0.0837588447352352   T   T   T
  0.3059526695406211  0.0877590787279362  0.0893358381016593   T   T   T
  0.1823724649176344  0.1729068887286030  0.0872080865996734   T   T   T
  0.1821037931438136  0.3397342488756899  0.0908443410085107   T   T   T
  0.3032725405869854  0.5887319102850549  0.1041890733304517   T   T   T
  0.1821683700941398  0.6738232365863385  0.0889372934279082   T   T   T
  0.3058002981278143  0.4208108930958555  0.1028659545028566   T   T   T
  0.1821349535977086  0.8406592238298440  0.0860251163577101   T   T   T
  0.5558753121530396  0.0852685454446831  0.0940936975477497   T   T   T
  0.5557051461044604  0.9202582233379191  0.0989617998721964   T   T   T
  0.4301514412286599  0.3308119773614129  0.1085544672981300   T   T   T
  0.4268726182916608  0.8394852313064027  0.1045035760309654   T   T   T
  0.8058049798270946  0.0895902025404290  0.0852661048128357   T   T   T
  0.6799565425561536  0.1709588534513931  0.0911868448257205   T   T   T
  0.8075564685450883  0.9243103224084910  0.0861753243110031   T   T   T
  0.6803277730925543  0.3358918498864644  0.1019502220977138   T   T   T
  0.8078880141111433  0.5940639616729357  0.0956265698728290   T   T   T
  0.8043410152389531  0.4251173676177433  0.0955088436975533   T   T   T
  0.6850534729366444  0.8394970376132611  0.0970898474425873   T   T   T
  0.4158829423263662  0.6831294394330057  0.1210860814585449   T   T   T
  0.5552286650379477  0.4005845659347471  0.1217563859957932   T   T   T
  0.6943077071325467  0.6815677254096044  0.1080159057006106   T   T   T
  0.3062381224262967  0.9251151930137044  0.0893715528238017   T   T   T
  0.4289895399449505  0.1664119754926908  0.0951208642198547   T   T   T
  0.5609940108397691  0.5922614685437557  0.1621739064596297   T   T   T
 
  0.00000000E+00  0.00000000E+00  0.00000000E+00
  0.00000000E+00  0.00000000E+00  0.00000000E+00
  0.00000000E+00  0.00000000E+00  0.00000000E+00
  0.00000000E+00  0.00000000E+00  0.00000000E+00
  0.00000000E+00  0.00000000E+00  0.00000000E+00
  0.00000000E+00  0.00000000E+00  0.00000000E+00
  0.00000000E+00  0.00000000E+00  0.00000000E+00
  0.00000000E+00  0.00000000E+00  0.00000000E+00
  0.00000000E+00  0.00000000E+00  0.00000000E+00
  0.00000000E+00  0.00000000E+00  0.00000000E+00
  0.00000000E+00  0.00000000E+00  0.00000000E+00
  0.00000000E+00  0.00000000E+00  0.00000000E+00
  0.00000000E+00  0.00000000E+00  0.00000000E+00
  0.00000000E+00  0.00000000E+00  0.00000000E+00
  0.00000000E+00  0.00000000E+00  0.00000000E+00
  0.00000000E+00  0.00000000E+00  0.00000000E+00
  0.00000000E+00  0.00000000E+00  0.00000000E+00
  0.00000000E+00  0.00000000E+00  0.00000000E+00
  0.00000000E+00  0.00000000E+00  0.00000000E+00
  0.00000000E+00  0.00000000E+00  0.00000000E+00
  0.00000000E+00  0.00000000E+00  0.00000000E+00
  0.00000000E+00  0.00000000E+00  0.00000000E+00
  0.00000000E+00  0.00000000E+00  0.00000000E+00
  0.00000000E+00  0.00000000E+00  0.00000000E+00
  0.00000000E+00  0.00000000E+00  0.00000000E+00
  0.00000000E+00  0.00000000E+00  0.00000000E+00
  0.00000000E+00  0.00000000E+00  0.00000000E+00
  0.00000000E+00  0.00000000E+00  0.00000000E+00
  0.00000000E+00  0.00000000E+00  0.00000000E+00
  0.00000000E+00  0.00000000E+00  0.00000000E+00
  0.00000000E+00  0.00000000E+00  0.00000000E+00
  0.00000000E+00  0.00000000E+00  0.00000000E+00
