Title                                   
   1.00000000000000     
     4.9440799999999996    0.0000000000000000    0.0000000000000000
     0.0000000000000000   17.1295089999999988    0.0000000000000000
     0.0000000000000000    0.0000000000000000   20.0000000000000000
    28     3     1
Selective dynamics
Direct
  0.0019998317961556  0.1049217703638483  0.2869711944468479   T   T   T
  0.2522112872186106  0.1469039533616425  0.2902863726576969   T   T   T
  0.2533039372456998  0.2298546725093507  0.2994250380188210   T   T   T
  0.0083544653570000  0.3515161783019110  0.3183882910292620   T   T   T
  0.0015822988314577  0.2712422046253810  0.3033510793210459   T   T   T
 -0.0059758929312338  0.6023582407949448  0.3007459452853592   T   T   T
  0.2488593378977675  0.7274012774426007  0.2915988392656886   T   T   T
  0.0006975906317674  0.8536681464426596  0.2841316762628830   T   T   T
  0.2504724974837034  0.8957062413868685  0.2836221661910424   T   T   T
  0.2510150529715889  0.9794148426878634  0.2833945253061376   T   T   T
  0.0002403898908894  0.7699589795902834  0.2874590371037948   T   T   T
  0.5017351710716743  0.1048716758289681  0.2871269132948479   T   T   T
  0.7519419541120994  0.1469141692849189  0.2892038007600423   T   T   T
  0.7525678848392399  0.2295372447674173  0.2964399106709278   T   T   T
  0.5012815478124447  0.0213524746027472  0.2839839524247990   T   T   T
  0.4998153232488966  0.3521971641022347  0.3197704895673262   T   T   T
  0.7509991162992145  0.4819100756862022  0.3188307056320513   T   T   T
  0.5048410028223219  0.2714304223803659  0.3041556410657101   T   T   T
  0.5031433779274430  0.6040132066668455  0.3086441689026560   T   T   T
  0.7497678505742132  0.7287526029163666  0.2901189612424589   T   T   T
  0.4998111137983758  0.8535519817593588  0.2846776494410095   T   T   T
  0.7504064567434710  0.8955190644425348  0.2833492984095771   T   T   T
  0.7510034997617256  0.9792497648009925  0.2831051454478533   T   T   T
  0.4988732292204683  0.7698632978152522  0.2886081353143087   T   T   T
  0.7485288309516754  0.6456394318846144  0.2975449054954847   T   T   T
  0.2490202793951147  0.6436953569281152  0.3006845730239945   T   T   T
  0.0011956495950511  0.0214183768629265  0.2838628170325469   T   T   T
  0.5162375341179979  0.5244180153625575  0.3315384596333841   T   T   T
  0.9875591389383828  0.5209188719215915  0.3035444626656562   T   T   T
  0.2535449447549710  0.3865700730261583  0.3345188770921007   T   T   T
  0.7553345951545022  0.3964969121120008  0.3220151800385789   T   T   T
  0.2064537024673135  0.4872843093404687  0.3814667879560593   T   T   T
 
  0.00000000E+00  0.00000000E+00  0.00000000E+00
  0.00000000E+00  0.00000000E+00  0.00000000E+00
  0.00000000E+00  0.00000000E+00  0.00000000E+00
  0.00000000E+00  0.00000000E+00  0.00000000E+00
  0.00000000E+00  0.00000000E+00  0.00000000E+00
  0.00000000E+00  0.00000000E+00  0.00000000E+00
  0.00000000E+00  0.00000000E+00  0.00000000E+00
  0.00000000E+00  0.00000000E+00  0.00000000E+00
  0.00000000E+00  0.00000000E+00  0.00000000E+00
  0.00000000E+00  0.00000000E+00  0.00000000E+00
  0.00000000E+00  0.00000000E+00  0.00000000E+00
  0.00000000E+00  0.00000000E+00  0.00000000E+00
  0.00000000E+00  0.00000000E+00  0.00000000E+00
  0.00000000E+00  0.00000000E+00  0.00000000E+00
  0.00000000E+00  0.00000000E+00  0.00000000E+00
  0.00000000E+00  0.00000000E+00  0.00000000E+00
  0.00000000E+00  0.00000000E+00  0.00000000E+00
  0.00000000E+00  0.00000000E+00  0.00000000E+00
  0.00000000E+00  0.00000000E+00  0.00000000E+00
  0.00000000E+00  0.00000000E+00  0.00000000E+00
  0.00000000E+00  0.00000000E+00  0.00000000E+00
  0.00000000E+00  0.00000000E+00  0.00000000E+00
  0.00000000E+00  0.00000000E+00  0.00000000E+00
  0.00000000E+00  0.00000000E+00  0.00000000E+00
  0.00000000E+00  0.00000000E+00  0.00000000E+00
  0.00000000E+00  0.00000000E+00  0.00000000E+00
  0.00000000E+00  0.00000000E+00  0.00000000E+00
  0.00000000E+00  0.00000000E+00  0.00000000E+00
  0.00000000E+00  0.00000000E+00  0.00000000E+00
  0.00000000E+00  0.00000000E+00  0.00000000E+00
  0.00000000E+00  0.00000000E+00  0.00000000E+00
  0.00000000E+00  0.00000000E+00  0.00000000E+00
