Title                                   
   1.00000000000000     
     9.8694509999999998    0.0000000000000000    0.0000000000000000
     0.0000000000000000    8.5490480000000009    0.0000000000000000
     0.0000000000000000    0.0000000000000000   20.0000000000000000
    28     3     1
Selective dynamics
Direct
  0.0567786537830745  0.0918541628996231  0.0869305769309563   T   T   T
  0.9323498073716505  0.1735219840957762  0.0889601267594479   T   T   T
  0.0574437464527406  0.9243215834326709  0.0874816026977866   T   T   T
  0.9319449691522450  0.3407291947759323  0.0923561541052608   T   T   T
  0.0570409302249410  0.5906092329142084  0.0900393990222386   T   T   T
  0.9323863952673904  0.6728956184774297  0.0942253949043534   T   T   T
  0.0578612851905626  0.4230955142235367  0.0907295952330217   T   T   T
  0.9326528673982922  0.8394914937210017  0.0920722329253357   T   T   T
  0.3064446940337625  0.0894081100993973  0.0862400538196413   T   T   T
  0.1826349458492378  0.1742143294723544  0.0869661496045135   T   T   T
  0.1846227576704118  0.3410360749891025  0.0892491856749011   T   T   T
  0.3061749419027812  0.5941598130127078  0.0916252926527307   T   T   T
  0.1803699828738230  0.6753900194905159  0.0882271008654818   T   T   T
  0.3116317464284921  0.4262686201634322  0.0914297437721395   T   T   T
  0.1806865500180033  0.8412919638683726  0.0867231353991011   T   T   T
  0.5576030311567174  0.0860100493331099  0.0920705412698842   T   T   T
  0.4312075660979279  0.1688987524032576  0.0886174299145189   T   T   T
  0.5553391728689525  0.9208206186074871  0.0982967484862185   T   T   T
  0.4348706519550072  0.3346431259716491  0.0924401133492382   T   T   T
  0.4273865957474122  0.8417970657956615  0.0938945605849642   T   T   T
  0.8078947020897557  0.0883913364268691  0.0901100014800523   T   T   T
  0.6823061841854410  0.1688684229715216  0.0914342971527789   T   T   T
  0.8074326358366655  0.9227028229506283  0.0938439278818027   T   T   T
  0.6816707344850990  0.3354377883422516  0.0962812343241639   T   T   T
  0.8083983837307337  0.5909065802458915  0.1053878163937203   T   T   T
  0.6907594491765708  0.6783914754452425  0.1209745440717166   T   T   T
  0.8057337066147299  0.4228320046022324  0.0993480358669737   T   T   T
  0.6835385428033425  0.8388689502017845  0.1048364585266362   T   T   T
  0.4213396615479535  0.6849556563334459  0.0981888287649323   T   T   T
  0.5580989957202229  0.4081232563054413  0.1007895762680129   T   T   T
  0.3052795408032241  0.9252155947200817  0.0859079026552294   T   T   T
  0.5297551715628416  0.5750947837073912  0.1699972386422810   T   T   T
 
  0.00000000E+00  0.00000000E+00  0.00000000E+00
  0.00000000E+00  0.00000000E+00  0.00000000E+00
  0.00000000E+00  0.00000000E+00  0.00000000E+00
  0.00000000E+00  0.00000000E+00  0.00000000E+00
  0.00000000E+00  0.00000000E+00  0.00000000E+00
  0.00000000E+00  0.00000000E+00  0.00000000E+00
  0.00000000E+00  0.00000000E+00  0.00000000E+00
  0.00000000E+00  0.00000000E+00  0.00000000E+00
  0.00000000E+00  0.00000000E+00  0.00000000E+00
  0.00000000E+00  0.00000000E+00  0.00000000E+00
  0.00000000E+00  0.00000000E+00  0.00000000E+00
  0.00000000E+00  0.00000000E+00  0.00000000E+00
  0.00000000E+00  0.00000000E+00  0.00000000E+00
  0.00000000E+00  0.00000000E+00  0.00000000E+00
  0.00000000E+00  0.00000000E+00  0.00000000E+00
  0.00000000E+00  0.00000000E+00  0.00000000E+00
  0.00000000E+00  0.00000000E+00  0.00000000E+00
  0.00000000E+00  0.00000000E+00  0.00000000E+00
  0.00000000E+00  0.00000000E+00  0.00000000E+00
  0.00000000E+00  0.00000000E+00  0.00000000E+00
  0.00000000E+00  0.00000000E+00  0.00000000E+00
  0.00000000E+00  0.00000000E+00  0.00000000E+00
  0.00000000E+00  0.00000000E+00  0.00000000E+00
  0.00000000E+00  0.00000000E+00  0.00000000E+00
  0.00000000E+00  0.00000000E+00  0.00000000E+00
  0.00000000E+00  0.00000000E+00  0.00000000E+00
  0.00000000E+00  0.00000000E+00  0.00000000E+00
  0.00000000E+00  0.00000000E+00  0.00000000E+00
  0.00000000E+00  0.00000000E+00  0.00000000E+00
  0.00000000E+00  0.00000000E+00  0.00000000E+00
  0.00000000E+00  0.00000000E+00  0.00000000E+00
  0.00000000E+00  0.00000000E+00  0.00000000E+00
