Title                                   
   1.00000000000000     
     9.8694509999999998    0.0000000000000000    0.0000000000000000
     0.0000000000000000    8.5490480000000009    0.0000000000000000
     0.0000000000000000    0.0000000000000000   20.0000000000000000
    26     4     1
Selective dynamics
Direct
  0.0560243198747347  0.0909094669517235  0.0959509194723436   T   T   T
  0.9306987141407684  0.1727614430057641  0.0959690853167768   T   T   T
  0.0576412106734841  0.9240920077801348  0.0960007501520184   T   T   T
  0.9332050350971554  0.3402947071520896  0.0957325396452485   T   T   T
  0.0570615661893363  0.5902094874789483  0.0952884368657783   T   T   T
  0.9335839669986997  0.6749526578595484  0.0957425594599962   T   T   T
  0.0576077423504000  0.4234764094083366  0.0952878285931647   T   T   T
  0.9320444946578750  0.8410712131463983  0.0960091536185211   T   T   T
  0.3072089150820196  0.0896375044334514  0.0969830394474777   T   T   T
  0.1809790915512809  0.1712503479077044  0.0961423448779229   T   T   T
  0.1813328965363000  0.3395122042702972  0.0958941821877683   T   T   T
  0.3028114772120221  0.5902819613447615  0.0969110401659916   T   T   T
  0.1806112526130588  0.6737143772957134  0.0959531979021998   T   T   T
  0.3043231723383908  0.4220332102136057  0.0968690372826818   T   T   T
  0.1813811654481939  0.8415137460242234  0.0962582813851404   T   T   T
  0.5553057764348995  0.0896668678784762  0.0978645263899019   T   T   T
  0.4303680195631990  0.1767803219347166  0.0977180301769863   T   T   T
  0.5544724313387573  0.9175391967448118  0.0979716574892693   T   T   T
  0.4285522896972174  0.8320249939534108  0.0978467365857005   T   T   T
  0.8042452572516741  0.0905211979086595  0.0966542246196829   T   T   T
  0.6801119004697743  0.1776482208818598  0.0974130873695631   T   T   T
  0.8050142232649057  0.9209180861727136  0.0966995698084115   T   T   T
  0.6836446623293233  0.3470749100799518  0.0975492447209582   T   T   T
  0.8112936014419975  0.5925981390162962  0.0966033525085144   T   T   T
  0.8106836338594027  0.4241732837793094  0.0965205909064861   T   T   T
  0.6817117405801295  0.8308239680599739  0.0975785402126196   T   T   T
  0.4273792752412582  0.3429388010742217  0.0980319022629992   T   T   T
  0.6878467457477088  0.6667626046986140  0.0978250252420586   T   T   T
  0.4235303187702990  0.6718451399421925  0.0981363704034186   T   T   T
  0.3068077131191709  0.9220533386999694  0.0970582277412814   T   T   T
  0.5556523901265733  0.5017951849021349  0.0985015171891550   T   T   T
 
  0.00000000E+00  0.00000000E+00  0.00000000E+00
  0.00000000E+00  0.00000000E+00  0.00000000E+00
  0.00000000E+00  0.00000000E+00  0.00000000E+00
  0.00000000E+00  0.00000000E+00  0.00000000E+00
  0.00000000E+00  0.00000000E+00  0.00000000E+00
  0.00000000E+00  0.00000000E+00  0.00000000E+00
  0.00000000E+00  0.00000000E+00  0.00000000E+00
  0.00000000E+00  0.00000000E+00  0.00000000E+00
  0.00000000E+00  0.00000000E+00  0.00000000E+00
  0.00000000E+00  0.00000000E+00  0.00000000E+00
  0.00000000E+00  0.00000000E+00  0.00000000E+00
  0.00000000E+00  0.00000000E+00  0.00000000E+00
  0.00000000E+00  0.00000000E+00  0.00000000E+00
  0.00000000E+00  0.00000000E+00  0.00000000E+00
  0.00000000E+00  0.00000000E+00  0.00000000E+00
  0.00000000E+00  0.00000000E+00  0.00000000E+00
  0.00000000E+00  0.00000000E+00  0.00000000E+00
  0.00000000E+00  0.00000000E+00  0.00000000E+00
  0.00000000E+00  0.00000000E+00  0.00000000E+00
  0.00000000E+00  0.00000000E+00  0.00000000E+00
  0.00000000E+00  0.00000000E+00  0.00000000E+00
  0.00000000E+00  0.00000000E+00  0.00000000E+00
  0.00000000E+00  0.00000000E+00  0.00000000E+00
  0.00000000E+00  0.00000000E+00  0.00000000E+00
  0.00000000E+00  0.00000000E+00  0.00000000E+00
  0.00000000E+00  0.00000000E+00  0.00000000E+00
  0.00000000E+00  0.00000000E+00  0.00000000E+00
  0.00000000E+00  0.00000000E+00  0.00000000E+00
  0.00000000E+00  0.00000000E+00  0.00000000E+00
  0.00000000E+00  0.00000000E+00  0.00000000E+00
  0.00000000E+00  0.00000000E+00  0.00000000E+00
