Title                                   
   1.00000000000000     
     9.8694509999999998    0.0000000000000000    0.0000000000000000
     0.0000000000000000    8.5490480000000009    0.0000000000000000
     0.0000000000000000    0.0000000000000000   20.0000000000000000
    24     6     1
Selective dynamics
Direct
  0.0551149228307815  0.0894036642107583  0.0921087042108038   T   T   T
  0.9311808818479382  0.1715764386195591  0.0927533137936701   T   T   T
  0.0570882949099417  0.9222390416333081  0.0924818552629891   T   T   T
  0.9348989792495997  0.3393100183598222  0.0926063014024014   T   T   T
  0.0561854427191802  0.5907252029928481  0.0916182496286132   T   T   T
  0.0569824975978079  0.4240073670068430  0.0910595816143151   T   T   T
  0.9325967902826650  0.8395215774901680  0.0934602939697354   T   T   T
  0.3061919697469416  0.0888801201407525  0.0957584488366963   T   T   T
  0.1806538443835665  0.1711486109315967  0.0930030043222765   T   T   T
  0.1798408453451281  0.3389685310469575  0.0927221848768160   T   T   T
  0.2999793974079903  0.5906497602169006  0.0970744534513625   T   T   T
  0.1784516150038818  0.6748214231856661  0.0931625917498246   T   T   T
  0.3013304863215062  0.4207948045117008  0.0970384862668736   T   T   T
  0.1812156029846848  0.8416851094318381  0.0934740974250012   T   T   T
  0.4295959095383730  0.1754453050462108  0.0997910072465931   T   T   T
  0.5541419989916961  0.9182193652715201  0.1008482785905618   T   T   T
  0.4269431639313414  0.8362862670426277  0.0999559884717585   T   T   T
  0.8047983085712535  0.0882391273211835  0.0954374283965506   T   T   T
  0.6818207284284649  0.1754553241810843  0.0993030311911363   T   T   T
  0.8066242047512812  0.9204776597811862  0.0957974090924053   T   T   T
  0.6890015619434382  0.3420592510072503  0.1020005156123468   T   T   T
  0.8149451526653994  0.5932538554862185  0.0976715656114237   T   T   T
  0.8148529977773719  0.4227623179009920  0.0970158660056923   T   T   T
  0.6826034266222526  0.8349832807778187  0.1000503102795259   T   T   T
  0.9343709104767108  0.6737573852926532  0.0934128815363556   T   T   T
  0.5551437098819221  0.0923115180275680  0.1007392055018914   T   T   T
  0.4224243896049096  0.3375296619164774  0.1024902217302928   T   T   T
  0.6943746637293058  0.6717804937221021  0.1028414492704889   T   T   T
  0.4179355902117385  0.6764436929988897  0.1025472110772263   T   T   T
  0.3047965178418557  0.9237065469319223  0.0956340950074910   T   T   T
  0.5570501944010822  0.5044322775155885  0.1071069685669173   T   T   T
 
  0.00000000E+00  0.00000000E+00  0.00000000E+00
  0.00000000E+00  0.00000000E+00  0.00000000E+00
  0.00000000E+00  0.00000000E+00  0.00000000E+00
  0.00000000E+00  0.00000000E+00  0.00000000E+00
  0.00000000E+00  0.00000000E+00  0.00000000E+00
  0.00000000E+00  0.00000000E+00  0.00000000E+00
  0.00000000E+00  0.00000000E+00  0.00000000E+00
  0.00000000E+00  0.00000000E+00  0.00000000E+00
  0.00000000E+00  0.00000000E+00  0.00000000E+00
  0.00000000E+00  0.00000000E+00  0.00000000E+00
  0.00000000E+00  0.00000000E+00  0.00000000E+00
  0.00000000E+00  0.00000000E+00  0.00000000E+00
  0.00000000E+00  0.00000000E+00  0.00000000E+00
  0.00000000E+00  0.00000000E+00  0.00000000E+00
  0.00000000E+00  0.00000000E+00  0.00000000E+00
  0.00000000E+00  0.00000000E+00  0.00000000E+00
  0.00000000E+00  0.00000000E+00  0.00000000E+00
  0.00000000E+00  0.00000000E+00  0.00000000E+00
  0.00000000E+00  0.00000000E+00  0.00000000E+00
  0.00000000E+00  0.00000000E+00  0.00000000E+00
  0.00000000E+00  0.00000000E+00  0.00000000E+00
  0.00000000E+00  0.00000000E+00  0.00000000E+00
  0.00000000E+00  0.00000000E+00  0.00000000E+00
  0.00000000E+00  0.00000000E+00  0.00000000E+00
  0.00000000E+00  0.00000000E+00  0.00000000E+00
  0.00000000E+00  0.00000000E+00  0.00000000E+00
  0.00000000E+00  0.00000000E+00  0.00000000E+00
  0.00000000E+00  0.00000000E+00  0.00000000E+00
  0.00000000E+00  0.00000000E+00  0.00000000E+00
  0.00000000E+00  0.00000000E+00  0.00000000E+00
  0.00000000E+00  0.00000000E+00  0.00000000E+00
