Title                                   
   1.00000000000000     
     4.9440799999999996    0.0000000000000000    0.0000000000000000
     0.0000000000000000    8.5647549999999999    0.0000000000000000
     0.0000000000000000    0.0000000000000000   20.0000000000000000
     9     5     1
Selective dynamics
Direct
 -0.0013108902576719  0.2963868005233588  0.1005747795340074   T   T   T
  0.2500000000000000  0.0381701720127451  0.1003261295913721   T   T   T
 -0.0010290881198897  0.9547182935151570  0.1003573004964575   T   T   T
  0.7500000000000000  0.2074051038728502  0.1004437392142442   T   T   T
  0.5013108902576719  0.2963868005233588  0.1005747795340074   T   T   T
  0.7500000000000000  0.0407687818013642  0.1003145131199945   T   T   T
  0.7500000000000000  0.7090588753433407  0.1005516684919910   T   T   T
  0.7500000000000000  0.5395670459128759  0.1005529752879004   T   T   T
  0.5010290881198897  0.9547182935151570  0.1003573004964575   T   T   T
  0.5071772891986643  0.4563219656166298  0.1006599270299621   T   T   T
 -0.0071772891986645  0.4563219656166298  0.1006599270299621   T   T   T
 -0.0083334420428160  0.7913126503870764  0.1006352183573509   T   T   T
  0.5083334420428157  0.7913126503870764  0.1006352183573509   T   T   T
  0.2500000000000000  0.2134855055793803  0.1004887201215216   T   T   T
  0.2500000000000000  0.6257460953930010  0.1008478033374239   T   T   T
 
  0.00000000E+00  0.00000000E+00  0.00000000E+00
  0.00000000E+00  0.00000000E+00  0.00000000E+00
  0.00000000E+00  0.00000000E+00  0.00000000E+00
  0.00000000E+00  0.00000000E+00  0.00000000E+00
  0.00000000E+00  0.00000000E+00  0.00000000E+00
  0.00000000E+00  0.00000000E+00  0.00000000E+00
  0.00000000E+00  0.00000000E+00  0.00000000E+00
  0.00000000E+00  0.00000000E+00  0.00000000E+00
  0.00000000E+00  0.00000000E+00  0.00000000E+00
  0.00000000E+00  0.00000000E+00  0.00000000E+00
  0.00000000E+00  0.00000000E+00  0.00000000E+00
  0.00000000E+00  0.00000000E+00  0.00000000E+00
  0.00000000E+00  0.00000000E+00  0.00000000E+00
  0.00000000E+00  0.00000000E+00  0.00000000E+00
  0.00000000E+00  0.00000000E+00  0.00000000E+00
