Title                                   
   1.00000000000000     
     4.9440799999999996    0.0000000000000000    0.0000000000000000
     0.0000000000000000    8.5647549999999999    0.0000000000000000
     0.0000000000000000    0.0000000000000000   20.0000000000000000
    13     2     1
Selective dynamics
Direct
  0.2501414672281690  0.2098713915565548  0.0927081076606915   T   T   T
 -0.0043474906805040  0.2920484250497651  0.0916304061373730   T   T   T
  0.2504474525330354  0.0441985162993227  0.0885515259156076   T   T   T
  0.0038616078856290  0.7963516402612127  0.0991367889421239   T   T   T
  0.0005614674672378  0.9600257867048563  0.0872922662508174   T   T   T
  0.7495276607124377  0.2068632418374584  0.0876163282517056   T   T   T
  0.5044956786799428  0.2895537099103628  0.0997688397035858   T   T   T
  0.7504990457530217  0.0410961658464401  0.0846614675576965   T   T   T
  0.7531620639365622  0.7075692202038567  0.1041484050230505   T   T   T
  0.4994913800086324  0.7950788039044839  0.1011228935016450   T   T   T
  0.7535816000921297  0.5346285018018805  0.1079021068521188   T   T   T
  0.5012125915583008  0.9597245465278630  0.0895778562800209   T   T   T
  0.5225370951694237  0.4454706973631147  0.1220751281886842   T   T   T
 -0.0125751769778462  0.4511198467986628  0.0955579425941885   T   T   T
  0.2504486943304964  0.7275790726498933  0.1123440074102094   T   T   T
  0.2269548623033314  0.5388204332842736  0.1584179297304889   T   T   T
 
  0.00000000E+00  0.00000000E+00  0.00000000E+00
  0.00000000E+00  0.00000000E+00  0.00000000E+00
  0.00000000E+00  0.00000000E+00  0.00000000E+00
  0.00000000E+00  0.00000000E+00  0.00000000E+00
  0.00000000E+00  0.00000000E+00  0.00000000E+00
  0.00000000E+00  0.00000000E+00  0.00000000E+00
  0.00000000E+00  0.00000000E+00  0.00000000E+00
  0.00000000E+00  0.00000000E+00  0.00000000E+00
  0.00000000E+00  0.00000000E+00  0.00000000E+00
  0.00000000E+00  0.00000000E+00  0.00000000E+00
  0.00000000E+00  0.00000000E+00  0.00000000E+00
  0.00000000E+00  0.00000000E+00  0.00000000E+00
  0.00000000E+00  0.00000000E+00  0.00000000E+00
  0.00000000E+00  0.00000000E+00  0.00000000E+00
  0.00000000E+00  0.00000000E+00  0.00000000E+00
  0.00000000E+00  0.00000000E+00  0.00000000E+00
