Title                                   
   1.00000000000000     
     8.5490480000000009    0.0000000000000000    0.0000000000000000
     0.0000000000000000    8.5490480000000009    0.0000000000000000
     0.0000000000000000    0.0000000000000000   20.0000000000000000
    21     3     1
Selective dynamics
Direct
  0.9136986752075129  0.2021271724190432  0.0954395632758837   T   T   T
  0.9058355987492588  0.5022319235132303  0.0952684383466499   T   T   T
  0.9072865481985365  0.7972324650270591  0.0954630028940246   T   T   T
  0.1988163619225554  0.0847591276306737  0.0954834774505618   T   T   T
  0.0760354725755440  0.2075142709229161  0.0954529738063182   T   T   T
  0.1933738755422974  0.9224129031013745  0.0954633929785169   T   T   T
  0.1556399119801438  0.6547748145061533  0.0953174715185770   T   T   T
  0.0767435939392263  0.5047674679387011  0.0953136520060308   T   T   T
  0.1576204676810620  0.3574712730873082  0.0953902853540801   T   T   T
  0.0726715017564676  0.7999594405056246  0.0954597627217543   T   T   T
  0.4959909492242351  0.0855359535418678  0.0953631108350348   T   T   T
  0.3487120533358710  0.1663985454104754  0.0954201346654153   T   T   T
  0.4934442587014754  0.9146254793127242  0.0953229990334499   T   T   T
  0.3427826995469894  0.8377687833980282  0.0953283850539090   T   T   T
  0.7912330777244641  0.0814386174139451  0.0954453349876637   T   T   T
  0.6460397493903646  0.1644333232784074  0.0953003524221625   T   T   T
  0.7884750091935905  0.9160638036774390  0.0954570081992350   T   T   T
  0.8243864684775748  0.6487648367655309  0.0952859504937530   T   T   T
  0.8290106760997557  0.3515420574071537  0.0952621163525483   T   T   T
  0.6399675567860802  0.8331669685949734  0.0952939058968114   T   T   T
  0.3237349798638680  0.3325150403766786  0.0954111427725288   T   T   T
  0.3176426286426172  0.6809803794567483  0.0951725869350325   T   T   T
  0.6722532855365945  0.3263975396499330  0.0951257913556170   T   T   T
  0.6633408090776486  0.6721686604883599  0.0951392484536173   T   T   T
  0.4906757908462593  0.4997391525756645  0.0953249121908020   T   T   T
 
  0.00000000E+00  0.00000000E+00  0.00000000E+00
  0.00000000E+00  0.00000000E+00  0.00000000E+00
  0.00000000E+00  0.00000000E+00  0.00000000E+00
  0.00000000E+00  0.00000000E+00  0.00000000E+00
  0.00000000E+00  0.00000000E+00  0.00000000E+00
  0.00000000E+00  0.00000000E+00  0.00000000E+00
  0.00000000E+00  0.00000000E+00  0.00000000E+00
  0.00000000E+00  0.00000000E+00  0.00000000E+00
  0.00000000E+00  0.00000000E+00  0.00000000E+00
  0.00000000E+00  0.00000000E+00  0.00000000E+00
  0.00000000E+00  0.00000000E+00  0.00000000E+00
  0.00000000E+00  0.00000000E+00  0.00000000E+00
  0.00000000E+00  0.00000000E+00  0.00000000E+00
  0.00000000E+00  0.00000000E+00  0.00000000E+00
  0.00000000E+00  0.00000000E+00  0.00000000E+00
  0.00000000E+00  0.00000000E+00  0.00000000E+00
  0.00000000E+00  0.00000000E+00  0.00000000E+00
  0.00000000E+00  0.00000000E+00  0.00000000E+00
  0.00000000E+00  0.00000000E+00  0.00000000E+00
  0.00000000E+00  0.00000000E+00  0.00000000E+00
  0.00000000E+00  0.00000000E+00  0.00000000E+00
  0.00000000E+00  0.00000000E+00  0.00000000E+00
  0.00000000E+00  0.00000000E+00  0.00000000E+00
  0.00000000E+00  0.00000000E+00  0.00000000E+00
  0.00000000E+00  0.00000000E+00  0.00000000E+00
