Title                                   
   1.00000000000000     
     8.5490480000000009    0.0000000000000000    0.0000000000000000
     0.0000000000000000    8.5490480000000009    0.0000000000000000
     0.0000000000000000    0.0000000000000000   20.0000000000000000
    18     6     1
Selective dynamics
Direct
  0.9076669692872610  0.2064842012461010  0.0976066171723453   T   T   T
  0.9103092113889433  0.8003292059069098  0.0975240703099707   T   T   T
  0.1982353785232319  0.0846717052691262  0.0977728892998811   T   T   T
  0.0774412185284496  0.2018029266897967  0.0976865501815645   T   T   T
  0.1575835950197962  0.6509466568880244  0.0977944448138902   T   T   T
  0.0758046056119454  0.5006946244610625  0.0977793561073290   T   T   T
  0.1586818948880938  0.3549561861282390  0.0977432428601780   T   T   T
  0.0795065642138704  0.7987407107493796  0.0976361049206293   T   T   T
  0.3486324709907076  0.1677403545817498  0.0977953459910516   T   T   T
  0.4935739984436318  0.9159051798882694  0.0977786628952679   T   T   T
  0.3441489405279210  0.8345204204005149  0.0978502036932070   T   T   T
  0.7873458851885813  0.0871577715144170  0.0975502688207426   T   T   T
  0.6400782273155760  0.1680414752183820  0.0977293070840724   T   T   T
  0.7894786599719411  0.9181765493588085  0.0974929077351571   T   T   T
  0.8268465785993918  0.6510710540020436  0.0977034568291376   T   T   T
  0.8241282416200025  0.3539326183373952  0.0977438588437709   T   T   T
  0.6422837816157413  0.8353478073660133  0.0977066733010237   T   T   T
  0.3286564552370797  0.3347207043282853  0.0977776459434662   T   T   T
  0.4945600485448744  0.0863595601757659  0.0978292685303743   T   T   T
  0.9040222198967155  0.5024546001983200  0.0978157793121890   T   T   T
  0.3212507841061044  0.6734694881555937  0.0979337115776255   T   T   T
  0.6599265962605432  0.3318423911811192  0.0979048608563766   T   T   T
  0.6661418908354170  0.6711981391335551  0.0978775789358952   T   T   T
  0.1978431265296179  0.9151150683105910  0.0977601654402039   T   T   T
  0.4912646568545533  0.4991106005105565  0.0979120285446233   T   T   T
 
  0.00000000E+00  0.00000000E+00  0.00000000E+00
  0.00000000E+00  0.00000000E+00  0.00000000E+00
  0.00000000E+00  0.00000000E+00  0.00000000E+00
  0.00000000E+00  0.00000000E+00  0.00000000E+00
  0.00000000E+00  0.00000000E+00  0.00000000E+00
  0.00000000E+00  0.00000000E+00  0.00000000E+00
  0.00000000E+00  0.00000000E+00  0.00000000E+00
  0.00000000E+00  0.00000000E+00  0.00000000E+00
  0.00000000E+00  0.00000000E+00  0.00000000E+00
  0.00000000E+00  0.00000000E+00  0.00000000E+00
  0.00000000E+00  0.00000000E+00  0.00000000E+00
  0.00000000E+00  0.00000000E+00  0.00000000E+00
  0.00000000E+00  0.00000000E+00  0.00000000E+00
  0.00000000E+00  0.00000000E+00  0.00000000E+00
  0.00000000E+00  0.00000000E+00  0.00000000E+00
  0.00000000E+00  0.00000000E+00  0.00000000E+00
  0.00000000E+00  0.00000000E+00  0.00000000E+00
  0.00000000E+00  0.00000000E+00  0.00000000E+00
  0.00000000E+00  0.00000000E+00  0.00000000E+00
  0.00000000E+00  0.00000000E+00  0.00000000E+00
  0.00000000E+00  0.00000000E+00  0.00000000E+00
  0.00000000E+00  0.00000000E+00  0.00000000E+00
  0.00000000E+00  0.00000000E+00  0.00000000E+00
  0.00000000E+00  0.00000000E+00  0.00000000E+00
  0.00000000E+00  0.00000000E+00  0.00000000E+00
