Title                                   
   1.00000000000000     
     9.8694509999999998    0.0000000000000000    0.0000000000000000
     0.0000000000000000    8.5490480000000009    0.0000000000000000
     0.0000000000000000    0.0000000000000000   20.0000000000000000
    27     3     1
Selective dynamics
Direct
  0.0553086317862175  0.0902085362903867  0.0817780659599580   T   T   T
  0.9305798730907052  0.1738930601972343  0.0876957860213923   T   T   T
  0.0560533966846595  0.9238534027683571  0.0815874679086213   T   T   T
  0.9314787649981182  0.3408019141421575  0.0875335708678092   T   T   T
  0.0557593961223678  0.5896253053912049  0.0787747526876092   T   T   T
  0.9329751511623832  0.6744871937530639  0.0861584225883816   T   T   T
  0.0552166666773833  0.4229985361633821  0.0789512787516621   T   T   T
  0.9314527549204004  0.8411585494782702  0.0859104274867579   T   T   T
  0.3052214317907344  0.0887395679194096  0.0868172790064520   T   T   T
  0.1803087073247976  0.1721099335111357  0.0807951018997302   T   T   T
  0.3054072854254832  0.9216313695085548  0.0880958674095367   T   T   T
  0.1793388814266089  0.3393677696570500  0.0789928870924434   T   T   T
  0.3046153036588949  0.5917056046002022  0.0868260848193360   T   T   T
  0.1798594179723461  0.6723985721636164  0.0795353761642856   T   T   T
  0.3054913024422264  0.4182239946557154  0.0841974207753630   T   T   T
  0.1804339763961746  0.8398550063573313  0.0820886837677145   T   T   T
  0.5547924439485727  0.0895651391122030  0.1056291999952911   T   T   T
  0.4276980408199318  0.1757293471414548  0.0950927245463827   T   T   T
  0.5551574729378456  0.9188268796219922  0.1050360978123282   T   T   T
  0.4272562380896535  0.8338855173552653  0.0989286684552451   T   T   T
  0.8062454940979837  0.0910830387071165  0.0959582880191957   T   T   T
  0.6834963107852062  0.1742538550535208  0.1104696717505039   T   T   T
  0.8072071641238810  0.9238954155014475  0.0941439736754489   T   T   T
  0.6973677291746475  0.3358656555085529  0.1257584961193598   T   T   T
  0.8107741243783908  0.5959554171717187  0.1013297298330842   T   T   T
  0.8104627386917591  0.4228478141615408  0.1052117543822099   T   T   T
  0.6860115078562192  0.8366811432467947  0.1046019666390272   T   T   T
  0.4225083333649790  0.3362936973072727  0.0916433433939138   T   T   T
  0.6952935294823053  0.6779891897565070  0.1108927327756763   T   T   T
  0.4191807840840550  0.6731443514314336  0.1021020085288261   T   T   T
  0.5501821462850787  0.5038002223661190  0.1584278708664949   T   T   T
 
  0.00000000E+00  0.00000000E+00  0.00000000E+00
  0.00000000E+00  0.00000000E+00  0.00000000E+00
  0.00000000E+00  0.00000000E+00  0.00000000E+00
  0.00000000E+00  0.00000000E+00  0.00000000E+00
  0.00000000E+00  0.00000000E+00  0.00000000E+00
  0.00000000E+00  0.00000000E+00  0.00000000E+00
  0.00000000E+00  0.00000000E+00  0.00000000E+00
  0.00000000E+00  0.00000000E+00  0.00000000E+00
  0.00000000E+00  0.00000000E+00  0.00000000E+00
  0.00000000E+00  0.00000000E+00  0.00000000E+00
  0.00000000E+00  0.00000000E+00  0.00000000E+00
  0.00000000E+00  0.00000000E+00  0.00000000E+00
  0.00000000E+00  0.00000000E+00  0.00000000E+00
  0.00000000E+00  0.00000000E+00  0.00000000E+00
  0.00000000E+00  0.00000000E+00  0.00000000E+00
  0.00000000E+00  0.00000000E+00  0.00000000E+00
  0.00000000E+00  0.00000000E+00  0.00000000E+00
  0.00000000E+00  0.00000000E+00  0.00000000E+00
  0.00000000E+00  0.00000000E+00  0.00000000E+00
  0.00000000E+00  0.00000000E+00  0.00000000E+00
  0.00000000E+00  0.00000000E+00  0.00000000E+00
  0.00000000E+00  0.00000000E+00  0.00000000E+00
  0.00000000E+00  0.00000000E+00  0.00000000E+00
  0.00000000E+00  0.00000000E+00  0.00000000E+00
  0.00000000E+00  0.00000000E+00  0.00000000E+00
  0.00000000E+00  0.00000000E+00  0.00000000E+00
  0.00000000E+00  0.00000000E+00  0.00000000E+00
  0.00000000E+00  0.00000000E+00  0.00000000E+00
  0.00000000E+00  0.00000000E+00  0.00000000E+00
  0.00000000E+00  0.00000000E+00  0.00000000E+00
  0.00000000E+00  0.00000000E+00  0.00000000E+00
