Title                                   
   1.00000000000000     
     9.8694509999999998    0.0000000000000000    0.0000000000000000
     0.0000000000000000    8.5490480000000009    0.0000000000000000
     0.0000000000000000    0.0000000000000000   20.0000000000000000
    27     3     1
Selective dynamics
Direct
  0.0553128005221381  0.0884062042569095  0.0856965122017930   T   T   T
  0.9305519864068792  0.1722318976038095  0.0875667189773766   T   T   T
  0.0572896530519114  0.9227431855990305  0.0859949960058131   T   T   T
  0.9328798490055522  0.3396314038806025  0.0884290696437517   T   T   T
  0.0574995184459641  0.5896491789829255  0.0853504407152372   T   T   T
  0.9334293489554978  0.6730375605932993  0.0894078058175281   T   T   T
  0.0572989209246772  0.4224800896345946  0.0850205120902944   T   T   T
  0.9318730132323318  0.8400600255478176  0.0886984228335379   T   T   T
  0.3062999530569152  0.0868375955822626  0.0896050344734644   T   T   T
  0.1814998956164117  0.1703809345260954  0.0863728595898199   T   T   T
  0.1807388623446594  0.3369106962960145  0.0858218530032763   T   T   T
  0.3065492288922834  0.5870710940735628  0.0909798952751909   T   T   T
  0.1824171031402105  0.6723788370197402  0.0858106475980702   T   T   T
  0.3041500279718468  0.4181696013897757  0.0911030950364214   T   T   T
  0.1829444039715765  0.8388487807217290  0.0862878620501778   T   T   T
  0.4298480420467943  0.1746164952202120  0.0959961590273021   T   T   T
  0.5545704926761886  0.9252438337121172  0.1005905586260570   T   T   T
  0.4280899803237722  0.6730523669621757  0.1004203184509606   T   T   T
  0.4308308213745364  0.8390618210889801  0.0968905662011197   T   T   T
  0.8044044406620270  0.0897265596386475  0.0911088451877166   T   T   T
  0.6802585827209245  0.1782884023498829  0.0981392051774396   T   T   T
  0.8059153914350677  0.9234710219217455  0.0924371210239864   T   T   T
  0.6849783595472528  0.3417064132986804  0.1050167801396633   T   T   T
  0.8104537727384651  0.5916058167445996  0.0985877577121316   T   T   T
  0.6870051921426956  0.6735721697106096  0.1103058061779548   T   T   T
  0.8103505169305593  0.4220643290333685  0.0969606429853511   T   T   T
  0.6807237221752128  0.8395757296176627  0.1016229082404387   T   T   T
  0.5545707721543487  0.0945027626690788  0.0990439729114358   T   T   T
  0.4244945826983357  0.3348242235072978  0.1003310090629170   T   T   T
  0.3064856326390914  0.9230391900538087  0.0892513972158707   T   T   T
  0.5494201321958904  0.5076867787629853  0.1521162265479499   T   T   T
 
  0.00000000E+00  0.00000000E+00  0.00000000E+00
  0.00000000E+00  0.00000000E+00  0.00000000E+00
  0.00000000E+00  0.00000000E+00  0.00000000E+00
  0.00000000E+00  0.00000000E+00  0.00000000E+00
  0.00000000E+00  0.00000000E+00  0.00000000E+00
  0.00000000E+00  0.00000000E+00  0.00000000E+00
  0.00000000E+00  0.00000000E+00  0.00000000E+00
  0.00000000E+00  0.00000000E+00  0.00000000E+00
  0.00000000E+00  0.00000000E+00  0.00000000E+00
  0.00000000E+00  0.00000000E+00  0.00000000E+00
  0.00000000E+00  0.00000000E+00  0.00000000E+00
  0.00000000E+00  0.00000000E+00  0.00000000E+00
  0.00000000E+00  0.00000000E+00  0.00000000E+00
  0.00000000E+00  0.00000000E+00  0.00000000E+00
  0.00000000E+00  0.00000000E+00  0.00000000E+00
  0.00000000E+00  0.00000000E+00  0.00000000E+00
  0.00000000E+00  0.00000000E+00  0.00000000E+00
  0.00000000E+00  0.00000000E+00  0.00000000E+00
  0.00000000E+00  0.00000000E+00  0.00000000E+00
  0.00000000E+00  0.00000000E+00  0.00000000E+00
  0.00000000E+00  0.00000000E+00  0.00000000E+00
  0.00000000E+00  0.00000000E+00  0.00000000E+00
  0.00000000E+00  0.00000000E+00  0.00000000E+00
  0.00000000E+00  0.00000000E+00  0.00000000E+00
  0.00000000E+00  0.00000000E+00  0.00000000E+00
  0.00000000E+00  0.00000000E+00  0.00000000E+00
  0.00000000E+00  0.00000000E+00  0.00000000E+00
  0.00000000E+00  0.00000000E+00  0.00000000E+00
  0.00000000E+00  0.00000000E+00  0.00000000E+00
  0.00000000E+00  0.00000000E+00  0.00000000E+00
  0.00000000E+00  0.00000000E+00  0.00000000E+00
