Title                                   
   1.00000000000000     
     9.8694509999999998    0.0000000000000000    0.0000000000000000
     0.0000000000000000    8.5490480000000009    0.0000000000000000
     0.0000000000000000    0.0000000000000000   20.0000000000000000
    30     1     1
Selective dynamics
Direct
  0.0561982086023844  0.0916701947365859  0.0792236661160040   T   T   T
  0.9309410579253341  0.1738901900342106  0.0834614107935474   T   T   T
  0.0555734194448698  0.9243162900617746  0.0781915707076547   T   T   T
  0.9301498059988224  0.3406943690792800  0.0896279716783295   T   T   T
  0.0563124919564983  0.5891453431903255  0.0831006926379672   T   T   T
  0.9325827392064128  0.6727750687213138  0.0868548401463884   T   T   T
  0.0563271283178727  0.4235105022986294  0.0858446111032618   T   T   T
  0.9316336467177085  0.8398269008399307  0.0821451114584560   T   T   T
  0.3055334761546731  0.0900180301156089  0.0833431758223500   T   T   T
  0.1815337636356044  0.1746090787882082  0.0821634321949538   T   T   T
  0.3043829001014177  0.9236863096872620  0.0847468817770328   T   T   T
  0.1828097526316886  0.3420124193924937  0.0871682006328954   T   T   T
  0.3031091770766786  0.5944853585757433  0.0976382888067499   T   T   T
  0.1798972086889075  0.6737380070918927  0.0839864117453872   T   T   T
  0.3072005096476706  0.4244581763545128  0.0976796886570567   T   T   T
  0.1799600673143230  0.8405954081598359  0.0812373938122919   T   T   T
  0.5554035059445147  0.0844821169527661  0.0936496535438577   T   T   T
  0.4304222875919898  0.1699234803880958  0.0906362308484524   T   T   T
  0.5551530539285000  0.9191720224964084  0.0994204213744657   T   T   T
  0.4311535998947865  0.3339612044780818  0.1036077609546497   T   T   T
  0.5549529360311447  0.3960345989261921  0.1262936248453878   T   T   T
  0.4252337504515836  0.8390099012487413  0.0985012551092276   T   T   T
  0.8070211673814275  0.0891363106721413  0.0848378423939879   T   T   T
  0.6819571385656652  0.1691267202647149  0.0934711076451202   T   T   T
  0.8071213453138377  0.9230693639174959  0.0854376453018367   T   T   T
  0.6819952695212175  0.3317700083880847  0.1079842425989429   T   T   T
  0.8120405253962489  0.5921485255379372  0.1051640251117539   T   T   T
  0.7007026561984422  0.6859138772604166  0.1235395165540221   T   T   T
  0.8071759513039954  0.4219918858063835  0.1033305747887537   T   T   T
  0.6856387268240915  0.8405175476766487  0.1020214053805764   T   T   T
  0.4149330194293473  0.6825745779050562  0.1118156122523592   T   T   T
  0.5545887128023478  0.5919822109532373  0.1695507332063134   T   T   T
 
  0.00000000E+00  0.00000000E+00  0.00000000E+00
  0.00000000E+00  0.00000000E+00  0.00000000E+00
  0.00000000E+00  0.00000000E+00  0.00000000E+00
  0.00000000E+00  0.00000000E+00  0.00000000E+00
  0.00000000E+00  0.00000000E+00  0.00000000E+00
  0.00000000E+00  0.00000000E+00  0.00000000E+00
  0.00000000E+00  0.00000000E+00  0.00000000E+00
  0.00000000E+00  0.00000000E+00  0.00000000E+00
  0.00000000E+00  0.00000000E+00  0.00000000E+00
  0.00000000E+00  0.00000000E+00  0.00000000E+00
  0.00000000E+00  0.00000000E+00  0.00000000E+00
  0.00000000E+00  0.00000000E+00  0.00000000E+00
  0.00000000E+00  0.00000000E+00  0.00000000E+00
  0.00000000E+00  0.00000000E+00  0.00000000E+00
  0.00000000E+00  0.00000000E+00  0.00000000E+00
  0.00000000E+00  0.00000000E+00  0.00000000E+00
  0.00000000E+00  0.00000000E+00  0.00000000E+00
  0.00000000E+00  0.00000000E+00  0.00000000E+00
  0.00000000E+00  0.00000000E+00  0.00000000E+00
  0.00000000E+00  0.00000000E+00  0.00000000E+00
  0.00000000E+00  0.00000000E+00  0.00000000E+00
  0.00000000E+00  0.00000000E+00  0.00000000E+00
  0.00000000E+00  0.00000000E+00  0.00000000E+00
  0.00000000E+00  0.00000000E+00  0.00000000E+00
  0.00000000E+00  0.00000000E+00  0.00000000E+00
  0.00000000E+00  0.00000000E+00  0.00000000E+00
  0.00000000E+00  0.00000000E+00  0.00000000E+00
  0.00000000E+00  0.00000000E+00  0.00000000E+00
  0.00000000E+00  0.00000000E+00  0.00000000E+00
  0.00000000E+00  0.00000000E+00  0.00000000E+00
  0.00000000E+00  0.00000000E+00  0.00000000E+00
  0.00000000E+00  0.00000000E+00  0.00000000E+00
