Title                                   
   1.00000000000000     
     8.5490480000000009    0.0000000000000000    0.0000000000000000
     0.0000000000000000    8.5490480000000009    0.0000000000000000
     0.0000000000000000    0.0000000000000000   20.0000000000000000
    20     4     1
Selective dynamics
Direct
  0.9079101129938862  0.2059062703942808  0.0943321351758470   T   T   T
  0.9132430069134901  0.8026688491836210  0.0954496400345260   T   T   T
  0.1944454326861464  0.0820590010870314  0.0958722926518398   T   T   T
  0.0735870320341727  0.1998199507168946  0.0956871751918311   T   T   T
  0.1574054410427221  0.6487599649390535  0.0950678217714018   T   T   T
  0.0763986924894563  0.5009695983799441  0.0967078966315046   T   T   T
  0.1541528847471364  0.3495302854732529  0.0983173476512650   T   T   T
  0.0795339669709550  0.7996532169048199  0.0943687597494312   T   T   T
  0.4932033683539415  0.0872571963090098  0.0971518096292490   T   T   T
  0.3404586790622207  0.1635402001906213  0.0984437363686142   T   T   T
  0.4942941468517592  0.9165610261988747  0.0973789543913320   T   T   T
  0.3461460822183158  0.8345285063795127  0.0954173906635218   T   T   T
  0.7882774301395299  0.0877828608331759  0.0946668688565840   T   T   T
  0.6388819678265023  0.1692156114408568  0.0953897480574263   T   T   T
  0.7909500117292807  0.9205876416898401  0.0960237317290303   T   T   T
  0.8324353152064041  0.6526682297034939  0.0979025794988222   T   T   T
  0.8272841265944698  0.3578832625156376  0.0948951802284301   T   T   T
  0.6445257495402346  0.8371192894182564  0.0987527830740036   T   T   T
  0.3226200219760565  0.6720792819634134  0.0946901282670852   T   T   T
  0.6640720213559972  0.3374976298129969  0.0948282051970000   T   T   T
  0.9092231058073794  0.5043374801061291  0.0964846657404984   T   T   T
  0.3150159742716414  0.3253588571773752  0.1018291905914361   T   T   T
  0.6727973374950180  0.6733107672259334  0.1020160748841349   T   T   T
  0.1967030465132149  0.9154260436982724  0.0943018066021253   T   T   T
  0.4918470451800553  0.5002689782577143  0.1277290773630402   T   T   T
 
  0.00000000E+00  0.00000000E+00  0.00000000E+00
  0.00000000E+00  0.00000000E+00  0.00000000E+00
  0.00000000E+00  0.00000000E+00  0.00000000E+00
  0.00000000E+00  0.00000000E+00  0.00000000E+00
  0.00000000E+00  0.00000000E+00  0.00000000E+00
  0.00000000E+00  0.00000000E+00  0.00000000E+00
  0.00000000E+00  0.00000000E+00  0.00000000E+00
  0.00000000E+00  0.00000000E+00  0.00000000E+00
  0.00000000E+00  0.00000000E+00  0.00000000E+00
  0.00000000E+00  0.00000000E+00  0.00000000E+00
  0.00000000E+00  0.00000000E+00  0.00000000E+00
  0.00000000E+00  0.00000000E+00  0.00000000E+00
  0.00000000E+00  0.00000000E+00  0.00000000E+00
  0.00000000E+00  0.00000000E+00  0.00000000E+00
  0.00000000E+00  0.00000000E+00  0.00000000E+00
  0.00000000E+00  0.00000000E+00  0.00000000E+00
  0.00000000E+00  0.00000000E+00  0.00000000E+00
  0.00000000E+00  0.00000000E+00  0.00000000E+00
  0.00000000E+00  0.00000000E+00  0.00000000E+00
  0.00000000E+00  0.00000000E+00  0.00000000E+00
  0.00000000E+00  0.00000000E+00  0.00000000E+00
  0.00000000E+00  0.00000000E+00  0.00000000E+00
  0.00000000E+00  0.00000000E+00  0.00000000E+00
  0.00000000E+00  0.00000000E+00  0.00000000E+00
  0.00000000E+00  0.00000000E+00  0.00000000E+00
