Title                                   
   1.00000000000000     
     8.5490480000000009    0.0000000000000000    0.0000000000000000
     0.0000000000000000    8.5490480000000009    0.0000000000000000
     0.0000000000000000    0.0000000000000000   20.0000000000000000
    21     3     1
Selective dynamics
Direct
  0.9088775783017720  0.2085935441019388  0.0948188838397178   T   T   T
  0.9124444003477163  0.8017975766509143  0.0960576286181686   T   T   T
  0.1985578963258096  0.0824099318270089  0.0963978549496889   T   T   T
  0.0738724294394350  0.2045590545954050  0.0963035886277528   T   T   T
  0.1554817756806734  0.6496098812015028  0.0963760486117850   T   T   T
  0.0734062967567304  0.5023980187920116  0.0972630274996261   T   T   T
  0.1524665633091295  0.3547557570046581  0.0985340870783231   T   T   T
  0.0794447494784167  0.7985323940796638  0.0952490967101407   T   T   T
  0.4944883152694116  0.0832182613650593  0.0970600457810075   T   T   T
  0.3450718404067309  0.1617492913427515  0.0984448105875556   T   T   T
  0.4950611367347598  0.9145297995941108  0.0970770508687700   T   T   T
  0.3472169566953102  0.8339737854790402  0.0963974454781969   T   T   T
  0.7871370033298501  0.0874886687334207  0.0950307781812836   T   T   T
  0.6394461562147519  0.1665149673261637  0.0962035689866938   T   T   T
  0.7902869772354164  0.9198188820918393  0.0962077949837481   T   T   T
  0.8304891393249514  0.6527820597535559  0.0978858445254834   T   T   T
  0.8274260500483227  0.3593786777465897  0.0955859614383960   T   T   T
  0.6441951593945860  0.8353530527730922  0.0981888401228429   T   T   T
  0.3214963103496011  0.3317936628663020  0.1033845457476609   T   T   T
  0.3227723000023898  0.6706756081849280  0.0985523375423695   T   T   T
  0.6622240497337939  0.3369584166541053  0.0991251875744755   T   T   T
  0.9069543110832127  0.5049742692341475  0.0966763258249746   T   T   T
  0.6707002746960462  0.6728744101823682  0.1011600809860526   T   T   T
  0.1988328102997441  0.9166027634746845  0.0950448105404764   T   T   T
  0.4870615195414307  0.4934472649447510  0.1156793548947924   T   T   T
 
  0.00000000E+00  0.00000000E+00  0.00000000E+00
  0.00000000E+00  0.00000000E+00  0.00000000E+00
  0.00000000E+00  0.00000000E+00  0.00000000E+00
  0.00000000E+00  0.00000000E+00  0.00000000E+00
  0.00000000E+00  0.00000000E+00  0.00000000E+00
  0.00000000E+00  0.00000000E+00  0.00000000E+00
  0.00000000E+00  0.00000000E+00  0.00000000E+00
  0.00000000E+00  0.00000000E+00  0.00000000E+00
  0.00000000E+00  0.00000000E+00  0.00000000E+00
  0.00000000E+00  0.00000000E+00  0.00000000E+00
  0.00000000E+00  0.00000000E+00  0.00000000E+00
  0.00000000E+00  0.00000000E+00  0.00000000E+00
  0.00000000E+00  0.00000000E+00  0.00000000E+00
  0.00000000E+00  0.00000000E+00  0.00000000E+00
  0.00000000E+00  0.00000000E+00  0.00000000E+00
  0.00000000E+00  0.00000000E+00  0.00000000E+00
  0.00000000E+00  0.00000000E+00  0.00000000E+00
  0.00000000E+00  0.00000000E+00  0.00000000E+00
  0.00000000E+00  0.00000000E+00  0.00000000E+00
  0.00000000E+00  0.00000000E+00  0.00000000E+00
  0.00000000E+00  0.00000000E+00  0.00000000E+00
  0.00000000E+00  0.00000000E+00  0.00000000E+00
  0.00000000E+00  0.00000000E+00  0.00000000E+00
  0.00000000E+00  0.00000000E+00  0.00000000E+00
  0.00000000E+00  0.00000000E+00  0.00000000E+00
