Title                                   
   1.00000000000000     
     4.9440799999999996    0.0000000000000000    0.0000000000000000
     0.0000000000000000   17.1295089999999988    0.0000000000000000
     0.0000000000000000    0.0000000000000000   20.0000000000000000
    26     4     1
Selective dynamics
Direct
  0.0011776149433634  0.1057654913142650  0.2979192626355824   T   T   T
  0.2503442699286734  0.1487402983450835  0.2986235399590277   T   T   T
  0.2503022989077921  0.2330850388862041  0.3001009412117444   T   T   T
 -0.0026756165332088  0.2738834120642255  0.3007812853628732   T   T   T
 -0.0027547980394309  0.6010460663064349  0.3012326832039052   T   T   T
  0.2503311568821998  0.7261742731432074  0.2990666769688143   T   T   T
  0.0008168026615871  0.8531507121188203  0.2971959505087401   T   T   T
  0.2503506315386215  0.8955543293011277  0.2968235733261583   T   T   T
  0.2503466815618275  0.9793750083588866  0.2966964878077071   T   T   T
  0.0011575718779815  0.7691549341848464  0.2983301947490217   T   T   T
  0.4995295227830757  0.1057654187759152  0.2979212986413469   T   T   T
  0.7503731111129204  0.1473803879920038  0.2985542686448699   T   T   T
  0.7503347764163583  0.2309787396840619  0.3000176495667070   T   T   T
  0.4998702352860859  0.0217825775390551  0.2969638380025481   T   T   T
  0.7503016101688141  0.3933181134976456  0.3024510568126271   T   T   T
  0.7502954225024432  0.4816021930633842  0.3025963192687286   T   T   T
  0.5032963820384846  0.2738703239749916  0.3007963080675070   T   T   T
  0.5033290102323532  0.6010553703854510  0.3012534009928062   T   T   T
  0.7503377644648976  0.7275464453008158  0.2989861360650682   T   T   T
  0.4998918513128535  0.8531539361175405  0.2971956807396441   T   T   T
  0.7503435018072515  0.8953728025898676  0.2968277231798263   T   T   T
  0.7503358709098448  0.9795629005663238  0.2966957615581340   T   T   T
  0.4995210008423452  0.7691588434239448  0.2983303976083578   T   T   T
  0.7503071513226044  0.6439597155282109  0.3004848558155044   T   T   T
  0.2502862211868127  0.6418263646277997  0.3005606751028444   T   T   T
  0.0008357820756798  0.0217843181852605  0.2969612740701437   T   T   T
  0.5153720608728359  0.5205802940086602  0.3024090815666473   T   T   T
  0.9851957692493878  0.5205870714191233  0.3023598363074165   T   T   T
  0.5153645972803715  0.3543353742023910  0.3021221938781404   T   T   T
 -0.0147797501122701  0.3543288645946449  0.3020822309425718   T   T   T
  0.2502684945174447  0.4374623804998039  0.3027194174349383   T   T   T
 
  0.00000000E+00  0.00000000E+00  0.00000000E+00
  0.00000000E+00  0.00000000E+00  0.00000000E+00
  0.00000000E+00  0.00000000E+00  0.00000000E+00
  0.00000000E+00  0.00000000E+00  0.00000000E+00
  0.00000000E+00  0.00000000E+00  0.00000000E+00
  0.00000000E+00  0.00000000E+00  0.00000000E+00
  0.00000000E+00  0.00000000E+00  0.00000000E+00
  0.00000000E+00  0.00000000E+00  0.00000000E+00
  0.00000000E+00  0.00000000E+00  0.00000000E+00
  0.00000000E+00  0.00000000E+00  0.00000000E+00
  0.00000000E+00  0.00000000E+00  0.00000000E+00
  0.00000000E+00  0.00000000E+00  0.00000000E+00
  0.00000000E+00  0.00000000E+00  0.00000000E+00
  0.00000000E+00  0.00000000E+00  0.00000000E+00
  0.00000000E+00  0.00000000E+00  0.00000000E+00
  0.00000000E+00  0.00000000E+00  0.00000000E+00
  0.00000000E+00  0.00000000E+00  0.00000000E+00
  0.00000000E+00  0.00000000E+00  0.00000000E+00
  0.00000000E+00  0.00000000E+00  0.00000000E+00
  0.00000000E+00  0.00000000E+00  0.00000000E+00
  0.00000000E+00  0.00000000E+00  0.00000000E+00
  0.00000000E+00  0.00000000E+00  0.00000000E+00
  0.00000000E+00  0.00000000E+00  0.00000000E+00
  0.00000000E+00  0.00000000E+00  0.00000000E+00
  0.00000000E+00  0.00000000E+00  0.00000000E+00
  0.00000000E+00  0.00000000E+00  0.00000000E+00
  0.00000000E+00  0.00000000E+00  0.00000000E+00
  0.00000000E+00  0.00000000E+00  0.00000000E+00
  0.00000000E+00  0.00000000E+00  0.00000000E+00
  0.00000000E+00  0.00000000E+00  0.00000000E+00
  0.00000000E+00  0.00000000E+00  0.00000000E+00
