Title                                   
   1.00000000000000     
     4.9440799999999996    0.0000000000000000    0.0000000000000000
     0.0000000000000000    8.5647549999999999    0.0000000000000000
     0.0000000000000000    0.0000000000000000   20.0000000000000000
    11     3     1
Selective dynamics
Direct
  0.0038620570687851  0.2912437852016042  0.0904858657986721   T   T   T
  0.2497038630875802  0.0420444484245541  0.1002488584238055   T   T   T
 -0.0048150565838560  0.9579468325316260  0.0977138208371837   T   T   T
  0.7525022008982288  0.2076347139676319  0.0945474516423760   T   T   T
  0.5074375746890196  0.2955481222406312  0.1029770929969635   T   T   T
  0.7454436257224132  0.0410188413957108  0.0969575556858283   T   T   T
  0.7479697972816121  0.7136415088026024  0.1001020541879617   T   T   T
  0.7575775610724449  0.5348681648831294  0.0986759532387027   T   T   T
  0.4966940401676185  0.9578693241457708  0.1027970566062467   T   T   T
  0.5051242236397419  0.7897235493340620  0.1102639042362526   T   T   T
 -0.0043832307712831  0.4539615608610009  0.0845867564915285   T   T   T
  0.5183450875053691  0.4551587916399472  0.1145910358302963   T   T   T
 -0.0154612865433347  0.7951661608158705  0.0990254099816086   T   T   T
  0.2548826537251923  0.2103432108967867  0.0989294577629167   T   T   T
  0.2351168890404680  0.6255119848590743  0.1160777262796606   T   T   T
 
  0.00000000E+00  0.00000000E+00  0.00000000E+00
  0.00000000E+00  0.00000000E+00  0.00000000E+00
  0.00000000E+00  0.00000000E+00  0.00000000E+00
  0.00000000E+00  0.00000000E+00  0.00000000E+00
  0.00000000E+00  0.00000000E+00  0.00000000E+00
  0.00000000E+00  0.00000000E+00  0.00000000E+00
  0.00000000E+00  0.00000000E+00  0.00000000E+00
  0.00000000E+00  0.00000000E+00  0.00000000E+00
  0.00000000E+00  0.00000000E+00  0.00000000E+00
  0.00000000E+00  0.00000000E+00  0.00000000E+00
  0.00000000E+00  0.00000000E+00  0.00000000E+00
  0.00000000E+00  0.00000000E+00  0.00000000E+00
  0.00000000E+00  0.00000000E+00  0.00000000E+00
  0.00000000E+00  0.00000000E+00  0.00000000E+00
  0.00000000E+00  0.00000000E+00  0.00000000E+00
