Title                                   
   1.00000000000000     
     4.9440799999999996    0.0000000000000000    0.0000000000000000
     0.0000000000000000    8.5647549999999999    0.0000000000000000
     0.0000000000000000    0.0000000000000000   20.0000000000000000
    13     2     1
Selective dynamics
Direct
  0.2475184355415384  0.2095114154947381  0.0930006436410558   T   T   T
 -0.0067534654871153  0.2915782666981576  0.0919530272391696   T   T   T
  0.2497946458850586  0.0439217141532388  0.0889706534073374   T   T   T
  0.0047690810071622  0.7950957149862583  0.0973010022543614   T   T   T
  0.0005629820278618  0.9594703846070051  0.0876064341558380   T   T   T
  0.7474610161553926  0.2070036692172212  0.0888188326339777   T   T   T
  0.5008518586577552  0.2895937798090356  0.0996931194330972   T   T   T
  0.7501629765444523  0.0408400297820760  0.0851946137715420   T   T   T
  0.7542828655629873  0.7070230776115229  0.1011556085016862   T   T   T
  0.5019061572801409  0.7947740273072454  0.0991371141424296   T   T   T
  0.7525301772716333  0.5356231112930657  0.1051958870214647   T   T   T
  0.5009333820251971  0.9595226141889962  0.0895045305666550   T   T   T
  0.5205783863120815  0.4477848558596054  0.1209827047196114   T   T   T
 -0.0114135485766931  0.4517636001148554  0.0945829306663357   T   T   T
  0.2534149383628533  0.7246915482004692  0.1094126138718683   T   T   T
  0.2334001114296946  0.5418021906765100  0.1700022839735779   T   T   T
 
  0.00000000E+00  0.00000000E+00  0.00000000E+00
  0.00000000E+00  0.00000000E+00  0.00000000E+00
  0.00000000E+00  0.00000000E+00  0.00000000E+00
  0.00000000E+00  0.00000000E+00  0.00000000E+00
  0.00000000E+00  0.00000000E+00  0.00000000E+00
  0.00000000E+00  0.00000000E+00  0.00000000E+00
  0.00000000E+00  0.00000000E+00  0.00000000E+00
  0.00000000E+00  0.00000000E+00  0.00000000E+00
  0.00000000E+00  0.00000000E+00  0.00000000E+00
  0.00000000E+00  0.00000000E+00  0.00000000E+00
  0.00000000E+00  0.00000000E+00  0.00000000E+00
  0.00000000E+00  0.00000000E+00  0.00000000E+00
  0.00000000E+00  0.00000000E+00  0.00000000E+00
  0.00000000E+00  0.00000000E+00  0.00000000E+00
  0.00000000E+00  0.00000000E+00  0.00000000E+00
  0.00000000E+00  0.00000000E+00  0.00000000E+00
