Title                                   
   1.00000000000000     
     9.8694509999999998    0.0000000000000000    0.0000000000000000
     0.0000000000000000    8.5490480000000009    0.0000000000000000
     0.0000000000000000    0.0000000000000000   20.0000000000000000
    29     2     1
Selective dynamics
Direct
  0.0564100199213268  0.0901596158788705  0.0820519110358467   T   T   T
  0.9312791208614880  0.1734304232158322  0.0835808972220818   T   T   T
  0.0572816385197479  0.9233592514014982  0.0825119508584755   T   T   T
  0.9308408289968709  0.3404366067727334  0.0863985844737700   T   T   T
  0.0569842627253882  0.5903612191344857  0.0845439190895858   T   T   T
  0.9322313487240499  0.6727443405064042  0.0876922910458240   T   T   T
  0.0568665404636347  0.4229323133150340  0.0847799614940749   T   T   T
  0.9322525965605060  0.8397541747367222  0.0856857702658684   T   T   T
  0.3060452325740753  0.0884393067681055  0.0866058496445387   T   T   T
  0.1824215716948881  0.1724497141890396  0.0841804380851809   T   T   T
  0.1821753489825305  0.3394839851415375  0.0865890197058834   T   T   T
  0.3043383219841529  0.5887539934772680  0.0995785270446989   T   T   T
  0.1823069026220142  0.6735550506510548  0.0870518020355836   T   T   T
  0.3064724075333545  0.4212923252789034  0.0974062016678168   T   T   T
  0.1823835567062300  0.8406790697324235  0.0849561400741965   T   T   T
  0.5553705591958695  0.0877590515797432  0.0933249337127746   T   T   T
  0.5545903100958226  0.9236967163264763  0.1002120423818579   T   T   T
  0.4300895321711004  0.3324786513830364  0.1042295860873789   T   T   T
  0.4269127437356430  0.8414573428078516  0.1029897536904085   T   T   T
  0.8062250954782813  0.0892551961332759  0.0857840481521606   T   T   T
  0.6803696377604639  0.1715573285441497  0.0912512168560453   T   T   T
  0.8067869690680847  0.9239117975127210  0.0887583261147733   T   T   T
  0.6819681475100376  0.3356147095391985  0.1017511113650633   T   T   T
  0.8091409575451891  0.5907350955629102  0.0999757983648617   T   T   T
  0.8060431988913473  0.4224315114906204  0.0967998216287971   T   T   T
  0.6829160640690437  0.8426246611650768  0.1015326517804571   T   T   T
  0.4182717206401891  0.6818379003715596  0.1179689753427833   T   T   T
  0.5548209515897127  0.4033900059605599  0.1203312210334248   T   T   T
  0.6930633250040465  0.6807503404035899  0.1178803140293796   T   T   T
  0.3062213407660235  0.9253664332790654  0.0879917004717172   T   T   T
  0.4291098493834913  0.1685333721582199  0.0922858989893325   T   T   T
  0.5574488982254011  0.5910144955820354  0.1789943362553747   T   T   T
 
  0.00000000E+00  0.00000000E+00  0.00000000E+00
  0.00000000E+00  0.00000000E+00  0.00000000E+00
  0.00000000E+00  0.00000000E+00  0.00000000E+00
  0.00000000E+00  0.00000000E+00  0.00000000E+00
  0.00000000E+00  0.00000000E+00  0.00000000E+00
  0.00000000E+00  0.00000000E+00  0.00000000E+00
  0.00000000E+00  0.00000000E+00  0.00000000E+00
  0.00000000E+00  0.00000000E+00  0.00000000E+00
  0.00000000E+00  0.00000000E+00  0.00000000E+00
  0.00000000E+00  0.00000000E+00  0.00000000E+00
  0.00000000E+00  0.00000000E+00  0.00000000E+00
  0.00000000E+00  0.00000000E+00  0.00000000E+00
  0.00000000E+00  0.00000000E+00  0.00000000E+00
  0.00000000E+00  0.00000000E+00  0.00000000E+00
  0.00000000E+00  0.00000000E+00  0.00000000E+00
  0.00000000E+00  0.00000000E+00  0.00000000E+00
  0.00000000E+00  0.00000000E+00  0.00000000E+00
  0.00000000E+00  0.00000000E+00  0.00000000E+00
  0.00000000E+00  0.00000000E+00  0.00000000E+00
  0.00000000E+00  0.00000000E+00  0.00000000E+00
  0.00000000E+00  0.00000000E+00  0.00000000E+00
  0.00000000E+00  0.00000000E+00  0.00000000E+00
  0.00000000E+00  0.00000000E+00  0.00000000E+00
  0.00000000E+00  0.00000000E+00  0.00000000E+00
  0.00000000E+00  0.00000000E+00  0.00000000E+00
  0.00000000E+00  0.00000000E+00  0.00000000E+00
  0.00000000E+00  0.00000000E+00  0.00000000E+00
  0.00000000E+00  0.00000000E+00  0.00000000E+00
  0.00000000E+00  0.00000000E+00  0.00000000E+00
  0.00000000E+00  0.00000000E+00  0.00000000E+00
  0.00000000E+00  0.00000000E+00  0.00000000E+00
  0.00000000E+00  0.00000000E+00  0.00000000E+00
