Title                                   
   1.00000000000000     
     9.8694509999999998    0.0000000000000000    0.0000000000000000
     0.0000000000000000    8.5490480000000009    0.0000000000000000
     0.0000000000000000    0.0000000000000000   20.0000000000000000
    26     5     1
Selective dynamics
Direct
  0.0562465768131592  0.0919631293859166  0.0838366451629338   T   T   T
  0.9309196649036708  0.1747347190881919  0.0851511904759255   T   T   T
  0.0577016925842406  0.9247145269014335  0.0838801475578229   T   T   T
  0.9297853381062073  0.3420267646194535  0.0875230941394325   T   T   T
  0.0573413066639791  0.5905669430848673  0.0838919336761634   T   T   T
  0.9327667994693051  0.6735175270859826  0.0871072528941524   T   T   T
  0.0568234177171688  0.4232414102350922  0.0854415236230040   T   T   T
  0.9329145345894601  0.8407698284366718  0.0861003601797138   T   T   T
  0.3062826679674818  0.0886324463052007  0.0883500225904090   T   T   T
  0.1828952032220379  0.1738371485301011  0.0858216289617053   T   T   T
  0.1833041481851443  0.3405382067059841  0.0872472968907848   T   T   T
  0.3048676739154716  0.5913362255065401  0.0971431984564523   T   T   T
  0.1820669558113598  0.6742941686681809  0.0861959080146005   T   T   T
  0.3105210032855574  0.4233320596095019  0.0955388215428852   T   T   T
  0.1815771904033311  0.8412895563610822  0.0859771198374743   T   T   T
  0.5558639040330025  0.0845561356800094  0.0961025894772143   T   T   T
  0.5544518105999194  0.9182959395595419  0.1005846620234069   T   T   T
  0.4317728687670326  0.3308120470566017  0.1024326668207385   T   T   T
  0.4257350230708277  0.8394974594749595  0.1016701223368558   T   T   T
  0.8059791586466140  0.0896029291099631  0.0864743661840537   T   T   T
  0.6798019765932973  0.1698030027876841  0.0924140369081819   T   T   T
  0.8075145921498842  0.9239892035524837  0.0886025311569685   T   T   T
  0.6798871173067891  0.3337542525395611  0.1008888385393353   T   T   T
  0.8090434090831081  0.5935089481831755  0.0978454544003377   T   T   T
  0.8020712114569573  0.4246277871290085  0.0958964823565934   T   T   T
  0.6850887726040367  0.8397121474152799  0.0999658024150444   T   T   T
  0.4140083576675109  0.6846348835166041  0.1170952526999271   T   T   T
  0.5541354832145079  0.3970754117255613  0.1208229222751456   T   T   T
  0.6957503765768568  0.6821818647941289  0.1143719368193798   T   T   T
  0.3065385793462996  0.9251794685130278  0.0893819537077744   T   T   T
  0.4294708146772851  0.1674886518241117  0.0946826051115790   T   T   T
  0.5565113705685012  0.5907312066141009  0.1772366327640204   T   T   T
 
  0.00000000E+00  0.00000000E+00  0.00000000E+00
  0.00000000E+00  0.00000000E+00  0.00000000E+00
  0.00000000E+00  0.00000000E+00  0.00000000E+00
  0.00000000E+00  0.00000000E+00  0.00000000E+00
  0.00000000E+00  0.00000000E+00  0.00000000E+00
  0.00000000E+00  0.00000000E+00  0.00000000E+00
  0.00000000E+00  0.00000000E+00  0.00000000E+00
  0.00000000E+00  0.00000000E+00  0.00000000E+00
  0.00000000E+00  0.00000000E+00  0.00000000E+00
  0.00000000E+00  0.00000000E+00  0.00000000E+00
  0.00000000E+00  0.00000000E+00  0.00000000E+00
  0.00000000E+00  0.00000000E+00  0.00000000E+00
  0.00000000E+00  0.00000000E+00  0.00000000E+00
  0.00000000E+00  0.00000000E+00  0.00000000E+00
  0.00000000E+00  0.00000000E+00  0.00000000E+00
  0.00000000E+00  0.00000000E+00  0.00000000E+00
  0.00000000E+00  0.00000000E+00  0.00000000E+00
  0.00000000E+00  0.00000000E+00  0.00000000E+00
  0.00000000E+00  0.00000000E+00  0.00000000E+00
  0.00000000E+00  0.00000000E+00  0.00000000E+00
  0.00000000E+00  0.00000000E+00  0.00000000E+00
  0.00000000E+00  0.00000000E+00  0.00000000E+00
  0.00000000E+00  0.00000000E+00  0.00000000E+00
  0.00000000E+00  0.00000000E+00  0.00000000E+00
  0.00000000E+00  0.00000000E+00  0.00000000E+00
  0.00000000E+00  0.00000000E+00  0.00000000E+00
  0.00000000E+00  0.00000000E+00  0.00000000E+00
  0.00000000E+00  0.00000000E+00  0.00000000E+00
  0.00000000E+00  0.00000000E+00  0.00000000E+00
  0.00000000E+00  0.00000000E+00  0.00000000E+00
  0.00000000E+00  0.00000000E+00  0.00000000E+00
  0.00000000E+00  0.00000000E+00  0.00000000E+00
