Title                                   
   1.00000000000000     
     9.8694509999999998    0.0000000000000000    0.0000000000000000
     0.0000000000000000    8.5490480000000009    0.0000000000000000
     0.0000000000000000    0.0000000000000000   20.0000000000000000
    28     3     1
Selective dynamics
Direct
  0.0562656515391103  0.0906555884404457  0.0841677475707847   T   T   T
  0.9304409277214299  0.1739684341825670  0.0869446879665533   T   T   T
  0.0562723554875972  0.9226195954945433  0.0827738253538353   T   T   T
  0.9306376231187325  0.3400207999841630  0.0909916558603985   T   T   T
  0.0562045978603558  0.5892768375583216  0.0858506519766199   T   T   T
  0.9312634885461464  0.6706773901167333  0.0868576856400222   T   T   T
  0.0562361492482722  0.4228826819254340  0.0895115957083448   T   T   T
  0.9304796411688601  0.8385665399302474  0.0848228058806124   T   T   T
  0.3056095454129421  0.0892804542143825  0.0863334181700689   T   T   T
  0.1821227642490660  0.1739541733771420  0.0864536360665605   T   T   T
  0.3069762447277820  0.9235967274933374  0.0865725200764284   T   T   T
  0.1818420628027286  0.3399862109043182  0.0905029621314523   T   T   T
  0.3052508088191285  0.5895699462705997  0.0975118497593393   T   T   T
  0.1811896365598430  0.6706732849424427  0.0863213440546853   T   T   T
  0.1820825778123891  0.8385148484487928  0.0843067226361761   T   T   T
  0.5563262679592487  0.0886739311054993  0.0944657314589606   T   T   T
  0.4306153486691870  0.1713499820130222  0.0923987765888975   T   T   T
  0.4312208865214754  0.3363614901594323  0.1013706850088990   T   T   T
  0.4300608752547688  0.8405961546975282  0.0976941598683387   T   T   T
  0.8070080938849341  0.0892808508608075  0.0871322674904047   T   T   T
  0.6820442118086244  0.1713690996030898  0.0930652962065833   T   T   T
  0.8056189655883637  0.9236318838249303  0.0873312541598175   T   T   T
  0.6813222293739166  0.3363755847607138  0.1020254623482994   T   T   T
  0.8072863608704531  0.5896302222867033  0.0984648312453711   T   T   T
  0.6825347671918790  0.8405985059120938  0.0983906974107913   T   T   T
  0.4223689658592652  0.6786544348788696  0.1139934633353173   T   T   T
  0.5560819936368601  0.4104524701232818  0.1187193810834946   T   T   T
  0.6901836442344227  0.6787584902804222  0.1149465413855231   T   T   T
  0.5563156462594864  0.9219185556281954  0.0977795726838593   T   T   T
  0.3069399979862433  0.4223388716648828  0.0972991434904074   T   T   T
  0.8055951370828169  0.4223557437320491  0.0981930535459221   T   T   T
  0.5552415327436770  0.5936562151850118  0.1824815738372471   T   T   T
 
  0.00000000E+00  0.00000000E+00  0.00000000E+00
  0.00000000E+00  0.00000000E+00  0.00000000E+00
  0.00000000E+00  0.00000000E+00  0.00000000E+00
  0.00000000E+00  0.00000000E+00  0.00000000E+00
  0.00000000E+00  0.00000000E+00  0.00000000E+00
  0.00000000E+00  0.00000000E+00  0.00000000E+00
  0.00000000E+00  0.00000000E+00  0.00000000E+00
  0.00000000E+00  0.00000000E+00  0.00000000E+00
  0.00000000E+00  0.00000000E+00  0.00000000E+00
  0.00000000E+00  0.00000000E+00  0.00000000E+00
  0.00000000E+00  0.00000000E+00  0.00000000E+00
  0.00000000E+00  0.00000000E+00  0.00000000E+00
  0.00000000E+00  0.00000000E+00  0.00000000E+00
  0.00000000E+00  0.00000000E+00  0.00000000E+00
  0.00000000E+00  0.00000000E+00  0.00000000E+00
  0.00000000E+00  0.00000000E+00  0.00000000E+00
  0.00000000E+00  0.00000000E+00  0.00000000E+00
  0.00000000E+00  0.00000000E+00  0.00000000E+00
  0.00000000E+00  0.00000000E+00  0.00000000E+00
  0.00000000E+00  0.00000000E+00  0.00000000E+00
  0.00000000E+00  0.00000000E+00  0.00000000E+00
  0.00000000E+00  0.00000000E+00  0.00000000E+00
  0.00000000E+00  0.00000000E+00  0.00000000E+00
  0.00000000E+00  0.00000000E+00  0.00000000E+00
  0.00000000E+00  0.00000000E+00  0.00000000E+00
  0.00000000E+00  0.00000000E+00  0.00000000E+00
  0.00000000E+00  0.00000000E+00  0.00000000E+00
  0.00000000E+00  0.00000000E+00  0.00000000E+00
  0.00000000E+00  0.00000000E+00  0.00000000E+00
  0.00000000E+00  0.00000000E+00  0.00000000E+00
  0.00000000E+00  0.00000000E+00  0.00000000E+00
  0.00000000E+00  0.00000000E+00  0.00000000E+00
