Title                                   
   1.00000000000000     
     9.8694509999999998    0.0000000000000000    0.0000000000000000
     0.0000000000000000    8.5490480000000009    0.0000000000000000
     0.0000000000000000    0.0000000000000000   20.0000000000000000
    27     4     1
Selective dynamics
Direct
  0.0562321921753413  0.0920551210133813  0.0824078768866594   T   T   T
  0.9306448307521055  0.1749351596158866  0.0836238579953463   T   T   T
  0.0562460804194167  0.9246165529821511  0.0843414895017568   T   T   T
  0.9293032540066902  0.3418869057216051  0.0868517398928768   T   T   T
  0.0562563894558163  0.5895376452355244  0.0859101163952749   T   T   T
  0.9320020466892031  0.6733935357794182  0.0896863054375539   T   T   T
  0.0562170089783330  0.4236169137981250  0.0858933826370975   T   T   T
  0.9317406532424954  0.8408438249564878  0.0876529538777316   T   T   T
  0.3053292518717863  0.0896938405644738  0.0849674364429507   T   T   T
  0.1817936019119921  0.1748899686415576  0.0837431909464536   T   T   T
  0.3061093298366956  0.9240278843304643  0.0880244268412151   T   T   T
  0.1831114015267396  0.3418492767740858  0.0869246729004070   T   T   T
  0.3030518988073690  0.5928742288570057  0.1003638869493718   T   T   T
  0.1805257522664578  0.6733753488173124  0.0896675619450675   T   T   T
  0.3102950198471435  0.4247826219864235  0.0961601444999245   T   T   T
  0.1807324781341778  0.8407944767875953  0.0875714177028638   T   T   T
  0.5562102258783959  0.0826597913569114  0.0942741547588366   T   T   T
  0.4312789319329756  0.1676825316264071  0.0920528512169682   T   T   T
  0.4320898214926024  0.3313664115861483  0.1009124662629284   T   T   T
  0.4277499089817602  0.8410131868256083  0.0990632929028593   T   T   T
  0.8071289707365533  0.0897188126485419  0.0848765961587813   T   T   T
  0.6811373367435301  0.1676710560668197  0.0919748456449161   T   T   T
  0.8063763799938559  0.9240862685378629  0.0880707846363722   T   T   T
  0.6803353332342266  0.3313101221342680  0.1008622591284132   T   T   T
  0.8094664227061557  0.5928559113964249  0.1002912598819968   T   T   T
  0.8021088547051531  0.4247459204746056  0.0960819176604666   T   T   T
  0.6847552619487022  0.8410713727276108  0.0991047498731277   T   T   T
  0.4159909663222656  0.6860408397212063  0.1206751795555265   T   T   T
  0.5562252037213041  0.3983474801367038  0.1207359836745911   T   T   T
  0.6965451512574957  0.6860510704171304  0.1205721148453649   T   T   T
  0.5562365251739591  0.9161349522419298  0.0973461856602398   T   T   T
  0.5564125152493101  0.5863169662403225  0.1749898972860763   T   T   T
 
  0.00000000E+00  0.00000000E+00  0.00000000E+00
  0.00000000E+00  0.00000000E+00  0.00000000E+00
  0.00000000E+00  0.00000000E+00  0.00000000E+00
  0.00000000E+00  0.00000000E+00  0.00000000E+00
  0.00000000E+00  0.00000000E+00  0.00000000E+00
  0.00000000E+00  0.00000000E+00  0.00000000E+00
  0.00000000E+00  0.00000000E+00  0.00000000E+00
  0.00000000E+00  0.00000000E+00  0.00000000E+00
  0.00000000E+00  0.00000000E+00  0.00000000E+00
  0.00000000E+00  0.00000000E+00  0.00000000E+00
  0.00000000E+00  0.00000000E+00  0.00000000E+00
  0.00000000E+00  0.00000000E+00  0.00000000E+00
  0.00000000E+00  0.00000000E+00  0.00000000E+00
  0.00000000E+00  0.00000000E+00  0.00000000E+00
  0.00000000E+00  0.00000000E+00  0.00000000E+00
  0.00000000E+00  0.00000000E+00  0.00000000E+00
  0.00000000E+00  0.00000000E+00  0.00000000E+00
  0.00000000E+00  0.00000000E+00  0.00000000E+00
  0.00000000E+00  0.00000000E+00  0.00000000E+00
  0.00000000E+00  0.00000000E+00  0.00000000E+00
  0.00000000E+00  0.00000000E+00  0.00000000E+00
  0.00000000E+00  0.00000000E+00  0.00000000E+00
  0.00000000E+00  0.00000000E+00  0.00000000E+00
  0.00000000E+00  0.00000000E+00  0.00000000E+00
  0.00000000E+00  0.00000000E+00  0.00000000E+00
  0.00000000E+00  0.00000000E+00  0.00000000E+00
  0.00000000E+00  0.00000000E+00  0.00000000E+00
  0.00000000E+00  0.00000000E+00  0.00000000E+00
  0.00000000E+00  0.00000000E+00  0.00000000E+00
  0.00000000E+00  0.00000000E+00  0.00000000E+00
  0.00000000E+00  0.00000000E+00  0.00000000E+00
  0.00000000E+00  0.00000000E+00  0.00000000E+00
