Title                                   
   1.00000000000000     
     9.8694509999999998    0.0000000000000000    0.0000000000000000
     0.0000000000000000    8.5490480000000009    0.0000000000000000
     0.0000000000000000    0.0000000000000000   20.0000000000000000
    28     3     1
Selective dynamics
Direct
  0.0559881033067307  0.0895898803618103  0.0827215425665258   T   T   T
  0.9313556701018272  0.1735616801524481  0.0845445030355054   T   T   T
  0.0570247288016767  0.9221088654645186  0.0825586266126233   T   T   T
  0.9309349212068483  0.3407026900454653  0.0877768379409874   T   T   T
  0.0562912834151435  0.5912192776363507  0.0859308553480618   T   T   T
  0.0557162872272020  0.4242180594618470  0.0867117323307746   T   T   T
  0.9325388794692234  0.8381519865032503  0.0853144160820699   T   T   T
  0.3061015401847607  0.0887232488289523  0.0862729939059517   T   T   T
  0.1818121123651752  0.1728481233781131  0.0851146424723453   T   T   T
  0.1816405906613575  0.3398121953524134  0.0885872135265852   T   T   T
  0.3039939163664341  0.5888911136490793  0.1001743931655042   T   T   T
  0.1809781805997545  0.6740546636050598  0.0879611468127907   T   T   T
  0.3058553088047247  0.4212579000136514  0.0985621980673521   T   T   T
  0.1828627362456803  0.8406167926160355  0.0846828477669254   T   T   T
  0.5559469857831795  0.0880442708345843  0.0922436978856293   T   T   T
  0.5548500617346546  0.9228390899752150  0.0993295981330741   T   T   T
  0.4312498154723076  0.3331007027155779  0.1032852378349140   T   T   T
  0.4274538356832601  0.8399332776623530  0.1024764373539754   T   T   T
  0.8068503791144577  0.0886379590956201  0.0861520249552055   T   T   T
  0.6805605883058343  0.1715714211393406  0.0906570840174323   T   T   T
  0.8070080058487946  0.9225420676520504  0.0883050873324409   T   T   T
  0.6818284236488129  0.3376189730875997  0.1005173151222353   T   T   T
  0.8095249272818279  0.5930372480754328  0.1011844972617303   T   T   T
  0.8068556576680054  0.4237633106324278  0.0972517775080149   T   T   T
  0.6829144972212203  0.8413984499840610  0.1007897800552187   T   T   T
  0.4193959948467970  0.6811183554966455  0.1158109262229738   T   T   T
  0.5546399007730449  0.4068679534160362  0.1154804534613962   T   T   T
  0.6937093953998257  0.6797860030007626  0.1161742074645124   T   T   T
  0.3057066770435964  0.9250473099726073  0.0866274631965081   T   T   T
  0.4289448044663173  0.1679942475821217  0.0913056373312283   T   T   T
  0.9328921476636988  0.6730293307196074  0.0870183290410392   T   T   T
  0.5562126432878318  0.5881595518889657  0.1841514961884850   T   T   T
 
  0.00000000E+00  0.00000000E+00  0.00000000E+00
  0.00000000E+00  0.00000000E+00  0.00000000E+00
  0.00000000E+00  0.00000000E+00  0.00000000E+00
  0.00000000E+00  0.00000000E+00  0.00000000E+00
  0.00000000E+00  0.00000000E+00  0.00000000E+00
  0.00000000E+00  0.00000000E+00  0.00000000E+00
  0.00000000E+00  0.00000000E+00  0.00000000E+00
  0.00000000E+00  0.00000000E+00  0.00000000E+00
  0.00000000E+00  0.00000000E+00  0.00000000E+00
  0.00000000E+00  0.00000000E+00  0.00000000E+00
  0.00000000E+00  0.00000000E+00  0.00000000E+00
  0.00000000E+00  0.00000000E+00  0.00000000E+00
  0.00000000E+00  0.00000000E+00  0.00000000E+00
  0.00000000E+00  0.00000000E+00  0.00000000E+00
  0.00000000E+00  0.00000000E+00  0.00000000E+00
  0.00000000E+00  0.00000000E+00  0.00000000E+00
  0.00000000E+00  0.00000000E+00  0.00000000E+00
  0.00000000E+00  0.00000000E+00  0.00000000E+00
  0.00000000E+00  0.00000000E+00  0.00000000E+00
  0.00000000E+00  0.00000000E+00  0.00000000E+00
  0.00000000E+00  0.00000000E+00  0.00000000E+00
  0.00000000E+00  0.00000000E+00  0.00000000E+00
  0.00000000E+00  0.00000000E+00  0.00000000E+00
  0.00000000E+00  0.00000000E+00  0.00000000E+00
  0.00000000E+00  0.00000000E+00  0.00000000E+00
  0.00000000E+00  0.00000000E+00  0.00000000E+00
  0.00000000E+00  0.00000000E+00  0.00000000E+00
  0.00000000E+00  0.00000000E+00  0.00000000E+00
  0.00000000E+00  0.00000000E+00  0.00000000E+00
  0.00000000E+00  0.00000000E+00  0.00000000E+00
  0.00000000E+00  0.00000000E+00  0.00000000E+00
  0.00000000E+00  0.00000000E+00  0.00000000E+00
