Title                                   
   1.00000000000000     
     9.8694509999999998    0.0000000000000000    0.0000000000000000
     0.0000000000000000    8.5490480000000009    0.0000000000000000
     0.0000000000000000    0.0000000000000000   20.0000000000000000
    28     3     1
Selective dynamics
Direct
  0.0564283756634739  0.0916525581104471  0.0849872879970157   T   T   T
  0.9312108088831381  0.1748534579959299  0.0850790981728550   T   T   T
  0.0584738977091166  0.9247168283705184  0.0835553343790143   T   T   T
  0.9297626214753927  0.3429378365298204  0.0869138410100044   T   T   T
  0.0574795965493452  0.5912423406936375  0.0871512077224203   T   T   T
  0.9332621866941079  0.6747223990865188  0.0834113971792047   T   T   T
  0.0567454484325387  0.4238458210223404  0.0886871384178195   T   T   T
  0.9334559766012875  0.8410272887639599  0.0819029954906165   T   T   T
  0.3062385032345143  0.0875951114814993  0.0907163148388857   T   T   T
  0.1827282415396516  0.1730497856493718  0.0896473775524055   T   T   T
  0.1820911027210150  0.3400375780178251  0.0942052406637408   T   T   T
  0.3043084113860818  0.5889808435939228  0.1081565676970163   T   T   T
  0.1826624061153735  0.6739644787548685  0.0922712258993507   T   T   T
  0.3055826547972759  0.4208291994518098  0.1069425941986113   T   T   T
  0.1825528087862378  0.8407223205494461  0.0882331027448938   T   T   T
  0.5559157237757186  0.0850759110650603  0.0924944662553384   T   T   T
  0.5559888577731301  0.9196763443715149  0.0943444566767901   T   T   T
  0.4311443624182178  0.3314376696887757  0.1107492301561267   T   T   T
  0.4288252123519408  0.8381475791302279  0.1038151195978723   T   T   T
  0.8059334199903982  0.0901041214363299  0.0839656800386643   T   T   T
  0.6796923541552115  0.1718819646390899  0.0892162364577785   T   T   T
  0.8077568054725071  0.9245177324530178  0.0826498797543625   T   T   T
  0.6797985830104665  0.3378380594848527  0.0992428683014583   T   T   T
  0.8053111426006266  0.5960247485620082  0.0866102437671556   T   T   T
  0.8036403566551714  0.4260854916993801  0.0905572107653800   T   T   T
  0.6848272924114109  0.8362739526050741  0.0874583986199336   T   T   T
  0.4181727816878512  0.6831483561434768  0.1225943355658886   T   T   T
  0.5558758740721733  0.4016273011071592  0.1215638049546846   T   T   T
  0.6879989724369027  0.6781171700392975  0.0885485617991740   T   T   T
  0.3066422160858783  0.9248249553204253  0.0905240316574413   T   T   T
  0.4295712993000638  0.1666531618255656  0.0956799416390859   T   T   T
  0.5595607052137855  0.5886336323568292  0.1937998100290268   T   T   T
 
  0.00000000E+00  0.00000000E+00  0.00000000E+00
  0.00000000E+00  0.00000000E+00  0.00000000E+00
  0.00000000E+00  0.00000000E+00  0.00000000E+00
  0.00000000E+00  0.00000000E+00  0.00000000E+00
  0.00000000E+00  0.00000000E+00  0.00000000E+00
  0.00000000E+00  0.00000000E+00  0.00000000E+00
  0.00000000E+00  0.00000000E+00  0.00000000E+00
  0.00000000E+00  0.00000000E+00  0.00000000E+00
  0.00000000E+00  0.00000000E+00  0.00000000E+00
  0.00000000E+00  0.00000000E+00  0.00000000E+00
  0.00000000E+00  0.00000000E+00  0.00000000E+00
  0.00000000E+00  0.00000000E+00  0.00000000E+00
  0.00000000E+00  0.00000000E+00  0.00000000E+00
  0.00000000E+00  0.00000000E+00  0.00000000E+00
  0.00000000E+00  0.00000000E+00  0.00000000E+00
  0.00000000E+00  0.00000000E+00  0.00000000E+00
  0.00000000E+00  0.00000000E+00  0.00000000E+00
  0.00000000E+00  0.00000000E+00  0.00000000E+00
  0.00000000E+00  0.00000000E+00  0.00000000E+00
  0.00000000E+00  0.00000000E+00  0.00000000E+00
  0.00000000E+00  0.00000000E+00  0.00000000E+00
  0.00000000E+00  0.00000000E+00  0.00000000E+00
  0.00000000E+00  0.00000000E+00  0.00000000E+00
  0.00000000E+00  0.00000000E+00  0.00000000E+00
  0.00000000E+00  0.00000000E+00  0.00000000E+00
  0.00000000E+00  0.00000000E+00  0.00000000E+00
  0.00000000E+00  0.00000000E+00  0.00000000E+00
  0.00000000E+00  0.00000000E+00  0.00000000E+00
  0.00000000E+00  0.00000000E+00  0.00000000E+00
  0.00000000E+00  0.00000000E+00  0.00000000E+00
  0.00000000E+00  0.00000000E+00  0.00000000E+00
  0.00000000E+00  0.00000000E+00  0.00000000E+00
