Title                                   
   1.00000000000000     
     4.9440799999999996    0.0000000000000000    0.0000000000000000
     0.0000000000000000   17.1295089999999988    0.0000000000000000
     0.0000000000000000    0.0000000000000000   20.0000000000000000
    27     3     1
Selective dynamics
Direct
  0.0023458468360467  0.1061612520612704  0.2978926830827319   T   T   T
  0.2517020770653852  0.1487599410239307  0.2985575165570975   T   T   T
  0.2524337835154151  0.2337102341718173  0.3000246614415991   T   T   T
  0.0003046456325379  0.2743481234657895  0.3008192883155201   T   T   T
 -0.0044332758403754  0.5998231545073586  0.3013446746586055   T   T   T
  0.2471321239185293  0.7264923125929558  0.2993312698393469   T   T   T
 -0.0005643536830635  0.8534103987936221  0.2973140349149060   T   T   T
  0.2494036153819057  0.8955390298892436  0.2969030486112776   T   T   T
  0.2501771622345983  0.9796160120361664  0.2966989385642068   T   T   T
 -0.0012423298869529  0.7693370810727306  0.2985833767320955   T   T   T
  0.5001464973522451  0.1060804519632795  0.2978458754354223   T   T   T
  0.7513290991203063  0.1478436722600698  0.2985229825596256   T   T   T
  0.7520827044469540  0.2315104608790753  0.2999594329505221   T   T   T
  0.4999185164010003  0.0219162507035093  0.2969065603759879   T   T   T
  0.7553854800523768  0.3925609672015610  0.3023313324882440   T   T   T
  0.7521616137218852  0.4792810633783981  0.3025114420063569   T   T   T
  0.5046615881273290  0.2749920825487805  0.3006023557084805   T   T   T
  0.4971494140560714  0.6007451797637233  0.3013085302654302   T   T   T
  0.7488061082991749  0.7272633781342821  0.2992952231827716   T   T   T
  0.4987218138431934  0.8531811228626428  0.2973182638995785   T   T   T
  0.7493708687424896  0.8955218850376325  0.2969032019544094   T   T   T
  0.7501759914412842  0.9797856572110939  0.2966993946943390   T   T   T
  0.4978215169296845  0.7690073336061156  0.2985894845356242   T   T   T
  0.7474186410276025  0.6432859319816745  0.3007152202100778   T   T   T
  0.2465458746306862  0.6424142802533083  0.3007303297728741   T   T   T
  0.0010186021261755  0.0219248850437013  0.2969317963520985   T   T   T
  0.5101106918693253  0.5183792566473805  0.3021411643602070   T   T   T
  0.9900260393655173  0.5193401526240964  0.3022623617968972   T   T   T
  0.5168785630777010  0.3555379455985843  0.3016235402655313   T   T   T
 -0.0090800935233145  0.3549806727119645  0.3022915641315136   T   T   T
  0.2520981737182872  0.4385918299742358  0.3021004503365717   T   T   T
 
  0.00000000E+00  0.00000000E+00  0.00000000E+00
  0.00000000E+00  0.00000000E+00  0.00000000E+00
  0.00000000E+00  0.00000000E+00  0.00000000E+00
  0.00000000E+00  0.00000000E+00  0.00000000E+00
  0.00000000E+00  0.00000000E+00  0.00000000E+00
  0.00000000E+00  0.00000000E+00  0.00000000E+00
  0.00000000E+00  0.00000000E+00  0.00000000E+00
  0.00000000E+00  0.00000000E+00  0.00000000E+00
  0.00000000E+00  0.00000000E+00  0.00000000E+00
  0.00000000E+00  0.00000000E+00  0.00000000E+00
  0.00000000E+00  0.00000000E+00  0.00000000E+00
  0.00000000E+00  0.00000000E+00  0.00000000E+00
  0.00000000E+00  0.00000000E+00  0.00000000E+00
  0.00000000E+00  0.00000000E+00  0.00000000E+00
  0.00000000E+00  0.00000000E+00  0.00000000E+00
  0.00000000E+00  0.00000000E+00  0.00000000E+00
  0.00000000E+00  0.00000000E+00  0.00000000E+00
  0.00000000E+00  0.00000000E+00  0.00000000E+00
  0.00000000E+00  0.00000000E+00  0.00000000E+00
  0.00000000E+00  0.00000000E+00  0.00000000E+00
  0.00000000E+00  0.00000000E+00  0.00000000E+00
  0.00000000E+00  0.00000000E+00  0.00000000E+00
  0.00000000E+00  0.00000000E+00  0.00000000E+00
  0.00000000E+00  0.00000000E+00  0.00000000E+00
  0.00000000E+00  0.00000000E+00  0.00000000E+00
  0.00000000E+00  0.00000000E+00  0.00000000E+00
  0.00000000E+00  0.00000000E+00  0.00000000E+00
  0.00000000E+00  0.00000000E+00  0.00000000E+00
  0.00000000E+00  0.00000000E+00  0.00000000E+00
  0.00000000E+00  0.00000000E+00  0.00000000E+00
  0.00000000E+00  0.00000000E+00  0.00000000E+00
