Title                                   
   1.00000000000000     
     9.8694509999999998    0.0000000000000000    0.0000000000000000
     0.0000000000000000    8.5490480000000009    0.0000000000000000
     0.0000000000000000    0.0000000000000000   20.0000000000000000
    30     1     1
Selective dynamics
Direct
  0.0566636667983989  0.0906343820441607  0.0847454190751889   T   T   T
  0.9314590923680597  0.1713786727210208  0.0867638463759286   T   T   T
  0.0552793773888709  0.9238588673280536  0.0842621423307194   T   T   T
  0.9324180379408831  0.3382722936844042  0.0884238258167061   T   T   T
  0.0563309682815020  0.5890181939691597  0.0851467909574940   T   T   T
  0.9323990796431936  0.6720314803218705  0.0876587076576451   T   T   T
  0.0576001706836966  0.4229630881089433  0.0865403504627679   T   T   T
  0.9305692069126886  0.8385907522221387  0.0867721326098202   T   T   T
  0.3059480673805667  0.0921886954390446  0.0890692741573537   T   T   T
  0.1817665203271249  0.1750440236447141  0.0868132764712127   T   T   T
  0.3035698621925777  0.9258207926832434  0.0897324838964798   T   T   T
  0.1833215010584748  0.3425917686714995  0.0890983198849326   T   T   T
  0.3028609361377615  0.5951925627229303  0.0975346778089759   T   T   T
  0.1793034478705123  0.6747894786817136  0.0872622794437621   T   T   T
  0.3076877021522865  0.4268560573172685  0.0967099276260033   T   T   T
  0.1791679050458350  0.8416771724115442  0.0864064172190849   T   T   T
  0.5554286009594022  0.0863847200612883  0.0964911839129458   T   T   T
  0.4317373895347433  0.1731055731758951  0.0947099287381807   T   T   T
  0.5535047061127480  0.9194449881892773  0.0997992172071244   T   T   T
  0.4331369699020911  0.3407222265242986  0.1012471207890924   T   T   T
  0.5612963842231479  0.4093290072943296  0.1126340709971815   T   T   T
  0.4248126353525347  0.8409608020021282  0.0997196058729823   T   T   T
  0.8068106999084884  0.0869163593707402  0.0897211447948620   T   T   T
  0.6821894132039340  0.1682461460911504  0.0949856524192919   T   T   T
  0.8057498879256151  0.9203074224091138  0.0908199986723688   T   T   T
  0.6846986599686909  0.3342334173476955  0.1008484054176151   T   T   T
  0.8097837534229667  0.5870873341610084  0.0972359186548903   T   T   T
  0.6927742391840530  0.6732310138615633  0.1099341121490621   T   T   T
  0.8094189032219479  0.4194128076497254  0.0957468389263069   T   T   T
  0.6806578618439205  0.8362595547754015  0.1002927826483624   T   T   T
  0.4156102660413897  0.6832296813986947  0.1106172203453071   T   T   T
  0.5556830870118997  0.5904666637159884  0.1579319266603855   T   T   T
 
  0.00000000E+00  0.00000000E+00  0.00000000E+00
  0.00000000E+00  0.00000000E+00  0.00000000E+00
  0.00000000E+00  0.00000000E+00  0.00000000E+00
  0.00000000E+00  0.00000000E+00  0.00000000E+00
  0.00000000E+00  0.00000000E+00  0.00000000E+00
  0.00000000E+00  0.00000000E+00  0.00000000E+00
  0.00000000E+00  0.00000000E+00  0.00000000E+00
  0.00000000E+00  0.00000000E+00  0.00000000E+00
  0.00000000E+00  0.00000000E+00  0.00000000E+00
  0.00000000E+00  0.00000000E+00  0.00000000E+00
  0.00000000E+00  0.00000000E+00  0.00000000E+00
  0.00000000E+00  0.00000000E+00  0.00000000E+00
  0.00000000E+00  0.00000000E+00  0.00000000E+00
  0.00000000E+00  0.00000000E+00  0.00000000E+00
  0.00000000E+00  0.00000000E+00  0.00000000E+00
  0.00000000E+00  0.00000000E+00  0.00000000E+00
  0.00000000E+00  0.00000000E+00  0.00000000E+00
  0.00000000E+00  0.00000000E+00  0.00000000E+00
  0.00000000E+00  0.00000000E+00  0.00000000E+00
  0.00000000E+00  0.00000000E+00  0.00000000E+00
  0.00000000E+00  0.00000000E+00  0.00000000E+00
  0.00000000E+00  0.00000000E+00  0.00000000E+00
  0.00000000E+00  0.00000000E+00  0.00000000E+00
  0.00000000E+00  0.00000000E+00  0.00000000E+00
  0.00000000E+00  0.00000000E+00  0.00000000E+00
  0.00000000E+00  0.00000000E+00  0.00000000E+00
  0.00000000E+00  0.00000000E+00  0.00000000E+00
  0.00000000E+00  0.00000000E+00  0.00000000E+00
  0.00000000E+00  0.00000000E+00  0.00000000E+00
  0.00000000E+00  0.00000000E+00  0.00000000E+00
  0.00000000E+00  0.00000000E+00  0.00000000E+00
  0.00000000E+00  0.00000000E+00  0.00000000E+00
