Title                                   
   1.00000000000000     
     4.9440799999999996    0.0000000000000000    0.0000000000000000
     0.0000000000000000    8.5647549999999999    0.0000000000000000
     0.0000000000000000    0.0000000000000000   20.0000000000000000
    12     2     1
Selective dynamics
Direct
  0.2477319327716078  0.2091787339225095  0.0970948403776055   T   T   T
 -0.0074202487311656  0.2944023614782245  0.0977386251897874   T   T   T
  0.2522807750663789  0.0403759637416825  0.0971223201405873   T   T   T
  0.0039324767777373  0.9560616890779757  0.0948562275937939   T   T   T
  0.7465796814894423  0.2083881284842253  0.0926421787325879   T   T   T
  0.4960612009346893  0.2934889796432020  0.0947773400517102   T   T   T
  0.7534516132411102  0.0411718995841624  0.0926587499507336   T   T   T
  0.7552310422362770  0.7132126378681590  0.0992163416167530   T   T   T
  0.7446887063169588  0.5363273729880357  0.0991900375780107   T   T   T
  0.5074116832649961  0.9551652615761068  0.0977251510679242   T   T   T
  0.5002741412709817  0.4595443158687971  0.0953988756046078   T   T   T
 -0.0003098392015743  0.7900401916849701  0.0955800754939690   T   T   T
 -0.0144464515680212  0.4546762931179111  0.1052637295113902   T   T   T
  0.5143479812743458  0.7948885167911514  0.1051353675303300   T   T   T
  0.2501853048562368  0.6247586541728887  0.1435801395602128   T   T   T
 
  0.00000000E+00  0.00000000E+00  0.00000000E+00
  0.00000000E+00  0.00000000E+00  0.00000000E+00
  0.00000000E+00  0.00000000E+00  0.00000000E+00
  0.00000000E+00  0.00000000E+00  0.00000000E+00
  0.00000000E+00  0.00000000E+00  0.00000000E+00
  0.00000000E+00  0.00000000E+00  0.00000000E+00
  0.00000000E+00  0.00000000E+00  0.00000000E+00
  0.00000000E+00  0.00000000E+00  0.00000000E+00
  0.00000000E+00  0.00000000E+00  0.00000000E+00
  0.00000000E+00  0.00000000E+00  0.00000000E+00
  0.00000000E+00  0.00000000E+00  0.00000000E+00
  0.00000000E+00  0.00000000E+00  0.00000000E+00
  0.00000000E+00  0.00000000E+00  0.00000000E+00
  0.00000000E+00  0.00000000E+00  0.00000000E+00
  0.00000000E+00  0.00000000E+00  0.00000000E+00
