Title                                   
   1.00000000000000     
     4.9440799999999996    0.0000000000000000    0.0000000000000000
     0.0000000000000000    8.5647549999999999    0.0000000000000000
     0.0000000000000000    0.0000000000000000   20.0000000000000000
    11     4     1
Selective dynamics
Direct
 -0.0043440554507418  0.2915978118482730  0.0916146576487132   T   T   T
  0.2500000000000000  0.0446632494046283  0.0900260070068623   T   T   T
  0.0032462349060742  0.7949412879606186  0.1016124383429331   T   T   T
  0.0010269851183169  0.9608251118834225  0.0905165506339751   T   T   T
  0.7500000000000000  0.2058136624904508  0.0874094202313699   T   T   T
  0.5043440554507420  0.2915978118482730  0.0916146576487132   T   T   T
  0.7500000000000000  0.0406015034091813  0.0855609036283270   T   T   T
  0.7500000000000000  0.7050302033742469  0.1037382671614956   T   T   T
  0.4967537650939258  0.7949412879606186  0.1016124383429331   T   T   T
  0.7500000000000000  0.5330806219217546  0.1030681716972668   T   T   T
  0.4989730148816833  0.9608251118834225  0.0905165506339751   T   T   T
  0.5112834226853233  0.4506244006584104  0.1015399031824192   T   T   T
 -0.0112834226853231  0.4506244006584104  0.1015399031824192   T   T   T
  0.2500000000000000  0.7267955830642278  0.1155491754094657   T   T   T
  0.2500000000000000  0.2129751445291264  0.0889830254781918   T   T   T
  0.2500000000000000  0.5350628071049346  0.1676099297709494   T   T   T
 
  0.00000000E+00  0.00000000E+00  0.00000000E+00
  0.00000000E+00  0.00000000E+00  0.00000000E+00
  0.00000000E+00  0.00000000E+00  0.00000000E+00
  0.00000000E+00  0.00000000E+00  0.00000000E+00
  0.00000000E+00  0.00000000E+00  0.00000000E+00
  0.00000000E+00  0.00000000E+00  0.00000000E+00
  0.00000000E+00  0.00000000E+00  0.00000000E+00
  0.00000000E+00  0.00000000E+00  0.00000000E+00
  0.00000000E+00  0.00000000E+00  0.00000000E+00
  0.00000000E+00  0.00000000E+00  0.00000000E+00
  0.00000000E+00  0.00000000E+00  0.00000000E+00
  0.00000000E+00  0.00000000E+00  0.00000000E+00
  0.00000000E+00  0.00000000E+00  0.00000000E+00
  0.00000000E+00  0.00000000E+00  0.00000000E+00
  0.00000000E+00  0.00000000E+00  0.00000000E+00
  0.00000000E+00  0.00000000E+00  0.00000000E+00
