Title                                   
   1.00000000000000     
     4.9440799999999996    0.0000000000000000    0.0000000000000000
     0.0000000000000000    8.5647549999999999    0.0000000000000000
     0.0000000000000000    0.0000000000000000   20.0000000000000000
    13     1     1
Selective dynamics
Direct
  0.2514329936063929  0.2069106144682893  0.0941658603443331   T   T   T
  0.0004559327693023  0.2926096088816946  0.0949614091611757   T   T   T
  0.2538862096383975  0.0394683827000238  0.0940263447126498   T   T   T
  0.0046637677995913  0.9556033069569914  0.0933766216142940   T   T   T
  0.7498326673539388  0.2082234022210442  0.0921779636220116   T   T   T
  0.4986949659924934  0.2928217455629844  0.0956113097959062   T   T   T
  0.7530812718144707  0.0401532969082880  0.0916699913838108   T   T   T
  0.7501878250886479  0.7131622439218719  0.1013830035804271   T   T   T
  0.7443508929626549  0.5418665606424002  0.1040932992699863   T   T   T
  0.5049228201050391  0.9546416305881835  0.0956815470281336   T   T   T
  0.4951303973210131  0.4588097050558671  0.1032615875899035   T   T   T
 -0.0038413822795007  0.4582783862222070  0.1025431529935587   T   T   T
 -0.0015966052761207  0.7902771382875385  0.0973527037115907   T   T   T
  0.5075213820190949  0.7936302806442256  0.1034426487423850   T   T   T
  0.2412768610845839  0.6252246969383922  0.1442325564498374   T   T   T
 
  0.00000000E+00  0.00000000E+00  0.00000000E+00
  0.00000000E+00  0.00000000E+00  0.00000000E+00
  0.00000000E+00  0.00000000E+00  0.00000000E+00
  0.00000000E+00  0.00000000E+00  0.00000000E+00
  0.00000000E+00  0.00000000E+00  0.00000000E+00
  0.00000000E+00  0.00000000E+00  0.00000000E+00
  0.00000000E+00  0.00000000E+00  0.00000000E+00
  0.00000000E+00  0.00000000E+00  0.00000000E+00
  0.00000000E+00  0.00000000E+00  0.00000000E+00
  0.00000000E+00  0.00000000E+00  0.00000000E+00
  0.00000000E+00  0.00000000E+00  0.00000000E+00
  0.00000000E+00  0.00000000E+00  0.00000000E+00
  0.00000000E+00  0.00000000E+00  0.00000000E+00
  0.00000000E+00  0.00000000E+00  0.00000000E+00
  0.00000000E+00  0.00000000E+00  0.00000000E+00
