Title                                   
   1.00000000000000     
     8.5490480000000009    0.0000000000000000    0.0000000000000000
     0.0000000000000000    8.5490480000000009    0.0000000000000000
     0.0000000000000000    0.0000000000000000   20.0000000000000000
    20     4     1
Selective dynamics
Direct
  0.9092129465550317  0.2063280134229139  0.0977378808749186   T   T   T
  0.9115579392413237  0.8013010317061651  0.0978288466117122   T   T   T
  0.1984147315407052  0.0823406106219857  0.0978769808795327   T   T   T
  0.0751222683778528  0.2027101578062845  0.0977934085496111   T   T   T
  0.1561781989778113  0.6505556903715921  0.0979017421266758   T   T   T
  0.0745740353800801  0.5014833181462357  0.0979103747305994   T   T   T
  0.1561783138335668  0.3539361173673058  0.0979579484018427   T   T   T
  0.0785053207297753  0.7996475348085066  0.0978713224391158   T   T   T
  0.3468217281385955  0.1639765633193531  0.0979923568678215   T   T   T
  0.4940949615511661  0.9166358135058723  0.0979334581201672   T   T   T
  0.3452785681687203  0.8354600940960563  0.0979441551265116   T   T   T
  0.7871412490839176  0.0853632927248863  0.0977483606783917   T   T   T
  0.6387792813039009  0.1659014863140890  0.0978213677049966   T   T   T
  0.7902223226332202  0.9192938353070487  0.0978003641086609   T   T   T
  0.8288392986964480  0.6521310182572857  0.0979965230184685   T   T   T
  0.8254078452429965  0.3561430611537920  0.0978126586848758   T   T   T
  0.6427838218694987  0.8363908379543463  0.0979820983813416   T   T   T
  0.3257190445213408  0.3313408437216009  0.0981827459765787   T   T   T
  0.3228109673132261  0.6724269269976060  0.0979308059688527   T   T   T
  0.6593777501630949  0.3340779424693174  0.0979603898506057   T   T   T
  0.4949015312381056  0.0836451215564193  0.0979529288080770   T   T   T
  0.9061753176611886  0.5031341153590059  0.0979432916753431   T   T   T
  0.6687522746638112  0.6731628565409830  0.0981933623134043   T   T   T
  0.1962900308033141  0.9173172840263288  0.0979535729998769   T   T   T
  0.4922722523113008  0.5000864324450334  0.0986780551020006   T   T   T
 
  0.00000000E+00  0.00000000E+00  0.00000000E+00
  0.00000000E+00  0.00000000E+00  0.00000000E+00
  0.00000000E+00  0.00000000E+00  0.00000000E+00
  0.00000000E+00  0.00000000E+00  0.00000000E+00
  0.00000000E+00  0.00000000E+00  0.00000000E+00
  0.00000000E+00  0.00000000E+00  0.00000000E+00
  0.00000000E+00  0.00000000E+00  0.00000000E+00
  0.00000000E+00  0.00000000E+00  0.00000000E+00
  0.00000000E+00  0.00000000E+00  0.00000000E+00
  0.00000000E+00  0.00000000E+00  0.00000000E+00
  0.00000000E+00  0.00000000E+00  0.00000000E+00
  0.00000000E+00  0.00000000E+00  0.00000000E+00
  0.00000000E+00  0.00000000E+00  0.00000000E+00
  0.00000000E+00  0.00000000E+00  0.00000000E+00
  0.00000000E+00  0.00000000E+00  0.00000000E+00
  0.00000000E+00  0.00000000E+00  0.00000000E+00
  0.00000000E+00  0.00000000E+00  0.00000000E+00
  0.00000000E+00  0.00000000E+00  0.00000000E+00
  0.00000000E+00  0.00000000E+00  0.00000000E+00
  0.00000000E+00  0.00000000E+00  0.00000000E+00
  0.00000000E+00  0.00000000E+00  0.00000000E+00
  0.00000000E+00  0.00000000E+00  0.00000000E+00
  0.00000000E+00  0.00000000E+00  0.00000000E+00
  0.00000000E+00  0.00000000E+00  0.00000000E+00
  0.00000000E+00  0.00000000E+00  0.00000000E+00
