Title                                   
   1.00000000000000     
     9.8694509999999998    0.0000000000000000    0.0000000000000000
     0.0000000000000000    8.5490480000000009    0.0000000000000000
     0.0000000000000000    0.0000000000000000   20.0000000000000000
    26     5     1
Selective dynamics
Direct
  0.0579554188811525  0.0917848175831995  0.0893312974446924   T   T   T
  0.9315049666819042  0.1755975370790900  0.0889393971338029   T   T   T
  0.0595508148008438  0.9230320946311953  0.0897405115800635   T   T   T
  0.9293092382616529  0.3426308960079792  0.0876971709897766   T   T   T
  0.0587182589933371  0.5897110717234405  0.0885820090451114   T   T   T
  0.9335623751156167  0.6720417443270486  0.0877458373730854   T   T   T
  0.0570793558876388  0.4226983989244508  0.0895172232196340   T   T   T
  0.9337956105141472  0.8395545407751670  0.0889292914379457   T   T   T
  0.3084320311783218  0.0856582310476844  0.0923377327582668   T   T   T
  0.1847481427059101  0.1729404880779231  0.0904573428364991   T   T   T
  0.3107727954153989  0.9194647911315343  0.0940317725313978   T   T   T
  0.1850272635245990  0.3393419539902238  0.0920541815540655   T   T   T
  0.3099890214121171  0.5873413917605360  0.1034200212079589   T   T   T
  0.1851571097813005  0.6697954385745486  0.0919670239243393   T   T   T
  0.1845035622923407  0.8377040347878021  0.0921372818580748   T   T   T
  0.5590764728587402  0.0832784776687264  0.0944281445555297   T   T   T
  0.4334156824438118  0.1670179983366004  0.0940626562125993   T   T   T
  0.4380790700325495  0.3340217235661003  0.0924285101752714   T   T   T
  0.4342843644004025  0.8350639921670655  0.1050986012099601   T   T   T
  0.8083635064904504  0.0895099699077577  0.0908401056496362   T   T   T
  0.6821368604403056  0.1698794943935690  0.0911417128693839   T   T   T
  0.8089792033841176  0.9239271424946714  0.0908735348950614   T   T   T
  0.6737602417412627  0.3376860839884179  0.0867309060520177   T   T   T
  0.8034133374835828  0.5961288904966089  0.0858105104878342   T   T   T
  0.6870243553267534  0.8341842951898393  0.0921757751945705   T   T   T
  0.4227836980385875  0.6764099027170106  0.1305297129345157   T   T   T
  0.5546529303653248  0.4123268258680998  0.0855836247065457   T   T   T
  0.6876942483180644  0.6781983674305095  0.0863227881495646   T   T   T
  0.5601475588166418  0.9162614348708851  0.0987061135128108   T   T   T
  0.3110900596347378  0.4211168476405472  0.0970287473238963   T   T   T
  0.8005658004736041  0.4266063050816291  0.0854162797183861   T   T   T
  0.5040656443047875  0.6193308177601407  0.2116091814577184   T   T   T
 
  0.00000000E+00  0.00000000E+00  0.00000000E+00
  0.00000000E+00  0.00000000E+00  0.00000000E+00
  0.00000000E+00  0.00000000E+00  0.00000000E+00
  0.00000000E+00  0.00000000E+00  0.00000000E+00
  0.00000000E+00  0.00000000E+00  0.00000000E+00
  0.00000000E+00  0.00000000E+00  0.00000000E+00
  0.00000000E+00  0.00000000E+00  0.00000000E+00
  0.00000000E+00  0.00000000E+00  0.00000000E+00
  0.00000000E+00  0.00000000E+00  0.00000000E+00
  0.00000000E+00  0.00000000E+00  0.00000000E+00
  0.00000000E+00  0.00000000E+00  0.00000000E+00
  0.00000000E+00  0.00000000E+00  0.00000000E+00
  0.00000000E+00  0.00000000E+00  0.00000000E+00
  0.00000000E+00  0.00000000E+00  0.00000000E+00
  0.00000000E+00  0.00000000E+00  0.00000000E+00
  0.00000000E+00  0.00000000E+00  0.00000000E+00
  0.00000000E+00  0.00000000E+00  0.00000000E+00
  0.00000000E+00  0.00000000E+00  0.00000000E+00
  0.00000000E+00  0.00000000E+00  0.00000000E+00
  0.00000000E+00  0.00000000E+00  0.00000000E+00
  0.00000000E+00  0.00000000E+00  0.00000000E+00
  0.00000000E+00  0.00000000E+00  0.00000000E+00
  0.00000000E+00  0.00000000E+00  0.00000000E+00
  0.00000000E+00  0.00000000E+00  0.00000000E+00
  0.00000000E+00  0.00000000E+00  0.00000000E+00
  0.00000000E+00  0.00000000E+00  0.00000000E+00
  0.00000000E+00  0.00000000E+00  0.00000000E+00
  0.00000000E+00  0.00000000E+00  0.00000000E+00
  0.00000000E+00  0.00000000E+00  0.00000000E+00
  0.00000000E+00  0.00000000E+00  0.00000000E+00
  0.00000000E+00  0.00000000E+00  0.00000000E+00
  0.00000000E+00  0.00000000E+00  0.00000000E+00
