Title                                   
   1.00000000000000     
     9.8694509999999998    0.0000000000000000    0.0000000000000000
     0.0000000000000000    8.5490480000000009    0.0000000000000000
     0.0000000000000000    0.0000000000000000   20.0000000000000000
    28     2     1
Selective dynamics
Direct
  0.0565948546035452  0.0894212899034351  0.0849546357054902   T   T   T
  0.9311368407697548  0.1721287172578964  0.0882135946863797   T   T   T
  0.0565842189863144  0.9228502607134376  0.0849774520421296   T   T   T
  0.9333904130149265  0.3386091867829502  0.0891622816061487   T   T   T
  0.0571192874492331  0.5894963845432245  0.0848112987300608   T   T   T
  0.9334312426897166  0.6736518439384629  0.0892241198695844   T   T   T
  0.0571070981387883  0.4227210349647297  0.0847851074664561   T   T   T
  0.9311223680556102  0.8401522336301693  0.0882879837661630   T   T   T
  0.3067886931373652  0.0902590322098223  0.0891478424196096   T   T   T
  0.1808730827155808  0.1718635952432364  0.0856212199584336   T   T   T
  0.3068055202073218  0.9221033983155222  0.0891474156673946   T   T   T
  0.1802896745823632  0.3396655297689635  0.0854601801043478   T   T   T
  0.3040094101755461  0.5906350909388790  0.0905707977644330   T   T   T
  0.1802822370976292  0.6726058689018408  0.0854977806427743   T   T   T
  0.3040219464917792  0.4216373985941435  0.0905921416893276   T   T   T
  0.1808907285544227  0.8404456148781492  0.0856487773510326   T   T   T
  0.5543232452127745  0.0914741821805166  0.1004063042733160   T   T   T
  0.4298754263518064  0.1768020819273325  0.0958745679137877   T   T   T
  0.5543048080670857  0.9208473163217833  0.1003909124191669   T   T   T
  0.4298698852505548  0.8355481930341884  0.0958458709573052   T   T   T
  0.8058631508332966  0.0900960584911746  0.0930254359802411   T   T   T
  0.6819398179456199  0.1752968813313211  0.1013377720947917   T   T   T
  0.8058332495480875  0.9222167357659637  0.0930420088616045   T   T   T
  0.6886375426864280  0.3405707046380176  0.1089915056941545   T   T   T
  0.8116227202959486  0.5913990623802230  0.0995481271506939   T   T   T
  0.6886774768905682  0.6717898762638088  0.1089484095002517   T   T   T
  0.8115832944806677  0.4208855400106368  0.0995337251486719   T   T   T
  0.6819209278267996  0.8370294276513798  0.1013240847029903   T   T   T
  0.4251949748559027  0.3413163851178458  0.0988692438809358   T   T   T
  0.4251702027258242  0.6710420574452587  0.0988108064682245   T   T   T
  0.5478706603587492  0.5063140168557000  0.1489135954841398   T   T   T
 
  0.00000000E+00  0.00000000E+00  0.00000000E+00
  0.00000000E+00  0.00000000E+00  0.00000000E+00
  0.00000000E+00  0.00000000E+00  0.00000000E+00
  0.00000000E+00  0.00000000E+00  0.00000000E+00
  0.00000000E+00  0.00000000E+00  0.00000000E+00
  0.00000000E+00  0.00000000E+00  0.00000000E+00
  0.00000000E+00  0.00000000E+00  0.00000000E+00
  0.00000000E+00  0.00000000E+00  0.00000000E+00
  0.00000000E+00  0.00000000E+00  0.00000000E+00
  0.00000000E+00  0.00000000E+00  0.00000000E+00
  0.00000000E+00  0.00000000E+00  0.00000000E+00
  0.00000000E+00  0.00000000E+00  0.00000000E+00
  0.00000000E+00  0.00000000E+00  0.00000000E+00
  0.00000000E+00  0.00000000E+00  0.00000000E+00
  0.00000000E+00  0.00000000E+00  0.00000000E+00
  0.00000000E+00  0.00000000E+00  0.00000000E+00
  0.00000000E+00  0.00000000E+00  0.00000000E+00
  0.00000000E+00  0.00000000E+00  0.00000000E+00
  0.00000000E+00  0.00000000E+00  0.00000000E+00
  0.00000000E+00  0.00000000E+00  0.00000000E+00
  0.00000000E+00  0.00000000E+00  0.00000000E+00
  0.00000000E+00  0.00000000E+00  0.00000000E+00
  0.00000000E+00  0.00000000E+00  0.00000000E+00
  0.00000000E+00  0.00000000E+00  0.00000000E+00
  0.00000000E+00  0.00000000E+00  0.00000000E+00
  0.00000000E+00  0.00000000E+00  0.00000000E+00
  0.00000000E+00  0.00000000E+00  0.00000000E+00
  0.00000000E+00  0.00000000E+00  0.00000000E+00
  0.00000000E+00  0.00000000E+00  0.00000000E+00
  0.00000000E+00  0.00000000E+00  0.00000000E+00
  0.00000000E+00  0.00000000E+00  0.00000000E+00
