Title                                   
   1.00000000000000     
     8.5490480000000009    0.0000000000000000    0.0000000000000000
     0.0000000000000000    8.5490480000000009    0.0000000000000000
     0.0000000000000000    0.0000000000000000   20.0000000000000000
    24     1
Selective dynamics
Direct
  0.9119984952214880  0.2048152882109379  0.1002501230342888   T   T   T
  0.9091693083176084  0.5017881821338016  0.0968498695281814   T   T   T
  0.9120352631915264  0.7987695880509286  0.1003543820091176   T   T   T
  0.1960662044937068  0.0827866287695063  0.1002911417128943   T   T   T
  0.0740021003021777  0.2048076369133183  0.1002329948158172   T   T   T
  0.1960993773602772  0.9207761983196716  0.1004109277699558   T   T   T
  0.1568111865272207  0.6493146672030666  0.0967664323009304   T   T   T
  0.0768613276426285  0.5017606174166737  0.0968674928085952   T   T   T
  0.1567407806414383  0.3542403724448829  0.0966028011143154   T   T   T
  0.0740537305469539  0.7987420705086382  0.1004111920488985   T   T   T
  0.4929681388293943  0.0856399628013792  0.0969509205418682   T   T   T
  0.3454517393021042  0.1655835486747667  0.0966693619509041   T   T   T
  0.4929729262297435  0.9179448848840298  0.0969750900225805   T   T   T
  0.3455044189592365  0.8380098934271468  0.0968108207587166   T   T   T
  0.7899374708057714  0.0828157561654554  0.1003471515086056   T   T   T
  0.6404763052351097  0.1655472651698320  0.0967577734208018   T   T   T
  0.7899605138516870  0.9208226366371094  0.1003754967548620   T   T   T
  0.8293004471903812  0.6493442129433400  0.0966862695659163   T   T   T
  0.8292349893587363  0.3542314325226697  0.0966448742501390   T   T   T
  0.6405486959275748  0.8380369901091355  0.0967531118523432   T   T   T
  0.3210893473463677  0.3298664637334043  0.0914619534739833   T   T   T
  0.3211180596333970  0.6736854837241731  0.0916427499715507   T   T   T
  0.6649210909426724  0.3298686312417290  0.0916144999921552   T   T   T
  0.6649821985935613  0.6737569014949254  0.0915470447572146   T   T   T
  0.4931078835492306  0.5018346864994905  0.0534305240353419   T   T   T
 
  0.00000000E+00  0.00000000E+00  0.00000000E+00
  0.00000000E+00  0.00000000E+00  0.00000000E+00
  0.00000000E+00  0.00000000E+00  0.00000000E+00
  0.00000000E+00  0.00000000E+00  0.00000000E+00
  0.00000000E+00  0.00000000E+00  0.00000000E+00
  0.00000000E+00  0.00000000E+00  0.00000000E+00
  0.00000000E+00  0.00000000E+00  0.00000000E+00
  0.00000000E+00  0.00000000E+00  0.00000000E+00
  0.00000000E+00  0.00000000E+00  0.00000000E+00
  0.00000000E+00  0.00000000E+00  0.00000000E+00
  0.00000000E+00  0.00000000E+00  0.00000000E+00
  0.00000000E+00  0.00000000E+00  0.00000000E+00
  0.00000000E+00  0.00000000E+00  0.00000000E+00
  0.00000000E+00  0.00000000E+00  0.00000000E+00
  0.00000000E+00  0.00000000E+00  0.00000000E+00
  0.00000000E+00  0.00000000E+00  0.00000000E+00
  0.00000000E+00  0.00000000E+00  0.00000000E+00
  0.00000000E+00  0.00000000E+00  0.00000000E+00
  0.00000000E+00  0.00000000E+00  0.00000000E+00
  0.00000000E+00  0.00000000E+00  0.00000000E+00
  0.00000000E+00  0.00000000E+00  0.00000000E+00
  0.00000000E+00  0.00000000E+00  0.00000000E+00
  0.00000000E+00  0.00000000E+00  0.00000000E+00
  0.00000000E+00  0.00000000E+00  0.00000000E+00
  0.00000000E+00  0.00000000E+00  0.00000000E+00
