Title                                   
   1.00000000000000     
     8.5490480000000009    0.0000000000000000    0.0000000000000000
     0.0000000000000000    8.5490480000000009    0.0000000000000000
     0.0000000000000000    0.0000000000000000   20.0000000000000000
    22     2     1
Selective dynamics
Direct
  0.9115516979651070  0.2068198250464169  0.0975898843576871   T   T   T
  0.9134570647095742  0.7996881777765465  0.0976014272497281   T   T   T
  0.1976809544911226  0.0822210194212016  0.0977760759388979   T   T   T
  0.0742023265080074  0.2022352789339723  0.0977245873188018   T   T   T
  0.1566330451576650  0.6488438057477328  0.0978748608112259   T   T   T
  0.0752068670420244  0.5017415528626545  0.0978569764995938   T   T   T
  0.1558428332530366  0.3550830578371177  0.0979133727401171   T   T   T
  0.0775677009328579  0.7994371847855741  0.0977426354404148   T   T   T
  0.4933465717981561  0.0859306148768944  0.0977274234724336   T   T   T
  0.3442965834805544  0.1644893508740208  0.0978897849938973   T   T   T
  0.4925365976689822  0.9175575481805921  0.0976658697238802   T   T   T
  0.3451238243624962  0.8355463836569746  0.0977941311722968   T   T   T
  0.7877496622636105  0.0841840693448377  0.0975329874078155   T   T   T
  0.6389181241987029  0.1669760855587191  0.0976681673466281   T   T   T
  0.7885832342756594  0.9206715378958751  0.0975297863795748   T   T   T
  0.8314733602527629  0.6490286221252620  0.0976507441295386   T   T   T
  0.8294698181834255  0.3571737594108954  0.0976921480821188   T   T   T
  0.6392861573026255  0.8363703494171628  0.0975998485391827   T   T   T
  0.3195547272293432  0.3318619577359753  0.0980182513535870   T   T   T
  0.3207135020002960  0.6719478535950086  0.0979205011746257   T   T   T
  0.6652454878292404  0.3338764544814717  0.0977696261813880   T   T   T
  0.6660533392987712  0.6709895615450110  0.0976767285981830   T   T   T
  0.9102841714671488  0.5029642831939876  0.0977731255003447   T   T   T
  0.1975365172223965  0.9174155099469099  0.0977954071983854   T   T   T
  0.4930978311064194  0.5017361557491916  0.0979206483896334   T   T   T
 
  0.00000000E+00  0.00000000E+00  0.00000000E+00
  0.00000000E+00  0.00000000E+00  0.00000000E+00
  0.00000000E+00  0.00000000E+00  0.00000000E+00
  0.00000000E+00  0.00000000E+00  0.00000000E+00
  0.00000000E+00  0.00000000E+00  0.00000000E+00
  0.00000000E+00  0.00000000E+00  0.00000000E+00
  0.00000000E+00  0.00000000E+00  0.00000000E+00
  0.00000000E+00  0.00000000E+00  0.00000000E+00
  0.00000000E+00  0.00000000E+00  0.00000000E+00
  0.00000000E+00  0.00000000E+00  0.00000000E+00
  0.00000000E+00  0.00000000E+00  0.00000000E+00
  0.00000000E+00  0.00000000E+00  0.00000000E+00
  0.00000000E+00  0.00000000E+00  0.00000000E+00
  0.00000000E+00  0.00000000E+00  0.00000000E+00
  0.00000000E+00  0.00000000E+00  0.00000000E+00
  0.00000000E+00  0.00000000E+00  0.00000000E+00
  0.00000000E+00  0.00000000E+00  0.00000000E+00
  0.00000000E+00  0.00000000E+00  0.00000000E+00
  0.00000000E+00  0.00000000E+00  0.00000000E+00
  0.00000000E+00  0.00000000E+00  0.00000000E+00
  0.00000000E+00  0.00000000E+00  0.00000000E+00
  0.00000000E+00  0.00000000E+00  0.00000000E+00
  0.00000000E+00  0.00000000E+00  0.00000000E+00
  0.00000000E+00  0.00000000E+00  0.00000000E+00
  0.00000000E+00  0.00000000E+00  0.00000000E+00
