Title                                   
   1.00000000000000     
     4.9440799999999996    0.0000000000000000    0.0000000000000000
     0.0000000000000000    8.5647549999999999    0.0000000000000000
     0.0000000000000000    0.0000000000000000   20.0000000000000000
    13     2     1
Selective dynamics
Direct
 -0.0015596984560211  0.2883379317227493  0.0928173468138117   T   T   T
  0.2500000000000000  0.0428747036627607  0.0846772437832288   T   T   T
  0.0021414980333140  0.7970341355289531  0.0982326291544379   T   T   T
 -0.0003609033153712  0.9601893996828839  0.0846624137256619   T   T   T
  0.7500000000000000  0.2056821564834728  0.0825254580201275   T   T   T
  0.5015596984560210  0.2883379317227493  0.0928173468138117   T   T   T
  0.7500000000000000  0.0411702114577393  0.0794869284708122   T   T   T
  0.7500000000000000  0.7074004629143623  0.1049840050370026   T   T   T
  0.4978585019666859  0.7970341355289531  0.0982326291544379   T   T   T
  0.7500000000000000  0.5367251165860619  0.1115362812473534   T   T   T
  0.5003609033153714  0.9601893996828839  0.0846624137256619   T   T   T
  0.5050462589214515  0.4448085272664153  0.1128478099323977   T   T   T
 -0.0050462589214516  0.4448085272664153  0.1128478099323977   T   T   T
  0.2500000000000000  0.7286837055473081  0.1108500309447853   T   T   T
  0.2500000000000000  0.2062605446690824  0.0884632833630652   T   T   T
  0.2500000000000000  0.5504631102772097  0.1728683698810161   T   T   T
 
  0.00000000E+00  0.00000000E+00  0.00000000E+00
  0.00000000E+00  0.00000000E+00  0.00000000E+00
  0.00000000E+00  0.00000000E+00  0.00000000E+00
  0.00000000E+00  0.00000000E+00  0.00000000E+00
  0.00000000E+00  0.00000000E+00  0.00000000E+00
  0.00000000E+00  0.00000000E+00  0.00000000E+00
  0.00000000E+00  0.00000000E+00  0.00000000E+00
  0.00000000E+00  0.00000000E+00  0.00000000E+00
  0.00000000E+00  0.00000000E+00  0.00000000E+00
  0.00000000E+00  0.00000000E+00  0.00000000E+00
  0.00000000E+00  0.00000000E+00  0.00000000E+00
  0.00000000E+00  0.00000000E+00  0.00000000E+00
  0.00000000E+00  0.00000000E+00  0.00000000E+00
  0.00000000E+00  0.00000000E+00  0.00000000E+00
  0.00000000E+00  0.00000000E+00  0.00000000E+00
  0.00000000E+00  0.00000000E+00  0.00000000E+00
