Title                                   
   1.00000000000000     
     9.8694509999999998    0.0000000000000000    0.0000000000000000
     0.0000000000000000    8.5490480000000009    0.0000000000000000
     0.0000000000000000    0.0000000000000000   20.0000000000000000
    26     5     1
Selective dynamics
Direct
  0.0564191467637767  0.0922599750050524  0.0832761193188202   T   T   T
  0.9307412267663636  0.1748486007833567  0.0836781397869227   T   T   T
  0.0575453414907768  0.9250021622988073  0.0840606596434625   T   T   T
  0.9300082474434375  0.3424460546180476  0.0865844097045669   T   T   T
  0.0572994857284371  0.5911195279593524  0.0847227105798608   T   T   T
  0.9329780323750363  0.6739207207548491  0.0886088886886640   T   T   T
  0.0570002219174023  0.4240060661605795  0.0854743965439849   T   T   T
  0.9329969511828744  0.8410683686747891  0.0867579251420664   T   T   T
  0.3059000533373649  0.0883005949256658  0.0891650395037726   T   T   T
  0.1826494510157977  0.1743752528580900  0.0858509327810236   T   T   T
  0.1836220742913912  0.3411720353273505  0.0874167016758164   T   T   T
  0.3037287382579698  0.5916845039376158  0.0999179504441832   T   T   T
  0.1821072474944820  0.6751066546605020  0.0879001933732993   T   T   T
  0.3106610305451294  0.4237264465780145  0.0968677914736734   T   T   T
  0.1812915435437747  0.8418024204205315  0.0869679613255529   T   T   T
  0.5560300939858818  0.0836625359835483  0.0932570760217276   T   T   T
  0.5544353332453732  0.9180234307008718  0.0989552883320344   T   T   T
  0.4311715545154741  0.3302894947595788  0.1022846412720258   T   T   T
  0.4261529739980385  0.8401709841957570  0.1024512906990777   T   T   T
  0.8062403316776253  0.0893845420943219  0.0842473126426713   T   T   T
  0.6794748397939305  0.1692292958344860  0.0894010538222464   T   T   T
  0.8075349913805848  0.9238499560024237  0.0879024306903863   T   T   T
  0.6806670407173585  0.3326443758150148  0.0990328188882506   T   T   T
  0.8099794508531341  0.5931834686842584  0.0996263425104422   T   T   T
  0.8024838975552130  0.4249304772102038  0.0955037978100067   T   T   T
  0.6850313484659024  0.8407340144139285  0.0996074539495645   T   T   T
  0.4128535984325014  0.6862266742476418  0.1214149028425036   T   T   T
  0.5554271487112259  0.3951654527489086  0.1204350663690185   T   T   T
  0.6967324232391616  0.6838547299633417  0.1181002436275429   T   T   T
  0.3052816131014215  0.9259625000138466  0.0905672917319759   T   T   T
  0.4288007827272413  0.1663680486976313  0.0941054243414908   T   T   T
  0.5563927854459217  0.5857266336716351  0.1715327444633808   T   T   T
 
  0.00000000E+00  0.00000000E+00  0.00000000E+00
  0.00000000E+00  0.00000000E+00  0.00000000E+00
  0.00000000E+00  0.00000000E+00  0.00000000E+00
  0.00000000E+00  0.00000000E+00  0.00000000E+00
  0.00000000E+00  0.00000000E+00  0.00000000E+00
  0.00000000E+00  0.00000000E+00  0.00000000E+00
  0.00000000E+00  0.00000000E+00  0.00000000E+00
  0.00000000E+00  0.00000000E+00  0.00000000E+00
  0.00000000E+00  0.00000000E+00  0.00000000E+00
  0.00000000E+00  0.00000000E+00  0.00000000E+00
  0.00000000E+00  0.00000000E+00  0.00000000E+00
  0.00000000E+00  0.00000000E+00  0.00000000E+00
  0.00000000E+00  0.00000000E+00  0.00000000E+00
  0.00000000E+00  0.00000000E+00  0.00000000E+00
  0.00000000E+00  0.00000000E+00  0.00000000E+00
  0.00000000E+00  0.00000000E+00  0.00000000E+00
  0.00000000E+00  0.00000000E+00  0.00000000E+00
  0.00000000E+00  0.00000000E+00  0.00000000E+00
  0.00000000E+00  0.00000000E+00  0.00000000E+00
  0.00000000E+00  0.00000000E+00  0.00000000E+00
  0.00000000E+00  0.00000000E+00  0.00000000E+00
  0.00000000E+00  0.00000000E+00  0.00000000E+00
  0.00000000E+00  0.00000000E+00  0.00000000E+00
  0.00000000E+00  0.00000000E+00  0.00000000E+00
  0.00000000E+00  0.00000000E+00  0.00000000E+00
  0.00000000E+00  0.00000000E+00  0.00000000E+00
  0.00000000E+00  0.00000000E+00  0.00000000E+00
  0.00000000E+00  0.00000000E+00  0.00000000E+00
  0.00000000E+00  0.00000000E+00  0.00000000E+00
  0.00000000E+00  0.00000000E+00  0.00000000E+00
  0.00000000E+00  0.00000000E+00  0.00000000E+00
  0.00000000E+00  0.00000000E+00  0.00000000E+00
