Title                                   
   1.00000000000000     
     9.8694509999999998    0.0000000000000000    0.0000000000000000
     0.0000000000000000    8.5490480000000009    0.0000000000000000
     0.0000000000000000    0.0000000000000000   20.0000000000000000
    28     3     1
Selective dynamics
Direct
  0.0560539750795106  0.0917391714992328  0.0872281995609361   T   T   T
  0.9315910747966760  0.1731110481543972  0.0881676285414095   T   T   T
  0.0568364941729018  0.9244616027957067  0.0878922574728450   T   T   T
  0.9310982066753926  0.3402978978421993  0.0905483702637538   T   T   T
  0.0568972303012678  0.5903057778409141  0.0883086221645202   T   T   T
  0.9322977708338976  0.6726606849594056  0.0917408070520220   T   T   T
  0.0575899454017491  0.4231189702444135  0.0890504655437202   T   T   T
  0.9319135199856932  0.8392884434280312  0.0905498031102388   T   T   T
  0.3055530251166604  0.0891898255044484  0.0890290056502686   T   T   T
  0.1821052594805826  0.1741028477074671  0.0878037437154503   T   T   T
  0.1842819234730156  0.3413815348839966  0.0888653448918690   T   T   T
  0.3057690683618208  0.5941474651316622  0.0935186922673356   T   T   T
  0.1807698907930480  0.6752823909476438  0.0887886573608497   T   T   T
  0.3108323510909927  0.4264689492683572  0.0919500943062952   T   T   T
  0.1801424520370705  0.8415427260590286  0.0886979946096581   T   T   T
  0.5561019487740494  0.0855565303605965  0.0936105672425279   T   T   T
  0.4309845525250688  0.1694734831992377  0.0913997189259559   T   T   T
  0.5539393596740236  0.9202740693600798  0.0986219257309605   T   T   T
  0.4346936083271210  0.3355387932310231  0.0939449990501141   T   T   T
  0.4258877142588675  0.8405580052136112  0.0973855359735607   T   T   T
  0.8069110354362119  0.0881619892294918  0.0897473395967357   T   T   T
  0.6814550962045872  0.1684772527377483  0.0923484367608468   T   T   T
  0.8066288617283984  0.9224738797234660  0.0924594462482394   T   T   T
  0.6799520235032531  0.3344239859834400  0.0963564504850479   T   T   T
  0.8082053001623901  0.5897662146458936  0.1017591222927529   T   T   T
  0.6915054271562170  0.6781045742624737  0.1172324945018027   T   T   T
  0.8053952965763097  0.4219312942071842  0.0969136956607884   T   T   T
  0.6823418143849902  0.8388316210684251  0.1025953020231458   T   T   T
  0.4209362443578641  0.6835701829860881  0.1028677075548003   T   T   T
  0.5579550597276841  0.4097444621648375  0.1002733531252876   T   T   T
  0.3045455330592514  0.9253955862844151  0.0901066103947174   T   T   T
  0.5484679365434405  0.5808647390750931  0.1659126079215782   T   T   T
 
  0.00000000E+00  0.00000000E+00  0.00000000E+00
  0.00000000E+00  0.00000000E+00  0.00000000E+00
  0.00000000E+00  0.00000000E+00  0.00000000E+00
  0.00000000E+00  0.00000000E+00  0.00000000E+00
  0.00000000E+00  0.00000000E+00  0.00000000E+00
  0.00000000E+00  0.00000000E+00  0.00000000E+00
  0.00000000E+00  0.00000000E+00  0.00000000E+00
  0.00000000E+00  0.00000000E+00  0.00000000E+00
  0.00000000E+00  0.00000000E+00  0.00000000E+00
  0.00000000E+00  0.00000000E+00  0.00000000E+00
  0.00000000E+00  0.00000000E+00  0.00000000E+00
  0.00000000E+00  0.00000000E+00  0.00000000E+00
  0.00000000E+00  0.00000000E+00  0.00000000E+00
  0.00000000E+00  0.00000000E+00  0.00000000E+00
  0.00000000E+00  0.00000000E+00  0.00000000E+00
  0.00000000E+00  0.00000000E+00  0.00000000E+00
  0.00000000E+00  0.00000000E+00  0.00000000E+00
  0.00000000E+00  0.00000000E+00  0.00000000E+00
  0.00000000E+00  0.00000000E+00  0.00000000E+00
  0.00000000E+00  0.00000000E+00  0.00000000E+00
  0.00000000E+00  0.00000000E+00  0.00000000E+00
  0.00000000E+00  0.00000000E+00  0.00000000E+00
  0.00000000E+00  0.00000000E+00  0.00000000E+00
  0.00000000E+00  0.00000000E+00  0.00000000E+00
  0.00000000E+00  0.00000000E+00  0.00000000E+00
  0.00000000E+00  0.00000000E+00  0.00000000E+00
  0.00000000E+00  0.00000000E+00  0.00000000E+00
  0.00000000E+00  0.00000000E+00  0.00000000E+00
  0.00000000E+00  0.00000000E+00  0.00000000E+00
  0.00000000E+00  0.00000000E+00  0.00000000E+00
  0.00000000E+00  0.00000000E+00  0.00000000E+00
  0.00000000E+00  0.00000000E+00  0.00000000E+00
