Title                                   
   1.00000000000000     
     4.9440799999999996    0.0000000000000000    0.0000000000000000
     0.0000000000000000   17.1295089999999988    0.0000000000000000
     0.0000000000000000    0.0000000000000000   20.0000000000000000
    29     1     1
Selective dynamics
Direct
 -0.0047007271046314  0.1053195365017070  0.2955774148796443   T   T   T
  0.2441744765601637  0.1477376240389146  0.2963815589573791   T   T   T
  0.2419469804801380  0.2312949578261835  0.2990281995105301   T   T   T
 -0.0102573741935483  0.2727022699916822  0.3012106270450831   T   T   T
  0.0093444961447394  0.6021908984775181  0.2981199189442947   T   T   T
  0.2552633078756406  0.7278392776008068  0.2965918984134620   T   T   T
  0.0016934899346099  0.8537653218346235  0.2950349310531979   T   T   T
  0.2509423399858812  0.8958442015443142  0.2950050725246001   T   T   T
  0.2484564266423762  0.9794656189677517  0.2948182529945174   T   T   T
  0.0041338846308398  0.7700244751724074  0.2954880581679789   T   T   T
  0.4950583641857264  0.1053637628180620  0.2952412855886790   T   T   T
  0.7445421899036954  0.1470823851128468  0.2956915142344507   T   T   T
  0.7409180441714051  0.2308562915573520  0.2976788283829253   T   T   T
  0.4976082942959710  0.0216348144683110  0.2947985766417936   T   T   T
  0.7514609564323484  0.3927445461131973  0.3040608413319576   T   T   T
  0.7622631301966476  0.4792116176237795  0.3048864153682269   T   T   T
  0.4909315936567714  0.2738333058085597  0.2989817914689286   T   T   T
  0.5085418439312412  0.6016938552096212  0.3026103412599902   T   T   T
  0.7551567880247203  0.7281043382695567  0.2962437984099533   T   T   T
  0.5018915652275822  0.8537682986409371  0.2953218292698340   T   T   T
  0.7510554827130108  0.8957848542523713  0.2949698898538243   T   T   T
  0.7485289660974990  0.9796366486212225  0.2947512986058081   T   T   T
  0.5046453489418307  0.7701223620183013  0.2961841201389643   T   T   T
  0.7576206033128989  0.6441528576112920  0.2981966778486046   T   T   T
  0.2580733930076957  0.6445786941525694  0.2989688358349674   T   T   T
 -0.0021925877778376  0.0215681567350071  0.2949123606807071   T   T   T
  0.5126309887645459  0.5191511755704261  0.3118407530274321   T   T   T
  0.0072939503231188  0.5190623136483126  0.2991317723417598   T   T   T
  0.5009740283002223  0.3569369657135635  0.3012165138621459   T   T   T
 -0.0126123172862737  0.3525263959032553  0.3075928931423561   T   T   T
  0.2446190726209715  0.4373441781955411  0.3345237302159560   T   T   T
 
  0.00000000E+00  0.00000000E+00  0.00000000E+00
  0.00000000E+00  0.00000000E+00  0.00000000E+00
  0.00000000E+00  0.00000000E+00  0.00000000E+00
  0.00000000E+00  0.00000000E+00  0.00000000E+00
  0.00000000E+00  0.00000000E+00  0.00000000E+00
  0.00000000E+00  0.00000000E+00  0.00000000E+00
  0.00000000E+00  0.00000000E+00  0.00000000E+00
  0.00000000E+00  0.00000000E+00  0.00000000E+00
  0.00000000E+00  0.00000000E+00  0.00000000E+00
  0.00000000E+00  0.00000000E+00  0.00000000E+00
  0.00000000E+00  0.00000000E+00  0.00000000E+00
  0.00000000E+00  0.00000000E+00  0.00000000E+00
  0.00000000E+00  0.00000000E+00  0.00000000E+00
  0.00000000E+00  0.00000000E+00  0.00000000E+00
  0.00000000E+00  0.00000000E+00  0.00000000E+00
  0.00000000E+00  0.00000000E+00  0.00000000E+00
  0.00000000E+00  0.00000000E+00  0.00000000E+00
  0.00000000E+00  0.00000000E+00  0.00000000E+00
  0.00000000E+00  0.00000000E+00  0.00000000E+00
  0.00000000E+00  0.00000000E+00  0.00000000E+00
  0.00000000E+00  0.00000000E+00  0.00000000E+00
  0.00000000E+00  0.00000000E+00  0.00000000E+00
  0.00000000E+00  0.00000000E+00  0.00000000E+00
  0.00000000E+00  0.00000000E+00  0.00000000E+00
  0.00000000E+00  0.00000000E+00  0.00000000E+00
  0.00000000E+00  0.00000000E+00  0.00000000E+00
  0.00000000E+00  0.00000000E+00  0.00000000E+00
  0.00000000E+00  0.00000000E+00  0.00000000E+00
  0.00000000E+00  0.00000000E+00  0.00000000E+00
  0.00000000E+00  0.00000000E+00  0.00000000E+00
  0.00000000E+00  0.00000000E+00  0.00000000E+00
