Title                                   
   1.00000000000000     
     9.8694509999999998    0.0000000000000000    0.0000000000000000
     0.0000000000000000    8.5490480000000009    0.0000000000000000
     0.0000000000000000    0.0000000000000000   20.0000000000000000
    30     1
Selective dynamics
Direct
  0.0562094203320580  0.0888160267802075  0.0863765679767604   T   T   T
  0.9307831782421697  0.1717605374662674  0.0879161551656771   T   T   T
  0.0562115192267737  0.9235692364903167  0.0863464631019247   T   T   T
  0.9324439518040024  0.3382717626750895  0.0870286953615600   T   T   T
  0.0562217431106454  0.5895825659353379  0.0847958711799811   T   T   T
  0.9324604293325548  0.6741308597439182  0.0869817597586888   T   T   T
  0.0562097982077681  0.4228112921352870  0.0848322046442037   T   T   T
  0.9307900865505926  0.8406366663026368  0.0878651161756170   T   T   T
  0.3075624230368374  0.0905040990121091  0.0928572751620856   T   T   T
  0.1816281310337692  0.1717549582669796  0.0879774402866036   T   T   T
  0.3075775601690412  0.9218266724552820  0.0928578513169507   T   T   T
  0.1799738873260007  0.3382613467906893  0.0870758236985837   T   T   T
  0.3024282015016069  0.5900455526777458  0.0930681991744008   T   T   T
  0.1799925056874339  0.6741241699057137  0.0870257254168859   T   T   T
  0.3024164578110966  0.4222655880157252  0.0930756679051068   T   T   T
  0.1816346370399204  0.8406327107435461  0.0879292603833749   T   T   T
  0.5561943459469981  0.0898983676580809  0.1012596053854544   T   T   T
  0.4320955618228376  0.1781960248321713  0.0992616469781176   T   T   T
  0.5561994153879074  0.9223814043087019  0.1012933841168970   T   T   T
  0.4268906953573317  0.3456272075106882  0.1034559935481203   T   T   T
  0.4269145574858905  0.6666167173745734  0.1034944354207123   T   T   T
  0.4321107096703212  0.8340802550065488  0.0993084802693652   T   T   T
  0.8048630039605320  0.0904848200274480  0.0927500595882219   T   T   T
  0.6803061161927497  0.1780959160167572  0.0991197166102149   T   T   T
  0.8048491887745628  0.9218363154524063  0.0927410640465674   T   T   T
  0.6855682659858611  0.3455061687475492  0.1032206048470160   T   T   T
  0.8100217272988354  0.5900770692325111  0.0929398599744648   T   T   T
  0.6855611004085546  0.6667488943606346  0.1032625628616856   T   T   T
  0.8100094686637854  0.4222807693305136  0.0929410230331380   T   T   T
  0.6803057085602791  0.8341722609660827  0.0991558554910159   T   T   T
  0.5567012040712908  0.5058787637784944  0.1427506311206446   T   T   T
 
  0.00000000E+00  0.00000000E+00  0.00000000E+00
  0.00000000E+00  0.00000000E+00  0.00000000E+00
  0.00000000E+00  0.00000000E+00  0.00000000E+00
  0.00000000E+00  0.00000000E+00  0.00000000E+00
  0.00000000E+00  0.00000000E+00  0.00000000E+00
  0.00000000E+00  0.00000000E+00  0.00000000E+00
  0.00000000E+00  0.00000000E+00  0.00000000E+00
  0.00000000E+00  0.00000000E+00  0.00000000E+00
  0.00000000E+00  0.00000000E+00  0.00000000E+00
  0.00000000E+00  0.00000000E+00  0.00000000E+00
  0.00000000E+00  0.00000000E+00  0.00000000E+00
  0.00000000E+00  0.00000000E+00  0.00000000E+00
  0.00000000E+00  0.00000000E+00  0.00000000E+00
  0.00000000E+00  0.00000000E+00  0.00000000E+00
  0.00000000E+00  0.00000000E+00  0.00000000E+00
  0.00000000E+00  0.00000000E+00  0.00000000E+00
  0.00000000E+00  0.00000000E+00  0.00000000E+00
  0.00000000E+00  0.00000000E+00  0.00000000E+00
  0.00000000E+00  0.00000000E+00  0.00000000E+00
  0.00000000E+00  0.00000000E+00  0.00000000E+00
  0.00000000E+00  0.00000000E+00  0.00000000E+00
  0.00000000E+00  0.00000000E+00  0.00000000E+00
  0.00000000E+00  0.00000000E+00  0.00000000E+00
  0.00000000E+00  0.00000000E+00  0.00000000E+00
  0.00000000E+00  0.00000000E+00  0.00000000E+00
  0.00000000E+00  0.00000000E+00  0.00000000E+00
  0.00000000E+00  0.00000000E+00  0.00000000E+00
  0.00000000E+00  0.00000000E+00  0.00000000E+00
  0.00000000E+00  0.00000000E+00  0.00000000E+00
  0.00000000E+00  0.00000000E+00  0.00000000E+00
  0.00000000E+00  0.00000000E+00  0.00000000E+00
