Title                                   
   1.00000000000000     
     4.9440799999999996    0.0000000000000000    0.0000000000000000
     0.0000000000000000   17.1295089999999988    0.0000000000000000
     0.0000000000000000    0.0000000000000000   20.0000000000000000
    28     3     1
Selective dynamics
Direct
  0.0014334553885773  0.1048761704254906  0.2844399229650962   T   T   T
  0.2516345968529335  0.1468799062696160  0.2874203396517777   T   T   T
  0.2526919379514929  0.2298291971734778  0.2959750864670674   T   T   T
  0.0055430046665293  0.3513452270091058  0.3158580891850999   T   T   T
  0.0011991083020988  0.2713663561021932  0.2999618534973526   T   T   T
 -0.0067736173325369  0.6039329626703401  0.3072212236576026   T   T   T
  0.2475632787108095  0.7278216441189769  0.2927830317369154   T   T   T
 -0.0005586236208382  0.8537666016567831  0.2839087152278478   T   T   T
  0.2493526101923082  0.8957491235894826  0.2829355879226155   T   T   T
  0.2501815467414528  0.9793754058154489  0.2818603607399525   T   T   T
 -0.0011710595262756  0.7702228004930582  0.2881441009339563   T   T   T
  0.5010004420323139  0.1048825540212727  0.2844979474215231   T   T   T
  0.7513615694030296  0.1468983847038225  0.2862950640785426   T   T   T
  0.7519799701972063  0.2296565995969198  0.2927898768610682   T   T   T
  0.5003772648932487  0.0213435736131173  0.2820252890389900   T   T   T
  0.5010729571675892  0.3519789447191005  0.3163927878259150   T   T   T
  0.7487327254420997  0.4805743760528490  0.3187007439765908   T   T   T
  0.5039208075937094  0.2714617169503802  0.3002596260993234   T   T   T
  0.5016656314461054  0.6053863331018288  0.3110788190198672   T   T   T
  0.7486305301320773  0.7290368985855662  0.2907293305957382   T   T   T
  0.4987012738956918  0.8536865668885025  0.2842080016637713   T   T   T
  0.7492546967615100  0.8956064792914317  0.2826212327345394   T   T   T
  0.7500634614750745  0.9792981691726476  0.2815724545921140   T   T   T
  0.4978314271204878  0.7700198980664481  0.2887444873736152   T   T   T
  0.7474956122386408  0.6460257431118340  0.2999099534986828   T   T   T
  0.2477312897375823  0.6446221933355766  0.3042191217535540   T   T   T
  0.0004380651328126  0.0213985583928727  0.2819779179972814   T   T   T
  0.5148948515979287  0.5250525636452601  0.3331723852372319   T   T   T
  0.9852020116388204  0.5232485380466930  0.3197550207666176   T   T   T
  0.2531875637254514  0.3853642444516150  0.3356877242883082   T   T   T
  0.7542852099441082  0.3958850295805750  0.3196038843839071   T   T   T
  0.2378994000979668  0.4819582393477048  0.3878150188074845   T   T   T
 
  0.00000000E+00  0.00000000E+00  0.00000000E+00
  0.00000000E+00  0.00000000E+00  0.00000000E+00
  0.00000000E+00  0.00000000E+00  0.00000000E+00
  0.00000000E+00  0.00000000E+00  0.00000000E+00
  0.00000000E+00  0.00000000E+00  0.00000000E+00
  0.00000000E+00  0.00000000E+00  0.00000000E+00
  0.00000000E+00  0.00000000E+00  0.00000000E+00
  0.00000000E+00  0.00000000E+00  0.00000000E+00
  0.00000000E+00  0.00000000E+00  0.00000000E+00
  0.00000000E+00  0.00000000E+00  0.00000000E+00
  0.00000000E+00  0.00000000E+00  0.00000000E+00
  0.00000000E+00  0.00000000E+00  0.00000000E+00
  0.00000000E+00  0.00000000E+00  0.00000000E+00
  0.00000000E+00  0.00000000E+00  0.00000000E+00
  0.00000000E+00  0.00000000E+00  0.00000000E+00
  0.00000000E+00  0.00000000E+00  0.00000000E+00
  0.00000000E+00  0.00000000E+00  0.00000000E+00
  0.00000000E+00  0.00000000E+00  0.00000000E+00
  0.00000000E+00  0.00000000E+00  0.00000000E+00
  0.00000000E+00  0.00000000E+00  0.00000000E+00
  0.00000000E+00  0.00000000E+00  0.00000000E+00
  0.00000000E+00  0.00000000E+00  0.00000000E+00
  0.00000000E+00  0.00000000E+00  0.00000000E+00
  0.00000000E+00  0.00000000E+00  0.00000000E+00
  0.00000000E+00  0.00000000E+00  0.00000000E+00
  0.00000000E+00  0.00000000E+00  0.00000000E+00
  0.00000000E+00  0.00000000E+00  0.00000000E+00
  0.00000000E+00  0.00000000E+00  0.00000000E+00
  0.00000000E+00  0.00000000E+00  0.00000000E+00
  0.00000000E+00  0.00000000E+00  0.00000000E+00
  0.00000000E+00  0.00000000E+00  0.00000000E+00
  0.00000000E+00  0.00000000E+00  0.00000000E+00
