Title                                   
   1.00000000000000     
     8.5490480000000009    0.0000000000000000    0.0000000000000000
     0.0000000000000000    8.5490480000000009    0.0000000000000000
     0.0000000000000000    0.0000000000000000   20.0000000000000000
    23     1     1
Selective dynamics
Direct
  0.9106838776768187  0.2051119683622614  0.0943204142510455   T   T   T
  0.9101706032494745  0.5030022105928801  0.0960564406253705   T   T   T
  0.9125878512295029  0.8015289082290338  0.0943497955462991   T   T   T
  0.1970908897509327  0.0822802416087264  0.0944864151724600   T   T   T
  0.0748625960154411  0.2017756492716665  0.0944448699749830   T   T   T
  0.1582147036404860  0.6492607570324168  0.0963256600996234   T   T   T
  0.0772879424247019  0.5019893977714223  0.0961766523552519   T   T   T
  0.1581225521707851  0.3544626848164572  0.0967321996485563   T   T   T
  0.0780342804575362  0.7994201022633001  0.0941955523035964   T   T   T
  0.4920775387876937  0.0852014414607554  0.0959168358112988   T   T   T
  0.3442698561281489  0.1631857662637625  0.0965594547322864   T   T   T
  0.4915022880447495  0.9181893179829201  0.0957759993013607   T   T   T
  0.3449701435214366  0.8366614292796452  0.0962762257069915   T   T   T
  0.7882955217527231  0.0840091462565565  0.0941340180235784   T   T   T
  0.6383166459419778  0.1662431922247412  0.0960252817949984   T   T   T
  0.7893449796786088  0.9210878609055509  0.0941852622618099   T   T   T
  0.8315118881484949  0.6510704491051553  0.0962418980112419   T   T   T
  0.8293075365686163  0.3552758677306512  0.0962062448657933   T   T   T
  0.6384027850030578  0.8370222610454219  0.0960498193765128   T   T   T
  0.3220747721062271  0.3314889701261844  0.0997967848526367   T   T   T
  0.3231409410682673  0.6726509089929176  0.0989799161994349   T   T   T
  0.6629438018537468  0.3319562425573429  0.0990627682485746   T   T   T
  0.6638077429871226  0.6728496513367600  0.0989520726323302   T   T   T
  0.1972458928063848  0.9171728699362300  0.0940701047301610   T   T   T
  0.4911443689870504  0.5018927048472462  0.1383843134737844   T   T   T
 
  0.00000000E+00  0.00000000E+00  0.00000000E+00
  0.00000000E+00  0.00000000E+00  0.00000000E+00
  0.00000000E+00  0.00000000E+00  0.00000000E+00
  0.00000000E+00  0.00000000E+00  0.00000000E+00
  0.00000000E+00  0.00000000E+00  0.00000000E+00
  0.00000000E+00  0.00000000E+00  0.00000000E+00
  0.00000000E+00  0.00000000E+00  0.00000000E+00
  0.00000000E+00  0.00000000E+00  0.00000000E+00
  0.00000000E+00  0.00000000E+00  0.00000000E+00
  0.00000000E+00  0.00000000E+00  0.00000000E+00
  0.00000000E+00  0.00000000E+00  0.00000000E+00
  0.00000000E+00  0.00000000E+00  0.00000000E+00
  0.00000000E+00  0.00000000E+00  0.00000000E+00
  0.00000000E+00  0.00000000E+00  0.00000000E+00
  0.00000000E+00  0.00000000E+00  0.00000000E+00
  0.00000000E+00  0.00000000E+00  0.00000000E+00
  0.00000000E+00  0.00000000E+00  0.00000000E+00
  0.00000000E+00  0.00000000E+00  0.00000000E+00
  0.00000000E+00  0.00000000E+00  0.00000000E+00
  0.00000000E+00  0.00000000E+00  0.00000000E+00
  0.00000000E+00  0.00000000E+00  0.00000000E+00
  0.00000000E+00  0.00000000E+00  0.00000000E+00
  0.00000000E+00  0.00000000E+00  0.00000000E+00
  0.00000000E+00  0.00000000E+00  0.00000000E+00
  0.00000000E+00  0.00000000E+00  0.00000000E+00
