Title                                   
   1.00000000000000     
     4.9440799999999996    0.0000000000000000    0.0000000000000000
     0.0000000000000000    8.5647549999999999    0.0000000000000000
     0.0000000000000000    0.0000000000000000   20.0000000000000000
    11     3     1
Selective dynamics
Direct
  0.2472840951112077  0.2085462753861643  0.0974994648145495   T   T   T
 -0.0065245014805761  0.2956329526953746  0.0924272576832654   T   T   T
  0.2495535624421715  0.0392512835668581  0.0952863587581989   T   T   T
 -0.0047352921632238  0.9551502841560199  0.0962011569930239   T   T   T
  0.7462723300543932  0.2094694959616508  0.0947462363654115   T   T   T
  0.4992427709311646  0.2944995679710722  0.1034094421700522   T   T   T
  0.7490013086825891  0.0420158607041743  0.0928348958054121   T   T   T
  0.7531622422870077  0.7193310208113445  0.0931262389077244   T   T   T
  0.7546288003476950  0.5364457017731431  0.0964128174688841   T   T   T
  0.5051171049633246  0.9534876471520748  0.0917489035816002   T   T   T
  0.5203114102700322  0.4570972524421980  0.1195458747656844   T   T   T
 -0.0126864978468973  0.4550895711006311  0.0836202029538277   T   T   T
 -0.0134328860136629  0.7959845038328255  0.1041505998861123   T   T   T
  0.5145308060760285  0.7938546835192125  0.0846624155419761   T   T   T
  0.2482747463387449  0.6158248989272570  0.1623081343042806   T   T   T
 
  0.00000000E+00  0.00000000E+00  0.00000000E+00
  0.00000000E+00  0.00000000E+00  0.00000000E+00
  0.00000000E+00  0.00000000E+00  0.00000000E+00
  0.00000000E+00  0.00000000E+00  0.00000000E+00
  0.00000000E+00  0.00000000E+00  0.00000000E+00
  0.00000000E+00  0.00000000E+00  0.00000000E+00
  0.00000000E+00  0.00000000E+00  0.00000000E+00
  0.00000000E+00  0.00000000E+00  0.00000000E+00
  0.00000000E+00  0.00000000E+00  0.00000000E+00
  0.00000000E+00  0.00000000E+00  0.00000000E+00
  0.00000000E+00  0.00000000E+00  0.00000000E+00
  0.00000000E+00  0.00000000E+00  0.00000000E+00
  0.00000000E+00  0.00000000E+00  0.00000000E+00
  0.00000000E+00  0.00000000E+00  0.00000000E+00
  0.00000000E+00  0.00000000E+00  0.00000000E+00
