Title                                   
   1.00000000000000     
     4.9440799999999996    0.0000000000000000    0.0000000000000000
     0.0000000000000000   17.1295089999999988    0.0000000000000000
     0.0000000000000000    0.0000000000000000   20.0000000000000000
    31     1
Selective dynamics
Direct
 -0.0000010654929315  0.1040561026708464  0.2836294373283642   T   T   T
  0.2498891648652242  0.1457178707542154  0.2869059564280067   T   T   T
  0.2499154976901125  0.2285828756260294  0.2957650554730449   T   T   T
 -0.0016852306327935  0.3517682339241085  0.3146904221327230   T   T   T
 -0.0010671967795650  0.2695881714664262  0.3008396940657514   T   T   T
 -0.0021193757112265  0.6065819506178830  0.3140326755819888   T   T   T
  0.2498592643654264  0.7292662211325559  0.2949418013648543   T   T   T
 -0.0000772111523075  0.8540188190921524  0.2830584843374788   T   T   T
  0.2498191847143445  0.8956702974843905  0.2810831347438268   T   T   T
  0.2498370608964737  0.9790414247983527  0.2795208807509263   T   T   T
 -0.0000500014519050  0.7709463649080978  0.2897831399326560   T   T   T
  0.4997592438390148  0.1040570943202450  0.2836237876838538   T   T   T
  0.7498877921203020  0.1454587474693020  0.2865349915272701   T   T   T
  0.7499183342167717  0.2282259249819820  0.2948738735010932   T   T   T
  0.4998511499997488  0.0207376988915320  0.2800123455103944   T   T   T
  0.5015824363482074  0.3517680536912719  0.3146823519678241   T   T   T
  0.7499544456573637  0.3943434977990740  0.3197291282683660   T   T   T
  0.7499956385892196  0.4794039102991260  0.3243895136484024   T   T   T
  0.5009060573794962  0.2695881203546976  0.3008366099882780   T   T   T
  0.5019546502680242  0.6065843305440027  0.3139955557119539   T   T   T
  0.7498623052153159  0.7300562643325259  0.2940847584277057   T   T   T
  0.4997158408179268  0.8540170810609269  0.2830510593428907   T   T   T
  0.7498153010025650  0.8955870417108912  0.2809663268440327   T   T   T
  0.7498372814910211  0.9790622637380293  0.2794491984826658   T   T   T
  0.4997439241002299  0.7709445192622323  0.2897708952941807   T   T   T
  0.7499220237681473  0.6476545439545780  0.3055410744388491   T   T   T
  0.2499011292601397  0.6472253425952531  0.3080461475074525   T   T   T
 -0.0001456620666738  0.0207354831775107  0.2800160368321287   T   T   T
  0.5115005406744745  0.5250011045488927  0.3288894800633675   T   T   T
  0.9884604393964715  0.5250016736788630  0.3289739894286895   T   T   T
  0.2499519870472221  0.3893526407065620  0.3273671124262992   T   T   T
  0.2501280495641658  0.4785073304074343  0.3734800809646320   T   T   T
 
  0.00000000E+00  0.00000000E+00  0.00000000E+00
  0.00000000E+00  0.00000000E+00  0.00000000E+00
  0.00000000E+00  0.00000000E+00  0.00000000E+00
  0.00000000E+00  0.00000000E+00  0.00000000E+00
  0.00000000E+00  0.00000000E+00  0.00000000E+00
  0.00000000E+00  0.00000000E+00  0.00000000E+00
  0.00000000E+00  0.00000000E+00  0.00000000E+00
  0.00000000E+00  0.00000000E+00  0.00000000E+00
  0.00000000E+00  0.00000000E+00  0.00000000E+00
  0.00000000E+00  0.00000000E+00  0.00000000E+00
  0.00000000E+00  0.00000000E+00  0.00000000E+00
  0.00000000E+00  0.00000000E+00  0.00000000E+00
  0.00000000E+00  0.00000000E+00  0.00000000E+00
  0.00000000E+00  0.00000000E+00  0.00000000E+00
  0.00000000E+00  0.00000000E+00  0.00000000E+00
  0.00000000E+00  0.00000000E+00  0.00000000E+00
  0.00000000E+00  0.00000000E+00  0.00000000E+00
  0.00000000E+00  0.00000000E+00  0.00000000E+00
  0.00000000E+00  0.00000000E+00  0.00000000E+00
  0.00000000E+00  0.00000000E+00  0.00000000E+00
  0.00000000E+00  0.00000000E+00  0.00000000E+00
  0.00000000E+00  0.00000000E+00  0.00000000E+00
  0.00000000E+00  0.00000000E+00  0.00000000E+00
  0.00000000E+00  0.00000000E+00  0.00000000E+00
  0.00000000E+00  0.00000000E+00  0.00000000E+00
  0.00000000E+00  0.00000000E+00  0.00000000E+00
  0.00000000E+00  0.00000000E+00  0.00000000E+00
  0.00000000E+00  0.00000000E+00  0.00000000E+00
  0.00000000E+00  0.00000000E+00  0.00000000E+00
  0.00000000E+00  0.00000000E+00  0.00000000E+00
  0.00000000E+00  0.00000000E+00  0.00000000E+00
  0.00000000E+00  0.00000000E+00  0.00000000E+00
