Title                                   
   1.00000000000000     
     4.9440799999999996    0.0000000000000000    0.0000000000000000
     0.0000000000000000    8.5647549999999999    0.0000000000000000
     0.0000000000000000    0.0000000000000000   20.0000000000000000
    13     2     1
Selective dynamics
Direct
 -0.0014033056628167  0.2886077244372203  0.0914403412043784   T   T   T
  0.2500000000000000  0.0425971879823808  0.0836075708782194   T   T   T
  0.0018056770042082  0.7971320316544893  0.0979081974057541   T   T   T
 -0.0006629669569106  0.9602063814876532  0.0836443693226409   T   T   T
  0.7500000000000000  0.2062439473393985  0.0802593404722815   T   T   T
  0.5014033056628172  0.2886077244372203  0.0914403412043784   T   T   T
  0.7500000000000000  0.0414054746406725  0.0779384919548869   T   T   T
  0.7500000000000000  0.7067683661238452  0.1052332620687052   T   T   T
  0.4981943229957919  0.7971320316544893  0.0979081974057541   T   T   T
  0.7500000000000000  0.5359432627980854  0.1117394404782899   T   T   T
  0.5006629669569105  0.9602063814876532  0.0836443693226409   T   T   T
  0.5052695521131996  0.4437159998573699  0.1132359090617428   T   T   T
 -0.0052695521131998  0.4437159998573699  0.1132359090617428   T   T   T
  0.2500000000000000  0.7297574970909881  0.1108227834716996   T   T   T
  0.2500000000000000  0.2062271178171938  0.0873320164472499   T   T   T
  0.2500000000000000  0.5517328713339712  0.1831214602396442   T   T   T
 
  0.00000000E+00  0.00000000E+00  0.00000000E+00
  0.00000000E+00  0.00000000E+00  0.00000000E+00
  0.00000000E+00  0.00000000E+00  0.00000000E+00
  0.00000000E+00  0.00000000E+00  0.00000000E+00
  0.00000000E+00  0.00000000E+00  0.00000000E+00
  0.00000000E+00  0.00000000E+00  0.00000000E+00
  0.00000000E+00  0.00000000E+00  0.00000000E+00
  0.00000000E+00  0.00000000E+00  0.00000000E+00
  0.00000000E+00  0.00000000E+00  0.00000000E+00
  0.00000000E+00  0.00000000E+00  0.00000000E+00
  0.00000000E+00  0.00000000E+00  0.00000000E+00
  0.00000000E+00  0.00000000E+00  0.00000000E+00
  0.00000000E+00  0.00000000E+00  0.00000000E+00
  0.00000000E+00  0.00000000E+00  0.00000000E+00
  0.00000000E+00  0.00000000E+00  0.00000000E+00
  0.00000000E+00  0.00000000E+00  0.00000000E+00
