Title                                   
   1.00000000000000     
     4.9440799999999996    0.0000000000000000    0.0000000000000000
     0.0000000000000000   17.1295089999999988    0.0000000000000000
     0.0000000000000000    0.0000000000000000   20.0000000000000000
    28     3     1
Selective dynamics
Direct
 -0.0000476796149423  0.1041436955241695  0.2878918340340416   T   T   T
  0.2499955773504226  0.1458658059514832  0.2911095479264453   T   T   T
  0.2504096787703252  0.2289045776400151  0.2997885112929932   T   T   T
  0.0037327341704457  0.3524879178466437  0.3186198236090129   T   T   T
 -0.0001600820607329  0.2701420027825485  0.3044950080199603   T   T   T
 -0.0082777983885771  0.6047531171102136  0.3101340139483552   T   T   T
  0.2479014630224857  0.7273617778036917  0.2925593539479114   T   T   T
 -0.0006889382603251  0.8535253845243533  0.2848298898275741   T   T   T
  0.2488343025947001  0.8954708650806991  0.2834549100592048   T   T   T
  0.2493380173117171  0.9789716278623017  0.2832753939978108   T   T   T
 -0.0007526217997660  0.7701608398542692  0.2894946947061635   T   T   T
  0.4999639692165199  0.1042141643524727  0.2877457802727502   T   T   T
  0.7502347968246010  0.1458386063036154  0.2903519772378220   T   T   T
  0.7509600128151334  0.2288593369977611  0.2979850041295424   T   T   T
  0.4995413663066878  0.0207533622529197  0.2839939187234159   T   T   T
  0.4991883574852706  0.3520634760766495  0.3176227025841307   T   T   T
  0.7516860026467255  0.3974440663134491  0.3205568817043581   T   T   T
  0.7471337995409569  0.4850134253035308  0.3198403700338409   T   T   T
  0.5018442133609157  0.2700265680352263  0.3039672384043746   T   T   T
  0.5030721530172124  0.6034678410464753  0.3021414164305704   T   T   T
  0.7482861292733204  0.7293521430607202  0.2914958355280008   T   T   T
  0.4979976074585288  0.8534419840661120  0.2841511715834487   T   T   T
  0.7487339780817999  0.8951593861897531  0.2833020920613563   T   T   T
  0.7492743554896908  0.9788102639267175  0.2830814574762369   T   T   T
  0.4970968609273112  0.7699106221604594  0.2881307534434847   T   T   T
  0.7476224332873523  0.6468291646699446  0.2999449005739312   T   T   T
  0.2471320104998299  0.6437543551293113  0.3013796413748007   T   T   T
 -0.0006339643180851  0.0206920546763878  0.2841573846751733   T   T   T
  0.5132055881605941  0.5228864315353697  0.3019975476233950   T   T   T
  0.9736408774633931  0.5282790153085180  0.3319269176235302   T   T   T
  0.2520216292473539  0.3858973223468861  0.3310168705634670   T   T   T
  0.2785361701191405  0.4840697982673250  0.3721221565828488   T   T   T
 
  0.00000000E+00  0.00000000E+00  0.00000000E+00
  0.00000000E+00  0.00000000E+00  0.00000000E+00
  0.00000000E+00  0.00000000E+00  0.00000000E+00
  0.00000000E+00  0.00000000E+00  0.00000000E+00
  0.00000000E+00  0.00000000E+00  0.00000000E+00
  0.00000000E+00  0.00000000E+00  0.00000000E+00
  0.00000000E+00  0.00000000E+00  0.00000000E+00
  0.00000000E+00  0.00000000E+00  0.00000000E+00
  0.00000000E+00  0.00000000E+00  0.00000000E+00
  0.00000000E+00  0.00000000E+00  0.00000000E+00
  0.00000000E+00  0.00000000E+00  0.00000000E+00
  0.00000000E+00  0.00000000E+00  0.00000000E+00
  0.00000000E+00  0.00000000E+00  0.00000000E+00
  0.00000000E+00  0.00000000E+00  0.00000000E+00
  0.00000000E+00  0.00000000E+00  0.00000000E+00
  0.00000000E+00  0.00000000E+00  0.00000000E+00
  0.00000000E+00  0.00000000E+00  0.00000000E+00
  0.00000000E+00  0.00000000E+00  0.00000000E+00
  0.00000000E+00  0.00000000E+00  0.00000000E+00
  0.00000000E+00  0.00000000E+00  0.00000000E+00
  0.00000000E+00  0.00000000E+00  0.00000000E+00
  0.00000000E+00  0.00000000E+00  0.00000000E+00
  0.00000000E+00  0.00000000E+00  0.00000000E+00
  0.00000000E+00  0.00000000E+00  0.00000000E+00
  0.00000000E+00  0.00000000E+00  0.00000000E+00
  0.00000000E+00  0.00000000E+00  0.00000000E+00
  0.00000000E+00  0.00000000E+00  0.00000000E+00
  0.00000000E+00  0.00000000E+00  0.00000000E+00
  0.00000000E+00  0.00000000E+00  0.00000000E+00
  0.00000000E+00  0.00000000E+00  0.00000000E+00
  0.00000000E+00  0.00000000E+00  0.00000000E+00
  0.00000000E+00  0.00000000E+00  0.00000000E+00
