Title                                   
   1.00000000000000     
     9.8694509999999998    0.0000000000000000    0.0000000000000000
     0.0000000000000000    8.5490480000000009    0.0000000000000000
     0.0000000000000000    0.0000000000000000   20.0000000000000000
    30     1     1
Selective dynamics
Direct
  0.0562407647154426  0.0897933371173874  0.0830619961030036   T   T   T
  0.9309161705584275  0.1728938501773749  0.0857022788341292   T   T   T
  0.0562356824154448  0.9231555122310756  0.0824994801469737   T   T   T
  0.9303345152557427  0.3405120539501078  0.0897693803735147   T   T   T
  0.0562366798499971  0.5891811349151642  0.0867977888604134   T   T   T
  0.9313597108335638  0.6726425715059469  0.0883174456682633   T   T   T
  0.0562295773149400  0.4231555889867682  0.0882409765379371   T   T   T
  0.9308359528069781  0.8393879284574635  0.0849978880158663   T   T   T
  0.3052934070798716  0.0893383777528223  0.0867958814137404   T   T   T
  0.1815520233951316  0.1728989137803178  0.0857000089175457   T   T   T
  0.3065768738954952  0.9233705590769764  0.0868187866680720   T   T   T
  0.1821161934093491  0.3405092507915408  0.0897616623311109   T   T   T
  0.3050190470322124  0.5914870525321980  0.0994677086097199   T   T   T
  0.1811346414756480  0.6726367172295644  0.0883124536730939   T   T   T
  0.3060145265447488  0.4224819427234159  0.0984134570682178   T   T   T
  0.1816190651643540  0.8393908223726210  0.0849976385961117   T   T   T
  0.5562329617171984  0.0870045934944872  0.0940625488132444   T   T   T
  0.4311408379740141  0.1695906482566401  0.0931975195441155   T   T   T
  0.4313713428405985  0.3352099451008677  0.1021904666516957   T   T   T
  0.4247019344022046  0.6806696692278131  0.1121219707078049   T   T   T
  0.5562357542677290  0.4093452930442787  0.1149505642156390   T   T   T
  0.4304896596573601  0.8407878178368386  0.0973535452540643   T   T   T
  0.8071692590981603  0.0893287377872030  0.0868154201710494   T   T   T
  0.6813422301223558  0.1695890173956416  0.0932179031794355   T   T   T
  0.8058821104070913  0.9233652426921608  0.0868359158961590   T   T   T
  0.6811153681774562  0.3352146175979029  0.1022155212980066   T   T   T
  0.8074942660375354  0.5914916436642734  0.0995019066520679   T   T   T
  0.6878345989014728  0.6806928599680575  0.1121544465987296   T   T   T
  0.8064620477773201  0.4224819916591060  0.0984496653821526   T   T   T
  0.6819740305232007  0.8407861833537990  0.0973667895758596   T   T   T
  0.5562266822392673  0.9227155237701778  0.0965075921419739   T   T   T
  0.5562510841096941  0.5891366015500162  0.1690783921003228   T   T   T
 
  0.00000000E+00  0.00000000E+00  0.00000000E+00
  0.00000000E+00  0.00000000E+00  0.00000000E+00
  0.00000000E+00  0.00000000E+00  0.00000000E+00
  0.00000000E+00  0.00000000E+00  0.00000000E+00
  0.00000000E+00  0.00000000E+00  0.00000000E+00
  0.00000000E+00  0.00000000E+00  0.00000000E+00
  0.00000000E+00  0.00000000E+00  0.00000000E+00
  0.00000000E+00  0.00000000E+00  0.00000000E+00
  0.00000000E+00  0.00000000E+00  0.00000000E+00
  0.00000000E+00  0.00000000E+00  0.00000000E+00
  0.00000000E+00  0.00000000E+00  0.00000000E+00
  0.00000000E+00  0.00000000E+00  0.00000000E+00
  0.00000000E+00  0.00000000E+00  0.00000000E+00
  0.00000000E+00  0.00000000E+00  0.00000000E+00
  0.00000000E+00  0.00000000E+00  0.00000000E+00
  0.00000000E+00  0.00000000E+00  0.00000000E+00
  0.00000000E+00  0.00000000E+00  0.00000000E+00
  0.00000000E+00  0.00000000E+00  0.00000000E+00
  0.00000000E+00  0.00000000E+00  0.00000000E+00
  0.00000000E+00  0.00000000E+00  0.00000000E+00
  0.00000000E+00  0.00000000E+00  0.00000000E+00
  0.00000000E+00  0.00000000E+00  0.00000000E+00
  0.00000000E+00  0.00000000E+00  0.00000000E+00
  0.00000000E+00  0.00000000E+00  0.00000000E+00
  0.00000000E+00  0.00000000E+00  0.00000000E+00
  0.00000000E+00  0.00000000E+00  0.00000000E+00
  0.00000000E+00  0.00000000E+00  0.00000000E+00
  0.00000000E+00  0.00000000E+00  0.00000000E+00
  0.00000000E+00  0.00000000E+00  0.00000000E+00
  0.00000000E+00  0.00000000E+00  0.00000000E+00
  0.00000000E+00  0.00000000E+00  0.00000000E+00
  0.00000000E+00  0.00000000E+00  0.00000000E+00
