Title                                   
   1.00000000000000     
     8.5490480000000009    0.0000000000000000    0.0000000000000000
     0.0000000000000000    8.5490480000000009    0.0000000000000000
     0.0000000000000000    0.0000000000000000   20.0000000000000000
    23     1     1
Selective dynamics
Direct
  0.9107610934241902  0.2045333869953438  0.0910542391025583   T   T   T
  0.9102251913304871  0.5031553010283256  0.0956718769218883   T   T   T
  0.9136929399443131  0.8024122172832062  0.0916991118167541   T   T   T
  0.1961154372435526  0.0810271050311317  0.0920694506286505   T   T   T
  0.0735002946704039  0.2014445642748921  0.0912480497490471   T   T   T
  0.1582273526717689  0.6502323222385494  0.0955979941259996   T   T   T
  0.0774324426320064  0.5014807105142363  0.0955116691940597   T   T   T
  0.1564526021532895  0.3528385138896891  0.0959718773900736   T   T   T
  0.0775770201077050  0.8001750417264354  0.0915319854841237   T   T   T
  0.4919593357626588  0.0851064064458143  0.0957057917212846   T   T   T
  0.3430856798271342  0.1619739645270337  0.0966542737305834   T   T   T
  0.4917164190617417  0.9181076035352105  0.0954548684052065   T   T   T
  0.3445006047326005  0.8368777052653336  0.0959641914839660   T   T   T
  0.7886941633147251  0.0836954652344578  0.0910228823557263   T   T   T
  0.6390833446547149  0.1659073308707799  0.0956322247322461   T   T   T
  0.7899220976842980  0.9219409232518887  0.0911555047490975   T   T   T
  0.8327777515437983  0.6521494628256193  0.0963026814718808   T   T   T
  0.8293865073976785  0.3546065781689496  0.0955927794259533   T   T   T
  0.6401210967662355  0.8380848551584540  0.0957611947659066   T   T   T
  0.3186863894655030  0.3276964736531914  0.1033257395962152   T   T   T
  0.3212067080520187  0.6745828206359095  0.1002083713369994   T   T   T
  0.6649619956385372  0.3298619463828942  0.1022151243389092   T   T   T
  0.6673791663573551  0.6758677360183892  0.1029376280122491   T   T   T
  0.1962301954996533  0.9182004053347829  0.0916087091063229   T   T   T
  0.4917161700636151  0.5028311597094879  0.1538067803542781   T   T   T
 
  0.00000000E+00  0.00000000E+00  0.00000000E+00
  0.00000000E+00  0.00000000E+00  0.00000000E+00
  0.00000000E+00  0.00000000E+00  0.00000000E+00
  0.00000000E+00  0.00000000E+00  0.00000000E+00
  0.00000000E+00  0.00000000E+00  0.00000000E+00
  0.00000000E+00  0.00000000E+00  0.00000000E+00
  0.00000000E+00  0.00000000E+00  0.00000000E+00
  0.00000000E+00  0.00000000E+00  0.00000000E+00
  0.00000000E+00  0.00000000E+00  0.00000000E+00
  0.00000000E+00  0.00000000E+00  0.00000000E+00
  0.00000000E+00  0.00000000E+00  0.00000000E+00
  0.00000000E+00  0.00000000E+00  0.00000000E+00
  0.00000000E+00  0.00000000E+00  0.00000000E+00
  0.00000000E+00  0.00000000E+00  0.00000000E+00
  0.00000000E+00  0.00000000E+00  0.00000000E+00
  0.00000000E+00  0.00000000E+00  0.00000000E+00
  0.00000000E+00  0.00000000E+00  0.00000000E+00
  0.00000000E+00  0.00000000E+00  0.00000000E+00
  0.00000000E+00  0.00000000E+00  0.00000000E+00
  0.00000000E+00  0.00000000E+00  0.00000000E+00
  0.00000000E+00  0.00000000E+00  0.00000000E+00
  0.00000000E+00  0.00000000E+00  0.00000000E+00
  0.00000000E+00  0.00000000E+00  0.00000000E+00
  0.00000000E+00  0.00000000E+00  0.00000000E+00
  0.00000000E+00  0.00000000E+00  0.00000000E+00
