Title                                   
   1.00000000000000     
     4.9440799999999996    0.0000000000000000    0.0000000000000000
     0.0000000000000000   17.1295089999999988    0.0000000000000000
     0.0000000000000000    0.0000000000000000   20.0000000000000000
    25     5     1
Selective dynamics
Direct
  0.0009788231922997  0.1058291882304633  0.2980212613833495   T   T   T
  0.2503152731325427  0.1490655748769533  0.2987450874492939   T   T   T
  0.2503019611689022  0.2335662536477648  0.3002267541737364   T   T   T
 -0.0028925640694787  0.2748619858513097  0.3008825667685819   T   T   T
 -0.0028949557932929  0.6003560897770420  0.3010210777786456   T   T   T
  0.2503621209900317  0.7257091958144792  0.2989562384529393   T   T   T
  0.0018561179031900  0.8524726899328496  0.2972843822214136   T   T   T
  0.2503867717538368  0.8950428534377251  0.2969460260632172   T   T   T
  0.2503566863864226  0.9793074134546095  0.2968309845320485   T   T   T
  0.0025439083691951  0.7680447205201104  0.2983139719905071   T   T   T
  0.4997228835445263  0.1058233610692155  0.2980223723891283   T   T   T
  0.7503238223685353  0.1476635769830411  0.2986504659083106   T   T   T
  0.7503135861294119  0.2314335600058262  0.3000977985904542   T   T   T
  0.4999118793334734  0.0216240786465780  0.2970982646587916   T   T   T
  0.7502647060672645  0.3947055243451171  0.3023632799831021   T   T   T
  0.7502709768219066  0.4816384609899420  0.3024008351401180   T   T   T
  0.5035049359885723  0.2748602964047128  0.3008815969696758   T   T   T
  0.5035192772072682  0.6003570170043071  0.3010145428838894   T   T   T
  0.7503620356677150  0.7268388601097804  0.2988869203665411   T   T   T
  0.4988598280373808  0.8524781400171159  0.2972906238805318   T   T   T
  0.7503835467115320  0.8946592921446251  0.2969447987580857   T   T   T
  0.7503573897180298  0.9789703436858237  0.2968492313481323   T   T   T
  0.4981629548303329  0.7680470784522779  0.2983223380079759   T   T   T
  0.7503475881259137  0.6444204071546862  0.3002136728170205   T   T   T
  0.0008097088719984  0.0216263939692715  0.2970956864269037   T   T   T
  0.5126886845923284  0.5216873802237580  0.3022023854198017   T   T   T
  0.9878267681048880  0.5216921424214354  0.3022124199750382   T   T   T
  0.5143138314008315  0.3550111365675415  0.3021265372120709   T   T   T
 -0.0138247385935061  0.3550044017222851  0.3021323735427703   T   T   T
  0.2503138932084817  0.6411142683305482  0.3003090817163482   T   T   T
  0.2502592988294670  0.4374303142088022  0.3027164231915280   T   T   T
 
  0.00000000E+00  0.00000000E+00  0.00000000E+00
  0.00000000E+00  0.00000000E+00  0.00000000E+00
  0.00000000E+00  0.00000000E+00  0.00000000E+00
  0.00000000E+00  0.00000000E+00  0.00000000E+00
  0.00000000E+00  0.00000000E+00  0.00000000E+00
  0.00000000E+00  0.00000000E+00  0.00000000E+00
  0.00000000E+00  0.00000000E+00  0.00000000E+00
  0.00000000E+00  0.00000000E+00  0.00000000E+00
  0.00000000E+00  0.00000000E+00  0.00000000E+00
  0.00000000E+00  0.00000000E+00  0.00000000E+00
  0.00000000E+00  0.00000000E+00  0.00000000E+00
  0.00000000E+00  0.00000000E+00  0.00000000E+00
  0.00000000E+00  0.00000000E+00  0.00000000E+00
  0.00000000E+00  0.00000000E+00  0.00000000E+00
  0.00000000E+00  0.00000000E+00  0.00000000E+00
  0.00000000E+00  0.00000000E+00  0.00000000E+00
  0.00000000E+00  0.00000000E+00  0.00000000E+00
  0.00000000E+00  0.00000000E+00  0.00000000E+00
  0.00000000E+00  0.00000000E+00  0.00000000E+00
  0.00000000E+00  0.00000000E+00  0.00000000E+00
  0.00000000E+00  0.00000000E+00  0.00000000E+00
  0.00000000E+00  0.00000000E+00  0.00000000E+00
  0.00000000E+00  0.00000000E+00  0.00000000E+00
  0.00000000E+00  0.00000000E+00  0.00000000E+00
  0.00000000E+00  0.00000000E+00  0.00000000E+00
  0.00000000E+00  0.00000000E+00  0.00000000E+00
  0.00000000E+00  0.00000000E+00  0.00000000E+00
  0.00000000E+00  0.00000000E+00  0.00000000E+00
  0.00000000E+00  0.00000000E+00  0.00000000E+00
  0.00000000E+00  0.00000000E+00  0.00000000E+00
  0.00000000E+00  0.00000000E+00  0.00000000E+00
