Title                                   
   1.00000000000000     
     9.8694509999999998    0.0000000000000000    0.0000000000000000
     0.0000000000000000    8.5490480000000009    0.0000000000000000
     0.0000000000000000    0.0000000000000000   20.0000000000000000
    24     6     1
Selective dynamics
Direct
  0.0560389016914246  0.0898395028686042  0.0943522226619789   T   T   T
  0.9316667315390643  0.1719257043247657  0.0948208781783822   T   T   T
  0.0574216296252004  0.9226857920928367  0.0944074407333401   T   T   T
  0.9338807766102071  0.3388072062816184  0.0939731509675434   T   T   T
  0.0565513330734891  0.5895636587808301  0.0924896593384206   T   T   T
  0.9340124654475335  0.6730584124041171  0.0940518350210080   T   T   T
  0.0566733833630211  0.4225940670584887  0.0924542871924655   T   T   T
  0.9321611112354234  0.8401625707173369  0.0949371952767863   T   T   T
  0.3075687662767988  0.0880615360861326  0.0965825119408075   T   T   T
  0.1812753742527927  0.1711040952910354  0.0946465192470406   T   T   T
  0.1791894514217411  0.3376789920540221  0.0937847283074645   T   T   T
  0.3006442960573011  0.5899800552451377  0.0965284615289049   T   T   T
  0.1793612601520061  0.6739415014459363  0.0938066345221857   T   T   T
  0.3010938971628476  0.4213626444869443  0.0964880594403293   T   T   T
  0.1808028336602494  0.8403834150256556  0.0947076966768472   T   T   T
  0.4292555188889532  0.1761373424034355  0.0989590485275237   T   T   T
  0.5549877732378006  0.9192943918146361  0.0998378637669361   T   T   T
  0.4286370770586539  0.8363208280214399  0.0991994724010573   T   T   T
  0.8049159949229097  0.0894254287851693  0.0966966173207820   T   T   T
  0.6826213765205584  0.1781205196671315  0.0989439370830786   T   T   T
  0.8064483384578176  0.9221146309459408  0.0968183673104132   T   T   T
  0.8118666952970770  0.5905541425101692  0.0967431317804205   T   T   T
  0.8117866357799530  0.4212141377207302  0.0966548037169487   T   T   T
  0.6823771910081442  0.8352788647179162  0.0991970815306186   T   T   T
  0.5565081264416524  0.0963720365704675  0.0999777933911304   T   T   T
  0.4210924670240258  0.3374212687674207  0.1001078717728421   T   T   T
  0.4198195452061115  0.6759206758622043  0.1004795030395412   T   T   T
  0.6907717655974975  0.3386806757242627  0.1000829272676163   T   T   T
  0.6917849822506108  0.6732992798980896  0.1003355833830753   T   T   T
  0.3059898524708144  0.9221565938862166  0.0965995992977348   T   T   T
  0.5559304482683195  0.5074150285413057  0.1023001173768343   T   T   T
 
  0.00000000E+00  0.00000000E+00  0.00000000E+00
  0.00000000E+00  0.00000000E+00  0.00000000E+00
  0.00000000E+00  0.00000000E+00  0.00000000E+00
  0.00000000E+00  0.00000000E+00  0.00000000E+00
  0.00000000E+00  0.00000000E+00  0.00000000E+00
  0.00000000E+00  0.00000000E+00  0.00000000E+00
  0.00000000E+00  0.00000000E+00  0.00000000E+00
  0.00000000E+00  0.00000000E+00  0.00000000E+00
  0.00000000E+00  0.00000000E+00  0.00000000E+00
  0.00000000E+00  0.00000000E+00  0.00000000E+00
  0.00000000E+00  0.00000000E+00  0.00000000E+00
  0.00000000E+00  0.00000000E+00  0.00000000E+00
  0.00000000E+00  0.00000000E+00  0.00000000E+00
  0.00000000E+00  0.00000000E+00  0.00000000E+00
  0.00000000E+00  0.00000000E+00  0.00000000E+00
  0.00000000E+00  0.00000000E+00  0.00000000E+00
  0.00000000E+00  0.00000000E+00  0.00000000E+00
  0.00000000E+00  0.00000000E+00  0.00000000E+00
  0.00000000E+00  0.00000000E+00  0.00000000E+00
  0.00000000E+00  0.00000000E+00  0.00000000E+00
  0.00000000E+00  0.00000000E+00  0.00000000E+00
  0.00000000E+00  0.00000000E+00  0.00000000E+00
  0.00000000E+00  0.00000000E+00  0.00000000E+00
  0.00000000E+00  0.00000000E+00  0.00000000E+00
  0.00000000E+00  0.00000000E+00  0.00000000E+00
  0.00000000E+00  0.00000000E+00  0.00000000E+00
  0.00000000E+00  0.00000000E+00  0.00000000E+00
  0.00000000E+00  0.00000000E+00  0.00000000E+00
  0.00000000E+00  0.00000000E+00  0.00000000E+00
  0.00000000E+00  0.00000000E+00  0.00000000E+00
  0.00000000E+00  0.00000000E+00  0.00000000E+00
