Title                                   
   1.00000000000000     
     4.9440799999999996    0.0000000000000000    0.0000000000000000
     0.0000000000000000   17.1295089999999988    0.0000000000000000
     0.0000000000000000    0.0000000000000000   20.0000000000000000
    29     2     1
Selective dynamics
Direct
 -0.0000477210539492  0.1049115227397660  0.2825550406852514   T   T   T
  0.2498694125066960  0.1466147819605388  0.2867820183234484   T   T   T
  0.2498964592432621  0.2290753033757522  0.2982391569291660   T   T   T
  0.0029849281583035  0.3499880244966723  0.3215775575724508   T   T   T
 -0.0013051075191407  0.2702480326132422  0.3038957274119190   T   T   T
 -0.0034954192562634  0.6055022949923908  0.3095833858862869   T   T   T
  0.2498698676109222  0.7288480895503777  0.2920301997661622   T   T   T
  0.0001889588544878  0.8541760183779710  0.2808020377461474   T   T   T
  0.2498740973516321  0.8960931343755539  0.2790979119436264   T   T   T
  0.2498618389401037  0.9796737313912597  0.2777578508962273   T   T   T
  0.0003309962216733  0.7708098938583843  0.2868255760214834   T   T   T
  0.4997955019323074  0.1049118827521949  0.2825532104953954   T   T   T
  0.7498828202709527  0.1467621087690037  0.2857449375143871   T   T   T
  0.7499146066010111  0.2290175145857140  0.2953673076361042   T   T   T
  0.4999369772397638  0.0215446848380233  0.2782596007638177   T   T   T
  0.4968963774885953  0.3499853010729901  0.3215782932832129   T   T   T
  0.7499589823322766  0.4784574753687032  0.3192904493394023   T   T   T
  0.5011281695928147  0.2702458012731766  0.3038953417569147   T   T   T
  0.5032957226617198  0.6054982537543803  0.3095669748378291   T   T   T
  0.7498841234571983  0.7296761658439380  0.2900569121750857   T   T   T
  0.4995604561895195  0.8541777791095487  0.2807982535840070   T   T   T
  0.7498799613050110  0.8959441807219731  0.2787263376592666   T   T   T
  0.7498574079183596  0.9795600055301636  0.2774063682817549   T   T   T
  0.4994165245898202  0.7708083869227459  0.2868233019111049   T   T   T
  0.7499045445556396  0.6470335207607629  0.3002894067060228   T   T   T
  0.2498960312510869  0.6460933846455368  0.3046730162662846   T   T   T
 -0.0002020860264933  0.0215429703274759  0.2782605793133127   T   T   T
  0.5134510220867077  0.5236355791384348  0.3263886935121449   T   T   T
  0.9864298723641137  0.5236371239781744  0.3264269639175105   T   T   T
  0.2499497227832542  0.3844789546286674  0.3377750224729810   T   T   T
  0.7499430549972027  0.3935596912397981  0.3263081123954198   T   T   T
  0.2500148953514160  0.4860394070066761  0.3932294529958251   T   T   T
 
  0.00000000E+00  0.00000000E+00  0.00000000E+00
  0.00000000E+00  0.00000000E+00  0.00000000E+00
  0.00000000E+00  0.00000000E+00  0.00000000E+00
  0.00000000E+00  0.00000000E+00  0.00000000E+00
  0.00000000E+00  0.00000000E+00  0.00000000E+00
  0.00000000E+00  0.00000000E+00  0.00000000E+00
  0.00000000E+00  0.00000000E+00  0.00000000E+00
  0.00000000E+00  0.00000000E+00  0.00000000E+00
  0.00000000E+00  0.00000000E+00  0.00000000E+00
  0.00000000E+00  0.00000000E+00  0.00000000E+00
  0.00000000E+00  0.00000000E+00  0.00000000E+00
  0.00000000E+00  0.00000000E+00  0.00000000E+00
  0.00000000E+00  0.00000000E+00  0.00000000E+00
  0.00000000E+00  0.00000000E+00  0.00000000E+00
  0.00000000E+00  0.00000000E+00  0.00000000E+00
  0.00000000E+00  0.00000000E+00  0.00000000E+00
  0.00000000E+00  0.00000000E+00  0.00000000E+00
  0.00000000E+00  0.00000000E+00  0.00000000E+00
  0.00000000E+00  0.00000000E+00  0.00000000E+00
  0.00000000E+00  0.00000000E+00  0.00000000E+00
  0.00000000E+00  0.00000000E+00  0.00000000E+00
  0.00000000E+00  0.00000000E+00  0.00000000E+00
  0.00000000E+00  0.00000000E+00  0.00000000E+00
  0.00000000E+00  0.00000000E+00  0.00000000E+00
  0.00000000E+00  0.00000000E+00  0.00000000E+00
  0.00000000E+00  0.00000000E+00  0.00000000E+00
  0.00000000E+00  0.00000000E+00  0.00000000E+00
  0.00000000E+00  0.00000000E+00  0.00000000E+00
  0.00000000E+00  0.00000000E+00  0.00000000E+00
  0.00000000E+00  0.00000000E+00  0.00000000E+00
  0.00000000E+00  0.00000000E+00  0.00000000E+00
  0.00000000E+00  0.00000000E+00  0.00000000E+00
