Title                                   
   1.00000000000000     
     9.8694509999999998    0.0000000000000000    0.0000000000000000
     0.0000000000000000    8.5490480000000009    0.0000000000000000
     0.0000000000000000    0.0000000000000000   20.0000000000000000
    25     5     1
Selective dynamics
Direct
  0.0561570990315602  0.0892897614788336  0.0889743193655392   T   T   T
  0.9314428859026019  0.1722069263691597  0.0924228350120632   T   T   T
  0.0575202474060458  0.9212427947147825  0.0895661127807594   T   T   T
  0.9336597812424908  0.3393850551343024  0.0946487521591974   T   T   T
  0.0573519468633487  0.5905552836081245  0.0911574936873648   T   T   T
  0.0572039607628093  0.4238093785067619  0.0905227483962232   T   T   T
  0.9323314255814577  0.8381735439566055  0.0931315307033500   T   T   T
  0.3080926180673303  0.0887250295669182  0.0866128343698848   T   T   T
  0.1815046572833541  0.1724536844221720  0.0868975636292495   T   T   T
  0.1813488130239748  0.3391653643998233  0.0871656346279688   T   T   T
  0.3069934259503491  0.5898213229151364  0.0860569413019892   T   T   T
  0.1810022875711264  0.6735702821669698  0.0886072623503349   T   T   T
  0.3076029048017249  0.4206664541542444  0.0853704561368432   T   T   T
  0.1823757741650541  0.8394391310500999  0.0879033060944860   T   T   T
  0.4298665098761326  0.1726296782355764  0.0890797033885405   T   T   T
  0.5542896528867147  0.9221706998587080  0.0957909529700643   T   T   T
  0.4299073786944230  0.8391753202713200  0.0897262064985165   T   T   T
  0.8055871813472907  0.0889990638662966  0.0942636622196293   T   T   T
  0.6812732508616356  0.1766097648770260  0.0997530479330957   T   T   T
  0.8065822796236634  0.9209080565634963  0.0947898758746499   T   T   T
  0.6861556435395442  0.3402818120072735  0.1105169346751621   T   T   T
  0.8113494884485758  0.5917207018117856  0.1045162781433077   T   T   T
  0.6885076144309453  0.6726247152538731  0.1109608405046129   T   T   T
  0.8114168608965999  0.4215218695746643  0.1040164815778003   T   T   T
  0.6806834828040403  0.8375233922705917  0.1005167791112070   T   T   T
  0.9342152242991715  0.6723119126562309  0.0949826881236949   T   T   T
  0.5560036365751422  0.0933270339043034  0.0947901102738174   T   T   T
  0.4278434560776667  0.3345998352279578  0.0878008994784369   T   T   T
  0.4264443118674367  0.6785944361515094  0.0878840685477950   T   T   T
  0.3057284296787359  0.9219007116369711  0.0860216613407062   T   T   T
  0.5326927704390679  0.5074719833884902  0.1465170187237583   T   T   T
 
  0.00000000E+00  0.00000000E+00  0.00000000E+00
  0.00000000E+00  0.00000000E+00  0.00000000E+00
  0.00000000E+00  0.00000000E+00  0.00000000E+00
  0.00000000E+00  0.00000000E+00  0.00000000E+00
  0.00000000E+00  0.00000000E+00  0.00000000E+00
  0.00000000E+00  0.00000000E+00  0.00000000E+00
  0.00000000E+00  0.00000000E+00  0.00000000E+00
  0.00000000E+00  0.00000000E+00  0.00000000E+00
  0.00000000E+00  0.00000000E+00  0.00000000E+00
  0.00000000E+00  0.00000000E+00  0.00000000E+00
  0.00000000E+00  0.00000000E+00  0.00000000E+00
  0.00000000E+00  0.00000000E+00  0.00000000E+00
  0.00000000E+00  0.00000000E+00  0.00000000E+00
  0.00000000E+00  0.00000000E+00  0.00000000E+00
  0.00000000E+00  0.00000000E+00  0.00000000E+00
  0.00000000E+00  0.00000000E+00  0.00000000E+00
  0.00000000E+00  0.00000000E+00  0.00000000E+00
  0.00000000E+00  0.00000000E+00  0.00000000E+00
  0.00000000E+00  0.00000000E+00  0.00000000E+00
  0.00000000E+00  0.00000000E+00  0.00000000E+00
  0.00000000E+00  0.00000000E+00  0.00000000E+00
  0.00000000E+00  0.00000000E+00  0.00000000E+00
  0.00000000E+00  0.00000000E+00  0.00000000E+00
  0.00000000E+00  0.00000000E+00  0.00000000E+00
  0.00000000E+00  0.00000000E+00  0.00000000E+00
  0.00000000E+00  0.00000000E+00  0.00000000E+00
  0.00000000E+00  0.00000000E+00  0.00000000E+00
  0.00000000E+00  0.00000000E+00  0.00000000E+00
  0.00000000E+00  0.00000000E+00  0.00000000E+00
  0.00000000E+00  0.00000000E+00  0.00000000E+00
  0.00000000E+00  0.00000000E+00  0.00000000E+00
