Title                                   
   1.00000000000000     
     4.9440799999999996    0.0000000000000000    0.0000000000000000
     0.0000000000000000    8.5647549999999999    0.0000000000000000
     0.0000000000000000    0.0000000000000000   20.0000000000000000
    10     4     1
Selective dynamics
Direct
 -0.0023701212446128  0.2958127799884335  0.1004809726380996   T   T   T
  0.2485437239912875  0.0378543454741872  0.1004701976071026   T   T   T
 -0.0022918572475069  0.9557427868481315  0.1004794135411630   T   T   T
  0.7475294162174301  0.2084295392910874  0.1004233779038128   T   T   T
  0.4977519607921344  0.2945473657214567  0.1004919904790978   T   T   T
  0.7494047024299478  0.0402487029797853  0.1003507619481805   T   T   T
  0.7546034580648058  0.7143475387077280  0.1005273980813322   T   T   T
  0.7528569645703850  0.5380563252262891  0.1006932998625475   T   T   T
  0.5011350603976449  0.9541979218351900  0.1004627091500417   T   T   T
  0.5047468448795300  0.4606340094255171  0.1005056614978023   T   T   T
 -0.0034985731353813  0.4571198642595221  0.1005781475014970   T   T   T
 -0.0085772355940148  0.7918103711503147  0.1006285018192893   T   T   T
  0.5114434990957727  0.7895368132375993  0.1005557855057036   T   T   T
  0.2474409113105530  0.2101690628674982  0.1004618394385694   T   T   T
  0.2512812454720245  0.6231735729872614  0.1008699430257641   T   T   T
 
  0.00000000E+00  0.00000000E+00  0.00000000E+00
  0.00000000E+00  0.00000000E+00  0.00000000E+00
  0.00000000E+00  0.00000000E+00  0.00000000E+00
  0.00000000E+00  0.00000000E+00  0.00000000E+00
  0.00000000E+00  0.00000000E+00  0.00000000E+00
  0.00000000E+00  0.00000000E+00  0.00000000E+00
  0.00000000E+00  0.00000000E+00  0.00000000E+00
  0.00000000E+00  0.00000000E+00  0.00000000E+00
  0.00000000E+00  0.00000000E+00  0.00000000E+00
  0.00000000E+00  0.00000000E+00  0.00000000E+00
  0.00000000E+00  0.00000000E+00  0.00000000E+00
  0.00000000E+00  0.00000000E+00  0.00000000E+00
  0.00000000E+00  0.00000000E+00  0.00000000E+00
  0.00000000E+00  0.00000000E+00  0.00000000E+00
  0.00000000E+00  0.00000000E+00  0.00000000E+00
