Title                                   
   1.00000000000000     
     9.8694509999999998    0.0000000000000000    0.0000000000000000
     0.0000000000000000    8.5490480000000009    0.0000000000000000
     0.0000000000000000    0.0000000000000000   20.0000000000000000
    27     4     1
Selective dynamics
Direct
  0.0564127047580815  0.0923579912113129  0.0885263798997602   T   T   T
  0.9301002558570022  0.1763720392710346  0.0886836493046463   T   T   T
  0.0577636290055408  0.9243314223426266  0.0868850441414499   T   T   T
  0.9292961372110142  0.3432082543320932  0.0909616258102654   T   T   T
  0.0567324879599332  0.5907275040495831  0.0908264252099062   T   T   T
  0.9323972853239311  0.6736291374716521  0.0862638267303703   T   T   T
  0.0555783373206207  0.4235518007544056  0.0933010690860535   T   T   T
  0.9325727270440871  0.8410263676577322  0.0843306013434358   T   T   T
  0.3066261789873085  0.0876447389644922  0.0906603191590026   T   T   T
  0.1826697579713345  0.1736412765533469  0.0918613588364791   T   T   T
  0.3088396954568112  0.9214007110885096  0.0913029252238986   T   T   T
  0.1815233482468556  0.3397462186708606  0.0968312396351366   T   T   T
  0.3059162955779805  0.5884281120455509  0.1056436713573855   T   T   T
  0.1818736944888685  0.6711193042554497  0.0931231388931496   T   T   T
  0.1831783449706368  0.8387232254046464  0.0903630716282884   T   T   T
  0.5575895662816220  0.0865666681476166  0.0926551624423118   T   T   T
  0.4317926114308053  0.1697481718415291  0.0951349539581136   T   T   T
  0.4312438395445756  0.3350091245572177  0.1069392235680707   T   T   T
  0.4334328791846356  0.8366065292687740  0.1001484822636096   T   T   T
  0.8067044321752358  0.0912258860657655  0.0862323795659672   T   T   T
  0.6806135453145719  0.1733110548189189  0.0904846996614243   T   T   T
  0.8071956524686111  0.9254883033936565  0.0838704273810215   T   T   T
  0.6791676446042896  0.3406434342984114  0.1000057900389616   T   T   T
  0.8041850594898228  0.5968699903117478  0.0837981737789588   T   T   T
  0.6856647556079452  0.8355296697860685  0.0828306053230505   T   T   T
  0.4230913297610929  0.6769752322474409  0.1207939973730510   T   T   T
  0.5556975436307453  0.4099209281337639  0.1219800174504866   T   T   T
  0.6879090416448577  0.6779948036809180  0.0773049709986460   T   T   T
  0.5589948636266036  0.9175041119490132  0.0917748983310458   T   T   T
  0.3058117594985693  0.4209643172821806  0.1051503476517098   T   T   T
  0.8026065306983986  0.4276426819491466  0.0914518484151887   T   T   T
  0.5464570648576195  0.5823369881945363  0.1855546755391706   T   T   T
 
  0.00000000E+00  0.00000000E+00  0.00000000E+00
  0.00000000E+00  0.00000000E+00  0.00000000E+00
  0.00000000E+00  0.00000000E+00  0.00000000E+00
  0.00000000E+00  0.00000000E+00  0.00000000E+00
  0.00000000E+00  0.00000000E+00  0.00000000E+00
  0.00000000E+00  0.00000000E+00  0.00000000E+00
  0.00000000E+00  0.00000000E+00  0.00000000E+00
  0.00000000E+00  0.00000000E+00  0.00000000E+00
  0.00000000E+00  0.00000000E+00  0.00000000E+00
  0.00000000E+00  0.00000000E+00  0.00000000E+00
  0.00000000E+00  0.00000000E+00  0.00000000E+00
  0.00000000E+00  0.00000000E+00  0.00000000E+00
  0.00000000E+00  0.00000000E+00  0.00000000E+00
  0.00000000E+00  0.00000000E+00  0.00000000E+00
  0.00000000E+00  0.00000000E+00  0.00000000E+00
  0.00000000E+00  0.00000000E+00  0.00000000E+00
  0.00000000E+00  0.00000000E+00  0.00000000E+00
  0.00000000E+00  0.00000000E+00  0.00000000E+00
  0.00000000E+00  0.00000000E+00  0.00000000E+00
  0.00000000E+00  0.00000000E+00  0.00000000E+00
  0.00000000E+00  0.00000000E+00  0.00000000E+00
  0.00000000E+00  0.00000000E+00  0.00000000E+00
  0.00000000E+00  0.00000000E+00  0.00000000E+00
  0.00000000E+00  0.00000000E+00  0.00000000E+00
  0.00000000E+00  0.00000000E+00  0.00000000E+00
  0.00000000E+00  0.00000000E+00  0.00000000E+00
  0.00000000E+00  0.00000000E+00  0.00000000E+00
  0.00000000E+00  0.00000000E+00  0.00000000E+00
  0.00000000E+00  0.00000000E+00  0.00000000E+00
  0.00000000E+00  0.00000000E+00  0.00000000E+00
  0.00000000E+00  0.00000000E+00  0.00000000E+00
  0.00000000E+00  0.00000000E+00  0.00000000E+00
