Title                                   
   1.00000000000000     
     9.8694509999999998    0.0000000000000000    0.0000000000000000
     0.0000000000000000    8.5490480000000009    0.0000000000000000
     0.0000000000000000    0.0000000000000000   20.0000000000000000
    25     5     1
Selective dynamics
Direct
  0.0551112734926561  0.0880155228587270  0.0947028986322626   T   T   T
  0.9304912893734696  0.1706554280629430  0.0950522699628820   T   T   T
  0.0570536257478476  0.9216688951419528  0.0945679453231735   T   T   T
  0.9340400277291986  0.3380252253838131  0.0950968096134719   T   T   T
  0.0571980388706216  0.5902757874409126  0.0946444307654381   T   T   T
  0.0574279330334159  0.4235980296028962  0.0947450914414182   T   T   T
  0.9313128565476353  0.8382519171739155  0.0948418299842953   T   T   T
  0.3066105373605781  0.0891048086178290  0.0944081415564716   T   T   T
  0.1814209464873816  0.1714133949505590  0.0945208903777254   T   T   T
  0.1813486340432376  0.3393218584194986  0.0945243955007530   T   T   T
  0.3046345725921196  0.5900713443414368  0.0944252538004517   T   T   T
  0.1807698317492209  0.6739979834419885  0.0943700503556302   T   T   T
  0.3052072575086034  0.4215009396049807  0.0944654733382051   T   T   T
  0.1818778893688626  0.8402469704845223  0.0942760334041947   T   T   T
  0.4303724440492698  0.1783115961766785  0.0946551516424285   T   T   T
  0.5529841788879331  0.9213369615832777  0.0951531837268352   T   T   T
  0.4293349029459377  0.8352519855512868  0.0946534487076540   T   T   T
  0.8037093996373321  0.0892194083380960  0.0952589121440478   T   T   T
  0.6797069577192005  0.1802375505786881  0.0954587644541502   T   T   T
  0.8047711300314296  0.9199669157137449  0.0951844608316618   T   T   T
  0.6847175684421921  0.3471246579626519  0.0957444148616631   T   T   T
  0.8128231602099131  0.5911789065441642  0.0953152336389598   T   T   T
  0.6862195954551036  0.6659185146757511  0.0955356199401701   T   T   T
  0.8133593209259027  0.4215708161826451  0.0954890345775407   T   T   T
  0.6788601078178946  0.8340489815501282  0.0953920497960074   T   T   T
  0.9342345683624448  0.6730912283930431  0.0948296177005215   T   T   T
  0.5537630063110136  0.0945320277862006  0.0949955392323707   T   T   T
  0.4268615910562032  0.3396979226281897  0.0946075843909652   T   T   T
  0.4246904421888187  0.6733185968113330  0.0945518763587232   T   T   T
  0.3057074263686126  0.9228526230932034  0.0941955879149140   T   T   T
  0.5565144856859668  0.5070682009049480  0.0953030060250617   T   T   T
 
  0.00000000E+00  0.00000000E+00  0.00000000E+00
  0.00000000E+00  0.00000000E+00  0.00000000E+00
  0.00000000E+00  0.00000000E+00  0.00000000E+00
  0.00000000E+00  0.00000000E+00  0.00000000E+00
  0.00000000E+00  0.00000000E+00  0.00000000E+00
  0.00000000E+00  0.00000000E+00  0.00000000E+00
  0.00000000E+00  0.00000000E+00  0.00000000E+00
  0.00000000E+00  0.00000000E+00  0.00000000E+00
  0.00000000E+00  0.00000000E+00  0.00000000E+00
  0.00000000E+00  0.00000000E+00  0.00000000E+00
  0.00000000E+00  0.00000000E+00  0.00000000E+00
  0.00000000E+00  0.00000000E+00  0.00000000E+00
  0.00000000E+00  0.00000000E+00  0.00000000E+00
  0.00000000E+00  0.00000000E+00  0.00000000E+00
  0.00000000E+00  0.00000000E+00  0.00000000E+00
  0.00000000E+00  0.00000000E+00  0.00000000E+00
  0.00000000E+00  0.00000000E+00  0.00000000E+00
  0.00000000E+00  0.00000000E+00  0.00000000E+00
  0.00000000E+00  0.00000000E+00  0.00000000E+00
  0.00000000E+00  0.00000000E+00  0.00000000E+00
  0.00000000E+00  0.00000000E+00  0.00000000E+00
  0.00000000E+00  0.00000000E+00  0.00000000E+00
  0.00000000E+00  0.00000000E+00  0.00000000E+00
  0.00000000E+00  0.00000000E+00  0.00000000E+00
  0.00000000E+00  0.00000000E+00  0.00000000E+00
  0.00000000E+00  0.00000000E+00  0.00000000E+00
  0.00000000E+00  0.00000000E+00  0.00000000E+00
  0.00000000E+00  0.00000000E+00  0.00000000E+00
  0.00000000E+00  0.00000000E+00  0.00000000E+00
  0.00000000E+00  0.00000000E+00  0.00000000E+00
  0.00000000E+00  0.00000000E+00  0.00000000E+00
