Title                                   
   1.00000000000000     
     8.5490480000000009    0.0000000000000000    0.0000000000000000
     0.0000000000000000    8.5490480000000009    0.0000000000000000
     0.0000000000000000    0.0000000000000000   20.0000000000000000
    17     7     1
Selective dynamics
Direct
  0.9074452839611032  0.2057105598898492  0.0975343070311485   T   T   T
  0.9104711760307329  0.8006480437358117  0.0975860723700828   T   T   T
  0.1973350720844083  0.0833965471415465  0.0976609939042431   T   T   T
  0.0769808488654066  0.2010138529615307  0.0975824469816420   T   T   T
  0.1574923665638592  0.6515083998197827  0.0977591549596876   T   T   T
  0.0784545075185324  0.5005096330814650  0.0977868058211847   T   T   T
  0.1574464776910975  0.3497115313881016  0.0977285065948670   T   T   T
  0.0789640711000433  0.7988172681161244  0.0976362562583535   T   T   T
  0.3444031566760146  0.1657972500135581  0.0978317010212063   T   T   T
  0.4925702603801732  0.9172287631633890  0.0977851524366699   T   T   T
  0.3439100098189784  0.8370836470741986  0.0978190975270793   T   T   T
  0.7875523350088640  0.0873082501711433  0.0975658772262232   T   T   T
  0.6413499369983535  0.1690846693248690  0.0977796053848768   T   T   T
  0.7897851059997442  0.9180564976362380  0.0975788891910475   T   T   T
  0.8289514812422349  0.6510915100650249  0.0977595629912804   T   T   T
  0.8268612919877302  0.3532908048987891  0.0977331410771144   T   T   T
  0.6430126576682627  0.8367058491340418  0.0977204173655772   T   T   T
  0.4931950070793124  0.0898451416868908  0.0978809745773548   T   T   T
  0.9062230012770561  0.5022126611359057  0.0978454225987635   T   T   T
  0.3208311226589048  0.3259863787268391  0.0979256342490139   T   T   T
  0.3198603578113851  0.6776542062857096  0.0979354025678295   T   T   T
  0.6645322991680770  0.3309098462227009  0.0979132233719479   T   T   T
  0.6683326035773357  0.6733908136258029  0.0978483836536554   T   T   T
  0.1969659333762616  0.9152735517394494  0.0977148933627287   T   T   T
  0.4924856354561210  0.5025543229612368  0.0977930774764018   T   T   T
 
  0.00000000E+00  0.00000000E+00  0.00000000E+00
  0.00000000E+00  0.00000000E+00  0.00000000E+00
  0.00000000E+00  0.00000000E+00  0.00000000E+00
  0.00000000E+00  0.00000000E+00  0.00000000E+00
  0.00000000E+00  0.00000000E+00  0.00000000E+00
  0.00000000E+00  0.00000000E+00  0.00000000E+00
  0.00000000E+00  0.00000000E+00  0.00000000E+00
  0.00000000E+00  0.00000000E+00  0.00000000E+00
  0.00000000E+00  0.00000000E+00  0.00000000E+00
  0.00000000E+00  0.00000000E+00  0.00000000E+00
  0.00000000E+00  0.00000000E+00  0.00000000E+00
  0.00000000E+00  0.00000000E+00  0.00000000E+00
  0.00000000E+00  0.00000000E+00  0.00000000E+00
  0.00000000E+00  0.00000000E+00  0.00000000E+00
  0.00000000E+00  0.00000000E+00  0.00000000E+00
  0.00000000E+00  0.00000000E+00  0.00000000E+00
  0.00000000E+00  0.00000000E+00  0.00000000E+00
  0.00000000E+00  0.00000000E+00  0.00000000E+00
  0.00000000E+00  0.00000000E+00  0.00000000E+00
  0.00000000E+00  0.00000000E+00  0.00000000E+00
  0.00000000E+00  0.00000000E+00  0.00000000E+00
  0.00000000E+00  0.00000000E+00  0.00000000E+00
  0.00000000E+00  0.00000000E+00  0.00000000E+00
  0.00000000E+00  0.00000000E+00  0.00000000E+00
  0.00000000E+00  0.00000000E+00  0.00000000E+00
