Title                                   
   1.00000000000000     
     9.8694509999999998    0.0000000000000000    0.0000000000000000
     0.0000000000000000    8.5490480000000009    0.0000000000000000
     0.0000000000000000    0.0000000000000000   20.0000000000000000
    25     5     1
Selective dynamics
Direct
  0.0553494444962368  0.0907532511462413  0.0873654667030569   T   T   T
  0.9301769477219158  0.1727897721741000  0.0882595268625078   T   T   T
  0.0573541609748416  0.9235138215574102  0.0873907987092063   T   T   T
  0.9330483682251961  0.3404874123512867  0.0875737828812323   T   T   T
  0.0575209395404859  0.5897425813451852  0.0836596551035839   T   T   T
  0.9340465119954298  0.6741253621556706  0.0880686046602532   T   T   T
  0.0575526770838776  0.4232264608301907  0.0838849490279594   T   T   T
  0.9325913949125955  0.8408410654282620  0.0890153411060752   T   T   T
  0.3068548967281558  0.0881815365701647  0.0943844345593665   T   T   T
  0.1810695575961521  0.1717367348533667  0.0893441475357526   T   T   T
  0.1810032159653623  0.3387226221821293  0.0876148911673258   T   T   T
  0.3028074643553473  0.5897666280944756  0.0949843782758709   T   T   T
  0.1812214893852342  0.6736320576797268  0.0865260061338165   T   T   T
  0.3029837301920106  0.4214286262282033  0.0960769280538838   T   T   T
  0.1814977607105657  0.8405459215183505  0.0884584369387941   T   T   T
  0.4285263545403060  0.1733170004346195  0.1034083845133876   T   T   T
  0.5537050171126233  0.9187770159035308  0.1048505796844219   T   T   T
  0.4279225975138524  0.8375557725881378  0.1025678056579101   T   T   T
  0.8035030593053196  0.0892469592907481  0.0925676160918247   T   T   T
  0.6806183931689611  0.1744146987426238  0.1009008193433507   T   T   T
  0.8059325062428834  0.9216882567496372  0.0935903691120858   T   T   T
  0.6877751057311356  0.3395402898468978  0.1090684851455750   T   T   T
  0.8132898780210359  0.5924694967704465  0.0973555540765611   T   T   T
  0.8116004967317080  0.4238529268202452  0.0964000533774876   T   T   T
  0.6835841945994813  0.8359019938288483  0.1035355470274793   T   T   T
  0.5548875651898220  0.0916613604403587  0.1043368535983135   T   T   T
  0.4211383857360316  0.3351638771912075  0.1117991169453465   T   T   T
  0.6931699311824580  0.6740543268823244  0.1115335913823993   T   T   T
  0.4191874298917034  0.6768799567702652  0.1096452459393626   T   T   T
  0.3057934912509669  0.9227816397120817  0.0931533141747421   T   T   T
  0.5574220338983125  0.5040755739132767  0.1336443162111034   T   T   T
 
  0.00000000E+00  0.00000000E+00  0.00000000E+00
  0.00000000E+00  0.00000000E+00  0.00000000E+00
  0.00000000E+00  0.00000000E+00  0.00000000E+00
  0.00000000E+00  0.00000000E+00  0.00000000E+00
  0.00000000E+00  0.00000000E+00  0.00000000E+00
  0.00000000E+00  0.00000000E+00  0.00000000E+00
  0.00000000E+00  0.00000000E+00  0.00000000E+00
  0.00000000E+00  0.00000000E+00  0.00000000E+00
  0.00000000E+00  0.00000000E+00  0.00000000E+00
  0.00000000E+00  0.00000000E+00  0.00000000E+00
  0.00000000E+00  0.00000000E+00  0.00000000E+00
  0.00000000E+00  0.00000000E+00  0.00000000E+00
  0.00000000E+00  0.00000000E+00  0.00000000E+00
  0.00000000E+00  0.00000000E+00  0.00000000E+00
  0.00000000E+00  0.00000000E+00  0.00000000E+00
  0.00000000E+00  0.00000000E+00  0.00000000E+00
  0.00000000E+00  0.00000000E+00  0.00000000E+00
  0.00000000E+00  0.00000000E+00  0.00000000E+00
  0.00000000E+00  0.00000000E+00  0.00000000E+00
  0.00000000E+00  0.00000000E+00  0.00000000E+00
  0.00000000E+00  0.00000000E+00  0.00000000E+00
  0.00000000E+00  0.00000000E+00  0.00000000E+00
  0.00000000E+00  0.00000000E+00  0.00000000E+00
  0.00000000E+00  0.00000000E+00  0.00000000E+00
  0.00000000E+00  0.00000000E+00  0.00000000E+00
  0.00000000E+00  0.00000000E+00  0.00000000E+00
  0.00000000E+00  0.00000000E+00  0.00000000E+00
  0.00000000E+00  0.00000000E+00  0.00000000E+00
  0.00000000E+00  0.00000000E+00  0.00000000E+00
  0.00000000E+00  0.00000000E+00  0.00000000E+00
  0.00000000E+00  0.00000000E+00  0.00000000E+00
