Title                                   
   1.00000000000000     
     9.8694509999999998    0.0000000000000000    0.0000000000000000
     0.0000000000000000    8.5490480000000009    0.0000000000000000
     0.0000000000000000    0.0000000000000000   20.0000000000000000
    28     3     1
Selective dynamics
Direct
  0.0557478427818149  0.0890137169996891  0.0843635551695040   T   T   T
  0.9313694504130844  0.1734367078873932  0.0853120682791421   T   T   T
  0.0571064182764202  0.9220037504124555  0.0851098893470029   T   T   T
  0.9313739699613307  0.3399817672905243  0.0874024711135669   T   T   T
  0.0566384686399717  0.5907451270513518  0.0868804776387624   T   T   T
  0.0560138651431422  0.4235295084205396  0.0867102869533534   T   T   T
  0.9321798290907917  0.8383531175156517  0.0870937357498760   T   T   T
  0.3057021415986512  0.0888292195006337  0.0881065414194924   T   T   T
  0.1816778364590047  0.1723917689184405  0.0861675659183803   T   T   T
  0.1811207153964034  0.3393443867322101  0.0881828942279926   T   T   T
  0.3038935191159750  0.5886566886404758  0.1002206765387644   T   T   T
  0.1809027248466448  0.6736110855157342  0.0898555363771363   T   T   T
  0.3062058808163654  0.4210081532036565  0.0968480333002833   T   T   T
  0.1826067845422478  0.8408507648988854  0.0879878312144576   T   T   T
  0.5557091257330419  0.0893909908178482  0.0925327265393692   T   T   T
  0.5545355104794091  0.9235903124927800  0.0988247389708024   T   T   T
  0.4298960114431961  0.3338999586728510  0.1008156623132008   T   T   T
  0.4276162707649043  0.8416823516880167  0.1027365867756248   T   T   T
  0.8065844631441134  0.0888633755810332  0.0871132992977982   T   T   T
  0.6808890385802421  0.1718110710785516  0.0908814045041990   T   T   T
  0.8071166793014880  0.9225226691071946  0.0894094212870246   T   T   T
  0.6824081996232008  0.3385653692256850  0.0989660031115156   T   T   T
  0.8102506214476121  0.5923758338099411  0.0997735893503394   T   T   T
  0.8070284524446704  0.4240785388294789  0.0957164775410530   T   T   T
  0.6819855760897273  0.8420529798616362  0.1003051461710475   T   T   T
  0.4196904228286413  0.6808867175958377  0.1161738699206973   T   T   T
  0.5547896405345605  0.4077344716514642  0.1129383473343262   T   T   T
  0.6929044054499890  0.6794358735615242  0.1146363969537264   T   T   T
  0.3058972319623017  0.9253118458696614  0.0901579993809231   T   T   T
  0.4292877732224532  0.1687746571917698  0.0916726063913850   T   T   T
  0.9327598194635317  0.6724739307019438  0.0882957343585045   T   T   T
  0.5577503104050758  0.5850392892751418  0.1744834265507645   T   T   T
 
  0.00000000E+00  0.00000000E+00  0.00000000E+00
  0.00000000E+00  0.00000000E+00  0.00000000E+00
  0.00000000E+00  0.00000000E+00  0.00000000E+00
  0.00000000E+00  0.00000000E+00  0.00000000E+00
  0.00000000E+00  0.00000000E+00  0.00000000E+00
  0.00000000E+00  0.00000000E+00  0.00000000E+00
  0.00000000E+00  0.00000000E+00  0.00000000E+00
  0.00000000E+00  0.00000000E+00  0.00000000E+00
  0.00000000E+00  0.00000000E+00  0.00000000E+00
  0.00000000E+00  0.00000000E+00  0.00000000E+00
  0.00000000E+00  0.00000000E+00  0.00000000E+00
  0.00000000E+00  0.00000000E+00  0.00000000E+00
  0.00000000E+00  0.00000000E+00  0.00000000E+00
  0.00000000E+00  0.00000000E+00  0.00000000E+00
  0.00000000E+00  0.00000000E+00  0.00000000E+00
  0.00000000E+00  0.00000000E+00  0.00000000E+00
  0.00000000E+00  0.00000000E+00  0.00000000E+00
  0.00000000E+00  0.00000000E+00  0.00000000E+00
  0.00000000E+00  0.00000000E+00  0.00000000E+00
  0.00000000E+00  0.00000000E+00  0.00000000E+00
  0.00000000E+00  0.00000000E+00  0.00000000E+00
  0.00000000E+00  0.00000000E+00  0.00000000E+00
  0.00000000E+00  0.00000000E+00  0.00000000E+00
  0.00000000E+00  0.00000000E+00  0.00000000E+00
  0.00000000E+00  0.00000000E+00  0.00000000E+00
  0.00000000E+00  0.00000000E+00  0.00000000E+00
  0.00000000E+00  0.00000000E+00  0.00000000E+00
  0.00000000E+00  0.00000000E+00  0.00000000E+00
  0.00000000E+00  0.00000000E+00  0.00000000E+00
  0.00000000E+00  0.00000000E+00  0.00000000E+00
  0.00000000E+00  0.00000000E+00  0.00000000E+00
  0.00000000E+00  0.00000000E+00  0.00000000E+00
