Title                                   
   1.00000000000000     
     9.8694509999999998    0.0000000000000000    0.0000000000000000
     0.0000000000000000    8.5490480000000009    0.0000000000000000
     0.0000000000000000    0.0000000000000000   20.0000000000000000
    28     2     1
Selective dynamics
Direct
  0.0557934223492865  0.0894594442850175  0.0931512112902670   T   T   T
  0.9307543482124534  0.1726591468764305  0.0900099310661665   T   T   T
  0.0557851673914039  0.9228400774998163  0.0931338810247744   T   T   T
  0.9323189115157150  0.3390791416988010  0.0910988114341639   T   T   T
  0.0561278310815483  0.5894445651853133  0.0944863718250193   T   T   T
  0.9323217757484868  0.6732515740554992  0.0911164472805254   T   T   T
  0.0561243962601899  0.4228851001783431  0.0944962758838793   T   T   T
  0.9307513886338110  0.8396684107393410  0.0900154570943659   T   T   T
  0.3063114468214809  0.0907397525812112  0.0986032881778395   T   T   T
  0.1802685590643374  0.1720577939921111  0.0967071923778437   T   T   T
  0.3063218694809497  0.9215409227196548  0.0985712995591943   T   T   T
  0.1802215554787734  0.3395090450747835  0.0973541271016735   T   T   T
  0.3043718769268333  0.5908722731148520  0.1021239701564795   T   T   T
  0.1802310753615490  0.6728019087342552  0.0973186551762643   T   T   T
  0.3043585642822477  0.4214220455609094  0.1021356966158853   T   T   T
  0.1802698573923579  0.8402556758866147  0.0966685766396063   T   T   T
  0.5528129556586329  0.0906872263092573  0.0945246465280176   T   T   T
  0.4290548298997922  0.1798083670150020  0.1003793194936031   T   T   T
  0.5528299912275382  0.9216301938003725  0.0945305810555239   T   T   T
  0.4290837360313870  0.8325012073326751  0.1003556652036117   T   T   T
  0.8053824550227398  0.0895298583513656  0.0873338249723276   T   T   T
  0.6797567019304206  0.1724026208620774  0.0870994670784633   T   T   T
  0.8053929590568997  0.9228183380026960  0.0873579103811690   T   T   T
  0.6839043807268099  0.3368553315884968  0.0840531666332903   T   T   T
  0.8072290141188542  0.5915311043609887  0.0863016515808168   T   T   T
  0.6839397743901935  0.6754925547028072  0.0841794540066333   T   T   T
  0.8072156454033861  0.4207678425994342  0.0862526318512384   T   T   T
  0.6797956782727980  0.8399519970942235  0.0871640112547779   T   T   T
  0.4264618156180435  0.3437668292043047  0.1059139361783588   T   T   T
  0.4264904199126270  0.6685433616384802  0.1058960714265186   T   T   T
  0.5814525967284645  0.5061012889548784  0.1226314696517424   T   T   T
 
  0.00000000E+00  0.00000000E+00  0.00000000E+00
  0.00000000E+00  0.00000000E+00  0.00000000E+00
  0.00000000E+00  0.00000000E+00  0.00000000E+00
  0.00000000E+00  0.00000000E+00  0.00000000E+00
  0.00000000E+00  0.00000000E+00  0.00000000E+00
  0.00000000E+00  0.00000000E+00  0.00000000E+00
  0.00000000E+00  0.00000000E+00  0.00000000E+00
  0.00000000E+00  0.00000000E+00  0.00000000E+00
  0.00000000E+00  0.00000000E+00  0.00000000E+00
  0.00000000E+00  0.00000000E+00  0.00000000E+00
  0.00000000E+00  0.00000000E+00  0.00000000E+00
  0.00000000E+00  0.00000000E+00  0.00000000E+00
  0.00000000E+00  0.00000000E+00  0.00000000E+00
  0.00000000E+00  0.00000000E+00  0.00000000E+00
  0.00000000E+00  0.00000000E+00  0.00000000E+00
  0.00000000E+00  0.00000000E+00  0.00000000E+00
  0.00000000E+00  0.00000000E+00  0.00000000E+00
  0.00000000E+00  0.00000000E+00  0.00000000E+00
  0.00000000E+00  0.00000000E+00  0.00000000E+00
  0.00000000E+00  0.00000000E+00  0.00000000E+00
  0.00000000E+00  0.00000000E+00  0.00000000E+00
  0.00000000E+00  0.00000000E+00  0.00000000E+00
  0.00000000E+00  0.00000000E+00  0.00000000E+00
  0.00000000E+00  0.00000000E+00  0.00000000E+00
  0.00000000E+00  0.00000000E+00  0.00000000E+00
  0.00000000E+00  0.00000000E+00  0.00000000E+00
  0.00000000E+00  0.00000000E+00  0.00000000E+00
  0.00000000E+00  0.00000000E+00  0.00000000E+00
  0.00000000E+00  0.00000000E+00  0.00000000E+00
  0.00000000E+00  0.00000000E+00  0.00000000E+00
  0.00000000E+00  0.00000000E+00  0.00000000E+00
