Title                                   
   1.00000000000000     
     4.9440799999999996    0.0000000000000000    0.0000000000000000
     0.0000000000000000    8.5647549999999999    0.0000000000000000
     0.0000000000000000    0.0000000000000000   20.0000000000000000
    10     4     1
Selective dynamics
Direct
 -0.0063235962773358  0.2968081984045898  0.1016451986230658   T   T   T
  0.2461701765353305  0.0382624102749230  0.0989016315401459   T   T   T
 -0.0023771940523284  0.9537531753412805  0.1021657993111765   T   T   T
  0.7476878265807785  0.2076280887196289  0.0955744413614794   T   T   T
  0.4945956431485040  0.2921967988098760  0.0926436254153238   T   T   T
  0.7515033559966848  0.0407024243650563  0.0965542496418680   T   T   T
  0.7506555985214141  0.7130604503164811  0.0993995133894765   T   T   T
  0.7448110741429361  0.5393325006630902  0.0986247125910366   T   T   T
  0.5012297415652276  0.9576681098381228  0.0953666937654032   T   T   T
  0.5012873138433437  0.4552333025247861  0.0879225349471641   T   T   T
 -0.0090578496288121  0.4578532096732991  0.1120393149856500   T   T   T
 -0.0095313384419373  0.7895985423332780  0.1108515584041571   T   T   T
  0.5109537078405065  0.7952645081858626  0.0927216909485157   T   T   T
  0.2422848389905055  0.2104753025367984  0.0982464044019911   T   T   T
  0.2861107012351822  0.6238439780129292  0.1253226306735497   T   T   T
 
  0.00000000E+00  0.00000000E+00  0.00000000E+00
  0.00000000E+00  0.00000000E+00  0.00000000E+00
  0.00000000E+00  0.00000000E+00  0.00000000E+00
  0.00000000E+00  0.00000000E+00  0.00000000E+00
  0.00000000E+00  0.00000000E+00  0.00000000E+00
  0.00000000E+00  0.00000000E+00  0.00000000E+00
  0.00000000E+00  0.00000000E+00  0.00000000E+00
  0.00000000E+00  0.00000000E+00  0.00000000E+00
  0.00000000E+00  0.00000000E+00  0.00000000E+00
  0.00000000E+00  0.00000000E+00  0.00000000E+00
  0.00000000E+00  0.00000000E+00  0.00000000E+00
  0.00000000E+00  0.00000000E+00  0.00000000E+00
  0.00000000E+00  0.00000000E+00  0.00000000E+00
  0.00000000E+00  0.00000000E+00  0.00000000E+00
  0.00000000E+00  0.00000000E+00  0.00000000E+00
