Title                                   
   1.00000000000000     
     4.9440799999999996    0.0000000000000000    0.0000000000000000
     0.0000000000000000   17.1295089999999988    0.0000000000000000
     0.0000000000000000    0.0000000000000000   20.0000000000000000
    28     3     1
Selective dynamics
Direct
  0.0012686961157270  0.1045913690028350  0.2861823312664364   T   T   T
  0.2513010497475495  0.1466873613278276  0.2888623394199493   T   T   T
  0.2519633599371820  0.2298710352482400  0.2966890628178809   T   T   T
  0.0065622598022945  0.3519544055924306  0.3141602825752640   T   T   T
 -0.0001161728146833  0.2710774949164694  0.3003936196035205   T   T   T
 -0.0060159689147372  0.6026151587036009  0.3031353434845225   T   T   T
  0.2488532889848971  0.7273077488066911  0.2944269140964049   T   T   T
  0.0002956185962366  0.8534599044628022  0.2858589895811545   T   T   T
  0.2499531514207421  0.8955694616591771  0.2850272267432491   T   T   T
  0.2503999086282644  0.9790882932095757  0.2839301070201122   T   T   T
 -0.0000036645914482  0.7699461959169664  0.2897618065283806   T   T   T
  0.5007708255234206  0.1045411654746418  0.2863915143418259   T   T   T
  0.7510526138298473  0.1465357191465800  0.2881023262772650   T   T   T
  0.7513161692674948  0.2291670111629490  0.2945084801345638   T   T   T
  0.5005982353748795  0.0210875787854579  0.2841324291360693   T   T   T
  0.4980202283920605  0.3525255366386510  0.3155767905856557   T   T   T
  0.7537396709892135  0.4831392727028768  0.3205640013745295   T   T   T
  0.5037414515620381  0.2712467707304076  0.3012139101795008   T   T   T
  0.5033614596457336  0.6047035321004501  0.3137808231899945   T   T   T
  0.7494847979541085  0.7289164518945288  0.2933012546001848   T   T   T
  0.4994408838434844  0.8534403898535253  0.2866605578268372   T   T   T
  0.7500721086145091  0.8953818460670665  0.2847724830021989   T   T   T
  0.7504849960540528  0.9789820633026559  0.2836712386242620   T   T   T
  0.4987788065678428  0.7700416941695506  0.2915687204737492   T   T   T
  0.7486033459754587  0.6461388014093713  0.3015467015767725   T   T   T
  0.2489311493587633  0.6440909401788156  0.3038320884681500   T   T   T
  0.0006111379950235  0.0211337752638659  0.2839438994246596   T   T   T
  0.5228579925892222  0.5262567799376275  0.3381079901090082   T   T   T
  0.9860292078137136  0.5217502280284019  0.3025910364455845   T   T   T
  0.2517438361928873  0.3868653769655506  0.3274255256090255   T   T   T
  0.7531708771345128  0.3966804437615051  0.3183014578492626   T   T   T
  0.2195516784097143  0.4837571935788961  0.3741437476339760   T   T   T
 
  0.00000000E+00  0.00000000E+00  0.00000000E+00
  0.00000000E+00  0.00000000E+00  0.00000000E+00
  0.00000000E+00  0.00000000E+00  0.00000000E+00
  0.00000000E+00  0.00000000E+00  0.00000000E+00
  0.00000000E+00  0.00000000E+00  0.00000000E+00
  0.00000000E+00  0.00000000E+00  0.00000000E+00
  0.00000000E+00  0.00000000E+00  0.00000000E+00
  0.00000000E+00  0.00000000E+00  0.00000000E+00
  0.00000000E+00  0.00000000E+00  0.00000000E+00
  0.00000000E+00  0.00000000E+00  0.00000000E+00
  0.00000000E+00  0.00000000E+00  0.00000000E+00
  0.00000000E+00  0.00000000E+00  0.00000000E+00
  0.00000000E+00  0.00000000E+00  0.00000000E+00
  0.00000000E+00  0.00000000E+00  0.00000000E+00
  0.00000000E+00  0.00000000E+00  0.00000000E+00
  0.00000000E+00  0.00000000E+00  0.00000000E+00
  0.00000000E+00  0.00000000E+00  0.00000000E+00
  0.00000000E+00  0.00000000E+00  0.00000000E+00
  0.00000000E+00  0.00000000E+00  0.00000000E+00
  0.00000000E+00  0.00000000E+00  0.00000000E+00
  0.00000000E+00  0.00000000E+00  0.00000000E+00
  0.00000000E+00  0.00000000E+00  0.00000000E+00
  0.00000000E+00  0.00000000E+00  0.00000000E+00
  0.00000000E+00  0.00000000E+00  0.00000000E+00
  0.00000000E+00  0.00000000E+00  0.00000000E+00
  0.00000000E+00  0.00000000E+00  0.00000000E+00
  0.00000000E+00  0.00000000E+00  0.00000000E+00
  0.00000000E+00  0.00000000E+00  0.00000000E+00
  0.00000000E+00  0.00000000E+00  0.00000000E+00
  0.00000000E+00  0.00000000E+00  0.00000000E+00
  0.00000000E+00  0.00000000E+00  0.00000000E+00
  0.00000000E+00  0.00000000E+00  0.00000000E+00
