Title                                   
   1.00000000000000     
     4.9440799999999996    0.0000000000000000    0.0000000000000000
     0.0000000000000000   17.1295089999999988    0.0000000000000000
     0.0000000000000000    0.0000000000000000   20.0000000000000000
    28     2     1
Selective dynamics
Direct
  0.0002860999106784  0.1043869623405621  0.2978502572910398   T   T   T
  0.2484463153739201  0.1469767626816518  0.2985271678846552   T   T   T
  0.2486062201483816  0.2305689840776130  0.2999330311323682   T   T   T
 -0.0025662457789260  0.2728399530533289  0.3009749922799305   T   T   T
 -0.0000621685295719  0.6040542551157733  0.3018029523240398   T   T   T
  0.2521503501504060  0.7279238379503467  0.2989704999295457   T   T   T
  0.0008702429548907  0.8537071454988308  0.2970912734562748   T   T   T
  0.2503812156623830  0.8957165592534583  0.2967275490015807   T   T   T
  0.2502319459086071  0.9791926495324467  0.2966309617269255   T   T   T
  0.0012325978487611  0.7700233056050361  0.2982551597038930   T   T   T
  0.4993968233223626  0.1048968711830825  0.2977348532461955   T   T   T
  0.7508720268458839  0.1459744995218084  0.2983466014440370   T   T   T
  0.7502208751265712  0.2293853151801999  0.2997740837077641   T   T   T
  0.4996924039895473  0.0212256617993295  0.2968510934506671   T   T   T
  0.7486124887128663  0.3933402073397980  0.3027268570834938   T   T   T
  0.7520498114638600  0.4815904839233704  0.3031952562800344   T   T   T
  0.5007665622440431  0.2708623029766735  0.3002491832971064   T   T   T
  0.5033120118949131  0.6021035428342847  0.3012305420809349   T   T   T
  0.7497657104768487  0.7289645743695474  0.2988591901453357   T   T   T
  0.5002675160674430  0.8539911896473934  0.2970265313062684   T   T   T
  0.7504383997567960  0.8956100137794887  0.2966713324375485   T   T   T
  0.7501055285190923  0.9793213936727677  0.2965803405771166   T   T   T
  0.5003358980934010  0.7705362053498223  0.2981626832902515   T   T   T
  0.7505741744456870  0.6455721318785507  0.3006011693227377   T   T   T
  0.2520216252958282  0.6443416962353518  0.3006449998585747   T   T   T
  0.0003285473445337  0.0209238734975857  0.2968954478832440   T   T   T
  0.9870645466810501  0.5224211790046172  0.3037353858528263   T   T   T
  0.5136202156993230  0.3525270284763285  0.3010617439522645   T   T   T
  0.5158314071292458  0.5219500292372632  0.3020705414780823   T   T   T
 -0.0151628588029379  0.3529500574608518  0.3032030527014201   T   T   T
  0.2503167120441120  0.4374633275228346  0.3026752658737967   T   T   T
 
  0.00000000E+00  0.00000000E+00  0.00000000E+00
  0.00000000E+00  0.00000000E+00  0.00000000E+00
  0.00000000E+00  0.00000000E+00  0.00000000E+00
  0.00000000E+00  0.00000000E+00  0.00000000E+00
  0.00000000E+00  0.00000000E+00  0.00000000E+00
  0.00000000E+00  0.00000000E+00  0.00000000E+00
  0.00000000E+00  0.00000000E+00  0.00000000E+00
  0.00000000E+00  0.00000000E+00  0.00000000E+00
  0.00000000E+00  0.00000000E+00  0.00000000E+00
  0.00000000E+00  0.00000000E+00  0.00000000E+00
  0.00000000E+00  0.00000000E+00  0.00000000E+00
  0.00000000E+00  0.00000000E+00  0.00000000E+00
  0.00000000E+00  0.00000000E+00  0.00000000E+00
  0.00000000E+00  0.00000000E+00  0.00000000E+00
  0.00000000E+00  0.00000000E+00  0.00000000E+00
  0.00000000E+00  0.00000000E+00  0.00000000E+00
  0.00000000E+00  0.00000000E+00  0.00000000E+00
  0.00000000E+00  0.00000000E+00  0.00000000E+00
  0.00000000E+00  0.00000000E+00  0.00000000E+00
  0.00000000E+00  0.00000000E+00  0.00000000E+00
  0.00000000E+00  0.00000000E+00  0.00000000E+00
  0.00000000E+00  0.00000000E+00  0.00000000E+00
  0.00000000E+00  0.00000000E+00  0.00000000E+00
  0.00000000E+00  0.00000000E+00  0.00000000E+00
  0.00000000E+00  0.00000000E+00  0.00000000E+00
  0.00000000E+00  0.00000000E+00  0.00000000E+00
  0.00000000E+00  0.00000000E+00  0.00000000E+00
  0.00000000E+00  0.00000000E+00  0.00000000E+00
  0.00000000E+00  0.00000000E+00  0.00000000E+00
  0.00000000E+00  0.00000000E+00  0.00000000E+00
  0.00000000E+00  0.00000000E+00  0.00000000E+00
