Title                                   
   1.00000000000000     
     4.9440799999999996    0.0000000000000000    0.0000000000000000
     0.0000000000000000    8.5647549999999999    0.0000000000000000
     0.0000000000000000    0.0000000000000000   20.0000000000000000
    12     2     1
Selective dynamics
Direct
  0.0013986766942722  0.2939445834250670  0.0980560524567004   T   T   T
  0.2536378775116231  0.0404940136133597  0.0998315104609537   T   T   T
  0.0036141841935838  0.9561644756958432  0.0953000364662992   T   T   T
  0.7502762077823398  0.2080623591646596  0.0981911610945603   T   T   T
  0.4983631615674519  0.2937747087019119  0.1007342134883477   T   T   T
  0.7524685564188326  0.0399965400176244  0.0976301645322283   T   T   T
  0.7483325422506237  0.7135755388100133  0.0994094476930377   T   T   T
  0.7445474816091887  0.5390436327542507  0.0997587112412235   T   T   T
  0.5055132014603373  0.9541780135313656  0.1027117220813418   T   T   T
  0.4958253452349515  0.4600157897190378  0.1038752450956080   T   T   T
 -0.0019081132702426  0.4605937358141871  0.0985772733222403   T   T   T
 -0.0034003017832219  0.7893004253947814  0.0917180224408947   T   T   T
  0.5088811903597305  0.7911602919161853  0.1098958594731532   T   T   T
  0.2523467381645790  0.2067453438776607  0.0997464173913461   T   T   T
  0.2401032518059506  0.6246315475640543  0.1125441627620684   T   T   T
 
  0.00000000E+00  0.00000000E+00  0.00000000E+00
  0.00000000E+00  0.00000000E+00  0.00000000E+00
  0.00000000E+00  0.00000000E+00  0.00000000E+00
  0.00000000E+00  0.00000000E+00  0.00000000E+00
  0.00000000E+00  0.00000000E+00  0.00000000E+00
  0.00000000E+00  0.00000000E+00  0.00000000E+00
  0.00000000E+00  0.00000000E+00  0.00000000E+00
  0.00000000E+00  0.00000000E+00  0.00000000E+00
  0.00000000E+00  0.00000000E+00  0.00000000E+00
  0.00000000E+00  0.00000000E+00  0.00000000E+00
  0.00000000E+00  0.00000000E+00  0.00000000E+00
  0.00000000E+00  0.00000000E+00  0.00000000E+00
  0.00000000E+00  0.00000000E+00  0.00000000E+00
  0.00000000E+00  0.00000000E+00  0.00000000E+00
  0.00000000E+00  0.00000000E+00  0.00000000E+00
