Title                                   
   1.00000000000000     
     4.9440799999999996    0.0000000000000000    0.0000000000000000
     0.0000000000000000   17.1295089999999988    0.0000000000000000
     0.0000000000000000    0.0000000000000000   20.0000000000000000
    25     5     1
Selective dynamics
Direct
  0.0010707325963866  0.1060821841538523  0.2972829591170589   T   T   T
  0.2500690032588330  0.1495091871757596  0.2976623721300020   T   T   T
  0.2500401356846718  0.2343985022245811  0.2990667460977782   T   T   T
 -0.0043315308585361  0.2755094636355748  0.3021700675361935   T   T   T
 -0.0045338324862631  0.5992353866450620  0.2956454738766460   T   T   T
  0.2502082006017188  0.7256154625130603  0.2962704226861993   T   T   T
  0.0016919052736639  0.8525972661703980  0.2956768332557417   T   T   T
  0.2500583436574834  0.8951075988315137  0.2957503173344918   T   T   T
  0.2500426284277278  0.9795087462987190  0.2959672947496756   T   T   T
  0.0023543585490049  0.7679927564435209  0.2958458916121348   T   T   T
  0.4990907322932914  0.1061152155874680  0.2964198702565871   T   T   T
  0.7502055152717239  0.1478242718431203  0.2970029174088173   T   T   T
  0.7501013970713291  0.2313999461010974  0.2977705514260444   T   T   T
  0.4994139952783012  0.0218368436116203  0.2959111550102921   T   T   T
  0.7494095412118278  0.3932262405959798  0.2982891933787136   T   T   T
  0.7517117639898148  0.4827319280578700  0.2974162518326091   T   T   T
  0.5045818975455343  0.2759061920304725  0.2960392703415797   T   T   T
  0.5048816273805237  0.5996191285351258  0.2994849171218464   T   T   T
  0.7500933953043517  0.7271065093213843  0.2956716453179835   T   T   T
  0.4984312455339971  0.8526168103932655  0.2956679007239861   T   T   T
  0.7500772708835136  0.8947991035631971  0.2956465425009941   T   T   T
  0.7500517409366982  0.9791688700474941  0.2958448045866759   T   T   T
  0.4979951208354161  0.7680174611177040  0.2957623897856687   T   T   T
  0.7504662244086407  0.6444210384373192  0.2963188595198509   T   T   T
  0.0007079871176495  0.0218038252958619  0.2963496961277463   T   T   T
  0.5130690503452453  0.5212398211040320  0.3057038409932223   T   T   T
  0.9905911644282129  0.5207801196458305  0.2919658307600856   T   T   T
  0.5119947511212305  0.3556532864640488  0.2900716823554783   T   T   T
 -0.0158589455673386  0.3551999929050810  0.3099726081070208   T   T   T
  0.2508119942861169  0.6400800769624495  0.2970346577687284   T   T   T
  0.2555095856192297  0.4362387642875301  0.3693770362800988   T   T   T
 
  0.00000000E+00  0.00000000E+00  0.00000000E+00
  0.00000000E+00  0.00000000E+00  0.00000000E+00
  0.00000000E+00  0.00000000E+00  0.00000000E+00
  0.00000000E+00  0.00000000E+00  0.00000000E+00
  0.00000000E+00  0.00000000E+00  0.00000000E+00
  0.00000000E+00  0.00000000E+00  0.00000000E+00
  0.00000000E+00  0.00000000E+00  0.00000000E+00
  0.00000000E+00  0.00000000E+00  0.00000000E+00
  0.00000000E+00  0.00000000E+00  0.00000000E+00
  0.00000000E+00  0.00000000E+00  0.00000000E+00
  0.00000000E+00  0.00000000E+00  0.00000000E+00
  0.00000000E+00  0.00000000E+00  0.00000000E+00
  0.00000000E+00  0.00000000E+00  0.00000000E+00
  0.00000000E+00  0.00000000E+00  0.00000000E+00
  0.00000000E+00  0.00000000E+00  0.00000000E+00
  0.00000000E+00  0.00000000E+00  0.00000000E+00
  0.00000000E+00  0.00000000E+00  0.00000000E+00
  0.00000000E+00  0.00000000E+00  0.00000000E+00
  0.00000000E+00  0.00000000E+00  0.00000000E+00
  0.00000000E+00  0.00000000E+00  0.00000000E+00
  0.00000000E+00  0.00000000E+00  0.00000000E+00
  0.00000000E+00  0.00000000E+00  0.00000000E+00
  0.00000000E+00  0.00000000E+00  0.00000000E+00
  0.00000000E+00  0.00000000E+00  0.00000000E+00
  0.00000000E+00  0.00000000E+00  0.00000000E+00
  0.00000000E+00  0.00000000E+00  0.00000000E+00
  0.00000000E+00  0.00000000E+00  0.00000000E+00
  0.00000000E+00  0.00000000E+00  0.00000000E+00
  0.00000000E+00  0.00000000E+00  0.00000000E+00
  0.00000000E+00  0.00000000E+00  0.00000000E+00
  0.00000000E+00  0.00000000E+00  0.00000000E+00
