Title                                   
   1.00000000000000     
     4.9440799999999996    0.0000000000000000    0.0000000000000000
     0.0000000000000000   17.1295089999999988    0.0000000000000000
     0.0000000000000000    0.0000000000000000   20.0000000000000000
    31     1
Selective dynamics
Direct
  0.0000190768195194  0.1039229316748883  0.2855956371911801   T   T   T
  0.2499006989315601  0.1454955655604093  0.2882516412982549   T   T   T
  0.2498981909893754  0.2284662901767662  0.2958605816029317   T   T   T
 -0.0016556845143499  0.3521215487301326  0.3121255111112334   T   T   T
 -0.0008578946669679  0.2694443029422005  0.3001856694578612   T   T   T
 -0.0016873906269251  0.6063747176271969  0.3124100339490298   T   T   T
  0.2499287052445551  0.7294519127955507  0.2960605712435903   T   T   T
  0.0000046058981335  0.8541858721885509  0.2856468280171068   T   T   T
  0.2499269757559681  0.8958559955300103  0.2840025168792248   T   T   T
  0.2499199987620848  0.9790419735342077  0.2825855673758624   T   T   T
  0.0000219829143973  0.7712234565029188  0.2914501781710967   T   T   T
  0.4998089704264552  0.1039304445531840  0.2855978961025953   T   T   T
  0.7498989483610400  0.1453222567345409  0.2879137082295390   T   T   T
  0.7498820731387650  0.2282047439662364  0.2950199154018136   T   T   T
  0.4999414917813131  0.0206866548580998  0.2828447076316613   T   T   T
  0.5014123965114711  0.3521327476930440  0.3121293760563459   T   T   T
  0.7498905068464887  0.3945144815496403  0.3159682571109737   T   T   T
  0.7498732647685387  0.4790771104997209  0.3206431290950424   T   T   T
  0.5006367945902725  0.2694529760383694  0.3001895442876142   T   T   T
  0.5015223269301939  0.6063730981636117  0.3124297487312145   T   T   T
  0.7499316208939110  0.7301990230262575  0.2949937016063756   T   T   T
  0.4998383049192757  0.8541857669069204  0.2856502596030977   T   T   T
  0.7499163324103507  0.8957239000023850  0.2837684468821051   T   T   T
  0.7499002664491863  0.9790673499414455  0.2823892125882740   T   T   T
  0.4998348183123454  0.7712249472591123  0.2914541935870078   T   T   T
  0.7499244648053273  0.6477562106179765  0.3049405867634111   T   T   T
  0.2499201775029492  0.6474920381793702  0.3072389519613914   T   T   T
 -0.0001065501175765  0.0206818076501011  0.2828423247735068   T   T   T
  0.5121201178449885  0.5248910467208449  0.3251068245232077   T   T   T
  0.9876435838525148  0.5248927670865987  0.3250583226340164   T   T   T
  0.2498722076438729  0.3890179935271777  0.3229252232494972   T   T   T
  0.2497416166209735  0.4781390677625206  0.3692859328838894   T   T   T
 
  0.00000000E+00  0.00000000E+00  0.00000000E+00
  0.00000000E+00  0.00000000E+00  0.00000000E+00
  0.00000000E+00  0.00000000E+00  0.00000000E+00
  0.00000000E+00  0.00000000E+00  0.00000000E+00
  0.00000000E+00  0.00000000E+00  0.00000000E+00
  0.00000000E+00  0.00000000E+00  0.00000000E+00
  0.00000000E+00  0.00000000E+00  0.00000000E+00
  0.00000000E+00  0.00000000E+00  0.00000000E+00
  0.00000000E+00  0.00000000E+00  0.00000000E+00
  0.00000000E+00  0.00000000E+00  0.00000000E+00
  0.00000000E+00  0.00000000E+00  0.00000000E+00
  0.00000000E+00  0.00000000E+00  0.00000000E+00
  0.00000000E+00  0.00000000E+00  0.00000000E+00
  0.00000000E+00  0.00000000E+00  0.00000000E+00
  0.00000000E+00  0.00000000E+00  0.00000000E+00
  0.00000000E+00  0.00000000E+00  0.00000000E+00
  0.00000000E+00  0.00000000E+00  0.00000000E+00
  0.00000000E+00  0.00000000E+00  0.00000000E+00
  0.00000000E+00  0.00000000E+00  0.00000000E+00
  0.00000000E+00  0.00000000E+00  0.00000000E+00
  0.00000000E+00  0.00000000E+00  0.00000000E+00
  0.00000000E+00  0.00000000E+00  0.00000000E+00
  0.00000000E+00  0.00000000E+00  0.00000000E+00
  0.00000000E+00  0.00000000E+00  0.00000000E+00
  0.00000000E+00  0.00000000E+00  0.00000000E+00
  0.00000000E+00  0.00000000E+00  0.00000000E+00
  0.00000000E+00  0.00000000E+00  0.00000000E+00
  0.00000000E+00  0.00000000E+00  0.00000000E+00
  0.00000000E+00  0.00000000E+00  0.00000000E+00
  0.00000000E+00  0.00000000E+00  0.00000000E+00
  0.00000000E+00  0.00000000E+00  0.00000000E+00
  0.00000000E+00  0.00000000E+00  0.00000000E+00
