Title                                   
   1.00000000000000     
     4.9440799999999996    0.0000000000000000    0.0000000000000000
     0.0000000000000000   17.1295089999999988    0.0000000000000000
     0.0000000000000000    0.0000000000000000   20.0000000000000000
    26     4     1
Selective dynamics
Direct
  0.0044779520145133  0.1057041222321429  0.2965945057911289   T   T   T
  0.2541243122326784  0.1486424866987380  0.2972337112080460   T   T   T
  0.2560875003558228  0.2334042283401621  0.2998799347432952   T   T   T
  0.0052655841403196  0.2747166422888743  0.3027604896283922   T   T   T
 -0.0119867439196774  0.6005442273454437  0.3053884147474686   T   T   T
  0.2418879541531483  0.7257961358813552  0.2972159199882445   T   T   T
 -0.0022985103461909  0.8528812834249639  0.2968696993909310   T   T   T
  0.2474718768957182  0.8951288133334326  0.2965405912550405   T   T   T
  0.2502512692664606  0.9792865081270148  0.2963118358923792   T   T   T
 -0.0048609369587135  0.7685451017091327  0.2973380772629113   T   T   T
  0.5031455382071700  0.1059068140702465  0.2959021368643051   T   T   T
  0.7552430936108692  0.1475341330152421  0.2961409158278742   T   T   T
  0.7583783405225903  0.2314020239702445  0.2977708346099326   T   T   T
  0.5006852049895888  0.0216559923065415  0.2958397498430096   T   T   T
  0.7595929266969125  0.3938164805718963  0.3032109467853462   T   T   T
  0.7458544005460842  0.4808144357946573  0.3045261003999394   T   T   T
  0.5106820859352632  0.2737069912066692  0.2984544389999464   T   T   T
  0.4902873692451559  0.6021605004044198  0.2921440139748516   T   T   T
  0.7446588461319478  0.7271068589979223  0.2956315602944602   T   T   T
  0.4953456709644951  0.8524023071267380  0.2959469530548071   T   T   T
  0.7472921372375566  0.8947604064999208  0.2961890396449238   T   T   T
  0.7500312047066585  0.9791491081073008  0.2960035949429637   T   T   T
  0.4926680606655598  0.7679978649602611  0.2954986757946102   T   T   T
  0.7406127797622755  0.6440848965582678  0.2957390118141789   T   T   T
  0.0013797054786130  0.0214408098221515  0.2963038785534499   T   T   T
  0.5015171560153027  0.5203537000033063  0.2891598307849526   T   T   T
  0.9844768071877318  0.5221465855634115  0.3206986085529002   T   T   T
  0.5232393374766741  0.3538028504767496  0.2999275356008850   T   T   T
 -0.0049589774842654  0.3558828245337283  0.3115160191192580   T   T   T
  0.2373131338908090  0.6424256667456878  0.2988635210411304   T   T   T
  0.2821419203789292  0.4381411998833726  0.3234594535883892   T   T   T
 
  0.00000000E+00  0.00000000E+00  0.00000000E+00
  0.00000000E+00  0.00000000E+00  0.00000000E+00
  0.00000000E+00  0.00000000E+00  0.00000000E+00
  0.00000000E+00  0.00000000E+00  0.00000000E+00
  0.00000000E+00  0.00000000E+00  0.00000000E+00
  0.00000000E+00  0.00000000E+00  0.00000000E+00
  0.00000000E+00  0.00000000E+00  0.00000000E+00
  0.00000000E+00  0.00000000E+00  0.00000000E+00
  0.00000000E+00  0.00000000E+00  0.00000000E+00
  0.00000000E+00  0.00000000E+00  0.00000000E+00
  0.00000000E+00  0.00000000E+00  0.00000000E+00
  0.00000000E+00  0.00000000E+00  0.00000000E+00
  0.00000000E+00  0.00000000E+00  0.00000000E+00
  0.00000000E+00  0.00000000E+00  0.00000000E+00
  0.00000000E+00  0.00000000E+00  0.00000000E+00
  0.00000000E+00  0.00000000E+00  0.00000000E+00
  0.00000000E+00  0.00000000E+00  0.00000000E+00
  0.00000000E+00  0.00000000E+00  0.00000000E+00
  0.00000000E+00  0.00000000E+00  0.00000000E+00
  0.00000000E+00  0.00000000E+00  0.00000000E+00
  0.00000000E+00  0.00000000E+00  0.00000000E+00
  0.00000000E+00  0.00000000E+00  0.00000000E+00
  0.00000000E+00  0.00000000E+00  0.00000000E+00
  0.00000000E+00  0.00000000E+00  0.00000000E+00
  0.00000000E+00  0.00000000E+00  0.00000000E+00
  0.00000000E+00  0.00000000E+00  0.00000000E+00
  0.00000000E+00  0.00000000E+00  0.00000000E+00
  0.00000000E+00  0.00000000E+00  0.00000000E+00
  0.00000000E+00  0.00000000E+00  0.00000000E+00
  0.00000000E+00  0.00000000E+00  0.00000000E+00
  0.00000000E+00  0.00000000E+00  0.00000000E+00
