Title                                   
   1.00000000000000     
     4.9440799999999996    0.0000000000000000    0.0000000000000000
     0.0000000000000000   17.1295089999999988    0.0000000000000000
     0.0000000000000000    0.0000000000000000   20.0000000000000000
    30     1     1
Selective dynamics
Direct
  0.0003922625843249  0.1045918356738557  0.2874008696317011   T   T   T
  0.2498945944518558  0.1465816074854957  0.2898991298787370   T   T   T
  0.2498991803532814  0.2298972845837014  0.2970961436236081   T   T   T
 -0.0007414261000496  0.3529143491287183  0.3129065928706864   T   T   T
 -0.0014360242886879  0.2709095399615154  0.3010631158844875   T   T   T
 -0.0025889930025528  0.6043432187369203  0.3088366753153792   T   T   T
  0.2498837638853094  0.7282536320823775  0.2949122250969590   T   T   T
  0.0002940353455308  0.8539419941885804  0.2867094603682431   T   T   T
  0.2498784478076045  0.8959575075252547  0.2855119064868022   T   T   T
  0.2498859673384901  0.9793106608707390  0.2845624180918137   T   T   T
  0.0003812412635794  0.7707243486965949  0.2910080051209710   T   T   T
  0.4993994847668879  0.1045965047424051  0.2874024756516764   T   T   T
  0.7499214785226664  0.1463889041104303  0.2894139794483433   T   T   T
  0.7499321269426706  0.2289313421111794  0.2957872402236630   T   T   T
  0.4997129090035570  0.0212628734376202  0.2848477851624853   T   T   T
  0.5005964591648037  0.3529197874650616  0.3129060214284047   T   T   T
  0.7499176539016472  0.4771966177594099  0.3172781498389231   T   T   T
  0.5012682709828409  0.2709061453248858  0.3010608954777687   T   T   T
  0.5023834813229854  0.6043474976294281  0.3088340843758212   T   T   T
  0.7499020686963802  0.7294787238225502  0.2935174461517207   T   T   T
  0.4994868817874151  0.8539460064190686  0.2867095590005310   T   T   T
  0.7499000551480702  0.8958364106322719  0.2852853088455961   T   T   T
  0.7498996389561858  0.9792622810607590  0.2843883183706086   T   T   T
  0.4994169735089358  0.7707236941586773  0.2910083259296834   T   T   T
  0.7499205928273308  0.6468386858235724  0.3020751054386865   T   T   T
  0.2498779291702408  0.6457092312221369  0.3042163809013054   T   T   T
  0.0000464761984420  0.0212670630360085  0.2848480866839317   T   T   T
  0.5181219055331646  0.5227762540450468  0.3209201987705238   T   T   T
  0.9816183858652408  0.5227939157488755  0.3209128383874895   T   T   T
  0.2499149696480610  0.3909551515793010  0.3240613584685785   T   T   T
  0.7499692135882784  0.3939781036347928  0.3155449998528138   T   T   T
  0.2498729948255125  0.4810098273027588  0.3716398992220107   T   T   T
 
  0.00000000E+00  0.00000000E+00  0.00000000E+00
  0.00000000E+00  0.00000000E+00  0.00000000E+00
  0.00000000E+00  0.00000000E+00  0.00000000E+00
  0.00000000E+00  0.00000000E+00  0.00000000E+00
  0.00000000E+00  0.00000000E+00  0.00000000E+00
  0.00000000E+00  0.00000000E+00  0.00000000E+00
  0.00000000E+00  0.00000000E+00  0.00000000E+00
  0.00000000E+00  0.00000000E+00  0.00000000E+00
  0.00000000E+00  0.00000000E+00  0.00000000E+00
  0.00000000E+00  0.00000000E+00  0.00000000E+00
  0.00000000E+00  0.00000000E+00  0.00000000E+00
  0.00000000E+00  0.00000000E+00  0.00000000E+00
  0.00000000E+00  0.00000000E+00  0.00000000E+00
  0.00000000E+00  0.00000000E+00  0.00000000E+00
  0.00000000E+00  0.00000000E+00  0.00000000E+00
  0.00000000E+00  0.00000000E+00  0.00000000E+00
  0.00000000E+00  0.00000000E+00  0.00000000E+00
  0.00000000E+00  0.00000000E+00  0.00000000E+00
  0.00000000E+00  0.00000000E+00  0.00000000E+00
  0.00000000E+00  0.00000000E+00  0.00000000E+00
  0.00000000E+00  0.00000000E+00  0.00000000E+00
  0.00000000E+00  0.00000000E+00  0.00000000E+00
  0.00000000E+00  0.00000000E+00  0.00000000E+00
  0.00000000E+00  0.00000000E+00  0.00000000E+00
  0.00000000E+00  0.00000000E+00  0.00000000E+00
  0.00000000E+00  0.00000000E+00  0.00000000E+00
  0.00000000E+00  0.00000000E+00  0.00000000E+00
  0.00000000E+00  0.00000000E+00  0.00000000E+00
  0.00000000E+00  0.00000000E+00  0.00000000E+00
  0.00000000E+00  0.00000000E+00  0.00000000E+00
  0.00000000E+00  0.00000000E+00  0.00000000E+00
  0.00000000E+00  0.00000000E+00  0.00000000E+00
