Title                                   
   1.00000000000000     
     4.9440799999999996    0.0000000000000000    0.0000000000000000
     0.0000000000000000    8.5647549999999999    0.0000000000000000
     0.0000000000000000    0.0000000000000000   20.0000000000000000
    13     2     1
Selective dynamics
Direct
  0.2455499478493687  0.2089936844660495  0.0913171806861445   T   T   T
 -0.0097892022331284  0.2901804247715515  0.0943636137306640   T   T   T
  0.2498601731520496  0.0437188062015231  0.0873534034539415   T   T   T
  0.0085511617264752  0.7962530246222252  0.1004258733936190   T   T   T
  0.0011732952387003  0.9594183957102872  0.0875814582461839   T   T   T
  0.7451560021132718  0.2066575620700900  0.0872226730676970   T   T   T
  0.4974739621121405  0.2896796687314827  0.0962381064259575   T   T   T
  0.7505757175811535  0.0409663250445035  0.0838322515891890   T   T   T
  0.7576366129273360  0.7078950791753762  0.1050558326811918   T   T   T
  0.5035841808839714  0.7966057804135548  0.1007397951852159   T   T   T
  0.7510481224639526  0.5366604339741573  0.1088145111530434   T   T   T
  0.5020284617620757  0.9599699164152218  0.0879825469633627   T   T   T
  0.5114546241340550  0.4490391531504467  0.1142846849562968   T   T   T
 -0.0157906970447882  0.4463006730183970  0.1069647477120734   T   T   T
  0.2580457891856607  0.7284594802803860  0.1134811732902874   T   T   T
  0.2434418481477062  0.5392015919547487  0.1568541474651398   T   T   T
 
  0.00000000E+00  0.00000000E+00  0.00000000E+00
  0.00000000E+00  0.00000000E+00  0.00000000E+00
  0.00000000E+00  0.00000000E+00  0.00000000E+00
  0.00000000E+00  0.00000000E+00  0.00000000E+00
  0.00000000E+00  0.00000000E+00  0.00000000E+00
  0.00000000E+00  0.00000000E+00  0.00000000E+00
  0.00000000E+00  0.00000000E+00  0.00000000E+00
  0.00000000E+00  0.00000000E+00  0.00000000E+00
  0.00000000E+00  0.00000000E+00  0.00000000E+00
  0.00000000E+00  0.00000000E+00  0.00000000E+00
  0.00000000E+00  0.00000000E+00  0.00000000E+00
  0.00000000E+00  0.00000000E+00  0.00000000E+00
  0.00000000E+00  0.00000000E+00  0.00000000E+00
  0.00000000E+00  0.00000000E+00  0.00000000E+00
  0.00000000E+00  0.00000000E+00  0.00000000E+00
  0.00000000E+00  0.00000000E+00  0.00000000E+00
