Title                                   
   1.00000000000000     
     9.8694509999999998    0.0000000000000000    0.0000000000000000
     0.0000000000000000    8.5490480000000009    0.0000000000000000
     0.0000000000000000    0.0000000000000000   20.0000000000000000
    24     6     1
Selective dynamics
Direct
  0.0560347140461987  0.0901248318871232  0.0960089708416519   T   T   T
  0.9308801951417757  0.1720538812172407  0.0961582637684462   T   T   T
  0.0574963496354313  0.9223305522389399  0.0961017165518020   T   T   T
  0.9321885595618833  0.3392130085239222  0.0957726104427486   T   T   T
  0.0565160893315001  0.5895345786745356  0.0952532050781488   T   T   T
  0.9322841340150160  0.6724749463862555  0.0958875161782398   T   T   T
  0.0566739443835630  0.4225308986897345  0.0951982265816652   T   T   T
  0.9314082813209951  0.8398021335012182  0.0962797979469089   T   T   T
  0.3090643237111979  0.0891001316401015  0.0968468017882590   T   T   T
  0.1819463023275066  0.1714501409361254  0.0960426584803124   T   T   T
  0.1808686385067198  0.3383309029828340  0.0956843045981349   T   T   T
  0.3040234138571967  0.5894312306114291  0.0965222094614544   T   T   T
  0.1810588912495233  0.6733699756548032  0.0956957313824653   T   T   T
  0.3045540818956913  0.4222019373123516  0.0965728691621497   T   T   T
  0.1814849988185703  0.8400918739193748  0.0961146627774894   T   T   T
  0.4308041258796746  0.1786991495936855  0.0976581073893755   T   T   T
  0.5549965495504321  0.9192188735028818  0.0979237384476953   T   T   T
  0.4303554733751705  0.8340586322715199  0.0976122644696006   T   T   T
  0.8033303996712502  0.0901598221533180  0.0970143164901804   T   T   T
  0.6809608417896389  0.1805769951024441  0.0977015754939034   T   T   T
  0.8048708423392025  0.9211770368041630  0.0970573378040191   T   T   T
  0.8084258932518332  0.5897669214660284  0.0967163536199347   T   T   T
  0.8084406977761037  0.4217298936664780  0.0966809642984800   T   T   T
  0.6807373491654943  0.8325640045137479  0.0977353239565379   T   T   T
  0.5564934683405385  0.0966299150999006  0.0980789051798324   T   T   T
  0.4270613890256728  0.3417784925857796  0.0978906221328368   T   T   T
  0.4259070065668987  0.6718181711069237  0.0978107686663462   T   T   T
  0.6849505770824175  0.3428882274307156  0.0978638640174555   T   T   T
  0.6857590277122759  0.6687762121136128  0.0979141360397440   T   T   T
  0.3075485769927230  0.9213220047006410  0.0968420952351672   T   T   T
  0.5560108636779040  0.5076696237121697  0.0983250817190723   T   T   T
 
  0.00000000E+00  0.00000000E+00  0.00000000E+00
  0.00000000E+00  0.00000000E+00  0.00000000E+00
  0.00000000E+00  0.00000000E+00  0.00000000E+00
  0.00000000E+00  0.00000000E+00  0.00000000E+00
  0.00000000E+00  0.00000000E+00  0.00000000E+00
  0.00000000E+00  0.00000000E+00  0.00000000E+00
  0.00000000E+00  0.00000000E+00  0.00000000E+00
  0.00000000E+00  0.00000000E+00  0.00000000E+00
  0.00000000E+00  0.00000000E+00  0.00000000E+00
  0.00000000E+00  0.00000000E+00  0.00000000E+00
  0.00000000E+00  0.00000000E+00  0.00000000E+00
  0.00000000E+00  0.00000000E+00  0.00000000E+00
  0.00000000E+00  0.00000000E+00  0.00000000E+00
  0.00000000E+00  0.00000000E+00  0.00000000E+00
  0.00000000E+00  0.00000000E+00  0.00000000E+00
  0.00000000E+00  0.00000000E+00  0.00000000E+00
  0.00000000E+00  0.00000000E+00  0.00000000E+00
  0.00000000E+00  0.00000000E+00  0.00000000E+00
  0.00000000E+00  0.00000000E+00  0.00000000E+00
  0.00000000E+00  0.00000000E+00  0.00000000E+00
  0.00000000E+00  0.00000000E+00  0.00000000E+00
  0.00000000E+00  0.00000000E+00  0.00000000E+00
  0.00000000E+00  0.00000000E+00  0.00000000E+00
  0.00000000E+00  0.00000000E+00  0.00000000E+00
  0.00000000E+00  0.00000000E+00  0.00000000E+00
  0.00000000E+00  0.00000000E+00  0.00000000E+00
  0.00000000E+00  0.00000000E+00  0.00000000E+00
  0.00000000E+00  0.00000000E+00  0.00000000E+00
  0.00000000E+00  0.00000000E+00  0.00000000E+00
  0.00000000E+00  0.00000000E+00  0.00000000E+00
  0.00000000E+00  0.00000000E+00  0.00000000E+00
