Title                                   
   1.00000000000000     
     4.9440799999999996    0.0000000000000000    0.0000000000000000
     0.0000000000000000   17.1295089999999988    0.0000000000000000
     0.0000000000000000    0.0000000000000000   20.0000000000000000
    30     1     1
Selective dynamics
Direct
 -0.0001305929372577  0.1034373339932301  0.2776539739377100   T   T   T
  0.2498982794296572  0.1450408491771901  0.2795143668020855   T   T   T
  0.2498584859165638  0.2282409769000820  0.2862990971725812   T   T   T
  0.0048576427381896  0.3519010477822678  0.3036061344551894   T   T   T
 -0.0007142906973139  0.2693092598470858  0.2912867836030602   T   T   T
 -0.0033452777102005  0.6076053772249982  0.3250345902777962   T   T   T
  0.2498819024819177  0.7294119920530611  0.3025555514202452   T   T   T
  0.0001719586648237  0.8535561821145856  0.2852958896806483   T   T   T
  0.2498781332933238  0.8951793808896138  0.2818581754163215   T   T   T
  0.2499376318494179  0.9783463538593236  0.2773329760008673   T   T   T
  0.0002883442446837  0.7709829746119159  0.2950984827650477   T   T   T
  0.4999538329020558  0.1034353371457648  0.2776542902028967   T   T   T
  0.7498976438526389  0.1450292110317243  0.2797364331407785   T   T   T
  0.7498490747427264  0.2280482642561705  0.2866089589455340   T   T   T
  0.5000301937984557  0.0200000222070295  0.2764863236870636   T   T   T
  0.4949719716052622  0.3518904380654759  0.3036037638596497   T   T   T
  0.7499534604492806  0.3946423294993148  0.3127304498419468   T   T   T
  0.7498898287372614  0.4781104957375703  0.3278871508079122   T   T   T
  0.5004334319048210  0.2693093942230806  0.2912861774086237   T   T   T
  0.5032125431217761  0.6075967847803363  0.3250092669072254   T   T   T
  0.7498792616295420  0.7303581661637926  0.3003084911756742   T   T   T
  0.4995783277986185  0.8535527205898862  0.2853058363596722   T   T   T
  0.7498842464146903  0.8949736616707913  0.2815717205765829   T   T   T
  0.7499525504776758  0.9782890276841509  0.2772847101308470   T   T   T
  0.4994614484124643  0.7709805199596725  0.2951043564975230   T   T   T
  0.7499265672028630  0.6490283715359613  0.3144466645532251   T   T   T
  0.2499539850351839  0.6482479632505782  0.3189607073471916   T   T   T
 -0.0001360367368738  0.0200010272057269  0.2764814634026116   T   T   T
  0.5199430230649584  0.5270330155631804  0.3397979520265383   T   T   T
  0.9798174819011477  0.5270443464573780  0.3398227908555168   T   T   T
  0.2499424714818849  0.3888845764741817  0.3084190774529297   T   T   T
  0.2498454749297675  0.4790835980448710  0.3985223932884577   T   T   T
 
  0.00000000E+00  0.00000000E+00  0.00000000E+00
  0.00000000E+00  0.00000000E+00  0.00000000E+00
  0.00000000E+00  0.00000000E+00  0.00000000E+00
  0.00000000E+00  0.00000000E+00  0.00000000E+00
  0.00000000E+00  0.00000000E+00  0.00000000E+00
  0.00000000E+00  0.00000000E+00  0.00000000E+00
  0.00000000E+00  0.00000000E+00  0.00000000E+00
  0.00000000E+00  0.00000000E+00  0.00000000E+00
  0.00000000E+00  0.00000000E+00  0.00000000E+00
  0.00000000E+00  0.00000000E+00  0.00000000E+00
  0.00000000E+00  0.00000000E+00  0.00000000E+00
  0.00000000E+00  0.00000000E+00  0.00000000E+00
  0.00000000E+00  0.00000000E+00  0.00000000E+00
  0.00000000E+00  0.00000000E+00  0.00000000E+00
  0.00000000E+00  0.00000000E+00  0.00000000E+00
  0.00000000E+00  0.00000000E+00  0.00000000E+00
  0.00000000E+00  0.00000000E+00  0.00000000E+00
  0.00000000E+00  0.00000000E+00  0.00000000E+00
  0.00000000E+00  0.00000000E+00  0.00000000E+00
  0.00000000E+00  0.00000000E+00  0.00000000E+00
  0.00000000E+00  0.00000000E+00  0.00000000E+00
  0.00000000E+00  0.00000000E+00  0.00000000E+00
  0.00000000E+00  0.00000000E+00  0.00000000E+00
  0.00000000E+00  0.00000000E+00  0.00000000E+00
  0.00000000E+00  0.00000000E+00  0.00000000E+00
  0.00000000E+00  0.00000000E+00  0.00000000E+00
  0.00000000E+00  0.00000000E+00  0.00000000E+00
  0.00000000E+00  0.00000000E+00  0.00000000E+00
  0.00000000E+00  0.00000000E+00  0.00000000E+00
  0.00000000E+00  0.00000000E+00  0.00000000E+00
  0.00000000E+00  0.00000000E+00  0.00000000E+00
  0.00000000E+00  0.00000000E+00  0.00000000E+00
