Title                                   
   1.00000000000000     
     9.8694509999999998    0.0000000000000000    0.0000000000000000
     0.0000000000000000    8.5490480000000009    0.0000000000000000
     0.0000000000000000    0.0000000000000000   20.0000000000000000
    28     2     1
Selective dynamics
Direct
  0.0560348137075684  0.0888814283523395  0.0815109918820835   T   T   T
  0.9310953610100412  0.1716847321576604  0.0837908751403580   T   T   T
  0.0571321936826507  0.9242417769291440  0.0820016449173468   T   T   T
  0.9340083076143753  0.3386294804750424  0.0821989173573285   T   T   T
  0.0567577139707796  0.5905450023042358  0.0775619630741198   T   T   T
  0.9342789722155493  0.6742129308158071  0.0829804475484561   T   T   T
  0.0566555939702538  0.4228846317900075  0.0772090931234842   T   T   T
  0.9320035122064392  0.8404639930232974  0.0847009674316302   T   T   T
  0.3061583655202070  0.0878372788621884  0.0924122790942240   T   T   T
  0.1818965346518728  0.1706055050268971  0.0838617100425404   T   T   T
  0.1793682241622116  0.3379076121666959  0.0826499355002842   T   T   T
  0.2985294820212130  0.5912148344654060  0.0966983898994302   T   T   T
  0.1796662551417912  0.6752169155735810  0.0831906638972573   T   T   T
  0.2983735929473409  0.4200626735982120  0.0963133150359880   T   T   T
  0.1818871512946042  0.8415574282623374  0.0848616483366746   T   T   T
  0.4289289929954516  0.1735723943184774  0.1041846959936105   T   T   T
  0.5551247497322911  0.9236314577766965  0.1080909232440028   T   T   T
  0.4184653838139867  0.3363051312316105  0.1109968590984033   T   T   T
  0.4166046873105474  0.6752867632880549  0.1122511657314928   T   T   T
  0.4270325402221828  0.8391188187979227  0.1059631303739988   T   T   T
  0.8062324054664515  0.0888794806968702  0.0921989127468832   T   T   T
  0.6827444308666957  0.1750929594917424  0.1032120891558498   T   T   T
  0.8071677653526299  0.9227015896219685  0.0931132297111679   T   T   T
  0.6931951893969396  0.3381953344737029  0.1093388876816050   T   T   T
  0.8142400316783786  0.5913700001863575  0.0955169531495791   T   T   T
  0.6946838626011004  0.6731453387486285  0.1107972545813699   T   T   T
  0.8140840457683274  0.4202895582728410  0.0949100945466381   T   T   T
  0.6831846446245198  0.8378015605794578  0.1052785973775546   T   T   T
  0.5569416361631483  0.0897279023724904  0.1070006044994562   T   T   T
  0.3045333667933465  0.9232874767749520  0.0929578476415368   T   T   T
  0.5561251930971062  0.5065230095653955  0.1232109121856725   T   T   T
 
  0.00000000E+00  0.00000000E+00  0.00000000E+00
  0.00000000E+00  0.00000000E+00  0.00000000E+00
  0.00000000E+00  0.00000000E+00  0.00000000E+00
  0.00000000E+00  0.00000000E+00  0.00000000E+00
  0.00000000E+00  0.00000000E+00  0.00000000E+00
  0.00000000E+00  0.00000000E+00  0.00000000E+00
  0.00000000E+00  0.00000000E+00  0.00000000E+00
  0.00000000E+00  0.00000000E+00  0.00000000E+00
  0.00000000E+00  0.00000000E+00  0.00000000E+00
  0.00000000E+00  0.00000000E+00  0.00000000E+00
  0.00000000E+00  0.00000000E+00  0.00000000E+00
  0.00000000E+00  0.00000000E+00  0.00000000E+00
  0.00000000E+00  0.00000000E+00  0.00000000E+00
  0.00000000E+00  0.00000000E+00  0.00000000E+00
  0.00000000E+00  0.00000000E+00  0.00000000E+00
  0.00000000E+00  0.00000000E+00  0.00000000E+00
  0.00000000E+00  0.00000000E+00  0.00000000E+00
  0.00000000E+00  0.00000000E+00  0.00000000E+00
  0.00000000E+00  0.00000000E+00  0.00000000E+00
  0.00000000E+00  0.00000000E+00  0.00000000E+00
  0.00000000E+00  0.00000000E+00  0.00000000E+00
  0.00000000E+00  0.00000000E+00  0.00000000E+00
  0.00000000E+00  0.00000000E+00  0.00000000E+00
  0.00000000E+00  0.00000000E+00  0.00000000E+00
  0.00000000E+00  0.00000000E+00  0.00000000E+00
  0.00000000E+00  0.00000000E+00  0.00000000E+00
  0.00000000E+00  0.00000000E+00  0.00000000E+00
  0.00000000E+00  0.00000000E+00  0.00000000E+00
  0.00000000E+00  0.00000000E+00  0.00000000E+00
  0.00000000E+00  0.00000000E+00  0.00000000E+00
  0.00000000E+00  0.00000000E+00  0.00000000E+00
