Title                                   
   1.00000000000000     
     4.9440799999999996    0.0000000000000000    0.0000000000000000
     0.0000000000000000    8.5647549999999999    0.0000000000000000
     0.0000000000000000    0.0000000000000000   20.0000000000000000
     9     5     1
Selective dynamics
Direct
 -0.0020021349037461  0.2943524053673689  0.0953705088603790   T   T   T
  0.2500000000000000  0.0384564188547057  0.0955473522349988   T   T   T
 -0.0020461934308241  0.9563679007598843  0.0957808316963332   T   T   T
  0.7500000000000000  0.2078900542196762  0.0924063306954977   T   T   T
  0.5020021349037460  0.2943524053673689  0.0953705088603790   T   T   T
  0.7500000000000000  0.0400889064364648  0.0925508673226307   T   T   T
  0.7500000000000000  0.7102015651252983  0.0988794337240140   T   T   T
  0.7500000000000000  0.5382820732080296  0.0991389662478859   T   T   T
  0.5020461934308244  0.9563679007598843  0.0957808316963332   T   T   T
  0.5059723622187675  0.4551331286961027  0.1009896353008948   T   T   T
 -0.0059723622187675  0.4551331286961027  0.1009896353008948   T   T   T
 -0.0074963838661952  0.7928436653209220  0.1010552046835788   T   T   T
  0.5074963838661954  0.7928436653209220  0.1010552046835788   T   T   T
  0.2500000000000000  0.2133386073947959  0.0947870669671711   T   T   T
  0.2500000000000000  0.6260291744724760  0.1482776217254335   T   T   T
 
  0.00000000E+00  0.00000000E+00  0.00000000E+00
  0.00000000E+00  0.00000000E+00  0.00000000E+00
  0.00000000E+00  0.00000000E+00  0.00000000E+00
  0.00000000E+00  0.00000000E+00  0.00000000E+00
  0.00000000E+00  0.00000000E+00  0.00000000E+00
  0.00000000E+00  0.00000000E+00  0.00000000E+00
  0.00000000E+00  0.00000000E+00  0.00000000E+00
  0.00000000E+00  0.00000000E+00  0.00000000E+00
  0.00000000E+00  0.00000000E+00  0.00000000E+00
  0.00000000E+00  0.00000000E+00  0.00000000E+00
  0.00000000E+00  0.00000000E+00  0.00000000E+00
  0.00000000E+00  0.00000000E+00  0.00000000E+00
  0.00000000E+00  0.00000000E+00  0.00000000E+00
  0.00000000E+00  0.00000000E+00  0.00000000E+00
  0.00000000E+00  0.00000000E+00  0.00000000E+00
