Title                                   
   1.00000000000000     
     8.5490480000000009    0.0000000000000000    0.0000000000000000
     0.0000000000000000    8.5490480000000009    0.0000000000000000
     0.0000000000000000    0.0000000000000000   20.0000000000000000
    24     1
Selective dynamics
Direct
  0.9115179161704444  0.2058258843505113  0.0954491724468363   T   T   T
  0.9090122919109529  0.5018093639782130  0.0953097102512371   T   T   T
  0.9115446224304607  0.7977527488281870  0.0954648940897029   T   T   T
  0.1970603277371416  0.0832632161310884  0.0954788673141968   T   T   T
  0.0744899664581491  0.2058087797784142  0.0954621116720421   T   T   T
  0.1970614047151673  0.9202870846185409  0.0954839848510180   T   T   T
  0.1577382860725891  0.6485542086865251  0.0953538575946524   T   T   T
  0.0770318574537551  0.5017953403233816  0.0953284597926235   T   T   T
  0.1577158104445555  0.3550110376908109  0.0953380557398976   T   T   T
  0.0745116929383764  0.7977348636567531  0.0954734307181323   T   T   T
  0.4929922291817670  0.0857956531882728  0.0953571999906190   T   T   T
  0.3462382961968131  0.1664976764753680  0.0953617655287425   T   T   T
  0.4929969906617994  0.9177845129198502  0.0953641401071949   T   T   T
  0.3462394780011398  0.8370843262562202  0.0953676826105000   T   T   T
  0.7889576329249260  0.0832839520488632  0.0954604557607869   T   T   T
  0.6397587515423629  0.1665164596542543  0.0953307358764356   T   T   T
  0.7889891461131314  0.9203074437185932  0.0954642317834153   T   T   T
  0.8283025995728324  0.6485818314985842  0.0953195526908572   T   T   T
  0.8282994751625467  0.3550249919004069  0.0953065660724663   T   T   T
  0.6397747190826443  0.8370851280244112  0.0953347958173646   T   T   T
  0.3240869528718236  0.3328497090841736  0.0952318083067450   T   T   T
  0.3241038049081983  0.6707320338935706  0.0952528361506885   T   T   T
  0.6619503817845805  0.3328593567556425  0.0951938848319886   T   T   T
  0.6619507702696084  0.6707472511608177  0.0952018496872350   T   T   T
  0.4930865953942274  0.5017971453785596  0.0950149503145995   T   T   T
 
  0.00000000E+00  0.00000000E+00  0.00000000E+00
  0.00000000E+00  0.00000000E+00  0.00000000E+00
  0.00000000E+00  0.00000000E+00  0.00000000E+00
  0.00000000E+00  0.00000000E+00  0.00000000E+00
  0.00000000E+00  0.00000000E+00  0.00000000E+00
  0.00000000E+00  0.00000000E+00  0.00000000E+00
  0.00000000E+00  0.00000000E+00  0.00000000E+00
  0.00000000E+00  0.00000000E+00  0.00000000E+00
  0.00000000E+00  0.00000000E+00  0.00000000E+00
  0.00000000E+00  0.00000000E+00  0.00000000E+00
  0.00000000E+00  0.00000000E+00  0.00000000E+00
  0.00000000E+00  0.00000000E+00  0.00000000E+00
  0.00000000E+00  0.00000000E+00  0.00000000E+00
  0.00000000E+00  0.00000000E+00  0.00000000E+00
  0.00000000E+00  0.00000000E+00  0.00000000E+00
  0.00000000E+00  0.00000000E+00  0.00000000E+00
  0.00000000E+00  0.00000000E+00  0.00000000E+00
  0.00000000E+00  0.00000000E+00  0.00000000E+00
  0.00000000E+00  0.00000000E+00  0.00000000E+00
  0.00000000E+00  0.00000000E+00  0.00000000E+00
  0.00000000E+00  0.00000000E+00  0.00000000E+00
  0.00000000E+00  0.00000000E+00  0.00000000E+00
  0.00000000E+00  0.00000000E+00  0.00000000E+00
  0.00000000E+00  0.00000000E+00  0.00000000E+00
  0.00000000E+00  0.00000000E+00  0.00000000E+00
