Title                                   
   1.00000000000000     
     8.5490480000000009    0.0000000000000000    0.0000000000000000
     0.0000000000000000    8.5490480000000009    0.0000000000000000
     0.0000000000000000    0.0000000000000000   20.0000000000000000
    22     2     1
Selective dynamics
Direct
  0.9092117621604170  0.2074714567364425  0.0937873487259840   T   T   T
  0.9121872623657079  0.7998588395088466  0.0947999001334765   T   T   T
  0.1971102138069681  0.0833400806319684  0.0948596907820664   T   T   T
  0.0748625181851668  0.2021681495207585  0.0935838702433865   T   T   T
  0.1591364637840668  0.6481123021433042  0.0964255515240398   T   T   T
  0.0759875458057347  0.5017704570025300  0.0945952990970892   T   T   T
  0.1538891890432393  0.3542487919983069  0.0942819500650264   T   T   T
  0.0790575256237367  0.7982299954173701  0.0950238772925766   T   T   T
  0.4936690494610001  0.0875562694723402  0.0979126532547806   T   T   T
  0.3444290483547248  0.1645253346555739  0.0969067116362217   T   T   T
  0.4935455905610525  0.9187229370492607  0.0978146289140717   T   T   T
  0.3465515939306076  0.8367397845838945  0.0974782854471835   T   T   T
  0.7871554940431713  0.0873200525573675  0.0966787127731115   T   T   T
  0.6384212761193068  0.1701594591711154  0.0988935711544304   T   T   T
  0.7884197986450837  0.9198831136077166  0.0962612267509067   T   T   T
  0.8295510827298304  0.6479885021075770  0.0960248892676401   T   T   T
  0.8308601798364224  0.3588332863045102  0.0933489345612502   T   T   T
  0.6393880747084028  0.8357736966338194  0.0983177637570279   T   T   T
  0.3201693157978280  0.3331858602009125  0.0988982338116335   T   T   T
  0.3266997301397336  0.6716283648772312  0.0999948823989193   T   T   T
  0.6650593034434116  0.3415216062837238  0.0987049047654744   T   T   T
  0.6625591485558421  0.6666423271121295  0.1011865982747251   T   T   T
  0.9106803025614324  0.5035419910463292  0.0939753126145990   T   T   T
  0.1982309932746608  0.9161685545084356  0.0952556775182888   T   T   T
  0.4885795370624372  0.4893987868685410  0.1286945252360703   T   T   T
 
  0.00000000E+00  0.00000000E+00  0.00000000E+00
  0.00000000E+00  0.00000000E+00  0.00000000E+00
  0.00000000E+00  0.00000000E+00  0.00000000E+00
  0.00000000E+00  0.00000000E+00  0.00000000E+00
  0.00000000E+00  0.00000000E+00  0.00000000E+00
  0.00000000E+00  0.00000000E+00  0.00000000E+00
  0.00000000E+00  0.00000000E+00  0.00000000E+00
  0.00000000E+00  0.00000000E+00  0.00000000E+00
  0.00000000E+00  0.00000000E+00  0.00000000E+00
  0.00000000E+00  0.00000000E+00  0.00000000E+00
  0.00000000E+00  0.00000000E+00  0.00000000E+00
  0.00000000E+00  0.00000000E+00  0.00000000E+00
  0.00000000E+00  0.00000000E+00  0.00000000E+00
  0.00000000E+00  0.00000000E+00  0.00000000E+00
  0.00000000E+00  0.00000000E+00  0.00000000E+00
  0.00000000E+00  0.00000000E+00  0.00000000E+00
  0.00000000E+00  0.00000000E+00  0.00000000E+00
  0.00000000E+00  0.00000000E+00  0.00000000E+00
  0.00000000E+00  0.00000000E+00  0.00000000E+00
  0.00000000E+00  0.00000000E+00  0.00000000E+00
  0.00000000E+00  0.00000000E+00  0.00000000E+00
  0.00000000E+00  0.00000000E+00  0.00000000E+00
  0.00000000E+00  0.00000000E+00  0.00000000E+00
  0.00000000E+00  0.00000000E+00  0.00000000E+00
  0.00000000E+00  0.00000000E+00  0.00000000E+00
