Title                                   
   1.00000000000000     
     4.9440799999999996    0.0000000000000000    0.0000000000000000
     0.0000000000000000   17.1295089999999988    0.0000000000000000
     0.0000000000000000    0.0000000000000000   20.0000000000000000
    29     2     1
Selective dynamics
Direct
  0.0074849751244449  0.1045185145791890  0.2775815616271632   T   T   T
  0.2586686364561774  0.1460999781714149  0.2830538863976689   T   T   T
  0.2632122272377045  0.2278303366191332  0.2978163561879366   T   T   T
  0.0203116834757117  0.3479740684725130  0.3283667768050092   T   T   T
  0.0130924863638445  0.2685314956678078  0.3057713666661315   T   T   T
 -0.0219409817147740  0.6091733404813808  0.3154141220338713   T   T   T
  0.2386849894952551  0.7295695611403259  0.2921901049315143   T   T   T
 -0.0049218581096921  0.8541891686269768  0.2760371058940478   T   T   T
  0.2460835997494988  0.8961125499715989  0.2732946042836184   T   T   T
  0.2510764659838500  0.9794892427697284  0.2712126063471908   T   T   T
 -0.0094286554146803  0.7713487721712530  0.2850503535284118   T   T   T
  0.5073514005573365  0.1046161556516577  0.2775593746058432   T   T   T
  0.7590599791402232  0.1459200948359163  0.2819591969268084   T   T   T
  0.7637792879168963  0.2279125878525340  0.2952477801612441   T   T   T
  0.5026037147529018  0.0213109671001552  0.2718851466700097   T   T   T
  0.5191247040632950  0.3469780642750322  0.3284051062427847   T   T   T
  0.7687553465517669  0.3945499250563971  0.3338696617749816   T   T   T
  0.7463091708576989  0.4829514023690807  0.3357104928252732   T   T   T
  0.5167314940547375  0.2679618172991576  0.3054697425700527   T   T   T
  0.4857691669922731  0.6069942182864972  0.3162553259969297   T   T   T
  0.7381721078721445  0.7307917134270173  0.2904154183481726   T   T   T
  0.4942165316716352  0.8543152472471570  0.2760465456581760   T   T   T
  0.7462174675011441  0.8958579802988508  0.2730371262612874   T   T   T
  0.7511295283219331  0.9794613850904625  0.2709546226287132   T   T   T
  0.4892123762404744  0.7715434695120952  0.2851754880482861   T   T   T
  0.7324203705624761  0.6493566313704436  0.3048270227888301   T   T   T
  0.2348517926255846  0.6481152118411317  0.3082276393953166   T   T   T
  0.0025898079175094  0.0213124494573498  0.2718699950704883   T   T   T
  0.5031918215302612  0.5272704071300117  0.3360156006296601   T   T   T
  0.9715721810929503  0.5334732655757688  0.3350403959357885   T   T   T
  0.2747687438609387  0.3764804601713259  0.3475596989352261   T   T   T
  0.2266724372684852  0.4765405174806240  0.3712447738235175   T   T   T
 
  0.00000000E+00  0.00000000E+00  0.00000000E+00
  0.00000000E+00  0.00000000E+00  0.00000000E+00
  0.00000000E+00  0.00000000E+00  0.00000000E+00
  0.00000000E+00  0.00000000E+00  0.00000000E+00
  0.00000000E+00  0.00000000E+00  0.00000000E+00
  0.00000000E+00  0.00000000E+00  0.00000000E+00
  0.00000000E+00  0.00000000E+00  0.00000000E+00
  0.00000000E+00  0.00000000E+00  0.00000000E+00
  0.00000000E+00  0.00000000E+00  0.00000000E+00
  0.00000000E+00  0.00000000E+00  0.00000000E+00
  0.00000000E+00  0.00000000E+00  0.00000000E+00
  0.00000000E+00  0.00000000E+00  0.00000000E+00
  0.00000000E+00  0.00000000E+00  0.00000000E+00
  0.00000000E+00  0.00000000E+00  0.00000000E+00
  0.00000000E+00  0.00000000E+00  0.00000000E+00
  0.00000000E+00  0.00000000E+00  0.00000000E+00
  0.00000000E+00  0.00000000E+00  0.00000000E+00
  0.00000000E+00  0.00000000E+00  0.00000000E+00
  0.00000000E+00  0.00000000E+00  0.00000000E+00
  0.00000000E+00  0.00000000E+00  0.00000000E+00
  0.00000000E+00  0.00000000E+00  0.00000000E+00
  0.00000000E+00  0.00000000E+00  0.00000000E+00
  0.00000000E+00  0.00000000E+00  0.00000000E+00
  0.00000000E+00  0.00000000E+00  0.00000000E+00
  0.00000000E+00  0.00000000E+00  0.00000000E+00
  0.00000000E+00  0.00000000E+00  0.00000000E+00
  0.00000000E+00  0.00000000E+00  0.00000000E+00
  0.00000000E+00  0.00000000E+00  0.00000000E+00
  0.00000000E+00  0.00000000E+00  0.00000000E+00
  0.00000000E+00  0.00000000E+00  0.00000000E+00
  0.00000000E+00  0.00000000E+00  0.00000000E+00
  0.00000000E+00  0.00000000E+00  0.00000000E+00
