Title                                   
   1.00000000000000     
     8.5490480000000009    0.0000000000000000    0.0000000000000000
     0.0000000000000000    8.5490480000000009    0.0000000000000000
     0.0000000000000000    0.0000000000000000   20.0000000000000000
    19     5     1
Selective dynamics
Direct
  0.9086491154789418  0.2045848706932963  0.0975949875660388   T   T   T
  0.9084024685343804  0.5024501061474019  0.0977066908933969   T   T   T
  0.9105149506496861  0.8016007460127341  0.0975590654420803   T   T   T
  0.1964610412203237  0.0832614586592831  0.0976859406503708   T   T   T
  0.0754957143121339  0.2020545440795439  0.0975997774212715   T   T   T
  0.1572570789809664  0.6523672554923204  0.0977004753410661   T   T   T
  0.0789807694951614  0.5012741418854070  0.0977049513391132   T   T   T
  0.1571583086959752  0.3505776037574544  0.0977524255956274   T   T   T
  0.0777026710201528  0.7992106639435484  0.0975825184121509   T   T   T
  0.4930030059546588  0.0873529837061978  0.0978219656999226   T   T   T
  0.3429120534112077  0.1638857296527757  0.0978687658673444   T   T   T
  0.4921701272944394  0.9169592625170755  0.0977284478843471   T   T   T
  0.3428516514162513  0.8377527117362318  0.0977395280655529   T   T   T
  0.7882799560671937  0.0855899819588864  0.0976335279033040   T   T   T
  0.6412859213599436  0.1665081593360017  0.0978422593090371   T   T   T
  0.7886139434841694  0.9196096269280721  0.0975848856321677   T   T   T
  0.8309257781152500  0.6525521321710671  0.0976775334451101   T   T   T
  0.8290110097511204  0.3526392719567512  0.0977625406900390   T   T   T
  0.6416432994110373  0.8372486049562188  0.0976995091179635   T   T   T
  0.3184252755062747  0.3257021436721917  0.0979922019911833   T   T   T
  0.3183464571709224  0.6793723779187684  0.0978610136881606   T   T   T
  0.6670470873040527  0.3284698901261925  0.0979949545463889   T   T   T
  0.6682464797711222  0.6759278435051521  0.0978139181907470   T   T   T
  0.1972089333209724  0.9170505777394576  0.0976601057975072   T   T   T
  0.4948189022736558  0.5007873114479680  0.0981370095100885   T   T   T
 
  0.00000000E+00  0.00000000E+00  0.00000000E+00
  0.00000000E+00  0.00000000E+00  0.00000000E+00
  0.00000000E+00  0.00000000E+00  0.00000000E+00
  0.00000000E+00  0.00000000E+00  0.00000000E+00
  0.00000000E+00  0.00000000E+00  0.00000000E+00
  0.00000000E+00  0.00000000E+00  0.00000000E+00
  0.00000000E+00  0.00000000E+00  0.00000000E+00
  0.00000000E+00  0.00000000E+00  0.00000000E+00
  0.00000000E+00  0.00000000E+00  0.00000000E+00
  0.00000000E+00  0.00000000E+00  0.00000000E+00
  0.00000000E+00  0.00000000E+00  0.00000000E+00
  0.00000000E+00  0.00000000E+00  0.00000000E+00
  0.00000000E+00  0.00000000E+00  0.00000000E+00
  0.00000000E+00  0.00000000E+00  0.00000000E+00
  0.00000000E+00  0.00000000E+00  0.00000000E+00
  0.00000000E+00  0.00000000E+00  0.00000000E+00
  0.00000000E+00  0.00000000E+00  0.00000000E+00
  0.00000000E+00  0.00000000E+00  0.00000000E+00
  0.00000000E+00  0.00000000E+00  0.00000000E+00
  0.00000000E+00  0.00000000E+00  0.00000000E+00
  0.00000000E+00  0.00000000E+00  0.00000000E+00
  0.00000000E+00  0.00000000E+00  0.00000000E+00
  0.00000000E+00  0.00000000E+00  0.00000000E+00
  0.00000000E+00  0.00000000E+00  0.00000000E+00
  0.00000000E+00  0.00000000E+00  0.00000000E+00
