Title                                   
   1.00000000000000     
     4.9440799999999996    0.0000000000000000    0.0000000000000000
     0.0000000000000000   17.1295089999999988    0.0000000000000000
     0.0000000000000000    0.0000000000000000   20.0000000000000000
    30     1
Selective dynamics
Direct
 -0.0001441016931392  0.1051556008654883  0.2923870661228539   T   T   T
  0.2503689676988364  0.1471292489155579  0.2937936448771862   T   T   T
  0.2504088654646906  0.2301041038202050  0.2985254524918502   T   T   T
  0.0026447214188758  0.2729869452633878  0.3013481215101259   T   T   T
  0.0026461080143535  0.6019198223396924  0.3014231153342347   T   T   T
  0.2503595531839456  0.7278130483840831  0.2939586040026310   T   T   T
 -0.0000328437329682  0.8534572572284255  0.2910965702388799   T   T   T
  0.2502234930508546  0.8956503434745151  0.2908696816790793   T   T   T
  0.2502234414056604  0.9792799857511405  0.2909011937274983   T   T   T
 -0.0001675053355521  0.7697731066530749  0.2924759630249409   T   T   T
  0.5008189160633372  0.1051359260425749  0.2924119059034392   T   T   T
  0.7503406383043052  0.1474643075449158  0.2934028490525732   T   T   T
  0.7503510519226029  0.2314018276496186  0.2975659182936642   T   T   T
  0.5005299287504024  0.0214530283981444  0.2911330790928618   T   T   T
  0.7506214125055596  0.3950521396538225  0.3109410108141038   T   T   T
  0.7505877049791613  0.4798877426972623  0.3109099260890024   T   T   T
  0.4981344028561890  0.2730596425445885  0.3014793394114304   T   T   T
  0.4980388329263006  0.6018622901466784  0.3015529775115747   T   T   T
  0.7502885353086705  0.7274740365554824  0.2935692366399261   T   T   T
  0.5005323533655160  0.8534864216449598  0.2911197299331935   T   T   T
  0.7502580780083220  0.8955655822544659  0.2907981281257473   T   T   T
  0.7502531143695097  0.9793661812542886  0.2908401135137116   T   T   T
  0.5007985619175183  0.7698168136795036  0.2924919409865352   T   T   T
  0.7502972731125123  0.6435233752822191  0.2977169559781003   T   T   T
  0.2503549256679631  0.6448324080384539  0.2986328862205894   T   T   T
 -0.0000260645255409  0.0214644968881559  0.2911173058402932   T   T   T
  0.5011843212620746  0.5194057136838700  0.3107931124415682   T   T   T
 -0.0002974858478166  0.5194802140770086  0.3105169200683369   T   T   T
  0.5012887811640795  0.3555031771616083  0.3107192316274616   T   T   T
 -0.0003556551464947  0.3554075986874904  0.3104405194635319   T   T   T
  0.2494766735602711  0.4374296134193140  0.3501274999830258   T   T   T
 
  0.00000000E+00  0.00000000E+00  0.00000000E+00
  0.00000000E+00  0.00000000E+00  0.00000000E+00
  0.00000000E+00  0.00000000E+00  0.00000000E+00
  0.00000000E+00  0.00000000E+00  0.00000000E+00
  0.00000000E+00  0.00000000E+00  0.00000000E+00
  0.00000000E+00  0.00000000E+00  0.00000000E+00
  0.00000000E+00  0.00000000E+00  0.00000000E+00
  0.00000000E+00  0.00000000E+00  0.00000000E+00
  0.00000000E+00  0.00000000E+00  0.00000000E+00
  0.00000000E+00  0.00000000E+00  0.00000000E+00
  0.00000000E+00  0.00000000E+00  0.00000000E+00
  0.00000000E+00  0.00000000E+00  0.00000000E+00
  0.00000000E+00  0.00000000E+00  0.00000000E+00
  0.00000000E+00  0.00000000E+00  0.00000000E+00
  0.00000000E+00  0.00000000E+00  0.00000000E+00
  0.00000000E+00  0.00000000E+00  0.00000000E+00
  0.00000000E+00  0.00000000E+00  0.00000000E+00
  0.00000000E+00  0.00000000E+00  0.00000000E+00
  0.00000000E+00  0.00000000E+00  0.00000000E+00
  0.00000000E+00  0.00000000E+00  0.00000000E+00
  0.00000000E+00  0.00000000E+00  0.00000000E+00
  0.00000000E+00  0.00000000E+00  0.00000000E+00
  0.00000000E+00  0.00000000E+00  0.00000000E+00
  0.00000000E+00  0.00000000E+00  0.00000000E+00
  0.00000000E+00  0.00000000E+00  0.00000000E+00
  0.00000000E+00  0.00000000E+00  0.00000000E+00
  0.00000000E+00  0.00000000E+00  0.00000000E+00
  0.00000000E+00  0.00000000E+00  0.00000000E+00
  0.00000000E+00  0.00000000E+00  0.00000000E+00
  0.00000000E+00  0.00000000E+00  0.00000000E+00
  0.00000000E+00  0.00000000E+00  0.00000000E+00
