Title                                   
   1.00000000000000     
     4.9440799999999996    0.0000000000000000    0.0000000000000000
     0.0000000000000000    8.5647549999999999    0.0000000000000000
     0.0000000000000000    0.0000000000000000   20.0000000000000000
    12     2     1
Selective dynamics
Direct
  0.2500000000000000  0.2065572106340616  0.0955688439529299   T   T   T
  0.0022426071141514  0.2928617274207732  0.0966099875960403   T   T   T
  0.2500000000000000  0.0361359650892980  0.0945380458781660   T   T   T
 -0.0012952671030761  0.9539402403746400  0.0946807297507143   T   T   T
  0.7500000000000000  0.2089995025728750  0.0937455090349289   T   T   T
  0.4977573928858486  0.2928617274207732  0.0966099875960403   T   T   T
  0.7500000000000000  0.0399493015377520  0.0929153717883035   T   T   T
  0.7500000000000000  0.7150371875367474  0.0987879993550533   T   T   T
  0.7500000000000000  0.5437056133765179  0.1019639791892161   T   T   T
  0.5012952671030760  0.9539402403746400  0.0946807297507143   T   T   T
  0.5004921411622479  0.4604469447378655  0.1042633464936581   T   T   T
 -0.0004921411622480  0.4604469447378655  0.1042633464936581   T   T   T
 -0.0099931216587309  0.7913452966019098  0.0986216097771760   T   T   T
  0.5099931216587309  0.7913452966019098  0.0986216097771760   T   T   T
  0.2500000000000000  0.6241078009823731  0.1421089035662285   T   T   T
 
  0.00000000E+00  0.00000000E+00  0.00000000E+00
  0.00000000E+00  0.00000000E+00  0.00000000E+00
  0.00000000E+00  0.00000000E+00  0.00000000E+00
  0.00000000E+00  0.00000000E+00  0.00000000E+00
  0.00000000E+00  0.00000000E+00  0.00000000E+00
  0.00000000E+00  0.00000000E+00  0.00000000E+00
  0.00000000E+00  0.00000000E+00  0.00000000E+00
  0.00000000E+00  0.00000000E+00  0.00000000E+00
  0.00000000E+00  0.00000000E+00  0.00000000E+00
  0.00000000E+00  0.00000000E+00  0.00000000E+00
  0.00000000E+00  0.00000000E+00  0.00000000E+00
  0.00000000E+00  0.00000000E+00  0.00000000E+00
  0.00000000E+00  0.00000000E+00  0.00000000E+00
  0.00000000E+00  0.00000000E+00  0.00000000E+00
  0.00000000E+00  0.00000000E+00  0.00000000E+00
