Title                                   
   1.00000000000000     
     8.5490480000000009    0.0000000000000000    0.0000000000000000
     0.0000000000000000    8.5490480000000009    0.0000000000000000
     0.0000000000000000    0.0000000000000000   20.0000000000000000
    20     4     1
Selective dynamics
Direct
  0.9080375466219873  0.2074479806640173  0.0978835184822126   T   T   T
  0.9115292416328897  0.8011585751244219  0.0977887356127352   T   T   T
  0.1984344997843555  0.0832850365942290  0.0980317832380165   T   T   T
  0.0761182126884155  0.2021995564782511  0.0980005272669205   T   T   T
  0.1575228390390004  0.6484522226272357  0.0979580304574224   T   T   T
  0.0741508528205145  0.5017419680192453  0.0979652112823205   T   T   T
  0.1581350903106366  0.3561620940021267  0.0980257616930303   T   T   T
  0.0803072353939728  0.7989011425283545  0.0978987548974069   T   T   T
  0.3485373164626451  0.1652807511416879  0.0980112934920855   T   T   T
  0.4945029900558650  0.9158114509524402  0.0979525970890445   T   T   T
  0.3475972887443887  0.8325753514527749  0.0980585176239856   T   T   T
  0.7869285436177107  0.0868327158626694  0.0977784013623460   T   T   T
  0.6371700066577510  0.1671697645758542  0.0978056036330933   T   T   T
  0.7904541471854739  0.9193212553329820  0.0977699663531643   T   T   T
  0.8280726421078202  0.6518082490475845  0.0979726376138806   T   T   T
  0.8224001005994878  0.3586278245049187  0.0979027121480699   T   T   T
  0.6424160363292858  0.8357217025127440  0.0979456666798944   T   T   T
  0.3260612978144556  0.3326852235187766  0.0980431770705712   T   T   T
  0.3242981502306795  0.6683265595220240  0.0979818134354512   T   T   T
  0.6562332718315395  0.3353867825154700  0.0978322068511568   T   T   T
  0.4945175919414818  0.0838787174286599  0.0979560582489369   T   T   T
  0.9052172087940257  0.5041298545546568  0.0980147976087233   T   T   T
  0.6671109693346592  0.6719865463826243  0.0981342996454532   T   T   T
  0.1978565839074568  0.9149411153803668  0.0980720453920088   T   T   T
  0.4918023360934947  0.5009575592758970  0.0979208828220525   T   T   T
 
  0.00000000E+00  0.00000000E+00  0.00000000E+00
  0.00000000E+00  0.00000000E+00  0.00000000E+00
  0.00000000E+00  0.00000000E+00  0.00000000E+00
  0.00000000E+00  0.00000000E+00  0.00000000E+00
  0.00000000E+00  0.00000000E+00  0.00000000E+00
  0.00000000E+00  0.00000000E+00  0.00000000E+00
  0.00000000E+00  0.00000000E+00  0.00000000E+00
  0.00000000E+00  0.00000000E+00  0.00000000E+00
  0.00000000E+00  0.00000000E+00  0.00000000E+00
  0.00000000E+00  0.00000000E+00  0.00000000E+00
  0.00000000E+00  0.00000000E+00  0.00000000E+00
  0.00000000E+00  0.00000000E+00  0.00000000E+00
  0.00000000E+00  0.00000000E+00  0.00000000E+00
  0.00000000E+00  0.00000000E+00  0.00000000E+00
  0.00000000E+00  0.00000000E+00  0.00000000E+00
  0.00000000E+00  0.00000000E+00  0.00000000E+00
  0.00000000E+00  0.00000000E+00  0.00000000E+00
  0.00000000E+00  0.00000000E+00  0.00000000E+00
  0.00000000E+00  0.00000000E+00  0.00000000E+00
  0.00000000E+00  0.00000000E+00  0.00000000E+00
  0.00000000E+00  0.00000000E+00  0.00000000E+00
  0.00000000E+00  0.00000000E+00  0.00000000E+00
  0.00000000E+00  0.00000000E+00  0.00000000E+00
  0.00000000E+00  0.00000000E+00  0.00000000E+00
  0.00000000E+00  0.00000000E+00  0.00000000E+00
