Title                                   
   1.00000000000000     
     4.9440799999999996    0.0000000000000000    0.0000000000000000
     0.0000000000000000   17.1295089999999988    0.0000000000000000
     0.0000000000000000    0.0000000000000000   20.0000000000000000
    29     1     1
Selective dynamics
Direct
 -0.0001481346862330  0.1044815139804220  0.2979398215818760   T   T   T
  0.2503357663332605  0.1468293066392505  0.2986482573921394   T   T   T
  0.2503208017292542  0.2297963152244658  0.3001177257948893   T   T   T
  0.0004234921432602  0.2726818193166886  0.3009223951309266   T   T   T
  0.0014724753093801  0.6027786014345885  0.3011209695399846   T   T   T
  0.2503012231550941  0.7270122159129527  0.2989408961573177   T   T   T
  0.0012369621535311  0.8531312083826567  0.2972666916526359   T   T   T
  0.2503363470245895  0.8953892105700239  0.2969725338576735   T   T   T
  0.2503573808709862  0.9789259034565259  0.2968719098478705   T   T   T
  0.0008517953368640  0.7693398546149699  0.2982930856944205   T   T   T
  0.5008269375206124  0.1044875330277244  0.2979456260483003   T   T   T
  0.7503420744320531  0.1464296884930459  0.2986381564435285   T   T   T
  0.7503179931071434  0.2302681981943321  0.3001686979428025   T   T   T
  0.5006286135370621  0.0208780130406186  0.2970403347638411   T   T   T
  0.7503320545887476  0.3957542819324018  0.3025533190710291   T   T   T
  0.7503182418818661  0.4816957465926060  0.3025884030154815   T   T   T
  0.5002162899081203  0.2726805186370942  0.3009043604632720   T   T   T
  0.4990929327881795  0.6027835286377191  0.3010856975883311   T   T   T
  0.7503006472124646  0.7282246731705478  0.2989421393415254   T   T   T
  0.4994279725504145  0.8531261054984499  0.2972499953423339   T   T   T
  0.7503403496115705  0.8948407483807013  0.2969693989089586   T   T   T
  0.7503504301664745  0.9787145890949720  0.2968654624826282   T   T   T
  0.4997526066064422  0.7693363534052713  0.2982632801560420   T   T   T
  0.7502785255410461  0.6454077228208509  0.3004683153283798   T   T   T
  0.0000728613340615  0.0208748422608254  0.2970337544258356   T   T   T
  0.5019846866772262  0.5212263369389131  0.3021369694169900   T   T   T
 -0.0013313316921653  0.5212222132722303  0.3022185206996447   T   T   T
  0.5053388680091112  0.3550017062365333  0.3020514299196703   T   T   T
 -0.0046665102145298  0.3550025862959453  0.3021209469068017   T   T   T
  0.2502892223965986  0.6455405711617248  0.3003267163800110   T   T   T
  0.2503054246675153  0.4374800933749444  0.3023941887048097   T   T   T
 
  0.00000000E+00  0.00000000E+00  0.00000000E+00
  0.00000000E+00  0.00000000E+00  0.00000000E+00
  0.00000000E+00  0.00000000E+00  0.00000000E+00
  0.00000000E+00  0.00000000E+00  0.00000000E+00
  0.00000000E+00  0.00000000E+00  0.00000000E+00
  0.00000000E+00  0.00000000E+00  0.00000000E+00
  0.00000000E+00  0.00000000E+00  0.00000000E+00
  0.00000000E+00  0.00000000E+00  0.00000000E+00
  0.00000000E+00  0.00000000E+00  0.00000000E+00
  0.00000000E+00  0.00000000E+00  0.00000000E+00
  0.00000000E+00  0.00000000E+00  0.00000000E+00
  0.00000000E+00  0.00000000E+00  0.00000000E+00
  0.00000000E+00  0.00000000E+00  0.00000000E+00
  0.00000000E+00  0.00000000E+00  0.00000000E+00
  0.00000000E+00  0.00000000E+00  0.00000000E+00
  0.00000000E+00  0.00000000E+00  0.00000000E+00
  0.00000000E+00  0.00000000E+00  0.00000000E+00
  0.00000000E+00  0.00000000E+00  0.00000000E+00
  0.00000000E+00  0.00000000E+00  0.00000000E+00
  0.00000000E+00  0.00000000E+00  0.00000000E+00
  0.00000000E+00  0.00000000E+00  0.00000000E+00
  0.00000000E+00  0.00000000E+00  0.00000000E+00
  0.00000000E+00  0.00000000E+00  0.00000000E+00
  0.00000000E+00  0.00000000E+00  0.00000000E+00
  0.00000000E+00  0.00000000E+00  0.00000000E+00
  0.00000000E+00  0.00000000E+00  0.00000000E+00
  0.00000000E+00  0.00000000E+00  0.00000000E+00
  0.00000000E+00  0.00000000E+00  0.00000000E+00
  0.00000000E+00  0.00000000E+00  0.00000000E+00
  0.00000000E+00  0.00000000E+00  0.00000000E+00
  0.00000000E+00  0.00000000E+00  0.00000000E+00
