Title                                   
   1.00000000000000     
     9.8694509999999998    0.0000000000000000    0.0000000000000000
     0.0000000000000000    8.5490480000000009    0.0000000000000000
     0.0000000000000000    0.0000000000000000   20.0000000000000000
    27     3     1
Selective dynamics
Direct
  0.0564643182917107  0.0895374399197360  0.0905825921346399   T   T   T
  0.9318974450707277  0.1719821822026184  0.0961812462865572   T   T   T
  0.0579188518674043  0.9232114000890483  0.0907868810440706   T   T   T
  0.9342413057479396  0.3390505773385770  0.0985774345510750   T   T   T
  0.0589729691152301  0.5900632246727971  0.0938391156591051   T   T   T
  0.9344861732640501  0.6734971328505325  0.0985587493043520   T   T   T
  0.0588056252417325  0.4227425179143259  0.0934087621794796   T   T   T
  0.9324166207555747  0.8400434754231667  0.0960223202888938   T   T   T
  0.3070976077091179  0.0883864667863132  0.0836683963656200   T   T   T
  0.1815633307980542  0.1717753946927248  0.0864267334309522   T   T   T
  0.1817390809531328  0.3385072123335506  0.0875828696789637   T   T   T
  0.3072810110173709  0.5902868690981399  0.0830913042233884   T   T   T
  0.1824712649763928  0.6739078613171023  0.0888194141154698   T   T   T
  0.3072796688993541  0.4213071914254656  0.0825658166956280   T   T   T
  0.1821701975875573  0.8396956745961708  0.0875158889185481   T   T   T
  0.5556486507409674  0.0910734781117549  0.0944061255719816   T   T   T
  0.4305972323619949  0.1729744761487156  0.0853372916486884   T   T   T
  0.5544923915819334  0.9217364919049271  0.0944232469234304   T   T   T
  0.4298116613718571  0.8387668554752740  0.0861062353432597   T   T   T
  0.8053732397533296  0.0899470178439422  0.0985507312999733   T   T   T
  0.6807390452141826  0.1775369507921863  0.1022998033382343   T   T   T
  0.8055625254796392  0.9220517980341021  0.0981525077298173   T   T   T
  0.6852223319405033  0.3436948246488298  0.1119164551008197   T   T   T
  0.8118025890099380  0.5904590883462293  0.1063396761612655   T   T   T
  0.6855677701694370  0.6685953353377445  0.1109056262830865   T   T   T
  0.8116151719388230  0.4219261292989292  0.1066577169367430   T   T   T
  0.6804555327088371  0.8342112492700359  0.1015637510964832   T   T   T
  0.4279066617788204  0.3364923593396384  0.0830420805659225   T   T   T
  0.4272418064434272  0.6777296449514502  0.0825959533343400   T   T   T
  0.3074596241214387  0.9229667442043352  0.0841526060337762   T   T   T
  0.5288332940895382  0.5067179356316442  0.1368876677554834   T   T   T
 
  0.00000000E+00  0.00000000E+00  0.00000000E+00
  0.00000000E+00  0.00000000E+00  0.00000000E+00
  0.00000000E+00  0.00000000E+00  0.00000000E+00
  0.00000000E+00  0.00000000E+00  0.00000000E+00
  0.00000000E+00  0.00000000E+00  0.00000000E+00
  0.00000000E+00  0.00000000E+00  0.00000000E+00
  0.00000000E+00  0.00000000E+00  0.00000000E+00
  0.00000000E+00  0.00000000E+00  0.00000000E+00
  0.00000000E+00  0.00000000E+00  0.00000000E+00
  0.00000000E+00  0.00000000E+00  0.00000000E+00
  0.00000000E+00  0.00000000E+00  0.00000000E+00
  0.00000000E+00  0.00000000E+00  0.00000000E+00
  0.00000000E+00  0.00000000E+00  0.00000000E+00
  0.00000000E+00  0.00000000E+00  0.00000000E+00
  0.00000000E+00  0.00000000E+00  0.00000000E+00
  0.00000000E+00  0.00000000E+00  0.00000000E+00
  0.00000000E+00  0.00000000E+00  0.00000000E+00
  0.00000000E+00  0.00000000E+00  0.00000000E+00
  0.00000000E+00  0.00000000E+00  0.00000000E+00
  0.00000000E+00  0.00000000E+00  0.00000000E+00
  0.00000000E+00  0.00000000E+00  0.00000000E+00
  0.00000000E+00  0.00000000E+00  0.00000000E+00
  0.00000000E+00  0.00000000E+00  0.00000000E+00
  0.00000000E+00  0.00000000E+00  0.00000000E+00
  0.00000000E+00  0.00000000E+00  0.00000000E+00
  0.00000000E+00  0.00000000E+00  0.00000000E+00
  0.00000000E+00  0.00000000E+00  0.00000000E+00
  0.00000000E+00  0.00000000E+00  0.00000000E+00
  0.00000000E+00  0.00000000E+00  0.00000000E+00
  0.00000000E+00  0.00000000E+00  0.00000000E+00
  0.00000000E+00  0.00000000E+00  0.00000000E+00
