Title                                   
   1.00000000000000     
     4.9440799999999996    0.0000000000000000    0.0000000000000000
     0.0000000000000000   17.1295089999999988    0.0000000000000000
     0.0000000000000000    0.0000000000000000   20.0000000000000000
    29     1     1
Selective dynamics
Direct
 -0.0029155110682291  0.1048637951328425  0.2973033079349077   T   T   T
  0.2458547417678762  0.1472807918974260  0.2976273756779201   T   T   T
  0.2446947555672370  0.2307918211938250  0.2989610129908820   T   T   T
 -0.0070390259913001  0.2725143673793107  0.3004766870312536   T   T   T
  0.0046037912584563  0.6031550469640840  0.2997341841237345   T   T   T
  0.2530673295365796  0.7283197382035363  0.2977101148861044   T   T   T
  0.0007788445931275  0.8540215270240138  0.2970387878861350   T   T   T
  0.2503388416615505  0.8959133780419276  0.2971638253195247   T   T   T
  0.2487929798985208  0.9794128165338767  0.2971572389565728   T   T   T
  0.0022623641528279  0.7704037085530409  0.2971618842120674   T   T   T
  0.4966592132382440  0.1050769274255823  0.2969870690446338   T   T   T
  0.7469570685175253  0.1464229487154723  0.2971101316873510   T   T   T
  0.7448964697717484  0.2300158926550951  0.2979350943034379   T   T   T
  0.4981504981917483  0.0214379924052610  0.2969795335844042   T   T   T
  0.7522166528754530  0.3925346953202128  0.3006625255515404   T   T   T
  0.7585641243863447  0.4791471258717520  0.3012659534680843   T   T   T
  0.4951896887688851  0.2723747253105110  0.2981451947285966   T   T   T
  0.5051335277130135  0.6024095242952869  0.3009845299019308   T   T   T
  0.7527987470982660  0.7287542196389184  0.2974581514224845   T   T   T
  0.5009240068347212  0.8540386088958855  0.2970998216232059   T   T   T
  0.7503825703395518  0.8958784200508663  0.2969796928428098   T   T   T
  0.7487692051019849  0.9795760165970167  0.2969412628315140   T   T   T
  0.5026356242161539  0.7704972017579097  0.2973311152808551   T   T   T
  0.7540648214713122  0.6450500983687153  0.2989362486998920   T   T   T
  0.2546334504462460  0.6450833156293130  0.2994306398307682   T   T   T
 -0.0015338789837431  0.0212847639857783  0.2971069618946745   T   T   T
  0.5105663015272689  0.5195734207338850  0.3050075022261278   T   T   T
  0.0019837849177047  0.5205413078826923  0.3016907854560824   T   T   T
  0.5057138776221759  0.3548224357016304  0.2984717431102138   T   T   T
 -0.0108388543958903  0.3526340460960702  0.3046790746780126   T   T   T
  0.2517009889646399  0.4375113217382600  0.3235225488142300   T   T   T
 
  0.00000000E+00  0.00000000E+00  0.00000000E+00
  0.00000000E+00  0.00000000E+00  0.00000000E+00
  0.00000000E+00  0.00000000E+00  0.00000000E+00
  0.00000000E+00  0.00000000E+00  0.00000000E+00
  0.00000000E+00  0.00000000E+00  0.00000000E+00
  0.00000000E+00  0.00000000E+00  0.00000000E+00
  0.00000000E+00  0.00000000E+00  0.00000000E+00
  0.00000000E+00  0.00000000E+00  0.00000000E+00
  0.00000000E+00  0.00000000E+00  0.00000000E+00
  0.00000000E+00  0.00000000E+00  0.00000000E+00
  0.00000000E+00  0.00000000E+00  0.00000000E+00
  0.00000000E+00  0.00000000E+00  0.00000000E+00
  0.00000000E+00  0.00000000E+00  0.00000000E+00
  0.00000000E+00  0.00000000E+00  0.00000000E+00
  0.00000000E+00  0.00000000E+00  0.00000000E+00
  0.00000000E+00  0.00000000E+00  0.00000000E+00
  0.00000000E+00  0.00000000E+00  0.00000000E+00
  0.00000000E+00  0.00000000E+00  0.00000000E+00
  0.00000000E+00  0.00000000E+00  0.00000000E+00
  0.00000000E+00  0.00000000E+00  0.00000000E+00
  0.00000000E+00  0.00000000E+00  0.00000000E+00
  0.00000000E+00  0.00000000E+00  0.00000000E+00
  0.00000000E+00  0.00000000E+00  0.00000000E+00
  0.00000000E+00  0.00000000E+00  0.00000000E+00
  0.00000000E+00  0.00000000E+00  0.00000000E+00
  0.00000000E+00  0.00000000E+00  0.00000000E+00
  0.00000000E+00  0.00000000E+00  0.00000000E+00
  0.00000000E+00  0.00000000E+00  0.00000000E+00
  0.00000000E+00  0.00000000E+00  0.00000000E+00
  0.00000000E+00  0.00000000E+00  0.00000000E+00
  0.00000000E+00  0.00000000E+00  0.00000000E+00
