Title                                   
   1.00000000000000     
     4.9440799999999996    0.0000000000000000    0.0000000000000000
     0.0000000000000000    8.5647549999999999    0.0000000000000000
     0.0000000000000000    0.0000000000000000   20.0000000000000000
    11     3     1
Selective dynamics
Direct
  0.0004085508385430  0.2908891213513619  0.1003246849147960   T   T   T
  0.2500000000000000  0.0391941285830880  0.1004701611545661   T   T   T
 -0.0036664595797316  0.9578029539092773  0.1005653606753974   T   T   T
  0.7500000000000000  0.2076465710699202  0.1002273183210896   T   T   T
  0.4995914491614570  0.2908891213513619  0.1003246849147960   T   T   T
  0.7500000000000000  0.0413690807744843  0.1003493937675676   T   T   T
  0.7500000000000000  0.7186736095297611  0.1007414620671773   T   T   T
  0.7500000000000000  0.5369909620939071  0.1005081204382412   T   T   T
  0.5036664595797311  0.9578029539092773  0.1005653606753974   T   T   T
  0.5066402498770630  0.4559487516085508  0.1005149598267477   T   T   T
 -0.0066402498770631  0.4559487516085508  0.1005149598267477   T   T   T
 -0.0164709078762702  0.7964438100917921  0.1008022979734215   T   T   T
  0.5164709078762701  0.7964438100917921  0.1008022979734215   T   T   T
  0.2500000000000000  0.2062188105354289  0.1003775679961511   T   T   T
  0.2500000000000000  0.6194185634914489  0.1008913694744855   T   T   T
 
  0.00000000E+00  0.00000000E+00  0.00000000E+00
  0.00000000E+00  0.00000000E+00  0.00000000E+00
  0.00000000E+00  0.00000000E+00  0.00000000E+00
  0.00000000E+00  0.00000000E+00  0.00000000E+00
  0.00000000E+00  0.00000000E+00  0.00000000E+00
  0.00000000E+00  0.00000000E+00  0.00000000E+00
  0.00000000E+00  0.00000000E+00  0.00000000E+00
  0.00000000E+00  0.00000000E+00  0.00000000E+00
  0.00000000E+00  0.00000000E+00  0.00000000E+00
  0.00000000E+00  0.00000000E+00  0.00000000E+00
  0.00000000E+00  0.00000000E+00  0.00000000E+00
  0.00000000E+00  0.00000000E+00  0.00000000E+00
  0.00000000E+00  0.00000000E+00  0.00000000E+00
  0.00000000E+00  0.00000000E+00  0.00000000E+00
  0.00000000E+00  0.00000000E+00  0.00000000E+00
