Title                                   
   1.00000000000000     
     9.8694509999999998    0.0000000000000000    0.0000000000000000
     0.0000000000000000    8.5490480000000009    0.0000000000000000
     0.0000000000000000    0.0000000000000000   20.0000000000000000
    24     6     1
Selective dynamics
Direct
  0.0560704174927502  0.0900435388630535  0.0934461391383510   T   T   T
  0.9309976878649465  0.1730466929579732  0.0975501346846768   T   T   T
  0.0575868244577237  0.9214983328740657  0.0941583759751089   T   T   T
  0.9335659317842094  0.3406869898823256  0.0990286436848834   T   T   T
  0.0575490833531546  0.5908070726104605  0.0953790525261782   T   T   T
  0.0570651857291515  0.4238081776373295  0.0947075163136291   T   T   T
  0.9334805595068385  0.8399688940187902  0.0991568830953044   T   T   T
  0.3078990634624633  0.0872598360240356  0.0880695360394556   T   T   T
  0.1813295493978452  0.1719267012939646  0.0901391809854239   T   T   T
  0.1812960111686830  0.3387745715918369  0.0905237188494677   T   T   T
  0.3072674474533744  0.5894995547895969  0.0839343307833158   T   T   T
  0.1810766033174890  0.6733586785274058  0.0913964006307207   T   T   T
  0.3068599368886062  0.4195726620471615  0.0849952808675173   T   T   T
  0.1828952925561409  0.8396462109832977  0.0906450755351954   T   T   T
  0.4303990823199843  0.1682555919953717  0.0896388347271354   T   T   T
  0.5556091577825302  0.9189480378469574  0.0968070296489718   T   T   T
  0.4308736473322620  0.8406595938951095  0.0872344467585241   T   T   T
  0.8046841707484088  0.0900952118282281  0.0996805832144468   T   T   T
  0.6804666237594277  0.1783448294924643  0.1032017304273802   T   T   T
  0.8061146759278508  0.9208338408700656  0.1006883673320222   T   T   T
  0.6839171744438050  0.3450979169055173  0.1126376073321971   T   T   T
  0.8124242689637121  0.5923490036893522  0.1076990043893915   T   T   T
  0.8109355323671512  0.4252983699003619  0.1065404568968716   T   T   T
  0.6827420787132896  0.8356816596107275  0.1042315533961859   T   T   T
  0.9338549801963208  0.6731814093421375  0.1002805521931047   T   T   T
  0.5570978815788293  0.0918198069171426  0.0969687295151094   T   T   T
  0.4274647111491908  0.3307649590851978  0.0878017676790579   T   T   T
  0.6906498772801064  0.6705963483921110  0.1160491156995810   T   T   T
  0.4271347110403672  0.6787570720725626  0.0796426520076494   T   T   T
  0.3055737777798849  0.9213347458308804  0.0872378522611551   T   T   T
  0.5282530541835113  0.5089586882245272  0.1314944474120238   T   T   T
 
  0.00000000E+00  0.00000000E+00  0.00000000E+00
  0.00000000E+00  0.00000000E+00  0.00000000E+00
  0.00000000E+00  0.00000000E+00  0.00000000E+00
  0.00000000E+00  0.00000000E+00  0.00000000E+00
  0.00000000E+00  0.00000000E+00  0.00000000E+00
  0.00000000E+00  0.00000000E+00  0.00000000E+00
  0.00000000E+00  0.00000000E+00  0.00000000E+00
  0.00000000E+00  0.00000000E+00  0.00000000E+00
  0.00000000E+00  0.00000000E+00  0.00000000E+00
  0.00000000E+00  0.00000000E+00  0.00000000E+00
  0.00000000E+00  0.00000000E+00  0.00000000E+00
  0.00000000E+00  0.00000000E+00  0.00000000E+00
  0.00000000E+00  0.00000000E+00  0.00000000E+00
  0.00000000E+00  0.00000000E+00  0.00000000E+00
  0.00000000E+00  0.00000000E+00  0.00000000E+00
  0.00000000E+00  0.00000000E+00  0.00000000E+00
  0.00000000E+00  0.00000000E+00  0.00000000E+00
  0.00000000E+00  0.00000000E+00  0.00000000E+00
  0.00000000E+00  0.00000000E+00  0.00000000E+00
  0.00000000E+00  0.00000000E+00  0.00000000E+00
  0.00000000E+00  0.00000000E+00  0.00000000E+00
  0.00000000E+00  0.00000000E+00  0.00000000E+00
  0.00000000E+00  0.00000000E+00  0.00000000E+00
  0.00000000E+00  0.00000000E+00  0.00000000E+00
  0.00000000E+00  0.00000000E+00  0.00000000E+00
  0.00000000E+00  0.00000000E+00  0.00000000E+00
  0.00000000E+00  0.00000000E+00  0.00000000E+00
  0.00000000E+00  0.00000000E+00  0.00000000E+00
  0.00000000E+00  0.00000000E+00  0.00000000E+00
  0.00000000E+00  0.00000000E+00  0.00000000E+00
  0.00000000E+00  0.00000000E+00  0.00000000E+00
