Title                                   
   1.00000000000000     
     4.9440799999999996    0.0000000000000000    0.0000000000000000
     0.0000000000000000    8.5647549999999999    0.0000000000000000
     0.0000000000000000    0.0000000000000000   20.0000000000000000
    12     3     1
Selective dynamics
Direct
  0.2500000000000000  0.2126667357732757  0.0931953180988456   T   T   T
 -0.0051978498611371  0.2940245033056003  0.0941864701873706   T   T   T
  0.2500000000000000  0.0452039928111208  0.0916226388601183   T   T   T
  0.0046890379092668  0.7931163588903967  0.0986396527672113   T   T   T
  0.0003325251269456  0.9598820523055743  0.0914523249554576   T   T   T
  0.7500000000000000  0.2073073725138811  0.0894365583641159   T   T   T
  0.5051978498611371  0.2940245033056003  0.0941864701873706   T   T   T
  0.7500000000000000  0.0412075370032417  0.0885224674929521   T   T   T
  0.7500000000000000  0.7048967038547028  0.0995058129064341   T   T   T
  0.4953109620907332  0.7931163588903967  0.0986396527672113   T   T   T
  0.7500000000000000  0.5323949820609568  0.1001800379829636   T   T   T
  0.4996674748730545  0.9598820523055743  0.0914523249554576   T   T   T
  0.5130150393667363  0.4521943301163686  0.1007838961709247   T   T   T
 -0.0130150393667361  0.4521943301163686  0.1007838961709247   T   T   T
  0.2500000000000000  0.7211665751059712  0.1070182622687756   T   T   T
  0.2500000000000000  0.5367216116409693  0.1829062158638744   T   T   T
 
  0.00000000E+00  0.00000000E+00  0.00000000E+00
  0.00000000E+00  0.00000000E+00  0.00000000E+00
  0.00000000E+00  0.00000000E+00  0.00000000E+00
  0.00000000E+00  0.00000000E+00  0.00000000E+00
  0.00000000E+00  0.00000000E+00  0.00000000E+00
  0.00000000E+00  0.00000000E+00  0.00000000E+00
  0.00000000E+00  0.00000000E+00  0.00000000E+00
  0.00000000E+00  0.00000000E+00  0.00000000E+00
  0.00000000E+00  0.00000000E+00  0.00000000E+00
  0.00000000E+00  0.00000000E+00  0.00000000E+00
  0.00000000E+00  0.00000000E+00  0.00000000E+00
  0.00000000E+00  0.00000000E+00  0.00000000E+00
  0.00000000E+00  0.00000000E+00  0.00000000E+00
  0.00000000E+00  0.00000000E+00  0.00000000E+00
  0.00000000E+00  0.00000000E+00  0.00000000E+00
  0.00000000E+00  0.00000000E+00  0.00000000E+00
