Title                                   
   1.00000000000000     
     8.5490480000000009    0.0000000000000000    0.0000000000000000
     0.0000000000000000    8.5490480000000009    0.0000000000000000
     0.0000000000000000    0.0000000000000000   20.0000000000000000
    17     7     1
Selective dynamics
Direct
  0.9078228026244461  0.2053947035957937  0.0973677805963168   T   T   T
  0.9109848032490244  0.8010721677442205  0.0975079444366120   T   T   T
  0.1966619439930487  0.0829421976531722  0.0976105515948392   T   T   T
  0.0764596302438302  0.2004335845376470  0.0975133244804848   T   T   T
  0.1562563001664961  0.6515357022618132  0.0977923754722551   T   T   T
  0.0783543795491116  0.5007443892811633  0.0978211628644248   T   T   T
  0.1559970387711218  0.3496611026868951  0.0978443504105737   T   T   T
  0.0789692315612169  0.7993915954924161  0.0975397142908935   T   T   T
  0.3436701086575831  0.1643475227054658  0.0978918255582638   T   T   T
  0.4919983331716816  0.9171798414644072  0.0978086962305405   T   T   T
  0.3441966347316842  0.8386771703985828  0.0978148322451159   T   T   T
  0.7878778357271695  0.0870181224792836  0.0973783426663500   T   T   T
  0.6415270285134465  0.1675014181758866  0.0976645963202894   T   T   T
  0.7902502975543060  0.9184328486146758  0.0974722562764856   T   T   T
  0.8304457105006728  0.6513337334589956  0.0977655581966322   T   T   T
  0.8285843027438676  0.3532576389067152  0.0976368702692148   T   T   T
  0.6433735234550468  0.8380918990076821  0.0977777724316211   T   T   T
  0.4933828355683731  0.0900612901267328  0.0978660860349310   T   T   T
  0.9062455131809285  0.5022506082980425  0.0978162470796567   T   T   T
  0.3193993516432511  0.3249413989693636  0.0981280539473185   T   T   T
  0.3200534354425308  0.6774222191609367  0.0980013064935014   T   T   T
  0.6654988515354376  0.3302198711368410  0.0978906631872493   T   T   T
  0.6694343662870866  0.6745878417623863  0.0979843932445008   T   T   T
  0.1958971836441491  0.9154287969260745  0.0976062249828427   T   T   T
  0.4920705574844832  0.5028623351548054  0.0982040706890663   T   T   T
 
  0.00000000E+00  0.00000000E+00  0.00000000E+00
  0.00000000E+00  0.00000000E+00  0.00000000E+00
  0.00000000E+00  0.00000000E+00  0.00000000E+00
  0.00000000E+00  0.00000000E+00  0.00000000E+00
  0.00000000E+00  0.00000000E+00  0.00000000E+00
  0.00000000E+00  0.00000000E+00  0.00000000E+00
  0.00000000E+00  0.00000000E+00  0.00000000E+00
  0.00000000E+00  0.00000000E+00  0.00000000E+00
  0.00000000E+00  0.00000000E+00  0.00000000E+00
  0.00000000E+00  0.00000000E+00  0.00000000E+00
  0.00000000E+00  0.00000000E+00  0.00000000E+00
  0.00000000E+00  0.00000000E+00  0.00000000E+00
  0.00000000E+00  0.00000000E+00  0.00000000E+00
  0.00000000E+00  0.00000000E+00  0.00000000E+00
  0.00000000E+00  0.00000000E+00  0.00000000E+00
  0.00000000E+00  0.00000000E+00  0.00000000E+00
  0.00000000E+00  0.00000000E+00  0.00000000E+00
  0.00000000E+00  0.00000000E+00  0.00000000E+00
  0.00000000E+00  0.00000000E+00  0.00000000E+00
  0.00000000E+00  0.00000000E+00  0.00000000E+00
  0.00000000E+00  0.00000000E+00  0.00000000E+00
  0.00000000E+00  0.00000000E+00  0.00000000E+00
  0.00000000E+00  0.00000000E+00  0.00000000E+00
  0.00000000E+00  0.00000000E+00  0.00000000E+00
  0.00000000E+00  0.00000000E+00  0.00000000E+00
