Title                                   
   1.00000000000000     
     9.8694509999999998    0.0000000000000000    0.0000000000000000
     0.0000000000000000    8.5490480000000009    0.0000000000000000
     0.0000000000000000    0.0000000000000000   20.0000000000000000
    29     2     1
Selective dynamics
Direct
  0.0558248025743555  0.0921135536552179  0.0809719747971249   T   T   T
  0.9309253440056025  0.1741552404709293  0.0851061803407770   T   T   T
  0.0571437775853786  0.9244729285550000  0.0796321228887736   T   T   T
  0.9295845159254279  0.3413256222159519  0.0924930191722591   T   T   T
  0.0565427211018588  0.5898531566690310  0.0848484738562024   T   T   T
  0.9326249465810179  0.6728297223080543  0.0888605371774161   T   T   T
  0.0565247276301577  0.4234365233780930  0.0877766183619870   T   T   T
  0.9323829393212092  0.8394539065297383  0.0830057801496027   T   T   T
  0.3054988134839502  0.0883156016710318  0.0840859194474550   T   T   T
  0.1815792233265586  0.1734904371280861  0.0836415509433039   T   T   T
  0.1829335979281288  0.3415018634080167  0.0882851583972288   T   T   T
  0.3035472286766658  0.5933372017412211  0.0976406595016508   T   T   T
  0.1809731182958407  0.6741813568008922  0.0846478929833341   T   T   T
  0.3077589016187874  0.4245294174266173  0.0984294705901529   T   T   T
  0.1808773376251465  0.8411980233966255  0.0821940117009035   T   T   T
  0.5557770243495305  0.0844603192119703  0.0920277923407812   T   T   T
  0.4305582436856122  0.1679776031263783  0.0900906560225856   T   T   T
  0.5545903036615565  0.9190134482738300  0.0977890706105878   T   T   T
  0.4311928145402361  0.3315522799633797  0.1053774781167281   T   T   T
  0.5529738339986445  0.3944444024136706  0.1294158246762918   T   T   T
  0.4251167753353399  0.8395919543565836  0.0982128597661822   T   T   T
  0.8067514691149964  0.0891130045942366  0.0849853930385862   T   T   T
  0.6817181534746097  0.1692183781702207  0.0934492793483597   T   T   T
  0.8073803398418190  0.9229307406533421  0.0850749031704434   T   T   T
  0.6805465528382868  0.3307839047284664  0.1113668937478942   T   T   T
  0.8119739801820115  0.5931845693783923  0.1092145859305363   T   T   T
  0.7011565960034788  0.6890574746370952  0.1276707120208648   T   T   T
  0.8067840726250126  0.4221923017663335  0.1077068419800301   T   T   T
  0.6857465210418193  0.8402831313087473  0.1021991615809061   T   T   T
  0.4142072833939225  0.6856279218360587  0.1120435009720264   T   T   T
  0.3048807788680866  0.9243068915315700  0.0849142835062932   T   T   T
  0.5535622613649561  0.5923131186952074  0.1705163928627759   T   T   T
 
  0.00000000E+00  0.00000000E+00  0.00000000E+00
  0.00000000E+00  0.00000000E+00  0.00000000E+00
  0.00000000E+00  0.00000000E+00  0.00000000E+00
  0.00000000E+00  0.00000000E+00  0.00000000E+00
  0.00000000E+00  0.00000000E+00  0.00000000E+00
  0.00000000E+00  0.00000000E+00  0.00000000E+00
  0.00000000E+00  0.00000000E+00  0.00000000E+00
  0.00000000E+00  0.00000000E+00  0.00000000E+00
  0.00000000E+00  0.00000000E+00  0.00000000E+00
  0.00000000E+00  0.00000000E+00  0.00000000E+00
  0.00000000E+00  0.00000000E+00  0.00000000E+00
  0.00000000E+00  0.00000000E+00  0.00000000E+00
  0.00000000E+00  0.00000000E+00  0.00000000E+00
  0.00000000E+00  0.00000000E+00  0.00000000E+00
  0.00000000E+00  0.00000000E+00  0.00000000E+00
  0.00000000E+00  0.00000000E+00  0.00000000E+00
  0.00000000E+00  0.00000000E+00  0.00000000E+00
  0.00000000E+00  0.00000000E+00  0.00000000E+00
  0.00000000E+00  0.00000000E+00  0.00000000E+00
  0.00000000E+00  0.00000000E+00  0.00000000E+00
  0.00000000E+00  0.00000000E+00  0.00000000E+00
  0.00000000E+00  0.00000000E+00  0.00000000E+00
  0.00000000E+00  0.00000000E+00  0.00000000E+00
  0.00000000E+00  0.00000000E+00  0.00000000E+00
  0.00000000E+00  0.00000000E+00  0.00000000E+00
  0.00000000E+00  0.00000000E+00  0.00000000E+00
  0.00000000E+00  0.00000000E+00  0.00000000E+00
  0.00000000E+00  0.00000000E+00  0.00000000E+00
  0.00000000E+00  0.00000000E+00  0.00000000E+00
  0.00000000E+00  0.00000000E+00  0.00000000E+00
  0.00000000E+00  0.00000000E+00  0.00000000E+00
  0.00000000E+00  0.00000000E+00  0.00000000E+00
