Title                                   
   1.00000000000000     
     8.5490480000000009    0.0000000000000000    0.0000000000000000
     0.0000000000000000    8.5490480000000009    0.0000000000000000
     0.0000000000000000    0.0000000000000000   20.0000000000000000
    21     3     1
Selective dynamics
Direct
  0.9101075840954371  0.2055132462282613  0.0913304718920408   T   T   T
  0.9129927759893119  0.8025514321905024  0.0922965583723855   T   T   T
  0.1960705612032405  0.0807769983505383  0.0934821579142996   T   T   T
  0.0724538949292373  0.2003143427382451  0.0920346413748925   T   T   T
  0.1552202828750565  0.6498876545930566  0.0951527242612226   T   T   T
  0.0735795082129347  0.5026152216413272  0.0959784075966676   T   T   T
  0.1532748387284339  0.3532732477533579  0.0969614006866293   T   T   T
  0.0788261227296306  0.7998074979832264  0.0920079968650760   T   T   T
  0.4940939297906153  0.0838203843607788  0.0977471218343988   T   T   T
  0.3421944472290046  0.1611351707559611  0.0983568813624693   T   T   T
  0.4947734294956981  0.9144390281372989  0.0968157208000634   T   T   T
  0.3456353891947448  0.8332561599296958  0.0958829423422892   T   T   T
  0.7874357040048058  0.0856647587703036  0.0931316809733375   T   T   T
  0.6401966717046252  0.1657116887746124  0.0971162466245093   T   T   T
  0.7908713727623207  0.9200898932757687  0.0933889846600606   T   T   T
  0.8320284704457200  0.6536576293599048  0.0953824941524554   T   T   T
  0.8272043049340713  0.3578192603692374  0.0944965245447315   T   T   T
  0.6442513293677439  0.8358294140666044  0.0969368998311547   T   T   T
  0.3159403085365583  0.3287612214803039  0.1042827891314324   T   T   T
  0.3207536620624342  0.6721138397569113  0.0981472603460837   T   T   T
  0.6664714657780686  0.3356055081044538  0.1006517418924840   T   T   T
  0.9081262021249724  0.5054546944297057  0.0950752517608561   T   T   T
  0.6731019510745591  0.6740198695483256  0.1000163884168524   T   T   T
  0.1963330942060295  0.9158316996239968  0.0922132288451197   T   T   T
  0.4934746985247387  0.5068401377776360  0.1498184835184706   T   T   T
 
  0.00000000E+00  0.00000000E+00  0.00000000E+00
  0.00000000E+00  0.00000000E+00  0.00000000E+00
  0.00000000E+00  0.00000000E+00  0.00000000E+00
  0.00000000E+00  0.00000000E+00  0.00000000E+00
  0.00000000E+00  0.00000000E+00  0.00000000E+00
  0.00000000E+00  0.00000000E+00  0.00000000E+00
  0.00000000E+00  0.00000000E+00  0.00000000E+00
  0.00000000E+00  0.00000000E+00  0.00000000E+00
  0.00000000E+00  0.00000000E+00  0.00000000E+00
  0.00000000E+00  0.00000000E+00  0.00000000E+00
  0.00000000E+00  0.00000000E+00  0.00000000E+00
  0.00000000E+00  0.00000000E+00  0.00000000E+00
  0.00000000E+00  0.00000000E+00  0.00000000E+00
  0.00000000E+00  0.00000000E+00  0.00000000E+00
  0.00000000E+00  0.00000000E+00  0.00000000E+00
  0.00000000E+00  0.00000000E+00  0.00000000E+00
  0.00000000E+00  0.00000000E+00  0.00000000E+00
  0.00000000E+00  0.00000000E+00  0.00000000E+00
  0.00000000E+00  0.00000000E+00  0.00000000E+00
  0.00000000E+00  0.00000000E+00  0.00000000E+00
  0.00000000E+00  0.00000000E+00  0.00000000E+00
  0.00000000E+00  0.00000000E+00  0.00000000E+00
  0.00000000E+00  0.00000000E+00  0.00000000E+00
  0.00000000E+00  0.00000000E+00  0.00000000E+00
  0.00000000E+00  0.00000000E+00  0.00000000E+00
