Title                                   
   1.00000000000000     
     4.9440799999999996    0.0000000000000000    0.0000000000000000
     0.0000000000000000   17.1295089999999988    0.0000000000000000
     0.0000000000000000    0.0000000000000000   20.0000000000000000
    26     4     1
Selective dynamics
Direct
  0.0031527900658037  0.1057967454989212  0.2927650105746071   T   T   T
  0.2529277465487629  0.1485327647204181  0.2947608596971656   T   T   T
  0.2543232214683505  0.2333478526510540  0.2989815585774215   T   T   T
  0.0012830370042424  0.2743103114629497  0.2977694250844923   T   T   T
 -0.0037951304858672  0.6011375071775328  0.2980976400368350   T   T   T
  0.2479532412275624  0.7263534949896356  0.2948364552658828   T   T   T
  0.0012353575182263  0.8529643509256861  0.2916964590215361   T   T   T
  0.2502491580528593  0.8951886001522052  0.2919566975011029   T   T   T
  0.2512206250487926  0.9794488960540166  0.2920725689452340   T   T   T
  0.0006964209028493  0.7686130828643033  0.2926734515331698   T   T   T
  0.5013664223260089  0.1056541272357675  0.2934243891694229   T   T   T
  0.7522415485426855  0.1477063628527653  0.2932368436169567   T   T   T
  0.7531317009871086  0.2310483633006233  0.2956735211861223   T   T   T
  0.5011021928681851  0.0215420711697929  0.2922671976072800   T   T   T
  0.7566800709725078  0.3946179583615904  0.3061287411143717   T   T   T
  0.7535870392002050  0.4803090196348870  0.3079282443290976   T   T   T
  0.5073970599080129  0.2749057806698763  0.3025131693484865   T   T   T
  0.4987236623338838  0.6005617477554442  0.3028271021758024   T   T   T
  0.7494043370016277  0.7270284866481641  0.2929076667410131   T   T   T
  0.4986629308236131  0.8526736528208960  0.2920599876474055   T   T   T
  0.7503273797284519  0.8949947376440504  0.2914568541785844   T   T   T
  0.7511416861561495  0.9790683451231836  0.2916326577088403   T   T   T
  0.4974200114446794  0.7684574004265461  0.2932587485014427   T   T   T
  0.7477383250712581  0.6447379118631054  0.2949626948176820   T   T   T
  0.0019153795769204  0.0216348552588888  0.2919121607696027   T   T   T
  0.5057675667461156  0.5211161386717305  0.3166151984674823   T   T   T
  0.9976800116694995  0.5224310910267700  0.3023585852090158   T   T   T
  0.5160934471321282  0.3541102374845621  0.3146469574570942   T   T   T
 -0.0046560705783686  0.3542927686875509  0.2993344133498754   T   T   T
  0.2459118085343251  0.6427312449881490  0.2992465704484925   T   T   T
  0.2191240222034218  0.4360260918789313  0.3650581699184343   T   T   T
 
  0.00000000E+00  0.00000000E+00  0.00000000E+00
  0.00000000E+00  0.00000000E+00  0.00000000E+00
  0.00000000E+00  0.00000000E+00  0.00000000E+00
  0.00000000E+00  0.00000000E+00  0.00000000E+00
  0.00000000E+00  0.00000000E+00  0.00000000E+00
  0.00000000E+00  0.00000000E+00  0.00000000E+00
  0.00000000E+00  0.00000000E+00  0.00000000E+00
  0.00000000E+00  0.00000000E+00  0.00000000E+00
  0.00000000E+00  0.00000000E+00  0.00000000E+00
  0.00000000E+00  0.00000000E+00  0.00000000E+00
  0.00000000E+00  0.00000000E+00  0.00000000E+00
  0.00000000E+00  0.00000000E+00  0.00000000E+00
  0.00000000E+00  0.00000000E+00  0.00000000E+00
  0.00000000E+00  0.00000000E+00  0.00000000E+00
  0.00000000E+00  0.00000000E+00  0.00000000E+00
  0.00000000E+00  0.00000000E+00  0.00000000E+00
  0.00000000E+00  0.00000000E+00  0.00000000E+00
  0.00000000E+00  0.00000000E+00  0.00000000E+00
  0.00000000E+00  0.00000000E+00  0.00000000E+00
  0.00000000E+00  0.00000000E+00  0.00000000E+00
  0.00000000E+00  0.00000000E+00  0.00000000E+00
  0.00000000E+00  0.00000000E+00  0.00000000E+00
  0.00000000E+00  0.00000000E+00  0.00000000E+00
  0.00000000E+00  0.00000000E+00  0.00000000E+00
  0.00000000E+00  0.00000000E+00  0.00000000E+00
  0.00000000E+00  0.00000000E+00  0.00000000E+00
  0.00000000E+00  0.00000000E+00  0.00000000E+00
  0.00000000E+00  0.00000000E+00  0.00000000E+00
  0.00000000E+00  0.00000000E+00  0.00000000E+00
  0.00000000E+00  0.00000000E+00  0.00000000E+00
  0.00000000E+00  0.00000000E+00  0.00000000E+00
