Title                                   
   1.00000000000000     
     9.8694509999999998    0.0000000000000000    0.0000000000000000
     0.0000000000000000    8.5490480000000009    0.0000000000000000
     0.0000000000000000    0.0000000000000000   20.0000000000000000
    27     4     1
Selective dynamics
Direct
  0.0557454953506239  0.0907908957965860  0.0819528075078411   T   T   T
  0.9309589227434064  0.1750418886536214  0.0823717855876386   T   T   T
  0.0571613554037951  0.9229405110239713  0.0827389330219179   T   T   T
  0.9300082588219682  0.3423857724426139  0.0850582282416054   T   T   T
  0.0560111321996927  0.5913396901655457  0.0851564851473086   T   T   T
  0.0555603702308060  0.4248173343535329  0.0848739879569771   T   T   T
  0.9333191623927876  0.8397470933993859  0.0848087022093597   T   T   T
  0.3055677288129389  0.0876567999543045  0.0879062636850283   T   T   T
  0.1818632856933223  0.1724531792857973  0.0849872629444127   T   T   T
  0.1815189123703018  0.3401397093389359  0.0880024902145740   T   T   T
  0.3012660747424613  0.5877937342834207  0.1043622727198192   T   T   T
  0.1802625651880230  0.6740701422218314  0.0902618406735069   T   T   T
  0.3053922605898384  0.4202739847882035  0.1008323876750808   T   T   T
  0.1827008850304940  0.8408420074764810  0.0867820860060986   T   T   T
  0.5560882258874787  0.0859176148628688  0.0922123473300693   T   T   T
  0.5559634948512947  0.9197422283095781  0.0987701413279320   T   T   T
  0.4292229039899571  0.3299217930689775  0.1069845147900446   T   T   T
  0.4264428619061839  0.8404812376867492  0.1051057991452182   T   T   T
  0.8065570065712080  0.0892202893587875  0.0838302947318999   T   T   T
  0.6799442430667371  0.1712403370821274  0.0893238336284005   T   T   T
  0.8078595768805945  0.9237146264508389  0.0868040451792516   T   T   T
  0.6816624775561745  0.3362342800547238  0.1001278822601821   T   T   T
  0.8100670982722256  0.5949157340722746  0.0983473005457423   T   T   T
  0.8051014135205639  0.4260818777377545  0.0946888075262845   T   T   T
  0.6847926716390217  0.8420083800342185  0.0986900178958666   T   T   T
  0.4153607581785698  0.6819912080028702  0.1228757471097268   T   T   T
  0.5552069428160550  0.4005552610154642  0.1215611719359101   T   T   T
  0.7002006050068685  0.6839218973125177  0.1156449839561762   T   T   T
  0.3053700300368507  0.9240194039009278  0.0899875178917753   T   T   T
  0.4290423349960225  0.1656789153583324  0.0936922664750652   T   T   T
  0.9323633436515351  0.6745343531224569  0.0859997665695177   T   T   T
  0.5610566016022045  0.5897738193843026  0.1709330281097845   T   T   T
 
  0.00000000E+00  0.00000000E+00  0.00000000E+00
  0.00000000E+00  0.00000000E+00  0.00000000E+00
  0.00000000E+00  0.00000000E+00  0.00000000E+00
  0.00000000E+00  0.00000000E+00  0.00000000E+00
  0.00000000E+00  0.00000000E+00  0.00000000E+00
  0.00000000E+00  0.00000000E+00  0.00000000E+00
  0.00000000E+00  0.00000000E+00  0.00000000E+00
  0.00000000E+00  0.00000000E+00  0.00000000E+00
  0.00000000E+00  0.00000000E+00  0.00000000E+00
  0.00000000E+00  0.00000000E+00  0.00000000E+00
  0.00000000E+00  0.00000000E+00  0.00000000E+00
  0.00000000E+00  0.00000000E+00  0.00000000E+00
  0.00000000E+00  0.00000000E+00  0.00000000E+00
  0.00000000E+00  0.00000000E+00  0.00000000E+00
  0.00000000E+00  0.00000000E+00  0.00000000E+00
  0.00000000E+00  0.00000000E+00  0.00000000E+00
  0.00000000E+00  0.00000000E+00  0.00000000E+00
  0.00000000E+00  0.00000000E+00  0.00000000E+00
  0.00000000E+00  0.00000000E+00  0.00000000E+00
  0.00000000E+00  0.00000000E+00  0.00000000E+00
  0.00000000E+00  0.00000000E+00  0.00000000E+00
  0.00000000E+00  0.00000000E+00  0.00000000E+00
  0.00000000E+00  0.00000000E+00  0.00000000E+00
  0.00000000E+00  0.00000000E+00  0.00000000E+00
  0.00000000E+00  0.00000000E+00  0.00000000E+00
  0.00000000E+00  0.00000000E+00  0.00000000E+00
  0.00000000E+00  0.00000000E+00  0.00000000E+00
  0.00000000E+00  0.00000000E+00  0.00000000E+00
  0.00000000E+00  0.00000000E+00  0.00000000E+00
  0.00000000E+00  0.00000000E+00  0.00000000E+00
  0.00000000E+00  0.00000000E+00  0.00000000E+00
  0.00000000E+00  0.00000000E+00  0.00000000E+00
