Title                                   
   1.00000000000000     
     8.5490480000000009    0.0000000000000000    0.0000000000000000
     0.0000000000000000    8.5490480000000009    0.0000000000000000
     0.0000000000000000    0.0000000000000000   20.0000000000000000
    19     5     1
Selective dynamics
Direct
  0.9077761759349950  0.2066645700591736  0.0940297308761049   T   T   T
  0.9116509177912397  0.8010677187970621  0.0962577241747127   T   T   T
  0.1965020247037776  0.0824101920189433  0.0963932764566801   T   T   T
  0.0757362154080811  0.2009208505429501  0.0964185829438199   T   T   T
  0.1572874263584545  0.6493287957279378  0.0951647967457582   T   T   T
  0.0773893734106423  0.5002144236232254  0.0973975557797235   T   T   T
  0.1559113093276844  0.3499246556053843  0.0993275913547502   T   T   T
  0.0794834184228071  0.7988712651495392  0.0946684335978417   T   T   T
  0.3432894052857652  0.1634260924710657  0.0989260609713381   T   T   T
  0.4933021822198765  0.9186560887800236  0.0974986854789957   T   T   T
  0.3456990492049613  0.8373735818855044  0.0952814439008879   T   T   T
  0.7869648862848516  0.0868621371701680  0.0940206375662985   T   T   T
  0.6377848066675819  0.1679146345527894  0.0948670983439359   T   T   T
  0.7901541049368586  0.9198197877483887  0.0963441808224541   T   T   T
  0.8310689756633606  0.6521332823965581  0.0988414250558775   T   T   T
  0.8277191616703865  0.3562603900042808  0.0948982020250794   T   T   T
  0.6428184554033487  0.8387779315578090  0.0992968079702739   T   T   T
  0.3236596262418546  0.6734769668564510  0.0952861187480702   T   T   T
  0.6605051925130406  0.3346341892356451  0.0961952374629372   T   T   T
  0.4928139398247186  0.0871632424284876  0.0971091896515672   T   T   T
  0.9082429506312089  0.5027566294028343  0.0971326820630122   T   T   T
  0.3205241499708913  0.3252887520912858  0.1033535105403046   T   T   T
  0.6688731570684563  0.6740993483589459  0.1034600718169123   T   T   T
  0.1964826298853064  0.9156523343912450  0.0944640564756451   T   T   T
  0.4937724651698366  0.5010921391443148  0.1170718991769988   T   T   T
 
  0.00000000E+00  0.00000000E+00  0.00000000E+00
  0.00000000E+00  0.00000000E+00  0.00000000E+00
  0.00000000E+00  0.00000000E+00  0.00000000E+00
  0.00000000E+00  0.00000000E+00  0.00000000E+00
  0.00000000E+00  0.00000000E+00  0.00000000E+00
  0.00000000E+00  0.00000000E+00  0.00000000E+00
  0.00000000E+00  0.00000000E+00  0.00000000E+00
  0.00000000E+00  0.00000000E+00  0.00000000E+00
  0.00000000E+00  0.00000000E+00  0.00000000E+00
  0.00000000E+00  0.00000000E+00  0.00000000E+00
  0.00000000E+00  0.00000000E+00  0.00000000E+00
  0.00000000E+00  0.00000000E+00  0.00000000E+00
  0.00000000E+00  0.00000000E+00  0.00000000E+00
  0.00000000E+00  0.00000000E+00  0.00000000E+00
  0.00000000E+00  0.00000000E+00  0.00000000E+00
  0.00000000E+00  0.00000000E+00  0.00000000E+00
  0.00000000E+00  0.00000000E+00  0.00000000E+00
  0.00000000E+00  0.00000000E+00  0.00000000E+00
  0.00000000E+00  0.00000000E+00  0.00000000E+00
  0.00000000E+00  0.00000000E+00  0.00000000E+00
  0.00000000E+00  0.00000000E+00  0.00000000E+00
  0.00000000E+00  0.00000000E+00  0.00000000E+00
  0.00000000E+00  0.00000000E+00  0.00000000E+00
  0.00000000E+00  0.00000000E+00  0.00000000E+00
  0.00000000E+00  0.00000000E+00  0.00000000E+00
