Title                                   
   1.00000000000000     
     8.5490480000000009    0.0000000000000000    0.0000000000000000
     0.0000000000000000    8.5490480000000009    0.0000000000000000
     0.0000000000000000    0.0000000000000000   20.0000000000000000
    20     4     1
Selective dynamics
Direct
  0.9085636697796198  0.2061845854888573  0.0973124533195476   T   T   T
  0.9060292477068689  0.5035947444192107  0.0976052844792978   T   T   T
  0.9110499493058650  0.8027089508100218  0.0970783707365562   T   T   T
  0.1982527547570695  0.0828833015430340  0.0971534843683537   T   T   T
  0.0748640686505824  0.2039750584462950  0.0971190722886055   T   T   T
  0.1558215246333710  0.6523658025091502  0.0977315948339163   T   T   T
  0.0755197309130715  0.5019668852964195  0.0975720609144859   T   T   T
  0.1551459286654940  0.3538148215263722  0.0974932854825516   T   T   T
  0.0785074563038337  0.7990550406790090  0.0972808435740599   T   T   T
  0.4934289179011695  0.0836712628506993  0.0976487105475583   T   T   T
  0.3455209055290056  0.1617962892675658  0.0975263965134681   T   T   T
  0.4931971676973155  0.9145190552321173  0.0975279859780584   T   T   T
  0.3435583911378723  0.8358472707893556  0.0977862249209818   T   T   T
  0.7878319803678467  0.0861775918387305  0.0973256439493404   T   T   T
  0.6411207237854726  0.1645926921031320  0.0979289200883055   T   T   T
  0.7897558394830576  0.9202034190561643  0.0970670330818356   T   T   T
  0.8304617471997210  0.6541769164931259  0.0974320868775177   T   T   T
  0.8276066991440539  0.3537572102716836  0.0978740218991223   T   T   T
  0.6429175819142948  0.8369101506784624  0.0973970736436902   T   T   T
  0.3229429627381409  0.3304911947540299  0.0982728930492455   T   T   T
  0.3179182372570327  0.6771398983692858  0.0984382047402488   T   T   T
  0.6645753957051600  0.3280303684505035  0.0987986490508286   T   T   T
  0.6694764720308188  0.6772877232837566  0.0978508113880981   T   T   T
  0.1984122631038376  0.9167264547549633  0.0973519366783452   T   T   T
  0.4929323842894175  0.4969133110880742  0.1011319575959538   T   T   T
 
  0.00000000E+00  0.00000000E+00  0.00000000E+00
  0.00000000E+00  0.00000000E+00  0.00000000E+00
  0.00000000E+00  0.00000000E+00  0.00000000E+00
  0.00000000E+00  0.00000000E+00  0.00000000E+00
  0.00000000E+00  0.00000000E+00  0.00000000E+00
  0.00000000E+00  0.00000000E+00  0.00000000E+00
  0.00000000E+00  0.00000000E+00  0.00000000E+00
  0.00000000E+00  0.00000000E+00  0.00000000E+00
  0.00000000E+00  0.00000000E+00  0.00000000E+00
  0.00000000E+00  0.00000000E+00  0.00000000E+00
  0.00000000E+00  0.00000000E+00  0.00000000E+00
  0.00000000E+00  0.00000000E+00  0.00000000E+00
  0.00000000E+00  0.00000000E+00  0.00000000E+00
  0.00000000E+00  0.00000000E+00  0.00000000E+00
  0.00000000E+00  0.00000000E+00  0.00000000E+00
  0.00000000E+00  0.00000000E+00  0.00000000E+00
  0.00000000E+00  0.00000000E+00  0.00000000E+00
  0.00000000E+00  0.00000000E+00  0.00000000E+00
  0.00000000E+00  0.00000000E+00  0.00000000E+00
  0.00000000E+00  0.00000000E+00  0.00000000E+00
  0.00000000E+00  0.00000000E+00  0.00000000E+00
  0.00000000E+00  0.00000000E+00  0.00000000E+00
  0.00000000E+00  0.00000000E+00  0.00000000E+00
  0.00000000E+00  0.00000000E+00  0.00000000E+00
  0.00000000E+00  0.00000000E+00  0.00000000E+00
