Title                                   
   1.00000000000000     
     9.8694509999999998    0.0000000000000000    0.0000000000000000
     0.0000000000000000    8.5490480000000009    0.0000000000000000
     0.0000000000000000    0.0000000000000000   20.0000000000000000
    28     3     1
Selective dynamics
Direct
  0.0566577580690481  0.0921545581725804  0.0819674739659976   T   T   T
  0.9313055476785795  0.1746551496017248  0.0865180828522308   T   T   T
  0.0571427614691210  0.9241174048511932  0.0789613556423281   T   T   T
  0.9299787082381906  0.3417977128526465  0.0925698330033998   T   T   T
  0.0555724823497106  0.5897716784314891  0.0861603589934437   T   T   T
  0.9322038227113634  0.6731298823317681  0.0863616169852452   T   T   T
  0.0570159428196224  0.4236077557264708  0.0910866243583731   T   T   T
  0.9321329339733054  0.8404824502203664  0.0819439385532121   T   T   T
  0.3060682966120375  0.0895486531593925  0.0832888788973681   T   T   T
  0.1826667457782291  0.1756440110718737  0.0857115123514457   T   T   T
  0.3068787465580145  0.9244377863348542  0.0814643780140562   T   T   T
  0.1829475963553059  0.3409633128973920  0.0936415485345696   T   T   T
  0.3033736806989489  0.5917105057995184  0.1018163329532655   T   T   T
  0.1809588142319350  0.6715799529113775  0.0851371169467833   T   T   T
  0.1821493134835534  0.8385823362141824  0.0801339009664272   T   T   T
  0.5566869023625386  0.0845765730690272  0.0935109799882889   T   T   T
  0.4311306555713692  0.1686682909396728  0.0925082111286610   T   T   T
  0.4320713167590835  0.3315901640195609  0.1095141981306433   T   T   T
  0.4274049482165074  0.8396384944643244  0.0962378817921453   T   T   T
  0.8074468649314397  0.0895351222237313  0.0856454544073159   T   T   T
  0.6814450868394017  0.1681769010812104  0.0937150678814539   T   T   T
  0.8074237513994676  0.9248849288109633  0.0841762521051312   T   T   T
  0.6796752494595438  0.3307533479808046  0.1088905612903637   T   T   T
  0.8074061863414973  0.5941183355240873  0.0992028902091591   T   T   T
  0.8037139132696609  0.4242972058713118  0.1021775974266444   T   T   T
  0.6850457283732222  0.8391559536463370  0.0953084976933448   T   T   T
  0.4149189535077842  0.6860338983684245  0.1185175739224477   T   T   T
  0.5551981594198108  0.3952544762864754  0.1307220526454252   T   T   T
  0.6935102305561696  0.6851404811538749  0.1093280454909594   T   T   T
  0.5571734444470378  0.9181688912104242  0.0955300677116826   T   T   T
  0.3065331521062183  0.4225955106178844  0.1047915474615232   T   T   T
  0.5558013054122893  0.5954742741550570  0.1691351676966804   T   T   T
 
  0.00000000E+00  0.00000000E+00  0.00000000E+00
  0.00000000E+00  0.00000000E+00  0.00000000E+00
  0.00000000E+00  0.00000000E+00  0.00000000E+00
  0.00000000E+00  0.00000000E+00  0.00000000E+00
  0.00000000E+00  0.00000000E+00  0.00000000E+00
  0.00000000E+00  0.00000000E+00  0.00000000E+00
  0.00000000E+00  0.00000000E+00  0.00000000E+00
  0.00000000E+00  0.00000000E+00  0.00000000E+00
  0.00000000E+00  0.00000000E+00  0.00000000E+00
  0.00000000E+00  0.00000000E+00  0.00000000E+00
  0.00000000E+00  0.00000000E+00  0.00000000E+00
  0.00000000E+00  0.00000000E+00  0.00000000E+00
  0.00000000E+00  0.00000000E+00  0.00000000E+00
  0.00000000E+00  0.00000000E+00  0.00000000E+00
  0.00000000E+00  0.00000000E+00  0.00000000E+00
  0.00000000E+00  0.00000000E+00  0.00000000E+00
  0.00000000E+00  0.00000000E+00  0.00000000E+00
  0.00000000E+00  0.00000000E+00  0.00000000E+00
  0.00000000E+00  0.00000000E+00  0.00000000E+00
  0.00000000E+00  0.00000000E+00  0.00000000E+00
  0.00000000E+00  0.00000000E+00  0.00000000E+00
  0.00000000E+00  0.00000000E+00  0.00000000E+00
  0.00000000E+00  0.00000000E+00  0.00000000E+00
  0.00000000E+00  0.00000000E+00  0.00000000E+00
  0.00000000E+00  0.00000000E+00  0.00000000E+00
  0.00000000E+00  0.00000000E+00  0.00000000E+00
  0.00000000E+00  0.00000000E+00  0.00000000E+00
  0.00000000E+00  0.00000000E+00  0.00000000E+00
  0.00000000E+00  0.00000000E+00  0.00000000E+00
  0.00000000E+00  0.00000000E+00  0.00000000E+00
  0.00000000E+00  0.00000000E+00  0.00000000E+00
  0.00000000E+00  0.00000000E+00  0.00000000E+00
