Title                                   
   1.00000000000000     
     4.9440799999999996    0.0000000000000000    0.0000000000000000
     0.0000000000000000   17.1295089999999988    0.0000000000000000
     0.0000000000000000    0.0000000000000000   20.0000000000000000
    29     1     1
Selective dynamics
Direct
 -0.0025193180075625  0.1051644847657153  0.2971062406060210   T   T   T
  0.2464085871927208  0.1476555650410233  0.2976604934388652   T   T   T
  0.2455543256394987  0.2312592033330281  0.2991610981282536   T   T   T
 -0.0053887616892030  0.2734243723212039  0.3001053869517563   T   T   T
  0.0038284553519108  0.6023745624690667  0.2997592444547890   T   T   T
  0.2522515012498224  0.7279004888393198  0.2978234242768068   T   T   T
  0.0003374914523288  0.8537935053190371  0.2970192479193621   T   T   T
  0.2501220275749364  0.8958303520353542  0.2970184067930659   T   T   T
  0.2489537145367077  0.9794603303996102  0.2969111577155056   T   T   T
  0.0013830218297179  0.7700286408819544  0.2972972962611455   T   T   T
  0.4972949686003068  0.1054045198876729  0.2969977656550431   T   T   T
  0.7475952114000612  0.1469972294240823  0.2971098290214222   T   T   T
  0.7459372366145403  0.2307981127922338  0.2981240036607183   T   T   T
  0.4984910268804386  0.0216394341321448  0.2968025058143547   T   T   T
  0.7531115404045429  0.3930281130794454  0.3011701662647291   T   T   T
  0.7582708144803663  0.4786369289756331  0.3016362181856145   T   T   T
  0.4958040329072284  0.2731116786086324  0.2990553654000340   T   T   T
  0.5032248355721211  0.6015722208559467  0.3005833845976528   T   T   T
  0.7518767822504694  0.7281248257722572  0.2974865862215609   T   T   T
  0.5006767278003138  0.8538183128922429  0.2970610060163045   T   T   T
  0.7501480950258260  0.8958083751766585  0.2968664126603264   T   T   T
  0.7488947311927352  0.9796356351302794  0.2967543363412838   T   T   T
  0.5020120454250342  0.7701330833821717  0.2973946738356798   T   T   T
  0.7527888705238601  0.6442207070278089  0.2987309747666199   T   T   T
  0.2535018892878574  0.6446131276727233  0.2994463160644969   T   T   T
 -0.0013638159478623  0.0214612609894190  0.2968450492911533   T   T   T
  0.5074372626464883  0.5185328709680972  0.3042471287883007   T   T   T
  0.0033565362709853  0.5196847806629912  0.3019340849204604   T   T   T
  0.5048889507552846  0.3555853166739760  0.3007581373844921   T   T   T
 -0.0079219768131722  0.3538386835266418  0.3030571620968983   T   T   T
  0.2530501895916990  0.4378052769636254  0.3231368964672354   T   T   T
 
  0.00000000E+00  0.00000000E+00  0.00000000E+00
  0.00000000E+00  0.00000000E+00  0.00000000E+00
  0.00000000E+00  0.00000000E+00  0.00000000E+00
  0.00000000E+00  0.00000000E+00  0.00000000E+00
  0.00000000E+00  0.00000000E+00  0.00000000E+00
  0.00000000E+00  0.00000000E+00  0.00000000E+00
  0.00000000E+00  0.00000000E+00  0.00000000E+00
  0.00000000E+00  0.00000000E+00  0.00000000E+00
  0.00000000E+00  0.00000000E+00  0.00000000E+00
  0.00000000E+00  0.00000000E+00  0.00000000E+00
  0.00000000E+00  0.00000000E+00  0.00000000E+00
  0.00000000E+00  0.00000000E+00  0.00000000E+00
  0.00000000E+00  0.00000000E+00  0.00000000E+00
  0.00000000E+00  0.00000000E+00  0.00000000E+00
  0.00000000E+00  0.00000000E+00  0.00000000E+00
  0.00000000E+00  0.00000000E+00  0.00000000E+00
  0.00000000E+00  0.00000000E+00  0.00000000E+00
  0.00000000E+00  0.00000000E+00  0.00000000E+00
  0.00000000E+00  0.00000000E+00  0.00000000E+00
  0.00000000E+00  0.00000000E+00  0.00000000E+00
  0.00000000E+00  0.00000000E+00  0.00000000E+00
  0.00000000E+00  0.00000000E+00  0.00000000E+00
  0.00000000E+00  0.00000000E+00  0.00000000E+00
  0.00000000E+00  0.00000000E+00  0.00000000E+00
  0.00000000E+00  0.00000000E+00  0.00000000E+00
  0.00000000E+00  0.00000000E+00  0.00000000E+00
  0.00000000E+00  0.00000000E+00  0.00000000E+00
  0.00000000E+00  0.00000000E+00  0.00000000E+00
  0.00000000E+00  0.00000000E+00  0.00000000E+00
  0.00000000E+00  0.00000000E+00  0.00000000E+00
  0.00000000E+00  0.00000000E+00  0.00000000E+00
