Title                                   
   1.00000000000000     
     9.8694509999999998    0.0000000000000000    0.0000000000000000
     0.0000000000000000    8.5490480000000009    0.0000000000000000
     0.0000000000000000    0.0000000000000000   20.0000000000000000
    28     3     1
Selective dynamics
Direct
  0.0562560199446090  0.0924636850043637  0.0837291021478235   T   T   T
  0.9307487901284983  0.1748889779308191  0.0861852880344866   T   T   T
  0.0562229530427789  0.9251436439733850  0.0827592584055271   T   T   T
  0.9292289964843767  0.3418415510740707  0.0899623589425352   T   T   T
  0.0562248845830604  0.5894610727389697  0.0857584321930005   T   T   T
  0.9326621990512062  0.6739009257089984  0.0873522437025832   T   T   T
  0.0562374153323126  0.4235345694002928  0.0882971974500826   T   T   T
  0.9324248445150293  0.8406624849001445  0.0852948159672245   T   T   T
  0.3055961483248168  0.0895425833299248  0.0872666467188871   T   T   T
  0.1817629416463009  0.1748694538115028  0.0861775929513688   T   T   T
  0.3046490823785667  0.9235189001648061  0.0882962940279315   T   T   T
  0.1832576810799562  0.3418245337574101  0.0899825090829877   T   T   T
  0.3036357416223582  0.5939617864641793  0.0990183443475321   T   T   T
  0.1797723900143223  0.6739215096902924  0.0873490746683729   T   T   T
  0.3093830182714479  0.4244739186871340  0.0978912510108066   T   T   T
  0.1800150112885728  0.8406807059427363  0.0852708838931839   T   T   T
  0.5562557254037055  0.0826437288706106  0.0950024987074853   T   T   T
  0.4314642078284496  0.1683245561581748  0.0927788817144360   T   T   T
  0.5562239771299738  0.9160519344420384  0.0999370796896957   T   T   T
  0.4339255451682235  0.3333088369330485  0.1008663531147156   T   T   T
  0.4257505912960542  0.8381547988531131  0.1001367913580584   T   T   T
  0.8069301133502231  0.0895281591221260  0.0873274212981473   T   T   T
  0.6810751924203060  0.1683043712725377  0.0928207423310245   T   T   T
  0.8078190114883503  0.9235089003209167  0.0883745522247445   T   T   T
  0.6785957325700859  0.3332874155698621  0.1008758541196381   T   T   T
  0.8088207788987178  0.5939289624253073  0.0990364831944605   T   T   T
  0.8030965434223279  0.4244561803197693  0.0978692882055830   T   T   T
  0.6867018273371374  0.8381287280853360  0.1001796005168850   T   T   T
  0.4156701720501489  0.6818699193405173  0.1133440209617981   T   T   T
  0.5562552238359646  0.4028230082576181  0.1135551923716103   T   T   T
  0.6967848150830774  0.6818359194249056  0.1133740141820767   T   T   T
  0.5561914250090473  0.5894002780250968  0.1596049324653413   T   T   T
 
  0.00000000E+00  0.00000000E+00  0.00000000E+00
  0.00000000E+00  0.00000000E+00  0.00000000E+00
  0.00000000E+00  0.00000000E+00  0.00000000E+00
  0.00000000E+00  0.00000000E+00  0.00000000E+00
  0.00000000E+00  0.00000000E+00  0.00000000E+00
  0.00000000E+00  0.00000000E+00  0.00000000E+00
  0.00000000E+00  0.00000000E+00  0.00000000E+00
  0.00000000E+00  0.00000000E+00  0.00000000E+00
  0.00000000E+00  0.00000000E+00  0.00000000E+00
  0.00000000E+00  0.00000000E+00  0.00000000E+00
  0.00000000E+00  0.00000000E+00  0.00000000E+00
  0.00000000E+00  0.00000000E+00  0.00000000E+00
  0.00000000E+00  0.00000000E+00  0.00000000E+00
  0.00000000E+00  0.00000000E+00  0.00000000E+00
  0.00000000E+00  0.00000000E+00  0.00000000E+00
  0.00000000E+00  0.00000000E+00  0.00000000E+00
  0.00000000E+00  0.00000000E+00  0.00000000E+00
  0.00000000E+00  0.00000000E+00  0.00000000E+00
  0.00000000E+00  0.00000000E+00  0.00000000E+00
  0.00000000E+00  0.00000000E+00  0.00000000E+00
  0.00000000E+00  0.00000000E+00  0.00000000E+00
  0.00000000E+00  0.00000000E+00  0.00000000E+00
  0.00000000E+00  0.00000000E+00  0.00000000E+00
  0.00000000E+00  0.00000000E+00  0.00000000E+00
  0.00000000E+00  0.00000000E+00  0.00000000E+00
  0.00000000E+00  0.00000000E+00  0.00000000E+00
  0.00000000E+00  0.00000000E+00  0.00000000E+00
  0.00000000E+00  0.00000000E+00  0.00000000E+00
  0.00000000E+00  0.00000000E+00  0.00000000E+00
  0.00000000E+00  0.00000000E+00  0.00000000E+00
  0.00000000E+00  0.00000000E+00  0.00000000E+00
  0.00000000E+00  0.00000000E+00  0.00000000E+00
