Title                                   
   1.00000000000000     
     9.8694509999999998    0.0000000000000000    0.0000000000000000
     0.0000000000000000    8.5490480000000009    0.0000000000000000
     0.0000000000000000    0.0000000000000000   20.0000000000000000
    27     3     1
Selective dynamics
Direct
  0.0552064856690419  0.0888554992150715  0.0835543511861754   T   T   T
  0.9302202936908598  0.1724403462153866  0.0837046054511462   T   T   T
  0.0578562089825508  0.9226800911508213  0.0845441654816906   T   T   T
  0.9335036733329598  0.3395266423908833  0.0831535188732361   T   T   T
  0.0578935646106736  0.5898881422675420  0.0823036784810317   T   T   T
  0.9340518657240580  0.6742725670941825  0.0855363420152692   T   T   T
  0.0576061185251989  0.4230767844690910  0.0814353666988054   T   T   T
  0.9320876705386879  0.8411250135373823  0.0865143597943382   T   T   T
  0.3055450067909918  0.0865857998119564  0.0921871684866599   T   T   T
  0.1805430372037833  0.1695911833189178  0.0862266953806016   T   T   T
  0.1806659497035238  0.3370060678949421  0.0856824751768453   T   T   T
  0.3037358349117691  0.5864293395129170  0.0968240333026989   T   T   T
  0.1830492168509764  0.6715623855491820  0.0866227478948684   T   T   T
  0.3017481264270222  0.4168888711464929  0.0975169059601906   T   T   T
  0.1831699249858924  0.8397673907614277  0.0870427976834848   T   T   T
  0.4265484064133875  0.1751195670466318  0.1025590524335103   T   T   T
  0.5544710840999815  0.9254294262359012  0.1045935688689901   T   T   T
  0.4255262009506242  0.6708863380591360  0.1110925232510937   T   T   T
  0.4301673293441837  0.8379308045666058  0.1026545897730396   T   T   T
  0.8034822763034859  0.0910163722430151  0.0890055280013266   T   T   T
  0.6802925717431690  0.1795179938236456  0.0962717135267456   T   T   T
  0.8058990232765589  0.9233333571273339  0.0917332483117365   T   T   T
  0.6867948736740805  0.3445735777279369  0.1012809755638303   T   T   T
  0.8128228758056245  0.5921872701277908  0.0944608343672365   T   T   T
  0.6888407666271023  0.6710360306117158  0.1108002819819746   T   T   T
  0.8120829575614317  0.4232242600483708  0.0912661456587945   T   T   T
  0.6817417476395046  0.8389458951088558  0.1027435599617146   T   T   T
  0.5541142090037094  0.0933824842139627  0.1027138710697183   T   T   T
  0.4187139608322155  0.3323476657945426  0.1124368219825762   T   T   T
  0.3063008794910804  0.9217827428366491  0.0923377108263996   T   T   T
  0.5584528592858874  0.5104650900917278  0.1321653625543189   T   T   T
 
  0.00000000E+00  0.00000000E+00  0.00000000E+00
  0.00000000E+00  0.00000000E+00  0.00000000E+00
  0.00000000E+00  0.00000000E+00  0.00000000E+00
  0.00000000E+00  0.00000000E+00  0.00000000E+00
  0.00000000E+00  0.00000000E+00  0.00000000E+00
  0.00000000E+00  0.00000000E+00  0.00000000E+00
  0.00000000E+00  0.00000000E+00  0.00000000E+00
  0.00000000E+00  0.00000000E+00  0.00000000E+00
  0.00000000E+00  0.00000000E+00  0.00000000E+00
  0.00000000E+00  0.00000000E+00  0.00000000E+00
  0.00000000E+00  0.00000000E+00  0.00000000E+00
  0.00000000E+00  0.00000000E+00  0.00000000E+00
  0.00000000E+00  0.00000000E+00  0.00000000E+00
  0.00000000E+00  0.00000000E+00  0.00000000E+00
  0.00000000E+00  0.00000000E+00  0.00000000E+00
  0.00000000E+00  0.00000000E+00  0.00000000E+00
  0.00000000E+00  0.00000000E+00  0.00000000E+00
  0.00000000E+00  0.00000000E+00  0.00000000E+00
  0.00000000E+00  0.00000000E+00  0.00000000E+00
  0.00000000E+00  0.00000000E+00  0.00000000E+00
  0.00000000E+00  0.00000000E+00  0.00000000E+00
  0.00000000E+00  0.00000000E+00  0.00000000E+00
  0.00000000E+00  0.00000000E+00  0.00000000E+00
  0.00000000E+00  0.00000000E+00  0.00000000E+00
  0.00000000E+00  0.00000000E+00  0.00000000E+00
  0.00000000E+00  0.00000000E+00  0.00000000E+00
  0.00000000E+00  0.00000000E+00  0.00000000E+00
  0.00000000E+00  0.00000000E+00  0.00000000E+00
  0.00000000E+00  0.00000000E+00  0.00000000E+00
  0.00000000E+00  0.00000000E+00  0.00000000E+00
  0.00000000E+00  0.00000000E+00  0.00000000E+00
