Title                                   
   1.00000000000000     
     4.9440799999999996    0.0000000000000000    0.0000000000000000
     0.0000000000000000   17.1295089999999988    0.0000000000000000
     0.0000000000000000    0.0000000000000000   20.0000000000000000
    29     2     1
Selective dynamics
Direct
  0.0018927941227864  0.1045937762461383  0.2791177438955924   T   T   T
  0.2523688085178254  0.1463054654988993  0.2836987460294475   T   T   T
  0.2538304679529784  0.2287272557994859  0.2958446717931555   T   T   T
  0.0063903744879331  0.3499760175684367  0.3212091450760170   T   T   T
  0.0029609049962403  0.2697804740896281  0.3021746367583785   T   T   T
 -0.0089400451648602  0.6063290802940718  0.3143680860299110   T   T   T
  0.2459886345421790  0.7286043237706074  0.2918829243874070   T   T   T
 -0.0014338771463081  0.8536949292843800  0.2769729155010713   T   T   T
  0.2486894592449597  0.8955600233369485  0.2748431964370114   T   T   T
  0.2500741757971491  0.9792158751054630  0.2734486440921617   T   T   T
 -0.0025582236149460  0.7704730440009006  0.2849739806869737   T   T   T
  0.5019319003964051  0.1045938975074655  0.2791736445035076   T   T   T
  0.7523012712100007  0.1463423594991650  0.2828256197446746   T   T   T
  0.7536060017379060  0.2288239968128775  0.2936498205476763   T   T   T
  0.5005670148160160  0.0211317507478135  0.2742154894452807   T   T   T
  0.5043826489956624  0.3501787561186085  0.3218452825878758   T   T   T
  0.7567203215258145  0.3958927270140014  0.3276054291363265   T   T   T
  0.7504057428681047  0.4821367018623363  0.3325118909516504   T   T   T
  0.5053711552803126  0.2698286560872440  0.3024906673821591   T   T   T
  0.4982174700211257  0.6067907865262636  0.3158681981769090   T   T   T
  0.7470976375412534  0.7294173052748097  0.2897914553120569   T   T   T
  0.4979455279841798  0.8535659871010227  0.2771193825464883   T   T   T
  0.7486601311465707  0.8954030315597782  0.2745338621347344   T   T   T
  0.7500393203647605  0.9791337403348792  0.2731553675848263   T   T   T
  0.4964895201988955  0.7703045548853340  0.2852360613043688   T   T   T
  0.7451833963361273  0.6473335721302904  0.3034123461532182   T   T   T
  0.2449717028738864  0.6466291381336048  0.3083346900627389   T   T   T
  0.0004239458563521  0.0211511287757680  0.2741814318157175   T   T   T
  0.5105952648132785  0.5276217461523358  0.3381049962937163   T   T   T
  0.9856623849986227  0.5278039853635662  0.3330868687066362   T   T   T
  0.2554560500063607  0.3827054884545003  0.3380410151104920   T   T   T
  0.2415311172924355  0.4785014246633671  0.3988467898117730   T   T   T
 
  0.00000000E+00  0.00000000E+00  0.00000000E+00
  0.00000000E+00  0.00000000E+00  0.00000000E+00
  0.00000000E+00  0.00000000E+00  0.00000000E+00
  0.00000000E+00  0.00000000E+00  0.00000000E+00
  0.00000000E+00  0.00000000E+00  0.00000000E+00
  0.00000000E+00  0.00000000E+00  0.00000000E+00
  0.00000000E+00  0.00000000E+00  0.00000000E+00
  0.00000000E+00  0.00000000E+00  0.00000000E+00
  0.00000000E+00  0.00000000E+00  0.00000000E+00
  0.00000000E+00  0.00000000E+00  0.00000000E+00
  0.00000000E+00  0.00000000E+00  0.00000000E+00
  0.00000000E+00  0.00000000E+00  0.00000000E+00
  0.00000000E+00  0.00000000E+00  0.00000000E+00
  0.00000000E+00  0.00000000E+00  0.00000000E+00
  0.00000000E+00  0.00000000E+00  0.00000000E+00
  0.00000000E+00  0.00000000E+00  0.00000000E+00
  0.00000000E+00  0.00000000E+00  0.00000000E+00
  0.00000000E+00  0.00000000E+00  0.00000000E+00
  0.00000000E+00  0.00000000E+00  0.00000000E+00
  0.00000000E+00  0.00000000E+00  0.00000000E+00
  0.00000000E+00  0.00000000E+00  0.00000000E+00
  0.00000000E+00  0.00000000E+00  0.00000000E+00
  0.00000000E+00  0.00000000E+00  0.00000000E+00
  0.00000000E+00  0.00000000E+00  0.00000000E+00
  0.00000000E+00  0.00000000E+00  0.00000000E+00
  0.00000000E+00  0.00000000E+00  0.00000000E+00
  0.00000000E+00  0.00000000E+00  0.00000000E+00
  0.00000000E+00  0.00000000E+00  0.00000000E+00
  0.00000000E+00  0.00000000E+00  0.00000000E+00
  0.00000000E+00  0.00000000E+00  0.00000000E+00
  0.00000000E+00  0.00000000E+00  0.00000000E+00
  0.00000000E+00  0.00000000E+00  0.00000000E+00
