Title                                   
   1.00000000000000     
     8.5490480000000009    0.0000000000000000    0.0000000000000000
     0.0000000000000000    8.5490480000000009    0.0000000000000000
     0.0000000000000000    0.0000000000000000   20.0000000000000000
    22     2     1
Selective dynamics
Direct
  0.9084567669144576  0.2070041847598682  0.0948795941066998   T   T   T
  0.9069817640476899  0.5041393128163622  0.0967439199163111   T   T   T
  0.9119574047895653  0.8028441212624773  0.0962005087860396   T   T   T
  0.1987057201666184  0.0825040114536497  0.0963598960949853   T   T   T
  0.0741452254758159  0.2042575662728111  0.0963285891824782   T   T   T
  0.1573554808655059  0.6492628836456686  0.0957391156884461   T   T   T
  0.0751162771553544  0.5020004161595651  0.0967981093634272   T   T   T
  0.1549254682077316  0.3545716902696810  0.0985421760915388   T   T   T
  0.0792206353500202  0.7982126079495749  0.0950304357709905   T   T   T
  0.4934145784161535  0.0832044409335543  0.0966481055303220   T   T   T
  0.3454622437776463  0.1616498116306043  0.0984780159695478   T   T   T
  0.4937136478653531  0.9150208621080794  0.0968072204254416   T   T   T
  0.3470072404618984  0.8352703505223019  0.0958711375059597   T   T   T
  0.7867270436172981  0.0865610526219694  0.0946297877919188   T   T   T
  0.6380031616130104  0.1652124218297001  0.0953923184456670   T   T   T
  0.7897705413676999  0.9205114372687122  0.0960403400426663   T   T   T
  0.8300803131294804  0.6535906786620538  0.0984116323524619   T   T   T
  0.8270392136705068  0.3575030069062992  0.0956902916205791   T   T   T
  0.6427562653001800  0.8366161902206213  0.0983162828831606   T   T   T
  0.3233261899481523  0.3317576106711348  0.1041428563707190   T   T   T
  0.3235894383990865  0.6708695375402747  0.0975178459209087   T   T   T
  0.6601344428984854  0.3339434501553456  0.0985736829174318   T   T   T
  0.6683904817870352  0.6756127672532101  0.1023104823098900   T   T   T
  0.1993716699162751  0.9169474075128876  0.0948757998829712   T   T   T
  0.4897607848589712  0.4957221795736058  0.1183768550294208   T   T   T
 
  0.00000000E+00  0.00000000E+00  0.00000000E+00
  0.00000000E+00  0.00000000E+00  0.00000000E+00
  0.00000000E+00  0.00000000E+00  0.00000000E+00
  0.00000000E+00  0.00000000E+00  0.00000000E+00
  0.00000000E+00  0.00000000E+00  0.00000000E+00
  0.00000000E+00  0.00000000E+00  0.00000000E+00
  0.00000000E+00  0.00000000E+00  0.00000000E+00
  0.00000000E+00  0.00000000E+00  0.00000000E+00
  0.00000000E+00  0.00000000E+00  0.00000000E+00
  0.00000000E+00  0.00000000E+00  0.00000000E+00
  0.00000000E+00  0.00000000E+00  0.00000000E+00
  0.00000000E+00  0.00000000E+00  0.00000000E+00
  0.00000000E+00  0.00000000E+00  0.00000000E+00
  0.00000000E+00  0.00000000E+00  0.00000000E+00
  0.00000000E+00  0.00000000E+00  0.00000000E+00
  0.00000000E+00  0.00000000E+00  0.00000000E+00
  0.00000000E+00  0.00000000E+00  0.00000000E+00
  0.00000000E+00  0.00000000E+00  0.00000000E+00
  0.00000000E+00  0.00000000E+00  0.00000000E+00
  0.00000000E+00  0.00000000E+00  0.00000000E+00
  0.00000000E+00  0.00000000E+00  0.00000000E+00
  0.00000000E+00  0.00000000E+00  0.00000000E+00
  0.00000000E+00  0.00000000E+00  0.00000000E+00
  0.00000000E+00  0.00000000E+00  0.00000000E+00
  0.00000000E+00  0.00000000E+00  0.00000000E+00
