Title                                   
   1.00000000000000     
     4.9440799999999996    0.0000000000000000    0.0000000000000000
     0.0000000000000000    8.5647549999999999    0.0000000000000000
     0.0000000000000000    0.0000000000000000   20.0000000000000000
    12     2     1
Selective dynamics
Direct
  0.0006469080541690  0.2939654579927629  0.0957206583111436   T   T   T
  0.2523768226641363  0.0404079220034414  0.0957621397246542   T   T   T
  0.0036022952061263  0.9563620630059829  0.0956919914654345   T   T   T
  0.7491777467888897  0.2070536617307930  0.0930305963582192   T   T   T
  0.4972284067198420  0.2924693388542770  0.0953885029915968   T   T   T
  0.7518511369104409  0.0403671296815983  0.0934558688736247   T   T   T
  0.7491712481148590  0.7125266064386817  0.1011798053148513   T   T   T
  0.7440600632596659  0.5396836149994801  0.1015381934864139   T   T   T
  0.5032586427954202  0.9559661679696017  0.0966431660777220   T   T   T
  0.4939059800447217  0.4572574509861296  0.1007732880258097   T   T   T
 -0.0016311060845794  0.4585365519915909  0.1015354458659821   T   T   T
 -0.0020060287015250  0.7898710019188729  0.0999670226108685   T   T   T
  0.5043305468405270  0.7932139596138823  0.1022453782671317   T   T   T
  0.2508235801334582  0.2074654841068727  0.0950505698946267   T   T   T
  0.2532037572538481  0.6265345887060344  0.1399973727319242   T   T   T
 
  0.00000000E+00  0.00000000E+00  0.00000000E+00
  0.00000000E+00  0.00000000E+00  0.00000000E+00
  0.00000000E+00  0.00000000E+00  0.00000000E+00
  0.00000000E+00  0.00000000E+00  0.00000000E+00
  0.00000000E+00  0.00000000E+00  0.00000000E+00
  0.00000000E+00  0.00000000E+00  0.00000000E+00
  0.00000000E+00  0.00000000E+00  0.00000000E+00
  0.00000000E+00  0.00000000E+00  0.00000000E+00
  0.00000000E+00  0.00000000E+00  0.00000000E+00
  0.00000000E+00  0.00000000E+00  0.00000000E+00
  0.00000000E+00  0.00000000E+00  0.00000000E+00
  0.00000000E+00  0.00000000E+00  0.00000000E+00
  0.00000000E+00  0.00000000E+00  0.00000000E+00
  0.00000000E+00  0.00000000E+00  0.00000000E+00
  0.00000000E+00  0.00000000E+00  0.00000000E+00
