Title                                   
   1.00000000000000     
     4.9440799999999996    0.0000000000000000    0.0000000000000000
     0.0000000000000000   17.1295089999999988    0.0000000000000000
     0.0000000000000000    0.0000000000000000   20.0000000000000000
    26     4     1
Selective dynamics
Direct
  0.0027999248317694  0.1061374103408266  0.2945815575269968   T   T   T
  0.2530384945556636  0.1486269208518257  0.2962694614422223   T   T   T
  0.2547993578088569  0.2336670993506088  0.2992193301796407   T   T   T
  0.0014298574547556  0.2740719987784463  0.2965965486029458   T   T   T
 -0.0024838419580989  0.6015576365409829  0.2967756621283462   T   T   T
  0.2490848014285407  0.7262636823074735  0.2960951600746110   T   T   T
  0.0014333570754714  0.8529018600845536  0.2938440211999304   T   T   T
  0.2505859228617315  0.8951083171935771  0.2940185876132791   T   T   T
  0.2512882515632972  0.9795043461087592  0.2940835215051552   T   T   T
  0.0009073045060575  0.7683147463132053  0.2945023216540870   T   T   T
  0.5014836924839374  0.1058880419734499  0.2955099135829263   T   T   T
  0.7516887131268796  0.1479323994816452  0.2951379181218946   T   T   T
  0.7520194586391337  0.2316900997443493  0.2967709559707428   T   T   T
  0.5011756346804904  0.0215429425425651  0.2944286973916090   T   T   T
  0.7575785436390277  0.3955086621694587  0.3025228920262689   T   T   T
  0.7552581253496686  0.4797637071176298  0.3043794436732306   T   T   T
  0.5062792343444950  0.2753794059584866  0.3031255146234981   T   T   T
  0.4983971472357502  0.5997793094281882  0.3031525816938885   T   T   T
  0.7497825026684495  0.7269391329875714  0.2947545089000171   T   T   T
  0.4993658693244204  0.8527486654502155  0.2942852673807526   T   T   T
  0.7506007690256974  0.8948905785118989  0.2937731627380747   T   T   T
  0.7512523889397028  0.9792681671881737  0.2938192801789853   T   T   T
  0.4986189488058896  0.7682362194221917  0.2952073481987655   T   T   T
  0.7486051603100153  0.6440326024710519  0.2958006432182815   T   T   T
  0.0017201456940222  0.0217810383159294  0.2939418670586388   T   T   T
  0.5050758952565517  0.5196518676816370  0.3159302671227038   T   T   T
 -0.0005565750094419  0.5220853779759590  0.2976013529612316   T   T   T
  0.5155561160964791  0.3557172489366028  0.3155250189704993   T   T   T
 -0.0042707519144059  0.3542393786481098  0.2937916514354351   T   T   T
  0.2475372711683138  0.6422181361233830  0.2989929617861758   T   T   T
  0.2099552800068809  0.4358950000012428  0.3506225810391164   T   T   T
 
  0.00000000E+00  0.00000000E+00  0.00000000E+00
  0.00000000E+00  0.00000000E+00  0.00000000E+00
  0.00000000E+00  0.00000000E+00  0.00000000E+00
  0.00000000E+00  0.00000000E+00  0.00000000E+00
  0.00000000E+00  0.00000000E+00  0.00000000E+00
  0.00000000E+00  0.00000000E+00  0.00000000E+00
  0.00000000E+00  0.00000000E+00  0.00000000E+00
  0.00000000E+00  0.00000000E+00  0.00000000E+00
  0.00000000E+00  0.00000000E+00  0.00000000E+00
  0.00000000E+00  0.00000000E+00  0.00000000E+00
  0.00000000E+00  0.00000000E+00  0.00000000E+00
  0.00000000E+00  0.00000000E+00  0.00000000E+00
  0.00000000E+00  0.00000000E+00  0.00000000E+00
  0.00000000E+00  0.00000000E+00  0.00000000E+00
  0.00000000E+00  0.00000000E+00  0.00000000E+00
  0.00000000E+00  0.00000000E+00  0.00000000E+00
  0.00000000E+00  0.00000000E+00  0.00000000E+00
  0.00000000E+00  0.00000000E+00  0.00000000E+00
  0.00000000E+00  0.00000000E+00  0.00000000E+00
  0.00000000E+00  0.00000000E+00  0.00000000E+00
  0.00000000E+00  0.00000000E+00  0.00000000E+00
  0.00000000E+00  0.00000000E+00  0.00000000E+00
  0.00000000E+00  0.00000000E+00  0.00000000E+00
  0.00000000E+00  0.00000000E+00  0.00000000E+00
  0.00000000E+00  0.00000000E+00  0.00000000E+00
  0.00000000E+00  0.00000000E+00  0.00000000E+00
  0.00000000E+00  0.00000000E+00  0.00000000E+00
  0.00000000E+00  0.00000000E+00  0.00000000E+00
  0.00000000E+00  0.00000000E+00  0.00000000E+00
  0.00000000E+00  0.00000000E+00  0.00000000E+00
  0.00000000E+00  0.00000000E+00  0.00000000E+00
