Title                                   
   1.00000000000000     
     9.8694509999999998    0.0000000000000000    0.0000000000000000
     0.0000000000000000    8.5490480000000009    0.0000000000000000
     0.0000000000000000    0.0000000000000000   20.0000000000000000
    26     4     1
Selective dynamics
Direct
  0.0562506531308928  0.0895786600957080  0.0842456652666613   T   T   T
  0.9317040897839693  0.1718965550738748  0.0858440202854845   T   T   T
  0.0562435509107667  0.9226996225167684  0.0842799836051738   T   T   T
  0.9332406070103181  0.3389796649041152  0.0843450589338034   T   T   T
  0.0563502512344270  0.5891699718876274  0.0804939612475020   T   T   T
  0.9332501119035711  0.6733102187022242  0.0843809519069946   T   T   T
  0.0563473565549030  0.4231450291239003  0.0804687468090990   T   T   T
  0.9317114139294279  0.8403939601868584  0.0858796131369685   T   T   T
  0.3064766999145376  0.0902575673051803  0.0932239434234495   T   T   T
  0.1807357427868154  0.1718723650521293  0.0866883493269699   T   T   T
  0.3064717528460247  0.9220455354410833  0.0932359034624502   T   T   T
  0.1793105767598963  0.3389821267615409  0.0853093236622035   T   T   T
  0.3000236042780193  0.5906267901770887  0.0953331089234882   T   T   T
  0.1793174100707531  0.6733271772388616  0.0853453304534243   T   T   T
  0.3000287992937060  0.4216503512961736  0.0953074851745769   T   T   T
  0.1807365553520290  0.8404243673154186  0.0867243415546378   T   T   T
  0.5562180553591681  0.0932086220454016  0.1045467184210693   T   T   T
  0.4283092373141489  0.1762368758418873  0.1027388655778752   T   T   T
  0.5562144930579674  0.9191231550784308  0.1045525040245423   T   T   T
  0.4283147147772185  0.8361180533132936  0.1027533233558113   T   T   T
  0.8059207029227390  0.0901954295856677  0.0919952259949992   T   T   T
  0.6840705405121509  0.1760935333432159  0.1015433846034143   T   T   T
  0.8059041040497983  0.9220520062665686  0.0920029739452434   T   T   T
  0.8122577771707191  0.5906433393665038  0.0934809066682066   T   T   T
  0.8122380837169895  0.4216403132736024  0.0934606861904159   T   T   T
  0.6840553634218886  0.8362070845274099  0.1015592897645331   T   T   T
  0.4189887535368793  0.3396822896584438  0.1093324235312972   T   T   T
  0.4189560829414495  0.6726866009689888  0.1093386906738157   T   T   T
  0.6933052642460963  0.3396040289920625  0.1073729793071327   T   T   T
  0.6933391670614363  0.6727364163934797  0.1073959464035177   T   T   T
  0.5568444841513015  0.5062872882664882  0.1277852943652797   T   T   T
 
  0.00000000E+00  0.00000000E+00  0.00000000E+00
  0.00000000E+00  0.00000000E+00  0.00000000E+00
  0.00000000E+00  0.00000000E+00  0.00000000E+00
  0.00000000E+00  0.00000000E+00  0.00000000E+00
  0.00000000E+00  0.00000000E+00  0.00000000E+00
  0.00000000E+00  0.00000000E+00  0.00000000E+00
  0.00000000E+00  0.00000000E+00  0.00000000E+00
  0.00000000E+00  0.00000000E+00  0.00000000E+00
  0.00000000E+00  0.00000000E+00  0.00000000E+00
  0.00000000E+00  0.00000000E+00  0.00000000E+00
  0.00000000E+00  0.00000000E+00  0.00000000E+00
  0.00000000E+00  0.00000000E+00  0.00000000E+00
  0.00000000E+00  0.00000000E+00  0.00000000E+00
  0.00000000E+00  0.00000000E+00  0.00000000E+00
  0.00000000E+00  0.00000000E+00  0.00000000E+00
  0.00000000E+00  0.00000000E+00  0.00000000E+00
  0.00000000E+00  0.00000000E+00  0.00000000E+00
  0.00000000E+00  0.00000000E+00  0.00000000E+00
  0.00000000E+00  0.00000000E+00  0.00000000E+00
  0.00000000E+00  0.00000000E+00  0.00000000E+00
  0.00000000E+00  0.00000000E+00  0.00000000E+00
  0.00000000E+00  0.00000000E+00  0.00000000E+00
  0.00000000E+00  0.00000000E+00  0.00000000E+00
  0.00000000E+00  0.00000000E+00  0.00000000E+00
  0.00000000E+00  0.00000000E+00  0.00000000E+00
  0.00000000E+00  0.00000000E+00  0.00000000E+00
  0.00000000E+00  0.00000000E+00  0.00000000E+00
  0.00000000E+00  0.00000000E+00  0.00000000E+00
  0.00000000E+00  0.00000000E+00  0.00000000E+00
  0.00000000E+00  0.00000000E+00  0.00000000E+00
  0.00000000E+00  0.00000000E+00  0.00000000E+00
