Title                                   
   1.00000000000000     
     8.5490480000000009    0.0000000000000000    0.0000000000000000
     0.0000000000000000    8.5490480000000009    0.0000000000000000
     0.0000000000000000    0.0000000000000000   20.0000000000000000
    21     3     1
Selective dynamics
Direct
  0.9080225400506685  0.2076541092413608  0.0944870895369029   T   T   T
  0.9125635200230741  0.8017832951744743  0.0955355749944043   T   T   T
  0.1962278052114253  0.0822481426322662  0.0956302158434047   T   T   T
  0.0738007448631770  0.2016060737010651  0.0956425218899948   T   T   T
  0.1568810413322524  0.6484432897563214  0.0957954203336346   T   T   T
  0.0742225908717699  0.5018098364138808  0.0967602571454626   T   T   T
  0.1529336847753325  0.3533299756865698  0.0982498353948496   T   T   T
  0.0803021026212174  0.7981091604738936  0.0948242040396317   T   T   T
  0.4939410273768285  0.0845129365649518  0.0969035855505654   T   T   T
  0.3439107654568599  0.1617095414734432  0.0980319151306786   T   T   T
  0.4952621654085298  0.9155868664846410  0.0969018188912300   T   T   T
  0.3471041262053208  0.8346101831061510  0.0953817727287828   T   T   T
  0.7870517926725494  0.0885298940081201  0.0952371672072100   T   T   T
  0.6386151270316881  0.1683570349583038  0.0962806876230464   T   T   T
  0.7903444287210825  0.9201542282939187  0.0960527948914813   T   T   T
  0.8315057177903059  0.6526331666643246  0.0977155265261269   T   T   T
  0.8275059241666030  0.3594373987399747  0.0946622666947329   T   T   T
  0.6440545246484762  0.8363881397006454  0.0985063995941224   T   T   T
  0.3199619729988012  0.3298537203828217  0.1029485894879292   T   T   T
  0.3246606423256443  0.6711855221970209  0.0959538330946118   T   T   T
  0.6627540802522759  0.3392323105256164  0.0963040076445738   T   T   T
  0.9079988635770224  0.5053743421146945  0.0961399649639645   T   T   T
  0.6705209411145632  0.6720765070561503  0.1022298892006393   T   T   T
  0.1983611823172926  0.9150091071147114  0.0944135747431411   T   T   T
  0.4869046881872321  0.4951552175346920  0.1281160868488609   T   T   T
 
  0.00000000E+00  0.00000000E+00  0.00000000E+00
  0.00000000E+00  0.00000000E+00  0.00000000E+00
  0.00000000E+00  0.00000000E+00  0.00000000E+00
  0.00000000E+00  0.00000000E+00  0.00000000E+00
  0.00000000E+00  0.00000000E+00  0.00000000E+00
  0.00000000E+00  0.00000000E+00  0.00000000E+00
  0.00000000E+00  0.00000000E+00  0.00000000E+00
  0.00000000E+00  0.00000000E+00  0.00000000E+00
  0.00000000E+00  0.00000000E+00  0.00000000E+00
  0.00000000E+00  0.00000000E+00  0.00000000E+00
  0.00000000E+00  0.00000000E+00  0.00000000E+00
  0.00000000E+00  0.00000000E+00  0.00000000E+00
  0.00000000E+00  0.00000000E+00  0.00000000E+00
  0.00000000E+00  0.00000000E+00  0.00000000E+00
  0.00000000E+00  0.00000000E+00  0.00000000E+00
  0.00000000E+00  0.00000000E+00  0.00000000E+00
  0.00000000E+00  0.00000000E+00  0.00000000E+00
  0.00000000E+00  0.00000000E+00  0.00000000E+00
  0.00000000E+00  0.00000000E+00  0.00000000E+00
  0.00000000E+00  0.00000000E+00  0.00000000E+00
  0.00000000E+00  0.00000000E+00  0.00000000E+00
  0.00000000E+00  0.00000000E+00  0.00000000E+00
  0.00000000E+00  0.00000000E+00  0.00000000E+00
  0.00000000E+00  0.00000000E+00  0.00000000E+00
  0.00000000E+00  0.00000000E+00  0.00000000E+00
