Title                                   
   1.00000000000000     
     4.9440799999999996    0.0000000000000000    0.0000000000000000
     0.0000000000000000    8.5647549999999999    0.0000000000000000
     0.0000000000000000    0.0000000000000000   20.0000000000000000
    13     2     1
Selective dynamics
Direct
  0.2497042276189876  0.2102366387744008  0.0932612076629012   T   T   T
 -0.0052085007250225  0.2918984140867083  0.0915550405804425   T   T   T
  0.2521903985527234  0.0440921613758061  0.0911590872512920   T   T   T
  0.0085514390592321  0.7956863156777767  0.0985407545721162   T   T   T
  0.0030333246759416  0.9600573534193171  0.0904911993913537   T   T   T
  0.7489062965820963  0.2068080062574995  0.0904875630547647   T   T   T
  0.5023539779592987  0.2907695898354605  0.0994638553573086   T   T   T
  0.7522284452642570  0.0415627806425214  0.0886370884117461   T   T   T
  0.7573860814493254  0.7069660632387793  0.1020234577498113   T   T   T
  0.5036595217236176  0.7950506682878500  0.1007961420105359   T   T   T
  0.7532224788167733  0.5358451651516295  0.1045388931960211   T   T   T
  0.5033834651185107  0.9598870830047701  0.0926029242592709   T   T   T
  0.5181183550929875  0.4498043961233260  0.1190279392549106   T   T   T
 -0.0104726802882532  0.4526107870622793  0.0894934496279932   T   T   T
  0.2565155771334120  0.7229965713549872  0.1086573606934654   T   T   T
  0.2064275919661112  0.5357280057068887  0.1617760369260740   T   T   T
 
  0.00000000E+00  0.00000000E+00  0.00000000E+00
  0.00000000E+00  0.00000000E+00  0.00000000E+00
  0.00000000E+00  0.00000000E+00  0.00000000E+00
  0.00000000E+00  0.00000000E+00  0.00000000E+00
  0.00000000E+00  0.00000000E+00  0.00000000E+00
  0.00000000E+00  0.00000000E+00  0.00000000E+00
  0.00000000E+00  0.00000000E+00  0.00000000E+00
  0.00000000E+00  0.00000000E+00  0.00000000E+00
  0.00000000E+00  0.00000000E+00  0.00000000E+00
  0.00000000E+00  0.00000000E+00  0.00000000E+00
  0.00000000E+00  0.00000000E+00  0.00000000E+00
  0.00000000E+00  0.00000000E+00  0.00000000E+00
  0.00000000E+00  0.00000000E+00  0.00000000E+00
  0.00000000E+00  0.00000000E+00  0.00000000E+00
  0.00000000E+00  0.00000000E+00  0.00000000E+00
  0.00000000E+00  0.00000000E+00  0.00000000E+00
