Title                                   
   1.00000000000000     
     9.8694509999999998    0.0000000000000000    0.0000000000000000
     0.0000000000000000    8.5490480000000009    0.0000000000000000
     0.0000000000000000    0.0000000000000000   20.0000000000000000
    29     1     1
Selective dynamics
Direct
  0.0561723368213433  0.0892988713572010  0.0916689502795707   T   T   T
  0.9316278882584722  0.1718211513677493  0.0873746216758888   T   T   T
  0.0573493049448059  0.9238167791198045  0.0915629446818775   T   T   T
  0.9338012824994936  0.3386913438690206  0.0857832705791408   T   T   T
  0.0572270956371113  0.5904615268247111  0.0899593395545177   T   T   T
  0.9338988545888678  0.6740835763813635  0.0856382170184331   T   T   T
  0.0572972210430071  0.4227630937148525  0.0902717765669162   T   T   T
  0.9322276348490111  0.8404943669150816  0.0873770940223785   T   T   T
  0.3062739546165077  0.0887665978296188  0.1023799027302498   T   T   T
  0.1809968343078878  0.1706538592942100  0.0974537396895598   T   T   T
  0.1800057636233321  0.3380843678274854  0.0977049015967002   T   T   T
  0.3014499419041221  0.5907504695181088  0.1068101823213801   T   T   T
  0.1807480035133974  0.6747841321505261  0.0968317911722829   T   T   T
  0.3014040173011971  0.4211881583476974  0.1070937664542667   T   T   T
  0.1822082572929728  0.8415330146346262  0.0966465845572473   T   T   T
  0.5562868274683891  0.0898657726504943  0.0980411537757710   T   T   T
  0.4303403567498034  0.1755122878029298  0.1056441340769168   T   T   T
  0.5551365748900263  0.9227112551187620  0.0977457310137804   T   T   T
  0.4271732588179079  0.3429607167206985  0.1118894791488381   T   T   T
  0.4264980153441335  0.6700392758781814  0.1120037103846187   T   T   T
  0.4294528359133979  0.8353168389013778  0.1050058996078146   T   T   T
  0.8055653479143560  0.0900381001477752  0.0873496298113177   T   T   T
  0.6811184439390940  0.1777950547807346  0.0897194694204442   T   T   T
  0.8055700114104987  0.9220360906227754  0.0874450604413324   T   T   T
  0.6840327566821326  0.3449858068098094  0.0862834870244446   T   T   T
  0.8109047990417320  0.5908106583132160  0.0824804399013585   T   T   T
  0.6840029445237749  0.6672620673730572  0.0854980080960937   T   T   T
  0.8109820887735921  0.4218315239810903  0.0826786841801095   T   T   T
  0.6806402446416719  0.8341714056189784  0.0895625815152796   T   T   T
  0.3057795510064434  0.9224387240404158  0.1016674525838193   T   T   T
  0.5569625516815191  0.5059081120876660  0.1033929961176775   T   T   T
 
  0.00000000E+00  0.00000000E+00  0.00000000E+00
  0.00000000E+00  0.00000000E+00  0.00000000E+00
  0.00000000E+00  0.00000000E+00  0.00000000E+00
  0.00000000E+00  0.00000000E+00  0.00000000E+00
  0.00000000E+00  0.00000000E+00  0.00000000E+00
  0.00000000E+00  0.00000000E+00  0.00000000E+00
  0.00000000E+00  0.00000000E+00  0.00000000E+00
  0.00000000E+00  0.00000000E+00  0.00000000E+00
  0.00000000E+00  0.00000000E+00  0.00000000E+00
  0.00000000E+00  0.00000000E+00  0.00000000E+00
  0.00000000E+00  0.00000000E+00  0.00000000E+00
  0.00000000E+00  0.00000000E+00  0.00000000E+00
  0.00000000E+00  0.00000000E+00  0.00000000E+00
  0.00000000E+00  0.00000000E+00  0.00000000E+00
  0.00000000E+00  0.00000000E+00  0.00000000E+00
  0.00000000E+00  0.00000000E+00  0.00000000E+00
  0.00000000E+00  0.00000000E+00  0.00000000E+00
  0.00000000E+00  0.00000000E+00  0.00000000E+00
  0.00000000E+00  0.00000000E+00  0.00000000E+00
  0.00000000E+00  0.00000000E+00  0.00000000E+00
  0.00000000E+00  0.00000000E+00  0.00000000E+00
  0.00000000E+00  0.00000000E+00  0.00000000E+00
  0.00000000E+00  0.00000000E+00  0.00000000E+00
  0.00000000E+00  0.00000000E+00  0.00000000E+00
  0.00000000E+00  0.00000000E+00  0.00000000E+00
  0.00000000E+00  0.00000000E+00  0.00000000E+00
  0.00000000E+00  0.00000000E+00  0.00000000E+00
  0.00000000E+00  0.00000000E+00  0.00000000E+00
  0.00000000E+00  0.00000000E+00  0.00000000E+00
  0.00000000E+00  0.00000000E+00  0.00000000E+00
  0.00000000E+00  0.00000000E+00  0.00000000E+00
