Title                                   
   1.00000000000000     
     9.8694509999999998    0.0000000000000000    0.0000000000000000
     0.0000000000000000    8.5490480000000009    0.0000000000000000
     0.0000000000000000    0.0000000000000000   20.0000000000000000
    30     1     1
Selective dynamics
Direct
  0.0565982442910628  0.0899231283287830  0.0890826556094758   T   T   T
  0.9310974371499164  0.1677635463396860  0.0887474221742628   T   T   T
  0.0525114414373991  0.9235609508993480  0.0892794043620129   T   T   T
  0.9357201137185640  0.3348342191584098  0.0879887991502841   T   T   T
  0.0550940664200093  0.5894290593076030  0.0883480973984323   T   T   T
  0.9297532288635599  0.6700711080112544  0.0884334321189510   T   T   T
  0.0594969484640044  0.4227028502079173  0.0888394456791778   T   T   T
  0.9272918119618503  0.8364381967077992  0.0892040113495095   T   T   T
  0.3075224139102162  0.0975328531160689  0.0919159713913306   T   T   T
  0.1825059194339641  0.1771904279127785  0.0901652048823822   T   T   T
  0.3018380350683231  0.9298957345914922  0.0930925814810757   T   T   T
  0.1860301824958249  0.3445798554707452  0.0910792557645310   T   T   T
  0.3033797609092164  0.6003795789238074  0.0979353204068919   T   T   T
  0.1775338042441939  0.6772301957652124  0.0910909396254623   T   T   T
  0.3109590755303008  0.4316936988560984  0.0950832430002143   T   T   T
  0.1772392161182867  0.8439559985164270  0.0911498872425243   T   T   T
  0.5556464101775004  0.0877236794695966  0.0942845265016337   T   T   T
  0.4352066389623276  0.1813066718481182  0.0938947967168597   T   T   T
  0.5510988321670443  0.9179250170416718  0.0965503367227441   T   T   T
  0.4399963912627552  0.3545225709238829  0.0954777775498877   T   T   T
  0.5733148869902616  0.4335599060672572  0.0976366344509097   T   T   T
  0.4214335640493396  0.8413846493696903  0.0994857325921075   T   T   T
  0.8043032738248223  0.0823471260832661  0.0903496467702603   T   T   T
  0.6819280128370380  0.1687222098054100  0.0920589523143501   T   T   T
  0.7996567263107317  0.9127547674095513  0.0910006149326860   T   T   T
  0.6874304852928355  0.3366354323166720  0.0922796037672591   T   T   T
  0.8070922340905199  0.5815754732043856  0.0903115320267604   T   T   T
  0.6779760986914083  0.6487623937942565  0.0961876390700427   T   T   T
  0.8133681082637751  0.4157983812482669  0.0887179849071521   T   T   T
  0.6714783704087399  0.8235965853199931  0.0945535982533711   T   T   T
  0.4180142448844529  0.6842258962255061  0.1075509019777244   T   T   T
  0.5671230217697635  0.5822238377590526  0.1938990498097669   T   T   T
 
  0.00000000E+00  0.00000000E+00  0.00000000E+00
  0.00000000E+00  0.00000000E+00  0.00000000E+00
  0.00000000E+00  0.00000000E+00  0.00000000E+00
  0.00000000E+00  0.00000000E+00  0.00000000E+00
  0.00000000E+00  0.00000000E+00  0.00000000E+00
  0.00000000E+00  0.00000000E+00  0.00000000E+00
  0.00000000E+00  0.00000000E+00  0.00000000E+00
  0.00000000E+00  0.00000000E+00  0.00000000E+00
  0.00000000E+00  0.00000000E+00  0.00000000E+00
  0.00000000E+00  0.00000000E+00  0.00000000E+00
  0.00000000E+00  0.00000000E+00  0.00000000E+00
  0.00000000E+00  0.00000000E+00  0.00000000E+00
  0.00000000E+00  0.00000000E+00  0.00000000E+00
  0.00000000E+00  0.00000000E+00  0.00000000E+00
  0.00000000E+00  0.00000000E+00  0.00000000E+00
  0.00000000E+00  0.00000000E+00  0.00000000E+00
  0.00000000E+00  0.00000000E+00  0.00000000E+00
  0.00000000E+00  0.00000000E+00  0.00000000E+00
  0.00000000E+00  0.00000000E+00  0.00000000E+00
  0.00000000E+00  0.00000000E+00  0.00000000E+00
  0.00000000E+00  0.00000000E+00  0.00000000E+00
  0.00000000E+00  0.00000000E+00  0.00000000E+00
  0.00000000E+00  0.00000000E+00  0.00000000E+00
  0.00000000E+00  0.00000000E+00  0.00000000E+00
  0.00000000E+00  0.00000000E+00  0.00000000E+00
  0.00000000E+00  0.00000000E+00  0.00000000E+00
  0.00000000E+00  0.00000000E+00  0.00000000E+00
  0.00000000E+00  0.00000000E+00  0.00000000E+00
  0.00000000E+00  0.00000000E+00  0.00000000E+00
  0.00000000E+00  0.00000000E+00  0.00000000E+00
  0.00000000E+00  0.00000000E+00  0.00000000E+00
  0.00000000E+00  0.00000000E+00  0.00000000E+00
