Title                                   
   1.00000000000000     
     9.8694509999999998    0.0000000000000000    0.0000000000000000
     0.0000000000000000    8.5490480000000009    0.0000000000000000
     0.0000000000000000    0.0000000000000000   20.0000000000000000
    27     4     1
Selective dynamics
Direct
  0.0563157460061827  0.0919988762142915  0.0898843069731498   T   T   T
  0.9307237400764077  0.1747480752231565  0.0910221716346871   T   T   T
  0.0563166423083826  0.9244941548207041  0.0894996123834923   T   T   T
  0.9290818693255537  0.3420283265644505  0.0934078709797702   T   T   T
  0.0562245167496659  0.5898171340830509  0.0917058274992151   T   T   T
  0.9317019035453458  0.6736334859482546  0.0925173416611646   T   T   T
  0.0562514139724775  0.4235233519512581  0.0927188019440301   T   T   T
  0.9318594153282419  0.8401108906135678  0.0907391584820465   T   T   T
  0.3054090487627570  0.0892077592040867  0.0902094196411563   T   T   T
  0.1819028302241221  0.1747248269514508  0.0908360065691502   T   T   T
  0.3059415674420943  0.9240760244632400  0.0903944666901416   T   T   T
  0.1834503837958253  0.3419817367547012  0.0929501169030042   T   T   T
  0.3071531072965785  0.5939252913137226  0.0961144666829758   T   T   T
  0.1807805854925022  0.6736875520957504  0.0918066368606381   T   T   T
  0.3106487023115800  0.4249526036862329  0.0960087388744243   T   T   T
  0.1807490810885500  0.8401397435822670  0.0902810728018609   T   T   T
  0.5563530595059615  0.0827920455255718  0.0934267429542453   T   T   T
  0.4322156770765901  0.1674235555964352  0.0927922382679949   T   T   T
  0.4355572956659196  0.3338961719990514  0.0973039018873346   T   T   T
  0.4277852099607770  0.8367866538164337  0.0946415608655501   T   T   T
  0.8072274035062258  0.0892283197942168  0.0905071596481380   T   T   T
  0.6804558383085364  0.1675158233428854  0.0931127381247209   T   T   T
  0.8067248821691713  0.9240583232774712  0.0908595872404801   T   T   T
  0.6770812678948471  0.3340089629764513  0.0978746112671579   T   T   T
  0.8054171416246196  0.5939706135271724  0.0977267971383278   T   T   T
  0.8019391362160275  0.4250331622239080  0.0970964022891644   T   T   T
  0.6848772693008572  0.8367678023456860  0.0955765979779808   T   T   T
  0.4254108348072230  0.6803756380382514  0.1009521023507632   T   T   T
  0.5562551244058549  0.4090980124117491  0.1040954354976783   T   T   T
  0.6875191790483648  0.6807053549585618  0.1033448882448215   T   T   T
  0.5563946872887383  0.9163298496128559  0.0943231104740422   T   T   T
  0.5539144394940253  0.5892058770831150  0.1719451091907091   T   T   T
 
  0.00000000E+00  0.00000000E+00  0.00000000E+00
  0.00000000E+00  0.00000000E+00  0.00000000E+00
  0.00000000E+00  0.00000000E+00  0.00000000E+00
  0.00000000E+00  0.00000000E+00  0.00000000E+00
  0.00000000E+00  0.00000000E+00  0.00000000E+00
  0.00000000E+00  0.00000000E+00  0.00000000E+00
  0.00000000E+00  0.00000000E+00  0.00000000E+00
  0.00000000E+00  0.00000000E+00  0.00000000E+00
  0.00000000E+00  0.00000000E+00  0.00000000E+00
  0.00000000E+00  0.00000000E+00  0.00000000E+00
  0.00000000E+00  0.00000000E+00  0.00000000E+00
  0.00000000E+00  0.00000000E+00  0.00000000E+00
  0.00000000E+00  0.00000000E+00  0.00000000E+00
  0.00000000E+00  0.00000000E+00  0.00000000E+00
  0.00000000E+00  0.00000000E+00  0.00000000E+00
  0.00000000E+00  0.00000000E+00  0.00000000E+00
  0.00000000E+00  0.00000000E+00  0.00000000E+00
  0.00000000E+00  0.00000000E+00  0.00000000E+00
  0.00000000E+00  0.00000000E+00  0.00000000E+00
  0.00000000E+00  0.00000000E+00  0.00000000E+00
  0.00000000E+00  0.00000000E+00  0.00000000E+00
  0.00000000E+00  0.00000000E+00  0.00000000E+00
  0.00000000E+00  0.00000000E+00  0.00000000E+00
  0.00000000E+00  0.00000000E+00  0.00000000E+00
  0.00000000E+00  0.00000000E+00  0.00000000E+00
  0.00000000E+00  0.00000000E+00  0.00000000E+00
  0.00000000E+00  0.00000000E+00  0.00000000E+00
  0.00000000E+00  0.00000000E+00  0.00000000E+00
  0.00000000E+00  0.00000000E+00  0.00000000E+00
  0.00000000E+00  0.00000000E+00  0.00000000E+00
  0.00000000E+00  0.00000000E+00  0.00000000E+00
  0.00000000E+00  0.00000000E+00  0.00000000E+00
