Title                                   
   1.00000000000000     
     4.9440799999999996    0.0000000000000000    0.0000000000000000
     0.0000000000000000    8.5647549999999999    0.0000000000000000
     0.0000000000000000    0.0000000000000000   20.0000000000000000
    13     2     1
Selective dynamics
Direct
  0.2406252046159525  0.2097073063336400  0.0933531182107941   T   T   T
 -0.0142588570784079  0.2929152645889565  0.0895820493089394   T   T   T
  0.2459188383607839  0.0437906245035558  0.0916526854191539   T   T   T
  0.0046771733214951  0.7924519634870407  0.0971498532249108   T   T   T
 -0.0021099740884575  0.9586110318241742  0.0904576986342624   T   T   T
  0.7410135285870132  0.2065323243894367  0.0909350814969352   T   T   T
  0.4927026413337232  0.2902990016004562  0.1006918798206653   T   T   T
  0.7464523193398728  0.0403249315358850  0.0887722485388691   T   T   T
  0.7544953890335976  0.7056971521010615  0.0977340670677270   T   T   T
  0.5012557811925887  0.7934732542894752  0.0984721821007775   T   T   T
  0.7540092046642850  0.5332960734169582  0.0998423662872890   T   T   T
  0.4977893798246982  0.9589190636798655  0.0924248858898732   T   T   T
  0.5229165735497787  0.4484441459260139  0.1206462052440291   T   T   T
 -0.0176110977368312  0.4510226986775951  0.0850475373351235   T   T   T
  0.2544396916033149  0.7191243117341853  0.1060336155001579   T   T   T
  0.2776842034765914  0.5553908519117007  0.1797165259205003   T   T   T
 
  0.00000000E+00  0.00000000E+00  0.00000000E+00
  0.00000000E+00  0.00000000E+00  0.00000000E+00
  0.00000000E+00  0.00000000E+00  0.00000000E+00
  0.00000000E+00  0.00000000E+00  0.00000000E+00
  0.00000000E+00  0.00000000E+00  0.00000000E+00
  0.00000000E+00  0.00000000E+00  0.00000000E+00
  0.00000000E+00  0.00000000E+00  0.00000000E+00
  0.00000000E+00  0.00000000E+00  0.00000000E+00
  0.00000000E+00  0.00000000E+00  0.00000000E+00
  0.00000000E+00  0.00000000E+00  0.00000000E+00
  0.00000000E+00  0.00000000E+00  0.00000000E+00
  0.00000000E+00  0.00000000E+00  0.00000000E+00
  0.00000000E+00  0.00000000E+00  0.00000000E+00
  0.00000000E+00  0.00000000E+00  0.00000000E+00
  0.00000000E+00  0.00000000E+00  0.00000000E+00
  0.00000000E+00  0.00000000E+00  0.00000000E+00
