Title                                   
   1.00000000000000     
     9.8694509999999998    0.0000000000000000    0.0000000000000000
     0.0000000000000000    8.5490480000000009    0.0000000000000000
     0.0000000000000000    0.0000000000000000   20.0000000000000000
    27     4     1
Selective dynamics
Direct
  0.0560913019602760  0.0916441324317127  0.0845394790578950   T   T   T
  0.9303845248873587  0.1751736500656091  0.0869389378096332   T   T   T
  0.0570457172946423  0.9237595128010868  0.0842731625416499   T   T   T
  0.9286927211758051  0.3421134158387733  0.0904623251203327   T   T   T
  0.0557744409308903  0.5896584548963748  0.0874829424199736   T   T   T
  0.9317472566002760  0.6736221615200105  0.0886611461463593   T   T   T
  0.0562817599321687  0.4233814354555901  0.0897457386854282   T   T   T
  0.9318443134749548  0.8412707427367069  0.0862873258304871   T   T   T
  0.3053467413723988  0.0881938544723633  0.0861051101516411   T   T   T
  0.1820450855136872  0.1742287893490306  0.0861955792563593   T   T   T
  0.3075350545227509  0.9224902958154658  0.0878089972188742   T   T   T
  0.1818560026055553  0.3400265247090604  0.0904301949540525   T   T   T
  0.3058857380947903  0.5893001734896129  0.0990813781788344   T   T   T
  0.1817601605343257  0.6707034343904827  0.0885831637286149   T   T   T
  0.1825387232740524  0.8382929837164732  0.0864396885273887   T   T   T
  0.5557275145510119  0.0858263941808707  0.0952631914505192   T   T   T
  0.4303656576299922  0.1691039251527105  0.0915461194402012   T   T   T
  0.4307961450738757  0.3338947650653783  0.0981320909657772   T   T   T
  0.4298849485632822  0.8377873904189301  0.0992213888872310   T   T   T
  0.8065199404221267  0.0908446469010588  0.0873679817468458   T   T   T
  0.6801318405092245  0.1704575414374236  0.0934227103669854   T   T   T
  0.8065909668404994  0.9253102036596076  0.0873748677435049   T   T   T
  0.6770062350029918  0.3347398600938327  0.0999268081976022   T   T   T
  0.8068819048415320  0.5948841110230798  0.0976613333434627   T   T   T
  0.8005685189796014  0.4262944019081384  0.0967547698855735   T   T   T
  0.6836004833535038  0.8417137114549368  0.0964985175616895   T   T   T
  0.4232129170746058  0.6775142112178111  0.1166542399672052   T   T   T
  0.5509782283205933  0.4059657247276082  0.1148068757986534   T   T   T
  0.6909806615794796  0.6855297803923013  0.1118217397390907   T   T   T
  0.5571610142445923  0.9201214290332286  0.0986264306828625   T   T   T
  0.3081277145619226  0.4218079878182109  0.0969686870041505   T   T   T
  0.5662747662772387  0.5845903538265217  0.1805920775911375   T   T   T
 
  0.00000000E+00  0.00000000E+00  0.00000000E+00
  0.00000000E+00  0.00000000E+00  0.00000000E+00
  0.00000000E+00  0.00000000E+00  0.00000000E+00
  0.00000000E+00  0.00000000E+00  0.00000000E+00
  0.00000000E+00  0.00000000E+00  0.00000000E+00
  0.00000000E+00  0.00000000E+00  0.00000000E+00
  0.00000000E+00  0.00000000E+00  0.00000000E+00
  0.00000000E+00  0.00000000E+00  0.00000000E+00
  0.00000000E+00  0.00000000E+00  0.00000000E+00
  0.00000000E+00  0.00000000E+00  0.00000000E+00
  0.00000000E+00  0.00000000E+00  0.00000000E+00
  0.00000000E+00  0.00000000E+00  0.00000000E+00
  0.00000000E+00  0.00000000E+00  0.00000000E+00
  0.00000000E+00  0.00000000E+00  0.00000000E+00
  0.00000000E+00  0.00000000E+00  0.00000000E+00
  0.00000000E+00  0.00000000E+00  0.00000000E+00
  0.00000000E+00  0.00000000E+00  0.00000000E+00
  0.00000000E+00  0.00000000E+00  0.00000000E+00
  0.00000000E+00  0.00000000E+00  0.00000000E+00
  0.00000000E+00  0.00000000E+00  0.00000000E+00
  0.00000000E+00  0.00000000E+00  0.00000000E+00
  0.00000000E+00  0.00000000E+00  0.00000000E+00
  0.00000000E+00  0.00000000E+00  0.00000000E+00
  0.00000000E+00  0.00000000E+00  0.00000000E+00
  0.00000000E+00  0.00000000E+00  0.00000000E+00
  0.00000000E+00  0.00000000E+00  0.00000000E+00
  0.00000000E+00  0.00000000E+00  0.00000000E+00
  0.00000000E+00  0.00000000E+00  0.00000000E+00
  0.00000000E+00  0.00000000E+00  0.00000000E+00
  0.00000000E+00  0.00000000E+00  0.00000000E+00
  0.00000000E+00  0.00000000E+00  0.00000000E+00
  0.00000000E+00  0.00000000E+00  0.00000000E+00
