Title                                   
   1.00000000000000     
     9.8694509999999998    0.0000000000000000    0.0000000000000000
     0.0000000000000000    8.5490480000000009    0.0000000000000000
     0.0000000000000000    0.0000000000000000   20.0000000000000000
    26     4     1
Selective dynamics
Direct
  0.0553907363540676  0.0909226082182909  0.0872994580068138   T   T   T
  0.9306572410266841  0.1728833302132792  0.0888525646541305   T   T   T
  0.0575330561106991  0.9238353693292027  0.0873344053313345   T   T   T
  0.9331625097293591  0.3405760141074416  0.0873359747285162   T   T   T
  0.0572457849076237  0.5903263438048805  0.0820860269779211   T   T   T
  0.9340321913687859  0.6751437433555889  0.0871274576387360   T   T   T
  0.0572941537701259  0.4233356307801219  0.0824282648310638   T   T   T
  0.9326471893105168  0.8412499145992238  0.0890952828281230   T   T   T
  0.3063557269378038  0.0883455230077537  0.0946502898822176   T   T   T
  0.1805462688557429  0.1713760966153317  0.0885612361722650   T   T   T
  0.1805798671641090  0.3385461427569505  0.0861625494122634   T   T   T
  0.3020494608691055  0.5893548619992088  0.0923806114000865   T   T   T
  0.1807070224670231  0.6740457562580119  0.0848782438142207   T   T   T
  0.3023888062339904  0.4217819967983140  0.0943683270983529   T   T   T
  0.1812902732895186  0.8406663504985370  0.0876315096446470   T   T   T
  0.5551316208931180  0.0897946505000209  0.1059937170895814   T   T   T
  0.4277298934943758  0.1730716205298587  0.1043370776982717   T   T   T
  0.5544975118907670  0.9180499972103142  0.1052320016124683   T   T   T
  0.4273359611390540  0.8354641757149158  0.1015049403776899   T   T   T
  0.8043734131822535  0.0899378291697574  0.0948185707572499   T   T   T
  0.6813161519747226  0.1747472733927629  0.1042125276135795   T   T   T
  0.8057703390561415  0.9219650105789917  0.0949533714447523   T   T   T
  0.6894223320287353  0.3427543437896070  0.1120040256230605   T   T   T
  0.8138776508498410  0.5928468246954149  0.0975258752202471   T   T   T
  0.8124556917017542  0.4250457233178355  0.0972262695647715   T   T   T
  0.6837597269769214  0.8342780298839765  0.1043189385970750   T   T   T
  0.4196072334210667  0.3374229200877136  0.1112236936583931   T   T   T
  0.6940045767611762  0.6721907223311673  0.1123742189096478   T   T   T
  0.4192298239850493  0.6754894993807335  0.1060317185285216   T   T   T
  0.3070477093121477  0.9224648822006651  0.0930125255958723   T   T   T
  0.5556950749377290  0.5029618148741396  0.1360033252881629   T   T   T
 
  0.00000000E+00  0.00000000E+00  0.00000000E+00
  0.00000000E+00  0.00000000E+00  0.00000000E+00
  0.00000000E+00  0.00000000E+00  0.00000000E+00
  0.00000000E+00  0.00000000E+00  0.00000000E+00
  0.00000000E+00  0.00000000E+00  0.00000000E+00
  0.00000000E+00  0.00000000E+00  0.00000000E+00
  0.00000000E+00  0.00000000E+00  0.00000000E+00
  0.00000000E+00  0.00000000E+00  0.00000000E+00
  0.00000000E+00  0.00000000E+00  0.00000000E+00
  0.00000000E+00  0.00000000E+00  0.00000000E+00
  0.00000000E+00  0.00000000E+00  0.00000000E+00
  0.00000000E+00  0.00000000E+00  0.00000000E+00
  0.00000000E+00  0.00000000E+00  0.00000000E+00
  0.00000000E+00  0.00000000E+00  0.00000000E+00
  0.00000000E+00  0.00000000E+00  0.00000000E+00
  0.00000000E+00  0.00000000E+00  0.00000000E+00
  0.00000000E+00  0.00000000E+00  0.00000000E+00
  0.00000000E+00  0.00000000E+00  0.00000000E+00
  0.00000000E+00  0.00000000E+00  0.00000000E+00
  0.00000000E+00  0.00000000E+00  0.00000000E+00
  0.00000000E+00  0.00000000E+00  0.00000000E+00
  0.00000000E+00  0.00000000E+00  0.00000000E+00
  0.00000000E+00  0.00000000E+00  0.00000000E+00
  0.00000000E+00  0.00000000E+00  0.00000000E+00
  0.00000000E+00  0.00000000E+00  0.00000000E+00
  0.00000000E+00  0.00000000E+00  0.00000000E+00
  0.00000000E+00  0.00000000E+00  0.00000000E+00
  0.00000000E+00  0.00000000E+00  0.00000000E+00
  0.00000000E+00  0.00000000E+00  0.00000000E+00
  0.00000000E+00  0.00000000E+00  0.00000000E+00
  0.00000000E+00  0.00000000E+00  0.00000000E+00
