Title                                   
   1.00000000000000     
     9.8694509999999998    0.0000000000000000    0.0000000000000000
     0.0000000000000000    8.5490480000000009    0.0000000000000000
     0.0000000000000000    0.0000000000000000   20.0000000000000000
    28     3     1
Selective dynamics
Direct
  0.0562412516572767  0.0920933790293106  0.0821307100859121   T   T   T
  0.9307333602498116  0.1746589546645694  0.0837941681794851   T   T   T
  0.0562343815170928  0.9247071380964887  0.0829789491184390   T   T   T
  0.9295059931854732  0.3414570208748015  0.0867294546972178   T   T   T
  0.0562381928733013  0.5893934170312757  0.0844514697894323   T   T   T
  0.9326199319542299  0.6737637082614741  0.0877834712208406   T   T   T
  0.0562195623699872  0.4234165510051180  0.0853023911125842   T   T   T
  0.9325032572251846  0.8407774295220818  0.0861246268352436   T   T   T
  0.3056230766302114  0.0895787338374185  0.0854460873656019   T   T   T
  0.1817396563033403  0.1746453029514392  0.0837564461730696   T   T   T
  0.3048557481294358  0.9235947091010751  0.0884191754394511   T   T   T
  0.1829359994192409  0.3414365063378551  0.0866813938880400   T   T   T
  0.3021186942861931  0.5924669708174017  0.0991633334769376   T   T   T
  0.1798656266600414  0.6737754485071386  0.0877217028125748   T   T   T
  0.3094465827009274  0.4244752286083193  0.0960209325564357   T   T   T
  0.1799657664552713  0.8407879223829814  0.0860592711747897   T   T   T
  0.5562318023584392  0.0836321388602064  0.0934869352616330   T   T   T
  0.4313003848830488  0.1688393753787581  0.0915590727331715   T   T   T
  0.5562343070589276  0.9165573586377946  0.0985101217339148   T   T   T
  0.4318303201153467  0.3324570919500343  0.1006070764983327   T   T   T
  0.4261204866743671  0.8406188385993757  0.1002112096068857   T   T   T
  0.8068575500162934  0.0895825266903829  0.0855107365130848   T   T   T
  0.6811763461829217  0.1688338448632597  0.0915977568373695   T   T   T
  0.8076392541145219  0.9236142970608632  0.0885188268399191   T   T   T
  0.6806325874483513  0.3324587033245480  0.1006414781971799   T   T   T
  0.8104060963796816  0.5924582591221291  0.0992676609178208   T   T   T
  0.8030184021709581  0.4244735998624418  0.0961035680371740   T   T   T
  0.6863772131713760  0.8406228359771276  0.1002809117249561   T   T   T
  0.4139399629916036  0.6831553349012156  0.1185611159889844   T   T   T
  0.5562131320997876  0.3994768474290258  0.1195432232918150   T   T   T
  0.6985926330288693  0.6831724141412948  0.1186325422945020   T   T   T
  0.5562214396884935  0.5892641121728019  0.1700791795972357   T   T   T
 
  0.00000000E+00  0.00000000E+00  0.00000000E+00
  0.00000000E+00  0.00000000E+00  0.00000000E+00
  0.00000000E+00  0.00000000E+00  0.00000000E+00
  0.00000000E+00  0.00000000E+00  0.00000000E+00
  0.00000000E+00  0.00000000E+00  0.00000000E+00
  0.00000000E+00  0.00000000E+00  0.00000000E+00
  0.00000000E+00  0.00000000E+00  0.00000000E+00
  0.00000000E+00  0.00000000E+00  0.00000000E+00
  0.00000000E+00  0.00000000E+00  0.00000000E+00
  0.00000000E+00  0.00000000E+00  0.00000000E+00
  0.00000000E+00  0.00000000E+00  0.00000000E+00
  0.00000000E+00  0.00000000E+00  0.00000000E+00
  0.00000000E+00  0.00000000E+00  0.00000000E+00
  0.00000000E+00  0.00000000E+00  0.00000000E+00
  0.00000000E+00  0.00000000E+00  0.00000000E+00
  0.00000000E+00  0.00000000E+00  0.00000000E+00
  0.00000000E+00  0.00000000E+00  0.00000000E+00
  0.00000000E+00  0.00000000E+00  0.00000000E+00
  0.00000000E+00  0.00000000E+00  0.00000000E+00
  0.00000000E+00  0.00000000E+00  0.00000000E+00
  0.00000000E+00  0.00000000E+00  0.00000000E+00
  0.00000000E+00  0.00000000E+00  0.00000000E+00
  0.00000000E+00  0.00000000E+00  0.00000000E+00
  0.00000000E+00  0.00000000E+00  0.00000000E+00
  0.00000000E+00  0.00000000E+00  0.00000000E+00
  0.00000000E+00  0.00000000E+00  0.00000000E+00
  0.00000000E+00  0.00000000E+00  0.00000000E+00
  0.00000000E+00  0.00000000E+00  0.00000000E+00
  0.00000000E+00  0.00000000E+00  0.00000000E+00
  0.00000000E+00  0.00000000E+00  0.00000000E+00
  0.00000000E+00  0.00000000E+00  0.00000000E+00
  0.00000000E+00  0.00000000E+00  0.00000000E+00
