Title                                   
   1.00000000000000     
     4.9440799999999996    0.0000000000000000    0.0000000000000000
     0.0000000000000000    8.5647549999999999    0.0000000000000000
     0.0000000000000000    0.0000000000000000   20.0000000000000000
    14     1
Selective dynamics
Direct
  0.2500000000000000  0.2064223312031726  0.0947990502278471   T   T   T
 -0.0016314267251484  0.2917927072706200  0.0947987796790253   T   T   T
  0.2500000000000000  0.0431434035014577  0.0948000246833647   T   T   T
 -0.0016069178196897  0.9577826916406350  0.0948285933619817   T   T   T
  0.7500000000000000  0.2076405596560865  0.0913305796900627   T   T   T
  0.5016314267251484  0.2917927072706200  0.0947987796790253   T   T   T
  0.7500000000000000  0.0418977340527453  0.0913526413960936   T   T   T
  0.7500000000000000  0.7112821403599845  0.0976135974552162   T   T   T
  0.7500000000000000  0.5382525238451606  0.0975989717836867   T   T   T
  0.5016069178196899  0.9577826916406350  0.0948285933619817   T   T   T
  0.5051944440515047  0.4548845584514723  0.0997065959082008   T   T   T
 -0.0051944440515042  0.4548845584514723  0.0997065959082008   T   T   T
 -0.0051949418697523  0.7946809790439134  0.0997336722917270   T   T   T
  0.5051949418697521  0.7946809790439134  0.0997336722917270   T   T   T
  0.2500000000000000  0.6247604345681136  0.1623498522818629   T   T   T
 
  0.00000000E+00  0.00000000E+00  0.00000000E+00
  0.00000000E+00  0.00000000E+00  0.00000000E+00
  0.00000000E+00  0.00000000E+00  0.00000000E+00
  0.00000000E+00  0.00000000E+00  0.00000000E+00
  0.00000000E+00  0.00000000E+00  0.00000000E+00
  0.00000000E+00  0.00000000E+00  0.00000000E+00
  0.00000000E+00  0.00000000E+00  0.00000000E+00
  0.00000000E+00  0.00000000E+00  0.00000000E+00
  0.00000000E+00  0.00000000E+00  0.00000000E+00
  0.00000000E+00  0.00000000E+00  0.00000000E+00
  0.00000000E+00  0.00000000E+00  0.00000000E+00
  0.00000000E+00  0.00000000E+00  0.00000000E+00
  0.00000000E+00  0.00000000E+00  0.00000000E+00
  0.00000000E+00  0.00000000E+00  0.00000000E+00
  0.00000000E+00  0.00000000E+00  0.00000000E+00
