Title                                   
   1.00000000000000     
     9.8694509999999998    0.0000000000000000    0.0000000000000000
     0.0000000000000000    8.5490480000000009    0.0000000000000000
     0.0000000000000000    0.0000000000000000   20.0000000000000000
    27     4     1
Selective dynamics
Direct
  0.0557568285135094  0.0926639415448549  0.0882249961388855   T   T   T
  0.9309810433813465  0.1744676461764867  0.0893181890185250   T   T   T
  0.0572936656368054  0.9252027976567078  0.0878373002540379   T   T   T
  0.9294878760280287  0.3422229437450253  0.0914526573383639   T   T   T
  0.0567507516995190  0.5903731114548855  0.0885267499667060   T   T   T
  0.9325702377792429  0.6738763253489810  0.0900328415192219   T   T   T
  0.0567605335688481  0.4234481438611431  0.0899620601221726   T   T   T
  0.9328520911342640  0.8402537432284464  0.0889767898789680   T   T   T
  0.3056079727239933  0.0882668849659644  0.0904405750811731   T   T   T
  0.1820466580757617  0.1738466504308343  0.0894810069779782   T   T   T
  0.1838013668450812  0.3412052774027068  0.0909471616474112   T   T   T
  0.3057983729902984  0.5931468194278423  0.0962276741112465   T   T   T
  0.1809459086172290  0.6749898307829035  0.0895413585507993   T   T   T
  0.3099486125886111  0.4253796487927897  0.0955438606026148   T   T   T
  0.1806662723248884  0.8412364270226844  0.0891761856172488   T   T   T
  0.5564238816624827  0.0832877251642168  0.0942338438974672   T   T   T
  0.4312202416760112  0.1677701174695232  0.0933168185464101   T   T   T
  0.5551706982784620  0.9167495147725043  0.0971537806424301   T   T   T
  0.4343219533618278  0.3343021174331954  0.0982538812450750   T   T   T
  0.4261961712366127  0.8372349766300400  0.0980042051710299   T   T   T
  0.8065672860088947  0.0889661556583053  0.0896217703541748   T   T   T
  0.6807016013114014  0.1687366685099112  0.0928490421192181   T   T   T
  0.8074359707924711  0.9231505221577989  0.0904087078493380   T   T   T
  0.6776217635745483  0.3350706316378440  0.0983832853955732   T   T   T
  0.8068361824106124  0.5936069693724065  0.0973853996463729   T   T   T
  0.8030115131712430  0.4247572003917096  0.0966272121816828   T   T   T
  0.6847607830476035  0.8360094716397669  0.0975837043959967   T   T   T
  0.4199331237582986  0.6816548266500995  0.1059066220383088   T   T   T
  0.5559391407576370  0.4075035699693724  0.1064860864635954   T   T   T
  0.6913784455250779  0.6785681835779521  0.1064610860581219   T   T   T
  0.3049882485221866  0.9241416334092027  0.0910121683762275   T   T   T
  0.5558638029972086  0.5881555237138978  0.1762979787936409   T   T   T
 
  0.00000000E+00  0.00000000E+00  0.00000000E+00
  0.00000000E+00  0.00000000E+00  0.00000000E+00
  0.00000000E+00  0.00000000E+00  0.00000000E+00
  0.00000000E+00  0.00000000E+00  0.00000000E+00
  0.00000000E+00  0.00000000E+00  0.00000000E+00
  0.00000000E+00  0.00000000E+00  0.00000000E+00
  0.00000000E+00  0.00000000E+00  0.00000000E+00
  0.00000000E+00  0.00000000E+00  0.00000000E+00
  0.00000000E+00  0.00000000E+00  0.00000000E+00
  0.00000000E+00  0.00000000E+00  0.00000000E+00
  0.00000000E+00  0.00000000E+00  0.00000000E+00
  0.00000000E+00  0.00000000E+00  0.00000000E+00
  0.00000000E+00  0.00000000E+00  0.00000000E+00
  0.00000000E+00  0.00000000E+00  0.00000000E+00
  0.00000000E+00  0.00000000E+00  0.00000000E+00
  0.00000000E+00  0.00000000E+00  0.00000000E+00
  0.00000000E+00  0.00000000E+00  0.00000000E+00
  0.00000000E+00  0.00000000E+00  0.00000000E+00
  0.00000000E+00  0.00000000E+00  0.00000000E+00
  0.00000000E+00  0.00000000E+00  0.00000000E+00
  0.00000000E+00  0.00000000E+00  0.00000000E+00
  0.00000000E+00  0.00000000E+00  0.00000000E+00
  0.00000000E+00  0.00000000E+00  0.00000000E+00
  0.00000000E+00  0.00000000E+00  0.00000000E+00
  0.00000000E+00  0.00000000E+00  0.00000000E+00
  0.00000000E+00  0.00000000E+00  0.00000000E+00
  0.00000000E+00  0.00000000E+00  0.00000000E+00
  0.00000000E+00  0.00000000E+00  0.00000000E+00
  0.00000000E+00  0.00000000E+00  0.00000000E+00
  0.00000000E+00  0.00000000E+00  0.00000000E+00
  0.00000000E+00  0.00000000E+00  0.00000000E+00
  0.00000000E+00  0.00000000E+00  0.00000000E+00
