Title                                   
   1.00000000000000     
     9.8694509999999998    0.0000000000000000    0.0000000000000000
     0.0000000000000000    8.5490480000000009    0.0000000000000000
     0.0000000000000000    0.0000000000000000   20.0000000000000000
    29     2     1
Selective dynamics
Direct
  0.0566731522182535  0.0906168460740088  0.0859632386108027   T   T   T
  0.9311515700868270  0.1720839304110860  0.0886094629628505   T   T   T
  0.0554392416056906  0.9238590744210520  0.0854999849338100   T   T   T
  0.9316528966761481  0.3394285219062221  0.0916547762448904   T   T   T
  0.0564363232679773  0.5893543506382346  0.0881612059515728   T   T   T
  0.9317119703369091  0.6722044874388909  0.0914047304351048   T   T   T
  0.0573671916646682  0.4233959332913350  0.0893771344292097   T   T   T
  0.9303731328419056  0.8387500413273707  0.0886136103269901   T   T   T
  0.3058588819744724  0.0911005565894118  0.0884555825079413   T   T   T
  0.1820571761328751  0.1749460236182637  0.0877492464410101   T   T   T
  0.3051255392433594  0.9255761878357388  0.0878789034477467   T   T   T
  0.1836503117167758  0.3426408936930710  0.0904932976923135   T   T   T
  0.3050275541643497  0.5948947748479255  0.0964502848093109   T   T   T
  0.1803691852456751  0.6744236736967432  0.0882220008820846   T   T   T
  0.3088299777348605  0.4264661440668260  0.0971426342246761   T   T   T
  0.1802686834525458  0.8409450280359670  0.0864710288677222   T   T   T
  0.5556296001491372  0.0854994295020663  0.0968379008658545   T   T   T
  0.4321359269862267  0.1705904391204859  0.0949241588808130   T   T   T
  0.4336791136330254  0.3376732602980436  0.1026896809324573   T   T   T
  0.5594520829302247  0.4087229200033298  0.1164486233632977   T   T   T
  0.4272897610203797  0.8405588722266197  0.0963677996518619   T   T   T
  0.8071964361868760  0.0872160166800539  0.0905096458310873   T   T   T
  0.6814940422797641  0.1672169679738887  0.0966203333759555   T   T   T
  0.8049543141332030  0.9213803492986909  0.0908021663543622   T   T   T
  0.6832115914724995  0.3332114207972895  0.1045250597373550   T   T   T
  0.8087473673902129  0.5889641975376415  0.1022617651683928   T   T   T
  0.6891095718281851  0.6766534402350493  0.1150517463193056   T   T   T
  0.8080533449019465  0.4207532947688691  0.1003360001931112   T   T   T
  0.6807515196092294  0.8370223372661820  0.1001812628268774   T   T   T
  0.4210672131911667  0.6844012676151654  0.1070996867896541   T   T   T
  0.5537334442010373  0.9190850087300257  0.0981092774182574   T   T   T
  0.5511408817235971  0.5906103100544404  0.1587627695233658   T   T   T
 
  0.00000000E+00  0.00000000E+00  0.00000000E+00
  0.00000000E+00  0.00000000E+00  0.00000000E+00
  0.00000000E+00  0.00000000E+00  0.00000000E+00
  0.00000000E+00  0.00000000E+00  0.00000000E+00
  0.00000000E+00  0.00000000E+00  0.00000000E+00
  0.00000000E+00  0.00000000E+00  0.00000000E+00
  0.00000000E+00  0.00000000E+00  0.00000000E+00
  0.00000000E+00  0.00000000E+00  0.00000000E+00
  0.00000000E+00  0.00000000E+00  0.00000000E+00
  0.00000000E+00  0.00000000E+00  0.00000000E+00
  0.00000000E+00  0.00000000E+00  0.00000000E+00
  0.00000000E+00  0.00000000E+00  0.00000000E+00
  0.00000000E+00  0.00000000E+00  0.00000000E+00
  0.00000000E+00  0.00000000E+00  0.00000000E+00
  0.00000000E+00  0.00000000E+00  0.00000000E+00
  0.00000000E+00  0.00000000E+00  0.00000000E+00
  0.00000000E+00  0.00000000E+00  0.00000000E+00
  0.00000000E+00  0.00000000E+00  0.00000000E+00
  0.00000000E+00  0.00000000E+00  0.00000000E+00
  0.00000000E+00  0.00000000E+00  0.00000000E+00
  0.00000000E+00  0.00000000E+00  0.00000000E+00
  0.00000000E+00  0.00000000E+00  0.00000000E+00
  0.00000000E+00  0.00000000E+00  0.00000000E+00
  0.00000000E+00  0.00000000E+00  0.00000000E+00
  0.00000000E+00  0.00000000E+00  0.00000000E+00
  0.00000000E+00  0.00000000E+00  0.00000000E+00
  0.00000000E+00  0.00000000E+00  0.00000000E+00
  0.00000000E+00  0.00000000E+00  0.00000000E+00
  0.00000000E+00  0.00000000E+00  0.00000000E+00
  0.00000000E+00  0.00000000E+00  0.00000000E+00
  0.00000000E+00  0.00000000E+00  0.00000000E+00
  0.00000000E+00  0.00000000E+00  0.00000000E+00
