Title                                   
   1.00000000000000     
     4.9440799999999996    0.0000000000000000    0.0000000000000000
     0.0000000000000000   17.1295089999999988    0.0000000000000000
     0.0000000000000000    0.0000000000000000   20.0000000000000000
    29     1     1
Selective dynamics
Direct
 -0.0031349010950338  0.1052131231976446  0.2947658731569250   T   T   T
  0.2454517167659874  0.1476745386814692  0.2955348282467238   T   T   T
  0.2439838308540611  0.2313273450122522  0.2983247424027758   T   T   T
 -0.0066142746117455  0.2735918138014649  0.3009819419931130   T   T   T
  0.0054254329197962  0.6017244711982440  0.3009572743511262   T   T   T
  0.2526119120077843  0.7278817340175404  0.2958554444822672   T   T   T
  0.0006204289387522  0.8538446045948944  0.2939791895000582   T   T   T
  0.2502742996228845  0.8958558387735043  0.2938382035159208   T   T   T
  0.2487287868202991  0.9795231462244203  0.2938524930965442   T   T   T
  0.0020269352720188  0.7701110959803091  0.2948829564929749   T   T   T
  0.4965533164214794  0.1055248660624879  0.2944352082671804   T   T   T
  0.7469600515944135  0.1471244091239098  0.2950187917007712   T   T   T
  0.7449603641025733  0.2309318295617293  0.2972004889391330   T   T   T
  0.4980306811775237  0.0217206468073423  0.2938515128745351   T   T   T
  0.7502369117442650  0.3928700126295230  0.3055062263417552   T   T   T
  0.7566321962115999  0.4787633463133186  0.3080125881107136   T   T   T
  0.4941455371457737  0.2729135278848555  0.2983843548019650   T   T   T
  0.5042693661042639  0.6023291763776132  0.3015178423550148   T   T   T
  0.7528649171961382  0.7281095492901847  0.2957220291997570   T   T   T
  0.5007693085547136  0.8537804501665225  0.2939883151096509   T   T   T
  0.7501086150871895  0.8958228165359606  0.2937386351731449   T   T   T
  0.7485199386258913  0.9796957954755390  0.2937121923443929   T   T   T
  0.5024773654720897  0.7700470480664329  0.2949637945336047   T   T   T
  0.7544234500445948  0.6441681634890876  0.2986921413512586   T   T   T
  0.2541056414390975  0.6446304096842339  0.2990385022517701   T   T   T
 -0.0017112098888362  0.0215020376445970  0.2939846330413092   T   T   T
  0.5064983522707395  0.5197361514820436  0.3088953892332396   T   T   T
  0.0057474648512175  0.5186412239863626  0.3061371006670656   T   T   T
  0.5022071481847794  0.3555075755504746  0.3011513604518194   T   T   T
 -0.0090011240148533  0.3539808676792275  0.3083437688310678   T   T   T
  0.2618345401805421  0.4367943847068071  0.3397921771823744   T   T   T
 
  0.00000000E+00  0.00000000E+00  0.00000000E+00
  0.00000000E+00  0.00000000E+00  0.00000000E+00
  0.00000000E+00  0.00000000E+00  0.00000000E+00
  0.00000000E+00  0.00000000E+00  0.00000000E+00
  0.00000000E+00  0.00000000E+00  0.00000000E+00
  0.00000000E+00  0.00000000E+00  0.00000000E+00
  0.00000000E+00  0.00000000E+00  0.00000000E+00
  0.00000000E+00  0.00000000E+00  0.00000000E+00
  0.00000000E+00  0.00000000E+00  0.00000000E+00
  0.00000000E+00  0.00000000E+00  0.00000000E+00
  0.00000000E+00  0.00000000E+00  0.00000000E+00
  0.00000000E+00  0.00000000E+00  0.00000000E+00
  0.00000000E+00  0.00000000E+00  0.00000000E+00
  0.00000000E+00  0.00000000E+00  0.00000000E+00
  0.00000000E+00  0.00000000E+00  0.00000000E+00
  0.00000000E+00  0.00000000E+00  0.00000000E+00
  0.00000000E+00  0.00000000E+00  0.00000000E+00
  0.00000000E+00  0.00000000E+00  0.00000000E+00
  0.00000000E+00  0.00000000E+00  0.00000000E+00
  0.00000000E+00  0.00000000E+00  0.00000000E+00
  0.00000000E+00  0.00000000E+00  0.00000000E+00
  0.00000000E+00  0.00000000E+00  0.00000000E+00
  0.00000000E+00  0.00000000E+00  0.00000000E+00
  0.00000000E+00  0.00000000E+00  0.00000000E+00
  0.00000000E+00  0.00000000E+00  0.00000000E+00
  0.00000000E+00  0.00000000E+00  0.00000000E+00
  0.00000000E+00  0.00000000E+00  0.00000000E+00
  0.00000000E+00  0.00000000E+00  0.00000000E+00
  0.00000000E+00  0.00000000E+00  0.00000000E+00
  0.00000000E+00  0.00000000E+00  0.00000000E+00
  0.00000000E+00  0.00000000E+00  0.00000000E+00
