Title                                   
   1.00000000000000     
     9.8694509999999998    0.0000000000000000    0.0000000000000000
     0.0000000000000000    8.5490480000000009    0.0000000000000000
     0.0000000000000000    0.0000000000000000   20.0000000000000000
    26     5     1
Selective dynamics
Direct
  0.0564203457961948  0.0926307754146463  0.0903313636279088   T   T   T
  0.9306964932567662  0.1750339380468735  0.0917335190316089   T   T   T
  0.0567296828543582  0.9246675648038317  0.0900638530559223   T   T   T
  0.9292419217598018  0.3421975136984705  0.0937884049802932   T   T   T
  0.0557555047914429  0.5901678350571509  0.0910611844776251   T   T   T
  0.9320096215205786  0.6737082862751730  0.0925726732518273   T   T   T
  0.0573559174824698  0.4235568773228642  0.0924995983038481   T   T   T
  0.9318866270045897  0.8411206929978512  0.0913411489132101   T   T   T
  0.3052210590510824  0.0884388828661126  0.0902249528222909   T   T   T
  0.1825992670289444  0.1755309598121134  0.0906666258103803   T   T   T
  0.3062665570880370  0.9231357303849623  0.0909036828504403   T   T   T
  0.1832228277572553  0.3418159897114000  0.0921156977612698   T   T   T
  0.3076632941595278  0.5935101516344512  0.0942912438646971   T   T   T
  0.1810241881822565  0.6720798923482102  0.0908824984924717   T   T   T
  0.1812301871384109  0.8391286210135402  0.0904136287239750   T   T   T
  0.5554539256274754  0.0835234654676848  0.0939145713642080   T   T   T
  0.4311693956271226  0.1680260479597064  0.0923200831265455   T   T   T
  0.4349200955583692  0.3346829695293095  0.0953565470631734   T   T   T
  0.4276268553322174  0.8348879236341081  0.0948574802996403   T   T   T
  0.8068760622905592  0.0900529535760148  0.0915006083966213   T   T   T
  0.6799063446834341  0.1685269751987542  0.0939174075198702   T   T   T
  0.8068697834838638  0.9246611137835616  0.0916700282066791   T   T   T
  0.6760519511049634  0.3348706005026055  0.0976516248569123   T   T   T
  0.8053022669534068  0.5948179460305412  0.0981967646911380   T   T   T
  0.8015069843869899  0.4253114473341533  0.0973162045378577   T   T   T
  0.6844880862921586  0.8376381556312410  0.0964798234985790   T   T   T
  0.4247051320802256  0.6767543526590898  0.0999588189872236   T   T   T
  0.5532832243462650  0.4110462619900017  0.1021706969211293   T   T   T
  0.6881051196494303  0.6812457260633206  0.1046665012888919   T   T   T
  0.5562488027502596  0.9158458270436061  0.0950349988012826   T   T   T
  0.3113008801962270  0.4245507657134381  0.0936072571802828   T   T   T
  0.5585005947653212  0.5870797564952133  0.1741655072922126   T   T   T
 
  0.00000000E+00  0.00000000E+00  0.00000000E+00
  0.00000000E+00  0.00000000E+00  0.00000000E+00
  0.00000000E+00  0.00000000E+00  0.00000000E+00
  0.00000000E+00  0.00000000E+00  0.00000000E+00
  0.00000000E+00  0.00000000E+00  0.00000000E+00
  0.00000000E+00  0.00000000E+00  0.00000000E+00
  0.00000000E+00  0.00000000E+00  0.00000000E+00
  0.00000000E+00  0.00000000E+00  0.00000000E+00
  0.00000000E+00  0.00000000E+00  0.00000000E+00
  0.00000000E+00  0.00000000E+00  0.00000000E+00
  0.00000000E+00  0.00000000E+00  0.00000000E+00
  0.00000000E+00  0.00000000E+00  0.00000000E+00
  0.00000000E+00  0.00000000E+00  0.00000000E+00
  0.00000000E+00  0.00000000E+00  0.00000000E+00
  0.00000000E+00  0.00000000E+00  0.00000000E+00
  0.00000000E+00  0.00000000E+00  0.00000000E+00
  0.00000000E+00  0.00000000E+00  0.00000000E+00
  0.00000000E+00  0.00000000E+00  0.00000000E+00
  0.00000000E+00  0.00000000E+00  0.00000000E+00
  0.00000000E+00  0.00000000E+00  0.00000000E+00
  0.00000000E+00  0.00000000E+00  0.00000000E+00
  0.00000000E+00  0.00000000E+00  0.00000000E+00
  0.00000000E+00  0.00000000E+00  0.00000000E+00
  0.00000000E+00  0.00000000E+00  0.00000000E+00
  0.00000000E+00  0.00000000E+00  0.00000000E+00
  0.00000000E+00  0.00000000E+00  0.00000000E+00
  0.00000000E+00  0.00000000E+00  0.00000000E+00
  0.00000000E+00  0.00000000E+00  0.00000000E+00
  0.00000000E+00  0.00000000E+00  0.00000000E+00
  0.00000000E+00  0.00000000E+00  0.00000000E+00
  0.00000000E+00  0.00000000E+00  0.00000000E+00
  0.00000000E+00  0.00000000E+00  0.00000000E+00
