Title                                   
   1.00000000000000     
     4.9440799999999996    0.0000000000000000    0.0000000000000000
     0.0000000000000000   17.1295089999999988    0.0000000000000000
     0.0000000000000000    0.0000000000000000   20.0000000000000000
    28     3     1
Selective dynamics
Direct
 -0.0002053647637056  0.1046021943617019  0.2856000048768466   T   T   T
  0.2498654489093355  0.1464168318987781  0.2886790248505213   T   T   T
  0.2498863402565160  0.2294622236653245  0.2972527764070360   T   T   T
  0.0018953432353928  0.3522407422001764  0.3173085778512497   T   T   T
 -0.0008918944260341  0.2709290001565594  0.3018827906871015   T   T   T
 -0.0042947800051365  0.6042039321451504  0.3071675373053120   T   T   T
  0.2499159726441863  0.7275787691799922  0.2915869188586142   T   T   T
  0.0002808631386968  0.8534154455863979  0.2830497465672960   T   T   T
  0.2498923650110734  0.8954277055588610  0.2822629022400624   T   T   T
  0.2498704564770954  0.9791299536980042  0.2819250254908298   T   T   T
  0.0005561776867733  0.7697429527805650  0.2871061262217929   T   T   T
  0.4999364388385845  0.1046044306772794  0.2855996413381167   T   T   T
  0.7498626528648087  0.1465592932459616  0.2878803403844366   T   T   T
  0.7498862113566047  0.2295418583903203  0.2952045690610265   T   T   T
  0.5000089979830600  0.0210228197502083  0.2824153651003590   T   T   T
  0.4979008301380910  0.3522387440113580  0.3172976387515694   T   T   T
  0.7499000016588998  0.3977026581615049  0.3222977881262272   T   T   T
  0.7499272900305932  0.4830025864693588  0.3218934398147201   T   T   T
  0.5006714522633270  0.2709272960345316  0.3018751317923581   T   T   T
  0.5041217593690894  0.6042023225062818  0.3071328961050913   T   T   T
  0.7499177950740138  0.7286489722267878  0.2891195890371359   T   T   T
  0.4995032626349548  0.8534133128313977  0.2830459229596181   T   T   T
  0.7498908936731075  0.8952266960220374  0.2818540429058209   T   T   T
  0.7498731105230915  0.9789670946593272  0.2815597534004278   T   T   T
  0.4992708045472962  0.7697407686279880  0.2871001326036995   T   T   T
  0.7499141113058198  0.6456521528871844  0.2980450192290894   T   T   T
  0.2499101886444512  0.6440589278018585  0.3027411878465429   T   T   T
 -0.0002700175465598  0.0210229443736291  0.2824161039110919   T   T   T
  0.5136682477785921  0.5253031010212280  0.3235946284019285   T   T   T
  0.9861337276720219  0.5253226408886700  0.3237223587766185   T   T   T
  0.2499038457824644  0.3861936433276331  0.3315482118512379   T   T   T
  0.2501204672435014  0.4820489848539338  0.3923998072461743   T   T   T
 
  0.00000000E+00  0.00000000E+00  0.00000000E+00
  0.00000000E+00  0.00000000E+00  0.00000000E+00
  0.00000000E+00  0.00000000E+00  0.00000000E+00
  0.00000000E+00  0.00000000E+00  0.00000000E+00
  0.00000000E+00  0.00000000E+00  0.00000000E+00
  0.00000000E+00  0.00000000E+00  0.00000000E+00
  0.00000000E+00  0.00000000E+00  0.00000000E+00
  0.00000000E+00  0.00000000E+00  0.00000000E+00
  0.00000000E+00  0.00000000E+00  0.00000000E+00
  0.00000000E+00  0.00000000E+00  0.00000000E+00
  0.00000000E+00  0.00000000E+00  0.00000000E+00
  0.00000000E+00  0.00000000E+00  0.00000000E+00
  0.00000000E+00  0.00000000E+00  0.00000000E+00
  0.00000000E+00  0.00000000E+00  0.00000000E+00
  0.00000000E+00  0.00000000E+00  0.00000000E+00
  0.00000000E+00  0.00000000E+00  0.00000000E+00
  0.00000000E+00  0.00000000E+00  0.00000000E+00
  0.00000000E+00  0.00000000E+00  0.00000000E+00
  0.00000000E+00  0.00000000E+00  0.00000000E+00
  0.00000000E+00  0.00000000E+00  0.00000000E+00
  0.00000000E+00  0.00000000E+00  0.00000000E+00
  0.00000000E+00  0.00000000E+00  0.00000000E+00
  0.00000000E+00  0.00000000E+00  0.00000000E+00
  0.00000000E+00  0.00000000E+00  0.00000000E+00
  0.00000000E+00  0.00000000E+00  0.00000000E+00
  0.00000000E+00  0.00000000E+00  0.00000000E+00
  0.00000000E+00  0.00000000E+00  0.00000000E+00
  0.00000000E+00  0.00000000E+00  0.00000000E+00
  0.00000000E+00  0.00000000E+00  0.00000000E+00
  0.00000000E+00  0.00000000E+00  0.00000000E+00
  0.00000000E+00  0.00000000E+00  0.00000000E+00
  0.00000000E+00  0.00000000E+00  0.00000000E+00
