Title                                   
   1.00000000000000     
     9.8694509999999998    0.0000000000000000    0.0000000000000000
     0.0000000000000000    8.5490480000000009    0.0000000000000000
     0.0000000000000000    0.0000000000000000   20.0000000000000000
    25     6     1
Selective dynamics
Direct
  0.0563490621322616  0.0925335740821844  0.0881329027656300   T   T   T
  0.9301248470545601  0.1751821377893608  0.0894266687050722   T   T   T
  0.0563975995943087  0.9235033097064449  0.0878139341801770   T   T   T
  0.9298986014202353  0.3413511410861983  0.0921918594369170   T   T   T
  0.0562189602065451  0.5898452035755395  0.0891703145927721   T   T   T
  0.9314222210416591  0.6713044030289111  0.0908387374987807   T   T   T
  0.0563218886486958  0.4230572785532926  0.0912615454170526   T   T   T
  0.9313003162766306  0.8394095985283241  0.0897156303034979   T   T   T
  0.3058972443100794  0.0892284685325846  0.0881902677729548   T   T   T
  0.1825917505794638  0.1750516887669465  0.0889254359714896   T   T   T
  0.3069472812694464  0.9235629188654009  0.0884547792446167   T   T   T
  0.1827749714898770  0.3411106104938078  0.0911800744718273   T   T   T
  0.3069378816755923  0.5916599349837578  0.0930974224313914   T   T   T
  0.1810745289083094  0.6712146032411863  0.0887164014828062   T   T   T
  0.1815969158456644  0.8393093946622572  0.0879358942876973   T   T   T
  0.5564855594639085  0.0853568558501203  0.0954559925255784   T   T   T
  0.4314455380730450  0.1698368587115507  0.0930839825888676   T   T   T
  0.4341090785500126  0.3345750328471331  0.0986454015127311   T   T   T
  0.4288530627229403  0.8373174125488693  0.0935862474852458   T   T   T
  0.8068228284723523  0.0896090786178429  0.0887548925415179   T   T   T
  0.6813337085121226  0.1703087128212610  0.0935868264002912   T   T   T
  0.8060067801859430  0.9236758553268439  0.0899258263522956   T   T   T
  0.6786507594682333  0.3355348382312606  0.0995965601799782   T   T   T
  0.8059620715581962  0.5918147125116812  0.0976906771498757   T   T   T
  0.6845454269504589  0.8377864579742493  0.0964282748361899   T   T   T
  0.4249037766444592  0.6766835085926631  0.1006682284829503   T   T   T
  0.5561332661644629  0.4085209120454169  0.1149921849713556   T   T   T
  0.6904772901160560  0.6788112163408409  0.1107294120410386   T   T   T
  0.5567244239395145  0.9158951758826641  0.0957866125132864   T   T   T
  0.3115065207445157  0.4242737535451404  0.0939817497493380   T   T   T
  0.8013964275458770  0.4247386404146710  0.0960403467095483   T   T   T
  0.5484284104345791  0.5981827118415957  0.1816699153972449   T   T   T
 
  0.00000000E+00  0.00000000E+00  0.00000000E+00
  0.00000000E+00  0.00000000E+00  0.00000000E+00
  0.00000000E+00  0.00000000E+00  0.00000000E+00
  0.00000000E+00  0.00000000E+00  0.00000000E+00
  0.00000000E+00  0.00000000E+00  0.00000000E+00
  0.00000000E+00  0.00000000E+00  0.00000000E+00
  0.00000000E+00  0.00000000E+00  0.00000000E+00
  0.00000000E+00  0.00000000E+00  0.00000000E+00
  0.00000000E+00  0.00000000E+00  0.00000000E+00
  0.00000000E+00  0.00000000E+00  0.00000000E+00
  0.00000000E+00  0.00000000E+00  0.00000000E+00
  0.00000000E+00  0.00000000E+00  0.00000000E+00
  0.00000000E+00  0.00000000E+00  0.00000000E+00
  0.00000000E+00  0.00000000E+00  0.00000000E+00
  0.00000000E+00  0.00000000E+00  0.00000000E+00
  0.00000000E+00  0.00000000E+00  0.00000000E+00
  0.00000000E+00  0.00000000E+00  0.00000000E+00
  0.00000000E+00  0.00000000E+00  0.00000000E+00
  0.00000000E+00  0.00000000E+00  0.00000000E+00
  0.00000000E+00  0.00000000E+00  0.00000000E+00
  0.00000000E+00  0.00000000E+00  0.00000000E+00
  0.00000000E+00  0.00000000E+00  0.00000000E+00
  0.00000000E+00  0.00000000E+00  0.00000000E+00
  0.00000000E+00  0.00000000E+00  0.00000000E+00
  0.00000000E+00  0.00000000E+00  0.00000000E+00
  0.00000000E+00  0.00000000E+00  0.00000000E+00
  0.00000000E+00  0.00000000E+00  0.00000000E+00
  0.00000000E+00  0.00000000E+00  0.00000000E+00
  0.00000000E+00  0.00000000E+00  0.00000000E+00
  0.00000000E+00  0.00000000E+00  0.00000000E+00
  0.00000000E+00  0.00000000E+00  0.00000000E+00
  0.00000000E+00  0.00000000E+00  0.00000000E+00
