Title                                   
   1.00000000000000     
     4.9440799999999996    0.0000000000000000    0.0000000000000000
     0.0000000000000000    8.5647549999999999    0.0000000000000000
     0.0000000000000000    0.0000000000000000   20.0000000000000000
    13     2     1
Selective dynamics
Direct
 -0.0021357106054643  0.2892411299228423  0.0908096130858462   T   T   T
  0.2500000000000000  0.0433588306198849  0.0854649756044020   T   T   T
  0.0034334311983963  0.7969932105010202  0.0985745853027063   T   T   T
 -0.0000458546837704  0.9602711987901786  0.0850910396395172   T   T   T
  0.7500000000000000  0.2055079790796771  0.0801105108274397   T   T   T
  0.5021357106054642  0.2892411299228423  0.0908096130858462   T   T   T
  0.7500000000000000  0.0414470825486249  0.0792977168878013   T   T   T
  0.7500000000000000  0.7073557003795639  0.1047032798501592   T   T   T
  0.4965665688016037  0.7969932105010202  0.0985745853027063   T   T   T
  0.7500000000000000  0.5352335093675477  0.1060524266030690   T   T   T
  0.5000458546837703  0.9602711987901786  0.0850910396395172   T   T   T
  0.5049755086110140  0.4460222228742552  0.1092988532570518   T   T   T
 -0.0049755086110136  0.4460222228742552  0.1092988532570518   T   T   T
  0.2500000000000000  0.7278909850229672  0.1107177267814410   T   T   T
  0.2500000000000000  0.2053803254046098  0.0891191614826308   T   T   T
  0.2500000000000000  0.5487700634005325  0.1894980193928236   T   T   T
 
  0.00000000E+00  0.00000000E+00  0.00000000E+00
  0.00000000E+00  0.00000000E+00  0.00000000E+00
  0.00000000E+00  0.00000000E+00  0.00000000E+00
  0.00000000E+00  0.00000000E+00  0.00000000E+00
  0.00000000E+00  0.00000000E+00  0.00000000E+00
  0.00000000E+00  0.00000000E+00  0.00000000E+00
  0.00000000E+00  0.00000000E+00  0.00000000E+00
  0.00000000E+00  0.00000000E+00  0.00000000E+00
  0.00000000E+00  0.00000000E+00  0.00000000E+00
  0.00000000E+00  0.00000000E+00  0.00000000E+00
  0.00000000E+00  0.00000000E+00  0.00000000E+00
  0.00000000E+00  0.00000000E+00  0.00000000E+00
  0.00000000E+00  0.00000000E+00  0.00000000E+00
  0.00000000E+00  0.00000000E+00  0.00000000E+00
  0.00000000E+00  0.00000000E+00  0.00000000E+00
  0.00000000E+00  0.00000000E+00  0.00000000E+00
