Title                                   
   1.00000000000000     
     4.9440799999999996    0.0000000000000000    0.0000000000000000
     0.0000000000000000    8.5647549999999999    0.0000000000000000
     0.0000000000000000    0.0000000000000000   20.0000000000000000
    11     3     1
Selective dynamics
Direct
  0.2489158717468601  0.2080319532459473  0.1005190968539121   T   T   T
 -0.0033766180371085  0.2942004521828330  0.1005379792053390   T   T   T
  0.2480817818799919  0.0383926414568146  0.1004467608209892   T   T   T
 -0.0037975178182981  0.9564394288934985  0.1004668823335178   T   T   T
  0.7478003632380300  0.2083329782005370  0.1005710284542477   T   T   T
  0.4983334997560774  0.2924712687842704  0.1005842654408071   T   T   T
  0.7487154703744417  0.0417779779634704  0.1005287450281373   T   T   T
  0.7548226630175029  0.7154158803300492  0.1005623261346018   T   T   T
  0.7538519770436904  0.5377851013507061  0.1006058835315198   T   T   T
  0.5022568464096608  0.9542087469393452  0.1005248913442526   T   T   T
  0.5124271631173101  0.4582428414179339  0.1005748847229694   T   T   T
 -0.0107512102018932  0.4544971918531064  0.1005259805935011   T   T   T
 -0.0159974477101135  0.7964308240897139  0.1004951703587907   T   T   T
  0.5165559245123841  0.7937955706114970  0.1005749147842028   T   T   T
  0.2521612326714638  0.6216581426802791  0.1004611903932151   T   T   T
 
  0.00000000E+00  0.00000000E+00  0.00000000E+00
  0.00000000E+00  0.00000000E+00  0.00000000E+00
  0.00000000E+00  0.00000000E+00  0.00000000E+00
  0.00000000E+00  0.00000000E+00  0.00000000E+00
  0.00000000E+00  0.00000000E+00  0.00000000E+00
  0.00000000E+00  0.00000000E+00  0.00000000E+00
  0.00000000E+00  0.00000000E+00  0.00000000E+00
  0.00000000E+00  0.00000000E+00  0.00000000E+00
  0.00000000E+00  0.00000000E+00  0.00000000E+00
  0.00000000E+00  0.00000000E+00  0.00000000E+00
  0.00000000E+00  0.00000000E+00  0.00000000E+00
  0.00000000E+00  0.00000000E+00  0.00000000E+00
  0.00000000E+00  0.00000000E+00  0.00000000E+00
  0.00000000E+00  0.00000000E+00  0.00000000E+00
  0.00000000E+00  0.00000000E+00  0.00000000E+00
