Title                                   
   1.00000000000000     
     8.5490480000000009    0.0000000000000000    0.0000000000000000
     0.0000000000000000    8.5490480000000009    0.0000000000000000
     0.0000000000000000    0.0000000000000000   20.0000000000000000
    21     3     1
Selective dynamics
Direct
  0.9109277677147086  0.2032784334499307  0.0988775653230083   T   T   T
  0.9054869778909610  0.5023632288564992  0.0967754224666947   T   T   T
  0.9086160528055564  0.7988341738216767  0.0994290453187203   T   T   T
  0.1968140729922515  0.0842016477425501  0.0995614505905442   T   T   T
  0.0754351129033105  0.2055557155573886  0.0995624721801122   T   T   T
  0.1945330760771904  0.9196862077744260  0.0989476738677610   T   T   T
  0.1549707394726725  0.6527757979771149  0.0959356458774508   T   T   T
  0.0760054787220320  0.5031570814903900  0.0964678773382448   T   T   T
  0.1559261030799177  0.3554208124715659  0.0973889062953616   T   T   T
  0.0749789097753188  0.7991882720211132  0.0986730854251183   T   T   T
  0.4943728456999563  0.0848215566101892  0.0964135646014913   T   T   T
  0.3466438766572500  0.1647424405995847  0.0973624942103293   T   T   T
  0.4935759247808893  0.9142859022090151  0.0968147529117330   T   T   T
  0.3433277452583386  0.8369620459437667  0.0962363148850756   T   T   T
  0.7904366318552565  0.0837363815236434  0.0985757683393118   T   T   T
  0.6440256909783821  0.1637471587382876  0.0957830055896204   T   T   T
  0.7900770526648520  0.9173756970742556  0.0994102028038684   T   T   T
  0.8274875384234056  0.6511072751589806  0.0980600892594587   T   T   T
  0.8281926983292479  0.3520772571879401  0.0961112440907494   T   T   T
  0.6423142309065680  0.8362548537239602  0.0980768323373581   T   T   T
  0.3215490312651285  0.3303352411180407  0.0949160462675445   T   T   T
  0.3174445675914007  0.6775924290187737  0.0927656811690521   T   T   T
  0.6688582890389679  0.3261961912700963  0.0925685546879924   T   T   T
  0.6667255417289951  0.6754899172375514  0.0974007310778922   T   T   T
  0.4966860433874352  0.5056042814232734  0.0515905730854843   T   T   T
 
  0.00000000E+00  0.00000000E+00  0.00000000E+00
  0.00000000E+00  0.00000000E+00  0.00000000E+00
  0.00000000E+00  0.00000000E+00  0.00000000E+00
  0.00000000E+00  0.00000000E+00  0.00000000E+00
  0.00000000E+00  0.00000000E+00  0.00000000E+00
  0.00000000E+00  0.00000000E+00  0.00000000E+00
  0.00000000E+00  0.00000000E+00  0.00000000E+00
  0.00000000E+00  0.00000000E+00  0.00000000E+00
  0.00000000E+00  0.00000000E+00  0.00000000E+00
  0.00000000E+00  0.00000000E+00  0.00000000E+00
  0.00000000E+00  0.00000000E+00  0.00000000E+00
  0.00000000E+00  0.00000000E+00  0.00000000E+00
  0.00000000E+00  0.00000000E+00  0.00000000E+00
  0.00000000E+00  0.00000000E+00  0.00000000E+00
  0.00000000E+00  0.00000000E+00  0.00000000E+00
  0.00000000E+00  0.00000000E+00  0.00000000E+00
  0.00000000E+00  0.00000000E+00  0.00000000E+00
  0.00000000E+00  0.00000000E+00  0.00000000E+00
  0.00000000E+00  0.00000000E+00  0.00000000E+00
  0.00000000E+00  0.00000000E+00  0.00000000E+00
  0.00000000E+00  0.00000000E+00  0.00000000E+00
  0.00000000E+00  0.00000000E+00  0.00000000E+00
  0.00000000E+00  0.00000000E+00  0.00000000E+00
  0.00000000E+00  0.00000000E+00  0.00000000E+00
  0.00000000E+00  0.00000000E+00  0.00000000E+00
