Title                                   
   1.00000000000000     
     9.8694509999999998    0.0000000000000000    0.0000000000000000
     0.0000000000000000    8.5490480000000009    0.0000000000000000
     0.0000000000000000    0.0000000000000000   20.0000000000000000
    29     1     1
Selective dynamics
Direct
  0.0555283761982698  0.0878294714492437  0.0803905814989559   T   T   T
  0.9310802255219692  0.1712919106928310  0.0847475044622426   T   T   T
  0.0560107677100522  0.9229615783406192  0.0806112578900619   T   T   T
  0.9345873771774978  0.3377056195755331  0.0840821861344793   T   T   T
  0.0563998106519774  0.5891371098192910  0.0775563326595144   T   T   T
  0.9341645531537169  0.6743586088461454  0.0845209865940932   T   T   T
  0.0564886600643190  0.4230773128452655  0.0773069963046562   T   T   T
  0.9311509251912029  0.8405079689050989  0.0850747439129311   T   T   T
  0.3042973878107185  0.0895893614328098  0.0917070719965788   T   T   T
  0.1799838903142419  0.1709833116487047  0.0828638433579524   T   T   T
  0.3050045937610280  0.9227286845478353  0.0919306441571815   T   T   T
  0.1788997285497671  0.3372405178517103  0.0811566637901131   T   T   T
  0.2999550613852076  0.5895500599421298  0.0930123882531793   T   T   T
  0.1793608532632528  0.6729385946188736  0.0815876039234810   T   T   T
  0.2989562357161565  0.4185816398712788  0.0928276915665949   T   T   T
  0.1811626053691780  0.8397902153034543  0.0830262346822346   T   T   T
  0.5551634725294498  0.0921241570891204  0.1089775245966110   T   T   T
  0.4256961818997801  0.1770164399317072  0.1034237527569265   T   T   T
  0.5548071225303538  0.9250425114802630  0.1090325607528958   T   T   T
  0.4187549257375296  0.6741040060766936  0.1074011061538833   T   T   T
  0.4276341170791438  0.8380078850711532  0.1038948343036406   T   T   T
  0.8068686853126921  0.0897181685050246  0.0946872359065934   T   T   T
  0.6846328593060340  0.1769524938571354  0.1071180064412484   T   T   T
  0.8068299438517131  0.9225774743940729  0.0949694451930560   T   T   T
  0.6965357211064120  0.3396793375542269  0.1137156547419122   T   T   T
  0.8161338790779102  0.5909639265735043  0.0988826847610720   T   T   T
  0.6951167303971678  0.6731530162267504  0.1125204411981556   T   T   T
  0.8167507821950371  0.4209888586375135  0.0990519311797494   T   T   T
  0.6834396716805080  0.8372678737840072  0.1072382509432580   T   T   T
  0.4149994458287791  0.3365583376567005  0.1066030528601213   T   T   T
  0.5567404096289424  0.5084485474713160  0.1210457870266672   T   T   T
 
  0.00000000E+00  0.00000000E+00  0.00000000E+00
  0.00000000E+00  0.00000000E+00  0.00000000E+00
  0.00000000E+00  0.00000000E+00  0.00000000E+00
  0.00000000E+00  0.00000000E+00  0.00000000E+00
  0.00000000E+00  0.00000000E+00  0.00000000E+00
  0.00000000E+00  0.00000000E+00  0.00000000E+00
  0.00000000E+00  0.00000000E+00  0.00000000E+00
  0.00000000E+00  0.00000000E+00  0.00000000E+00
  0.00000000E+00  0.00000000E+00  0.00000000E+00
  0.00000000E+00  0.00000000E+00  0.00000000E+00
  0.00000000E+00  0.00000000E+00  0.00000000E+00
  0.00000000E+00  0.00000000E+00  0.00000000E+00
  0.00000000E+00  0.00000000E+00  0.00000000E+00
  0.00000000E+00  0.00000000E+00  0.00000000E+00
  0.00000000E+00  0.00000000E+00  0.00000000E+00
  0.00000000E+00  0.00000000E+00  0.00000000E+00
  0.00000000E+00  0.00000000E+00  0.00000000E+00
  0.00000000E+00  0.00000000E+00  0.00000000E+00
  0.00000000E+00  0.00000000E+00  0.00000000E+00
  0.00000000E+00  0.00000000E+00  0.00000000E+00
  0.00000000E+00  0.00000000E+00  0.00000000E+00
  0.00000000E+00  0.00000000E+00  0.00000000E+00
  0.00000000E+00  0.00000000E+00  0.00000000E+00
  0.00000000E+00  0.00000000E+00  0.00000000E+00
  0.00000000E+00  0.00000000E+00  0.00000000E+00
  0.00000000E+00  0.00000000E+00  0.00000000E+00
  0.00000000E+00  0.00000000E+00  0.00000000E+00
  0.00000000E+00  0.00000000E+00  0.00000000E+00
  0.00000000E+00  0.00000000E+00  0.00000000E+00
  0.00000000E+00  0.00000000E+00  0.00000000E+00
  0.00000000E+00  0.00000000E+00  0.00000000E+00
