Title                                   
   1.00000000000000     
     4.9440799999999996    0.0000000000000000    0.0000000000000000
     0.0000000000000000   17.1295089999999988    0.0000000000000000
     0.0000000000000000    0.0000000000000000   20.0000000000000000
    28     2     1
Selective dynamics
Direct
 -0.0010469620589959  0.1042907770420204  0.2969768424611600   T   T   T
  0.2478188888958988  0.1469407248331164  0.2982431111032944   T   T   T
  0.2476319420136613  0.2304122237693350  0.3001383037602041   T   T   T
 -0.0054490608222391  0.2719051419662514  0.2976096068942096   T   T   T
  0.0008389505466782  0.6045830905221627  0.2977625094384133   T   T   T
  0.2511417813490130  0.7278152078891889  0.2992286464781841   T   T   T
  0.0011770000121312  0.8536953176079446  0.2971281330604028   T   T   T
  0.2497552059558610  0.8956690177654605  0.2968973826768652   T   T   T
  0.2492426081863564  0.9791316766361430  0.2965116280797536   T   T   T
  0.0015052910009382  0.7698525474487443  0.2980644839103206   T   T   T
  0.4981810674405686  0.1044797331754334  0.2982721406730541   T   T   T
  0.7489387041689427  0.1455503745407463  0.2985947670376861   T   T   T
  0.7475855426130331  0.2288672953975917  0.3007649818319283   T   T   T
  0.4987415706481041  0.0209213315682704  0.2970492941873799   T   T   T
  0.7536771275966543  0.3922892295664842  0.3024535391891158   T   T   T
  0.7567735983407290  0.4812191584800338  0.3010102827150012   T   T   T
  0.4998284148853114  0.2713613899637149  0.3054247937105960   T   T   T
  0.5018820306994273  0.6035507002890136  0.3034208319049760   T   T   T
  0.7503917894713370  0.7294212905412184  0.2991246535502751   T   T   T
  0.4988517349417000  0.8538035512721412  0.2976412107752212   T   T   T
  0.7498554582088177  0.8952197360634492  0.2970162894241054   T   T   T
  0.7492484193675316  0.9790056510665421  0.2966611487984397   T   T   T
  0.4996844936860367  0.7700554668000681  0.2990380614043928   T   T   T
  0.7508823201855381  0.6466209918184537  0.3000542598734728   T   T   T
 -0.0006600710617164  0.0207919902847315  0.2963702221183037   T   T   T
  0.5137151171939561  0.5223794899292898  0.3090972499694316   T   T   T
  0.9948107226198598  0.5238663718887968  0.2932359275031758   T   T   T
  0.5170959199275025  0.3526298310038017  0.3148705920165184   T   T   T
 -0.0153502311567793  0.3511859176809767  0.2910816136755926   T   T   T
  0.2517578212711902  0.6459915913421695  0.3004537628628109   T   T   T
  0.2514998038729541  0.4378351818467032  0.3048637289156675   T   T   T
 
  0.00000000E+00  0.00000000E+00  0.00000000E+00
  0.00000000E+00  0.00000000E+00  0.00000000E+00
  0.00000000E+00  0.00000000E+00  0.00000000E+00
  0.00000000E+00  0.00000000E+00  0.00000000E+00
  0.00000000E+00  0.00000000E+00  0.00000000E+00
  0.00000000E+00  0.00000000E+00  0.00000000E+00
  0.00000000E+00  0.00000000E+00  0.00000000E+00
  0.00000000E+00  0.00000000E+00  0.00000000E+00
  0.00000000E+00  0.00000000E+00  0.00000000E+00
  0.00000000E+00  0.00000000E+00  0.00000000E+00
  0.00000000E+00  0.00000000E+00  0.00000000E+00
  0.00000000E+00  0.00000000E+00  0.00000000E+00
  0.00000000E+00  0.00000000E+00  0.00000000E+00
  0.00000000E+00  0.00000000E+00  0.00000000E+00
  0.00000000E+00  0.00000000E+00  0.00000000E+00
  0.00000000E+00  0.00000000E+00  0.00000000E+00
  0.00000000E+00  0.00000000E+00  0.00000000E+00
  0.00000000E+00  0.00000000E+00  0.00000000E+00
  0.00000000E+00  0.00000000E+00  0.00000000E+00
  0.00000000E+00  0.00000000E+00  0.00000000E+00
  0.00000000E+00  0.00000000E+00  0.00000000E+00
  0.00000000E+00  0.00000000E+00  0.00000000E+00
  0.00000000E+00  0.00000000E+00  0.00000000E+00
  0.00000000E+00  0.00000000E+00  0.00000000E+00
  0.00000000E+00  0.00000000E+00  0.00000000E+00
  0.00000000E+00  0.00000000E+00  0.00000000E+00
  0.00000000E+00  0.00000000E+00  0.00000000E+00
  0.00000000E+00  0.00000000E+00  0.00000000E+00
  0.00000000E+00  0.00000000E+00  0.00000000E+00
  0.00000000E+00  0.00000000E+00  0.00000000E+00
  0.00000000E+00  0.00000000E+00  0.00000000E+00
