Title                                   
   1.00000000000000     
     4.9440799999999996    0.0000000000000000    0.0000000000000000
     0.0000000000000000   17.1295089999999988    0.0000000000000000
     0.0000000000000000    0.0000000000000000   20.0000000000000000
    28     3     1
Selective dynamics
Direct
  0.0008659707473166  0.1038876879511859  0.2920554307390094   T   T   T
  0.2510323479081344  0.1454779270610187  0.2954284751627840   T   T   T
  0.2499557251047151  0.2284236473441837  0.3035194163218972   T   T   T
 -0.0003360052911046  0.3519535215418393  0.3163251402213372   T   T   T
 -0.0015950891651499  0.2696434301824494  0.3065515357304799   T   T   T
  0.0018740928079145  0.6014502051439841  0.2974271567826340   T   T   T
  0.2555486098797884  0.7270997659575091  0.2928947267358668   T   T   T
  0.0046956053960821  0.8531857734560028  0.2878005969984230   T   T   T
  0.2539766824952112  0.8950897844208591  0.2872620758914782   T   T   T
  0.2527365494429485  0.9786272148270585  0.2874071846090978   T   T   T
  0.0062686130292465  0.7696580798539325  0.2904783560292962   T   T   T
  0.5012816077117314  0.1037643894796107  0.2921861434835940   T   T   T
  0.7503315060652770  0.1455411116599741  0.2945957782571104   T   T   T
  0.7486370700155615  0.2287239560035325  0.3017034617985234   T   T   T
  0.5025264083045365  0.0203142081428615  0.2883361628829773   T   T   T
  0.4953881212198748  0.3533423043570187  0.3181060928147192   T   T   T
  0.7480897670782591  0.3970509330121065  0.3168878297849593   T   T   T
  0.7560000160572847  0.4834060606841338  0.3117272060273939   T   T   T
  0.4993992720828466  0.2702052321661341  0.3076955067657461   T   T   T
  0.5124238874946043  0.6045479218890194  0.3032260902164167   T   T   T
  0.7560176399879418  0.7288268192092716  0.2932666507942947   T   T   T
  0.5037880898881292  0.8531912318261177  0.2883554100403328   T   T   T
  0.7537775282458233  0.8948510567970318  0.2872541960505406   T   T   T
  0.7526775928310574  0.9784976297995756  0.2872566198203388   T   T   T
  0.5046168890457402  0.7695403510197405  0.2916391101054039   T   T   T
  0.7574328360792878  0.6458680088468055  0.2983561199399958   T   T   T
  0.2570643246340428  0.6427564409082378  0.2969913766538776   T   T   T
  0.0021940244725308  0.0204242574415719  0.2882129292567761   T   T   T
  0.5252185718142415  0.5267548096971445  0.3245242537449615   T   T   T
  0.9817544244525019  0.5197362506251515  0.2784544949088818   T   T   T
  0.2459408323179609  0.3887742853501435  0.3285227207481414   T   T   T
  0.1672394878456719  0.4979367033447853  0.3681167506826629   T   T   T
 
  0.00000000E+00  0.00000000E+00  0.00000000E+00
  0.00000000E+00  0.00000000E+00  0.00000000E+00
  0.00000000E+00  0.00000000E+00  0.00000000E+00
  0.00000000E+00  0.00000000E+00  0.00000000E+00
  0.00000000E+00  0.00000000E+00  0.00000000E+00
  0.00000000E+00  0.00000000E+00  0.00000000E+00
  0.00000000E+00  0.00000000E+00  0.00000000E+00
  0.00000000E+00  0.00000000E+00  0.00000000E+00
  0.00000000E+00  0.00000000E+00  0.00000000E+00
  0.00000000E+00  0.00000000E+00  0.00000000E+00
  0.00000000E+00  0.00000000E+00  0.00000000E+00
  0.00000000E+00  0.00000000E+00  0.00000000E+00
  0.00000000E+00  0.00000000E+00  0.00000000E+00
  0.00000000E+00  0.00000000E+00  0.00000000E+00
  0.00000000E+00  0.00000000E+00  0.00000000E+00
  0.00000000E+00  0.00000000E+00  0.00000000E+00
  0.00000000E+00  0.00000000E+00  0.00000000E+00
  0.00000000E+00  0.00000000E+00  0.00000000E+00
  0.00000000E+00  0.00000000E+00  0.00000000E+00
  0.00000000E+00  0.00000000E+00  0.00000000E+00
  0.00000000E+00  0.00000000E+00  0.00000000E+00
  0.00000000E+00  0.00000000E+00  0.00000000E+00
  0.00000000E+00  0.00000000E+00  0.00000000E+00
  0.00000000E+00  0.00000000E+00  0.00000000E+00
  0.00000000E+00  0.00000000E+00  0.00000000E+00
  0.00000000E+00  0.00000000E+00  0.00000000E+00
  0.00000000E+00  0.00000000E+00  0.00000000E+00
  0.00000000E+00  0.00000000E+00  0.00000000E+00
  0.00000000E+00  0.00000000E+00  0.00000000E+00
  0.00000000E+00  0.00000000E+00  0.00000000E+00
  0.00000000E+00  0.00000000E+00  0.00000000E+00
  0.00000000E+00  0.00000000E+00  0.00000000E+00
