Title                                   
   1.00000000000000     
     4.9440799999999996    0.0000000000000000    0.0000000000000000
     0.0000000000000000   17.1295089999999988    0.0000000000000000
     0.0000000000000000    0.0000000000000000   20.0000000000000000
    28     2     1
Selective dynamics
Direct
 -0.0094664210688161  0.1054103987347329  0.2953831158851015   T   T   T
  0.2388393575300424  0.1478936965287471  0.2963673638644118   T   T   T
  0.2341904074668240  0.2317605806230165  0.2998732056254490   T   T   T
 -0.0192341782575370  0.2727673454626398  0.3045444150272358   T   T   T
  0.0191172190567591  0.6019605168360069  0.2958142440933361   T   T   T
  0.2601564296684957  0.7264771109638249  0.2957581887543480   T   T   T
  0.0044925189583808  0.8529193293853325  0.2932947830743385   T   T   T
  0.2519217172696057  0.8952179840232546  0.2935544524959317   T   T   T
  0.2469089464634568  0.9792146765984275  0.2936643498186888   T   T   T
  0.0092176760427676  0.7686787649103618  0.2937518450371183   T   T   T
  0.4901709589671001  0.1053658052591606  0.2944136339945078   T   T   T
  0.7386343010647698  0.1472909319084761  0.2953121861152116   T   T   T
  0.7325062529988107  0.2313187901899424  0.2979181855094906   T   T   T
  0.4951843696970772  0.0213150070231543  0.2935900413154447   T   T   T
  0.7484046907339016  0.3939154942408549  0.3070521771324992   T   T   T
  0.7656384720228635  0.4812484649026324  0.3080461669292715   T   T   T
  0.4817503585183434  0.2745027512348140  0.2980270564105097   T   T   T
  0.5158714728672708  0.6022002887543979  0.3047369294709922   T   T   T
  0.7603947921366568  0.7273529053070807  0.2944698375549213   T   T   T
  0.5026400157943601  0.8528509828673393  0.2938420702851622   T   T   T
  0.7519030165252525  0.8948205181722693  0.2932849110619026   T   T   T
  0.7469088902546822  0.9790690694805800  0.2933980028175387   T   T   T
  0.5081502940593140  0.7686477738975396  0.2949827907917966   T   T   T
  0.7653494105587155  0.6440086113669872  0.2966558357873740   T   T   T
 -0.0046410200065359  0.0213534792588223  0.2940367570072305   T   T   T
  0.5211623573980462  0.5218032173771364  0.3200132492496702   T   T   T
  0.0112470015111225  0.5188668202576221  0.2965654018380414   T   T   T
  0.4996206871837508  0.3582489131145666  0.2992813683421346   T   T   T
 -0.0242452395855751  0.3516252643805032  0.3161460310712804   T   T   T
  0.2647390910125306  0.6444654009309919  0.2988324738269522   T   T   T
  0.2524731531575664  0.4387711060087818  0.3324489298120599   T   T   T
 
  0.00000000E+00  0.00000000E+00  0.00000000E+00
  0.00000000E+00  0.00000000E+00  0.00000000E+00
  0.00000000E+00  0.00000000E+00  0.00000000E+00
  0.00000000E+00  0.00000000E+00  0.00000000E+00
  0.00000000E+00  0.00000000E+00  0.00000000E+00
  0.00000000E+00  0.00000000E+00  0.00000000E+00
  0.00000000E+00  0.00000000E+00  0.00000000E+00
  0.00000000E+00  0.00000000E+00  0.00000000E+00
  0.00000000E+00  0.00000000E+00  0.00000000E+00
  0.00000000E+00  0.00000000E+00  0.00000000E+00
  0.00000000E+00  0.00000000E+00  0.00000000E+00
  0.00000000E+00  0.00000000E+00  0.00000000E+00
  0.00000000E+00  0.00000000E+00  0.00000000E+00
  0.00000000E+00  0.00000000E+00  0.00000000E+00
  0.00000000E+00  0.00000000E+00  0.00000000E+00
  0.00000000E+00  0.00000000E+00  0.00000000E+00
  0.00000000E+00  0.00000000E+00  0.00000000E+00
  0.00000000E+00  0.00000000E+00  0.00000000E+00
  0.00000000E+00  0.00000000E+00  0.00000000E+00
  0.00000000E+00  0.00000000E+00  0.00000000E+00
  0.00000000E+00  0.00000000E+00  0.00000000E+00
  0.00000000E+00  0.00000000E+00  0.00000000E+00
  0.00000000E+00  0.00000000E+00  0.00000000E+00
  0.00000000E+00  0.00000000E+00  0.00000000E+00
  0.00000000E+00  0.00000000E+00  0.00000000E+00
  0.00000000E+00  0.00000000E+00  0.00000000E+00
  0.00000000E+00  0.00000000E+00  0.00000000E+00
  0.00000000E+00  0.00000000E+00  0.00000000E+00
  0.00000000E+00  0.00000000E+00  0.00000000E+00
  0.00000000E+00  0.00000000E+00  0.00000000E+00
  0.00000000E+00  0.00000000E+00  0.00000000E+00
