Title                                   
   1.00000000000000     
     9.8694509999999998    0.0000000000000000    0.0000000000000000
     0.0000000000000000    8.5490480000000009    0.0000000000000000
     0.0000000000000000    0.0000000000000000   20.0000000000000000
    27     3     1
Selective dynamics
Direct
  0.0561244693379116  0.0884680182457454  0.0916801939392937   T   T   T
  0.9316361696258947  0.1714551327021917  0.0959514631116248   T   T   T
  0.0576108308656401  0.9219338440806678  0.0921889082429288   T   T   T
  0.9333312678077702  0.3390365955313541  0.0980143966707190   T   T   T
  0.0569820282039410  0.5907454352343270  0.0951660634203850   T   T   T
  0.0570705121203222  0.4236699958595539  0.0945141105454220   T   T   T
  0.9322489868671934  0.8384187017894885  0.0968365495723684   T   T   T
  0.3084012011180976  0.0884445872859720  0.0839186607436828   T   T   T
  0.1825894324184985  0.1718290779959837  0.0877974184235606   T   T   T
  0.1808407066738776  0.3386711047341779  0.0894394318345558   T   T   T
  0.3048480358966046  0.5900514501048787  0.0843225936512287   T   T   T
  0.1807030949586292  0.6746712638976485  0.0908685179512970   T   T   T
  0.3053314289160862  0.4210419683241763  0.0835376680250966   T   T   T
  0.1833914003731888  0.8404591467979229  0.0890027988911412   T   T   T
  0.4343206498955431  0.1711501013664867  0.0840189844863474   T   T   T
  0.5571318424899696  0.9237610242821459  0.0938538478215832   T   T   T
  0.4306618256229767  0.3360362707984924  0.0828919505397332   T   T   T
  0.4290228490299239  0.6771165957308134  0.0838962167959966   T   T   T
  0.4323482916115387  0.8417685550624956  0.0854729193831933   T   T   T
  0.8053051792204350  0.0889927175811606  0.0974804988060614   T   T   T
  0.6805779871744002  0.1785435595549213  0.1001681207895752   T   T   T
  0.8060962464512064  0.9202307413959560  0.0981134907243387   T   T   T
  0.6833479725392905  0.3454092491170427  0.1099019261658193   T   T   T
  0.8115803764235087  0.5909796933416586  0.1058531817179505   T   T   T
  0.6849493020591527  0.6671087683538787  0.1111864229193981   T   T   T
  0.8118986122598314  0.4219099698348783  0.1050761738884849   T   T   T
  0.6796175886879419  0.8351433108573507  0.1013216196730684   T   T   T
  0.9335313754574678  0.6723789310717100  0.0988257057900208   T   T   T
  0.5587308079259499  0.0916199039456259  0.0927636876253782   T   T   T
  0.3065281602131865  0.9233377783462614  0.0843441826596149   T   T   T
  0.5263763677540234  0.5064915067750533  0.1325572951901587   T   T   T
 
  0.00000000E+00  0.00000000E+00  0.00000000E+00
  0.00000000E+00  0.00000000E+00  0.00000000E+00
  0.00000000E+00  0.00000000E+00  0.00000000E+00
  0.00000000E+00  0.00000000E+00  0.00000000E+00
  0.00000000E+00  0.00000000E+00  0.00000000E+00
  0.00000000E+00  0.00000000E+00  0.00000000E+00
  0.00000000E+00  0.00000000E+00  0.00000000E+00
  0.00000000E+00  0.00000000E+00  0.00000000E+00
  0.00000000E+00  0.00000000E+00  0.00000000E+00
  0.00000000E+00  0.00000000E+00  0.00000000E+00
  0.00000000E+00  0.00000000E+00  0.00000000E+00
  0.00000000E+00  0.00000000E+00  0.00000000E+00
  0.00000000E+00  0.00000000E+00  0.00000000E+00
  0.00000000E+00  0.00000000E+00  0.00000000E+00
  0.00000000E+00  0.00000000E+00  0.00000000E+00
  0.00000000E+00  0.00000000E+00  0.00000000E+00
  0.00000000E+00  0.00000000E+00  0.00000000E+00
  0.00000000E+00  0.00000000E+00  0.00000000E+00
  0.00000000E+00  0.00000000E+00  0.00000000E+00
  0.00000000E+00  0.00000000E+00  0.00000000E+00
  0.00000000E+00  0.00000000E+00  0.00000000E+00
  0.00000000E+00  0.00000000E+00  0.00000000E+00
  0.00000000E+00  0.00000000E+00  0.00000000E+00
  0.00000000E+00  0.00000000E+00  0.00000000E+00
  0.00000000E+00  0.00000000E+00  0.00000000E+00
  0.00000000E+00  0.00000000E+00  0.00000000E+00
  0.00000000E+00  0.00000000E+00  0.00000000E+00
  0.00000000E+00  0.00000000E+00  0.00000000E+00
  0.00000000E+00  0.00000000E+00  0.00000000E+00
  0.00000000E+00  0.00000000E+00  0.00000000E+00
  0.00000000E+00  0.00000000E+00  0.00000000E+00
