Title                                   
   1.00000000000000     
     8.5490480000000009    0.0000000000000000    0.0000000000000000
     0.0000000000000000    8.5490480000000009    0.0000000000000000
     0.0000000000000000    0.0000000000000000   20.0000000000000000
    20     4     1
Selective dynamics
Direct
  0.9097498783961294  0.2070754949025974  0.0970719401051651   T   T   T
  0.9112572675006082  0.8009334560835558  0.0975185697634725   T   T   T
  0.2000950231572522  0.0830830694409206  0.0973731996987071   T   T   T
  0.0757808412994038  0.2041927080685969  0.0973685272813097   T   T   T
  0.1549852817686767  0.6509399168087415  0.0978585368511171   T   T   T
  0.0740484138676409  0.5020659656348692  0.0980739864048927   T   T   T
  0.1550801577572399  0.3552639002845704  0.0980832912538173   T   T   T
  0.0785453411824005  0.7998454030338182  0.0973957922084547   T   T   T
  0.3474736413258123  0.1631131887940909  0.0979086815619944   T   T   T
  0.4936165885352901  0.9157542147090777  0.0978486688198516   T   T   T
  0.3455998612572256  0.8357110595983139  0.0977027783884911   T   T   T
  0.7870975657718616  0.0849863452706164  0.0970363090972725   T   T   T
  0.6392084279830235  0.1640641105709958  0.0974565115216979   T   T   T
  0.7900831207782641  0.9188239673618006  0.0974010605402335   T   T   T
  0.8291782849428233  0.6520084664212054  0.0981288084042418   T   T   T
  0.8263569862555112  0.3560255735614831  0.0976591467899044   T   T   T
  0.6425357384672857  0.8365594577358356  0.0980419983131497   T   T   T
  0.3263848357208390  0.3337821273435303  0.0989561442202751   T   T   T
  0.3223772723894319  0.6713514805902141  0.0983458832565275   T   T   T
  0.6592368488646634  0.3334320353608497  0.0984601027694319   T   T   T
  0.4950263953796086  0.0834106767987817  0.0977699025692465   T   T   T
  0.9053838787012120  0.5033405696441020  0.0980859765356710   T   T   T
  0.6682179360993156  0.6737541671426274  0.0988600149753016   T   T   T
  0.1968218767419282  0.9175111154353305  0.0972432786133301   T   T   T
  0.4912705358565441  0.4977615294034882  0.1010558900564259   T   T   T
 
  0.00000000E+00  0.00000000E+00  0.00000000E+00
  0.00000000E+00  0.00000000E+00  0.00000000E+00
  0.00000000E+00  0.00000000E+00  0.00000000E+00
  0.00000000E+00  0.00000000E+00  0.00000000E+00
  0.00000000E+00  0.00000000E+00  0.00000000E+00
  0.00000000E+00  0.00000000E+00  0.00000000E+00
  0.00000000E+00  0.00000000E+00  0.00000000E+00
  0.00000000E+00  0.00000000E+00  0.00000000E+00
  0.00000000E+00  0.00000000E+00  0.00000000E+00
  0.00000000E+00  0.00000000E+00  0.00000000E+00
  0.00000000E+00  0.00000000E+00  0.00000000E+00
  0.00000000E+00  0.00000000E+00  0.00000000E+00
  0.00000000E+00  0.00000000E+00  0.00000000E+00
  0.00000000E+00  0.00000000E+00  0.00000000E+00
  0.00000000E+00  0.00000000E+00  0.00000000E+00
  0.00000000E+00  0.00000000E+00  0.00000000E+00
  0.00000000E+00  0.00000000E+00  0.00000000E+00
  0.00000000E+00  0.00000000E+00  0.00000000E+00
  0.00000000E+00  0.00000000E+00  0.00000000E+00
  0.00000000E+00  0.00000000E+00  0.00000000E+00
  0.00000000E+00  0.00000000E+00  0.00000000E+00
  0.00000000E+00  0.00000000E+00  0.00000000E+00
  0.00000000E+00  0.00000000E+00  0.00000000E+00
  0.00000000E+00  0.00000000E+00  0.00000000E+00
  0.00000000E+00  0.00000000E+00  0.00000000E+00
