Title                                   
   1.00000000000000     
     9.8694509999999998    0.0000000000000000    0.0000000000000000
     0.0000000000000000    8.5490480000000009    0.0000000000000000
     0.0000000000000000    0.0000000000000000   20.0000000000000000
    26     4     1
Selective dynamics
Direct
  0.0550687352826269  0.0875540181957545  0.0903375167080028   T   T   T
  0.9307935000716646  0.1713276342631220  0.0907768428984626   T   T   T
  0.0569314981969330  0.9213726484405964  0.0907356513915627   T   T   T
  0.9339344756929936  0.3387348456383410  0.0902479701089205   T   T   T
  0.0562628140898094  0.5903963309764045  0.0898154623626072   T   T   T
  0.0568927494036697  0.4243744112441928  0.0891808565060732   T   T   T
  0.9314532527486419  0.8383992760555702  0.0916416591464131   T   T   T
  0.3063577768860223  0.0888570004831839  0.0942231809071446   T   T   T
  0.1810174440796327  0.1699394201412357  0.0913303905777924   T   T   T
  0.1803575334207843  0.3382816158742671  0.0908212543468704   T   T   T
  0.3032770843182144  0.5879051160743102  0.0949951610782826   T   T   T
  0.1806027842131599  0.6732447231282768  0.0913697892524937   T   T   T
  0.3023878971580009  0.4186731293466553  0.0951540697063760   T   T   T
  0.1829302971938056  0.8402916563498741  0.0917475013196390   T   T   T
  0.4300253869410081  0.1782118154304426  0.0981306001467289   T   T   T
  0.5546503383795327  0.9246612712604955  0.0991860239784129   T   T   T
  0.4280769603877160  0.6691928450162052  0.1003385127234564   T   T   T
  0.4302930129331305  0.8366453891193080  0.0983717253056772   T   T   T
  0.8044886219136707  0.0893187194402332  0.0935115136454690   T   T   T
  0.6813579592959734  0.1800793941547815  0.0969465449046520   T   T   T
  0.8054479285298000  0.9203841190856759  0.0941133372450702   T   T   T
  0.6859404834747395  0.3461898614715674  0.0987568860209600   T   T   T
  0.8114839211221985  0.5920509932951321  0.0950198315002206   T   T   T
  0.6850919094449470  0.6670060727257455  0.1002274081810297   T   T   T
  0.8133395221787612  0.4216655111958900  0.0939666147623137   T   T   T
  0.6790216634689260  0.8371224898049047  0.0981972035371303   T   T   T
  0.9334385206222249  0.6729992901722321  0.0912421610775274   T   T   T
  0.5547914691721667  0.0957605787728596  0.0988657110690440   T   T   T
  0.4246673366133213  0.3394416905454697  0.1006343495394498   T   T   T
  0.3059722694667203  0.9221558175086938  0.0942195141755337   T   T   T
  0.5567798532992203  0.5086373147885990  0.1068597558767314   T   T   T
 
  0.00000000E+00  0.00000000E+00  0.00000000E+00
  0.00000000E+00  0.00000000E+00  0.00000000E+00
  0.00000000E+00  0.00000000E+00  0.00000000E+00
  0.00000000E+00  0.00000000E+00  0.00000000E+00
  0.00000000E+00  0.00000000E+00  0.00000000E+00
  0.00000000E+00  0.00000000E+00  0.00000000E+00
  0.00000000E+00  0.00000000E+00  0.00000000E+00
  0.00000000E+00  0.00000000E+00  0.00000000E+00
  0.00000000E+00  0.00000000E+00  0.00000000E+00
  0.00000000E+00  0.00000000E+00  0.00000000E+00
  0.00000000E+00  0.00000000E+00  0.00000000E+00
  0.00000000E+00  0.00000000E+00  0.00000000E+00
  0.00000000E+00  0.00000000E+00  0.00000000E+00
  0.00000000E+00  0.00000000E+00  0.00000000E+00
  0.00000000E+00  0.00000000E+00  0.00000000E+00
  0.00000000E+00  0.00000000E+00  0.00000000E+00
  0.00000000E+00  0.00000000E+00  0.00000000E+00
  0.00000000E+00  0.00000000E+00  0.00000000E+00
  0.00000000E+00  0.00000000E+00  0.00000000E+00
  0.00000000E+00  0.00000000E+00  0.00000000E+00
  0.00000000E+00  0.00000000E+00  0.00000000E+00
  0.00000000E+00  0.00000000E+00  0.00000000E+00
  0.00000000E+00  0.00000000E+00  0.00000000E+00
  0.00000000E+00  0.00000000E+00  0.00000000E+00
  0.00000000E+00  0.00000000E+00  0.00000000E+00
  0.00000000E+00  0.00000000E+00  0.00000000E+00
  0.00000000E+00  0.00000000E+00  0.00000000E+00
  0.00000000E+00  0.00000000E+00  0.00000000E+00
  0.00000000E+00  0.00000000E+00  0.00000000E+00
  0.00000000E+00  0.00000000E+00  0.00000000E+00
  0.00000000E+00  0.00000000E+00  0.00000000E+00
