Title                                   
   1.00000000000000     
     9.8694509999999998    0.0000000000000000    0.0000000000000000
     0.0000000000000000    8.5490480000000009    0.0000000000000000
     0.0000000000000000    0.0000000000000000   20.0000000000000000
    27     4     1
Selective dynamics
Direct
  0.0555252860021258  0.0921994839988221  0.0882461368027830   T   T   T
  0.9307398097963715  0.1740445241352296  0.0893875915678709   T   T   T
  0.0569698614839782  0.9247770995820853  0.0882882341109923   T   T   T
  0.9295053776975153  0.3417574990912216  0.0920359630060031   T   T   T
  0.0564142883998061  0.5900261607070082  0.0891470064251843   T   T   T
  0.9321543521822457  0.6735373623268134  0.0918811781307490   T   T   T
  0.0566591678653281  0.4231604925540129  0.0902586057383030   T   T   T
  0.9326131281635464  0.8400026832724581  0.0904801466125741   T   T   T
  0.3054712553540639  0.0881665901444602  0.0899528497294062   T   T   T
  0.1818453006129103  0.1734339486392930  0.0891256807084187   T   T   T
  0.1836918194804133  0.3408152484585933  0.0904344048380617   T   T   T
  0.3058093126884149  0.5927701868565517  0.0938238819410789   T   T   T
  0.1808530684469980  0.6747140895036255  0.0892472031491092   T   T   T
  0.3098870704903743  0.4251512417211889  0.0938613141728817   T   T   T
  0.1804914386421932  0.8409106224720539  0.0890068640320293   T   T   T
  0.5562472072954533  0.0836033836585140  0.0939704327252288   T   T   T
  0.4311863753064817  0.1680372714661663  0.0925011744919164   T   T   T
  0.5549704469793659  0.9172448658251315  0.0972168086955542   T   T   T
  0.4342379400988499  0.3344776717750492  0.0964972678044924   T   T   T
  0.4259845809451689  0.8374530305506409  0.0957855329254147   T   T   T
  0.8062387836061208  0.0887132029767952  0.0897927358497801   T   T   T
  0.6805439681194955  0.1690029745860226  0.0928427142192598   T   T   T
  0.8070763260016485  0.9227649087571639  0.0915648647210756   T   T   T
  0.6777215533795958  0.3348804553086963  0.0981912800464357   T   T   T
  0.8072974556029597  0.5924335741405370  0.1004335537639497   T   T   T
  0.8031279823256647  0.4243357146562057  0.0978976489522110   T   T   T
  0.6840879235922905  0.8370427829822736  0.0996663649056709   T   T   T
  0.4216259730437954  0.6808383067338253  0.1011802783552212   T   T   T
  0.5560091671458703  0.4085786785426901  0.1052380932299009   T   T   T
  0.6925042184382415  0.6796563019898582  0.1121388174902698   T   T   T
  0.3049756028507000  0.9238392388771429  0.0905806639446121   T   T   T
  0.5571729579620187  0.5918764037098716  0.1749997069135778   T   T   T
 
  0.00000000E+00  0.00000000E+00  0.00000000E+00
  0.00000000E+00  0.00000000E+00  0.00000000E+00
  0.00000000E+00  0.00000000E+00  0.00000000E+00
  0.00000000E+00  0.00000000E+00  0.00000000E+00
  0.00000000E+00  0.00000000E+00  0.00000000E+00
  0.00000000E+00  0.00000000E+00  0.00000000E+00
  0.00000000E+00  0.00000000E+00  0.00000000E+00
  0.00000000E+00  0.00000000E+00  0.00000000E+00
  0.00000000E+00  0.00000000E+00  0.00000000E+00
  0.00000000E+00  0.00000000E+00  0.00000000E+00
  0.00000000E+00  0.00000000E+00  0.00000000E+00
  0.00000000E+00  0.00000000E+00  0.00000000E+00
  0.00000000E+00  0.00000000E+00  0.00000000E+00
  0.00000000E+00  0.00000000E+00  0.00000000E+00
  0.00000000E+00  0.00000000E+00  0.00000000E+00
  0.00000000E+00  0.00000000E+00  0.00000000E+00
  0.00000000E+00  0.00000000E+00  0.00000000E+00
  0.00000000E+00  0.00000000E+00  0.00000000E+00
  0.00000000E+00  0.00000000E+00  0.00000000E+00
  0.00000000E+00  0.00000000E+00  0.00000000E+00
  0.00000000E+00  0.00000000E+00  0.00000000E+00
  0.00000000E+00  0.00000000E+00  0.00000000E+00
  0.00000000E+00  0.00000000E+00  0.00000000E+00
  0.00000000E+00  0.00000000E+00  0.00000000E+00
  0.00000000E+00  0.00000000E+00  0.00000000E+00
  0.00000000E+00  0.00000000E+00  0.00000000E+00
  0.00000000E+00  0.00000000E+00  0.00000000E+00
  0.00000000E+00  0.00000000E+00  0.00000000E+00
  0.00000000E+00  0.00000000E+00  0.00000000E+00
  0.00000000E+00  0.00000000E+00  0.00000000E+00
  0.00000000E+00  0.00000000E+00  0.00000000E+00
  0.00000000E+00  0.00000000E+00  0.00000000E+00
