Title                                   
   1.00000000000000     
     9.8694509999999998    0.0000000000000000    0.0000000000000000
     0.0000000000000000    8.5490480000000009    0.0000000000000000
     0.0000000000000000    0.0000000000000000   20.0000000000000000
    24     6     1
Selective dynamics
Direct
  0.0560409620926118  0.0902438545770343  0.0934048859886477   T   T   T
  0.9314172957819395  0.1723241691849179  0.0940906480401369   T   T   T
  0.0574175841050332  0.9223970808351868  0.0934510493370319   T   T   T
  0.9327923572747409  0.3395684660684919  0.0935413350424302   T   T   T
  0.0566325028151876  0.5894502511254421  0.0919369789915842   T   T   T
  0.9329697799552356  0.6722739590096497  0.0935283826770716   T   T   T
  0.0567384777510834  0.4228042024407372  0.0919392054395138   T   T   T
  0.9320267230944295  0.8395218799382886  0.0941244538014805   T   T   T
  0.3076506198055175  0.0881476658355745  0.0959335971884372   T   T   T
  0.1814239517466057  0.1716701571862373  0.0939290750144153   T   T   T
  0.1802627576624651  0.3385939919243200  0.0933228570276408   T   T   T
  0.3033873186794085  0.5904693784565115  0.0965308673754405   T   T   T
  0.1804177200665958  0.6732929956060304  0.0933113788065133   T   T   T
  0.3038042788182316  0.4212873117233088  0.0965476528678674   T   T   T
  0.1809120527088984  0.8399452434829060  0.0939773092194249   T   T   T
  0.4290669944009570  0.1754670354378423  0.0991286385469174   T   T   T
  0.5548133007690691  0.9202348756527117  0.1002614251883796   T   T   T
  0.4287065535303484  0.8374691771540508  0.0993798229120756   T   T   T
  0.8048908749537348  0.0892825449466097  0.0961430948530636   T   T   T
  0.6826159697509977  0.1773713951912965  0.0991478682809548   T   T   T
  0.8063008793139924  0.9220121099927865  0.0962426838905066   T   T   T
  0.8092683873195995  0.5907142026778179  0.0967866916605779   T   T   T
  0.8092299570041128  0.4208415459295263  0.0967399837234031   T   T   T
  0.6825637529888053  0.8357780980056879  0.0994747248273672   T   T   T
  0.5567008486874979  0.0955702164921140  0.1003174934183672   T   T   T
  0.4238253875709975  0.3359772091664289  0.1010476845847553   T   T   T
  0.4226461014870693  0.6771801534936140  0.1014147476414749   T   T   T
  0.6880437008963194  0.3373345975943480  0.1009646585490122   T   T   T
  0.6889947772091489  0.6741444704465575  0.1012394087898483   T   T   T
  0.3060177397237904  0.9223595222494999  0.0957555310660299   T   T   T
  0.5555563920355752  0.5071472381744698  0.1073508652496873   T   T   T
 
  0.00000000E+00  0.00000000E+00  0.00000000E+00
  0.00000000E+00  0.00000000E+00  0.00000000E+00
  0.00000000E+00  0.00000000E+00  0.00000000E+00
  0.00000000E+00  0.00000000E+00  0.00000000E+00
  0.00000000E+00  0.00000000E+00  0.00000000E+00
  0.00000000E+00  0.00000000E+00  0.00000000E+00
  0.00000000E+00  0.00000000E+00  0.00000000E+00
  0.00000000E+00  0.00000000E+00  0.00000000E+00
  0.00000000E+00  0.00000000E+00  0.00000000E+00
  0.00000000E+00  0.00000000E+00  0.00000000E+00
  0.00000000E+00  0.00000000E+00  0.00000000E+00
  0.00000000E+00  0.00000000E+00  0.00000000E+00
  0.00000000E+00  0.00000000E+00  0.00000000E+00
  0.00000000E+00  0.00000000E+00  0.00000000E+00
  0.00000000E+00  0.00000000E+00  0.00000000E+00
  0.00000000E+00  0.00000000E+00  0.00000000E+00
  0.00000000E+00  0.00000000E+00  0.00000000E+00
  0.00000000E+00  0.00000000E+00  0.00000000E+00
  0.00000000E+00  0.00000000E+00  0.00000000E+00
  0.00000000E+00  0.00000000E+00  0.00000000E+00
  0.00000000E+00  0.00000000E+00  0.00000000E+00
  0.00000000E+00  0.00000000E+00  0.00000000E+00
  0.00000000E+00  0.00000000E+00  0.00000000E+00
  0.00000000E+00  0.00000000E+00  0.00000000E+00
  0.00000000E+00  0.00000000E+00  0.00000000E+00
  0.00000000E+00  0.00000000E+00  0.00000000E+00
  0.00000000E+00  0.00000000E+00  0.00000000E+00
  0.00000000E+00  0.00000000E+00  0.00000000E+00
  0.00000000E+00  0.00000000E+00  0.00000000E+00
  0.00000000E+00  0.00000000E+00  0.00000000E+00
  0.00000000E+00  0.00000000E+00  0.00000000E+00
