Title                                   
   1.00000000000000     
     8.5490480000000009    0.0000000000000000    0.0000000000000000
     0.0000000000000000    8.5490480000000009    0.0000000000000000
     0.0000000000000000    0.0000000000000000   20.0000000000000000
    17     7     1
Selective dynamics
Direct
  0.9070804062169007  0.2062012752208018  0.0974510582959012   T   T   T
  0.9101844253461407  0.8002991459362171  0.0975118718632535   T   T   T
  0.1976266123354843  0.0837086811037785  0.0976032788137703   T   T   T
  0.0772289929066444  0.2013763125931417  0.0975286052328775   T   T   T
  0.1579891394265978  0.6507747173414232  0.0977784149836101   T   T   T
  0.0783867112664952  0.5004901728026546  0.0977607079267127   T   T   T
  0.1579417274410490  0.3504879474430562  0.0977811468540631   T   T   T
  0.0792566526196177  0.7983152091258757  0.0976032361710627   T   T   T
  0.3450024003999256  0.1662660192391541  0.0978419762804071   T   T   T
  0.4925532224018510  0.9172161907660841  0.0978136606699636   T   T   T
  0.3444988459531286  0.8365085011974621  0.0978064024984378   T   T   T
  0.7870839450437784  0.0876909359066514  0.0974467336582893   T   T   T
  0.6405177404444964  0.1694700956234207  0.0977645218397368   T   T   T
  0.7893811064071278  0.9178803407739120  0.0974688346362573   T   T   T
  0.8284592448237954  0.6503714602741296  0.0977162059829451   T   T   T
  0.8264147637818439  0.3540695477335545  0.0977283693887346   T   T   T
  0.6422506867446361  0.8364539564396614  0.0977594653323262   T   T   T
  0.4930645703704337  0.0898381481699626  0.0979048561579588   T   T   T
  0.9060997739892370  0.5022297385842721  0.0977815487310588   T   T   T
  0.3212438997448495  0.3265679364242882  0.0980515869017019   T   T   T
  0.3203770002363875  0.6768382747580887  0.0979334386046613   T   T   T
  0.6640120485069614  0.3313531001399692  0.0980478086661020   T   T   T
  0.6677928271466291  0.6730923325578658  0.0979636313692163   T   T   T
  0.1974641716154215  0.9148313430266399  0.0976682300881870   T   T   T
  0.4935010848305602  0.5024586168179335  0.0979894090527451   T   T   T
 
  0.00000000E+00  0.00000000E+00  0.00000000E+00
  0.00000000E+00  0.00000000E+00  0.00000000E+00
  0.00000000E+00  0.00000000E+00  0.00000000E+00
  0.00000000E+00  0.00000000E+00  0.00000000E+00
  0.00000000E+00  0.00000000E+00  0.00000000E+00
  0.00000000E+00  0.00000000E+00  0.00000000E+00
  0.00000000E+00  0.00000000E+00  0.00000000E+00
  0.00000000E+00  0.00000000E+00  0.00000000E+00
  0.00000000E+00  0.00000000E+00  0.00000000E+00
  0.00000000E+00  0.00000000E+00  0.00000000E+00
  0.00000000E+00  0.00000000E+00  0.00000000E+00
  0.00000000E+00  0.00000000E+00  0.00000000E+00
  0.00000000E+00  0.00000000E+00  0.00000000E+00
  0.00000000E+00  0.00000000E+00  0.00000000E+00
  0.00000000E+00  0.00000000E+00  0.00000000E+00
  0.00000000E+00  0.00000000E+00  0.00000000E+00
  0.00000000E+00  0.00000000E+00  0.00000000E+00
  0.00000000E+00  0.00000000E+00  0.00000000E+00
  0.00000000E+00  0.00000000E+00  0.00000000E+00
  0.00000000E+00  0.00000000E+00  0.00000000E+00
  0.00000000E+00  0.00000000E+00  0.00000000E+00
  0.00000000E+00  0.00000000E+00  0.00000000E+00
  0.00000000E+00  0.00000000E+00  0.00000000E+00
  0.00000000E+00  0.00000000E+00  0.00000000E+00
  0.00000000E+00  0.00000000E+00  0.00000000E+00
