Title                                   
   1.00000000000000     
     8.5490480000000009    0.0000000000000000    0.0000000000000000
     0.0000000000000000    8.5490480000000009    0.0000000000000000
     0.0000000000000000    0.0000000000000000   20.0000000000000000
    22     2     1
Selective dynamics
Direct
  0.9106541322997252  0.2075656262586240  0.0976916133410668   T   T   T
  0.9126693369550445  0.7991449210947145  0.0976873654141736   T   T   T
  0.1982582546912356  0.0829108725375366  0.0977981221152793   T   T   T
  0.0747166073413785  0.2032781675558424  0.0977640420054054   T   T   T
  0.1576669462471770  0.6487263938972100  0.0978116807505593   T   T   T
  0.0755134473741691  0.5015880770135490  0.0977922047535241   T   T   T
  0.1566885619813722  0.3552379817840414  0.0978285920499130   T   T   T
  0.0780485404434337  0.7985819413972447  0.0977641344268381   T   T   T
  0.4934454363404857  0.0861017925540562  0.0977246450029148   T   T   T
  0.3450579581939420  0.1653635777136196  0.0978387063625492   T   T   T
  0.4926633153464836  0.9174768356692000  0.0976633996354446   T   T   T
  0.3457265161877422  0.8348123477825612  0.0977684431915071   T   T   T
  0.7871214596465137  0.0851565877468889  0.0976522398873641   T   T   T
  0.6385422954645391  0.1684931349625107  0.0977124298837542   T   T   T
  0.7879748585822479  0.9199628855115940  0.0976260736405035   T   T   T
  0.8302901357903876  0.6483676195050713  0.0976720275550253   T   T   T
  0.8283856167587820  0.3577845514344913  0.0977053708256729   T   T   T
  0.6389922710415076  0.8349526868532087  0.0976246690963653   T   T   T
  0.3229646460522855  0.3342406484552902  0.0978933578389090   T   T   T
  0.3236843113997597  0.6696772297268521  0.0978118411579459   T   T   T
  0.6620770606058125  0.3375266300755841  0.0977510533650484   T   T   T
  0.6632417139993374  0.6673557733162456  0.0976743105562285   T   T   T
  0.9101280290848121  0.5028275973517551  0.0977798219514958   T   T   T
  0.1982293379974463  0.9171104326078811  0.0978171462843870   T   T   T
  0.4926712101743652  0.5005456871944329  0.0978517089081049   T   T   T
 
  0.00000000E+00  0.00000000E+00  0.00000000E+00
  0.00000000E+00  0.00000000E+00  0.00000000E+00
  0.00000000E+00  0.00000000E+00  0.00000000E+00
  0.00000000E+00  0.00000000E+00  0.00000000E+00
  0.00000000E+00  0.00000000E+00  0.00000000E+00
  0.00000000E+00  0.00000000E+00  0.00000000E+00
  0.00000000E+00  0.00000000E+00  0.00000000E+00
  0.00000000E+00  0.00000000E+00  0.00000000E+00
  0.00000000E+00  0.00000000E+00  0.00000000E+00
  0.00000000E+00  0.00000000E+00  0.00000000E+00
  0.00000000E+00  0.00000000E+00  0.00000000E+00
  0.00000000E+00  0.00000000E+00  0.00000000E+00
  0.00000000E+00  0.00000000E+00  0.00000000E+00
  0.00000000E+00  0.00000000E+00  0.00000000E+00
  0.00000000E+00  0.00000000E+00  0.00000000E+00
  0.00000000E+00  0.00000000E+00  0.00000000E+00
  0.00000000E+00  0.00000000E+00  0.00000000E+00
  0.00000000E+00  0.00000000E+00  0.00000000E+00
  0.00000000E+00  0.00000000E+00  0.00000000E+00
  0.00000000E+00  0.00000000E+00  0.00000000E+00
  0.00000000E+00  0.00000000E+00  0.00000000E+00
  0.00000000E+00  0.00000000E+00  0.00000000E+00
  0.00000000E+00  0.00000000E+00  0.00000000E+00
  0.00000000E+00  0.00000000E+00  0.00000000E+00
  0.00000000E+00  0.00000000E+00  0.00000000E+00
