Title                                   
   1.00000000000000     
     8.5490480000000009    0.0000000000000000    0.0000000000000000
     0.0000000000000000    8.5490480000000009    0.0000000000000000
     0.0000000000000000    0.0000000000000000   20.0000000000000000
    24     1
Selective dynamics
Direct
  0.9107045093199446  0.2066530736672706  0.0983111122837314   T   T   T
  0.9089030821754006  0.5017763289936232  0.0971616506261782   T   T   T
  0.9106777816276230  0.7969065735929861  0.0982157081697300   T   T   T
  0.1979679214243360  0.0841614465384188  0.0987415696895162   T   T   T
  0.0754100949319452  0.2066599744141131  0.0985803893830677   T   T   T
  0.1979512342007606  0.9194650830057962  0.0986555274747922   T   T   T
  0.1578414616228416  0.6475408812461605  0.0968412906742478   T   T   T
  0.0770856374697016  0.5018146981647339  0.0973957603909459   T   T   T
  0.1578242298478247  0.3561017922802990  0.0969983483945069   T   T   T
  0.0753901750690638  0.7969416773371734  0.0984428958626638   T   T   T
  0.4930263259827945  0.0858940650890201  0.0976066386093892   T   T   T
  0.3473596255205920  0.1666609263078789  0.0971942182818986   T   T   T
  0.4930146217625757  0.9176931623941708  0.0975492493058066   T   T   T
  0.3473278141648733  0.8369523042920297  0.0970521384320429   T   T   T
  0.7881516335572704  0.0841314847585265  0.0982963511128624   T   T   T
  0.6387343573745032  0.1666067805958842  0.0967345949951518   T   T   T
  0.7881236881005269  0.9194214931499078  0.0982517038520598   T   T   T
  0.8281803883953441  0.6474924123708590  0.0964728750545499   T   T   T
  0.8281749437189027  0.3560460852032111  0.0965557852826512   T   T   T
  0.6387061857712540  0.8369750460621317  0.0966766776017004   T   T   T
  0.3250672917717393  0.3338354793606205  0.0923834105903980   T   T   T
  0.3250642790474199  0.6697848444076900  0.0921742133502573   T   T   T
  0.6609619636087165  0.3337824914919744  0.0918179665215682   T   T   T
  0.6609592726167237  0.6697751372127856  0.0917505735534035   T   T   T
  0.4928034809173150  0.5017167580627481  0.0638443505068579   T   T   T
 
  0.00000000E+00  0.00000000E+00  0.00000000E+00
  0.00000000E+00  0.00000000E+00  0.00000000E+00
  0.00000000E+00  0.00000000E+00  0.00000000E+00
  0.00000000E+00  0.00000000E+00  0.00000000E+00
  0.00000000E+00  0.00000000E+00  0.00000000E+00
  0.00000000E+00  0.00000000E+00  0.00000000E+00
  0.00000000E+00  0.00000000E+00  0.00000000E+00
  0.00000000E+00  0.00000000E+00  0.00000000E+00
  0.00000000E+00  0.00000000E+00  0.00000000E+00
  0.00000000E+00  0.00000000E+00  0.00000000E+00
  0.00000000E+00  0.00000000E+00  0.00000000E+00
  0.00000000E+00  0.00000000E+00  0.00000000E+00
  0.00000000E+00  0.00000000E+00  0.00000000E+00
  0.00000000E+00  0.00000000E+00  0.00000000E+00
  0.00000000E+00  0.00000000E+00  0.00000000E+00
  0.00000000E+00  0.00000000E+00  0.00000000E+00
  0.00000000E+00  0.00000000E+00  0.00000000E+00
  0.00000000E+00  0.00000000E+00  0.00000000E+00
  0.00000000E+00  0.00000000E+00  0.00000000E+00
  0.00000000E+00  0.00000000E+00  0.00000000E+00
  0.00000000E+00  0.00000000E+00  0.00000000E+00
  0.00000000E+00  0.00000000E+00  0.00000000E+00
  0.00000000E+00  0.00000000E+00  0.00000000E+00
  0.00000000E+00  0.00000000E+00  0.00000000E+00
  0.00000000E+00  0.00000000E+00  0.00000000E+00
