Title                                   
   1.00000000000000     
     4.9440799999999996    0.0000000000000000    0.0000000000000000
     0.0000000000000000    8.5647549999999999    0.0000000000000000
     0.0000000000000000    0.0000000000000000   20.0000000000000000
    10     4     1
Selective dynamics
Direct
  0.2500000000000000  0.2118792199252016  0.0962700444378859   T   T   T
 -0.0012470428450833  0.2954242407160230  0.0966319882343925   T   T   T
  0.2500000000000000  0.0375998865407680  0.0962785608160680   T   T   T
 -0.0012815906452184  0.9541205548494514  0.0966349688726404   T   T   T
  0.7500000000000000  0.2091594627900220  0.0947333957861817   T   T   T
  0.5012470428450836  0.2954242407160230  0.0966319882343925   T   T   T
  0.7500000000000000  0.0404321042197418  0.0947557501010039   T   T   T
  0.7500000000000000  0.7112080084741657  0.1000622790491433   T   T   T
  0.7500000000000000  0.5384325040865022  0.1000636307004426   T   T   T
  0.5012815906452184  0.9541205548494514  0.0966349688726404   T   T   T
  0.5083757992401194  0.4585631464249069  0.1008939186037275   T   T   T
 -0.0083757992401192  0.4585631464249069  0.1008939186037275   T   T   T
 -0.0083861628086008  0.7910140953261805  0.1008847455310702   T   T   T
  0.5083861628086010  0.7910140953261805  0.1008847455310702   T   T   T
  0.2500000000000000  0.6247257393304771  0.1357250966256167   T   T   T
 
  0.00000000E+00  0.00000000E+00  0.00000000E+00
  0.00000000E+00  0.00000000E+00  0.00000000E+00
  0.00000000E+00  0.00000000E+00  0.00000000E+00
  0.00000000E+00  0.00000000E+00  0.00000000E+00
  0.00000000E+00  0.00000000E+00  0.00000000E+00
  0.00000000E+00  0.00000000E+00  0.00000000E+00
  0.00000000E+00  0.00000000E+00  0.00000000E+00
  0.00000000E+00  0.00000000E+00  0.00000000E+00
  0.00000000E+00  0.00000000E+00  0.00000000E+00
  0.00000000E+00  0.00000000E+00  0.00000000E+00
  0.00000000E+00  0.00000000E+00  0.00000000E+00
  0.00000000E+00  0.00000000E+00  0.00000000E+00
  0.00000000E+00  0.00000000E+00  0.00000000E+00
  0.00000000E+00  0.00000000E+00  0.00000000E+00
  0.00000000E+00  0.00000000E+00  0.00000000E+00
