Title                                   
   1.00000000000000     
     9.8694509999999998    0.0000000000000000    0.0000000000000000
     0.0000000000000000    8.5490480000000009    0.0000000000000000
     0.0000000000000000    0.0000000000000000   20.0000000000000000
    26     4     1
Selective dynamics
Direct
  0.0554376310890938  0.0898608161686146  0.0842507920479200   T   T   T
  0.9304958060078840  0.1718919865084321  0.0854396600063596   T   T   T
  0.0567831879599403  0.9230464419810044  0.0844876280117481   T   T   T
  0.9342632250044111  0.3390795254174844  0.0830027588570098   T   T   T
  0.0583993621398731  0.5897805096176456  0.0793762155459960   T   T   T
  0.9340763691374702  0.6732219861211278  0.0831632713842525   T   T   T
  0.0585915839939058  0.4233093104760440  0.0791634631546625   T   T   T
  0.9308981859795631  0.8401446416572769  0.0856054163067375   T   T   T
  0.3073771850651271  0.0888363973996677  0.0915586712028332   T   T   T
  0.1816403394023215  0.1713384632086780  0.0855838879382917   T   T   T
  0.1819813388513385  0.3391743276065565  0.0838546607042097   T   T   T
  0.3029542699582326  0.5903595024994716  0.0949403600273811   T   T   T
  0.1822667122488378  0.6737306004759758  0.0842295512506699   T   T   T
  0.3031400326114188  0.4222442275613957  0.0943399377656815   T   T   T
  0.1813855141512435  0.8408660280474325  0.0862480054258092   T   T   T
  0.4287706250038283  0.1763932796350860  0.1010391406534352   T   T   T
  0.5531167291745392  0.9213533042562977  0.1043388781138827   T   T   T
  0.4274687815729885  0.8365604960252525  0.1031313924969720   T   T   T
  0.8029213189495835  0.0900032167709875  0.0919168618689190   T   T   T
  0.6803301575022198  0.1771022448563038  0.1008828332447909   T   T   T
  0.8041275096885337  0.9213734854242825  0.0922360380303302   T   T   T
  0.6890352216096108  0.3446999739444424  0.1103797435670165   T   T   T
  0.8141480236358781  0.5891809063829810  0.0928648851844534   T   T   T
  0.6885580772537282  0.6660592505444841  0.1094444132210228   T   T   T
  0.8146845520964491  0.4221015815501131  0.0931395982954303   T   T   T
  0.6797427994821227  0.8357516946763954  0.1018047320267893   T   T   T
  0.5544987550710693  0.0929598109325236  0.1034209244357975   T   T   T
  0.4216642214375615  0.3382506234481981  0.1099109285903379   T   T   T
  0.4196012467148822  0.6748587590138415  0.1128433729820952   T   T   T
  0.3061895716319135  0.9223924966294417  0.0919275983501140   T   T   T
  0.5585866655744466  0.5049491111625676  0.1364393793090998   T   T   T
 
  0.00000000E+00  0.00000000E+00  0.00000000E+00
  0.00000000E+00  0.00000000E+00  0.00000000E+00
  0.00000000E+00  0.00000000E+00  0.00000000E+00
  0.00000000E+00  0.00000000E+00  0.00000000E+00
  0.00000000E+00  0.00000000E+00  0.00000000E+00
  0.00000000E+00  0.00000000E+00  0.00000000E+00
  0.00000000E+00  0.00000000E+00  0.00000000E+00
  0.00000000E+00  0.00000000E+00  0.00000000E+00
  0.00000000E+00  0.00000000E+00  0.00000000E+00
  0.00000000E+00  0.00000000E+00  0.00000000E+00
  0.00000000E+00  0.00000000E+00  0.00000000E+00
  0.00000000E+00  0.00000000E+00  0.00000000E+00
  0.00000000E+00  0.00000000E+00  0.00000000E+00
  0.00000000E+00  0.00000000E+00  0.00000000E+00
  0.00000000E+00  0.00000000E+00  0.00000000E+00
  0.00000000E+00  0.00000000E+00  0.00000000E+00
  0.00000000E+00  0.00000000E+00  0.00000000E+00
  0.00000000E+00  0.00000000E+00  0.00000000E+00
  0.00000000E+00  0.00000000E+00  0.00000000E+00
  0.00000000E+00  0.00000000E+00  0.00000000E+00
  0.00000000E+00  0.00000000E+00  0.00000000E+00
  0.00000000E+00  0.00000000E+00  0.00000000E+00
  0.00000000E+00  0.00000000E+00  0.00000000E+00
  0.00000000E+00  0.00000000E+00  0.00000000E+00
  0.00000000E+00  0.00000000E+00  0.00000000E+00
  0.00000000E+00  0.00000000E+00  0.00000000E+00
  0.00000000E+00  0.00000000E+00  0.00000000E+00
  0.00000000E+00  0.00000000E+00  0.00000000E+00
  0.00000000E+00  0.00000000E+00  0.00000000E+00
  0.00000000E+00  0.00000000E+00  0.00000000E+00
  0.00000000E+00  0.00000000E+00  0.00000000E+00
