Title                                   
   1.00000000000000     
     4.9440799999999996    0.0000000000000000    0.0000000000000000
     0.0000000000000000   17.1295089999999988    0.0000000000000000
     0.0000000000000000    0.0000000000000000   20.0000000000000000
    27     3     1
Selective dynamics
Direct
  0.0027675123520767  0.1055857152917895  0.2973423687199869   T   T   T
  0.2525340991744072  0.1487006609301651  0.2968551179392120   T   T   T
  0.2540727380275791  0.2331165888615982  0.2969112597851090   T   T   T
 -0.0003475217257743  0.2735371643048707  0.3002290180168131   T   T   T
 -0.0086296704151077  0.6006568836840247  0.2951506568338870   T   T   T
  0.2460930422920873  0.7266080202635899  0.2971597212270816   T   T   T
 -0.0015041313359235  0.8534512891046391  0.2964963777019517   T   T   T
  0.2486555122962883  0.8956126434477465  0.2969549675123299   T   T   T
  0.2500489039452845  0.9793765935679609  0.2970695922822333   T   T   T
 -0.0027448539171907  0.7695923209444037  0.2958686130878582   T   T   T
  0.5010501775341178  0.1055376863099963  0.2962656465975527   T   T   T
  0.7522212321643206  0.1467386442572772  0.2963666127982278   T   T   T
  0.7534228939131218  0.2302566013915053  0.2958754943447009   T   T   T
  0.4999853581235700  0.0215950897358740  0.2968035812138603   T   T   T
  0.7556451394903593  0.3904965073116345  0.2960370831070944   T   T   T
  0.7544733160932160  0.4801891600275681  0.2983806985384970   T   T   T
  0.5087927934810339  0.2744247405486923  0.2929236503962542   T   T   T
  0.4972505243469889  0.6015467453163383  0.3042580471704265   T   T   T
  0.7465930932886513  0.7280593348960613  0.2965016020599948   T   T   T
  0.4979018168834181  0.8534069233378649  0.2970374890085932   T   T   T
  0.7486159490539365  0.8955045373520660  0.2968635444144381   T   T   T
  0.7500642922457106  0.9795963805861720  0.2970238741348982   T   T   T
  0.4963457684420788  0.7694910828974048  0.2973696115299202   T   T   T
  0.7447262196001325  0.6443905789643685  0.2977405339955703   T   T   T
  0.2449175353747291  0.6427419581270222  0.2990681854448117   T   T   T
  0.0010474226495012  0.0216199781760149  0.2972607602760806   T   T   T
  0.5194925499087861  0.5202286078629667  0.3167399520832912   T   T   T
  0.9874469510925413  0.5211984279570007  0.2879991362241634   T   T   T
  0.5188323202772136  0.3539710501832887  0.2853723973712647   T   T   T
 -0.0124150510918418  0.3528680035052489  0.3089205947891068   T   T   T
  0.2526510664346881  0.4412420808548433  0.3602138113947425   T   T   T
 
  0.00000000E+00  0.00000000E+00  0.00000000E+00
  0.00000000E+00  0.00000000E+00  0.00000000E+00
  0.00000000E+00  0.00000000E+00  0.00000000E+00
  0.00000000E+00  0.00000000E+00  0.00000000E+00
  0.00000000E+00  0.00000000E+00  0.00000000E+00
  0.00000000E+00  0.00000000E+00  0.00000000E+00
  0.00000000E+00  0.00000000E+00  0.00000000E+00
  0.00000000E+00  0.00000000E+00  0.00000000E+00
  0.00000000E+00  0.00000000E+00  0.00000000E+00
  0.00000000E+00  0.00000000E+00  0.00000000E+00
  0.00000000E+00  0.00000000E+00  0.00000000E+00
  0.00000000E+00  0.00000000E+00  0.00000000E+00
  0.00000000E+00  0.00000000E+00  0.00000000E+00
  0.00000000E+00  0.00000000E+00  0.00000000E+00
  0.00000000E+00  0.00000000E+00  0.00000000E+00
  0.00000000E+00  0.00000000E+00  0.00000000E+00
  0.00000000E+00  0.00000000E+00  0.00000000E+00
  0.00000000E+00  0.00000000E+00  0.00000000E+00
  0.00000000E+00  0.00000000E+00  0.00000000E+00
  0.00000000E+00  0.00000000E+00  0.00000000E+00
  0.00000000E+00  0.00000000E+00  0.00000000E+00
  0.00000000E+00  0.00000000E+00  0.00000000E+00
  0.00000000E+00  0.00000000E+00  0.00000000E+00
  0.00000000E+00  0.00000000E+00  0.00000000E+00
  0.00000000E+00  0.00000000E+00  0.00000000E+00
  0.00000000E+00  0.00000000E+00  0.00000000E+00
  0.00000000E+00  0.00000000E+00  0.00000000E+00
  0.00000000E+00  0.00000000E+00  0.00000000E+00
  0.00000000E+00  0.00000000E+00  0.00000000E+00
  0.00000000E+00  0.00000000E+00  0.00000000E+00
  0.00000000E+00  0.00000000E+00  0.00000000E+00
