Title                                   
   1.00000000000000     
     9.8694509999999998    0.0000000000000000    0.0000000000000000
     0.0000000000000000    8.5490480000000009    0.0000000000000000
     0.0000000000000000    0.0000000000000000   20.0000000000000000
    27     3     1
Selective dynamics
Direct
  0.0556305053963786  0.0906653699163354  0.0926191916483989   T   T   T
  0.9301829653847240  0.1740025630659941  0.0870201241070301   T   T   T
  0.0561932873602634  0.9232613089541130  0.0927800398706158   T   T   T
  0.9316327943180470  0.3401843723199401  0.0877600473420456   T   T   T
  0.0558111593111816  0.5896694027623455  0.0936376923465377   T   T   T
  0.9330163849803697  0.6748477739515731  0.0888317069333865   T   T   T
  0.0554850651037102  0.4229074714676114  0.0934285206004310   T   T   T
  0.9317266668295306  0.8404232582420270  0.0880685619289824   T   T   T
  0.3067924348158110  0.0898423627959506  0.1013226544950784   T   T   T
  0.1798020847017402  0.1721473975045575  0.0984570093093772   T   T   T
  0.3070651409484560  0.9212346647015972  0.1009249395291184   T   T   T
  0.1793859833014372  0.3392253632980640  0.0989608882026521   T   T   T
  0.3024636825614499  0.5888720497635856  0.1048804266481179   T   T   T
  0.1795010773795922  0.6728264884553016  0.0986570327513993   T   T   T
  0.3025467200619170  0.4218857896175730  0.1057986900993848   T   T   T
  0.1801458255387349  0.8399481659366855  0.0981150389843909   T   T   T
  0.5530614254710261  0.0898049680930585  0.0942909276771369   T   T   T
  0.4298835153470503  0.1770971547797554  0.1033721985993561   T   T   T
  0.5538918655468144  0.9183720855167185  0.0945192847936623   T   T   T
  0.4296986339094908  0.8320164573566415  0.1025519468128093   T   T   T
  0.8044524396043502  0.0895116463469332  0.0836851967657294   T   T   T
  0.6788651084561174  0.1722574827865780  0.0835678184578970   T   T   T
  0.8054652918618750  0.9233247548630877  0.0846005729983910   T   T   T
  0.6820421808151638  0.3373196202937571  0.0786961632407921   T   T   T
  0.8084918244333976  0.5937244603833378  0.0827425110985464   T   T   T
  0.8058650546227800  0.4241496038644767  0.0812176057002165   T   T   T
  0.6814998846503325  0.8391982951188715  0.0856531655512083   T   T   T
  0.4260578791951369  0.3428412815500382  0.1127101527400680   T   T   T
  0.6867063209810054  0.6773403208386480  0.0823303490172335   T   T   T
  0.4255218033565098  0.6675294907780777  0.1100007833738887   T   T   T
  0.5842499937556156  0.5044435746767773  0.1297637583761583   T   T   T
 
  0.00000000E+00  0.00000000E+00  0.00000000E+00
  0.00000000E+00  0.00000000E+00  0.00000000E+00
  0.00000000E+00  0.00000000E+00  0.00000000E+00
  0.00000000E+00  0.00000000E+00  0.00000000E+00
  0.00000000E+00  0.00000000E+00  0.00000000E+00
  0.00000000E+00  0.00000000E+00  0.00000000E+00
  0.00000000E+00  0.00000000E+00  0.00000000E+00
  0.00000000E+00  0.00000000E+00  0.00000000E+00
  0.00000000E+00  0.00000000E+00  0.00000000E+00
  0.00000000E+00  0.00000000E+00  0.00000000E+00
  0.00000000E+00  0.00000000E+00  0.00000000E+00
  0.00000000E+00  0.00000000E+00  0.00000000E+00
  0.00000000E+00  0.00000000E+00  0.00000000E+00
  0.00000000E+00  0.00000000E+00  0.00000000E+00
  0.00000000E+00  0.00000000E+00  0.00000000E+00
  0.00000000E+00  0.00000000E+00  0.00000000E+00
  0.00000000E+00  0.00000000E+00  0.00000000E+00
  0.00000000E+00  0.00000000E+00  0.00000000E+00
  0.00000000E+00  0.00000000E+00  0.00000000E+00
  0.00000000E+00  0.00000000E+00  0.00000000E+00
  0.00000000E+00  0.00000000E+00  0.00000000E+00
  0.00000000E+00  0.00000000E+00  0.00000000E+00
  0.00000000E+00  0.00000000E+00  0.00000000E+00
  0.00000000E+00  0.00000000E+00  0.00000000E+00
  0.00000000E+00  0.00000000E+00  0.00000000E+00
  0.00000000E+00  0.00000000E+00  0.00000000E+00
  0.00000000E+00  0.00000000E+00  0.00000000E+00
  0.00000000E+00  0.00000000E+00  0.00000000E+00
  0.00000000E+00  0.00000000E+00  0.00000000E+00
  0.00000000E+00  0.00000000E+00  0.00000000E+00
  0.00000000E+00  0.00000000E+00  0.00000000E+00
