Title                                   
   1.00000000000000     
     4.9440799999999996    0.0000000000000000    0.0000000000000000
     0.0000000000000000   17.1295089999999988    0.0000000000000000
     0.0000000000000000    0.0000000000000000   20.0000000000000000
    28     2     1
Selective dynamics
Direct
 -0.0083605419796537  0.1058964071756444  0.2950189280600299   T   T   T
  0.2395799274646205  0.1484084963865885  0.2957178264349369   T   T   T
  0.2350575212622286  0.2325218603077728  0.2988379608050856   T   T   T
 -0.0172264310916616  0.2742180505060725  0.3039384885007032   T   T   T
  0.0178023092088271  0.6005121587663804  0.2963751476535004   T   T   T
  0.2610013042588465  0.7265136472556639  0.2959856573514249   T   T   T
  0.0043819088002194  0.8530670526101144  0.2935970470653652   T   T   T
  0.2527265626520211  0.8954197049695091  0.2937946436483688   T   T   T
  0.2478638096582474  0.9795237463434991  0.2937231304534104   T   T   T
  0.0092720280051627  0.7688470386083236  0.2941409677222548   T   T   T
  0.4913141003729434  0.1060633353479027  0.2939365707400421   T   T   T
  0.7403379545248844  0.1480686966343947  0.2946520031207246   T   T   T
  0.7346353636770550  0.2322462866264094  0.2967288225484281   T   T   T
  0.4962214659010045  0.0218630825279316  0.2934924701921457   T   T   T
  0.7398747268558624  0.3940500203886834  0.3090048945645634   T   T   T
  0.7610020328498425  0.4808585960397421  0.3091425975399844   T   T   T
  0.4828903494430269  0.2744401764661965  0.2962335476390162   T   T   T
  0.5179482963754914  0.6006975029599968  0.3042685599396653   T   T   T
  0.7602522297518379  0.7268514125470342  0.2949113278255475   T   T   T
  0.5041935577736368  0.8531495953790045  0.2940639575006955   T   T   T
  0.7527787803430077  0.8953578527119375  0.2935208792665274   T   T   T
  0.7478359600421154  0.9795942492227665  0.2934533385797018   T   T   T
  0.5089490750555031  0.7690279455313611  0.2952560213142447   T   T   T
  0.7659861906032741  0.6426810512091117  0.2969924146875965   T   T   T
  0.2656208042472083  0.6424071882436553  0.2991186517552252   T   T   T
 -0.0035810588037703  0.0217946150545478  0.2939436157645415   T   T   T
  0.0046904503415654  0.5166691194425264  0.2970862514324745   T   T   T
  0.4960603087604064  0.3582895522346743  0.2970833748800113   T   T   T
  0.5244367920641827  0.5212786493268396  0.3187163767581340   T   T   T
 -0.0236461161487041  0.3535974611581503  0.3183707060019765   T   T   T
  0.2501073377307695  0.4374274480175598  0.3339538202536253   T   T   T
 
  0.00000000E+00  0.00000000E+00  0.00000000E+00
  0.00000000E+00  0.00000000E+00  0.00000000E+00
  0.00000000E+00  0.00000000E+00  0.00000000E+00
  0.00000000E+00  0.00000000E+00  0.00000000E+00
  0.00000000E+00  0.00000000E+00  0.00000000E+00
  0.00000000E+00  0.00000000E+00  0.00000000E+00
  0.00000000E+00  0.00000000E+00  0.00000000E+00
  0.00000000E+00  0.00000000E+00  0.00000000E+00
  0.00000000E+00  0.00000000E+00  0.00000000E+00
  0.00000000E+00  0.00000000E+00  0.00000000E+00
  0.00000000E+00  0.00000000E+00  0.00000000E+00
  0.00000000E+00  0.00000000E+00  0.00000000E+00
  0.00000000E+00  0.00000000E+00  0.00000000E+00
  0.00000000E+00  0.00000000E+00  0.00000000E+00
  0.00000000E+00  0.00000000E+00  0.00000000E+00
  0.00000000E+00  0.00000000E+00  0.00000000E+00
  0.00000000E+00  0.00000000E+00  0.00000000E+00
  0.00000000E+00  0.00000000E+00  0.00000000E+00
  0.00000000E+00  0.00000000E+00  0.00000000E+00
  0.00000000E+00  0.00000000E+00  0.00000000E+00
  0.00000000E+00  0.00000000E+00  0.00000000E+00
  0.00000000E+00  0.00000000E+00  0.00000000E+00
  0.00000000E+00  0.00000000E+00  0.00000000E+00
  0.00000000E+00  0.00000000E+00  0.00000000E+00
  0.00000000E+00  0.00000000E+00  0.00000000E+00
  0.00000000E+00  0.00000000E+00  0.00000000E+00
  0.00000000E+00  0.00000000E+00  0.00000000E+00
  0.00000000E+00  0.00000000E+00  0.00000000E+00
  0.00000000E+00  0.00000000E+00  0.00000000E+00
  0.00000000E+00  0.00000000E+00  0.00000000E+00
  0.00000000E+00  0.00000000E+00  0.00000000E+00
