Title                                   
   1.00000000000000     
     4.9440799999999996    0.0000000000000000    0.0000000000000000
     0.0000000000000000   17.1295089999999988    0.0000000000000000
     0.0000000000000000    0.0000000000000000   20.0000000000000000
    29     1     1
Selective dynamics
Direct
  0.0001448687137292  0.1048705195241786  0.2924721041247342   T   T   T
  0.2503551749625851  0.1469009430568007  0.2940411932168343   T   T   T
  0.2504055075846319  0.2303354291306166  0.2989380489386069   T   T   T
  0.0018024082318558  0.2728529002954654  0.3021187645799017   T   T   T
  0.0031995447827544  0.6024666152729901  0.3009181211467756   T   T   T
  0.2503084416842634  0.7271731052514405  0.2936749632434467   T   T   T
  0.0012908758948293  0.8529381670067145  0.2904719096522221   T   T   T
  0.2503282860131513  0.8951635773403587  0.2902388303406920   T   T   T
  0.2503533468553770  0.9790733829658692  0.2902831033215591   T   T   T
  0.0011239830006915  0.7688821623032134  0.2920130989303363   T   T   T
  0.5005365767007021  0.1048633091089399  0.2924870412983694   T   T   T
  0.7503483153201885  0.1470955934835949  0.2938259580324535   T   T   T
  0.7504419058647780  0.2309582340254446  0.2982872229021690   T   T   T
  0.5004865488097215  0.0209901221120774  0.2906840545738042   T   T   T
  0.7502317335767871  0.3963880333439750  0.3125504235468571   T   T   T
  0.7502265495869770  0.4816664859673940  0.3126019320880363   T   T   T
  0.4990233532457331  0.2728380913097739  0.3021663503376357   T   T   T
  0.4975566247502586  0.6024792171710140  0.3009495454532771   T   T   T
  0.7503110333341316  0.7274346164723775  0.2928987476902922   T   T   T
  0.4993784949250323  0.8529466299041529  0.2904790034716381   T   T   T
  0.7503659247777021  0.8947549533329885  0.2900686976477913   T   T   T
  0.7503913731591952  0.9787504866790262  0.2901791075826086   T   T   T
  0.4994876662628094  0.7688867741948585  0.2920021315358979   T   T   T
  0.7503849278935554  0.6445611768510072  0.2968504210486806   T   T   T
  0.0002694148758947  0.0210022068023388  0.2906666517186012   T   T   T
  0.4978604360987824  0.5209724138031442  0.3107118034583471   T   T   T
  0.0026410566197484  0.5209482435901839  0.3105845429140932   T   T   T
  0.5011985013727812  0.3555128250364561  0.3114634541128075   T   T   T
 -0.0006725439820935  0.3555428370890018  0.3113027788744590   T   T   T
  0.2503747454010304  0.6448658131003622  0.2977251181352917   T   T   T
  0.2498519236824170  0.4372271344742365  0.3514048760817321   T   T   T
 
  0.00000000E+00  0.00000000E+00  0.00000000E+00
  0.00000000E+00  0.00000000E+00  0.00000000E+00
  0.00000000E+00  0.00000000E+00  0.00000000E+00
  0.00000000E+00  0.00000000E+00  0.00000000E+00
  0.00000000E+00  0.00000000E+00  0.00000000E+00
  0.00000000E+00  0.00000000E+00  0.00000000E+00
  0.00000000E+00  0.00000000E+00  0.00000000E+00
  0.00000000E+00  0.00000000E+00  0.00000000E+00
  0.00000000E+00  0.00000000E+00  0.00000000E+00
  0.00000000E+00  0.00000000E+00  0.00000000E+00
  0.00000000E+00  0.00000000E+00  0.00000000E+00
  0.00000000E+00  0.00000000E+00  0.00000000E+00
  0.00000000E+00  0.00000000E+00  0.00000000E+00
  0.00000000E+00  0.00000000E+00  0.00000000E+00
  0.00000000E+00  0.00000000E+00  0.00000000E+00
  0.00000000E+00  0.00000000E+00  0.00000000E+00
  0.00000000E+00  0.00000000E+00  0.00000000E+00
  0.00000000E+00  0.00000000E+00  0.00000000E+00
  0.00000000E+00  0.00000000E+00  0.00000000E+00
  0.00000000E+00  0.00000000E+00  0.00000000E+00
  0.00000000E+00  0.00000000E+00  0.00000000E+00
  0.00000000E+00  0.00000000E+00  0.00000000E+00
  0.00000000E+00  0.00000000E+00  0.00000000E+00
  0.00000000E+00  0.00000000E+00  0.00000000E+00
  0.00000000E+00  0.00000000E+00  0.00000000E+00
  0.00000000E+00  0.00000000E+00  0.00000000E+00
  0.00000000E+00  0.00000000E+00  0.00000000E+00
  0.00000000E+00  0.00000000E+00  0.00000000E+00
  0.00000000E+00  0.00000000E+00  0.00000000E+00
  0.00000000E+00  0.00000000E+00  0.00000000E+00
  0.00000000E+00  0.00000000E+00  0.00000000E+00
