Title                                   
   1.00000000000000     
     9.8694509999999998    0.0000000000000000    0.0000000000000000
     0.0000000000000000    8.5490480000000009    0.0000000000000000
     0.0000000000000000    0.0000000000000000   20.0000000000000000
    26     5     1
Selective dynamics
Direct
  0.0558407025706047  0.0920201979632478  0.0873964582308326   T   T   T
  0.9296662931978011  0.1755072884323456  0.0885558575749863   T   T   T
  0.0564702020791552  0.9234391016507254  0.0863902140904421   T   T   T
  0.9289804051421132  0.3417869571649822  0.0902981367209493   T   T   T
  0.0562990934528467  0.5900391061181208  0.0868948965045351   T   T   T
  0.9313314550331759  0.6719503464577322  0.0873163418756543   T   T   T
  0.0557120192996042  0.4231684335966732  0.0901895949446855   T   T   T
  0.9314453197453472  0.8399310152613194  0.0872367328876772   T   T   T
  0.3055421626242929  0.0888857751232999  0.0896230661701534   T   T   T
  0.1818573156389236  0.1740761135829632  0.0893898549322789   T   T   T
  0.3073013646654062  0.9228747917966518  0.0902515001098622   T   T   T
  0.1817141028416633  0.3400086423885684  0.0924150864848823   T   T   T
  0.3064378834303944  0.5899527148508332  0.0992610207824554   T   T   T
  0.1815304883209295  0.6707556362105946  0.0888352309906730   T   T   T
  0.1822482781339150  0.8389122926808744  0.0880019310948245   T   T   T
  0.5566889299660562  0.0865033631785306  0.0960371560753880   T   T   T
  0.4310136396884099  0.1697193646948199  0.0940704504949748   T   T   T
  0.4329042750309834  0.3353291153128499  0.0983716431408089   T   T   T
  0.4301925320382451  0.8385125147553953  0.1003562100743938   T   T   T
  0.8065061788134711  0.0897924688703544  0.0889849337597035   T   T   T
  0.6809786676151769  0.1713777955085439  0.0930088046418106   T   T   T
  0.8061199248563685  0.9241765860792406  0.0894775391684370   T   T   T
  0.6772519508310548  0.3365219433220303  0.0957523114649074   T   T   T
  0.8053101742696815  0.5937368985602153  0.0928785958716699   T   T   T
  0.6839157857445711  0.8389022684235021  0.0966999077307825   T   T   T
  0.4228215409028948  0.6776517331282992  0.1173751871841233   T   T   T
  0.5547007616630515  0.4124240219915540  0.1062535203121107   T   T   T
  0.6882888423788184  0.6786563204772570  0.1043834542112487   T   T   T
  0.5575972483964552  0.9195423459517029  0.0992779889194288   T   T   T
  0.3088790480191758  0.4218352166017007  0.0979011879314053   T   T   T
  0.8005890246395098  0.4258406264376438  0.0926889674439245   T   T   T
  0.5635033889699109  0.5864150034274286  0.1801012181800064   T   T   T
 
  0.00000000E+00  0.00000000E+00  0.00000000E+00
  0.00000000E+00  0.00000000E+00  0.00000000E+00
  0.00000000E+00  0.00000000E+00  0.00000000E+00
  0.00000000E+00  0.00000000E+00  0.00000000E+00
  0.00000000E+00  0.00000000E+00  0.00000000E+00
  0.00000000E+00  0.00000000E+00  0.00000000E+00
  0.00000000E+00  0.00000000E+00  0.00000000E+00
  0.00000000E+00  0.00000000E+00  0.00000000E+00
  0.00000000E+00  0.00000000E+00  0.00000000E+00
  0.00000000E+00  0.00000000E+00  0.00000000E+00
  0.00000000E+00  0.00000000E+00  0.00000000E+00
  0.00000000E+00  0.00000000E+00  0.00000000E+00
  0.00000000E+00  0.00000000E+00  0.00000000E+00
  0.00000000E+00  0.00000000E+00  0.00000000E+00
  0.00000000E+00  0.00000000E+00  0.00000000E+00
  0.00000000E+00  0.00000000E+00  0.00000000E+00
  0.00000000E+00  0.00000000E+00  0.00000000E+00
  0.00000000E+00  0.00000000E+00  0.00000000E+00
  0.00000000E+00  0.00000000E+00  0.00000000E+00
  0.00000000E+00  0.00000000E+00  0.00000000E+00
  0.00000000E+00  0.00000000E+00  0.00000000E+00
  0.00000000E+00  0.00000000E+00  0.00000000E+00
  0.00000000E+00  0.00000000E+00  0.00000000E+00
  0.00000000E+00  0.00000000E+00  0.00000000E+00
  0.00000000E+00  0.00000000E+00  0.00000000E+00
  0.00000000E+00  0.00000000E+00  0.00000000E+00
  0.00000000E+00  0.00000000E+00  0.00000000E+00
  0.00000000E+00  0.00000000E+00  0.00000000E+00
  0.00000000E+00  0.00000000E+00  0.00000000E+00
  0.00000000E+00  0.00000000E+00  0.00000000E+00
  0.00000000E+00  0.00000000E+00  0.00000000E+00
  0.00000000E+00  0.00000000E+00  0.00000000E+00
