Title                                   
   1.00000000000000     
     4.9440799999999996    0.0000000000000000    0.0000000000000000
     0.0000000000000000   17.1295089999999988    0.0000000000000000
     0.0000000000000000    0.0000000000000000   20.0000000000000000
    28     2     1
Selective dynamics
Direct
 -0.0054003379891995  0.1054888818049783  0.2961709494462703   T   T   T
  0.2428228705619362  0.1482068100208759  0.2965008134730813   T   T   T
  0.2403650699611960  0.2322027464266888  0.2988742467784135   T   T   T
 -0.0089068686953130  0.2755885265269006  0.3038000664370467   T   T   T
  0.0070620708843418  0.5999117535252914  0.3035357093626457   T   T   T
  0.2509333759323586  0.7265876880041592  0.2961741103749476   T   T   T
  0.0001638397860295  0.8530237883879114  0.2953647944027219   T   T   T
  0.2488896452059058  0.8952873390894989  0.2950813565898142   T   T   T
  0.2471269673748710  0.9794386879866920  0.2950988655821706   T   T   T
  0.0016897539950861  0.7687409778958082  0.2960186940046029   T   T   T
  0.4946734563615814  0.1060579056133372  0.2948046562554975   T   T   T
  0.7452510798721506  0.1480126243444386  0.2952756984697656   T   T   T
  0.7431396210380747  0.2322644969025654  0.2960394721508388   T   T   T
  0.4963763227890078  0.0218113275115774  0.2946961963196309   T   T   T
  0.7501566962420443  0.3948863467799867  0.3027893758732331   T   T   T
  0.7549841579805634  0.4793434537253312  0.3050788120457482   T   T   T
  0.4900893707087373  0.2733678058464180  0.2943250269839133   T   T   T
  0.5014231131352727  0.6028142576808256  0.2956277854719797   T   T   T
  0.7525341648057584  0.7269540330247478  0.2953929072899420   T   T   T
  0.4984000823425991  0.8527545947756632  0.2947302797127510   T   T   T
  0.7485788670619741  0.8949106005485112  0.2948671899056970   T   T   T
  0.7467492690069527  0.9792058477804026  0.2948416215926333   T   T   T
  0.5004138057661577  0.7683662244242752  0.2948283789030952   T   T   T
  0.7544116646814281  0.6434964722465679  0.2965730899475268   T   T   T
 -0.0036881666951075  0.0214151881720749  0.2954285971659956   T   T   T
  0.5060985857729244  0.5207753728835889  0.2989779062206993   T   T   T
  0.0092611163095840  0.5175578663503502  0.3154294649845898   T   T   T
  0.5022689454506003  0.3560013494197637  0.2928378368541489   T   T   T
 -0.0117766821135124  0.3557412421902885  0.3173109340135533   T   T   T
  0.2520324249779985  0.6440359668718620  0.2982951270685743   T   T   T
  0.3038827174879984  0.4370918232386154  0.3402900363184239   T   T   T
 
  0.00000000E+00  0.00000000E+00  0.00000000E+00
  0.00000000E+00  0.00000000E+00  0.00000000E+00
  0.00000000E+00  0.00000000E+00  0.00000000E+00
  0.00000000E+00  0.00000000E+00  0.00000000E+00
  0.00000000E+00  0.00000000E+00  0.00000000E+00
  0.00000000E+00  0.00000000E+00  0.00000000E+00
  0.00000000E+00  0.00000000E+00  0.00000000E+00
  0.00000000E+00  0.00000000E+00  0.00000000E+00
  0.00000000E+00  0.00000000E+00  0.00000000E+00
  0.00000000E+00  0.00000000E+00  0.00000000E+00
  0.00000000E+00  0.00000000E+00  0.00000000E+00
  0.00000000E+00  0.00000000E+00  0.00000000E+00
  0.00000000E+00  0.00000000E+00  0.00000000E+00
  0.00000000E+00  0.00000000E+00  0.00000000E+00
  0.00000000E+00  0.00000000E+00  0.00000000E+00
  0.00000000E+00  0.00000000E+00  0.00000000E+00
  0.00000000E+00  0.00000000E+00  0.00000000E+00
  0.00000000E+00  0.00000000E+00  0.00000000E+00
  0.00000000E+00  0.00000000E+00  0.00000000E+00
  0.00000000E+00  0.00000000E+00  0.00000000E+00
  0.00000000E+00  0.00000000E+00  0.00000000E+00
  0.00000000E+00  0.00000000E+00  0.00000000E+00
  0.00000000E+00  0.00000000E+00  0.00000000E+00
  0.00000000E+00  0.00000000E+00  0.00000000E+00
  0.00000000E+00  0.00000000E+00  0.00000000E+00
  0.00000000E+00  0.00000000E+00  0.00000000E+00
  0.00000000E+00  0.00000000E+00  0.00000000E+00
  0.00000000E+00  0.00000000E+00  0.00000000E+00
  0.00000000E+00  0.00000000E+00  0.00000000E+00
  0.00000000E+00  0.00000000E+00  0.00000000E+00
  0.00000000E+00  0.00000000E+00  0.00000000E+00
