Title                                   
   1.00000000000000     
     4.9440799999999996    0.0000000000000000    0.0000000000000000
     0.0000000000000000    8.5647549999999999    0.0000000000000000
     0.0000000000000000    0.0000000000000000   20.0000000000000000
    10     4     1
Selective dynamics
Direct
  0.2500000000000000  0.2112175399439483  0.0964828120880372   T   T   T
 -0.0017275432725018  0.2935958508049789  0.0962438329015799   T   T   T
  0.2500000000000000  0.0383257576109829  0.0964796613120977   T   T   T
 -0.0017534263913823  0.9559525906722612  0.0962206487795461   T   T   T
  0.7500000000000000  0.2090625373693132  0.0920973681157012   T   T   T
  0.5017275432725019  0.2935958508049789  0.0962438329015799   T   T   T
  0.7500000000000000  0.0405067548998763  0.0920974931854132   T   T   T
  0.7500000000000000  0.7106137033008337  0.0985883374747438   T   T   T
  0.7500000000000000  0.5389084376860021  0.0985754899628486   T   T   T
  0.5017534263913821  0.9559525906722612  0.0962206487795461   T   T   T
  0.5109213710389066  0.4565866068620004  0.1039765998613110   T   T   T
 -0.0109213710389064  0.4565866068620004  0.1039765998613110   T   T   T
 -0.0109663161170773  0.7929777503256664  0.1039699325648571   T   T   T
  0.5109663161170772  0.7929777503256664  0.1039699325648571   T   T   T
  0.2500000000000000  0.6248206718592325  0.1328368096465737   T   T   T
 
  0.00000000E+00  0.00000000E+00  0.00000000E+00
  0.00000000E+00  0.00000000E+00  0.00000000E+00
  0.00000000E+00  0.00000000E+00  0.00000000E+00
  0.00000000E+00  0.00000000E+00  0.00000000E+00
  0.00000000E+00  0.00000000E+00  0.00000000E+00
  0.00000000E+00  0.00000000E+00  0.00000000E+00
  0.00000000E+00  0.00000000E+00  0.00000000E+00
  0.00000000E+00  0.00000000E+00  0.00000000E+00
  0.00000000E+00  0.00000000E+00  0.00000000E+00
  0.00000000E+00  0.00000000E+00  0.00000000E+00
  0.00000000E+00  0.00000000E+00  0.00000000E+00
  0.00000000E+00  0.00000000E+00  0.00000000E+00
  0.00000000E+00  0.00000000E+00  0.00000000E+00
  0.00000000E+00  0.00000000E+00  0.00000000E+00
  0.00000000E+00  0.00000000E+00  0.00000000E+00
