Title                                   
   1.00000000000000     
     4.9440799999999996    0.0000000000000000    0.0000000000000000
     0.0000000000000000    8.5647549999999999    0.0000000000000000
     0.0000000000000000    0.0000000000000000   20.0000000000000000
    12     3     1
Selective dynamics
Direct
  0.0063713767857228  0.3004258169556191  0.1026795482547563   T   T   T
  0.2594872602498488  0.0472252868812221  0.0925133183804577   T   T   T
  0.0135860834806050  0.7974181821862902  0.0952632864165161   T   T   T
  0.0097349029202478  0.9627178923478160  0.0913017312585007   T   T   T
  0.7578081017680350  0.2067314110511938  0.0981417888155102   T   T   T
  0.5106221507710164  0.2883360631032426  0.1036628510524858   T   T   T
  0.7590251659862608  0.0440669105229618  0.0918617306581958   T   T   T
  0.7603090930645612  0.7061076967448729  0.0972077955099519   T   T   T
  0.5054608392654024  0.7946456373334090  0.0983765721184301   T   T   T
  0.7507948982159081  0.5330341104163157  0.0949165563531853   T   T   T
  0.5083203933072878  0.9621308153166633  0.0931856541946511   T   T   T
  0.5204260362953547  0.4506221364403968  0.1215887137288962   T   T   T
 -0.0173256981872918  0.4518875842862031  0.0689145651653475   T   T   T
  0.2592056271180254  0.7214152845356014  0.1039146307501260   T   T   T
  0.2622450105862469  0.2102214412389153  0.0948031719664008   T   T   T
  0.1339287583727695  0.5230137306392776  0.1641800853765983   T   T   T
 
  0.00000000E+00  0.00000000E+00  0.00000000E+00
  0.00000000E+00  0.00000000E+00  0.00000000E+00
  0.00000000E+00  0.00000000E+00  0.00000000E+00
  0.00000000E+00  0.00000000E+00  0.00000000E+00
  0.00000000E+00  0.00000000E+00  0.00000000E+00
  0.00000000E+00  0.00000000E+00  0.00000000E+00
  0.00000000E+00  0.00000000E+00  0.00000000E+00
  0.00000000E+00  0.00000000E+00  0.00000000E+00
  0.00000000E+00  0.00000000E+00  0.00000000E+00
  0.00000000E+00  0.00000000E+00  0.00000000E+00
  0.00000000E+00  0.00000000E+00  0.00000000E+00
  0.00000000E+00  0.00000000E+00  0.00000000E+00
  0.00000000E+00  0.00000000E+00  0.00000000E+00
  0.00000000E+00  0.00000000E+00  0.00000000E+00
  0.00000000E+00  0.00000000E+00  0.00000000E+00
  0.00000000E+00  0.00000000E+00  0.00000000E+00
