Title                                   
   1.00000000000000     
     9.8694509999999998    0.0000000000000000    0.0000000000000000
     0.0000000000000000    8.5490480000000009    0.0000000000000000
     0.0000000000000000    0.0000000000000000   20.0000000000000000
    27     3     1
Selective dynamics
Direct
  0.0556064944181326  0.0884417050849782  0.0906952112545486   T   T   T
  0.9308111926482313  0.1723514135556029  0.0928259699022169   T   T   T
  0.0576086584985237  0.9224464432581843  0.0909863727011396   T   T   T
  0.9329133744941003  0.3396634711911843  0.0952062562011554   T   T   T
  0.0580309387983183  0.5897067740351754  0.0937798038267679   T   T   T
  0.9332362319236066  0.6729913025199540  0.0963642034147964   T   T   T
  0.0576892842254312  0.4224162070243259  0.0933463628488090   T   T   T
  0.9320558107126174  0.8399441317505197  0.0940384816849385   T   T   T
  0.3067925584205468  0.0869174798542807  0.0886694385687408   T   T   T
  0.1816723627659148  0.1705434680342755  0.0897102316015308   T   T   T
  0.1811093632844534  0.3368790037425246  0.0906479183200293   T   T   T
  0.3086903978696304  0.5867850456848687  0.0887069081901273   T   T   T
  0.1832398560289347  0.6722085580303199  0.0908994306460675   T   T   T
  0.3057663789251201  0.4179726217772125  0.0891736012681816   T   T   T
  0.1832220257538413  0.8385023464527347  0.0896887319470176   T   T   T
  0.4303819042419132  0.1744484554623791  0.0901336766398754   T   T   T
  0.5550714867251105  0.9257394587571299  0.0948535215279209   T   T   T
  0.4319338653706644  0.6733964683749638  0.0892181743391253   T   T   T
  0.4320326723618559  0.8391530481479667  0.0898974314395848   T   T   T
  0.8043862824570855  0.0900345531607236  0.0934207620836618   T   T   T
  0.6796788997400162  0.1790371195080614  0.0962037894956449   T   T   T
  0.8058664963455415  0.9233837633146974  0.0945865718767695   T   T   T
  0.6826511552530581  0.3431093972443683  0.1025878489923711   T   T   T
  0.8089092224505421  0.5913835798103252  0.1015223279402082   T   T   T
  0.6826177903714070  0.6721582221576566  0.1064038343273500   T   T   T
  0.8093493872478962  0.4223497100683218  0.1001745571932608   T   T   T
  0.6798558882951855  0.8389253164675280  0.0987922526922003   T   T   T
  0.5552099535621033  0.0942951258799708  0.0936912662049467   T   T   T
  0.4271346494503482  0.3346112605884046  0.0904292209216511   T   T   T
  0.3067363031853236  0.9227586640631751  0.0880389300031824   T   T   T
  0.5428741141745610  0.5083208849982043  0.1362719119462275   T   T   T
 
  0.00000000E+00  0.00000000E+00  0.00000000E+00
  0.00000000E+00  0.00000000E+00  0.00000000E+00
  0.00000000E+00  0.00000000E+00  0.00000000E+00
  0.00000000E+00  0.00000000E+00  0.00000000E+00
  0.00000000E+00  0.00000000E+00  0.00000000E+00
  0.00000000E+00  0.00000000E+00  0.00000000E+00
  0.00000000E+00  0.00000000E+00  0.00000000E+00
  0.00000000E+00  0.00000000E+00  0.00000000E+00
  0.00000000E+00  0.00000000E+00  0.00000000E+00
  0.00000000E+00  0.00000000E+00  0.00000000E+00
  0.00000000E+00  0.00000000E+00  0.00000000E+00
  0.00000000E+00  0.00000000E+00  0.00000000E+00
  0.00000000E+00  0.00000000E+00  0.00000000E+00
  0.00000000E+00  0.00000000E+00  0.00000000E+00
  0.00000000E+00  0.00000000E+00  0.00000000E+00
  0.00000000E+00  0.00000000E+00  0.00000000E+00
  0.00000000E+00  0.00000000E+00  0.00000000E+00
  0.00000000E+00  0.00000000E+00  0.00000000E+00
  0.00000000E+00  0.00000000E+00  0.00000000E+00
  0.00000000E+00  0.00000000E+00  0.00000000E+00
  0.00000000E+00  0.00000000E+00  0.00000000E+00
  0.00000000E+00  0.00000000E+00  0.00000000E+00
  0.00000000E+00  0.00000000E+00  0.00000000E+00
  0.00000000E+00  0.00000000E+00  0.00000000E+00
  0.00000000E+00  0.00000000E+00  0.00000000E+00
  0.00000000E+00  0.00000000E+00  0.00000000E+00
  0.00000000E+00  0.00000000E+00  0.00000000E+00
  0.00000000E+00  0.00000000E+00  0.00000000E+00
  0.00000000E+00  0.00000000E+00  0.00000000E+00
  0.00000000E+00  0.00000000E+00  0.00000000E+00
  0.00000000E+00  0.00000000E+00  0.00000000E+00
