Title                                   
   1.00000000000000     
     8.5490480000000009    0.0000000000000000    0.0000000000000000
     0.0000000000000000    8.5490480000000009    0.0000000000000000
     0.0000000000000000    0.0000000000000000   20.0000000000000000
    20     4     1
Selective dynamics
Direct
  0.9077342169933260  0.2096083298674947  0.0975920496306912   T   T   T
  0.9124547402629255  0.7999716824296438  0.0976894346355864   T   T   T
  0.1965015354823884  0.0829186807538247  0.0977545918141110   T   T   T
  0.0745053156141055  0.2026861289510465  0.0977347857152766   T   T   T
  0.1597301052661071  0.6472878703274710  0.0977550386530005   T   T   T
  0.0769382665822809  0.5015158558606830  0.0978089116344580   T   T   T
  0.1576874548810764  0.3525112269325682  0.0979130876501276   T   T   T
  0.0800063355477918  0.7973605370258137  0.0977011965788267   T   T   T
  0.4928513262468674  0.0868824734534028  0.0976954151398586   T   T   T
  0.3422790119861548  0.1663697349321825  0.0978696452692916   T   T   T
  0.4934914145397512  0.9158604336490591  0.0976875883352597   T   T   T
  0.3474560431208066  0.8320564792836989  0.0977232829306067   T   T   T
  0.7852013212398776  0.0875034178008168  0.0975587431928496   T   T   T
  0.6368293701070253  0.1698705271913349  0.0976189516034896   T   T   T
  0.7886929880794059  0.9197785975913956  0.0976479760852644   T   T   T
  0.8296213177917028  0.6506110907877517  0.0977622536915205   T   T   T
  0.8258769439722727  0.3594143791126030  0.0976438587320734   T   T   T
  0.6415578521601702  0.8342671696921730  0.0977557044716447   T   T   T
  0.3273230245235588  0.6669060310676640  0.0977683106301606   T   T   T
  0.6582445110027878  0.3414116733331525  0.0976623171689457   T   T   T
  0.9087514280649202  0.5040575553066129  0.0977821503126189   T   T   T
  0.3199242785389882  0.3303911948876755  0.0980585061014473   T   T   T
  0.6670338412949419  0.6695139782985418  0.0978813580843918   T   T   T
  0.1987222592599866  0.9148955756789252  0.0977309964757529   T   T   T
  0.4959970974407675  0.5011393757844781  0.0979088454627261   T   T   T
 
  0.00000000E+00  0.00000000E+00  0.00000000E+00
  0.00000000E+00  0.00000000E+00  0.00000000E+00
  0.00000000E+00  0.00000000E+00  0.00000000E+00
  0.00000000E+00  0.00000000E+00  0.00000000E+00
  0.00000000E+00  0.00000000E+00  0.00000000E+00
  0.00000000E+00  0.00000000E+00  0.00000000E+00
  0.00000000E+00  0.00000000E+00  0.00000000E+00
  0.00000000E+00  0.00000000E+00  0.00000000E+00
  0.00000000E+00  0.00000000E+00  0.00000000E+00
  0.00000000E+00  0.00000000E+00  0.00000000E+00
  0.00000000E+00  0.00000000E+00  0.00000000E+00
  0.00000000E+00  0.00000000E+00  0.00000000E+00
  0.00000000E+00  0.00000000E+00  0.00000000E+00
  0.00000000E+00  0.00000000E+00  0.00000000E+00
  0.00000000E+00  0.00000000E+00  0.00000000E+00
  0.00000000E+00  0.00000000E+00  0.00000000E+00
  0.00000000E+00  0.00000000E+00  0.00000000E+00
  0.00000000E+00  0.00000000E+00  0.00000000E+00
  0.00000000E+00  0.00000000E+00  0.00000000E+00
  0.00000000E+00  0.00000000E+00  0.00000000E+00
  0.00000000E+00  0.00000000E+00  0.00000000E+00
  0.00000000E+00  0.00000000E+00  0.00000000E+00
  0.00000000E+00  0.00000000E+00  0.00000000E+00
  0.00000000E+00  0.00000000E+00  0.00000000E+00
  0.00000000E+00  0.00000000E+00  0.00000000E+00
