Title                                   
   1.00000000000000     
     9.8694509999999998    0.0000000000000000    0.0000000000000000
     0.0000000000000000    8.5490480000000009    0.0000000000000000
     0.0000000000000000    0.0000000000000000   20.0000000000000000
    26     4     1
Selective dynamics
Direct
  0.0563923047247947  0.0894725376815405  0.0905992492654318   T   T   T
  0.9312448097401804  0.1721761622216268  0.0952935508522650   T   T   T
  0.0579044708879027  0.9228617250705141  0.0909236447958722   T   T   T
  0.9336142924443412  0.3394491295082337  0.0974981006506094   T   T   T
  0.0589826366237945  0.5895437365949940  0.0932859787930560   T   T   T
  0.9341989143023928  0.6726682105841152  0.0978770741489450   T   T   T
  0.0585899525630706  0.4227695373802144  0.0927582351577342   T   T   T
  0.9322855773778700  0.8398293445524259  0.0957765717828841   T   T   T
  0.3081686184009653  0.0880822884138846  0.0849914119980759   T   T   T
  0.1825139599588929  0.1721731108151725  0.0870575107627165   T   T   T
  0.1822963489904716  0.3384933748970246  0.0875030692805738   T   T   T
  0.3091027843666320  0.5902208179848653  0.0827604549772721   T   T   T
  0.1831744033113813  0.6733053924444774  0.0888620219865039   T   T   T
  0.3084036437251863  0.4203903142563797  0.0823039846432034   T   T   T
  0.1825602391119612  0.8388516196674370  0.0878786402073987   T   T   T
  0.4308419701205167  0.1720498870240407  0.0867118480448816   T   T   T
  0.5542531772039796  0.9223461120752103  0.0951933698297460   T   T   T
  0.4308356243482079  0.8404673486136651  0.0865584455113867   T   T   T
  0.8043070174764243  0.0898211836538447  0.0973989606217481   T   T   T
  0.6795223186240663  0.1781750270771271  0.1015708506505826   T   T   T
  0.8056957291984052  0.9221999025185453  0.0978046137815134   T   T   T
  0.6832600529741700  0.3429334861289113  0.1119730056134706   T   T   T
  0.8112456137758016  0.5899922524741380  0.1057273828496275   T   T   T
  0.6850202841209130  0.6695716029227800  0.1121790684706701   T   T   T
  0.8107238910679513  0.4216995007253367  0.1056347916978909   T   T   T
  0.6800708546171796  0.8355760280075906  0.1022456665237630   T   T   T
  0.5558393996603738  0.0928263554068163  0.0945763355512185   T   T   T
  0.4290130654912973  0.3335371426671190  0.0840230861743600   T   T   T
  0.4288686213629751  0.6789159639834722  0.0823513169948645   T   T   T
  0.3067418521021048  0.9221053394160428  0.0842631544256794   T   T   T
  0.5274625713258130  0.5083705652324597  0.1373836039561036   T   T   T
 
  0.00000000E+00  0.00000000E+00  0.00000000E+00
  0.00000000E+00  0.00000000E+00  0.00000000E+00
  0.00000000E+00  0.00000000E+00  0.00000000E+00
  0.00000000E+00  0.00000000E+00  0.00000000E+00
  0.00000000E+00  0.00000000E+00  0.00000000E+00
  0.00000000E+00  0.00000000E+00  0.00000000E+00
  0.00000000E+00  0.00000000E+00  0.00000000E+00
  0.00000000E+00  0.00000000E+00  0.00000000E+00
  0.00000000E+00  0.00000000E+00  0.00000000E+00
  0.00000000E+00  0.00000000E+00  0.00000000E+00
  0.00000000E+00  0.00000000E+00  0.00000000E+00
  0.00000000E+00  0.00000000E+00  0.00000000E+00
  0.00000000E+00  0.00000000E+00  0.00000000E+00
  0.00000000E+00  0.00000000E+00  0.00000000E+00
  0.00000000E+00  0.00000000E+00  0.00000000E+00
  0.00000000E+00  0.00000000E+00  0.00000000E+00
  0.00000000E+00  0.00000000E+00  0.00000000E+00
  0.00000000E+00  0.00000000E+00  0.00000000E+00
  0.00000000E+00  0.00000000E+00  0.00000000E+00
  0.00000000E+00  0.00000000E+00  0.00000000E+00
  0.00000000E+00  0.00000000E+00  0.00000000E+00
  0.00000000E+00  0.00000000E+00  0.00000000E+00
  0.00000000E+00  0.00000000E+00  0.00000000E+00
  0.00000000E+00  0.00000000E+00  0.00000000E+00
  0.00000000E+00  0.00000000E+00  0.00000000E+00
  0.00000000E+00  0.00000000E+00  0.00000000E+00
  0.00000000E+00  0.00000000E+00  0.00000000E+00
  0.00000000E+00  0.00000000E+00  0.00000000E+00
  0.00000000E+00  0.00000000E+00  0.00000000E+00
  0.00000000E+00  0.00000000E+00  0.00000000E+00
  0.00000000E+00  0.00000000E+00  0.00000000E+00
