Title                                   
   1.00000000000000     
     4.9440799999999996    0.0000000000000000    0.0000000000000000
     0.0000000000000000    8.5647549999999999    0.0000000000000000
     0.0000000000000000    0.0000000000000000   20.0000000000000000
    12     2     1
Selective dynamics
Direct
  0.2500000000000000  0.2061787035481831  0.0952415094016544   T   T   T
  0.0015669232667057  0.2931029149803918  0.0965634457356326   T   T   T
  0.2500000000000000  0.0363514500670372  0.0950382520541803   T   T   T
 -0.0017203555243447  0.9535653888645970  0.0956392327402464   T   T   T
  0.7500000000000000  0.2085467156802404  0.0945217168050520   T   T   T
  0.4984330767332943  0.2931029149803918  0.0965634457356326   T   T   T
  0.7500000000000000  0.0399435733775832  0.0939675046792746   T   T   T
  0.7500000000000000  0.7155742588696766  0.1011466029599458   T   T   T
  0.7500000000000000  0.5431707924049878  0.1035256439440034   T   T   T
  0.5017203555243448  0.9535653888645970  0.0956392327402464   T   T   T
  0.4986662389837387  0.4603170657414937  0.1029321929029255   T   T   T
  0.0013337610162613  0.4603170657414937  0.1029321929029255   T   T   T
 -0.0094701145197994  0.7914691069224888  0.0998563646814974   T   T   T
  0.5094701145197991  0.7914691069224888  0.0998563646814974   T   T   T
  0.2500000000000000  0.6250065530343513  0.1345562980352887   T   T   T
 
  0.00000000E+00  0.00000000E+00  0.00000000E+00
  0.00000000E+00  0.00000000E+00  0.00000000E+00
  0.00000000E+00  0.00000000E+00  0.00000000E+00
  0.00000000E+00  0.00000000E+00  0.00000000E+00
  0.00000000E+00  0.00000000E+00  0.00000000E+00
  0.00000000E+00  0.00000000E+00  0.00000000E+00
  0.00000000E+00  0.00000000E+00  0.00000000E+00
  0.00000000E+00  0.00000000E+00  0.00000000E+00
  0.00000000E+00  0.00000000E+00  0.00000000E+00
  0.00000000E+00  0.00000000E+00  0.00000000E+00
  0.00000000E+00  0.00000000E+00  0.00000000E+00
  0.00000000E+00  0.00000000E+00  0.00000000E+00
  0.00000000E+00  0.00000000E+00  0.00000000E+00
  0.00000000E+00  0.00000000E+00  0.00000000E+00
  0.00000000E+00  0.00000000E+00  0.00000000E+00
