Title                                   
   1.00000000000000     
     9.8694509999999998    0.0000000000000000    0.0000000000000000
     0.0000000000000000    8.5490480000000009    0.0000000000000000
     0.0000000000000000    0.0000000000000000   20.0000000000000000
    28     2     1
Selective dynamics
Direct
  0.0556461903312998  0.0894024699644169  0.0909518766180809   T   T   T
  0.9302949116274181  0.1737590014889756  0.0911966414728363   T   T   T
  0.0568231726799993  0.9229316485334984  0.0909420914258292   T   T   T
  0.9317124361151560  0.3410299216265580  0.0925148779381014   T   T   T
  0.0566165326346721  0.5893979840648831  0.0927540083387609   T   T   T
  0.9330947921029744  0.6749754431086084  0.0933208895719702   T   T   T
  0.0558510447408825  0.4228918748265119  0.0927475772649363   T   T   T
  0.9323658754146378  0.8417060358094377  0.0921637568549968   T   T   T
  0.3060926498809898  0.0885031393534718  0.0923588790318461   T   T   T
  0.1801165090533689  0.1706129830422393  0.0922136304820180   T   T   T
  0.3075743782493410  0.9204784335992774  0.0913287365526384   T   T   T
  0.1793900134608414  0.3373269472691311  0.0933530847573485   T   T   T
  0.3052398331562031  0.5865136420316063  0.0937712731031665   T   T   T
  0.1807481378753311  0.6712789322190390  0.0925071756383648   T   T   T
  0.3029828594336553  0.4173680892351681  0.0957199597567333   T   T   T
  0.1821426721409377  0.8385550314894913  0.0912062881661310   T   T   T
  0.5554066451123906  0.0911685364802122  0.0947127374655670   T   T   T
  0.4291872233735118  0.1749904923271748  0.0954320187566867   T   T   T
  0.5570365953317511  0.9211191883178992  0.0946797700087011   T   T   T
  0.4299400126602864  0.6673772728345787  0.0941277778053489   T   T   T
  0.4325689771304948  0.8340923691850025  0.0929803238123315   T   T   T
  0.8048634612900374  0.0918113716106826  0.0912864814103784   T   T   T
  0.6798544552970434  0.1782216300224721  0.0929963051221332   T   T   T
  0.8063730476467013  0.9238026747461032  0.0922925310124646   T   T   T
  0.6824997295548614  0.3449662095060864  0.0942160911489228   T   T   T
  0.8095140581126060  0.5949120181731414  0.0957009956630836   T   T   T
  0.8072169389098685  0.4257741827314144  0.0937871300773876   T   T   T
  0.6832815102717424  0.8373089321063156  0.0953529862186495   T   T   T
  0.4248757470794862  0.3380878249121685  0.0999224470491727   T   T   T
  0.6876461845924228  0.6742347578069385  0.0998890961340437   T   T   T
  0.5561784047390972  0.5062759615775064  0.1345375613414113   T   T   T
 
  0.00000000E+00  0.00000000E+00  0.00000000E+00
  0.00000000E+00  0.00000000E+00  0.00000000E+00
  0.00000000E+00  0.00000000E+00  0.00000000E+00
  0.00000000E+00  0.00000000E+00  0.00000000E+00
  0.00000000E+00  0.00000000E+00  0.00000000E+00
  0.00000000E+00  0.00000000E+00  0.00000000E+00
  0.00000000E+00  0.00000000E+00  0.00000000E+00
  0.00000000E+00  0.00000000E+00  0.00000000E+00
  0.00000000E+00  0.00000000E+00  0.00000000E+00
  0.00000000E+00  0.00000000E+00  0.00000000E+00
  0.00000000E+00  0.00000000E+00  0.00000000E+00
  0.00000000E+00  0.00000000E+00  0.00000000E+00
  0.00000000E+00  0.00000000E+00  0.00000000E+00
  0.00000000E+00  0.00000000E+00  0.00000000E+00
  0.00000000E+00  0.00000000E+00  0.00000000E+00
  0.00000000E+00  0.00000000E+00  0.00000000E+00
  0.00000000E+00  0.00000000E+00  0.00000000E+00
  0.00000000E+00  0.00000000E+00  0.00000000E+00
  0.00000000E+00  0.00000000E+00  0.00000000E+00
  0.00000000E+00  0.00000000E+00  0.00000000E+00
  0.00000000E+00  0.00000000E+00  0.00000000E+00
  0.00000000E+00  0.00000000E+00  0.00000000E+00
  0.00000000E+00  0.00000000E+00  0.00000000E+00
  0.00000000E+00  0.00000000E+00  0.00000000E+00
  0.00000000E+00  0.00000000E+00  0.00000000E+00
  0.00000000E+00  0.00000000E+00  0.00000000E+00
  0.00000000E+00  0.00000000E+00  0.00000000E+00
  0.00000000E+00  0.00000000E+00  0.00000000E+00
  0.00000000E+00  0.00000000E+00  0.00000000E+00
  0.00000000E+00  0.00000000E+00  0.00000000E+00
  0.00000000E+00  0.00000000E+00  0.00000000E+00
