Title                                   
   1.00000000000000     
     9.8694509999999998    0.0000000000000000    0.0000000000000000
     0.0000000000000000    8.5490480000000009    0.0000000000000000
     0.0000000000000000    0.0000000000000000   20.0000000000000000
    28     3     1
Selective dynamics
Direct
  0.0562584561153125  0.0906472085651514  0.0862449359196221   T   T   T
  0.9305322085843850  0.1739463390322397  0.0887196653724460   T   T   T
  0.0562507765965629  0.9227802778608735  0.0846416633397468   T   T   T
  0.9308260158411593  0.3399076100652924  0.0924727092841235   T   T   T
  0.0562011684796121  0.5895065501480282  0.0876356941133895   T   T   T
  0.9314671294546291  0.6708746735678981  0.0881841237828231   T   T   T
  0.0562450048366080  0.4226832977582423  0.0911928451329305   T   T   T
  0.9305600839864614  0.8385812484119614  0.0862446934322327   T   T   T
  0.3055225032510954  0.0890928623248706  0.0880121425595079   T   T   T
  0.1820320656552710  0.1739256189027200  0.0883958450630285   T   T   T
  0.3067399422393823  0.9236954821756769  0.0878462811217358   T   T   T
  0.1816666637171230  0.3398503855511713  0.0921252698721185   T   T   T
  0.3056110743781832  0.5894802974119461  0.0973701509689277   T   T   T
  0.1809308821096857  0.6708731612133643  0.0877800852418465   T   T   T
  0.1819442138122855  0.8385766462891446  0.0858978501765662   T   T   T
  0.5563104762543586  0.0888203326803015  0.0949307614725834   T   T   T
  0.4307078699203126  0.1711646012618576  0.0933163372131879   T   T   T
  0.4314324747403425  0.3367504443581198  0.1010777271738377   T   T   T
  0.4302707996302910  0.8402368940696893  0.0972181882327098   T   T   T
  0.8070702554832144  0.0891252023107930  0.0885517495511545   T   T   T
  0.6819066447437278  0.1711888377877451  0.0937893045657630   T   T   T
  0.8058277306417753  0.9237406934004124  0.0884132688753820   T   T   T
  0.6810700316232881  0.3367726980098336  0.1015340245865680   T   T   T
  0.8068976121280605  0.5895602269778810  0.0981748246856663   T   T   T
  0.6823116662301166  0.8403095843123265  0.0978386562287151   T   T   T
  0.4238390168863783  0.6777637673609175  0.1101526289159567   T   T   T
  0.5561392901151985  0.4124011689467809  0.1146282354140982   T   T   T
  0.6887492613280334  0.6778966453885803  0.1110434497001577   T   T   T
  0.5562933190773400  0.9221930730827721  0.0973132741471634   T   T   T
  0.3068108139081917  0.4222766762365655  0.0976759747370735   T   T   T
  0.8056917981728093  0.4223015036634792  0.0983565995202411   T   T   T
  0.5555217500588108  0.5933219908733656  0.1688960395987133   T   T   T
 
  0.00000000E+00  0.00000000E+00  0.00000000E+00
  0.00000000E+00  0.00000000E+00  0.00000000E+00
  0.00000000E+00  0.00000000E+00  0.00000000E+00
  0.00000000E+00  0.00000000E+00  0.00000000E+00
  0.00000000E+00  0.00000000E+00  0.00000000E+00
  0.00000000E+00  0.00000000E+00  0.00000000E+00
  0.00000000E+00  0.00000000E+00  0.00000000E+00
  0.00000000E+00  0.00000000E+00  0.00000000E+00
  0.00000000E+00  0.00000000E+00  0.00000000E+00
  0.00000000E+00  0.00000000E+00  0.00000000E+00
  0.00000000E+00  0.00000000E+00  0.00000000E+00
  0.00000000E+00  0.00000000E+00  0.00000000E+00
  0.00000000E+00  0.00000000E+00  0.00000000E+00
  0.00000000E+00  0.00000000E+00  0.00000000E+00
  0.00000000E+00  0.00000000E+00  0.00000000E+00
  0.00000000E+00  0.00000000E+00  0.00000000E+00
  0.00000000E+00  0.00000000E+00  0.00000000E+00
  0.00000000E+00  0.00000000E+00  0.00000000E+00
  0.00000000E+00  0.00000000E+00  0.00000000E+00
  0.00000000E+00  0.00000000E+00  0.00000000E+00
  0.00000000E+00  0.00000000E+00  0.00000000E+00
  0.00000000E+00  0.00000000E+00  0.00000000E+00
  0.00000000E+00  0.00000000E+00  0.00000000E+00
  0.00000000E+00  0.00000000E+00  0.00000000E+00
  0.00000000E+00  0.00000000E+00  0.00000000E+00
  0.00000000E+00  0.00000000E+00  0.00000000E+00
  0.00000000E+00  0.00000000E+00  0.00000000E+00
  0.00000000E+00  0.00000000E+00  0.00000000E+00
  0.00000000E+00  0.00000000E+00  0.00000000E+00
  0.00000000E+00  0.00000000E+00  0.00000000E+00
  0.00000000E+00  0.00000000E+00  0.00000000E+00
  0.00000000E+00  0.00000000E+00  0.00000000E+00
