Title                                   
   1.00000000000000     
     9.8694509999999998    0.0000000000000000    0.0000000000000000
     0.0000000000000000    8.5490480000000009    0.0000000000000000
     0.0000000000000000    0.0000000000000000   20.0000000000000000
    28     2     1
Selective dynamics
Direct
  0.0552125856243175  0.0889656631194891  0.0917554601987331   T   T   T
  0.9306526168661207  0.1728127747250040  0.0877556711612889   T   T   T
  0.0569920352288510  0.9224529418431522  0.0920634301793851   T   T   T
  0.9324090650783723  0.3396882778997042  0.0884485946193309   T   T   T
  0.0561690820035260  0.5902825804971195  0.0933387555864460   T   T   T
  0.9322482771156451  0.6735005840589225  0.0900011353865732   T   T   T
  0.0562793781041189  0.4226896352077242  0.0930014904341527   T   T   T
  0.9313614528721311  0.8397100609602828  0.0891264277794267   T   T   T
  0.3055824542477206  0.0886045897646429  0.0994920130452861   T   T   T
  0.1795713322173713  0.1698672987825447  0.0965007584904471   T   T   T
  0.1797722299895702  0.3375181100657940  0.0973374956317983   T   T   T
  0.3042937101188893  0.5877308062398316  0.1039748497388479   T   T   T
  0.1813154154308889  0.6725663234731027  0.0971754424676655   T   T   T
  0.3028740938380733  0.4187804595091780  0.1043863355163974   T   T   T
  0.1819451191532311  0.8399330855254581  0.0960938161430927   T   T   T
  0.5535013769327959  0.0923529049577616  0.0947205256586522   T   T   T
  0.4280208123948959  0.1778545332181112  0.1024248160725926   T   T   T
  0.5530135691880557  0.9253004700607049  0.0952246988676496   T   T   T
  0.4291600565702299  0.6680627059116114  0.1089328705886850   T   T   T
  0.4299889706436348  0.8345450519177604  0.1019793905733778   T   T   T
  0.8050437268801641  0.0902303075805158  0.0855868257056079   T   T   T
  0.6794943732192729  0.1747834794226700  0.0855009974613785   T   T   T
  0.8052867816617533  0.9235766784149616  0.0866399359317254   T   T   T
  0.6832594025679027  0.3392384566008286  0.0818157828020776   T   T   T
  0.8064866521122600  0.5922356142196769  0.0855745500806495   T   T   T
  0.6825542904201209  0.6758845675764932  0.0855691098099350   T   T   T
  0.8071861868971597  0.4216630574463485  0.0838010341145705   T   T   T
  0.6792775533998062  0.8410171483511114  0.0876471624218271   T   T   T
  0.4244049044724016  0.3407791247752658  0.1099981851025685   T   T   T
  0.3064665858530866  0.9218503467733585  0.0987907889783388   T   T   T
  0.5833109088976461  0.5063973611008895  0.1263066494515408   T   T   T
 
  0.00000000E+00  0.00000000E+00  0.00000000E+00
  0.00000000E+00  0.00000000E+00  0.00000000E+00
  0.00000000E+00  0.00000000E+00  0.00000000E+00
  0.00000000E+00  0.00000000E+00  0.00000000E+00
  0.00000000E+00  0.00000000E+00  0.00000000E+00
  0.00000000E+00  0.00000000E+00  0.00000000E+00
  0.00000000E+00  0.00000000E+00  0.00000000E+00
  0.00000000E+00  0.00000000E+00  0.00000000E+00
  0.00000000E+00  0.00000000E+00  0.00000000E+00
  0.00000000E+00  0.00000000E+00  0.00000000E+00
  0.00000000E+00  0.00000000E+00  0.00000000E+00
  0.00000000E+00  0.00000000E+00  0.00000000E+00
  0.00000000E+00  0.00000000E+00  0.00000000E+00
  0.00000000E+00  0.00000000E+00  0.00000000E+00
  0.00000000E+00  0.00000000E+00  0.00000000E+00
  0.00000000E+00  0.00000000E+00  0.00000000E+00
  0.00000000E+00  0.00000000E+00  0.00000000E+00
  0.00000000E+00  0.00000000E+00  0.00000000E+00
  0.00000000E+00  0.00000000E+00  0.00000000E+00
  0.00000000E+00  0.00000000E+00  0.00000000E+00
  0.00000000E+00  0.00000000E+00  0.00000000E+00
  0.00000000E+00  0.00000000E+00  0.00000000E+00
  0.00000000E+00  0.00000000E+00  0.00000000E+00
  0.00000000E+00  0.00000000E+00  0.00000000E+00
  0.00000000E+00  0.00000000E+00  0.00000000E+00
  0.00000000E+00  0.00000000E+00  0.00000000E+00
  0.00000000E+00  0.00000000E+00  0.00000000E+00
  0.00000000E+00  0.00000000E+00  0.00000000E+00
  0.00000000E+00  0.00000000E+00  0.00000000E+00
  0.00000000E+00  0.00000000E+00  0.00000000E+00
  0.00000000E+00  0.00000000E+00  0.00000000E+00
