Title                                   
   1.00000000000000     
     4.9440799999999996    0.0000000000000000    0.0000000000000000
     0.0000000000000000   17.1295089999999988    0.0000000000000000
     0.0000000000000000    0.0000000000000000   20.0000000000000000
    30     1     1
Selective dynamics
Direct
  0.0003821336396844  0.1046386541085578  0.2830073376475195   T   T   T
  0.2498560585862923  0.1465946577387950  0.2869083207835354   T   T   T
  0.2499145976425030  0.2294676868494900  0.2976475805555784   T   T   T
 -0.0006631142526217  0.3507782966757031  0.3210106369700879   T   T   T
 -0.0019234557002331  0.2702994776536214  0.3032768476837464   T   T   T
 -0.0037898783403669  0.6057341735808793  0.3109475258670819   T   T   T
  0.2498747724019299  0.7285085175310118  0.2922544074655229   T   T   T
  0.0001009645579703  0.8538977135093716  0.2805100730859276   T   T   T
  0.2498161024344518  0.8959349923513639  0.2790325614035167   T   T   T
  0.2498037916641940  0.9793145057298114  0.2781605622996852   T   T   T
  0.0000794414359972  0.7707696773875043  0.2865790047746936   T   T   T
  0.4993025772912491  0.1046359147312529  0.2830029110602484   T   T   T
  0.7498473759591843  0.1464327750183257  0.2859355354719320   T   T   T
  0.7499024444829601  0.2286057929761897  0.2951636240038866   T   T   T
  0.4996867983667722  0.0213564047016550  0.2788106429804911   T   T   T
  0.5006392326013277  0.3507791614700114  0.3210043287334181   T   T   T
  0.7500222074395649  0.4774873372217707  0.3217775121040750   T   T   T
  0.5017884533761047  0.2703015849630472  0.3032726512836974   T   T   T
  0.5036561025210193  0.6057209901188252  0.3109190624247685   T   T   T
  0.7498701989006651  0.7296499596321707  0.2899351563297565   T   T   T
  0.4995329735977168  0.8538908125083129  0.2805055262681146   T   T   T
  0.7498142373057245  0.8958247557815889  0.2786172817157201   T   T   T
  0.7498020614435185  0.9793319568464564  0.2778438111400460   T   T   T
  0.4996432484495580  0.7707663100833286  0.2865731661716228   T   T   T
  0.7499269088491840  0.6472645070003057  0.3010567025428726   T   T   T
  0.2499258783463254  0.6465954706002841  0.3055301386475102   T   T   T
 -0.0000678927294326  0.0213573358778861  0.2788154725249370   T   T   T
  0.5174155652061941  0.5247186824784427  0.3278262962593063   T   T   T
  0.9825626097527859  0.5247309545830090  0.3278801969384472   T   T   T
  0.2499987468355826  0.3860801362613317  0.3379212440698525   T   T   T
  0.7500047709891488  0.3936667712184316  0.3240443440633020   T   T   T
  0.2500970869450533  0.4834150328112602  0.3867945367290515   T   T   T
 
  0.00000000E+00  0.00000000E+00  0.00000000E+00
  0.00000000E+00  0.00000000E+00  0.00000000E+00
  0.00000000E+00  0.00000000E+00  0.00000000E+00
  0.00000000E+00  0.00000000E+00  0.00000000E+00
  0.00000000E+00  0.00000000E+00  0.00000000E+00
  0.00000000E+00  0.00000000E+00  0.00000000E+00
  0.00000000E+00  0.00000000E+00  0.00000000E+00
  0.00000000E+00  0.00000000E+00  0.00000000E+00
  0.00000000E+00  0.00000000E+00  0.00000000E+00
  0.00000000E+00  0.00000000E+00  0.00000000E+00
  0.00000000E+00  0.00000000E+00  0.00000000E+00
  0.00000000E+00  0.00000000E+00  0.00000000E+00
  0.00000000E+00  0.00000000E+00  0.00000000E+00
  0.00000000E+00  0.00000000E+00  0.00000000E+00
  0.00000000E+00  0.00000000E+00  0.00000000E+00
  0.00000000E+00  0.00000000E+00  0.00000000E+00
  0.00000000E+00  0.00000000E+00  0.00000000E+00
  0.00000000E+00  0.00000000E+00  0.00000000E+00
  0.00000000E+00  0.00000000E+00  0.00000000E+00
  0.00000000E+00  0.00000000E+00  0.00000000E+00
  0.00000000E+00  0.00000000E+00  0.00000000E+00
  0.00000000E+00  0.00000000E+00  0.00000000E+00
  0.00000000E+00  0.00000000E+00  0.00000000E+00
  0.00000000E+00  0.00000000E+00  0.00000000E+00
  0.00000000E+00  0.00000000E+00  0.00000000E+00
  0.00000000E+00  0.00000000E+00  0.00000000E+00
  0.00000000E+00  0.00000000E+00  0.00000000E+00
  0.00000000E+00  0.00000000E+00  0.00000000E+00
  0.00000000E+00  0.00000000E+00  0.00000000E+00
  0.00000000E+00  0.00000000E+00  0.00000000E+00
  0.00000000E+00  0.00000000E+00  0.00000000E+00
  0.00000000E+00  0.00000000E+00  0.00000000E+00
