Title                                   
   1.00000000000000     
     4.9440799999999996    0.0000000000000000    0.0000000000000000
     0.0000000000000000    8.5647549999999999    0.0000000000000000
     0.0000000000000000    0.0000000000000000   20.0000000000000000
    12     2     1
Selective dynamics
Direct
  0.0001991298924717  0.2922069622926327  0.0967109381689171   T   T   T
  0.2528921147824087  0.0418622995219907  0.1002820630983376   T   T   T
  0.0004480482204630  0.9578337439481333  0.0936968891700727   T   T   T
  0.7509225127197089  0.2067909316783155  0.0996535225658635   T   T   T
  0.5011942152392650  0.2904430094140619  0.1052953661971149   T   T   T
  0.7526446846575702  0.0419041958368909  0.0983146289932149   T   T   T
  0.7450579946218187  0.7159693462865561  0.0996435300344250   T   T   T
  0.7430441325217599  0.5367183723822030  0.1016360593221563   T   T   T
  0.5069430336257733  0.9573632387574280  0.1046180155152602   T   T   T
  0.5034617855734245  0.4531877281568715  0.1121822318561804   T   T   T
 -0.0094670142030888  0.4565560316618793  0.0929804607379976   T   T   T
 -0.0113033032115571  0.7943730791141385  0.0870805563807618   T   T   T
  0.5158781975463055  0.7980555984140137  0.1124952049776240   T   T   T
  0.2520435949540625  0.2052094836696149  0.1009492960116372   T   T   T
  0.2460408730596148  0.6232069788652734  0.1024412369704402   T   T   T
 
  0.00000000E+00  0.00000000E+00  0.00000000E+00
  0.00000000E+00  0.00000000E+00  0.00000000E+00
  0.00000000E+00  0.00000000E+00  0.00000000E+00
  0.00000000E+00  0.00000000E+00  0.00000000E+00
  0.00000000E+00  0.00000000E+00  0.00000000E+00
  0.00000000E+00  0.00000000E+00  0.00000000E+00
  0.00000000E+00  0.00000000E+00  0.00000000E+00
  0.00000000E+00  0.00000000E+00  0.00000000E+00
  0.00000000E+00  0.00000000E+00  0.00000000E+00
  0.00000000E+00  0.00000000E+00  0.00000000E+00
  0.00000000E+00  0.00000000E+00  0.00000000E+00
  0.00000000E+00  0.00000000E+00  0.00000000E+00
  0.00000000E+00  0.00000000E+00  0.00000000E+00
  0.00000000E+00  0.00000000E+00  0.00000000E+00
  0.00000000E+00  0.00000000E+00  0.00000000E+00
