Title                                   
   1.00000000000000     
     4.9440799999999996    0.0000000000000000    0.0000000000000000
     0.0000000000000000    8.5647549999999999    0.0000000000000000
     0.0000000000000000    0.0000000000000000   20.0000000000000000
    14     1
Selective dynamics
Direct
  0.2500000000000000  0.2073669796201587  0.0937255805342521   T   T   T
  0.0009331788871772  0.2932177130956438  0.0949468549846472   T   T   T
  0.2500000000000000  0.0421957257668600  0.0936558794975528   T   T   T
  0.0009305372525744  0.9563162304153423  0.0948286344329227   T   T   T
  0.7500000000000000  0.2088950820810493  0.0923348659719897   T   T   T
  0.4990668211128230  0.2932177130956438  0.0949468549846472   T   T   T
  0.7500000000000000  0.0406926215388184  0.0922667391344333   T   T   T
  0.7500000000000000  0.7099841166334134  0.1031971568085513   T   T   T
  0.7500000000000000  0.5395292726830448  0.1032414220711883   T   T   T
  0.4990694627474256  0.9563162304153423  0.0948286344329227   T   T   T
  0.5006392164757976  0.4582354302326212  0.1018772681564110   T   T   T
 -0.0006392164757975  0.4582354302326212  0.1018772681564110   T   T   T
 -0.0006135516148160  0.7913087137901145  0.1017864350716709   T   T   T
  0.5006135516148160  0.7913087137901145  0.1017864350716709   T   T   T
  0.2500000000000000  0.6248610266092133  0.1426799706907323   T   T   T
 
  0.00000000E+00  0.00000000E+00  0.00000000E+00
  0.00000000E+00  0.00000000E+00  0.00000000E+00
  0.00000000E+00  0.00000000E+00  0.00000000E+00
  0.00000000E+00  0.00000000E+00  0.00000000E+00
  0.00000000E+00  0.00000000E+00  0.00000000E+00
  0.00000000E+00  0.00000000E+00  0.00000000E+00
  0.00000000E+00  0.00000000E+00  0.00000000E+00
  0.00000000E+00  0.00000000E+00  0.00000000E+00
  0.00000000E+00  0.00000000E+00  0.00000000E+00
  0.00000000E+00  0.00000000E+00  0.00000000E+00
  0.00000000E+00  0.00000000E+00  0.00000000E+00
  0.00000000E+00  0.00000000E+00  0.00000000E+00
  0.00000000E+00  0.00000000E+00  0.00000000E+00
  0.00000000E+00  0.00000000E+00  0.00000000E+00
  0.00000000E+00  0.00000000E+00  0.00000000E+00
