Title                                   
   1.00000000000000     
     4.9440799999999996    0.0000000000000000    0.0000000000000000
     0.0000000000000000   17.1295089999999988    0.0000000000000000
     0.0000000000000000    0.0000000000000000   20.0000000000000000
    28     3     1
Selective dynamics
Direct
  0.0014707325905859  0.1043914036135606  0.2873952233122392   T   T   T
  0.2515579179572940  0.1461096923672081  0.2901214437995843   T   T   T
  0.2516988462869101  0.2294220339640729  0.2977323544361046   T   T   T
  0.0060858731689905  0.3536950186937058  0.3142065969570899   T   T   T
  0.0010475334259415  0.2707925328275357  0.3017433792078406   T   T   T
 -0.0050398582973925  0.6037044014155055  0.3073553587173310   T   T   T
  0.2507273720893151  0.7270267051604287  0.2929700056638947   T   T   T
  0.0015842240202523  0.8534802693468703  0.2862866694539558   T   T   T
  0.2510478137455169  0.8954555871917558  0.2850423673134025   T   T   T
  0.2512456755744092  0.9789964744174015  0.2843384544892869   T   T   T
  0.0018211965467531  0.7699723054702956  0.2901659641623385   T   T   T
  0.5015948546445077  0.1044032953007907  0.2873326602468886   T   T   T
  0.7516276583848837  0.1461394248338631  0.2893675658933995   T   T   T
  0.7517834351050279  0.2294963523022306  0.2960998403508509   T   T   T
  0.5014111759383620  0.0207772093684580  0.2846152022537434   T   T   T
  0.4978527482138251  0.3536599520115885  0.3137927192916847   T   T   T
  0.7515970324641721  0.3981017875979762  0.3157628236692636   T   T   T
  0.7478037625613025  0.4853159053666137  0.3143474150080937   T   T   T
  0.5024831003551929  0.2707458823126715  0.3015778695184154   T   T   T
  0.5057290593220680  0.6022944278201308  0.3006953147010873   T   T   T
  0.7509504866215689  0.7290734749420502  0.2917151613883361   T   T   T
  0.5003417946752807  0.8533967701263224  0.2857991128719339   T   T   T
  0.7510035233212615  0.8951369519902782  0.2848493085334113   T   T   T
  0.7512267515832460  0.9788669317126595  0.2841300072270501   T   T   T
  0.4998345660248755  0.7698485184173308  0.2892173377523378   T   T   T
  0.7504691421983157  0.6463435093140613  0.2982454109777037   T   T   T
  0.2503155107748014  0.6434670484287044  0.3003812675043842   T   T   T
  0.0011800863961528  0.0207671403870531  0.2846983842092448   T   T   T
  0.5142685261404569  0.5231542188382602  0.3025203884666300   T   T   T
  0.9832404093070147  0.5262391618117601  0.3237241077941049   T   T   T
  0.2523987229252251  0.3886907710909953  0.3246684525071032   T   T   T
  0.2164633259338901  0.4795858415578536  0.4116668323212181   T   T   T
 
  0.00000000E+00  0.00000000E+00  0.00000000E+00
  0.00000000E+00  0.00000000E+00  0.00000000E+00
  0.00000000E+00  0.00000000E+00  0.00000000E+00
  0.00000000E+00  0.00000000E+00  0.00000000E+00
  0.00000000E+00  0.00000000E+00  0.00000000E+00
  0.00000000E+00  0.00000000E+00  0.00000000E+00
  0.00000000E+00  0.00000000E+00  0.00000000E+00
  0.00000000E+00  0.00000000E+00  0.00000000E+00
  0.00000000E+00  0.00000000E+00  0.00000000E+00
  0.00000000E+00  0.00000000E+00  0.00000000E+00
  0.00000000E+00  0.00000000E+00  0.00000000E+00
  0.00000000E+00  0.00000000E+00  0.00000000E+00
  0.00000000E+00  0.00000000E+00  0.00000000E+00
  0.00000000E+00  0.00000000E+00  0.00000000E+00
  0.00000000E+00  0.00000000E+00  0.00000000E+00
  0.00000000E+00  0.00000000E+00  0.00000000E+00
  0.00000000E+00  0.00000000E+00  0.00000000E+00
  0.00000000E+00  0.00000000E+00  0.00000000E+00
  0.00000000E+00  0.00000000E+00  0.00000000E+00
  0.00000000E+00  0.00000000E+00  0.00000000E+00
  0.00000000E+00  0.00000000E+00  0.00000000E+00
  0.00000000E+00  0.00000000E+00  0.00000000E+00
  0.00000000E+00  0.00000000E+00  0.00000000E+00
  0.00000000E+00  0.00000000E+00  0.00000000E+00
  0.00000000E+00  0.00000000E+00  0.00000000E+00
  0.00000000E+00  0.00000000E+00  0.00000000E+00
  0.00000000E+00  0.00000000E+00  0.00000000E+00
  0.00000000E+00  0.00000000E+00  0.00000000E+00
  0.00000000E+00  0.00000000E+00  0.00000000E+00
  0.00000000E+00  0.00000000E+00  0.00000000E+00
  0.00000000E+00  0.00000000E+00  0.00000000E+00
  0.00000000E+00  0.00000000E+00  0.00000000E+00
