Title                                   
   1.00000000000000     
     8.5490480000000009    0.0000000000000000    0.0000000000000000
     0.0000000000000000    8.5490480000000009    0.0000000000000000
     0.0000000000000000    0.0000000000000000   20.0000000000000000
    21     3     1
Selective dynamics
Direct
  0.9068889297869315  0.2064636308069055  0.0951977498663650   T   T   T
  0.9092193694297661  0.5039341953745238  0.0969806902158217   T   T   T
  0.9123044077852513  0.8023162844512413  0.0972351884801080   T   T   T
  0.1959345420813442  0.0820981164301266  0.0969898844978666   T   T   T
  0.0738049864878678  0.2015759075320210  0.0969230810145679   T   T   T
  0.1602192095748833  0.6478562396673961  0.0951296829549077   T   T   T
  0.0782082659818758  0.5007304147805584  0.0970421141186182   T   T   T
  0.1565476123260834  0.3506286608522176  0.0988898301395705   T   T   T
  0.0798673170499810  0.7975767448514299  0.0955927868285077   T   T   T
  0.4919755086675054  0.0867724367396302  0.0967654473426571   T   T   T
  0.3417514977825145  0.1634525509440454  0.0988769804847123   T   T   T
  0.4932983462075588  0.9172018312782351  0.0970373454600800   T   T   T
  0.3472073259688544  0.8355209402181916  0.0947251958570834   T   T   T
  0.7860529365163504  0.0873082746203726  0.0951454852554327   T   T   T
  0.6366595044137114  0.1681234502559056  0.0944761240452096   T   T   T
  0.7892075225531588  0.9208067198207062  0.0970686866016405   T   T   T
  0.8311530472058639  0.6528925205744222  0.0991903437926986   T   T   T
  0.8268887917116431  0.3577615555785836  0.0946099760046416   T   T   T
  0.6421176107584960  0.8375576795400945  0.0990729992626276   T   T   T
  0.3259950732750039  0.6711191356432222  0.0934134701088005   T   T   T
  0.6604978541917160  0.3364775430467183  0.0933064824473413   T   T   T
  0.3185894291782321  0.3269875003427306  0.1025566960661347   T   T   T
  0.6674467532787455  0.6744449780445403  0.1029645698247165   T   T   T
  0.1988864463755676  0.9156453561343496  0.0951192057012776   T   T   T
  0.4946897114110803  0.4995373324718452  0.1193949836285928   T   T   T
 
  0.00000000E+00  0.00000000E+00  0.00000000E+00
  0.00000000E+00  0.00000000E+00  0.00000000E+00
  0.00000000E+00  0.00000000E+00  0.00000000E+00
  0.00000000E+00  0.00000000E+00  0.00000000E+00
  0.00000000E+00  0.00000000E+00  0.00000000E+00
  0.00000000E+00  0.00000000E+00  0.00000000E+00
  0.00000000E+00  0.00000000E+00  0.00000000E+00
  0.00000000E+00  0.00000000E+00  0.00000000E+00
  0.00000000E+00  0.00000000E+00  0.00000000E+00
  0.00000000E+00  0.00000000E+00  0.00000000E+00
  0.00000000E+00  0.00000000E+00  0.00000000E+00
  0.00000000E+00  0.00000000E+00  0.00000000E+00
  0.00000000E+00  0.00000000E+00  0.00000000E+00
  0.00000000E+00  0.00000000E+00  0.00000000E+00
  0.00000000E+00  0.00000000E+00  0.00000000E+00
  0.00000000E+00  0.00000000E+00  0.00000000E+00
  0.00000000E+00  0.00000000E+00  0.00000000E+00
  0.00000000E+00  0.00000000E+00  0.00000000E+00
  0.00000000E+00  0.00000000E+00  0.00000000E+00
  0.00000000E+00  0.00000000E+00  0.00000000E+00
  0.00000000E+00  0.00000000E+00  0.00000000E+00
  0.00000000E+00  0.00000000E+00  0.00000000E+00
  0.00000000E+00  0.00000000E+00  0.00000000E+00
  0.00000000E+00  0.00000000E+00  0.00000000E+00
  0.00000000E+00  0.00000000E+00  0.00000000E+00
