Title                                   
   1.00000000000000     
     8.5490480000000009    0.0000000000000000    0.0000000000000000
     0.0000000000000000    8.5490480000000009    0.0000000000000000
     0.0000000000000000    0.0000000000000000   20.0000000000000000
    18     6     1
Selective dynamics
Direct
  0.9082508203536896  0.2062243765847193  0.0975333183984185   T   T   T
  0.9107788621055737  0.8001561531810223  0.0975667291972393   T   T   T
  0.1962393791547375  0.0844538040449329  0.0976711465719128   T   T   T
  0.0762001964243010  0.2013739799558607  0.0975913015080210   T   T   T
  0.1579679813728900  0.6502605439559396  0.0977811417791569   T   T   T
  0.0780880405951914  0.5007100577739936  0.0977894710088239   T   T   T
  0.1576455084412040  0.3523168647808151  0.0978217015356837   T   T   T
  0.0791228702741848  0.7985911304587746  0.0976192110593745   T   T   T
  0.4932781295303825  0.0891670096136155  0.0978048211851550   T   T   T
  0.3439017997626037  0.1674611896251576  0.0978753499499604   T   T   T
  0.4927847000246731  0.9155262315375291  0.0977473415264103   T   T   T
  0.3446627909721864  0.8339642486420987  0.0977753454108099   T   T   T
  0.7884238550340237  0.0874138116329203  0.0975624917911305   T   T   T
  0.6406419207275323  0.1698552265720111  0.0977789493392680   T   T   T
  0.7892008148030326  0.9186136044088973  0.0975691578961794   T   T   T
  0.8285591848035535  0.6503301298410517  0.0976924102634743   T   T   T
  0.8265580677122577  0.3549785725884065  0.0977146568171415   T   T   T
  0.6418222820504859  0.8348223507012842  0.0977171296420605   T   T   T
  0.9061639886646867  0.5023691749336756  0.0977657282297062   T   T   T
  0.3206005292608315  0.3305641059533740  0.0980295509083449   T   T   T
  0.3212066763268702  0.6736199641184512  0.0979057052213644   T   T   T
  0.6648597200223673  0.3343279245779703  0.0979079748253299   T   T   T
  0.6670061566447300  0.6706803515720641  0.0978263979966549   T   T   T
  0.1974880083489292  0.9148987314924185  0.0976819143567573   T   T   T
  0.4939597165890751  0.5021104614530149  0.0979760535816021   T   T   T
 
  0.00000000E+00  0.00000000E+00  0.00000000E+00
  0.00000000E+00  0.00000000E+00  0.00000000E+00
  0.00000000E+00  0.00000000E+00  0.00000000E+00
  0.00000000E+00  0.00000000E+00  0.00000000E+00
  0.00000000E+00  0.00000000E+00  0.00000000E+00
  0.00000000E+00  0.00000000E+00  0.00000000E+00
  0.00000000E+00  0.00000000E+00  0.00000000E+00
  0.00000000E+00  0.00000000E+00  0.00000000E+00
  0.00000000E+00  0.00000000E+00  0.00000000E+00
  0.00000000E+00  0.00000000E+00  0.00000000E+00
  0.00000000E+00  0.00000000E+00  0.00000000E+00
  0.00000000E+00  0.00000000E+00  0.00000000E+00
  0.00000000E+00  0.00000000E+00  0.00000000E+00
  0.00000000E+00  0.00000000E+00  0.00000000E+00
  0.00000000E+00  0.00000000E+00  0.00000000E+00
  0.00000000E+00  0.00000000E+00  0.00000000E+00
  0.00000000E+00  0.00000000E+00  0.00000000E+00
  0.00000000E+00  0.00000000E+00  0.00000000E+00
  0.00000000E+00  0.00000000E+00  0.00000000E+00
  0.00000000E+00  0.00000000E+00  0.00000000E+00
  0.00000000E+00  0.00000000E+00  0.00000000E+00
  0.00000000E+00  0.00000000E+00  0.00000000E+00
  0.00000000E+00  0.00000000E+00  0.00000000E+00
  0.00000000E+00  0.00000000E+00  0.00000000E+00
  0.00000000E+00  0.00000000E+00  0.00000000E+00
