Title                                   
   1.00000000000000     
     8.5490480000000009    0.0000000000000000    0.0000000000000000
     0.0000000000000000    8.5490480000000009    0.0000000000000000
     0.0000000000000000    0.0000000000000000   20.0000000000000000
    20     4     1
Selective dynamics
Direct
  0.9094925412364815  0.2054529718971920  0.0954660225144727   T   T   T
  0.9079570514956498  0.5018176638949767  0.0953132047512636   T   T   T
  0.9094921782473717  0.7981439270702870  0.0954773676088311   T   T   T
  0.1966750733181525  0.0852982096153517  0.0954931185118634   T   T   T
  0.0765236447135806  0.2054391112907586  0.0954774724326944   T   T   T
  0.1966917440708333  0.9182558191064942  0.0954982830726702   T   T   T
  0.1553294041405721  0.6514316906421542  0.0953573178015712   T   T   T
  0.0780735674565599  0.5018032998108443  0.0953314036820541   T   T   T
  0.1552880779282426  0.3521531026439103  0.0953404541991685   T   T   T
  0.0765402718665716  0.7981277115712573  0.0954863739829725   T   T   T
  0.4929594573320928  0.0868605059033702  0.0953555089733247   T   T   T
  0.3433517917949490  0.1641114872198016  0.0953647838650607   T   T   T
  0.4929687091822020  0.9167494131155729  0.0953610318081305   T   T   T
  0.3433814384276486  0.8394607934338040  0.0953677107690230   T   T   T
  0.7893179271891451  0.0853235087959330  0.0954786020012379   T   T   T
  0.6426135574661438  0.1640720373961919  0.0953338983572646   T   T   T
  0.7893337744447676  0.9182968577259012  0.0954842410978081   T   T   T
  0.8307144197187633  0.6514592359363585  0.0953331137669595   T   T   T
  0.8307443312816639  0.3521549151619447  0.0953082417949678   T   T   T
  0.6426219706758690  0.8395435975715161  0.0953528690135897   T   T   T
  0.3187983390288295  0.3276133177840814  0.0952129925982053   T   T   T
  0.3188555368421003  0.6759492800099004  0.0952228044579841   T   T   T
  0.6672554193380831  0.3275488559532699  0.0951765867483753   T   T   T
  0.6672047557275712  0.6760454522715481  0.0951966233716275   T   T   T
  0.4932270170761491  0.5016772341775931  0.0949149728188573   T   T   T
 
  0.00000000E+00  0.00000000E+00  0.00000000E+00
  0.00000000E+00  0.00000000E+00  0.00000000E+00
  0.00000000E+00  0.00000000E+00  0.00000000E+00
  0.00000000E+00  0.00000000E+00  0.00000000E+00
  0.00000000E+00  0.00000000E+00  0.00000000E+00
  0.00000000E+00  0.00000000E+00  0.00000000E+00
  0.00000000E+00  0.00000000E+00  0.00000000E+00
  0.00000000E+00  0.00000000E+00  0.00000000E+00
  0.00000000E+00  0.00000000E+00  0.00000000E+00
  0.00000000E+00  0.00000000E+00  0.00000000E+00
  0.00000000E+00  0.00000000E+00  0.00000000E+00
  0.00000000E+00  0.00000000E+00  0.00000000E+00
  0.00000000E+00  0.00000000E+00  0.00000000E+00
  0.00000000E+00  0.00000000E+00  0.00000000E+00
  0.00000000E+00  0.00000000E+00  0.00000000E+00
  0.00000000E+00  0.00000000E+00  0.00000000E+00
  0.00000000E+00  0.00000000E+00  0.00000000E+00
  0.00000000E+00  0.00000000E+00  0.00000000E+00
  0.00000000E+00  0.00000000E+00  0.00000000E+00
  0.00000000E+00  0.00000000E+00  0.00000000E+00
  0.00000000E+00  0.00000000E+00  0.00000000E+00
  0.00000000E+00  0.00000000E+00  0.00000000E+00
  0.00000000E+00  0.00000000E+00  0.00000000E+00
  0.00000000E+00  0.00000000E+00  0.00000000E+00
  0.00000000E+00  0.00000000E+00  0.00000000E+00
