Title                                   
   1.00000000000000     
     4.9440799999999996    0.0000000000000000    0.0000000000000000
     0.0000000000000000    8.5647549999999999    0.0000000000000000
     0.0000000000000000    0.0000000000000000   20.0000000000000000
     9     5     1
Selective dynamics
Direct
 -0.0022633619825856  0.2953075747123509  0.0948635491334156   T   T   T
  0.2500000000000000  0.0384447526256122  0.0955086085104056   T   T   T
 -0.0022445678273565  0.9555722959607656  0.0954212052538348   T   T   T
  0.7500000000000000  0.2070014871384271  0.0918637884805965   T   T   T
  0.5022633619825853  0.2953075747123509  0.0948635491334156   T   T   T
  0.7500000000000000  0.0409023444632923  0.0922410791634051   T   T   T
  0.7500000000000000  0.7114329011928648  0.0982692868005325   T   T   T
  0.7500000000000000  0.5372081201553031  0.0985382522529241   T   T   T
  0.5022445678273566  0.9555722959607656  0.0954212052538348   T   T   T
  0.5063327598814528  0.4545619300173675  0.0997677879684704   T   T   T
 -0.0063327598814525  0.4545619300173675  0.0997677879684704   T   T   T
 -0.0077354446255755  0.7928953864607509  0.0999977210908276   T   T   T
  0.5077354446255757  0.7928953864607509  0.0999977210908276   T   T   T
  0.2500000000000000  0.2132695765180883  0.0947352912606152   T   T   T
  0.2500000000000000  0.6267474436039443  0.1567231666384279   T   T   T
 
  0.00000000E+00  0.00000000E+00  0.00000000E+00
  0.00000000E+00  0.00000000E+00  0.00000000E+00
  0.00000000E+00  0.00000000E+00  0.00000000E+00
  0.00000000E+00  0.00000000E+00  0.00000000E+00
  0.00000000E+00  0.00000000E+00  0.00000000E+00
  0.00000000E+00  0.00000000E+00  0.00000000E+00
  0.00000000E+00  0.00000000E+00  0.00000000E+00
  0.00000000E+00  0.00000000E+00  0.00000000E+00
  0.00000000E+00  0.00000000E+00  0.00000000E+00
  0.00000000E+00  0.00000000E+00  0.00000000E+00
  0.00000000E+00  0.00000000E+00  0.00000000E+00
  0.00000000E+00  0.00000000E+00  0.00000000E+00
  0.00000000E+00  0.00000000E+00  0.00000000E+00
  0.00000000E+00  0.00000000E+00  0.00000000E+00
  0.00000000E+00  0.00000000E+00  0.00000000E+00
