Title                                   
   1.00000000000000     
     9.8694509999999998    0.0000000000000000    0.0000000000000000
     0.0000000000000000    8.5490480000000009    0.0000000000000000
     0.0000000000000000    0.0000000000000000   20.0000000000000000
    26     5     1
Selective dynamics
Direct
  0.0558332225501263  0.0907623233387665  0.0844627540369661   T   T   T
  0.9310996487379992  0.1749791509458671  0.0851569001324739   T   T   T
  0.0574496689116819  0.9227600761078215  0.0851091675955087   T   T   T
  0.9296247208668234  0.3419983247681440  0.0881737353968117   T   T   T
  0.0558805573645639  0.5916040788618437  0.0879217617527434   T   T   T
  0.0555004926092336  0.4241044487970624  0.0883944088639317   T   T   T
  0.9331073516852945  0.8398842308504915  0.0874050509426239   T   T   T
  0.3060019702219211  0.0883547372025837  0.0883050012141019   T   T   T
  0.1817730853119766  0.1727854360724300  0.0866215169119594   T   T   T
  0.1817460763529927  0.3398283295492178  0.0898307996216851   T   T   T
  0.3031077923366914  0.5887221384572647  0.1016741758527331   T   T   T
  0.1807233454033246  0.6742872145292786  0.0906244603600805   T   T   T
  0.3079524949683474  0.4206102198247921  0.0984067671595776   T   T   T
  0.1827522675874661  0.8415566774879084  0.0880929856241411   T   T   T
  0.5571112588349660  0.0858789457632986  0.0927599494604085   T   T   T
  0.5562562673400832  0.9207854362438828  0.0994665684442788   T   T   T
  0.4315428234436678  0.3316780173129488  0.1008534635841661   T   T   T
  0.4274278339671738  0.8407877665451009  0.1042379814661405   T   T   T
  0.8065015262426261  0.0891896400847764  0.0856699631643094   T   T   T
  0.6801424477017858  0.1704820343513590  0.0891569530111676   T   T   T
  0.8082846815885023  0.9232269944397238  0.0886572009136826   T   T   T
  0.6794052474768962  0.3365802790662756  0.0968956560935974   T   T   T
  0.8089796347197635  0.5951205945206028  0.0986147892327839   T   T   T
  0.8026497427975589  0.4262876642197421  0.0949113937346345   T   T   T
  0.6844478556178656  0.8412756952686438  0.0993883967706020   T   T   T
  0.4171939009355522  0.6820901220030869  0.1188857305415014   T   T   T
  0.5540693509201773  0.4002441831212090  0.1124108598016182   T   T   T
  0.6971524891479927  0.6831800486579080  0.1134342178454176   T   T   T
  0.3057006035533205  0.9253812891379070  0.0903844119039565   T   T   T
  0.4297339136986852  0.1667909561779347  0.0924293887095790   T   T   T
  0.9324916294986827  0.6731958795069516  0.0893121663125799   T   T   T
  0.5579950976062646  0.5858330667851791  0.1680264235442539   T   T   T
 
  0.00000000E+00  0.00000000E+00  0.00000000E+00
  0.00000000E+00  0.00000000E+00  0.00000000E+00
  0.00000000E+00  0.00000000E+00  0.00000000E+00
  0.00000000E+00  0.00000000E+00  0.00000000E+00
  0.00000000E+00  0.00000000E+00  0.00000000E+00
  0.00000000E+00  0.00000000E+00  0.00000000E+00
  0.00000000E+00  0.00000000E+00  0.00000000E+00
  0.00000000E+00  0.00000000E+00  0.00000000E+00
  0.00000000E+00  0.00000000E+00  0.00000000E+00
  0.00000000E+00  0.00000000E+00  0.00000000E+00
  0.00000000E+00  0.00000000E+00  0.00000000E+00
  0.00000000E+00  0.00000000E+00  0.00000000E+00
  0.00000000E+00  0.00000000E+00  0.00000000E+00
  0.00000000E+00  0.00000000E+00  0.00000000E+00
  0.00000000E+00  0.00000000E+00  0.00000000E+00
  0.00000000E+00  0.00000000E+00  0.00000000E+00
  0.00000000E+00  0.00000000E+00  0.00000000E+00
  0.00000000E+00  0.00000000E+00  0.00000000E+00
  0.00000000E+00  0.00000000E+00  0.00000000E+00
  0.00000000E+00  0.00000000E+00  0.00000000E+00
  0.00000000E+00  0.00000000E+00  0.00000000E+00
  0.00000000E+00  0.00000000E+00  0.00000000E+00
  0.00000000E+00  0.00000000E+00  0.00000000E+00
  0.00000000E+00  0.00000000E+00  0.00000000E+00
  0.00000000E+00  0.00000000E+00  0.00000000E+00
  0.00000000E+00  0.00000000E+00  0.00000000E+00
  0.00000000E+00  0.00000000E+00  0.00000000E+00
  0.00000000E+00  0.00000000E+00  0.00000000E+00
  0.00000000E+00  0.00000000E+00  0.00000000E+00
  0.00000000E+00  0.00000000E+00  0.00000000E+00
  0.00000000E+00  0.00000000E+00  0.00000000E+00
  0.00000000E+00  0.00000000E+00  0.00000000E+00
