Title                                   
   1.00000000000000     
     4.9440799999999996    0.0000000000000000    0.0000000000000000
     0.0000000000000000    8.5647549999999999    0.0000000000000000
     0.0000000000000000    0.0000000000000000   20.0000000000000000
    10     4     1
Selective dynamics
Direct
 -0.0069421135832217  0.2956518261998534  0.0956052295690487   T   T   T
  0.2504805947662449  0.0377619118113729  0.0997119162326034   T   T   T
 -0.0002680701489202  0.9556578653891558  0.1018726143443827   T   T   T
  0.7466586049162006  0.2078056766805274  0.0999220153802436   T   T   T
  0.4973217679631608  0.2945683634997345  0.1042666978661660   T   T   T
  0.7522374531182394  0.0408103895216052  0.0999373948125122   T   T   T
  0.7535940410096356  0.7159249022721181  0.0977765220125130   T   T   T
  0.7501903864417719  0.5352472948689299  0.0984010851034863   T   T   T
  0.5050230208641525  0.9557057028701494  0.0974951791817140   T   T   T
  0.5110833010871354  0.4577574819490979  0.1144135307883463   T   T   T
 -0.0147852826314793  0.4525904280450865  0.0856796947414594   T   T   T
 -0.0116107844104706  0.7922688810386866  0.1077687213727770   T   T   T
  0.5185281241859067  0.7939161635842334  0.0901764081870829   T   T   T
  0.2462220840020052  0.2113137620718950  0.0999981170504126   T   T   T
  0.2522668724196385  0.6247003501975571  0.1149548733572552   T   T   T
 
  0.00000000E+00  0.00000000E+00  0.00000000E+00
  0.00000000E+00  0.00000000E+00  0.00000000E+00
  0.00000000E+00  0.00000000E+00  0.00000000E+00
  0.00000000E+00  0.00000000E+00  0.00000000E+00
  0.00000000E+00  0.00000000E+00  0.00000000E+00
  0.00000000E+00  0.00000000E+00  0.00000000E+00
  0.00000000E+00  0.00000000E+00  0.00000000E+00
  0.00000000E+00  0.00000000E+00  0.00000000E+00
  0.00000000E+00  0.00000000E+00  0.00000000E+00
  0.00000000E+00  0.00000000E+00  0.00000000E+00
  0.00000000E+00  0.00000000E+00  0.00000000E+00
  0.00000000E+00  0.00000000E+00  0.00000000E+00
  0.00000000E+00  0.00000000E+00  0.00000000E+00
  0.00000000E+00  0.00000000E+00  0.00000000E+00
  0.00000000E+00  0.00000000E+00  0.00000000E+00
