Title                                   
   1.00000000000000     
     9.8694509999999998    0.0000000000000000    0.0000000000000000
     0.0000000000000000    8.5490480000000009    0.0000000000000000
     0.0000000000000000    0.0000000000000000   20.0000000000000000
    28     2     1
Selective dynamics
Direct
  0.0554364064240954  0.0893393088001034  0.0912688910030129   T   T   T
  0.9301955316804721  0.1724573718785153  0.0896232637670942   T   T   T
  0.0565253363359587  0.9236296029032763  0.0915284246348857   T   T   T
  0.9313680265974470  0.3398088992820726  0.0914891681365391   T   T   T
  0.0554185196808703  0.5900656801095161  0.0942483634091176   T   T   T
  0.9311395389284542  0.6724479218687482  0.0920322256036046   T   T   T
  0.0556773860192918  0.4229727541426218  0.0940148931904629   T   T   T
  0.9307353746993345  0.8395454675885942  0.0903405242481527   T   T   T
  0.3073089921623117  0.0889907297561426  0.0951574748323057   T   T   T
  0.1819496017681394  0.1712036515580615  0.0938788229825689   T   T   T
  0.1806493421075067  0.3388903990005708  0.0956096983343108   T   T   T
  0.3038531805024746  0.5905068783549415  0.1015007343637154   T   T   T
  0.1809544846404826  0.6740266051302123  0.0959934884115525   T   T   T
  0.3038080110689540  0.4212137523686434  0.1007197242600684   T   T   T
  0.1820672827057979  0.8411105983225829  0.0943020133818921   T   T   T
  0.4321836038480525  0.1766858238464494  0.0977718764713024   T   T   T
  0.5536660861853117  0.9242488245055315  0.0944279790123046   T   T   T
  0.4306915939231297  0.3427812301412877  0.1040840109683722   T   T   T
  0.4294351266025275  0.6696896710069697  0.1072357780579482   T   T   T
  0.4304085923152016  0.8362456858792421  0.0995892313917325   T   T   T
  0.8046689885077495  0.0886266915901989  0.0875325687547804   T   T   T
  0.6786128434944168  0.1728598452535328  0.0882047386631785   T   T   T
  0.8056709716380916  0.9225139603177048  0.0881426727476372   T   T   T
  0.6808240524820350  0.3362441464933433  0.0886187595444891   T   T   T
  0.8055684156976483  0.5907751241759446  0.0895665561509408   T   T   T
  0.6808286565375352  0.6747998410723582  0.0899410069388634   T   T   T
  0.8059849160765458  0.4204238247267793  0.0892195369076353   T   T   T
  0.6780902465765242  0.8402066616345092  0.0893208578735975   T   T   T
  0.5551577568639801  0.0900983400265068  0.0934203648488034   T   T   T
  0.3055520574902121  0.9221790858886993  0.0954781830874503   T   T   T
  0.5787040764394485  0.5062866223763582  0.1267031680217075   T   T   T
 
  0.00000000E+00  0.00000000E+00  0.00000000E+00
  0.00000000E+00  0.00000000E+00  0.00000000E+00
  0.00000000E+00  0.00000000E+00  0.00000000E+00
  0.00000000E+00  0.00000000E+00  0.00000000E+00
  0.00000000E+00  0.00000000E+00  0.00000000E+00
  0.00000000E+00  0.00000000E+00  0.00000000E+00
  0.00000000E+00  0.00000000E+00  0.00000000E+00
  0.00000000E+00  0.00000000E+00  0.00000000E+00
  0.00000000E+00  0.00000000E+00  0.00000000E+00
  0.00000000E+00  0.00000000E+00  0.00000000E+00
  0.00000000E+00  0.00000000E+00  0.00000000E+00
  0.00000000E+00  0.00000000E+00  0.00000000E+00
  0.00000000E+00  0.00000000E+00  0.00000000E+00
  0.00000000E+00  0.00000000E+00  0.00000000E+00
  0.00000000E+00  0.00000000E+00  0.00000000E+00
  0.00000000E+00  0.00000000E+00  0.00000000E+00
  0.00000000E+00  0.00000000E+00  0.00000000E+00
  0.00000000E+00  0.00000000E+00  0.00000000E+00
  0.00000000E+00  0.00000000E+00  0.00000000E+00
  0.00000000E+00  0.00000000E+00  0.00000000E+00
  0.00000000E+00  0.00000000E+00  0.00000000E+00
  0.00000000E+00  0.00000000E+00  0.00000000E+00
  0.00000000E+00  0.00000000E+00  0.00000000E+00
  0.00000000E+00  0.00000000E+00  0.00000000E+00
  0.00000000E+00  0.00000000E+00  0.00000000E+00
  0.00000000E+00  0.00000000E+00  0.00000000E+00
  0.00000000E+00  0.00000000E+00  0.00000000E+00
  0.00000000E+00  0.00000000E+00  0.00000000E+00
  0.00000000E+00  0.00000000E+00  0.00000000E+00
  0.00000000E+00  0.00000000E+00  0.00000000E+00
  0.00000000E+00  0.00000000E+00  0.00000000E+00
