Title                                   
   1.00000000000000     
     8.5490480000000009    0.0000000000000000    0.0000000000000000
     0.0000000000000000    8.5490480000000009    0.0000000000000000
     0.0000000000000000    0.0000000000000000   20.0000000000000000
    21     3     1
Selective dynamics
Direct
  0.9106769909972220  0.2081359060492652  0.0977795738800856   T   T   T
  0.9124410299977250  0.8012790492712608  0.0977289615481721   T   T   T
  0.1999186323006364  0.0824674516697119  0.0980751751165529   T   T   T
  0.0739895921403798  0.2053264202373253  0.0980134476722328   T   T   T
  0.1547160507295391  0.6499341745950027  0.0979905427895084   T   T   T
  0.0730955571890252  0.5031915383109001  0.0980275794499035   T   T   T
  0.1549798681796565  0.3566269133280686  0.0981054711887670   T   T   T
  0.0777641926165952  0.7992432783314238  0.0979057488423951   T   T   T
  0.4950263402971160  0.0827941599676135  0.0979170864204211   T   T   T
  0.3463619037369600  0.1639699915007502  0.0981032843251656   T   T   T
  0.4943360537343649  0.9135286049924631  0.0979143624784131   T   T   T
  0.3465067727065366  0.8324667693548187  0.0980785045618406   T   T   T
  0.7875852736800395  0.0852991065125717  0.0976185165439246   T   T   T
  0.6401946484496441  0.1649731703141051  0.0977499787400925   T   T   T
  0.7896397141093315  0.9193909810336512  0.0976524465438933   T   T   T
  0.8293134816564821  0.6513606536249950  0.0978935302580680   T   T   T
  0.8258035156502763  0.3586207048378330  0.0978718993483683   T   T   T
  0.6429269525512719  0.8344644964932754  0.0978480050165124   T   T   T
  0.3229516190816462  0.3348044787146276  0.0981466582515214   T   T   T
  0.3213137818167434  0.6687811433147153  0.0981056032783399   T   T   T
  0.6609756158089518  0.3354536014866999  0.0979129320535754   T   T   T
  0.9060262644055952  0.5045038113591791  0.0979835674937241   T   T   T
  0.6697095589707102  0.6722176401703830  0.0980325202240634   T   T   T
  0.1988794905219369  0.9179107019507960  0.0980936986162035   T   T   T
  0.4902790986716069  0.4980452525785775  0.0981559053582381   T   T   T
 
  0.00000000E+00  0.00000000E+00  0.00000000E+00
  0.00000000E+00  0.00000000E+00  0.00000000E+00
  0.00000000E+00  0.00000000E+00  0.00000000E+00
  0.00000000E+00  0.00000000E+00  0.00000000E+00
  0.00000000E+00  0.00000000E+00  0.00000000E+00
  0.00000000E+00  0.00000000E+00  0.00000000E+00
  0.00000000E+00  0.00000000E+00  0.00000000E+00
  0.00000000E+00  0.00000000E+00  0.00000000E+00
  0.00000000E+00  0.00000000E+00  0.00000000E+00
  0.00000000E+00  0.00000000E+00  0.00000000E+00
  0.00000000E+00  0.00000000E+00  0.00000000E+00
  0.00000000E+00  0.00000000E+00  0.00000000E+00
  0.00000000E+00  0.00000000E+00  0.00000000E+00
  0.00000000E+00  0.00000000E+00  0.00000000E+00
  0.00000000E+00  0.00000000E+00  0.00000000E+00
  0.00000000E+00  0.00000000E+00  0.00000000E+00
  0.00000000E+00  0.00000000E+00  0.00000000E+00
  0.00000000E+00  0.00000000E+00  0.00000000E+00
  0.00000000E+00  0.00000000E+00  0.00000000E+00
  0.00000000E+00  0.00000000E+00  0.00000000E+00
  0.00000000E+00  0.00000000E+00  0.00000000E+00
  0.00000000E+00  0.00000000E+00  0.00000000E+00
  0.00000000E+00  0.00000000E+00  0.00000000E+00
  0.00000000E+00  0.00000000E+00  0.00000000E+00
  0.00000000E+00  0.00000000E+00  0.00000000E+00
