Title                                   
   1.00000000000000     
     8.5490480000000009    0.0000000000000000    0.0000000000000000
     0.0000000000000000    8.5490480000000009    0.0000000000000000
     0.0000000000000000    0.0000000000000000   20.0000000000000000
    21     3     1
Selective dynamics
Direct
  0.9091226424064465  0.2067455899990595  0.0975040772339191   T   T   T
  0.9091347000248134  0.5027510943276833  0.0977308454544071   T   T   T
  0.9128794292591904  0.8020711143421650  0.0976545718225620   T   T   T
  0.1961623973687620  0.0823058910310715  0.0977171609380511   T   T   T
  0.0745576258742313  0.2016873625854439  0.0976819186300861   T   T   T
  0.1599178710434203  0.6483197827926720  0.0977583323456463   T   T   T
  0.0783446208081883  0.5011772507251465  0.0978075983800056   T   T   T
  0.1588145794676326  0.3518229121568030  0.0979282495893851   T   T   T
  0.0789834238554357  0.7987252931614770  0.0976484589766999   T   T   T
  0.4918031089440053  0.0864676556045598  0.0977717065846041   T   T   T
  0.3418158037745737  0.1649537252976807  0.0978857975228973   T   T   T
  0.4916343592860246  0.9168591151108229  0.0977188381722040   T   T   T
  0.3458170074232466  0.8354152744944624  0.0976628595444993   T   T   T
  0.7867547599475105  0.0851349626664149  0.0975289805812641   T   T   T
  0.6367773310300551  0.1670791173550736  0.0977045452825758   T   T   T
  0.7897005293839119  0.9214405910831875  0.0976370496744501   T   T   T
  0.8302509729909389  0.6531459224422369  0.0977657507303346   T   T   T
  0.8284441284699939  0.3560733294788495  0.0976363012882426   T   T   T
  0.6411111127313706  0.8361613543149443  0.0977962907365976   T   T   T
  0.3239483726206586  0.6710772067937036  0.0977708792790890   T   T   T
  0.6607900520489348  0.3334982891152852  0.0977449269747011   T   T   T
  0.3181156225429017  0.3272781984086754  0.0981373705834811   T   T   T
  0.6682256200659260  0.6767796499066314  0.0979167632502506   T   T   T
  0.1977271854029087  0.9166653053534298  0.0976384170434176   T   T   T
  0.4945787432289053  0.5011540114525346  0.0979573093806086   T   T   T
 
  0.00000000E+00  0.00000000E+00  0.00000000E+00
  0.00000000E+00  0.00000000E+00  0.00000000E+00
  0.00000000E+00  0.00000000E+00  0.00000000E+00
  0.00000000E+00  0.00000000E+00  0.00000000E+00
  0.00000000E+00  0.00000000E+00  0.00000000E+00
  0.00000000E+00  0.00000000E+00  0.00000000E+00
  0.00000000E+00  0.00000000E+00  0.00000000E+00
  0.00000000E+00  0.00000000E+00  0.00000000E+00
  0.00000000E+00  0.00000000E+00  0.00000000E+00
  0.00000000E+00  0.00000000E+00  0.00000000E+00
  0.00000000E+00  0.00000000E+00  0.00000000E+00
  0.00000000E+00  0.00000000E+00  0.00000000E+00
  0.00000000E+00  0.00000000E+00  0.00000000E+00
  0.00000000E+00  0.00000000E+00  0.00000000E+00
  0.00000000E+00  0.00000000E+00  0.00000000E+00
  0.00000000E+00  0.00000000E+00  0.00000000E+00
  0.00000000E+00  0.00000000E+00  0.00000000E+00
  0.00000000E+00  0.00000000E+00  0.00000000E+00
  0.00000000E+00  0.00000000E+00  0.00000000E+00
  0.00000000E+00  0.00000000E+00  0.00000000E+00
  0.00000000E+00  0.00000000E+00  0.00000000E+00
  0.00000000E+00  0.00000000E+00  0.00000000E+00
  0.00000000E+00  0.00000000E+00  0.00000000E+00
  0.00000000E+00  0.00000000E+00  0.00000000E+00
  0.00000000E+00  0.00000000E+00  0.00000000E+00
