Title                                   
   1.00000000000000     
     9.8694509999999998    0.0000000000000000    0.0000000000000000
     0.0000000000000000    8.5490480000000009    0.0000000000000000
     0.0000000000000000    0.0000000000000000   20.0000000000000000
    27     3     1
Selective dynamics
Direct
  0.0549191107403359  0.0889861848355445  0.0921016921232753   T   T   T
  0.9300537262117264  0.1727326475209582  0.0874564525874317   T   T   T
  0.0567813936113816  0.9221049771330703  0.0925661191363398   T   T   T
  0.9323354012825100  0.3393746085491253  0.0887204165792610   T   T   T
  0.0557574203265459  0.5899072566730980  0.0947233203494572   T   T   T
  0.9320570134729853  0.6729483609985755  0.0908124977650562   T   T   T
  0.0559907450639517  0.4222304058857751  0.0942418853147130   T   T   T
  0.9308575560942270  0.8395174387124154  0.0891413296518518   T   T   T
  0.3067893140479228  0.0882102257983089  0.0996528227274725   T   T   T
  0.1801797067002404  0.1701200234952446  0.0973177083080426   T   T   T
  0.1800594259595930  0.3371967854980581  0.0985872799034146   T   T   T
  0.3038782967577782  0.5867558796708514  0.1058834301388741   T   T   T
  0.1813577888836068  0.6722477165214189  0.0985900384383863   T   T   T
  0.3024101963339318  0.4194534167838633  0.1059295369123941   T   T   T
  0.1817131232824975  0.8393792917181598  0.0971216490644320   T   T   T
  0.4291649731489525  0.1774379675164838  0.1021774592997968   T   T   T
  0.5526398403656827  0.9255122899444257  0.0938550752554924   T   T   T
  0.4298462271265233  0.6679799788964191  0.1124464359557308   T   T   T
  0.4310003261346266  0.8357883012018461  0.1028839194735023   T   T   T
  0.8035537609119489  0.0895653401185868  0.0839869342463232   T   T   T
  0.6772158935007102  0.1735959375524475  0.0827477611646498   T   T   T
  0.8051896412195009  0.9241991587905811  0.0848917516232604   T   T   T
  0.6814635850142168  0.3370942230223465  0.0782033673239659   T   T   T
  0.8065408503490240  0.5911466696350588  0.0840432515272543   T   T   T
  0.6818827889628790  0.6785559574694091  0.0833333785603981   T   T   T
  0.8073412140185765  0.4212117529911076  0.0816789417606266   T   T   T
  0.6775760857889528  0.8443899820149694  0.0847894100429380   T   T   T
  0.5528734793376296  0.0941491302122555  0.0931554456229830   T   T   T
  0.4259609346607813  0.3400253729082793  0.1123202186785877   T   T   T
  0.3064918141312334  0.9216741072833765  0.0993180129727852   T   T   T
  0.5892533665595403  0.5073836106479613  0.1282874574913522   T   T   T
 
  0.00000000E+00  0.00000000E+00  0.00000000E+00
  0.00000000E+00  0.00000000E+00  0.00000000E+00
  0.00000000E+00  0.00000000E+00  0.00000000E+00
  0.00000000E+00  0.00000000E+00  0.00000000E+00
  0.00000000E+00  0.00000000E+00  0.00000000E+00
  0.00000000E+00  0.00000000E+00  0.00000000E+00
  0.00000000E+00  0.00000000E+00  0.00000000E+00
  0.00000000E+00  0.00000000E+00  0.00000000E+00
  0.00000000E+00  0.00000000E+00  0.00000000E+00
  0.00000000E+00  0.00000000E+00  0.00000000E+00
  0.00000000E+00  0.00000000E+00  0.00000000E+00
  0.00000000E+00  0.00000000E+00  0.00000000E+00
  0.00000000E+00  0.00000000E+00  0.00000000E+00
  0.00000000E+00  0.00000000E+00  0.00000000E+00
  0.00000000E+00  0.00000000E+00  0.00000000E+00
  0.00000000E+00  0.00000000E+00  0.00000000E+00
  0.00000000E+00  0.00000000E+00  0.00000000E+00
  0.00000000E+00  0.00000000E+00  0.00000000E+00
  0.00000000E+00  0.00000000E+00  0.00000000E+00
  0.00000000E+00  0.00000000E+00  0.00000000E+00
  0.00000000E+00  0.00000000E+00  0.00000000E+00
  0.00000000E+00  0.00000000E+00  0.00000000E+00
  0.00000000E+00  0.00000000E+00  0.00000000E+00
  0.00000000E+00  0.00000000E+00  0.00000000E+00
  0.00000000E+00  0.00000000E+00  0.00000000E+00
  0.00000000E+00  0.00000000E+00  0.00000000E+00
  0.00000000E+00  0.00000000E+00  0.00000000E+00
  0.00000000E+00  0.00000000E+00  0.00000000E+00
  0.00000000E+00  0.00000000E+00  0.00000000E+00
  0.00000000E+00  0.00000000E+00  0.00000000E+00
  0.00000000E+00  0.00000000E+00  0.00000000E+00
