Title                                   
   1.00000000000000     
     8.5490480000000009    0.0000000000000000    0.0000000000000000
     0.0000000000000000    8.5490480000000009    0.0000000000000000
     0.0000000000000000    0.0000000000000000   20.0000000000000000
    18     6     1
Selective dynamics
Direct
  0.9072043005257273  0.2063535153079227  0.0975220501366016   T   T   T
  0.9113427802448446  0.8014204829223465  0.0974734332308063   T   T   T
  0.1964277907751709  0.0838856241806989  0.0976880608358209   T   T   T
  0.0767270352435997  0.1999654819146313  0.0975772610312745   T   T   T
  0.1571494882935696  0.6505860709149580  0.0977771875333268   T   T   T
  0.0756894011820277  0.4998364026732450  0.0977227223930955   T   T   T
  0.1573014133842778  0.3537886369989552  0.0976968409111234   T   T   T
  0.0798498773274998  0.7987460746264826  0.0976079668848274   T   T   T
  0.3480532549186650  0.1671199350665049  0.0978342764882413   T   T   T
  0.4943882098675171  0.9164963717409781  0.0978238641867833   T   T   T
  0.3440429587466472  0.8348862512383076  0.0979097123579879   T   T   T
  0.7878256735959756  0.0873024737171436  0.0975033871721622   T   T   T
  0.6396327052065978  0.1674714112268994  0.0977640800266311   T   T   T
  0.7909670054810749  0.9194459469607676  0.0974650488740837   T   T   T
  0.8281265038557594  0.6522904344966118  0.0977123026344973   T   T   T
  0.8247245223462439  0.3535949847118992  0.0977228843434858   T   T   T
  0.6433360088721662  0.8369678040868481  0.0977413476687413   T   T   T
  0.3260992798495961  0.3322822123949117  0.0977967277563299   T   T   T
  0.4942666676338241  0.0861048443043441  0.0978769736348049   T   T   T
  0.9041688569254243  0.5027019405420859  0.0977749202011008   T   T   T
  0.3197494902305372  0.6747632580297480  0.0979927228624827   T   T   T
  0.6609135400796318  0.3297285111610828  0.0979932851110562   T   T   T
  0.6687514598835145  0.6743316460358648  0.0979564206670126   T   T   T
  0.1977442438277983  0.9146903133108929  0.0977594482586779   T   T   T
  0.4909295317023014  0.5000293714358883  0.0980120747990178   T   T   T
 
  0.00000000E+00  0.00000000E+00  0.00000000E+00
  0.00000000E+00  0.00000000E+00  0.00000000E+00
  0.00000000E+00  0.00000000E+00  0.00000000E+00
  0.00000000E+00  0.00000000E+00  0.00000000E+00
  0.00000000E+00  0.00000000E+00  0.00000000E+00
  0.00000000E+00  0.00000000E+00  0.00000000E+00
  0.00000000E+00  0.00000000E+00  0.00000000E+00
  0.00000000E+00  0.00000000E+00  0.00000000E+00
  0.00000000E+00  0.00000000E+00  0.00000000E+00
  0.00000000E+00  0.00000000E+00  0.00000000E+00
  0.00000000E+00  0.00000000E+00  0.00000000E+00
  0.00000000E+00  0.00000000E+00  0.00000000E+00
  0.00000000E+00  0.00000000E+00  0.00000000E+00
  0.00000000E+00  0.00000000E+00  0.00000000E+00
  0.00000000E+00  0.00000000E+00  0.00000000E+00
  0.00000000E+00  0.00000000E+00  0.00000000E+00
  0.00000000E+00  0.00000000E+00  0.00000000E+00
  0.00000000E+00  0.00000000E+00  0.00000000E+00
  0.00000000E+00  0.00000000E+00  0.00000000E+00
  0.00000000E+00  0.00000000E+00  0.00000000E+00
  0.00000000E+00  0.00000000E+00  0.00000000E+00
  0.00000000E+00  0.00000000E+00  0.00000000E+00
  0.00000000E+00  0.00000000E+00  0.00000000E+00
  0.00000000E+00  0.00000000E+00  0.00000000E+00
  0.00000000E+00  0.00000000E+00  0.00000000E+00
