Title                                   
   1.00000000000000     
     4.9440799999999996    0.0000000000000000    0.0000000000000000
     0.0000000000000000   17.1295089999999988    0.0000000000000000
     0.0000000000000000    0.0000000000000000   20.0000000000000000
    27     3     1
Selective dynamics
Direct
  0.0026475149267843  0.1061160918515377  0.2944544825543998   T   T   T
  0.2521963365032259  0.1486859760322103  0.2956737267886005   T   T   T
  0.2534525926445156  0.2333577970867456  0.2988851019269226   T   T   T
  0.0020791610617113  0.2744252174685716  0.3003232200394934   T   T   T
 -0.0053636162126433  0.6004940007260400  0.3014649451154932   T   T   T
  0.2465575401464974  0.7266654168674147  0.2958300562332999   T   T   T
 -0.0009792762743196  0.8534298536880590  0.2936806267367939   T   T   T
  0.2491634200790214  0.8955568202099741  0.2934691810714674   T   T   T
  0.2503270815708903  0.9796638341360078  0.2933984461808101   T   T   T
 -0.0019562486133698  0.7693704699140621  0.2947216465390405   T   T   T
  0.5008719034226627  0.1060789119032033  0.2944876581343183   T   T   T
  0.7520326195153876  0.1480686255061197  0.2950063177608820   T   T   T
  0.7533180000720130  0.2316078250592834  0.2974821651687221   T   T   T
  0.5001545210987476  0.0219894906339136  0.2935094838128260   T   T   T
  0.7564960838844854  0.3936336972830795  0.3060171992349003   T   T   T
  0.7514120433566944  0.4788116220701386  0.3064445353459967   T   T   T
  0.5054360173412639  0.2748338597599759  0.3006020966080067   T   T   T
  0.4958468291502929  0.6004607900095270  0.2998612388907126   T   T   T
  0.7481704768993299  0.7270800766331300  0.2951148311111206   T   T   T
  0.4985464194463299  0.8531753320571498  0.2935958241342012   T   T   T
  0.7490936751537228  0.8956319337639285  0.2933449110058198   T   T   T
  0.7502278350904178  0.9797459215832758  0.2932886759513900   T   T   T
  0.4973638388427367  0.7690565848979184  0.2945264031810204   T   T   T
  0.7466814065195645  0.6432313383880911  0.2975151480540540   T   T   T
  0.2451672198828917  0.6425744716762891  0.2991803487408975   T   T   T
  0.0010656004975007  0.0219932507556959  0.2935110805865552   T   T   T
  0.5027676399191618  0.5180110341802744  0.3040336434370639   T   T   T
  0.9942150810887311  0.5198661511730752  0.3094189457297654   T   T   T
  0.5137851553330003  0.3549841365037564  0.3064884480787240   T   T   T
 -0.0027052555555728  0.3547017495900481  0.3054247188986859   T   T   T
  0.2519353832083266  0.4380397185915024  0.3443048929479676   T   T   T
 
  0.00000000E+00  0.00000000E+00  0.00000000E+00
  0.00000000E+00  0.00000000E+00  0.00000000E+00
  0.00000000E+00  0.00000000E+00  0.00000000E+00
  0.00000000E+00  0.00000000E+00  0.00000000E+00
  0.00000000E+00  0.00000000E+00  0.00000000E+00
  0.00000000E+00  0.00000000E+00  0.00000000E+00
  0.00000000E+00  0.00000000E+00  0.00000000E+00
  0.00000000E+00  0.00000000E+00  0.00000000E+00
  0.00000000E+00  0.00000000E+00  0.00000000E+00
  0.00000000E+00  0.00000000E+00  0.00000000E+00
  0.00000000E+00  0.00000000E+00  0.00000000E+00
  0.00000000E+00  0.00000000E+00  0.00000000E+00
  0.00000000E+00  0.00000000E+00  0.00000000E+00
  0.00000000E+00  0.00000000E+00  0.00000000E+00
  0.00000000E+00  0.00000000E+00  0.00000000E+00
  0.00000000E+00  0.00000000E+00  0.00000000E+00
  0.00000000E+00  0.00000000E+00  0.00000000E+00
  0.00000000E+00  0.00000000E+00  0.00000000E+00
  0.00000000E+00  0.00000000E+00  0.00000000E+00
  0.00000000E+00  0.00000000E+00  0.00000000E+00
  0.00000000E+00  0.00000000E+00  0.00000000E+00
  0.00000000E+00  0.00000000E+00  0.00000000E+00
  0.00000000E+00  0.00000000E+00  0.00000000E+00
  0.00000000E+00  0.00000000E+00  0.00000000E+00
  0.00000000E+00  0.00000000E+00  0.00000000E+00
  0.00000000E+00  0.00000000E+00  0.00000000E+00
  0.00000000E+00  0.00000000E+00  0.00000000E+00
  0.00000000E+00  0.00000000E+00  0.00000000E+00
  0.00000000E+00  0.00000000E+00  0.00000000E+00
  0.00000000E+00  0.00000000E+00  0.00000000E+00
  0.00000000E+00  0.00000000E+00  0.00000000E+00
