Title                                   
   1.00000000000000     
     9.8694509999999998    0.0000000000000000    0.0000000000000000
     0.0000000000000000    8.5490480000000009    0.0000000000000000
     0.0000000000000000    0.0000000000000000   20.0000000000000000
    28     3     1
Selective dynamics
Direct
  0.0563305943251795  0.0912826706430251  0.0837343744458845   T   T   T
  0.9317220082457257  0.1733109123622033  0.0851575418545534   T   T   T
  0.0572531545585900  0.9243673433556290  0.0838616404568486   T   T   T
  0.9316662945484245  0.3397618702210828  0.0884751376545538   T   T   T
  0.0573267796677876  0.5898927247252284  0.0847723095604056   T   T   T
  0.9325087199385100  0.6723403737570769  0.0873497800699168   T   T   T
  0.0578159630917318  0.4229424678271698  0.0864424806681811   T   T   T
  0.9318660354918802  0.8392973517446012  0.0855167722130859   T   T   T
  0.3054463120252021  0.0892813434961878  0.0880036486889607   T   T   T
  0.1820219026773266  0.1739847713104866  0.0857438286830667   T   T   T
  0.1842804774165714  0.3409384438030357  0.0876251622752043   T   T   T
  0.3042006018859075  0.5934145494973612  0.0965197441613650   T   T   T
  0.1814380817215646  0.6743981876190024  0.0867903820716453   T   T   T
  0.3110808373363043  0.4260675995004434  0.0948393946211925   T   T   T
  0.1806953286691165  0.8416975489333455  0.0865723326659870   T   T   T
  0.5562622755186117  0.0861505062540446  0.0938449164498094   T   T   T
  0.4307607353126556  0.1698743087879430  0.0928282635860542   T   T   T
  0.5537327554525207  0.9205561471763690  0.0978102793362461   T   T   T
  0.4328422473095798  0.3340130109293646  0.0994519722415496   T   T   T
  0.4254261102948821  0.8431621888184412  0.0993779978926527   T   T   T
  0.8071243497070474  0.0887305419479845  0.0860326505140676   T   T   T
  0.6819456244846283  0.1687614794927817  0.0916372171343005   T   T   T
  0.8067692941010085  0.9226520360635262  0.0875774679374702   T   T   T
  0.6821355849787638  0.3331855991285778  0.0998118349022040   T   T   T
  0.8091015219130036  0.5902498241653937  0.0986752437786349   T   T   T
  0.6911843389571597  0.6781762400623215  0.1129762836131626   T   T   T
  0.8055874366343746  0.4216659173175940  0.0968360360622681   T   T   T
  0.6829589648474597  0.8391649447342864  0.0988191591799371   T   T   T
  0.4152031432726518  0.6867778530294560  0.1152171551689387   T   T   T
  0.5582537783565614  0.4031918478818510  0.1148668519891598   T   T   T
  0.3046169173121317  0.9255795403592156  0.0894913053773810   T   T   T
  0.5500808299471438  0.5853758550549784  0.1790158347453464   T   T   T
 
  0.00000000E+00  0.00000000E+00  0.00000000E+00
  0.00000000E+00  0.00000000E+00  0.00000000E+00
  0.00000000E+00  0.00000000E+00  0.00000000E+00
  0.00000000E+00  0.00000000E+00  0.00000000E+00
  0.00000000E+00  0.00000000E+00  0.00000000E+00
  0.00000000E+00  0.00000000E+00  0.00000000E+00
  0.00000000E+00  0.00000000E+00  0.00000000E+00
  0.00000000E+00  0.00000000E+00  0.00000000E+00
  0.00000000E+00  0.00000000E+00  0.00000000E+00
  0.00000000E+00  0.00000000E+00  0.00000000E+00
  0.00000000E+00  0.00000000E+00  0.00000000E+00
  0.00000000E+00  0.00000000E+00  0.00000000E+00
  0.00000000E+00  0.00000000E+00  0.00000000E+00
  0.00000000E+00  0.00000000E+00  0.00000000E+00
  0.00000000E+00  0.00000000E+00  0.00000000E+00
  0.00000000E+00  0.00000000E+00  0.00000000E+00
  0.00000000E+00  0.00000000E+00  0.00000000E+00
  0.00000000E+00  0.00000000E+00  0.00000000E+00
  0.00000000E+00  0.00000000E+00  0.00000000E+00
  0.00000000E+00  0.00000000E+00  0.00000000E+00
  0.00000000E+00  0.00000000E+00  0.00000000E+00
  0.00000000E+00  0.00000000E+00  0.00000000E+00
  0.00000000E+00  0.00000000E+00  0.00000000E+00
  0.00000000E+00  0.00000000E+00  0.00000000E+00
  0.00000000E+00  0.00000000E+00  0.00000000E+00
  0.00000000E+00  0.00000000E+00  0.00000000E+00
  0.00000000E+00  0.00000000E+00  0.00000000E+00
  0.00000000E+00  0.00000000E+00  0.00000000E+00
  0.00000000E+00  0.00000000E+00  0.00000000E+00
  0.00000000E+00  0.00000000E+00  0.00000000E+00
  0.00000000E+00  0.00000000E+00  0.00000000E+00
  0.00000000E+00  0.00000000E+00  0.00000000E+00
