Title                                   
   1.00000000000000     
     9.8694509999999998    0.0000000000000000    0.0000000000000000
     0.0000000000000000    8.5490480000000009    0.0000000000000000
     0.0000000000000000    0.0000000000000000   20.0000000000000000
    25     6     1
Selective dynamics
Direct
  0.0562813782542494  0.0927128362496898  0.0885645508033595   T   T   T
  0.9300294088449532  0.1752961406257847  0.0901673258454554   T   T   T
  0.0562766358394676  0.9237762803356816  0.0874671471854728   T   T   T
  0.9298317691936189  0.3413036316063902  0.0930521255795834   T   T   T
  0.0561971354575937  0.5898175418252859  0.0886394195208118   T   T   T
  0.9313760900947673  0.6713370023025313  0.0896547065761628   T   T   T
  0.0562623172159309  0.4231258657467107  0.0917696213674894   T   T   T
  0.9311506703319861  0.8395871261039438  0.0887425530810031   T   T   T
  0.3060105771369399  0.0893751911632018  0.0887742172817329   T   T   T
  0.1825384760408953  0.1752558795735282  0.0897106890780280   T   T   T
  0.3066666747729488  0.9233755893426986  0.0886561349414244   T   T   T
  0.1827764348593729  0.3412976596427423  0.0921594507375155   T   T   T
  0.3070988754207092  0.5928456307737787  0.0942783626352206   T   T   T
  0.1811039258093365  0.6712713911732966  0.0885478677227323   T   T   T
  0.1814427423794941  0.8395790913688327  0.0878125017621202   T   T   T
  0.5562695800655482  0.0857085881750003  0.0950749953343887   T   T   T
  0.4315889202208084  0.1698541133168044  0.0929768285799621   T   T   T
  0.4347353325130941  0.3356930828667277  0.0979609786968416   T   T   T
  0.4285436701703798  0.8364642718065551  0.0946910532099003   T   T   T
  0.8065678020905026  0.0894101073435087  0.0892557993008071   T   T   T
  0.6809935067978944  0.1699557788508367  0.0934000590022174   T   T   T
  0.8059665693941852  0.9233644249222084  0.0895637139604910   T   T   T
  0.6778335357094537  0.3358020142246065  0.0987470042915689   T   T   T
  0.8056245085942557  0.5929384275057296  0.0968784784156509   T   T   T
  0.6842470198810356  0.8365930644828365  0.0963352305815544   T   T   T
  0.4237541563914837  0.6777592874583855  0.1039236625023241   T   T   T
  0.5561899361301779  0.4101492895543905  0.1101268366445725   T   T   T
  0.6900749932569992  0.6786126836578785  0.1083582618930944   T   T   T
  0.5563141998085513  0.9159425331505874  0.0958963723983002   T   T   T
  0.3116204815487699  0.4245277288152640  0.0948426338669578   T   T   T
  0.8010791260041337  0.4245804981641468  0.0969596204937464   T   T   T
  0.5531925497704693  0.5929332478704392  0.1826867967095257   T   T   T
 
  0.00000000E+00  0.00000000E+00  0.00000000E+00
  0.00000000E+00  0.00000000E+00  0.00000000E+00
  0.00000000E+00  0.00000000E+00  0.00000000E+00
  0.00000000E+00  0.00000000E+00  0.00000000E+00
  0.00000000E+00  0.00000000E+00  0.00000000E+00
  0.00000000E+00  0.00000000E+00  0.00000000E+00
  0.00000000E+00  0.00000000E+00  0.00000000E+00
  0.00000000E+00  0.00000000E+00  0.00000000E+00
  0.00000000E+00  0.00000000E+00  0.00000000E+00
  0.00000000E+00  0.00000000E+00  0.00000000E+00
  0.00000000E+00  0.00000000E+00  0.00000000E+00
  0.00000000E+00  0.00000000E+00  0.00000000E+00
  0.00000000E+00  0.00000000E+00  0.00000000E+00
  0.00000000E+00  0.00000000E+00  0.00000000E+00
  0.00000000E+00  0.00000000E+00  0.00000000E+00
  0.00000000E+00  0.00000000E+00  0.00000000E+00
  0.00000000E+00  0.00000000E+00  0.00000000E+00
  0.00000000E+00  0.00000000E+00  0.00000000E+00
  0.00000000E+00  0.00000000E+00  0.00000000E+00
  0.00000000E+00  0.00000000E+00  0.00000000E+00
  0.00000000E+00  0.00000000E+00  0.00000000E+00
  0.00000000E+00  0.00000000E+00  0.00000000E+00
  0.00000000E+00  0.00000000E+00  0.00000000E+00
  0.00000000E+00  0.00000000E+00  0.00000000E+00
  0.00000000E+00  0.00000000E+00  0.00000000E+00
  0.00000000E+00  0.00000000E+00  0.00000000E+00
  0.00000000E+00  0.00000000E+00  0.00000000E+00
  0.00000000E+00  0.00000000E+00  0.00000000E+00
  0.00000000E+00  0.00000000E+00  0.00000000E+00
  0.00000000E+00  0.00000000E+00  0.00000000E+00
  0.00000000E+00  0.00000000E+00  0.00000000E+00
  0.00000000E+00  0.00000000E+00  0.00000000E+00
