Title                                   
   1.00000000000000     
     4.9440799999999996    0.0000000000000000    0.0000000000000000
     0.0000000000000000   17.1295089999999988    0.0000000000000000
     0.0000000000000000    0.0000000000000000   20.0000000000000000
    29     2     1
Selective dynamics
Direct
  0.0018357220793765  0.1045277876734453  0.2800036474521839   T   T   T
  0.2523427533640489  0.1462246585459978  0.2841734538940606   T   T   T
  0.2535829760816711  0.2288633381752335  0.2953133330032523   T   T   T
  0.0061979282037520  0.3508287803247613  0.3190691107841836   T   T   T
  0.0031789495736791  0.2701062781756944  0.3011053323536431   T   T   T
 -0.0083314341606885  0.6058635958854235  0.3143961453836662   T   T   T
  0.2461261072612163  0.7282680935184794  0.2929580483051218   T   T   T
 -0.0012607933466167  0.8534889165498923  0.2787301344194409   T   T   T
  0.2488781314777810  0.8954339976302566  0.2766707891438928   T   T   T
  0.2502384283797249  0.9790670070772924  0.2750799932533500   T   T   T
 -0.0025356376914770  0.7702822483163760  0.2863342745365553   T   T   T
  0.5019073560689282  0.1045060081580611  0.2801059973209146   T   T   T
  0.7521546025428740  0.1463343162883007  0.2834231365986110   T   T   T
  0.7532605347555749  0.2291399154070859  0.2933836515478067   T   T   T
  0.5007174798371392  0.0209703360863032  0.2756974244406212   T   T   T
  0.5035074477466979  0.3510710280143245  0.3197515483383785   T   T   T
  0.7560366854213130  0.3960208609340914  0.3252049072919422   T   T   T
  0.7503504129050855  0.4817604115028580  0.3300883109411208   T   T   T
  0.5044129041644138  0.2701691790490234  0.3015716877420897   T   T   T
  0.4987026136022208  0.6067787187075667  0.3164516862829922   T   T   T
  0.7471028215947301  0.7292798429527335  0.2910104582840900   T   T   T
  0.4980891016076091  0.8534390555741677  0.2788660706101572   T   T   T
  0.7487649712110130  0.8952213839943335  0.2763277312453996   T   T   T
  0.7502100866308221  0.9790058234724763  0.2747782245335887   T   T   T
  0.4965915252465368  0.7700782390189812  0.2866648841169372   T   T   T
  0.7452932895776060  0.6470290744410633  0.3043587925990520   T   T   T
  0.2456615279141667  0.6462493307637726  0.3086530589953231   T   T   T
  0.0005392804653686  0.0210066560648410  0.2756204199013430   T   T   T
  0.5128791134834311  0.5271122171709053  0.3388012889531160   T   T   T
  0.9836305839086668  0.5271702709278021  0.3317078092414334   T   T   T
  0.2547011191827693  0.3842913355830303  0.3357320192409102   T   T   T
  0.2420564109105719  0.4789622940154160  0.3905316292447744   T   T   T
 
  0.00000000E+00  0.00000000E+00  0.00000000E+00
  0.00000000E+00  0.00000000E+00  0.00000000E+00
  0.00000000E+00  0.00000000E+00  0.00000000E+00
  0.00000000E+00  0.00000000E+00  0.00000000E+00
  0.00000000E+00  0.00000000E+00  0.00000000E+00
  0.00000000E+00  0.00000000E+00  0.00000000E+00
  0.00000000E+00  0.00000000E+00  0.00000000E+00
  0.00000000E+00  0.00000000E+00  0.00000000E+00
  0.00000000E+00  0.00000000E+00  0.00000000E+00
  0.00000000E+00  0.00000000E+00  0.00000000E+00
  0.00000000E+00  0.00000000E+00  0.00000000E+00
  0.00000000E+00  0.00000000E+00  0.00000000E+00
  0.00000000E+00  0.00000000E+00  0.00000000E+00
  0.00000000E+00  0.00000000E+00  0.00000000E+00
  0.00000000E+00  0.00000000E+00  0.00000000E+00
  0.00000000E+00  0.00000000E+00  0.00000000E+00
  0.00000000E+00  0.00000000E+00  0.00000000E+00
  0.00000000E+00  0.00000000E+00  0.00000000E+00
  0.00000000E+00  0.00000000E+00  0.00000000E+00
  0.00000000E+00  0.00000000E+00  0.00000000E+00
  0.00000000E+00  0.00000000E+00  0.00000000E+00
  0.00000000E+00  0.00000000E+00  0.00000000E+00
  0.00000000E+00  0.00000000E+00  0.00000000E+00
  0.00000000E+00  0.00000000E+00  0.00000000E+00
  0.00000000E+00  0.00000000E+00  0.00000000E+00
  0.00000000E+00  0.00000000E+00  0.00000000E+00
  0.00000000E+00  0.00000000E+00  0.00000000E+00
  0.00000000E+00  0.00000000E+00  0.00000000E+00
  0.00000000E+00  0.00000000E+00  0.00000000E+00
  0.00000000E+00  0.00000000E+00  0.00000000E+00
  0.00000000E+00  0.00000000E+00  0.00000000E+00
  0.00000000E+00  0.00000000E+00  0.00000000E+00
