Title                                   
   1.00000000000000     
     9.8694509999999998    0.0000000000000000    0.0000000000000000
     0.0000000000000000    8.5490480000000009    0.0000000000000000
     0.0000000000000000    0.0000000000000000   20.0000000000000000
    28     3     1
Selective dynamics
Direct
  0.0561843465597529  0.0915845094374841  0.0845430663119676   T   T   T
  0.9302484025388336  0.1737571009780452  0.0878289399127095   T   T   T
  0.0555183767269755  0.9243910832934853  0.0840138327245052   T   T   T
  0.9291808377452264  0.3412999227111951  0.0931203943175818   T   T   T
  0.0559147537811098  0.5895274551771614  0.0871327719793813   T   T   T
  0.9314747673976540  0.6728914531075929  0.0922606026453082   T   T   T
  0.0564794028900562  0.4237066422122855  0.0890841796554293   T   T   T
  0.9312172725440756  0.8395329552982483  0.0878312312793218   T   T   T
  0.3050452118216219  0.0896451473737621  0.0871823846037177   T   T   T
  0.1817929531139176  0.1746948646167006  0.0857927810773886   T   T   T
  0.3052706063393570  0.9243258251070413  0.0868239267967009   T   T   T
  0.1841890250165978  0.3427218799947327  0.0873898384773882   T   T   T
  0.3076428773457576  0.5953422896255768  0.0884945307640982   T   T   T
  0.1806305376528759  0.6737569477895583  0.0846326324164980   T   T   T
  0.3110220043923456  0.4253844317170422  0.0897089845482645   T   T   T
  0.1805187485952466  0.8403820390993681  0.0841491435084528   T   T   T
  0.5555682577012516  0.0827530163947603  0.0955237090656193   T   T   T
  0.4318396797942041  0.1674802589368550  0.0916960431944551   T   T   T
  0.4363475026737285  0.3341069428931702  0.0950540139511371   T   T   T
  0.4274393773821467  0.8372530876862477  0.0932568832848984   T   T   T
  0.8070742889768743  0.0882615451597359  0.0891666182477518   T   T   T
  0.6806718955666767  0.1669948069572079  0.0950457633365767   T   T   T
  0.8056924512928070  0.9220592200885466  0.0895464691406301   T   T   T
  0.6776992315965356  0.3332214437911714  0.1023570267763040   T   T   T
  0.8085303300216603  0.5932398752616271  0.1089026661705483   T   T   T
  0.6948352524687849  0.6860813232049640  0.1288578386585546   T   T   T
  0.8043876960934950  0.4234650547197357  0.1038686631084029   T   T   T
  0.6841513257919112  0.8382976641028870  0.1042183820761973   T   T   T
  0.4249684165454855  0.6813114196673129  0.0945409837507100   T   T   T
  0.5560835459239113  0.4069680127873209  0.1058100349489356   T   T   T
  0.5549995920601044  0.9184931746063185  0.0994426180425070   T   T   T
  0.5470200316490249  0.5873146062028693  0.1683980452280928   T   T   T
 
  0.00000000E+00  0.00000000E+00  0.00000000E+00
  0.00000000E+00  0.00000000E+00  0.00000000E+00
  0.00000000E+00  0.00000000E+00  0.00000000E+00
  0.00000000E+00  0.00000000E+00  0.00000000E+00
  0.00000000E+00  0.00000000E+00  0.00000000E+00
  0.00000000E+00  0.00000000E+00  0.00000000E+00
  0.00000000E+00  0.00000000E+00  0.00000000E+00
  0.00000000E+00  0.00000000E+00  0.00000000E+00
  0.00000000E+00  0.00000000E+00  0.00000000E+00
  0.00000000E+00  0.00000000E+00  0.00000000E+00
  0.00000000E+00  0.00000000E+00  0.00000000E+00
  0.00000000E+00  0.00000000E+00  0.00000000E+00
  0.00000000E+00  0.00000000E+00  0.00000000E+00
  0.00000000E+00  0.00000000E+00  0.00000000E+00
  0.00000000E+00  0.00000000E+00  0.00000000E+00
  0.00000000E+00  0.00000000E+00  0.00000000E+00
  0.00000000E+00  0.00000000E+00  0.00000000E+00
  0.00000000E+00  0.00000000E+00  0.00000000E+00
  0.00000000E+00  0.00000000E+00  0.00000000E+00
  0.00000000E+00  0.00000000E+00  0.00000000E+00
  0.00000000E+00  0.00000000E+00  0.00000000E+00
  0.00000000E+00  0.00000000E+00  0.00000000E+00
  0.00000000E+00  0.00000000E+00  0.00000000E+00
  0.00000000E+00  0.00000000E+00  0.00000000E+00
  0.00000000E+00  0.00000000E+00  0.00000000E+00
  0.00000000E+00  0.00000000E+00  0.00000000E+00
  0.00000000E+00  0.00000000E+00  0.00000000E+00
  0.00000000E+00  0.00000000E+00  0.00000000E+00
  0.00000000E+00  0.00000000E+00  0.00000000E+00
  0.00000000E+00  0.00000000E+00  0.00000000E+00
  0.00000000E+00  0.00000000E+00  0.00000000E+00
  0.00000000E+00  0.00000000E+00  0.00000000E+00
