Title                                   
   1.00000000000000     
     4.9440799999999996    0.0000000000000000    0.0000000000000000
     0.0000000000000000   17.1295089999999988    0.0000000000000000
     0.0000000000000000    0.0000000000000000   20.0000000000000000
    30     1
Selective dynamics
Direct
 -0.0014083028030423  0.1043443366417421  0.2929107419680697   T   T   T
  0.2487835355657645  0.1465614089830393  0.2945570124379990   T   T   T
  0.2485972536719953  0.2293937204304812  0.3004176894700784   T   T   T
 -0.0025381429967381  0.2710539386125544  0.3065297309481502   T   T   T
 -0.0024385412970395  0.6038825368389291  0.3068451602843484   T   T   T
  0.2489146227375762  0.7283587473846671  0.2947805102180665   T   T   T
 -0.0012528795691572  0.8538925534337319  0.2904766348132496   T   T   T
  0.2489063197813119  0.8958357610307152  0.2896596532852765   T   T   T
  0.2487871478787985  0.9791010972260464  0.2895934874480587   T   T   T
 -0.0012892186497805  0.7705809151495846  0.2930701706690813   T   T   T
  0.4989528228220284  0.1044428655950494  0.2915233238610692   T   T   T
  0.7487960882724705  0.1460551843496697  0.2933218202340902   T   T   T
  0.7489110774301941  0.2294593357291271  0.2976513403945331   T   T   T
  0.4988233370276011  0.0210709928894009  0.2896747615651150   T   T   T
  0.7524595036382210  0.3936600146699415  0.3087973233717977   T   T   T
  0.7525484207092400  0.4812685166772467  0.3089430423881393   T   T   T
  0.4989908680175728  0.2719926156356725  0.2983913138785918   T   T   T
  0.4991202138783261  0.6029625417369109  0.2987187277527011   T   T   T
  0.7489380186353231  0.7288653725615930  0.2935487304323490   T   T   T
  0.4989523357428154  0.8538378916284141  0.2897874204217464   T   T   T
  0.7487547735408856  0.8956798792574233  0.2894192852067498   T   T   T
  0.7486488821448428  0.9792304676284067  0.2893621633548712   T   T   T
  0.4990835978251821  0.7704642619586745  0.2916908824416000   T   T   T
  0.7490362197544327  0.6454807497761891  0.2979709504048264   T   T   T
  0.2487169314285860  0.6455487747428932  0.3007578936714749   T   T   T
 -0.0014000120065887  0.0210265757906280  0.2903716713185696   T   T   T
  0.5074008821971602  0.5200609516923649  0.2986646654200299   T   T   T
  0.9948673892667959  0.5224547782355907  0.3211748358090288   T   T   T
  0.5072568037071082  0.3549072007908944  0.2984487685934483   T   T   T
 -0.0052229286071735  0.3524586435278888  0.3209224217539641   T   T   T
  0.2813099802552881  0.4374093693945243  0.3570778661828792   T   T   T
 
  0.00000000E+00  0.00000000E+00  0.00000000E+00
  0.00000000E+00  0.00000000E+00  0.00000000E+00
  0.00000000E+00  0.00000000E+00  0.00000000E+00
  0.00000000E+00  0.00000000E+00  0.00000000E+00
  0.00000000E+00  0.00000000E+00  0.00000000E+00
  0.00000000E+00  0.00000000E+00  0.00000000E+00
  0.00000000E+00  0.00000000E+00  0.00000000E+00
  0.00000000E+00  0.00000000E+00  0.00000000E+00
  0.00000000E+00  0.00000000E+00  0.00000000E+00
  0.00000000E+00  0.00000000E+00  0.00000000E+00
  0.00000000E+00  0.00000000E+00  0.00000000E+00
  0.00000000E+00  0.00000000E+00  0.00000000E+00
  0.00000000E+00  0.00000000E+00  0.00000000E+00
  0.00000000E+00  0.00000000E+00  0.00000000E+00
  0.00000000E+00  0.00000000E+00  0.00000000E+00
  0.00000000E+00  0.00000000E+00  0.00000000E+00
  0.00000000E+00  0.00000000E+00  0.00000000E+00
  0.00000000E+00  0.00000000E+00  0.00000000E+00
  0.00000000E+00  0.00000000E+00  0.00000000E+00
  0.00000000E+00  0.00000000E+00  0.00000000E+00
  0.00000000E+00  0.00000000E+00  0.00000000E+00
  0.00000000E+00  0.00000000E+00  0.00000000E+00
  0.00000000E+00  0.00000000E+00  0.00000000E+00
  0.00000000E+00  0.00000000E+00  0.00000000E+00
  0.00000000E+00  0.00000000E+00  0.00000000E+00
  0.00000000E+00  0.00000000E+00  0.00000000E+00
  0.00000000E+00  0.00000000E+00  0.00000000E+00
  0.00000000E+00  0.00000000E+00  0.00000000E+00
  0.00000000E+00  0.00000000E+00  0.00000000E+00
  0.00000000E+00  0.00000000E+00  0.00000000E+00
  0.00000000E+00  0.00000000E+00  0.00000000E+00
