Title                                   
   1.00000000000000     
     4.9440799999999996    0.0000000000000000    0.0000000000000000
     0.0000000000000000   17.1295089999999988    0.0000000000000000
     0.0000000000000000    0.0000000000000000   20.0000000000000000
    30     1     1
Selective dynamics
Direct
 -0.0000401464145619  0.1032858261069796  0.2776294924203455   T   T   T
  0.2499316160264150  0.1449705463739257  0.2788513800240708   T   T   T
  0.2499399665886838  0.2284251304184149  0.2842160506337472   T   T   T
  0.0061484371772349  0.3526813018803085  0.2993493280396428   T   T   T
 -0.0004103198649319  0.2696870115256248  0.2886633053567648   T   T   T
 -0.0037918796611892  0.6070832424280637  0.3263694279839703   T   T   T
  0.2498623588535977  0.7287739263097189  0.3035597623675833   T   T   T
  0.0002270573220161  0.8531311888313969  0.2866875166853026   T   T   T
  0.2498819720936643  0.8947942830280858  0.2832923838032120   T   T   T
  0.2499035720680512  0.9780744639402115  0.2784834229569573   T   T   T
  0.0004056214986828  0.7703904895900527  0.2962426789758786   T   T   T
  0.4999055672424978  0.1032856622752623  0.2776302820110394   T   T   T
  0.7499359228977573  0.1449935162430233  0.2792561507472345   T   T   T
  0.7499452411591764  0.2282268524338130  0.2849973601019484   T   T   T
  0.4999942418261294  0.0197402398330611  0.2773303168141355   T   T   T
  0.4937193951740110  0.3526788587008476  0.2993506426174737   T   T   T
  0.7499243462359101  0.3952084959187494  0.3095925420632668   T   T   T
  0.7498999895517142  0.4770748541610753  0.3279086395315561   T   T   T
  0.5003023964121962  0.2696836373129564  0.2886645873521113   T   T   T
  0.5035153287996882  0.6070874631427535  0.3263632977466123   T   T   T
  0.7498542359029293  0.7297194068143269  0.3011754715305552   T   T   T
  0.4995377732387784  0.8531374335272239  0.2866859065169911   T   T   T
  0.7498956405913806  0.8945755655597621  0.2829748037091267   T   T   T
  0.7499073071364617  0.9779533000296843  0.2784043087159297   T   T   T
  0.4993246651782786  0.7703964282002889  0.2962390316177543   T   T   T
  0.7498627607470180  0.6482215699307343  0.3150783830752014   T   T   T
  0.2498540840813694  0.6473397846886676  0.3201716816471492   T   T   T
 -0.0001736649705289  0.0197423078487137  0.2773311736309453   T   T   T
  0.5213536541753269  0.5262007270590122  0.3426051382925645   T   T   T
  0.9783965742434332  0.5261994069569652  0.3426239140471963   T   T   T
  0.2499323975336444  0.3901848808116831  0.3024036671644130   T   T   T
  0.2498768871551712  0.4856031981186067  0.4024329518192710   T   T   T
 
  0.00000000E+00  0.00000000E+00  0.00000000E+00
  0.00000000E+00  0.00000000E+00  0.00000000E+00
  0.00000000E+00  0.00000000E+00  0.00000000E+00
  0.00000000E+00  0.00000000E+00  0.00000000E+00
  0.00000000E+00  0.00000000E+00  0.00000000E+00
  0.00000000E+00  0.00000000E+00  0.00000000E+00
  0.00000000E+00  0.00000000E+00  0.00000000E+00
  0.00000000E+00  0.00000000E+00  0.00000000E+00
  0.00000000E+00  0.00000000E+00  0.00000000E+00
  0.00000000E+00  0.00000000E+00  0.00000000E+00
  0.00000000E+00  0.00000000E+00  0.00000000E+00
  0.00000000E+00  0.00000000E+00  0.00000000E+00
  0.00000000E+00  0.00000000E+00  0.00000000E+00
  0.00000000E+00  0.00000000E+00  0.00000000E+00
  0.00000000E+00  0.00000000E+00  0.00000000E+00
  0.00000000E+00  0.00000000E+00  0.00000000E+00
  0.00000000E+00  0.00000000E+00  0.00000000E+00
  0.00000000E+00  0.00000000E+00  0.00000000E+00
  0.00000000E+00  0.00000000E+00  0.00000000E+00
  0.00000000E+00  0.00000000E+00  0.00000000E+00
  0.00000000E+00  0.00000000E+00  0.00000000E+00
  0.00000000E+00  0.00000000E+00  0.00000000E+00
  0.00000000E+00  0.00000000E+00  0.00000000E+00
  0.00000000E+00  0.00000000E+00  0.00000000E+00
  0.00000000E+00  0.00000000E+00  0.00000000E+00
  0.00000000E+00  0.00000000E+00  0.00000000E+00
  0.00000000E+00  0.00000000E+00  0.00000000E+00
  0.00000000E+00  0.00000000E+00  0.00000000E+00
  0.00000000E+00  0.00000000E+00  0.00000000E+00
  0.00000000E+00  0.00000000E+00  0.00000000E+00
  0.00000000E+00  0.00000000E+00  0.00000000E+00
  0.00000000E+00  0.00000000E+00  0.00000000E+00
