Title                                   
   1.00000000000000     
     9.8694509999999998    0.0000000000000000    0.0000000000000000
     0.0000000000000000    8.5490480000000009    0.0000000000000000
     0.0000000000000000    0.0000000000000000   20.0000000000000000
    26     4     1
Selective dynamics
Direct
  0.0542922911413711  0.0886131734282050  0.0923912438026258   T   T   T
  0.9297748505012141  0.1734959836600673  0.0874226137270058   T   T   T
  0.0563666870677530  0.9210664441195798  0.0929456300424145   T   T   T
  0.9323083902268057  0.3396252078244346  0.0889240388263470   T   T   T
  0.0556090774784780  0.5908591102671114  0.0954377662741809   T   T   T
  0.0553857693854915  0.4236648192807577  0.0947697612704580   T   T   T
  0.9303836007733262  0.8389949942504388  0.0896111314792239   T   T   T
  0.3060198930670190  0.0880253209294187  0.0997772690411341   T   T   T
  0.1795293916140472  0.1696762347929040  0.0976877622749564   T   T   T
  0.1798340225891442  0.3378445570686142  0.0988819827367794   T   T   T
  0.3046618675596523  0.5857006235133040  0.1047043229652685   T   T   T
  0.1805256468739087  0.6717615433760199  0.0986324898138371   T   T   T
  0.3034606780940553  0.4178036879819804  0.1055140292949733   T   T   T
  0.1820396256321609  0.8396846271076768  0.0970628865599273   T   T   T
  0.4285802962523487  0.1762991209382176  0.1018332108721211   T   T   T
  0.5529722119212682  0.9251938835649164  0.0933084479515118   T   T   T
  0.4303615733594899  0.6661167972217872  0.1098957215002840   T   T   T
  0.4312134268978600  0.8342464481447316  0.1019220842528699   T   T   T
  0.8030944205287942  0.0907836374046691  0.0836697549936057   T   T   T
  0.6775537602307699  0.1754282698352284  0.0824930576562417   T   T   T
  0.8054250584679368  0.9228620986393415  0.0849072126762584   T   T   T
  0.6815452694195038  0.3415451798795253  0.0793715642473363   T   T   T
  0.8078985019730198  0.5926908957258554  0.0849521084431662   T   T   T
  0.6838659185146692  0.6773444072474836  0.0862598427156281   T   T   T
  0.8083059959114879  0.4234493083480347  0.0821008523785613   T   T   T
  0.6771814813227209  0.8443787093305768  0.0850218545040230   T   T   T
  0.9324384027177486  0.6732627871484821  0.0913582381858590   T   T   T
  0.5521759578124545  0.0940856299545067  0.0923950944812567   T   T   T
  0.4257420871348093  0.3381134176668965  0.1114443001778059   T   T   T
  0.3054018712734046  0.9199155273503981  0.0989313898889796   T   T   T
  0.5891869742573057  0.5083425539988582  0.1273373369654073   T   T   T
 
  0.00000000E+00  0.00000000E+00  0.00000000E+00
  0.00000000E+00  0.00000000E+00  0.00000000E+00
  0.00000000E+00  0.00000000E+00  0.00000000E+00
  0.00000000E+00  0.00000000E+00  0.00000000E+00
  0.00000000E+00  0.00000000E+00  0.00000000E+00
  0.00000000E+00  0.00000000E+00  0.00000000E+00
  0.00000000E+00  0.00000000E+00  0.00000000E+00
  0.00000000E+00  0.00000000E+00  0.00000000E+00
  0.00000000E+00  0.00000000E+00  0.00000000E+00
  0.00000000E+00  0.00000000E+00  0.00000000E+00
  0.00000000E+00  0.00000000E+00  0.00000000E+00
  0.00000000E+00  0.00000000E+00  0.00000000E+00
  0.00000000E+00  0.00000000E+00  0.00000000E+00
  0.00000000E+00  0.00000000E+00  0.00000000E+00
  0.00000000E+00  0.00000000E+00  0.00000000E+00
  0.00000000E+00  0.00000000E+00  0.00000000E+00
  0.00000000E+00  0.00000000E+00  0.00000000E+00
  0.00000000E+00  0.00000000E+00  0.00000000E+00
  0.00000000E+00  0.00000000E+00  0.00000000E+00
  0.00000000E+00  0.00000000E+00  0.00000000E+00
  0.00000000E+00  0.00000000E+00  0.00000000E+00
  0.00000000E+00  0.00000000E+00  0.00000000E+00
  0.00000000E+00  0.00000000E+00  0.00000000E+00
  0.00000000E+00  0.00000000E+00  0.00000000E+00
  0.00000000E+00  0.00000000E+00  0.00000000E+00
  0.00000000E+00  0.00000000E+00  0.00000000E+00
  0.00000000E+00  0.00000000E+00  0.00000000E+00
  0.00000000E+00  0.00000000E+00  0.00000000E+00
  0.00000000E+00  0.00000000E+00  0.00000000E+00
  0.00000000E+00  0.00000000E+00  0.00000000E+00
  0.00000000E+00  0.00000000E+00  0.00000000E+00
