Title                                   
   1.00000000000000     
     4.9440799999999996    0.0000000000000000    0.0000000000000000
     0.0000000000000000   17.1295089999999988    0.0000000000000000
     0.0000000000000000    0.0000000000000000   20.0000000000000000
    29     1     1
Selective dynamics
Direct
 -0.0008126488127252  0.1048004946359961  0.2954240867619140   T   T   T
  0.2487194900571057  0.1471018391094690  0.2957697288583371   T   T   T
  0.2483981776600435  0.2306177894349634  0.2988408369368660   T   T   T
  0.0017409236968156  0.2748003607265827  0.3042481906162813   T   T   T
  0.0009004728605930  0.6007462415068970  0.3027406871338090   T   T   T
  0.2480256685555532  0.7268311629797017  0.2955544354891564   T   T   T
 -0.0001679733530375  0.8529472028495444  0.2942370675185057   T   T   T
  0.2491920321387422  0.8951276264854728  0.2938786904899775   T   T   T
  0.2494066657875071  0.9790815670099310  0.2939130138818657   T   T   T
 -0.0007816823876903  0.7688674412345257  0.2951643460396545   T   T   T
  0.4997893844014243  0.1052621808577822  0.2942724428181944   T   T   T
  0.7503687531167923  0.1473902652544540  0.2954011533102256   T   T   T
  0.7512449473783810  0.2315358067130442  0.2975849358775842   T   T   T
  0.4994145927919589  0.0212210134252300  0.2937476521727863   T   T   T
  0.7469251874854859  0.3964337036649888  0.3059505316110990   T   T   T
  0.7460298065176268  0.4813795928569044  0.3051164409032145   T   T   T
  0.4978002899193971  0.2719707322154502  0.2967334261094741   T   T   T
  0.4946834015416360  0.6031607706379083  0.2952763976004303   T   T   T
  0.7492681603240320  0.7271823985700623  0.2947099831108774   T   T   T
  0.4981046119046251  0.8527601307919089  0.2936334588242552   T   T   T
  0.7488767292831939  0.8947418570419006  0.2937500562243119   T   T   T
  0.7489983437956419  0.9788044054280538  0.2938285581645834   T   T   T
  0.4981955589294319  0.7685540411722148  0.2940187204033938   T   T   T
  0.7490870875961421  0.6439820901528865  0.2960431721592457   T   T   T
 -0.0009210824296543  0.0209819981255362  0.2943563155228610   T   T   T
  0.4975021965094295  0.5211849475670433  0.2977905678435988   T   T   T
 -0.0004886099394042  0.5189274219762322  0.3151266973057757   T   T   T
  0.5030490119518914  0.3547592858736189  0.2997471507648464   T   T   T
 -0.0014843150595078  0.3579481249246519  0.3163880073486081   T   T   T
  0.2474129090925106  0.6445955448207625  0.2978821601787955   T   T   T
  0.2915289086860596  0.4376439619562809  0.3439310880194227   T   T   T
 
  0.00000000E+00  0.00000000E+00  0.00000000E+00
  0.00000000E+00  0.00000000E+00  0.00000000E+00
  0.00000000E+00  0.00000000E+00  0.00000000E+00
  0.00000000E+00  0.00000000E+00  0.00000000E+00
  0.00000000E+00  0.00000000E+00  0.00000000E+00
  0.00000000E+00  0.00000000E+00  0.00000000E+00
  0.00000000E+00  0.00000000E+00  0.00000000E+00
  0.00000000E+00  0.00000000E+00  0.00000000E+00
  0.00000000E+00  0.00000000E+00  0.00000000E+00
  0.00000000E+00  0.00000000E+00  0.00000000E+00
  0.00000000E+00  0.00000000E+00  0.00000000E+00
  0.00000000E+00  0.00000000E+00  0.00000000E+00
  0.00000000E+00  0.00000000E+00  0.00000000E+00
  0.00000000E+00  0.00000000E+00  0.00000000E+00
  0.00000000E+00  0.00000000E+00  0.00000000E+00
  0.00000000E+00  0.00000000E+00  0.00000000E+00
  0.00000000E+00  0.00000000E+00  0.00000000E+00
  0.00000000E+00  0.00000000E+00  0.00000000E+00
  0.00000000E+00  0.00000000E+00  0.00000000E+00
  0.00000000E+00  0.00000000E+00  0.00000000E+00
  0.00000000E+00  0.00000000E+00  0.00000000E+00
  0.00000000E+00  0.00000000E+00  0.00000000E+00
  0.00000000E+00  0.00000000E+00  0.00000000E+00
  0.00000000E+00  0.00000000E+00  0.00000000E+00
  0.00000000E+00  0.00000000E+00  0.00000000E+00
  0.00000000E+00  0.00000000E+00  0.00000000E+00
  0.00000000E+00  0.00000000E+00  0.00000000E+00
  0.00000000E+00  0.00000000E+00  0.00000000E+00
  0.00000000E+00  0.00000000E+00  0.00000000E+00
  0.00000000E+00  0.00000000E+00  0.00000000E+00
  0.00000000E+00  0.00000000E+00  0.00000000E+00
