Title                                   
   1.00000000000000     
     9.8694509999999998    0.0000000000000000    0.0000000000000000
     0.0000000000000000    8.5490480000000009    0.0000000000000000
     0.0000000000000000    0.0000000000000000   20.0000000000000000
    27     3     1
Selective dynamics
Direct
  0.0561217601399173  0.0897850590021450  0.0934802667628605   T   T   T
  0.9316437206365690  0.1722198874857665  0.0938493260818206   T   T   T
  0.0561484872230720  0.9242021344280648  0.0934438408880716   T   T   T
  0.9351377138766119  0.3389015532016552  0.0938801934262239   T   T   T
  0.0566728237663447  0.5894441690617886  0.0933051177203277   T   T   T
  0.9351933273790224  0.6753912985433833  0.0938445069114054   T   T   T
  0.0571969555007686  0.4230607877603295  0.0933103872816965   T   T   T
  0.9325193673067205  0.8413997632887471  0.0938776329807842   T   T   T
  0.3052416488040084  0.0902274523608733  0.0947713803991854   T   T   T
  0.1800457804482585  0.1719717848174459  0.0939196736589964   T   T   T
  0.3048130656430169  0.9229050580173273  0.0946905148489694   T   T   T
  0.1788915871940108  0.3388518715602286  0.0938732068455369   T   T   T
  0.3003027965501738  0.5923606730116825  0.0949642387726839   T   T   T
  0.1779504340460498  0.6739987423403645  0.0937964046788824   T   T   T
  0.3010275282494151  0.4204123865235421  0.0950359528906082   T   T   T
  0.1799751193582370  0.8410281842930798  0.0938203790804782   T   T   T
  0.5555922461700000  0.0891852361607992  0.0959881607574592   T   T   T
  0.4284416747196311  0.1762407368189282  0.0957906969338483   T   T   T
  0.5554966867793424  0.9180624314345669  0.0959468472522414   T   T   T
  0.4271127657258366  0.8345053938129525  0.0956615485991921   T   T   T
  0.8062012489521245  0.0897159061298881  0.0947427649233578   T   T   T
  0.6823620216428302  0.1753942856597268  0.0958510613937783   T   T   T
  0.8066533999394340  0.9218892524535262  0.0947486573022566   T   T   T
  0.6909037580132060  0.3416636196532327  0.0964556162380068   T   T   T
  0.8142936034187417  0.5932205002430314  0.0951274806956284   T   T   T
  0.8140537087713101  0.4227307400668879  0.0951962805414163   T   T   T
  0.6841566091423402  0.8335652611561414  0.0957863926875574   T   T   T
  0.4202519650061647  0.3385998186077456  0.0962378766284277   T   T   T
  0.6942163420833009  0.6717394404326517  0.0963156028473496   T   T   T
  0.4180143160194036  0.6748281061920521  0.0960372620379221   T   T   T
  0.5565025374941464  0.5033734654814580  0.0972157279330683   T   T   T
 
  0.00000000E+00  0.00000000E+00  0.00000000E+00
  0.00000000E+00  0.00000000E+00  0.00000000E+00
  0.00000000E+00  0.00000000E+00  0.00000000E+00
  0.00000000E+00  0.00000000E+00  0.00000000E+00
  0.00000000E+00  0.00000000E+00  0.00000000E+00
  0.00000000E+00  0.00000000E+00  0.00000000E+00
  0.00000000E+00  0.00000000E+00  0.00000000E+00
  0.00000000E+00  0.00000000E+00  0.00000000E+00
  0.00000000E+00  0.00000000E+00  0.00000000E+00
  0.00000000E+00  0.00000000E+00  0.00000000E+00
  0.00000000E+00  0.00000000E+00  0.00000000E+00
  0.00000000E+00  0.00000000E+00  0.00000000E+00
  0.00000000E+00  0.00000000E+00  0.00000000E+00
  0.00000000E+00  0.00000000E+00  0.00000000E+00
  0.00000000E+00  0.00000000E+00  0.00000000E+00
  0.00000000E+00  0.00000000E+00  0.00000000E+00
  0.00000000E+00  0.00000000E+00  0.00000000E+00
  0.00000000E+00  0.00000000E+00  0.00000000E+00
  0.00000000E+00  0.00000000E+00  0.00000000E+00
  0.00000000E+00  0.00000000E+00  0.00000000E+00
  0.00000000E+00  0.00000000E+00  0.00000000E+00
  0.00000000E+00  0.00000000E+00  0.00000000E+00
  0.00000000E+00  0.00000000E+00  0.00000000E+00
  0.00000000E+00  0.00000000E+00  0.00000000E+00
  0.00000000E+00  0.00000000E+00  0.00000000E+00
  0.00000000E+00  0.00000000E+00  0.00000000E+00
  0.00000000E+00  0.00000000E+00  0.00000000E+00
  0.00000000E+00  0.00000000E+00  0.00000000E+00
  0.00000000E+00  0.00000000E+00  0.00000000E+00
  0.00000000E+00  0.00000000E+00  0.00000000E+00
  0.00000000E+00  0.00000000E+00  0.00000000E+00
