Title                                   
   1.00000000000000     
     9.8694509999999998    0.0000000000000000    0.0000000000000000
     0.0000000000000000    8.5490480000000009    0.0000000000000000
     0.0000000000000000    0.0000000000000000   20.0000000000000000
    26     4     1
Selective dynamics
Direct
  0.0552759466439022  0.0895773777417156  0.0852515470859510   T   T   T
  0.9303744459645344  0.1718579860986402  0.0877488231662974   T   T   T
  0.0569289072716962  0.9230054609288421  0.0854139405166053   T   T   T
  0.9332854923988526  0.3391537784557490  0.0876927856706310   T   T   T
  0.0577992747944173  0.5895912238391733  0.0821971306056440   T   T   T
  0.9335422584717862  0.6730119699817553  0.0876842639906198   T   T   T
  0.0577492651348001  0.4228143775414668  0.0821546967652735   T   T   T
  0.9312334753986834  0.8400973116138666  0.0878458605912994   T   T   T
  0.3064028534291106  0.0878090259956508  0.0900567158328837   T   T   T
  0.1815407688746387  0.1717022138135422  0.0854115830116592   T   T   T
  0.1816998803239196  0.3389237076372211  0.0832892402618060   T   T   T
  0.3057731116803541  0.5902235681759291  0.0891545876823176   T   T   T
  0.1821596025923682  0.6730083680554129  0.0833537127638103   T   T   T
  0.3058994254223905  0.4211892230070342  0.0889872570913781   T   T   T
  0.1813644701895471  0.8399134401369357  0.0857973938457680   T   T   T
  0.4288817140731792  0.1744833108229032  0.0975156330554129   T   T   T
  0.5526327277171035  0.9221233596254846  0.1025600743009763   T   T   T
  0.4279794135630628  0.8384491443721084  0.0986119960125111   T   T   T
  0.8035378393660324  0.0894627850637135  0.0925837634453745   T   T   T
  0.6803040189087849  0.1763951172301005  0.1020721356922897   T   T   T
  0.8050692504101993  0.9221623945731846  0.0929858574855949   T   T   T
  0.6883971851162534  0.3401957125892168  0.1131240727586123   T   T   T
  0.8127295009909714  0.5902688618121611  0.0990924347691948   T   T   T
  0.6894330759202704  0.6719427876083696  0.1131123251958071   T   T   T
  0.8126799355611233  0.4214176010009819  0.0991742453748994   T   T   T
  0.6805523136716448  0.8372506133043072  0.1032065131591887   T   T   T
  0.5536662613040341  0.0929708398445358  0.1019882880514013   T   T   T
  0.4239614435271528  0.3345702569547158  0.1009076306646938   T   T   T
  0.4224334901488128  0.6775053456745014  0.1025367093938740   T   T   T
  0.3054783667425093  0.9227508883247798  0.0902347197951229   T   T   T
  0.5543692843878816  0.5070469481760046  0.1392190619631501   T   T   T
 
  0.00000000E+00  0.00000000E+00  0.00000000E+00
  0.00000000E+00  0.00000000E+00  0.00000000E+00
  0.00000000E+00  0.00000000E+00  0.00000000E+00
  0.00000000E+00  0.00000000E+00  0.00000000E+00
  0.00000000E+00  0.00000000E+00  0.00000000E+00
  0.00000000E+00  0.00000000E+00  0.00000000E+00
  0.00000000E+00  0.00000000E+00  0.00000000E+00
  0.00000000E+00  0.00000000E+00  0.00000000E+00
  0.00000000E+00  0.00000000E+00  0.00000000E+00
  0.00000000E+00  0.00000000E+00  0.00000000E+00
  0.00000000E+00  0.00000000E+00  0.00000000E+00
  0.00000000E+00  0.00000000E+00  0.00000000E+00
  0.00000000E+00  0.00000000E+00  0.00000000E+00
  0.00000000E+00  0.00000000E+00  0.00000000E+00
  0.00000000E+00  0.00000000E+00  0.00000000E+00
  0.00000000E+00  0.00000000E+00  0.00000000E+00
  0.00000000E+00  0.00000000E+00  0.00000000E+00
  0.00000000E+00  0.00000000E+00  0.00000000E+00
  0.00000000E+00  0.00000000E+00  0.00000000E+00
  0.00000000E+00  0.00000000E+00  0.00000000E+00
  0.00000000E+00  0.00000000E+00  0.00000000E+00
  0.00000000E+00  0.00000000E+00  0.00000000E+00
  0.00000000E+00  0.00000000E+00  0.00000000E+00
  0.00000000E+00  0.00000000E+00  0.00000000E+00
  0.00000000E+00  0.00000000E+00  0.00000000E+00
  0.00000000E+00  0.00000000E+00  0.00000000E+00
  0.00000000E+00  0.00000000E+00  0.00000000E+00
  0.00000000E+00  0.00000000E+00  0.00000000E+00
  0.00000000E+00  0.00000000E+00  0.00000000E+00
  0.00000000E+00  0.00000000E+00  0.00000000E+00
  0.00000000E+00  0.00000000E+00  0.00000000E+00
