Title                                   
   1.00000000000000     
     4.9440799999999996    0.0000000000000000    0.0000000000000000
     0.0000000000000000    8.5647549999999999    0.0000000000000000
     0.0000000000000000    0.0000000000000000   20.0000000000000000
    11     3     1
Selective dynamics
Direct
  0.0025974554691070  0.2973459558713797  0.1015883207698566   T   T   T
  0.2436585005922991  0.0408160129653448  0.0967000923343128   T   T   T
 -0.0063434452590800  0.9533741157054968  0.1024594587397826   T   T   T
  0.7537420901844053  0.2079755058900602  0.0947385989499329   T   T   T
  0.5028842812813141  0.2906481054592185  0.0935618520234239   T   T   T
  0.7489454129704066  0.0395250216394985  0.0938605469380695   T   T   T
  0.7381173921695932  0.7098158214968578  0.0996425802958367   T   T   T
  0.7471568775391340  0.5374457360129556  0.0995645014895818   T   T   T
  0.4928565021008333  0.9608374739550839  0.0894950411248852   T   T   T
  0.4984927799176561  0.7942229937794986  0.0868979124852096   T   T   T
 -0.0037650925598405  0.4628931958370478  0.1112841634170194   T   T   T
  0.5075118809200743  0.4515113021202212  0.0932617257204311   T   T   T
 -0.0148672912590422  0.7875755578874682  0.1183954414376359   T   T   T
  0.2488786783221446  0.2104951963884939  0.0974772220768753   T   T   T
  0.2901339776109957  0.6271990049913762  0.1290525421971497   T   T   T
 
  0.00000000E+00  0.00000000E+00  0.00000000E+00
  0.00000000E+00  0.00000000E+00  0.00000000E+00
  0.00000000E+00  0.00000000E+00  0.00000000E+00
  0.00000000E+00  0.00000000E+00  0.00000000E+00
  0.00000000E+00  0.00000000E+00  0.00000000E+00
  0.00000000E+00  0.00000000E+00  0.00000000E+00
  0.00000000E+00  0.00000000E+00  0.00000000E+00
  0.00000000E+00  0.00000000E+00  0.00000000E+00
  0.00000000E+00  0.00000000E+00  0.00000000E+00
  0.00000000E+00  0.00000000E+00  0.00000000E+00
  0.00000000E+00  0.00000000E+00  0.00000000E+00
  0.00000000E+00  0.00000000E+00  0.00000000E+00
  0.00000000E+00  0.00000000E+00  0.00000000E+00
  0.00000000E+00  0.00000000E+00  0.00000000E+00
  0.00000000E+00  0.00000000E+00  0.00000000E+00
