Title                                   
   1.00000000000000     
     8.5490480000000009    0.0000000000000000    0.0000000000000000
     0.0000000000000000    8.5490480000000009    0.0000000000000000
     0.0000000000000000    0.0000000000000000   20.0000000000000000
    23     1     1
Selective dynamics
Direct
  0.9110511916177881  0.2070473993602092  0.0954378231185371   T   T   T
  0.9059051559692518  0.5026490813864161  0.0953081743921919   T   T   T
  0.9109919123920939  0.7995216124486880  0.0954489163370155   T   T   T
  0.1980169688110220  0.0839324868322725  0.0954669205051672   T   T   T
  0.0751234181449047  0.2067973751930854  0.0954374372926858   T   T   T
  0.1982918086422062  0.9198532839496802  0.0954856257274570   T   T   T
  0.1553485946518936  0.6491462210748926  0.0953693814307870   T   T   T
  0.0747778496301759  0.5028048784424929  0.0953332941320014   T   T   T
  0.1557236404665766  0.3558949031461390  0.0953577420219732   T   T   T
  0.0757489766555791  0.7976399072743457  0.0954602539456173   T   T   T
  0.4939518835947606  0.0835806447810753  0.0953807956422294   T   T   T
  0.3470742493099331  0.1645620949996021  0.0953991814141884   T   T   T
  0.4938495904578648  0.9146974190972238  0.0953667225725586   T   T   T
  0.3468031508043485  0.8369416685559524  0.0954122586280193   T   T   T
  0.7888128630035697  0.0845160192616499  0.0954623604967930   T   T   T
  0.6403136738216693  0.1641010318478008  0.0953673120018573   T   T   T
  0.7907475990678456  0.9197496617817282  0.0954561104865989   T   T   T
  0.8275788682337745  0.6520474067370734  0.0952996994546054   T   T   T
  0.8281688974731419  0.3555778455868756  0.0953261598268446   T   T   T
  0.6432530055342057  0.8363352249767583  0.0953099123383760   T   T   T
  0.3241129350132062  0.3329189993757756  0.0952680617814583   T   T   T
  0.3229031347868869  0.6700034068672802  0.0952816896802053   T   T   T
  0.6612374373211554  0.3316214147426649  0.0952059005009787   T   T   T
  0.6675407935391811  0.6762820251140867  0.0951303706629772   T   T   T
  0.4880844010569579  0.4965679871662436  0.0949328956088539   T   T   T
 
  0.00000000E+00  0.00000000E+00  0.00000000E+00
  0.00000000E+00  0.00000000E+00  0.00000000E+00
  0.00000000E+00  0.00000000E+00  0.00000000E+00
  0.00000000E+00  0.00000000E+00  0.00000000E+00
  0.00000000E+00  0.00000000E+00  0.00000000E+00
  0.00000000E+00  0.00000000E+00  0.00000000E+00
  0.00000000E+00  0.00000000E+00  0.00000000E+00
  0.00000000E+00  0.00000000E+00  0.00000000E+00
  0.00000000E+00  0.00000000E+00  0.00000000E+00
  0.00000000E+00  0.00000000E+00  0.00000000E+00
  0.00000000E+00  0.00000000E+00  0.00000000E+00
  0.00000000E+00  0.00000000E+00  0.00000000E+00
  0.00000000E+00  0.00000000E+00  0.00000000E+00
  0.00000000E+00  0.00000000E+00  0.00000000E+00
  0.00000000E+00  0.00000000E+00  0.00000000E+00
  0.00000000E+00  0.00000000E+00  0.00000000E+00
  0.00000000E+00  0.00000000E+00  0.00000000E+00
  0.00000000E+00  0.00000000E+00  0.00000000E+00
  0.00000000E+00  0.00000000E+00  0.00000000E+00
  0.00000000E+00  0.00000000E+00  0.00000000E+00
  0.00000000E+00  0.00000000E+00  0.00000000E+00
  0.00000000E+00  0.00000000E+00  0.00000000E+00
  0.00000000E+00  0.00000000E+00  0.00000000E+00
  0.00000000E+00  0.00000000E+00  0.00000000E+00
  0.00000000E+00  0.00000000E+00  0.00000000E+00
