Title                                   
   1.00000000000000     
     9.8694509999999998    0.0000000000000000    0.0000000000000000
     0.0000000000000000    8.5490480000000009    0.0000000000000000
     0.0000000000000000    0.0000000000000000   20.0000000000000000
    28     2     1
Selective dynamics
Direct
  0.0559356752846047  0.0888249816435586  0.0936915883648529   T   T   T
  0.9312804155262639  0.1715271718532349  0.0940929602234406   T   T   T
  0.0559332668245897  0.9234606304005413  0.0936994808804065   T   T   T
  0.9343336840838210  0.3379142070980489  0.0942204147562130   T   T   T
  0.0575098296347184  0.5892298505988658  0.0939185770919293   T   T   T
  0.9343499202108061  0.6743730894085442  0.0942072745925471   T   T   T
  0.0574928299568319  0.4230749175798319  0.0939142655169071   T   T   T
  0.9312766965486690  0.8407630975049672  0.0940897402273373   T   T   T
  0.3058934019277447  0.0903381733359559  0.0948158332984141   T   T   T
  0.1808205853652051  0.1719518882353445  0.0940623868786905   T   T   T
  0.3058864666833295  0.9219638631705173  0.0948208143972930   T   T   T
  0.1808319627349298  0.3389549666235156  0.0941670794194075   T   T   T
  0.3045242665355117  0.5917031542408585  0.0948990132807273   T   T   T
  0.1808391906212435  0.6733518056748881  0.0941798985641995   T   T   T
  0.3045209943056594  0.4205991237442602  0.0948883919485970   T   T   T
  0.1808173430665403  0.8403531237676489  0.0940784332170972   T   T   T
  0.5548887317480716  0.0906986503933710  0.0958102313465409   T   T   T
  0.4285915244777823  0.1794308531479736  0.0955006705797980   T   T   T
  0.5548955261538816  0.9215918251747940  0.0958021604998086   T   T   T
  0.4285905514930101  0.8328839092571166  0.0955197496081678   T   T   T
  0.8049712635193178  0.0903588636837060  0.0948807038173795   T   T   T
  0.6807206481184934  0.1794945792037985  0.0956928352591496   T   T   T
  0.8049781922887719  0.9219364497805370  0.0948632286636049   T   T   T
  0.6856317256742087  0.3467122851665393  0.0959559586321823   T   T   T
  0.8127738242623543  0.5902086272121660  0.0950560812421264   T   T   T
  0.6856804183888251  0.6656423061110547  0.0958991327237442   T   T   T
  0.8127566333542987  0.4220755762813000  0.0950908545346108   T   T   T
  0.6807407313768115  0.8328356161851453  0.0956446808808255   T   T   T
  0.4250047588244615  0.3411379169420584  0.0955749331927216   T   T   T
  0.4249961367621587  0.6712091251564076  0.0955833306855219   T   T   T
  0.5556678042470941  0.5062743714234629  0.0963442956757991   T   T   T
 
  0.00000000E+00  0.00000000E+00  0.00000000E+00
  0.00000000E+00  0.00000000E+00  0.00000000E+00
  0.00000000E+00  0.00000000E+00  0.00000000E+00
  0.00000000E+00  0.00000000E+00  0.00000000E+00
  0.00000000E+00  0.00000000E+00  0.00000000E+00
  0.00000000E+00  0.00000000E+00  0.00000000E+00
  0.00000000E+00  0.00000000E+00  0.00000000E+00
  0.00000000E+00  0.00000000E+00  0.00000000E+00
  0.00000000E+00  0.00000000E+00  0.00000000E+00
  0.00000000E+00  0.00000000E+00  0.00000000E+00
  0.00000000E+00  0.00000000E+00  0.00000000E+00
  0.00000000E+00  0.00000000E+00  0.00000000E+00
  0.00000000E+00  0.00000000E+00  0.00000000E+00
  0.00000000E+00  0.00000000E+00  0.00000000E+00
  0.00000000E+00  0.00000000E+00  0.00000000E+00
  0.00000000E+00  0.00000000E+00  0.00000000E+00
  0.00000000E+00  0.00000000E+00  0.00000000E+00
  0.00000000E+00  0.00000000E+00  0.00000000E+00
  0.00000000E+00  0.00000000E+00  0.00000000E+00
  0.00000000E+00  0.00000000E+00  0.00000000E+00
  0.00000000E+00  0.00000000E+00  0.00000000E+00
  0.00000000E+00  0.00000000E+00  0.00000000E+00
  0.00000000E+00  0.00000000E+00  0.00000000E+00
  0.00000000E+00  0.00000000E+00  0.00000000E+00
  0.00000000E+00  0.00000000E+00  0.00000000E+00
  0.00000000E+00  0.00000000E+00  0.00000000E+00
  0.00000000E+00  0.00000000E+00  0.00000000E+00
  0.00000000E+00  0.00000000E+00  0.00000000E+00
  0.00000000E+00  0.00000000E+00  0.00000000E+00
  0.00000000E+00  0.00000000E+00  0.00000000E+00
  0.00000000E+00  0.00000000E+00  0.00000000E+00
