Title                                   
   1.00000000000000     
     4.9440799999999996    0.0000000000000000    0.0000000000000000
     0.0000000000000000   17.1295089999999988    0.0000000000000000
     0.0000000000000000    0.0000000000000000   20.0000000000000000
    31     1
Selective dynamics
Direct
  0.0000847696517961  0.1043151184775797  0.2805702703767162   T   T   T
  0.2499039478302169  0.1457841492438647  0.2854999890667780   T   T   T
  0.2498823134453038  0.2281585512698414  0.2982858563027561   T   T   T
 -0.0025058252910842  0.3505081084370988  0.3217867057224665   T   T   T
 -0.0010346998280480  0.2687468798772010  0.3049269147454596   T   T   T
 -0.0014379027618603  0.6072308632990835  0.3148399817901568   T   T   T
  0.2498870860340920  0.7296263643846300  0.2931862599139672   T   T   T
  0.0000689686449725  0.8540295405410130  0.2776707664237768   T   T   T
  0.2498749088400658  0.8958543832129239  0.2752385170053464   T   T   T
  0.2498755900221771  0.9792495527963084  0.2737217630224196   T   T   T
  0.0000430363482712  0.7711692148398821  0.2862191014954513   T   T   T
  0.4997211537067582  0.1043144325730187  0.2805731213033044   T   T   T
  0.7499084574494070  0.1456511138582330  0.2848906692082833   T   T   T
  0.7498936433907185  0.2280239597424068  0.2967470486358902   T   T   T
  0.4998448679490186  0.0210401284657077  0.2747139783961456   T   T   T
  0.5023420181732292  0.3505086187387427  0.3217894275180749   T   T   T
  0.7499249746843946  0.3938776724906636  0.3247842473477531   T   T   T
  0.7499490644396731  0.4786787020919682  0.3274046438571274   T   T   T
  0.5008224183150769  0.2687427849098565  0.3049259533523896   T   T   T
  0.5012961362925302  0.6072483337883247  0.3148438469231095   T   T   T
  0.7498955949748717  0.7301108684176729  0.2910921080985368   T   T   T
  0.4996824871588975  0.8540361564028841  0.2776703630378863   T   T   T
  0.7498839622333396  0.8956587597170305  0.2749471192629642   T   T   T
  0.7498904778107462  0.9792680032925415  0.2735257552636192   T   T   T
  0.4997130702835742  0.7711720590747673  0.2862203025791204   T   T   T
  0.7499359361325172  0.6481752314566134  0.3046451227010296   T   T   T
  0.2499036671972977  0.6483273109395236  0.3081633118919597   T   T   T
 -0.0000807248032940  0.0210419885562516  0.2747126311305500   T   T   T
  0.5177193394140921  0.5268604008647618  0.3311845011368746   T   T   T
  0.9821772866031163  0.5268553031726194  0.3312037844169959   T   T   T
  0.2499228676799455  0.3841506206448159  0.3366347629591467   T   T   T
  0.2498341079781937  0.4801358244221596  0.3899461751138960   T   T   T
 
  0.00000000E+00  0.00000000E+00  0.00000000E+00
  0.00000000E+00  0.00000000E+00  0.00000000E+00
  0.00000000E+00  0.00000000E+00  0.00000000E+00
  0.00000000E+00  0.00000000E+00  0.00000000E+00
  0.00000000E+00  0.00000000E+00  0.00000000E+00
  0.00000000E+00  0.00000000E+00  0.00000000E+00
  0.00000000E+00  0.00000000E+00  0.00000000E+00
  0.00000000E+00  0.00000000E+00  0.00000000E+00
  0.00000000E+00  0.00000000E+00  0.00000000E+00
  0.00000000E+00  0.00000000E+00  0.00000000E+00
  0.00000000E+00  0.00000000E+00  0.00000000E+00
  0.00000000E+00  0.00000000E+00  0.00000000E+00
  0.00000000E+00  0.00000000E+00  0.00000000E+00
  0.00000000E+00  0.00000000E+00  0.00000000E+00
  0.00000000E+00  0.00000000E+00  0.00000000E+00
  0.00000000E+00  0.00000000E+00  0.00000000E+00
  0.00000000E+00  0.00000000E+00  0.00000000E+00
  0.00000000E+00  0.00000000E+00  0.00000000E+00
  0.00000000E+00  0.00000000E+00  0.00000000E+00
  0.00000000E+00  0.00000000E+00  0.00000000E+00
  0.00000000E+00  0.00000000E+00  0.00000000E+00
  0.00000000E+00  0.00000000E+00  0.00000000E+00
  0.00000000E+00  0.00000000E+00  0.00000000E+00
  0.00000000E+00  0.00000000E+00  0.00000000E+00
  0.00000000E+00  0.00000000E+00  0.00000000E+00
  0.00000000E+00  0.00000000E+00  0.00000000E+00
  0.00000000E+00  0.00000000E+00  0.00000000E+00
  0.00000000E+00  0.00000000E+00  0.00000000E+00
  0.00000000E+00  0.00000000E+00  0.00000000E+00
  0.00000000E+00  0.00000000E+00  0.00000000E+00
  0.00000000E+00  0.00000000E+00  0.00000000E+00
  0.00000000E+00  0.00000000E+00  0.00000000E+00
