Title                                   
   1.00000000000000     
     4.9440799999999996    0.0000000000000000    0.0000000000000000
     0.0000000000000000   17.1295089999999988    0.0000000000000000
     0.0000000000000000    0.0000000000000000   20.0000000000000000
    31     1
Selective dynamics
Direct
 -0.0001987660954567  0.1042233873481480  0.2839041727694407   T   T   T
  0.2496712596456933  0.1457996373108486  0.2869126544008290   T   T   T
  0.2495199024294451  0.2288997459975036  0.2953833943419832   T   T   T
 -0.0025544541519180  0.3526839066702532  0.3125167612132611   T   T   T
 -0.0010755893690987  0.2697895527495818  0.3002297519533397   T   T   T
  0.0002587984198067  0.6060221378982036  0.3143114946853560   T   T   T
  0.2503017641075440  0.7293016066400375  0.2960909023234049   T   T   T
  0.0002419867893833  0.8539596076121039  0.2838171061050768   T   T   T
  0.2500217659879060  0.8957162445013691  0.2818224072230394   T   T   T
  0.2498833216357875  0.9790888126793021  0.2801304798971000   T   T   T
  0.0004449264083163  0.7709486745716514  0.2906393889201481   T   T   T
  0.4996339836663312  0.1042181811894985  0.2839126159875739   T   T   T
  0.7496475934798600  0.1457246000251073  0.2867350137763240   T   T   T
  0.7494677804633287  0.2286993464424420  0.2948153771458220   T   T   T
  0.4998414373136711  0.0208171291040394  0.2805051258401066   T   T   T
  0.5012612607234918  0.3527539998804368  0.3125422025903285   T   T   T
  0.7493707681535796  0.3947449495554080  0.3165769779641140   T   T   T
  0.7499753168766041  0.4784501970883393  0.3240942855704994   T   T   T
  0.4999756991400913  0.2698173589970652  0.3002549476480448   T   T   T
  0.5009176194996846  0.6061666558832159  0.3148768075739796   T   T   T
  0.7503148238459024  0.7297135488274474  0.2948315758905798   T   T   T
  0.4998842058681089  0.8539683903794371  0.2838452638093352   T   T   T
  0.7500270865423563  0.8955901507567681  0.2815387099022974   T   T   T
  0.7499005385292313  0.9791111858117167  0.2799216948258621   T   T   T
  0.5000711196183093  0.7709625157018456  0.2907337003512884   T   T   T
  0.7504869353613856  0.6473971853437233  0.3062887955640184   T   T   T
  0.2505110897760064  0.6474158264816606  0.3084986091387160   T   T   T
 -0.0001305217140975  0.0208212467793115  0.2804933653258038   T   T   T
  0.5159546585500097  0.5256231759738701  0.3302662893944984   T   T   T
  0.9853552444471650  0.5252428894537492  0.3285741190879700   T   T   T
  0.2492231150096954  0.3884003256604865  0.3232207467133829   T   T   T
  0.2486183290418801  0.4764788266854256  0.3742802620664311   T   T   T
 
  0.00000000E+00  0.00000000E+00  0.00000000E+00
  0.00000000E+00  0.00000000E+00  0.00000000E+00
  0.00000000E+00  0.00000000E+00  0.00000000E+00
  0.00000000E+00  0.00000000E+00  0.00000000E+00
  0.00000000E+00  0.00000000E+00  0.00000000E+00
  0.00000000E+00  0.00000000E+00  0.00000000E+00
  0.00000000E+00  0.00000000E+00  0.00000000E+00
  0.00000000E+00  0.00000000E+00  0.00000000E+00
  0.00000000E+00  0.00000000E+00  0.00000000E+00
  0.00000000E+00  0.00000000E+00  0.00000000E+00
  0.00000000E+00  0.00000000E+00  0.00000000E+00
  0.00000000E+00  0.00000000E+00  0.00000000E+00
  0.00000000E+00  0.00000000E+00  0.00000000E+00
  0.00000000E+00  0.00000000E+00  0.00000000E+00
  0.00000000E+00  0.00000000E+00  0.00000000E+00
  0.00000000E+00  0.00000000E+00  0.00000000E+00
  0.00000000E+00  0.00000000E+00  0.00000000E+00
  0.00000000E+00  0.00000000E+00  0.00000000E+00
  0.00000000E+00  0.00000000E+00  0.00000000E+00
  0.00000000E+00  0.00000000E+00  0.00000000E+00
  0.00000000E+00  0.00000000E+00  0.00000000E+00
  0.00000000E+00  0.00000000E+00  0.00000000E+00
  0.00000000E+00  0.00000000E+00  0.00000000E+00
  0.00000000E+00  0.00000000E+00  0.00000000E+00
  0.00000000E+00  0.00000000E+00  0.00000000E+00
  0.00000000E+00  0.00000000E+00  0.00000000E+00
  0.00000000E+00  0.00000000E+00  0.00000000E+00
  0.00000000E+00  0.00000000E+00  0.00000000E+00
  0.00000000E+00  0.00000000E+00  0.00000000E+00
  0.00000000E+00  0.00000000E+00  0.00000000E+00
  0.00000000E+00  0.00000000E+00  0.00000000E+00
  0.00000000E+00  0.00000000E+00  0.00000000E+00
