Title                                   
   1.00000000000000     
     8.5490480000000009    0.0000000000000000    0.0000000000000000
     0.0000000000000000    8.5490480000000009    0.0000000000000000
     0.0000000000000000    0.0000000000000000   20.0000000000000000
    20     4     1
Selective dynamics
Direct
  0.9092389443411512  0.2063289371586135  0.0954534728915916   T   T   T
  0.9074022471465456  0.5018110595127179  0.0953125072679765   T   T   T
  0.9092545902596321  0.7972596503574381  0.0954714611262605   T   T   T
  0.1975944951167762  0.0855324079922726  0.0954920807223495   T   T   T
  0.0767945198285999  0.2063078464859954  0.0954712830764324   T   T   T
  0.1976119266913058  0.9180047987541762  0.0954961006408876   T   T   T
  0.1570312213045245  0.6503805706185882  0.0953489757461083   T   T   T
  0.0786565781948815  0.5017862410554486  0.0953306126464207   T   T   T
  0.1570172311520538  0.3531834572235087  0.0953405108446219   T   T   T
  0.0768068263341525  0.7972383828095582  0.0954816375978647   T   T   T
  0.4930077018971945  0.0874179268505351  0.0953549968650436   T   T   T
  0.3444522646668679  0.1657909396051874  0.0953564851728563   T   T   T
  0.4930101260647102  0.9161834351207456  0.0953605457892930   T   T   T
  0.3444627056436884  0.8377943688578926  0.0953614081144288   T   T   T
  0.7884402200851430  0.0855715651229509  0.0954717972600902   T   T   T
  0.6415709188290925  0.1658186958784104  0.0953286666151086   T   T   T
  0.7884483906743213  0.9180270562750609  0.0954777368423060   T   T   T
  0.8290045961159835  0.6503899528339372  0.0953199241162997   T   T   T
  0.8290091866139061  0.3532234976372766  0.0952962454719637   T   T   T
  0.6415800322096847  0.8377855081595994  0.0953378257643376   T   T   T
  0.3213480789479010  0.3300874050885760  0.0952041772356709   T   T   T
  0.3213663163665905  0.6734753100589552  0.0952143620263892   T   T   T
  0.6646836893631588  0.3301198032918012  0.0951755431167371   T   T   T
  0.6646854317602764  0.6734738904152264  0.0951898933355751   T   T   T
  0.4929337603918517  0.5017972928355409  0.0950567497133642   T   T   T
 
  0.00000000E+00  0.00000000E+00  0.00000000E+00
  0.00000000E+00  0.00000000E+00  0.00000000E+00
  0.00000000E+00  0.00000000E+00  0.00000000E+00
  0.00000000E+00  0.00000000E+00  0.00000000E+00
  0.00000000E+00  0.00000000E+00  0.00000000E+00
  0.00000000E+00  0.00000000E+00  0.00000000E+00
  0.00000000E+00  0.00000000E+00  0.00000000E+00
  0.00000000E+00  0.00000000E+00  0.00000000E+00
  0.00000000E+00  0.00000000E+00  0.00000000E+00
  0.00000000E+00  0.00000000E+00  0.00000000E+00
  0.00000000E+00  0.00000000E+00  0.00000000E+00
  0.00000000E+00  0.00000000E+00  0.00000000E+00
  0.00000000E+00  0.00000000E+00  0.00000000E+00
  0.00000000E+00  0.00000000E+00  0.00000000E+00
  0.00000000E+00  0.00000000E+00  0.00000000E+00
  0.00000000E+00  0.00000000E+00  0.00000000E+00
  0.00000000E+00  0.00000000E+00  0.00000000E+00
  0.00000000E+00  0.00000000E+00  0.00000000E+00
  0.00000000E+00  0.00000000E+00  0.00000000E+00
  0.00000000E+00  0.00000000E+00  0.00000000E+00
  0.00000000E+00  0.00000000E+00  0.00000000E+00
  0.00000000E+00  0.00000000E+00  0.00000000E+00
  0.00000000E+00  0.00000000E+00  0.00000000E+00
  0.00000000E+00  0.00000000E+00  0.00000000E+00
  0.00000000E+00  0.00000000E+00  0.00000000E+00
