Title                                   
   1.00000000000000     
     4.9440799999999996    0.0000000000000000    0.0000000000000000
     0.0000000000000000    8.5647549999999999    0.0000000000000000
     0.0000000000000000    0.0000000000000000   20.0000000000000000
    13     2     1
Selective dynamics
Direct
 -0.0038348832697847  0.2884689777858692  0.0890695154419358   T   T   T
  0.2500000000000000  0.0444362517081990  0.0868354966189115   T   T   T
  0.0042162863540628  0.7994161346286978  0.1047712572161066   T   T   T
  0.0006969285784254  0.9608553540078131  0.0877350677094167   T   T   T
  0.7500000000000000  0.2034543296854309  0.0790060627232962   T   T   T
  0.5038348832697844  0.2884689777858692  0.0890695154419358   T   T   T
  0.7500000000000000  0.0393874868771027  0.0796636598675063   T   T   T
  0.7500000000000000  0.7112727638654380  0.1080215711321324   T   T   T
  0.4957837136459373  0.7994161346286978  0.1047712572161066   T   T   T
  0.7500000000000000  0.5397260465647485  0.1055588330768180   T   T   T
  0.4993030714215745  0.9608553540078131  0.0877350677094167   T   T   T
  0.5145151109844431  0.4452729917836581  0.1066160196998496   T   T   T
 -0.0145151109844432  0.4452729917836581  0.1066160196998496   T   T   T
  0.2500000000000000  0.7336986937784659  0.1208121825962330   T   T   T
  0.2500000000000000  0.2070978241838385  0.0870484361368433   T   T   T
  0.2500000000000000  0.5328996869246987  0.1691820377136513   T   T   T
 
  0.00000000E+00  0.00000000E+00  0.00000000E+00
  0.00000000E+00  0.00000000E+00  0.00000000E+00
  0.00000000E+00  0.00000000E+00  0.00000000E+00
  0.00000000E+00  0.00000000E+00  0.00000000E+00
  0.00000000E+00  0.00000000E+00  0.00000000E+00
  0.00000000E+00  0.00000000E+00  0.00000000E+00
  0.00000000E+00  0.00000000E+00  0.00000000E+00
  0.00000000E+00  0.00000000E+00  0.00000000E+00
  0.00000000E+00  0.00000000E+00  0.00000000E+00
  0.00000000E+00  0.00000000E+00  0.00000000E+00
  0.00000000E+00  0.00000000E+00  0.00000000E+00
  0.00000000E+00  0.00000000E+00  0.00000000E+00
  0.00000000E+00  0.00000000E+00  0.00000000E+00
  0.00000000E+00  0.00000000E+00  0.00000000E+00
  0.00000000E+00  0.00000000E+00  0.00000000E+00
  0.00000000E+00  0.00000000E+00  0.00000000E+00
