Title                                   
   1.00000000000000     
     4.9440799999999996    0.0000000000000000    0.0000000000000000
     0.0000000000000000    8.5647549999999999    0.0000000000000000
     0.0000000000000000    0.0000000000000000   20.0000000000000000
    11     4     1
Selective dynamics
Direct
 -0.0030626692555738  0.2920584769303495  0.0903920448518282   T   T   T
  0.2500000000000000  0.0445346029308993  0.0877479856021520   T   T   T
  0.0007358367029104  0.7963936865718201  0.0979302727595211   T   T   T
  0.0000271588576463  0.9611986331691612  0.0860497406843720   T   T   T
  0.7500000000000000  0.2083003159839009  0.0807493797942280   T   T   T
  0.5030626692555739  0.2920584769303495  0.0903920448518282   T   T   T
  0.7500000000000000  0.0427663024310058  0.0791289899546164   T   T   T
  0.7500000000000000  0.7045263431392693  0.1013845995550050   T   T   T
  0.4992641632970894  0.7963936865718201  0.0979302727595211   T   T   T
  0.7500000000000000  0.5329836661852909  0.1104337966356009   T   T   T
  0.4999728411423537  0.9611986331691612  0.0860497406843720   T   T   T
  0.5147551996360722  0.4421577581829809  0.1144607785357358   T   T   T
 -0.0147551996360716  0.4421577581829809  0.1144607785357358   T   T   T
  0.2500000000000000  0.7290272343896022  0.1150326991628618   T   T   T
  0.2500000000000000  0.2112453848128318  0.0893865423847441   T   T   T
  0.2500000000000000  0.5429990404185768  0.1709823332478873   T   T   T
 
  0.00000000E+00  0.00000000E+00  0.00000000E+00
  0.00000000E+00  0.00000000E+00  0.00000000E+00
  0.00000000E+00  0.00000000E+00  0.00000000E+00
  0.00000000E+00  0.00000000E+00  0.00000000E+00
  0.00000000E+00  0.00000000E+00  0.00000000E+00
  0.00000000E+00  0.00000000E+00  0.00000000E+00
  0.00000000E+00  0.00000000E+00  0.00000000E+00
  0.00000000E+00  0.00000000E+00  0.00000000E+00
  0.00000000E+00  0.00000000E+00  0.00000000E+00
  0.00000000E+00  0.00000000E+00  0.00000000E+00
  0.00000000E+00  0.00000000E+00  0.00000000E+00
  0.00000000E+00  0.00000000E+00  0.00000000E+00
  0.00000000E+00  0.00000000E+00  0.00000000E+00
  0.00000000E+00  0.00000000E+00  0.00000000E+00
  0.00000000E+00  0.00000000E+00  0.00000000E+00
  0.00000000E+00  0.00000000E+00  0.00000000E+00
