Title                                   
   1.00000000000000     
     9.8694509999999998    0.0000000000000000    0.0000000000000000
     0.0000000000000000    8.5490480000000009    0.0000000000000000
     0.0000000000000000    0.0000000000000000   20.0000000000000000
    24     6     1
Selective dynamics
Direct
  0.0563706077665429  0.0907202323710617  0.0899610164085318   T   T   T
  0.9316171534292214  0.1726683830510019  0.0915194372577982   T   T   T
  0.0576586238180343  0.9218154441586827  0.0900897040143410   T   T   T
  0.9322456912788777  0.3398802187455371  0.0921347624814876   T   T   T
  0.0565939636624194  0.5895883634197232  0.0900136638627055   T   T   T
  0.9320955241480924  0.6717126348365344  0.0920663071563713   T   T   T
  0.0568333653453144  0.4226710142567105  0.0899795411928568   T   T   T
  0.9318577770984635  0.8389869479971942  0.0916483582614789   T   T   T
  0.3083423567393965  0.0886013466347004  0.0918676808615921   T   T   T
  0.1818316683112330  0.1724186736583907  0.0903603070961959   T   T   T
  0.1812450365346202  0.3390603003672966  0.0904608637299913   T   T   T
  0.3061076374117570  0.5907825366013274  0.0940819988462144   T   T   T
  0.1809945361186739  0.6730412027627874  0.0906221264483697   T   T   T
  0.3069124048321304  0.4215040961667856  0.0938614357038613   T   T   T
  0.1809040243367791  0.8393314853810525  0.0903333658417236   T   T   T
  0.4288793956300678  0.1740867494879675  0.0964995223218326   T   T   T
  0.5550389382567804  0.9205666028660801  0.0996345883268533   T   T   T
  0.4288634635603458  0.8388263497747477  0.0971626256852978   T   T   T
  0.8049512975760700  0.0892110436661074  0.0931920123659055   T   T   T
  0.6828163738966242  0.1764948958830108  0.0985147401830270   T   T   T
  0.8062501145465375  0.9218215991546425  0.0935060985089220   T   T   T
  0.8070464410785088  0.5904069867129507  0.0977284341791328   T   T   T
  0.8071014480636377  0.4206394837297412  0.0977511469370451   T   T   T
  0.6826454262205283  0.8361062370102703  0.0993627888761131   T   T   T
  0.5572938194735707  0.0951047354741605  0.0990936213048126   T   T   T
  0.4260538750417718  0.3352084323289851  0.1000666996986564   T   T   T
  0.4245643358014515  0.6793766850497855  0.1012435192051782   T   T   T
  0.6868433006624660  0.3360906981532018  0.1047639696799831   T   T   T
  0.6875809904936043  0.6748163442773096  0.1051837480055000   T   T   T
  0.3063607912462215  0.9220738329111384  0.0907450282374907   T   T   T
  0.5492356176202594  0.5072614431111145  0.1575158873207883   T   T   T
 
  0.00000000E+00  0.00000000E+00  0.00000000E+00
  0.00000000E+00  0.00000000E+00  0.00000000E+00
  0.00000000E+00  0.00000000E+00  0.00000000E+00
  0.00000000E+00  0.00000000E+00  0.00000000E+00
  0.00000000E+00  0.00000000E+00  0.00000000E+00
  0.00000000E+00  0.00000000E+00  0.00000000E+00
  0.00000000E+00  0.00000000E+00  0.00000000E+00
  0.00000000E+00  0.00000000E+00  0.00000000E+00
  0.00000000E+00  0.00000000E+00  0.00000000E+00
  0.00000000E+00  0.00000000E+00  0.00000000E+00
  0.00000000E+00  0.00000000E+00  0.00000000E+00
  0.00000000E+00  0.00000000E+00  0.00000000E+00
  0.00000000E+00  0.00000000E+00  0.00000000E+00
  0.00000000E+00  0.00000000E+00  0.00000000E+00
  0.00000000E+00  0.00000000E+00  0.00000000E+00
  0.00000000E+00  0.00000000E+00  0.00000000E+00
  0.00000000E+00  0.00000000E+00  0.00000000E+00
  0.00000000E+00  0.00000000E+00  0.00000000E+00
  0.00000000E+00  0.00000000E+00  0.00000000E+00
  0.00000000E+00  0.00000000E+00  0.00000000E+00
  0.00000000E+00  0.00000000E+00  0.00000000E+00
  0.00000000E+00  0.00000000E+00  0.00000000E+00
  0.00000000E+00  0.00000000E+00  0.00000000E+00
  0.00000000E+00  0.00000000E+00  0.00000000E+00
  0.00000000E+00  0.00000000E+00  0.00000000E+00
  0.00000000E+00  0.00000000E+00  0.00000000E+00
  0.00000000E+00  0.00000000E+00  0.00000000E+00
  0.00000000E+00  0.00000000E+00  0.00000000E+00
  0.00000000E+00  0.00000000E+00  0.00000000E+00
  0.00000000E+00  0.00000000E+00  0.00000000E+00
  0.00000000E+00  0.00000000E+00  0.00000000E+00
