Title                                   
   1.00000000000000     
     9.8694509999999998    0.0000000000000000    0.0000000000000000
     0.0000000000000000    8.5490480000000009    0.0000000000000000
     0.0000000000000000    0.0000000000000000   20.0000000000000000
    28     2     1
Selective dynamics
Direct
  0.0558875445749756  0.0892429305769263  0.0834326622753375   T   T   T
  0.9304937128618266  0.1718851566683403  0.0845768373543635   T   T   T
  0.0569581256124297  0.9237364814950114  0.0838575483707616   T   T   T
  0.9324823246281492  0.3395500558726952  0.0839808941334890   T   T   T
  0.0567992476327927  0.5900361299960150  0.0819362944510791   T   T   T
  0.9327379065872142  0.6727853425813715  0.0847024694832403   T   T   T
  0.0569383073044500  0.4229808370458193  0.0814495104710236   T   T   T
  0.9312905444150634  0.8398333633750010  0.0853946421214891   T   T   T
  0.3070780236499773  0.0884125537807871  0.0912061031723446   T   T   T
  0.1825030364435586  0.1710821830055883  0.0855556759998350   T   T   T
  0.1812054745728612  0.3390641418640726  0.0852311442743174   T   T   T
  0.3032252112757809  0.5907226093812499  0.0960490744631056   T   T   T
  0.1814675545698224  0.6741116280939105  0.0857268886191653   T   T   T
  0.3030343809120534  0.4207291620625887  0.0954211187424649   T   T   T
  0.1824672041916760  0.8410067001072326  0.0863366386672254   T   T   T
  0.4316468644277943  0.1741999458169281  0.1003843712602384   T   T   T
  0.5546285455268962  0.9231534902204314  0.1026892563757427   T   T   T
  0.4264796708845896  0.3390548134141392  0.1080522789614566   T   T   T
  0.4241022585744519  0.6731681701513825  0.1101535254695840   T   T   T
  0.4293161341291114  0.8390570505905177  0.1026038363015238   T   T   T
  0.8047023521638045  0.0889353799036863  0.0895048866076088   T   T   T
  0.6800590107698439  0.1758912584934644  0.0981269680348580   T   T   T
  0.8055480425851422  0.9221031164507012  0.0902708294124121   T   T   T
  0.6849836599350937  0.3405876382934376  0.1042631410041541   T   T   T
  0.8095757057096507  0.5903258849770352  0.0927642909926237   T   T   T
  0.6862218090689063  0.6703182193070575  0.1053599282712116   T   T   T
  0.8098604003331268  0.4207269147379587  0.0922587801267478   T   T   T
  0.6801243699250459  0.8371440140366487  0.0999222646537838   T   T   T
  0.5563347214950073  0.0910067565096950  0.1012130853818382   T   T   T
  0.3054208846565525  0.9230008132211230  0.0916721635094460   T   T   T
  0.5595619705823544  0.5070222579692043  0.1568678910375553   T   T   T
 
  0.00000000E+00  0.00000000E+00  0.00000000E+00
  0.00000000E+00  0.00000000E+00  0.00000000E+00
  0.00000000E+00  0.00000000E+00  0.00000000E+00
  0.00000000E+00  0.00000000E+00  0.00000000E+00
  0.00000000E+00  0.00000000E+00  0.00000000E+00
  0.00000000E+00  0.00000000E+00  0.00000000E+00
  0.00000000E+00  0.00000000E+00  0.00000000E+00
  0.00000000E+00  0.00000000E+00  0.00000000E+00
  0.00000000E+00  0.00000000E+00  0.00000000E+00
  0.00000000E+00  0.00000000E+00  0.00000000E+00
  0.00000000E+00  0.00000000E+00  0.00000000E+00
  0.00000000E+00  0.00000000E+00  0.00000000E+00
  0.00000000E+00  0.00000000E+00  0.00000000E+00
  0.00000000E+00  0.00000000E+00  0.00000000E+00
  0.00000000E+00  0.00000000E+00  0.00000000E+00
  0.00000000E+00  0.00000000E+00  0.00000000E+00
  0.00000000E+00  0.00000000E+00  0.00000000E+00
  0.00000000E+00  0.00000000E+00  0.00000000E+00
  0.00000000E+00  0.00000000E+00  0.00000000E+00
  0.00000000E+00  0.00000000E+00  0.00000000E+00
  0.00000000E+00  0.00000000E+00  0.00000000E+00
  0.00000000E+00  0.00000000E+00  0.00000000E+00
  0.00000000E+00  0.00000000E+00  0.00000000E+00
  0.00000000E+00  0.00000000E+00  0.00000000E+00
  0.00000000E+00  0.00000000E+00  0.00000000E+00
  0.00000000E+00  0.00000000E+00  0.00000000E+00
  0.00000000E+00  0.00000000E+00  0.00000000E+00
  0.00000000E+00  0.00000000E+00  0.00000000E+00
  0.00000000E+00  0.00000000E+00  0.00000000E+00
  0.00000000E+00  0.00000000E+00  0.00000000E+00
  0.00000000E+00  0.00000000E+00  0.00000000E+00
