Title                                   
   1.00000000000000     
     4.9440799999999996    0.0000000000000000    0.0000000000000000
     0.0000000000000000    8.5647549999999999    0.0000000000000000
     0.0000000000000000    0.0000000000000000   20.0000000000000000
    10     4     1
Selective dynamics
Direct
  0.2500000000000000  0.2108316655034728  0.0986789765238813   T   T   T
 -0.0022802427728896  0.2932680481118958  0.0984551262408293   T   T   T
  0.2500000000000000  0.0387097203765145  0.0986696627787680   T   T   T
 -0.0022810055833523  0.9562830284009616  0.0984474967172691   T   T   T
  0.7500000000000000  0.2088532296930602  0.0964342393473105   T   T   T
  0.5022802427728894  0.2932680481118958  0.0984551262408293   T   T   T
  0.7500000000000000  0.0406929231633084  0.0964198929501706   T   T   T
  0.7500000000000000  0.7148676303805450  0.1011978369560261   T   T   T
  0.7500000000000000  0.5346886888803900  0.1011862296163143   T   T   T
  0.5022810055833524  0.9562830284009616  0.0984474967172691   T   T   T
  0.5137280169745689  0.4568102326729096  0.1024732967833886   T   T   T
 -0.0137280169745692  0.4568102326729096  0.1024732967833886   T   T   T
 -0.0137001272549285  0.7927460696488221  0.1024591229861576   T   T   T
  0.5137001272549286  0.7927460696488221  0.1024591229861576   T   T   T
  0.2500000000000000  0.6248223843335343  0.1117230763722436   T   T   T
 
  0.00000000E+00  0.00000000E+00  0.00000000E+00
  0.00000000E+00  0.00000000E+00  0.00000000E+00
  0.00000000E+00  0.00000000E+00  0.00000000E+00
  0.00000000E+00  0.00000000E+00  0.00000000E+00
  0.00000000E+00  0.00000000E+00  0.00000000E+00
  0.00000000E+00  0.00000000E+00  0.00000000E+00
  0.00000000E+00  0.00000000E+00  0.00000000E+00
  0.00000000E+00  0.00000000E+00  0.00000000E+00
  0.00000000E+00  0.00000000E+00  0.00000000E+00
  0.00000000E+00  0.00000000E+00  0.00000000E+00
  0.00000000E+00  0.00000000E+00  0.00000000E+00
  0.00000000E+00  0.00000000E+00  0.00000000E+00
  0.00000000E+00  0.00000000E+00  0.00000000E+00
  0.00000000E+00  0.00000000E+00  0.00000000E+00
  0.00000000E+00  0.00000000E+00  0.00000000E+00
