Title                                   
   1.00000000000000     
     9.8694509999999998    0.0000000000000000    0.0000000000000000
     0.0000000000000000    8.5490480000000009    0.0000000000000000
     0.0000000000000000    0.0000000000000000   20.0000000000000000
    29     1     1
Selective dynamics
Direct
  0.0556799742168777  0.0879538965641075  0.0866529126606704   T   T   T
  0.9309040342211707  0.1718161955916606  0.0889749265226212   T   T   T
  0.0562899119265096  0.9225001192068972  0.0868592833863237   T   T   T
  0.9332155529064816  0.3383965852827467  0.0883876130516038   T   T   T
  0.0566604605177389  0.5891630198798540  0.0854094064340628   T   T   T
  0.9328121393950477  0.6739594713231667  0.0890692752347907   T   T   T
  0.0565779651736369  0.4229319093786886  0.0851248923075061   T   T   T
  0.9311402435742497  0.8402572558567944  0.0895206990399658   T   T   T
  0.3055821008578603  0.0897411797344716  0.0921721433009564   T   T   T
  0.1802594650235149  0.1709852380936094  0.0876998090391084   T   T   T
  0.3066324824988713  0.9219905135649926  0.0920201528347112   T   T   T
  0.1797928240517962  0.3374786333476357  0.0867765648025353   T   T   T
  0.3047356945677583  0.5882531892373269  0.0918447671543899   T   T   T
  0.1809701924762177  0.6721526473474235  0.0868594365356731   T   T   T
  0.3028203483557231  0.4185143653687353  0.0922452154722574   T   T   T
  0.1817665287095005  0.8391917334227184  0.0876182277575176   T   T   T
  0.5550563786313282  0.0925598654770731  0.1024125886011565   T   T   T
  0.4280129798401410  0.1784517233946544  0.0988217165514473   T   T   T
  0.5552725821567469  0.9249890603541254  0.1024395275423011   T   T   T
  0.4282076115016058  0.6700389876879442  0.0996898413722178   T   T   T
  0.4307244973922730  0.8361405876523352  0.0984298087281658   T   T   T
  0.8056607427415757  0.0903013495383924  0.0944914663047138   T   T   T
  0.6818753553114976  0.1780861258055206  0.1014401344711941   T   T   T
  0.8057771460135944  0.9226899825799150  0.0948810603561234   T   T   T
  0.6876813146877035  0.3429451806603537  0.1054970028830014   T   T   T
  0.8106501211052439  0.5909064772452671  0.0967154494720992   T   T   T
  0.6860846186124909  0.6710356296562217  0.1058725470628344   T   T   T
  0.8113767955546898  0.4220960070325531  0.0962705798638380   T   T   T
  0.6813925853398045  0.8370903919078416  0.1020030630945719   T   T   T
  0.4228256121378411  0.3397294441970681  0.1002957976051633   T   T   T
  0.5566967405005167  0.5085282336099173  0.1244690905565192   T   T   T
 
  0.00000000E+00  0.00000000E+00  0.00000000E+00
  0.00000000E+00  0.00000000E+00  0.00000000E+00
  0.00000000E+00  0.00000000E+00  0.00000000E+00
  0.00000000E+00  0.00000000E+00  0.00000000E+00
  0.00000000E+00  0.00000000E+00  0.00000000E+00
  0.00000000E+00  0.00000000E+00  0.00000000E+00
  0.00000000E+00  0.00000000E+00  0.00000000E+00
  0.00000000E+00  0.00000000E+00  0.00000000E+00
  0.00000000E+00  0.00000000E+00  0.00000000E+00
  0.00000000E+00  0.00000000E+00  0.00000000E+00
  0.00000000E+00  0.00000000E+00  0.00000000E+00
  0.00000000E+00  0.00000000E+00  0.00000000E+00
  0.00000000E+00  0.00000000E+00  0.00000000E+00
  0.00000000E+00  0.00000000E+00  0.00000000E+00
  0.00000000E+00  0.00000000E+00  0.00000000E+00
  0.00000000E+00  0.00000000E+00  0.00000000E+00
  0.00000000E+00  0.00000000E+00  0.00000000E+00
  0.00000000E+00  0.00000000E+00  0.00000000E+00
  0.00000000E+00  0.00000000E+00  0.00000000E+00
  0.00000000E+00  0.00000000E+00  0.00000000E+00
  0.00000000E+00  0.00000000E+00  0.00000000E+00
  0.00000000E+00  0.00000000E+00  0.00000000E+00
  0.00000000E+00  0.00000000E+00  0.00000000E+00
  0.00000000E+00  0.00000000E+00  0.00000000E+00
  0.00000000E+00  0.00000000E+00  0.00000000E+00
  0.00000000E+00  0.00000000E+00  0.00000000E+00
  0.00000000E+00  0.00000000E+00  0.00000000E+00
  0.00000000E+00  0.00000000E+00  0.00000000E+00
  0.00000000E+00  0.00000000E+00  0.00000000E+00
  0.00000000E+00  0.00000000E+00  0.00000000E+00
  0.00000000E+00  0.00000000E+00  0.00000000E+00
