Title                                   
   1.00000000000000     
     4.9440799999999996    0.0000000000000000    0.0000000000000000
     0.0000000000000000   17.1295089999999988    0.0000000000000000
     0.0000000000000000    0.0000000000000000   20.0000000000000000
    27     3     1
Selective dynamics
Direct
 -0.0051673376510195  0.1052522754034333  0.2963321630225846   T   T   T
  0.2425722067361070  0.1480584422513281  0.2967386076347310   T   T   T
  0.2391815069325741  0.2322129083906131  0.2989959316734965   T   T   T
 -0.0110077990763525  0.2750482894746541  0.3029964044909784   T   T   T
  0.0080291553019203  0.6003452582522315  0.3032113389808584   T   T   T
  0.2543225545700030  0.7264401626083884  0.2962973985748731   T   T   T
  0.0020265871139650  0.8527651366367600  0.2950266128616784   T   T   T
  0.2502539103735364  0.8951481235876876  0.2948854459102031   T   T   T
  0.2478610614571195  0.9792768972975265  0.2951483177807884   T   T   T
  0.0043380408014606  0.7683979684585092  0.2956926300984827   T   T   T
  0.4945554871774966  0.1057201894810916  0.2950655322613204   T   T   T
  0.7452836077430698  0.1476422314646592  0.2953962209708671   T   T   T
  0.7429839813564475  0.2315606446972013  0.2960302758489599   T   T   T
  0.4970297013955955  0.0216424678215805  0.2948886524877868   T   T   T
  0.7432347396732126  0.3963363960756201  0.3010972830997799   T   T   T
  0.7525312671557480  0.4809427165454688  0.3042432239494195   T   T   T
  0.4904712207493249  0.2734677021677263  0.2945086863944764   T   T   T
  0.5075094645411156  0.6021307283680142  0.2971008916652047   T   T   T
  0.7537655770655710  0.7271853083441525  0.2952680247070618   T   T   T
  0.4998576374262676  0.8528298481078100  0.2945670258498748   T   T   T
  0.7501639039564357  0.8947886030491499  0.2946645499359848   T   T   T
  0.7478477833075281  0.9789673642229366  0.2948860215482152   T   T   T
  0.5021133829731443  0.7684649464489719  0.2949200395030115   T   T   T
  0.7568278301884377  0.6441115789284375  0.2966487032567578   T   T   T
 -0.0028261348149675  0.0211870657897415  0.2955474078494105   T   T   T
  0.0033575147560072  0.5193597803599721  0.3145353439246658   T   T   T
  0.4987910863655022  0.3555248983781588  0.2911732624774139   T   T   T
  0.5081370586732136  0.5224545706235081  0.2989426075172344   T   T   T
 -0.0154748895480228  0.3558852613259940  0.3155017259820687   T   T   T
  0.2572930825009977  0.6427133466929932  0.2988445414155565   T   T   T
  0.2941438107985624  0.4354808887456762  0.3459051283262071   T   T   T
 
  0.00000000E+00  0.00000000E+00  0.00000000E+00
  0.00000000E+00  0.00000000E+00  0.00000000E+00
  0.00000000E+00  0.00000000E+00  0.00000000E+00
  0.00000000E+00  0.00000000E+00  0.00000000E+00
  0.00000000E+00  0.00000000E+00  0.00000000E+00
  0.00000000E+00  0.00000000E+00  0.00000000E+00
  0.00000000E+00  0.00000000E+00  0.00000000E+00
  0.00000000E+00  0.00000000E+00  0.00000000E+00
  0.00000000E+00  0.00000000E+00  0.00000000E+00
  0.00000000E+00  0.00000000E+00  0.00000000E+00
  0.00000000E+00  0.00000000E+00  0.00000000E+00
  0.00000000E+00  0.00000000E+00  0.00000000E+00
  0.00000000E+00  0.00000000E+00  0.00000000E+00
  0.00000000E+00  0.00000000E+00  0.00000000E+00
  0.00000000E+00  0.00000000E+00  0.00000000E+00
  0.00000000E+00  0.00000000E+00  0.00000000E+00
  0.00000000E+00  0.00000000E+00  0.00000000E+00
  0.00000000E+00  0.00000000E+00  0.00000000E+00
  0.00000000E+00  0.00000000E+00  0.00000000E+00
  0.00000000E+00  0.00000000E+00  0.00000000E+00
  0.00000000E+00  0.00000000E+00  0.00000000E+00
  0.00000000E+00  0.00000000E+00  0.00000000E+00
  0.00000000E+00  0.00000000E+00  0.00000000E+00
  0.00000000E+00  0.00000000E+00  0.00000000E+00
  0.00000000E+00  0.00000000E+00  0.00000000E+00
  0.00000000E+00  0.00000000E+00  0.00000000E+00
  0.00000000E+00  0.00000000E+00  0.00000000E+00
  0.00000000E+00  0.00000000E+00  0.00000000E+00
  0.00000000E+00  0.00000000E+00  0.00000000E+00
  0.00000000E+00  0.00000000E+00  0.00000000E+00
  0.00000000E+00  0.00000000E+00  0.00000000E+00
