Title                                   
   1.00000000000000     
     9.8694509999999998    0.0000000000000000    0.0000000000000000
     0.0000000000000000    8.5490480000000009    0.0000000000000000
     0.0000000000000000    0.0000000000000000   20.0000000000000000
    26     5     1
Selective dynamics
Direct
  0.0563074801623708  0.0925280458041861  0.0889500998169046   T   T   T
  0.9305847263083605  0.1748904362817398  0.0908559715094120   T   T   T
  0.0564628195159196  0.9243945444225784  0.0889441452568373   T   T   T
  0.9295283560070400  0.3418651352524413  0.0936682419859985   T   T   T
  0.0557113813539350  0.5900529189338573  0.0908336414152450   T   T   T
  0.9316885023406553  0.6735049236885580  0.0930700324267696   T   T   T
  0.0571927989889622  0.4235571148922379  0.0919507062213016   T   T   T
  0.9315224794403486  0.8410458487260338  0.0909477311019107   T   T   T
  0.3053397738005789  0.0888187644217221  0.0886779094124883   T   T   T
  0.1824197607284177  0.1755117840114028  0.0891323269145546   T   T   T
  0.3063112163660151  0.9231348612174493  0.0894077910671426   T   T   T
  0.1830601813036115  0.3417402643873015  0.0909276455532946   T   T   T
  0.3075810194657377  0.5933031348567934  0.0924543715622627   T   T   T
  0.1810590375076767  0.6718991781228317  0.0899391650445641   T   T   T
  0.1812004335659094  0.8392616788481522  0.0890713770597709   T   T   T
  0.5552706143780720  0.0843483879645349  0.0940725642618657   T   T   T
  0.4309654760201617  0.1688690935421283  0.0917825367523322   T   T   T
  0.4335553220696099  0.3352699249833644  0.0959592500308754   T   T   T
  0.4278219781052588  0.8351086253800776  0.0927491355046063   T   T   T
  0.8064952096776530  0.0902032849835722  0.0907705540976178   T   T   T
  0.6798452922099129  0.1689857416433047  0.0946664263389936   T   T   T
  0.8061806060278973  0.9243276437822963  0.0909511697756107   T   T   T
  0.6769502454021031  0.3347828954707583  0.1001194080109641   T   T   T
  0.8060688572122950  0.5939662846690889  0.1000939036117653   T   T   T
  0.8016688845275093  0.4250451081554645  0.0987350483714029   T   T   T
  0.6834223553668424  0.8386562758678835  0.0967115827256775   T   T   T
  0.4259159032037081  0.6760647846651312  0.0966508786958042   T   T   T
  0.5529531602873505  0.4100683971911787  0.1074898572196306   T   T   T
  0.6886675503241196  0.6817476035994242  0.1086489486501667   T   T   T
  0.5559069298758295  0.9159982728102394  0.0945069342931801   T   T   T
  0.3112086302220439  0.4246554465082668  0.0927179383893971   T   T   T
  0.5607720182341002  0.5866395949160027  0.1802177069216689   T   T   T
 
  0.00000000E+00  0.00000000E+00  0.00000000E+00
  0.00000000E+00  0.00000000E+00  0.00000000E+00
  0.00000000E+00  0.00000000E+00  0.00000000E+00
  0.00000000E+00  0.00000000E+00  0.00000000E+00
  0.00000000E+00  0.00000000E+00  0.00000000E+00
  0.00000000E+00  0.00000000E+00  0.00000000E+00
  0.00000000E+00  0.00000000E+00  0.00000000E+00
  0.00000000E+00  0.00000000E+00  0.00000000E+00
  0.00000000E+00  0.00000000E+00  0.00000000E+00
  0.00000000E+00  0.00000000E+00  0.00000000E+00
  0.00000000E+00  0.00000000E+00  0.00000000E+00
  0.00000000E+00  0.00000000E+00  0.00000000E+00
  0.00000000E+00  0.00000000E+00  0.00000000E+00
  0.00000000E+00  0.00000000E+00  0.00000000E+00
  0.00000000E+00  0.00000000E+00  0.00000000E+00
  0.00000000E+00  0.00000000E+00  0.00000000E+00
  0.00000000E+00  0.00000000E+00  0.00000000E+00
  0.00000000E+00  0.00000000E+00  0.00000000E+00
  0.00000000E+00  0.00000000E+00  0.00000000E+00
  0.00000000E+00  0.00000000E+00  0.00000000E+00
  0.00000000E+00  0.00000000E+00  0.00000000E+00
  0.00000000E+00  0.00000000E+00  0.00000000E+00
  0.00000000E+00  0.00000000E+00  0.00000000E+00
  0.00000000E+00  0.00000000E+00  0.00000000E+00
  0.00000000E+00  0.00000000E+00  0.00000000E+00
  0.00000000E+00  0.00000000E+00  0.00000000E+00
  0.00000000E+00  0.00000000E+00  0.00000000E+00
  0.00000000E+00  0.00000000E+00  0.00000000E+00
  0.00000000E+00  0.00000000E+00  0.00000000E+00
  0.00000000E+00  0.00000000E+00  0.00000000E+00
  0.00000000E+00  0.00000000E+00  0.00000000E+00
  0.00000000E+00  0.00000000E+00  0.00000000E+00
