Title                                   
   1.00000000000000     
     4.9440799999999996    0.0000000000000000    0.0000000000000000
     0.0000000000000000    8.5647549999999999    0.0000000000000000
     0.0000000000000000    0.0000000000000000   20.0000000000000000
    12     2     1
Selective dynamics
Direct
 -0.0010264919877099  0.2913909084960289  0.0948785519335424   T   T   T
  0.2581964343832491  0.0402257912602394  0.0964457967701703   T   T   T
  0.0114232084466237  0.9564926971206887  0.0914646955402380   T   T   T
  0.7488133825662483  0.2077594239009483  0.0928169524445946   T   T   T
  0.4948010595797140  0.2949581994490459  0.0965963778639655   T   T   T
  0.7563380340227632  0.0392982932270841  0.0925964461753608   T   T   T
  0.7534000942992712  0.7134355474927842  0.1018771655921053   T   T   T
  0.7417492719368146  0.5395091825889600  0.1004236218920305   T   T   T
  0.5110025982901661  0.9548101245327674  0.1012230996955311   T   T   T
  0.4917048064887830  0.4628867196605721  0.1011375025611911   T   T   T
 -0.0100735739559882  0.4556269955074662  0.1029235976585330   T   T   T
  0.0011434298432018  0.7879812303479786  0.0910116028219019   T   T   T
  0.5175173528707765  0.7950651765445589  0.1162397087616636   T   T   T
  0.2523896261538540  0.2069797819078115  0.0957598940409421   T   T   T
  0.2226207670622315  0.6252609279630675  0.1325849862482334   T   T   T
 
  0.00000000E+00  0.00000000E+00  0.00000000E+00
  0.00000000E+00  0.00000000E+00  0.00000000E+00
  0.00000000E+00  0.00000000E+00  0.00000000E+00
  0.00000000E+00  0.00000000E+00  0.00000000E+00
  0.00000000E+00  0.00000000E+00  0.00000000E+00
  0.00000000E+00  0.00000000E+00  0.00000000E+00
  0.00000000E+00  0.00000000E+00  0.00000000E+00
  0.00000000E+00  0.00000000E+00  0.00000000E+00
  0.00000000E+00  0.00000000E+00  0.00000000E+00
  0.00000000E+00  0.00000000E+00  0.00000000E+00
  0.00000000E+00  0.00000000E+00  0.00000000E+00
  0.00000000E+00  0.00000000E+00  0.00000000E+00
  0.00000000E+00  0.00000000E+00  0.00000000E+00
  0.00000000E+00  0.00000000E+00  0.00000000E+00
  0.00000000E+00  0.00000000E+00  0.00000000E+00
