Title                                   
   1.00000000000000     
     8.5490480000000009    0.0000000000000000    0.0000000000000000
     0.0000000000000000    8.5490480000000009    0.0000000000000000
     0.0000000000000000    0.0000000000000000   20.0000000000000000
    20     4     1
Selective dynamics
Direct
  0.9072493442078374  0.2080892590948446  0.0936703340145600   T   T   T
  0.9127727166060219  0.8014779804132015  0.0959369808201831   T   T   T
  0.1946062620296513  0.0812261809991134  0.0960699759566846   T   T   T
  0.0729296625760038  0.2009511436109372  0.0951243894619312   T   T   T
  0.1602218280206107  0.6482825303967438  0.0960974028838050   T   T   T
  0.0774779037754779  0.5013224554941808  0.0961387632128194   T   T   T
  0.1513973715607485  0.3493418760158161  0.0970276325398416   T   T   T
  0.0809423352164331  0.7973060085939701  0.0952946190261308   T   T   T
  0.4930111990003398  0.0877047351461987  0.0983665207861090   T   T   T
  0.3397428605984662  0.1610349223998344  0.0985931592571228   T   T   T
  0.4950475881469785  0.9188234889133736  0.0981347947838372   T   T   T
  0.3477542481228580  0.8368143301113860  0.0958196030223092   T   T   T
  0.7860853939972221  0.0898453691892754  0.0962247759769844   T   T   T
  0.6379076397291072  0.1721129256020646  0.0980238564066145   T   T   T
  0.7899338726915236  0.9207699162520655  0.0970437039070215   T   T   T
  0.8317920844234395  0.6528874592536765  0.0978263956054477   T   T   T
  0.8311453743431229  0.3600309956133084  0.0923962919896836   T   T   T
  0.6440346331266416  0.8369825167134997  0.0995909396348532   T   T   T
  0.3282412096232453  0.6743958602821479  0.0958735049538864   T   T   T
  0.6668119879881396  0.3430640742528328  0.0948882986804824   T   T   T
  0.9108570641423972  0.5053135139154543  0.0951263300150644   T   T   T
  0.3134211109973378  0.3239117946949328  0.1013759428484918   T   T   T
  0.6697994109663113  0.6721786719043722  0.1026368405963332   T   T   T
  0.1977816732957033  0.9148824374772341  0.0949870746396509   T   T   T
  0.4844472248143670  0.4860395536595495  0.1214368689801320   T   T   T
 
  0.00000000E+00  0.00000000E+00  0.00000000E+00
  0.00000000E+00  0.00000000E+00  0.00000000E+00
  0.00000000E+00  0.00000000E+00  0.00000000E+00
  0.00000000E+00  0.00000000E+00  0.00000000E+00
  0.00000000E+00  0.00000000E+00  0.00000000E+00
  0.00000000E+00  0.00000000E+00  0.00000000E+00
  0.00000000E+00  0.00000000E+00  0.00000000E+00
  0.00000000E+00  0.00000000E+00  0.00000000E+00
  0.00000000E+00  0.00000000E+00  0.00000000E+00
  0.00000000E+00  0.00000000E+00  0.00000000E+00
  0.00000000E+00  0.00000000E+00  0.00000000E+00
  0.00000000E+00  0.00000000E+00  0.00000000E+00
  0.00000000E+00  0.00000000E+00  0.00000000E+00
  0.00000000E+00  0.00000000E+00  0.00000000E+00
  0.00000000E+00  0.00000000E+00  0.00000000E+00
  0.00000000E+00  0.00000000E+00  0.00000000E+00
  0.00000000E+00  0.00000000E+00  0.00000000E+00
  0.00000000E+00  0.00000000E+00  0.00000000E+00
  0.00000000E+00  0.00000000E+00  0.00000000E+00
  0.00000000E+00  0.00000000E+00  0.00000000E+00
  0.00000000E+00  0.00000000E+00  0.00000000E+00
  0.00000000E+00  0.00000000E+00  0.00000000E+00
  0.00000000E+00  0.00000000E+00  0.00000000E+00
  0.00000000E+00  0.00000000E+00  0.00000000E+00
  0.00000000E+00  0.00000000E+00  0.00000000E+00
