Title                                   
   1.00000000000000     
     4.9440799999999996    0.0000000000000000    0.0000000000000000
     0.0000000000000000    8.5647549999999999    0.0000000000000000
     0.0000000000000000    0.0000000000000000   20.0000000000000000
    12     3     1
Selective dynamics
Direct
  0.2500000000000000  0.2117230037608128  0.0917783086255014   T   T   T
 -0.0044741265016994  0.2917858018853441  0.0931450955625344   T   T   T
  0.2500000000000000  0.0436429196910677  0.0889749128866446   T   T   T
  0.0023955564931140  0.7949847595572158  0.0998440960999253   T   T   T
 -0.0000691386923605  0.9592776174706934  0.0887602854657085   T   T   T
  0.7500000000000000  0.2075934693019648  0.0860870606951184   T   T   T
  0.5044741265016995  0.2917858018853441  0.0931450955625344   T   T   T
  0.7500000000000000  0.0411073452803296  0.0841757278922792   T   T   T
  0.7500000000000000  0.7049090592426297  0.1037807202928836   T   T   T
  0.4976044435068860  0.7949847595572158  0.0998440960999253   T   T   T
  0.7500000000000000  0.5348600705728835  0.1036838979276522   T   T   T
  0.5000691386923606  0.9592776174706934  0.0887602854657085   T   T   T
  0.5137315559715733  0.4505747313201664  0.1062189232554589   T   T   T
 -0.0137315559715735  0.4505747313201664  0.1062189232554589   T   T   T
  0.2500000000000000  0.7256346173510437  0.1128776669858469   T   T   T
  0.2500000000000000  0.5372836943324284  0.1752169039268270   T   T   T
 
  0.00000000E+00  0.00000000E+00  0.00000000E+00
  0.00000000E+00  0.00000000E+00  0.00000000E+00
  0.00000000E+00  0.00000000E+00  0.00000000E+00
  0.00000000E+00  0.00000000E+00  0.00000000E+00
  0.00000000E+00  0.00000000E+00  0.00000000E+00
  0.00000000E+00  0.00000000E+00  0.00000000E+00
  0.00000000E+00  0.00000000E+00  0.00000000E+00
  0.00000000E+00  0.00000000E+00  0.00000000E+00
  0.00000000E+00  0.00000000E+00  0.00000000E+00
  0.00000000E+00  0.00000000E+00  0.00000000E+00
  0.00000000E+00  0.00000000E+00  0.00000000E+00
  0.00000000E+00  0.00000000E+00  0.00000000E+00
  0.00000000E+00  0.00000000E+00  0.00000000E+00
  0.00000000E+00  0.00000000E+00  0.00000000E+00
  0.00000000E+00  0.00000000E+00  0.00000000E+00
  0.00000000E+00  0.00000000E+00  0.00000000E+00
