Title                                   
   1.00000000000000     
     4.9440799999999996    0.0000000000000000    0.0000000000000000
     0.0000000000000000    8.5647549999999999    0.0000000000000000
     0.0000000000000000    0.0000000000000000   20.0000000000000000
    14     1
Selective dynamics
Direct
  0.2500000000000000  0.2069246294769800  0.0979527849604368   T   T   T
  0.0002627173192216  0.2929309075965257  0.0982602384598808   T   T   T
  0.2500000000000000  0.0426517922552063  0.0979420935561656   T   T   T
  0.0002531011312986  0.9566406321206072  0.0982517530026783   T   T   T
  0.7500000000000000  0.2085706859189958  0.0972901155960706   T   T   T
  0.4997372826807783  0.2929309075965257  0.0982602384598808   T   T   T
  0.7500000000000000  0.0410098528107559  0.0972936717073846   T   T   T
  0.7500000000000000  0.7101514619435403  0.0990277367121685   T   T   T
  0.7500000000000000  0.5393727856765188  0.0990337416849337   T   T   T
  0.4997468988687014  0.9566406321206072  0.0982517530026783   T   T   T
  0.5027268518167355  0.4573951958290643  0.1004362151679532   T   T   T
 -0.0027268518167357  0.4573951958290643  0.1004362151679532   T   T   T
 -0.0027415309167778  0.7921574038844573  0.1004193992523875   T   T   T
  0.5027415309167780  0.7921574038844573  0.1004193992523875   T   T   T
  0.2500000000000000  0.6247515130566971  0.1247046440170443   T   T   T
 
  0.00000000E+00  0.00000000E+00  0.00000000E+00
  0.00000000E+00  0.00000000E+00  0.00000000E+00
  0.00000000E+00  0.00000000E+00  0.00000000E+00
  0.00000000E+00  0.00000000E+00  0.00000000E+00
  0.00000000E+00  0.00000000E+00  0.00000000E+00
  0.00000000E+00  0.00000000E+00  0.00000000E+00
  0.00000000E+00  0.00000000E+00  0.00000000E+00
  0.00000000E+00  0.00000000E+00  0.00000000E+00
  0.00000000E+00  0.00000000E+00  0.00000000E+00
  0.00000000E+00  0.00000000E+00  0.00000000E+00
  0.00000000E+00  0.00000000E+00  0.00000000E+00
  0.00000000E+00  0.00000000E+00  0.00000000E+00
  0.00000000E+00  0.00000000E+00  0.00000000E+00
  0.00000000E+00  0.00000000E+00  0.00000000E+00
  0.00000000E+00  0.00000000E+00  0.00000000E+00
