Title                                   
   1.00000000000000     
     9.8694509999999998    0.0000000000000000    0.0000000000000000
     0.0000000000000000    8.5490480000000009    0.0000000000000000
     0.0000000000000000    0.0000000000000000   20.0000000000000000
    29     1     1
Selective dynamics
Direct
  0.0560873957659172  0.0888898653138025  0.0804876591247256   T   T   T
  0.9315004432414934  0.1719471183239004  0.0830894615510454   T   T   T
  0.0572373785292118  0.9242173928221928  0.0810551470790398   T   T   T
  0.9338776235942710  0.3385610329104384  0.0814925501275284   T   T   T
  0.0568654080562971  0.5900000676381447  0.0764963041875340   T   T   T
  0.9339735128398868  0.6743269691537148  0.0817927885447589   T   T   T
  0.0569744564178061  0.4232346582775829  0.0762839683740278   T   T   T
  0.9320000407274557  0.8404046969831136  0.0836197144476615   T   T   T
  0.3049122315644150  0.0881834422594574  0.0933903303032037   T   T   T
  0.1812204403677010  0.1706714974329301  0.0833932297544926   T   T   T
  0.1796590048667710  0.3378007006799764  0.0821599708485279   T   T   T
  0.2984076900162370  0.5909711906975327  0.0968889832783559   T   T   T
  0.1802260798528148  0.6749473345217978  0.0826281687356815   T   T   T
  0.2984943916441732  0.4206985684591420  0.0967735971463872   T   T   T
  0.1820652570272996  0.8416708623419941  0.0843800019421482   T   T   T
  0.5563240352485157  0.0885655973085916  0.1088049353373230   T   T   T
  0.4271521695221637  0.1734837426501533  0.1064240027346839   T   T   T
  0.5551561862627588  0.9239642993089972  0.1084232179836299   T   T   T
  0.4172646189315444  0.3368946792728752  0.1124878579697980   T   T   T
  0.4166772589769271  0.6756306578343779  0.1126153859400684   T   T   T
  0.4261104102867893  0.8374452112182577  0.1062421798541194   T   T   T
  0.8073223597784989  0.0894580446176429  0.0924771636983439   T   T   T
  0.6844705225247748  0.1753490876400028  0.1047877320765716   T   T   T
  0.8073401686899886  0.9225997678844768  0.0925365919332456   T   T   T
  0.6943453536201643  0.3388058387966981  0.1098487677630324   T   T   T
  0.8142549385771868  0.5912595433092805  0.0947559184431677   T   T   T
  0.6943171555217759  0.6735466876971996  0.1099910904215824   T   T   T
  0.8143333854507919  0.4214711201721912  0.0946125083720161   T   T   T
  0.6839366410739209  0.8364865448672937  0.1045736346559674   T   T   T
  0.3043681028915176  0.9233206948046581  0.0933364985578392   T   T   T
  0.5562603381309325  0.5060680848016036  0.1251156388135200   T   T   T
 
  0.00000000E+00  0.00000000E+00  0.00000000E+00
  0.00000000E+00  0.00000000E+00  0.00000000E+00
  0.00000000E+00  0.00000000E+00  0.00000000E+00
  0.00000000E+00  0.00000000E+00  0.00000000E+00
  0.00000000E+00  0.00000000E+00  0.00000000E+00
  0.00000000E+00  0.00000000E+00  0.00000000E+00
  0.00000000E+00  0.00000000E+00  0.00000000E+00
  0.00000000E+00  0.00000000E+00  0.00000000E+00
  0.00000000E+00  0.00000000E+00  0.00000000E+00
  0.00000000E+00  0.00000000E+00  0.00000000E+00
  0.00000000E+00  0.00000000E+00  0.00000000E+00
  0.00000000E+00  0.00000000E+00  0.00000000E+00
  0.00000000E+00  0.00000000E+00  0.00000000E+00
  0.00000000E+00  0.00000000E+00  0.00000000E+00
  0.00000000E+00  0.00000000E+00  0.00000000E+00
  0.00000000E+00  0.00000000E+00  0.00000000E+00
  0.00000000E+00  0.00000000E+00  0.00000000E+00
  0.00000000E+00  0.00000000E+00  0.00000000E+00
  0.00000000E+00  0.00000000E+00  0.00000000E+00
  0.00000000E+00  0.00000000E+00  0.00000000E+00
  0.00000000E+00  0.00000000E+00  0.00000000E+00
  0.00000000E+00  0.00000000E+00  0.00000000E+00
  0.00000000E+00  0.00000000E+00  0.00000000E+00
  0.00000000E+00  0.00000000E+00  0.00000000E+00
  0.00000000E+00  0.00000000E+00  0.00000000E+00
  0.00000000E+00  0.00000000E+00  0.00000000E+00
  0.00000000E+00  0.00000000E+00  0.00000000E+00
  0.00000000E+00  0.00000000E+00  0.00000000E+00
  0.00000000E+00  0.00000000E+00  0.00000000E+00
  0.00000000E+00  0.00000000E+00  0.00000000E+00
  0.00000000E+00  0.00000000E+00  0.00000000E+00
