Title                                   
   1.00000000000000     
     9.8694509999999998    0.0000000000000000    0.0000000000000000
     0.0000000000000000    8.5490480000000009    0.0000000000000000
     0.0000000000000000    0.0000000000000000   20.0000000000000000
    26     4     1
Selective dynamics
Direct
  0.0550375057839046  0.0878416515470393  0.0859954098092276   T   T   T
  0.9309865849439459  0.1722033763520448  0.0903592492368485   T   T   T
  0.0569135752381048  0.9212755997412723  0.0865745131613119   T   T   T
  0.9327247430071062  0.3399705848634557  0.0924914495676410   T   T   T
  0.0563480182642230  0.5905871732880179  0.0866426300508686   T   T   T
  0.0563219915842612  0.4241177720497262  0.0858909296254934   T   T   T
  0.9321225049563751  0.8381236917858780  0.0916761488495692   T   T   T
  0.3063956693700270  0.0875012294438369  0.0859687779665823   T   T   T
  0.1811352776719229  0.1710290194613752  0.0840627736586940   T   T   T
  0.1803422533770462  0.3380812386672472  0.0830160775721326   T   T   T
  0.3071962177581957  0.5875756590255644  0.0836261164792983   T   T   T
  0.1811161418106730  0.6730842304723984  0.0835452097618045   T   T   T
  0.3055483296518979  0.4179445216880924  0.0839678111147557   T   T   T
  0.1831982125730705  0.8390199829644868  0.0844860185253042   T   T   T
  0.4301142068002026  0.1745500152961224  0.0912439660426726   T   T   T
  0.5555337980951283  0.9249668122382888  0.1004336104180279   T   T   T
  0.4286452179754985  0.6746309664043965  0.0903228527147359   T   T   T
  0.4311776394129680  0.8382770832004752  0.0922452851543825   T   T   T
  0.8057656389450069  0.0891300183743213  0.0945611637098642   T   T   T
  0.6821197228455314  0.1780520704458790  0.1024952141305880   T   T   T
  0.8068154494184329  0.9217827723532727  0.0960563443590213   T   T   T
  0.6872222612844890  0.3400102758500689  0.1140731768198959   T   T   T
  0.8107988734178135  0.5935144795190116  0.1067307190401654   T   T   T
  0.6893669714705131  0.6745719977859101  0.1174032629964203   T   T   T
  0.8118506291666835  0.4213427983103619  0.1053633381204995   T   T   T
  0.6812112257790242  0.8400902644793898  0.1053999658676784   T   T   T
  0.9333918240805211  0.6725249371181774  0.0932607957072048   T   T   T
  0.5554622165942332  0.0943735396434951  0.0987477179214986   T   T   T
  0.4255794159006686  0.3339277229683388  0.0907654238843322   T   T   T
  0.3058389266473676  0.9233819327240845  0.0854701834041601   T   T   T
  0.5368539561751811  0.5073915819379915  0.1480888643293692   T   T   T
 
  0.00000000E+00  0.00000000E+00  0.00000000E+00
  0.00000000E+00  0.00000000E+00  0.00000000E+00
  0.00000000E+00  0.00000000E+00  0.00000000E+00
  0.00000000E+00  0.00000000E+00  0.00000000E+00
  0.00000000E+00  0.00000000E+00  0.00000000E+00
  0.00000000E+00  0.00000000E+00  0.00000000E+00
  0.00000000E+00  0.00000000E+00  0.00000000E+00
  0.00000000E+00  0.00000000E+00  0.00000000E+00
  0.00000000E+00  0.00000000E+00  0.00000000E+00
  0.00000000E+00  0.00000000E+00  0.00000000E+00
  0.00000000E+00  0.00000000E+00  0.00000000E+00
  0.00000000E+00  0.00000000E+00  0.00000000E+00
  0.00000000E+00  0.00000000E+00  0.00000000E+00
  0.00000000E+00  0.00000000E+00  0.00000000E+00
  0.00000000E+00  0.00000000E+00  0.00000000E+00
  0.00000000E+00  0.00000000E+00  0.00000000E+00
  0.00000000E+00  0.00000000E+00  0.00000000E+00
  0.00000000E+00  0.00000000E+00  0.00000000E+00
  0.00000000E+00  0.00000000E+00  0.00000000E+00
  0.00000000E+00  0.00000000E+00  0.00000000E+00
  0.00000000E+00  0.00000000E+00  0.00000000E+00
  0.00000000E+00  0.00000000E+00  0.00000000E+00
  0.00000000E+00  0.00000000E+00  0.00000000E+00
  0.00000000E+00  0.00000000E+00  0.00000000E+00
  0.00000000E+00  0.00000000E+00  0.00000000E+00
  0.00000000E+00  0.00000000E+00  0.00000000E+00
  0.00000000E+00  0.00000000E+00  0.00000000E+00
  0.00000000E+00  0.00000000E+00  0.00000000E+00
  0.00000000E+00  0.00000000E+00  0.00000000E+00
  0.00000000E+00  0.00000000E+00  0.00000000E+00
  0.00000000E+00  0.00000000E+00  0.00000000E+00
