Title                                   
   1.00000000000000     
     4.9440799999999996    0.0000000000000000    0.0000000000000000
     0.0000000000000000   17.1295089999999988    0.0000000000000000
     0.0000000000000000    0.0000000000000000   20.0000000000000000
    27     3     1
Selective dynamics
Direct
  0.0011912184066795  0.1050062070368038  0.2974200971490308   T   T   T
  0.2500704187199168  0.1481227792937862  0.2985103913393478   T   T   T
  0.2497419555389411  0.2323497657202890  0.3018716362868498   T   T   T
 -0.0040213773846541  0.2732439192020563  0.3060643796930818   T   T   T
 -0.0014168545692943  0.6028286037724079  0.3039881469819062   T   T   T
  0.2489569295133659  0.7268876490415835  0.2964845866572656   T   T   T
  0.0007206905061762  0.8533653208837081  0.2949593803058698   T   T   T
  0.2498470904812880  0.8956005999651728  0.2945560754602256   T   T   T
  0.2501553934829593  0.9792179395929826  0.2949135636571897   T   T   T
  0.0001465643175168  0.7695962883095204  0.2961040571102466   T   T   T
  0.4996628004363182  0.1052553843997079  0.2962933706166738   T   T   T
  0.7509478565269457  0.1463083723506439  0.2974202618642219   T   T   T
  0.7514496819803391  0.2297229854584285  0.2998180493112234   T   T   T
  0.4997328907676739  0.0213922677506714  0.2949581328747871   T   T   T
  0.7488462034829214  0.3912997553727604  0.3052041047008116   T   T   T
  0.7502022356358196  0.4800888917995203  0.3038276898341464   T   T   T
  0.5046435081488194  0.2724986983289375  0.2990304218361917   T   T   T
  0.4992505094007678  0.6036250601074495  0.2966075247757958   T   T   T
  0.7497244359798668  0.7285460599855188  0.2957526716524284   T   T   T
  0.4985984913569927  0.8532395984558465  0.2942261175569167   T   T   T
  0.7496559176621187  0.8951663750016192  0.2943862648553457   T   T   T
  0.7499799626716929  0.9792015708798334  0.2947259990908148   T   T   T
  0.4986251007377732  0.7693435143447376  0.2947004563446045   T   T   T
  0.7496595752012806  0.6457714428318135  0.2978183203479838   T   T   T
  0.0005701892542635  0.0212368515232374  0.2956167206200907   T   T   T
  0.5055594688309059  0.5215354370828708  0.2965859479666529   T   T   T
 -0.0039187889419420  0.5207616722882353  0.3143454205923404   T   T   T
  0.5173745549403823  0.3519994028573379  0.2950723373222162   T   T   T
 -0.0174209300388545  0.3529288932600705  0.3171141891769513   T   T   T
  0.2481696750811271  0.6451026857898116  0.2991547152097458   T   T   T
  0.2633016318718956  0.4400980073126355  0.3175289688089939   T   T   T
 
  0.00000000E+00  0.00000000E+00  0.00000000E+00
  0.00000000E+00  0.00000000E+00  0.00000000E+00
  0.00000000E+00  0.00000000E+00  0.00000000E+00
  0.00000000E+00  0.00000000E+00  0.00000000E+00
  0.00000000E+00  0.00000000E+00  0.00000000E+00
  0.00000000E+00  0.00000000E+00  0.00000000E+00
  0.00000000E+00  0.00000000E+00  0.00000000E+00
  0.00000000E+00  0.00000000E+00  0.00000000E+00
  0.00000000E+00  0.00000000E+00  0.00000000E+00
  0.00000000E+00  0.00000000E+00  0.00000000E+00
  0.00000000E+00  0.00000000E+00  0.00000000E+00
  0.00000000E+00  0.00000000E+00  0.00000000E+00
  0.00000000E+00  0.00000000E+00  0.00000000E+00
  0.00000000E+00  0.00000000E+00  0.00000000E+00
  0.00000000E+00  0.00000000E+00  0.00000000E+00
  0.00000000E+00  0.00000000E+00  0.00000000E+00
  0.00000000E+00  0.00000000E+00  0.00000000E+00
  0.00000000E+00  0.00000000E+00  0.00000000E+00
  0.00000000E+00  0.00000000E+00  0.00000000E+00
  0.00000000E+00  0.00000000E+00  0.00000000E+00
  0.00000000E+00  0.00000000E+00  0.00000000E+00
  0.00000000E+00  0.00000000E+00  0.00000000E+00
  0.00000000E+00  0.00000000E+00  0.00000000E+00
  0.00000000E+00  0.00000000E+00  0.00000000E+00
  0.00000000E+00  0.00000000E+00  0.00000000E+00
  0.00000000E+00  0.00000000E+00  0.00000000E+00
  0.00000000E+00  0.00000000E+00  0.00000000E+00
  0.00000000E+00  0.00000000E+00  0.00000000E+00
  0.00000000E+00  0.00000000E+00  0.00000000E+00
  0.00000000E+00  0.00000000E+00  0.00000000E+00
  0.00000000E+00  0.00000000E+00  0.00000000E+00
