Title                                   
   1.00000000000000     
     9.8694509999999998    0.0000000000000000    0.0000000000000000
     0.0000000000000000    8.5490480000000009    0.0000000000000000
     0.0000000000000000    0.0000000000000000   20.0000000000000000
    26     5     1
Selective dynamics
Direct
  0.0558981481556088  0.0926903948164394  0.0888461683699175   T   T   T
  0.9297950696111750  0.1760516453285130  0.0893555757166409   T   T   T
  0.0567461239088887  0.9243307656293910  0.0882048350653503   T   T   T
  0.9288759414927747  0.3423568475759606  0.0890849493612707   T   T   T
  0.0565771790480240  0.5906204355395951  0.0864902512651823   T   T   T
  0.9322641903312247  0.6727573251925779  0.0869275559778578   T   T   T
  0.0556269416291798  0.4235063287013694  0.0893750841471909   T   T   T
  0.9317556788873514  0.8403398340756528  0.0883624288890817   T   T   T
  0.3053949111288883  0.0885607058589772  0.0930734886452299   T   T   T
  0.1820426399603348  0.1745900238658072  0.0907958282693301   T   T   T
  0.3071649196743431  0.9229949440285053  0.0941093045403127   T   T   T
  0.1822467666243731  0.3407499435395800  0.0922870429630610   T   T   T
  0.3058999623395382  0.5906906713505785  0.1019390404175232   T   T   T
  0.1813768978127060  0.6716281823834634  0.0902785349454130   T   T   T
  0.1819985768597840  0.8394440998889948  0.0905077828121506   T   T   T
  0.5568233333083661  0.0853085563858515  0.0982046237533813   T   T   T
  0.4309868471962492  0.1691969917461987  0.0965424780768799   T   T   T
  0.4342590012114589  0.3352315315547549  0.0960504017654937   T   T   T
  0.4294517125468030  0.8380189082340093  0.1057772600934523   T   T   T
  0.8068653821919899  0.0899286311417837  0.0916793218821073   T   T   T
  0.6808061658906143  0.1704901234405179  0.0947081408132517   T   T   T
  0.8067337993876791  0.9248019972326891  0.0919604401334809   T   T   T
  0.6755531973185283  0.3366489403256815  0.0921073318582096   T   T   T
  0.8052980233953163  0.5948171609340387  0.0914117855488557   T   T   T
  0.6851076492532492  0.8378407297946188  0.0994068715697063   T   T   T
  0.4198456335643840  0.6780599399481405  0.1225533320176354   T   T   T
  0.5542690013581107  0.4135764906894125  0.0926386266843316   T   T   T
  0.6905236601588066  0.6791208357304598  0.1024357113217893   T   T   T
  0.5574441896076034  0.9188093617211858  0.1030901915670820   T   T   T
  0.3086142740395091  0.4227217751811586  0.0970648557456337   T   T   T
  0.8005773602714686  0.4261316167464181  0.0888101034270413   T   T   T
  0.5628158218356739  0.5782302614176742  0.1615956523561720   T   T   T
 
  0.00000000E+00  0.00000000E+00  0.00000000E+00
  0.00000000E+00  0.00000000E+00  0.00000000E+00
  0.00000000E+00  0.00000000E+00  0.00000000E+00
  0.00000000E+00  0.00000000E+00  0.00000000E+00
  0.00000000E+00  0.00000000E+00  0.00000000E+00
  0.00000000E+00  0.00000000E+00  0.00000000E+00
  0.00000000E+00  0.00000000E+00  0.00000000E+00
  0.00000000E+00  0.00000000E+00  0.00000000E+00
  0.00000000E+00  0.00000000E+00  0.00000000E+00
  0.00000000E+00  0.00000000E+00  0.00000000E+00
  0.00000000E+00  0.00000000E+00  0.00000000E+00
  0.00000000E+00  0.00000000E+00  0.00000000E+00
  0.00000000E+00  0.00000000E+00  0.00000000E+00
  0.00000000E+00  0.00000000E+00  0.00000000E+00
  0.00000000E+00  0.00000000E+00  0.00000000E+00
  0.00000000E+00  0.00000000E+00  0.00000000E+00
  0.00000000E+00  0.00000000E+00  0.00000000E+00
  0.00000000E+00  0.00000000E+00  0.00000000E+00
  0.00000000E+00  0.00000000E+00  0.00000000E+00
  0.00000000E+00  0.00000000E+00  0.00000000E+00
  0.00000000E+00  0.00000000E+00  0.00000000E+00
  0.00000000E+00  0.00000000E+00  0.00000000E+00
  0.00000000E+00  0.00000000E+00  0.00000000E+00
  0.00000000E+00  0.00000000E+00  0.00000000E+00
  0.00000000E+00  0.00000000E+00  0.00000000E+00
  0.00000000E+00  0.00000000E+00  0.00000000E+00
  0.00000000E+00  0.00000000E+00  0.00000000E+00
  0.00000000E+00  0.00000000E+00  0.00000000E+00
  0.00000000E+00  0.00000000E+00  0.00000000E+00
  0.00000000E+00  0.00000000E+00  0.00000000E+00
  0.00000000E+00  0.00000000E+00  0.00000000E+00
  0.00000000E+00  0.00000000E+00  0.00000000E+00
