Title                                   
   1.00000000000000     
     4.9440799999999996    0.0000000000000000    0.0000000000000000
     0.0000000000000000   17.1295089999999988    0.0000000000000000
     0.0000000000000000    0.0000000000000000   20.0000000000000000
    28     2     1
Selective dynamics
Direct
  0.0014348165409504  0.1052098186065054  0.2976918068813412   T   T   T
  0.2503564709557770  0.1475071398172220  0.2983399892664811   T   T   T
  0.2503588829222126  0.2320221650118528  0.2999376483334033   T   T   T
 -0.0022745340586883  0.2722884637875498  0.3007861760574153   T   T   T
 -0.0003669515626442  0.6029234817393098  0.3012500416463532   T   T   T
  0.2503348810027420  0.7282537651905152  0.2988416201526171   T   T   T
  0.0005799386247692  0.8542227407235248  0.2972199999388124   T   T   T
  0.2503082013173564  0.8961082902184138  0.2969611879807849   T   T   T
  0.2503011410397900  0.9795930903400665  0.2968397317231617   T   T   T
  0.0006133112900350  0.7707104686722421  0.2981636117230472   T   T   T
  0.4992442385330394  0.1052048676093589  0.2976931249826653   T   T   T
  0.7503433043290829  0.1463856178058355  0.2982525261453750   T   T   T
  0.7503483571644487  0.2295721195729087  0.2998211778995874   T   T   T
  0.4997750848416837  0.0215409991641423  0.2969691988117634   T   T   T
  0.7503063448857701  0.3898959881539488  0.3029345001012098   T   T   T
  0.7502844804164949  0.4770184839456102  0.3031939053326422   T   T   T
  0.5029704215569148  0.2722904728712809  0.3007693336045678   T   T   T
  0.5010271583470054  0.6029175797559974  0.3012536897605662   T   T   T
  0.7503155636158915  0.7292648215294971  0.2987988662172679   T   T   T
  0.5000520701743096  0.8542317150756060  0.2972195350233905   T   T   T
  0.7503250147471756  0.8960881683637028  0.2969463538258532   T   T   T
  0.7503143534304749  0.9798337199534939  0.2968253832011468   T   T   T
  0.5000327663439914  0.7707194242925270  0.2981657631359733   T   T   T
  0.7503216784904486  0.6458111702478543  0.3004148483711076   T   T   T
  0.2503509246438247  0.6451361629214091  0.3004130464898301   T   T   T
  0.0008453026114985  0.0215441292510868  0.2969665523839103   T   T   T
  0.5139253729003648  0.5210571296834677  0.3026072949788564   T   T   T
  0.9866493546054287  0.5210640377457814  0.3025998249411068   T   T   T
  0.5148394775910273  0.3527166950464296  0.3024180456402095   T   T   T
 -0.0142207774360543  0.3527149920590003  0.3024560111115906   T   T   T
  0.2503103501348809  0.4374942808438567  0.3023092043379138   T   T   T
 
  0.00000000E+00  0.00000000E+00  0.00000000E+00
  0.00000000E+00  0.00000000E+00  0.00000000E+00
  0.00000000E+00  0.00000000E+00  0.00000000E+00
  0.00000000E+00  0.00000000E+00  0.00000000E+00
  0.00000000E+00  0.00000000E+00  0.00000000E+00
  0.00000000E+00  0.00000000E+00  0.00000000E+00
  0.00000000E+00  0.00000000E+00  0.00000000E+00
  0.00000000E+00  0.00000000E+00  0.00000000E+00
  0.00000000E+00  0.00000000E+00  0.00000000E+00
  0.00000000E+00  0.00000000E+00  0.00000000E+00
  0.00000000E+00  0.00000000E+00  0.00000000E+00
  0.00000000E+00  0.00000000E+00  0.00000000E+00
  0.00000000E+00  0.00000000E+00  0.00000000E+00
  0.00000000E+00  0.00000000E+00  0.00000000E+00
  0.00000000E+00  0.00000000E+00  0.00000000E+00
  0.00000000E+00  0.00000000E+00  0.00000000E+00
  0.00000000E+00  0.00000000E+00  0.00000000E+00
  0.00000000E+00  0.00000000E+00  0.00000000E+00
  0.00000000E+00  0.00000000E+00  0.00000000E+00
  0.00000000E+00  0.00000000E+00  0.00000000E+00
  0.00000000E+00  0.00000000E+00  0.00000000E+00
  0.00000000E+00  0.00000000E+00  0.00000000E+00
  0.00000000E+00  0.00000000E+00  0.00000000E+00
  0.00000000E+00  0.00000000E+00  0.00000000E+00
  0.00000000E+00  0.00000000E+00  0.00000000E+00
  0.00000000E+00  0.00000000E+00  0.00000000E+00
  0.00000000E+00  0.00000000E+00  0.00000000E+00
  0.00000000E+00  0.00000000E+00  0.00000000E+00
  0.00000000E+00  0.00000000E+00  0.00000000E+00
  0.00000000E+00  0.00000000E+00  0.00000000E+00
  0.00000000E+00  0.00000000E+00  0.00000000E+00
