Title                                   
   1.00000000000000     
     9.8694509999999998    0.0000000000000000    0.0000000000000000
     0.0000000000000000    8.5490480000000009    0.0000000000000000
     0.0000000000000000    0.0000000000000000   20.0000000000000000
    28     3     1
Selective dynamics
Direct
  0.0557185481090093  0.0913821687521109  0.0867224598913444   T   T   T
  0.9303658769957243  0.1747906717851167  0.0890938049512330   T   T   T
  0.0568122504041617  0.9233664607015027  0.0849617853106348   T   T   T
  0.9291792303180401  0.3418168508097050  0.0923078615757344   T   T   T
  0.0555126804690016  0.5896863211729982  0.0884453264128654   T   T   T
  0.9325531257832399  0.6737511092924323  0.0874233521000441   T   T   T
  0.0561099217445764  0.4227469173855873  0.0915878995022880   T   T   T
  0.9319117839357655  0.8410038987763048  0.0851555310729167   T   T   T
  0.3045522259327106  0.0872905707687453  0.0883641010410961   T   T   T
  0.1814312075979360  0.1734611469104320  0.0892076814447084   T   T   T
  0.3069082248668497  0.9217131229709447  0.0888962102605074   T   T   T
  0.1805800570354318  0.3398458318766109  0.0935682072359972   T   T   T
  0.3048903939824804  0.5891576673982238  0.1018001657173678   T   T   T
  0.1811633203623235  0.6706148308620531  0.0899514300166300   T   T   T
  0.1817936452562476  0.8376857340599749  0.0873956903633585   T   T   T
  0.5551251430640880  0.0866200113703655  0.0937317239981676   T   T   T
  0.4294517369419374  0.1683899926528822  0.0928487732679630   T   T   T
  0.4288580301320341  0.3348714100183147  0.1010489217922380   T   T   T
  0.4290425548874421  0.8362896114530410  0.0991980877328063   T   T   T
  0.8063261017327004  0.0906897228485909  0.0882488365644159   T   T   T
  0.6799809950303778  0.1701814813462005  0.0929310918342174   T   T   T
  0.8068575901345513  0.9257486621784261  0.0863898411852191   T   T   T
  0.6770866361559488  0.3363253311940629  0.1002370479127211   T   T   T
  0.8062979244361462  0.5946843551923767  0.0942165562408098   T   T   T
  0.8025293309364099  0.4258750383839445  0.0969984636728568   T   T   T
  0.6837540585427704  0.8412122567299752  0.0929554770068630   T   T   T
  0.4236075935740945  0.6757493148489506  0.1158339354497017   T   T   T
  0.5509962586991705  0.4111130874783549  0.1116442073505649   T   T   T
  0.6893528280188744  0.6834311895209688  0.1006119629027087   T   T   T
  0.5567590680191922  0.9187695237378065  0.0960010965046492   T   T   T
  0.3049575633103757  0.4212929154577867  0.1006648404571790   T   T   T
  0.5791730935903958  0.5906887920652122  0.1772326292302083   T   T   T
 
  0.00000000E+00  0.00000000E+00  0.00000000E+00
  0.00000000E+00  0.00000000E+00  0.00000000E+00
  0.00000000E+00  0.00000000E+00  0.00000000E+00
  0.00000000E+00  0.00000000E+00  0.00000000E+00
  0.00000000E+00  0.00000000E+00  0.00000000E+00
  0.00000000E+00  0.00000000E+00  0.00000000E+00
  0.00000000E+00  0.00000000E+00  0.00000000E+00
  0.00000000E+00  0.00000000E+00  0.00000000E+00
  0.00000000E+00  0.00000000E+00  0.00000000E+00
  0.00000000E+00  0.00000000E+00  0.00000000E+00
  0.00000000E+00  0.00000000E+00  0.00000000E+00
  0.00000000E+00  0.00000000E+00  0.00000000E+00
  0.00000000E+00  0.00000000E+00  0.00000000E+00
  0.00000000E+00  0.00000000E+00  0.00000000E+00
  0.00000000E+00  0.00000000E+00  0.00000000E+00
  0.00000000E+00  0.00000000E+00  0.00000000E+00
  0.00000000E+00  0.00000000E+00  0.00000000E+00
  0.00000000E+00  0.00000000E+00  0.00000000E+00
  0.00000000E+00  0.00000000E+00  0.00000000E+00
  0.00000000E+00  0.00000000E+00  0.00000000E+00
  0.00000000E+00  0.00000000E+00  0.00000000E+00
  0.00000000E+00  0.00000000E+00  0.00000000E+00
  0.00000000E+00  0.00000000E+00  0.00000000E+00
  0.00000000E+00  0.00000000E+00  0.00000000E+00
  0.00000000E+00  0.00000000E+00  0.00000000E+00
  0.00000000E+00  0.00000000E+00  0.00000000E+00
  0.00000000E+00  0.00000000E+00  0.00000000E+00
  0.00000000E+00  0.00000000E+00  0.00000000E+00
  0.00000000E+00  0.00000000E+00  0.00000000E+00
  0.00000000E+00  0.00000000E+00  0.00000000E+00
  0.00000000E+00  0.00000000E+00  0.00000000E+00
  0.00000000E+00  0.00000000E+00  0.00000000E+00
