Title                                   
   1.00000000000000     
     9.8694509999999998    0.0000000000000000    0.0000000000000000
     0.0000000000000000    8.5490480000000009    0.0000000000000000
     0.0000000000000000    0.0000000000000000   20.0000000000000000
    27     4     1
Selective dynamics
Direct
  0.0560492176075405  0.0917329012916024  0.0832190117895051   T   T   T
  0.9306607922322414  0.1748710296759244  0.0839182911627415   T   T   T
  0.0577988404709214  0.9246450794452885  0.0834890741853299   T   T   T
  0.9291578471780169  0.3425545563882681  0.0867261404838387   T   T   T
  0.0570404381145929  0.5911828422027167  0.0848148288736374   T   T   T
  0.9324874968380085  0.6742153006735073  0.0869821904424152   T   T   T
  0.0564200918526791  0.4237324029687703  0.0858928366324675   T   T   T
  0.9330902629509727  0.8409853303652521  0.0856545861937742   T   T   T
  0.3058310230585564  0.0883514176818463  0.0886813720550744   T   T   T
  0.1823709076912801  0.1732965090322459  0.0857478298306388   T   T   T
  0.1825170363868327  0.3401575750912601  0.0882437790360408   T   T   T
  0.3038765156763237  0.5894308513225134  0.1020980191149024   T   T   T
  0.1822462906206081  0.6742824676146559  0.0885644628632674   T   T   T
  0.3080534401396700  0.4218293726760832  0.0986060442440313   T   T   T
  0.1823590677210330  0.8415026433874899  0.0866579896682501   T   T   T
  0.5565686939371300  0.0845638589108460  0.0936623760244985   T   T   T
  0.5551866593916313  0.9205521139192743  0.1011076024184946   T   T   T
  0.4313470052344591  0.3310974438450247  0.1031418688184334   T   T   T
  0.4269755758304403  0.8413936209018755  0.1062331658986338   T   T   T
  0.8059672657579284  0.0896626553219276  0.0848073876007348   T   T   T
  0.6793806024554230  0.1700943648699300  0.0893651918944642   T   T   T
  0.8075976993351857  0.9241445293723541  0.0878450899149519   T   T   T
  0.6790549878874440  0.3344027047335179  0.0982304700325277   T   T   T
  0.8082627347853268  0.5942725379725745  0.0973098057295292   T   T   T
  0.8018744835212401  0.4251544664093286  0.0948080178178639   T   T   T
  0.6850997451287389  0.8407216085287903  0.1000158270340601   T   T   T
  0.4166190219829517  0.6821927487002464  0.1227418998000447   T   T   T
  0.5542944292722762  0.3981427523734691  0.1174886954708686   T   T   T
  0.6954770058101685  0.6829426808502000  0.1146255892839911   T   T   T
  0.3060554142652703  0.9257704934238680  0.0904772631676349   T   T   T
  0.4290423707912256  0.1666757827013285  0.0938158493650498   T   T   T
  0.5608760360738877  0.5856913573480222  0.1707024431523201   T   T   T
 
  0.00000000E+00  0.00000000E+00  0.00000000E+00
  0.00000000E+00  0.00000000E+00  0.00000000E+00
  0.00000000E+00  0.00000000E+00  0.00000000E+00
  0.00000000E+00  0.00000000E+00  0.00000000E+00
  0.00000000E+00  0.00000000E+00  0.00000000E+00
  0.00000000E+00  0.00000000E+00  0.00000000E+00
  0.00000000E+00  0.00000000E+00  0.00000000E+00
  0.00000000E+00  0.00000000E+00  0.00000000E+00
  0.00000000E+00  0.00000000E+00  0.00000000E+00
  0.00000000E+00  0.00000000E+00  0.00000000E+00
  0.00000000E+00  0.00000000E+00  0.00000000E+00
  0.00000000E+00  0.00000000E+00  0.00000000E+00
  0.00000000E+00  0.00000000E+00  0.00000000E+00
  0.00000000E+00  0.00000000E+00  0.00000000E+00
  0.00000000E+00  0.00000000E+00  0.00000000E+00
  0.00000000E+00  0.00000000E+00  0.00000000E+00
  0.00000000E+00  0.00000000E+00  0.00000000E+00
  0.00000000E+00  0.00000000E+00  0.00000000E+00
  0.00000000E+00  0.00000000E+00  0.00000000E+00
  0.00000000E+00  0.00000000E+00  0.00000000E+00
  0.00000000E+00  0.00000000E+00  0.00000000E+00
  0.00000000E+00  0.00000000E+00  0.00000000E+00
  0.00000000E+00  0.00000000E+00  0.00000000E+00
  0.00000000E+00  0.00000000E+00  0.00000000E+00
  0.00000000E+00  0.00000000E+00  0.00000000E+00
  0.00000000E+00  0.00000000E+00  0.00000000E+00
  0.00000000E+00  0.00000000E+00  0.00000000E+00
  0.00000000E+00  0.00000000E+00  0.00000000E+00
  0.00000000E+00  0.00000000E+00  0.00000000E+00
  0.00000000E+00  0.00000000E+00  0.00000000E+00
  0.00000000E+00  0.00000000E+00  0.00000000E+00
  0.00000000E+00  0.00000000E+00  0.00000000E+00
