Title                                   
   1.00000000000000     
     4.9440799999999996    0.0000000000000000    0.0000000000000000
     0.0000000000000000   17.1295089999999988    0.0000000000000000
     0.0000000000000000    0.0000000000000000   20.0000000000000000
    26     4     1
Selective dynamics
Direct
 -0.0000695160968148  0.1061027162469160  0.2957953302519363   T   T   T
  0.2488430011546770  0.1488378981787899  0.2963838622426295   T   T   T
  0.2480046165376815  0.2338030055472483  0.2990487068122227   T   T   T
 -0.0032602908204238  0.2755607218878735  0.3026489031999494   T   T   T
 -0.0032818226871753  0.5993641442053925  0.3030336381158009   T   T   T
  0.2487598953223747  0.7260895956719309  0.2968371219851231   T   T   T
 -0.0005306501087186  0.8531637891412964  0.2955687424051386   T   T   T
  0.2492626282838664  0.8953167631418969  0.2953157994156436   T   T   T
  0.2493037335543337  0.9796184400135159  0.2951559859432317   T   T   T
 -0.0001430227635899  0.7688362958382178  0.2962616535458544   T   T   T
  0.4987570622004050  0.1063197679234633  0.2949354702368628   T   T   T
  0.7499144990550910  0.1480863158972795  0.2951770049085205   T   T   T
  0.7503284033324403  0.2320040923795370  0.2961909914914601   T   T   T
  0.4989440020692125  0.0219803397787101  0.2947826543148943   T   T   T
  0.7483249036241983  0.3957150362752442  0.3010259965674965   T   T   T
  0.7482677893741595  0.4792100112993223  0.3011213833680730   T   T   T
  0.5012869600199580  0.2743140136102764  0.2962450257060736   T   T   T
  0.5012844653930522  0.6006214343432440  0.2966440695849356   T   T   T
  0.7498474498624443  0.7268546871614033  0.2956723618056685   T   T   T
  0.4988765086088775  0.8529525397045513  0.2950936715461259   T   T   T
  0.7490822608946834  0.8953050800320720  0.2950650615530717   T   T   T
  0.7491171648374575  0.9795985988972031  0.2949000946453986   T   T   T
  0.4986357003631535  0.7686015638371541  0.2953837026583347   T   T   T
  0.7502986436516476  0.6429329293903222  0.2966859673849014   T   T   T
  0.2479611472794577  0.6411166597466806  0.2994779079963378   T   T   T
 -0.0004865834121378  0.0217748091364990  0.2952516042829865   T   T   T
  0.5070039830253454  0.5204116440679427  0.2940190748610488   T   T   T
  0.9887032894179052  0.5190532813477126  0.3150422773301597   T   T   T
  0.5070512516503501  0.3545175124507955  0.2939183778556331   T   T   T
 -0.0112651921304028  0.3558214923066714  0.3148433152545697   T   T   T
  0.2911847185064919  0.4374568205408320  0.3475342427298695   T   T   T
 
  0.00000000E+00  0.00000000E+00  0.00000000E+00
  0.00000000E+00  0.00000000E+00  0.00000000E+00
  0.00000000E+00  0.00000000E+00  0.00000000E+00
  0.00000000E+00  0.00000000E+00  0.00000000E+00
  0.00000000E+00  0.00000000E+00  0.00000000E+00
  0.00000000E+00  0.00000000E+00  0.00000000E+00
  0.00000000E+00  0.00000000E+00  0.00000000E+00
  0.00000000E+00  0.00000000E+00  0.00000000E+00
  0.00000000E+00  0.00000000E+00  0.00000000E+00
  0.00000000E+00  0.00000000E+00  0.00000000E+00
  0.00000000E+00  0.00000000E+00  0.00000000E+00
  0.00000000E+00  0.00000000E+00  0.00000000E+00
  0.00000000E+00  0.00000000E+00  0.00000000E+00
  0.00000000E+00  0.00000000E+00  0.00000000E+00
  0.00000000E+00  0.00000000E+00  0.00000000E+00
  0.00000000E+00  0.00000000E+00  0.00000000E+00
  0.00000000E+00  0.00000000E+00  0.00000000E+00
  0.00000000E+00  0.00000000E+00  0.00000000E+00
  0.00000000E+00  0.00000000E+00  0.00000000E+00
  0.00000000E+00  0.00000000E+00  0.00000000E+00
  0.00000000E+00  0.00000000E+00  0.00000000E+00
  0.00000000E+00  0.00000000E+00  0.00000000E+00
  0.00000000E+00  0.00000000E+00  0.00000000E+00
  0.00000000E+00  0.00000000E+00  0.00000000E+00
  0.00000000E+00  0.00000000E+00  0.00000000E+00
  0.00000000E+00  0.00000000E+00  0.00000000E+00
  0.00000000E+00  0.00000000E+00  0.00000000E+00
  0.00000000E+00  0.00000000E+00  0.00000000E+00
  0.00000000E+00  0.00000000E+00  0.00000000E+00
  0.00000000E+00  0.00000000E+00  0.00000000E+00
  0.00000000E+00  0.00000000E+00  0.00000000E+00
