Title                                   
   1.00000000000000     
     8.5490480000000009    0.0000000000000000    0.0000000000000000
     0.0000000000000000    8.5490480000000009    0.0000000000000000
     0.0000000000000000    0.0000000000000000   20.0000000000000000
    19     5     1
Selective dynamics
Direct
  0.9093615044258386  0.2053639940935120  0.0945433834498395   T   T   T
  0.9103953485102868  0.8008822007882423  0.0942319726755338   T   T   T
  0.1960178435084862  0.0845340392264243  0.0943563411385949   T   T   T
  0.0761790456438600  0.2012941344883760  0.0939597949952247   T   T   T
  0.1538960321616058  0.6527687746311576  0.0970693843133855   T   T   T
  0.0750238581750200  0.5015148267495190  0.0964511782213873   T   T   T
  0.1549256263992038  0.3537771769857515  0.0958471866217868   T   T   T
  0.0777916625385159  0.7998357748140827  0.0947286186473003   T   T   T
  0.4943908516553491  0.0851266219360175  0.0973730347375695   T   T   T
  0.3456853585236233  0.1647858114193068  0.0965505204946793   T   T   T
  0.4931478342175230  0.9154451727945054  0.0969050897216578   T   T   T
  0.3416626703754043  0.8371884479606997  0.0973927444464974   T   T   T
  0.7890831875668610  0.0867382676599115  0.0953209332496229   T   T   T
  0.6429808451381180  0.1664006267392862  0.0980405862710974   T   T   T
  0.7891603626846432  0.9182011586081190  0.0946996547360367   T   T   T
  0.8308028089117220  0.6517131985601701  0.0956099462129118   T   T   T
  0.8297172791821085  0.3530328563167989  0.0968215858805392   T   T   T
  0.6433347860261919  0.8352957336064308  0.0961938489120428   T   T   T
  0.3212855170140488  0.3303253743089980  0.0977675256778801   T   T   T
  0.9070227252568216  0.5026519716272587  0.0961699004497772   T   T   T
  0.3158337151753206  0.6788512274650961  0.0999699342346319   T   T   T
  0.6689365137139064  0.3306120573342621  0.1005864171426390   T   T   T
  0.6711568379036341  0.6726124343302312  0.0969321954551145   T   T   T
  0.1964279836588694  0.9167363077800370  0.0948112962443793   T   T   T
  0.4911918016330311  0.4991018097758254  0.1313719260698434   T   T   T
 
  0.00000000E+00  0.00000000E+00  0.00000000E+00
  0.00000000E+00  0.00000000E+00  0.00000000E+00
  0.00000000E+00  0.00000000E+00  0.00000000E+00
  0.00000000E+00  0.00000000E+00  0.00000000E+00
  0.00000000E+00  0.00000000E+00  0.00000000E+00
  0.00000000E+00  0.00000000E+00  0.00000000E+00
  0.00000000E+00  0.00000000E+00  0.00000000E+00
  0.00000000E+00  0.00000000E+00  0.00000000E+00
  0.00000000E+00  0.00000000E+00  0.00000000E+00
  0.00000000E+00  0.00000000E+00  0.00000000E+00
  0.00000000E+00  0.00000000E+00  0.00000000E+00
  0.00000000E+00  0.00000000E+00  0.00000000E+00
  0.00000000E+00  0.00000000E+00  0.00000000E+00
  0.00000000E+00  0.00000000E+00  0.00000000E+00
  0.00000000E+00  0.00000000E+00  0.00000000E+00
  0.00000000E+00  0.00000000E+00  0.00000000E+00
  0.00000000E+00  0.00000000E+00  0.00000000E+00
  0.00000000E+00  0.00000000E+00  0.00000000E+00
  0.00000000E+00  0.00000000E+00  0.00000000E+00
  0.00000000E+00  0.00000000E+00  0.00000000E+00
  0.00000000E+00  0.00000000E+00  0.00000000E+00
  0.00000000E+00  0.00000000E+00  0.00000000E+00
  0.00000000E+00  0.00000000E+00  0.00000000E+00
  0.00000000E+00  0.00000000E+00  0.00000000E+00
  0.00000000E+00  0.00000000E+00  0.00000000E+00
