Title                                   
   1.00000000000000     
     9.8694509999999998    0.0000000000000000    0.0000000000000000
     0.0000000000000000    8.5490480000000009    0.0000000000000000
     0.0000000000000000    0.0000000000000000   20.0000000000000000
    26     5     1
Selective dynamics
Direct
  0.0567149544141272  0.0923853520311383  0.0904046784391500   T   T   T
  0.9311134729106074  0.1752310194446788  0.0929160782626804   T   T   T
  0.0572417683220225  0.9243830619806648  0.0899958129744391   T   T   T
  0.9293897628121472  0.3421728387840299  0.0978834728849241   T   T   T
  0.0562419831860101  0.5900418456255202  0.0947290661668508   T   T   T
  0.9324783960380029  0.6735274302555857  0.0960189581401824   T   T   T
  0.0577267655353825  0.4232024719552045  0.0954459289063709   T   T   T
  0.9324208757134175  0.8409426986123161  0.0922990158570372   T   T   T
  0.3056172108335511  0.0878841417321678  0.0879960663207169   T   T   T
  0.1829065500693366  0.1749875594538899  0.0900587238320620   T   T   T
  0.3068343733217852  0.9226753383831074  0.0885765378019117   T   T   T
  0.1835007454511819  0.3411695628944108  0.0922123606920320   T   T   T
  0.3084872744742620  0.5930982303677936  0.0900374680959171   T   T   T
  0.1817173713640694  0.6717377468548492  0.0919327899470227   T   T   T
  0.1816829849011782  0.8388498216007891  0.0894968820668765   T   T   T
  0.5562008643156290  0.0831586324033368  0.0918553830470397   T   T   T
  0.4318053061127998  0.1674534677682191  0.0901471383979628   T   T   T
  0.4343803645466912  0.3330834192569800  0.0977869244212476   T   T   T
  0.4283777379138091  0.8340483853611291  0.0879592023816352   T   T   T
  0.8072876847965594  0.0905098053107385  0.0907386212804311   T   T   T
  0.6802639593837273  0.1687997121785464  0.0948305713607914   T   T   T
  0.8077591796827773  0.9249323277086425  0.0906395500667738   T   T   T
  0.6762366632493951  0.3337659330261621  0.1055129936260006   T   T   T
  0.8058926418538546  0.5949861429580698  0.1048550109428389   T   T   T
  0.8014520273068930  0.4251178777759217  0.1049712965586545   T   T   T
  0.6853266343126586  0.8386834734980341  0.0961733295859043   T   T   T
  0.4266059856456249  0.6753589123924463  0.0832288954455806   T   T   T
  0.5515845305975665  0.4041274174895060  0.1154472706253428   T   T   T
  0.6907645377879459  0.6848764407087442  0.1118680928855938   T   T   T
  0.5576533200201513  0.9160606596490998  0.0898136817958693   T   T   T
  0.3119803643507199  0.4231181897323102  0.0917935375811424   T   T   T
  0.5419927087761219  0.5998760828059694  0.1580496596090338   T   T   T
 
  0.00000000E+00  0.00000000E+00  0.00000000E+00
  0.00000000E+00  0.00000000E+00  0.00000000E+00
  0.00000000E+00  0.00000000E+00  0.00000000E+00
  0.00000000E+00  0.00000000E+00  0.00000000E+00
  0.00000000E+00  0.00000000E+00  0.00000000E+00
  0.00000000E+00  0.00000000E+00  0.00000000E+00
  0.00000000E+00  0.00000000E+00  0.00000000E+00
  0.00000000E+00  0.00000000E+00  0.00000000E+00
  0.00000000E+00  0.00000000E+00  0.00000000E+00
  0.00000000E+00  0.00000000E+00  0.00000000E+00
  0.00000000E+00  0.00000000E+00  0.00000000E+00
  0.00000000E+00  0.00000000E+00  0.00000000E+00
  0.00000000E+00  0.00000000E+00  0.00000000E+00
  0.00000000E+00  0.00000000E+00  0.00000000E+00
  0.00000000E+00  0.00000000E+00  0.00000000E+00
  0.00000000E+00  0.00000000E+00  0.00000000E+00
  0.00000000E+00  0.00000000E+00  0.00000000E+00
  0.00000000E+00  0.00000000E+00  0.00000000E+00
  0.00000000E+00  0.00000000E+00  0.00000000E+00
  0.00000000E+00  0.00000000E+00  0.00000000E+00
  0.00000000E+00  0.00000000E+00  0.00000000E+00
  0.00000000E+00  0.00000000E+00  0.00000000E+00
  0.00000000E+00  0.00000000E+00  0.00000000E+00
  0.00000000E+00  0.00000000E+00  0.00000000E+00
  0.00000000E+00  0.00000000E+00  0.00000000E+00
  0.00000000E+00  0.00000000E+00  0.00000000E+00
  0.00000000E+00  0.00000000E+00  0.00000000E+00
  0.00000000E+00  0.00000000E+00  0.00000000E+00
  0.00000000E+00  0.00000000E+00  0.00000000E+00
  0.00000000E+00  0.00000000E+00  0.00000000E+00
  0.00000000E+00  0.00000000E+00  0.00000000E+00
  0.00000000E+00  0.00000000E+00  0.00000000E+00
