Title                                   
   1.00000000000000     
     4.9440799999999996    0.0000000000000000    0.0000000000000000
     0.0000000000000000    8.5647549999999999    0.0000000000000000
     0.0000000000000000    0.0000000000000000   20.0000000000000000
    14     1     1
Selective dynamics
Direct
  0.2500000000000000  0.2067102458252947  0.0880628300821241   T   T   T
 -0.0027237044282708  0.2882515975113753  0.0925523006138212   T   T   T
  0.2500000000000000  0.0425329928644521  0.0846052575202913   T   T   T
  0.0024554202484677  0.7985524579670207  0.1023954391989220   T   T   T
 -0.0005600690101580  0.9591869910693258  0.0860884093007432   T   T   T
  0.7500000000000000  0.2056222897332984  0.0836297909337151   T   T   T
  0.5027237044282710  0.2882515975113753  0.0925523006138212   T   T   T
  0.7500000000000000  0.0402584750974005  0.0809202179943839   T   T   T
  0.7500000000000000  0.7112163020302813  0.1082890182349256   T   T   T
  0.4975445797515323  0.7985524579670207  0.1023954391989220   T   T   T
  0.7500000000000000  0.5403960224461452  0.1105104283037844   T   T   T
  0.5005600690101580  0.9591869910693258  0.0860884093007432   T   T   T
  0.5102792452957589  0.4468906830827752  0.1102229845326314   T   T   T
 -0.0102792452957589  0.4468906830827752  0.1102229845326314   T   T   T
  0.2500000000000000  0.7319023994279156  0.1173020813202052   T   T   T
  0.2500000000000000  0.5355978133142191  0.1666741083183429   T   T   T
 
  0.00000000E+00  0.00000000E+00  0.00000000E+00
  0.00000000E+00  0.00000000E+00  0.00000000E+00
  0.00000000E+00  0.00000000E+00  0.00000000E+00
  0.00000000E+00  0.00000000E+00  0.00000000E+00
  0.00000000E+00  0.00000000E+00  0.00000000E+00
  0.00000000E+00  0.00000000E+00  0.00000000E+00
  0.00000000E+00  0.00000000E+00  0.00000000E+00
  0.00000000E+00  0.00000000E+00  0.00000000E+00
  0.00000000E+00  0.00000000E+00  0.00000000E+00
  0.00000000E+00  0.00000000E+00  0.00000000E+00
  0.00000000E+00  0.00000000E+00  0.00000000E+00
  0.00000000E+00  0.00000000E+00  0.00000000E+00
  0.00000000E+00  0.00000000E+00  0.00000000E+00
  0.00000000E+00  0.00000000E+00  0.00000000E+00
  0.00000000E+00  0.00000000E+00  0.00000000E+00
  0.00000000E+00  0.00000000E+00  0.00000000E+00
