Title                                   
   1.00000000000000     
     9.8694509999999998    0.0000000000000000    0.0000000000000000
     0.0000000000000000    8.5490480000000009    0.0000000000000000
     0.0000000000000000    0.0000000000000000   20.0000000000000000
    27     4     1
Selective dynamics
Direct
  0.0555903425338197  0.0904387321065647  0.0834586162438076   T   T   T
  0.9307609121763265  0.1752437523672893  0.0845672685752817   T   T   T
  0.0577770431995805  0.9228447638004875  0.0841058039363960   T   T   T
  0.9296148326911979  0.3423911268172122  0.0868108977888777   T   T   T
  0.0561038063586627  0.5913128097587801  0.0854441280886974   T   T   T
  0.0549097015653175  0.4244259606821304  0.0853704136761152   T   T   T
  0.9338154340128745  0.8400225178165375  0.0859240338100702   T   T   T
  0.3060768340391899  0.0870257800591838  0.0889621418091939   T   T   T
  0.1816574655751310  0.1718162479144524  0.0856094001025763   T   T   T
  0.1806175758775917  0.3390226039016843  0.0873372370555863   T   T   T
  0.3019361656762635  0.5865515163009918  0.1005846995062725   T   T   T
  0.1806990122763018  0.6735488072980371  0.0891206372839321   T   T   T
  0.3046703759318866  0.4194843234052233  0.0974277408863624   T   T   T
  0.1832902458352582  0.8405975637467185  0.0873456890401783   T   T   T
  0.5565571128092345  0.0863560215292320  0.0945084113870063   T   T   T
  0.5565918535402723  0.9191830267495303  0.1005318873321511   T   T   T
  0.4285982814583386  0.3309608854708344  0.1037579868876709   T   T   T
  0.4284434940405344  0.8377739467024085  0.1048995414348488   T   T   T
  0.8062321356843277  0.0902115191667364  0.0864977618536485   T   T   T
  0.6797457264600805  0.1725237787912786  0.0920484517057722   T   T   T
  0.8081948605347370  0.9242844611348768  0.0883174209937874   T   T   T
  0.6803042509577893  0.3396363161748784  0.1012990167454676   T   T   T
  0.8106165921568850  0.5958391245612115  0.0992228432067468   T   T   T
  0.8048828411343534  0.4275262183130935  0.0960709911460312   T   T   T
  0.6862459542662780  0.8413729110687814  0.1002773328979138   T   T   T
  0.4169177885774308  0.6768680522008699  0.1185800039459961   T   T   T
  0.5520946589748431  0.4059943603454167  0.1175417193448752   T   T   T
  0.7008428203099826  0.6836293221153488  0.1161365450216535   T   T   T
  0.3064723996603120  0.9232824784491271  0.0909292452297409   T   T   T
  0.4289186555426253  0.1661748675960306  0.0943484713878671   T   T   T
  0.9332731684497046  0.6745857377035197  0.0868419392954683   T   T   T
  0.5571866576928743  0.5893164659515330  0.1617967223800227   T   T   T
 
  0.00000000E+00  0.00000000E+00  0.00000000E+00
  0.00000000E+00  0.00000000E+00  0.00000000E+00
  0.00000000E+00  0.00000000E+00  0.00000000E+00
  0.00000000E+00  0.00000000E+00  0.00000000E+00
  0.00000000E+00  0.00000000E+00  0.00000000E+00
  0.00000000E+00  0.00000000E+00  0.00000000E+00
  0.00000000E+00  0.00000000E+00  0.00000000E+00
  0.00000000E+00  0.00000000E+00  0.00000000E+00
  0.00000000E+00  0.00000000E+00  0.00000000E+00
  0.00000000E+00  0.00000000E+00  0.00000000E+00
  0.00000000E+00  0.00000000E+00  0.00000000E+00
  0.00000000E+00  0.00000000E+00  0.00000000E+00
  0.00000000E+00  0.00000000E+00  0.00000000E+00
  0.00000000E+00  0.00000000E+00  0.00000000E+00
  0.00000000E+00  0.00000000E+00  0.00000000E+00
  0.00000000E+00  0.00000000E+00  0.00000000E+00
  0.00000000E+00  0.00000000E+00  0.00000000E+00
  0.00000000E+00  0.00000000E+00  0.00000000E+00
  0.00000000E+00  0.00000000E+00  0.00000000E+00
  0.00000000E+00  0.00000000E+00  0.00000000E+00
  0.00000000E+00  0.00000000E+00  0.00000000E+00
  0.00000000E+00  0.00000000E+00  0.00000000E+00
  0.00000000E+00  0.00000000E+00  0.00000000E+00
  0.00000000E+00  0.00000000E+00  0.00000000E+00
  0.00000000E+00  0.00000000E+00  0.00000000E+00
  0.00000000E+00  0.00000000E+00  0.00000000E+00
  0.00000000E+00  0.00000000E+00  0.00000000E+00
  0.00000000E+00  0.00000000E+00  0.00000000E+00
  0.00000000E+00  0.00000000E+00  0.00000000E+00
  0.00000000E+00  0.00000000E+00  0.00000000E+00
  0.00000000E+00  0.00000000E+00  0.00000000E+00
  0.00000000E+00  0.00000000E+00  0.00000000E+00
