Title                                   
   1.00000000000000     
     9.8694509999999998    0.0000000000000000    0.0000000000000000
     0.0000000000000000    8.5490480000000009    0.0000000000000000
     0.0000000000000000    0.0000000000000000   20.0000000000000000
    25     5     1
Selective dynamics
Direct
  0.0549007449740046  0.0894227152268671  0.0866098713130191   T   T   T
  0.9295126621429626  0.1741006030168470  0.0855432571034248   T   T   T
  0.0581342847197290  0.9211362198296024  0.0872678910014162   T   T   T
  0.9318101796332554  0.3411100119593612  0.0850845060795659   T   T   T
  0.0562658913320464  0.5907125377963309  0.0865903329582399   T   T   T
  0.0554677622171322  0.4238390802544307  0.0856763249237977   T   T   T
  0.9331450656257182  0.8404505963922509  0.0890840486666145   T   T   T
  0.3072554905321185  0.0870401017610676  0.0928666993163360   T   T   T
  0.1794311310563895  0.1694687964614935  0.0896873015575689   T   T   T
  0.1789270287903240  0.3367692293562973  0.0896147891758748   T   T   T
  0.3029840278447029  0.5843676448836777  0.0944948248100916   T   T   T
  0.1805678681588802  0.6719649349797894  0.0888111317180590   T   T   T
  0.3007545406302464  0.4170213727506406  0.0976960440825015   T   T   T
  0.1835426883110361  0.8392428995348767  0.0885248722850123   T   T   T
  0.4278112872758567  0.1725341111781090  0.1007313190616432   T   T   T
  0.5567393676444086  0.9214790669225594  0.0999766508489710   T   T   T
  0.4275772363881142  0.6682416341938500  0.1010849627077102   T   T   T
  0.4320437183347835  0.8349735768305028  0.0974800613796070   T   T   T
  0.8034684728212115  0.0912272615980049  0.0889027721827435   T   T   T
  0.6787207544323055  0.1794292400291809  0.0935378876147400   T   T   T
  0.8068888877737966  0.9234307042548208  0.0916745839709279   T   T   T
  0.6830078572791489  0.3466187954564166  0.0945369127937506   T   T   T
  0.8123650602182877  0.5954896960016234  0.0944661611805220   T   T   T
  0.8092419708057079  0.4274722409258648  0.0893454195670728   T   T   T
  0.6833901045917395  0.8394567921722431  0.1000908014912878   T   T   T
  0.9334419012891861  0.6747681058042123  0.0884733326047411   T   T   T
  0.5554301651659428  0.0936781905563421  0.0995314592388145   T   T   T
  0.4207581489515391  0.3342716874695314  0.1128093026672320   T   T   T
  0.6945417115272484  0.6760891672846973  0.1098124280188981   T   T   T
  0.3074667279658579  0.9202441943608047  0.0910872517190900   T   T   T
  0.5575422615663223  0.5048237907577304  0.1398717979607600   T   T   T
 
  0.00000000E+00  0.00000000E+00  0.00000000E+00
  0.00000000E+00  0.00000000E+00  0.00000000E+00
  0.00000000E+00  0.00000000E+00  0.00000000E+00
  0.00000000E+00  0.00000000E+00  0.00000000E+00
  0.00000000E+00  0.00000000E+00  0.00000000E+00
  0.00000000E+00  0.00000000E+00  0.00000000E+00
  0.00000000E+00  0.00000000E+00  0.00000000E+00
  0.00000000E+00  0.00000000E+00  0.00000000E+00
  0.00000000E+00  0.00000000E+00  0.00000000E+00
  0.00000000E+00  0.00000000E+00  0.00000000E+00
  0.00000000E+00  0.00000000E+00  0.00000000E+00
  0.00000000E+00  0.00000000E+00  0.00000000E+00
  0.00000000E+00  0.00000000E+00  0.00000000E+00
  0.00000000E+00  0.00000000E+00  0.00000000E+00
  0.00000000E+00  0.00000000E+00  0.00000000E+00
  0.00000000E+00  0.00000000E+00  0.00000000E+00
  0.00000000E+00  0.00000000E+00  0.00000000E+00
  0.00000000E+00  0.00000000E+00  0.00000000E+00
  0.00000000E+00  0.00000000E+00  0.00000000E+00
  0.00000000E+00  0.00000000E+00  0.00000000E+00
  0.00000000E+00  0.00000000E+00  0.00000000E+00
  0.00000000E+00  0.00000000E+00  0.00000000E+00
  0.00000000E+00  0.00000000E+00  0.00000000E+00
  0.00000000E+00  0.00000000E+00  0.00000000E+00
  0.00000000E+00  0.00000000E+00  0.00000000E+00
  0.00000000E+00  0.00000000E+00  0.00000000E+00
  0.00000000E+00  0.00000000E+00  0.00000000E+00
  0.00000000E+00  0.00000000E+00  0.00000000E+00
  0.00000000E+00  0.00000000E+00  0.00000000E+00
  0.00000000E+00  0.00000000E+00  0.00000000E+00
  0.00000000E+00  0.00000000E+00  0.00000000E+00
