Title                                   
   1.00000000000000     
     9.8694509999999998    0.0000000000000000    0.0000000000000000
     0.0000000000000000    8.5490480000000009    0.0000000000000000
     0.0000000000000000    0.0000000000000000   20.0000000000000000
    29     2     1
Selective dynamics
Direct
  0.0561277703469273  0.0910948747147281  0.0839908134637023   T   T   T
  0.9312335926501476  0.1727197945162113  0.0858712532554873   T   T   T
  0.0569021737705852  0.9241894661359598  0.0844089305978762   T   T   T
  0.9313056856141149  0.3400201372009889  0.0892026867148435   T   T   T
  0.0571347179570430  0.5899291032790392  0.0859234456570564   T   T   T
  0.9326708580735962  0.6725556591365422  0.0896877598888744   T   T   T
  0.0573549309896441  0.4230616416584644  0.0866578566554637   T   T   T
  0.9320877533939532  0.8391757975470302  0.0870080656522552   T   T   T
  0.3056958921044936  0.0886179534773339  0.0881772243840801   T   T   T
  0.1818438539770892  0.1733367114485102  0.0858088636558328   T   T   T
  0.1833242490744392  0.3411261611671514  0.0879348354158664   T   T   T
  0.3039688959917847  0.5928468028062758  0.0979222243799338   T   T   T
  0.1811714994963389  0.6749806523541437  0.0876751399909221   T   T   T
  0.3079081081933550  0.4255683647634622  0.0965398816182027   T   T   T
  0.1807439701873847  0.8414569461224962  0.0869157812918940   T   T   T
  0.5558067598535250  0.0858636365248123  0.0945097553853997   T   T   T
  0.4308000127916274  0.1699512784448052  0.0934097139437098   T   T   T
  0.5537177365289485  0.9196993673485636  0.0986617861688226   T   T   T
  0.4314212328649896  0.3355181805667619  0.1023127109399133   T   T   T
  0.5568249662470006  0.4059467880818053  0.1197970228179474   T   T   T
  0.4255302686005444  0.8405686569883409  0.1001431982357284   T   T   T
  0.8067210559793609  0.0880597082655570  0.0877362315505478   T   T   T
  0.6816328892665039  0.1691674867152723  0.0939941834282356   T   T   T
  0.8064915219066259  0.9219625116731061  0.0892516530670692   T   T   T
  0.6827008004582806  0.3339301526291230  0.1044135272083148   T   T   T
  0.8103334269304547  0.5894229934670304  0.1024114746885820   T   T   T
  0.6934604659878381  0.6788958696083400  0.1182606332961612   T   T   T
  0.8075977899192769  0.4213215589806438  0.0999518393860296   T   T   T
  0.6826725242849020  0.8387486458599980  0.1006791894175802   T   T   T
  0.4157528533245642  0.6842967889081268  0.1138819603079485   T   T   T
  0.3047111268331544  0.9248131208536188  0.0897344224213650   T   T   T
  0.5539896164015117  0.5913991887557449  0.1708009351143997   T   T   T
 
  0.00000000E+00  0.00000000E+00  0.00000000E+00
  0.00000000E+00  0.00000000E+00  0.00000000E+00
  0.00000000E+00  0.00000000E+00  0.00000000E+00
  0.00000000E+00  0.00000000E+00  0.00000000E+00
  0.00000000E+00  0.00000000E+00  0.00000000E+00
  0.00000000E+00  0.00000000E+00  0.00000000E+00
  0.00000000E+00  0.00000000E+00  0.00000000E+00
  0.00000000E+00  0.00000000E+00  0.00000000E+00
  0.00000000E+00  0.00000000E+00  0.00000000E+00
  0.00000000E+00  0.00000000E+00  0.00000000E+00
  0.00000000E+00  0.00000000E+00  0.00000000E+00
  0.00000000E+00  0.00000000E+00  0.00000000E+00
  0.00000000E+00  0.00000000E+00  0.00000000E+00
  0.00000000E+00  0.00000000E+00  0.00000000E+00
  0.00000000E+00  0.00000000E+00  0.00000000E+00
  0.00000000E+00  0.00000000E+00  0.00000000E+00
  0.00000000E+00  0.00000000E+00  0.00000000E+00
  0.00000000E+00  0.00000000E+00  0.00000000E+00
  0.00000000E+00  0.00000000E+00  0.00000000E+00
  0.00000000E+00  0.00000000E+00  0.00000000E+00
  0.00000000E+00  0.00000000E+00  0.00000000E+00
  0.00000000E+00  0.00000000E+00  0.00000000E+00
  0.00000000E+00  0.00000000E+00  0.00000000E+00
  0.00000000E+00  0.00000000E+00  0.00000000E+00
  0.00000000E+00  0.00000000E+00  0.00000000E+00
  0.00000000E+00  0.00000000E+00  0.00000000E+00
  0.00000000E+00  0.00000000E+00  0.00000000E+00
  0.00000000E+00  0.00000000E+00  0.00000000E+00
  0.00000000E+00  0.00000000E+00  0.00000000E+00
  0.00000000E+00  0.00000000E+00  0.00000000E+00
  0.00000000E+00  0.00000000E+00  0.00000000E+00
  0.00000000E+00  0.00000000E+00  0.00000000E+00
