Title                                   
   1.00000000000000     
     9.8694509999999998    0.0000000000000000    0.0000000000000000
     0.0000000000000000    8.5490480000000009    0.0000000000000000
     0.0000000000000000    0.0000000000000000   20.0000000000000000
    26     5     1
Selective dynamics
Direct
  0.0563426287392234  0.0923732147715205  0.0876835867639847   T   T   T
  0.9310646029122441  0.1746174281205172  0.0892395807832689   T   T   T
  0.0575915002014849  0.9249204200816958  0.0868179564697054   T   T   T
  0.9295105185511537  0.3425112402152875  0.0917863599844201   T   T   T
  0.0570088875954081  0.5909979894268123  0.0879300100065231   T   T   T
  0.9326071265315564  0.6740069616162413  0.0896370103247628   T   T   T
  0.0565489305413721  0.4234750245614978  0.0900278121846506   T   T   T
  0.9330497063264067  0.8404618148094284  0.0885475033958911   T   T   T
  0.3064103510230370  0.0883553370060092  0.0899087384051612   T   T   T
  0.1831012161672252  0.1740792144410704  0.0892046436861079   T   T   T
  0.1837333606976309  0.3412045974109206  0.0910174106857146   T   T   T
  0.3067868615048920  0.5928116544011135  0.0956897003222673   T   T   T
  0.1814601263370525  0.6748617017082355  0.0882838931669482   T   T   T
  0.3104209249632152  0.4240478876314874  0.0956475084427222   T   T   T
  0.1810237202835298  0.8412204505986435  0.0874938122101312   T   T   T
  0.5562778444277895  0.0833536714809614  0.0950152917022291   T   T   T
  0.5548572291877679  0.9179712062124882  0.0995996845830598   T   T   T
  0.4346448722465778  0.3331659163221446  0.0981247546792778   T   T   T
  0.4264545052799401  0.8362517981160912  0.0986134652410795   T   T   T
  0.8062153595216371  0.0889455956871752  0.0894954976535176   T   T   T
  0.6794588466677203  0.1690880498123180  0.0924409025218743   T   T   T
  0.8076444336751918  0.9235133843124728  0.0905087374838253   T   T   T
  0.6776349866439352  0.3355861730640451  0.0979752382945793   T   T   T
  0.8066765896449990  0.5949562457177355  0.0984156208547841   T   T   T
  0.8018248337662849  0.4251104576933286  0.0972820741713168   T   T   T
  0.6853770543903003  0.8368148184948273  0.0995172605363390   T   T   T
  0.4199648643227296  0.6826150412298967  0.1059370337664518   T   T   T
  0.5537375060385861  0.4051013032174145  0.1058611743423098   T   T   T
  0.6918441939377086  0.6798696090620931  0.1092567169329500   T   T   T
  0.3058743799808454  0.9252611013332176  0.0891011705446568   T   T   T
  0.4298170662126904  0.1665873868011088  0.0930755219968929   T   T   T
  0.5546739716798701  0.5861093046422011  0.1765393278626128   T   T   T
 
  0.00000000E+00  0.00000000E+00  0.00000000E+00
  0.00000000E+00  0.00000000E+00  0.00000000E+00
  0.00000000E+00  0.00000000E+00  0.00000000E+00
  0.00000000E+00  0.00000000E+00  0.00000000E+00
  0.00000000E+00  0.00000000E+00  0.00000000E+00
  0.00000000E+00  0.00000000E+00  0.00000000E+00
  0.00000000E+00  0.00000000E+00  0.00000000E+00
  0.00000000E+00  0.00000000E+00  0.00000000E+00
  0.00000000E+00  0.00000000E+00  0.00000000E+00
  0.00000000E+00  0.00000000E+00  0.00000000E+00
  0.00000000E+00  0.00000000E+00  0.00000000E+00
  0.00000000E+00  0.00000000E+00  0.00000000E+00
  0.00000000E+00  0.00000000E+00  0.00000000E+00
  0.00000000E+00  0.00000000E+00  0.00000000E+00
  0.00000000E+00  0.00000000E+00  0.00000000E+00
  0.00000000E+00  0.00000000E+00  0.00000000E+00
  0.00000000E+00  0.00000000E+00  0.00000000E+00
  0.00000000E+00  0.00000000E+00  0.00000000E+00
  0.00000000E+00  0.00000000E+00  0.00000000E+00
  0.00000000E+00  0.00000000E+00  0.00000000E+00
  0.00000000E+00  0.00000000E+00  0.00000000E+00
  0.00000000E+00  0.00000000E+00  0.00000000E+00
  0.00000000E+00  0.00000000E+00  0.00000000E+00
  0.00000000E+00  0.00000000E+00  0.00000000E+00
  0.00000000E+00  0.00000000E+00  0.00000000E+00
  0.00000000E+00  0.00000000E+00  0.00000000E+00
  0.00000000E+00  0.00000000E+00  0.00000000E+00
  0.00000000E+00  0.00000000E+00  0.00000000E+00
  0.00000000E+00  0.00000000E+00  0.00000000E+00
  0.00000000E+00  0.00000000E+00  0.00000000E+00
  0.00000000E+00  0.00000000E+00  0.00000000E+00
  0.00000000E+00  0.00000000E+00  0.00000000E+00
