Title                                   
   1.00000000000000     
     9.8694509999999998    0.0000000000000000    0.0000000000000000
     0.0000000000000000    8.5490480000000009    0.0000000000000000
     0.0000000000000000    0.0000000000000000   20.0000000000000000
    25     6     1
Selective dynamics
Direct
  0.0559315918009826  0.0913692503095298  0.0893539612840613   T   T   T
  0.9311569397461580  0.1747737816116561  0.0899824345557995   T   T   T
  0.0570705793879806  0.9232203673721003  0.0894725628077538   T   T   T
  0.9301486019859577  0.3417706416532360  0.0925007660253206   T   T   T
  0.0564337673104296  0.5915596731539441  0.0905988003567255   T   T   T
  0.0559589328022925  0.4240105486851211  0.0914538408886514   T   T   T
  0.9328954086212889  0.8397295671359025  0.0911793068130218   T   T   T
  0.3062744223846012  0.0885512585281615  0.0908920888065099   T   T   T
  0.1823184148048212  0.1736967752175654  0.0904609604254944   T   T   T
  0.1827863785097736  0.3410796797740259  0.0915155117822112   T   T   T
  0.3057008962913837  0.5918182683477398  0.0946174004219314   T   T   T
  0.1800565444652433  0.6745070094513247  0.0908054207368211   T   T   T
  0.3104630243864762  0.4228971075200176  0.0941903786536221   T   T   T
  0.1816464530816711  0.8418802643845583  0.0901156095163674   T   T   T
  0.5563569454115778  0.0848435457603815  0.0927997424179119   T   T   T
  0.5551739607056655  0.9173921565472395  0.0951868205843857   T   T   T
  0.4337332753572981  0.3329165568433148  0.0968820394812855   T   T   T
  0.4270351444620417  0.8367061124710874  0.0947762576992746   T   T   T
  0.8064538931704309  0.0887568085710727  0.0895764896382278   T   T   T
  0.6798982174462113  0.1694064554929837  0.0918735387340159   T   T   T
  0.8081134246561437  0.9227095101105395  0.0913369725298801   T   T   T
  0.6785502500992513  0.3366772498278223  0.0979421928458428   T   T   T
  0.8085331318671495  0.5946883422686029  0.1004807807530912   T   T   T
  0.8029446780351104  0.4258976992462320  0.0977093610067625   T   T   T
  0.6843916550165272  0.8384450303599619  0.0982105790997328   T   T   T
  0.4215103881547982  0.6809481945485393  0.0992991154023031   T   T   T
  0.5540307936528523  0.4050248220668107  0.1056787625127024   T   T   T
  0.6947331924534083  0.6801322761343844  0.1103704504779910   T   T   T
  0.3049646377604755  0.9251847606291989  0.0911431739717790   T   T   T
  0.4299875023727026  0.1659639780479563  0.0924608546565649   T   T   T
  0.9325091816527943  0.6730034703834846  0.0924220880666618   T   T   T
  0.5518767721465085  0.5906848375455073  0.1703867370473114   T   T   T
 
  0.00000000E+00  0.00000000E+00  0.00000000E+00
  0.00000000E+00  0.00000000E+00  0.00000000E+00
  0.00000000E+00  0.00000000E+00  0.00000000E+00
  0.00000000E+00  0.00000000E+00  0.00000000E+00
  0.00000000E+00  0.00000000E+00  0.00000000E+00
  0.00000000E+00  0.00000000E+00  0.00000000E+00
  0.00000000E+00  0.00000000E+00  0.00000000E+00
  0.00000000E+00  0.00000000E+00  0.00000000E+00
  0.00000000E+00  0.00000000E+00  0.00000000E+00
  0.00000000E+00  0.00000000E+00  0.00000000E+00
  0.00000000E+00  0.00000000E+00  0.00000000E+00
  0.00000000E+00  0.00000000E+00  0.00000000E+00
  0.00000000E+00  0.00000000E+00  0.00000000E+00
  0.00000000E+00  0.00000000E+00  0.00000000E+00
  0.00000000E+00  0.00000000E+00  0.00000000E+00
  0.00000000E+00  0.00000000E+00  0.00000000E+00
  0.00000000E+00  0.00000000E+00  0.00000000E+00
  0.00000000E+00  0.00000000E+00  0.00000000E+00
  0.00000000E+00  0.00000000E+00  0.00000000E+00
  0.00000000E+00  0.00000000E+00  0.00000000E+00
  0.00000000E+00  0.00000000E+00  0.00000000E+00
  0.00000000E+00  0.00000000E+00  0.00000000E+00
  0.00000000E+00  0.00000000E+00  0.00000000E+00
  0.00000000E+00  0.00000000E+00  0.00000000E+00
  0.00000000E+00  0.00000000E+00  0.00000000E+00
  0.00000000E+00  0.00000000E+00  0.00000000E+00
  0.00000000E+00  0.00000000E+00  0.00000000E+00
  0.00000000E+00  0.00000000E+00  0.00000000E+00
  0.00000000E+00  0.00000000E+00  0.00000000E+00
  0.00000000E+00  0.00000000E+00  0.00000000E+00
  0.00000000E+00  0.00000000E+00  0.00000000E+00
  0.00000000E+00  0.00000000E+00  0.00000000E+00
