Title                                   
   1.00000000000000     
     9.8694509999999998    0.0000000000000000    0.0000000000000000
     0.0000000000000000    8.5490480000000009    0.0000000000000000
     0.0000000000000000    0.0000000000000000   20.0000000000000000
    30     1     1
Selective dynamics
Direct
  0.0562413955062528  0.0900640470087969  0.0796714192226996   T   T   T
  0.9310444304042443  0.1734141117373014  0.0819294992735015   T   T   T
  0.0562161256667750  0.9229303592074508  0.0809363985649670   T   T   T
  0.9302543503157364  0.3404802120810988  0.0856795029742831   T   T   T
  0.0562521778060798  0.5891753619247843  0.0846207549649532   T   T   T
  0.9314009322906943  0.6725137714120856  0.0877472194909981   T   T   T
  0.0562190772616225  0.4232919753576343  0.0843701215625429   T   T   T
  0.9309411059178652  0.8396353578524128  0.0844266565586178   T   T   T
  0.3054581018582412  0.0894607273554046  0.0844066890981025   T   T   T
  0.1814423813466247  0.1734112369109500  0.0819238935292638   T   T   T
  0.3067108082641643  0.9235307927310594  0.0865424174800041   T   T   T
  0.1821904372817433  0.3404842685180300  0.0856972418383282   T   T   T
  0.3032552795387398  0.5908362283049444  0.1007569252787711   T   T   T
  0.1810889453731285  0.6725108923107419  0.0878026583499259   T   T   T
  0.3065007499603352  0.4225768703545647  0.0973448212240988   T   T   T
  0.1814925492549390  0.8396236168375540  0.0844534007168446   T   T   T
  0.5562135330976268  0.0858739926666352  0.0935168066303537   T   T   T
  0.4305064894596016  0.1697174007779224  0.0920160590907249   T   T   T
  0.4302479279728582  0.3336873029456631  0.1028619240982208   T   T   T
  0.4201734100720673  0.6826726791481164  0.1203381699229105   T   T   T
  0.5562446302814197  0.4044194499811624  0.1222954677276202   T   T   T
  0.4298843728413168  0.8425908485828638  0.0995326307764981   T   T   T
  0.8070246385496576  0.0894796256391749  0.0844042525017409   T   T   T
  0.6819586914208309  0.1696909474449242  0.0920065581497420   T   T   T
  0.8057242749329947  0.9235650829137448  0.0865132898283504   T   T   T
  0.6822006027053154  0.3336551237556856  0.1028309792099171   T   T   T
  0.8092484821029512  0.5908105843230798  0.1006582169059995   T   T   T
  0.6923823409625767  0.6826858572863476  0.1202306682666247   T   T   T
  0.8059393790973591  0.4225512581097757  0.0972910451258533   T   T   T
  0.6825390203489222  0.8426212944303632  0.0994662171423613   T   T   T
  0.5562050652728558  0.9225988432106470  0.0982269964745625   T   T   T
  0.5564372928344667  0.5896858788790885  0.1751760980206525   T   T   T
 
  0.00000000E+00  0.00000000E+00  0.00000000E+00
  0.00000000E+00  0.00000000E+00  0.00000000E+00
  0.00000000E+00  0.00000000E+00  0.00000000E+00
  0.00000000E+00  0.00000000E+00  0.00000000E+00
  0.00000000E+00  0.00000000E+00  0.00000000E+00
  0.00000000E+00  0.00000000E+00  0.00000000E+00
  0.00000000E+00  0.00000000E+00  0.00000000E+00
  0.00000000E+00  0.00000000E+00  0.00000000E+00
  0.00000000E+00  0.00000000E+00  0.00000000E+00
  0.00000000E+00  0.00000000E+00  0.00000000E+00
  0.00000000E+00  0.00000000E+00  0.00000000E+00
  0.00000000E+00  0.00000000E+00  0.00000000E+00
  0.00000000E+00  0.00000000E+00  0.00000000E+00
  0.00000000E+00  0.00000000E+00  0.00000000E+00
  0.00000000E+00  0.00000000E+00  0.00000000E+00
  0.00000000E+00  0.00000000E+00  0.00000000E+00
  0.00000000E+00  0.00000000E+00  0.00000000E+00
  0.00000000E+00  0.00000000E+00  0.00000000E+00
  0.00000000E+00  0.00000000E+00  0.00000000E+00
  0.00000000E+00  0.00000000E+00  0.00000000E+00
  0.00000000E+00  0.00000000E+00  0.00000000E+00
  0.00000000E+00  0.00000000E+00  0.00000000E+00
  0.00000000E+00  0.00000000E+00  0.00000000E+00
  0.00000000E+00  0.00000000E+00  0.00000000E+00
  0.00000000E+00  0.00000000E+00  0.00000000E+00
  0.00000000E+00  0.00000000E+00  0.00000000E+00
  0.00000000E+00  0.00000000E+00  0.00000000E+00
  0.00000000E+00  0.00000000E+00  0.00000000E+00
  0.00000000E+00  0.00000000E+00  0.00000000E+00
  0.00000000E+00  0.00000000E+00  0.00000000E+00
  0.00000000E+00  0.00000000E+00  0.00000000E+00
  0.00000000E+00  0.00000000E+00  0.00000000E+00
