Title                                   
   1.00000000000000     
     4.9440799999999996    0.0000000000000000    0.0000000000000000
     0.0000000000000000   17.1295089999999988    0.0000000000000000
     0.0000000000000000    0.0000000000000000   20.0000000000000000
    29     1     1
Selective dynamics
Direct
 -0.0027972837509966  0.1054990797070004  0.2973534420943019   T   T   T
  0.2461670330748229  0.1480867626006418  0.2976661262960487   T   T   T
  0.2452821292386646  0.2317295197924440  0.2988792162425767   T   T   T
 -0.0052197657851396  0.2741395179941649  0.3003975353367582   T   T   T
  0.0044601179452561  0.6015947863490821  0.2996361792706557   T   T   T
  0.2521337865550602  0.7275847191897689  0.2977666724476898   T   T   T
  0.0001242124602209  0.8536095272390255  0.2972038980367775   T   T   T
  0.2499941499008416  0.8957685786685227  0.2971821248401031   T   T   T
  0.2487890541207315  0.9795299176291680  0.2970640231640930   T   T   T
  0.0011678509401285  0.7697586181664939  0.2974027866370365   T   T   T
  0.4971670916971981  0.1057446979562734  0.2970836838389683   T   T   T
  0.7474417320570771  0.1475004913966827  0.2972662576677749   T   T   T
  0.7458441686599713  0.2314637051498805  0.2981933095521243   T   T   T
  0.4983755733948490  0.0218447255226710  0.2969679196981556   T   T   T
  0.7537325439828441  0.3932882720247739  0.3017183655769355   T   T   T
  0.7581967453310380  0.4786459635621439  0.3020620633071608   T   T   T
  0.4952763345386145  0.2738023360411885  0.2984865238677442   T   T   T
  0.5027670110486087  0.6009684618346796  0.3004106272989633   T   T   T
  0.7518567891956435  0.7276389446515326  0.2976525476024541   T   T   T
  0.5006364428030941  0.8536423792911055  0.2972575577502856   T   T   T
  0.7499897850120411  0.8957471985082617  0.2971090726728145   T   T   T
  0.7487380213826669  0.9797025863671711  0.2969649210639787   T   T   T
  0.5020482338754244  0.7698356972070258  0.2975174692813643   T   T   T
  0.7528463909687405  0.6435475326015998  0.2988919296030824   T   T   T
  0.2535013803945891  0.6442136823350507  0.2990250691435586   T   T   T
 -0.0016038849779270  0.0216692577006386  0.2970731713142613   T   T   T
  0.5063212964969335  0.5176941098023379  0.3041797717063597   T   T   T
  0.0040584062713861  0.5187796101946114  0.3022836076991162   T   T   T
  0.5046833493659532  0.3564175663915884  0.2999431329152223   T   T   T
 -0.0071486131898085  0.3546351934311082  0.3043300416199994   T   T   T
  0.2551769169914757  0.4372585606933592  0.3200909524535862   T   T   T
 
  0.00000000E+00  0.00000000E+00  0.00000000E+00
  0.00000000E+00  0.00000000E+00  0.00000000E+00
  0.00000000E+00  0.00000000E+00  0.00000000E+00
  0.00000000E+00  0.00000000E+00  0.00000000E+00
  0.00000000E+00  0.00000000E+00  0.00000000E+00
  0.00000000E+00  0.00000000E+00  0.00000000E+00
  0.00000000E+00  0.00000000E+00  0.00000000E+00
  0.00000000E+00  0.00000000E+00  0.00000000E+00
  0.00000000E+00  0.00000000E+00  0.00000000E+00
  0.00000000E+00  0.00000000E+00  0.00000000E+00
  0.00000000E+00  0.00000000E+00  0.00000000E+00
  0.00000000E+00  0.00000000E+00  0.00000000E+00
  0.00000000E+00  0.00000000E+00  0.00000000E+00
  0.00000000E+00  0.00000000E+00  0.00000000E+00
  0.00000000E+00  0.00000000E+00  0.00000000E+00
  0.00000000E+00  0.00000000E+00  0.00000000E+00
  0.00000000E+00  0.00000000E+00  0.00000000E+00
  0.00000000E+00  0.00000000E+00  0.00000000E+00
  0.00000000E+00  0.00000000E+00  0.00000000E+00
  0.00000000E+00  0.00000000E+00  0.00000000E+00
  0.00000000E+00  0.00000000E+00  0.00000000E+00
  0.00000000E+00  0.00000000E+00  0.00000000E+00
  0.00000000E+00  0.00000000E+00  0.00000000E+00
  0.00000000E+00  0.00000000E+00  0.00000000E+00
  0.00000000E+00  0.00000000E+00  0.00000000E+00
  0.00000000E+00  0.00000000E+00  0.00000000E+00
  0.00000000E+00  0.00000000E+00  0.00000000E+00
  0.00000000E+00  0.00000000E+00  0.00000000E+00
  0.00000000E+00  0.00000000E+00  0.00000000E+00
  0.00000000E+00  0.00000000E+00  0.00000000E+00
  0.00000000E+00  0.00000000E+00  0.00000000E+00
