Title                                   
   1.00000000000000     
     9.8694509999999998    0.0000000000000000    0.0000000000000000
     0.0000000000000000    8.5490480000000009    0.0000000000000000
     0.0000000000000000    0.0000000000000000   20.0000000000000000
    27     3     1
Selective dynamics
Direct
  0.0549804894396543  0.0896943550352527  0.0861953941247502   T   T   T
  0.9299992222055122  0.1735911759274529  0.0861535082036809   T   T   T
  0.0579272635261446  0.9232409204751806  0.0866816269870805   T   T   T
  0.9320837831124085  0.3412633995149870  0.0848060692600606   T   T   T
  0.0570842911977211  0.5902095782566833  0.0831200815331928   T   T   T
  0.9338037335082938  0.6755049635413702  0.0866617409313125   T   T   T
  0.0565661714878385  0.4230490851351968  0.0828954783640449   T   T   T
  0.9330569470712784  0.8418392984944499  0.0884413490660998   T   T   T
  0.3060940786255743  0.0868716479175403  0.0937803611232920   T   T   T
  0.1799800580924230  0.1694583000783489  0.0884281097357571   T   T   T
  0.1795501922026341  0.3362818602906991  0.0868160659254104   T   T   T
  0.3033179908269278  0.5850567205042236  0.0917155662049454   T   T   T
  0.1817018855731928  0.6726035720880706  0.0856756272575990   T   T   T
  0.3009050200262839  0.4180831533916151  0.0948828030341789   T   T   T
  0.1831832737393382  0.8393003706892723  0.0872939547209527   T   T   T
  0.5551751645491695  0.0912930067014295  0.1017814602289133   T   T   T
  0.4277339528279373  0.1734507583426802  0.1022500016602982   T   T   T
  0.5564226158851822  0.9210698156258043  0.1020572431895549   T   T   T
  0.4271045967763751  0.6673533147371670  0.1006694763795128   T   T   T
  0.4313318620248884  0.8336057055391820  0.0988245052183459   T   T   T
  0.8038289139326091  0.0918868142253839  0.0910837699594692   T   T   T
  0.6794412360961675  0.1791245682665668  0.0973368598662308   T   T   T
  0.8059874854397417  0.9238831225170450  0.0928910522444040   T   T   T
  0.6841522120385223  0.3473513707380102  0.0992292180629420   T   T   T
  0.8119492121338847  0.5945393151505955  0.0939865233382171   T   T   T
  0.8093109241364804  0.4268727685680582  0.0907824417478772   T   T   T
  0.6835963253361330  0.8367579772887037  0.1013420026387475   T   T   T
  0.4199971904201464  0.3374196058878280  0.1109390627920828   T   T   T
  0.6920269770505627  0.6732150220999443  0.1095709515146970   T   T   T
  0.3080507477773660  0.9212037720225102  0.0921071618286300   T   T   T
  0.5567911829396105  0.5057996609487748  0.1425655328577537   T   T   T
 
  0.00000000E+00  0.00000000E+00  0.00000000E+00
  0.00000000E+00  0.00000000E+00  0.00000000E+00
  0.00000000E+00  0.00000000E+00  0.00000000E+00
  0.00000000E+00  0.00000000E+00  0.00000000E+00
  0.00000000E+00  0.00000000E+00  0.00000000E+00
  0.00000000E+00  0.00000000E+00  0.00000000E+00
  0.00000000E+00  0.00000000E+00  0.00000000E+00
  0.00000000E+00  0.00000000E+00  0.00000000E+00
  0.00000000E+00  0.00000000E+00  0.00000000E+00
  0.00000000E+00  0.00000000E+00  0.00000000E+00
  0.00000000E+00  0.00000000E+00  0.00000000E+00
  0.00000000E+00  0.00000000E+00  0.00000000E+00
  0.00000000E+00  0.00000000E+00  0.00000000E+00
  0.00000000E+00  0.00000000E+00  0.00000000E+00
  0.00000000E+00  0.00000000E+00  0.00000000E+00
  0.00000000E+00  0.00000000E+00  0.00000000E+00
  0.00000000E+00  0.00000000E+00  0.00000000E+00
  0.00000000E+00  0.00000000E+00  0.00000000E+00
  0.00000000E+00  0.00000000E+00  0.00000000E+00
  0.00000000E+00  0.00000000E+00  0.00000000E+00
  0.00000000E+00  0.00000000E+00  0.00000000E+00
  0.00000000E+00  0.00000000E+00  0.00000000E+00
  0.00000000E+00  0.00000000E+00  0.00000000E+00
  0.00000000E+00  0.00000000E+00  0.00000000E+00
  0.00000000E+00  0.00000000E+00  0.00000000E+00
  0.00000000E+00  0.00000000E+00  0.00000000E+00
  0.00000000E+00  0.00000000E+00  0.00000000E+00
  0.00000000E+00  0.00000000E+00  0.00000000E+00
  0.00000000E+00  0.00000000E+00  0.00000000E+00
  0.00000000E+00  0.00000000E+00  0.00000000E+00
  0.00000000E+00  0.00000000E+00  0.00000000E+00
