Title                                   
   1.00000000000000     
     9.8694509999999998    0.0000000000000000    0.0000000000000000
     0.0000000000000000    8.5490480000000009    0.0000000000000000
     0.0000000000000000    0.0000000000000000   20.0000000000000000
    28     2     1
Selective dynamics
Direct
  0.0557455912026286  0.0894554954841023  0.0842632476905612   T   T   T
  0.9308352558959712  0.1719256491351066  0.0867686862709427   T   T   T
  0.0557377877365022  0.9228896961373085  0.0842817386977232   T   T   T
  0.9337474118981691  0.3385633273685679  0.0860853019758995   T   T   T
  0.0572540537179993  0.5892932152563179  0.0818062889107831   T   T   T
  0.9337383628578361  0.6737668139922136  0.0861251286172568   T   T   T
  0.0572525279109748  0.4230747670709172  0.0817821880581298   T   T   T
  0.9308350199473224  0.8404009974726447  0.0867988819274717   T   T   T
  0.3063863532879160  0.0902934940632848  0.0908897829982249   T   T   T
  0.1806912868211780  0.1720948538451547  0.0855555646936178   T   T   T
  0.3063783156596355  0.9220427133829391  0.0908893873821324   T   T   T
  0.1807300666636412  0.3392344075155380  0.0843904094325983   T   T   T
  0.3032302402918933  0.5905412050231779  0.0922623996341644   T   T   T
  0.1807319515696492  0.6731216542352485  0.0844124218152825   T   T   T
  0.3032314930854837  0.4217759829594886  0.0922504889963385   T   T   T
  0.1806899896668252  0.8402563005738347  0.0855743645638306   T   T   T
  0.5542561198517035  0.0914422854937341  0.1030443956580442   T   T   T
  0.4285000960656719  0.1774016777463593  0.0997889496528859   T   T   T
  0.5542403073078320  0.9208296577697943  0.1030252164575528   T   T   T
  0.4284902825314717  0.8349071158598002  0.0997753111034598   T   T   T
  0.8046284228292711  0.0901581887856169  0.0927425025556156   T   T   T
  0.6809587279467941  0.1756286608652761  0.1018055580644428   T   T   T
  0.8046203393931937  0.9221465355146614  0.0927353936675647   T   T   T
  0.6893032586531507  0.3426173009371304  0.1101485692580421   T   T   T
  0.8133945027138465  0.5898362575672413  0.0961586811370242   T   T   T
  0.6892770785370276  0.6696563245434338  0.1101252638968594   T   T   T
  0.8134046894451882  0.4224350963711223  0.0961493796146167   T   T   T
  0.6809522052569233  0.8366568207036058  0.1017749332481140   T   T   T
  0.4226929416191592  0.3408710615433082  0.1046002222319869   T   T   T
  0.4226693341537467  0.6714515874763646  0.1046066674081015   T   T   T
  0.5585309854814019  0.5061058553067208  0.1403476743807731   T   T   T
 
  0.00000000E+00  0.00000000E+00  0.00000000E+00
  0.00000000E+00  0.00000000E+00  0.00000000E+00
  0.00000000E+00  0.00000000E+00  0.00000000E+00
  0.00000000E+00  0.00000000E+00  0.00000000E+00
  0.00000000E+00  0.00000000E+00  0.00000000E+00
  0.00000000E+00  0.00000000E+00  0.00000000E+00
  0.00000000E+00  0.00000000E+00  0.00000000E+00
  0.00000000E+00  0.00000000E+00  0.00000000E+00
  0.00000000E+00  0.00000000E+00  0.00000000E+00
  0.00000000E+00  0.00000000E+00  0.00000000E+00
  0.00000000E+00  0.00000000E+00  0.00000000E+00
  0.00000000E+00  0.00000000E+00  0.00000000E+00
  0.00000000E+00  0.00000000E+00  0.00000000E+00
  0.00000000E+00  0.00000000E+00  0.00000000E+00
  0.00000000E+00  0.00000000E+00  0.00000000E+00
  0.00000000E+00  0.00000000E+00  0.00000000E+00
  0.00000000E+00  0.00000000E+00  0.00000000E+00
  0.00000000E+00  0.00000000E+00  0.00000000E+00
  0.00000000E+00  0.00000000E+00  0.00000000E+00
  0.00000000E+00  0.00000000E+00  0.00000000E+00
  0.00000000E+00  0.00000000E+00  0.00000000E+00
  0.00000000E+00  0.00000000E+00  0.00000000E+00
  0.00000000E+00  0.00000000E+00  0.00000000E+00
  0.00000000E+00  0.00000000E+00  0.00000000E+00
  0.00000000E+00  0.00000000E+00  0.00000000E+00
  0.00000000E+00  0.00000000E+00  0.00000000E+00
  0.00000000E+00  0.00000000E+00  0.00000000E+00
  0.00000000E+00  0.00000000E+00  0.00000000E+00
  0.00000000E+00  0.00000000E+00  0.00000000E+00
  0.00000000E+00  0.00000000E+00  0.00000000E+00
  0.00000000E+00  0.00000000E+00  0.00000000E+00
