Title                                   
   1.00000000000000     
     4.9440799999999996    0.0000000000000000    0.0000000000000000
     0.0000000000000000   17.1295089999999988    0.0000000000000000
     0.0000000000000000    0.0000000000000000   20.0000000000000000
    27     3     1
Selective dynamics
Direct
 -0.0013636404382077  0.1058391913019163  0.2986633409190850   T   T   T
  0.2472360237924443  0.1488683696999399  0.2992008618724089   T   T   T
  0.2467307659555472  0.2330957018622149  0.3001318057943126   T   T   T
 -0.0038786153348366  0.2764282217395848  0.2992434839704554   T   T   T
  0.0033648050613776  0.6007022077154921  0.2960655710954875   T   T   T
  0.2536410700253768  0.7252726587393298  0.2991382030388959   T   T   T
  0.0024666365332003  0.8522959812487808  0.2987302311418457   T   T   T
  0.2509680418665302  0.8949838356553045  0.2988311353564652   T   T   T
  0.2499670720239674  0.9793440227017086  0.2986742622128415   T   T   T
  0.0032292064857680  0.7675161164887417  0.2986480389605481   T   T   T
  0.4985155445407361  0.1062820043951131  0.2991891245607929   T   T   T
  0.7492078697668638  0.1482444390663721  0.2993457931460966   T   T   T
  0.7476403435280088  0.2326607178990564  0.3003949453669590   T   T   T
  0.4995123755456012  0.0217723203404882  0.2988235556735738   T   T   T
  0.7477684155052727  0.3952403467741282  0.3011070063359098   T   T   T
  0.7528485045499870  0.4814815645146150  0.2994205680836527   T   T   T
  0.4974441314407935  0.2745384459745046  0.3026311389595251   T   T   T
  0.5046940034342903  0.5990722445161650  0.3013529124477752   T   T   T
  0.7514766744875502  0.7266155218645934  0.2988021792467297   T   T   T
  0.5001970286342354  0.8525875585245830  0.2990923808683655   T   T   T
  0.7509997280627303  0.8945089231717434  0.2988231821220295   T   T   T
  0.7498640677329916  0.9791342215557182  0.2986841071983207   T   T   T
  0.5012485339668572  0.7679411162424024  0.2993121497084501   T   T   T
  0.7530830828290618  0.6429750170006282  0.2984855542103454   T   T   T
 -0.0003758964364898  0.0215703705568671  0.2985213640062165   T   T   T
 -0.0011268549477589  0.5188831713860753  0.2918393748507718   T   T   T
  0.5026968157058589  0.3575883917047953  0.3065631325351106   T   T   T
  0.5077970858664493  0.5189292697647220  0.3063429785243565   T   T   T
 -0.0088244617384040  0.3575850818263141  0.2971950748294591   T   T   T
  0.2546073947512171  0.6416345119088748  0.2991321064559733   T   T   T
  0.2483712468029811  0.4377504538592236  0.3026744365071907   T   T   T
 
  0.00000000E+00  0.00000000E+00  0.00000000E+00
  0.00000000E+00  0.00000000E+00  0.00000000E+00
  0.00000000E+00  0.00000000E+00  0.00000000E+00
  0.00000000E+00  0.00000000E+00  0.00000000E+00
  0.00000000E+00  0.00000000E+00  0.00000000E+00
  0.00000000E+00  0.00000000E+00  0.00000000E+00
  0.00000000E+00  0.00000000E+00  0.00000000E+00
  0.00000000E+00  0.00000000E+00  0.00000000E+00
  0.00000000E+00  0.00000000E+00  0.00000000E+00
  0.00000000E+00  0.00000000E+00  0.00000000E+00
  0.00000000E+00  0.00000000E+00  0.00000000E+00
  0.00000000E+00  0.00000000E+00  0.00000000E+00
  0.00000000E+00  0.00000000E+00  0.00000000E+00
  0.00000000E+00  0.00000000E+00  0.00000000E+00
  0.00000000E+00  0.00000000E+00  0.00000000E+00
  0.00000000E+00  0.00000000E+00  0.00000000E+00
  0.00000000E+00  0.00000000E+00  0.00000000E+00
  0.00000000E+00  0.00000000E+00  0.00000000E+00
  0.00000000E+00  0.00000000E+00  0.00000000E+00
  0.00000000E+00  0.00000000E+00  0.00000000E+00
  0.00000000E+00  0.00000000E+00  0.00000000E+00
  0.00000000E+00  0.00000000E+00  0.00000000E+00
  0.00000000E+00  0.00000000E+00  0.00000000E+00
  0.00000000E+00  0.00000000E+00  0.00000000E+00
  0.00000000E+00  0.00000000E+00  0.00000000E+00
  0.00000000E+00  0.00000000E+00  0.00000000E+00
  0.00000000E+00  0.00000000E+00  0.00000000E+00
  0.00000000E+00  0.00000000E+00  0.00000000E+00
  0.00000000E+00  0.00000000E+00  0.00000000E+00
  0.00000000E+00  0.00000000E+00  0.00000000E+00
  0.00000000E+00  0.00000000E+00  0.00000000E+00
