Title                                   
   1.00000000000000     
     9.8694509999999998    0.0000000000000000    0.0000000000000000
     0.0000000000000000    8.5490480000000009    0.0000000000000000
     0.0000000000000000    0.0000000000000000   20.0000000000000000
    26     5     1
Selective dynamics
Direct
  0.0566070385749673  0.0910318998350421  0.0861686767984260   T   T   T
  0.9314730543451615  0.1748329001864622  0.0857999002431836   T   T   T
  0.0581498925837366  0.9228478464213287  0.0866969401528645   T   T   T
  0.9288694475531645  0.3428896394142126  0.0860514170999793   T   T   T
  0.0571504175748669  0.5913262551369767  0.0895820330819891   T   T   T
  0.0556564624934193  0.4244148930123756  0.0892021436531829   T   T   T
  0.9343433574364981  0.8394192304994786  0.0866648179732041   T   T   T
  0.3072034541787936  0.0865874798917970  0.0904710911148556   T   T   T
  0.1831168116321989  0.1725341054491121  0.0884810456180607   T   T   T
  0.1830779301328506  0.3400965459539155  0.0917914568728665   T   T   T
  0.3057038684530549  0.5885298503233196  0.1081167118212964   T   T   T
  0.1823888409852622  0.6738626163005312  0.0946572627568280   T   T   T
  0.3085338316410515  0.4216424572388501  0.1001375527547155   T   T   T
  0.1838651802342938  0.8403842895356692  0.0907933078583665   T   T   T
  0.5574969853543762  0.0840660790155607  0.0944147796914597   T   T   T
  0.5569974179087994  0.9186231792098333  0.1016327158721735   T   T   T
  0.4359557352535028  0.3337829958182597  0.0950565170963069   T   T   T
  0.4288701929310912  0.8370755341478784  0.1101943891284598   T   T   T
  0.8072418205289622  0.0889473081410415  0.0872892766723993   T   T   T
  0.6800056209923510  0.1701705644178330  0.0887260538648991   T   T   T
  0.8084429278955155  0.9229503432014219  0.0884904336180553   T   T   T
  0.6761259471237080  0.3382086976333964  0.0871436351918167   T   T   T
  0.8046347004738817  0.5970468032663189  0.0875177672950857   T   T   T
  0.8018219191590029  0.4263114145430726  0.0857965245267258   T   T   T
  0.6849804366840069  0.8371550535220812  0.0943828050943514   T   T   T
  0.4177117496196083  0.6821201172493045  0.1293072412788932   T   T   T
  0.5521242734926189  0.4083130081072519  0.0905158266897118   T   T   T
  0.6911101499975142  0.6780087332433066  0.0923278197045961   T   T   T
  0.3068230855252130  0.9224619509782630  0.0918710618659278   T   T   T
  0.4303905800315565  0.1650050853117503  0.0938330475459358   T   T   T
  0.9338926350054121  0.6738888474148849  0.0869371723494332   T   T   T
  0.5488732342035667  0.5957102755794708  0.2056235747139666   T   T   T
 
  0.00000000E+00  0.00000000E+00  0.00000000E+00
  0.00000000E+00  0.00000000E+00  0.00000000E+00
  0.00000000E+00  0.00000000E+00  0.00000000E+00
  0.00000000E+00  0.00000000E+00  0.00000000E+00
  0.00000000E+00  0.00000000E+00  0.00000000E+00
  0.00000000E+00  0.00000000E+00  0.00000000E+00
  0.00000000E+00  0.00000000E+00  0.00000000E+00
  0.00000000E+00  0.00000000E+00  0.00000000E+00
  0.00000000E+00  0.00000000E+00  0.00000000E+00
  0.00000000E+00  0.00000000E+00  0.00000000E+00
  0.00000000E+00  0.00000000E+00  0.00000000E+00
  0.00000000E+00  0.00000000E+00  0.00000000E+00
  0.00000000E+00  0.00000000E+00  0.00000000E+00
  0.00000000E+00  0.00000000E+00  0.00000000E+00
  0.00000000E+00  0.00000000E+00  0.00000000E+00
  0.00000000E+00  0.00000000E+00  0.00000000E+00
  0.00000000E+00  0.00000000E+00  0.00000000E+00
  0.00000000E+00  0.00000000E+00  0.00000000E+00
  0.00000000E+00  0.00000000E+00  0.00000000E+00
  0.00000000E+00  0.00000000E+00  0.00000000E+00
  0.00000000E+00  0.00000000E+00  0.00000000E+00
  0.00000000E+00  0.00000000E+00  0.00000000E+00
  0.00000000E+00  0.00000000E+00  0.00000000E+00
  0.00000000E+00  0.00000000E+00  0.00000000E+00
  0.00000000E+00  0.00000000E+00  0.00000000E+00
  0.00000000E+00  0.00000000E+00  0.00000000E+00
  0.00000000E+00  0.00000000E+00  0.00000000E+00
  0.00000000E+00  0.00000000E+00  0.00000000E+00
  0.00000000E+00  0.00000000E+00  0.00000000E+00
  0.00000000E+00  0.00000000E+00  0.00000000E+00
  0.00000000E+00  0.00000000E+00  0.00000000E+00
  0.00000000E+00  0.00000000E+00  0.00000000E+00
