Title                                   
   1.00000000000000     
     9.8694509999999998    0.0000000000000000    0.0000000000000000
     0.0000000000000000    8.5490480000000009    0.0000000000000000
     0.0000000000000000    0.0000000000000000   20.0000000000000000
    26     4     1
Selective dynamics
Direct
  0.0562389586351809  0.0896705750125005  0.0835266743416860   T   T   T
  0.9314573369849350  0.1722946038962004  0.0853863826098579   T   T   T
  0.0562393028917974  0.9226768468671724  0.0835274741743201   T   T   T
  0.9325482238472410  0.3393871972233082  0.0841689006415332   T   T   T
  0.0562522666749237  0.5892034983155272  0.0804172545236615   T   T   T
  0.9325565805132007  0.6729802379072057  0.0841804730532340   T   T   T
  0.0562488000678916  0.4231761319337329  0.0804049422108226   T   T   T
  0.9314569962713449  0.8400595481777070  0.0853880840275112   T   T   T
  0.3065837242099976  0.0899542296459152  0.0919665962796005   T   T   T
  0.1809918516421141  0.1722836522066111  0.0857359809071633   T   T   T
  0.3065875683826890  0.9223396747079217  0.0919767987576089   T   T   T
  0.1798845292819720  0.3393887912125438  0.0845908844613888   T   T   T
  0.3020540613641312  0.5909533206939034  0.0945558279639910   T   T   T
  0.1798927252136295  0.6729708887503641  0.0846215249245291   T   T   T
  0.3020484111309397  0.4213736858879391  0.0945311089808318   T   T   T
  0.1809847987546775  0.8400604152117075  0.0857462064717795   T   T   T
  0.5562289617047509  0.0927655139343580  0.1045084709000108   T   T   T
  0.4285294702516888  0.1764171048362213  0.1020112331247023   T   T   T
  0.5562295326972659  0.9194977371171345  0.1045270780479124   T   T   T
  0.4285426291668114  0.8358644314205289  0.1020237904957512   T   T   T
  0.8058343149551492  0.0899424368694958  0.0914833348327100   T   T   T
  0.6838916602733008  0.1764069817219330  0.1015824452866413   T   T   T
  0.8058277679240388  0.9223432168508703  0.0914962607808288   T   T   T
  0.8103324067296885  0.5909427992179487  0.0938313377126452   T   T   T
  0.8103185464604574  0.4213949015812409  0.0938209542854806   T   T   T
  0.6838943269560229  0.8358574095535909  0.1016096717967110   T   T   T
  0.4198031203525276  0.3384096748701179  0.1088002441797405   T   T   T
  0.4198330815039080  0.6738777001427406  0.1088066035294112   T   T   T
  0.6926566773993669  0.3384198476245499  0.1081750902342883   T   T   T
  0.6926466065705370  0.6738614041005349  0.1081792800966623   T   T   T
  0.5565407611878276  0.5061005425084720  0.1393840903670260   T   T   T
 
  0.00000000E+00  0.00000000E+00  0.00000000E+00
  0.00000000E+00  0.00000000E+00  0.00000000E+00
  0.00000000E+00  0.00000000E+00  0.00000000E+00
  0.00000000E+00  0.00000000E+00  0.00000000E+00
  0.00000000E+00  0.00000000E+00  0.00000000E+00
  0.00000000E+00  0.00000000E+00  0.00000000E+00
  0.00000000E+00  0.00000000E+00  0.00000000E+00
  0.00000000E+00  0.00000000E+00  0.00000000E+00
  0.00000000E+00  0.00000000E+00  0.00000000E+00
  0.00000000E+00  0.00000000E+00  0.00000000E+00
  0.00000000E+00  0.00000000E+00  0.00000000E+00
  0.00000000E+00  0.00000000E+00  0.00000000E+00
  0.00000000E+00  0.00000000E+00  0.00000000E+00
  0.00000000E+00  0.00000000E+00  0.00000000E+00
  0.00000000E+00  0.00000000E+00  0.00000000E+00
  0.00000000E+00  0.00000000E+00  0.00000000E+00
  0.00000000E+00  0.00000000E+00  0.00000000E+00
  0.00000000E+00  0.00000000E+00  0.00000000E+00
  0.00000000E+00  0.00000000E+00  0.00000000E+00
  0.00000000E+00  0.00000000E+00  0.00000000E+00
  0.00000000E+00  0.00000000E+00  0.00000000E+00
  0.00000000E+00  0.00000000E+00  0.00000000E+00
  0.00000000E+00  0.00000000E+00  0.00000000E+00
  0.00000000E+00  0.00000000E+00  0.00000000E+00
  0.00000000E+00  0.00000000E+00  0.00000000E+00
  0.00000000E+00  0.00000000E+00  0.00000000E+00
  0.00000000E+00  0.00000000E+00  0.00000000E+00
  0.00000000E+00  0.00000000E+00  0.00000000E+00
  0.00000000E+00  0.00000000E+00  0.00000000E+00
  0.00000000E+00  0.00000000E+00  0.00000000E+00
  0.00000000E+00  0.00000000E+00  0.00000000E+00
