Title                                   
   1.00000000000000     
     9.8694509999999998    0.0000000000000000    0.0000000000000000
     0.0000000000000000    8.5490480000000009    0.0000000000000000
     0.0000000000000000    0.0000000000000000   20.0000000000000000
    25     5     1
Selective dynamics
Direct
  0.0548758767224282  0.0899380086951384  0.0904138146189804   T   T   T
  0.9304566573202471  0.1737888437291796  0.0954180231764439   T   T   T
  0.0573770087841293  0.9239807297023001  0.0904152547454915   T   T   T
  0.9325734171954770  0.3413461408105657  0.0963257071810612   T   T   T
  0.0567579426346671  0.5896787061709124  0.0874392497112427   T   T   T
  0.9339303592123437  0.6742548920323636  0.0946076275760755   T   T   T
  0.0562063441053266  0.4230134208727046  0.0875423343610803   T   T   T
  0.9323501252042564  0.8411324757654941  0.0940894302233352   T   T   T
  0.3060165245239391  0.0858340805872504  0.0902251039178022   T   T   T
  0.1813185983272079  0.1712670809081432  0.0869616363237920   T   T   T
  0.1797737694575725  0.3379685426345910  0.0840945077890215   T   T   T
  0.3050144143056747  0.5889747489611987  0.0872662278275106   T   T   T
  0.1810448218130669  0.6730465765525623  0.0854374751252761   T   T   T
  0.3047631843353877  0.4187968761678764  0.0840395115919484   T   T   T
  0.1815130146462507  0.8388921586494363  0.0886553629303801   T   T   T
  0.4287761254008455  0.1745184091307799  0.0934251020285243   T   T   T
  0.5537878391226237  0.9190307227107581  0.1029918484232985   T   T   T
  0.4291023753953854  0.8340809673548094  0.0984664850771119   T   T   T
  0.8043398570595814  0.0908401516535209  0.0996089528143252   T   T   T
  0.6805592307133383  0.1780102081333746  0.1085012494664341   T   T   T
  0.8071696051997731  0.9246664792320406  0.0988123287871677   T   T   T
  0.6881170321344964  0.3396494902321732  0.1208492872973955   T   T   T
  0.8113093171699436  0.5949167436163105  0.1056612983186116   T   T   T
  0.8102582318828084  0.4230669524818749  0.1090241715102181   T   T   T
  0.6838208389453445  0.8366520045238137  0.1049121248829476   T   T   T
  0.5539253192675846  0.0924999526883213  0.1029288418296714   T   T   T
  0.4225252801366015  0.3324363201717356  0.0878643552123059   T   T   T
  0.6929818326161251  0.6780369949597311  0.1111256558070002   T   T   T
  0.4218000862810703  0.6735070772169401  0.0990960088283770   T   T   T
  0.3058267095289851  0.9215440352108706  0.0916177743707115   T   T   T
  0.5548632605575246  0.5055052084432388  0.1231482482464938   T   T   T
 
  0.00000000E+00  0.00000000E+00  0.00000000E+00
  0.00000000E+00  0.00000000E+00  0.00000000E+00
  0.00000000E+00  0.00000000E+00  0.00000000E+00
  0.00000000E+00  0.00000000E+00  0.00000000E+00
  0.00000000E+00  0.00000000E+00  0.00000000E+00
  0.00000000E+00  0.00000000E+00  0.00000000E+00
  0.00000000E+00  0.00000000E+00  0.00000000E+00
  0.00000000E+00  0.00000000E+00  0.00000000E+00
  0.00000000E+00  0.00000000E+00  0.00000000E+00
  0.00000000E+00  0.00000000E+00  0.00000000E+00
  0.00000000E+00  0.00000000E+00  0.00000000E+00
  0.00000000E+00  0.00000000E+00  0.00000000E+00
  0.00000000E+00  0.00000000E+00  0.00000000E+00
  0.00000000E+00  0.00000000E+00  0.00000000E+00
  0.00000000E+00  0.00000000E+00  0.00000000E+00
  0.00000000E+00  0.00000000E+00  0.00000000E+00
  0.00000000E+00  0.00000000E+00  0.00000000E+00
  0.00000000E+00  0.00000000E+00  0.00000000E+00
  0.00000000E+00  0.00000000E+00  0.00000000E+00
  0.00000000E+00  0.00000000E+00  0.00000000E+00
  0.00000000E+00  0.00000000E+00  0.00000000E+00
  0.00000000E+00  0.00000000E+00  0.00000000E+00
  0.00000000E+00  0.00000000E+00  0.00000000E+00
  0.00000000E+00  0.00000000E+00  0.00000000E+00
  0.00000000E+00  0.00000000E+00  0.00000000E+00
  0.00000000E+00  0.00000000E+00  0.00000000E+00
  0.00000000E+00  0.00000000E+00  0.00000000E+00
  0.00000000E+00  0.00000000E+00  0.00000000E+00
  0.00000000E+00  0.00000000E+00  0.00000000E+00
  0.00000000E+00  0.00000000E+00  0.00000000E+00
  0.00000000E+00  0.00000000E+00  0.00000000E+00
