Title                                   
   1.00000000000000     
     8.5490480000000009    0.0000000000000000    0.0000000000000000
     0.0000000000000000    8.5490480000000009    0.0000000000000000
     0.0000000000000000    0.0000000000000000   20.0000000000000000
    21     3     1
Selective dynamics
Direct
  0.9089472620016789  0.2056912214319485  0.0975781701468158   T   T   T
  0.9090607317659892  0.5031534398109502  0.0977393872203864   T   T   T
  0.9118317937368177  0.8018520846534005  0.0976072136625434   T   T   T
  0.1962230678826885  0.0825703600605435  0.0977390351720594   T   T   T
  0.0749337208430106  0.2014955097480943  0.0977006196098711   T   T   T
  0.1589775719776399  0.6485115188788106  0.0977030393068768   T   T   T
  0.0780454722568100  0.5012290690427036  0.0977796455742268   T   T   T
  0.1578960881611281  0.3521946569768462  0.0979031251976902   T   T   T
  0.0791096884442894  0.7987849140132320  0.0976446956177746   T   T   T
  0.4920398698893947  0.0863308175124501  0.0977578016446314   T   T   T
  0.3425101109497257  0.1642207837540373  0.0979135872783015   T   T   T
  0.4922373575863764  0.9172611915000506  0.0977493122212699   T   T   T
  0.3462139462021002  0.8358177481020874  0.0977337403101079   T   T   T
  0.7875848499679973  0.0854342806562553  0.0975486772582993   T   T   T
  0.6373124865550678  0.1665807184021046  0.0976556426129369   T   T   T
  0.7897894023978085  0.9206321165736399  0.0975920764520474   T   T   T
  0.8304552176366951  0.6526226065390562  0.0977892994096993   T   T   T
  0.8284842570409404  0.3566626278764212  0.0976608030221743   T   T   T
  0.6406995174074070  0.8370464344885840  0.0977917771354186   T   T   T
  0.3220713620743407  0.6738748933266282  0.0976879134149876   T   T   T
  0.6642528637811750  0.3308994033138629  0.0976453768843402   T   T   T
  0.3173962100638915  0.3263419599352418  0.0981769856694393   T   T   T
  0.6684937815158228  0.6772412847608943  0.0980381332197042   T   T   T
  0.1972657882226743  0.9162620141882815  0.0977267053819194   T   T   T
  0.4935795816385171  0.5020783444538894  0.0978422365764586   T   T   T
 
  0.00000000E+00  0.00000000E+00  0.00000000E+00
  0.00000000E+00  0.00000000E+00  0.00000000E+00
  0.00000000E+00  0.00000000E+00  0.00000000E+00
  0.00000000E+00  0.00000000E+00  0.00000000E+00
  0.00000000E+00  0.00000000E+00  0.00000000E+00
  0.00000000E+00  0.00000000E+00  0.00000000E+00
  0.00000000E+00  0.00000000E+00  0.00000000E+00
  0.00000000E+00  0.00000000E+00  0.00000000E+00
  0.00000000E+00  0.00000000E+00  0.00000000E+00
  0.00000000E+00  0.00000000E+00  0.00000000E+00
  0.00000000E+00  0.00000000E+00  0.00000000E+00
  0.00000000E+00  0.00000000E+00  0.00000000E+00
  0.00000000E+00  0.00000000E+00  0.00000000E+00
  0.00000000E+00  0.00000000E+00  0.00000000E+00
  0.00000000E+00  0.00000000E+00  0.00000000E+00
  0.00000000E+00  0.00000000E+00  0.00000000E+00
  0.00000000E+00  0.00000000E+00  0.00000000E+00
  0.00000000E+00  0.00000000E+00  0.00000000E+00
  0.00000000E+00  0.00000000E+00  0.00000000E+00
  0.00000000E+00  0.00000000E+00  0.00000000E+00
  0.00000000E+00  0.00000000E+00  0.00000000E+00
  0.00000000E+00  0.00000000E+00  0.00000000E+00
  0.00000000E+00  0.00000000E+00  0.00000000E+00
  0.00000000E+00  0.00000000E+00  0.00000000E+00
  0.00000000E+00  0.00000000E+00  0.00000000E+00
