Title                                   
   1.00000000000000     
     9.8694509999999998    0.0000000000000000    0.0000000000000000
     0.0000000000000000    8.5490480000000009    0.0000000000000000
     0.0000000000000000    0.0000000000000000   20.0000000000000000
    26     5     1
Selective dynamics
Direct
  0.0556269821316466  0.0907170260246521  0.0834614976070748   T   T   T
  0.9306296740773931  0.1750272809066860  0.0831623929175862   T   T   T
  0.0574956476861772  0.9229647610584883  0.0849243925360244   T   T   T
  0.9292601744963103  0.3418631810358836  0.0857278891793966   T   T   T
  0.0562880080414238  0.5914485776430267  0.0869929539344697   T   T   T
  0.0555053735310735  0.4241828195263290  0.0866122076956237   T   T   T
  0.9330176297039076  0.8397650455726431  0.0867698977326446   T   T   T
  0.3055278592515681  0.0886934169812707  0.0883102946998248   T   T   T
  0.1816092775652231  0.1729281700976301  0.0858769714613305   T   T   T
  0.1815600529647357  0.3401262840546651  0.0885372448934696   T   T   T
  0.3029768996728663  0.5889039813683780  0.1031369978098090   T   T   T
  0.1808840353571617  0.6738788465137260  0.0910198571992722   T   T   T
  0.3081522569592505  0.4209053613929922  0.0982148590135071   T   T   T
  0.1827739747857346  0.8418000666691965  0.0888469860609960   T   T   T
  0.5564865962523203  0.0860968685994459  0.0920806252075183   T   T   T
  0.5556266105130779  0.9206797609061718  0.0990953445028861   T   T   T
  0.4309716714687108  0.3312047779005622  0.1012318480787589   T   T   T
  0.4269584897627342  0.8418729430479280  0.1054718462398916   T   T   T
  0.8062740834588604  0.0890571487956360  0.0837421550471434   T   T   T
  0.6800396080127140  0.1708129268546061  0.0878223042571870   T   T   T
  0.8078245441445784  0.9231129563261201  0.0873525248080392   T   T   T
  0.6796483798548147  0.3358156393584921  0.0961801207388403   T   T   T
  0.8096941295073369  0.5947067522732133  0.0978338505327389   T   T   T
  0.8023873372175623  0.4266328298406983  0.0930942524742051   T   T   T
  0.6842446347679353  0.8413406970113501  0.0987371561223901   T   T   T
  0.4160802585395366  0.6829031091258860  0.1229676688222473   T   T   T
  0.5544303759111301  0.3985841252429077  0.1157639997923882   T   T   T
  0.6981154800527687  0.6836113667178340  0.1152483786126436   T   T   T
  0.3059945558040816  0.9254514667109029  0.0914736375196342   T   T   T
  0.4295682495110834  0.1673317305454702  0.0925767580472069   T   T   T
  0.9326310390622485  0.6732171840436415  0.0886307153392927   T   T   T
  0.5613551099340407  0.5846088978535688  0.1747773711159757   T   T   T
 
  0.00000000E+00  0.00000000E+00  0.00000000E+00
  0.00000000E+00  0.00000000E+00  0.00000000E+00
  0.00000000E+00  0.00000000E+00  0.00000000E+00
  0.00000000E+00  0.00000000E+00  0.00000000E+00
  0.00000000E+00  0.00000000E+00  0.00000000E+00
  0.00000000E+00  0.00000000E+00  0.00000000E+00
  0.00000000E+00  0.00000000E+00  0.00000000E+00
  0.00000000E+00  0.00000000E+00  0.00000000E+00
  0.00000000E+00  0.00000000E+00  0.00000000E+00
  0.00000000E+00  0.00000000E+00  0.00000000E+00
  0.00000000E+00  0.00000000E+00  0.00000000E+00
  0.00000000E+00  0.00000000E+00  0.00000000E+00
  0.00000000E+00  0.00000000E+00  0.00000000E+00
  0.00000000E+00  0.00000000E+00  0.00000000E+00
  0.00000000E+00  0.00000000E+00  0.00000000E+00
  0.00000000E+00  0.00000000E+00  0.00000000E+00
  0.00000000E+00  0.00000000E+00  0.00000000E+00
  0.00000000E+00  0.00000000E+00  0.00000000E+00
  0.00000000E+00  0.00000000E+00  0.00000000E+00
  0.00000000E+00  0.00000000E+00  0.00000000E+00
  0.00000000E+00  0.00000000E+00  0.00000000E+00
  0.00000000E+00  0.00000000E+00  0.00000000E+00
  0.00000000E+00  0.00000000E+00  0.00000000E+00
  0.00000000E+00  0.00000000E+00  0.00000000E+00
  0.00000000E+00  0.00000000E+00  0.00000000E+00
  0.00000000E+00  0.00000000E+00  0.00000000E+00
  0.00000000E+00  0.00000000E+00  0.00000000E+00
  0.00000000E+00  0.00000000E+00  0.00000000E+00
  0.00000000E+00  0.00000000E+00  0.00000000E+00
  0.00000000E+00  0.00000000E+00  0.00000000E+00
  0.00000000E+00  0.00000000E+00  0.00000000E+00
  0.00000000E+00  0.00000000E+00  0.00000000E+00
