Title                                   
   1.00000000000000     
     9.8694509999999998    0.0000000000000000    0.0000000000000000
     0.0000000000000000    8.5490480000000009    0.0000000000000000
     0.0000000000000000    0.0000000000000000   20.0000000000000000
    26     4     1
Selective dynamics
Direct
  0.0559496861199578  0.0905659426422800  0.0944278483794927   T   T   T
  0.9308211694277715  0.1725714831145342  0.0948783257739558   T   T   T
  0.0575646743056404  0.9240308199942098  0.0944964044869050   T   T   T
  0.9335631247800575  0.3400516746488217  0.0944129212124886   T   T   T
  0.0571144080035400  0.5901186440210016  0.0932786900182442   T   T   T
  0.9338785350457212  0.6748938483487700  0.0943867216166949   T   T   T
  0.0575880277715343  0.4233219736267819  0.0933358156338545   T   T   T
  0.9323243324459477  0.8410422192340270  0.0949548181146706   T   T   T
  0.3069072260679664  0.0891499647168674  0.0965918012087420   T   T   T
  0.1808403148393888  0.1712801613972219  0.0948369966942978   T   T   T
  0.1808824744333757  0.3390806625291280  0.0943490422057268   T   T   T
  0.3022463797295952  0.5900729693384275  0.0964037246157923   T   T   T
  0.1803498428057027  0.6739267861274278  0.0942654239381396   T   T   T
  0.3035727041244402  0.4221168821444987  0.0964492869202276   T   T   T
  0.1813205733924941  0.8412113480296048  0.0948825237798089   T   T   T
  0.5552166224799681  0.0898119603415120  0.0995390286722816   T   T   T
  0.4299426594480295  0.1759322422247268  0.0988027089490667   T   T   T
  0.5543929549630928  0.9178233440173108  0.0994541338174953   T   T   T
  0.4281428430858359  0.8332648552333360  0.0986820647913304   T   T   T
  0.8046767616560787  0.0900208052250645  0.0967294380824403   T   T   T
  0.6805172493336938  0.1769710949790017  0.0989873525456472   T   T   T
  0.8054237271025930  0.9213133626670875  0.0967147393270384   T   T   T
  0.6852793574542825  0.3451065884561431  0.0998151994412962   T   T   T
  0.8119674304663369  0.5926116845719978  0.0966952707604179   T   T   T
  0.8111861287340575  0.4240470916826483  0.0966755707996524   T   T   T
  0.6820070150521609  0.8318198038009629  0.0988429184214898   T   T   T
  0.4257470764520260  0.3413339008792506  0.0995320977091693   T   T   T
  0.6889583845049315  0.6684373214293612  0.0997177643509213   T   T   T
  0.4225351963675215  0.6733789195234836  0.0996394738356199   T   T   T
  0.3066259848963633  0.9226036083956602  0.0964475599800934   T   T   T
  0.5555921347099030  0.5029630366588645  0.1027393339170353   T   T   T
 
  0.00000000E+00  0.00000000E+00  0.00000000E+00
  0.00000000E+00  0.00000000E+00  0.00000000E+00
  0.00000000E+00  0.00000000E+00  0.00000000E+00
  0.00000000E+00  0.00000000E+00  0.00000000E+00
  0.00000000E+00  0.00000000E+00  0.00000000E+00
  0.00000000E+00  0.00000000E+00  0.00000000E+00
  0.00000000E+00  0.00000000E+00  0.00000000E+00
  0.00000000E+00  0.00000000E+00  0.00000000E+00
  0.00000000E+00  0.00000000E+00  0.00000000E+00
  0.00000000E+00  0.00000000E+00  0.00000000E+00
  0.00000000E+00  0.00000000E+00  0.00000000E+00
  0.00000000E+00  0.00000000E+00  0.00000000E+00
  0.00000000E+00  0.00000000E+00  0.00000000E+00
  0.00000000E+00  0.00000000E+00  0.00000000E+00
  0.00000000E+00  0.00000000E+00  0.00000000E+00
  0.00000000E+00  0.00000000E+00  0.00000000E+00
  0.00000000E+00  0.00000000E+00  0.00000000E+00
  0.00000000E+00  0.00000000E+00  0.00000000E+00
  0.00000000E+00  0.00000000E+00  0.00000000E+00
  0.00000000E+00  0.00000000E+00  0.00000000E+00
  0.00000000E+00  0.00000000E+00  0.00000000E+00
  0.00000000E+00  0.00000000E+00  0.00000000E+00
  0.00000000E+00  0.00000000E+00  0.00000000E+00
  0.00000000E+00  0.00000000E+00  0.00000000E+00
  0.00000000E+00  0.00000000E+00  0.00000000E+00
  0.00000000E+00  0.00000000E+00  0.00000000E+00
  0.00000000E+00  0.00000000E+00  0.00000000E+00
  0.00000000E+00  0.00000000E+00  0.00000000E+00
  0.00000000E+00  0.00000000E+00  0.00000000E+00
  0.00000000E+00  0.00000000E+00  0.00000000E+00
  0.00000000E+00  0.00000000E+00  0.00000000E+00
