Title                                   
   1.00000000000000     
     8.5490480000000009    0.0000000000000000    0.0000000000000000
     0.0000000000000000    8.5490480000000009    0.0000000000000000
     0.0000000000000000    0.0000000000000000   20.0000000000000000
    19     5     1
Selective dynamics
Direct
  0.9089082407787106  0.2050895715723095  0.0974114946645966   T   T   T
  0.9112627032996901  0.8007567014565715  0.0974778688233091   T   T   T
  0.1979036828092532  0.0833022696801152  0.0976934702749594   T   T   T
  0.0768689709248863  0.2013359564781984  0.0976015911503114   T   T   T
  0.1545273627020900  0.6495034323134431  0.0978681670177394   T   T   T
  0.0731305126353903  0.5005277597458554  0.0978388461996001   T   T   T
  0.1538310115602872  0.3537037432162050  0.0977828862641107   T   T   T
  0.0795139091453794  0.7993537866884842  0.0976786956979203   T   T   T
  0.3470939781162805  0.1648416402513845  0.0978195596062263   T   T   T
  0.4936578272925258  0.9184371238462709  0.0977700001629626   T   T   T
  0.3461455190556135  0.8381249997316866  0.0979059857381760   T   T   T
  0.7886607625927491  0.0860264876786253  0.0973290256849641   T   T   T
  0.6420536605887175  0.1659494116795713  0.0976067456841811   T   T   T
  0.7906987013958192  0.9184611496980223  0.0973796154832898   T   T   T
  0.8287581653496592  0.6521220782062536  0.0977156385419700   T   T   T
  0.8268527206861152  0.3523025186713025  0.0976411181364134   T   T   T
  0.6431740429294337  0.8388601557090150  0.0976404651839727   T   T   T
  0.3237367381953573  0.3321245884563351  0.0979616734730261   T   T   T
  0.3227794327608061  0.6722265752337320  0.0980594656389684   T   T   T
  0.4949904386646977  0.0880173535983896  0.0977884346659835   T   T   T
  0.9025220724845974  0.5020187277254650  0.0978156586201508   T   T   T
  0.6652037054430260  0.3279390888299787  0.0978317234363559   T   T   T
  0.6683275650046536  0.6756646273576988  0.0979008734438166   T   T   T
  0.1963606396377014  0.9162584870256579  0.0977987761820834   T   T   T
  0.4884496359465535  0.5018417651494491  0.0983872202248849   T   T   T
 
  0.00000000E+00  0.00000000E+00  0.00000000E+00
  0.00000000E+00  0.00000000E+00  0.00000000E+00
  0.00000000E+00  0.00000000E+00  0.00000000E+00
  0.00000000E+00  0.00000000E+00  0.00000000E+00
  0.00000000E+00  0.00000000E+00  0.00000000E+00
  0.00000000E+00  0.00000000E+00  0.00000000E+00
  0.00000000E+00  0.00000000E+00  0.00000000E+00
  0.00000000E+00  0.00000000E+00  0.00000000E+00
  0.00000000E+00  0.00000000E+00  0.00000000E+00
  0.00000000E+00  0.00000000E+00  0.00000000E+00
  0.00000000E+00  0.00000000E+00  0.00000000E+00
  0.00000000E+00  0.00000000E+00  0.00000000E+00
  0.00000000E+00  0.00000000E+00  0.00000000E+00
  0.00000000E+00  0.00000000E+00  0.00000000E+00
  0.00000000E+00  0.00000000E+00  0.00000000E+00
  0.00000000E+00  0.00000000E+00  0.00000000E+00
  0.00000000E+00  0.00000000E+00  0.00000000E+00
  0.00000000E+00  0.00000000E+00  0.00000000E+00
  0.00000000E+00  0.00000000E+00  0.00000000E+00
  0.00000000E+00  0.00000000E+00  0.00000000E+00
  0.00000000E+00  0.00000000E+00  0.00000000E+00
  0.00000000E+00  0.00000000E+00  0.00000000E+00
  0.00000000E+00  0.00000000E+00  0.00000000E+00
  0.00000000E+00  0.00000000E+00  0.00000000E+00
  0.00000000E+00  0.00000000E+00  0.00000000E+00
