Title                                   
   1.00000000000000     
     9.8694509999999998    0.0000000000000000    0.0000000000000000
     0.0000000000000000    8.5490480000000009    0.0000000000000000
     0.0000000000000000    0.0000000000000000   20.0000000000000000
    26     4     1
Selective dynamics
Direct
  0.0562014763142121  0.0900155424150779  0.0884279785932749   T   T   T
  0.9316254807922505  0.1728031766119268  0.0891523211075267   T   T   T
  0.0561994533586629  0.9222583096169306  0.0884197499930621   T   T   T
  0.9324919058838063  0.3392183682595425  0.0890137006787178   T   T   T
  0.0562023635707927  0.5893429185802506  0.0876803931752028   T   T   T
  0.9324974577127475  0.6730666092304579  0.0890023386240489   T   T   T
  0.0561997855444473  0.4229493231201890  0.0876843222246059   T   T   T
  0.9316235758877837  0.8394910222517264  0.0891396035170446   T   T   T
  0.3070687340031039  0.0897269841726644  0.0923482394411863   T   T   T
  0.1807463011501367  0.1727555910615231  0.0896715004178843   T   T   T
  0.3070443358165343  0.9225781209178152  0.0923310705752389   T   T   T
  0.1799226649326854  0.3392528434834871  0.0894987034239242   T   T   T
  0.3038289493167476  0.5900629734952512  0.0940256348576508   T   T   T
  0.1799218935335505  0.6730446134673436  0.0894712633940498   T   T   T
  0.3038401416557848  0.4222113104412888  0.0940504790520325   T   T   T
  0.1807439640463952  0.8395318980935832  0.0896443323314822   T   T   T
  0.5561205676462125  0.0926119498989686  0.0983483668574226   T   T   T
  0.4296653124573014  0.1764563799911127  0.0975541972815331   T   T   T
  0.5561177289082743  0.9197137965380799  0.0983008682415631   T   T   T
  0.4296425813962249  0.8358763799107168  0.0975007916339340   T   T   T
  0.8053313706265094  0.0896503084008697  0.0914855154336613   T   T   T
  0.6826811909965310  0.1761610408934831  0.0966178561269341   T   T   T
  0.8053386712071910  0.9226405321896106  0.0914701418745610   T   T   T
  0.8084271740534030  0.5901186171809686  0.0929201484472508   T   T   T
  0.8084046896736473  0.4221689286314670  0.0929495247691413   T   T   T
  0.6826821739855659  0.8361737910774266  0.0965560705670973   T   T   T
  0.4246963893922386  0.3395503943048808  0.1017955185733108   T   T   T
  0.4246674740141020  0.6727993899035273  0.1017242095937810   T   T   T
  0.6875867393941879  0.3391236670608467  0.1002503771342910   T   T   T
  0.6876148374158344  0.6732168573511152  0.1001695877364703   T   T   T
  0.5580006153131420  0.5063033614478659  0.1437601943221571   T   T   T
 
  0.00000000E+00  0.00000000E+00  0.00000000E+00
  0.00000000E+00  0.00000000E+00  0.00000000E+00
  0.00000000E+00  0.00000000E+00  0.00000000E+00
  0.00000000E+00  0.00000000E+00  0.00000000E+00
  0.00000000E+00  0.00000000E+00  0.00000000E+00
  0.00000000E+00  0.00000000E+00  0.00000000E+00
  0.00000000E+00  0.00000000E+00  0.00000000E+00
  0.00000000E+00  0.00000000E+00  0.00000000E+00
  0.00000000E+00  0.00000000E+00  0.00000000E+00
  0.00000000E+00  0.00000000E+00  0.00000000E+00
  0.00000000E+00  0.00000000E+00  0.00000000E+00
  0.00000000E+00  0.00000000E+00  0.00000000E+00
  0.00000000E+00  0.00000000E+00  0.00000000E+00
  0.00000000E+00  0.00000000E+00  0.00000000E+00
  0.00000000E+00  0.00000000E+00  0.00000000E+00
  0.00000000E+00  0.00000000E+00  0.00000000E+00
  0.00000000E+00  0.00000000E+00  0.00000000E+00
  0.00000000E+00  0.00000000E+00  0.00000000E+00
  0.00000000E+00  0.00000000E+00  0.00000000E+00
  0.00000000E+00  0.00000000E+00  0.00000000E+00
  0.00000000E+00  0.00000000E+00  0.00000000E+00
  0.00000000E+00  0.00000000E+00  0.00000000E+00
  0.00000000E+00  0.00000000E+00  0.00000000E+00
  0.00000000E+00  0.00000000E+00  0.00000000E+00
  0.00000000E+00  0.00000000E+00  0.00000000E+00
  0.00000000E+00  0.00000000E+00  0.00000000E+00
  0.00000000E+00  0.00000000E+00  0.00000000E+00
  0.00000000E+00  0.00000000E+00  0.00000000E+00
  0.00000000E+00  0.00000000E+00  0.00000000E+00
  0.00000000E+00  0.00000000E+00  0.00000000E+00
  0.00000000E+00  0.00000000E+00  0.00000000E+00
