Title                                   
   1.00000000000000     
     8.5490480000000009    0.0000000000000000    0.0000000000000000
     0.0000000000000000    8.5490480000000009    0.0000000000000000
     0.0000000000000000    0.0000000000000000   20.0000000000000000
    21     3     1
Selective dynamics
Direct
  0.9092864012021267  0.2042659167025030  0.0975722658396938   T   T   T
  0.9031769832994828  0.5027518991926657  0.0977551780600525   T   T   T
  0.9111991504724372  0.8019554776882890  0.0975796831289949   T   T   T
  0.1987038150584675  0.0826879074037290  0.0977971469652017   T   T   T
  0.0751531501004438  0.2032096465728165  0.0976576919219312   T   T   T
  0.1560034117720147  0.6483404547914867  0.0976880965694780   T   T   T
  0.0726390273642833  0.5015107154169163  0.0976858765869484   T   T   T
  0.1547273878597884  0.3551399074915649  0.0977114459324378   T   T   T
  0.0785257622048828  0.7983333147137149  0.0976884761954254   T   T   T
  0.4952772903598119  0.0865655855936247  0.0977817425939262   T   T   T
  0.3480142480049720  0.1656547265951555  0.0978770727061372   T   T   T
  0.4946300136083576  0.9170968344597532  0.0977258017484825   T   T   T
  0.3481894093571802  0.8346703461617535  0.0978090786245366   T   T   T
  0.7894081828624323  0.0857643902054898  0.0974917459136706   T   T   T
  0.6423126446350856  0.1660989404021151  0.0977476352076677   T   T   T
  0.7902138255495894  0.9195138844432054  0.0974822192458483   T   T   T
  0.8271918511228693  0.6521324649163405  0.0977739037329353   T   T   T
  0.8250516994325824  0.3541146031040882  0.0978179764144803   T   T   T
  0.6424345405395802  0.8377970717944392  0.0976736527792016   T   T   T
  0.3202244800462438  0.3318034985108435  0.0978407335546104   T   T   T
  0.3211272285710217  0.6715482477254033  0.0977477491987123   T   T   T
  0.6661090019489733  0.3278894473756515  0.0980466015628769   T   T   T
  0.6672161011709704  0.6771648097449373  0.0979545737870517   T   T   T
  0.1989166814387644  0.9170046733902879  0.0978600173756236   T   T   T
  0.4896797120176303  0.5017752356032450  0.0979386343540482   T   T   T
 
  0.00000000E+00  0.00000000E+00  0.00000000E+00
  0.00000000E+00  0.00000000E+00  0.00000000E+00
  0.00000000E+00  0.00000000E+00  0.00000000E+00
  0.00000000E+00  0.00000000E+00  0.00000000E+00
  0.00000000E+00  0.00000000E+00  0.00000000E+00
  0.00000000E+00  0.00000000E+00  0.00000000E+00
  0.00000000E+00  0.00000000E+00  0.00000000E+00
  0.00000000E+00  0.00000000E+00  0.00000000E+00
  0.00000000E+00  0.00000000E+00  0.00000000E+00
  0.00000000E+00  0.00000000E+00  0.00000000E+00
  0.00000000E+00  0.00000000E+00  0.00000000E+00
  0.00000000E+00  0.00000000E+00  0.00000000E+00
  0.00000000E+00  0.00000000E+00  0.00000000E+00
  0.00000000E+00  0.00000000E+00  0.00000000E+00
  0.00000000E+00  0.00000000E+00  0.00000000E+00
  0.00000000E+00  0.00000000E+00  0.00000000E+00
  0.00000000E+00  0.00000000E+00  0.00000000E+00
  0.00000000E+00  0.00000000E+00  0.00000000E+00
  0.00000000E+00  0.00000000E+00  0.00000000E+00
  0.00000000E+00  0.00000000E+00  0.00000000E+00
  0.00000000E+00  0.00000000E+00  0.00000000E+00
  0.00000000E+00  0.00000000E+00  0.00000000E+00
  0.00000000E+00  0.00000000E+00  0.00000000E+00
  0.00000000E+00  0.00000000E+00  0.00000000E+00
  0.00000000E+00  0.00000000E+00  0.00000000E+00
