Title                                   
   1.00000000000000     
     8.5490480000000009    0.0000000000000000    0.0000000000000000
     0.0000000000000000    8.5490480000000009    0.0000000000000000
     0.0000000000000000    0.0000000000000000   20.0000000000000000
    22     2     1
Selective dynamics
Direct
  0.9088676642970267  0.2059673191995643  0.0954815338958254   T   T   T
  0.9072303308496511  0.5048952284401644  0.0967518777880483   T   T   T
  0.9122783381542250  0.8027247671816257  0.0961911035104956   T   T   T
  0.1979620604148367  0.0814740439984820  0.0960171190739151   T   T   T
  0.0734724982089328  0.2020209335775670  0.0962223481814426   T   T   T
  0.1582309423397512  0.6483496622940267  0.0958443139706641   T   T   T
  0.0750851710274419  0.5025208384044145  0.0968429731926525   T   T   T
  0.1567693256160525  0.3546489052553385  0.0982486994577120   T   T   T
  0.0798097383198140  0.7981365700050799  0.0953606321237576   T   T   T
  0.4930708666064654  0.0835763672647064  0.0964898738923948   T   T   T
  0.3443639908356617  0.1618625321991231  0.0977477432839181   T   T   T
  0.4939391796907612  0.9150304485117022  0.0964901317457447   T   T   T
  0.3474565656381897  0.8334692154658037  0.0955108145597489   T   T   T
  0.7865091250070341  0.0861530981089840  0.0954924838961699   T   T   T
  0.6376338166723788  0.1660173997418959  0.0957457200462414   T   T   T
  0.7899030782458104  0.9206906098810528  0.0962866300042557   T   T   T
  0.8300701838861398  0.6539861389602868  0.0978822901742752   T   T   T
  0.8255558194922950  0.3583236708604698  0.0957752690868735   T   T   T
  0.6422211928837438  0.8363319257055745  0.0979418406387053   T   T   T
  0.3219106363529889  0.3319767830582930  0.1020652271568953   T   T   T
  0.3248623811008762  0.6696442863666310  0.0960748305336557   T   T   T
  0.6606219722902809  0.3352989980742401  0.0961742014190067   T   T   T
  0.6675763781589473  0.6751381739157225  0.1009789235978833   T   T   T
  0.1990200635625340  0.9153310460345790  0.0950096174046708   T   T   T
  0.4909906803481547  0.5012210374946862  0.1260788013650301   T   T   T
 
  0.00000000E+00  0.00000000E+00  0.00000000E+00
  0.00000000E+00  0.00000000E+00  0.00000000E+00
  0.00000000E+00  0.00000000E+00  0.00000000E+00
  0.00000000E+00  0.00000000E+00  0.00000000E+00
  0.00000000E+00  0.00000000E+00  0.00000000E+00
  0.00000000E+00  0.00000000E+00  0.00000000E+00
  0.00000000E+00  0.00000000E+00  0.00000000E+00
  0.00000000E+00  0.00000000E+00  0.00000000E+00
  0.00000000E+00  0.00000000E+00  0.00000000E+00
  0.00000000E+00  0.00000000E+00  0.00000000E+00
  0.00000000E+00  0.00000000E+00  0.00000000E+00
  0.00000000E+00  0.00000000E+00  0.00000000E+00
  0.00000000E+00  0.00000000E+00  0.00000000E+00
  0.00000000E+00  0.00000000E+00  0.00000000E+00
  0.00000000E+00  0.00000000E+00  0.00000000E+00
  0.00000000E+00  0.00000000E+00  0.00000000E+00
  0.00000000E+00  0.00000000E+00  0.00000000E+00
  0.00000000E+00  0.00000000E+00  0.00000000E+00
  0.00000000E+00  0.00000000E+00  0.00000000E+00
  0.00000000E+00  0.00000000E+00  0.00000000E+00
  0.00000000E+00  0.00000000E+00  0.00000000E+00
  0.00000000E+00  0.00000000E+00  0.00000000E+00
  0.00000000E+00  0.00000000E+00  0.00000000E+00
  0.00000000E+00  0.00000000E+00  0.00000000E+00
  0.00000000E+00  0.00000000E+00  0.00000000E+00
