Title                                   
   1.00000000000000     
     8.5490480000000009    0.0000000000000000    0.0000000000000000
     0.0000000000000000    8.5490480000000009    0.0000000000000000
     0.0000000000000000    0.0000000000000000   20.0000000000000000
    20     4     1
Selective dynamics
Direct
  0.9094801339252381  0.2082867612900309  0.0974520924251727   T   T   T
  0.9118257752866247  0.8000710164253136  0.0975935004084529   T   T   T
  0.1963994988329146  0.0833854460809891  0.0977650563867119   T   T   T
  0.0752084027847022  0.2027697729706069  0.0977245713766740   T   T   T
  0.1566627282541874  0.6496569841055342  0.0975844305670525   T   T   T
  0.0766983680575370  0.5020509685606477  0.0977659083453908   T   T   T
  0.1567244188738357  0.3524616546311584  0.0979748997427963   T   T   T
  0.0782362325788078  0.7990298186997421  0.0975469431661367   T   T   T
  0.4934935614748205  0.0864324618223938  0.0976398202200906   T   T   T
  0.3423678631575361  0.1654527853313899  0.0979072507037650   T   T   T
  0.4927243106249621  0.9162636683650655  0.0976681758314556   T   T   T
  0.3450329663455315  0.8349071306200948  0.0976272662758821   T   T   T
  0.7868696751565768  0.0858485281061301  0.0973850106779696   T   T   T
  0.6392844259198703  0.1668216500842164  0.0974735812809104   T   T   T
  0.7887573178717344  0.9192859347411300  0.0975559295691836   T   T   T
  0.8306816960208526  0.6508041883535591  0.0977631209043978   T   T   T
  0.8290669860018661  0.3570118674666941  0.0975156063524412   T   T   T
  0.6417711054352637  0.8354202824918955  0.0977607199340817   T   T   T
  0.3229220956099019  0.6710200459975489  0.0976979490672857   T   T   T
  0.6621911823363276  0.3367132660659655  0.0978250146405554   T   T   T
  0.9090529637160262  0.5032378827874093  0.0977253378721484   T   T   T
  0.3187240001285693  0.3288964363592976  0.0982464250876507   T   T   T
  0.6686389539127676  0.6714163537595615  0.0980912274500675   T   T   T
  0.1969822113208631  0.9169088025133032  0.0976642804539295   T   T   T
  0.4956151263726674  0.5006362923703362  0.0987508812597773   T   T   T
 
  0.00000000E+00  0.00000000E+00  0.00000000E+00
  0.00000000E+00  0.00000000E+00  0.00000000E+00
  0.00000000E+00  0.00000000E+00  0.00000000E+00
  0.00000000E+00  0.00000000E+00  0.00000000E+00
  0.00000000E+00  0.00000000E+00  0.00000000E+00
  0.00000000E+00  0.00000000E+00  0.00000000E+00
  0.00000000E+00  0.00000000E+00  0.00000000E+00
  0.00000000E+00  0.00000000E+00  0.00000000E+00
  0.00000000E+00  0.00000000E+00  0.00000000E+00
  0.00000000E+00  0.00000000E+00  0.00000000E+00
  0.00000000E+00  0.00000000E+00  0.00000000E+00
  0.00000000E+00  0.00000000E+00  0.00000000E+00
  0.00000000E+00  0.00000000E+00  0.00000000E+00
  0.00000000E+00  0.00000000E+00  0.00000000E+00
  0.00000000E+00  0.00000000E+00  0.00000000E+00
  0.00000000E+00  0.00000000E+00  0.00000000E+00
  0.00000000E+00  0.00000000E+00  0.00000000E+00
  0.00000000E+00  0.00000000E+00  0.00000000E+00
  0.00000000E+00  0.00000000E+00  0.00000000E+00
  0.00000000E+00  0.00000000E+00  0.00000000E+00
  0.00000000E+00  0.00000000E+00  0.00000000E+00
  0.00000000E+00  0.00000000E+00  0.00000000E+00
  0.00000000E+00  0.00000000E+00  0.00000000E+00
  0.00000000E+00  0.00000000E+00  0.00000000E+00
  0.00000000E+00  0.00000000E+00  0.00000000E+00
