Title                                   
   1.00000000000000     
     9.8694509999999998    0.0000000000000000    0.0000000000000000
     0.0000000000000000    8.5490480000000009    0.0000000000000000
     0.0000000000000000    0.0000000000000000   20.0000000000000000
    25     5     1
Selective dynamics
Direct
  0.0560737134327685  0.0891589298814379  0.0905157731810759   T   T   T
  0.9312462200433679  0.1720038255974289  0.0935668808760120   T   T   T
  0.0575500655454194  0.9214080310705164  0.0909499435900892   T   T   T
  0.9336043522437723  0.3391736729799267  0.0955220278583263   T   T   T
  0.0573838622212370  0.5905283625909840  0.0924054977515195   T   T   T
  0.0573929733891370  0.4237707211839115  0.0919834396564082   T   T   T
  0.9321024046168250  0.8383665309874051  0.0940048844151979   T   T   T
  0.3080000201886947  0.0886293967652571  0.0879786488887145   T   T   T
  0.1815412272635352  0.1723058451743735  0.0885703536459706   T   T   T
  0.1816158781850615  0.3392195737908887  0.0888837706808583   T   T   T
  0.3068869033419862  0.5897648185585151  0.0868521912071372   T   T   T
  0.1813045315441107  0.6734031332185205  0.0900237618028137   T   T   T
  0.3077108829884337  0.4209035776901765  0.0863033602964959   T   T   T
  0.1824094186290468  0.8395666749642606  0.0895467586606736   T   T   T
  0.4302651767957488  0.1735297582134279  0.0892510396793725   T   T   T
  0.5543904245628202  0.9222240937423867  0.0952790023153635   T   T   T
  0.4297707407757511  0.8383470429211171  0.0901241637083265   T   T   T
  0.8050378909873637  0.0892628469453216  0.0949292168806957   T   T   T
  0.6809676031524740  0.1777016223123722  0.0991012239630103   T   T   T
  0.8061772149855178  0.9206536009033085  0.0953247493104277   T   T   T
  0.6849628931076392  0.3424905800822218  0.1078272326638395   T   T   T
  0.8110311767853003  0.5918792710263843  0.1034514754231993   T   T   T
  0.6870237187365672  0.6704747659244247  0.1083861876486932   T   T   T
  0.8112678935918060  0.4215558823300063  0.1029880389011815   T   T   T
  0.6801315720899250  0.8366798438684531  0.0997368376804581   T   T   T
  0.9341325391914115  0.6725402583882700  0.0957061509921674   T   T   T
  0.5555488179657394  0.0933827624823111  0.0944078607075192   T   T   T
  0.4282825378072994  0.3350409221994942  0.0871541319177697   T   T   T
  0.4266050893172635  0.6781292173970783  0.0879513298187933   T   T   T
  0.3061031866269590  0.9220882655118795  0.0881315317651790   T   T   T
  0.5366140698870351  0.5066911712979474  0.1341075341127594   T   T   T
 
  0.00000000E+00  0.00000000E+00  0.00000000E+00
  0.00000000E+00  0.00000000E+00  0.00000000E+00
  0.00000000E+00  0.00000000E+00  0.00000000E+00
  0.00000000E+00  0.00000000E+00  0.00000000E+00
  0.00000000E+00  0.00000000E+00  0.00000000E+00
  0.00000000E+00  0.00000000E+00  0.00000000E+00
  0.00000000E+00  0.00000000E+00  0.00000000E+00
  0.00000000E+00  0.00000000E+00  0.00000000E+00
  0.00000000E+00  0.00000000E+00  0.00000000E+00
  0.00000000E+00  0.00000000E+00  0.00000000E+00
  0.00000000E+00  0.00000000E+00  0.00000000E+00
  0.00000000E+00  0.00000000E+00  0.00000000E+00
  0.00000000E+00  0.00000000E+00  0.00000000E+00
  0.00000000E+00  0.00000000E+00  0.00000000E+00
  0.00000000E+00  0.00000000E+00  0.00000000E+00
  0.00000000E+00  0.00000000E+00  0.00000000E+00
  0.00000000E+00  0.00000000E+00  0.00000000E+00
  0.00000000E+00  0.00000000E+00  0.00000000E+00
  0.00000000E+00  0.00000000E+00  0.00000000E+00
  0.00000000E+00  0.00000000E+00  0.00000000E+00
  0.00000000E+00  0.00000000E+00  0.00000000E+00
  0.00000000E+00  0.00000000E+00  0.00000000E+00
  0.00000000E+00  0.00000000E+00  0.00000000E+00
  0.00000000E+00  0.00000000E+00  0.00000000E+00
  0.00000000E+00  0.00000000E+00  0.00000000E+00
  0.00000000E+00  0.00000000E+00  0.00000000E+00
  0.00000000E+00  0.00000000E+00  0.00000000E+00
  0.00000000E+00  0.00000000E+00  0.00000000E+00
  0.00000000E+00  0.00000000E+00  0.00000000E+00
  0.00000000E+00  0.00000000E+00  0.00000000E+00
  0.00000000E+00  0.00000000E+00  0.00000000E+00
