Title                                   
   1.00000000000000     
     9.8694509999999998    0.0000000000000000    0.0000000000000000
     0.0000000000000000    8.5490480000000009    0.0000000000000000
     0.0000000000000000    0.0000000000000000   20.0000000000000000
    25     5     1
Selective dynamics
Direct
  0.0561757974221796  0.0893070358462270  0.0887745678470812   T   T   T
  0.9313692144711520  0.1720424978977083  0.0919400245245676   T   T   T
  0.0575037748796337  0.9212542553314573  0.0893917245622474   T   T   T
  0.9336315603180161  0.3392898545088879  0.0939422047394002   T   T   T
  0.0570399274768024  0.5905952668149842  0.0903974634213740   T   T   T
  0.0570252028950005  0.4237779277171608  0.0897187768741267   T   T   T
  0.9322537014691242  0.8382464425343065  0.0927386371293058   T   T   T
  0.3081986739616666  0.0888118551554500  0.0872975149470444   T   T   T
  0.1814314037821679  0.1723900581033476  0.0869911003494954   T   T   T
  0.1810936297949872  0.3391518847846681  0.0869752006258590   T   T   T
  0.3060343010178985  0.5896843148136779  0.0864450141868513   T   T   T
  0.1806784233148790  0.6736155549886751  0.0882498281562263   T   T   T
  0.3068437853732314  0.4210407781191234  0.0859205639946405   T   T   T
  0.1823099339519334  0.8395726296080603  0.0880148148767626   T   T   T
  0.4299691326328560  0.1730087984106198  0.0900159282885675   T   T   T
  0.5542882475072307  0.9220791379811194  0.0962867884523067   T   T   T
  0.4299008994802060  0.8389262662038315  0.0908178836053724   T   T   T
  0.8055560022942814  0.0889282846134424  0.0939859774068376   T   T   T
  0.6814699227855404  0.1768015472123245  0.0997616322803737   T   T   T
  0.8064867467558912  0.9208273294165273  0.0945943151260532   T   T   T
  0.6864606422090624  0.3406090226709649  0.1102082811129543   T   T   T
  0.8116368477458906  0.5918532596200279  0.1039383002511103   T   T   T
  0.6886156196661225  0.6721148115713620  0.1105765889514020   T   T   T
  0.8117520826647993  0.4213043792584498  0.1034533250850667   T   T   T
  0.6807909446253225  0.8373165893745579  0.1005555828655889   T   T   T
  0.9340876461179827  0.6723151325751455  0.0944047724278121   T   T   T
  0.5559553211860719  0.0935578653171992  0.0953424596444141   T   T   T
  0.4276968303615709  0.3354632659332418  0.0891727732887768   T   T   T
  0.4260901807426664  0.6778822258328914  0.0895723228595594   T   T   T
  0.3059144854744459  0.9219076799805913  0.0870768787883809   T   T   T
  0.5348741176214014  0.5071990478039742  0.1444037533304894   T   T   T
 
  0.00000000E+00  0.00000000E+00  0.00000000E+00
  0.00000000E+00  0.00000000E+00  0.00000000E+00
  0.00000000E+00  0.00000000E+00  0.00000000E+00
  0.00000000E+00  0.00000000E+00  0.00000000E+00
  0.00000000E+00  0.00000000E+00  0.00000000E+00
  0.00000000E+00  0.00000000E+00  0.00000000E+00
  0.00000000E+00  0.00000000E+00  0.00000000E+00
  0.00000000E+00  0.00000000E+00  0.00000000E+00
  0.00000000E+00  0.00000000E+00  0.00000000E+00
  0.00000000E+00  0.00000000E+00  0.00000000E+00
  0.00000000E+00  0.00000000E+00  0.00000000E+00
  0.00000000E+00  0.00000000E+00  0.00000000E+00
  0.00000000E+00  0.00000000E+00  0.00000000E+00
  0.00000000E+00  0.00000000E+00  0.00000000E+00
  0.00000000E+00  0.00000000E+00  0.00000000E+00
  0.00000000E+00  0.00000000E+00  0.00000000E+00
  0.00000000E+00  0.00000000E+00  0.00000000E+00
  0.00000000E+00  0.00000000E+00  0.00000000E+00
  0.00000000E+00  0.00000000E+00  0.00000000E+00
  0.00000000E+00  0.00000000E+00  0.00000000E+00
  0.00000000E+00  0.00000000E+00  0.00000000E+00
  0.00000000E+00  0.00000000E+00  0.00000000E+00
  0.00000000E+00  0.00000000E+00  0.00000000E+00
  0.00000000E+00  0.00000000E+00  0.00000000E+00
  0.00000000E+00  0.00000000E+00  0.00000000E+00
  0.00000000E+00  0.00000000E+00  0.00000000E+00
  0.00000000E+00  0.00000000E+00  0.00000000E+00
  0.00000000E+00  0.00000000E+00  0.00000000E+00
  0.00000000E+00  0.00000000E+00  0.00000000E+00
  0.00000000E+00  0.00000000E+00  0.00000000E+00
  0.00000000E+00  0.00000000E+00  0.00000000E+00
