Title                                   
   1.00000000000000     
     9.8694509999999998    0.0000000000000000    0.0000000000000000
     0.0000000000000000    8.5490480000000009    0.0000000000000000
     0.0000000000000000    0.0000000000000000   20.0000000000000000
    28     3     1
Selective dynamics
Direct
  0.0562328697495328  0.0925980499345629  0.0843912425243387   T   T   T
  0.9305633892981231  0.1749098734665749  0.0867775963936380   T   T   T
  0.0562390455892657  0.9254195548552487  0.0830762989079625   T   T   T
  0.9288551381948689  0.3423645479771321  0.0902879680317243   T   T   T
  0.0562351162035796  0.5894941409226301  0.0854532037130087   T   T   T
  0.9325599330135659  0.6739863936594233  0.0868895664231388   T   T   T
  0.0562319620979984  0.4238627925594067  0.0884735762414889   T   T   T
  0.9324034246851375  0.8407914856016829  0.0852601584633708   T   T   T
  0.3054305952303008  0.0894972026598974  0.0879068451557061   T   T   T
  0.1818977704356323  0.1749069657766450  0.0867481798606438   T   T   T
  0.3045346216053818  0.9233168602439809  0.0884623439186732   T   T   T
  0.1836083236838528  0.3423619364456388  0.0902615578797550   T   T   T
  0.3043777316252657  0.5949261344410433  0.0984722044598934   T   T   T
  0.1799102443173776  0.6740006285704824  0.0868341097324259   T   T   T
  0.3094623516847272  0.4246943334673999  0.0973960219563377   T   T   T
  0.1800818108809241  0.8408087794518201  0.0851897641472464   T   T   T
  0.5562395577954541  0.0820916980994627  0.0949108293076432   T   T   T
  0.4314926505811665  0.1681239163990250  0.0928016548066208   T   T   T
  0.5562443375999988  0.9156442006506104  0.1000547473471263   T   T   T
  0.4349746853522836  0.3336254894255068  0.0996728604471164   T   T   T
  0.4257025877023146  0.8369297594445591  0.1000752373000191   T   T   T
  0.8070436348287083  0.0894762263775294  0.0879480863755056   T   T   T
  0.6809982481902193  0.1681185146634760  0.0928076754253958   T   T   T
  0.8079609935461067  0.9232888318782506  0.0885588224715796   T   T   T
  0.6775169408953103  0.3336166215938209  0.0996736708283201   T   T   T
  0.8081194141500845  0.5948980575227002  0.0985777501313273   T   T   T
  0.8030057671668643  0.4246681525918969  0.0974491167499165   T   T   T
  0.6868003672286388  0.8369130737204999  0.1001667146729335   T   T   T
  0.4166717208657929  0.6811188427255567  0.1118523143500678   T   T   T
  0.5562388154485040  0.4054654351094387  0.1090122708797493   T   T   T
  0.6958673955510303  0.6811307394478310  0.1120112253433754   T   T   T
  0.5561375548019952  0.5871967603162752  0.1682213857539855   T   T   T
 
  0.00000000E+00  0.00000000E+00  0.00000000E+00
  0.00000000E+00  0.00000000E+00  0.00000000E+00
  0.00000000E+00  0.00000000E+00  0.00000000E+00
  0.00000000E+00  0.00000000E+00  0.00000000E+00
  0.00000000E+00  0.00000000E+00  0.00000000E+00
  0.00000000E+00  0.00000000E+00  0.00000000E+00
  0.00000000E+00  0.00000000E+00  0.00000000E+00
  0.00000000E+00  0.00000000E+00  0.00000000E+00
  0.00000000E+00  0.00000000E+00  0.00000000E+00
  0.00000000E+00  0.00000000E+00  0.00000000E+00
  0.00000000E+00  0.00000000E+00  0.00000000E+00
  0.00000000E+00  0.00000000E+00  0.00000000E+00
  0.00000000E+00  0.00000000E+00  0.00000000E+00
  0.00000000E+00  0.00000000E+00  0.00000000E+00
  0.00000000E+00  0.00000000E+00  0.00000000E+00
  0.00000000E+00  0.00000000E+00  0.00000000E+00
  0.00000000E+00  0.00000000E+00  0.00000000E+00
  0.00000000E+00  0.00000000E+00  0.00000000E+00
  0.00000000E+00  0.00000000E+00  0.00000000E+00
  0.00000000E+00  0.00000000E+00  0.00000000E+00
  0.00000000E+00  0.00000000E+00  0.00000000E+00
  0.00000000E+00  0.00000000E+00  0.00000000E+00
  0.00000000E+00  0.00000000E+00  0.00000000E+00
  0.00000000E+00  0.00000000E+00  0.00000000E+00
  0.00000000E+00  0.00000000E+00  0.00000000E+00
  0.00000000E+00  0.00000000E+00  0.00000000E+00
  0.00000000E+00  0.00000000E+00  0.00000000E+00
  0.00000000E+00  0.00000000E+00  0.00000000E+00
  0.00000000E+00  0.00000000E+00  0.00000000E+00
  0.00000000E+00  0.00000000E+00  0.00000000E+00
  0.00000000E+00  0.00000000E+00  0.00000000E+00
  0.00000000E+00  0.00000000E+00  0.00000000E+00
