Title                                   
   1.00000000000000     
     8.5490480000000009    0.0000000000000000    0.0000000000000000
     0.0000000000000000    8.5490480000000009    0.0000000000000000
     0.0000000000000000    0.0000000000000000   20.0000000000000000
    22     2     1
Selective dynamics
Direct
  0.9100141058492187  0.2076424777107976  0.0968003322731506   T   T   T
  0.9079185877830793  0.5018380723047500  0.0954812568525566   T   T   T
  0.9109616293008216  0.7984153321499372  0.0958505888535822   T   T   T
  0.1963513359115207  0.0838796164269454  0.0958587737246265   T   T   T
  0.0750736997968481  0.2051559365327784  0.0958403845295605   T   T   T
  0.1988797274715493  0.9188299680686132  0.0968528993610490   T   T   T
  0.1576622798912550  0.6475690462392817  0.0965467050548155   T   T   T
  0.0781118547479736  0.5017359848273187  0.0955003722304659   T   T   T
  0.1587156408599988  0.3526985216856577  0.0948406062413726   T   T   T
  0.0760087856576615  0.7959157117886091  0.0968409009667084   T   T   T
  0.4929140608523474  0.0868659686551748  0.0955265409012620   T   T   T
  0.3438980726403097  0.1674967075138826  0.0948620165222171   T   T   T
  0.4930441955921345  0.9166941171586545  0.0955307421871629   T   T   T
  0.3472177802234697  0.8371935605040436  0.0965706965510037   T   T   T
  0.7871203967855227  0.0847537310476079  0.0968099504755257   T   T   T
  0.6387353023272430  0.1664042262994793  0.0965357643251603   T   T   T
  0.7896668569500279  0.9197045772168222  0.0958482948349201   T   T   T
  0.8273478484242188  0.6508871636101758  0.0948272507131044   T   T   T
  0.8283606600207787  0.3559944201484629  0.0965091912543457   T   T   T
  0.6420949079524074  0.8360903978807692  0.0948418918442631   T   T   T
  0.3257372899392846  0.6691442259922640  0.0954119145495223   T   T   T
  0.6603111720702690  0.3344392646030185  0.0953881212328836   T   T   T
  0.3203628025558738  0.3291086386858540  0.0934425417466668   T   T   T
  0.6657161403418975  0.6744661273946084  0.0934237229474367   T   T   T
  0.4931868660542816  0.5018662055545065  0.0877635398266152   T   T   T
 
  0.00000000E+00  0.00000000E+00  0.00000000E+00
  0.00000000E+00  0.00000000E+00  0.00000000E+00
  0.00000000E+00  0.00000000E+00  0.00000000E+00
  0.00000000E+00  0.00000000E+00  0.00000000E+00
  0.00000000E+00  0.00000000E+00  0.00000000E+00
  0.00000000E+00  0.00000000E+00  0.00000000E+00
  0.00000000E+00  0.00000000E+00  0.00000000E+00
  0.00000000E+00  0.00000000E+00  0.00000000E+00
  0.00000000E+00  0.00000000E+00  0.00000000E+00
  0.00000000E+00  0.00000000E+00  0.00000000E+00
  0.00000000E+00  0.00000000E+00  0.00000000E+00
  0.00000000E+00  0.00000000E+00  0.00000000E+00
  0.00000000E+00  0.00000000E+00  0.00000000E+00
  0.00000000E+00  0.00000000E+00  0.00000000E+00
  0.00000000E+00  0.00000000E+00  0.00000000E+00
  0.00000000E+00  0.00000000E+00  0.00000000E+00
  0.00000000E+00  0.00000000E+00  0.00000000E+00
  0.00000000E+00  0.00000000E+00  0.00000000E+00
  0.00000000E+00  0.00000000E+00  0.00000000E+00
  0.00000000E+00  0.00000000E+00  0.00000000E+00
  0.00000000E+00  0.00000000E+00  0.00000000E+00
  0.00000000E+00  0.00000000E+00  0.00000000E+00
  0.00000000E+00  0.00000000E+00  0.00000000E+00
  0.00000000E+00  0.00000000E+00  0.00000000E+00
  0.00000000E+00  0.00000000E+00  0.00000000E+00
