Title                                   
   1.00000000000000     
     8.5490480000000009    0.0000000000000000    0.0000000000000000
     0.0000000000000000    8.5490480000000009    0.0000000000000000
     0.0000000000000000    0.0000000000000000   20.0000000000000000
    20     4     1
Selective dynamics
Direct
  0.9076526735833803  0.2072526737918683  0.0979188787444248   T   T   T
  0.9132052573019896  0.8026993053314186  0.0978172609472922   T   T   T
  0.1968409507356304  0.0808371716134623  0.0980848304376925   T   T   T
  0.0738466387664613  0.2007504742942133  0.0980787817593727   T   T   T
  0.1576052910875569  0.6486353275121216  0.0979561779663624   T   T   T
  0.0741995815964132  0.5013498598780135  0.0979799707159204   T   T   T
  0.1546333109477625  0.3534587761492476  0.0980254715920050   T   T   T
  0.0806858336540272  0.7988159855249940  0.0979715618744767   T   T   T
  0.3459907225220556  0.1616572433823016  0.0980063959914408   T   T   T
  0.4953280048570285  0.9163901282481621  0.0980128054670776   T   T   T
  0.3475709667448643  0.8339153623275947  0.0981625439388991   T   T   T
  0.7866226255875235  0.0871785414078296  0.0977423512860581   T   T   T
  0.6373600847632538  0.1671162134021291  0.0977828674568465   T   T   T
  0.7918611944524557  0.9208465670928674  0.0977639665566764   T   T   T
  0.8303851153316634  0.6540499633670219  0.0979110150538022   T   T   T
  0.8238512806973253  0.3587439076522420  0.0979271473805203   T   T   T
  0.6444386298846171  0.8375608829044978  0.0978603999709722   T   T   T
  0.3199659679691316  0.3262112659483697  0.0979630503417430   T   T   T
  0.3237811380298412  0.6711009495813126  0.0980018334594418   T   T   T
  0.6589507807580984  0.3349409638732331  0.0977871896533991   T   T   T
  0.4943821864226340  0.0833835361210010  0.0979513719311696   T   T   T
  0.9063078480621463  0.5048556688893785  0.0980293652030337   T   T   T
  0.6710204123063490  0.6756586984844316  0.0979173585914410   T   T   T
  0.1974392494817768  0.9147117418560186  0.0982328999363534   T   T   T
  0.4914862544560075  0.5026687913662823  0.0978195037435608   T   T   T
 
  0.00000000E+00  0.00000000E+00  0.00000000E+00
  0.00000000E+00  0.00000000E+00  0.00000000E+00
  0.00000000E+00  0.00000000E+00  0.00000000E+00
  0.00000000E+00  0.00000000E+00  0.00000000E+00
  0.00000000E+00  0.00000000E+00  0.00000000E+00
  0.00000000E+00  0.00000000E+00  0.00000000E+00
  0.00000000E+00  0.00000000E+00  0.00000000E+00
  0.00000000E+00  0.00000000E+00  0.00000000E+00
  0.00000000E+00  0.00000000E+00  0.00000000E+00
  0.00000000E+00  0.00000000E+00  0.00000000E+00
  0.00000000E+00  0.00000000E+00  0.00000000E+00
  0.00000000E+00  0.00000000E+00  0.00000000E+00
  0.00000000E+00  0.00000000E+00  0.00000000E+00
  0.00000000E+00  0.00000000E+00  0.00000000E+00
  0.00000000E+00  0.00000000E+00  0.00000000E+00
  0.00000000E+00  0.00000000E+00  0.00000000E+00
  0.00000000E+00  0.00000000E+00  0.00000000E+00
  0.00000000E+00  0.00000000E+00  0.00000000E+00
  0.00000000E+00  0.00000000E+00  0.00000000E+00
  0.00000000E+00  0.00000000E+00  0.00000000E+00
  0.00000000E+00  0.00000000E+00  0.00000000E+00
  0.00000000E+00  0.00000000E+00  0.00000000E+00
  0.00000000E+00  0.00000000E+00  0.00000000E+00
  0.00000000E+00  0.00000000E+00  0.00000000E+00
  0.00000000E+00  0.00000000E+00  0.00000000E+00
