Title                                   
   1.00000000000000     
     8.5490480000000009    0.0000000000000000    0.0000000000000000
     0.0000000000000000    8.5490480000000009    0.0000000000000000
     0.0000000000000000    0.0000000000000000   20.0000000000000000
    24     1
Selective dynamics
Direct
  0.9110462898925439  0.2067428060973821  0.0961184920852908   T   T   T
  0.9102943133133281  0.5018174917025802  0.0935314701320382   T   T   T
  0.9110787889293898  0.7968141465415927  0.0961455270032621   T   T   T
  0.1981157119829552  0.0843678140299425  0.0999936902246999   T   T   T
  0.0759188484134204  0.2062238024396033  0.0961503607852198   T   T   T
  0.1981478036034980  0.9191319040696557  0.1000133381943841   T   T   T
  0.1590824595398059  0.6475928191360785  0.0938786068462598   T   T   T
  0.0784656811658168  0.5018215775232042  0.0933222021276404   T   T   T
  0.1589297924350918  0.3559717277742124  0.0939795563342920   T   T   T
  0.0759813027008448  0.7972359553421587  0.0961606752542805   T   T   T
  0.4935721080218006  0.0859590408592377  0.1014484388528097   T   T   T
  0.3473443076651240  0.1649416457528039  0.1013683537377229   T   T   T
  0.4935644579485476  0.9176882787923941  0.1014841624187089   T   T   T
  0.3473891802555639  0.8386791304990017  0.1013662602838231   T   T   T
  0.7877562367906158  0.0843373436646832  0.0983273706103858   T   T   T
  0.6382124031701588  0.1685326091984761  0.0981904556665314   T   T   T
  0.7877835017907044  0.9192625725954564  0.0983708730190312   T   T   T
  0.8287610855638731  0.6470653800451078  0.0940226438525008   T   T   T
  0.8288415251699346  0.3565593212499225  0.0940262978504290   T   T   T
  0.6381973390970119  0.8351063507669398  0.0982521950377976   T   T   T
  0.3269249165573714  0.3321972611536023  0.0953561675070159   T   T   T
  0.3271477563683126  0.6714672696940885  0.0952124540103526   T   T   T
  0.6611598560458914  0.3364939729371894  0.0925257378221260   T   T   T
  0.6610487918904294  0.6671955873251870  0.0925222515432205   T   T   T
  0.4806475416879595  0.5015841908095118  0.0619374188001545   T   T   T
 
  0.00000000E+00  0.00000000E+00  0.00000000E+00
  0.00000000E+00  0.00000000E+00  0.00000000E+00
  0.00000000E+00  0.00000000E+00  0.00000000E+00
  0.00000000E+00  0.00000000E+00  0.00000000E+00
  0.00000000E+00  0.00000000E+00  0.00000000E+00
  0.00000000E+00  0.00000000E+00  0.00000000E+00
  0.00000000E+00  0.00000000E+00  0.00000000E+00
  0.00000000E+00  0.00000000E+00  0.00000000E+00
  0.00000000E+00  0.00000000E+00  0.00000000E+00
  0.00000000E+00  0.00000000E+00  0.00000000E+00
  0.00000000E+00  0.00000000E+00  0.00000000E+00
  0.00000000E+00  0.00000000E+00  0.00000000E+00
  0.00000000E+00  0.00000000E+00  0.00000000E+00
  0.00000000E+00  0.00000000E+00  0.00000000E+00
  0.00000000E+00  0.00000000E+00  0.00000000E+00
  0.00000000E+00  0.00000000E+00  0.00000000E+00
  0.00000000E+00  0.00000000E+00  0.00000000E+00
  0.00000000E+00  0.00000000E+00  0.00000000E+00
  0.00000000E+00  0.00000000E+00  0.00000000E+00
  0.00000000E+00  0.00000000E+00  0.00000000E+00
  0.00000000E+00  0.00000000E+00  0.00000000E+00
  0.00000000E+00  0.00000000E+00  0.00000000E+00
  0.00000000E+00  0.00000000E+00  0.00000000E+00
  0.00000000E+00  0.00000000E+00  0.00000000E+00
  0.00000000E+00  0.00000000E+00  0.00000000E+00
