Title                                   
   1.00000000000000     
     4.9440799999999996    0.0000000000000000    0.0000000000000000
     0.0000000000000000   17.1295089999999988    0.0000000000000000
     0.0000000000000000    0.0000000000000000   20.0000000000000000
    30     1
Selective dynamics
Direct
  0.0000234261236952  0.1049206367117481  0.2908248410329131   T   T   T
  0.2503108284504472  0.1469268533566964  0.2929194552041071   T   T   T
  0.2502350687847131  0.2297914845341956  0.2991304728638188   T   T   T
  0.0016651952107520  0.2723752723718925  0.3027827548387456   T   T   T
  0.0017645167110391  0.6025753049764770  0.3028222166218119   T   T   T
  0.2503677431304348  0.7280042462232452  0.2931365080750374   T   T   T
  0.0002406035937440  0.8535432350532144  0.2887929888545605   T   T   T
  0.2504220765227619  0.8956654556204523  0.2882432185790116   T   T   T
  0.2504424196390964  0.9792153035563396  0.2881403836619928   T   T   T
  0.0000546049504245  0.7699812789062264  0.2910772863447512   T   T   T
  0.5006658475334103  0.1049207812008111  0.2908012271077166   T   T   T
  0.7503204705545936  0.1470721141400468  0.2925611722007640   T   T   T
  0.7502352713604342  0.2306967985726335  0.2981521012080860   T   T   T
  0.5006221767332872  0.0213425862214388  0.2885692527742215   T   T   T
  0.7501699352570743  0.3949274934240801  0.3152500870151749   T   T   T
  0.7501764799898128  0.4800484302028056  0.3153346494815943   T   T   T
  0.4987872837640289  0.2723894182970065  0.3027267901107382   T   T   T
  0.4987413439350941  0.6025639060779887  0.3027654800356367   T   T   T
  0.7503562302741676  0.7278272012674032  0.2927589125524704   T   T   T
  0.5006240889654461  0.8535462871525666  0.2887826507574040   T   T   T
  0.7504613372932630  0.8956035199236630  0.2881829335452600   T   T   T
  0.7504888070075695  0.9793196841008673  0.2880736177686776   T   T   T
  0.5007094611265460  0.7699818859324944  0.2910601560811691   T   T   T
  0.7502446538096247  0.6442141892474438  0.2982329771240934   T   T   T
  0.2502906802453635  0.6451622867779310  0.2991871244230097   T   T   T
  0.0002682163972971  0.0213543577676389  0.2885851045015743   T   T   T
  0.5003366719288902  0.5204846013445574  0.3129952551636679   T   T   T
  0.0001176020965244  0.5204928880050674  0.3131224225871466   T   T   T
  0.5003927669658315  0.3544640830734944  0.3129704604208698   T   T   T
  0.0000254641889239  0.3544547181360242  0.3130878422807913   T   T   T
  0.2504457274557107  0.4374756978235443  0.3539896567831343   T   T   T
 
  0.00000000E+00  0.00000000E+00  0.00000000E+00
  0.00000000E+00  0.00000000E+00  0.00000000E+00
  0.00000000E+00  0.00000000E+00  0.00000000E+00
  0.00000000E+00  0.00000000E+00  0.00000000E+00
  0.00000000E+00  0.00000000E+00  0.00000000E+00
  0.00000000E+00  0.00000000E+00  0.00000000E+00
  0.00000000E+00  0.00000000E+00  0.00000000E+00
  0.00000000E+00  0.00000000E+00  0.00000000E+00
  0.00000000E+00  0.00000000E+00  0.00000000E+00
  0.00000000E+00  0.00000000E+00  0.00000000E+00
  0.00000000E+00  0.00000000E+00  0.00000000E+00
  0.00000000E+00  0.00000000E+00  0.00000000E+00
  0.00000000E+00  0.00000000E+00  0.00000000E+00
  0.00000000E+00  0.00000000E+00  0.00000000E+00
  0.00000000E+00  0.00000000E+00  0.00000000E+00
  0.00000000E+00  0.00000000E+00  0.00000000E+00
  0.00000000E+00  0.00000000E+00  0.00000000E+00
  0.00000000E+00  0.00000000E+00  0.00000000E+00
  0.00000000E+00  0.00000000E+00  0.00000000E+00
  0.00000000E+00  0.00000000E+00  0.00000000E+00
  0.00000000E+00  0.00000000E+00  0.00000000E+00
  0.00000000E+00  0.00000000E+00  0.00000000E+00
  0.00000000E+00  0.00000000E+00  0.00000000E+00
  0.00000000E+00  0.00000000E+00  0.00000000E+00
  0.00000000E+00  0.00000000E+00  0.00000000E+00
  0.00000000E+00  0.00000000E+00  0.00000000E+00
  0.00000000E+00  0.00000000E+00  0.00000000E+00
  0.00000000E+00  0.00000000E+00  0.00000000E+00
  0.00000000E+00  0.00000000E+00  0.00000000E+00
  0.00000000E+00  0.00000000E+00  0.00000000E+00
  0.00000000E+00  0.00000000E+00  0.00000000E+00
