Title                                   
   1.00000000000000     
     9.8694509999999998    0.0000000000000000    0.0000000000000000
     0.0000000000000000    8.5490480000000009    0.0000000000000000
     0.0000000000000000    0.0000000000000000   20.0000000000000000
    29     1     1
Selective dynamics
Direct
  0.0564070591073158  0.0894110325224961  0.0909016436354022   T   T   T
  0.9319564916508183  0.1720320787312202  0.0955194101200924   T   T   T
  0.0577045371546317  0.9236414697651679  0.0911292874071039   T   T   T
  0.9332173812418243  0.3390728437541812  0.0964953878558830   T   T   T
  0.0574803257702356  0.5904455849198197  0.0922658381801370   T   T   T
  0.9333256811212921  0.6736145728055408  0.0967323957710481   T   T   T
  0.0574927925360738  0.4227473954394910  0.0919037817438234   T   T   T
  0.9323932038804978  0.8400260835476890  0.0955976890586498   T   T   T
  0.3069194273160998  0.0883191010730456  0.0852758303112397   T   T   T
  0.1817610424476418  0.1713760391166300  0.0871189257661789   T   T   T
  0.1810660852080231  0.3385503335052567  0.0876441104840354   T   T   T
  0.3057718458821452  0.5910649434974065  0.0840085855799932   T   T   T
  0.1816332072610626  0.6743641041378244  0.0884364691155192   T   T   T
  0.3059588014055824  0.4210785907554638  0.0836936846676501   T   T   T
  0.1826285916034220  0.8409492342297294  0.0880978468074934   T   T   T
  0.5578103203540408  0.0890823359832343  0.0962472759661462   T   T   T
  0.4320874169476897  0.1726540081692557  0.0867993616969475   T   T   T
  0.5564459808132947  0.9234665573805154  0.0965190787302301   T   T   T
  0.4296991294652119  0.3378816463783157  0.0844245556545661   T   T   T
  0.4288107060624274  0.6753355424366435  0.0847028053417967   T   T   T
  0.4309338585592726  0.8387842500054058  0.0878890521099713   T   T   T
  0.8060917207849275  0.0898276682301595  0.0988433834617514   T   T   T
  0.6817761291377776  0.1775369753468618  0.1029212562273085   T   T   T
  0.8060999795593703  0.9218575270820616  0.0986883679239028   T   T   T
  0.6840884754388944  0.3442665111036194  0.1106436348649046   T   T   T
  0.8100587028702667  0.5907140847651705  0.1043220196630886   T   T   T
  0.6840377443468866  0.6677304893998924  0.1103621819324645   T   T   T
  0.8100705306770695  0.4216733241694214  0.1043233531779546   T   T   T
  0.6811654920876047  0.8339152852617626  0.1027317764261856   T   T   T
  0.3065445895651758  0.9234660390745826  0.0859973935013360   T   T   T
  0.5316977497434260  0.5059893474121537  0.1307286168172228   T   T   T
 
  0.00000000E+00  0.00000000E+00  0.00000000E+00
  0.00000000E+00  0.00000000E+00  0.00000000E+00
  0.00000000E+00  0.00000000E+00  0.00000000E+00
  0.00000000E+00  0.00000000E+00  0.00000000E+00
  0.00000000E+00  0.00000000E+00  0.00000000E+00
  0.00000000E+00  0.00000000E+00  0.00000000E+00
  0.00000000E+00  0.00000000E+00  0.00000000E+00
  0.00000000E+00  0.00000000E+00  0.00000000E+00
  0.00000000E+00  0.00000000E+00  0.00000000E+00
  0.00000000E+00  0.00000000E+00  0.00000000E+00
  0.00000000E+00  0.00000000E+00  0.00000000E+00
  0.00000000E+00  0.00000000E+00  0.00000000E+00
  0.00000000E+00  0.00000000E+00  0.00000000E+00
  0.00000000E+00  0.00000000E+00  0.00000000E+00
  0.00000000E+00  0.00000000E+00  0.00000000E+00
  0.00000000E+00  0.00000000E+00  0.00000000E+00
  0.00000000E+00  0.00000000E+00  0.00000000E+00
  0.00000000E+00  0.00000000E+00  0.00000000E+00
  0.00000000E+00  0.00000000E+00  0.00000000E+00
  0.00000000E+00  0.00000000E+00  0.00000000E+00
  0.00000000E+00  0.00000000E+00  0.00000000E+00
  0.00000000E+00  0.00000000E+00  0.00000000E+00
  0.00000000E+00  0.00000000E+00  0.00000000E+00
  0.00000000E+00  0.00000000E+00  0.00000000E+00
  0.00000000E+00  0.00000000E+00  0.00000000E+00
  0.00000000E+00  0.00000000E+00  0.00000000E+00
  0.00000000E+00  0.00000000E+00  0.00000000E+00
  0.00000000E+00  0.00000000E+00  0.00000000E+00
  0.00000000E+00  0.00000000E+00  0.00000000E+00
  0.00000000E+00  0.00000000E+00  0.00000000E+00
  0.00000000E+00  0.00000000E+00  0.00000000E+00
