Title                                   
   1.00000000000000     
     9.8694509999999998    0.0000000000000000    0.0000000000000000
     0.0000000000000000    8.5490480000000009    0.0000000000000000
     0.0000000000000000    0.0000000000000000   20.0000000000000000
    30     1     1
Selective dynamics
Direct
  0.0562484132290248  0.0900330590469321  0.0805351921987907   T   T   T
  0.9310192628110798  0.1733140022716825  0.0831704800277408   T   T   T
  0.0562233104223224  0.9230605187287731  0.0808907594852863   T   T   T
  0.9304652928668105  0.3403666210212047  0.0876099441631938   T   T   T
  0.0562304058374240  0.5891924969036196  0.0854576933465844   T   T   T
  0.9315975396077575  0.6726546380445156  0.0877533703763358   T   T   T
  0.0562217796526633  0.4229704926511977  0.0862786788880709   T   T   T
  0.9310055591548551  0.8394268481398632  0.0840523978204324   T   T   T
  0.3053952829772001  0.0893477991890511  0.0847117645737145   T   T   T
  0.1814527738515962  0.1733133878856679  0.0831617975873366   T   T   T
  0.3066945564140018  0.9235461780996149  0.0857209285630839   T   T   T
  0.1819984657017714  0.3403696447650336  0.0876159266519849   T   T   T
  0.3038066607185327  0.5914126581596013  0.1006654800271690   T   T   T
  0.1808752027585862  0.6726586801205738  0.0877629617373099   T   T   T
  0.3062729046871108  0.4226655859839780  0.0982251932841433   T   T   T
  0.1814493297462116  0.8394350471181373  0.0840426188034977   T   T   T
  0.5562307606604541  0.0868521403022141  0.0934784605123702   T   T   T
  0.4307133352501948  0.1694309155076177  0.0921936543021678   T   T   T
  0.4303392668564173  0.3340411901329106  0.1028205915619032   T   T   T
  0.4216130651620204  0.6828392949465055  0.1171184785768446   T   T   T
  0.5562302465254003  0.4051024791901515  0.1195760324319407   T   T   T
  0.4299702261012862  0.8420821291623634  0.0981718136391840   T   T   T
  0.8070937914299304  0.0893408169756010  0.0847223728633463   T   T   T
  0.6817730599270374  0.1694345811024374  0.0922085827103538   T   T   T
  0.8057584686992674  0.9235501719682493  0.0857327448402655   T   T   T
  0.6821368222233548  0.3340472007927561  0.1028279973109895   T   T   T
  0.8086911386981896  0.5913919346372627  0.1006535877935388   T   T   T
  0.6909325735184974  0.6828274899111970  0.1171227662805279   T   T   T
  0.8061899549891733  0.4226584840547975  0.0982163089365359   T   T   T
  0.6824886952595856  0.8420738148231219  0.0981844091933681   T   T   T
  0.5562311200669621  0.9227687531139952  0.0968201831674607   T   T   T
  0.5562897341952863  0.5880369452493805  0.1781718283445626   T   T   T
 
  0.00000000E+00  0.00000000E+00  0.00000000E+00
  0.00000000E+00  0.00000000E+00  0.00000000E+00
  0.00000000E+00  0.00000000E+00  0.00000000E+00
  0.00000000E+00  0.00000000E+00  0.00000000E+00
  0.00000000E+00  0.00000000E+00  0.00000000E+00
  0.00000000E+00  0.00000000E+00  0.00000000E+00
  0.00000000E+00  0.00000000E+00  0.00000000E+00
  0.00000000E+00  0.00000000E+00  0.00000000E+00
  0.00000000E+00  0.00000000E+00  0.00000000E+00
  0.00000000E+00  0.00000000E+00  0.00000000E+00
  0.00000000E+00  0.00000000E+00  0.00000000E+00
  0.00000000E+00  0.00000000E+00  0.00000000E+00
  0.00000000E+00  0.00000000E+00  0.00000000E+00
  0.00000000E+00  0.00000000E+00  0.00000000E+00
  0.00000000E+00  0.00000000E+00  0.00000000E+00
  0.00000000E+00  0.00000000E+00  0.00000000E+00
  0.00000000E+00  0.00000000E+00  0.00000000E+00
  0.00000000E+00  0.00000000E+00  0.00000000E+00
  0.00000000E+00  0.00000000E+00  0.00000000E+00
  0.00000000E+00  0.00000000E+00  0.00000000E+00
  0.00000000E+00  0.00000000E+00  0.00000000E+00
  0.00000000E+00  0.00000000E+00  0.00000000E+00
  0.00000000E+00  0.00000000E+00  0.00000000E+00
  0.00000000E+00  0.00000000E+00  0.00000000E+00
  0.00000000E+00  0.00000000E+00  0.00000000E+00
  0.00000000E+00  0.00000000E+00  0.00000000E+00
  0.00000000E+00  0.00000000E+00  0.00000000E+00
  0.00000000E+00  0.00000000E+00  0.00000000E+00
  0.00000000E+00  0.00000000E+00  0.00000000E+00
  0.00000000E+00  0.00000000E+00  0.00000000E+00
  0.00000000E+00  0.00000000E+00  0.00000000E+00
  0.00000000E+00  0.00000000E+00  0.00000000E+00
