Title                                   
   1.00000000000000     
     9.8694509999999998    0.0000000000000000    0.0000000000000000
     0.0000000000000000    8.5490480000000009    0.0000000000000000
     0.0000000000000000    0.0000000000000000   20.0000000000000000
    29     2     1
Selective dynamics
Direct
  0.0569841340498884  0.0909113739322064  0.0835397992514158   T   T   T
  0.9317101301683341  0.1728975465436369  0.0875506769865605   T   T   T
  0.0560976872298867  0.9235948133962457  0.0824846310344140   T   T   T
  0.9316698700163657  0.3399841593678519  0.0931809258970895   T   T   T
  0.0566424379519826  0.5894703965702657  0.0882812435042395   T   T   T
  0.9318723070822585  0.6723453723796943  0.0914956320823085   T   T   T
  0.0574911205400908  0.4231141159421760  0.0903470723498156   T   T   T
  0.9312779296685987  0.8387632412813727  0.0866015299810491   T   T   T
  0.3063715267062470  0.0899733288885579  0.0849571100303858   T   T   T
  0.1824834291407317  0.1750261471100188  0.0856002219270724   T   T   T
  0.3062412615695150  0.9251641211127647  0.0835235124885298   T   T   T
  0.1836877479630087  0.3418254737341512  0.0901152732984667   T   T   T
  0.3063253521869285  0.5943530633874508  0.0948360987097302   T   T   T
  0.1806269593930902  0.6742116244706110  0.0863715399326197   T   T   T
  0.3096949000398945  0.4261142320204734  0.0967893387319420   T   T   T
  0.1808624466689456  0.8399745044799667  0.0829600660682794   T   T   T
  0.5564248228424779  0.0853943701897119  0.0944046144624087   T   T   T
  0.4322766542135236  0.1693242745823512  0.0917003076921328   T   T   T
  0.4343409622628067  0.3353137018367660  0.1013339848518856   T   T   T
  0.5581166500841573  0.4079498137867700  0.1161572045403503   T   T   T
  0.4284256197029555  0.8402299297888577  0.0931982972267601   T   T   T
  0.8077657531205955  0.0874786794251129  0.0882053588400071   T   T   T
  0.6820971687881169  0.1674369928550322  0.0949326137982414   T   T   T
  0.8059618734249392  0.9223168883751873  0.0881319626213932   T   T   T
  0.6825335795948984  0.3328452296999514  0.1053888569167760   T   T   T
  0.8086617822604996  0.5909203686787248  0.1057493634823172   T   T   T
  0.6894611405537583  0.6806345048224981  0.1196862196988634   T   T   T
  0.8076877333431636  0.4219768103049719  0.1037548851067543   T   T   T
  0.6833909765882323  0.8373770604453112  0.1006863473232352   T   T   T
  0.4230033395114301  0.6843519349716600  0.1043931073410867   T   T   T
  0.5549822714221327  0.9192050824461645  0.0973582956896442   T   T   T
  0.5344694319105534  0.5897668431734723  0.1899589081342705   T   T   T
 
  0.00000000E+00  0.00000000E+00  0.00000000E+00
  0.00000000E+00  0.00000000E+00  0.00000000E+00
  0.00000000E+00  0.00000000E+00  0.00000000E+00
  0.00000000E+00  0.00000000E+00  0.00000000E+00
  0.00000000E+00  0.00000000E+00  0.00000000E+00
  0.00000000E+00  0.00000000E+00  0.00000000E+00
  0.00000000E+00  0.00000000E+00  0.00000000E+00
  0.00000000E+00  0.00000000E+00  0.00000000E+00
  0.00000000E+00  0.00000000E+00  0.00000000E+00
  0.00000000E+00  0.00000000E+00  0.00000000E+00
  0.00000000E+00  0.00000000E+00  0.00000000E+00
  0.00000000E+00  0.00000000E+00  0.00000000E+00
  0.00000000E+00  0.00000000E+00  0.00000000E+00
  0.00000000E+00  0.00000000E+00  0.00000000E+00
  0.00000000E+00  0.00000000E+00  0.00000000E+00
  0.00000000E+00  0.00000000E+00  0.00000000E+00
  0.00000000E+00  0.00000000E+00  0.00000000E+00
  0.00000000E+00  0.00000000E+00  0.00000000E+00
  0.00000000E+00  0.00000000E+00  0.00000000E+00
  0.00000000E+00  0.00000000E+00  0.00000000E+00
  0.00000000E+00  0.00000000E+00  0.00000000E+00
  0.00000000E+00  0.00000000E+00  0.00000000E+00
  0.00000000E+00  0.00000000E+00  0.00000000E+00
  0.00000000E+00  0.00000000E+00  0.00000000E+00
  0.00000000E+00  0.00000000E+00  0.00000000E+00
  0.00000000E+00  0.00000000E+00  0.00000000E+00
  0.00000000E+00  0.00000000E+00  0.00000000E+00
  0.00000000E+00  0.00000000E+00  0.00000000E+00
  0.00000000E+00  0.00000000E+00  0.00000000E+00
  0.00000000E+00  0.00000000E+00  0.00000000E+00
  0.00000000E+00  0.00000000E+00  0.00000000E+00
  0.00000000E+00  0.00000000E+00  0.00000000E+00
