Title                                   
   1.00000000000000     
     9.8694509999999998    0.0000000000000000    0.0000000000000000
     0.0000000000000000    8.5490480000000009    0.0000000000000000
     0.0000000000000000    0.0000000000000000   20.0000000000000000
    28     2     1
Selective dynamics
Direct
  0.0552948103080998  0.0893246582952425  0.0897629801473613   T   T   T
  0.9300902460859086  0.1723189008443358  0.0876911458754447   T   T   T
  0.0565440746595796  0.9234692463772960  0.0899112136316031   T   T   T
  0.9320360182606173  0.3391483453804172  0.0892603960711675   T   T   T
  0.0559137869699672  0.5902728329594907  0.0923868008738035   T   T   T
  0.9319584516364239  0.6729679687784109  0.0897503346977929   T   T   T
  0.0560794406394627  0.4224967335245033  0.0922383544777748   T   T   T
  0.9307172576416324  0.8396197853618425  0.0881672759064883   T   T   T
  0.3072017983406485  0.0885252093640280  0.0954986431074453   T   T   T
  0.1816829888464958  0.1710771577619256  0.0934142382352626   T   T   T
  0.1805669631011401  0.3384489656932248  0.0951658927691767   T   T   T
  0.3034473928397994  0.5899633701923140  0.1025273624620441   T   T   T
  0.1810321937722549  0.6741535519580153  0.0952301906081745   T   T   T
  0.3033255648894562  0.4215374197415542  0.1022681637611090   T   T   T
  0.1817874880056158  0.8409818119043162  0.0934334643515120   T   T   T
  0.4318001754815419  0.1763700357820401  0.0997218147362889   T   T   T
  0.5536345329777506  0.9240019392155123  0.0947404791899868   T   T   T
  0.4295519647268711  0.3423034976365992  0.1083704024592893   T   T   T
  0.4285844971387306  0.6701247923674466  0.1095832744664994   T   T   T
  0.4304279334599458  0.8365676661878015  0.1007819469933752   T   T   T
  0.8036752184244372  0.0888576034399184  0.0859113393651183   T   T   T
  0.6775821083776394  0.1735509425779619  0.0877014492904512   T   T   T
  0.8048429527884399  0.9225411073589316  0.0862128799836726   T   T   T
  0.6807221334052047  0.3387291574794042  0.0887543229730416   T   T   T
  0.8066757716782716  0.5903335735752889  0.0878630166455473   T   T   T
  0.6814284946454070  0.6731062358510527  0.0896716188531770   T   T   T
  0.8069289605678588  0.4208794804170243  0.0874157430353870   T   T   T
  0.6776896711532788  0.8395255630324310  0.0882664156349033   T   T   T
  0.5551757186037386  0.0905623197305352  0.0942141869570113   T   T   T
  0.3056794904970214  0.9226165679690801  0.0954314592682327   T   T   T
  0.5810569000767620  0.5064985592420793  0.1396181931718845   T   T   T
 
  0.00000000E+00  0.00000000E+00  0.00000000E+00
  0.00000000E+00  0.00000000E+00  0.00000000E+00
  0.00000000E+00  0.00000000E+00  0.00000000E+00
  0.00000000E+00  0.00000000E+00  0.00000000E+00
  0.00000000E+00  0.00000000E+00  0.00000000E+00
  0.00000000E+00  0.00000000E+00  0.00000000E+00
  0.00000000E+00  0.00000000E+00  0.00000000E+00
  0.00000000E+00  0.00000000E+00  0.00000000E+00
  0.00000000E+00  0.00000000E+00  0.00000000E+00
  0.00000000E+00  0.00000000E+00  0.00000000E+00
  0.00000000E+00  0.00000000E+00  0.00000000E+00
  0.00000000E+00  0.00000000E+00  0.00000000E+00
  0.00000000E+00  0.00000000E+00  0.00000000E+00
  0.00000000E+00  0.00000000E+00  0.00000000E+00
  0.00000000E+00  0.00000000E+00  0.00000000E+00
  0.00000000E+00  0.00000000E+00  0.00000000E+00
  0.00000000E+00  0.00000000E+00  0.00000000E+00
  0.00000000E+00  0.00000000E+00  0.00000000E+00
  0.00000000E+00  0.00000000E+00  0.00000000E+00
  0.00000000E+00  0.00000000E+00  0.00000000E+00
  0.00000000E+00  0.00000000E+00  0.00000000E+00
  0.00000000E+00  0.00000000E+00  0.00000000E+00
  0.00000000E+00  0.00000000E+00  0.00000000E+00
  0.00000000E+00  0.00000000E+00  0.00000000E+00
  0.00000000E+00  0.00000000E+00  0.00000000E+00
  0.00000000E+00  0.00000000E+00  0.00000000E+00
  0.00000000E+00  0.00000000E+00  0.00000000E+00
  0.00000000E+00  0.00000000E+00  0.00000000E+00
  0.00000000E+00  0.00000000E+00  0.00000000E+00
  0.00000000E+00  0.00000000E+00  0.00000000E+00
  0.00000000E+00  0.00000000E+00  0.00000000E+00
