Title                                   
   1.00000000000000     
     9.8694509999999998    0.0000000000000000    0.0000000000000000
     0.0000000000000000    8.5490480000000009    0.0000000000000000
     0.0000000000000000    0.0000000000000000   20.0000000000000000
    29     1     1
Selective dynamics
Direct
  0.0550459558806122  0.0877774414647313  0.0826141311897931   T   T   T
  0.9310517845166317  0.1716086178459635  0.0889696474569342   T   T   T
  0.0556386790327056  0.9227203412416553  0.0826271040425801   T   T   T
  0.9342089738586955  0.3380490915732232  0.0894553064248156   T   T   T
  0.0559376623370306  0.5890456886215801  0.0806755749691866   T   T   T
  0.9339194646958390  0.6740141954948853  0.0895872296810495   T   T   T
  0.0557739852256913  0.4230630769454284  0.0805483450062734   T   T   T
  0.9311751337665685  0.8402045907576802  0.0889009463330169   T   T   T
  0.3042353783025500  0.0893170323783055  0.0883702359341959   T   T   T
  0.1795144553598715  0.1710486452246858  0.0822258289472727   T   T   T
  0.3050756279285725  0.9227537118149636  0.0882354349695723   T   T   T
  0.1785155828780266  0.3372931347910129  0.0803504451089780   T   T   T
  0.3023274002859536  0.5890906869036959  0.0868757590621768   T   T   T
  0.1795544867849132  0.6725794824805295  0.0802192968310640   T   T   T
  0.3007140531932396  0.4181531318967605  0.0872338433471644   T   T   T
  0.1809179532144404  0.8394244517756182  0.0819342323950044   T   T   T
  0.5548321542177426  0.0922164386996795  0.1066728931347512   T   T   T
  0.4261091424126019  0.1767985700571660  0.0984764295543291   T   T   T
  0.5546857565356803  0.9256410686167742  0.1061009467260722   T   T   T
  0.4215158260206008  0.6748331266314195  0.0990150558754207   T   T   T
  0.4285974774603220  0.8383319042328439  0.0981724291179923   T   T   T
  0.8069444637617336  0.0898337169136461  0.0980136301087020   T   T   T
  0.6841121193534354  0.1768722079846031  0.1092450726981628   T   T   T
  0.8070268018914681  0.9229304303461860  0.0978552466839848   T   T   T
  0.6955422263314909  0.3386246039811021  0.1183830521549753   T   T   T
  0.8151998693862308  0.5909717208764838  0.1043448050988520   T   T   T
  0.6936043044475990  0.6747694241803823  0.1147702730356589   T   T   T
  0.8160016557246066  0.4211110268622066  0.1052078328480027   T   T   T
  0.6829516732243039  0.8379041106563448  0.1079934483768661   T   T   T
  0.4172747786322925  0.3358682150173465  0.0988106990474051   T   T   T
  0.5551301733385591  0.5080251137331062  0.1190798238397885   T   T   T
 
  0.00000000E+00  0.00000000E+00  0.00000000E+00
  0.00000000E+00  0.00000000E+00  0.00000000E+00
  0.00000000E+00  0.00000000E+00  0.00000000E+00
  0.00000000E+00  0.00000000E+00  0.00000000E+00
  0.00000000E+00  0.00000000E+00  0.00000000E+00
  0.00000000E+00  0.00000000E+00  0.00000000E+00
  0.00000000E+00  0.00000000E+00  0.00000000E+00
  0.00000000E+00  0.00000000E+00  0.00000000E+00
  0.00000000E+00  0.00000000E+00  0.00000000E+00
  0.00000000E+00  0.00000000E+00  0.00000000E+00
  0.00000000E+00  0.00000000E+00  0.00000000E+00
  0.00000000E+00  0.00000000E+00  0.00000000E+00
  0.00000000E+00  0.00000000E+00  0.00000000E+00
  0.00000000E+00  0.00000000E+00  0.00000000E+00
  0.00000000E+00  0.00000000E+00  0.00000000E+00
  0.00000000E+00  0.00000000E+00  0.00000000E+00
  0.00000000E+00  0.00000000E+00  0.00000000E+00
  0.00000000E+00  0.00000000E+00  0.00000000E+00
  0.00000000E+00  0.00000000E+00  0.00000000E+00
  0.00000000E+00  0.00000000E+00  0.00000000E+00
  0.00000000E+00  0.00000000E+00  0.00000000E+00
  0.00000000E+00  0.00000000E+00  0.00000000E+00
  0.00000000E+00  0.00000000E+00  0.00000000E+00
  0.00000000E+00  0.00000000E+00  0.00000000E+00
  0.00000000E+00  0.00000000E+00  0.00000000E+00
  0.00000000E+00  0.00000000E+00  0.00000000E+00
  0.00000000E+00  0.00000000E+00  0.00000000E+00
  0.00000000E+00  0.00000000E+00  0.00000000E+00
  0.00000000E+00  0.00000000E+00  0.00000000E+00
  0.00000000E+00  0.00000000E+00  0.00000000E+00
  0.00000000E+00  0.00000000E+00  0.00000000E+00
