Title                                   
   1.00000000000000     
     9.8694509999999998    0.0000000000000000    0.0000000000000000
     0.0000000000000000    8.5490480000000009    0.0000000000000000
     0.0000000000000000    0.0000000000000000   20.0000000000000000
    26     5     1
Selective dynamics
Direct
  0.0545819887977367  0.0927975714072335  0.0948343585506001   T   T   T
  0.9287199334659618  0.1751363058223332  0.0955519399677971   T   T   T
  0.0552080722789899  0.9240741460523829  0.0935729874294956   T   T   T
  0.9276786286182653  0.3416987881914386  0.0946820929534434   T   T   T
  0.0549853124218039  0.5905726648944137  0.0936363521559614   T   T   T
  0.9313312068415190  0.6738975867332079  0.0889703589274965   T   T   T
  0.0553367438423225  0.4231843942104916  0.0952991815428991   T   T   T
  0.9308196247930476  0.8410850030534948  0.0901029871419914   T   T   T
  0.3033222876113771  0.0881340459414158  0.0922962836984535   T   T   T
  0.1802764393986888  0.1751967173017059  0.0948329666080145   T   T   T
  0.3046363212338103  0.9223850412525147  0.0942254504746136   T   T   T
  0.1805913616517642  0.3416174214986766  0.0972727641004859   T   T   T
  0.3070282893368126  0.5930993116921623  0.1038179667879358   T   T   T
  0.1807025203455718  0.6714618884973149  0.0972168855962798   T   T   T
  0.1798208445715574  0.8392033627084065  0.0959702780446713   T   T   T
  0.5531025314990817  0.0843060763509971  0.0935307605782835   T   T   T
  0.4282765390000381  0.1681118031544798  0.0930814485128396   T   T   T
  0.4303622831945415  0.3352578332875262  0.0969378584893795   T   T   T
  0.4266260143547550  0.8353679790144831  0.0984833498306973   T   T   T
  0.8045374256996869  0.0891551150686960  0.0947799887817426   T   T   T
  0.6781797123173577  0.1672099570143059  0.0942162117619055   T   T   T
  0.8045867985808977  0.9236632248735999  0.0919715019613881   T   T   T
  0.6742889974715599  0.3337190351658856  0.0940030562819076   T   T   T
  0.8038796523967565  0.5953729722254135  0.0830886280433729   T   T   T
  0.7983093930942347  0.4259625781480396  0.0908828303715901   T   T   T
  0.6816907230170778  0.8372893555556300  0.0879396077415339   T   T   T
  0.4246814407726535  0.6782411329562263  0.1136151385806211   T   T   T
  0.5499916344940291  0.4096920154047045  0.0997702850552417   T   T   T
  0.6830605986632113  0.6807009053672202  0.0702322169189106   T   T   T
  0.5535361364749363  0.9159691001490317  0.0930203846654942   T   T   T
  0.3093064146699284  0.4245898108812328  0.1003375682601505   T   T   T
  0.6201831290900308  0.5920928561253360  0.1675013101848181   T   T   T
 
  0.00000000E+00  0.00000000E+00  0.00000000E+00
  0.00000000E+00  0.00000000E+00  0.00000000E+00
  0.00000000E+00  0.00000000E+00  0.00000000E+00
  0.00000000E+00  0.00000000E+00  0.00000000E+00
  0.00000000E+00  0.00000000E+00  0.00000000E+00
  0.00000000E+00  0.00000000E+00  0.00000000E+00
  0.00000000E+00  0.00000000E+00  0.00000000E+00
  0.00000000E+00  0.00000000E+00  0.00000000E+00
  0.00000000E+00  0.00000000E+00  0.00000000E+00
  0.00000000E+00  0.00000000E+00  0.00000000E+00
  0.00000000E+00  0.00000000E+00  0.00000000E+00
  0.00000000E+00  0.00000000E+00  0.00000000E+00
  0.00000000E+00  0.00000000E+00  0.00000000E+00
  0.00000000E+00  0.00000000E+00  0.00000000E+00
  0.00000000E+00  0.00000000E+00  0.00000000E+00
  0.00000000E+00  0.00000000E+00  0.00000000E+00
  0.00000000E+00  0.00000000E+00  0.00000000E+00
  0.00000000E+00  0.00000000E+00  0.00000000E+00
  0.00000000E+00  0.00000000E+00  0.00000000E+00
  0.00000000E+00  0.00000000E+00  0.00000000E+00
  0.00000000E+00  0.00000000E+00  0.00000000E+00
  0.00000000E+00  0.00000000E+00  0.00000000E+00
  0.00000000E+00  0.00000000E+00  0.00000000E+00
  0.00000000E+00  0.00000000E+00  0.00000000E+00
  0.00000000E+00  0.00000000E+00  0.00000000E+00
  0.00000000E+00  0.00000000E+00  0.00000000E+00
  0.00000000E+00  0.00000000E+00  0.00000000E+00
  0.00000000E+00  0.00000000E+00  0.00000000E+00
  0.00000000E+00  0.00000000E+00  0.00000000E+00
  0.00000000E+00  0.00000000E+00  0.00000000E+00
  0.00000000E+00  0.00000000E+00  0.00000000E+00
  0.00000000E+00  0.00000000E+00  0.00000000E+00
