Title                                   
   1.00000000000000     
     4.9440799999999996    0.0000000000000000    0.0000000000000000
     0.0000000000000000   17.1295089999999988    0.0000000000000000
     0.0000000000000000    0.0000000000000000   20.0000000000000000
    29     1     1
Selective dynamics
Direct
 -0.0009861896551393  0.1041473584750815  0.2970264098111222   T   T   T
  0.2479511488057301  0.1467189145256934  0.2983313203720897   T   T   T
  0.2479203772750518  0.2299008618356098  0.3002440110148009   T   T   T
 -0.0049338178424456  0.2712344299385495  0.2985601158018302   T   T   T
 -0.0008005690606877  0.6047352026186557  0.2988758697099723   T   T   T
  0.2508143198617100  0.7288910767896161  0.2996470472280202   T   T   T
 -0.0002236995901265  0.8542489047788208  0.2971754086468119   T   T   T
  0.2496948000307466  0.8960582384736053  0.2967969056532724   T   T   T
  0.2492293864621767  0.9791413353771675  0.2962773960845615   T   T   T
  0.0002148734478972  0.7709904205458774  0.2984357830703836   T   T   T
  0.4984602043930444  0.1043620405646532  0.2980733884933198   T   T   T
  0.7492119801262815  0.1452920100324858  0.2984923737069892   T   T   T
  0.7480683211871704  0.2284395627679333  0.3007023172320650   T   T   T
  0.4989001331385684  0.0211002332565059  0.2967868454383189   T   T   T
  0.7540181866886042  0.3913167752879368  0.3022246484230455   T   T   T
  0.7568392908299750  0.4803307028780124  0.3008410797203430   T   T   T
  0.5004084152662809  0.2707332018979254  0.3044831235752470   T   T   T
  0.5025128588226324  0.6037105324911523  0.3032600086800156   T   T   T
  0.7501437061440029  0.7297544329428106  0.2994858666486376   T   T   T
  0.4999683393418557  0.8543161065574603  0.2976216737452682   T   T   T
  0.7497380584115227  0.8959653717810663  0.2968708884431327   T   T   T
  0.7491981270436260  0.9794212443733613  0.2964063842565972   T   T   T
  0.5005073713948763  0.7711828624005406  0.2992052238312709   T   T   T
  0.7503300237550485  0.6465346196815034  0.3006019768116254   T   T   T
  0.2511922811231237  0.6459685827345601  0.3009042595830014   T   T   T
 -0.0007126604733127  0.0209223523142766  0.2961938711796319   T   T   T
  0.5170431154760382  0.5214300726547477  0.3067109748553701   T   T   T
  0.9916754361182673  0.5230244666952546  0.2956566214668094   T   T   T
  0.5154560319986276  0.3521194495513148  0.3114517609644500   T   T   T
 -0.0153388319681395  0.3508442047080166  0.2940437820307410   T   T   T
  0.2535059814469943  0.4385064310698016  0.3036726635212055   T   T   T
 
  0.00000000E+00  0.00000000E+00  0.00000000E+00
  0.00000000E+00  0.00000000E+00  0.00000000E+00
  0.00000000E+00  0.00000000E+00  0.00000000E+00
  0.00000000E+00  0.00000000E+00  0.00000000E+00
  0.00000000E+00  0.00000000E+00  0.00000000E+00
  0.00000000E+00  0.00000000E+00  0.00000000E+00
  0.00000000E+00  0.00000000E+00  0.00000000E+00
  0.00000000E+00  0.00000000E+00  0.00000000E+00
  0.00000000E+00  0.00000000E+00  0.00000000E+00
  0.00000000E+00  0.00000000E+00  0.00000000E+00
  0.00000000E+00  0.00000000E+00  0.00000000E+00
  0.00000000E+00  0.00000000E+00  0.00000000E+00
  0.00000000E+00  0.00000000E+00  0.00000000E+00
  0.00000000E+00  0.00000000E+00  0.00000000E+00
  0.00000000E+00  0.00000000E+00  0.00000000E+00
  0.00000000E+00  0.00000000E+00  0.00000000E+00
  0.00000000E+00  0.00000000E+00  0.00000000E+00
  0.00000000E+00  0.00000000E+00  0.00000000E+00
  0.00000000E+00  0.00000000E+00  0.00000000E+00
  0.00000000E+00  0.00000000E+00  0.00000000E+00
  0.00000000E+00  0.00000000E+00  0.00000000E+00
  0.00000000E+00  0.00000000E+00  0.00000000E+00
  0.00000000E+00  0.00000000E+00  0.00000000E+00
  0.00000000E+00  0.00000000E+00  0.00000000E+00
  0.00000000E+00  0.00000000E+00  0.00000000E+00
  0.00000000E+00  0.00000000E+00  0.00000000E+00
  0.00000000E+00  0.00000000E+00  0.00000000E+00
  0.00000000E+00  0.00000000E+00  0.00000000E+00
  0.00000000E+00  0.00000000E+00  0.00000000E+00
  0.00000000E+00  0.00000000E+00  0.00000000E+00
  0.00000000E+00  0.00000000E+00  0.00000000E+00
