Title                                   
   1.00000000000000     
     9.8694509999999998    0.0000000000000000    0.0000000000000000
     0.0000000000000000    8.5490480000000009    0.0000000000000000
     0.0000000000000000    0.0000000000000000   20.0000000000000000
    28     3     1
Selective dynamics
Direct
  0.0557955440122559  0.0896265337482509  0.0818693179785303   T   T   T
  0.9312142367493020  0.1731020574819704  0.0828034915785243   T   T   T
  0.0570558176895820  0.9225716852723180  0.0827418432899302   T   T   T
  0.9304131877766165  0.3406400560459837  0.0858990610226881   T   T   T
  0.0560458544721044  0.5914493721677551  0.0856628394131377   T   T   T
  0.0563182724303793  0.4245481350595615  0.0851374843017601   T   T   T
  0.9323837217015221  0.8379052626123673  0.0853545445528849   T   T   T
  0.3054823781071143  0.0890763272630829  0.0872357416544809   T   T   T
  0.1824579446287786  0.1727246945436559  0.0844455891399188   T   T   T
  0.1819303439143409  0.3410818833426434  0.0872532661616728   T   T   T
  0.3027445431758312  0.5891568547874134  0.1023227764008297   T   T   T
  0.1809434631722666  0.6748393257395338  0.0893583583933921   T   T   T
  0.3060731359317081  0.4218324916998286  0.0987820998925884   T   T   T
  0.1824322243852486  0.8413564733529637  0.0862626659469018   T   T   T
  0.5555002968464614  0.0872183766825902  0.0922528799838265   T   T   T
  0.5547080991830041  0.9231049618236326  0.0997184665387872   T   T   T
  0.4304753184960954  0.3327158055887698  0.1043178693882816   T   T   T
  0.4267595535362879  0.8412874513960540  0.1044993683841436   T   T   T
  0.8067083640493761  0.0882301650162546  0.0847354441320901   T   T   T
  0.6807408388148951  0.1710627649051926  0.0900041253162745   T   T   T
  0.8068334973392418  0.9218220600091915  0.0878174892170072   T   T   T
  0.6826152302664146  0.3358422985156967  0.1004891234440449   T   T   T
  0.8103510710814414  0.5925499462032776  0.1010900602840929   T   T   T
  0.8074746637616815  0.4229601685906084  0.0963448135698322   T   T   T
  0.6826377898928514  0.8420178074096522  0.1006088460830441   T   T   T
  0.4173966967943346  0.6823998540402760  0.1207759092494834   T   T   T
  0.5558423532981227  0.4036389244123009  0.1191931736184257   T   T   T
  0.6945969309734158  0.6809031650788939  0.1180366391291708   T   T   T
  0.3055197021278080  0.9251937236350369  0.0890282261018020   T   T   T
  0.4294407990054545  0.1681638537207447  0.0922064678641338   T   T   T
  0.9328393434898798  0.6733035205804579  0.0878363075659905   T   T   T
  0.5579077828961888  0.5879199992740417  0.1715907104023453   T   T   T
 
  0.00000000E+00  0.00000000E+00  0.00000000E+00
  0.00000000E+00  0.00000000E+00  0.00000000E+00
  0.00000000E+00  0.00000000E+00  0.00000000E+00
  0.00000000E+00  0.00000000E+00  0.00000000E+00
  0.00000000E+00  0.00000000E+00  0.00000000E+00
  0.00000000E+00  0.00000000E+00  0.00000000E+00
  0.00000000E+00  0.00000000E+00  0.00000000E+00
  0.00000000E+00  0.00000000E+00  0.00000000E+00
  0.00000000E+00  0.00000000E+00  0.00000000E+00
  0.00000000E+00  0.00000000E+00  0.00000000E+00
  0.00000000E+00  0.00000000E+00  0.00000000E+00
  0.00000000E+00  0.00000000E+00  0.00000000E+00
  0.00000000E+00  0.00000000E+00  0.00000000E+00
  0.00000000E+00  0.00000000E+00  0.00000000E+00
  0.00000000E+00  0.00000000E+00  0.00000000E+00
  0.00000000E+00  0.00000000E+00  0.00000000E+00
  0.00000000E+00  0.00000000E+00  0.00000000E+00
  0.00000000E+00  0.00000000E+00  0.00000000E+00
  0.00000000E+00  0.00000000E+00  0.00000000E+00
  0.00000000E+00  0.00000000E+00  0.00000000E+00
  0.00000000E+00  0.00000000E+00  0.00000000E+00
  0.00000000E+00  0.00000000E+00  0.00000000E+00
  0.00000000E+00  0.00000000E+00  0.00000000E+00
  0.00000000E+00  0.00000000E+00  0.00000000E+00
  0.00000000E+00  0.00000000E+00  0.00000000E+00
  0.00000000E+00  0.00000000E+00  0.00000000E+00
  0.00000000E+00  0.00000000E+00  0.00000000E+00
  0.00000000E+00  0.00000000E+00  0.00000000E+00
  0.00000000E+00  0.00000000E+00  0.00000000E+00
  0.00000000E+00  0.00000000E+00  0.00000000E+00
  0.00000000E+00  0.00000000E+00  0.00000000E+00
  0.00000000E+00  0.00000000E+00  0.00000000E+00
