Title                                   
   1.00000000000000     
     8.5490480000000009    0.0000000000000000    0.0000000000000000
     0.0000000000000000    8.5490480000000009    0.0000000000000000
     0.0000000000000000    0.0000000000000000   20.0000000000000000
    20     4     1
Selective dynamics
Direct
  0.9091686694837555  0.2064563429248426  0.0948459015343508   T   T   T
  0.9117860486544338  0.8010077725760416  0.0951454161173689   T   T   T
  0.1984215147796019  0.0833093503321965  0.0950921558067177   T   T   T
  0.0754743404209326  0.2034152657629647  0.0949100923106026   T   T   T
  0.1536457756532585  0.6489515809431657  0.0964987221220279   T   T   T
  0.0713589233346101  0.5012052494602756  0.0966368244306842   T   T   T
  0.1520968531072945  0.3542043683788542  0.0969586511315579   T   T   T
  0.0790570149984010  0.7979963490236847  0.0948980094314265   T   T   T
  0.4950029869186763  0.0864838015688642  0.0969550915177551   T   T   T
  0.3457302221079016  0.1646285337230101  0.0973055584800060   T   T   T
  0.4947694432325834  0.9171553668962932  0.0968818557988076   T   T   T
  0.3465042025164780  0.8354671851033557  0.0971997548426030   T   T   T
  0.7891246577576527  0.0872084809233535  0.0953538400370711   T   T   T
  0.6430053764711753  0.1672780537057177  0.0970687518263793   T   T   T
  0.7903295664742479  0.9190107460555496  0.0955183837929469   T   T   T
  0.8290633054129370  0.6523006595601537  0.0967420186782290   T   T   T
  0.8270859521660789  0.3543213582444925  0.0964806991967539   T   T   T
  0.6441057321651005  0.8369714128465898  0.0971608580668360   T   T   T
  0.3207747380080533  0.3330230601456413  0.1018834522400631   T   T   T
  0.3215711947467870  0.6704696162760063  0.1003600367790507   T   T   T
  0.9037939082906467  0.5028539512584572  0.0965256937959341   T   T   T
  0.6674252390510140  0.3312544102670256  0.0994368722693841   T   T   T
  0.6697578830919224  0.6742609391504422  0.0993559502320571   T   T   T
  0.1989792879344904  0.9164937216421147  0.0949729385988092   T   T   T
  0.4873791632219598  0.4990624232309265  0.1195174709625502   T   T   T
 
  0.00000000E+00  0.00000000E+00  0.00000000E+00
  0.00000000E+00  0.00000000E+00  0.00000000E+00
  0.00000000E+00  0.00000000E+00  0.00000000E+00
  0.00000000E+00  0.00000000E+00  0.00000000E+00
  0.00000000E+00  0.00000000E+00  0.00000000E+00
  0.00000000E+00  0.00000000E+00  0.00000000E+00
  0.00000000E+00  0.00000000E+00  0.00000000E+00
  0.00000000E+00  0.00000000E+00  0.00000000E+00
  0.00000000E+00  0.00000000E+00  0.00000000E+00
  0.00000000E+00  0.00000000E+00  0.00000000E+00
  0.00000000E+00  0.00000000E+00  0.00000000E+00
  0.00000000E+00  0.00000000E+00  0.00000000E+00
  0.00000000E+00  0.00000000E+00  0.00000000E+00
  0.00000000E+00  0.00000000E+00  0.00000000E+00
  0.00000000E+00  0.00000000E+00  0.00000000E+00
  0.00000000E+00  0.00000000E+00  0.00000000E+00
  0.00000000E+00  0.00000000E+00  0.00000000E+00
  0.00000000E+00  0.00000000E+00  0.00000000E+00
  0.00000000E+00  0.00000000E+00  0.00000000E+00
  0.00000000E+00  0.00000000E+00  0.00000000E+00
  0.00000000E+00  0.00000000E+00  0.00000000E+00
  0.00000000E+00  0.00000000E+00  0.00000000E+00
  0.00000000E+00  0.00000000E+00  0.00000000E+00
  0.00000000E+00  0.00000000E+00  0.00000000E+00
  0.00000000E+00  0.00000000E+00  0.00000000E+00
