Title                                   
   1.00000000000000     
     9.8694509999999998    0.0000000000000000    0.0000000000000000
     0.0000000000000000    8.5490480000000009    0.0000000000000000
     0.0000000000000000    0.0000000000000000   20.0000000000000000
    28     2     1
Selective dynamics
Direct
  0.0558392266050521  0.0889055183635091  0.0919686877133604   T   T   T
  0.9308139191525547  0.1717665674149305  0.0924194332546422   T   T   T
  0.0570074785318243  0.9239285204168460  0.0920088702341337   T   T   T
  0.9333263991725765  0.3390576337847389  0.0915785815526580   T   T   T
  0.0567079410823018  0.5899072115888144  0.0902347305012234   T   T   T
  0.9335972234595362  0.6734714284254338  0.0915808643058437   T   T   T
  0.0567421520933349  0.4230054365472800  0.0902159303916214   T   T   T
  0.9315803885857427  0.8400555842938886  0.0924641997290112   T   T   T
  0.3069344624511605  0.0881986312775272  0.0947833082722813   T   T   T
  0.1822519293093049  0.1706626746376407  0.0925363686969793   T   T   T
  0.1800049021760965  0.3382458011758371  0.0918417644514219   T   T   T
  0.3022971466538692  0.5899694610858930  0.0949256505501990   T   T   T
  0.1802837479421091  0.6747290422277911  0.0917798477219094   T   T   T
  0.3016835518942891  0.4212892477273565  0.0948437674610584   T   T   T
  0.1821825059672373  0.8409704997117716  0.0926156835784099   T   T   T
  0.4325332363192886  0.1743774583290388  0.0974596599487038   T   T   T
  0.5547676171757067  0.9233486974240758  0.0983536423070691   T   T   T
  0.4258013066169288  0.3385420097814388  0.0984902138063272   T   T   T
  0.4245455852492150  0.6728977847274294  0.0989419997769702   T   T   T
  0.4308315479543512  0.8387091476063117  0.0977892949205835   T   T   T
  0.8049827924984059  0.0891344861939530  0.0946748359566491   T   T   T
  0.6792720671012297  0.1761499966255713  0.0972350119591607   T   T   T
  0.8058859175386347  0.9222872545226383  0.0947721375225825   T   T   T
  0.6862104018054872  0.3401688584874696  0.0980631110033472   T   T   T
  0.8110445206359768  0.5897721581761161  0.0943400579809067   T   T   T
  0.6874695769749948  0.6716534112291910  0.0982352889500369   T   T   T
  0.8113167173734339  0.4217495024618635  0.0942722519231875   T   T   T
  0.6793111616144950  0.8370464573606501  0.0975057705954349   T   T   T
  0.5564827685541950  0.0913097783947383  0.0982809661783915   T   T   T
  0.3055729602472317  0.9225699310712928  0.0948511022529419   T   T   T
  0.5558538472634371  0.5069948089289820  0.1019019665029809   T   T   T
 
  0.00000000E+00  0.00000000E+00  0.00000000E+00
  0.00000000E+00  0.00000000E+00  0.00000000E+00
  0.00000000E+00  0.00000000E+00  0.00000000E+00
  0.00000000E+00  0.00000000E+00  0.00000000E+00
  0.00000000E+00  0.00000000E+00  0.00000000E+00
  0.00000000E+00  0.00000000E+00  0.00000000E+00
  0.00000000E+00  0.00000000E+00  0.00000000E+00
  0.00000000E+00  0.00000000E+00  0.00000000E+00
  0.00000000E+00  0.00000000E+00  0.00000000E+00
  0.00000000E+00  0.00000000E+00  0.00000000E+00
  0.00000000E+00  0.00000000E+00  0.00000000E+00
  0.00000000E+00  0.00000000E+00  0.00000000E+00
  0.00000000E+00  0.00000000E+00  0.00000000E+00
  0.00000000E+00  0.00000000E+00  0.00000000E+00
  0.00000000E+00  0.00000000E+00  0.00000000E+00
  0.00000000E+00  0.00000000E+00  0.00000000E+00
  0.00000000E+00  0.00000000E+00  0.00000000E+00
  0.00000000E+00  0.00000000E+00  0.00000000E+00
  0.00000000E+00  0.00000000E+00  0.00000000E+00
  0.00000000E+00  0.00000000E+00  0.00000000E+00
  0.00000000E+00  0.00000000E+00  0.00000000E+00
  0.00000000E+00  0.00000000E+00  0.00000000E+00
  0.00000000E+00  0.00000000E+00  0.00000000E+00
  0.00000000E+00  0.00000000E+00  0.00000000E+00
  0.00000000E+00  0.00000000E+00  0.00000000E+00
  0.00000000E+00  0.00000000E+00  0.00000000E+00
  0.00000000E+00  0.00000000E+00  0.00000000E+00
  0.00000000E+00  0.00000000E+00  0.00000000E+00
  0.00000000E+00  0.00000000E+00  0.00000000E+00
  0.00000000E+00  0.00000000E+00  0.00000000E+00
  0.00000000E+00  0.00000000E+00  0.00000000E+00
