Title                                   
   1.00000000000000     
     8.5490480000000009    0.0000000000000000    0.0000000000000000
     0.0000000000000000    8.5490480000000009    0.0000000000000000
     0.0000000000000000    0.0000000000000000   20.0000000000000000
    23     1     1
Selective dynamics
Direct
  0.9098287065725622  0.2063041405450811  0.0954450288721948   T   T   T
  0.9097631305390306  0.5023323436255913  0.0962790563793311   T   T   T
  0.9117272800466214  0.8001971110406721  0.0950127474035118   T   T   T
  0.1988730955929593  0.0829086623745078  0.0950683345115471   T   T   T
  0.0746259695747387  0.2042785337291493  0.0952621027605443   T   T   T
  0.1590880917089164  0.6492363079067324  0.0967913459685511   T   T   T
  0.0777490512019483  0.5014206273327225  0.0963710800787568   T   T   T
  0.1580015775950579  0.3549515062863725  0.0967252553491369   T   T   T
  0.0773356875529169  0.7980697198256165  0.0949995575394998   T   T   T
  0.4927028900064303  0.0856287155084517  0.0961737299829243   T   T   T
  0.3457453989961550  0.1643708738400324  0.0964252339997541   T   T   T
  0.4917316654912273  0.9177674905415469  0.0963692219167709   T   T   T
  0.3453857922314935  0.8363645059112798  0.0975387600240444   T   T   T
  0.7863685389476769  0.0848434182265608  0.0952972492153576   T   T   T
  0.6380613413461956  0.1669153226742864  0.0966841355132947   T   T   T
  0.7868507342972483  0.9202900296919989  0.0953194882251873   T   T   T
  0.8299777917732654  0.6493534854105781  0.0963806305657110   T   T   T
  0.8281672185184221  0.3561379589895392  0.0969934198986659   T   T   T
  0.6383933618784343  0.8366195035793974  0.0966169548563634   T   T   T
  0.3249197164046079  0.3334671443200416  0.1012570590803303   T   T   T
  0.3241213502764209  0.6706325290392351  0.1014959983662979   T   T   T
  0.6604083895603663  0.3349408000217363  0.1018581726038028   T   T   T
  0.6621324601751388  0.6689212876313267  0.1008442887877654   T   T   T
  0.1987608355174312  0.9184007437468397  0.0954504606622564   T   T   T
  0.4946919241947201  0.5004372382007097  0.1170456874383799   T   T   T
 
  0.00000000E+00  0.00000000E+00  0.00000000E+00
  0.00000000E+00  0.00000000E+00  0.00000000E+00
  0.00000000E+00  0.00000000E+00  0.00000000E+00
  0.00000000E+00  0.00000000E+00  0.00000000E+00
  0.00000000E+00  0.00000000E+00  0.00000000E+00
  0.00000000E+00  0.00000000E+00  0.00000000E+00
  0.00000000E+00  0.00000000E+00  0.00000000E+00
  0.00000000E+00  0.00000000E+00  0.00000000E+00
  0.00000000E+00  0.00000000E+00  0.00000000E+00
  0.00000000E+00  0.00000000E+00  0.00000000E+00
  0.00000000E+00  0.00000000E+00  0.00000000E+00
  0.00000000E+00  0.00000000E+00  0.00000000E+00
  0.00000000E+00  0.00000000E+00  0.00000000E+00
  0.00000000E+00  0.00000000E+00  0.00000000E+00
  0.00000000E+00  0.00000000E+00  0.00000000E+00
  0.00000000E+00  0.00000000E+00  0.00000000E+00
  0.00000000E+00  0.00000000E+00  0.00000000E+00
  0.00000000E+00  0.00000000E+00  0.00000000E+00
  0.00000000E+00  0.00000000E+00  0.00000000E+00
  0.00000000E+00  0.00000000E+00  0.00000000E+00
  0.00000000E+00  0.00000000E+00  0.00000000E+00
  0.00000000E+00  0.00000000E+00  0.00000000E+00
  0.00000000E+00  0.00000000E+00  0.00000000E+00
  0.00000000E+00  0.00000000E+00  0.00000000E+00
  0.00000000E+00  0.00000000E+00  0.00000000E+00
