Title                                   
   1.00000000000000     
     9.8694509999999998    0.0000000000000000    0.0000000000000000
     0.0000000000000000    8.5490480000000009    0.0000000000000000
     0.0000000000000000    0.0000000000000000   20.0000000000000000
    27     3     1
Selective dynamics
Direct
  0.0556191945503178  0.0893894236604939  0.0859108500851983   T   T   T
  0.9314137700587896  0.1715520943499182  0.0889735847326556   T   T   T
  0.0571088196854112  0.9233652938318568  0.0864248322666865   T   T   T
  0.9350931583877219  0.3382074484424111  0.0880184799232357   T   T   T
  0.0577151002410165  0.5902035353675834  0.0821424621498498   T   T   T
  0.9351367581839263  0.6745441103234449  0.0882292985170991   T   T   T
  0.0577812302770238  0.4227290639276098  0.0819636692624236   T   T   T
  0.9318457407453203  0.8405397260536228  0.0892747572016628   T   T   T
  0.3046333109607144  0.0880000686601263  0.0915801793141556   T   T   T
  0.1802522354572789  0.1707409432895539  0.0858284209351843   T   T   T
  0.1802429424423958  0.3386647839296344  0.0837636171824382   T   T   T
  0.3027388562953877  0.5913719207508177  0.0908904934873674   T   T   T
  0.1806724628669915  0.6735977253018985  0.0842899703033346   T   T   T
  0.3031497066115470  0.4202207449300600  0.0908064554107043   T   T   T
  0.1807366071601979  0.8410918914110955  0.0868094989708035   T   T   T
  0.5543360927019843  0.0909226667561558  0.1042743928452580   T   T   T
  0.4265551961897857  0.1751415056887362  0.0996445013831945   T   T   T
  0.5531809613128281  0.9219597944399589  0.1040925354544590   T   T   T
  0.4260019781578691  0.8363203681299299  0.0997485029096831   T   T   T
  0.8057758049431420  0.0898824268048913  0.0960789192461168   T   T   T
  0.6822805267194266  0.1770352074209678  0.1043117792170774   T   T   T
  0.8059346859642000  0.9221422568110573  0.0960606828046851   T   T   T
  0.6919817729596932  0.3430590913533850  0.1094590711668504   T   T   T
  0.8155698245364457  0.5911475544842631  0.0991092830978283   T   T   T
  0.6920660657253664  0.6696339300508217  0.1097900910859779   T   T   T
  0.8156618921101660  0.4215577808569351  0.0989390779651846   T   T   T
  0.6819057832854217  0.8349122441355173  0.1042219023766767   T   T   T
  0.4188384014367458  0.3355016470809331  0.1014299643678981   T   T   T
  0.4181980859569206  0.6781196891820025  0.1016335393069983   T   T   T
  0.3047416035285734  0.9231332349808047  0.0918401690569661   T   T   T
  0.5559664305474079  0.5061868275935179  0.1154240179723946   T   T   T
 
  0.00000000E+00  0.00000000E+00  0.00000000E+00
  0.00000000E+00  0.00000000E+00  0.00000000E+00
  0.00000000E+00  0.00000000E+00  0.00000000E+00
  0.00000000E+00  0.00000000E+00  0.00000000E+00
  0.00000000E+00  0.00000000E+00  0.00000000E+00
  0.00000000E+00  0.00000000E+00  0.00000000E+00
  0.00000000E+00  0.00000000E+00  0.00000000E+00
  0.00000000E+00  0.00000000E+00  0.00000000E+00
  0.00000000E+00  0.00000000E+00  0.00000000E+00
  0.00000000E+00  0.00000000E+00  0.00000000E+00
  0.00000000E+00  0.00000000E+00  0.00000000E+00
  0.00000000E+00  0.00000000E+00  0.00000000E+00
  0.00000000E+00  0.00000000E+00  0.00000000E+00
  0.00000000E+00  0.00000000E+00  0.00000000E+00
  0.00000000E+00  0.00000000E+00  0.00000000E+00
  0.00000000E+00  0.00000000E+00  0.00000000E+00
  0.00000000E+00  0.00000000E+00  0.00000000E+00
  0.00000000E+00  0.00000000E+00  0.00000000E+00
  0.00000000E+00  0.00000000E+00  0.00000000E+00
  0.00000000E+00  0.00000000E+00  0.00000000E+00
  0.00000000E+00  0.00000000E+00  0.00000000E+00
  0.00000000E+00  0.00000000E+00  0.00000000E+00
  0.00000000E+00  0.00000000E+00  0.00000000E+00
  0.00000000E+00  0.00000000E+00  0.00000000E+00
  0.00000000E+00  0.00000000E+00  0.00000000E+00
  0.00000000E+00  0.00000000E+00  0.00000000E+00
  0.00000000E+00  0.00000000E+00  0.00000000E+00
  0.00000000E+00  0.00000000E+00  0.00000000E+00
  0.00000000E+00  0.00000000E+00  0.00000000E+00
  0.00000000E+00  0.00000000E+00  0.00000000E+00
  0.00000000E+00  0.00000000E+00  0.00000000E+00
