Title                                   
   1.00000000000000     
     8.5490480000000009    0.0000000000000000    0.0000000000000000
     0.0000000000000000    8.5490480000000009    0.0000000000000000
     0.0000000000000000    0.0000000000000000   20.0000000000000000
    21     3     1
Selective dynamics
Direct
  0.9095367336766754  0.2058769307694077  0.0980616046609776   T   T   T
  0.9098152369576709  0.5022450055349802  0.0977729293984901   T   T   T
  0.9116107712231957  0.8020266811307467  0.0978426179613057   T   T   T
  0.1966015774010896  0.0830120307903766  0.0977860318457834   T   T   T
  0.0752414395908783  0.2024597483040745  0.0978968726018293   T   T   T
  0.1578286877434316  0.6502349139687186  0.0975868253362370   T   T   T
  0.0782597856126150  0.5015682380973648  0.0976616484482562   T   T   T
  0.1574221771030824  0.3514920162482877  0.0977184835172145   T   T   T
  0.0777343741366256  0.7993769115072046  0.0977947303639146   T   T   T
  0.4927085343797772  0.0862099387832322  0.0976762413216360   T   T   T
  0.3425400663978073  0.1638295784872508  0.0976270981264842   T   T   T
  0.4916566222351056  0.9172679368630478  0.0975862684164709   T   T   T
  0.3443896354960159  0.8378198370189179  0.0975621749268644   T   T   T
  0.7871946396406112  0.0850479865412295  0.0980458704327917   T   T   T
  0.6385762536724375  0.1655255799515098  0.0979577962280210   T   T   T
  0.7887475188400461  0.9202677511745274  0.0978953167830626   T   T   T
  0.8307765216386589  0.6526679813267531  0.0977210218054459   T   T   T
  0.8304275458832781  0.3549380649418362  0.0979879839071202   T   T   T
  0.6413189830009518  0.8370245577641344  0.0976952174536081   T   T   T
  0.3221254041675019  0.6741688912413388  0.0973809900347704   T   T   T
  0.6628287987358947  0.3327073552953441  0.0979077342369867   T   T   T
  0.3185701964882783  0.3264660384676346  0.0976028344862036   T   T   T
  0.6685206091559097  0.6756813519220980  0.0976296763760667   T   T   T
  0.1970944375488551  0.9181055298244590  0.0978367833736681   T   T   T
  0.4938854492735920  0.4987691440455373  0.0974702479567714   T   T   T
 
  0.00000000E+00  0.00000000E+00  0.00000000E+00
  0.00000000E+00  0.00000000E+00  0.00000000E+00
  0.00000000E+00  0.00000000E+00  0.00000000E+00
  0.00000000E+00  0.00000000E+00  0.00000000E+00
  0.00000000E+00  0.00000000E+00  0.00000000E+00
  0.00000000E+00  0.00000000E+00  0.00000000E+00
  0.00000000E+00  0.00000000E+00  0.00000000E+00
  0.00000000E+00  0.00000000E+00  0.00000000E+00
  0.00000000E+00  0.00000000E+00  0.00000000E+00
  0.00000000E+00  0.00000000E+00  0.00000000E+00
  0.00000000E+00  0.00000000E+00  0.00000000E+00
  0.00000000E+00  0.00000000E+00  0.00000000E+00
  0.00000000E+00  0.00000000E+00  0.00000000E+00
  0.00000000E+00  0.00000000E+00  0.00000000E+00
  0.00000000E+00  0.00000000E+00  0.00000000E+00
  0.00000000E+00  0.00000000E+00  0.00000000E+00
  0.00000000E+00  0.00000000E+00  0.00000000E+00
  0.00000000E+00  0.00000000E+00  0.00000000E+00
  0.00000000E+00  0.00000000E+00  0.00000000E+00
  0.00000000E+00  0.00000000E+00  0.00000000E+00
  0.00000000E+00  0.00000000E+00  0.00000000E+00
  0.00000000E+00  0.00000000E+00  0.00000000E+00
  0.00000000E+00  0.00000000E+00  0.00000000E+00
  0.00000000E+00  0.00000000E+00  0.00000000E+00
  0.00000000E+00  0.00000000E+00  0.00000000E+00
