Title                                   
   1.00000000000000     
     4.9440799999999996    0.0000000000000000    0.0000000000000000
     0.0000000000000000    8.5647549999999999    0.0000000000000000
     0.0000000000000000    0.0000000000000000   20.0000000000000000
    13     2     1
Selective dynamics
Direct
  0.2515464314273916  0.2102797658799705  0.0908887079144675   T   T   T
 -0.0036216727323291  0.2928585492804004  0.0880047692468224   T   T   T
  0.2495220367811972  0.0447175992278443  0.0865946571616892   T   T   T
 -0.0004300563692021  0.7986968017510280  0.1006263013669585   T   T   T
 -0.0015012106980461  0.9604488938478891  0.0851094635192073   T   T   T
  0.7507676131748929  0.2065149691562695  0.0841327264379525   T   T   T
  0.5085971908872351  0.2878158437350037  0.1000403299868299   T   T   T
  0.7490504920390720  0.0409025052285825  0.0813250140693103   T   T   T
  0.7500231149862615  0.7079280316784329  0.1069061207358765   T   T   T
  0.4963536867432418  0.7968388885955768  0.1035139710178687   T   T   T
  0.7556130745733878  0.5314968338670959  0.1100228708068008   T   T   T
  0.5001529967577740  0.9597747192971535  0.0883624372721990   T   T   T
  0.5344410009797073  0.4380379510383142  0.1279877750629531   T   T   T
 -0.0138676827028131  0.4517032324012630  0.0905598881468822   T   T   T
  0.2451093262488209  0.7338476558204965  0.1170819748501311   T   T   T
  0.2282436579034087  0.5381377591946804  0.1613549924040590   T   T   T
 
  0.00000000E+00  0.00000000E+00  0.00000000E+00
  0.00000000E+00  0.00000000E+00  0.00000000E+00
  0.00000000E+00  0.00000000E+00  0.00000000E+00
  0.00000000E+00  0.00000000E+00  0.00000000E+00
  0.00000000E+00  0.00000000E+00  0.00000000E+00
  0.00000000E+00  0.00000000E+00  0.00000000E+00
  0.00000000E+00  0.00000000E+00  0.00000000E+00
  0.00000000E+00  0.00000000E+00  0.00000000E+00
  0.00000000E+00  0.00000000E+00  0.00000000E+00
  0.00000000E+00  0.00000000E+00  0.00000000E+00
  0.00000000E+00  0.00000000E+00  0.00000000E+00
  0.00000000E+00  0.00000000E+00  0.00000000E+00
  0.00000000E+00  0.00000000E+00  0.00000000E+00
  0.00000000E+00  0.00000000E+00  0.00000000E+00
  0.00000000E+00  0.00000000E+00  0.00000000E+00
  0.00000000E+00  0.00000000E+00  0.00000000E+00
