Title                                   
   1.00000000000000     
     4.9440799999999996    0.0000000000000000    0.0000000000000000
     0.0000000000000000   17.1295089999999988    0.0000000000000000
     0.0000000000000000    0.0000000000000000   20.0000000000000000
    27     4     1
Selective dynamics
Direct
 -0.0008533849790301  0.1049575596722615  0.2884527271899036   T   T   T
  0.2487506363883289  0.1471723905231329  0.2904711607099285   T   T   T
  0.2485885721012724  0.2309737090948703  0.2967050155025130   T   T   T
  0.0061173889496180  0.3545488472169434  0.3116093262084038   T   T   T
 -0.0033119739539484  0.2725288945042944  0.2998341874071072   T   T   T
 -0.0050320383288071  0.6003255842090554  0.2982697809183900   T   T   T
  0.2497226962074054  0.7258485265617527  0.2937066054417988   T   T   T
  0.0001720632837887  0.8529104665866366  0.2880601293973476   T   T   T
  0.2493568586770671  0.8952465650822120  0.2874727859664563   T   T   T
  0.2490945319418419  0.9791250101156661  0.2866544822099724   T   T   T
  0.0006499655136416  0.7690267673157228  0.2907046808697062   T   T   T
  0.4984681078836690  0.1049691892620816  0.2885229481667555   T   T   T
  0.7487114017862831  0.1471334906231648  0.2898621760558907   T   T   T
  0.7484885964482765  0.2301083497117968  0.2949003955130886   T   T   T
  0.4989506599183810  0.0211967603694933  0.2868090097403718   T   T   T
  0.4902085767800983  0.3546057154202344  0.3120917813887467   T   T   T
  0.7509135214027856  0.4856112623700507  0.3103198559375587   T   T   T
  0.5002726536686494  0.2724909723187405  0.3000762079454802   T   T   T
  0.5057233853790607  0.6015243905356830  0.3055188441734548   T   T   T
  0.7496568425744827  0.7278965982402406  0.2928230436225474   T   T   T
  0.4987292972810712  0.8529742812567797  0.2886187334307684   T   T   T
  0.7493738948918235  0.8950185208273049  0.2873277659898806   T   T   T
  0.7490976483348498  0.9788835506790010  0.2864936627437047   T   T   T
  0.4985946736649808  0.7691013620946856  0.2917890523582473   T   T   T
  0.7501377385388600  0.6446997669655209  0.2976253465145164   T   T   T
  0.2501353009275137  0.6415810077643643  0.2992337578758396   T   T   T
 -0.0009245177343496  0.0212194802281645  0.2867040765830270   T   T   T
  0.5165114388518572  0.5236121289244720  0.3219797573272961   T   T   T
  0.9849609033427721  0.5204575134135001  0.2963013593406081   T   T   T
  0.2479947871973317  0.3897142026585286  0.3225043422547665   T   T   T
  0.7484157020887653  0.3994992732762993  0.3144547086731418   T   T   T
  0.2691470709716654  0.4835888621773369  0.4166672925427330   T   T   T
 
  0.00000000E+00  0.00000000E+00  0.00000000E+00
  0.00000000E+00  0.00000000E+00  0.00000000E+00
  0.00000000E+00  0.00000000E+00  0.00000000E+00
  0.00000000E+00  0.00000000E+00  0.00000000E+00
  0.00000000E+00  0.00000000E+00  0.00000000E+00
  0.00000000E+00  0.00000000E+00  0.00000000E+00
  0.00000000E+00  0.00000000E+00  0.00000000E+00
  0.00000000E+00  0.00000000E+00  0.00000000E+00
  0.00000000E+00  0.00000000E+00  0.00000000E+00
  0.00000000E+00  0.00000000E+00  0.00000000E+00
  0.00000000E+00  0.00000000E+00  0.00000000E+00
  0.00000000E+00  0.00000000E+00  0.00000000E+00
  0.00000000E+00  0.00000000E+00  0.00000000E+00
  0.00000000E+00  0.00000000E+00  0.00000000E+00
  0.00000000E+00  0.00000000E+00  0.00000000E+00
  0.00000000E+00  0.00000000E+00  0.00000000E+00
  0.00000000E+00  0.00000000E+00  0.00000000E+00
  0.00000000E+00  0.00000000E+00  0.00000000E+00
  0.00000000E+00  0.00000000E+00  0.00000000E+00
  0.00000000E+00  0.00000000E+00  0.00000000E+00
  0.00000000E+00  0.00000000E+00  0.00000000E+00
  0.00000000E+00  0.00000000E+00  0.00000000E+00
  0.00000000E+00  0.00000000E+00  0.00000000E+00
  0.00000000E+00  0.00000000E+00  0.00000000E+00
  0.00000000E+00  0.00000000E+00  0.00000000E+00
  0.00000000E+00  0.00000000E+00  0.00000000E+00
  0.00000000E+00  0.00000000E+00  0.00000000E+00
  0.00000000E+00  0.00000000E+00  0.00000000E+00
  0.00000000E+00  0.00000000E+00  0.00000000E+00
  0.00000000E+00  0.00000000E+00  0.00000000E+00
  0.00000000E+00  0.00000000E+00  0.00000000E+00
  0.00000000E+00  0.00000000E+00  0.00000000E+00
