Title                                   
   1.00000000000000     
     4.9440799999999996    0.0000000000000000    0.0000000000000000
     0.0000000000000000    8.5647549999999999    0.0000000000000000
     0.0000000000000000    0.0000000000000000   20.0000000000000000
    10     4     1
Selective dynamics
Direct
 -0.0019004040017920  0.2927492146085964  0.1003454293837904   T   T   T
  0.2484946081471660  0.0381370080722606  0.1004168310035537   T   T   T
 -0.0036519530203622  0.9574142272566694  0.1003579901787107   T   T   T
  0.7477477205262124  0.2066554595012429  0.1002627441596390   T   T   T
  0.4967511724399108  0.2939967285047667  0.1004445267968038   T   T   T
  0.7484933961119034  0.0419766047231216  0.1003059175278066   T   T   T
  0.7548805106359101  0.7122213664358104  0.1007734794234196   T   T   T
  0.7543086019753300  0.5408491006053916  0.1007714588873053   T   T   T
  0.4985985988068696  0.9560049399692027  0.1005322930489707   T   T   T
  0.5137985573509006  0.4552190680817964  0.1006998715878160   T   T   T
 -0.0083205200854961  0.4521272100539164  0.1006733563974755   T   T   T
 -0.0139695535986070  0.7977493159144311  0.1003405117498663   T   T   T
  0.5168596067791827  0.7935782574016501  0.1010564847871318   T   T   T
  0.2454596834253901  0.2101357547580283  0.1003584059274829   T   T   T
  0.2524499745074819  0.6228667441131176  0.1006406991402311   T   T   T
 
  0.00000000E+00  0.00000000E+00  0.00000000E+00
  0.00000000E+00  0.00000000E+00  0.00000000E+00
  0.00000000E+00  0.00000000E+00  0.00000000E+00
  0.00000000E+00  0.00000000E+00  0.00000000E+00
  0.00000000E+00  0.00000000E+00  0.00000000E+00
  0.00000000E+00  0.00000000E+00  0.00000000E+00
  0.00000000E+00  0.00000000E+00  0.00000000E+00
  0.00000000E+00  0.00000000E+00  0.00000000E+00
  0.00000000E+00  0.00000000E+00  0.00000000E+00
  0.00000000E+00  0.00000000E+00  0.00000000E+00
  0.00000000E+00  0.00000000E+00  0.00000000E+00
  0.00000000E+00  0.00000000E+00  0.00000000E+00
  0.00000000E+00  0.00000000E+00  0.00000000E+00
  0.00000000E+00  0.00000000E+00  0.00000000E+00
  0.00000000E+00  0.00000000E+00  0.00000000E+00
