Title                                   
   1.00000000000000     
     8.5490480000000009    0.0000000000000000    0.0000000000000000
     0.0000000000000000    8.5490480000000009    0.0000000000000000
     0.0000000000000000    0.0000000000000000   20.0000000000000000
    19     5     1
Selective dynamics
Direct
  0.9064321384488033  0.2075703357669222  0.0936512011488744   T   T   T
  0.9130226218482728  0.8025685388894779  0.0959296874897753   T   T   T
  0.1950694681679319  0.0810983678987586  0.0961798984706025   T   T   T
  0.0743658131115961  0.1997165378100648  0.0962936524382457   T   T   T
  0.1583340350371251  0.6481586394260570  0.0946396475698130   T   T   T
  0.0773807548986210  0.4994954458386955  0.0974187956947248   T   T   T
  0.1554507063062864  0.3483424713444991  0.0995942609669858   T   T   T
  0.0806020937423183  0.7981895084164820  0.0943130455864710   T   T   T
  0.3415973412891391  0.1626997045625155  0.0990388336055809   T   T   T
  0.4942360810323637  0.9187498895932232  0.0975411973110811   T   T   T
  0.3466818843748466  0.8361869745384261  0.0949183662286083   T   T   T
  0.7861460321653014  0.0882445079992808  0.0936070086500771   T   T   T
  0.6363592132628104  0.1689946746714910  0.0945229427392483   T   T   T
  0.7913829480553101  0.9213142790801739  0.0961009561409567   T   T   T
  0.8316893880072248  0.6538370854407025  0.0989077280387598   T   T   T
  0.8266647476772785  0.3575511619429451  0.0945796881281520   T   T   T
  0.6443085783705423  0.8393709965456810  0.0994628198228399   T   T   T
  0.3246093024708466  0.6726110287596987  0.0940586762288549   T   T   T
  0.6593663229461080  0.3357808280297180  0.0956566787762303   T   T   T
  0.4920718798617290  0.0865935947987179  0.0970515362069106   T   T   T
  0.9087175285022511  0.5035445793221572  0.0970837128927150   T   T   T
  0.3187459833407316  0.3228456609932807  0.1039003837184666   T   T   T
  0.6713535447372992  0.6759056175597887  0.1040339532956365   T   T   T
  0.1971126593730644  0.9144061594308200  0.0942294155972063   T   T   T
  0.4937109329721833  0.5010134113404361  0.1209909132531632   T   T   T
 
  0.00000000E+00  0.00000000E+00  0.00000000E+00
  0.00000000E+00  0.00000000E+00  0.00000000E+00
  0.00000000E+00  0.00000000E+00  0.00000000E+00
  0.00000000E+00  0.00000000E+00  0.00000000E+00
  0.00000000E+00  0.00000000E+00  0.00000000E+00
  0.00000000E+00  0.00000000E+00  0.00000000E+00
  0.00000000E+00  0.00000000E+00  0.00000000E+00
  0.00000000E+00  0.00000000E+00  0.00000000E+00
  0.00000000E+00  0.00000000E+00  0.00000000E+00
  0.00000000E+00  0.00000000E+00  0.00000000E+00
  0.00000000E+00  0.00000000E+00  0.00000000E+00
  0.00000000E+00  0.00000000E+00  0.00000000E+00
  0.00000000E+00  0.00000000E+00  0.00000000E+00
  0.00000000E+00  0.00000000E+00  0.00000000E+00
  0.00000000E+00  0.00000000E+00  0.00000000E+00
  0.00000000E+00  0.00000000E+00  0.00000000E+00
  0.00000000E+00  0.00000000E+00  0.00000000E+00
  0.00000000E+00  0.00000000E+00  0.00000000E+00
  0.00000000E+00  0.00000000E+00  0.00000000E+00
  0.00000000E+00  0.00000000E+00  0.00000000E+00
  0.00000000E+00  0.00000000E+00  0.00000000E+00
  0.00000000E+00  0.00000000E+00  0.00000000E+00
  0.00000000E+00  0.00000000E+00  0.00000000E+00
  0.00000000E+00  0.00000000E+00  0.00000000E+00
  0.00000000E+00  0.00000000E+00  0.00000000E+00
