Title                                   
   1.00000000000000     
     4.9440799999999996    0.0000000000000000    0.0000000000000000
     0.0000000000000000   17.1295089999999988    0.0000000000000000
     0.0000000000000000    0.0000000000000000   20.0000000000000000
    28     2     1
Selective dynamics
Direct
 -0.0026255930117782  0.1052345730716265  0.2940494515744516   T   T   T
  0.2459997772582986  0.1477219537763260  0.2953015459857501   T   T   T
  0.2446499242396926  0.2316109811497082  0.2989116404301492   T   T   T
 -0.0060792362091584  0.2736716288111626  0.3009519729670239   T   T   T
  0.0065322155753266  0.6022222368900070  0.2997007233259537   T   T   T
  0.2532629379417780  0.7270515622456358  0.2951123318264233   T   T   T
  0.0022594303195386  0.8531275672689022  0.2930882295197742   T   T   T
  0.2507583212499736  0.8953720714029856  0.2930610670064585   T   T   T
  0.2491636552108649  0.9793513935538969  0.2930525140091740   T   T   T
  0.0037044367640145  0.7689482402966826  0.2938845755413714   T   T   T
  0.4968527243253030  0.1054717989998877  0.2940210803170267   T   T   T
  0.7472140367771500  0.1473428074657190  0.2945494874959439   T   T   T
  0.7452847519346313  0.2311833054945422  0.2972944743199565   T   T   T
  0.4984493950657959  0.0214727207628611  0.2931489962586790   T   T   T
  0.7511820040876113  0.3945091349389231  0.3078511079743280   T   T   T
  0.7581622427075397  0.4800895500971800  0.3088406721186267   T   T   T
  0.4946548274736829  0.2737253868821246  0.3001867525099346   T   T   T
  0.5033447763046918  0.6015188415089354  0.3006981932738140   T   T   T
  0.7530024207255890  0.7275521068671698  0.2942136508666818   T   T   T
  0.5001143310872914  0.8531129092327202  0.2931254651736597   T   T   T
  0.7506403470613323  0.8950000953427937  0.2928469351305766   T   T   T
  0.7490449622585110  0.9791175191308995  0.2928675283657601   T   T   T
  0.5016884953781611  0.7690226865020836  0.2939461678088276   T   T   T
  0.7544114342355481  0.6446139659054680  0.2967650286728408   T   T   T
 -0.0012332946950599  0.0212794764409948  0.2931351516142038   T   T   T
  0.5039596482195511  0.5199870918854846  0.3090367522837480   T   T   T
  0.0092319497023015  0.5204192076682546  0.3063048759413673   T   T   T
  0.5015043676780702  0.3562287372705187  0.3060429426808753   T   T   T
 -0.0066086883758495  0.3542210922024230  0.3077313664825475   T   T   T
  0.2543501884418455  0.6445806680790467  0.2981790988744277   T   T   T
  0.2471302102677546  0.4365806888550339  0.3471602196495970   T   T   T
 
  0.00000000E+00  0.00000000E+00  0.00000000E+00
  0.00000000E+00  0.00000000E+00  0.00000000E+00
  0.00000000E+00  0.00000000E+00  0.00000000E+00
  0.00000000E+00  0.00000000E+00  0.00000000E+00
  0.00000000E+00  0.00000000E+00  0.00000000E+00
  0.00000000E+00  0.00000000E+00  0.00000000E+00
  0.00000000E+00  0.00000000E+00  0.00000000E+00
  0.00000000E+00  0.00000000E+00  0.00000000E+00
  0.00000000E+00  0.00000000E+00  0.00000000E+00
  0.00000000E+00  0.00000000E+00  0.00000000E+00
  0.00000000E+00  0.00000000E+00  0.00000000E+00
  0.00000000E+00  0.00000000E+00  0.00000000E+00
  0.00000000E+00  0.00000000E+00  0.00000000E+00
  0.00000000E+00  0.00000000E+00  0.00000000E+00
  0.00000000E+00  0.00000000E+00  0.00000000E+00
  0.00000000E+00  0.00000000E+00  0.00000000E+00
  0.00000000E+00  0.00000000E+00  0.00000000E+00
  0.00000000E+00  0.00000000E+00  0.00000000E+00
  0.00000000E+00  0.00000000E+00  0.00000000E+00
  0.00000000E+00  0.00000000E+00  0.00000000E+00
  0.00000000E+00  0.00000000E+00  0.00000000E+00
  0.00000000E+00  0.00000000E+00  0.00000000E+00
  0.00000000E+00  0.00000000E+00  0.00000000E+00
  0.00000000E+00  0.00000000E+00  0.00000000E+00
  0.00000000E+00  0.00000000E+00  0.00000000E+00
  0.00000000E+00  0.00000000E+00  0.00000000E+00
  0.00000000E+00  0.00000000E+00  0.00000000E+00
  0.00000000E+00  0.00000000E+00  0.00000000E+00
  0.00000000E+00  0.00000000E+00  0.00000000E+00
  0.00000000E+00  0.00000000E+00  0.00000000E+00
  0.00000000E+00  0.00000000E+00  0.00000000E+00
