Title                                   
   1.00000000000000     
     8.5490480000000009    0.0000000000000000    0.0000000000000000
     0.0000000000000000    8.5490480000000009    0.0000000000000000
     0.0000000000000000    0.0000000000000000   20.0000000000000000
    18     6     1
Selective dynamics
Direct
  0.9085106630150123  0.2056452971562615  0.0975065204156776   T   T   T
  0.9107245320735223  0.8009152813527750  0.0975138855550842   T   T   T
  0.1959009093783876  0.0840038714868002  0.0977023290341767   T   T   T
  0.0757392993731194  0.2013035639010662  0.0975970915907653   T   T   T
  0.1568775043325434  0.6518231979963485  0.0977542935547171   T   T   T
  0.0774800913283769  0.5008453368940345  0.0977761102408894   T   T   T
  0.1565074335646420  0.3507624304349125  0.0977773336461470   T   T   T
  0.0783823231468264  0.7991006642041723  0.0976219261862802   T   T   T
  0.4936002322199241  0.0882006964465985  0.0978451605666786   T   T   T
  0.3427507195549069  0.1665636633337769  0.0978811451945645   T   T   T
  0.4931229248936824  0.9168327889909472  0.0977770460078439   T   T   T
  0.3431118661873594  0.8353106493441588  0.0978243785276058   T   T   T
  0.7888876253538571  0.0873860238121134  0.0975475942250445   T   T   T
  0.6423426384887410  0.1694771226485990  0.0977889437275805   T   T   T
  0.7894918705251375  0.9186187208884651  0.0975185840284082   T   T   T
  0.8292889205014262  0.6514005536455744  0.0976888858804048   T   T   T
  0.8277137373371253  0.3540106099306389  0.0977499004856375   T   T   T
  0.6431803886428848  0.8352961447749446  0.0976771585931816   T   T   T
  0.9075794093671805  0.5023700991532298  0.0977749320152993   T   T   T
  0.3181442075581796  0.3276158688694003  0.0980045554627207   T   T   T
  0.3186752839466326  0.6773243949107228  0.0979339342517898   T   T   T
  0.6676246622084949  0.3326890900815206  0.0979566715747633   T   T   T
  0.6694204436828731  0.6723234187300496  0.0977748061005268   T   T   T
  0.1970448109640727  0.9158171641297331  0.0977156116671318   T   T   T
  0.4933095023550843  0.4991533468831545  0.0979962014670605   T   T   T
 
  0.00000000E+00  0.00000000E+00  0.00000000E+00
  0.00000000E+00  0.00000000E+00  0.00000000E+00
  0.00000000E+00  0.00000000E+00  0.00000000E+00
  0.00000000E+00  0.00000000E+00  0.00000000E+00
  0.00000000E+00  0.00000000E+00  0.00000000E+00
  0.00000000E+00  0.00000000E+00  0.00000000E+00
  0.00000000E+00  0.00000000E+00  0.00000000E+00
  0.00000000E+00  0.00000000E+00  0.00000000E+00
  0.00000000E+00  0.00000000E+00  0.00000000E+00
  0.00000000E+00  0.00000000E+00  0.00000000E+00
  0.00000000E+00  0.00000000E+00  0.00000000E+00
  0.00000000E+00  0.00000000E+00  0.00000000E+00
  0.00000000E+00  0.00000000E+00  0.00000000E+00
  0.00000000E+00  0.00000000E+00  0.00000000E+00
  0.00000000E+00  0.00000000E+00  0.00000000E+00
  0.00000000E+00  0.00000000E+00  0.00000000E+00
  0.00000000E+00  0.00000000E+00  0.00000000E+00
  0.00000000E+00  0.00000000E+00  0.00000000E+00
  0.00000000E+00  0.00000000E+00  0.00000000E+00
  0.00000000E+00  0.00000000E+00  0.00000000E+00
  0.00000000E+00  0.00000000E+00  0.00000000E+00
  0.00000000E+00  0.00000000E+00  0.00000000E+00
  0.00000000E+00  0.00000000E+00  0.00000000E+00
  0.00000000E+00  0.00000000E+00  0.00000000E+00
  0.00000000E+00  0.00000000E+00  0.00000000E+00
