Title                                   
   1.00000000000000     
     4.9440799999999996    0.0000000000000000    0.0000000000000000
     0.0000000000000000    8.5647549999999999    0.0000000000000000
     0.0000000000000000    0.0000000000000000   20.0000000000000000
    12     2     1
Selective dynamics
Direct
  0.2477098124473476  0.2095440679433482  0.0961956336907819   T   T   T
 -0.0048858757030068  0.2952691505675015  0.0971491332998681   T   T   T
  0.2522762740729134  0.0399822965685389  0.0962105607235417   T   T   T
  0.0043641080508951  0.9554545125858099  0.0955193664153508   T   T   T
  0.7472041149532281  0.2090200208142582  0.0938997266548974   T   T   T
  0.4956248147233762  0.2940767284186019  0.0955025159013727   T   T   T
  0.7528351211602036  0.0405552529904903  0.0939081781758888   T   T   T
  0.7547022823975778  0.7108131210186606  0.1008988361996766   T   T   T
  0.7452025329779934  0.5387327841747135  0.1008673187859817   T   T   T
  0.5049056046569633  0.9543148822714892  0.0971506558611532   T   T   T
  0.4985433007491118  0.4603300992051531  0.0982652546022127   T   T   T
  0.0014237168063312  0.7891972770226751  0.0983574959895089   T   T   T
 -0.0090094598283542  0.4577566717460017  0.1031074004359991   T   T   T
  0.5090008351319386  0.7918524516247125  0.1030660749093151   T   T   T
  0.2501028174034805  0.6247816830480468  0.1378818483544547   T   T   T
 
  0.00000000E+00  0.00000000E+00  0.00000000E+00
  0.00000000E+00  0.00000000E+00  0.00000000E+00
  0.00000000E+00  0.00000000E+00  0.00000000E+00
  0.00000000E+00  0.00000000E+00  0.00000000E+00
  0.00000000E+00  0.00000000E+00  0.00000000E+00
  0.00000000E+00  0.00000000E+00  0.00000000E+00
  0.00000000E+00  0.00000000E+00  0.00000000E+00
  0.00000000E+00  0.00000000E+00  0.00000000E+00
  0.00000000E+00  0.00000000E+00  0.00000000E+00
  0.00000000E+00  0.00000000E+00  0.00000000E+00
  0.00000000E+00  0.00000000E+00  0.00000000E+00
  0.00000000E+00  0.00000000E+00  0.00000000E+00
  0.00000000E+00  0.00000000E+00  0.00000000E+00
  0.00000000E+00  0.00000000E+00  0.00000000E+00
  0.00000000E+00  0.00000000E+00  0.00000000E+00
