Title                                   
   1.00000000000000     
     8.5490480000000009    0.0000000000000000    0.0000000000000000
     0.0000000000000000    8.5490480000000009    0.0000000000000000
     0.0000000000000000    0.0000000000000000   20.0000000000000000
    20     4     1
Selective dynamics
Direct
  0.9093918536090165  0.2089845120767201  0.0975364245555300   T   T   T
  0.9125752808772848  0.8004771532568652  0.0976289228075849   T   T   T
  0.1962613939584927  0.0826571182342504  0.0977613933514260   T   T   T
  0.0745346952671211  0.2027618342006096  0.0977121137700301   T   T   T
  0.1576234407696033  0.6489981267871758  0.0976377368919538   T   T   T
  0.0768907405019267  0.5018222587170947  0.0977600278176441   T   T   T
  0.1572662416126600  0.3522466771872749  0.0978792369629950   T   T   T
  0.0783160872289813  0.7987287649716855  0.0976116673943437   T   T   T
  0.4931424930335463  0.0863217446039981  0.0977022624718440   T   T   T
  0.3420685611985786  0.1657808946935951  0.0978747123456207   T   T   T
  0.4928646414833114  0.9160297934895899  0.0977288839036174   T   T   T
  0.3455245162180667  0.8341587235421494  0.0977002739894191   T   T   T
  0.7861298216356861  0.0859603715967664  0.0974883371976994   T   T   T
  0.6384962103744523  0.1676770963796492  0.0975714244794760   T   T   T
  0.7888592254949182  0.9199057630444257  0.0975923171829703   T   T   T
  0.8302845869593148  0.6510834142729583  0.0977688644988184   T   T   T
  0.8286340265600595  0.3577273663982572  0.0975910559519795   T   T   T
  0.6419317254784173  0.8348346597897555  0.0977615619557658   T   T   T
  0.3236712689442162  0.6700436003311008  0.0977047745168486   T   T   T
  0.6609348000315174  0.3379115236766516  0.0977945102884152   T   T   T
  0.9091396719302162  0.5032588308052937  0.0977506779144005   T   T   T
  0.3185714353725734  0.3287398276058915  0.0980956221182011   T   T   T
  0.6687794116189123  0.6714098441933535  0.0979961049216519   T   T   T
  0.1974796156199903  0.9168670347838882  0.0977130965687006   T   T   T
  0.4960402542211226  0.5004030653610126  0.0983429961430443   T   T   T
 
  0.00000000E+00  0.00000000E+00  0.00000000E+00
  0.00000000E+00  0.00000000E+00  0.00000000E+00
  0.00000000E+00  0.00000000E+00  0.00000000E+00
  0.00000000E+00  0.00000000E+00  0.00000000E+00
  0.00000000E+00  0.00000000E+00  0.00000000E+00
  0.00000000E+00  0.00000000E+00  0.00000000E+00
  0.00000000E+00  0.00000000E+00  0.00000000E+00
  0.00000000E+00  0.00000000E+00  0.00000000E+00
  0.00000000E+00  0.00000000E+00  0.00000000E+00
  0.00000000E+00  0.00000000E+00  0.00000000E+00
  0.00000000E+00  0.00000000E+00  0.00000000E+00
  0.00000000E+00  0.00000000E+00  0.00000000E+00
  0.00000000E+00  0.00000000E+00  0.00000000E+00
  0.00000000E+00  0.00000000E+00  0.00000000E+00
  0.00000000E+00  0.00000000E+00  0.00000000E+00
  0.00000000E+00  0.00000000E+00  0.00000000E+00
  0.00000000E+00  0.00000000E+00  0.00000000E+00
  0.00000000E+00  0.00000000E+00  0.00000000E+00
  0.00000000E+00  0.00000000E+00  0.00000000E+00
  0.00000000E+00  0.00000000E+00  0.00000000E+00
  0.00000000E+00  0.00000000E+00  0.00000000E+00
  0.00000000E+00  0.00000000E+00  0.00000000E+00
  0.00000000E+00  0.00000000E+00  0.00000000E+00
  0.00000000E+00  0.00000000E+00  0.00000000E+00
  0.00000000E+00  0.00000000E+00  0.00000000E+00
