Title                                   
   1.00000000000000     
     4.9440799999999996    0.0000000000000000    0.0000000000000000
     0.0000000000000000    8.5647549999999999    0.0000000000000000
     0.0000000000000000    0.0000000000000000   20.0000000000000000
    12     2     1
Selective dynamics
Direct
  0.0001869451011459  0.2920160849778929  0.1037554817811460   T   T   T
  0.2523204735471954  0.0418722561651514  0.1007717114325589   T   T   T
  0.0001532955392496  0.9583028548590075  0.1064817593485179   T   T   T
  0.7511016544734895  0.2068574924437538  0.0998357671125166   T   T   T
  0.5009740205062488  0.2900349535755206  0.0949137567677169   T   T   T
  0.7528089764302740  0.0418057647791705  0.1012202178997459   T   T   T
  0.7452615023608811  0.7162790193727034  0.1012495822363344   T   T   T
  0.7433478748043988  0.5357940449974825  0.0989264842102434   T   T   T
  0.5059302148084157  0.9579254077256578  0.0967216259811864   T   T   T
  0.5045170727617546  0.4532057783049499  0.0891056227346581   T   T   T
 -0.0102550029578884  0.4570616691840174  0.1085538211901100   T   T   T
 -0.0113267602753716  0.7940273016325325  0.1132690025239078   T   T   T
  0.5155648950207850  0.7976382310003303  0.0908751520411569   T   T   T
  0.2516244450471640  0.2055712796832456  0.0997776800132121   T   T   T
  0.2477903928322585  0.6232888612985882  0.1025223347269922   T   T   T
 
  0.00000000E+00  0.00000000E+00  0.00000000E+00
  0.00000000E+00  0.00000000E+00  0.00000000E+00
  0.00000000E+00  0.00000000E+00  0.00000000E+00
  0.00000000E+00  0.00000000E+00  0.00000000E+00
  0.00000000E+00  0.00000000E+00  0.00000000E+00
  0.00000000E+00  0.00000000E+00  0.00000000E+00
  0.00000000E+00  0.00000000E+00  0.00000000E+00
  0.00000000E+00  0.00000000E+00  0.00000000E+00
  0.00000000E+00  0.00000000E+00  0.00000000E+00
  0.00000000E+00  0.00000000E+00  0.00000000E+00
  0.00000000E+00  0.00000000E+00  0.00000000E+00
  0.00000000E+00  0.00000000E+00  0.00000000E+00
  0.00000000E+00  0.00000000E+00  0.00000000E+00
  0.00000000E+00  0.00000000E+00  0.00000000E+00
  0.00000000E+00  0.00000000E+00  0.00000000E+00
