Title                                   
   1.00000000000000     
     9.8694509999999998    0.0000000000000000    0.0000000000000000
     0.0000000000000000    8.5490480000000009    0.0000000000000000
     0.0000000000000000    0.0000000000000000   20.0000000000000000
    29     2     1
Selective dynamics
Direct
  0.0564305066224772  0.0908796779247983  0.0839936629746565   T   T   T
  0.9318984664223890  0.1723845940056138  0.0873631330631384   T   T   T
  0.0572554181797692  0.9237606320348544  0.0833069854714269   T   T   T
  0.9318923541157145  0.3397673108135760  0.0918250285520783   T   T   T
  0.0571972610961104  0.5896476984496317  0.0861410652840696   T   T   T
  0.9328601758137930  0.6720019318489442  0.0902961825376871   T   T   T
  0.0577425289191734  0.4225660036743632  0.0881689081126354   T   T   T
  0.9323689092857430  0.8387670208771603  0.0871377472404876   T   T   T
  0.3062713488325499  0.0887464255496220  0.0862465151654022   T   T   T
  0.1823734480108040  0.1733480389281418  0.0855512707028920   T   T   T
  0.1835842103210898  0.3404914298440714  0.0885102559014955   T   T   T
  0.3048212805364121  0.5925714425916382  0.0936861902423268   T   T   T
  0.1808701300901358  0.6746004937231995  0.0847284493315449   T   T   T
  0.3087279538831745  0.4253750839348723  0.0957288786058478   T   T   T
  0.1808983375088472  0.8406788906451438  0.0835120203282997   T   T   T
  0.5565078255523710  0.0859732231905856  0.0942097879645619   T   T   T
  0.4311883496569856  0.1692200852672844  0.0922441083606782   T   T   T
  0.5542835407585334  0.9189952041171275  0.0982198495685925   T   T   T
  0.4327702636195010  0.3353852482036060  0.1021500412835182   T   T   T
  0.5570156490616114  0.4080094218880125  0.1180145448722063   T   T   T
  0.4262935666201134  0.8403226472484363  0.0957108051262400   T   T   T
  0.8072483276871942  0.0876921657485055  0.0887109642029742   T   T   T
  0.6820436173357776  0.1689993095356560  0.0945369294359637   T   T   T
  0.8072213333096986  0.9220131997221144  0.0898909614483787   T   T   T
  0.6824071629861190  0.3341037567210302  0.1054827965270525   T   T   T
  0.8104746260920492  0.5896830713310308  0.1043834229575181   T   T   T
  0.6928804457186493  0.6777359294335892  0.1186491232913870   T   T   T
  0.8082742767367739  0.4210544200021828  0.1027109625882496   T   T   T
  0.6838081469972807  0.8372346113408830  0.1021676454890162   T   T   T
  0.4178001860417997  0.6836140628714844  0.1061144150317551   T   T   T
  0.3052657928261563  0.9248405269187099  0.0850004434409287   T   T   T
  0.5389635593612088  0.5997824416141169  0.1892819048970358   T   T   T
 
  0.00000000E+00  0.00000000E+00  0.00000000E+00
  0.00000000E+00  0.00000000E+00  0.00000000E+00
  0.00000000E+00  0.00000000E+00  0.00000000E+00
  0.00000000E+00  0.00000000E+00  0.00000000E+00
  0.00000000E+00  0.00000000E+00  0.00000000E+00
  0.00000000E+00  0.00000000E+00  0.00000000E+00
  0.00000000E+00  0.00000000E+00  0.00000000E+00
  0.00000000E+00  0.00000000E+00  0.00000000E+00
  0.00000000E+00  0.00000000E+00  0.00000000E+00
  0.00000000E+00  0.00000000E+00  0.00000000E+00
  0.00000000E+00  0.00000000E+00  0.00000000E+00
  0.00000000E+00  0.00000000E+00  0.00000000E+00
  0.00000000E+00  0.00000000E+00  0.00000000E+00
  0.00000000E+00  0.00000000E+00  0.00000000E+00
  0.00000000E+00  0.00000000E+00  0.00000000E+00
  0.00000000E+00  0.00000000E+00  0.00000000E+00
  0.00000000E+00  0.00000000E+00  0.00000000E+00
  0.00000000E+00  0.00000000E+00  0.00000000E+00
  0.00000000E+00  0.00000000E+00  0.00000000E+00
  0.00000000E+00  0.00000000E+00  0.00000000E+00
  0.00000000E+00  0.00000000E+00  0.00000000E+00
  0.00000000E+00  0.00000000E+00  0.00000000E+00
  0.00000000E+00  0.00000000E+00  0.00000000E+00
  0.00000000E+00  0.00000000E+00  0.00000000E+00
  0.00000000E+00  0.00000000E+00  0.00000000E+00
  0.00000000E+00  0.00000000E+00  0.00000000E+00
  0.00000000E+00  0.00000000E+00  0.00000000E+00
  0.00000000E+00  0.00000000E+00  0.00000000E+00
  0.00000000E+00  0.00000000E+00  0.00000000E+00
  0.00000000E+00  0.00000000E+00  0.00000000E+00
  0.00000000E+00  0.00000000E+00  0.00000000E+00
  0.00000000E+00  0.00000000E+00  0.00000000E+00
