Title                                   
   1.00000000000000     
     9.8694509999999998    0.0000000000000000    0.0000000000000000
     0.0000000000000000    8.5490480000000009    0.0000000000000000
     0.0000000000000000    0.0000000000000000   20.0000000000000000
    25     5     1
Selective dynamics
Direct
  0.0554119734587855  0.0895439404389513  0.0858091017648086   T   T   T
  0.9305317124983531  0.1717389645328019  0.0875310467441682   T   T   T
  0.0569928681567250  0.9210061768532883  0.0868219131087513   T   T   T
  0.9335936182884018  0.3390782116034641  0.0875054139843791   T   T   T
  0.0567160705392889  0.5905487630453246  0.0841245710321849   T   T   T
  0.0568083645085242  0.4238403550009058  0.0830413665086323   T   T   T
  0.9314755903040879  0.8385448839295560  0.0890725189966497   T   T   T
  0.3079185112774745  0.0892793706618168  0.0899383934298958   T   T   T
  0.1808191071417019  0.1716674273236351  0.0857393187826433   T   T   T
  0.1810331712284797  0.3392327723389747  0.0835753651580262   T   T   T
  0.3036050299333963  0.5896091105867761  0.0893989096109431   T   T   T
  0.1804596383519632  0.6737688224796957  0.0848496825289039   T   T   T
  0.3045412264278397  0.4219103786540389  0.0890132784231552   T   T   T
  0.1815776902209436  0.8405387765291823  0.0872079872496078   T   T   T
  0.4288581806316804  0.1750859533926213  0.0964918043274890   T   T   T
  0.5531275512364614  0.9213331945502309  0.1004267671106405   T   T   T
  0.4289352252808901  0.8373809332466078  0.0979437778847281   T   T   T
  0.8038572799617500  0.0891975113120263  0.0917640341923187   T   T   T
  0.6804754918300755  0.1761987916940599  0.0995954523476959   T   T   T
  0.8048801972299464  0.9202908373763057  0.0926411812386956   T   T   T
  0.6881074548610987  0.3421551193741457  0.1103581961497443   T   T   T
  0.8138633518584549  0.5909108820452724  0.0995531285532463   T   T   T
  0.6900814807017485  0.6708550640960483  0.1121820419401749   T   T   T
  0.8136175193568188  0.4224271555262154  0.0981038161334358   T   T   T
  0.6802704067218769  0.8373773138172315  0.1012367577906893   T   T   T
  0.9337650129682324  0.6723377027202457  0.0892301783141965   T   T   T
  0.5548186567312489  0.0939548307037433  0.0998734804634087   T   T   T
  0.4243923695665094  0.3386195124777353  0.1010136112524692   T   T   T
  0.4222797610161119  0.6745948213676041  0.1037243696749057   T   T   T
  0.3060531303924521  0.9216769954027190  0.0900556883462084   T   T   T
  0.5542673573186954  0.5061704269187827  0.1431418469572518   T   T   T
 
  0.00000000E+00  0.00000000E+00  0.00000000E+00
  0.00000000E+00  0.00000000E+00  0.00000000E+00
  0.00000000E+00  0.00000000E+00  0.00000000E+00
  0.00000000E+00  0.00000000E+00  0.00000000E+00
  0.00000000E+00  0.00000000E+00  0.00000000E+00
  0.00000000E+00  0.00000000E+00  0.00000000E+00
  0.00000000E+00  0.00000000E+00  0.00000000E+00
  0.00000000E+00  0.00000000E+00  0.00000000E+00
  0.00000000E+00  0.00000000E+00  0.00000000E+00
  0.00000000E+00  0.00000000E+00  0.00000000E+00
  0.00000000E+00  0.00000000E+00  0.00000000E+00
  0.00000000E+00  0.00000000E+00  0.00000000E+00
  0.00000000E+00  0.00000000E+00  0.00000000E+00
  0.00000000E+00  0.00000000E+00  0.00000000E+00
  0.00000000E+00  0.00000000E+00  0.00000000E+00
  0.00000000E+00  0.00000000E+00  0.00000000E+00
  0.00000000E+00  0.00000000E+00  0.00000000E+00
  0.00000000E+00  0.00000000E+00  0.00000000E+00
  0.00000000E+00  0.00000000E+00  0.00000000E+00
  0.00000000E+00  0.00000000E+00  0.00000000E+00
  0.00000000E+00  0.00000000E+00  0.00000000E+00
  0.00000000E+00  0.00000000E+00  0.00000000E+00
  0.00000000E+00  0.00000000E+00  0.00000000E+00
  0.00000000E+00  0.00000000E+00  0.00000000E+00
  0.00000000E+00  0.00000000E+00  0.00000000E+00
  0.00000000E+00  0.00000000E+00  0.00000000E+00
  0.00000000E+00  0.00000000E+00  0.00000000E+00
  0.00000000E+00  0.00000000E+00  0.00000000E+00
  0.00000000E+00  0.00000000E+00  0.00000000E+00
  0.00000000E+00  0.00000000E+00  0.00000000E+00
  0.00000000E+00  0.00000000E+00  0.00000000E+00
