Title                                   
   1.00000000000000     
     4.9440799999999996    0.0000000000000000    0.0000000000000000
     0.0000000000000000    8.5647549999999999    0.0000000000000000
     0.0000000000000000    0.0000000000000000   20.0000000000000000
    13     1     1
Selective dynamics
Direct
 -0.0002333940121500  0.2917480929115789  0.0932361109584414   T   T   T
  0.2500000000000000  0.0442258882576142  0.0946235622171312   T   T   T
 -0.0008575608494281  0.9594689454777739  0.0944730831917020   T   T   T
  0.7500000000000000  0.2070520464578574  0.0874457512957817   T   T   T
  0.5002333940121503  0.2917480929115789  0.0932361109584414   T   T   T
  0.7500000000000000  0.0421411879434248  0.0883791567674640   T   T   T
  0.7500000000000000  0.7109775431620617  0.0985287816692917   T   T   T
  0.7500000000000000  0.5358294055862509  0.0984067070879377   T   T   T
  0.5008575608494282  0.9594689454777739  0.0944730831917020   T   T   T
  0.5022904772062742  0.4538496511193858  0.1014599763174077   T   T   T
 -0.0022904772062740  0.4538496511193858  0.1014599763174077   T   T   T
 -0.0044770546752317  0.7952216749639374  0.1024184170399011   T   T   T
  0.5044770546752315  0.7952216749639374  0.1024184170399011   T   T   T
  0.2500000000000000  0.2070408402875353  0.0939434938570090   T   T   T
  0.2500000000000000  0.6238373593599059  0.1634773720904839   T   T   T
 
  0.00000000E+00  0.00000000E+00  0.00000000E+00
  0.00000000E+00  0.00000000E+00  0.00000000E+00
  0.00000000E+00  0.00000000E+00  0.00000000E+00
  0.00000000E+00  0.00000000E+00  0.00000000E+00
  0.00000000E+00  0.00000000E+00  0.00000000E+00
  0.00000000E+00  0.00000000E+00  0.00000000E+00
  0.00000000E+00  0.00000000E+00  0.00000000E+00
  0.00000000E+00  0.00000000E+00  0.00000000E+00
  0.00000000E+00  0.00000000E+00  0.00000000E+00
  0.00000000E+00  0.00000000E+00  0.00000000E+00
  0.00000000E+00  0.00000000E+00  0.00000000E+00
  0.00000000E+00  0.00000000E+00  0.00000000E+00
  0.00000000E+00  0.00000000E+00  0.00000000E+00
  0.00000000E+00  0.00000000E+00  0.00000000E+00
  0.00000000E+00  0.00000000E+00  0.00000000E+00
