Title                                   
   1.00000000000000     
     4.9440799999999996    0.0000000000000000    0.0000000000000000
     0.0000000000000000    8.5647549999999999    0.0000000000000000
     0.0000000000000000    0.0000000000000000   20.0000000000000000
    11     4     1
Selective dynamics
Direct
 -0.0043812452846882  0.2922693887289249  0.0902311058178263   T   T   T
  0.2500000000000000  0.0438754805488229  0.0892534800115725   T   T   T
  0.0031015312809415  0.7954757489317730  0.0998746069907460   T   T   T
  0.0000978612897044  0.9608879354639233  0.0895717218452262   T   T   T
  0.7500000000000000  0.2057581661387695  0.0850934848545301   T   T   T
  0.5043812452846882  0.2922693887289249  0.0902311058178263   T   T   T
  0.7500000000000000  0.0412024566553026  0.0844858262164269   T   T   T
  0.7500000000000000  0.7035651819706410  0.1032083822696537   T   T   T
  0.4968984687190585  0.7954757489317730  0.0998746069907460   T   T   T
  0.7500000000000000  0.5311689161070940  0.1030925543123947   T   T   T
  0.4999021387102953  0.9608879354639233  0.0895717218452262   T   T   T
  0.5087375921228481  0.4494796365678147  0.1014323390849597   T   T   T
 -0.0087375921228481  0.4494796365678147  0.1014323390849597   T   T   T
  0.2500000000000000  0.7256392273357116  0.1109602904483922   T   T   T
  0.2500000000000000  0.2131175534378189  0.0888355633820571   T   T   T
  0.2500000000000000  0.5394475984209683  0.1853628710274655   T   T   T
 
  0.00000000E+00  0.00000000E+00  0.00000000E+00
  0.00000000E+00  0.00000000E+00  0.00000000E+00
  0.00000000E+00  0.00000000E+00  0.00000000E+00
  0.00000000E+00  0.00000000E+00  0.00000000E+00
  0.00000000E+00  0.00000000E+00  0.00000000E+00
  0.00000000E+00  0.00000000E+00  0.00000000E+00
  0.00000000E+00  0.00000000E+00  0.00000000E+00
  0.00000000E+00  0.00000000E+00  0.00000000E+00
  0.00000000E+00  0.00000000E+00  0.00000000E+00
  0.00000000E+00  0.00000000E+00  0.00000000E+00
  0.00000000E+00  0.00000000E+00  0.00000000E+00
  0.00000000E+00  0.00000000E+00  0.00000000E+00
  0.00000000E+00  0.00000000E+00  0.00000000E+00
  0.00000000E+00  0.00000000E+00  0.00000000E+00
  0.00000000E+00  0.00000000E+00  0.00000000E+00
  0.00000000E+00  0.00000000E+00  0.00000000E+00
