Title                                   
   1.00000000000000     
     9.8694509999999998    0.0000000000000000    0.0000000000000000
     0.0000000000000000    8.5490480000000009    0.0000000000000000
     0.0000000000000000    0.0000000000000000   20.0000000000000000
    27     4     1
Selective dynamics
Direct
  0.0557857996125762  0.0929459945178763  0.0847736738680828   T   T   T
  0.9310305359597348  0.1746746307450202  0.0867001203545346   T   T   T
  0.0573268972968622  0.9254021093257423  0.0843043380703691   T   T   T
  0.9295225605590790  0.3423128690571893  0.0903166199049897   T   T   T
  0.0567704658885543  0.5903773916320025  0.0860671861980999   T   T   T
  0.9329707483198656  0.6739223900312875  0.0883166631709321   T   T   T
  0.0568469794093088  0.4234913666691501  0.0882206272089657   T   T   T
  0.9330778407876995  0.8403937724006436  0.0864543519247895   T   T   T
  0.3054545006361135  0.0882367532394072  0.0886682453458861   T   T   T
  0.1821125057037167  0.1741028330550707  0.0869681570860039   T   T   T
  0.1839717822644652  0.3413483285431720  0.0897459376250841   T   T   T
  0.3038828826459186  0.5934438363077825  0.0991576530146945   T   T   T
  0.1806483799338643  0.6751261892651569  0.0877162455441392   T   T   T
  0.3099960961954115  0.4254227372748581  0.0976999143422318   T   T   T
  0.1805500929088932  0.8414007317044361  0.0865981957279931   T   T   T
  0.5564812416202026  0.0825779484825620  0.0948792547811717   T   T   T
  0.4309578613697101  0.1669671221920296  0.0935354115357956   T   T   T
  0.5551009638887373  0.9162648008257589  0.0998530570724479   T   T   T
  0.4335670798534528  0.3323309564713338  0.1014725839539321   T   T   T
  0.4247083485595134  0.8390155467760145  0.1017498883543856   T   T   T
  0.8067861490520326  0.0889416232554731  0.0874653366414760   T   T   T
  0.6809372686964379  0.1678661424734268  0.0926577579557377   T   T   T
  0.8077540817702872  0.9233854418535359  0.0888334101629919   T   T   T
  0.6784266015095826  0.3330488106476688  0.1013864749959906   T   T   T
  0.8088593704770357  0.5938380629281620  0.0999840806486829   T   T   T
  0.8032410172778471  0.4246220116422093  0.0985346054997221   T   T   T
  0.6861317648705505  0.8374522641605771  0.1004188320221195   T   T   T
  0.4137855765358806  0.6851926542935188  0.1154253186381396   T   T   T
  0.5560326413473878  0.4014569630261605  0.1143378439216918   T   T   T
  0.6967165938585730  0.6817755572936198  0.1144662263688644   T   T   T
  0.3047937693070238  0.9243594831613736  0.0893953970802249   T   T   T
  0.5554106018836883  0.5885486767477834  0.1595715909798456   T   T   T
 
  0.00000000E+00  0.00000000E+00  0.00000000E+00
  0.00000000E+00  0.00000000E+00  0.00000000E+00
  0.00000000E+00  0.00000000E+00  0.00000000E+00
  0.00000000E+00  0.00000000E+00  0.00000000E+00
  0.00000000E+00  0.00000000E+00  0.00000000E+00
  0.00000000E+00  0.00000000E+00  0.00000000E+00
  0.00000000E+00  0.00000000E+00  0.00000000E+00
  0.00000000E+00  0.00000000E+00  0.00000000E+00
  0.00000000E+00  0.00000000E+00  0.00000000E+00
  0.00000000E+00  0.00000000E+00  0.00000000E+00
  0.00000000E+00  0.00000000E+00  0.00000000E+00
  0.00000000E+00  0.00000000E+00  0.00000000E+00
  0.00000000E+00  0.00000000E+00  0.00000000E+00
  0.00000000E+00  0.00000000E+00  0.00000000E+00
  0.00000000E+00  0.00000000E+00  0.00000000E+00
  0.00000000E+00  0.00000000E+00  0.00000000E+00
  0.00000000E+00  0.00000000E+00  0.00000000E+00
  0.00000000E+00  0.00000000E+00  0.00000000E+00
  0.00000000E+00  0.00000000E+00  0.00000000E+00
  0.00000000E+00  0.00000000E+00  0.00000000E+00
  0.00000000E+00  0.00000000E+00  0.00000000E+00
  0.00000000E+00  0.00000000E+00  0.00000000E+00
  0.00000000E+00  0.00000000E+00  0.00000000E+00
  0.00000000E+00  0.00000000E+00  0.00000000E+00
  0.00000000E+00  0.00000000E+00  0.00000000E+00
  0.00000000E+00  0.00000000E+00  0.00000000E+00
  0.00000000E+00  0.00000000E+00  0.00000000E+00
  0.00000000E+00  0.00000000E+00  0.00000000E+00
  0.00000000E+00  0.00000000E+00  0.00000000E+00
  0.00000000E+00  0.00000000E+00  0.00000000E+00
  0.00000000E+00  0.00000000E+00  0.00000000E+00
  0.00000000E+00  0.00000000E+00  0.00000000E+00
