Title                                   
   1.00000000000000     
     9.8694509999999998    0.0000000000000000    0.0000000000000000
     0.0000000000000000    8.5490480000000009    0.0000000000000000
     0.0000000000000000    0.0000000000000000   20.0000000000000000
    26     4     1
Selective dynamics
Direct
  0.0562305683188272  0.0895501447596213  0.0938646402389645   T   T   T
  0.9315869098246520  0.1719726288709011  0.0941217967339647   T   T   T
  0.0562184852981041  0.9227729464194437  0.0938645674733625   T   T   T
  0.9329066033375694  0.3392422107273472  0.0940362838690912   T   T   T
  0.0562447781442838  0.5890702788629129  0.0936640899621637   T   T   T
  0.9329110665412541  0.6730697670545839  0.0940232483674908   T   T   T
  0.0562382769260416  0.4232542348514737  0.0936658880159323   T   T   T
  0.9315818051753478  0.8403429089658341  0.0941128202511837   T   T   T
  0.3068980834436593  0.0904809150333865  0.0948704240277721   T   T   T
  0.1808718838599562  0.1719772721905531  0.0941617912933558   T   T   T
  0.3068897313603679  0.9218193305806371  0.0948822589720999   T   T   T
  0.1795610798954055  0.3392458852688835  0.0940984110272400   T   T   T
  0.3022499391796857  0.5906077473306076  0.0949670605385575   T   T   T
  0.1795659130866949  0.6730814758580325  0.0941117365239515   T   T   T
  0.3022555265751689  0.4217086610093689  0.0949444248212761   T   T   T
  0.1808547878031973  0.8403524066889387  0.0941738116439805   T   T   T
  0.5562090807386801  0.0932490613078859  0.0958879190911361   T   T   T
  0.4300478690067553  0.1780341913992621  0.0956414525863326   T   T   T
  0.5562059731355491  0.9190434434017893  0.0958923912871749   T   T   T
  0.4300379980546622  0.8342637347015853  0.0956496835207331   T   T   T
  0.8055475778963124  0.0904775960816611  0.0948426812290493   T   T   T
  0.6823890178805416  0.1780365137499024  0.0956109984109886   T   T   T
  0.8055412032723183  0.9218170889772661  0.0948211438726030   T   T   T
  0.8102345141141413  0.5906043125025473  0.0948403884361902   T   T   T
  0.8102214792599893  0.4217128039996220  0.0948584878707925   T   T   T
  0.6823923759716409  0.8342710936113690  0.0955864211352583   T   T   T
  0.4243331392055656  0.3417335214418990  0.0958335034750141   T   T   T
  0.4243298186101668  0.6705886911110261  0.0958505324211109   T   T   T
  0.6881610173995570  0.3417313422610224  0.0957706900129567   T   T   T
  0.6881699595648810  0.6705954080133915  0.0957504971514584   T   T   T
  0.5562495371190295  0.5061673829672427  0.0965649557388553   T   T   T
 
  0.00000000E+00  0.00000000E+00  0.00000000E+00
  0.00000000E+00  0.00000000E+00  0.00000000E+00
  0.00000000E+00  0.00000000E+00  0.00000000E+00
  0.00000000E+00  0.00000000E+00  0.00000000E+00
  0.00000000E+00  0.00000000E+00  0.00000000E+00
  0.00000000E+00  0.00000000E+00  0.00000000E+00
  0.00000000E+00  0.00000000E+00  0.00000000E+00
  0.00000000E+00  0.00000000E+00  0.00000000E+00
  0.00000000E+00  0.00000000E+00  0.00000000E+00
  0.00000000E+00  0.00000000E+00  0.00000000E+00
  0.00000000E+00  0.00000000E+00  0.00000000E+00
  0.00000000E+00  0.00000000E+00  0.00000000E+00
  0.00000000E+00  0.00000000E+00  0.00000000E+00
  0.00000000E+00  0.00000000E+00  0.00000000E+00
  0.00000000E+00  0.00000000E+00  0.00000000E+00
  0.00000000E+00  0.00000000E+00  0.00000000E+00
  0.00000000E+00  0.00000000E+00  0.00000000E+00
  0.00000000E+00  0.00000000E+00  0.00000000E+00
  0.00000000E+00  0.00000000E+00  0.00000000E+00
  0.00000000E+00  0.00000000E+00  0.00000000E+00
  0.00000000E+00  0.00000000E+00  0.00000000E+00
  0.00000000E+00  0.00000000E+00  0.00000000E+00
  0.00000000E+00  0.00000000E+00  0.00000000E+00
  0.00000000E+00  0.00000000E+00  0.00000000E+00
  0.00000000E+00  0.00000000E+00  0.00000000E+00
  0.00000000E+00  0.00000000E+00  0.00000000E+00
  0.00000000E+00  0.00000000E+00  0.00000000E+00
  0.00000000E+00  0.00000000E+00  0.00000000E+00
  0.00000000E+00  0.00000000E+00  0.00000000E+00
  0.00000000E+00  0.00000000E+00  0.00000000E+00
  0.00000000E+00  0.00000000E+00  0.00000000E+00
