Title                                   
   1.00000000000000     
     4.9440799999999996    0.0000000000000000    0.0000000000000000
     0.0000000000000000    8.5647549999999999    0.0000000000000000
     0.0000000000000000    0.0000000000000000   20.0000000000000000
    12     2     1
Selective dynamics
Direct
  0.2489831320630693  0.2092578454144344  0.1002103478976530   T   T   T
 -0.0035819907724891  0.2973735669154524  0.1008682312725043   T   T   T
  0.2510287826641060  0.0403243056061316  0.1002437852176330   T   T   T
  0.0016903512726708  0.9551207768827794  0.0984120062780532   T   T   T
  0.7481522114689060  0.2098494207283920  0.0985769462947736   T   T   T
  0.4983353147389539  0.2944238227161471  0.0983023689764290   T   T   T
  0.7518431784955982  0.0396792905528360  0.0985990735737622   T   T   T
  0.7520116749641311  0.7125005680275868  0.0998206817473236   T   T   T
  0.7479481053004897  0.5370979232439782  0.0997654204049826   T   T   T
  0.5035379971972660  0.9521843561055923  0.1008906427519893   T   T   T
  0.5027521059172049  0.4610946680650701  0.0969997535639752   T   T   T
 -0.0026891189339758  0.7884414521541868  0.0971867018006920   T   T   T
 -0.0089957309552131  0.4611770096721614  0.1042308716237768   T   T   T
  0.5089295881819730  0.7884175590639619  0.1041896784357383   T   T   T
  0.2500543983973078  0.6247384348512919  0.1096834901607172   T   T   T
 
  0.00000000E+00  0.00000000E+00  0.00000000E+00
  0.00000000E+00  0.00000000E+00  0.00000000E+00
  0.00000000E+00  0.00000000E+00  0.00000000E+00
  0.00000000E+00  0.00000000E+00  0.00000000E+00
  0.00000000E+00  0.00000000E+00  0.00000000E+00
  0.00000000E+00  0.00000000E+00  0.00000000E+00
  0.00000000E+00  0.00000000E+00  0.00000000E+00
  0.00000000E+00  0.00000000E+00  0.00000000E+00
  0.00000000E+00  0.00000000E+00  0.00000000E+00
  0.00000000E+00  0.00000000E+00  0.00000000E+00
  0.00000000E+00  0.00000000E+00  0.00000000E+00
  0.00000000E+00  0.00000000E+00  0.00000000E+00
  0.00000000E+00  0.00000000E+00  0.00000000E+00
  0.00000000E+00  0.00000000E+00  0.00000000E+00
  0.00000000E+00  0.00000000E+00  0.00000000E+00
