Title                                   
   1.00000000000000     
     8.5490480000000009    0.0000000000000000    0.0000000000000000
     0.0000000000000000    8.5490480000000009    0.0000000000000000
     0.0000000000000000    0.0000000000000000   20.0000000000000000
    22     2     1
Selective dynamics
Direct
  0.9096891974223594  0.2041430003039258  0.0984424156877061   T   T   T
  0.9037791397319221  0.5018004072439930  0.0963784310337256   T   T   T
  0.9096781722670317  0.7994108964722337  0.0984497928418999   T   T   T
  0.1961923453175138  0.0827935408491988  0.0993075761697465   T   T   T
  0.0739081880503228  0.2062301547362203  0.0986430692368344   T   T   T
  0.1961774867406141  0.9208048240843630  0.0993295293553704   T   T   T
  0.1541190006247494  0.6493908464400399  0.0961654256794117   T   T   T
  0.0731301132506629  0.5018095593442844  0.0960513415444223   T   T   T
  0.1541226853066229  0.3542210005970938  0.0961566131289634   T   T   T
  0.0738948804054400  0.7973493990341516  0.0986388075084009   T   T   T
  0.4954355600783408  0.0865274916780564  0.0964554167028429   T   T   T
  0.3472062722328719  0.1664451886123062  0.0967945883751935   T   T   T
  0.4954360591941013  0.9170482021570282  0.0964795023482071   T   T   T
  0.3471974507269868  0.8371595917517369  0.0968332865701755   T   T   T
  0.7898410809140705  0.0848652495821322  0.0981703591080516   T   T   T
  0.6434701867951662  0.1654875098330273  0.0963113952271312   T   T   T
  0.7898373732215671  0.9186983362685784  0.0981804954211278   T   T   T
  0.8260220862426678  0.6506786203836322  0.0965154834376074   T   T   T
  0.8260374472337714  0.3528837445319510  0.0964954581060005   T   T   T
  0.6434642203323991  0.8380775518527582  0.0963545047490495   T   T   T
  0.3218557008835322  0.3298405546276371  0.0930401902293592   T   T   T
  0.3218476170654989  0.6737661025556941  0.0930849918961437   T   T   T
  0.6670556211003904  0.3280456694465675  0.0945013010326660   T   T   T
  0.6670410946715171  0.6754981617748032  0.0945440417247399   T   T   T
  0.4989730201898721  0.5018143958386002  0.0623809828852011   T   T   T
 
  0.00000000E+00  0.00000000E+00  0.00000000E+00
  0.00000000E+00  0.00000000E+00  0.00000000E+00
  0.00000000E+00  0.00000000E+00  0.00000000E+00
  0.00000000E+00  0.00000000E+00  0.00000000E+00
  0.00000000E+00  0.00000000E+00  0.00000000E+00
  0.00000000E+00  0.00000000E+00  0.00000000E+00
  0.00000000E+00  0.00000000E+00  0.00000000E+00
  0.00000000E+00  0.00000000E+00  0.00000000E+00
  0.00000000E+00  0.00000000E+00  0.00000000E+00
  0.00000000E+00  0.00000000E+00  0.00000000E+00
  0.00000000E+00  0.00000000E+00  0.00000000E+00
  0.00000000E+00  0.00000000E+00  0.00000000E+00
  0.00000000E+00  0.00000000E+00  0.00000000E+00
  0.00000000E+00  0.00000000E+00  0.00000000E+00
  0.00000000E+00  0.00000000E+00  0.00000000E+00
  0.00000000E+00  0.00000000E+00  0.00000000E+00
  0.00000000E+00  0.00000000E+00  0.00000000E+00
  0.00000000E+00  0.00000000E+00  0.00000000E+00
  0.00000000E+00  0.00000000E+00  0.00000000E+00
  0.00000000E+00  0.00000000E+00  0.00000000E+00
  0.00000000E+00  0.00000000E+00  0.00000000E+00
  0.00000000E+00  0.00000000E+00  0.00000000E+00
  0.00000000E+00  0.00000000E+00  0.00000000E+00
  0.00000000E+00  0.00000000E+00  0.00000000E+00
  0.00000000E+00  0.00000000E+00  0.00000000E+00
