Title                                   
   1.00000000000000     
     9.8694509999999998    0.0000000000000000    0.0000000000000000
     0.0000000000000000    8.5490480000000009    0.0000000000000000
     0.0000000000000000    0.0000000000000000   20.0000000000000000
    28     3     1
Selective dynamics
Direct
  0.0562765190685192  0.0914144707148340  0.0824633308127792   T   T   T
  0.9304021952631928  0.1743022393150361  0.0854193046880501   T   T   T
  0.0562545450918757  0.9229666223838962  0.0818570785832166   T   T   T
  0.9302712485366545  0.3405972239526104  0.0899435105684330   T   T   T
  0.0561630158067589  0.5896755754910569  0.0851780810012446   T   T   T
  0.9313096052762700  0.6711997176454301  0.0873895211368829   T   T   T
  0.0562403090886227  0.4233663704963269  0.0882427377825186   T   T   T
  0.9307195145093428  0.8391007670192271  0.0849071639208799   T   T   T
  0.3056837747508652  0.0891959289977270  0.0844614399789725   T   T   T
  0.1822230871394227  0.1742469491470827  0.0843842788106493   T   T   T
  0.3071823228348657  0.9237536167896464  0.0859785484700137   T   T   T
  0.1822861268986021  0.3405432244511267  0.0888974422301965   T   T   T
  0.3039803235270367  0.5896137294937658  0.0987625471430354   T   T   T
  0.1811305794679614  0.6711781076585690  0.0861866815914020   T   T   T
  0.1818666642228002  0.8390963436942104  0.0837793718510455   T   T   T
  0.5563631190553605  0.0875709381601695  0.0933842549711980   T   T   T
  0.4305021153043800  0.1710062726578900  0.0912132887501540   T   T   T
  0.4308300896622755  0.3348137684513505  0.1015608116703309   T   T   T
  0.4295053501323506  0.8415537489359241  0.0991232573848517   T   T   T
  0.8070486230328097  0.0891773625712672  0.0859923002437296   T   T   T
  0.6822400803349666  0.1710327737804345  0.0923501501009458   T   T   T
  0.8055297875451825  0.9237619992688534  0.0875349259473287   T   T   T
  0.6818222969700510  0.3348438020672700  0.1027261316970986   T   T   T
  0.8086669559232054  0.5897632445959585  0.1006735727749005   T   T   T
  0.6831194301014598  0.8415613169193317  0.1004451730400346   T   T   T
  0.4191756863668188  0.6806168276648593  0.1193835516082912   T   T   T
  0.5559239788110807  0.4063323415337329  0.1224281869134195   T   T   T
  0.6932017009976341  0.6807248732783270  0.1210585347255950   T   T   T
  0.5563280231946161  0.9213694207009729  0.0981942972362013   T   T   T
  0.3066741149208798  0.4226948750817699  0.0968237133197303   T   T   T
  0.8059866873737885  0.4227431219158258  0.0985780826660110   T   T   T
  0.5547311287903548  0.5904284251655189  0.1763537283808758   T   T   T
 
  0.00000000E+00  0.00000000E+00  0.00000000E+00
  0.00000000E+00  0.00000000E+00  0.00000000E+00
  0.00000000E+00  0.00000000E+00  0.00000000E+00
  0.00000000E+00  0.00000000E+00  0.00000000E+00
  0.00000000E+00  0.00000000E+00  0.00000000E+00
  0.00000000E+00  0.00000000E+00  0.00000000E+00
  0.00000000E+00  0.00000000E+00  0.00000000E+00
  0.00000000E+00  0.00000000E+00  0.00000000E+00
  0.00000000E+00  0.00000000E+00  0.00000000E+00
  0.00000000E+00  0.00000000E+00  0.00000000E+00
  0.00000000E+00  0.00000000E+00  0.00000000E+00
  0.00000000E+00  0.00000000E+00  0.00000000E+00
  0.00000000E+00  0.00000000E+00  0.00000000E+00
  0.00000000E+00  0.00000000E+00  0.00000000E+00
  0.00000000E+00  0.00000000E+00  0.00000000E+00
  0.00000000E+00  0.00000000E+00  0.00000000E+00
  0.00000000E+00  0.00000000E+00  0.00000000E+00
  0.00000000E+00  0.00000000E+00  0.00000000E+00
  0.00000000E+00  0.00000000E+00  0.00000000E+00
  0.00000000E+00  0.00000000E+00  0.00000000E+00
  0.00000000E+00  0.00000000E+00  0.00000000E+00
  0.00000000E+00  0.00000000E+00  0.00000000E+00
  0.00000000E+00  0.00000000E+00  0.00000000E+00
  0.00000000E+00  0.00000000E+00  0.00000000E+00
  0.00000000E+00  0.00000000E+00  0.00000000E+00
  0.00000000E+00  0.00000000E+00  0.00000000E+00
  0.00000000E+00  0.00000000E+00  0.00000000E+00
  0.00000000E+00  0.00000000E+00  0.00000000E+00
  0.00000000E+00  0.00000000E+00  0.00000000E+00
  0.00000000E+00  0.00000000E+00  0.00000000E+00
  0.00000000E+00  0.00000000E+00  0.00000000E+00
  0.00000000E+00  0.00000000E+00  0.00000000E+00
