Title                                   
   1.00000000000000     
     8.5490480000000009    0.0000000000000000    0.0000000000000000
     0.0000000000000000    8.5490480000000009    0.0000000000000000
     0.0000000000000000    0.0000000000000000   20.0000000000000000
    21     3     1
Selective dynamics
Direct
  0.9091147302818965  0.2069810776198540  0.0954974126750048   T   T   T
  0.9116205489952296  0.7998722457398242  0.0953625357317338   T   T   T
  0.1981915177284154  0.0827416585090864  0.0949984529028518   T   T   T
  0.0760985609405809  0.2024219226088903  0.0959484223470199   T   T   T
  0.1579801947760438  0.6495516571564044  0.0964113768753989   T   T   T
  0.0769821084095874  0.5002160597247458  0.0969831858366179   T   T   T
  0.1582343417035686  0.3535914741607648  0.0979045660348785   T   T   T
  0.0785123406181755  0.7988092781158143  0.0951066385926519   T   T   T
  0.3469806407879006  0.1640836181584504  0.0961143642349390   T   T   T
  0.4936314475403387  0.9194921018713277  0.0965176530472557   T   T   T
  0.3452499147655833  0.8377369366672629  0.0960169533065929   T   T   T
  0.7867124230232634  0.0856169957048320  0.0955011915499839   T   T   T
  0.6373326977630488  0.1687624805997988  0.0965258781219201   T   T   T
  0.7889618467827844  0.9195452513155262  0.0958644326473237   T   T   T
  0.8298260386328588  0.6484087155890195  0.0968667232735772   T   T   T
  0.8273419769171683  0.3568343204309098  0.0964783284745549   T   T   T
  0.6390160524097188  0.8362191517652505  0.0976254165539765   T   T   T
  0.3276665473105235  0.3300517364059353  0.1002229456192944   T   T   T
  0.3246697860273687  0.6733310039973586  0.0976649979586544   T   T   T
  0.6588736003432376  0.3370841094251433  0.0991611744234522   T   T   T
  0.6635302049492403  0.6667507984706500  0.1006902880574054   T   T   T
  0.4942250100307126  0.0856609623018501  0.0960658848527597   T   T   T
  0.9099741169572444  0.5015499433898537  0.0965135975330850   T   T   T
  0.1969612087378304  0.9168803853927757  0.0947734469856699   T   T   T
  0.4877241435676652  0.5025961148786772  0.1228891323633777   T   T   T
 
  0.00000000E+00  0.00000000E+00  0.00000000E+00
  0.00000000E+00  0.00000000E+00  0.00000000E+00
  0.00000000E+00  0.00000000E+00  0.00000000E+00
  0.00000000E+00  0.00000000E+00  0.00000000E+00
  0.00000000E+00  0.00000000E+00  0.00000000E+00
  0.00000000E+00  0.00000000E+00  0.00000000E+00
  0.00000000E+00  0.00000000E+00  0.00000000E+00
  0.00000000E+00  0.00000000E+00  0.00000000E+00
  0.00000000E+00  0.00000000E+00  0.00000000E+00
  0.00000000E+00  0.00000000E+00  0.00000000E+00
  0.00000000E+00  0.00000000E+00  0.00000000E+00
  0.00000000E+00  0.00000000E+00  0.00000000E+00
  0.00000000E+00  0.00000000E+00  0.00000000E+00
  0.00000000E+00  0.00000000E+00  0.00000000E+00
  0.00000000E+00  0.00000000E+00  0.00000000E+00
  0.00000000E+00  0.00000000E+00  0.00000000E+00
  0.00000000E+00  0.00000000E+00  0.00000000E+00
  0.00000000E+00  0.00000000E+00  0.00000000E+00
  0.00000000E+00  0.00000000E+00  0.00000000E+00
  0.00000000E+00  0.00000000E+00  0.00000000E+00
  0.00000000E+00  0.00000000E+00  0.00000000E+00
  0.00000000E+00  0.00000000E+00  0.00000000E+00
  0.00000000E+00  0.00000000E+00  0.00000000E+00
  0.00000000E+00  0.00000000E+00  0.00000000E+00
  0.00000000E+00  0.00000000E+00  0.00000000E+00
