Title                                   
   1.00000000000000     
     9.8694509999999998    0.0000000000000000    0.0000000000000000
     0.0000000000000000    8.5490480000000009    0.0000000000000000
     0.0000000000000000    0.0000000000000000   20.0000000000000000
    26     4     1
Selective dynamics
Direct
  0.0562246287119017  0.0892427138996055  0.0938088482924476   T   T   T
  0.9318333221786471  0.1718093357074996  0.0940998180758969   T   T   T
  0.0562144104372329  0.9230770545356841  0.0938098983637923   T   T   T
  0.9338094065176383  0.3390113136627467  0.0940240164337330   T   T   T
  0.0562372460904184  0.5891292370607190  0.0936040337058749   T   T   T
  0.9338110946211521  0.6732953242853295  0.0939895765059246   T   T   T
  0.0562376811140504  0.4231879858032320  0.0936121837347992   T   T   T
  0.9318250133517522  0.8405008871199205  0.0940799584308422   T   T   T
  0.3060900128429196  0.0902705087238631  0.0948559034162268   T   T   T
  0.1806179255407475  0.1718197881682293  0.0941316722477866   T   T   T
  0.3060738935257375  0.9220384219218689  0.0948609491056232   T   T   T
  0.1786565182285020  0.3390196576930097  0.0940704879274946   T   T   T
  0.3009946605453329  0.5913690532263244  0.0950073959389638   T   T   T
  0.1786559521261103  0.6732998746488716  0.0940819284959555   T   T   T
  0.3010063494295740  0.4209172543166122  0.0949881743553311   T   T   T
  0.1805992000781204  0.8405059909060394  0.0941410939630383   T   T   T
  0.5562108132015025  0.0933280239055333  0.0958954027973086   T   T   T
  0.4294166159656860  0.1780260170570600  0.0956542105570153   T   T   T
  0.5561974197007179  0.9189622498680561  0.0958982883596648   T   T   T
  0.4293923767538501  0.8342756677092570  0.0956661521787119   T   T   T
  0.8063503776354045  0.0902652603475326  0.0948217365179894   T   T   T
  0.6830271651470384  0.1780224774817545  0.0956356352252969   T   T   T
  0.8063430322796932  0.9220374804835307  0.0948047230368923   T   T   T
  0.8114968013552646  0.5913716313539776  0.0948852530105136   T   T   T
  0.8114882707843925  0.4209242569565658  0.0949121869160901   T   T   T
  0.6830218445585682  0.8342846943244246  0.0956039853718090   T   T   T
  0.4206258479031285  0.3398665050613919  0.0959054850512014   T   T   T
  0.4206003195940374  0.6724641676065767  0.0959183607978137   T   T   T
  0.6918942797859668  0.3398594975391220  0.0958528165145958   T   T   T
  0.6919106603363827  0.6724725796353250  0.0958251801798902   T   T   T
  0.5562728596585363  0.5062200889903348  0.0965196444915176   T   T   T
 
  0.00000000E+00  0.00000000E+00  0.00000000E+00
  0.00000000E+00  0.00000000E+00  0.00000000E+00
  0.00000000E+00  0.00000000E+00  0.00000000E+00
  0.00000000E+00  0.00000000E+00  0.00000000E+00
  0.00000000E+00  0.00000000E+00  0.00000000E+00
  0.00000000E+00  0.00000000E+00  0.00000000E+00
  0.00000000E+00  0.00000000E+00  0.00000000E+00
  0.00000000E+00  0.00000000E+00  0.00000000E+00
  0.00000000E+00  0.00000000E+00  0.00000000E+00
  0.00000000E+00  0.00000000E+00  0.00000000E+00
  0.00000000E+00  0.00000000E+00  0.00000000E+00
  0.00000000E+00  0.00000000E+00  0.00000000E+00
  0.00000000E+00  0.00000000E+00  0.00000000E+00
  0.00000000E+00  0.00000000E+00  0.00000000E+00
  0.00000000E+00  0.00000000E+00  0.00000000E+00
  0.00000000E+00  0.00000000E+00  0.00000000E+00
  0.00000000E+00  0.00000000E+00  0.00000000E+00
  0.00000000E+00  0.00000000E+00  0.00000000E+00
  0.00000000E+00  0.00000000E+00  0.00000000E+00
  0.00000000E+00  0.00000000E+00  0.00000000E+00
  0.00000000E+00  0.00000000E+00  0.00000000E+00
  0.00000000E+00  0.00000000E+00  0.00000000E+00
  0.00000000E+00  0.00000000E+00  0.00000000E+00
  0.00000000E+00  0.00000000E+00  0.00000000E+00
  0.00000000E+00  0.00000000E+00  0.00000000E+00
  0.00000000E+00  0.00000000E+00  0.00000000E+00
  0.00000000E+00  0.00000000E+00  0.00000000E+00
  0.00000000E+00  0.00000000E+00  0.00000000E+00
  0.00000000E+00  0.00000000E+00  0.00000000E+00
  0.00000000E+00  0.00000000E+00  0.00000000E+00
  0.00000000E+00  0.00000000E+00  0.00000000E+00
