Title                                   
   1.00000000000000     
     9.8694509999999998    0.0000000000000000    0.0000000000000000
     0.0000000000000000    8.5490480000000009    0.0000000000000000
     0.0000000000000000    0.0000000000000000   20.0000000000000000
    28     2     1
Selective dynamics
Direct
  0.0550947026115270  0.0892790977069716  0.0868474731819444   T   T   T
  0.9297248879861066  0.1743239513189243  0.0872815230311894   T   T   T
  0.0572785259432922  0.9230261610219159  0.0868597784758728   T   T   T
  0.9315553429764530  0.3414116910793492  0.0870111131612498   T   T   T
  0.0567290033063084  0.5894159125668220  0.0855365120041213   T   T   T
  0.9340700740995905  0.6762225954731325  0.0885584115187862   T   T   T
  0.0557335957208013  0.4229071171528305  0.0855372596849708   T   T   T
  0.9327971339870970  0.8427560344035026  0.0893598613193089   T   T   T
  0.3057069630462612  0.0870382979070272  0.0934979429197023   T   T   T
  0.1796206402242549  0.1695312912418613  0.0894456440848275   T   T   T
  0.3085694280669679  0.9187424912906494  0.0914469954688846   T   T   T
  0.1784186171680954  0.3360793095336719  0.0886725480730710   T   T   T
  0.3035536340261318  0.5844311847963062  0.0919743029351997   T   T   T
  0.1808823207435911  0.6709151905833244  0.0871083682094250   T   T   T
  0.3005501656431313  0.4161234899480719  0.0957539198526725   T   T   T
  0.1826726776845461  0.8380110282026955  0.0873776285816547   T   T   T
  0.5547135584680442  0.0914610769621442  0.1006280268788259   T   T   T
  0.4273543695961066  0.1739536934824135  0.1014786825223855   T   T   T
  0.5576836661426146  0.9208122643843221  0.1006048230044801   T   T   T
  0.4290142470249889  0.6636638466469876  0.0970736494941722   T   T   T
  0.4338427601032072  0.8321715123146249  0.0963818880983979   T   T   T
  0.8038544540240388  0.0935419274802069  0.0913169504601922   T   T   T
  0.6785606759502224  0.1800514351801775  0.0962763805651668   T   T   T
  0.8067189613203063  0.9252728110910962  0.0933501293940896   T   T   T
  0.6833937079877883  0.3485875376192074  0.0968682253253368   T   T   T
  0.8119659124053209  0.5961693558039165  0.0955090384307164   T   T   T
  0.8088592378281505  0.4278673837762968  0.0917702767705547   T   T   T
  0.6850796453323380  0.8384182044398178  0.1012980513375321   T   T   T
  0.4196224946955328  0.3364738004510983  0.1094316155789620   T   T   T
  0.6929615561853553  0.6759249615951147  0.1091757392989851   T   T   T
  0.5565520397018384  0.5062903445455335  0.1375322403373627   T   T   T
 
  0.00000000E+00  0.00000000E+00  0.00000000E+00
  0.00000000E+00  0.00000000E+00  0.00000000E+00
  0.00000000E+00  0.00000000E+00  0.00000000E+00
  0.00000000E+00  0.00000000E+00  0.00000000E+00
  0.00000000E+00  0.00000000E+00  0.00000000E+00
  0.00000000E+00  0.00000000E+00  0.00000000E+00
  0.00000000E+00  0.00000000E+00  0.00000000E+00
  0.00000000E+00  0.00000000E+00  0.00000000E+00
  0.00000000E+00  0.00000000E+00  0.00000000E+00
  0.00000000E+00  0.00000000E+00  0.00000000E+00
  0.00000000E+00  0.00000000E+00  0.00000000E+00
  0.00000000E+00  0.00000000E+00  0.00000000E+00
  0.00000000E+00  0.00000000E+00  0.00000000E+00
  0.00000000E+00  0.00000000E+00  0.00000000E+00
  0.00000000E+00  0.00000000E+00  0.00000000E+00
  0.00000000E+00  0.00000000E+00  0.00000000E+00
  0.00000000E+00  0.00000000E+00  0.00000000E+00
  0.00000000E+00  0.00000000E+00  0.00000000E+00
  0.00000000E+00  0.00000000E+00  0.00000000E+00
  0.00000000E+00  0.00000000E+00  0.00000000E+00
  0.00000000E+00  0.00000000E+00  0.00000000E+00
  0.00000000E+00  0.00000000E+00  0.00000000E+00
  0.00000000E+00  0.00000000E+00  0.00000000E+00
  0.00000000E+00  0.00000000E+00  0.00000000E+00
  0.00000000E+00  0.00000000E+00  0.00000000E+00
  0.00000000E+00  0.00000000E+00  0.00000000E+00
  0.00000000E+00  0.00000000E+00  0.00000000E+00
  0.00000000E+00  0.00000000E+00  0.00000000E+00
  0.00000000E+00  0.00000000E+00  0.00000000E+00
  0.00000000E+00  0.00000000E+00  0.00000000E+00
  0.00000000E+00  0.00000000E+00  0.00000000E+00
