Title                                   
   1.00000000000000     
     4.9440799999999996    0.0000000000000000    0.0000000000000000
     0.0000000000000000    8.5647549999999999    0.0000000000000000
     0.0000000000000000    0.0000000000000000   20.0000000000000000
    11     3     1
Selective dynamics
Direct
  0.0007381118339561  0.2920406374946971  0.1004375313324573   T   T   T
  0.2501720629625208  0.0408535882746062  0.1006525056057339   T   T   T
 -0.0012692566142535  0.9566417224717538  0.1006359179615243   T   T   T
  0.7518966212972450  0.2070574677249279  0.1004513351658319   T   T   T
  0.5018827520762278  0.2937798402076977  0.1004377916332732   T   T   T
  0.7500004068243348  0.0410920604442098  0.1005591774666763   T   T   T
  0.7472481348217737  0.7116827335013735  0.1004750688235676   T   T   T
  0.7507306749525661  0.5366572791781143  0.1004074008769857   T   T   T
  0.4990298939163697  0.9593893619460400  0.1005788062034174   T   T   T
  0.5122151449567816  0.7950253545250461  0.1004583929631662   T   T   T
 -0.0117823728879394  0.4539066705694346  0.1004429341722623   T   T   T
  0.5113313120975195  0.4529080262617386  0.1004914178079976   T   T   T
 -0.0129299285199076  0.7945805401968339  0.1007486133898910   T   T   T
  0.2514026957276900  0.2104934148674246  0.1005514259415511   T   T   T
  0.2493337465551148  0.6255723023361037  0.1006516806556677   T   T   T
 
  0.00000000E+00  0.00000000E+00  0.00000000E+00
  0.00000000E+00  0.00000000E+00  0.00000000E+00
  0.00000000E+00  0.00000000E+00  0.00000000E+00
  0.00000000E+00  0.00000000E+00  0.00000000E+00
  0.00000000E+00  0.00000000E+00  0.00000000E+00
  0.00000000E+00  0.00000000E+00  0.00000000E+00
  0.00000000E+00  0.00000000E+00  0.00000000E+00
  0.00000000E+00  0.00000000E+00  0.00000000E+00
  0.00000000E+00  0.00000000E+00  0.00000000E+00
  0.00000000E+00  0.00000000E+00  0.00000000E+00
  0.00000000E+00  0.00000000E+00  0.00000000E+00
  0.00000000E+00  0.00000000E+00  0.00000000E+00
  0.00000000E+00  0.00000000E+00  0.00000000E+00
  0.00000000E+00  0.00000000E+00  0.00000000E+00
  0.00000000E+00  0.00000000E+00  0.00000000E+00
