Title                                   
   1.00000000000000     
     9.8694509999999998    0.0000000000000000    0.0000000000000000
     0.0000000000000000    8.5490480000000009    0.0000000000000000
     0.0000000000000000    0.0000000000000000   20.0000000000000000
    27     3     1
Selective dynamics
Direct
  0.0563803082238132  0.0902942509699918  0.0869169463793794   T   T   T
  0.9306569823332868  0.1735773969018236  0.0883226365418867   T   T   T
  0.0567884880856730  0.9234561770864275  0.0866575033471605   T   T   T
  0.9323993144333652  0.3406952373287834  0.0883910319431070   T   T   T
  0.0567598394243610  0.5894185372142406  0.0857724569398774   T   T   T
  0.9330886095344259  0.6744575320798537  0.0883197031748080   T   T   T
  0.0566888737946202  0.4231965148951787  0.0859059930707306   T   T   T
  0.9320145845636917  0.8411184486643301  0.0883407787654431   T   T   T
  0.3063917922599207  0.0892348080009103  0.0921032750962737   T   T   T
  0.1807332590146677  0.1719773008021410  0.0886389282939347   T   T   T
  0.3065844774997998  0.9212665573454180  0.0912823080840319   T   T   T
  0.1805557891731515  0.3397544522273231  0.0882791182434116   T   T   T
  0.3047233031554185  0.5901337035473053  0.0925770332080496   T   T   T
  0.1804534236769884  0.6720100991392680  0.0874814376838964   T   T   T
  0.3045955417201293  0.4201596570540569  0.0941112052794683   T   T   T
  0.1811236648702460  0.8397202553332319  0.0877615572642766   T   T   T
  0.5547506258579689  0.0895868798194551  0.1000175679674720   T   T   T
  0.4293445016738022  0.1749667720059283  0.0986448234228223   T   T   T
  0.5555676253458031  0.9179891537048979  0.0994036788430857   T   T   T
  0.4296746457625663  0.8333333899840070  0.0965760435392090   T   T   T
  0.8055488527606719  0.0907360845846160  0.0918821992897187   T   T   T
  0.6811646782225640  0.1756770346671812  0.0986245416301632   T   T   T
  0.8066291374138875  0.9227784243926911  0.0919919538302744   T   T   T
  0.6856035025358662  0.3416632132778865  0.1031431099539199   T   T   T
  0.8098674283509417  0.5943328600262127  0.0951769768224228   T   T   T
  0.8082295800756033  0.4236088654252364  0.0951715380648825   T   T   T
  0.6838943667502237  0.8356542634956211  0.0984561484484458   T   T   T
  0.4245284112183439  0.3386339804740937  0.1035103839585160   T   T   T
  0.6901240473148943  0.6741635277340398  0.1031340492642354   T   T   T
  0.4250359392206866  0.6711191739805370  0.0989923836981301   T   T   T
  0.5532334057326272  0.5061604478373247  0.1453776879510077   T   T   T
 
  0.00000000E+00  0.00000000E+00  0.00000000E+00
  0.00000000E+00  0.00000000E+00  0.00000000E+00
  0.00000000E+00  0.00000000E+00  0.00000000E+00
  0.00000000E+00  0.00000000E+00  0.00000000E+00
  0.00000000E+00  0.00000000E+00  0.00000000E+00
  0.00000000E+00  0.00000000E+00  0.00000000E+00
  0.00000000E+00  0.00000000E+00  0.00000000E+00
  0.00000000E+00  0.00000000E+00  0.00000000E+00
  0.00000000E+00  0.00000000E+00  0.00000000E+00
  0.00000000E+00  0.00000000E+00  0.00000000E+00
  0.00000000E+00  0.00000000E+00  0.00000000E+00
  0.00000000E+00  0.00000000E+00  0.00000000E+00
  0.00000000E+00  0.00000000E+00  0.00000000E+00
  0.00000000E+00  0.00000000E+00  0.00000000E+00
  0.00000000E+00  0.00000000E+00  0.00000000E+00
  0.00000000E+00  0.00000000E+00  0.00000000E+00
  0.00000000E+00  0.00000000E+00  0.00000000E+00
  0.00000000E+00  0.00000000E+00  0.00000000E+00
  0.00000000E+00  0.00000000E+00  0.00000000E+00
  0.00000000E+00  0.00000000E+00  0.00000000E+00
  0.00000000E+00  0.00000000E+00  0.00000000E+00
  0.00000000E+00  0.00000000E+00  0.00000000E+00
  0.00000000E+00  0.00000000E+00  0.00000000E+00
  0.00000000E+00  0.00000000E+00  0.00000000E+00
  0.00000000E+00  0.00000000E+00  0.00000000E+00
  0.00000000E+00  0.00000000E+00  0.00000000E+00
  0.00000000E+00  0.00000000E+00  0.00000000E+00
  0.00000000E+00  0.00000000E+00  0.00000000E+00
  0.00000000E+00  0.00000000E+00  0.00000000E+00
  0.00000000E+00  0.00000000E+00  0.00000000E+00
  0.00000000E+00  0.00000000E+00  0.00000000E+00
