Title                                   
   1.00000000000000     
     9.8694509999999998    0.0000000000000000    0.0000000000000000
     0.0000000000000000    8.5490480000000009    0.0000000000000000
     0.0000000000000000    0.0000000000000000   20.0000000000000000
    28     3     1
Selective dynamics
Direct
  0.0562753129376410  0.0914513511857625  0.0822208718867453   T   T   T
  0.9306980820262148  0.1743270862809602  0.0848673596770902   T   T   T
  0.0573292416031634  0.9237433469913160  0.0822567418440242   T   T   T
  0.9295632456158314  0.3417878485360234  0.0888639007265762   T   T   T
  0.0555666390803388  0.5894768630063758  0.0855214150036406   T   T   T
  0.9320723267097855  0.6737420006817232  0.0883220594531141   T   T   T
  0.0562652172155196  0.4234278167198178  0.0873656457133655   T   T   T
  0.9321818615568728  0.8409784961732349  0.0853112659518466   T   T   T
  0.3055635388242256  0.0881426540169893  0.0850050558553196   T   T   T
  0.1822299232998914  0.1741896962089572  0.0843520589107135   T   T   T
  0.3077163410648581  0.9224752089986127  0.0865326969744575   T   T   T
  0.1818491634423134  0.3402425901761275  0.0886521115274601   T   T   T
  0.3033776265948126  0.5884487123915750  0.0995199721392021   T   T   T
  0.1811726156652391  0.6711031187705149  0.0870818038377130   T   T   T
  0.1822773558990187  0.8382671650556217  0.0846976808145878   T   T   T
  0.5560624442488006  0.0856569863728529  0.0943260332773091   T   T   T
  0.4300898535046143  0.1691511045445121  0.0921994066744541   T   T   T
  0.4288261948067346  0.3339448573739083  0.1024526578285311   T   T   T
  0.4295139650410698  0.8391750417269576  0.0989163940187786   T   T   T
  0.8069314850613377  0.0899433232276545  0.0858506932300883   T   T   T
  0.6810627538921038  0.1698326030153707  0.0933552748404519   T   T   T
  0.8069237937660846  0.9244644857336191  0.0868805251692892   T   T   T
  0.6798085473424154  0.3337828248599542  0.1039791836458659   T   T   T
  0.8088603761665871  0.5938853001406554  0.1005302354834266   T   T   T
  0.8035137413182456  0.4250446433497940  0.0986308267097247   T   T   T
  0.6845084111384574  0.8413326577951021  0.0983231819721738   T   T   T
  0.4192921561259852  0.6788015163443691  0.1200497437006058   T   T   T
  0.5526423319192532  0.4049357165170329  0.1223228144768076   T   T   T
  0.6952561436165131  0.6863977020710696  0.1180754709444072   T   T   T
  0.5569416526301721  0.9189357417839844  0.0974986281909004   T   T   T
  0.3054732615698825  0.4219763344145316  0.0972030880546198   T   T   T
  0.5597933963160239  0.5911812055350212  0.1745102014667259   T   T   T
 
  0.00000000E+00  0.00000000E+00  0.00000000E+00
  0.00000000E+00  0.00000000E+00  0.00000000E+00
  0.00000000E+00  0.00000000E+00  0.00000000E+00
  0.00000000E+00  0.00000000E+00  0.00000000E+00
  0.00000000E+00  0.00000000E+00  0.00000000E+00
  0.00000000E+00  0.00000000E+00  0.00000000E+00
  0.00000000E+00  0.00000000E+00  0.00000000E+00
  0.00000000E+00  0.00000000E+00  0.00000000E+00
  0.00000000E+00  0.00000000E+00  0.00000000E+00
  0.00000000E+00  0.00000000E+00  0.00000000E+00
  0.00000000E+00  0.00000000E+00  0.00000000E+00
  0.00000000E+00  0.00000000E+00  0.00000000E+00
  0.00000000E+00  0.00000000E+00  0.00000000E+00
  0.00000000E+00  0.00000000E+00  0.00000000E+00
  0.00000000E+00  0.00000000E+00  0.00000000E+00
  0.00000000E+00  0.00000000E+00  0.00000000E+00
  0.00000000E+00  0.00000000E+00  0.00000000E+00
  0.00000000E+00  0.00000000E+00  0.00000000E+00
  0.00000000E+00  0.00000000E+00  0.00000000E+00
  0.00000000E+00  0.00000000E+00  0.00000000E+00
  0.00000000E+00  0.00000000E+00  0.00000000E+00
  0.00000000E+00  0.00000000E+00  0.00000000E+00
  0.00000000E+00  0.00000000E+00  0.00000000E+00
  0.00000000E+00  0.00000000E+00  0.00000000E+00
  0.00000000E+00  0.00000000E+00  0.00000000E+00
  0.00000000E+00  0.00000000E+00  0.00000000E+00
  0.00000000E+00  0.00000000E+00  0.00000000E+00
  0.00000000E+00  0.00000000E+00  0.00000000E+00
  0.00000000E+00  0.00000000E+00  0.00000000E+00
  0.00000000E+00  0.00000000E+00  0.00000000E+00
  0.00000000E+00  0.00000000E+00  0.00000000E+00
  0.00000000E+00  0.00000000E+00  0.00000000E+00
