Title                                   
   1.00000000000000     
     9.8694509999999998    0.0000000000000000    0.0000000000000000
     0.0000000000000000    8.5490480000000009    0.0000000000000000
     0.0000000000000000    0.0000000000000000   20.0000000000000000
    29     1     1
Selective dynamics
Direct
  0.0551912933776200  0.0882035229649633  0.0813245511701556   T   T   T
  0.9308737818517960  0.1719065018656060  0.0841010275032110   T   T   T
  0.0564072570746009  0.9223676518328797  0.0817539766782416   T   T   T
  0.9336538556000101  0.3387610260835106  0.0829388732454595   T   T   T
  0.0568294698751084  0.5894000575070072  0.0788866591227957   T   T   T
  0.9337390049909464  0.6745200771064593  0.0839056289354439   T   T   T
  0.0568051552309132  0.4227776595818908  0.0784146375499221   T   T   T
  0.9314036522105635  0.8408333823227541  0.0849886224249052   T   T   T
  0.3044312962057960  0.0891260655741333  0.0924164116541962   T   T   T
  0.1800102482543113  0.1708280964065688  0.0840763690625074   T   T   T
  0.3061683259623000  0.9215782944782019  0.0922989081594355   T   T   T
  0.1794709984483227  0.3369409188441890  0.0826513022766730   T   T   T
  0.3026472206035646  0.5881406240698708  0.0939752721545129   T   T   T
  0.1808969343285055  0.6719407054404819  0.0832595668661966   T   T   T
  0.3010276513165411  0.4171478677174958  0.0949081997244692   T   T   T
  0.1816120918058194  0.8389714498143254  0.0842633402357723   T   T   T
  0.5547739807622786  0.0925198655483823  0.1069640582939876   T   T   T
  0.4252297795933649  0.1768523652831726  0.1038533252761377   T   T   T
  0.5556436455877416  0.9249864077619456  0.1072039465693424   T   T   T
  0.4228090598791575  0.6713610700664928  0.1073833990775272   T   T   T
  0.4294410698510875  0.8372413008624584  0.1027246665472055   T   T   T
  0.8055396562734546  0.0905260551990561  0.0926799660596760   T   T   T
  0.6825960490716377  0.1778612659690158  0.1032867806578885   T   T   T
  0.8064085164317458  0.9230444687708590  0.0935017433474459   T   T   T
  0.6930576453463494  0.3425081667246821  0.1094970210363670   T   T   T
  0.8134534534325990  0.5920151924677741  0.0964496136157849   T   T   T
  0.6921431758103898  0.6724018178043755  0.1125596757696381   T   T   T
  0.8138340553059019  0.4229384499336494  0.0949714891891506   T   T   T
  0.6834939600571857  0.8375034049636493  0.1055302386085576   T   T   T
  0.4163233846348022  0.3363205440708605  0.1095109982520070   T   T   T
  0.5572193308255939  0.5093507229633011  0.1306847309354276   T   T   T
 
  0.00000000E+00  0.00000000E+00  0.00000000E+00
  0.00000000E+00  0.00000000E+00  0.00000000E+00
  0.00000000E+00  0.00000000E+00  0.00000000E+00
  0.00000000E+00  0.00000000E+00  0.00000000E+00
  0.00000000E+00  0.00000000E+00  0.00000000E+00
  0.00000000E+00  0.00000000E+00  0.00000000E+00
  0.00000000E+00  0.00000000E+00  0.00000000E+00
  0.00000000E+00  0.00000000E+00  0.00000000E+00
  0.00000000E+00  0.00000000E+00  0.00000000E+00
  0.00000000E+00  0.00000000E+00  0.00000000E+00
  0.00000000E+00  0.00000000E+00  0.00000000E+00
  0.00000000E+00  0.00000000E+00  0.00000000E+00
  0.00000000E+00  0.00000000E+00  0.00000000E+00
  0.00000000E+00  0.00000000E+00  0.00000000E+00
  0.00000000E+00  0.00000000E+00  0.00000000E+00
  0.00000000E+00  0.00000000E+00  0.00000000E+00
  0.00000000E+00  0.00000000E+00  0.00000000E+00
  0.00000000E+00  0.00000000E+00  0.00000000E+00
  0.00000000E+00  0.00000000E+00  0.00000000E+00
  0.00000000E+00  0.00000000E+00  0.00000000E+00
  0.00000000E+00  0.00000000E+00  0.00000000E+00
  0.00000000E+00  0.00000000E+00  0.00000000E+00
  0.00000000E+00  0.00000000E+00  0.00000000E+00
  0.00000000E+00  0.00000000E+00  0.00000000E+00
  0.00000000E+00  0.00000000E+00  0.00000000E+00
  0.00000000E+00  0.00000000E+00  0.00000000E+00
  0.00000000E+00  0.00000000E+00  0.00000000E+00
  0.00000000E+00  0.00000000E+00  0.00000000E+00
  0.00000000E+00  0.00000000E+00  0.00000000E+00
  0.00000000E+00  0.00000000E+00  0.00000000E+00
  0.00000000E+00  0.00000000E+00  0.00000000E+00
