Title                                   
   1.00000000000000     
     4.9440799999999996    0.0000000000000000    0.0000000000000000
     0.0000000000000000   17.1295089999999988    0.0000000000000000
     0.0000000000000000    0.0000000000000000   20.0000000000000000
    27     3     1
Selective dynamics
Direct
  0.0012750876874741  0.1048210745577348  0.2977844610977005   T   T   T
  0.2503541692333650  0.1477312978366417  0.2985636267467376   T   T   T
  0.2503373179214721  0.2318440952350809  0.3002475247828412   T   T   T
 -0.0040811876300749  0.2724184812786950  0.3012864769171577   T   T   T
 -0.0004606330649338  0.6035209173882792  0.3015166422153283   T   T   T
  0.2502883085063288  0.7271343890574387  0.2991795828103689   T   T   T
  0.0014150084715157  0.8535086274231121  0.2972214705716999   T   T   T
  0.2503032022765351  0.8955744909573481  0.2968081458904593   T   T   T
  0.2503172096239838  0.9791692728954623  0.2965531329445878   T   T   T
  0.0009837366087947  0.7696505314290384  0.2984319967977202   T   T   T
  0.4994252129687694  0.1048287481586326  0.2976786781617682   T   T   T
  0.7503776078739913  0.1458059539510926  0.2984087537428374   T   T   T
  0.7503951927882603  0.2291229899712512  0.3000028223447137   T   T   T
  0.4997420590154629  0.0210792031681293  0.2967225533495150   T   T   T
  0.7503265126161868  0.3909879517094767  0.3024242745836494   T   T   T
  0.7503481851543407  0.4808990069326030  0.3024662139574273   T   T   T
  0.5047734582232450  0.2724140434124089  0.3005661227995608   T   T   T
  0.5010312781893795  0.6035145360223436  0.3010619341292299   T   T   T
  0.7503147264373180  0.7289987877710385  0.2991432410468745   T   T   T
  0.4991818499971357  0.8534947523870290  0.2971817360986573   T   T   T
  0.7502775306491217  0.8951655902624143  0.2968686931211513   T   T   T
  0.7502829589191418  0.9791834083367652  0.2966141310161515   T   T   T
  0.4996233770111606  0.7696410785517819  0.2983572869474950   T   T   T
  0.7502954731255974  0.6460498324305798  0.3006227619219586   T   T   T
  0.0008885527355003  0.0210739732218778  0.2967735785525781   T   T   T
  0.5064410071907981  0.5218358942855551  0.3017403202350115   T   T   T
 -0.0057729780069841  0.5218432943064291  0.3028839592628874   T   T   T
  0.5173755452094055  0.3519478256461652  0.3010364743326239   T   T   T
 -0.0166941710609165  0.3519280135471366  0.3033882685083325   T   T   T
  0.2502810795368141  0.6458176859008571  0.3006238750128396   T   T   T
  0.2503603217918119  0.4403362519675964  0.3029012601000872   T   T   T
 
  0.00000000E+00  0.00000000E+00  0.00000000E+00
  0.00000000E+00  0.00000000E+00  0.00000000E+00
  0.00000000E+00  0.00000000E+00  0.00000000E+00
  0.00000000E+00  0.00000000E+00  0.00000000E+00
  0.00000000E+00  0.00000000E+00  0.00000000E+00
  0.00000000E+00  0.00000000E+00  0.00000000E+00
  0.00000000E+00  0.00000000E+00  0.00000000E+00
  0.00000000E+00  0.00000000E+00  0.00000000E+00
  0.00000000E+00  0.00000000E+00  0.00000000E+00
  0.00000000E+00  0.00000000E+00  0.00000000E+00
  0.00000000E+00  0.00000000E+00  0.00000000E+00
  0.00000000E+00  0.00000000E+00  0.00000000E+00
  0.00000000E+00  0.00000000E+00  0.00000000E+00
  0.00000000E+00  0.00000000E+00  0.00000000E+00
  0.00000000E+00  0.00000000E+00  0.00000000E+00
  0.00000000E+00  0.00000000E+00  0.00000000E+00
  0.00000000E+00  0.00000000E+00  0.00000000E+00
  0.00000000E+00  0.00000000E+00  0.00000000E+00
  0.00000000E+00  0.00000000E+00  0.00000000E+00
  0.00000000E+00  0.00000000E+00  0.00000000E+00
  0.00000000E+00  0.00000000E+00  0.00000000E+00
  0.00000000E+00  0.00000000E+00  0.00000000E+00
  0.00000000E+00  0.00000000E+00  0.00000000E+00
  0.00000000E+00  0.00000000E+00  0.00000000E+00
  0.00000000E+00  0.00000000E+00  0.00000000E+00
  0.00000000E+00  0.00000000E+00  0.00000000E+00
  0.00000000E+00  0.00000000E+00  0.00000000E+00
  0.00000000E+00  0.00000000E+00  0.00000000E+00
  0.00000000E+00  0.00000000E+00  0.00000000E+00
  0.00000000E+00  0.00000000E+00  0.00000000E+00
  0.00000000E+00  0.00000000E+00  0.00000000E+00
