Title                                   
   1.00000000000000     
     4.9440799999999996    0.0000000000000000    0.0000000000000000
     0.0000000000000000    8.5647549999999999    0.0000000000000000
     0.0000000000000000    0.0000000000000000   20.0000000000000000
    14     1
Selective dynamics
Direct
  0.2500000000000000  0.2068486105608223  0.0951368411126959   T   T   T
 -0.0010060519248221  0.2920412148031096  0.0950216425884839   T   T   T
  0.2500000000000000  0.0426964365858006  0.0951094890911001   T   T   T
 -0.0010060628182199  0.9575136458928348  0.0949874351756174   T   T   T
  0.7500000000000000  0.2081243603164785  0.0909169299522949   T   T   T
  0.5010060519248223  0.2920412148031096  0.0950216425884839   T   T   T
  0.7500000000000000  0.0414669718696553  0.0908998323744789   T   T   T
  0.7500000000000000  0.7120692634819472  0.1002497694015079   T   T   T
  0.7500000000000000  0.5374548122590617  0.1002631721217214   T   T   T
  0.5010060628182200  0.9575136458928348  0.0949874351756174   T   T   T
  0.5049830086426915  0.4561315379427215  0.1009529976114314   T   T   T
 -0.0049830086426915  0.4561315379427215  0.1009529976114314   T   T   T
 -0.0049722043480028  0.7934090599070501  0.1009368424394296   T   T   T
  0.5049722043480026  0.7934090599070501  0.1009368424394296   T   T   T
  0.2500000000000000  0.6248296278348048  0.1516061303162798   T   T   T
 
  0.00000000E+00  0.00000000E+00  0.00000000E+00
  0.00000000E+00  0.00000000E+00  0.00000000E+00
  0.00000000E+00  0.00000000E+00  0.00000000E+00
  0.00000000E+00  0.00000000E+00  0.00000000E+00
  0.00000000E+00  0.00000000E+00  0.00000000E+00
  0.00000000E+00  0.00000000E+00  0.00000000E+00
  0.00000000E+00  0.00000000E+00  0.00000000E+00
  0.00000000E+00  0.00000000E+00  0.00000000E+00
  0.00000000E+00  0.00000000E+00  0.00000000E+00
  0.00000000E+00  0.00000000E+00  0.00000000E+00
  0.00000000E+00  0.00000000E+00  0.00000000E+00
  0.00000000E+00  0.00000000E+00  0.00000000E+00
  0.00000000E+00  0.00000000E+00  0.00000000E+00
  0.00000000E+00  0.00000000E+00  0.00000000E+00
  0.00000000E+00  0.00000000E+00  0.00000000E+00
