Title                                   
   1.00000000000000     
     4.9440799999999996    0.0000000000000000    0.0000000000000000
     0.0000000000000000    8.5647549999999999    0.0000000000000000
     0.0000000000000000    0.0000000000000000   20.0000000000000000
    11     3     1
Selective dynamics
Direct
  0.0025085253144562  0.2927968666445233  0.0962021503424252   T   T   T
  0.2500000000000000  0.0375542106667866  0.0956280732929962   T   T   T
 -0.0012862882101599  0.9555804041290883  0.0956779102109618   T   T   T
  0.7500000000000000  0.2079644309899674  0.0931855637325278   T   T   T
  0.4974914746855438  0.2927968666445233  0.0962021503424252   T   T   T
  0.7500000000000000  0.0401821803666381  0.0936541061833953   T   T   T
  0.7500000000000000  0.7146771243214710  0.0980049728754270   T   T   T
  0.7500000000000000  0.5422946225574341  0.1003471540651560   T   T   T
  0.5012862882101599  0.9555804041290883  0.0956779102109618   T   T   T
  0.4990322560062300  0.4589800013352975  0.1035281692194428   T   T   T
  0.0009677439937699  0.4589800013352975  0.1035281692194428   T   T   T
 -0.0089821146816140  0.7917344733714455  0.0990533251384886   T   T   T
  0.5089821146816140  0.7917344733714455  0.0990533251384886   T   T   T
  0.2500000000000000  0.2074981783566081  0.0959806853678965   T   T   T
  0.2500000000000000  0.6233267617803876  0.1422563346599679   T   T   T
 
  0.00000000E+00  0.00000000E+00  0.00000000E+00
  0.00000000E+00  0.00000000E+00  0.00000000E+00
  0.00000000E+00  0.00000000E+00  0.00000000E+00
  0.00000000E+00  0.00000000E+00  0.00000000E+00
  0.00000000E+00  0.00000000E+00  0.00000000E+00
  0.00000000E+00  0.00000000E+00  0.00000000E+00
  0.00000000E+00  0.00000000E+00  0.00000000E+00
  0.00000000E+00  0.00000000E+00  0.00000000E+00
  0.00000000E+00  0.00000000E+00  0.00000000E+00
  0.00000000E+00  0.00000000E+00  0.00000000E+00
  0.00000000E+00  0.00000000E+00  0.00000000E+00
  0.00000000E+00  0.00000000E+00  0.00000000E+00
  0.00000000E+00  0.00000000E+00  0.00000000E+00
  0.00000000E+00  0.00000000E+00  0.00000000E+00
  0.00000000E+00  0.00000000E+00  0.00000000E+00
