Title                                   
   1.00000000000000     
     8.5490480000000009    0.0000000000000000    0.0000000000000000
     0.0000000000000000    8.5490480000000009    0.0000000000000000
     0.0000000000000000    0.0000000000000000   20.0000000000000000
    21     3     1
Selective dynamics
Direct
  0.9104342804677864  0.2057561855113995  0.0910774266272619   T   T   T
  0.9129725221467445  0.8009843242487265  0.0912643848077817   T   T   T
  0.1968689180744663  0.0816497337160341  0.0916108805074436   T   T   T
  0.0750496629461277  0.2005969149293978  0.0916379783073875   T   T   T
  0.1568922952622248  0.6503215412774315  0.0957131008314647   T   T   T
  0.0766481634368332  0.5003324882370551  0.0962064054637415   T   T   T
  0.1567331818645682  0.3523758964158029  0.0964491923046291   T   T   T
  0.0778405435013548  0.8003155206575366  0.0914001248235101   T   T   T
  0.3448563761231466  0.1634556027183074  0.0960486350860631   T   T   T
  0.4931312471771709  0.9196054352320694  0.0961819645550562   T   T   T
  0.3439888991194218  0.8379900395132329  0.0959795132706847   T   T   T
  0.7879699437913735  0.0842718211714023  0.0910554152719249   T   T   T
  0.6386223017442402  0.1669841513123104  0.0958532803405022   T   T   T
  0.7903869221685905  0.9208449443569984  0.0914739457258082   T   T   T
  0.8311540035317709  0.6503737371905505  0.0958905644870666   T   T   T
  0.8286929938076711  0.3550182416001652  0.0957909597777522   T   T   T
  0.6403222377646354  0.8382524174236664  0.0963582243050633   T   T   T
  0.3224932602975765  0.3278184084477611  0.1017790972492130   T   T   T
  0.3214172197752037  0.6751460380985155  0.0998421662689730   T   T   T
  0.6630099584550498  0.3320580333880541  0.1028195827717639   T   T   T
  0.6669692763608360  0.6723414274675711  0.1023155625979141   T   T   T
  0.4938297947636474  0.0855693773638739  0.0958928626864691   T   T   T
  0.9097549016292652  0.5016313644690801  0.0959358041958789   T   T   T
  0.1953723831392672  0.9174469559851685  0.0913271003581205   T   T   T
  0.4900007126510134  0.5036493992678948  0.1538008273785057   T   T   T
 
  0.00000000E+00  0.00000000E+00  0.00000000E+00
  0.00000000E+00  0.00000000E+00  0.00000000E+00
  0.00000000E+00  0.00000000E+00  0.00000000E+00
  0.00000000E+00  0.00000000E+00  0.00000000E+00
  0.00000000E+00  0.00000000E+00  0.00000000E+00
  0.00000000E+00  0.00000000E+00  0.00000000E+00
  0.00000000E+00  0.00000000E+00  0.00000000E+00
  0.00000000E+00  0.00000000E+00  0.00000000E+00
  0.00000000E+00  0.00000000E+00  0.00000000E+00
  0.00000000E+00  0.00000000E+00  0.00000000E+00
  0.00000000E+00  0.00000000E+00  0.00000000E+00
  0.00000000E+00  0.00000000E+00  0.00000000E+00
  0.00000000E+00  0.00000000E+00  0.00000000E+00
  0.00000000E+00  0.00000000E+00  0.00000000E+00
  0.00000000E+00  0.00000000E+00  0.00000000E+00
  0.00000000E+00  0.00000000E+00  0.00000000E+00
  0.00000000E+00  0.00000000E+00  0.00000000E+00
  0.00000000E+00  0.00000000E+00  0.00000000E+00
  0.00000000E+00  0.00000000E+00  0.00000000E+00
  0.00000000E+00  0.00000000E+00  0.00000000E+00
  0.00000000E+00  0.00000000E+00  0.00000000E+00
  0.00000000E+00  0.00000000E+00  0.00000000E+00
  0.00000000E+00  0.00000000E+00  0.00000000E+00
  0.00000000E+00  0.00000000E+00  0.00000000E+00
  0.00000000E+00  0.00000000E+00  0.00000000E+00
