Title                                   
   1.00000000000000     
     9.8694509999999998    0.0000000000000000    0.0000000000000000
     0.0000000000000000    8.5490480000000009    0.0000000000000000
     0.0000000000000000    0.0000000000000000   20.0000000000000000
    25     6     1
Selective dynamics
Direct
  0.0558283744771994  0.0914894134383593  0.0848990995743038   T   T   T
  0.9309935556740712  0.1748649027963529  0.0850095088275921   T   T   T
  0.0572486838106839  0.9233627599314074  0.0857563176259066   T   T   T
  0.9299479075169627  0.3417216052480446  0.0876024434339660   T   T   T
  0.0566643680096000  0.5914606106812992  0.0869945128522596   T   T   T
  0.0561493465437746  0.4240716015250261  0.0874748548707832   T   T   T
  0.9328472544516361  0.8401306021534590  0.0872111407101983   T   T   T
  0.3059301139096077  0.0888830713135304  0.0885203471137702   T   T   T
  0.1822413070230800  0.1737243270822803  0.0869680795549238   T   T   T
  0.1825426465473837  0.3412687929187381  0.0890444665912148   T   T   T
  0.3034529474699614  0.5914105923634435  0.1000102636166853   T   T   T
  0.1802756818086182  0.6743392732826463  0.0899340022631457   T   T   T
  0.3101915608575265  0.4230904671101652  0.0967653169783952   T   T   T
  0.1816613580112391  0.8423369215371278  0.0888182773451235   T   T   T
  0.5559810447711799  0.0849542998335141  0.0925333718481303   T   T   T
  0.5547678323898156  0.9177550787665445  0.0977157685326183   T   T   T
  0.4319235603855975  0.3313477189568291  0.1003141069689796   T   T   T
  0.4257685345301462  0.8399466186425962  0.1012629026222424   T   T   T
  0.8064906254401244  0.0887699113413599  0.0852770667291048   T   T   T
  0.6800353177097104  0.1694288447447517  0.0892698077890304   T   T   T
  0.8079738868945801  0.9228006243068280  0.0879708468577333   T   T   T
  0.6800450208026015  0.3349908678210195  0.0977253444674670   T   T   T
  0.8100954575194436  0.5942844168102095  0.0985933979206178   T   T   T
  0.8030737479890203  0.4257435340900633  0.0949453489022516   T   T   T
  0.6843668688184322  0.8400951909826190  0.0982713964471630   T   T   T
  0.4138856851775258  0.6853109292161431  0.1183195563297864   T   T   T
  0.5548501217376237  0.3985927256158633  0.1154554163273118   T   T   T
  0.6984793242126477  0.6823051248286360  0.1146529814251135   T   T   T
  0.3056280334223345  0.9251414862380546  0.0905725820077808   T   T   T
  0.4297538690694937  0.1668305564400481  0.0924506834176484   T   T   T
  0.9328325069065107  0.6728199632172097  0.0885630409805782   T   T   T
  0.5577124561118731  0.5869731667658329  0.1767727490681902   T   T   T
 
  0.00000000E+00  0.00000000E+00  0.00000000E+00
  0.00000000E+00  0.00000000E+00  0.00000000E+00
  0.00000000E+00  0.00000000E+00  0.00000000E+00
  0.00000000E+00  0.00000000E+00  0.00000000E+00
  0.00000000E+00  0.00000000E+00  0.00000000E+00
  0.00000000E+00  0.00000000E+00  0.00000000E+00
  0.00000000E+00  0.00000000E+00  0.00000000E+00
  0.00000000E+00  0.00000000E+00  0.00000000E+00
  0.00000000E+00  0.00000000E+00  0.00000000E+00
  0.00000000E+00  0.00000000E+00  0.00000000E+00
  0.00000000E+00  0.00000000E+00  0.00000000E+00
  0.00000000E+00  0.00000000E+00  0.00000000E+00
  0.00000000E+00  0.00000000E+00  0.00000000E+00
  0.00000000E+00  0.00000000E+00  0.00000000E+00
  0.00000000E+00  0.00000000E+00  0.00000000E+00
  0.00000000E+00  0.00000000E+00  0.00000000E+00
  0.00000000E+00  0.00000000E+00  0.00000000E+00
  0.00000000E+00  0.00000000E+00  0.00000000E+00
  0.00000000E+00  0.00000000E+00  0.00000000E+00
  0.00000000E+00  0.00000000E+00  0.00000000E+00
  0.00000000E+00  0.00000000E+00  0.00000000E+00
  0.00000000E+00  0.00000000E+00  0.00000000E+00
  0.00000000E+00  0.00000000E+00  0.00000000E+00
  0.00000000E+00  0.00000000E+00  0.00000000E+00
  0.00000000E+00  0.00000000E+00  0.00000000E+00
  0.00000000E+00  0.00000000E+00  0.00000000E+00
  0.00000000E+00  0.00000000E+00  0.00000000E+00
  0.00000000E+00  0.00000000E+00  0.00000000E+00
  0.00000000E+00  0.00000000E+00  0.00000000E+00
  0.00000000E+00  0.00000000E+00  0.00000000E+00
  0.00000000E+00  0.00000000E+00  0.00000000E+00
  0.00000000E+00  0.00000000E+00  0.00000000E+00
