Title                                   
   1.00000000000000     
     9.8694509999999998    0.0000000000000000    0.0000000000000000
     0.0000000000000000    8.5490480000000009    0.0000000000000000
     0.0000000000000000    0.0000000000000000   20.0000000000000000
    28     3     1
Selective dynamics
Direct
  0.0569916757100822  0.0914775570481488  0.0843312876985335   T   T   T
  0.9317945254807082  0.1737737949427308  0.0872779268897959   T   T   T
  0.0562931599306456  0.9241654311333044  0.0839046917820012   T   T   T
  0.9313133650398467  0.3403708425038834  0.0926289523008160   T   T   T
  0.0566294731122081  0.5898431700880230  0.0886528221985372   T   T   T
  0.9317374875435465  0.6726647347008126  0.0918974231772443   T   T   T
  0.0575156566422850  0.4231635625794007  0.0906586809523514   T   T   T
  0.9312273903225127  0.8394437962000025  0.0876998076057979   T   T   T
  0.3060500740912381  0.0903075778270258  0.0852437884824015   T   T   T
  0.1824664507732414  0.1755840357567085  0.0859492380604572   T   T   T
  0.3060702458393106  0.9255978091579032  0.0845618408238043   T   T   T
  0.1842384640601835  0.3420085377953090  0.0897681417989176   T   T   T
  0.3071021723110297  0.5953172068801359  0.0934462151922097   T   T   T
  0.1807043604899444  0.6740629884941753  0.0870686827964334   T   T   T
  0.3123743279378415  0.4262819865518186  0.0937128590221993   T   T   T
  0.1809677970555968  0.8406173194886905  0.0843596179226062   T   T   T
  0.5565622125948987  0.0852306247630149  0.0932845413582009   T   T   T
  0.4324589424411203  0.1693058576036697  0.0900329715880774   T   T   T
  0.4357031092340709  0.3345167083235368  0.0953250356591522   T   T   T
  0.4291122437999045  0.8410296040672715  0.0922752688563951   T   T   T
  0.8078570053073671  0.0886384392136032  0.0872976603630175   T   T   T
  0.6820571987428755  0.1678153782135209  0.0922766133441997   T   T   T
  0.8061199165956450  0.9229916575984232  0.0884624351374665   T   T   T
  0.6811534392183376  0.3332959771685624  0.0993711559161461   T   T   T
  0.8075528579853711  0.5920083281679194  0.1050209535912969   T   T   T
  0.6891028138621538  0.6819704988779396  0.1194629812533614   T   T   T
  0.8051673790622695  0.4227699209972478  0.1010397785365834   T   T   T
  0.6834639255927071  0.8386732182600797  0.1004566021059770   T   T   T
  0.4245779166583888  0.6844270337238272  0.1013759753667606   T   T   T
  0.5584328750525188  0.4067159676249563  0.1073758631668282   T   T   T
  0.5552336073758138  0.9203536778327447  0.0967093697245322   T   T   T
  0.5316069301363430  0.5758227564156172  0.1847458173279328   T   T   T
 
  0.00000000E+00  0.00000000E+00  0.00000000E+00
  0.00000000E+00  0.00000000E+00  0.00000000E+00
  0.00000000E+00  0.00000000E+00  0.00000000E+00
  0.00000000E+00  0.00000000E+00  0.00000000E+00
  0.00000000E+00  0.00000000E+00  0.00000000E+00
  0.00000000E+00  0.00000000E+00  0.00000000E+00
  0.00000000E+00  0.00000000E+00  0.00000000E+00
  0.00000000E+00  0.00000000E+00  0.00000000E+00
  0.00000000E+00  0.00000000E+00  0.00000000E+00
  0.00000000E+00  0.00000000E+00  0.00000000E+00
  0.00000000E+00  0.00000000E+00  0.00000000E+00
  0.00000000E+00  0.00000000E+00  0.00000000E+00
  0.00000000E+00  0.00000000E+00  0.00000000E+00
  0.00000000E+00  0.00000000E+00  0.00000000E+00
  0.00000000E+00  0.00000000E+00  0.00000000E+00
  0.00000000E+00  0.00000000E+00  0.00000000E+00
  0.00000000E+00  0.00000000E+00  0.00000000E+00
  0.00000000E+00  0.00000000E+00  0.00000000E+00
  0.00000000E+00  0.00000000E+00  0.00000000E+00
  0.00000000E+00  0.00000000E+00  0.00000000E+00
  0.00000000E+00  0.00000000E+00  0.00000000E+00
  0.00000000E+00  0.00000000E+00  0.00000000E+00
  0.00000000E+00  0.00000000E+00  0.00000000E+00
  0.00000000E+00  0.00000000E+00  0.00000000E+00
  0.00000000E+00  0.00000000E+00  0.00000000E+00
  0.00000000E+00  0.00000000E+00  0.00000000E+00
  0.00000000E+00  0.00000000E+00  0.00000000E+00
  0.00000000E+00  0.00000000E+00  0.00000000E+00
  0.00000000E+00  0.00000000E+00  0.00000000E+00
  0.00000000E+00  0.00000000E+00  0.00000000E+00
  0.00000000E+00  0.00000000E+00  0.00000000E+00
  0.00000000E+00  0.00000000E+00  0.00000000E+00
