Title                                   
   1.00000000000000     
     9.8694509999999998    0.0000000000000000    0.0000000000000000
     0.0000000000000000    8.5490480000000009    0.0000000000000000
     0.0000000000000000    0.0000000000000000   20.0000000000000000
    28     3     1
Selective dynamics
Direct
  0.0557854108517676  0.0915387149574068  0.0857207819469460   T   T   T
  0.9303584462563914  0.1751433132306640  0.0878371224087112   T   T   T
  0.0569071478421929  0.9234505370930959  0.0849067288069845   T   T   T
  0.9292835942546203  0.3420063375982398  0.0919150623771741   T   T   T
  0.0557301672324167  0.5897577622094354  0.0889974058850956   T   T   T
  0.9326244161976638  0.6740504384150100  0.0890057875324897   T   T   T
  0.0559035475146920  0.4229905738156814  0.0914041064953114   T   T   T
  0.9321024881615626  0.8411331171438056  0.0858118385042711   T   T   T
  0.3045043497812793  0.0870795219219434  0.0870229603672957   T   T   T
  0.1813819569584484  0.1734847057462792  0.0878837253575361   T   T   T
  0.3070740957655986  0.9215528663268919  0.0883509640641729   T   T   T
  0.1806057124599219  0.3398751412897805  0.0924322991803605   T   T   T
  0.3052207347280723  0.5889125513947486  0.1009637086343855   T   T   T
  0.1813899376663923  0.6706608685537706  0.0899790710414341   T   T   T
  0.1819136194482222  0.8377523130074240  0.0874399088213549   T   T   T
  0.5552918111323666  0.0868936419495761  0.0926612267495201   T   T   T
  0.4290918566256895  0.1684813828389747  0.0911298602069290   T   T   T
  0.4279173528941362  0.3340054568307727  0.0994872151859386   T   T   T
  0.4296446826168575  0.8368314225331990  0.0985550753541098   T   T   T
  0.8065493293628229  0.0911308031234376  0.0866669513078778   T   T   T
  0.6801674928440553  0.1703981774875168  0.0918247365891662   T   T   T
  0.8068018205814153  0.9258564528836714  0.0856436793697625   T   T   T
  0.6774251379070221  0.3359704160868533  0.1001203026842436   T   T   T
  0.8070663762653527  0.5948229059403244  0.0970859469787848   T   T   T
  0.8022081706013364  0.4262351589281985  0.0976888434111178   T   T   T
  0.6839873521755231  0.8430116669731211  0.0933859560644587   T   T   T
  0.4244003460730943  0.6757608979787830  0.1157880082270191   T   T   T
  0.5502588720722379  0.4091605341474797  0.1124423534901859   T   T   T
  0.6907468370319350  0.6861540607178449  0.1071133878516297   T   T   T
  0.5568554645917160  0.9196387488904719  0.0959049080767218   T   T   T
  0.3048032445198903  0.4212752385376636  0.0995595674971670   T   T   T
  0.5756372275853109  0.5852302714479357  0.1809455095318604   T   T   T
 
  0.00000000E+00  0.00000000E+00  0.00000000E+00
  0.00000000E+00  0.00000000E+00  0.00000000E+00
  0.00000000E+00  0.00000000E+00  0.00000000E+00
  0.00000000E+00  0.00000000E+00  0.00000000E+00
  0.00000000E+00  0.00000000E+00  0.00000000E+00
  0.00000000E+00  0.00000000E+00  0.00000000E+00
  0.00000000E+00  0.00000000E+00  0.00000000E+00
  0.00000000E+00  0.00000000E+00  0.00000000E+00
  0.00000000E+00  0.00000000E+00  0.00000000E+00
  0.00000000E+00  0.00000000E+00  0.00000000E+00
  0.00000000E+00  0.00000000E+00  0.00000000E+00
  0.00000000E+00  0.00000000E+00  0.00000000E+00
  0.00000000E+00  0.00000000E+00  0.00000000E+00
  0.00000000E+00  0.00000000E+00  0.00000000E+00
  0.00000000E+00  0.00000000E+00  0.00000000E+00
  0.00000000E+00  0.00000000E+00  0.00000000E+00
  0.00000000E+00  0.00000000E+00  0.00000000E+00
  0.00000000E+00  0.00000000E+00  0.00000000E+00
  0.00000000E+00  0.00000000E+00  0.00000000E+00
  0.00000000E+00  0.00000000E+00  0.00000000E+00
  0.00000000E+00  0.00000000E+00  0.00000000E+00
  0.00000000E+00  0.00000000E+00  0.00000000E+00
  0.00000000E+00  0.00000000E+00  0.00000000E+00
  0.00000000E+00  0.00000000E+00  0.00000000E+00
  0.00000000E+00  0.00000000E+00  0.00000000E+00
  0.00000000E+00  0.00000000E+00  0.00000000E+00
  0.00000000E+00  0.00000000E+00  0.00000000E+00
  0.00000000E+00  0.00000000E+00  0.00000000E+00
  0.00000000E+00  0.00000000E+00  0.00000000E+00
  0.00000000E+00  0.00000000E+00  0.00000000E+00
  0.00000000E+00  0.00000000E+00  0.00000000E+00
  0.00000000E+00  0.00000000E+00  0.00000000E+00
