Title                                   
   1.00000000000000     
     9.8694509999999998    0.0000000000000000    0.0000000000000000
     0.0000000000000000    8.5490480000000009    0.0000000000000000
     0.0000000000000000    0.0000000000000000   20.0000000000000000
    25     6     1
Selective dynamics
Direct
  0.0574523082677993  0.0917674707204131  0.0920400951590087   T   T   T
  0.9315182134300123  0.1756220763608743  0.0929482438150913   T   T   T
  0.0583437599739613  0.9230355754346898  0.0927689230959900   T   T   T
  0.9310313791648132  0.3420778163881832  0.0970335492062309   T   T   T
  0.0589224385907970  0.5902431692758623  0.0964511623651128   T   T   T
  0.9325237240874321  0.6713904555386766  0.0972852893410180   T   T   T
  0.0580029068089260  0.4220933044999263  0.0955950448207357   T   T   T
  0.9330538316338510  0.8396794836242788  0.0941260493245069   T   T   T
  0.3071553595741802  0.0847501935642838  0.0903110204558411   T   T   T
  0.1839111013365091  0.1728204834068502  0.0910785649936685   T   T   T
  0.3082997272630010  0.9208778795022022  0.0935468555479408   T   T   T
  0.1843769225597004  0.3387455077007158  0.0918786753411861   T   T   T
  0.3133078927252435  0.5921879566166901  0.0939035989678536   T   T   T
  0.1828652469130052  0.6700353858626416  0.0955703147154443   T   T   T
  0.1830675661894600  0.8385649592959490  0.0932533563689083   T   T   T
  0.5589201238141974  0.0838824777147931  0.0904318387138016   T   T   T
  0.4339345640594601  0.1658672660217880  0.0899121792269269   T   T   T
  0.4359984005683187  0.3315750205480458  0.0937500788487467   T   T   T
  0.4326173422163823  0.8290157081255359  0.0956441099337733   T   T   T
  0.8085915685415747  0.0901712269931275  0.0897195968956971   T   T   T
  0.6826511824049526  0.1708028791268992  0.0917817718331232   T   T   T
  0.8094409448027816  0.9241348603250149  0.0902376140621101   T   T   T
  0.6774952008171836  0.3367464416789855  0.1001427062930937   T   T   T
  0.8059211646524372  0.5946493238520533  0.1029560363284005   T   T   T
  0.6867957715864392  0.8374579944311618  0.0938261666791492   T   T   T
  0.4274861583195715  0.6739612073101070  0.0681509590568020   T   T   T
  0.5549394129746512  0.4096201197302031  0.1083956607383816   T   T   T
  0.6884854976263033  0.6814715077290868  0.1098636147922498   T   T   T
  0.5617375517691454  0.9161035895848643  0.0890472569314528   T   T   T
  0.3137457119769257  0.4192118055801914  0.0904137214635543   T   T   T
  0.8010633408760921  0.4257822306584592  0.1018523546465407   T   T   T
  0.4959826844748970  0.6259006227974475  0.1717585900376760   T   T   T
 
  0.00000000E+00  0.00000000E+00  0.00000000E+00
  0.00000000E+00  0.00000000E+00  0.00000000E+00
  0.00000000E+00  0.00000000E+00  0.00000000E+00
  0.00000000E+00  0.00000000E+00  0.00000000E+00
  0.00000000E+00  0.00000000E+00  0.00000000E+00
  0.00000000E+00  0.00000000E+00  0.00000000E+00
  0.00000000E+00  0.00000000E+00  0.00000000E+00
  0.00000000E+00  0.00000000E+00  0.00000000E+00
  0.00000000E+00  0.00000000E+00  0.00000000E+00
  0.00000000E+00  0.00000000E+00  0.00000000E+00
  0.00000000E+00  0.00000000E+00  0.00000000E+00
  0.00000000E+00  0.00000000E+00  0.00000000E+00
  0.00000000E+00  0.00000000E+00  0.00000000E+00
  0.00000000E+00  0.00000000E+00  0.00000000E+00
  0.00000000E+00  0.00000000E+00  0.00000000E+00
  0.00000000E+00  0.00000000E+00  0.00000000E+00
  0.00000000E+00  0.00000000E+00  0.00000000E+00
  0.00000000E+00  0.00000000E+00  0.00000000E+00
  0.00000000E+00  0.00000000E+00  0.00000000E+00
  0.00000000E+00  0.00000000E+00  0.00000000E+00
  0.00000000E+00  0.00000000E+00  0.00000000E+00
  0.00000000E+00  0.00000000E+00  0.00000000E+00
  0.00000000E+00  0.00000000E+00  0.00000000E+00
  0.00000000E+00  0.00000000E+00  0.00000000E+00
  0.00000000E+00  0.00000000E+00  0.00000000E+00
  0.00000000E+00  0.00000000E+00  0.00000000E+00
  0.00000000E+00  0.00000000E+00  0.00000000E+00
  0.00000000E+00  0.00000000E+00  0.00000000E+00
  0.00000000E+00  0.00000000E+00  0.00000000E+00
  0.00000000E+00  0.00000000E+00  0.00000000E+00
  0.00000000E+00  0.00000000E+00  0.00000000E+00
  0.00000000E+00  0.00000000E+00  0.00000000E+00
