Title                                   
   1.00000000000000     
     8.5490480000000009    0.0000000000000000    0.0000000000000000
     0.0000000000000000    8.5490480000000009    0.0000000000000000
     0.0000000000000000    0.0000000000000000   20.0000000000000000
    20     4     1
Selective dynamics
Direct
  0.9101876632297964  0.2056690669025465  0.0975021415105526   T   T   T
  0.9118233960737649  0.8008615868231864  0.0975388789279079   T   T   T
  0.2012463901141782  0.0833668431097355  0.0978028001541349   T   T   T
  0.0753139860247713  0.2053905779900168  0.0976519155326497   T   T   T
  0.1537272071811739  0.6489437609277539  0.0977252341651071   T   T   T
  0.0704254350286480  0.5017905239025602  0.0977173933387051   T   T   T
  0.1522133770856769  0.3559573604609980  0.0977437633274697   T   T   T
  0.0783241419934614  0.7983382823522230  0.0976819584499948   T   T   T
  0.4960547929146552  0.0867886391349480  0.0978021902320109   T   T   T
  0.3474755752529222  0.1663166178346480  0.0979125721012144   T   T   T
  0.4949220443803276  0.9157833898394816  0.0977492251979999   T   T   T
  0.3478485504451531  0.8328036380892297  0.0979238657444961   T   T   T
  0.7900136142504479  0.0860638631766496  0.0974558122900219   T   T   T
  0.6436457537524253  0.1670264863781742  0.0977061986226152   T   T   T
  0.7903371320762325  0.9187831031101845  0.0974549826655524   T   T   T
  0.8265630163668783  0.6513625662122997  0.0977015546636491   T   T   T
  0.8243896594516177  0.3546359409747847  0.0977186005337171   T   T   T
  0.6437426504514080  0.8359623974855370  0.0976281802249774   T   T   T
  0.3229139702603009  0.3382136140938533  0.0979442281433752   T   T   T
  0.3221508307228973  0.6664054001689866  0.0979188072138402   T   T   T
  0.9018150447238520  0.5027388861209782  0.0977392341157315   T   T   T
  0.6666122650269187  0.3310726801570222  0.0979089311290029   T   T   T
  0.6680757172812545  0.6733874727219161  0.0978161140546826   T   T   T
  0.1998907555700497  0.9175190991458904  0.0978771835237710   T   T   T
  0.4856990303411806  0.4996082028864159  0.0980832341367934   T   T   T
 
  0.00000000E+00  0.00000000E+00  0.00000000E+00
  0.00000000E+00  0.00000000E+00  0.00000000E+00
  0.00000000E+00  0.00000000E+00  0.00000000E+00
  0.00000000E+00  0.00000000E+00  0.00000000E+00
  0.00000000E+00  0.00000000E+00  0.00000000E+00
  0.00000000E+00  0.00000000E+00  0.00000000E+00
  0.00000000E+00  0.00000000E+00  0.00000000E+00
  0.00000000E+00  0.00000000E+00  0.00000000E+00
  0.00000000E+00  0.00000000E+00  0.00000000E+00
  0.00000000E+00  0.00000000E+00  0.00000000E+00
  0.00000000E+00  0.00000000E+00  0.00000000E+00
  0.00000000E+00  0.00000000E+00  0.00000000E+00
  0.00000000E+00  0.00000000E+00  0.00000000E+00
  0.00000000E+00  0.00000000E+00  0.00000000E+00
  0.00000000E+00  0.00000000E+00  0.00000000E+00
  0.00000000E+00  0.00000000E+00  0.00000000E+00
  0.00000000E+00  0.00000000E+00  0.00000000E+00
  0.00000000E+00  0.00000000E+00  0.00000000E+00
  0.00000000E+00  0.00000000E+00  0.00000000E+00
  0.00000000E+00  0.00000000E+00  0.00000000E+00
  0.00000000E+00  0.00000000E+00  0.00000000E+00
  0.00000000E+00  0.00000000E+00  0.00000000E+00
  0.00000000E+00  0.00000000E+00  0.00000000E+00
  0.00000000E+00  0.00000000E+00  0.00000000E+00
  0.00000000E+00  0.00000000E+00  0.00000000E+00
