Title                                   
   1.00000000000000     
     4.9440799999999996    0.0000000000000000    0.0000000000000000
     0.0000000000000000   17.1295089999999988    0.0000000000000000
     0.0000000000000000    0.0000000000000000   20.0000000000000000
    28     3     1
Selective dynamics
Direct
 -0.0001451600708397  0.1043263657465408  0.2850419047216897   T   T   T
  0.2499097110918567  0.1461563762812640  0.2879643740890365   T   T   T
  0.2499066365442331  0.2291041848742505  0.2962906083128382   T   T   T
  0.0017437021401416  0.3516953585842495  0.3160224264684310   T   T   T
 -0.0013591173772939  0.2705002526784450  0.3007167896183439   T   T   T
 -0.0046242321149515  0.6050749277897082  0.3090517433662420   T   T   T
  0.2498960142154159  0.7279925171309961  0.2925443658849584   T   T   T
  0.0003912497205108  0.8536196555282489  0.2835921352545808   T   T   T
  0.2498909192093400  0.8954999433167866  0.2825523994842790   T   T   T
  0.2498707121177659  0.9790921271212164  0.2818465695421128   T   T   T
  0.0008226331853620  0.7700531566089833  0.2881090092560877   T   T   T
  0.4999309187013317  0.1043278674296888  0.2850414544167858   T   T   T
  0.7499088993453328  0.1461576284744156  0.2871092614749575   T   T   T
  0.7499069633812857  0.2290076446394955  0.2941207921028954   T   T   T
  0.4999632020222143  0.0208834441304905  0.2822237755935003   T   T   T
  0.4980948997443402  0.3516957187534475  0.3160254885581211   T   T   T
  0.7499190190821313  0.3977660972396756  0.3206113698382005   T   T   T
  0.7499160553983630  0.4831124383414653  0.3225946128738438   T   T   T
  0.5011640967922820  0.2704983438282340  0.3007182684821675   T   T   T
  0.5044775455016811  0.6050727917767125  0.3090630195899143   T   T   T
  0.7498938975406065  0.7292012433666747  0.2906620544349253   T   T   T
  0.4993961241440429  0.8536229477060563  0.2835969640783705   T   T   T
  0.7498963185866514  0.8952920956133719  0.2822717146138375   T   T   T
  0.7498734911445841  0.9789191785642564  0.2816105492845645   T   T   T
  0.4989739857499263  0.7700618842797758  0.2881184591582609   T   T   T
  0.7498996375140157  0.6465356662121490  0.3000743857909787   T   T   T
  0.2499232709998572  0.6443375637326167  0.3041043471715930   T   T   T
 -0.0002061978337983  0.0208845496780862  0.2822252319817186   T   T   T
  0.5149701153716000  0.5260986395514983  0.3259197590659162   T   T   T
  0.9848799978787266  0.5260895839488280  0.3258533607045737   T   T   T
  0.2499149832763716  0.3852946665470185  0.3304205753677568   T   T   T
  0.2498227069969219  0.4805761405253455  0.3864672294184700   T   T   T
 
  0.00000000E+00  0.00000000E+00  0.00000000E+00
  0.00000000E+00  0.00000000E+00  0.00000000E+00
  0.00000000E+00  0.00000000E+00  0.00000000E+00
  0.00000000E+00  0.00000000E+00  0.00000000E+00
  0.00000000E+00  0.00000000E+00  0.00000000E+00
  0.00000000E+00  0.00000000E+00  0.00000000E+00
  0.00000000E+00  0.00000000E+00  0.00000000E+00
  0.00000000E+00  0.00000000E+00  0.00000000E+00
  0.00000000E+00  0.00000000E+00  0.00000000E+00
  0.00000000E+00  0.00000000E+00  0.00000000E+00
  0.00000000E+00  0.00000000E+00  0.00000000E+00
  0.00000000E+00  0.00000000E+00  0.00000000E+00
  0.00000000E+00  0.00000000E+00  0.00000000E+00
  0.00000000E+00  0.00000000E+00  0.00000000E+00
  0.00000000E+00  0.00000000E+00  0.00000000E+00
  0.00000000E+00  0.00000000E+00  0.00000000E+00
  0.00000000E+00  0.00000000E+00  0.00000000E+00
  0.00000000E+00  0.00000000E+00  0.00000000E+00
  0.00000000E+00  0.00000000E+00  0.00000000E+00
  0.00000000E+00  0.00000000E+00  0.00000000E+00
  0.00000000E+00  0.00000000E+00  0.00000000E+00
  0.00000000E+00  0.00000000E+00  0.00000000E+00
  0.00000000E+00  0.00000000E+00  0.00000000E+00
  0.00000000E+00  0.00000000E+00  0.00000000E+00
  0.00000000E+00  0.00000000E+00  0.00000000E+00
  0.00000000E+00  0.00000000E+00  0.00000000E+00
  0.00000000E+00  0.00000000E+00  0.00000000E+00
  0.00000000E+00  0.00000000E+00  0.00000000E+00
  0.00000000E+00  0.00000000E+00  0.00000000E+00
  0.00000000E+00  0.00000000E+00  0.00000000E+00
  0.00000000E+00  0.00000000E+00  0.00000000E+00
  0.00000000E+00  0.00000000E+00  0.00000000E+00
