Title                                   
   1.00000000000000     
     4.9440799999999996    0.0000000000000000    0.0000000000000000
     0.0000000000000000   17.1295089999999988    0.0000000000000000
     0.0000000000000000    0.0000000000000000   20.0000000000000000
    30     1     1
Selective dynamics
Direct
  0.0002321880984872  0.1044918859414095  0.2883221557166515   T   T   T
  0.2497592432746397  0.1463315205653609  0.2925823033685909   T   T   T
  0.2498527685578172  0.2290991821545552  0.3035014452350502   T   T   T
  0.0009409447132566  0.3505690337960845  0.3256327777107579   T   T   T
 -0.0020857961591400  0.2699550509118582  0.3087037167103938   T   T   T
 -0.0040204261245949  0.6038892029317432  0.3004140300750430   T   T   T
  0.2497799333113264  0.7283379281663230  0.2879002847528073   T   T   T
  0.0001992983616902  0.8539784076346035  0.2812183489356543   T   T   T
  0.2497657621830011  0.8958916443418274  0.2810132987471588   T   T   T
  0.2496724910458706  0.9794242813921799  0.2820101896879672   T   T   T
  0.0005221632757629  0.7705414844249766  0.2842141535141187   T   T   T
  0.4992575467807926  0.1045011382703570  0.2883148370486266   T   T   T
  0.7497922295184670  0.1461149097746675  0.2914437071604086   T   T   T
  0.7498872638552080  0.2282752002906619  0.3006410666943117   T   T   T
  0.4994565318622599  0.0212660288497307  0.2832832652144091   T   T   T
  0.4989942965084845  0.3505434643761136  0.3255705856014118   T   T   T
  0.7500042347015274  0.4773091012577843  0.3154425269149896   T   T   T
  0.5018950196581144  0.2699324573404746  0.3086537596940760   T   T   T
  0.5035256513606315  0.6038319678725652  0.3001101314334969   T   T   T
  0.7498189598625503  0.7291418762363235  0.2857940145721592   T   T   T
  0.4993370273337685  0.8539706528765567  0.2811929547614277   T   T   T
  0.7497639986364640  0.8958621297415814  0.2805482312771112   T   T   T
  0.7496666159074680  0.9793154181123264  0.2816037032985428   T   T   T
  0.4990735924597001  0.7705352444742998  0.2841621777284636   T   T   T
  0.7498295524855753  0.6464766375127795  0.2925515704893745   T   T   T
  0.2497390471175507  0.6450412375101960  0.2969831526562069   T   T   T
 -0.0001125490494191  0.0212588768504150  0.2832882196754088   T   T   T
  0.5108287148438628  0.5216352420062593  0.3137996766994812   T   T   T
  0.9887785682768280  0.5218533268926552  0.3149309423833224   T   T   T
  0.2500320724743472  0.3873811490136998  0.3419311159863742   T   T   T
  0.7499637938431053  0.3936821553511472  0.3264018500248978   T   T   T
  0.2526722610246018  0.4981131631284743  0.3904048062312584   T   T   T
 
  0.00000000E+00  0.00000000E+00  0.00000000E+00
  0.00000000E+00  0.00000000E+00  0.00000000E+00
  0.00000000E+00  0.00000000E+00  0.00000000E+00
  0.00000000E+00  0.00000000E+00  0.00000000E+00
  0.00000000E+00  0.00000000E+00  0.00000000E+00
  0.00000000E+00  0.00000000E+00  0.00000000E+00
  0.00000000E+00  0.00000000E+00  0.00000000E+00
  0.00000000E+00  0.00000000E+00  0.00000000E+00
  0.00000000E+00  0.00000000E+00  0.00000000E+00
  0.00000000E+00  0.00000000E+00  0.00000000E+00
  0.00000000E+00  0.00000000E+00  0.00000000E+00
  0.00000000E+00  0.00000000E+00  0.00000000E+00
  0.00000000E+00  0.00000000E+00  0.00000000E+00
  0.00000000E+00  0.00000000E+00  0.00000000E+00
  0.00000000E+00  0.00000000E+00  0.00000000E+00
  0.00000000E+00  0.00000000E+00  0.00000000E+00
  0.00000000E+00  0.00000000E+00  0.00000000E+00
  0.00000000E+00  0.00000000E+00  0.00000000E+00
  0.00000000E+00  0.00000000E+00  0.00000000E+00
  0.00000000E+00  0.00000000E+00  0.00000000E+00
  0.00000000E+00  0.00000000E+00  0.00000000E+00
  0.00000000E+00  0.00000000E+00  0.00000000E+00
  0.00000000E+00  0.00000000E+00  0.00000000E+00
  0.00000000E+00  0.00000000E+00  0.00000000E+00
  0.00000000E+00  0.00000000E+00  0.00000000E+00
  0.00000000E+00  0.00000000E+00  0.00000000E+00
  0.00000000E+00  0.00000000E+00  0.00000000E+00
  0.00000000E+00  0.00000000E+00  0.00000000E+00
  0.00000000E+00  0.00000000E+00  0.00000000E+00
  0.00000000E+00  0.00000000E+00  0.00000000E+00
  0.00000000E+00  0.00000000E+00  0.00000000E+00
  0.00000000E+00  0.00000000E+00  0.00000000E+00
