Title                                   
   1.00000000000000     
     4.9440799999999996    0.0000000000000000    0.0000000000000000
     0.0000000000000000   17.1295089999999988    0.0000000000000000
     0.0000000000000000    0.0000000000000000   20.0000000000000000
    27     3     1
Selective dynamics
Direct
  0.0009562967805699  0.1062256596492697  0.2977686468251792   T   T   T
  0.2503703445595369  0.1492014829342029  0.2984555197573114   T   T   T
  0.2503159911565938  0.2339297483191885  0.3000561068103001   T   T   T
 -0.0024283143491442  0.2751485637101882  0.3007394725395524   T   T   T
  0.0014559228001266  0.6006960373296365  0.3008883703058152   T   T   T
  0.2503484781613373  0.7257491881867554  0.2987355224822881   T   T   T
  0.0013128804018044  0.8528154249717826  0.2973703946248145   T   T   T
  0.2503725621156350  0.8952790855406492  0.2971042215214069   T   T   T
  0.2503891317168281  0.9795087016590922  0.2969300549157155   T   T   T
  0.0008376301014153  0.7683324950006984  0.2982209549132140   T   T   T
  0.4997986758354372  0.1062264550725299  0.2977468564221400   T   T   T
  0.7503745813405858  0.1479180209342235  0.2982274356979163   T   T   T
  0.7503334206528171  0.2320487611620534  0.2995429166714609   T   T   T
  0.5000713048730147  0.0218234866710745  0.2970380852309707   T   T   T
  0.7502213667024255  0.3928726820415425  0.3024379297862864   T   T   T
  0.7502149658505135  0.4797831558920165  0.3026009996031870   T   T   T
  0.5030354438195864  0.2751464599489485  0.3005841932784212   T   T   T
  0.4991132247476127  0.6006999642790110  0.3007482867226963   T   T   T
  0.7503547376296081  0.7270013227754886  0.2987113326102612   T   T   T
  0.4994406356128839  0.8528203253308007  0.2973578617570751   T   T   T
  0.7503862258366759  0.8949058832636000  0.2970668864532533   T   T   T
  0.7503971169428216  0.9794888700738738  0.2968780873985712   T   T   T
  0.4998915189406605  0.7683337146324050  0.2981936128289540   T   T   T
  0.7503038752497738  0.6432941303004901  0.3000000750434959   T   T   T
  0.0007049335469181  0.0218281265497617  0.2970482413998613   T   T   T
  0.4990229575315184  0.5177862903595633  0.3021310621914611   T   T   T
  0.0014285313187560  0.5177930423271930  0.3024521144476036   T   T   T
  0.5114828434584032  0.3559794029677648  0.3021235496614394   T   T   T
 -0.0110244337098833  0.3559811587162928  0.3025910720775939   T   T   T
  0.2503071711156444  0.6435634616097851  0.2999943104521727   T   T   T
  0.2502169792595251  0.4391608977901150  0.3053158255695329   T   T   T
 
  0.00000000E+00  0.00000000E+00  0.00000000E+00
  0.00000000E+00  0.00000000E+00  0.00000000E+00
  0.00000000E+00  0.00000000E+00  0.00000000E+00
  0.00000000E+00  0.00000000E+00  0.00000000E+00
  0.00000000E+00  0.00000000E+00  0.00000000E+00
  0.00000000E+00  0.00000000E+00  0.00000000E+00
  0.00000000E+00  0.00000000E+00  0.00000000E+00
  0.00000000E+00  0.00000000E+00  0.00000000E+00
  0.00000000E+00  0.00000000E+00  0.00000000E+00
  0.00000000E+00  0.00000000E+00  0.00000000E+00
  0.00000000E+00  0.00000000E+00  0.00000000E+00
  0.00000000E+00  0.00000000E+00  0.00000000E+00
  0.00000000E+00  0.00000000E+00  0.00000000E+00
  0.00000000E+00  0.00000000E+00  0.00000000E+00
  0.00000000E+00  0.00000000E+00  0.00000000E+00
  0.00000000E+00  0.00000000E+00  0.00000000E+00
  0.00000000E+00  0.00000000E+00  0.00000000E+00
  0.00000000E+00  0.00000000E+00  0.00000000E+00
  0.00000000E+00  0.00000000E+00  0.00000000E+00
  0.00000000E+00  0.00000000E+00  0.00000000E+00
  0.00000000E+00  0.00000000E+00  0.00000000E+00
  0.00000000E+00  0.00000000E+00  0.00000000E+00
  0.00000000E+00  0.00000000E+00  0.00000000E+00
  0.00000000E+00  0.00000000E+00  0.00000000E+00
  0.00000000E+00  0.00000000E+00  0.00000000E+00
  0.00000000E+00  0.00000000E+00  0.00000000E+00
  0.00000000E+00  0.00000000E+00  0.00000000E+00
  0.00000000E+00  0.00000000E+00  0.00000000E+00
  0.00000000E+00  0.00000000E+00  0.00000000E+00
  0.00000000E+00  0.00000000E+00  0.00000000E+00
  0.00000000E+00  0.00000000E+00  0.00000000E+00
