Title                                   
   1.00000000000000     
     9.8694509999999998    0.0000000000000000    0.0000000000000000
     0.0000000000000000    8.5490480000000009    0.0000000000000000
     0.0000000000000000    0.0000000000000000   20.0000000000000000
    28     3     1
Selective dynamics
Direct
  0.0559201484729691  0.0906711688284716  0.0844050275710895   T   T   T
  0.9302679869746097  0.1743939583045251  0.0878449965502321   T   T   T
  0.0565253862545073  0.9228123751276565  0.0824877959195231   T   T   T
  0.9302965351645684  0.3402526607319716  0.0929757872828297   T   T   T
  0.0561508172406910  0.5893933048126514  0.0857788870961487   T   T   T
  0.9315849723515828  0.6717568053756686  0.0867767635116520   T   T   T
  0.0557213350128518  0.4221985912540527  0.0903002350934895   T   T   T
  0.9311154503199288  0.8393106086339499  0.0847173657308834   T   T   T
  0.3056185168049101  0.0876141042315088  0.0865111702903377   T   T   T
  0.1817557730904787  0.1726893933498359  0.0866525270614486   T   T   T
  0.3076740236576443  0.9219979768315300  0.0867325462129175   T   T   T
  0.1807447171476123  0.3386772618307936  0.0903634799695864   T   T   T
  0.3050420065597013  0.5872599622725750  0.0958781870933924   T   T   T
  0.1805502513230820  0.6705536879609739  0.0860629643661112   T   T   T
  0.1823601068331051  0.8379939223696219  0.0840603649204294   T   T   T
  0.5561440877453596  0.0886303048012040  0.0956104089159350   T   T   T
  0.4305016668010658  0.1700702533417491  0.0922295574880786   T   T   T
  0.4297044925242151  0.3359506541184582  0.0990717409540881   T   T   T
  0.4317981563271607  0.8390996728125731  0.0976020733771330   T   T   T
  0.8065908512972909  0.0903253904693866  0.0879132890309350   T   T   T
  0.6813864748217254  0.1725693450833697  0.0942908151165990   T   T   T
  0.8062073379608047  0.9248101384542388  0.0878323749471010   T   T   T
  0.6805251906755474  0.3384350096619969  0.1026142251194054   T   T   T
  0.8083831163869595  0.5908499862132212  0.1009093416973863   T   T   T
  0.6840148438292860  0.8424301736244334  0.1009403510492633   T   T   T
  0.4212184418992747  0.6760067406502807  0.1100959538208093   T   T   T
  0.5529036659624930  0.4100895792711465  0.1146308048970738   T   T   T
  0.6975695097554167  0.6844698270607235  0.1205670844359642   T   T   T
  0.5572323967329376  0.9225158952829037  0.0996363733295051   T   T   T
  0.3052865285691830  0.4206063774153155  0.0945029533548611   T   T   T
  0.8058835670276721  0.4233724687781950  0.1008584283280651   T   T   T
  0.5529606444753716  0.5924384010450194  0.1748211254677416   T   T   T
 
  0.00000000E+00  0.00000000E+00  0.00000000E+00
  0.00000000E+00  0.00000000E+00  0.00000000E+00
  0.00000000E+00  0.00000000E+00  0.00000000E+00
  0.00000000E+00  0.00000000E+00  0.00000000E+00
  0.00000000E+00  0.00000000E+00  0.00000000E+00
  0.00000000E+00  0.00000000E+00  0.00000000E+00
  0.00000000E+00  0.00000000E+00  0.00000000E+00
  0.00000000E+00  0.00000000E+00  0.00000000E+00
  0.00000000E+00  0.00000000E+00  0.00000000E+00
  0.00000000E+00  0.00000000E+00  0.00000000E+00
  0.00000000E+00  0.00000000E+00  0.00000000E+00
  0.00000000E+00  0.00000000E+00  0.00000000E+00
  0.00000000E+00  0.00000000E+00  0.00000000E+00
  0.00000000E+00  0.00000000E+00  0.00000000E+00
  0.00000000E+00  0.00000000E+00  0.00000000E+00
  0.00000000E+00  0.00000000E+00  0.00000000E+00
  0.00000000E+00  0.00000000E+00  0.00000000E+00
  0.00000000E+00  0.00000000E+00  0.00000000E+00
  0.00000000E+00  0.00000000E+00  0.00000000E+00
  0.00000000E+00  0.00000000E+00  0.00000000E+00
  0.00000000E+00  0.00000000E+00  0.00000000E+00
  0.00000000E+00  0.00000000E+00  0.00000000E+00
  0.00000000E+00  0.00000000E+00  0.00000000E+00
  0.00000000E+00  0.00000000E+00  0.00000000E+00
  0.00000000E+00  0.00000000E+00  0.00000000E+00
  0.00000000E+00  0.00000000E+00  0.00000000E+00
  0.00000000E+00  0.00000000E+00  0.00000000E+00
  0.00000000E+00  0.00000000E+00  0.00000000E+00
  0.00000000E+00  0.00000000E+00  0.00000000E+00
  0.00000000E+00  0.00000000E+00  0.00000000E+00
  0.00000000E+00  0.00000000E+00  0.00000000E+00
  0.00000000E+00  0.00000000E+00  0.00000000E+00
