Title                                   
   1.00000000000000     
     8.5490480000000009    0.0000000000000000    0.0000000000000000
     0.0000000000000000    8.5490480000000009    0.0000000000000000
     0.0000000000000000    0.0000000000000000   20.0000000000000000
    18     6     1
Selective dynamics
Direct
  0.9074180641142753  0.2067668853071181  0.0975286659661764   T   T   T
  0.9104423633205441  0.8002336637104217  0.0974433252054948   T   T   T
  0.1981009682204108  0.0844487299062929  0.0976446152895497   T   T   T
  0.0774893398841261  0.2019856514190718  0.0975719654769521   T   T   T
  0.1568555139131121  0.6510137669078977  0.0977692218153066   T   T   T
  0.0757610345655945  0.5010438917105928  0.0977650135493078   T   T   T
  0.1577497864968626  0.3544977809027370  0.0977315415293745   T   T   T
  0.0795937017711252  0.7987262979232191  0.0975502867789097   T   T   T
  0.3487540792006292  0.1667155483294863  0.0978189907725006   T   T   T
  0.4932511134028523  0.9157911670029254  0.0978302741089511   T   T   T
  0.3444922807972624  0.8356729412995750  0.0979062441973892   T   T   T
  0.7873819631083780  0.0872819050847161  0.0974766363446474   T   T   T
  0.6401202332985894  0.1673720384393871  0.0977498614588450   T   T   T
  0.7895669287139021  0.9181026953409577  0.0974347335627264   T   T   T
  0.8280684761515477  0.6511153022556250  0.0977100944182686   T   T   T
  0.8250720425392802  0.3539278440517821  0.0977554846678646   T   T   T
  0.6426728860214943  0.8357851102222041  0.0977160997721269   T   T   T
  0.3269343520159774  0.3325754575411842  0.0978850062626443   T   T   T
  0.4946327880896858  0.0863355908110774  0.0978781861049995   T   T   T
  0.9041448537428896  0.5027551900648307  0.0978207053067212   T   T   T
  0.3205943445355652  0.6741983931601769  0.0980284690614344   T   T   T
  0.6606289680192919  0.3309039443648193  0.0979758954130155   T   T   T
  0.6671348076288538  0.6722397251477933  0.0979190134805834   T   T   T
  0.1978245521911659  0.9154255137954881  0.0977078510625054   T   T   T
  0.4907265582565777  0.4998749653006405  0.0980868183936774   T   T   T
 
  0.00000000E+00  0.00000000E+00  0.00000000E+00
  0.00000000E+00  0.00000000E+00  0.00000000E+00
  0.00000000E+00  0.00000000E+00  0.00000000E+00
  0.00000000E+00  0.00000000E+00  0.00000000E+00
  0.00000000E+00  0.00000000E+00  0.00000000E+00
  0.00000000E+00  0.00000000E+00  0.00000000E+00
  0.00000000E+00  0.00000000E+00  0.00000000E+00
  0.00000000E+00  0.00000000E+00  0.00000000E+00
  0.00000000E+00  0.00000000E+00  0.00000000E+00
  0.00000000E+00  0.00000000E+00  0.00000000E+00
  0.00000000E+00  0.00000000E+00  0.00000000E+00
  0.00000000E+00  0.00000000E+00  0.00000000E+00
  0.00000000E+00  0.00000000E+00  0.00000000E+00
  0.00000000E+00  0.00000000E+00  0.00000000E+00
  0.00000000E+00  0.00000000E+00  0.00000000E+00
  0.00000000E+00  0.00000000E+00  0.00000000E+00
  0.00000000E+00  0.00000000E+00  0.00000000E+00
  0.00000000E+00  0.00000000E+00  0.00000000E+00
  0.00000000E+00  0.00000000E+00  0.00000000E+00
  0.00000000E+00  0.00000000E+00  0.00000000E+00
  0.00000000E+00  0.00000000E+00  0.00000000E+00
  0.00000000E+00  0.00000000E+00  0.00000000E+00
  0.00000000E+00  0.00000000E+00  0.00000000E+00
  0.00000000E+00  0.00000000E+00  0.00000000E+00
  0.00000000E+00  0.00000000E+00  0.00000000E+00
