Title                                   
   1.00000000000000     
     4.9440799999999996    0.0000000000000000    0.0000000000000000
     0.0000000000000000   17.1295089999999988    0.0000000000000000
     0.0000000000000000    0.0000000000000000   20.0000000000000000
    28     2     1
Selective dynamics
Direct
 -0.0040240518588310  0.1052661096745898  0.2972984524875298   T   T   T
  0.2440514134460070  0.1479597691614103  0.2971270245899971   T   T   T
  0.2418972873998391  0.2320691349816187  0.2984811468859234   T   T   T
 -0.0066324990920801  0.2756419771216805  0.3032455280197047   T   T   T
  0.0049310739102139  0.6000264717493492  0.3035457729267200   T   T   T
  0.2498498815644852  0.7267750199551807  0.2968425302405459   T   T   T
  0.0000149945977503  0.8531186311491172  0.2972521613146776   T   T   T
  0.2489888408055684  0.8952683462355789  0.2971450354055510   T   T   T
  0.2477552022615538  0.9793643127648802  0.2972097090240217   T   T   T
  0.0010876065373530  0.7689168634432889  0.2972560261742015   T   T   T
  0.4959807465989126  0.1059369382079913  0.2958373568493223   T   T   T
  0.7471564411278314  0.1477546582110893  0.2957988276714670   T   T   T
  0.7460104601186284  0.2319701494946809  0.2954649495305340   T   T   T
  0.4971451984234422  0.0217206207567503  0.2965791657274675   T   T   T
  0.7493228074783115  0.3950365753941563  0.2998774723156859   T   T   T
  0.7518048456823311  0.4793617902887597  0.3022830060826047   T   T   T
  0.4926281316194480  0.2724548273118339  0.2927399530117247   T   T   T
  0.4994760401945011  0.6034971253608740  0.2937367364197429   T   T   T
  0.7518051511806461  0.7271693054289389  0.2960742675781593   T   T   T
  0.4982258620845834  0.8528008783665464  0.2965176249191218   T   T   T
  0.7485389844128528  0.8949186221914343  0.2969594408504803   T   T   T
  0.7472751181162001  0.9791398202259712  0.2969902085780464   T   T   T
  0.4996758813473817  0.7684464758551192  0.2958504229214273   T   T   T
  0.7532259052989150  0.6438569791369351  0.2961600981822652   T   T   T
 -0.0028534378753101  0.0212317968691151  0.2973372981461996   T   T   T
  0.5045764144759428  0.5214795666495494  0.2945827040549369   T   T   T
  0.0046653803172412  0.5173691417850378  0.3164440600688319   T   T   T
  0.5037536651872947  0.3546653523427267  0.2897657742433329   T   T   T
 -0.0111110219230123  0.3567110049102106  0.3166017698082137   T   T   T
  0.2501049416681042  0.6440303091098052  0.2979684241770547   T   T   T
  0.3046797348938962  0.4373834258657777  0.3360870517944589   T   T   T
 
  0.00000000E+00  0.00000000E+00  0.00000000E+00
  0.00000000E+00  0.00000000E+00  0.00000000E+00
  0.00000000E+00  0.00000000E+00  0.00000000E+00
  0.00000000E+00  0.00000000E+00  0.00000000E+00
  0.00000000E+00  0.00000000E+00  0.00000000E+00
  0.00000000E+00  0.00000000E+00  0.00000000E+00
  0.00000000E+00  0.00000000E+00  0.00000000E+00
  0.00000000E+00  0.00000000E+00  0.00000000E+00
  0.00000000E+00  0.00000000E+00  0.00000000E+00
  0.00000000E+00  0.00000000E+00  0.00000000E+00
  0.00000000E+00  0.00000000E+00  0.00000000E+00
  0.00000000E+00  0.00000000E+00  0.00000000E+00
  0.00000000E+00  0.00000000E+00  0.00000000E+00
  0.00000000E+00  0.00000000E+00  0.00000000E+00
  0.00000000E+00  0.00000000E+00  0.00000000E+00
  0.00000000E+00  0.00000000E+00  0.00000000E+00
  0.00000000E+00  0.00000000E+00  0.00000000E+00
  0.00000000E+00  0.00000000E+00  0.00000000E+00
  0.00000000E+00  0.00000000E+00  0.00000000E+00
  0.00000000E+00  0.00000000E+00  0.00000000E+00
  0.00000000E+00  0.00000000E+00  0.00000000E+00
  0.00000000E+00  0.00000000E+00  0.00000000E+00
  0.00000000E+00  0.00000000E+00  0.00000000E+00
  0.00000000E+00  0.00000000E+00  0.00000000E+00
  0.00000000E+00  0.00000000E+00  0.00000000E+00
  0.00000000E+00  0.00000000E+00  0.00000000E+00
  0.00000000E+00  0.00000000E+00  0.00000000E+00
  0.00000000E+00  0.00000000E+00  0.00000000E+00
  0.00000000E+00  0.00000000E+00  0.00000000E+00
  0.00000000E+00  0.00000000E+00  0.00000000E+00
  0.00000000E+00  0.00000000E+00  0.00000000E+00
