Title                                   
   1.00000000000000     
     4.9440799999999996    0.0000000000000000    0.0000000000000000
     0.0000000000000000    8.5647549999999999    0.0000000000000000
     0.0000000000000000    0.0000000000000000   20.0000000000000000
     9     5     1
Selective dynamics
Direct
 -0.0024845763283243  0.2957747253152188  0.1003769736316743   T   T   T
  0.2500000000000000  0.0389145021949166  0.1004497087836189   T   T   T
 -0.0017087792554164  0.9553074008366104  0.1005032074210772   T   T   T
  0.7500000000000000  0.2072086626404521  0.1002824304969803   T   T   T
  0.5024845763283242  0.2957747253152188  0.1003769736316743   T   T   T
  0.7500000000000000  0.0411406881933561  0.1003729501995152   T   T   T
  0.7500000000000000  0.7128328568874648  0.1007354407021337   T   T   T
  0.7500000000000000  0.5362675705482628  0.1006481510329353   T   T   T
  0.5017087792554166  0.9553074008366104  0.1005032074210772   T   T   T
  0.5117158490328512  0.4545331718526225  0.1005902057939645   T   T   T
 -0.0117158490328507  0.4545331718526225  0.1005902057939645   T   T   T
 -0.0126582642237294  0.7933096082197544  0.1007223120606029   T   T   T
  0.5126582642237295  0.7933096082197544  0.1007223120606029   T   T   T
  0.2500000000000000  0.2122892862958503  0.1003881849992819   T   T   T
  0.2500000000000000  0.6251776207912881  0.1007177359709003   T   T   T
 
  0.00000000E+00  0.00000000E+00  0.00000000E+00
  0.00000000E+00  0.00000000E+00  0.00000000E+00
  0.00000000E+00  0.00000000E+00  0.00000000E+00
  0.00000000E+00  0.00000000E+00  0.00000000E+00
  0.00000000E+00  0.00000000E+00  0.00000000E+00
  0.00000000E+00  0.00000000E+00  0.00000000E+00
  0.00000000E+00  0.00000000E+00  0.00000000E+00
  0.00000000E+00  0.00000000E+00  0.00000000E+00
  0.00000000E+00  0.00000000E+00  0.00000000E+00
  0.00000000E+00  0.00000000E+00  0.00000000E+00
  0.00000000E+00  0.00000000E+00  0.00000000E+00
  0.00000000E+00  0.00000000E+00  0.00000000E+00
  0.00000000E+00  0.00000000E+00  0.00000000E+00
  0.00000000E+00  0.00000000E+00  0.00000000E+00
  0.00000000E+00  0.00000000E+00  0.00000000E+00
