Title                                   
   1.00000000000000     
     9.8694509999999998    0.0000000000000000    0.0000000000000000
     0.0000000000000000    8.5490480000000009    0.0000000000000000
     0.0000000000000000    0.0000000000000000   20.0000000000000000
    25     5     1
Selective dynamics
Direct
  0.0559074434975008  0.0903414451860245  0.0882106611892277   T   T   T
  0.9316147117868043  0.1721019514842719  0.0896488167897022   T   T   T
  0.0572768270510254  0.9225276894686676  0.0882582044291256   T   T   T
  0.9326017469006534  0.3396796896860069  0.0882169014520916   T   T   T
  0.0566865109043565  0.5898439239347544  0.0843320758277097   T   T   T
  0.9325747037482680  0.6727734182637035  0.0875030511891605   T   T   T
  0.0568246018322367  0.4231321515107264  0.0844802244935601   T   T   T
  0.9319413940336558  0.8395361027827236  0.0889222523508662   T   T   T
  0.3074652654834931  0.0894134083655998  0.0936726986420412   T   T   T
  0.1811886413992009  0.1717541914801473  0.0890189856538570   T   T   T
  0.1807406277297550  0.3389240500010620  0.0873941937123265   T   T   T
  0.3029197782213461  0.5898410778853441  0.0947398600597770   T   T   T
  0.1809012736647318  0.6739736503086388  0.0872823210134032   T   T   T
  0.3034806728533050  0.4231243981891361  0.0950204790008544   T   T   T
  0.1813435017468975  0.8401760726981817  0.0892390418732477   T   T   T
  0.5565329914475182  0.0930056692316761  0.1031372107096789   T   T   T
  0.4288588872742231  0.1756459926839771  0.1017588208254093   T   T   T
  0.5549246113270112  0.9197220292930017  0.1024161275160032   T   T   T
  0.4281407032871091  0.8363086266844204  0.1015204285245961   T   T   T
  0.8049301200290599  0.0897290909584226  0.0938641686791127   T   T   T
  0.6827597828964060  0.1765168131818546  0.1020355310067868   T   T   T
  0.8048341204029303  0.9217295468720509  0.0931293319157848   T   T   T
  0.8096246670053913  0.5896915970539056  0.0948944781375050   T   T   T
  0.8100032236810299  0.4220128527840881  0.0959916718636992   T   T   T
  0.6821424877986692  0.8342639484187210  0.1003246976256825   T   T   T
  0.4221856755737440  0.3397014972272486  0.1089453172323545   T   T   T
  0.4207314665381671  0.6757840620878015  0.1095941148720208   T   T   T
  0.6903919817922360  0.3403553049092148  0.1103548197894697   T   T   T
  0.6892017990958327  0.6711476882701177  0.1065346608791913   T   T   T
  0.3076273784732170  0.9226008178623534  0.0932852968290693   T   T   T
  0.5567784025242229  0.5055162412361568  0.1472385559167437   T   T   T
 
  0.00000000E+00  0.00000000E+00  0.00000000E+00
  0.00000000E+00  0.00000000E+00  0.00000000E+00
  0.00000000E+00  0.00000000E+00  0.00000000E+00
  0.00000000E+00  0.00000000E+00  0.00000000E+00
  0.00000000E+00  0.00000000E+00  0.00000000E+00
  0.00000000E+00  0.00000000E+00  0.00000000E+00
  0.00000000E+00  0.00000000E+00  0.00000000E+00
  0.00000000E+00  0.00000000E+00  0.00000000E+00
  0.00000000E+00  0.00000000E+00  0.00000000E+00
  0.00000000E+00  0.00000000E+00  0.00000000E+00
  0.00000000E+00  0.00000000E+00  0.00000000E+00
  0.00000000E+00  0.00000000E+00  0.00000000E+00
  0.00000000E+00  0.00000000E+00  0.00000000E+00
  0.00000000E+00  0.00000000E+00  0.00000000E+00
  0.00000000E+00  0.00000000E+00  0.00000000E+00
  0.00000000E+00  0.00000000E+00  0.00000000E+00
  0.00000000E+00  0.00000000E+00  0.00000000E+00
  0.00000000E+00  0.00000000E+00  0.00000000E+00
  0.00000000E+00  0.00000000E+00  0.00000000E+00
  0.00000000E+00  0.00000000E+00  0.00000000E+00
  0.00000000E+00  0.00000000E+00  0.00000000E+00
  0.00000000E+00  0.00000000E+00  0.00000000E+00
  0.00000000E+00  0.00000000E+00  0.00000000E+00
  0.00000000E+00  0.00000000E+00  0.00000000E+00
  0.00000000E+00  0.00000000E+00  0.00000000E+00
  0.00000000E+00  0.00000000E+00  0.00000000E+00
  0.00000000E+00  0.00000000E+00  0.00000000E+00
  0.00000000E+00  0.00000000E+00  0.00000000E+00
  0.00000000E+00  0.00000000E+00  0.00000000E+00
  0.00000000E+00  0.00000000E+00  0.00000000E+00
  0.00000000E+00  0.00000000E+00  0.00000000E+00
