Title                                   
   1.00000000000000     
     8.5490480000000009    0.0000000000000000    0.0000000000000000
     0.0000000000000000    8.5490480000000009    0.0000000000000000
     0.0000000000000000    0.0000000000000000   20.0000000000000000
    23     1     1
Selective dynamics
Direct
  0.9114223433688241  0.2058469194638115  0.0954353803134536   T   T   T
  0.9059823357573099  0.5025719020959971  0.0952956069141307   T   T   T
  0.9107239907818353  0.7993420783387092  0.0954464940023843   T   T   T
  0.1972341046455684  0.0831295143312016  0.0954660428907044   T   T   T
  0.0743431899786410  0.2059718585315783  0.0954482263855901   T   T   T
  0.1971079294453111  0.9202090985894638  0.0954703450566969   T   T   T
  0.1553343040659899  0.6493559960069166  0.0953652933939356   T   T   T
  0.0748291715421580  0.5029847356312347  0.0953201665247649   T   T   T
  0.1567705650097523  0.3554971577076354  0.0953567399066824   T   T   T
  0.0747653218768114  0.7978087279751748  0.0954596706969078   T   T   T
  0.4941689795184154  0.0836142035582600  0.0953627432531604   T   T   T
  0.3467168300443606  0.1655882734424399  0.0953832732372602   T   T   T
  0.4937893212329196  0.9147495312347621  0.0953514845427755   T   T   T
  0.3464400608327666  0.8361025395552470  0.0953916353305873   T   T   T
  0.7890135223951606  0.0835296264015000  0.0954504976290911   T   T   T
  0.6405419603538229  0.1641139417166778  0.0953504351525337   T   T   T
  0.7905910526542814  0.9194748272726373  0.0954530908274513   T   T   T
  0.8271595841469963  0.6514765013692468  0.0952947793494478   T   T   T
  0.8273255192966218  0.3552042294841675  0.0953206246934182   T   T   T
  0.6427017160658316  0.8359095735313432  0.0953104241499625   T   T   T
  0.3236982030961920  0.3324949124947431  0.0952813772771410   T   T   T
  0.3225375039339143  0.6709968186423086  0.0953153861112229   T   T   T
  0.6622153497217406  0.3313051970877123  0.0952459926895075   T   T   T
  0.6670912888668769  0.6758361580030930  0.0951542921067796   T   T   T
  0.4929078513678896  0.5016756775341522  0.0949749975643882   T   T   T
 
  0.00000000E+00  0.00000000E+00  0.00000000E+00
  0.00000000E+00  0.00000000E+00  0.00000000E+00
  0.00000000E+00  0.00000000E+00  0.00000000E+00
  0.00000000E+00  0.00000000E+00  0.00000000E+00
  0.00000000E+00  0.00000000E+00  0.00000000E+00
  0.00000000E+00  0.00000000E+00  0.00000000E+00
  0.00000000E+00  0.00000000E+00  0.00000000E+00
  0.00000000E+00  0.00000000E+00  0.00000000E+00
  0.00000000E+00  0.00000000E+00  0.00000000E+00
  0.00000000E+00  0.00000000E+00  0.00000000E+00
  0.00000000E+00  0.00000000E+00  0.00000000E+00
  0.00000000E+00  0.00000000E+00  0.00000000E+00
  0.00000000E+00  0.00000000E+00  0.00000000E+00
  0.00000000E+00  0.00000000E+00  0.00000000E+00
  0.00000000E+00  0.00000000E+00  0.00000000E+00
  0.00000000E+00  0.00000000E+00  0.00000000E+00
  0.00000000E+00  0.00000000E+00  0.00000000E+00
  0.00000000E+00  0.00000000E+00  0.00000000E+00
  0.00000000E+00  0.00000000E+00  0.00000000E+00
  0.00000000E+00  0.00000000E+00  0.00000000E+00
  0.00000000E+00  0.00000000E+00  0.00000000E+00
  0.00000000E+00  0.00000000E+00  0.00000000E+00
  0.00000000E+00  0.00000000E+00  0.00000000E+00
  0.00000000E+00  0.00000000E+00  0.00000000E+00
  0.00000000E+00  0.00000000E+00  0.00000000E+00
