Title                                   
   1.00000000000000     
     8.5490480000000009    0.0000000000000000    0.0000000000000000
     0.0000000000000000    8.5490480000000009    0.0000000000000000
     0.0000000000000000    0.0000000000000000   20.0000000000000000
    19     5     1
Selective dynamics
Direct
  0.9086865549232054  0.2063742435506251  0.0976087964868152   T   T   T
  0.9112026942060035  0.8015180742581052  0.0975098271789334   T   T   T
  0.1965806684669215  0.0843087793619207  0.0976948360639452   T   T   T
  0.0758531406482124  0.2011890842003448  0.0976477263733739   T   T   T
  0.1559377425399077  0.6507151417573530  0.0977792756435978   T   T   T
  0.0749833611952141  0.5012430529525554  0.0977795564630970   T   T   T
  0.1565228388137885  0.3557462031945687  0.0977527099235711   T   T   T
  0.0794030192165727  0.7990856683828614  0.0976276060773367   T   T   T
  0.4938883001220970  0.0859403892927321  0.0977549103530847   T   T   T
  0.3466346165978945  0.1660468961084187  0.0977898356856792   T   T   T
  0.4940165412957834  0.9135193942880163  0.0977347864860837   T   T   T
  0.3445046075668788  0.8325594592377594  0.0978575460592890   T   T   T
  0.7887168951827991  0.0875841014986468  0.0975482725756362   T   T   T
  0.6411208530909017  0.1678648942251707  0.0977448472534005   T   T   T
  0.7902397542290593  0.9191451993490480  0.0974980260967124   T   T   T
  0.8287997939914556  0.6520330316239831  0.0977026838731319   T   T   T
  0.8253549834256743  0.3554546196434725  0.0977902218335912   T   T   T
  0.6430370360850344  0.8347805568827646  0.0976951168624633   T   T   T
  0.3236514015781527  0.3342071077603025  0.0978126046883387   T   T   T
  0.9046568529685357  0.5035442346922696  0.0978241616613609   T   T   T
  0.3185213365261728  0.6732802617163396  0.0979643810882534   T   T   T
  0.6647231192923058  0.3320374674854650  0.0979540304532239   T   T   T
  0.6694837112625517  0.6725198553653667  0.0978834257382502   T   T   T
  0.1979528413890720  0.9147460646516741  0.0977618060554423   T   T   T
  0.4909393353857980  0.4993462185202562  0.0979880090253612   T   T   T
 
  0.00000000E+00  0.00000000E+00  0.00000000E+00
  0.00000000E+00  0.00000000E+00  0.00000000E+00
  0.00000000E+00  0.00000000E+00  0.00000000E+00
  0.00000000E+00  0.00000000E+00  0.00000000E+00
  0.00000000E+00  0.00000000E+00  0.00000000E+00
  0.00000000E+00  0.00000000E+00  0.00000000E+00
  0.00000000E+00  0.00000000E+00  0.00000000E+00
  0.00000000E+00  0.00000000E+00  0.00000000E+00
  0.00000000E+00  0.00000000E+00  0.00000000E+00
  0.00000000E+00  0.00000000E+00  0.00000000E+00
  0.00000000E+00  0.00000000E+00  0.00000000E+00
  0.00000000E+00  0.00000000E+00  0.00000000E+00
  0.00000000E+00  0.00000000E+00  0.00000000E+00
  0.00000000E+00  0.00000000E+00  0.00000000E+00
  0.00000000E+00  0.00000000E+00  0.00000000E+00
  0.00000000E+00  0.00000000E+00  0.00000000E+00
  0.00000000E+00  0.00000000E+00  0.00000000E+00
  0.00000000E+00  0.00000000E+00  0.00000000E+00
  0.00000000E+00  0.00000000E+00  0.00000000E+00
  0.00000000E+00  0.00000000E+00  0.00000000E+00
  0.00000000E+00  0.00000000E+00  0.00000000E+00
  0.00000000E+00  0.00000000E+00  0.00000000E+00
  0.00000000E+00  0.00000000E+00  0.00000000E+00
  0.00000000E+00  0.00000000E+00  0.00000000E+00
  0.00000000E+00  0.00000000E+00  0.00000000E+00
