Title                                   
   1.00000000000000     
     4.9440799999999996    0.0000000000000000    0.0000000000000000
     0.0000000000000000    8.5647549999999999    0.0000000000000000
     0.0000000000000000    0.0000000000000000   20.0000000000000000
     9     5     1
Selective dynamics
Direct
 -0.0015006007639818  0.2957474500038910  0.1004854709728329   T   T   T
  0.2500000000000000  0.0380659871887536  0.1004222296802629   T   T   T
 -0.0010771798590755  0.9554499026057029  0.1005574459349111   T   T   T
  0.7500000000000000  0.2068071486073021  0.1004615249884217   T   T   T
  0.5015006007639822  0.2957474500038910  0.1004854709728329   T   T   T
  0.7500000000000000  0.0412387859101479  0.1005395249401890   T   T   T
  0.7500000000000000  0.7108743604397900  0.1005951005055396   T   T   T
  0.7500000000000000  0.5381868832013481  0.1004879317375559   T   T   T
  0.5010771798590755  0.9554499026057029  0.1005574459349111   T   T   T
  0.5126085044890616  0.4538138068964924  0.1005017199000440   T   T   T
 -0.0126085044890617  0.4538138068964924  0.1005017199000440   T   T   T
 -0.0142085055589502  0.7939085489493887  0.1006934640431685   T   T   T
  0.5142085055589499  0.7939085489493887  0.1006934640431685   T   T   T
  0.2500000000000000  0.2135171622134719  0.1003948106865546   T   T   T
  0.2500000000000000  0.6251512555282387  0.1006026757595667   T   T   T
 
  0.00000000E+00  0.00000000E+00  0.00000000E+00
  0.00000000E+00  0.00000000E+00  0.00000000E+00
  0.00000000E+00  0.00000000E+00  0.00000000E+00
  0.00000000E+00  0.00000000E+00  0.00000000E+00
  0.00000000E+00  0.00000000E+00  0.00000000E+00
  0.00000000E+00  0.00000000E+00  0.00000000E+00
  0.00000000E+00  0.00000000E+00  0.00000000E+00
  0.00000000E+00  0.00000000E+00  0.00000000E+00
  0.00000000E+00  0.00000000E+00  0.00000000E+00
  0.00000000E+00  0.00000000E+00  0.00000000E+00
  0.00000000E+00  0.00000000E+00  0.00000000E+00
  0.00000000E+00  0.00000000E+00  0.00000000E+00
  0.00000000E+00  0.00000000E+00  0.00000000E+00
  0.00000000E+00  0.00000000E+00  0.00000000E+00
  0.00000000E+00  0.00000000E+00  0.00000000E+00
