Title                                   
   1.00000000000000     
     4.9440799999999996    0.0000000000000000    0.0000000000000000
     0.0000000000000000    8.5647549999999999    0.0000000000000000
     0.0000000000000000    0.0000000000000000   20.0000000000000000
    13     2     1
Selective dynamics
Direct
  0.2544437633328697  0.2145759917893326  0.0932826623819730   T   T   T
 -0.0018702136874320  0.2970655304729175  0.0880618707515922   T   T   T
  0.2555858686351085  0.0461913092973024  0.0971027167472317   T   T   T
  0.0117160087256118  0.7976267876146114  0.1028251773360059   T   T   T
  0.0073993294537111  0.9624099907836180  0.0969273866450003   T   T   T
  0.7534719353023998  0.2079222471263052  0.0934008494654827   T   T   T
  0.5081160295962044  0.2920016888322787  0.0983814982667673   T   T   T
  0.7557493448937551  0.0431317235536589  0.0949779098126339   T   T   T
  0.7608424248321995  0.7090593410487507  0.1018301287412549   T   T   T
  0.5048806258840891  0.7948117685903117  0.1056659140860424   T   T   T
  0.7573931682131928  0.5390915886282158  0.0944116564725115   T   T   T
  0.5053688018864998  0.9614068400366402  0.0995726285577557   T   T   T
  0.5295726624648230  0.4548116656751795  0.1151537883398565   T   T   T
 -0.0136847871822716  0.4580565425051941  0.0661329857246679   T   T   T
  0.2570352312786424  0.7211064233246793  0.1137527096599434   T   T   T
  0.1539798063705968  0.5007305607210025  0.1610321170112881   T   T   T
 
  0.00000000E+00  0.00000000E+00  0.00000000E+00
  0.00000000E+00  0.00000000E+00  0.00000000E+00
  0.00000000E+00  0.00000000E+00  0.00000000E+00
  0.00000000E+00  0.00000000E+00  0.00000000E+00
  0.00000000E+00  0.00000000E+00  0.00000000E+00
  0.00000000E+00  0.00000000E+00  0.00000000E+00
  0.00000000E+00  0.00000000E+00  0.00000000E+00
  0.00000000E+00  0.00000000E+00  0.00000000E+00
  0.00000000E+00  0.00000000E+00  0.00000000E+00
  0.00000000E+00  0.00000000E+00  0.00000000E+00
  0.00000000E+00  0.00000000E+00  0.00000000E+00
  0.00000000E+00  0.00000000E+00  0.00000000E+00
  0.00000000E+00  0.00000000E+00  0.00000000E+00
  0.00000000E+00  0.00000000E+00  0.00000000E+00
  0.00000000E+00  0.00000000E+00  0.00000000E+00
  0.00000000E+00  0.00000000E+00  0.00000000E+00
