Title                                   
   1.00000000000000     
     9.8694509999999998    0.0000000000000000    0.0000000000000000
     0.0000000000000000    8.5490480000000009    0.0000000000000000
     0.0000000000000000    0.0000000000000000   20.0000000000000000
    28     2     1
Selective dynamics
Direct
  0.0562578690663245  0.0892593010628185  0.0910077160174606   T   T   T
  0.9310553064084753  0.1720322268225571  0.0932024148122635   T   T   T
  0.0573945615076103  0.9236078988934712  0.0911022140798396   T   T   T
  0.9323441351803037  0.3394576812828498  0.0943488140913204   T   T   T
  0.0573372071013384  0.5901124196654575  0.0932843819963297   T   T   T
  0.9325864575160679  0.6728406133216349  0.0948185208306555   T   T   T
  0.0574515556806478  0.4227893776589525  0.0929119200840142   T   T   T
  0.9317713685635672  0.8398944321007149  0.0935884584599041   T   T   T
  0.3078529327853977  0.0881535096441093  0.0887828432646469   T   T   T
  0.1829587652015417  0.1714119122175728  0.0899318769535118   T   T   T
  0.1817855193399206  0.3388407056338302  0.0909386473435556   T   T   T
  0.3069330484650474  0.5905164671485051  0.0890532609781759   T   T   T
  0.1821998851396099  0.6739048443756946  0.0913610409567513   T   T   T
  0.3067571112194016  0.4207148584584390  0.0891581049094161   T   T   T
  0.1828776733499205  0.8405052612848886  0.0902004886756048   T   T   T
  0.4336482999183334  0.1727336253086137  0.0899911241668804   T   T   T
  0.5561614803648885  0.9239059126545555  0.0957287254207578   T   T   T
  0.4318511171149720  0.3373707917074740  0.0903277910700545   T   T   T
  0.4304985914471102  0.6747004761294561  0.0897822483979297   T   T   T
  0.4315494883838772  0.8399214106982830  0.0906845115992611   T   T   T
  0.8047403982933934  0.0894867740372583  0.0946184692161618   T   T   T
  0.6797692248570691  0.1777595320158000  0.0977475331218106   T   T   T
  0.8057086935572972  0.9219709725120797  0.0950985602024694   T   T   T
  0.6807881444050269  0.3436605363740496  0.1040511599439337   T   T   T
  0.8085582000092120  0.5900271956717954  0.0992853989905042   T   T   T
  0.6818773149041037  0.6675875945246826  0.1050617637776654   T   T   T
  0.8087070906637470  0.4212056921080008  0.0990010361462330   T   T   T
  0.6798160075556359  0.8354270792921705  0.0990350534633222   T   T   T
  0.5576809820034145  0.0902250791733865  0.0947590994462248   T   T   T
  0.3062301616869518  0.9230616937601003  0.0888841401646326   T   T   T
  0.5379864083097939  0.5077891244608166  0.1332176814187353   T   T   T
 
  0.00000000E+00  0.00000000E+00  0.00000000E+00
  0.00000000E+00  0.00000000E+00  0.00000000E+00
  0.00000000E+00  0.00000000E+00  0.00000000E+00
  0.00000000E+00  0.00000000E+00  0.00000000E+00
  0.00000000E+00  0.00000000E+00  0.00000000E+00
  0.00000000E+00  0.00000000E+00  0.00000000E+00
  0.00000000E+00  0.00000000E+00  0.00000000E+00
  0.00000000E+00  0.00000000E+00  0.00000000E+00
  0.00000000E+00  0.00000000E+00  0.00000000E+00
  0.00000000E+00  0.00000000E+00  0.00000000E+00
  0.00000000E+00  0.00000000E+00  0.00000000E+00
  0.00000000E+00  0.00000000E+00  0.00000000E+00
  0.00000000E+00  0.00000000E+00  0.00000000E+00
  0.00000000E+00  0.00000000E+00  0.00000000E+00
  0.00000000E+00  0.00000000E+00  0.00000000E+00
  0.00000000E+00  0.00000000E+00  0.00000000E+00
  0.00000000E+00  0.00000000E+00  0.00000000E+00
  0.00000000E+00  0.00000000E+00  0.00000000E+00
  0.00000000E+00  0.00000000E+00  0.00000000E+00
  0.00000000E+00  0.00000000E+00  0.00000000E+00
  0.00000000E+00  0.00000000E+00  0.00000000E+00
  0.00000000E+00  0.00000000E+00  0.00000000E+00
  0.00000000E+00  0.00000000E+00  0.00000000E+00
  0.00000000E+00  0.00000000E+00  0.00000000E+00
  0.00000000E+00  0.00000000E+00  0.00000000E+00
  0.00000000E+00  0.00000000E+00  0.00000000E+00
  0.00000000E+00  0.00000000E+00  0.00000000E+00
  0.00000000E+00  0.00000000E+00  0.00000000E+00
  0.00000000E+00  0.00000000E+00  0.00000000E+00
  0.00000000E+00  0.00000000E+00  0.00000000E+00
  0.00000000E+00  0.00000000E+00  0.00000000E+00
