Title                                   
   1.00000000000000     
     9.8694509999999998    0.0000000000000000    0.0000000000000000
     0.0000000000000000    8.5490480000000009    0.0000000000000000
     0.0000000000000000    0.0000000000000000   20.0000000000000000
    26     4     1
Selective dynamics
Direct
  0.0562307860756677  0.0894715534062454  0.0834920728474270   T   T   T
  0.9314542577456002  0.1724425607228023  0.0852832555777632   T   T   T
  0.0562112048784757  0.9228467618283132  0.0835316328875654   T   T   T
  0.9322073846649040  0.3398423601429821  0.0833543085568900   T   T   T
  0.0562863632114317  0.5892410690556823  0.0794994942663688   T   T   T
  0.9322077561991660  0.6724587420015122  0.0833896469413162   T   T   T
  0.0562877724506002  0.4230869258368200  0.0794701119469660   T   T   T
  0.9314419216320864  0.8398582701445415  0.0853169075230925   T   T   T
  0.3056654594818251  0.0900256887562803  0.0920797002856681   T   T   T
  0.1809792174609199  0.1724701832511837  0.0854994530864993   T   T   T
  0.3056550343362796  0.9223174383837757  0.0921532007477317   T   T   T
  0.1802955991145097  0.3398779663394547  0.0837697189846554   T   T   T
  0.3044116847012032  0.5926201257847368  0.0935191388487224   T   T   T
  0.1802939128489368  0.6724615623625253  0.0838632997697644   T   T   T
  0.3044132567275120  0.4197335257015092  0.0934353456089660   T   T   T
  0.1809494890909384  0.8398606393741989  0.0855986720093952   T   T   T
  0.5562104060380674  0.0927723718141031  0.1041068669549321   T   T   T
  0.4278267297695850  0.1772311765457434  0.1016962656853035   T   T   T
  0.5561984714907875  0.9195593710756466  0.1041893735868813   T   T   T
  0.4277892149244646  0.8351387736079507  0.1018516169289768   T   T   T
  0.8067305530824198  0.0899958329062233  0.0918190228975901   T   T   T
  0.6845802498463559  0.1772328217834487  0.1013298443843905   T   T   T
  0.8066952522648063  0.9222843196521154  0.0918353169842211   T   T   T
  0.8080035514757652  0.5925581319002931  0.0926120974210381   T   T   T
  0.8080067375248018  0.4197284724141193  0.0925931414819160   T   T   T
  0.6845612044148247  0.8350326233670119  0.1013882991865765   T   T   T
  0.4202041438298635  0.3382198012445040  0.1060155768519266   T   T   T
  0.4201476444394383  0.6741455522532309  0.1062175074503429   T   T   T
  0.6922152881269873  0.3382939927655388  0.1052427026213706   T   T   T
  0.6922154588843302  0.6739904405393753  0.1052934961369728   T   T   T
  0.5567599932674508  0.5060759450381310  0.1615179115388104   T   T   T
 
  0.00000000E+00  0.00000000E+00  0.00000000E+00
  0.00000000E+00  0.00000000E+00  0.00000000E+00
  0.00000000E+00  0.00000000E+00  0.00000000E+00
  0.00000000E+00  0.00000000E+00  0.00000000E+00
  0.00000000E+00  0.00000000E+00  0.00000000E+00
  0.00000000E+00  0.00000000E+00  0.00000000E+00
  0.00000000E+00  0.00000000E+00  0.00000000E+00
  0.00000000E+00  0.00000000E+00  0.00000000E+00
  0.00000000E+00  0.00000000E+00  0.00000000E+00
  0.00000000E+00  0.00000000E+00  0.00000000E+00
  0.00000000E+00  0.00000000E+00  0.00000000E+00
  0.00000000E+00  0.00000000E+00  0.00000000E+00
  0.00000000E+00  0.00000000E+00  0.00000000E+00
  0.00000000E+00  0.00000000E+00  0.00000000E+00
  0.00000000E+00  0.00000000E+00  0.00000000E+00
  0.00000000E+00  0.00000000E+00  0.00000000E+00
  0.00000000E+00  0.00000000E+00  0.00000000E+00
  0.00000000E+00  0.00000000E+00  0.00000000E+00
  0.00000000E+00  0.00000000E+00  0.00000000E+00
  0.00000000E+00  0.00000000E+00  0.00000000E+00
  0.00000000E+00  0.00000000E+00  0.00000000E+00
  0.00000000E+00  0.00000000E+00  0.00000000E+00
  0.00000000E+00  0.00000000E+00  0.00000000E+00
  0.00000000E+00  0.00000000E+00  0.00000000E+00
  0.00000000E+00  0.00000000E+00  0.00000000E+00
  0.00000000E+00  0.00000000E+00  0.00000000E+00
  0.00000000E+00  0.00000000E+00  0.00000000E+00
  0.00000000E+00  0.00000000E+00  0.00000000E+00
  0.00000000E+00  0.00000000E+00  0.00000000E+00
  0.00000000E+00  0.00000000E+00  0.00000000E+00
  0.00000000E+00  0.00000000E+00  0.00000000E+00
