Title                                   
   1.00000000000000     
     4.9440799999999996    0.0000000000000000    0.0000000000000000
     0.0000000000000000   17.1295089999999988    0.0000000000000000
     0.0000000000000000    0.0000000000000000   20.0000000000000000
    29     2     1
Selective dynamics
Direct
  0.0000999559551315  0.1047461580463271  0.2823916569478541   T   T   T
  0.2499036567327350  0.1464074403623939  0.2872635816635449   T   T   T
  0.2498694595067427  0.2285308691417989  0.3002965970097922   T   T   T
  0.0052226344341967  0.3489333347987778  0.3260786184872067   T   T   T
 -0.0017072273213884  0.2693502105857034  0.3069485131791756   T   T   T
 -0.0038179674686493  0.6055389847293463  0.3084834001735410   T   T   T
  0.2498740115427644  0.7288933366405315  0.2899363349440040   T   T   T
  0.0003232259841562  0.8543407013698425  0.2781804631417324   T   T   T
  0.2498988316624561  0.8963287992453344  0.2764018056111035   T   T   T
  0.2499484219423765  0.9797274656705794  0.2757844059212772   T   T   T
  0.0004679371179431  0.7712452839399337  0.2847336116990260   T   T   T
  0.4996607155826757  0.1047503934048152  0.2823920217070223   T   T   T
  0.7499067083449571  0.1464380465358516  0.2863780506707241   T   T   T
  0.7498789085791293  0.2282488570651273  0.2978349103504678   T   T   T
  0.4999442142309658  0.0216232500489863  0.2768390443434191   T   T   T
  0.4945660267100071  0.3489315248772917  0.3260827686648406   T   T   T
  0.7499104093839282  0.4785607068959637  0.3239043448861973   T   T   T
  0.5014383344673077  0.2693473771581974  0.3069510404916608   T   T   T
  0.5036573859864659  0.6055347755849925  0.3084846325826353   T   T   T
  0.7498735240720044  0.7302912663328918  0.2888506219838032   T   T   T
  0.4994780068268670  0.8543430805914983  0.2781780550794468   T   T   T
  0.7499096735114068  0.8961388001251728  0.2761899827869470   T   T   T
  0.7499414116296382  0.9796300822827809  0.2754534546541843   T   T   T
  0.4993270128548670  0.7712465110993973  0.2847360456872325   T   T   T
  0.7499200124558608  0.6482222153085181  0.3003544631588642   T   T   T
  0.2499245010546415  0.6464530374920364  0.3019136575383285   T   T   T
 -0.0000886585846261  0.0216184195895960  0.2768371992407502   T   T   T
  0.5150550526375092  0.5248161286044932  0.3240359801486322   T   T   T
  0.9847391193115324  0.5248235828239894  0.3240411504468206   T   T   T
  0.2498984115059839  0.3828850336743483  0.3406171020126845   T   T   T
  0.7499002534466563  0.3928462508172373  0.3311884159327809   T   T   T
  0.2498990359037628  0.4877590751562365  0.3948030688542521   T   T   T
 
  0.00000000E+00  0.00000000E+00  0.00000000E+00
  0.00000000E+00  0.00000000E+00  0.00000000E+00
  0.00000000E+00  0.00000000E+00  0.00000000E+00
  0.00000000E+00  0.00000000E+00  0.00000000E+00
  0.00000000E+00  0.00000000E+00  0.00000000E+00
  0.00000000E+00  0.00000000E+00  0.00000000E+00
  0.00000000E+00  0.00000000E+00  0.00000000E+00
  0.00000000E+00  0.00000000E+00  0.00000000E+00
  0.00000000E+00  0.00000000E+00  0.00000000E+00
  0.00000000E+00  0.00000000E+00  0.00000000E+00
  0.00000000E+00  0.00000000E+00  0.00000000E+00
  0.00000000E+00  0.00000000E+00  0.00000000E+00
  0.00000000E+00  0.00000000E+00  0.00000000E+00
  0.00000000E+00  0.00000000E+00  0.00000000E+00
  0.00000000E+00  0.00000000E+00  0.00000000E+00
  0.00000000E+00  0.00000000E+00  0.00000000E+00
  0.00000000E+00  0.00000000E+00  0.00000000E+00
  0.00000000E+00  0.00000000E+00  0.00000000E+00
  0.00000000E+00  0.00000000E+00  0.00000000E+00
  0.00000000E+00  0.00000000E+00  0.00000000E+00
  0.00000000E+00  0.00000000E+00  0.00000000E+00
  0.00000000E+00  0.00000000E+00  0.00000000E+00
  0.00000000E+00  0.00000000E+00  0.00000000E+00
  0.00000000E+00  0.00000000E+00  0.00000000E+00
  0.00000000E+00  0.00000000E+00  0.00000000E+00
  0.00000000E+00  0.00000000E+00  0.00000000E+00
  0.00000000E+00  0.00000000E+00  0.00000000E+00
  0.00000000E+00  0.00000000E+00  0.00000000E+00
  0.00000000E+00  0.00000000E+00  0.00000000E+00
  0.00000000E+00  0.00000000E+00  0.00000000E+00
  0.00000000E+00  0.00000000E+00  0.00000000E+00
  0.00000000E+00  0.00000000E+00  0.00000000E+00
