Title                                   
   1.00000000000000     
     9.8694509999999998    0.0000000000000000    0.0000000000000000
     0.0000000000000000    8.5490480000000009    0.0000000000000000
     0.0000000000000000    0.0000000000000000   20.0000000000000000
    25     5     1
Selective dynamics
Direct
  0.0558108405319973  0.0901280433977569  0.0910579072306845   T   T   T
  0.9317834579230756  0.1721235594759083  0.0919517784787938   T   T   T
  0.0573151465514143  0.9227512707047891  0.0912603562346871   T   T   T
  0.9327542860798295  0.3397883977335055  0.0912268511549355   T   T   T
  0.0567199974135628  0.5897153522161650  0.0889982692702999   T   T   T
  0.9328415620068843  0.6727845648898634  0.0911185869553489   T   T   T
  0.0567897009389885  0.4233104324118430  0.0889757913084279   T   T   T
  0.9320882599442033  0.8396526250550179  0.0918802308494041   T   T   T
  0.3066934848628642  0.0887980532137902  0.0946174544566106   T   T   T
  0.1810975766953515  0.1717065690304145  0.0916536712224319   T   T   T
  0.1804257135846234  0.3389704927080690  0.0907992478254377   T   T   T
  0.3029242883166600  0.5900670290581999  0.0960055399112201   T   T   T
  0.1807309909097245  0.6738478487316276  0.0909462734800603   T   T   T
  0.3034128491214497  0.4224696347623395  0.0959092004454674   T   T   T
  0.1812901073127578  0.8402329466756692  0.0920045431993898   T   T   T
  0.5564414960776736  0.0927923586568987  0.1012240517413546   T   T   T
  0.4290152245087133  0.1758620206975159  0.1000336536993011   T   T   T
  0.5550612475872854  0.9198862167474509  0.1009726708002930   T   T   T
  0.4283614617668424  0.8357847178103410  0.1002895337977696   T   T   T
  0.8055293009148213  0.0896077832673200  0.0947062084985194   T   T   T
  0.6828777091050136  0.1771807769997058  0.1002120457619744   T   T   T
  0.8056046658012388  0.9221920291254958  0.0944897679029426   T   T   T
  0.8096007195037422  0.5903778552976988  0.0960196013028563   T   T   T
  0.8096798024670411  0.4215543061665196  0.0963931776281776   T   T   T
  0.6823688187188525  0.8341678622182254  0.0995027755137663   T   T   T
  0.4232153145082212  0.3387164395485620  0.1045068530570056   T   T   T
  0.4221386655900732  0.6759231582316285  0.1054604101017917   T   T   T
  0.6888455924614322  0.3399630628226470  0.1050252980084360   T   T   T
  0.6887580361142785  0.6720540519082041  0.1034802253304381   T   T   T
  0.3069129245523822  0.9229912701306950  0.0944745511335400   T   T   T
  0.5560467581290025  0.5054742703061291  0.1257684736986915   T   T   T
 
  0.00000000E+00  0.00000000E+00  0.00000000E+00
  0.00000000E+00  0.00000000E+00  0.00000000E+00
  0.00000000E+00  0.00000000E+00  0.00000000E+00
  0.00000000E+00  0.00000000E+00  0.00000000E+00
  0.00000000E+00  0.00000000E+00  0.00000000E+00
  0.00000000E+00  0.00000000E+00  0.00000000E+00
  0.00000000E+00  0.00000000E+00  0.00000000E+00
  0.00000000E+00  0.00000000E+00  0.00000000E+00
  0.00000000E+00  0.00000000E+00  0.00000000E+00
  0.00000000E+00  0.00000000E+00  0.00000000E+00
  0.00000000E+00  0.00000000E+00  0.00000000E+00
  0.00000000E+00  0.00000000E+00  0.00000000E+00
  0.00000000E+00  0.00000000E+00  0.00000000E+00
  0.00000000E+00  0.00000000E+00  0.00000000E+00
  0.00000000E+00  0.00000000E+00  0.00000000E+00
  0.00000000E+00  0.00000000E+00  0.00000000E+00
  0.00000000E+00  0.00000000E+00  0.00000000E+00
  0.00000000E+00  0.00000000E+00  0.00000000E+00
  0.00000000E+00  0.00000000E+00  0.00000000E+00
  0.00000000E+00  0.00000000E+00  0.00000000E+00
  0.00000000E+00  0.00000000E+00  0.00000000E+00
  0.00000000E+00  0.00000000E+00  0.00000000E+00
  0.00000000E+00  0.00000000E+00  0.00000000E+00
  0.00000000E+00  0.00000000E+00  0.00000000E+00
  0.00000000E+00  0.00000000E+00  0.00000000E+00
  0.00000000E+00  0.00000000E+00  0.00000000E+00
  0.00000000E+00  0.00000000E+00  0.00000000E+00
  0.00000000E+00  0.00000000E+00  0.00000000E+00
  0.00000000E+00  0.00000000E+00  0.00000000E+00
  0.00000000E+00  0.00000000E+00  0.00000000E+00
  0.00000000E+00  0.00000000E+00  0.00000000E+00
