Title                                   
   1.00000000000000     
     9.8694509999999998    0.0000000000000000    0.0000000000000000
     0.0000000000000000    8.5490480000000009    0.0000000000000000
     0.0000000000000000    0.0000000000000000   20.0000000000000000
    25     5     1
Selective dynamics
Direct
  0.0556379485195681  0.0890058221247591  0.0948680947611760   T   T   T
  0.9305247739361711  0.1712789477629856  0.0951343996753788   T   T   T
  0.0571296066074941  0.9213697517574305  0.0947408006509381   T   T   T
  0.9341990821054006  0.3380538081298595  0.0950792771673627   T   T   T
  0.0568969556331554  0.5905629421162754  0.0946013278894947   T   T   T
  0.0571724882102408  0.4235035879692486  0.0947214958543673   T   T   T
  0.9313559638227438  0.8387506223020245  0.0948931418067212   T   T   T
  0.3078003084425887  0.0891947695060267  0.0944542985542250   T   T   T
  0.1808789033703536  0.1717746942644826  0.0946522993575889   T   T   T
  0.1811004551809887  0.3388380600152863  0.0946161344469495   T   T   T
  0.3038572262381785  0.5888503014378863  0.0944798417054167   T   T   T
  0.1804912766153416  0.6735785119329851  0.0944571041529738   T   T   T
  0.3050960557300074  0.4221379576690900  0.0945155788415364   T   T   T
  0.1816591589086878  0.8400599217492959  0.0944378778021524   T   T   T
  0.4296741184890719  0.1765006702180900  0.0945702671889788   T   T   T
  0.5530287711824932  0.9214475209514884  0.0950914765312766   T   T   T
  0.4291172749102254  0.8354642867533006  0.0946137358221243   T   T   T
  0.8036805539033931  0.0892879236314028  0.0952524241624207   T   T   T
  0.6787472944804644  0.1790381635384683  0.0953288365986255   T   T   T
  0.8047569112634936  0.9204792584271637  0.0951667760454988   T   T   T
  0.6868808772584237  0.3448190230794147  0.0956831417081409   T   T   T
  0.8125245975358556  0.5908189645879014  0.0952592672544363   T   T   T
  0.6881158261365777  0.6683797598715380  0.0954066052412340   T   T   T
  0.8129501830052890  0.4224290946800037  0.0954243061697537   T   T   T
  0.6780625547178207  0.8352475475974127  0.0952995090061960   T   T   T
  0.9343658335090361  0.6732546982866592  0.0947825193064730   T   T   T
  0.5541036263260832  0.0943786355271719  0.0949357156182380   T   T   T
  0.4269250539233149  0.3391065197009328  0.0945253664673468   T   T   T
  0.4248714736582518  0.6743086555827519  0.0945262915441372   T   T   T
  0.3059875209274805  0.9216358583173404  0.0942382714801867   T   T   T
  0.5555423254518224  0.5073187205113295  0.0952088171886994   T   T   T
 
  0.00000000E+00  0.00000000E+00  0.00000000E+00
  0.00000000E+00  0.00000000E+00  0.00000000E+00
  0.00000000E+00  0.00000000E+00  0.00000000E+00
  0.00000000E+00  0.00000000E+00  0.00000000E+00
  0.00000000E+00  0.00000000E+00  0.00000000E+00
  0.00000000E+00  0.00000000E+00  0.00000000E+00
  0.00000000E+00  0.00000000E+00  0.00000000E+00
  0.00000000E+00  0.00000000E+00  0.00000000E+00
  0.00000000E+00  0.00000000E+00  0.00000000E+00
  0.00000000E+00  0.00000000E+00  0.00000000E+00
  0.00000000E+00  0.00000000E+00  0.00000000E+00
  0.00000000E+00  0.00000000E+00  0.00000000E+00
  0.00000000E+00  0.00000000E+00  0.00000000E+00
  0.00000000E+00  0.00000000E+00  0.00000000E+00
  0.00000000E+00  0.00000000E+00  0.00000000E+00
  0.00000000E+00  0.00000000E+00  0.00000000E+00
  0.00000000E+00  0.00000000E+00  0.00000000E+00
  0.00000000E+00  0.00000000E+00  0.00000000E+00
  0.00000000E+00  0.00000000E+00  0.00000000E+00
  0.00000000E+00  0.00000000E+00  0.00000000E+00
  0.00000000E+00  0.00000000E+00  0.00000000E+00
  0.00000000E+00  0.00000000E+00  0.00000000E+00
  0.00000000E+00  0.00000000E+00  0.00000000E+00
  0.00000000E+00  0.00000000E+00  0.00000000E+00
  0.00000000E+00  0.00000000E+00  0.00000000E+00
  0.00000000E+00  0.00000000E+00  0.00000000E+00
  0.00000000E+00  0.00000000E+00  0.00000000E+00
  0.00000000E+00  0.00000000E+00  0.00000000E+00
  0.00000000E+00  0.00000000E+00  0.00000000E+00
  0.00000000E+00  0.00000000E+00  0.00000000E+00
  0.00000000E+00  0.00000000E+00  0.00000000E+00
