Title                                   
   1.00000000000000     
     9.8694509999999998    0.0000000000000000    0.0000000000000000
     0.0000000000000000    8.5490480000000009    0.0000000000000000
     0.0000000000000000    0.0000000000000000   20.0000000000000000
    28     2     1
Selective dynamics
Direct
  0.0545146002631922  0.0892381808751919  0.0815914216189218   T   T   T
  0.9305641359518704  0.1728770461696877  0.0895832065303836   T   T   T
  0.0545438714014990  0.9230548642048982  0.0815717284982086   T   T   T
  0.9324399531648909  0.3394201507408565  0.0938310194361967   T   T   T
  0.0553833675384455  0.5892206241024112  0.0831071820988062   T   T   T
  0.9324137971908072  0.6728513398876608  0.0937378206481449   T   T   T
  0.0553922297142414  0.4231198686700303  0.0831464770077035   T   T   T
  0.9305854430492622  0.8394326193945045  0.0895110584386877   T   T   T
  0.3046970608387501  0.0895156253564249  0.0823489786282368   T   T   T
  0.1797564213767611  0.1725032866427414  0.0790706774281146   T   T   T
  0.3047050219625148  0.9227995622241771  0.0823078110415523   T   T   T
  0.1796929393897934  0.3396339603540480  0.0778215783103002   T   T   T
  0.3067626069128837  0.5933401796614183  0.0777708851062495   T   T   T
  0.1797083039279402  0.6727007154492595  0.0777985894885114   T   T   T
  0.3067480434181703  0.4189775834385798  0.0777874546889192   T   T   T
  0.1798017125781455  0.8398156125526661  0.0790194032275980   T   T   T
  0.5537604377691949  0.0900805149892637  0.1021667056273146   T   T   T
  0.4276415727246927  0.1774561153619911  0.0891925644153348   T   T   T
  0.5537594838229833  0.9221976549662689  0.1020987407044571   T   T   T
  0.4276854132237058  0.8348497406001096  0.0890739017723241   T   T   T
  0.8062193040841512  0.0893142098510277  0.0962128650148884   T   T   T
  0.6830833495969882  0.1733975638686245  0.1105548557299909   T   T   T
  0.8062294634358479  0.9229873278844063  0.0961760910880473   T   T   T
  0.6956256400397746  0.3306384624824634  0.1294046119882813   T   T   T
  0.8129141009627926  0.5927770575398941  0.1144734782668526   T   T   T
  0.6956396286566945  0.6816571401055879  0.1292535311510779   T   T   T
  0.8129306248119816  0.4194992446309793  0.1145678478720688   T   T   T
  0.6830722204254664  0.8389016116279990  0.1104491489013244   T   T   T
  0.4242088414765242  0.3368197065134476  0.0844037221533266   T   T   T
  0.4242691612297693  0.6754709866483877  0.0843222349449857   T   T   T
  0.5483862490602749  0.5063264432050055  0.1586094081732315   T   T   T
 
  0.00000000E+00  0.00000000E+00  0.00000000E+00
  0.00000000E+00  0.00000000E+00  0.00000000E+00
  0.00000000E+00  0.00000000E+00  0.00000000E+00
  0.00000000E+00  0.00000000E+00  0.00000000E+00
  0.00000000E+00  0.00000000E+00  0.00000000E+00
  0.00000000E+00  0.00000000E+00  0.00000000E+00
  0.00000000E+00  0.00000000E+00  0.00000000E+00
  0.00000000E+00  0.00000000E+00  0.00000000E+00
  0.00000000E+00  0.00000000E+00  0.00000000E+00
  0.00000000E+00  0.00000000E+00  0.00000000E+00
  0.00000000E+00  0.00000000E+00  0.00000000E+00
  0.00000000E+00  0.00000000E+00  0.00000000E+00
  0.00000000E+00  0.00000000E+00  0.00000000E+00
  0.00000000E+00  0.00000000E+00  0.00000000E+00
  0.00000000E+00  0.00000000E+00  0.00000000E+00
  0.00000000E+00  0.00000000E+00  0.00000000E+00
  0.00000000E+00  0.00000000E+00  0.00000000E+00
  0.00000000E+00  0.00000000E+00  0.00000000E+00
  0.00000000E+00  0.00000000E+00  0.00000000E+00
  0.00000000E+00  0.00000000E+00  0.00000000E+00
  0.00000000E+00  0.00000000E+00  0.00000000E+00
  0.00000000E+00  0.00000000E+00  0.00000000E+00
  0.00000000E+00  0.00000000E+00  0.00000000E+00
  0.00000000E+00  0.00000000E+00  0.00000000E+00
  0.00000000E+00  0.00000000E+00  0.00000000E+00
  0.00000000E+00  0.00000000E+00  0.00000000E+00
  0.00000000E+00  0.00000000E+00  0.00000000E+00
  0.00000000E+00  0.00000000E+00  0.00000000E+00
  0.00000000E+00  0.00000000E+00  0.00000000E+00
  0.00000000E+00  0.00000000E+00  0.00000000E+00
  0.00000000E+00  0.00000000E+00  0.00000000E+00
