Title                                   
   1.00000000000000     
     9.8694509999999998    0.0000000000000000    0.0000000000000000
     0.0000000000000000    8.5490480000000009    0.0000000000000000
     0.0000000000000000    0.0000000000000000   20.0000000000000000
    27     3     1
Selective dynamics
Direct
  0.0552845271965531  0.0896346573438386  0.0831881558217150   T   T   T
  0.9307701401921721  0.1722146009688197  0.0834091519912198   T   T   T
  0.0579955304731789  0.9236742497096634  0.0836982793505519   T   T   T
  0.9335599907352488  0.3401560136647907  0.0819144553500987   T   T   T
  0.0567895064899234  0.5898659637718199  0.0795319326436383   T   T   T
  0.9337803372863624  0.6750487503489364  0.0830446574503856   T   T   T
  0.0573995075874868  0.4234715051295458  0.0795513068471281   T   T   T
  0.9327947889704579  0.8409884942263082  0.0850955801463563   T   T   T
  0.3051832464439120  0.0892939679501376  0.0949064628609623   T   T   T
  0.1802809741592185  0.1700233991434870  0.0870060465780180   T   T   T
  0.1797929620775134  0.3372559137202770  0.0859518332607769   T   T   T
  0.2990229537671976  0.5883658079860699  0.0969537071819979   T   T   T
  0.1803880269613852  0.6734223876216354  0.0852383455693240   T   T   T
  0.2986942185529595  0.4189053063126963  0.0983490443934747   T   T   T
  0.1825485219063490  0.8413557746395138  0.0865179643179902   T   T   T
  0.5564282215246730  0.0907929318985785  0.1055994232741172   T   T   T
  0.4271465382167735  0.1765656755066054  0.1056941115818926   T   T   T
  0.5551346846896328  0.9215084512260153  0.1058077558943929   T   T   T
  0.4204268102507098  0.6709764737450470  0.1103592292906195   T   T   T
  0.4277769269329988  0.8359867477274747  0.1038844773244080   T   T   T
  0.8051099909081675  0.0899150427059615  0.0901820682730194   T   T   T
  0.6826160061498755  0.1764771475414618  0.0997046847085568   T   T   T
  0.8065589861752009  0.9214136993950114  0.0916215887175111   T   T   T
  0.6904443852375632  0.3436280902053101  0.1049444932916786   T   T   T
  0.8137144731519992  0.5932533953100242  0.0931236705545909   T   T   T
  0.8131945210377641  0.4240239113310336  0.0910955417027356   T   T   T
  0.6842755395901873  0.8336252916753746  0.1025888518856160   T   T   T
  0.4181841993938865  0.3392916956147081  0.1130009063441078   T   T   T
  0.6941303574191262  0.6708942710450648  0.1088167308088173   T   T   T
  0.3063076991698618  0.9229182690988579  0.0937145496335770   T   T   T
  0.5574004273516634  0.5059271134359586  0.1264699929507557   T   T   T
 
  0.00000000E+00  0.00000000E+00  0.00000000E+00
  0.00000000E+00  0.00000000E+00  0.00000000E+00
  0.00000000E+00  0.00000000E+00  0.00000000E+00
  0.00000000E+00  0.00000000E+00  0.00000000E+00
  0.00000000E+00  0.00000000E+00  0.00000000E+00
  0.00000000E+00  0.00000000E+00  0.00000000E+00
  0.00000000E+00  0.00000000E+00  0.00000000E+00
  0.00000000E+00  0.00000000E+00  0.00000000E+00
  0.00000000E+00  0.00000000E+00  0.00000000E+00
  0.00000000E+00  0.00000000E+00  0.00000000E+00
  0.00000000E+00  0.00000000E+00  0.00000000E+00
  0.00000000E+00  0.00000000E+00  0.00000000E+00
  0.00000000E+00  0.00000000E+00  0.00000000E+00
  0.00000000E+00  0.00000000E+00  0.00000000E+00
  0.00000000E+00  0.00000000E+00  0.00000000E+00
  0.00000000E+00  0.00000000E+00  0.00000000E+00
  0.00000000E+00  0.00000000E+00  0.00000000E+00
  0.00000000E+00  0.00000000E+00  0.00000000E+00
  0.00000000E+00  0.00000000E+00  0.00000000E+00
  0.00000000E+00  0.00000000E+00  0.00000000E+00
  0.00000000E+00  0.00000000E+00  0.00000000E+00
  0.00000000E+00  0.00000000E+00  0.00000000E+00
  0.00000000E+00  0.00000000E+00  0.00000000E+00
  0.00000000E+00  0.00000000E+00  0.00000000E+00
  0.00000000E+00  0.00000000E+00  0.00000000E+00
  0.00000000E+00  0.00000000E+00  0.00000000E+00
  0.00000000E+00  0.00000000E+00  0.00000000E+00
  0.00000000E+00  0.00000000E+00  0.00000000E+00
  0.00000000E+00  0.00000000E+00  0.00000000E+00
  0.00000000E+00  0.00000000E+00  0.00000000E+00
  0.00000000E+00  0.00000000E+00  0.00000000E+00
