Title                                   
   1.00000000000000     
     4.9440799999999996    0.0000000000000000    0.0000000000000000
     0.0000000000000000   17.1295089999999988    0.0000000000000000
     0.0000000000000000    0.0000000000000000   20.0000000000000000
    29     1     1
Selective dynamics
Direct
  0.0003691611919584  0.1047786892596068  0.2907303105848224   T   T   T
  0.2504463892495298  0.1468212927394497  0.2930232346484977   T   T   T
  0.2503252578668845  0.2300840103339881  0.2995427353766538   T   T   T
  0.0011577338238686  0.2725382165165252  0.3031651713443530   T   T   T
  0.0023848890577584  0.6028021833106524  0.3023500441898708   T   T   T
  0.2502887826543834  0.7271388473262527  0.2931266978317544   T   T   T
  0.0014452047255131  0.8529513359436813  0.2883430345595740   T   T   T
  0.2505099262112698  0.8951650584651493  0.2878483038385418   T   T   T
  0.2505756677768363  0.9790161919508222  0.2878206985366069   T   T   T
  0.0011116198027589  0.7689993609770802  0.2907455751233094   T   T   T
  0.5005808428490899  0.1047824320916976  0.2907166458458652   T   T   T
  0.7504451607572015  0.1469032224121234  0.2925039328464482   T   T   T
  0.7503226329677670  0.2306193472343996  0.2982730994355531   T   T   T
  0.5006238704630999  0.0209616167927655  0.2883031381331996   T   T   T
  0.7501121400982632  0.3961409203261571  0.3158541597566670   T   T   T
  0.7500777071820457  0.4819571628406315  0.3151923814775075   T   T   T
  0.4994169584966370  0.2725366986167266  0.3031468701531269   T   T   T
  0.4978678136460281  0.6028035915834394  0.3023385758841231   T   T   T
  0.7502943094660323  0.7276387573124841  0.2921848075123136   T   T   T
  0.4995010203929175  0.8529483197781100  0.2883451440200257   T   T   T
  0.7505030965439137  0.8947672390304323  0.2876934858443615   T   T   T
  0.7505873024983418  0.9787610276341353  0.2876929148340814   T   T   T
  0.4995620769026287  0.7689903381801377  0.2907383999363837   T   T   T
  0.7501608592717718  0.6449693228860445  0.2973818095896942   T   T   T
  0.0005325407819036  0.0209585355661485  0.2883142445737581   T   T   T
  0.4972829384047328  0.5215614596426860  0.3128092337844443   T   T   T
  0.0029023568130254  0.5215558160913527  0.3128435898379605   T   T   T
  0.5001257209634854  0.3549355086513520  0.3136228813101079   T   T   T
  0.0001889442214909  0.3549458609873341  0.3136545353499133   T   T   T
  0.2501526281279279  0.6452940811257141  0.2989710629928862   T   T   T
  0.2501514467909367  0.4370155543929157  0.3577832808475464   T   T   T
 
  0.00000000E+00  0.00000000E+00  0.00000000E+00
  0.00000000E+00  0.00000000E+00  0.00000000E+00
  0.00000000E+00  0.00000000E+00  0.00000000E+00
  0.00000000E+00  0.00000000E+00  0.00000000E+00
  0.00000000E+00  0.00000000E+00  0.00000000E+00
  0.00000000E+00  0.00000000E+00  0.00000000E+00
  0.00000000E+00  0.00000000E+00  0.00000000E+00
  0.00000000E+00  0.00000000E+00  0.00000000E+00
  0.00000000E+00  0.00000000E+00  0.00000000E+00
  0.00000000E+00  0.00000000E+00  0.00000000E+00
  0.00000000E+00  0.00000000E+00  0.00000000E+00
  0.00000000E+00  0.00000000E+00  0.00000000E+00
  0.00000000E+00  0.00000000E+00  0.00000000E+00
  0.00000000E+00  0.00000000E+00  0.00000000E+00
  0.00000000E+00  0.00000000E+00  0.00000000E+00
  0.00000000E+00  0.00000000E+00  0.00000000E+00
  0.00000000E+00  0.00000000E+00  0.00000000E+00
  0.00000000E+00  0.00000000E+00  0.00000000E+00
  0.00000000E+00  0.00000000E+00  0.00000000E+00
  0.00000000E+00  0.00000000E+00  0.00000000E+00
  0.00000000E+00  0.00000000E+00  0.00000000E+00
  0.00000000E+00  0.00000000E+00  0.00000000E+00
  0.00000000E+00  0.00000000E+00  0.00000000E+00
  0.00000000E+00  0.00000000E+00  0.00000000E+00
  0.00000000E+00  0.00000000E+00  0.00000000E+00
  0.00000000E+00  0.00000000E+00  0.00000000E+00
  0.00000000E+00  0.00000000E+00  0.00000000E+00
  0.00000000E+00  0.00000000E+00  0.00000000E+00
  0.00000000E+00  0.00000000E+00  0.00000000E+00
  0.00000000E+00  0.00000000E+00  0.00000000E+00
  0.00000000E+00  0.00000000E+00  0.00000000E+00
