Title                                   
   1.00000000000000     
     9.8694509999999998    0.0000000000000000    0.0000000000000000
     0.0000000000000000    8.5490480000000009    0.0000000000000000
     0.0000000000000000    0.0000000000000000   20.0000000000000000
    30     1     1
Selective dynamics
Direct
  0.0558127694122775  0.0899263735409959  0.0846352957284935   T   T   T
  0.9312881903680548  0.1728383616677600  0.0857894202790238   T   T   T
  0.0570623886149538  0.9234838911516491  0.0853416291960643   T   T   T
  0.9311326834308945  0.3400925861593994  0.0877465204341569   T   T   T
  0.0568693631774251  0.5898472242089640  0.0860899224405815   T   T   T
  0.9322785371721014  0.6726764529193705  0.0887148444963591   T   T   T
  0.0568516425195614  0.4229647081045865  0.0861208160699454   T   T   T
  0.9320579038837086  0.8394203480815622  0.0873095760693687   T   T   T
  0.3052955509275405  0.0880771160250204  0.0891435089801176   T   T   T
  0.1812965385446271  0.1716960280553798  0.0861907993676515   T   T   T
  0.1821131872084432  0.3391804627903268  0.0876986197208461   T   T   T
  0.3043202852599565  0.5895605161529607  0.0985139928603019   T   T   T
  0.1819610764979911  0.6737169765638832  0.0888861367392876   T   T   T
  0.3057726797546248  0.4221248172866824  0.0959073622176531   T   T   T
  0.1819101331521895  0.8406027597671332  0.0879850345870837   T   T   T
  0.5562165725270617  0.0879912551579926  0.0940434971430980   T   T   T
  0.4303329757883578  0.1701623099362800  0.0936359876406182   T   T   T
  0.5549208166304428  0.9231419547103999  0.0979351356460208   T   T   T
  0.4299783432382208  0.3358680309543386  0.1007101972656233   T   T   T
  0.4216855091601728  0.6791796312901103  0.1136036175271229   T   T   T
  0.5559249727245237  0.4111642022935839  0.1137851328152422   T   T   T
  0.4275112257905005  0.8417580819618276  0.1009159115561456   T   T   T
  0.8067051041814742  0.0891257592848772  0.0879862662363673   T   T   T
  0.6816977375668946  0.1713974599312536  0.0929060257880368   T   T   T
  0.8067036274800503  0.9230576992002153  0.0896728017935832   T   T   T
  0.6818744542933755  0.3366563626741179  0.1005223930641009   T   T   T
  0.8087016986763422  0.5897265045326565  0.0980137410952866   T   T   T
  0.6895397031901445  0.6776751649286801  0.1113393464851112   T   T   T
  0.8070938657705835  0.4222098108385564  0.0958991714411693   T   T   T
  0.6819832828135423  0.8405649556439850  0.0989379426136605   T   T   T
  0.3052538403913166  0.9239033752308868  0.0909705738110377   T   T   T
  0.5574923398526535  0.5904548189545741  0.1587237788908754   T   T   T
 
  0.00000000E+00  0.00000000E+00  0.00000000E+00
  0.00000000E+00  0.00000000E+00  0.00000000E+00
  0.00000000E+00  0.00000000E+00  0.00000000E+00
  0.00000000E+00  0.00000000E+00  0.00000000E+00
  0.00000000E+00  0.00000000E+00  0.00000000E+00
  0.00000000E+00  0.00000000E+00  0.00000000E+00
  0.00000000E+00  0.00000000E+00  0.00000000E+00
  0.00000000E+00  0.00000000E+00  0.00000000E+00
  0.00000000E+00  0.00000000E+00  0.00000000E+00
  0.00000000E+00  0.00000000E+00  0.00000000E+00
  0.00000000E+00  0.00000000E+00  0.00000000E+00
  0.00000000E+00  0.00000000E+00  0.00000000E+00
  0.00000000E+00  0.00000000E+00  0.00000000E+00
  0.00000000E+00  0.00000000E+00  0.00000000E+00
  0.00000000E+00  0.00000000E+00  0.00000000E+00
  0.00000000E+00  0.00000000E+00  0.00000000E+00
  0.00000000E+00  0.00000000E+00  0.00000000E+00
  0.00000000E+00  0.00000000E+00  0.00000000E+00
  0.00000000E+00  0.00000000E+00  0.00000000E+00
  0.00000000E+00  0.00000000E+00  0.00000000E+00
  0.00000000E+00  0.00000000E+00  0.00000000E+00
  0.00000000E+00  0.00000000E+00  0.00000000E+00
  0.00000000E+00  0.00000000E+00  0.00000000E+00
  0.00000000E+00  0.00000000E+00  0.00000000E+00
  0.00000000E+00  0.00000000E+00  0.00000000E+00
  0.00000000E+00  0.00000000E+00  0.00000000E+00
  0.00000000E+00  0.00000000E+00  0.00000000E+00
  0.00000000E+00  0.00000000E+00  0.00000000E+00
  0.00000000E+00  0.00000000E+00  0.00000000E+00
  0.00000000E+00  0.00000000E+00  0.00000000E+00
  0.00000000E+00  0.00000000E+00  0.00000000E+00
  0.00000000E+00  0.00000000E+00  0.00000000E+00
