Title                                   
   1.00000000000000     
     9.8694509999999998    0.0000000000000000    0.0000000000000000
     0.0000000000000000    8.5490480000000009    0.0000000000000000
     0.0000000000000000    0.0000000000000000   20.0000000000000000
    26     5     1
Selective dynamics
Direct
  0.0559343940223754  0.0921865683879273  0.0872014135598127   T   T   T
  0.9299400494428732  0.1758105677860450  0.0884990956671093   T   T   T
  0.0568641550839443  0.9237283826322730  0.0861062015394300   T   T   T
  0.9288408931876497  0.3418238967509806  0.0912553898405551   T   T   T
  0.0562493279570015  0.5900227605657625  0.0879968034246589   T   T   T
  0.9320310037640963  0.6721977694120205  0.0878757481716290   T   T   T
  0.0555015448917783  0.4230326061348174  0.0914166896846835   T   T   T
  0.9318118638868829  0.8401043157414748  0.0867834026023072   T   T   T
  0.3054160846318709  0.0884809844689346  0.0897712399587910   T   T   T
  0.1819831295150761  0.1741483588195157  0.0895953062383610   T   T   T
  0.3072675440056127  0.9226367719551922  0.0907065281903236   T   T   T
  0.1818364716429991  0.3399259203745731  0.0933827259578352   T   T   T
  0.3058216769897026  0.5896234328854782  0.1010279525459373   T   T   T
  0.1814841674005601  0.6706872137323960  0.0899014943560140   T   T   T
  0.1822713412839259  0.8387832778270516  0.0884067638484900   T   T   T
  0.5568205983275040  0.0857379577842393  0.0960523327161198   T   T   T
  0.4307147737594101  0.1686754868265966  0.0943767703381990   T   T   T
  0.4331409803654232  0.3339004127765267  0.1000579089306560   T   T   T
  0.4300132257262525  0.8388440145778869  0.1013471110577660   T   T   T
  0.8068674193932048  0.0898273421308773  0.0883215803851675   T   T   T
  0.6808678264212441  0.1705064371656727  0.0929955077667589   T   T   T
  0.8069589760764057  0.9249710411131373  0.0884159272594515   T   T   T
  0.6765786466007647  0.3358411346375648  0.0972843616277779   T   T   T
  0.8054549071950643  0.5946890902728399  0.0943898388146892   T   T   T
  0.6849728369717937  0.8392705763959403  0.0967670015159574   T   T   T
  0.4210328223685728  0.6789915072715269  0.1191825650539500   T   T   T
  0.5544150384882655  0.4082492155059298  0.1086841011461269   T   T   T
  0.6912094948856720  0.6814245917319416  0.1052110200698499   T   T   T
  0.5577398389368868  0.9195942681257512  0.0990751577481631   T   T   T
  0.3086103276363802  0.4216074026792914  0.0992416905186197   T   T   T
  0.8002578381861518  0.4256383321459312  0.0939249155667197   T   T   T
  0.5607298009546601  0.5892843613839058  0.1604204538981063   T   T   T
 
  0.00000000E+00  0.00000000E+00  0.00000000E+00
  0.00000000E+00  0.00000000E+00  0.00000000E+00
  0.00000000E+00  0.00000000E+00  0.00000000E+00
  0.00000000E+00  0.00000000E+00  0.00000000E+00
  0.00000000E+00  0.00000000E+00  0.00000000E+00
  0.00000000E+00  0.00000000E+00  0.00000000E+00
  0.00000000E+00  0.00000000E+00  0.00000000E+00
  0.00000000E+00  0.00000000E+00  0.00000000E+00
  0.00000000E+00  0.00000000E+00  0.00000000E+00
  0.00000000E+00  0.00000000E+00  0.00000000E+00
  0.00000000E+00  0.00000000E+00  0.00000000E+00
  0.00000000E+00  0.00000000E+00  0.00000000E+00
  0.00000000E+00  0.00000000E+00  0.00000000E+00
  0.00000000E+00  0.00000000E+00  0.00000000E+00
  0.00000000E+00  0.00000000E+00  0.00000000E+00
  0.00000000E+00  0.00000000E+00  0.00000000E+00
  0.00000000E+00  0.00000000E+00  0.00000000E+00
  0.00000000E+00  0.00000000E+00  0.00000000E+00
  0.00000000E+00  0.00000000E+00  0.00000000E+00
  0.00000000E+00  0.00000000E+00  0.00000000E+00
  0.00000000E+00  0.00000000E+00  0.00000000E+00
  0.00000000E+00  0.00000000E+00  0.00000000E+00
  0.00000000E+00  0.00000000E+00  0.00000000E+00
  0.00000000E+00  0.00000000E+00  0.00000000E+00
  0.00000000E+00  0.00000000E+00  0.00000000E+00
  0.00000000E+00  0.00000000E+00  0.00000000E+00
  0.00000000E+00  0.00000000E+00  0.00000000E+00
  0.00000000E+00  0.00000000E+00  0.00000000E+00
  0.00000000E+00  0.00000000E+00  0.00000000E+00
  0.00000000E+00  0.00000000E+00  0.00000000E+00
  0.00000000E+00  0.00000000E+00  0.00000000E+00
  0.00000000E+00  0.00000000E+00  0.00000000E+00
