Title                                   
   1.00000000000000     
     4.9440799999999996    0.0000000000000000    0.0000000000000000
     0.0000000000000000    8.5647549999999999    0.0000000000000000
     0.0000000000000000    0.0000000000000000   20.0000000000000000
    11     3     1
Selective dynamics
Direct
  0.2485545736191382  0.2090458673773001  0.1003795074062071   T   T   T
 -0.0019471310516337  0.2968691947424100  0.1004343208076033   T   T   T
  0.2487759507790076  0.0371666910649106  0.1003612557365348   T   T   T
 -0.0031457900145470  0.9534958785285210  0.1004046897454676   T   T   T
  0.7480968420668790  0.2106114942186403  0.1002934951863219   T   T   T
  0.4981563676475677  0.2949018967928314  0.1004108881835384   T   T   T
  0.7491013131060452  0.0394608043259808  0.1002882260762382   T   T   T
  0.7541127918671252  0.7152004892938025  0.1006567216569679   T   T   T
  0.7537903740953862  0.5383383890915473  0.1006234742000961   T   T   T
  0.5013057363350480  0.9520045725065407  0.1004419926943310   T   T   T
  0.5039155616638807  0.4644665079605422  0.1006362012480178   T   T   T
 -0.0039205636531110  0.4624831483269802  0.1006490169943559   T   T   T
 -0.0091624503718406  0.7901222313197183  0.1006154577755967   T   T   T
  0.5110513703401651  0.7865420181204977  0.1006960672550609   T   T   T
  0.2513150535708887  0.6209718163297789  0.1010886850336657   T   T   T
 
  0.00000000E+00  0.00000000E+00  0.00000000E+00
  0.00000000E+00  0.00000000E+00  0.00000000E+00
  0.00000000E+00  0.00000000E+00  0.00000000E+00
  0.00000000E+00  0.00000000E+00  0.00000000E+00
  0.00000000E+00  0.00000000E+00  0.00000000E+00
  0.00000000E+00  0.00000000E+00  0.00000000E+00
  0.00000000E+00  0.00000000E+00  0.00000000E+00
  0.00000000E+00  0.00000000E+00  0.00000000E+00
  0.00000000E+00  0.00000000E+00  0.00000000E+00
  0.00000000E+00  0.00000000E+00  0.00000000E+00
  0.00000000E+00  0.00000000E+00  0.00000000E+00
  0.00000000E+00  0.00000000E+00  0.00000000E+00
  0.00000000E+00  0.00000000E+00  0.00000000E+00
  0.00000000E+00  0.00000000E+00  0.00000000E+00
  0.00000000E+00  0.00000000E+00  0.00000000E+00
