Title                                   
   1.00000000000000     
     8.5490480000000009    0.0000000000000000    0.0000000000000000
     0.0000000000000000    8.5490480000000009    0.0000000000000000
     0.0000000000000000    0.0000000000000000   20.0000000000000000
    22     2     1
Selective dynamics
Direct
  0.9075130367064109  0.2063751637586119  0.0947975801884052   T   T   T
  0.9076286309405330  0.5050266336515978  0.0965846112402441   T   T   T
  0.9125831790993297  0.8030836769310720  0.0961083215002548   T   T   T
  0.1970252189520925  0.0817567691811891  0.0958639585291202   T   T   T
  0.0734225975188185  0.2017303584833189  0.0960832842424817   T   T   T
  0.1589020915375258  0.6477924348171229  0.0955267543731049   T   T   T
  0.0754638785520033  0.5018730863689345  0.0967387689336472   T   T   T
  0.1551706197854179  0.3534938924623144  0.0986758578635530   T   T   T
  0.0804749757479173  0.7977802527870583  0.0950509819552618   T   T   T
  0.4929585391083309  0.0841319887973636  0.0962535939288655   T   T   T
  0.3440057999083346  0.1613156882833382  0.0981036465280156   T   T   T
  0.4942882194774273  0.9155306617457862  0.0962241709541801   T   T   T
  0.3477975811101038  0.8346951654231360  0.0946717136890197   T   T   T
  0.7863166943944399  0.0873716359526790  0.0948458864651362   T   T   T
  0.6369674208698075  0.1667069973826981  0.0951445574407791   T   T   T
  0.7901325601777165  0.9209801799418423  0.0960095293383000   T   T   T
  0.8309974059094721  0.6539809674531074  0.0983983381017261   T   T   T
  0.8261179745338160  0.3584703035557894  0.0949626709847716   T   T   T
  0.6428802624366188  0.8373268964515499  0.0982332153871724   T   T   T
  0.3212808767941546  0.3303599953171547  0.1037697268631354   T   T   T
  0.3259507508835602  0.6702091839989466  0.0950727958767056   T   T   T
  0.6602601418301500  0.3367005806343673  0.0953887910579358   T   T   T
  0.6683719067278880  0.6754299274155869  0.1025368170331657   T   T   T
  0.1993932295840067  0.9149835827735092  0.0944570375716726   T   T   T
  0.4895084074141174  0.4976839764319374  0.1292023899533285   T   T   T
 
  0.00000000E+00  0.00000000E+00  0.00000000E+00
  0.00000000E+00  0.00000000E+00  0.00000000E+00
  0.00000000E+00  0.00000000E+00  0.00000000E+00
  0.00000000E+00  0.00000000E+00  0.00000000E+00
  0.00000000E+00  0.00000000E+00  0.00000000E+00
  0.00000000E+00  0.00000000E+00  0.00000000E+00
  0.00000000E+00  0.00000000E+00  0.00000000E+00
  0.00000000E+00  0.00000000E+00  0.00000000E+00
  0.00000000E+00  0.00000000E+00  0.00000000E+00
  0.00000000E+00  0.00000000E+00  0.00000000E+00
  0.00000000E+00  0.00000000E+00  0.00000000E+00
  0.00000000E+00  0.00000000E+00  0.00000000E+00
  0.00000000E+00  0.00000000E+00  0.00000000E+00
  0.00000000E+00  0.00000000E+00  0.00000000E+00
  0.00000000E+00  0.00000000E+00  0.00000000E+00
  0.00000000E+00  0.00000000E+00  0.00000000E+00
  0.00000000E+00  0.00000000E+00  0.00000000E+00
  0.00000000E+00  0.00000000E+00  0.00000000E+00
  0.00000000E+00  0.00000000E+00  0.00000000E+00
  0.00000000E+00  0.00000000E+00  0.00000000E+00
  0.00000000E+00  0.00000000E+00  0.00000000E+00
  0.00000000E+00  0.00000000E+00  0.00000000E+00
  0.00000000E+00  0.00000000E+00  0.00000000E+00
  0.00000000E+00  0.00000000E+00  0.00000000E+00
  0.00000000E+00  0.00000000E+00  0.00000000E+00
