Title                                   
   1.00000000000000     
     9.8694509999999998    0.0000000000000000    0.0000000000000000
     0.0000000000000000    8.5490480000000009    0.0000000000000000
     0.0000000000000000    0.0000000000000000   20.0000000000000000
    26     4     1
Selective dynamics
Direct
  0.0563692665270265  0.0895055776579556  0.0906080552127470   T   T   T
  0.9312932512466532  0.1721724263019493  0.0956702025780796   T   T   T
  0.0579121185837615  0.9228034080466290  0.0908865052945905   T   T   T
  0.9336736503621135  0.3394366759931778  0.0981801812589629   T   T   T
  0.0589574305319966  0.5894908870211660  0.0934825408805660   T   T   T
  0.9343112752881196  0.6726062352059230  0.0984641039603377   T   T   T
  0.0585326192479316  0.4227666611933671  0.0930377281054257   T   T   T
  0.9323423909299008  0.8398085421436785  0.0961030695238595   T   T   T
  0.3083033171377531  0.0880390849105395  0.0846413308289106   T   T   T
  0.1824470940533903  0.1721758565496637  0.0868685573053215   T   T   T
  0.1820155131900027  0.3382860316655962  0.0874782265601797   T   T   T
  0.3084562755392540  0.5899624467723773  0.0819661560249624   T   T   T
  0.1828850050591193  0.6733944870595134  0.0885592362241043   T   T   T
  0.3078840223929509  0.4204677611952254  0.0818468127631831   T   T   T
  0.1823976188591071  0.8387564854180021  0.0875063629543696   T   T   T
  0.4307421561476814  0.1717005695622458  0.0863640827750882   T   T   T
  0.5543719962030073  0.9221978051961410  0.0951854323047101   T   T   T
  0.4307405080039344  0.8406568189232629  0.0860673029039942   T   T   T
  0.8043157681309727  0.0897829189139583  0.0977516646793244   T   T   T
  0.6794664843449335  0.1780969487509537  0.1019464499127643   T   T   T
  0.8057349559887624  0.9222690989723750  0.0981889921864327   T   T   T
  0.6832561248338680  0.3429863524782922  0.1126931197974592   T   T   T
  0.8117248593372325  0.5899219524870614  0.1067214248402201   T   T   T
  0.6852817880777418  0.6696594139639288  0.1130264221134972   T   T   T
  0.8110809939709014  0.4217154298982297  0.1066421071069885   T   T   T
  0.6800935652163633  0.8357013143611564  0.1026947910222269   T   T   T
  0.5559732313919389  0.0929691622845725  0.0945509674385717   T   T   T
  0.4287816972061506  0.3335947805540270  0.0834068621592649   T   T   T
  0.4287466712762810  0.6790912225719242  0.0812537966749025   T   T   T
  0.3068470350353780  0.9220162707502072  0.0836706048957144   T   T   T
  0.5281963158857906  0.5088423731969034  0.1355019097132884   T   T   T
 
  0.00000000E+00  0.00000000E+00  0.00000000E+00
  0.00000000E+00  0.00000000E+00  0.00000000E+00
  0.00000000E+00  0.00000000E+00  0.00000000E+00
  0.00000000E+00  0.00000000E+00  0.00000000E+00
  0.00000000E+00  0.00000000E+00  0.00000000E+00
  0.00000000E+00  0.00000000E+00  0.00000000E+00
  0.00000000E+00  0.00000000E+00  0.00000000E+00
  0.00000000E+00  0.00000000E+00  0.00000000E+00
  0.00000000E+00  0.00000000E+00  0.00000000E+00
  0.00000000E+00  0.00000000E+00  0.00000000E+00
  0.00000000E+00  0.00000000E+00  0.00000000E+00
  0.00000000E+00  0.00000000E+00  0.00000000E+00
  0.00000000E+00  0.00000000E+00  0.00000000E+00
  0.00000000E+00  0.00000000E+00  0.00000000E+00
  0.00000000E+00  0.00000000E+00  0.00000000E+00
  0.00000000E+00  0.00000000E+00  0.00000000E+00
  0.00000000E+00  0.00000000E+00  0.00000000E+00
  0.00000000E+00  0.00000000E+00  0.00000000E+00
  0.00000000E+00  0.00000000E+00  0.00000000E+00
  0.00000000E+00  0.00000000E+00  0.00000000E+00
  0.00000000E+00  0.00000000E+00  0.00000000E+00
  0.00000000E+00  0.00000000E+00  0.00000000E+00
  0.00000000E+00  0.00000000E+00  0.00000000E+00
  0.00000000E+00  0.00000000E+00  0.00000000E+00
  0.00000000E+00  0.00000000E+00  0.00000000E+00
  0.00000000E+00  0.00000000E+00  0.00000000E+00
  0.00000000E+00  0.00000000E+00  0.00000000E+00
  0.00000000E+00  0.00000000E+00  0.00000000E+00
  0.00000000E+00  0.00000000E+00  0.00000000E+00
  0.00000000E+00  0.00000000E+00  0.00000000E+00
  0.00000000E+00  0.00000000E+00  0.00000000E+00
