Title                                   
   1.00000000000000     
     9.8694509999999998    0.0000000000000000    0.0000000000000000
     0.0000000000000000    8.5490480000000009    0.0000000000000000
     0.0000000000000000    0.0000000000000000   20.0000000000000000
    26     5     1
Selective dynamics
Direct
  0.0559008184259673  0.0921196799334244  0.0884019191637779   T   T   T
  0.9297343581919075  0.1756970298490509  0.0892288742953412   T   T   T
  0.0566294578999076  0.9234613214038488  0.0877115694450172   T   T   T
  0.9288693315209986  0.3420601299275010  0.0897151765162152   T   T   T
  0.0563581393426218  0.5902817767049435  0.0871142804175765   T   T   T
  0.9313920208912895  0.6722273244637869  0.0877609289417130   T   T   T
  0.0555910589582077  0.4232552759424599  0.0898182869526575   T   T   T
  0.9315102143054274  0.8400892707969808  0.0883689840787684   T   T   T
  0.3054993186313955  0.0886706112186425  0.0907876620313632   T   T   T
  0.1818771627711270  0.1740851131908875  0.0899868389386192   T   T   T
  0.3073979040086931  0.9228033588024658  0.0914977199577125   T   T   T
  0.1816145012839604  0.3401094810841931  0.0921854827449275   T   T   T
  0.3065372700102273  0.5895710728653042  0.0997286163432969   T   T   T
  0.1815606698674504  0.6707719883277039  0.0894586589259015   T   T   T
  0.1823502259778610  0.8389028497094336  0.0891918483751472   T   T   T
  0.5566146868171894  0.0864162296490456  0.0963449614486777   T   T   T
  0.4309684009857457  0.1696142539889786  0.0949066631301545   T   T   T
  0.4329498687740126  0.3353977544631924  0.0979745429436061   T   T   T
  0.4306689461899226  0.8385133921526012  0.1013253835063841   T   T   T
  0.8066387488104539  0.0900187195191324  0.0903294185882406   T   T   T
  0.6810207242788388  0.1714837316966382  0.0935197911214827   T   T   T
  0.8063139604283248  0.9245056586213624  0.0910665336544366   T   T   T
  0.6767592893257995  0.3366939023286792  0.0943334892696535   T   T   T
  0.8048283545406175  0.5942326005912800  0.0914169240287294   T   T   T
  0.6840838226790087  0.8386452588278331  0.0971774266226317   T   T   T
  0.4224334384735228  0.6775360137290380  0.1182716434337391   T   T   T
  0.5543015734912381  0.4141085145557613  0.1016590708266632   T   T   T
  0.6869741481956880  0.6781225589895625  0.1003463788885745   T   T   T
  0.5574432889701895  0.9193066510468604  0.0993454393557286   T   T   T
  0.3087815970056574  0.4220132563563038  0.0971845234453855   T   T   T
  0.8004169470803785  0.4260304485397152  0.0907062876745022   T   T   T
  0.5656187518663754  0.5835007707233902  0.1788096749333920   T   T   T
 
  0.00000000E+00  0.00000000E+00  0.00000000E+00
  0.00000000E+00  0.00000000E+00  0.00000000E+00
  0.00000000E+00  0.00000000E+00  0.00000000E+00
  0.00000000E+00  0.00000000E+00  0.00000000E+00
  0.00000000E+00  0.00000000E+00  0.00000000E+00
  0.00000000E+00  0.00000000E+00  0.00000000E+00
  0.00000000E+00  0.00000000E+00  0.00000000E+00
  0.00000000E+00  0.00000000E+00  0.00000000E+00
  0.00000000E+00  0.00000000E+00  0.00000000E+00
  0.00000000E+00  0.00000000E+00  0.00000000E+00
  0.00000000E+00  0.00000000E+00  0.00000000E+00
  0.00000000E+00  0.00000000E+00  0.00000000E+00
  0.00000000E+00  0.00000000E+00  0.00000000E+00
  0.00000000E+00  0.00000000E+00  0.00000000E+00
  0.00000000E+00  0.00000000E+00  0.00000000E+00
  0.00000000E+00  0.00000000E+00  0.00000000E+00
  0.00000000E+00  0.00000000E+00  0.00000000E+00
  0.00000000E+00  0.00000000E+00  0.00000000E+00
  0.00000000E+00  0.00000000E+00  0.00000000E+00
  0.00000000E+00  0.00000000E+00  0.00000000E+00
  0.00000000E+00  0.00000000E+00  0.00000000E+00
  0.00000000E+00  0.00000000E+00  0.00000000E+00
  0.00000000E+00  0.00000000E+00  0.00000000E+00
  0.00000000E+00  0.00000000E+00  0.00000000E+00
  0.00000000E+00  0.00000000E+00  0.00000000E+00
  0.00000000E+00  0.00000000E+00  0.00000000E+00
  0.00000000E+00  0.00000000E+00  0.00000000E+00
  0.00000000E+00  0.00000000E+00  0.00000000E+00
  0.00000000E+00  0.00000000E+00  0.00000000E+00
  0.00000000E+00  0.00000000E+00  0.00000000E+00
  0.00000000E+00  0.00000000E+00  0.00000000E+00
  0.00000000E+00  0.00000000E+00  0.00000000E+00
