Title                                   
   1.00000000000000     
     9.8694509999999998    0.0000000000000000    0.0000000000000000
     0.0000000000000000    8.5490480000000009    0.0000000000000000
     0.0000000000000000    0.0000000000000000   20.0000000000000000
    28     3     1
Selective dynamics
Direct
  0.0567959765109013  0.0910839845703124  0.0847306322552085   T   T   T
  0.9316752289708846  0.1736103991693244  0.0873478026716506   T   T   T
  0.0560913549986953  0.9238606479994967  0.0844447030245440   T   T   T
  0.9312425295669345  0.3401177821922003  0.0920355252214105   T   T   T
  0.0566186325786926  0.5897276168929114  0.0887719093972696   T   T   T
  0.9316842632658255  0.6724447569260548  0.0916117656838577   T   T   T
  0.0573125505501791  0.4230855710284867  0.0904481101704697   T   T   T
  0.9309194121543132  0.8392812849963205  0.0878202463397358   T   T   T
  0.3057275961373900  0.0904289501291423  0.0861891555669483   T   T   T
  0.1820975644539840  0.1753350277423240  0.0864502420904015   T   T   T
  0.3057576641610787  0.9255080001154357  0.0857910504604882   T   T   T
  0.1839550748986189  0.3418874675913608  0.0899758496862800   T   T   T
  0.3067144527696931  0.5949077277447423  0.0946352528636821   T   T   T
  0.1807952356006383  0.6738104983930407  0.0878327866509676   T   T   T
  0.3119422243133743  0.4259682381921385  0.0945181298324439   T   T   T
  0.1808785063325712  0.8405338328259050  0.0853324462241649   T   T   T
  0.5563157755107914  0.0854369921683173  0.0938887116289577   T   T   T
  0.4320128214142844  0.1694923781579749  0.0912518814510908   T   T   T
  0.4349800794979081  0.3345305398176174  0.0968837625828774   T   T   T
  0.4287539247355305  0.8413518145916677  0.0936589423886286   T   T   T
  0.8077359397551386  0.0888245312114255  0.0875629024318597   T   T   T
  0.6818782868300721  0.1678530880839986  0.0927139592272269   T   T   T
  0.8058919500994383  0.9231999433835019  0.0885784378496249   T   T   T
  0.6812057186153062  0.3330891453765234  0.0995831897450692   T   T   T
  0.8073801753811882  0.5914250883107973  0.1034007295018536   T   T   T
  0.6886106267305312  0.6812927838983949  0.1167083194971132   T   T   T
  0.8048749754184665  0.4224104623521311  0.0998434339334716   T   T   T
  0.6828217230027860  0.8392241103217217  0.0996430448766059   T   T   T
  0.4238093612413168  0.6845586585012184  0.1035810778112258   T   T   T
  0.5582745597637921  0.4060768911898646  0.1090498820865553   T   T   T
  0.5549842039555483  0.9204002399751595  0.0965363488876728   T   T   T
  0.5399006107841312  0.5794875461504967  0.1748547679606781   T   T   T
 
  0.00000000E+00  0.00000000E+00  0.00000000E+00
  0.00000000E+00  0.00000000E+00  0.00000000E+00
  0.00000000E+00  0.00000000E+00  0.00000000E+00
  0.00000000E+00  0.00000000E+00  0.00000000E+00
  0.00000000E+00  0.00000000E+00  0.00000000E+00
  0.00000000E+00  0.00000000E+00  0.00000000E+00
  0.00000000E+00  0.00000000E+00  0.00000000E+00
  0.00000000E+00  0.00000000E+00  0.00000000E+00
  0.00000000E+00  0.00000000E+00  0.00000000E+00
  0.00000000E+00  0.00000000E+00  0.00000000E+00
  0.00000000E+00  0.00000000E+00  0.00000000E+00
  0.00000000E+00  0.00000000E+00  0.00000000E+00
  0.00000000E+00  0.00000000E+00  0.00000000E+00
  0.00000000E+00  0.00000000E+00  0.00000000E+00
  0.00000000E+00  0.00000000E+00  0.00000000E+00
  0.00000000E+00  0.00000000E+00  0.00000000E+00
  0.00000000E+00  0.00000000E+00  0.00000000E+00
  0.00000000E+00  0.00000000E+00  0.00000000E+00
  0.00000000E+00  0.00000000E+00  0.00000000E+00
  0.00000000E+00  0.00000000E+00  0.00000000E+00
  0.00000000E+00  0.00000000E+00  0.00000000E+00
  0.00000000E+00  0.00000000E+00  0.00000000E+00
  0.00000000E+00  0.00000000E+00  0.00000000E+00
  0.00000000E+00  0.00000000E+00  0.00000000E+00
  0.00000000E+00  0.00000000E+00  0.00000000E+00
  0.00000000E+00  0.00000000E+00  0.00000000E+00
  0.00000000E+00  0.00000000E+00  0.00000000E+00
  0.00000000E+00  0.00000000E+00  0.00000000E+00
  0.00000000E+00  0.00000000E+00  0.00000000E+00
  0.00000000E+00  0.00000000E+00  0.00000000E+00
  0.00000000E+00  0.00000000E+00  0.00000000E+00
  0.00000000E+00  0.00000000E+00  0.00000000E+00
