Title                                   
   1.00000000000000     
     9.8694509999999998    0.0000000000000000    0.0000000000000000
     0.0000000000000000    8.5490480000000009    0.0000000000000000
     0.0000000000000000    0.0000000000000000   20.0000000000000000
    27     3     1
Selective dynamics
Direct
  0.0553922979583657  0.0900114790874810  0.0845755231263078   T   T   T
  0.9307639889215019  0.1723919511723096  0.0874248874210726   T   T   T
  0.0561696517009203  0.9241966425380823  0.0842287945125927   T   T   T
  0.9334375767218374  0.3398319535690620  0.0871306250189024   T   T   T
  0.0566984142441382  0.5890861164607191  0.0825926712030530   T   T   T
  0.9340960990251257  0.6748598533985813  0.0865759494523426   T   T   T
  0.0570056272620516  0.4235437423233992  0.0828554342863835   T   T   T
  0.9319885122170581  0.8412168276190614  0.0870667219530257   T   T   T
  0.3053273006130804  0.0906503032631438  0.0924291081597433   T   T   T
  0.1806206644745390  0.1724052164052868  0.0865715743543659   T   T   T
  0.3053534776346084  0.9226858151024776  0.0918552670909625   T   T   T
  0.1803964431545765  0.3392837599631441  0.0860509790750411   T   T   T
  0.3017338751246124  0.5921601739738671  0.0938881256809899   T   T   T
  0.1797467433976853  0.6735696661040813  0.0853406457039223   T   T   T
  0.3023644477545903  0.4204877890605311  0.0944915145707599   T   T   T
  0.1806889113772012  0.8409224972475926  0.0859606301924249   T   T   T
  0.5558226877770981  0.0885923647285514  0.1050712326172300   T   T   T
  0.4277223331445577  0.1770670432043827  0.1018112709030308   T   T   T
  0.5554761316436907  0.9182822584635347  0.1047268679927163   T   T   T
  0.4266754855535055  0.8339495827003610  0.1005816343103076   T   T   T
  0.8054606718755615  0.0898389204523776  0.0938066283996313   T   T   T
  0.6822925906247104  0.1753906434771478  0.1029002941721001   T   T   T
  0.8066074567438650  0.9217749998126332  0.0935436697479542   T   T   T
  0.6889591352691029  0.3427457683187670  0.1080644860944431   T   T   T
  0.8136563234773245  0.5929501773576534  0.0964576030234980   T   T   T
  0.8131163517191108  0.4234881469694415  0.0965868669445615   T   T   T
  0.6847643904181313  0.8326312273917776  0.1025369689717734   T   T   T
  0.4216256661427434  0.3389185274363274  0.1055063944771793   T   T   T
  0.6937601350685171  0.6716474349119118  0.1071938551486456   T   T   T
  0.4190462553242744  0.6741793209541364  0.1037324218299123   T   T   T
  0.5563653536359237  0.5021147965321883  0.1194063535651673   T   T   T
 
  0.00000000E+00  0.00000000E+00  0.00000000E+00
  0.00000000E+00  0.00000000E+00  0.00000000E+00
  0.00000000E+00  0.00000000E+00  0.00000000E+00
  0.00000000E+00  0.00000000E+00  0.00000000E+00
  0.00000000E+00  0.00000000E+00  0.00000000E+00
  0.00000000E+00  0.00000000E+00  0.00000000E+00
  0.00000000E+00  0.00000000E+00  0.00000000E+00
  0.00000000E+00  0.00000000E+00  0.00000000E+00
  0.00000000E+00  0.00000000E+00  0.00000000E+00
  0.00000000E+00  0.00000000E+00  0.00000000E+00
  0.00000000E+00  0.00000000E+00  0.00000000E+00
  0.00000000E+00  0.00000000E+00  0.00000000E+00
  0.00000000E+00  0.00000000E+00  0.00000000E+00
  0.00000000E+00  0.00000000E+00  0.00000000E+00
  0.00000000E+00  0.00000000E+00  0.00000000E+00
  0.00000000E+00  0.00000000E+00  0.00000000E+00
  0.00000000E+00  0.00000000E+00  0.00000000E+00
  0.00000000E+00  0.00000000E+00  0.00000000E+00
  0.00000000E+00  0.00000000E+00  0.00000000E+00
  0.00000000E+00  0.00000000E+00  0.00000000E+00
  0.00000000E+00  0.00000000E+00  0.00000000E+00
  0.00000000E+00  0.00000000E+00  0.00000000E+00
  0.00000000E+00  0.00000000E+00  0.00000000E+00
  0.00000000E+00  0.00000000E+00  0.00000000E+00
  0.00000000E+00  0.00000000E+00  0.00000000E+00
  0.00000000E+00  0.00000000E+00  0.00000000E+00
  0.00000000E+00  0.00000000E+00  0.00000000E+00
  0.00000000E+00  0.00000000E+00  0.00000000E+00
  0.00000000E+00  0.00000000E+00  0.00000000E+00
  0.00000000E+00  0.00000000E+00  0.00000000E+00
  0.00000000E+00  0.00000000E+00  0.00000000E+00
