Title                                   
   1.00000000000000     
     9.8694509999999998    0.0000000000000000    0.0000000000000000
     0.0000000000000000    8.5490480000000009    0.0000000000000000
     0.0000000000000000    0.0000000000000000   20.0000000000000000
    25     6     1
Selective dynamics
Direct
  0.0562823366131021  0.0927323409850314  0.0905715817671531   T   T   T
  0.9300719453750570  0.1753137374614617  0.0914035727298105   T   T   T
  0.0563874208901306  0.9239196417352937  0.0906211775055517   T   T   T
  0.9297784635476225  0.3413290434222601  0.0928939921817348   T   T   T
  0.0561678770247980  0.5900285849316301  0.0904562740992218   T   T   T
  0.9314488948906317  0.6716576435868120  0.0923570569337757   T   T   T
  0.0562257509779744  0.4233089378796182  0.0917838831073975   T   T   T
  0.9312150855889900  0.8397718576632025  0.0919866992213312   T   T   T
  0.3059289626176424  0.0893518428080074  0.0899492337607281   T   T   T
  0.1825152850181611  0.1753175428173646  0.0905575032660885   T   T   T
  0.3068612602418470  0.9233517866585934  0.0911074341534485   T   T   T
  0.1826706518535485  0.3412681320339153  0.0915732705192237   T   T   T
  0.3069945915873823  0.5924341191962273  0.0941748171516986   T   T   T
  0.1812203979931527  0.6716218717372739  0.0910873223829670   T   T   T
  0.1814346389779341  0.8397177160158780  0.0908390132510832   T   T   T
  0.5563169908796879  0.0856749568255644  0.0942618116861475   T   T   T
  0.4314987224862916  0.1698607673437225  0.0929050057989458   T   T   T
  0.4343525620046813  0.3358308352690867  0.0967431321500965   T   T   T
  0.4288133746037088  0.8369852015397060  0.0947303598199210   T   T   T
  0.8066940415028524  0.0892701374514277  0.0909480129497148   T   T   T
  0.6811029632592237  0.1701276624810158  0.0937735465031779   T   T   T
  0.8060025010491365  0.9235096961482572  0.0922662605650805   T   T   T
  0.6782213458276124  0.3358939493022527  0.0982274636535628   T   T   T
  0.8057543073418614  0.5923824492292140  0.0975101948356990   T   T   T
  0.6837989287867651  0.8371166043372914  0.0967263196437634   T   T   T
  0.4252698549456483  0.6765963914667035  0.1001254576072864   T   T   T
  0.5560460363672090  0.4105505851660126  0.1074759004928928   T   T   T
  0.6892010891747895  0.6779573904126196  0.1068485288825106   T   T   T
  0.5565106826736836  0.9162983731731443  0.0942602216291253   T   T   T
  0.3111495770344386  0.4246346255495929  0.0928151571563013   T   T   T
  0.8014437838919680  0.4249487760489702  0.0954239671189669   T   T   T
  0.5522586749724741  0.5914827993228506  0.1692708274756095   T   T   T
 
  0.00000000E+00  0.00000000E+00  0.00000000E+00
  0.00000000E+00  0.00000000E+00  0.00000000E+00
  0.00000000E+00  0.00000000E+00  0.00000000E+00
  0.00000000E+00  0.00000000E+00  0.00000000E+00
  0.00000000E+00  0.00000000E+00  0.00000000E+00
  0.00000000E+00  0.00000000E+00  0.00000000E+00
  0.00000000E+00  0.00000000E+00  0.00000000E+00
  0.00000000E+00  0.00000000E+00  0.00000000E+00
  0.00000000E+00  0.00000000E+00  0.00000000E+00
  0.00000000E+00  0.00000000E+00  0.00000000E+00
  0.00000000E+00  0.00000000E+00  0.00000000E+00
  0.00000000E+00  0.00000000E+00  0.00000000E+00
  0.00000000E+00  0.00000000E+00  0.00000000E+00
  0.00000000E+00  0.00000000E+00  0.00000000E+00
  0.00000000E+00  0.00000000E+00  0.00000000E+00
  0.00000000E+00  0.00000000E+00  0.00000000E+00
  0.00000000E+00  0.00000000E+00  0.00000000E+00
  0.00000000E+00  0.00000000E+00  0.00000000E+00
  0.00000000E+00  0.00000000E+00  0.00000000E+00
  0.00000000E+00  0.00000000E+00  0.00000000E+00
  0.00000000E+00  0.00000000E+00  0.00000000E+00
  0.00000000E+00  0.00000000E+00  0.00000000E+00
  0.00000000E+00  0.00000000E+00  0.00000000E+00
  0.00000000E+00  0.00000000E+00  0.00000000E+00
  0.00000000E+00  0.00000000E+00  0.00000000E+00
  0.00000000E+00  0.00000000E+00  0.00000000E+00
  0.00000000E+00  0.00000000E+00  0.00000000E+00
  0.00000000E+00  0.00000000E+00  0.00000000E+00
  0.00000000E+00  0.00000000E+00  0.00000000E+00
  0.00000000E+00  0.00000000E+00  0.00000000E+00
  0.00000000E+00  0.00000000E+00  0.00000000E+00
  0.00000000E+00  0.00000000E+00  0.00000000E+00
