Title                                   
   1.00000000000000     
     8.5490480000000009    0.0000000000000000    0.0000000000000000
     0.0000000000000000    8.5490480000000009    0.0000000000000000
     0.0000000000000000    0.0000000000000000   20.0000000000000000
    23     1     1
Selective dynamics
Direct
  0.9095519404010373  0.2058341174442707  0.0954689220034296   T   T   T
  0.9099965781181386  0.5031361423729838  0.0956188656400805   T   T   T
  0.9118106199815176  0.8006662312578614  0.0951495263091994   T   T   T
  0.1977699267856330  0.0829859839899085  0.0950036924662156   T   T   T
  0.0750558999808780  0.2025641067728131  0.0955054168668622   T   T   T
  0.1591718445422780  0.6483698293498322  0.0961396059594224   T   T   T
  0.0776321209516187  0.5018483100201415  0.0958112330155578   T   T   T
  0.1584292116017081  0.3552449645576832  0.0965482003224488   T   T   T
  0.0786686200509042  0.7985327886206702  0.0951473615450292   T   T   T
  0.4924695535667138  0.0857827440372196  0.0955746359254051   T   T   T
  0.3451605288288042  0.1636491981833817  0.0957265122016018   T   T   T
  0.4918332071720875  0.9178294183663331  0.0956864583556469   T   T   T
  0.3462149049489818  0.8363562516920180  0.0959831796897985   T   T   T
  0.7869957300646230  0.0848963160103701  0.0956071228987776   T   T   T
  0.6370933978990452  0.1670672047704719  0.0962136376093831   T   T   T
  0.7881681258473056  0.9201954567114571  0.0955621856252046   T   T   T
  0.8309167712734797  0.6496967899937711  0.0959955336585373   T   T   T
  0.8281527876152774  0.3569588524128028  0.0959126362020792   T   T   T
  0.6376022924872662  0.8362216603551835  0.0965616329819273   T   T   T
  0.3239215256044927  0.3330549631433624  0.0988551437893173   T   T   T
  0.3253860473809256  0.6709297668164088  0.0980969845073169   T   T   T
  0.6609176665427471  0.3354556322817867  0.0980906205068407   T   T   T
  0.6620375242390291  0.6698725678647567  0.0991846697475521   T   T   T
  0.1981414281638402  0.9164236026519583  0.0949897991761853   T   T   T
  0.4923137459516525  0.5012171003225592  0.1352714229961611   T   T   T
 
  0.00000000E+00  0.00000000E+00  0.00000000E+00
  0.00000000E+00  0.00000000E+00  0.00000000E+00
  0.00000000E+00  0.00000000E+00  0.00000000E+00
  0.00000000E+00  0.00000000E+00  0.00000000E+00
  0.00000000E+00  0.00000000E+00  0.00000000E+00
  0.00000000E+00  0.00000000E+00  0.00000000E+00
  0.00000000E+00  0.00000000E+00  0.00000000E+00
  0.00000000E+00  0.00000000E+00  0.00000000E+00
  0.00000000E+00  0.00000000E+00  0.00000000E+00
  0.00000000E+00  0.00000000E+00  0.00000000E+00
  0.00000000E+00  0.00000000E+00  0.00000000E+00
  0.00000000E+00  0.00000000E+00  0.00000000E+00
  0.00000000E+00  0.00000000E+00  0.00000000E+00
  0.00000000E+00  0.00000000E+00  0.00000000E+00
  0.00000000E+00  0.00000000E+00  0.00000000E+00
  0.00000000E+00  0.00000000E+00  0.00000000E+00
  0.00000000E+00  0.00000000E+00  0.00000000E+00
  0.00000000E+00  0.00000000E+00  0.00000000E+00
  0.00000000E+00  0.00000000E+00  0.00000000E+00
  0.00000000E+00  0.00000000E+00  0.00000000E+00
  0.00000000E+00  0.00000000E+00  0.00000000E+00
  0.00000000E+00  0.00000000E+00  0.00000000E+00
  0.00000000E+00  0.00000000E+00  0.00000000E+00
  0.00000000E+00  0.00000000E+00  0.00000000E+00
  0.00000000E+00  0.00000000E+00  0.00000000E+00
