Title                                   
   1.00000000000000     
     8.5490480000000009    0.0000000000000000    0.0000000000000000
     0.0000000000000000    8.5490480000000009    0.0000000000000000
     0.0000000000000000    0.0000000000000000   20.0000000000000000
    19     5     1
Selective dynamics
Direct
  0.9076876580421610  0.2047308353042988  0.0975392716061671   T   T   T
  0.9075040819492752  0.5025062668871679  0.0977386215538489   T   T   T
  0.9103809518889733  0.8019156866127509  0.0975573359936150   T   T   T
  0.1961990891042573  0.0838636795153869  0.0976138962876538   T   T   T
  0.0761003256362790  0.2012898747497461  0.0975612995625591   T   T   T
  0.1594688361166538  0.6506629169671827  0.0977290870273147   T   T   T
  0.0792964213274856  0.5009860206646528  0.0977428693835895   T   T   T
  0.1594645180413436  0.3516226357168143  0.0978009908902110   T   T   T
  0.0787736134601947  0.7988251668880906  0.0976030424000426   T   T   T
  0.4926199273175002  0.0881803126329071  0.0978139793044843   T   T   T
  0.3439035058570318  0.1659981011171335  0.0978602044069070   T   T   T
  0.4922970571317330  0.9162694682081699  0.0977124095509343   T   T   T
  0.3442144497773704  0.8353296532273198  0.0977153751718673   T   T   T
  0.7883179882286142  0.0867301333086688  0.0975515173600550   T   T   T
  0.6396572453346475  0.1691295421994732  0.0978369022149384   T   T   T
  0.7891636537529465  0.9193846166699735  0.0975383608138600   T   T   T
  0.8286658681409194  0.6514373116260134  0.0977199313124869   T   T   T
  0.8263412421652300  0.3540931559255946  0.0977891189194166   T   T   T
  0.6408015031047269  0.8354612026792156  0.0977206821195854   T   T   T
  0.3199366900606286  0.3274697200867116  0.0980661659349406   T   T   T
  0.3203255446262708  0.6766735432125620  0.0978918717531795   T   T   T
  0.6648931781309495  0.3303413704468415  0.0980672895506855   T   T   T
  0.6671541977361198  0.6746576853153599  0.0979011943862709   T   T   T
  0.1977016239439136  0.9155126214938881  0.0976128530656871   T   T   T
  0.4945428291247665  0.5017184785440758  0.0980207294296793   T   T   T
 
  0.00000000E+00  0.00000000E+00  0.00000000E+00
  0.00000000E+00  0.00000000E+00  0.00000000E+00
  0.00000000E+00  0.00000000E+00  0.00000000E+00
  0.00000000E+00  0.00000000E+00  0.00000000E+00
  0.00000000E+00  0.00000000E+00  0.00000000E+00
  0.00000000E+00  0.00000000E+00  0.00000000E+00
  0.00000000E+00  0.00000000E+00  0.00000000E+00
  0.00000000E+00  0.00000000E+00  0.00000000E+00
  0.00000000E+00  0.00000000E+00  0.00000000E+00
  0.00000000E+00  0.00000000E+00  0.00000000E+00
  0.00000000E+00  0.00000000E+00  0.00000000E+00
  0.00000000E+00  0.00000000E+00  0.00000000E+00
  0.00000000E+00  0.00000000E+00  0.00000000E+00
  0.00000000E+00  0.00000000E+00  0.00000000E+00
  0.00000000E+00  0.00000000E+00  0.00000000E+00
  0.00000000E+00  0.00000000E+00  0.00000000E+00
  0.00000000E+00  0.00000000E+00  0.00000000E+00
  0.00000000E+00  0.00000000E+00  0.00000000E+00
  0.00000000E+00  0.00000000E+00  0.00000000E+00
  0.00000000E+00  0.00000000E+00  0.00000000E+00
  0.00000000E+00  0.00000000E+00  0.00000000E+00
  0.00000000E+00  0.00000000E+00  0.00000000E+00
  0.00000000E+00  0.00000000E+00  0.00000000E+00
  0.00000000E+00  0.00000000E+00  0.00000000E+00
  0.00000000E+00  0.00000000E+00  0.00000000E+00
