Title                                   
   1.00000000000000     
     8.5490480000000009    0.0000000000000000    0.0000000000000000
     0.0000000000000000    8.5490480000000009    0.0000000000000000
     0.0000000000000000    0.0000000000000000   20.0000000000000000
    19     5     1
Selective dynamics
Direct
  0.9078519846027600  0.2074914515053896  0.0975768386427443   T   T   T
  0.9114762000906893  0.8013312475215355  0.0974804477447688   T   T   T
  0.1962368372041836  0.0846752735778919  0.0977380837515824   T   T   T
  0.0762943792949818  0.2013960310733524  0.0976241649592638   T   T   T
  0.1550403482339013  0.6503380148157246  0.0977313091680308   T   T   T
  0.0742993752943407  0.5014244488192877  0.0976879831442129   T   T   T
  0.1559434437224787  0.3553344406446678  0.0976323190022983   T   T   T
  0.0795048456497823  0.7987081692370391  0.0976421061566953   T   T   T
  0.4939793886256429  0.0846927105627052  0.0978341389105530   T   T   T
  0.3471582352133663  0.1659440597739264  0.0978235645049697   T   T   T
  0.4939841421106342  0.9144164403840634  0.0977712531913091   T   T   T
  0.3445121067953453  0.8338969980153049  0.0978928430165844   T   T   T
  0.7885159217912772  0.0883937037066864  0.0975558295718961   T   T   T
  0.6407383516745681  0.1672827831507920  0.0978775517232280   T   T   T
  0.7900337038039958  0.9192553015285189  0.0974606931018443   T   T   T
  0.8302111194955105  0.6521040810248596  0.0976728974549347   T   T   T
  0.8265289610940251  0.3555737776127343  0.0978191982458759   T   T   T
  0.6440009801809409  0.8357158716944905  0.0976591196071812   T   T   T
  0.3210235554181505  0.3303041700308347  0.0977047811593327   T   T   T
  0.9056225526033111  0.5035620248922320  0.0978208870804282   T   T   T
  0.3172334090887637  0.6743006347641369  0.0979227668192300   T   T   T
  0.6644772368878792  0.3306937450404844  0.0982310934412352   T   T   T
  0.6710812820892953  0.6738788262274955  0.0978294792678590   T   T   T
  0.1987624363022984  0.9147277938412176  0.0978197084752202   T   T   T
  0.4909012027318709  0.4993480005546488  0.0978959418586950   T   T   T
 
  0.00000000E+00  0.00000000E+00  0.00000000E+00
  0.00000000E+00  0.00000000E+00  0.00000000E+00
  0.00000000E+00  0.00000000E+00  0.00000000E+00
  0.00000000E+00  0.00000000E+00  0.00000000E+00
  0.00000000E+00  0.00000000E+00  0.00000000E+00
  0.00000000E+00  0.00000000E+00  0.00000000E+00
  0.00000000E+00  0.00000000E+00  0.00000000E+00
  0.00000000E+00  0.00000000E+00  0.00000000E+00
  0.00000000E+00  0.00000000E+00  0.00000000E+00
  0.00000000E+00  0.00000000E+00  0.00000000E+00
  0.00000000E+00  0.00000000E+00  0.00000000E+00
  0.00000000E+00  0.00000000E+00  0.00000000E+00
  0.00000000E+00  0.00000000E+00  0.00000000E+00
  0.00000000E+00  0.00000000E+00  0.00000000E+00
  0.00000000E+00  0.00000000E+00  0.00000000E+00
  0.00000000E+00  0.00000000E+00  0.00000000E+00
  0.00000000E+00  0.00000000E+00  0.00000000E+00
  0.00000000E+00  0.00000000E+00  0.00000000E+00
  0.00000000E+00  0.00000000E+00  0.00000000E+00
  0.00000000E+00  0.00000000E+00  0.00000000E+00
  0.00000000E+00  0.00000000E+00  0.00000000E+00
  0.00000000E+00  0.00000000E+00  0.00000000E+00
  0.00000000E+00  0.00000000E+00  0.00000000E+00
  0.00000000E+00  0.00000000E+00  0.00000000E+00
  0.00000000E+00  0.00000000E+00  0.00000000E+00
