Title                                   
   1.00000000000000     
     8.5490480000000009    0.0000000000000000    0.0000000000000000
     0.0000000000000000    8.5490480000000009    0.0000000000000000
     0.0000000000000000    0.0000000000000000   20.0000000000000000
    22     2     1
Selective dynamics
Direct
  0.9107071937539291  0.2052820334281908  0.0954537407424750   T   T   T
  0.9083766440611970  0.5014171898125668  0.0953090959361084   T   T   T
  0.9098826655029887  0.7983713884405097  0.0954630856102172   T   T   T
  0.1964592989662543  0.0849211152068624  0.0954793056836063   T   T   T
  0.0761637346927364  0.2052091424366795  0.0954654012978083   T   T   T
  0.1965123361666566  0.9194872348609617  0.0954849961416306   T   T   T
  0.1559749776963701  0.6494602608119795  0.0953635497105578   T   T   T
  0.0776732937017397  0.5021853553515568  0.0953300875738968   T   T   T
  0.1572841985952560  0.3528422525997543  0.0953307799178398   T   T   T
  0.0753231834503840  0.7982955330734606  0.0954714629159238   T   T   T
  0.4933891024185492  0.0864390873596457  0.0953572882326554   T   T   T
  0.3440893089575317  0.1660640848447141  0.0953473277470313   T   T   T
  0.4925983030072475  0.9171578249872107  0.0953626227261704   T   T   T
  0.3453513971638218  0.8388480257113327  0.0953756752729227   T   T   T
  0.7895143017534381  0.0840967845332323  0.0954648395378606   T   T   T
  0.6406562758126664  0.1647457264214801  0.0953419734425388   T   T   T
  0.7895834297647175  0.9186589948045891  0.0954711951318159   T   T   T
  0.8287458339132806  0.6507445081699266  0.0953141557791544   T   T   T
  0.8300657264195151  0.3541298245400337  0.0953088817596178   T   T   T
  0.6419266726545364  0.8375284353285483  0.0953307890078286   T   T   T
  0.3222997171461940  0.6725338513844070  0.0952872875680782   T   T   T
  0.6637456198244580  0.3310435725697974  0.0952239204146894   T   T   T
  0.3198970456043171  0.3286401773619874  0.0951948171051438   T   T   T
  0.6661523382364442  0.6749406310353452  0.0951796485730638   T   T   T
  0.4930394007357635  0.5017469649252403  0.0949930721713424   T   T   T
 
  0.00000000E+00  0.00000000E+00  0.00000000E+00
  0.00000000E+00  0.00000000E+00  0.00000000E+00
  0.00000000E+00  0.00000000E+00  0.00000000E+00
  0.00000000E+00  0.00000000E+00  0.00000000E+00
  0.00000000E+00  0.00000000E+00  0.00000000E+00
  0.00000000E+00  0.00000000E+00  0.00000000E+00
  0.00000000E+00  0.00000000E+00  0.00000000E+00
  0.00000000E+00  0.00000000E+00  0.00000000E+00
  0.00000000E+00  0.00000000E+00  0.00000000E+00
  0.00000000E+00  0.00000000E+00  0.00000000E+00
  0.00000000E+00  0.00000000E+00  0.00000000E+00
  0.00000000E+00  0.00000000E+00  0.00000000E+00
  0.00000000E+00  0.00000000E+00  0.00000000E+00
  0.00000000E+00  0.00000000E+00  0.00000000E+00
  0.00000000E+00  0.00000000E+00  0.00000000E+00
  0.00000000E+00  0.00000000E+00  0.00000000E+00
  0.00000000E+00  0.00000000E+00  0.00000000E+00
  0.00000000E+00  0.00000000E+00  0.00000000E+00
  0.00000000E+00  0.00000000E+00  0.00000000E+00
  0.00000000E+00  0.00000000E+00  0.00000000E+00
  0.00000000E+00  0.00000000E+00  0.00000000E+00
  0.00000000E+00  0.00000000E+00  0.00000000E+00
  0.00000000E+00  0.00000000E+00  0.00000000E+00
  0.00000000E+00  0.00000000E+00  0.00000000E+00
  0.00000000E+00  0.00000000E+00  0.00000000E+00
