Title                                   
   1.00000000000000     
     9.8694509999999998    0.0000000000000000    0.0000000000000000
     0.0000000000000000    8.5490480000000009    0.0000000000000000
     0.0000000000000000    0.0000000000000000   20.0000000000000000
    30     1     1
Selective dynamics
Direct
  0.0568076473182231  0.0904166366017789  0.0816846136177056   T   T   T
  0.9316064703432088  0.1720911450122319  0.0837571470990186   T   T   T
  0.0557109053686694  0.9232606094831110  0.0816953259710919   T   T   T
  0.9321348652819063  0.3385816355630372  0.0862612078773106   T   T   T
  0.0565455981615158  0.5887113231047636  0.0829245932544140   T   T   T
  0.9324108636819005  0.6717098080704100  0.0861574350302133   T   T   T
  0.0574368054661394  0.4225475599634940  0.0842254793238884   T   T   T
  0.9312229626090472  0.8387015151101187  0.0847887902702189   T   T   T
  0.3061421883347137  0.0910468175535759  0.0866224350671788   T   T   T
  0.1818592120787575  0.1745381200087194  0.0840408875240518   T   T   T
  0.3042195599980074  0.9250191711109134  0.0877384547726507   T   T   T
  0.1831644138814796  0.3414128987166469  0.0867576904166403   T   T   T
  0.3019222355314558  0.5931250597405987  0.0976823726524574   T   T   T
  0.1798353268200777  0.6738302376747828  0.0855600829725471   T   T   T
  0.3081667161043284  0.4253859473295028  0.0966975328323512   T   T   T
  0.1797570888202231  0.8407393451509184  0.0842797888915716   T   T   T
  0.5559760630106095  0.0863836649183798  0.0952969665765295   T   T   T
  0.4313576796076612  0.1718340296935128  0.0936025825217764   T   T   T
  0.5548248814632473  0.9193114111949724  0.0998514502936699   T   T   T
  0.4325255047039357  0.3374117014742861  0.1027325615441528   T   T   T
  0.5600138060277798  0.4081533326532177  0.1183788751188541   T   T   T
  0.4254749931436738  0.8422845431841657  0.0997832124893143   T   T   T
  0.8070722960235619  0.0876388848029339  0.0869019324970097   T   T   T
  0.6824449383371328  0.1689754882626160  0.0934366795170000   T   T   T
  0.8064041000307064  0.9215610276284631  0.0888695462713406   T   T   T
  0.6845347758150998  0.3335524969488988  0.1020396616430250   T   T   T
  0.8108366081976660  0.5878561660511205  0.0983875728499990   T   T   T
  0.6938256098109425  0.6754811152101718  0.1152287586905698   T   T   T
  0.8084154159441347  0.4203629237258386  0.0963646004670869   T   T   T
  0.6833354790327300  0.8381967398121322  0.1010106887004891   T   T   T
  0.4138106274818363  0.6840238836585357  0.1157278639549832   T   T   T
  0.5498433615696361  0.5961007605861600  0.1771882092909240   T   T   T
 
  0.00000000E+00  0.00000000E+00  0.00000000E+00
  0.00000000E+00  0.00000000E+00  0.00000000E+00
  0.00000000E+00  0.00000000E+00  0.00000000E+00
  0.00000000E+00  0.00000000E+00  0.00000000E+00
  0.00000000E+00  0.00000000E+00  0.00000000E+00
  0.00000000E+00  0.00000000E+00  0.00000000E+00
  0.00000000E+00  0.00000000E+00  0.00000000E+00
  0.00000000E+00  0.00000000E+00  0.00000000E+00
  0.00000000E+00  0.00000000E+00  0.00000000E+00
  0.00000000E+00  0.00000000E+00  0.00000000E+00
  0.00000000E+00  0.00000000E+00  0.00000000E+00
  0.00000000E+00  0.00000000E+00  0.00000000E+00
  0.00000000E+00  0.00000000E+00  0.00000000E+00
  0.00000000E+00  0.00000000E+00  0.00000000E+00
  0.00000000E+00  0.00000000E+00  0.00000000E+00
  0.00000000E+00  0.00000000E+00  0.00000000E+00
  0.00000000E+00  0.00000000E+00  0.00000000E+00
  0.00000000E+00  0.00000000E+00  0.00000000E+00
  0.00000000E+00  0.00000000E+00  0.00000000E+00
  0.00000000E+00  0.00000000E+00  0.00000000E+00
  0.00000000E+00  0.00000000E+00  0.00000000E+00
  0.00000000E+00  0.00000000E+00  0.00000000E+00
  0.00000000E+00  0.00000000E+00  0.00000000E+00
  0.00000000E+00  0.00000000E+00  0.00000000E+00
  0.00000000E+00  0.00000000E+00  0.00000000E+00
  0.00000000E+00  0.00000000E+00  0.00000000E+00
  0.00000000E+00  0.00000000E+00  0.00000000E+00
  0.00000000E+00  0.00000000E+00  0.00000000E+00
  0.00000000E+00  0.00000000E+00  0.00000000E+00
  0.00000000E+00  0.00000000E+00  0.00000000E+00
  0.00000000E+00  0.00000000E+00  0.00000000E+00
  0.00000000E+00  0.00000000E+00  0.00000000E+00
