Title                                   
   1.00000000000000     
     9.8694509999999998    0.0000000000000000    0.0000000000000000
     0.0000000000000000    8.5490480000000009    0.0000000000000000
     0.0000000000000000    0.0000000000000000   20.0000000000000000
    27     4     1
Selective dynamics
Direct
  0.0548581994705946  0.0923795686672103  0.0895990421370038   T   T   T
  0.9294099937193716  0.1763330871690067  0.0905403702549973   T   T   T
  0.0560613929410069  0.9243519306017676  0.0884704918228330   T   T   T
  0.9277219240038842  0.3427245071020326  0.0921725028295052   T   T   T
  0.0556721745593606  0.5908504491879111  0.0905858541799386   T   T   T
  0.9321340172502817  0.6747303112175382  0.0877128908727886   T   T   T
  0.0551536805377815  0.4236991755427524  0.0931032987617578   T   T   T
  0.9315480774173125  0.8418996180959227  0.0866364819442606   T   T   T
  0.3037667385914871  0.0876708861911580  0.0914323086836384   T   T   T
  0.1804669015789502  0.1744469299261795  0.0916734542205801   T   T   T
  0.3060901535341055  0.9217664383926959  0.0934137738139829   T   T   T
  0.1802367311016871  0.3404200615367974  0.0951279163804328   T   T   T
  0.3064864284023019  0.5910803760165059  0.1053463466513066   T   T   T
  0.1813601531070645  0.6712891901382098  0.0940412370732999   T   T   T
  0.1814122341113297  0.8386755355277744  0.0920875598181485   T   T   T
  0.5545913415422284  0.0860740047121974  0.0944777336287767   T   T   T
  0.4280675987237972  0.1684787332934375  0.0933636861836992   T   T   T
  0.4292914169956462  0.3345925433600873  0.0960229782375657   T   T   T
  0.4286642427087184  0.8361747008639667  0.1038889651956962   T   T   T
  0.8053793121355711  0.0911658354348070  0.0896325512685677   T   T   T
  0.6782373405060751  0.1696993501463838  0.0918886191281066   T   T   T
  0.8060104280024960  0.9268588762985941  0.0874641736869350   T   T   T
  0.6739273777881524  0.3360357340580085  0.0922040163915276   T   T   T
  0.8046272051896937  0.5969672908546927  0.0882991599363604   T   T   T
  0.7979978057520875  0.4274646892604461  0.0913611768536469   T   T   T
  0.6821976605830766  0.8420259858386497  0.0907118332774501   T   T   T
  0.4254763153131039  0.6765505114996304  0.1214433980547426   T   T   T
  0.5484921872725770  0.4112743480430857  0.0971017246453757   T   T   T
  0.6849716128138013  0.6844060483599804  0.0893092650538648   T   T   T
  0.5561074799549797  0.9204850186430018  0.0982277121488894   T   T   T
  0.3069689140756171  0.4221461009718696  0.1006818786661876   T   T   T
  0.6062519603158659  0.5675281630477012  0.1776525981981500   T   T   T
 
  0.00000000E+00  0.00000000E+00  0.00000000E+00
  0.00000000E+00  0.00000000E+00  0.00000000E+00
  0.00000000E+00  0.00000000E+00  0.00000000E+00
  0.00000000E+00  0.00000000E+00  0.00000000E+00
  0.00000000E+00  0.00000000E+00  0.00000000E+00
  0.00000000E+00  0.00000000E+00  0.00000000E+00
  0.00000000E+00  0.00000000E+00  0.00000000E+00
  0.00000000E+00  0.00000000E+00  0.00000000E+00
  0.00000000E+00  0.00000000E+00  0.00000000E+00
  0.00000000E+00  0.00000000E+00  0.00000000E+00
  0.00000000E+00  0.00000000E+00  0.00000000E+00
  0.00000000E+00  0.00000000E+00  0.00000000E+00
  0.00000000E+00  0.00000000E+00  0.00000000E+00
  0.00000000E+00  0.00000000E+00  0.00000000E+00
  0.00000000E+00  0.00000000E+00  0.00000000E+00
  0.00000000E+00  0.00000000E+00  0.00000000E+00
  0.00000000E+00  0.00000000E+00  0.00000000E+00
  0.00000000E+00  0.00000000E+00  0.00000000E+00
  0.00000000E+00  0.00000000E+00  0.00000000E+00
  0.00000000E+00  0.00000000E+00  0.00000000E+00
  0.00000000E+00  0.00000000E+00  0.00000000E+00
  0.00000000E+00  0.00000000E+00  0.00000000E+00
  0.00000000E+00  0.00000000E+00  0.00000000E+00
  0.00000000E+00  0.00000000E+00  0.00000000E+00
  0.00000000E+00  0.00000000E+00  0.00000000E+00
  0.00000000E+00  0.00000000E+00  0.00000000E+00
  0.00000000E+00  0.00000000E+00  0.00000000E+00
  0.00000000E+00  0.00000000E+00  0.00000000E+00
  0.00000000E+00  0.00000000E+00  0.00000000E+00
  0.00000000E+00  0.00000000E+00  0.00000000E+00
  0.00000000E+00  0.00000000E+00  0.00000000E+00
  0.00000000E+00  0.00000000E+00  0.00000000E+00
