Title                                   
   1.00000000000000     
     4.9440799999999996    0.0000000000000000    0.0000000000000000
     0.0000000000000000   17.1295089999999988    0.0000000000000000
     0.0000000000000000    0.0000000000000000   20.0000000000000000
    27     3     1
Selective dynamics
Direct
  0.0009173765612645  0.1052271941997470  0.2948104082578675   T   T   T
  0.2499268417877587  0.1477663528456100  0.2959336404177111   T   T   T
  0.2498000027058349  0.2324187550902228  0.2987521906829154   T   T   T
 -0.0028726689944490  0.2732129492341817  0.3003048545068798   T   T   T
  0.0013586543999277  0.6026077724159550  0.3017306942273454   T   T   T
  0.2502756572348129  0.7270666076344975  0.2967166151186602   T   T   T
  0.0011946681774069  0.8532466790977599  0.2939641310734956   T   T   T
  0.2500686710478170  0.8954050056471113  0.2937746134503890   T   T   T
  0.2500112372734639  0.9792984803108804  0.2936737984000107   T   T   T
  0.0012139357428553  0.7692402606759140  0.2951004871454494   T   T   T
  0.4990302912889427  0.1052458904448964  0.2946774264642339   T   T   T
  0.7500040557690354  0.1468390151865121  0.2951556468502234   T   T   T
  0.7499214867123017  0.2301853842212246  0.2971574079608915   T   T   T
  0.4995444031841746  0.0213162522790456  0.2937654768622779   T   T   T
  0.7499417199155417  0.3924949715025557  0.3030815560574120   T   T   T
  0.7508609131241626  0.4788067025405764  0.3045742555810670   T   T   T
  0.5025163388429529  0.2732588167773873  0.2991001106898531   T   T   T
  0.5000598086205769  0.6028213734594503  0.3009820965040721   T   T   T
  0.7504493185558319  0.7280771226335767  0.2951369761395188   T   T   T
  0.4989859578167307  0.8532328012219309  0.2938891697413573   T   T   T
  0.7500207828950080  0.8951549193224351  0.2935975386416347   T   T   T
  0.7499950208620573  0.9791339321487929  0.2935735199291590   T   T   T
  0.4993692808743563  0.7691939889601332  0.2949685991152662   T   T   T
  0.7508613649203988  0.6451609977682241  0.2971665837433003   T   T   T
  0.0004447196256028  0.0212967204126882  0.2938480831140535   T   T   T
  0.5032624281856228  0.5210745215493097  0.3084449780753645   T   T   T
 -0.0009085150354713  0.5206702022463390  0.3101842996690909   T   T   T
  0.5110719117864431  0.3535674964795967  0.3015130757843923   T   T   T
 -0.0120806308542403  0.3533596332268528  0.3060238259197688   T   T   T
  0.2504178704004482  0.6448782564033838  0.3005436121138890   T   T   T
  0.2543440965728325  0.4400829440632064  0.3429143277624020   T   T   T
 
  0.00000000E+00  0.00000000E+00  0.00000000E+00
  0.00000000E+00  0.00000000E+00  0.00000000E+00
  0.00000000E+00  0.00000000E+00  0.00000000E+00
  0.00000000E+00  0.00000000E+00  0.00000000E+00
  0.00000000E+00  0.00000000E+00  0.00000000E+00
  0.00000000E+00  0.00000000E+00  0.00000000E+00
  0.00000000E+00  0.00000000E+00  0.00000000E+00
  0.00000000E+00  0.00000000E+00  0.00000000E+00
  0.00000000E+00  0.00000000E+00  0.00000000E+00
  0.00000000E+00  0.00000000E+00  0.00000000E+00
  0.00000000E+00  0.00000000E+00  0.00000000E+00
  0.00000000E+00  0.00000000E+00  0.00000000E+00
  0.00000000E+00  0.00000000E+00  0.00000000E+00
  0.00000000E+00  0.00000000E+00  0.00000000E+00
  0.00000000E+00  0.00000000E+00  0.00000000E+00
  0.00000000E+00  0.00000000E+00  0.00000000E+00
  0.00000000E+00  0.00000000E+00  0.00000000E+00
  0.00000000E+00  0.00000000E+00  0.00000000E+00
  0.00000000E+00  0.00000000E+00  0.00000000E+00
  0.00000000E+00  0.00000000E+00  0.00000000E+00
  0.00000000E+00  0.00000000E+00  0.00000000E+00
  0.00000000E+00  0.00000000E+00  0.00000000E+00
  0.00000000E+00  0.00000000E+00  0.00000000E+00
  0.00000000E+00  0.00000000E+00  0.00000000E+00
  0.00000000E+00  0.00000000E+00  0.00000000E+00
  0.00000000E+00  0.00000000E+00  0.00000000E+00
  0.00000000E+00  0.00000000E+00  0.00000000E+00
  0.00000000E+00  0.00000000E+00  0.00000000E+00
  0.00000000E+00  0.00000000E+00  0.00000000E+00
  0.00000000E+00  0.00000000E+00  0.00000000E+00
  0.00000000E+00  0.00000000E+00  0.00000000E+00
