Title                                   
   1.00000000000000     
     9.8694509999999998    0.0000000000000000    0.0000000000000000
     0.0000000000000000    8.5490480000000009    0.0000000000000000
     0.0000000000000000    0.0000000000000000   20.0000000000000000
    28     2     1
Selective dynamics
Direct
  0.0563224531370113  0.0892837802968972  0.0827154637025734   T   T   T
  0.9312228576161530  0.1723809836490608  0.0871514337781762   T   T   T
  0.0563006541640234  0.9230432956464568  0.0827084926442166   T   T   T
  0.9329979527041140  0.3388390989174218  0.0885045249518510   T   T   T
  0.0567858631215406  0.5893424209925398  0.0824938344946086   T   T   T
  0.9330115659245214  0.6735197337606604  0.0884956202826024   T   T   T
  0.0567894314549623  0.4229920096582124  0.0824860428062488   T   T   T
  0.9312068381437092  0.8399812880548558  0.0871435038908111   T   T   T
  0.3063955544125779  0.0898974845603791  0.0879440897334257   T   T   T
  0.1811285488401215  0.1722217352164108  0.0832809515825173   T   T   T
  0.3063706181006767  0.9223715724055136  0.0879178069638815   T   T   T
  0.1808442680073371  0.3397597351453708  0.0827745816008264   T   T   T
  0.3054949904793522  0.5915169611612076  0.0885726037131917   T   T   T
  0.1808257160275284  0.6725525973606205  0.0827654020021149   T   T   T
  0.3055177825127905  0.4207424322910052  0.0885842453950971   T   T   T
  0.1810792782055697  0.8400832314043386  0.0832547374925356   T   T   T
  0.5546018514770161  0.0907358915037664  0.1028973665959206   T   T   T
  0.4289637460519338  0.1770442623128572  0.0965490181294581   T   T   T
  0.5545675328986022  0.9215287887204766  0.1028701102432928   T   T   T
  0.4289168985884041  0.8352070878535363  0.0965194264241108   T   T   T
  0.8062879713378850  0.0897479866914515  0.0934747061144929   T   T   T
  0.6828718213081946  0.1755867106857089  0.1042283697394793   T   T   T
  0.8062740570736423  0.9225976201248735  0.0934690296259129   T   T   T
  0.6894346690154129  0.3393195812589440  0.1139296206358729   T   T   T
  0.8114654533649492  0.5916106898290114  0.1019212142943253   T   T   T
  0.6894186722122619  0.6730191304322677  0.1139065107788767   T   T   T
  0.8114512877094652  0.4207534750346039  0.1019207180422859   T   T   T
  0.6828501631228042  0.8367293426518028  0.1041893865894733   T   T   T
  0.4244558189912895  0.3390721786382750  0.0985933112464012   T   T   T
  0.4244338640811233  0.6731887781526235  0.0985606730428053   T   T   T
  0.5448468199150501  0.5062051155888656  0.1511422034626550   T   T   T
 
  0.00000000E+00  0.00000000E+00  0.00000000E+00
  0.00000000E+00  0.00000000E+00  0.00000000E+00
  0.00000000E+00  0.00000000E+00  0.00000000E+00
  0.00000000E+00  0.00000000E+00  0.00000000E+00
  0.00000000E+00  0.00000000E+00  0.00000000E+00
  0.00000000E+00  0.00000000E+00  0.00000000E+00
  0.00000000E+00  0.00000000E+00  0.00000000E+00
  0.00000000E+00  0.00000000E+00  0.00000000E+00
  0.00000000E+00  0.00000000E+00  0.00000000E+00
  0.00000000E+00  0.00000000E+00  0.00000000E+00
  0.00000000E+00  0.00000000E+00  0.00000000E+00
  0.00000000E+00  0.00000000E+00  0.00000000E+00
  0.00000000E+00  0.00000000E+00  0.00000000E+00
  0.00000000E+00  0.00000000E+00  0.00000000E+00
  0.00000000E+00  0.00000000E+00  0.00000000E+00
  0.00000000E+00  0.00000000E+00  0.00000000E+00
  0.00000000E+00  0.00000000E+00  0.00000000E+00
  0.00000000E+00  0.00000000E+00  0.00000000E+00
  0.00000000E+00  0.00000000E+00  0.00000000E+00
  0.00000000E+00  0.00000000E+00  0.00000000E+00
  0.00000000E+00  0.00000000E+00  0.00000000E+00
  0.00000000E+00  0.00000000E+00  0.00000000E+00
  0.00000000E+00  0.00000000E+00  0.00000000E+00
  0.00000000E+00  0.00000000E+00  0.00000000E+00
  0.00000000E+00  0.00000000E+00  0.00000000E+00
  0.00000000E+00  0.00000000E+00  0.00000000E+00
  0.00000000E+00  0.00000000E+00  0.00000000E+00
  0.00000000E+00  0.00000000E+00  0.00000000E+00
  0.00000000E+00  0.00000000E+00  0.00000000E+00
  0.00000000E+00  0.00000000E+00  0.00000000E+00
  0.00000000E+00  0.00000000E+00  0.00000000E+00
