Title                                   
   1.00000000000000     
     8.5490480000000009    0.0000000000000000    0.0000000000000000
     0.0000000000000000    8.5490480000000009    0.0000000000000000
     0.0000000000000000    0.0000000000000000   20.0000000000000000
    19     5     1
Selective dynamics
Direct
  0.9087821428533658  0.2064654830437333  0.0975484997220788   T   T   T
  0.9115361790325516  0.8017458172611920  0.0973892626792831   T   T   T
  0.1966214734489557  0.0839530889941772  0.0978202043524391   T   T   T
  0.0756804498129246  0.2018739790412468  0.0976879465739016   T   T   T
  0.1543892099609666  0.6517999543887240  0.0977669964669128   T   T   T
  0.0746191579020072  0.5013736523229122  0.0977563089571622   T   T   T
  0.1546671335487981  0.3541040787200617  0.0977683845357659   T   T   T
  0.0785667565028188  0.7995426095948390  0.0976211139077873   T   T   T
  0.4940341539615997  0.0848554169755441  0.0978717648993462   T   T   T
  0.3458835808770043  0.1643431196374907  0.0979403068595546   T   T   T
  0.4938080534059363  0.9142976554797417  0.0977978626024555   T   T   T
  0.3432524843187237  0.8349226995467427  0.0979012559198257   T   T   T
  0.7888291921254658  0.0873736784816808  0.0975193884827857   T   T   T
  0.6420047298120736  0.1666011102684662  0.0977982044853406   T   T   T
  0.7901388492842887  0.9192286071346698  0.0974062819063906   T   T   T
  0.8306182901798237  0.6525307649462557  0.0975845688732984   T   T   T
  0.8275352992698620  0.3544701859732589  0.0977327788002593   T   T   T
  0.6441794319452222  0.8356484717179451  0.0976179401499169   T   T   T
  0.3221930363525048  0.3314869809005562  0.0979286119656844   T   T   T
  0.9058124488096465  0.5033445254721055  0.0977390282142182   T   T   T
  0.3166566655358811  0.6761121551594710  0.0979666732805343   T   T   T
  0.6663266492323822  0.3310375829662229  0.0979476337258774   T   T   T
  0.6717366553173981  0.6736939772099536  0.0977364429622715   T   T   T
  0.1975875761547065  0.9160122199000552  0.0978184092834822   T   T   T
  0.4899524003550856  0.4979721848629748  0.0980391303934009   T   T   T
 
  0.00000000E+00  0.00000000E+00  0.00000000E+00
  0.00000000E+00  0.00000000E+00  0.00000000E+00
  0.00000000E+00  0.00000000E+00  0.00000000E+00
  0.00000000E+00  0.00000000E+00  0.00000000E+00
  0.00000000E+00  0.00000000E+00  0.00000000E+00
  0.00000000E+00  0.00000000E+00  0.00000000E+00
  0.00000000E+00  0.00000000E+00  0.00000000E+00
  0.00000000E+00  0.00000000E+00  0.00000000E+00
  0.00000000E+00  0.00000000E+00  0.00000000E+00
  0.00000000E+00  0.00000000E+00  0.00000000E+00
  0.00000000E+00  0.00000000E+00  0.00000000E+00
  0.00000000E+00  0.00000000E+00  0.00000000E+00
  0.00000000E+00  0.00000000E+00  0.00000000E+00
  0.00000000E+00  0.00000000E+00  0.00000000E+00
  0.00000000E+00  0.00000000E+00  0.00000000E+00
  0.00000000E+00  0.00000000E+00  0.00000000E+00
  0.00000000E+00  0.00000000E+00  0.00000000E+00
  0.00000000E+00  0.00000000E+00  0.00000000E+00
  0.00000000E+00  0.00000000E+00  0.00000000E+00
  0.00000000E+00  0.00000000E+00  0.00000000E+00
  0.00000000E+00  0.00000000E+00  0.00000000E+00
  0.00000000E+00  0.00000000E+00  0.00000000E+00
  0.00000000E+00  0.00000000E+00  0.00000000E+00
  0.00000000E+00  0.00000000E+00  0.00000000E+00
  0.00000000E+00  0.00000000E+00  0.00000000E+00
