Title                                   
   1.00000000000000     
     4.9440799999999996    0.0000000000000000    0.0000000000000000
     0.0000000000000000    8.5647549999999999    0.0000000000000000
     0.0000000000000000    0.0000000000000000   20.0000000000000000
    15     1
Selective dynamics
Direct
  0.2500000000000000  0.2070030895550339  0.0898382446508426   T   T   T
 -0.0020534025903241  0.2884167505796513  0.0942530300892711   T   T   T
  0.2500000000000000  0.0417533343214288  0.0836678201760664   T   T   T
 -0.0016726903583322  0.7959361736911971  0.0984833083843570   T   T   T
 -0.0011453515072704  0.9588616456969180  0.0844566227574511   T   T   T
  0.7500000000000000  0.2069342415967010  0.0845480182694852   T   T   T
  0.5020534025903238  0.2884167505796513  0.0942530300892711   T   T   T
  0.7500000000000000  0.0413892859773789  0.0803914834522881   T   T   T
  0.7500000000000000  0.7098186518226750  0.1036966655392564   T   T   T
  0.5016726903583321  0.7959361736911971  0.0984833083843570   T   T   T
  0.7500000000000000  0.5411695030769134  0.1088946695955290   T   T   T
  0.5011453515072705  0.9588616456969180  0.0844566227574511   T   T   T
  0.5120058208976427  0.4478687124686963  0.1136853431445777   T   T   T
 -0.0120058208976425  0.4478687124686963  0.1136853431445777   T   T   T
  0.2500000000000000  0.7264345756705929  0.1151092788478049   T   T   T
  0.2500000000000000  0.5433307531063509  0.1746092107174211   T   T   T
 
  0.00000000E+00  0.00000000E+00  0.00000000E+00
  0.00000000E+00  0.00000000E+00  0.00000000E+00
  0.00000000E+00  0.00000000E+00  0.00000000E+00
  0.00000000E+00  0.00000000E+00  0.00000000E+00
  0.00000000E+00  0.00000000E+00  0.00000000E+00
  0.00000000E+00  0.00000000E+00  0.00000000E+00
  0.00000000E+00  0.00000000E+00  0.00000000E+00
  0.00000000E+00  0.00000000E+00  0.00000000E+00
  0.00000000E+00  0.00000000E+00  0.00000000E+00
  0.00000000E+00  0.00000000E+00  0.00000000E+00
  0.00000000E+00  0.00000000E+00  0.00000000E+00
  0.00000000E+00  0.00000000E+00  0.00000000E+00
  0.00000000E+00  0.00000000E+00  0.00000000E+00
  0.00000000E+00  0.00000000E+00  0.00000000E+00
  0.00000000E+00  0.00000000E+00  0.00000000E+00
  0.00000000E+00  0.00000000E+00  0.00000000E+00
