Title                                   
   1.00000000000000     
     9.8694509999999998    0.0000000000000000    0.0000000000000000
     0.0000000000000000    8.5490480000000009    0.0000000000000000
     0.0000000000000000    0.0000000000000000   20.0000000000000000
    28     2     1
Selective dynamics
Direct
  0.0556766389834252  0.0894627150366886  0.0872779454578394   T   T   T
  0.9304020762590944  0.1738330179414863  0.0881230025698031   T   T   T
  0.0567546000134439  0.9228714109311975  0.0872510078145961   T   T   T
  0.9319086665104752  0.3411067493372604  0.0888795900122797   T   T   T
  0.0566396654375163  0.5894370062412925  0.0878041673755855   T   T   T
  0.9333057909899924  0.6749468827913916  0.0897102328416445   T   T   T
  0.0558396125149218  0.4229115586199597  0.0878138871176504   T   T   T
  0.9324328018651281  0.8416431694416313  0.0890908548566171   T   T   T
  0.3058004161741972  0.0883143303339885  0.0916254227033785   T   T   T
  0.1800068912538800  0.1706918306002783  0.0892451115967328   T   T   T
  0.3072648079892291  0.9207159760892702  0.0905881319174424   T   T   T
  0.1791682616332180  0.3373920491680311  0.0898467413493835   T   T   T
  0.3046936040043974  0.5866440460638952  0.0938508142087917   T   T   T
  0.1805584418148498  0.6712479280807946  0.0889823756782454   T   T   T
  0.3022568870940616  0.4172963970124726  0.0955181655213731   T   T   T
  0.1820252427397301  0.8385228742519694  0.0882113238419014   T   T   T
  0.5553988583348509  0.0910944685054441  0.0979777664108590   T   T   T
  0.4286025092750922  0.1740318091154388  0.0976957667171428   T   T   T
  0.5570089073496138  0.9211613546192999  0.0979840062907689   T   T   T
  0.4281883129937176  0.6689210719888949  0.0989070992391406   T   T   T
  0.4320266073791860  0.8349592454817959  0.0955853047325460   T   T   T
  0.8051586693570693  0.0916060862632180  0.0904600010964780   T   T   T
  0.6803801253053893  0.1773312365166555  0.0955013422116595   T   T   T
  0.8066346939591016  0.9240050040519622  0.0914855241815765   T   T   T
  0.6842729569364653  0.3433809781379553  0.0987554302985233   T   T   T
  0.8102442133519354  0.5949893100466022  0.0953499743920524   T   T   T
  0.8077593927451314  0.4256543369507736  0.0936803694949456   T   T   T
  0.6838473678819167  0.8382634238652580  0.0976133704112212   T   T   T
  0.4227123322588166  0.3365802048997925  0.1035822866105412   T   T   T
  0.6898306481395905  0.6757063668357324  0.1034702952652504   T   T   T
  0.5563349994545720  0.5061521607795794  0.1490976877840713   T   T   T
 
  0.00000000E+00  0.00000000E+00  0.00000000E+00
  0.00000000E+00  0.00000000E+00  0.00000000E+00
  0.00000000E+00  0.00000000E+00  0.00000000E+00
  0.00000000E+00  0.00000000E+00  0.00000000E+00
  0.00000000E+00  0.00000000E+00  0.00000000E+00
  0.00000000E+00  0.00000000E+00  0.00000000E+00
  0.00000000E+00  0.00000000E+00  0.00000000E+00
  0.00000000E+00  0.00000000E+00  0.00000000E+00
  0.00000000E+00  0.00000000E+00  0.00000000E+00
  0.00000000E+00  0.00000000E+00  0.00000000E+00
  0.00000000E+00  0.00000000E+00  0.00000000E+00
  0.00000000E+00  0.00000000E+00  0.00000000E+00
  0.00000000E+00  0.00000000E+00  0.00000000E+00
  0.00000000E+00  0.00000000E+00  0.00000000E+00
  0.00000000E+00  0.00000000E+00  0.00000000E+00
  0.00000000E+00  0.00000000E+00  0.00000000E+00
  0.00000000E+00  0.00000000E+00  0.00000000E+00
  0.00000000E+00  0.00000000E+00  0.00000000E+00
  0.00000000E+00  0.00000000E+00  0.00000000E+00
  0.00000000E+00  0.00000000E+00  0.00000000E+00
  0.00000000E+00  0.00000000E+00  0.00000000E+00
  0.00000000E+00  0.00000000E+00  0.00000000E+00
  0.00000000E+00  0.00000000E+00  0.00000000E+00
  0.00000000E+00  0.00000000E+00  0.00000000E+00
  0.00000000E+00  0.00000000E+00  0.00000000E+00
  0.00000000E+00  0.00000000E+00  0.00000000E+00
  0.00000000E+00  0.00000000E+00  0.00000000E+00
  0.00000000E+00  0.00000000E+00  0.00000000E+00
  0.00000000E+00  0.00000000E+00  0.00000000E+00
  0.00000000E+00  0.00000000E+00  0.00000000E+00
  0.00000000E+00  0.00000000E+00  0.00000000E+00
