Title                                   
   1.00000000000000     
     4.9440799999999996    0.0000000000000000    0.0000000000000000
     0.0000000000000000   17.1295089999999988    0.0000000000000000
     0.0000000000000000    0.0000000000000000   20.0000000000000000
    29     1     1
Selective dynamics
Direct
 -0.0025015302820420  0.1049243065094325  0.2905102632225081   T   T   T
  0.2461921446399387  0.1473274968250639  0.2934710161693700   T   T   T
  0.2450250135521181  0.2304935066079363  0.3005334204342457   T   T   T
 -0.0066881470926468  0.2722908125873058  0.3027186029240833   T   T   T
  0.0056127209684212  0.6029126196350820  0.3008511070855443   T   T   T
  0.2538382862802145  0.7281153107790004  0.2933034577883523   T   T   T
  0.0015376866571601  0.8538933221448366  0.2878776643476024   T   T   T
  0.2510260603534245  0.8959283709234053  0.2875414986529899   T   T   T
  0.2493215340126617  0.9793681210585641  0.2875403182173352   T   T   T
  0.0032261976830472  0.7703162542297991  0.2902926449553493   T   T   T
  0.4969755132431055  0.1051023305053131  0.2908651117204623   T   T   T
  0.7473889415029731  0.1466182847011067  0.2922809180892746   T   T   T
  0.7452593646855726  0.2299647319188493  0.2978945688558111   T   T   T
  0.4986488777740602  0.0215584498861460  0.2881343085912672   T   T   T
  0.7504950401131726  0.3920953534014866  0.3135783850533799   T   T   T
  0.7580782826525342  0.4796685459213347  0.3138062596916614   T   T   T
  0.4958910105546477  0.2719568643790160  0.3042036336629286   T   T   T
  0.5067630656046402  0.6030366374221234  0.3051119518393423   T   T   T
  0.7537455760348769  0.7286178467441564  0.2922258126218420   T   T   T
  0.5015698686929633  0.8538716858826295  0.2882409085674697   T   T   T
  0.7511129886382779  0.8958440369379338  0.2872595080373931   T   T   T
  0.7492964727282263  0.9795809257071298  0.2872499235909302   T   T   T
  0.5034200486347604  0.7704606397365432  0.2910071465385576   T   T   T
  0.7553409990643848  0.6451194584239804  0.2976479297597986   T   T   T
  0.2555415992757970  0.6452910012317199  0.3000314289952874   T   T   T
 -0.0009977883832810  0.0213834190748645  0.2879169279970387   T   T   T
  0.5111923575041054  0.5215604596077962  0.3185866178950282   T   T   T
  0.0027915738677606  0.5202288589246752  0.3067068525392603   T   T   T
  0.5033290258258442  0.3535721168919149  0.3152176952696534   T   T   T
 -0.0102317258616106  0.3523233031796930  0.3101319820878448   T   T   T
  0.2378059410748930  0.4379169282211579  0.3623221347983416   T   T   T
 
  0.00000000E+00  0.00000000E+00  0.00000000E+00
  0.00000000E+00  0.00000000E+00  0.00000000E+00
  0.00000000E+00  0.00000000E+00  0.00000000E+00
  0.00000000E+00  0.00000000E+00  0.00000000E+00
  0.00000000E+00  0.00000000E+00  0.00000000E+00
  0.00000000E+00  0.00000000E+00  0.00000000E+00
  0.00000000E+00  0.00000000E+00  0.00000000E+00
  0.00000000E+00  0.00000000E+00  0.00000000E+00
  0.00000000E+00  0.00000000E+00  0.00000000E+00
  0.00000000E+00  0.00000000E+00  0.00000000E+00
  0.00000000E+00  0.00000000E+00  0.00000000E+00
  0.00000000E+00  0.00000000E+00  0.00000000E+00
  0.00000000E+00  0.00000000E+00  0.00000000E+00
  0.00000000E+00  0.00000000E+00  0.00000000E+00
  0.00000000E+00  0.00000000E+00  0.00000000E+00
  0.00000000E+00  0.00000000E+00  0.00000000E+00
  0.00000000E+00  0.00000000E+00  0.00000000E+00
  0.00000000E+00  0.00000000E+00  0.00000000E+00
  0.00000000E+00  0.00000000E+00  0.00000000E+00
  0.00000000E+00  0.00000000E+00  0.00000000E+00
  0.00000000E+00  0.00000000E+00  0.00000000E+00
  0.00000000E+00  0.00000000E+00  0.00000000E+00
  0.00000000E+00  0.00000000E+00  0.00000000E+00
  0.00000000E+00  0.00000000E+00  0.00000000E+00
  0.00000000E+00  0.00000000E+00  0.00000000E+00
  0.00000000E+00  0.00000000E+00  0.00000000E+00
  0.00000000E+00  0.00000000E+00  0.00000000E+00
  0.00000000E+00  0.00000000E+00  0.00000000E+00
  0.00000000E+00  0.00000000E+00  0.00000000E+00
  0.00000000E+00  0.00000000E+00  0.00000000E+00
  0.00000000E+00  0.00000000E+00  0.00000000E+00
