Title                                   
   1.00000000000000     
     8.5490480000000009    0.0000000000000000    0.0000000000000000
     0.0000000000000000    8.5490480000000009    0.0000000000000000
     0.0000000000000000    0.0000000000000000   20.0000000000000000
    21     3     1
Selective dynamics
Direct
  0.9095146116958069  0.2063977436192777  0.0974536374753069   T   T   T
  0.9093371490613953  0.5022823738239731  0.0976645026027443   T   T   T
  0.9114677773834361  0.8013179796120371  0.0975222399928329   T   T   T
  0.1970898987798877  0.0830163409913602  0.0975943535179511   T   T   T
  0.0753146802419973  0.2029539017022880  0.0975411479014324   T   T   T
  0.1584577549458669  0.6496836684260969  0.0976430539973587   T   T   T
  0.0783759043074919  0.5016225916425374  0.0976842121537021   T   T   T
  0.1584226130365726  0.3520863528756171  0.0978230636791287   T   T   T
  0.0779704401981214  0.7987889496227899  0.0975074150088971   T   T   T
  0.4926589129656745  0.0861873870269989  0.0976878641550530   T   T   T
  0.3428611923374573  0.1647075810760519  0.0978266308155880   T   T   T
  0.4915924567561725  0.9170598808897935  0.0976911134614960   T   T   T
  0.3449870072155757  0.8366363382744074  0.0977108854034712   T   T   T
  0.7868931843785545  0.0848841726477742  0.0974471030978993   T   T   T
  0.6381226918470403  0.1659655713685364  0.0976532196659192   T   T   T
  0.7884311428375576  0.9202202256803029  0.0975248650421375   T   T   T
  0.8300951478643065  0.6524620339270822  0.0977489943963938   T   T   T
  0.8294699523658094  0.3554166272549505  0.0976506995956925   T   T   T
  0.6407546769290419  0.8363620637852723  0.0977964939937221   T   T   T
  0.3234288076754263  0.6721808488751291  0.0978808615776885   T   T   T
  0.6609830530170848  0.3336655373962715  0.0980349791518947   T   T   T
  0.3197234945320240  0.3278949304555467  0.0981818929832635   T   T   T
  0.6670372919609595  0.6749187077579123  0.0981243875510803   T   T   T
  0.1975517361932460  0.9177832378186009  0.0975745810665146   T   T   T
  0.4948704214734791  0.5002949534494046  0.0987368017128116   T   T   T
 
  0.00000000E+00  0.00000000E+00  0.00000000E+00
  0.00000000E+00  0.00000000E+00  0.00000000E+00
  0.00000000E+00  0.00000000E+00  0.00000000E+00
  0.00000000E+00  0.00000000E+00  0.00000000E+00
  0.00000000E+00  0.00000000E+00  0.00000000E+00
  0.00000000E+00  0.00000000E+00  0.00000000E+00
  0.00000000E+00  0.00000000E+00  0.00000000E+00
  0.00000000E+00  0.00000000E+00  0.00000000E+00
  0.00000000E+00  0.00000000E+00  0.00000000E+00
  0.00000000E+00  0.00000000E+00  0.00000000E+00
  0.00000000E+00  0.00000000E+00  0.00000000E+00
  0.00000000E+00  0.00000000E+00  0.00000000E+00
  0.00000000E+00  0.00000000E+00  0.00000000E+00
  0.00000000E+00  0.00000000E+00  0.00000000E+00
  0.00000000E+00  0.00000000E+00  0.00000000E+00
  0.00000000E+00  0.00000000E+00  0.00000000E+00
  0.00000000E+00  0.00000000E+00  0.00000000E+00
  0.00000000E+00  0.00000000E+00  0.00000000E+00
  0.00000000E+00  0.00000000E+00  0.00000000E+00
  0.00000000E+00  0.00000000E+00  0.00000000E+00
  0.00000000E+00  0.00000000E+00  0.00000000E+00
  0.00000000E+00  0.00000000E+00  0.00000000E+00
  0.00000000E+00  0.00000000E+00  0.00000000E+00
  0.00000000E+00  0.00000000E+00  0.00000000E+00
  0.00000000E+00  0.00000000E+00  0.00000000E+00
