Title                                   
   1.00000000000000     
     4.9440799999999996    0.0000000000000000    0.0000000000000000
     0.0000000000000000   17.1295089999999988    0.0000000000000000
     0.0000000000000000    0.0000000000000000   20.0000000000000000
    29     2     1
Selective dynamics
Direct
  0.0002007414141530  0.1040314491936474  0.2851003170198433   T   T   T
  0.2499094295981626  0.1459631266132989  0.2843730694473853   T   T   T
  0.2499116731667506  0.2296308097516437  0.2837771962424198   T   T   T
  0.0092451456951721  0.3539579218985896  0.2863996273095060   T   T   T
 -0.0012599071314167  0.2711913037147983  0.2851316602297799   T   T   T
 -0.0044866521802750  0.6049759292510757  0.3227231540001583   T   T   T
  0.2498834998622119  0.7282667539047772  0.3070719245937566   T   T   T
  0.0002641407584703  0.8536424634612899  0.2947564690659621   T   T   T
  0.2499084047707947  0.8955226257172699  0.2922716011416241   T   T   T
  0.2499073953083941  0.9788218170660706  0.2881490065948485   T   T   T
  0.0002808456737456  0.7705338814659852  0.3014736060155333   T   T   T
  0.4996385655347442  0.1040275185688123  0.2850975675854681   T   T   T
  0.7499193122096708  0.1460044532405616  0.2850994231154108   T   T   T
  0.7499197009292931  0.2288685926378999  0.2857262396243544   T   T   T
  0.4999298275620641  0.0206614774336269  0.2867613979310232   T   T   T
  0.4905958572575454  0.3539534931197649  0.2864006940502012   T   T   T
  0.7498778842949909  0.4764282324670192  0.3154963769163519   T   T   T
  0.5011066248666655  0.2711864029045177  0.2851322495468751   T   T   T
  0.5042372333439846  0.6049708968751578  0.3227300862722583   T   T   T
  0.7498740256319778  0.7295877181320680  0.3045814873356562   T   T   T
  0.4995364126502373  0.8536350996464828  0.2947545252335245   T   T   T
  0.7499026623852574  0.8953698458826357  0.2919700127806791   T   T   T
  0.7498997790095400  0.9787131762744861  0.2881162907837596   T   T   T
  0.4994849057302719  0.7705271976559882  0.3014666945548541   T   T   T
  0.7498790379959258  0.6472230705329486  0.3143562992581368   T   T   T
  0.2498701146232524  0.6457989459863841  0.3191671605426632   T   T   T
 -0.0001171462158067  0.0206633934426345  0.2867624536738555   T   T   T
  0.5201589157995038  0.5225383133403183  0.3325970311906304   T   T   T
  0.9796020851533275  0.5225401926258918  0.3325940712567500   T   T   T
  0.2499216615474611  0.3921182401220432  0.2835932537923178   T   T   T
  0.7499115757831261  0.3968818772288383  0.2952660726364111   T   T   T
  0.2499092469708119  0.4803147798434660  0.3936679802579535   T   T   T
 
  0.00000000E+00  0.00000000E+00  0.00000000E+00
  0.00000000E+00  0.00000000E+00  0.00000000E+00
  0.00000000E+00  0.00000000E+00  0.00000000E+00
  0.00000000E+00  0.00000000E+00  0.00000000E+00
  0.00000000E+00  0.00000000E+00  0.00000000E+00
  0.00000000E+00  0.00000000E+00  0.00000000E+00
  0.00000000E+00  0.00000000E+00  0.00000000E+00
  0.00000000E+00  0.00000000E+00  0.00000000E+00
  0.00000000E+00  0.00000000E+00  0.00000000E+00
  0.00000000E+00  0.00000000E+00  0.00000000E+00
  0.00000000E+00  0.00000000E+00  0.00000000E+00
  0.00000000E+00  0.00000000E+00  0.00000000E+00
  0.00000000E+00  0.00000000E+00  0.00000000E+00
  0.00000000E+00  0.00000000E+00  0.00000000E+00
  0.00000000E+00  0.00000000E+00  0.00000000E+00
  0.00000000E+00  0.00000000E+00  0.00000000E+00
  0.00000000E+00  0.00000000E+00  0.00000000E+00
  0.00000000E+00  0.00000000E+00  0.00000000E+00
  0.00000000E+00  0.00000000E+00  0.00000000E+00
  0.00000000E+00  0.00000000E+00  0.00000000E+00
  0.00000000E+00  0.00000000E+00  0.00000000E+00
  0.00000000E+00  0.00000000E+00  0.00000000E+00
  0.00000000E+00  0.00000000E+00  0.00000000E+00
  0.00000000E+00  0.00000000E+00  0.00000000E+00
  0.00000000E+00  0.00000000E+00  0.00000000E+00
  0.00000000E+00  0.00000000E+00  0.00000000E+00
  0.00000000E+00  0.00000000E+00  0.00000000E+00
  0.00000000E+00  0.00000000E+00  0.00000000E+00
  0.00000000E+00  0.00000000E+00  0.00000000E+00
  0.00000000E+00  0.00000000E+00  0.00000000E+00
  0.00000000E+00  0.00000000E+00  0.00000000E+00
  0.00000000E+00  0.00000000E+00  0.00000000E+00
