Title                                   
   1.00000000000000     
     9.8694509999999998    0.0000000000000000    0.0000000000000000
     0.0000000000000000    8.5490480000000009    0.0000000000000000
     0.0000000000000000    0.0000000000000000   20.0000000000000000
    28     3     1
Selective dynamics
Direct
  0.0562814995852880  0.0905587815996857  0.0852753325304820   T   T   T
  0.9305187948841346  0.1739393690629830  0.0880376289884845   T   T   T
  0.0562699166147913  0.9224820533699141  0.0837609599826544   T   T   T
  0.9307013959808312  0.3399602691651956  0.0920179872230789   T   T   T
  0.0561985953724630  0.5891002784755140  0.0870643268554305   T   T   T
  0.9313535674855653  0.6705247790216724  0.0879334548586594   T   T   T
  0.0562547952831768  0.4228254931359673  0.0905886472374384   T   T   T
  0.9305412398430640  0.8384351684900542  0.0857460119521982   T   T   T
  0.3055079851465685  0.0893243582419365  0.0867402642038863   T   T   T
  0.1820756868079881  0.1739288961335652  0.0874069698316524   T   T   T
  0.3068467390066372  0.9236820755443875  0.0867448022551823   T   T   T
  0.1818426789472753  0.3399147985811833  0.0913971466787571   T   T   T
  0.3053331629311522  0.5896165465812548  0.0974600229439671   T   T   T
  0.1810530823028819  0.6705126043851609  0.0870927710619141   T   T   T
  0.1820348717528345  0.8384397175504384  0.0849531647049119   T   T   T
  0.5563370582496946  0.0888286199412349  0.0940827572140319   T   T   T
  0.4305493549216184  0.1712542733096831  0.0922920745868119   T   T   T
  0.4315054677727782  0.3363703410436233  0.1011652171153524   T   T   T
  0.4300495039736569  0.8404798969963003  0.0970157417145342   T   T   T
  0.8071348043371726  0.0892651999601480  0.0878240804633411   T   T   T
  0.6821271683374791  0.1712691714962534  0.0930587132222631   T   T   T
  0.8057710473314535  0.9236456678806565  0.0878723813195304   T   T   T
  0.6811190147801987  0.3363840890057734  0.1019053037129020   T   T   T
  0.8072548796338634  0.5896655702993714  0.0988268741979249   T   T   T
  0.6825693801258292  0.8404552073014202  0.0981053832106845   T   T   T
  0.4233677237349717  0.6783193380070945  0.1115258993908877   T   T   T
  0.5561096126888968  0.4114210534132959  0.1167042654874268   T   T   T
  0.6892882284378984  0.6784282643121610  0.1131140113673684   T   T   T
  0.5563209961282652  0.9217554179567976  0.0970336567346490   T   T   T
  0.3072734330615121  0.4224857555758683  0.0975948819875445   T   T   T
  0.8053268198578774  0.4225029385594409  0.0987047341050476   T   T   T
  0.5547204946821888  0.5944700056019657  0.1766295328610184   T   T   T
 
  0.00000000E+00  0.00000000E+00  0.00000000E+00
  0.00000000E+00  0.00000000E+00  0.00000000E+00
  0.00000000E+00  0.00000000E+00  0.00000000E+00
  0.00000000E+00  0.00000000E+00  0.00000000E+00
  0.00000000E+00  0.00000000E+00  0.00000000E+00
  0.00000000E+00  0.00000000E+00  0.00000000E+00
  0.00000000E+00  0.00000000E+00  0.00000000E+00
  0.00000000E+00  0.00000000E+00  0.00000000E+00
  0.00000000E+00  0.00000000E+00  0.00000000E+00
  0.00000000E+00  0.00000000E+00  0.00000000E+00
  0.00000000E+00  0.00000000E+00  0.00000000E+00
  0.00000000E+00  0.00000000E+00  0.00000000E+00
  0.00000000E+00  0.00000000E+00  0.00000000E+00
  0.00000000E+00  0.00000000E+00  0.00000000E+00
  0.00000000E+00  0.00000000E+00  0.00000000E+00
  0.00000000E+00  0.00000000E+00  0.00000000E+00
  0.00000000E+00  0.00000000E+00  0.00000000E+00
  0.00000000E+00  0.00000000E+00  0.00000000E+00
  0.00000000E+00  0.00000000E+00  0.00000000E+00
  0.00000000E+00  0.00000000E+00  0.00000000E+00
  0.00000000E+00  0.00000000E+00  0.00000000E+00
  0.00000000E+00  0.00000000E+00  0.00000000E+00
  0.00000000E+00  0.00000000E+00  0.00000000E+00
  0.00000000E+00  0.00000000E+00  0.00000000E+00
  0.00000000E+00  0.00000000E+00  0.00000000E+00
  0.00000000E+00  0.00000000E+00  0.00000000E+00
  0.00000000E+00  0.00000000E+00  0.00000000E+00
  0.00000000E+00  0.00000000E+00  0.00000000E+00
  0.00000000E+00  0.00000000E+00  0.00000000E+00
  0.00000000E+00  0.00000000E+00  0.00000000E+00
  0.00000000E+00  0.00000000E+00  0.00000000E+00
  0.00000000E+00  0.00000000E+00  0.00000000E+00
