Title                                   
   1.00000000000000     
     8.5490480000000009    0.0000000000000000    0.0000000000000000
     0.0000000000000000    8.5490480000000009    0.0000000000000000
     0.0000000000000000    0.0000000000000000   20.0000000000000000
    21     3     1
Selective dynamics
Direct
  0.9137911251938865  0.2013072628375266  0.0955001503081871   T   T   T
  0.9060923140542667  0.5025873167495939  0.0952892003784596   T   T   T
  0.9087121839767572  0.7989873650679866  0.0955104267626261   T   T   T
  0.1972479118537033  0.0835889767182089  0.0955200011736901   T   T   T
  0.0748414292441190  0.2059912938712268  0.0955131171828357   T   T   T
  0.1925164111693406  0.9225328837838478  0.0955107233230285   T   T   T
  0.1538097587846683  0.6554008825872313  0.0953343243939840   T   T   T
  0.0761531250477481  0.5045485623514356  0.0953246456562368   T   T   T
  0.1546831507481503  0.3558248869619209  0.0953912725030069   T   T   T
  0.0724653180267480  0.8009808590714677  0.0955057391622650   T   T   T
  0.4957630656816130  0.0849383427605756  0.0953571392394347   T   T   T
  0.3470498007724040  0.1634434108557055  0.0954064615803391   T   T   T
  0.4937847004145905  0.9148568563664241  0.0953361832756460   T   T   T
  0.3420731344094040  0.8395388792710949  0.0953440366636288   T   T   T
  0.7922285946248685  0.0812704067699447  0.0954881355291571   T   T   T
  0.6466379334058848  0.1626285438632958  0.0952990441800327   T   T   T
  0.7901986468584165  0.9174976060286442  0.0954981600521116   T   T   T
  0.8273281910306157  0.6508984796383067  0.0953022873389196   T   T   T
  0.8307845663496380  0.3508567029293242  0.0952858033061027   T   T   T
  0.6420934729207632  0.8360779320055864  0.0953024994682060   T   T   T
  0.3176140725534249  0.3263727871786230  0.0953062511319625   T   T   T
  0.3133174875873422  0.6844675326282460  0.0951660707663508   T   T   T
  0.6757227435505995  0.3221221361788624  0.0950843572599263   T   T   T
  0.6688095364716766  0.6775685391297933  0.0951048173971937   T   T   T
  0.4916933252693630  0.5005015543951404  0.0950241519666464   T   T   T
 
  0.00000000E+00  0.00000000E+00  0.00000000E+00
  0.00000000E+00  0.00000000E+00  0.00000000E+00
  0.00000000E+00  0.00000000E+00  0.00000000E+00
  0.00000000E+00  0.00000000E+00  0.00000000E+00
  0.00000000E+00  0.00000000E+00  0.00000000E+00
  0.00000000E+00  0.00000000E+00  0.00000000E+00
  0.00000000E+00  0.00000000E+00  0.00000000E+00
  0.00000000E+00  0.00000000E+00  0.00000000E+00
  0.00000000E+00  0.00000000E+00  0.00000000E+00
  0.00000000E+00  0.00000000E+00  0.00000000E+00
  0.00000000E+00  0.00000000E+00  0.00000000E+00
  0.00000000E+00  0.00000000E+00  0.00000000E+00
  0.00000000E+00  0.00000000E+00  0.00000000E+00
  0.00000000E+00  0.00000000E+00  0.00000000E+00
  0.00000000E+00  0.00000000E+00  0.00000000E+00
  0.00000000E+00  0.00000000E+00  0.00000000E+00
  0.00000000E+00  0.00000000E+00  0.00000000E+00
  0.00000000E+00  0.00000000E+00  0.00000000E+00
  0.00000000E+00  0.00000000E+00  0.00000000E+00
  0.00000000E+00  0.00000000E+00  0.00000000E+00
  0.00000000E+00  0.00000000E+00  0.00000000E+00
  0.00000000E+00  0.00000000E+00  0.00000000E+00
  0.00000000E+00  0.00000000E+00  0.00000000E+00
  0.00000000E+00  0.00000000E+00  0.00000000E+00
  0.00000000E+00  0.00000000E+00  0.00000000E+00
