Title                                   
   1.00000000000000     
     9.8694509999999998    0.0000000000000000    0.0000000000000000
     0.0000000000000000    8.5490480000000009    0.0000000000000000
     0.0000000000000000    0.0000000000000000   20.0000000000000000
    29     1     1
Selective dynamics
Direct
  0.0565452261104831  0.0894357809946944  0.0910378765191397   T   T   T
  0.9319629755882992  0.1716929794567459  0.0966927561201627   T   T   T
  0.0579727948974459  0.9236229091602253  0.0913424164474140   T   T   T
  0.9335227273223137  0.3389295925553295  0.0979142394620114   T   T   T
  0.0578101807152037  0.5906343900232114  0.0938173058473970   T   T   T
  0.9336435274985089  0.6739982134613042  0.0979484562310947   T   T   T
  0.0575590004544047  0.4225605448195040  0.0934162518251323   T   T   T
  0.9326312771090662  0.8404604448528267  0.0966606015618707   T   T   T
  0.3080774647839560  0.0887267345214389  0.0829630360877149   T   T   T
  0.1820168501617750  0.1712120464388762  0.0863258787751093   T   T   T
  0.1808110400763071  0.3379341154916250  0.0879267153408019   T   T   T
  0.3054718447403406  0.5904836672092367  0.0842520287586452   T   T   T
  0.1816791854795262  0.6748113506520139  0.0895612784134253   T   T   T
  0.3049253186990495  0.4214731908371594  0.0831684907664131   T   T   T
  0.1831750431937789  0.8409541676537001  0.0878647938596990   T   T   T
  0.5584185283806054  0.0900374721397317  0.0946394204833710   T   T   T
  0.4332534064159931  0.1722821457918385  0.0840872515513072   T   T   T
  0.5568691859321552  0.9228685141507238  0.0948267302359242   T   T   T
  0.4296366631330084  0.3392911563849679  0.0837756422403687   T   T   T
  0.4295336891480459  0.6737612423777549  0.0850614817931228   T   T   T
  0.4324123691498016  0.8395035753542575  0.0857372806408491   T   T   T
  0.8053110547342767  0.0902821717543726  0.0998567260031482   T   T   T
  0.6806807406708573  0.1792355520749547  0.1029378959301647   T   T   T
  0.8054204655065891  0.9214645871582932  0.0995354414810123   T   T   T
  0.6835512721874225  0.3483424494865701  0.1111065694612294   T   T   T
  0.8110637390094018  0.5901115260805107  0.1047458804677849   T   T   T
  0.6835244655030001  0.6643008611740459  0.1104125047254851   T   T   T
  0.8109179597124999  0.4227187965452365  0.1048161796141249   T   T   T
  0.6803630964198236  0.8321434737743560  0.1023644549066626   T   T   T
  0.3078325715321761  0.9228389712891556  0.0839784140746338   T   T   T
  0.5265413357338888  0.5047623763353586  0.1321910003748068   T   T   T
 
  0.00000000E+00  0.00000000E+00  0.00000000E+00
  0.00000000E+00  0.00000000E+00  0.00000000E+00
  0.00000000E+00  0.00000000E+00  0.00000000E+00
  0.00000000E+00  0.00000000E+00  0.00000000E+00
  0.00000000E+00  0.00000000E+00  0.00000000E+00
  0.00000000E+00  0.00000000E+00  0.00000000E+00
  0.00000000E+00  0.00000000E+00  0.00000000E+00
  0.00000000E+00  0.00000000E+00  0.00000000E+00
  0.00000000E+00  0.00000000E+00  0.00000000E+00
  0.00000000E+00  0.00000000E+00  0.00000000E+00
  0.00000000E+00  0.00000000E+00  0.00000000E+00
  0.00000000E+00  0.00000000E+00  0.00000000E+00
  0.00000000E+00  0.00000000E+00  0.00000000E+00
  0.00000000E+00  0.00000000E+00  0.00000000E+00
  0.00000000E+00  0.00000000E+00  0.00000000E+00
  0.00000000E+00  0.00000000E+00  0.00000000E+00
  0.00000000E+00  0.00000000E+00  0.00000000E+00
  0.00000000E+00  0.00000000E+00  0.00000000E+00
  0.00000000E+00  0.00000000E+00  0.00000000E+00
  0.00000000E+00  0.00000000E+00  0.00000000E+00
  0.00000000E+00  0.00000000E+00  0.00000000E+00
  0.00000000E+00  0.00000000E+00  0.00000000E+00
  0.00000000E+00  0.00000000E+00  0.00000000E+00
  0.00000000E+00  0.00000000E+00  0.00000000E+00
  0.00000000E+00  0.00000000E+00  0.00000000E+00
  0.00000000E+00  0.00000000E+00  0.00000000E+00
  0.00000000E+00  0.00000000E+00  0.00000000E+00
  0.00000000E+00  0.00000000E+00  0.00000000E+00
  0.00000000E+00  0.00000000E+00  0.00000000E+00
  0.00000000E+00  0.00000000E+00  0.00000000E+00
  0.00000000E+00  0.00000000E+00  0.00000000E+00
