Title                                   
   1.00000000000000     
     9.8694509999999998    0.0000000000000000    0.0000000000000000
     0.0000000000000000    8.5490480000000009    0.0000000000000000
     0.0000000000000000    0.0000000000000000   20.0000000000000000
    28     2     1
Selective dynamics
Direct
  0.0552479896303931  0.0887638062798796  0.0849787496034650   T   T   T
  0.9306812537858479  0.1726528358845391  0.0862696004921321   T   T   T
  0.0576348395943031  0.9227741037282992  0.0857634709168558   T   T   T
  0.9330743630405270  0.3396707291473215  0.0854469889567608   T   T   T
  0.0573086429396424  0.5903804906900080  0.0827519510632625   T   T   T
  0.9335652613902266  0.6745866936164118  0.0867533428131964   T   T   T
  0.0570832612407495  0.4229083339402286  0.0822447055321272   T   T   T
  0.9321266204349941  0.8407714557796122  0.0879405100045123   T   T   T
  0.3049738451319733  0.0871361043761864  0.0923548164849906   T   T   T
  0.1800263084736857  0.1694211053705073  0.0865010772797224   T   T   T
  0.1798874721009210  0.3369189110445254  0.0850337427756767   T   T   T
  0.3048098408809211  0.5872404913957262  0.0922748242603528   T   T   T
  0.1820509274401489  0.6723848075082286  0.0855000814430690   T   T   T
  0.3027090797631448  0.4171529134018434  0.0932498604196815   T   T   T
  0.1827446691647550  0.8397125531086993  0.0870068714757375   T   T   T
  0.5548590619312892  0.0922773296938118  0.1027759443427435   T   T   T
  0.4266326110892890  0.1753174042175892  0.1007123241753035   T   T   T
  0.5548805248409222  0.9248295503525520  0.1036765465162318   T   T   T
  0.4265834464772051  0.6702447253185791  0.1022752681917451   T   T   T
  0.4300166455763347  0.8359180971276042  0.0999845698769706   T   T   T
  0.8050591826819467  0.0911544179584966  0.0923003095933043   T   T   T
  0.6811488151342669  0.1785666817794217  0.0997439766378004   T   T   T
  0.8059948050212333  0.9235661049787525  0.0936550247472852   T   T   T
  0.6875153335394597  0.3446208763505337  0.1039505507120241   T   T   T
  0.8112998659820946  0.5929769376593055  0.0965321704374199   T   T   T
  0.6890413930880271  0.6721664304949011  0.1112728790235462   T   T   T
  0.8110260053877231  0.4232832639223231  0.0942251132290556   T   T   T
  0.6824533714389073  0.8378351436041803  0.1034536533170330   T   T   T
  0.4200993932252274  0.3361629283916580  0.1052279313304176   T   T   T
  0.3065753450344697  0.9218465942886820  0.0921022482709527   T   T   T
  0.5560248245393862  0.5076331785896121  0.1350058960766723   T   T   T
 
  0.00000000E+00  0.00000000E+00  0.00000000E+00
  0.00000000E+00  0.00000000E+00  0.00000000E+00
  0.00000000E+00  0.00000000E+00  0.00000000E+00
  0.00000000E+00  0.00000000E+00  0.00000000E+00
  0.00000000E+00  0.00000000E+00  0.00000000E+00
  0.00000000E+00  0.00000000E+00  0.00000000E+00
  0.00000000E+00  0.00000000E+00  0.00000000E+00
  0.00000000E+00  0.00000000E+00  0.00000000E+00
  0.00000000E+00  0.00000000E+00  0.00000000E+00
  0.00000000E+00  0.00000000E+00  0.00000000E+00
  0.00000000E+00  0.00000000E+00  0.00000000E+00
  0.00000000E+00  0.00000000E+00  0.00000000E+00
  0.00000000E+00  0.00000000E+00  0.00000000E+00
  0.00000000E+00  0.00000000E+00  0.00000000E+00
  0.00000000E+00  0.00000000E+00  0.00000000E+00
  0.00000000E+00  0.00000000E+00  0.00000000E+00
  0.00000000E+00  0.00000000E+00  0.00000000E+00
  0.00000000E+00  0.00000000E+00  0.00000000E+00
  0.00000000E+00  0.00000000E+00  0.00000000E+00
  0.00000000E+00  0.00000000E+00  0.00000000E+00
  0.00000000E+00  0.00000000E+00  0.00000000E+00
  0.00000000E+00  0.00000000E+00  0.00000000E+00
  0.00000000E+00  0.00000000E+00  0.00000000E+00
  0.00000000E+00  0.00000000E+00  0.00000000E+00
  0.00000000E+00  0.00000000E+00  0.00000000E+00
  0.00000000E+00  0.00000000E+00  0.00000000E+00
  0.00000000E+00  0.00000000E+00  0.00000000E+00
  0.00000000E+00  0.00000000E+00  0.00000000E+00
  0.00000000E+00  0.00000000E+00  0.00000000E+00
  0.00000000E+00  0.00000000E+00  0.00000000E+00
  0.00000000E+00  0.00000000E+00  0.00000000E+00
