Title                                   
   1.00000000000000     
     9.8694509999999998    0.0000000000000000    0.0000000000000000
     0.0000000000000000    8.5490480000000009    0.0000000000000000
     0.0000000000000000    0.0000000000000000   20.0000000000000000
    26     5     1
Selective dynamics
Direct
  0.0562689221377441  0.0921340481819329  0.0883426774956615   T   T   T
  0.9310685586113583  0.1744622141078774  0.0892016386565448   T   T   T
  0.0575254831978376  0.9248239147030547  0.0877351304387813   T   T   T
  0.9296793040393690  0.3423746997386795  0.0908742057502771   T   T   T
  0.0570923752860118  0.5909794245620607  0.0879425449721169   T   T   T
  0.9325428462896170  0.6739930874610306  0.0898620502042565   T   T   T
  0.0566308743852202  0.4234301065007740  0.0893957861007574   T   T   T
  0.9329026581230335  0.8404586628562580  0.0890937402092187   T   T   T
  0.3063331202387057  0.0884319615777846  0.0907430196805093   T   T   T
  0.1829645916985757  0.1739301784883288  0.0896176817992664   T   T   T
  0.1835972948799566  0.3410904420753388  0.0906133447660087   T   T   T
  0.3066491682571370  0.5924037129560917  0.0958831026277800   T   T   T
  0.1815707728719419  0.6748114159173678  0.0890095885572479   T   T   T
  0.3102036075962508  0.4238680139219306  0.0950734960410104   T   T   T
  0.1810487184045076  0.8412882499351744  0.0887156458457036   T   T   T
  0.5561015565849183  0.0836591080639138  0.0948768510504273   T   T   T
  0.5546828147376700  0.9181148292481932  0.0987130963829456   T   T   T
  0.4343360012905898  0.3335078458210501  0.0981683998299299   T   T   T
  0.4266778192059116  0.8365902132332440  0.0990779592688283   T   T   T
  0.8061675029988838  0.0890174517150522  0.0896748482787042   T   T   T
  0.6795231071526279  0.1692612230503646  0.0926468562935260   T   T   T
  0.8075939656847131  0.9234995630118236  0.0909305633893144   T   T   T
  0.6781824345436911  0.3356511640351649  0.0974474544872306   T   T   T
  0.8066631372125087  0.5944323476037658  0.0971848335970595   T   T   T
  0.8021259999521774  0.4247517610389898  0.0956694854195328   T   T   T
  0.6848247826968459  0.8371275495819034  0.0987145638800306   T   T   T
  0.4198337913308811  0.6821624346781003  0.1066630350293866   T   T   T
  0.5542002255460848  0.4054470035913995  0.1056278063403045   T   T   T
  0.6912825178969879  0.6794047883407022  0.1069081493928865   T   T   T
  0.3057727444873641  0.9252168475700450  0.0907407790261098   T   T   T
  0.4298446229633774  0.1668335526659583  0.0937309553036789   T   T   T
  0.5557476796975050  0.5870881837666458  0.1767957098849802   T   T   T
 
  0.00000000E+00  0.00000000E+00  0.00000000E+00
  0.00000000E+00  0.00000000E+00  0.00000000E+00
  0.00000000E+00  0.00000000E+00  0.00000000E+00
  0.00000000E+00  0.00000000E+00  0.00000000E+00
  0.00000000E+00  0.00000000E+00  0.00000000E+00
  0.00000000E+00  0.00000000E+00  0.00000000E+00
  0.00000000E+00  0.00000000E+00  0.00000000E+00
  0.00000000E+00  0.00000000E+00  0.00000000E+00
  0.00000000E+00  0.00000000E+00  0.00000000E+00
  0.00000000E+00  0.00000000E+00  0.00000000E+00
  0.00000000E+00  0.00000000E+00  0.00000000E+00
  0.00000000E+00  0.00000000E+00  0.00000000E+00
  0.00000000E+00  0.00000000E+00  0.00000000E+00
  0.00000000E+00  0.00000000E+00  0.00000000E+00
  0.00000000E+00  0.00000000E+00  0.00000000E+00
  0.00000000E+00  0.00000000E+00  0.00000000E+00
  0.00000000E+00  0.00000000E+00  0.00000000E+00
  0.00000000E+00  0.00000000E+00  0.00000000E+00
  0.00000000E+00  0.00000000E+00  0.00000000E+00
  0.00000000E+00  0.00000000E+00  0.00000000E+00
  0.00000000E+00  0.00000000E+00  0.00000000E+00
  0.00000000E+00  0.00000000E+00  0.00000000E+00
  0.00000000E+00  0.00000000E+00  0.00000000E+00
  0.00000000E+00  0.00000000E+00  0.00000000E+00
  0.00000000E+00  0.00000000E+00  0.00000000E+00
  0.00000000E+00  0.00000000E+00  0.00000000E+00
  0.00000000E+00  0.00000000E+00  0.00000000E+00
  0.00000000E+00  0.00000000E+00  0.00000000E+00
  0.00000000E+00  0.00000000E+00  0.00000000E+00
  0.00000000E+00  0.00000000E+00  0.00000000E+00
  0.00000000E+00  0.00000000E+00  0.00000000E+00
  0.00000000E+00  0.00000000E+00  0.00000000E+00
