Title                                   
   1.00000000000000     
     4.9440799999999996    0.0000000000000000    0.0000000000000000
     0.0000000000000000   17.1295089999999988    0.0000000000000000
     0.0000000000000000    0.0000000000000000   20.0000000000000000
    28     2     1
Selective dynamics
Direct
 -0.0024421987764927  0.1055637464274030  0.2954268181231343   T   T   T
  0.2463208769511422  0.1483111831976031  0.2964017519048052   T   T   T
  0.2442835591323490  0.2324589847839764  0.3000185657444969   T   T   T
 -0.0104190073801870  0.2727177766136901  0.3043910716253570   T   T   T
  0.0065233017843447  0.6022304991425911  0.3008485525208949   T   T   T
  0.2543678972236040  0.7280598000019235  0.2963882664263945   T   T   T
  0.0021352296904763  0.8540140027306328  0.2936993941465539   T   T   T
  0.2515888288584866  0.8958952744917634  0.2936057022378118   T   T   T
  0.2495815467596847  0.9796129695942369  0.2936847587297321   T   T   T
  0.0039593518913241  0.7702247131831917  0.2947381001130896   T   T   T
  0.4960526476722864  0.1055208976210112  0.2944332556207813   T   T   T
  0.7460514861535629  0.1467222618983534  0.2952959286777614   T   T   T
  0.7437661673516568  0.2301548423174241  0.2976631946875949   T   T   T
  0.4984178251923712  0.0216970817390322  0.2936355815261362   T   T   T
  0.7459438067490155  0.3906867928415998  0.3055338945512255   T   T   T
  0.7537257110642719  0.4781032651015241  0.3046399711023567   T   T   T
  0.4967482238186968  0.2734089557505559  0.2976801062739239   T   T   T
  0.5074252080477611  0.6027597302518009  0.3034066117394372   T   T   T
  0.7548583926077321  0.7283962954624807  0.2955889996961312   T   T   T
  0.5022239229276804  0.8539214772611485  0.2937793460249279   T   T   T
  0.7515571617231391  0.8959385284103701  0.2934559091807236   T   T   T
  0.7495257185648107  0.9798525758154325  0.2935117524177986   T   T   T
  0.5041499310671876  0.7701444200721793  0.2950698429884765   T   T   T
  0.7566925427984570  0.6445738051140580  0.2987186004899713   T   T   T
  0.2559126703902816  0.6444962706509453  0.3006125633917402   T   T   T
 -0.0006208415733855  0.0217247902907015  0.2940990202814873   T   T   T
  0.5126613381790229  0.5203868228844197  0.3118071693445821   T   T   T
  0.9983248031679002  0.5186568274526991  0.3052312255791814   T   T   T
  0.5098246368535750  0.3536568935945774  0.2946655171732669   T   T   T
 -0.0234425561558005  0.3513198898608653  0.3168734435340348   T   T   T
  0.2543088172650450  0.4401306254418068  0.3301550841461432   T   T   T
 
  0.00000000E+00  0.00000000E+00  0.00000000E+00
  0.00000000E+00  0.00000000E+00  0.00000000E+00
  0.00000000E+00  0.00000000E+00  0.00000000E+00
  0.00000000E+00  0.00000000E+00  0.00000000E+00
  0.00000000E+00  0.00000000E+00  0.00000000E+00
  0.00000000E+00  0.00000000E+00  0.00000000E+00
  0.00000000E+00  0.00000000E+00  0.00000000E+00
  0.00000000E+00  0.00000000E+00  0.00000000E+00
  0.00000000E+00  0.00000000E+00  0.00000000E+00
  0.00000000E+00  0.00000000E+00  0.00000000E+00
  0.00000000E+00  0.00000000E+00  0.00000000E+00
  0.00000000E+00  0.00000000E+00  0.00000000E+00
  0.00000000E+00  0.00000000E+00  0.00000000E+00
  0.00000000E+00  0.00000000E+00  0.00000000E+00
  0.00000000E+00  0.00000000E+00  0.00000000E+00
  0.00000000E+00  0.00000000E+00  0.00000000E+00
  0.00000000E+00  0.00000000E+00  0.00000000E+00
  0.00000000E+00  0.00000000E+00  0.00000000E+00
  0.00000000E+00  0.00000000E+00  0.00000000E+00
  0.00000000E+00  0.00000000E+00  0.00000000E+00
  0.00000000E+00  0.00000000E+00  0.00000000E+00
  0.00000000E+00  0.00000000E+00  0.00000000E+00
  0.00000000E+00  0.00000000E+00  0.00000000E+00
  0.00000000E+00  0.00000000E+00  0.00000000E+00
  0.00000000E+00  0.00000000E+00  0.00000000E+00
  0.00000000E+00  0.00000000E+00  0.00000000E+00
  0.00000000E+00  0.00000000E+00  0.00000000E+00
  0.00000000E+00  0.00000000E+00  0.00000000E+00
  0.00000000E+00  0.00000000E+00  0.00000000E+00
  0.00000000E+00  0.00000000E+00  0.00000000E+00
  0.00000000E+00  0.00000000E+00  0.00000000E+00
