Title                                   
   1.00000000000000     
     4.9440799999999996    0.0000000000000000    0.0000000000000000
     0.0000000000000000    8.5647549999999999    0.0000000000000000
     0.0000000000000000    0.0000000000000000   20.0000000000000000
    14     1     1
Selective dynamics
Direct
 -0.0006527095567699  0.2889865161531516  0.0934049453300993   T   T   T
  0.2500000000000000  0.0424652032065388  0.0852427091585218   T   T   T
 -0.0005814026999260  0.7955131770421285  0.0976821949010882   T   T   T
 -0.0010067470986939  0.9603842731899288  0.0854650534554026   T   T   T
  0.7500000000000000  0.2063994267444136  0.0836020760597364   T   T   T
  0.5006527095567697  0.2889865161531516  0.0934049453300993   T   T   T
  0.7500000000000000  0.0422848972199632  0.0812544422970800   T   T   T
  0.7500000000000000  0.7079533502232939  0.1035107795513488   T   T   T
  0.5005814026999256  0.7955131770421285  0.0976821949010882   T   T   T
  0.7500000000000000  0.5380495462491204  0.1098209038598496   T   T   T
  0.5010067470986936  0.9603842731899288  0.0854650534554026   T   T   T
  0.5044868274173780  0.4465246803751807  0.1120935811673954   T   T   T
 -0.0044868274173783  0.4465246803751807  0.1120935811673954   T   T   T
  0.2500000000000000  0.7234380668447778  0.1093096764738809   T   T   T
  0.2500000000000000  0.2066346176657587  0.0895434349035338   T   T   T
  0.2500000000000000  0.5499575983253540  0.1729364279880872   T   T   T
 
  0.00000000E+00  0.00000000E+00  0.00000000E+00
  0.00000000E+00  0.00000000E+00  0.00000000E+00
  0.00000000E+00  0.00000000E+00  0.00000000E+00
  0.00000000E+00  0.00000000E+00  0.00000000E+00
  0.00000000E+00  0.00000000E+00  0.00000000E+00
  0.00000000E+00  0.00000000E+00  0.00000000E+00
  0.00000000E+00  0.00000000E+00  0.00000000E+00
  0.00000000E+00  0.00000000E+00  0.00000000E+00
  0.00000000E+00  0.00000000E+00  0.00000000E+00
  0.00000000E+00  0.00000000E+00  0.00000000E+00
  0.00000000E+00  0.00000000E+00  0.00000000E+00
  0.00000000E+00  0.00000000E+00  0.00000000E+00
  0.00000000E+00  0.00000000E+00  0.00000000E+00
  0.00000000E+00  0.00000000E+00  0.00000000E+00
  0.00000000E+00  0.00000000E+00  0.00000000E+00
  0.00000000E+00  0.00000000E+00  0.00000000E+00
