Title                                   
   1.00000000000000     
     9.8694509999999998    0.0000000000000000    0.0000000000000000
     0.0000000000000000    8.5490480000000009    0.0000000000000000
     0.0000000000000000    0.0000000000000000   20.0000000000000000
    28     3     1
Selective dynamics
Direct
  0.0565738928174112  0.0913035566711830  0.0831265336455367   T   T   T
  0.9311397602203311  0.1736910696202538  0.0855392225705265   T   T   T
  0.0558757695084424  0.9242588575364210  0.0827439283869207   T   T   T
  0.9305246249835745  0.3402421247568785  0.0901091180884438   T   T   T
  0.0567484741500653  0.5895953943046127  0.0868250604643971   T   T   T
  0.9316985725567473  0.6726225412396690  0.0888160263175756   T   T   T
  0.0571020072900090  0.4234053087015582  0.0886607891733905   T   T   T
  0.9306190712186543  0.8394948432703285  0.0852310645710372   T   T   T
  0.3055547108854255  0.0903083835811174  0.0864176595870060   T   T   T
  0.1820843178795634  0.1751944238197077  0.0855798199474410   T   T   T
  0.3055639017874633  0.9249700617996172  0.0869127843666441   T   T   T
  0.1839762935551352  0.3422455256957067  0.0893471736642016   T   T   T
  0.3058743233451070  0.5949228037857760  0.0973389109798490   T   T   T
  0.1810234467479768  0.6738371149159353  0.0876681697816495   T   T   T
  0.3111120587899311  0.4259241997305520  0.0963257440886810   T   T   T
  0.1806756977164509  0.8408245903445390  0.0851984749882030   T   T   T
  0.5557307350822503  0.0845378411163609  0.0950290305984119   T   T   T
  0.4317975431334973  0.1693220100332702  0.0926319729294945   T   T   T
  0.4345272269588850  0.3341712440785912  0.0999204588358202   T   T   T
  0.4279452393189905  0.8406913004918036  0.0972536660408835   T   T   T
  0.8071931332593777  0.0889075395107960  0.0863048393829802   T   T   T
  0.6812233521461781  0.1673881680512923  0.0931346870770518   T   T   T
  0.8054154309708235  0.9231678426812605  0.0868689097134252   T   T   T
  0.6803695341981828  0.3324183479705332  0.1013889119069439   T   T   T
  0.8079301828619416  0.5913536865596757  0.1009880988500712   T   T   T
  0.6900491946150280  0.6811226733288869  0.1157057712960323   T   T   T
  0.8046628663487148  0.4222758636634588  0.0987622600549760   T   T   T
  0.6827463642788406  0.8392235141489491  0.0988543054568654   T   T   T
  0.4210773392238851  0.6849131032177067  0.1110291484987100   T   T   T
  0.5576508904873134  0.4038829520078811  0.1142435301697631   T   T   T
  0.5543693397499480  0.9196952829635234  0.0980121614834582   T   T   T
  0.5508037039138621  0.5843338304021622  0.1697067670836436   T   T   T
 
  0.00000000E+00  0.00000000E+00  0.00000000E+00
  0.00000000E+00  0.00000000E+00  0.00000000E+00
  0.00000000E+00  0.00000000E+00  0.00000000E+00
  0.00000000E+00  0.00000000E+00  0.00000000E+00
  0.00000000E+00  0.00000000E+00  0.00000000E+00
  0.00000000E+00  0.00000000E+00  0.00000000E+00
  0.00000000E+00  0.00000000E+00  0.00000000E+00
  0.00000000E+00  0.00000000E+00  0.00000000E+00
  0.00000000E+00  0.00000000E+00  0.00000000E+00
  0.00000000E+00  0.00000000E+00  0.00000000E+00
  0.00000000E+00  0.00000000E+00  0.00000000E+00
  0.00000000E+00  0.00000000E+00  0.00000000E+00
  0.00000000E+00  0.00000000E+00  0.00000000E+00
  0.00000000E+00  0.00000000E+00  0.00000000E+00
  0.00000000E+00  0.00000000E+00  0.00000000E+00
  0.00000000E+00  0.00000000E+00  0.00000000E+00
  0.00000000E+00  0.00000000E+00  0.00000000E+00
  0.00000000E+00  0.00000000E+00  0.00000000E+00
  0.00000000E+00  0.00000000E+00  0.00000000E+00
  0.00000000E+00  0.00000000E+00  0.00000000E+00
  0.00000000E+00  0.00000000E+00  0.00000000E+00
  0.00000000E+00  0.00000000E+00  0.00000000E+00
  0.00000000E+00  0.00000000E+00  0.00000000E+00
  0.00000000E+00  0.00000000E+00  0.00000000E+00
  0.00000000E+00  0.00000000E+00  0.00000000E+00
  0.00000000E+00  0.00000000E+00  0.00000000E+00
  0.00000000E+00  0.00000000E+00  0.00000000E+00
  0.00000000E+00  0.00000000E+00  0.00000000E+00
  0.00000000E+00  0.00000000E+00  0.00000000E+00
  0.00000000E+00  0.00000000E+00  0.00000000E+00
  0.00000000E+00  0.00000000E+00  0.00000000E+00
  0.00000000E+00  0.00000000E+00  0.00000000E+00
