Title                                   
   1.00000000000000     
     9.8694509999999998    0.0000000000000000    0.0000000000000000
     0.0000000000000000    8.5490480000000009    0.0000000000000000
     0.0000000000000000    0.0000000000000000   20.0000000000000000
    27     4     1
Selective dynamics
Direct
  0.0558477114763199  0.0926860014041915  0.0874141219111686   T   T   T
  0.9311231474470320  0.1744660072027842  0.0890772457229852   T   T   T
  0.0573995627696147  0.9249643397959144  0.0868366954110862   T   T   T
  0.9296435847916276  0.3421806765904765  0.0920066381162471   T   T   T
  0.0567116807223239  0.5903779008295402  0.0883248553095424   T   T   T
  0.9325560080366884  0.6737540053157148  0.0900080875815960   T   T   T
  0.0567809461440224  0.4233168004593502  0.0901548740128930   T   T   T
  0.9329580310601145  0.8401393465792417  0.0886384437940990   T   T   T
  0.3058344961911753  0.0884167896771649  0.0893851318674985   T   T   T
  0.1821551965279524  0.1739096506101448  0.0888127893754275   T   T   T
  0.1838599709216290  0.3410298582485969  0.0909557106660171   T   T   T
  0.3057610477972660  0.5932079694222923  0.0958741282728914   T   T   T
  0.1807855118427869  0.6749275606217212  0.0885805525073370   T   T   T
  0.3102148272797948  0.4255256600118813  0.0959962796149119   T   T   T
  0.1806509281874483  0.8409275021235382  0.0877581736879589   T   T   T
  0.5566872219484038  0.0834172806590199  0.0944928758349821   T   T   T
  0.4310858648796162  0.1676311388161212  0.0928829410239283   T   T   T
  0.5552745860626827  0.9167358087811288  0.0980933590853753   T   T   T
  0.4345098910747793  0.3340510282207713  0.0984919617603098   T   T   T
  0.4260316141846955  0.8374149619859169  0.0976861895659391   T   T   T
  0.8065667379598656  0.0888696753745257  0.0893182577008951   T   T   T
  0.6806727060737826  0.1686446296240108  0.0927554270254220   T   T   T
  0.8074929286727550  0.9231824720772968  0.0901970385931833   T   T   T
  0.6775824031409614  0.3350627860888769  0.0989930700802458   T   T   T
  0.8070502316242898  0.5936545871581224  0.0986466842172604   T   T   T
  0.8028560578061701  0.4248249911660238  0.0979262432274230   T   T   T
  0.6850994208656551  0.8360403758923552  0.0985683957493436   T   T   T
  0.4197719578384765  0.6822348991883758  0.1060828912108877   T   T   T
  0.5558568442964691  0.4073557419259223  0.1077264972348261   T   T   T
  0.6919260306624959  0.6790393193374012  0.1090153879229509   T   T   T
  0.3051857184023207  0.9238547780950296  0.0892253326721520   T   T   T
  0.5537061333107909  0.5884014567165518  0.1757487192432319   T   T   T
 
  0.00000000E+00  0.00000000E+00  0.00000000E+00
  0.00000000E+00  0.00000000E+00  0.00000000E+00
  0.00000000E+00  0.00000000E+00  0.00000000E+00
  0.00000000E+00  0.00000000E+00  0.00000000E+00
  0.00000000E+00  0.00000000E+00  0.00000000E+00
  0.00000000E+00  0.00000000E+00  0.00000000E+00
  0.00000000E+00  0.00000000E+00  0.00000000E+00
  0.00000000E+00  0.00000000E+00  0.00000000E+00
  0.00000000E+00  0.00000000E+00  0.00000000E+00
  0.00000000E+00  0.00000000E+00  0.00000000E+00
  0.00000000E+00  0.00000000E+00  0.00000000E+00
  0.00000000E+00  0.00000000E+00  0.00000000E+00
  0.00000000E+00  0.00000000E+00  0.00000000E+00
  0.00000000E+00  0.00000000E+00  0.00000000E+00
  0.00000000E+00  0.00000000E+00  0.00000000E+00
  0.00000000E+00  0.00000000E+00  0.00000000E+00
  0.00000000E+00  0.00000000E+00  0.00000000E+00
  0.00000000E+00  0.00000000E+00  0.00000000E+00
  0.00000000E+00  0.00000000E+00  0.00000000E+00
  0.00000000E+00  0.00000000E+00  0.00000000E+00
  0.00000000E+00  0.00000000E+00  0.00000000E+00
  0.00000000E+00  0.00000000E+00  0.00000000E+00
  0.00000000E+00  0.00000000E+00  0.00000000E+00
  0.00000000E+00  0.00000000E+00  0.00000000E+00
  0.00000000E+00  0.00000000E+00  0.00000000E+00
  0.00000000E+00  0.00000000E+00  0.00000000E+00
  0.00000000E+00  0.00000000E+00  0.00000000E+00
  0.00000000E+00  0.00000000E+00  0.00000000E+00
  0.00000000E+00  0.00000000E+00  0.00000000E+00
  0.00000000E+00  0.00000000E+00  0.00000000E+00
  0.00000000E+00  0.00000000E+00  0.00000000E+00
  0.00000000E+00  0.00000000E+00  0.00000000E+00
