Title                                   
   1.00000000000000     
     9.8694509999999998    0.0000000000000000    0.0000000000000000
     0.0000000000000000    8.5490480000000009    0.0000000000000000
     0.0000000000000000    0.0000000000000000   20.0000000000000000
    25     6     1
Selective dynamics
Direct
  0.0562014452506117  0.0933404504764888  0.0908644760403532   T   T   T
  0.9297289860456508  0.1759006962827051  0.0917630195631367   T   T   T
  0.0561954651935301  0.9249653970385829  0.0900819620326553   T   T   T
  0.9288309946197485  0.3423402485704379  0.0934133803355586   T   T   T
  0.0561823948490175  0.5905188078959170  0.0907458858762694   T   T   T
  0.9317496149178783  0.6722110439890926  0.0911205444346209   T   T   T
  0.0562074539778390  0.4235843558709254  0.0926214943804404   T   T   T
  0.9314021310391644  0.8399030695799917  0.0905941476554277   T   T   T
  0.3054552191152577  0.0890670907412781  0.0906084888689578   T   T   T
  0.1826649977277517  0.1758676225723797  0.0914335838605840   T   T   T
  0.3059731154464730  0.9236423975696880  0.0903401127855287   T   T   T
  0.1835634165876388  0.3423137675211611  0.0928146669857888   T   T   T
  0.3088493422423040  0.5951110643624394  0.0930908380607547   T   T   T
  0.1806169881595907  0.6722049072933507  0.0903469679587146   T   T   T
  0.1810348210854112  0.8398955219328187  0.0900478213893088   T   T   T
  0.5562152109004760  0.0833097356406352  0.0934418241957749   T   T   T
  0.4317815583320332  0.1687807013072933  0.0923858275471221   T   T   T
  0.4372529144368998  0.3356625480728135  0.0953566800473730   T   T   T
  0.4275518414050601  0.8340483506457571  0.0929658154059322   T   T   T
  0.8069655963774238  0.0890742922924548  0.0909740953950148   T   T   T
  0.6806869158268569  0.1688149085371984  0.0928798449958708   T   T   T
  0.8064497618359380  0.9235913742575673  0.0909396673204583   T   T   T
  0.6751992346495651  0.3357014065833726  0.0960883323715336   T   T   T
  0.8037711827052516  0.5950637116444952  0.0952017894423024   T   T   T
  0.6849308269537165  0.8342157636419782  0.0944034978514954   T   T   T
  0.4244518247524633  0.6771546312786422  0.0965086195577098   T   T   T
  0.5561356783236652  0.4117035617034998  0.1011488208389819   T   T   T
  0.6883167864782876  0.6774592332676228  0.1000898145785166   T   T   T
  0.5562225940624680  0.9148383149480317  0.0936574946603587   T   T   T
  0.3120676237271006  0.4252495181296363  0.0938824619679552   T   T   T
  0.8004077230146459  0.4253447649021149  0.0952122772283063   T   T   T
  0.5565753399602879  0.5893667414496300  0.2006507463672107   T   T   T
 
  0.00000000E+00  0.00000000E+00  0.00000000E+00
  0.00000000E+00  0.00000000E+00  0.00000000E+00
  0.00000000E+00  0.00000000E+00  0.00000000E+00
  0.00000000E+00  0.00000000E+00  0.00000000E+00
  0.00000000E+00  0.00000000E+00  0.00000000E+00
  0.00000000E+00  0.00000000E+00  0.00000000E+00
  0.00000000E+00  0.00000000E+00  0.00000000E+00
  0.00000000E+00  0.00000000E+00  0.00000000E+00
  0.00000000E+00  0.00000000E+00  0.00000000E+00
  0.00000000E+00  0.00000000E+00  0.00000000E+00
  0.00000000E+00  0.00000000E+00  0.00000000E+00
  0.00000000E+00  0.00000000E+00  0.00000000E+00
  0.00000000E+00  0.00000000E+00  0.00000000E+00
  0.00000000E+00  0.00000000E+00  0.00000000E+00
  0.00000000E+00  0.00000000E+00  0.00000000E+00
  0.00000000E+00  0.00000000E+00  0.00000000E+00
  0.00000000E+00  0.00000000E+00  0.00000000E+00
  0.00000000E+00  0.00000000E+00  0.00000000E+00
  0.00000000E+00  0.00000000E+00  0.00000000E+00
  0.00000000E+00  0.00000000E+00  0.00000000E+00
  0.00000000E+00  0.00000000E+00  0.00000000E+00
  0.00000000E+00  0.00000000E+00  0.00000000E+00
  0.00000000E+00  0.00000000E+00  0.00000000E+00
  0.00000000E+00  0.00000000E+00  0.00000000E+00
  0.00000000E+00  0.00000000E+00  0.00000000E+00
  0.00000000E+00  0.00000000E+00  0.00000000E+00
  0.00000000E+00  0.00000000E+00  0.00000000E+00
  0.00000000E+00  0.00000000E+00  0.00000000E+00
  0.00000000E+00  0.00000000E+00  0.00000000E+00
  0.00000000E+00  0.00000000E+00  0.00000000E+00
  0.00000000E+00  0.00000000E+00  0.00000000E+00
  0.00000000E+00  0.00000000E+00  0.00000000E+00
