Title                                   
   1.00000000000000     
     4.9440799999999996    0.0000000000000000    0.0000000000000000
     0.0000000000000000   17.1295089999999988    0.0000000000000000
     0.0000000000000000    0.0000000000000000   20.0000000000000000
    29     2     1
Selective dynamics
Direct
  0.0010047527288276  0.1044926577627212  0.2910000859144363   T   T   T
  0.2509997483271729  0.1461513754036467  0.2950972525018995   T   T   T
  0.2508094397052191  0.2287502890513952  0.3053829959277905   T   T   T
  0.0048915506942181  0.3504148892136230  0.3244076807055276   T   T   T
 -0.0006753577324990  0.2699508886023661  0.3096298681281648   T   T   T
 -0.0004011687700317  0.6024463825381688  0.2943050048200548   T   T   T
  0.2520718431694899  0.7281023663659030  0.2877088271127632   T   T   T
  0.0021107487134378  0.8539606796208713  0.2824358425206963   T   T   T
  0.2517168858852586  0.8959397192006773  0.2828702780503772   T   T   T
  0.2513780128509527  0.9794122697924209  0.2845070203160118   T   T   T
  0.0025193256703855  0.7704291485479771  0.2841035008276406   T   T   T
  0.5008846592279611  0.1044364626477834  0.2911177214663816   T   T   T
  0.7507487108459133  0.1462865411126034  0.2940149185610229   T   T   T
  0.7503566506546768  0.2286520863133805  0.3023803358993066   T   T   T
  0.5013842725429424  0.0212060769186819  0.2860664148670570   T   T   T
  0.4955187063042807  0.3508192894641605  0.3254504694656913   T   T   T
  0.7500427551912593  0.4793903605054264  0.3121468736965032   T   T   T
  0.5017617390060731  0.2701924750177396  0.3102153789117370   T   T   T
  0.5069812699419662  0.6039834874206440  0.3007957210392847   T   T   T
  0.7520267533679470  0.7290758150992828  0.2855629454268105   T   T   T
  0.5014590087684673  0.8540023407643607  0.2829134523383743   T   T   T
  0.7517033190464307  0.8957859213217096  0.2824453040555805   T   T   T
  0.7513874523691676  0.9793122233647021  0.2841239129633652   T   T   T
  0.5014568921727104  0.7704969529141860  0.2850970209861914   T   T   T
  0.7523539775632114  0.6460405375366838  0.2909250804192786   T   T   T
  0.2529971906380207  0.6447701062628918  0.2951885378049493   T   T   T
  0.0012066690632946  0.0212562662871891  0.2859481113949112   T   T   T
  0.5140062748452280  0.5233390009951902  0.3197891657574006   T   T   T
  0.9911557678295092  0.5191764046012296  0.2985227141306919   T   T   T
  0.2497359245316962  0.3861172155421171  0.3389331784683392   T   T   T
  0.7509024942337723  0.3946876780398171  0.3262629070821675   T   T   T
  0.2023267306130464  0.4994730917704408  0.3832164784395437   T   T   T
 
  0.00000000E+00  0.00000000E+00  0.00000000E+00
  0.00000000E+00  0.00000000E+00  0.00000000E+00
  0.00000000E+00  0.00000000E+00  0.00000000E+00
  0.00000000E+00  0.00000000E+00  0.00000000E+00
  0.00000000E+00  0.00000000E+00  0.00000000E+00
  0.00000000E+00  0.00000000E+00  0.00000000E+00
  0.00000000E+00  0.00000000E+00  0.00000000E+00
  0.00000000E+00  0.00000000E+00  0.00000000E+00
  0.00000000E+00  0.00000000E+00  0.00000000E+00
  0.00000000E+00  0.00000000E+00  0.00000000E+00
  0.00000000E+00  0.00000000E+00  0.00000000E+00
  0.00000000E+00  0.00000000E+00  0.00000000E+00
  0.00000000E+00  0.00000000E+00  0.00000000E+00
  0.00000000E+00  0.00000000E+00  0.00000000E+00
  0.00000000E+00  0.00000000E+00  0.00000000E+00
  0.00000000E+00  0.00000000E+00  0.00000000E+00
  0.00000000E+00  0.00000000E+00  0.00000000E+00
  0.00000000E+00  0.00000000E+00  0.00000000E+00
  0.00000000E+00  0.00000000E+00  0.00000000E+00
  0.00000000E+00  0.00000000E+00  0.00000000E+00
  0.00000000E+00  0.00000000E+00  0.00000000E+00
  0.00000000E+00  0.00000000E+00  0.00000000E+00
  0.00000000E+00  0.00000000E+00  0.00000000E+00
  0.00000000E+00  0.00000000E+00  0.00000000E+00
  0.00000000E+00  0.00000000E+00  0.00000000E+00
  0.00000000E+00  0.00000000E+00  0.00000000E+00
  0.00000000E+00  0.00000000E+00  0.00000000E+00
  0.00000000E+00  0.00000000E+00  0.00000000E+00
  0.00000000E+00  0.00000000E+00  0.00000000E+00
  0.00000000E+00  0.00000000E+00  0.00000000E+00
  0.00000000E+00  0.00000000E+00  0.00000000E+00
  0.00000000E+00  0.00000000E+00  0.00000000E+00
