Title                                   
   1.00000000000000     
     8.5490480000000009    0.0000000000000000    0.0000000000000000
     0.0000000000000000    8.5490480000000009    0.0000000000000000
     0.0000000000000000    0.0000000000000000   20.0000000000000000
    20     4     1
Selective dynamics
Direct
  0.9096046602012968  0.2050807750781116  0.0974982178623696   T   T   T
  0.9119373110141719  0.8016647341494983  0.0975022578030505   T   T   T
  0.1968279048467856  0.0841514381931924  0.0977967729994695   T   T   T
  0.0763522908395201  0.2001953917216559  0.0976545272920370   T   T   T
  0.1538951306316161  0.6478847788630483  0.0977255929990281   T   T   T
  0.0710157343085945  0.5012424792844422  0.0977368403533990   T   T   T
  0.1533714231013990  0.3556747775605058  0.0977520679432649   T   T   T
  0.0795554447684785  0.7999060090596896  0.0976659410572446   T   T   T
  0.4956040132134214  0.0876279963856564  0.0978200867545382   T   T   T
  0.3472261776918686  0.1673168159094774  0.0979215548750766   T   T   T
  0.4951975909935594  0.9165194126401691  0.0977479543069841   T   T   T
  0.3474836283449371  0.8331596584056616  0.0978418715646041   T   T   T
  0.7903662689386181  0.0870667353076252  0.0974256005581935   T   T   T
  0.6431711903172129  0.1674068817558781  0.0977713660195528   T   T   T
  0.7912551591504469  0.9191568318929233  0.0974090099142455   T   T   T
  0.8282078640482445  0.6519789849154709  0.0977248255940667   T   T   T
  0.8262610799889433  0.3537952531642148  0.0977688546744274   T   T   T
  0.6439497421005773  0.8372957845086016  0.0976464222679405   T   T   T
  0.3175326831081435  0.3326789276519660  0.0979278239051917   T   T   T
  0.3185987826575715  0.6704252133607264  0.0978197266243852   T   T   T
  0.9029568278037867  0.5027730790724891  0.0978262079901191   T   T   T
  0.6678585396469620  0.3298616394740941  0.0980544284007567   T   T   T
  0.6699543199034105  0.6750925536667644  0.0978738001435534   T   T   T
  0.1975512831582827  0.9152090907494539  0.0978352659047133   T   T   T
  0.4896769492221440  0.5016247572287027  0.0979579821917608   T   T   T
 
  0.00000000E+00  0.00000000E+00  0.00000000E+00
  0.00000000E+00  0.00000000E+00  0.00000000E+00
  0.00000000E+00  0.00000000E+00  0.00000000E+00
  0.00000000E+00  0.00000000E+00  0.00000000E+00
  0.00000000E+00  0.00000000E+00  0.00000000E+00
  0.00000000E+00  0.00000000E+00  0.00000000E+00
  0.00000000E+00  0.00000000E+00  0.00000000E+00
  0.00000000E+00  0.00000000E+00  0.00000000E+00
  0.00000000E+00  0.00000000E+00  0.00000000E+00
  0.00000000E+00  0.00000000E+00  0.00000000E+00
  0.00000000E+00  0.00000000E+00  0.00000000E+00
  0.00000000E+00  0.00000000E+00  0.00000000E+00
  0.00000000E+00  0.00000000E+00  0.00000000E+00
  0.00000000E+00  0.00000000E+00  0.00000000E+00
  0.00000000E+00  0.00000000E+00  0.00000000E+00
  0.00000000E+00  0.00000000E+00  0.00000000E+00
  0.00000000E+00  0.00000000E+00  0.00000000E+00
  0.00000000E+00  0.00000000E+00  0.00000000E+00
  0.00000000E+00  0.00000000E+00  0.00000000E+00
  0.00000000E+00  0.00000000E+00  0.00000000E+00
  0.00000000E+00  0.00000000E+00  0.00000000E+00
  0.00000000E+00  0.00000000E+00  0.00000000E+00
  0.00000000E+00  0.00000000E+00  0.00000000E+00
  0.00000000E+00  0.00000000E+00  0.00000000E+00
  0.00000000E+00  0.00000000E+00  0.00000000E+00
