Title                                   
   1.00000000000000     
     8.5490480000000009    0.0000000000000000    0.0000000000000000
     0.0000000000000000    8.5490480000000009    0.0000000000000000
     0.0000000000000000    0.0000000000000000   20.0000000000000000
    22     2     1
Selective dynamics
Direct
  0.9101298171974791  0.2042410771649332  0.0936569813542385   T   T   T
  0.9072089000002257  0.5043904082179599  0.0965569267600294   T   T   T
  0.9122996125806355  0.8033303691310345  0.0950796317078287   T   T   T
  0.1966619952346374  0.0798508695584735  0.0949018922816189   T   T   T
  0.0725284997208114  0.2010548318360016  0.0942009343339407   T   T   T
  0.1571555898861006  0.6499143088314026  0.0958675945532137   T   T   T
  0.0754601585048760  0.5025156013841069  0.0967535919939726   T   T   T
  0.1555425479897178  0.3531292213990195  0.0976654661215563   T   T   T
  0.0787517437088745  0.7993720227695128  0.0943205972328771   T   T   T
  0.4929649064817133  0.0833541338928735  0.0969742222829363   T   T   T
  0.3431162994205574  0.1605379305977971  0.0981606096659463   T   T   T
  0.4934274211032952  0.9155627304032790  0.0965693864527139   T   T   T
  0.3463947166842707  0.8340411213359782  0.0958611294836030   T   T   T
  0.7878245985027397  0.0848019047807000  0.0942751459014676   T   T   T
  0.6392301012335287  0.1649958126201275  0.0961341199664667   T   T   T
  0.7909543860001691  0.9210824766792562  0.0949936487197135   T   T   T
  0.8307968811390919  0.6552714532757224  0.0974450249294105   T   T   T
  0.8271827070186777  0.3568773130723589  0.0954918471285015   T   T   T
  0.6428669318508238  0.8371066923399002  0.0973921160414595   T   T   T
  0.3181238923218075  0.3280299919279366  0.1034820897700411   T   T   T
  0.3224832456968629  0.6729313988041069  0.0971047082615041   T   T   T
  0.6639098778224642  0.3320501443794511  0.0981084919553859   T   T   T
  0.6696210165424762  0.6782874565135003  0.1004617688261273   T   T   T
  0.1961844180262713  0.9165188814493420  0.0940478533254104   T   T   T
  0.4945917353318845  0.5055418476352389  0.1331992209500189   T   T   T
 
  0.00000000E+00  0.00000000E+00  0.00000000E+00
  0.00000000E+00  0.00000000E+00  0.00000000E+00
  0.00000000E+00  0.00000000E+00  0.00000000E+00
  0.00000000E+00  0.00000000E+00  0.00000000E+00
  0.00000000E+00  0.00000000E+00  0.00000000E+00
  0.00000000E+00  0.00000000E+00  0.00000000E+00
  0.00000000E+00  0.00000000E+00  0.00000000E+00
  0.00000000E+00  0.00000000E+00  0.00000000E+00
  0.00000000E+00  0.00000000E+00  0.00000000E+00
  0.00000000E+00  0.00000000E+00  0.00000000E+00
  0.00000000E+00  0.00000000E+00  0.00000000E+00
  0.00000000E+00  0.00000000E+00  0.00000000E+00
  0.00000000E+00  0.00000000E+00  0.00000000E+00
  0.00000000E+00  0.00000000E+00  0.00000000E+00
  0.00000000E+00  0.00000000E+00  0.00000000E+00
  0.00000000E+00  0.00000000E+00  0.00000000E+00
  0.00000000E+00  0.00000000E+00  0.00000000E+00
  0.00000000E+00  0.00000000E+00  0.00000000E+00
  0.00000000E+00  0.00000000E+00  0.00000000E+00
  0.00000000E+00  0.00000000E+00  0.00000000E+00
  0.00000000E+00  0.00000000E+00  0.00000000E+00
  0.00000000E+00  0.00000000E+00  0.00000000E+00
  0.00000000E+00  0.00000000E+00  0.00000000E+00
  0.00000000E+00  0.00000000E+00  0.00000000E+00
  0.00000000E+00  0.00000000E+00  0.00000000E+00
