Title                                   
   1.00000000000000     
     8.5490480000000009    0.0000000000000000    0.0000000000000000
     0.0000000000000000    8.5490480000000009    0.0000000000000000
     0.0000000000000000    0.0000000000000000   20.0000000000000000
    17     7     1
Selective dynamics
Direct
  0.9082359909360271  0.2051562371507773  0.0971113134144051   T   T   T
  0.9107769172857461  0.8004363505493446  0.0971749902770614   T   T   T
  0.1971286039661863  0.0831848858627155  0.0973113368218373   T   T   T
  0.0766844419405378  0.2009805345975476  0.0972878230211043   T   T   T
  0.1554402131617299  0.6520013706227988  0.0978641754283398   T   T   T
  0.0782549273202013  0.5011363678302059  0.0978152544415224   T   T   T
  0.1552756899939773  0.3499675538209607  0.0977230342830023   T   T   T
  0.0786303322762547  0.7996122246535672  0.0973404471355630   T   T   T
  0.3437769940568025  0.1637677951185467  0.0977502330790785   T   T   T
  0.4913945994961262  0.9171109994032974  0.0977664240583488   T   T   T
  0.3440730257404536  0.8396000899046804  0.0979442829260652   T   T   T
  0.7882049360672893  0.0866121235885319  0.0970867698699585   T   T   T
  0.6419958940300314  0.1666488954063628  0.0975639344061431   T   T   T
  0.7898007051248684  0.9180696710064565  0.0971651483596806   T   T   T
  0.8311222293892172  0.6511067368529456  0.0976289716680814   T   T   T
  0.8294254818729807  0.3528209925728619  0.0975510090147132   T   T   T
  0.6433324244407556  0.8386224262774916  0.0976167792384979   T   T   T
  0.4936033743649613  0.0904935252086496  0.0977911107154517   T   T   T
  0.9059717097506708  0.5021739905688987  0.0977485450720936   T   T   T
  0.3192677228514937  0.3250122797062830  0.0982154066521988   T   T   T
  0.3193268962538286  0.6780043033026639  0.0986395278544963   T   T   T
  0.6664919954740042  0.3292582356034248  0.0980395629563561   T   T   T
  0.6692573569158594  0.6747919256906563  0.0981120538344349   T   T   T
  0.1954776198931235  0.9158687811788626  0.0974230706213573   T   T   T
  0.4924619173968656  0.5023517035214659  0.1000337948501882   T   T   T
 
  0.00000000E+00  0.00000000E+00  0.00000000E+00
  0.00000000E+00  0.00000000E+00  0.00000000E+00
  0.00000000E+00  0.00000000E+00  0.00000000E+00
  0.00000000E+00  0.00000000E+00  0.00000000E+00
  0.00000000E+00  0.00000000E+00  0.00000000E+00
  0.00000000E+00  0.00000000E+00  0.00000000E+00
  0.00000000E+00  0.00000000E+00  0.00000000E+00
  0.00000000E+00  0.00000000E+00  0.00000000E+00
  0.00000000E+00  0.00000000E+00  0.00000000E+00
  0.00000000E+00  0.00000000E+00  0.00000000E+00
  0.00000000E+00  0.00000000E+00  0.00000000E+00
  0.00000000E+00  0.00000000E+00  0.00000000E+00
  0.00000000E+00  0.00000000E+00  0.00000000E+00
  0.00000000E+00  0.00000000E+00  0.00000000E+00
  0.00000000E+00  0.00000000E+00  0.00000000E+00
  0.00000000E+00  0.00000000E+00  0.00000000E+00
  0.00000000E+00  0.00000000E+00  0.00000000E+00
  0.00000000E+00  0.00000000E+00  0.00000000E+00
  0.00000000E+00  0.00000000E+00  0.00000000E+00
  0.00000000E+00  0.00000000E+00  0.00000000E+00
  0.00000000E+00  0.00000000E+00  0.00000000E+00
  0.00000000E+00  0.00000000E+00  0.00000000E+00
  0.00000000E+00  0.00000000E+00  0.00000000E+00
  0.00000000E+00  0.00000000E+00  0.00000000E+00
  0.00000000E+00  0.00000000E+00  0.00000000E+00
