Title                                   
   1.00000000000000     
     9.8694509999999998    0.0000000000000000    0.0000000000000000
     0.0000000000000000    8.5490480000000009    0.0000000000000000
     0.0000000000000000    0.0000000000000000   20.0000000000000000
    30     1     1
Selective dynamics
Direct
  0.0564715305995796  0.0904965110174242  0.0849892734849741   T   T   T
  0.9313923416007557  0.1726822015456394  0.0867000471195597   T   T   T
  0.0557933849369795  0.9235708547727803  0.0851668585825283   T   T   T
  0.9314751153199147  0.3394370991723932  0.0888984887121231   T   T   T
  0.0566888219440722  0.5891596861362356  0.0867144645873858   T   T   T
  0.9324279017501678  0.6725530850897895  0.0893806878777886   T   T   T
  0.0569310955132479  0.4230435880090462  0.0871971646020451   T   T   T
  0.9313481351035444  0.8393444956238466  0.0875919064536664   T   T   T
  0.3057348056321263  0.0898971931952375  0.0886373635593269   T   T   T
  0.1816550232268103  0.1738727265707687  0.0866215463615419   T   T   T
  0.3045169358941178  0.9234948655978813  0.0900505199075851   T   T   T
  0.1825732483389100  0.3414185039686456  0.0886409604097725   T   T   T
  0.3043137763933533  0.5928535650354048  0.0971685864207571   T   T   T
  0.1804860765321816  0.6738864617175848  0.0886632274168328   T   T   T
  0.3073811172005930  0.4246498779097622  0.0959106844899675   T   T   T
  0.1799338097349192  0.8405555741541646  0.0874891743255911   T   T   T
  0.5555680582526483  0.0865550491265569  0.0948374017513414   T   T   T
  0.4308868717585618  0.1712632033973529  0.0934520710619929   T   T   T
  0.5549916668996308  0.9200715405432188  0.0981624980708882   T   T   T
  0.4313838609291300  0.3371485006780549  0.1004117697923673   T   T   T
  0.5572315013866355  0.4100762858328484  0.1137043135574782   T   T   T
  0.4270862437860258  0.8396305841459240  0.0986384137284783   T   T   T
  0.8069087404898677  0.0887598796703846  0.0889337246673313   T   T   T
  0.6817161109410710  0.1697985236831998  0.0941351488776118   T   T   T
  0.8067134863913823  0.9225073380722265  0.0902042666730310   T   T   T
  0.6828969230048234  0.3352464874746098  0.1014269064848497   T   T   T
  0.8093771881989044  0.5888077137161452  0.0989302513697075   T   T   T
  0.6910551698613923  0.6771911939309669  0.1114662614297366   T   T   T
  0.8076454871919946  0.4211267499669171  0.0970674644415677   T   T   T
  0.6826641487168637  0.8395352043601161  0.0993563998996998   T   T   T
  0.4202936045062503  0.6797462316781753  0.1092474653682644   T   T   T
  0.5540968179635509  0.5918652242067081  0.1558796885142422   T   T   T
 
  0.00000000E+00  0.00000000E+00  0.00000000E+00
  0.00000000E+00  0.00000000E+00  0.00000000E+00
  0.00000000E+00  0.00000000E+00  0.00000000E+00
  0.00000000E+00  0.00000000E+00  0.00000000E+00
  0.00000000E+00  0.00000000E+00  0.00000000E+00
  0.00000000E+00  0.00000000E+00  0.00000000E+00
  0.00000000E+00  0.00000000E+00  0.00000000E+00
  0.00000000E+00  0.00000000E+00  0.00000000E+00
  0.00000000E+00  0.00000000E+00  0.00000000E+00
  0.00000000E+00  0.00000000E+00  0.00000000E+00
  0.00000000E+00  0.00000000E+00  0.00000000E+00
  0.00000000E+00  0.00000000E+00  0.00000000E+00
  0.00000000E+00  0.00000000E+00  0.00000000E+00
  0.00000000E+00  0.00000000E+00  0.00000000E+00
  0.00000000E+00  0.00000000E+00  0.00000000E+00
  0.00000000E+00  0.00000000E+00  0.00000000E+00
  0.00000000E+00  0.00000000E+00  0.00000000E+00
  0.00000000E+00  0.00000000E+00  0.00000000E+00
  0.00000000E+00  0.00000000E+00  0.00000000E+00
  0.00000000E+00  0.00000000E+00  0.00000000E+00
  0.00000000E+00  0.00000000E+00  0.00000000E+00
  0.00000000E+00  0.00000000E+00  0.00000000E+00
  0.00000000E+00  0.00000000E+00  0.00000000E+00
  0.00000000E+00  0.00000000E+00  0.00000000E+00
  0.00000000E+00  0.00000000E+00  0.00000000E+00
  0.00000000E+00  0.00000000E+00  0.00000000E+00
  0.00000000E+00  0.00000000E+00  0.00000000E+00
  0.00000000E+00  0.00000000E+00  0.00000000E+00
  0.00000000E+00  0.00000000E+00  0.00000000E+00
  0.00000000E+00  0.00000000E+00  0.00000000E+00
  0.00000000E+00  0.00000000E+00  0.00000000E+00
  0.00000000E+00  0.00000000E+00  0.00000000E+00
