Title                                   
   1.00000000000000     
     8.5490480000000009    0.0000000000000000    0.0000000000000000
     0.0000000000000000    8.5490480000000009    0.0000000000000000
     0.0000000000000000    0.0000000000000000   20.0000000000000000
    24     1
Selective dynamics
Direct
  0.9108729895671662  0.2068429320520375  0.0954428315136334   T   T   T
  0.9087486834588444  0.5017936390742257  0.0953080104262910   T   T   T
  0.9108968943535789  0.7967010206099004  0.0954562589989406   T   T   T
  0.1981058974212785  0.0838949506532929  0.0954719720105654   T   T   T
  0.0751419727818980  0.2068205484370171  0.0954514687423776   T   T   T
  0.1981180995810901  0.9196320633467774  0.0954786791956242   T   T   T
  0.1596747571043194  0.6472602577709023  0.0953477890820920   T   T   T
  0.0772813022526506  0.5017876894415905  0.0953267556101891   T   T   T
  0.1596614140716591  0.3562914407343216  0.0953378820583573   T   T   T
  0.0751658895253045  0.7966926393026892  0.0954652226541622   T   T   T
  0.4929962771173861  0.0860451636810606  0.0953572723861160   T   T   T
  0.3475223108176870  0.1684473692961673  0.0953640154628471   T   T   T
  0.4929984109147272  0.9175125499485531  0.0953631549471884   T   T   T
  0.3475344826823165  0.8351085445414511  0.0953722329647032   T   T   T
  0.7879293715578225  0.0839228304902879  0.0954566366365424   T   T   T
  0.6384746766681275  0.1684609307597887  0.0953320652871854   T   T   T
  0.7879528659049100  0.9196484841648523  0.0954625224477952   T   T   T
  0.8263652240183278  0.6472737517153913  0.0953178375339069   T   T   T
  0.8263463445724278  0.3563099493872132  0.0953124363725587   T   T   T
  0.6384952161623521  0.8351373338415794  0.0953394560026389   T   T   T
  0.3276977364710893  0.3364986234241713  0.0952347597448037   T   T   T
  0.3277235489743538  0.6670963634087390  0.0952492382512199   T   T   T
  0.6583101762111856  0.3365217312638557  0.0952099064835318   T   T   T
  0.6583147608249652  0.6671094407061917  0.0952211315635539   T   T   T
  0.4930826969845253  0.5019797519479557  0.0950254636231533   T   T   T
 
  0.00000000E+00  0.00000000E+00  0.00000000E+00
  0.00000000E+00  0.00000000E+00  0.00000000E+00
  0.00000000E+00  0.00000000E+00  0.00000000E+00
  0.00000000E+00  0.00000000E+00  0.00000000E+00
  0.00000000E+00  0.00000000E+00  0.00000000E+00
  0.00000000E+00  0.00000000E+00  0.00000000E+00
  0.00000000E+00  0.00000000E+00  0.00000000E+00
  0.00000000E+00  0.00000000E+00  0.00000000E+00
  0.00000000E+00  0.00000000E+00  0.00000000E+00
  0.00000000E+00  0.00000000E+00  0.00000000E+00
  0.00000000E+00  0.00000000E+00  0.00000000E+00
  0.00000000E+00  0.00000000E+00  0.00000000E+00
  0.00000000E+00  0.00000000E+00  0.00000000E+00
  0.00000000E+00  0.00000000E+00  0.00000000E+00
  0.00000000E+00  0.00000000E+00  0.00000000E+00
  0.00000000E+00  0.00000000E+00  0.00000000E+00
  0.00000000E+00  0.00000000E+00  0.00000000E+00
  0.00000000E+00  0.00000000E+00  0.00000000E+00
  0.00000000E+00  0.00000000E+00  0.00000000E+00
  0.00000000E+00  0.00000000E+00  0.00000000E+00
  0.00000000E+00  0.00000000E+00  0.00000000E+00
  0.00000000E+00  0.00000000E+00  0.00000000E+00
  0.00000000E+00  0.00000000E+00  0.00000000E+00
  0.00000000E+00  0.00000000E+00  0.00000000E+00
  0.00000000E+00  0.00000000E+00  0.00000000E+00
