Title                                   
   1.00000000000000     
     4.9440799999999996    0.0000000000000000    0.0000000000000000
     0.0000000000000000   17.1295089999999988    0.0000000000000000
     0.0000000000000000    0.0000000000000000   20.0000000000000000
    31     1
Selective dynamics
Direct
  0.0000935282155546  0.1042486614165468  0.2780744101377177   T   T   T
  0.2499457325322565  0.1459862377371475  0.2823461758383310   T   T   T
  0.2499410323370215  0.2285207511090288  0.2941258288681574   T   T   T
 -0.0026110285946687  0.3499311784250911  0.3198164587664546   T   T   T
 -0.0017700301221306  0.2692602016379194  0.3007431011986836   T   T   T
 -0.0027139814350097  0.6082359355594890  0.3180420202586161   T   T   T
  0.2498489337789225  0.7293125328715665  0.2924326375968618   T   T   T
  0.0000792228091723  0.8538273741033090  0.2771939560500903   T   T   T
  0.2498896870379270  0.8955610859294355  0.2747903595560441   T   T   T
  0.2499074432958670  0.9790653771959364  0.2729582317982874   T   T   T
  0.0001466153171851  0.7707843349231626  0.2857022381902180   T   T   T
  0.4998016628369543  0.1042429702461260  0.2780673422849434   T   T   T
  0.7499210946098742  0.1456815600648143  0.2816426884421458   T   T   T
  0.7499443439295553  0.2280878965831717  0.2924234730440014   T   T   T
  0.4998964102227746  0.0208648646177400  0.2735419948910169   T   T   T
  0.5024772470610248  0.3499259727462055  0.3198281549805911   T   T   T
  0.7499223897253056  0.3939231207729973  0.3261824973028080   T   T   T
  0.7498825542509771  0.4790942664848655  0.3339600074970130   T   T   T
  0.5016772871561103  0.2692641765296940  0.3007512934774924   T   T   T
  0.5024896752675998  0.6082324958533925  0.3180606445354813   T   T   T
  0.7498520525335907  0.7300246428165673  0.2910787246648051   T   T   T
  0.4996496016119077  0.8538270657383571  0.2772000266661885   T   T   T
  0.7498956449161744  0.8954479388306941  0.2745447651773251   T   T   T
  0.7499121073145190  0.9790501925242280  0.2727442920854259   T   T   T
  0.4995367137333089  0.7707948697099172  0.2857042679506340   T   T   T
  0.7498381990073978  0.6483624661648713  0.3063478257734024   T   T   T
  0.2498466694423535  0.6478866731030721  0.3098995098876498   T   T   T
 -0.0000605993441748  0.0208696560167542  0.2735522387122605   T   T   T
  0.5143101387411207  0.5281911949136423  0.3400856492467167   T   T   T
  0.9854709589846828  0.5281823582995906  0.3400448127910471   T   T   T
  0.2499387733821207  0.3846540594918861  0.3372153867637525   T   T   T
  0.2498629194447314  0.4772088875827746  0.3934639855657884   T   T   T
 
  0.00000000E+00  0.00000000E+00  0.00000000E+00
  0.00000000E+00  0.00000000E+00  0.00000000E+00
  0.00000000E+00  0.00000000E+00  0.00000000E+00
  0.00000000E+00  0.00000000E+00  0.00000000E+00
  0.00000000E+00  0.00000000E+00  0.00000000E+00
  0.00000000E+00  0.00000000E+00  0.00000000E+00
  0.00000000E+00  0.00000000E+00  0.00000000E+00
  0.00000000E+00  0.00000000E+00  0.00000000E+00
  0.00000000E+00  0.00000000E+00  0.00000000E+00
  0.00000000E+00  0.00000000E+00  0.00000000E+00
  0.00000000E+00  0.00000000E+00  0.00000000E+00
  0.00000000E+00  0.00000000E+00  0.00000000E+00
  0.00000000E+00  0.00000000E+00  0.00000000E+00
  0.00000000E+00  0.00000000E+00  0.00000000E+00
  0.00000000E+00  0.00000000E+00  0.00000000E+00
  0.00000000E+00  0.00000000E+00  0.00000000E+00
  0.00000000E+00  0.00000000E+00  0.00000000E+00
  0.00000000E+00  0.00000000E+00  0.00000000E+00
  0.00000000E+00  0.00000000E+00  0.00000000E+00
  0.00000000E+00  0.00000000E+00  0.00000000E+00
  0.00000000E+00  0.00000000E+00  0.00000000E+00
  0.00000000E+00  0.00000000E+00  0.00000000E+00
  0.00000000E+00  0.00000000E+00  0.00000000E+00
  0.00000000E+00  0.00000000E+00  0.00000000E+00
  0.00000000E+00  0.00000000E+00  0.00000000E+00
  0.00000000E+00  0.00000000E+00  0.00000000E+00
  0.00000000E+00  0.00000000E+00  0.00000000E+00
  0.00000000E+00  0.00000000E+00  0.00000000E+00
  0.00000000E+00  0.00000000E+00  0.00000000E+00
  0.00000000E+00  0.00000000E+00  0.00000000E+00
  0.00000000E+00  0.00000000E+00  0.00000000E+00
  0.00000000E+00  0.00000000E+00  0.00000000E+00
