Title                                   
   1.00000000000000     
     8.5490480000000009    0.0000000000000000    0.0000000000000000
     0.0000000000000000    8.5490480000000009    0.0000000000000000
     0.0000000000000000    0.0000000000000000   20.0000000000000000
    20     4     1
Selective dynamics
Direct
  0.9076121575277024  0.2072483791568989  0.0949196986870798   T   T   T
  0.9120055249951884  0.8016884037578277  0.0958360390412927   T   T   T
  0.1975471680293036  0.0825870882246808  0.0956532672389250   T   T   T
  0.0753559671085341  0.2021884405828268  0.0960584230056938   T   T   T
  0.1571538501657039  0.6495089092300269  0.0960481778603891   T   T   T
  0.0747388292651315  0.5008743201766168  0.0973581234030057   T   T   T
  0.1551853919441269  0.3529565346719273  0.0988337688975476   T   T   T
  0.0801599163910878  0.7989688850587442  0.0950412781542430   T   T   T
  0.3460184212476795  0.1626011587140098  0.0980578455493821   T   T   T
  0.4947166494197474  0.9173119683447517  0.0971944449105838   T   T   T
  0.3461690966714896  0.8359716704890852  0.0957431872660198   T   T   T
  0.7869371143246395  0.0874171882476985  0.0951638479499968   T   T   T
  0.6375079665651565  0.1675142803954042  0.0962726113193470   T   T   T
  0.7905436266871386  0.9201159931821430  0.0962290367381839   T   T   T
  0.8301545365012998  0.6532140654898061  0.0977744123634409   T   T   T
  0.8256967622804898  0.3572633522387900  0.0957051800636304   T   T   T
  0.6436959980682682  0.8373190370046218  0.0984996320895513   T   T   T
  0.3249462362333970  0.3291952791886296  0.1027924438798607   T   T   T
  0.3242840630578924  0.6724498626792267  0.0962369346103719   T   T   T
  0.6584986372951120  0.3356092479331798  0.0974883188165627   T   T   T
  0.4942800851742802  0.0835951238280982  0.0970516040175834   T   T   T
  0.9069683035390207  0.5036926983287330  0.0967811896764205   T   T   T
  0.6695011341990678  0.6734841388252608  0.1012837763940918   T   T   T
  0.1971481091645555  0.9157781516532409  0.0946854097489072   T   T   T
  0.4885864541439804  0.4962358225977843  0.1219963483178719   T   T   T
 
  0.00000000E+00  0.00000000E+00  0.00000000E+00
  0.00000000E+00  0.00000000E+00  0.00000000E+00
  0.00000000E+00  0.00000000E+00  0.00000000E+00
  0.00000000E+00  0.00000000E+00  0.00000000E+00
  0.00000000E+00  0.00000000E+00  0.00000000E+00
  0.00000000E+00  0.00000000E+00  0.00000000E+00
  0.00000000E+00  0.00000000E+00  0.00000000E+00
  0.00000000E+00  0.00000000E+00  0.00000000E+00
  0.00000000E+00  0.00000000E+00  0.00000000E+00
  0.00000000E+00  0.00000000E+00  0.00000000E+00
  0.00000000E+00  0.00000000E+00  0.00000000E+00
  0.00000000E+00  0.00000000E+00  0.00000000E+00
  0.00000000E+00  0.00000000E+00  0.00000000E+00
  0.00000000E+00  0.00000000E+00  0.00000000E+00
  0.00000000E+00  0.00000000E+00  0.00000000E+00
  0.00000000E+00  0.00000000E+00  0.00000000E+00
  0.00000000E+00  0.00000000E+00  0.00000000E+00
  0.00000000E+00  0.00000000E+00  0.00000000E+00
  0.00000000E+00  0.00000000E+00  0.00000000E+00
  0.00000000E+00  0.00000000E+00  0.00000000E+00
  0.00000000E+00  0.00000000E+00  0.00000000E+00
  0.00000000E+00  0.00000000E+00  0.00000000E+00
  0.00000000E+00  0.00000000E+00  0.00000000E+00
  0.00000000E+00  0.00000000E+00  0.00000000E+00
  0.00000000E+00  0.00000000E+00  0.00000000E+00
