Title                                   
   1.00000000000000     
     9.8694509999999998    0.0000000000000000    0.0000000000000000
     0.0000000000000000    8.5490480000000009    0.0000000000000000
     0.0000000000000000    0.0000000000000000   20.0000000000000000
    26     4     1
Selective dynamics
Direct
  0.0550765573809582  0.0912262762281002  0.0945863354245385   T   T   T
  0.9299938057229206  0.1737255243288151  0.0891639335759896   T   T   T
  0.0571402298674796  0.9232615475768733  0.0945358134604549   T   T   T
  0.9317343045373079  0.3404479849075506  0.0908306662804510   T   T   T
  0.0560180578845174  0.5903883542923704  0.0968092224908176   T   T   T
  0.9329475362998657  0.6747220561463841  0.0917270677125868   T   T   T
  0.0559003145815938  0.4227414662897908  0.0967080092469428   T   T   T
  0.9321625773165927  0.8402387903113433  0.0901884999160799   T   T   T
  0.3066400549000003  0.0887235835608271  0.1033089130862750   T   T   T
  0.1795097700223321  0.1714769029046301  0.1009017588498972   T   T   T
  0.1802036631909919  0.3387984842393197  0.1020372249194463   T   T   T
  0.3028724218199744  0.5887308386771029  0.1079323371340261   T   T   T
  0.1803329903851962  0.6734526307574931  0.1012657952544297   T   T   T
  0.3039946105111398  0.4221084336277771  0.1090408713200329   T   T   T
  0.1804468797563674  0.8401673331461175  0.0997245075410722   T   T   T
  0.5530540516754445  0.0891582543235875  0.0944100493996001   T   T   T
  0.4288655609703878  0.1755808176634597  0.1051607188956583   T   T   T
  0.5528302516196656  0.9188564538902996  0.0944937830190394   T   T   T
  0.4280630535580523  0.8328116066344905  0.1036252794673062   T   T   T
  0.8037969337401342  0.0893118217267236  0.0847301411357902   T   T   T
  0.6780242998714794  0.1715623970572168  0.0837615183896355   T   T   T
  0.8049410945105022  0.9229177210461222  0.0858874409196312   T   T   T
  0.6815529162330042  0.3375211887244615  0.0808384307838536   T   T   T
  0.8083327730486072  0.5935041058428213  0.0847617184789080   T   T   T
  0.8058465652756506  0.4241185375767487  0.0838387310996268   T   T   T
  0.6806585621184889  0.8387635371291573  0.0857550872812756   T   T   T
  0.4262845385340343  0.3401639643417819  0.1159201839037574   T   T   T
  0.6860616117237988  0.6765870202140372  0.0823871743726503   T   T   T
  0.4239627404509616  0.6729438499979504  0.1133816709296358   T   T   T
  0.3070777262251281  0.9217999830157219  0.1019420204530166   T   T   T
  0.5888085462674327  0.5050635338209378  0.1313100952576111   T   T   T
 
  0.00000000E+00  0.00000000E+00  0.00000000E+00
  0.00000000E+00  0.00000000E+00  0.00000000E+00
  0.00000000E+00  0.00000000E+00  0.00000000E+00
  0.00000000E+00  0.00000000E+00  0.00000000E+00
  0.00000000E+00  0.00000000E+00  0.00000000E+00
  0.00000000E+00  0.00000000E+00  0.00000000E+00
  0.00000000E+00  0.00000000E+00  0.00000000E+00
  0.00000000E+00  0.00000000E+00  0.00000000E+00
  0.00000000E+00  0.00000000E+00  0.00000000E+00
  0.00000000E+00  0.00000000E+00  0.00000000E+00
  0.00000000E+00  0.00000000E+00  0.00000000E+00
  0.00000000E+00  0.00000000E+00  0.00000000E+00
  0.00000000E+00  0.00000000E+00  0.00000000E+00
  0.00000000E+00  0.00000000E+00  0.00000000E+00
  0.00000000E+00  0.00000000E+00  0.00000000E+00
  0.00000000E+00  0.00000000E+00  0.00000000E+00
  0.00000000E+00  0.00000000E+00  0.00000000E+00
  0.00000000E+00  0.00000000E+00  0.00000000E+00
  0.00000000E+00  0.00000000E+00  0.00000000E+00
  0.00000000E+00  0.00000000E+00  0.00000000E+00
  0.00000000E+00  0.00000000E+00  0.00000000E+00
  0.00000000E+00  0.00000000E+00  0.00000000E+00
  0.00000000E+00  0.00000000E+00  0.00000000E+00
  0.00000000E+00  0.00000000E+00  0.00000000E+00
  0.00000000E+00  0.00000000E+00  0.00000000E+00
  0.00000000E+00  0.00000000E+00  0.00000000E+00
  0.00000000E+00  0.00000000E+00  0.00000000E+00
  0.00000000E+00  0.00000000E+00  0.00000000E+00
  0.00000000E+00  0.00000000E+00  0.00000000E+00
  0.00000000E+00  0.00000000E+00  0.00000000E+00
  0.00000000E+00  0.00000000E+00  0.00000000E+00
