Title                                   
   1.00000000000000     
     8.5490480000000009    0.0000000000000000    0.0000000000000000
     0.0000000000000000    8.5490480000000009    0.0000000000000000
     0.0000000000000000    0.0000000000000000   20.0000000000000000
    20     4     1
Selective dynamics
Direct
  0.9061627314450835  0.2091240962750535  0.0975934124308542   T   T   T
  0.9178332267567404  0.8048937795388773  0.0976421456386973   T   T   T
  0.1925733635140399  0.0779574454576433  0.0977860554533548   T   T   T
  0.0696008584697951  0.1973408759316216  0.0977492780662247   T   T   T
  0.1602669041034751  0.6457105804152851  0.0979159545670360   T   T   T
  0.0763035272590020  0.5000200991680985  0.0979251456724299   T   T   T
  0.1527556992563122  0.3471226148049371  0.0979438884991359   T   T   T
  0.0823274905518052  0.7976004734700606  0.0977733005037951   T   T   T
  0.4912925569309521  0.0869512070337659  0.0977209503423144   T   T   T
  0.3368143211156396  0.1616629648572389  0.0978752202212814   T   T   T
  0.4956484360102945  0.9158786077979387  0.0976534405981205   T   T   T
  0.3490761427131847  0.8315710614502952  0.0978150290702764   T   T   T
  0.7849975004796242  0.0890682675423951  0.0975836641382755   T   T   T
  0.6358308313467103  0.1700348939341901  0.0976619718485278   T   T   T
  0.7935044003004602  0.9245497820273421  0.0975805693266031   T   T   T
  0.8344362842098448  0.6562789692568934  0.0976196222586156   T   T   T
  0.8249672924069107  0.3607446134990642  0.0976536758344027   T   T   T
  0.6472542915070327  0.8384711548074467  0.0975397176315204   T   T   T
  0.3258491425932508  0.6678922404089521  0.0979210229048654   T   T   T
  0.6606383416551299  0.3398429439916859  0.0976965671343574   T   T   T
  0.9092675083264777  0.5061955324146479  0.0977537922952275   T   T   T
  0.3098454473631231  0.3220162198624656  0.0981124764399831   T   T   T
  0.6770199133267136  0.6786832211429105  0.0975049182278946   T   T   T
  0.1993816552682096  0.9127545879325720  0.0978217714161820   T   T   T
  0.4917641330901733  0.5024237669786324  0.0978614094800044   T   T   T
 
  0.00000000E+00  0.00000000E+00  0.00000000E+00
  0.00000000E+00  0.00000000E+00  0.00000000E+00
  0.00000000E+00  0.00000000E+00  0.00000000E+00
  0.00000000E+00  0.00000000E+00  0.00000000E+00
  0.00000000E+00  0.00000000E+00  0.00000000E+00
  0.00000000E+00  0.00000000E+00  0.00000000E+00
  0.00000000E+00  0.00000000E+00  0.00000000E+00
  0.00000000E+00  0.00000000E+00  0.00000000E+00
  0.00000000E+00  0.00000000E+00  0.00000000E+00
  0.00000000E+00  0.00000000E+00  0.00000000E+00
  0.00000000E+00  0.00000000E+00  0.00000000E+00
  0.00000000E+00  0.00000000E+00  0.00000000E+00
  0.00000000E+00  0.00000000E+00  0.00000000E+00
  0.00000000E+00  0.00000000E+00  0.00000000E+00
  0.00000000E+00  0.00000000E+00  0.00000000E+00
  0.00000000E+00  0.00000000E+00  0.00000000E+00
  0.00000000E+00  0.00000000E+00  0.00000000E+00
  0.00000000E+00  0.00000000E+00  0.00000000E+00
  0.00000000E+00  0.00000000E+00  0.00000000E+00
  0.00000000E+00  0.00000000E+00  0.00000000E+00
  0.00000000E+00  0.00000000E+00  0.00000000E+00
  0.00000000E+00  0.00000000E+00  0.00000000E+00
  0.00000000E+00  0.00000000E+00  0.00000000E+00
  0.00000000E+00  0.00000000E+00  0.00000000E+00
  0.00000000E+00  0.00000000E+00  0.00000000E+00
