Title                                   
   1.00000000000000     
     8.5490480000000009    0.0000000000000000    0.0000000000000000
     0.0000000000000000    8.5490480000000009    0.0000000000000000
     0.0000000000000000    0.0000000000000000   20.0000000000000000
    21     3     1
Selective dynamics
Direct
  0.9098313709080561  0.2053891863116545  0.0954516450970174   T   T   T
  0.9053114758590287  0.5030451135268832  0.0953039412965126   T   T   T
  0.9093642341232269  0.7985996533076630  0.0954645091358635   T   T   T
  0.1976817473331088  0.0835857266557891  0.0954764033138259   T   T   T
  0.0748105102789656  0.2064135103669815  0.0954571050191862   T   T   T
  0.1966541403073273  0.9186078183360984  0.0954807262573219   T   T   T
  0.1567235941623510  0.6512231690520408  0.0953365674793985   T   T   T
  0.0759953326802159  0.5026990576885386  0.0953247407050870   T   T   T
  0.1560414494325955  0.3556052045488759  0.0953680003229594   T   T   T
  0.0763457699937195  0.7976035737648285  0.0954644208522786   T   T   T
  0.4938853993717700  0.0847835862500572  0.0953574192003024   T   T   T
  0.3468211533009741  0.1648589710293723  0.0953918892012617   T   T   T
  0.4942447148835059  0.9140782023218592  0.0953521164376369   T   T   T
  0.3454421661499912  0.8350228321723694  0.0953559993244931   T   T   T
  0.7888004778056035  0.0851075537162235  0.0954654985731917   T   T   T
  0.6424064013374429  0.1655108045883447  0.0953188942521266   T   T   T
  0.7898252810056972  0.9181242105103160  0.0954713103778471   T   T   T
  0.8271479150525106  0.6512990725360918  0.0953113833523160   T   T   T
  0.8262751088616613  0.3542082062543889  0.0952964024078037   T   T   T
  0.6425016545797182  0.8358956786971710  0.0953247287800548   T   T   T
  0.3235475745537386  0.3323464627955329  0.0953126795379114   T   T   T
  0.3210963593379901  0.6739084689181706  0.0952049144544607   T   T   T
  0.6651487265661081  0.3298440456498835  0.0951637148631576   T   T   T
  0.6656854357746351  0.6744465266391342  0.0951809954744641   T   T   T
  0.4938240063400508  0.5025833643617449  0.0950689942834989   T   T   T
 
  0.00000000E+00  0.00000000E+00  0.00000000E+00
  0.00000000E+00  0.00000000E+00  0.00000000E+00
  0.00000000E+00  0.00000000E+00  0.00000000E+00
  0.00000000E+00  0.00000000E+00  0.00000000E+00
  0.00000000E+00  0.00000000E+00  0.00000000E+00
  0.00000000E+00  0.00000000E+00  0.00000000E+00
  0.00000000E+00  0.00000000E+00  0.00000000E+00
  0.00000000E+00  0.00000000E+00  0.00000000E+00
  0.00000000E+00  0.00000000E+00  0.00000000E+00
  0.00000000E+00  0.00000000E+00  0.00000000E+00
  0.00000000E+00  0.00000000E+00  0.00000000E+00
  0.00000000E+00  0.00000000E+00  0.00000000E+00
  0.00000000E+00  0.00000000E+00  0.00000000E+00
  0.00000000E+00  0.00000000E+00  0.00000000E+00
  0.00000000E+00  0.00000000E+00  0.00000000E+00
  0.00000000E+00  0.00000000E+00  0.00000000E+00
  0.00000000E+00  0.00000000E+00  0.00000000E+00
  0.00000000E+00  0.00000000E+00  0.00000000E+00
  0.00000000E+00  0.00000000E+00  0.00000000E+00
  0.00000000E+00  0.00000000E+00  0.00000000E+00
  0.00000000E+00  0.00000000E+00  0.00000000E+00
  0.00000000E+00  0.00000000E+00  0.00000000E+00
  0.00000000E+00  0.00000000E+00  0.00000000E+00
  0.00000000E+00  0.00000000E+00  0.00000000E+00
  0.00000000E+00  0.00000000E+00  0.00000000E+00
