Title                                   
   1.00000000000000     
     9.8694509999999998    0.0000000000000000    0.0000000000000000
     0.0000000000000000    8.5490480000000009    0.0000000000000000
     0.0000000000000000    0.0000000000000000   20.0000000000000000
    27     3     1
Selective dynamics
Direct
  0.0554267388659047  0.0881820606380316  0.0945657381004900   T   T   T
  0.9307781813075439  0.1715699067430084  0.0946054728036064   T   T   T
  0.0570788840007682  0.9230419799392733  0.0945630295906077   T   T   T
  0.9340856546992194  0.3388170333616425  0.0944941588956529   T   T   T
  0.0573990542777168  0.5900045398406180  0.0942978112677678   T   T   T
  0.9336041735621102  0.6738289185444313  0.0945205288522257   T   T   T
  0.0576167934995386  0.4229362981420963  0.0942997154389838   T   T   T
  0.9316496417282434  0.8403888940582334  0.0946193521805431   T   T   T
  0.3060426240111505  0.0878174868918533  0.0947956359494204   T   T   T
  0.1813735546233360  0.1697858542024422  0.0946095923186875   T   T   T
  0.1806831835421554  0.3373571023428160  0.0945033583425363   T   T   T
  0.3051155647154607  0.5882175764490953  0.0948895211462837   T   T   T
  0.1818916288188871  0.6730002679258255  0.0944849960125240   T   T   T
  0.3032892259440237  0.4179527253678893  0.0948401330560930   T   T   T
  0.1825308878655281  0.8399355779098243  0.0945818694255863   T   T   T
  0.4296387642916405  0.1775102250405727  0.0950465446375240   T   T   T
  0.5539824717432260  0.9251157630744681  0.0952560175782385   T   T   T
  0.4290265389485883  0.6699856907006588  0.0954585250263653   T   T   T
  0.4302743421940941  0.8375077166433031  0.0952210742727998   T   T   T
  0.8041611203616875  0.0898610633415284  0.0948394854983666   T   T   T
  0.6806782991051201  0.1804491484083885  0.0950758074466403   T   T   T
  0.8053101209568084  0.9222643358397065  0.0948708942690655   T   T   T
  0.6845960835240084  0.3454369913480493  0.0953317461549484   T   T   T
  0.8110310360456157  0.5906564206234688  0.0949118730341062   T   T   T
  0.6833862946466016  0.6674121615807929  0.0953666896956585   T   T   T
  0.8120019240336113  0.4215798669146825  0.0948965670021311   T   T   T
  0.6794536151995673  0.8360544872594486  0.0951963759180504   T   T   T
  0.5546507461059920  0.0943878856938246  0.0950697250629138   T   T   T
  0.4245495360381447  0.3375251669539979  0.0951892498291544   T   T   T
  0.3058041891055146  0.9223332969831674  0.0947672306760068   T   T   T
  0.5560241262382098  0.5099585572368827  0.0957962805170704   T   T   T
 
  0.00000000E+00  0.00000000E+00  0.00000000E+00
  0.00000000E+00  0.00000000E+00  0.00000000E+00
  0.00000000E+00  0.00000000E+00  0.00000000E+00
  0.00000000E+00  0.00000000E+00  0.00000000E+00
  0.00000000E+00  0.00000000E+00  0.00000000E+00
  0.00000000E+00  0.00000000E+00  0.00000000E+00
  0.00000000E+00  0.00000000E+00  0.00000000E+00
  0.00000000E+00  0.00000000E+00  0.00000000E+00
  0.00000000E+00  0.00000000E+00  0.00000000E+00
  0.00000000E+00  0.00000000E+00  0.00000000E+00
  0.00000000E+00  0.00000000E+00  0.00000000E+00
  0.00000000E+00  0.00000000E+00  0.00000000E+00
  0.00000000E+00  0.00000000E+00  0.00000000E+00
  0.00000000E+00  0.00000000E+00  0.00000000E+00
  0.00000000E+00  0.00000000E+00  0.00000000E+00
  0.00000000E+00  0.00000000E+00  0.00000000E+00
  0.00000000E+00  0.00000000E+00  0.00000000E+00
  0.00000000E+00  0.00000000E+00  0.00000000E+00
  0.00000000E+00  0.00000000E+00  0.00000000E+00
  0.00000000E+00  0.00000000E+00  0.00000000E+00
  0.00000000E+00  0.00000000E+00  0.00000000E+00
  0.00000000E+00  0.00000000E+00  0.00000000E+00
  0.00000000E+00  0.00000000E+00  0.00000000E+00
  0.00000000E+00  0.00000000E+00  0.00000000E+00
  0.00000000E+00  0.00000000E+00  0.00000000E+00
  0.00000000E+00  0.00000000E+00  0.00000000E+00
  0.00000000E+00  0.00000000E+00  0.00000000E+00
  0.00000000E+00  0.00000000E+00  0.00000000E+00
  0.00000000E+00  0.00000000E+00  0.00000000E+00
  0.00000000E+00  0.00000000E+00  0.00000000E+00
  0.00000000E+00  0.00000000E+00  0.00000000E+00
