Title                                   
   1.00000000000000     
     9.8694509999999998    0.0000000000000000    0.0000000000000000
     0.0000000000000000    8.5490480000000009    0.0000000000000000
     0.0000000000000000    0.0000000000000000   20.0000000000000000
    29     2     1
Selective dynamics
Direct
  0.0566041619790279  0.0911634776553342  0.0853616212278228   T   T   T
  0.9313261327193888  0.1725546747800365  0.0871186143437357   T   T   T
  0.0552543355417080  0.9241760234252316  0.0851367478574677   T   T   T
  0.9309579440537633  0.3391325588311885  0.0901582228637677   T   T   T
  0.0562920168322298  0.5891980323325291  0.0882824946290170   T   T   T
  0.9316802943556211  0.6720533291212871  0.0901187954492095   T   T   T
  0.0574515972598721  0.4232702528778398  0.0895785974099122   T   T   T
  0.9308082030140740  0.8387712016794583  0.0879853312008185   T   T   T
  0.3054174320489814  0.0917225616951980  0.0872879203664897   T   T   T
  0.1818191236860630  0.1755955252559152  0.0871394933000218   T   T   T
  0.3033975981435790  0.9257846611786231  0.0884397061359257   T   T   T
  0.1843906954840279  0.3428170669268845  0.0908947301468298   T   T   T
  0.3051038627768103  0.5957476248194926  0.0989251968066823   T   T   T
  0.1800607723719559  0.6745874321498476  0.0894587203012071   T   T   T
  0.3109407384072961  0.4264726068722238  0.0976888929082010   T   T   T
  0.1793053944705802  0.8414081343333257  0.0871069480099217   T   T   T
  0.5555176244864005  0.0850385354538774  0.0932094387485853   T   T   T
  0.4316679272188274  0.1714195616115438  0.0915750552199351   T   T   T
  0.5540063834101139  0.9202604769975015  0.0977624933974004   T   T   T
  0.4358993181725859  0.3360849094213429  0.0993411756940872   T   T   T
  0.4250813596336725  0.8418294129609351  0.0983501418522335   T   T   T
  0.8072974656738375  0.0875138025895456  0.0883570097283538   T   T   T
  0.6817683938700336  0.1674910505141466  0.0919421571136233   T   T   T
  0.8062842774716645  0.9215253398480588  0.0904677248470629   T   T   T
  0.6811417316806354  0.3314382972099863  0.0989760351999772   T   T   T
  0.8076831644610581  0.5881292302378476  0.0994280226835532   T   T   T
  0.6906961550674915  0.6773259777455328  0.1121831900992382   T   T   T
  0.8058634401517278  0.4200503137637163  0.0968720758266023   T   T   T
  0.6814959700790160  0.8388067283506743  0.0999048641281917   T   T   T
  0.4184354655990566  0.6856342942274479  0.1106446154429100   T   T   T
  0.5602513372160179  0.4045526009566799  0.1103064968918699   T   T   T
  0.5557386826628885  0.5886903041767558  0.1556724701693800   T   T   T
 
  0.00000000E+00  0.00000000E+00  0.00000000E+00
  0.00000000E+00  0.00000000E+00  0.00000000E+00
  0.00000000E+00  0.00000000E+00  0.00000000E+00
  0.00000000E+00  0.00000000E+00  0.00000000E+00
  0.00000000E+00  0.00000000E+00  0.00000000E+00
  0.00000000E+00  0.00000000E+00  0.00000000E+00
  0.00000000E+00  0.00000000E+00  0.00000000E+00
  0.00000000E+00  0.00000000E+00  0.00000000E+00
  0.00000000E+00  0.00000000E+00  0.00000000E+00
  0.00000000E+00  0.00000000E+00  0.00000000E+00
  0.00000000E+00  0.00000000E+00  0.00000000E+00
  0.00000000E+00  0.00000000E+00  0.00000000E+00
  0.00000000E+00  0.00000000E+00  0.00000000E+00
  0.00000000E+00  0.00000000E+00  0.00000000E+00
  0.00000000E+00  0.00000000E+00  0.00000000E+00
  0.00000000E+00  0.00000000E+00  0.00000000E+00
  0.00000000E+00  0.00000000E+00  0.00000000E+00
  0.00000000E+00  0.00000000E+00  0.00000000E+00
  0.00000000E+00  0.00000000E+00  0.00000000E+00
  0.00000000E+00  0.00000000E+00  0.00000000E+00
  0.00000000E+00  0.00000000E+00  0.00000000E+00
  0.00000000E+00  0.00000000E+00  0.00000000E+00
  0.00000000E+00  0.00000000E+00  0.00000000E+00
  0.00000000E+00  0.00000000E+00  0.00000000E+00
  0.00000000E+00  0.00000000E+00  0.00000000E+00
  0.00000000E+00  0.00000000E+00  0.00000000E+00
  0.00000000E+00  0.00000000E+00  0.00000000E+00
  0.00000000E+00  0.00000000E+00  0.00000000E+00
  0.00000000E+00  0.00000000E+00  0.00000000E+00
  0.00000000E+00  0.00000000E+00  0.00000000E+00
  0.00000000E+00  0.00000000E+00  0.00000000E+00
  0.00000000E+00  0.00000000E+00  0.00000000E+00
