Title                                   
   1.00000000000000     
     9.8694509999999998    0.0000000000000000    0.0000000000000000
     0.0000000000000000    8.5490480000000009    0.0000000000000000
     0.0000000000000000    0.0000000000000000   20.0000000000000000
    28     3     1
Selective dynamics
Direct
  0.0562409967037504  0.0925158430900491  0.0837533723315915   T   T   T
  0.9308432251949671  0.1749053530974588  0.0863461267697271   T   T   T
  0.0562398016016857  0.9250952746720943  0.0825533867546060   T   T   T
  0.9294021005639128  0.3416309987165429  0.0899838490111006   T   T   T
  0.0562304565919984  0.5894051780760265  0.0853501896699162   T   T   T
  0.9329387661500518  0.6739568259937435  0.0868406636875025   T   T   T
  0.0562310983454010  0.4233310076791123  0.0881760373532905   T   T   T
  0.9324655413107230  0.8406208848040516  0.0850411919719738   T   T   T
  0.3057108629686509  0.0895114862776845  0.0877147360527709   T   T   T
  0.1816487917016525  0.1748813337789235  0.0863118450386065   T   T   T
  0.3047107010265856  0.9237145762041967  0.0884821438683260   T   T   T
  0.1830589056363011  0.3416172923432414  0.0899739730256920   T   T   T
  0.3033122222179516  0.5937677650657727  0.0986236746534977   T   T   T
  0.1795204115206022  0.6739753463132925  0.0868153713977608   T   T   T
  0.3091362701886253  0.4246754729780287  0.0976478537807776   T   T   T
  0.1799986986639941  0.8406291396685235  0.0850024902370861   T   T   T
  0.5562340857917486  0.0828314919112274  0.0959680332123620   T   T   T
  0.4314522575310807  0.1685000447858625  0.0934578918450418   T   T   T
  0.5562240275585952  0.9159474143529519  0.1009243341199264   T   T   T
  0.4337569673495130  0.3339969102637625  0.1007705613502669   T   T   T
  0.4256400938580291  0.8378038515175085  0.1006394827473903   T   T   T
  0.8067962140188571  0.0895137570407620  0.0877827570916040   T   T   T
  0.6810414904514756  0.1684889139714991  0.0935005398343373   T   T   T
  0.8077912882926802  0.9237209213940052  0.0885671959541278   T   T   T
  0.6787220651037257  0.3339899016840521  0.1007849124326690   T   T   T
  0.8091634741862828  0.5937531359972906  0.0986596070624913   T   T   T
  0.8033317802017751  0.4246677736115504  0.0976515720480121   T   T   T
  0.6868375265195470  0.8378103773216928  0.1006824885203762   T   T   T
  0.4145372317854130  0.6816686029818176  0.1130198456360738   T   T   T
  0.5562330614846260  0.4036154107653587  0.1121170403144574   T   T   T
  0.6979379341673381  0.6816622063625737  0.1130411503825342   T   T   T
  0.5562506513124635  0.5880415072793517  0.1594906818441379   T   T   T
 
  0.00000000E+00  0.00000000E+00  0.00000000E+00
  0.00000000E+00  0.00000000E+00  0.00000000E+00
  0.00000000E+00  0.00000000E+00  0.00000000E+00
  0.00000000E+00  0.00000000E+00  0.00000000E+00
  0.00000000E+00  0.00000000E+00  0.00000000E+00
  0.00000000E+00  0.00000000E+00  0.00000000E+00
  0.00000000E+00  0.00000000E+00  0.00000000E+00
  0.00000000E+00  0.00000000E+00  0.00000000E+00
  0.00000000E+00  0.00000000E+00  0.00000000E+00
  0.00000000E+00  0.00000000E+00  0.00000000E+00
  0.00000000E+00  0.00000000E+00  0.00000000E+00
  0.00000000E+00  0.00000000E+00  0.00000000E+00
  0.00000000E+00  0.00000000E+00  0.00000000E+00
  0.00000000E+00  0.00000000E+00  0.00000000E+00
  0.00000000E+00  0.00000000E+00  0.00000000E+00
  0.00000000E+00  0.00000000E+00  0.00000000E+00
  0.00000000E+00  0.00000000E+00  0.00000000E+00
  0.00000000E+00  0.00000000E+00  0.00000000E+00
  0.00000000E+00  0.00000000E+00  0.00000000E+00
  0.00000000E+00  0.00000000E+00  0.00000000E+00
  0.00000000E+00  0.00000000E+00  0.00000000E+00
  0.00000000E+00  0.00000000E+00  0.00000000E+00
  0.00000000E+00  0.00000000E+00  0.00000000E+00
  0.00000000E+00  0.00000000E+00  0.00000000E+00
  0.00000000E+00  0.00000000E+00  0.00000000E+00
  0.00000000E+00  0.00000000E+00  0.00000000E+00
  0.00000000E+00  0.00000000E+00  0.00000000E+00
  0.00000000E+00  0.00000000E+00  0.00000000E+00
  0.00000000E+00  0.00000000E+00  0.00000000E+00
  0.00000000E+00  0.00000000E+00  0.00000000E+00
  0.00000000E+00  0.00000000E+00  0.00000000E+00
  0.00000000E+00  0.00000000E+00  0.00000000E+00
