Title                                   
   1.00000000000000     
     4.9440799999999996    0.0000000000000000    0.0000000000000000
     0.0000000000000000    8.5647549999999999    0.0000000000000000
     0.0000000000000000    0.0000000000000000   20.0000000000000000
    12     2     1
Selective dynamics
Direct
  0.0017184279691612  0.2948024411472830  0.1004353000237813   T   T   T
  0.2525168255020556  0.0411562661335402  0.1004913375657020   T   T   T
  0.0018045265640892  0.9555543415578134  0.1006145550348968   T   T   T
  0.7510346073685147  0.2082147248989189  0.1005056064538628   T   T   T
  0.4993252111177353  0.2932445135518748  0.1004535480157265   T   T   T
  0.7524750973595352  0.0402445785661379  0.1005705451711513   T   T   T
  0.7460206211941874  0.7138865825282199  0.1007050196069390   T   T   T
  0.7437898842467524  0.5385040353637317  0.1006129381938733   T   T   T
  0.5044226968596806  0.9545708876518454  0.1005355909088358   T   T   T
  0.4964076423574988  0.4587630367665564  0.1005226749673222   T   T   T
 -0.0017836507034560  0.4620326798120502  0.1004514043486098   T   T   T
 -0.0040271902947434  0.7888174471752852  0.1006947540941164   T   T   T
  0.5073024228697935  0.7915962609680317  0.1005731515474414   T   T   T
  0.2518816015282939  0.2063238130272566  0.1004403435590601   T   T   T
  0.2471112760609014  0.6239693908514572  0.1003732305086847   T   T   T
 
  0.00000000E+00  0.00000000E+00  0.00000000E+00
  0.00000000E+00  0.00000000E+00  0.00000000E+00
  0.00000000E+00  0.00000000E+00  0.00000000E+00
  0.00000000E+00  0.00000000E+00  0.00000000E+00
  0.00000000E+00  0.00000000E+00  0.00000000E+00
  0.00000000E+00  0.00000000E+00  0.00000000E+00
  0.00000000E+00  0.00000000E+00  0.00000000E+00
  0.00000000E+00  0.00000000E+00  0.00000000E+00
  0.00000000E+00  0.00000000E+00  0.00000000E+00
  0.00000000E+00  0.00000000E+00  0.00000000E+00
  0.00000000E+00  0.00000000E+00  0.00000000E+00
  0.00000000E+00  0.00000000E+00  0.00000000E+00
  0.00000000E+00  0.00000000E+00  0.00000000E+00
  0.00000000E+00  0.00000000E+00  0.00000000E+00
  0.00000000E+00  0.00000000E+00  0.00000000E+00
