Title                                   
   1.00000000000000     
     9.8694509999999998    0.0000000000000000    0.0000000000000000
     0.0000000000000000    8.5490480000000009    0.0000000000000000
     0.0000000000000000    0.0000000000000000   20.0000000000000000
    27     4     1
Selective dynamics
Direct
  0.0563798847170635  0.0914819911320476  0.0804780123125907   T   T   T
  0.9312210979481421  0.1750360126580926  0.0814658983941126   T   T   T
  0.0571987112844604  0.9230119621609441  0.0800384598161334   T   T   T
  0.9305511536956756  0.3419986940515165  0.0858694773644892   T   T   T
  0.0564696188496739  0.5912820901245186  0.0861454231460150   T   T   T
  0.0562057723534223  0.4245610154021361  0.0873468245560787   T   T   T
  0.9333054464228446  0.8393535810939758  0.0817310703360327   T   T   T
  0.3060647391933883  0.0889470453762112  0.0858794238537494   T   T   T
  0.1820828204530884  0.1740100142830365  0.0854364768206212   T   T   T
  0.1828853489695585  0.3410281416512404  0.0920579331307883   T   T   T
  0.3008639042853850  0.5910268578675479  0.1100084716502483   T   T   T
  0.1804456542578953  0.6741739783150158  0.0908030158763641   T   T   T
  0.3065364172161953  0.4213037536951189  0.1075539730275589   T   T   T
  0.1826666950512355  0.8412864066855175  0.0844564809352938   T   T   T
  0.5559083764731267  0.0852741922737031  0.0907188485152080   T   T   T
  0.5552543369443085  0.9192784609242235  0.0979402909559649   T   T   T
  0.4318878655666190  0.3282291968026350  0.1123029525458340   T   T   T
  0.4245094262608889  0.8421725559336866  0.1063867091102737   T   T   T
  0.8066313739806754  0.0886648794864720  0.0812004653773712   T   T   T
  0.6802758115169855  0.1699253952205167  0.0870492188044592   T   T   T
  0.8075138446632307  0.9231462079410357  0.0831694797503789   T   T   T
  0.6815069092449267  0.3334805134025454  0.1020619768463017   T   T   T
  0.8094710210693729  0.5948177104757161  0.0967622651852128   T   T   T
  0.8050106832836547  0.4254066327304319  0.0954717185012231   T   T   T
  0.6848182682788366  0.8400995537580466  0.0957649403229451   T   T   T
  0.4092618231238154  0.6915960149505957  0.1293140445993087   T   T   T
  0.5582986797069240  0.3912697330429599  0.1278369222496495   T   T   T
  0.6991577346338151  0.6827938083004117  0.1098743159212713   T   T   T
  0.3048994237592856  0.9255186187168465  0.0859599028181483   T   T   T
  0.4292449163185114  0.1659052121714924  0.0930483372899141   T   T   T
  0.9330363934364083  0.6733400549169439  0.0842009908709575   T   T   T
  0.5600748470405912  0.5908257144548182  0.1673406791155179   T   T   T
 
  0.00000000E+00  0.00000000E+00  0.00000000E+00
  0.00000000E+00  0.00000000E+00  0.00000000E+00
  0.00000000E+00  0.00000000E+00  0.00000000E+00
  0.00000000E+00  0.00000000E+00  0.00000000E+00
  0.00000000E+00  0.00000000E+00  0.00000000E+00
  0.00000000E+00  0.00000000E+00  0.00000000E+00
  0.00000000E+00  0.00000000E+00  0.00000000E+00
  0.00000000E+00  0.00000000E+00  0.00000000E+00
  0.00000000E+00  0.00000000E+00  0.00000000E+00
  0.00000000E+00  0.00000000E+00  0.00000000E+00
  0.00000000E+00  0.00000000E+00  0.00000000E+00
  0.00000000E+00  0.00000000E+00  0.00000000E+00
  0.00000000E+00  0.00000000E+00  0.00000000E+00
  0.00000000E+00  0.00000000E+00  0.00000000E+00
  0.00000000E+00  0.00000000E+00  0.00000000E+00
  0.00000000E+00  0.00000000E+00  0.00000000E+00
  0.00000000E+00  0.00000000E+00  0.00000000E+00
  0.00000000E+00  0.00000000E+00  0.00000000E+00
  0.00000000E+00  0.00000000E+00  0.00000000E+00
  0.00000000E+00  0.00000000E+00  0.00000000E+00
  0.00000000E+00  0.00000000E+00  0.00000000E+00
  0.00000000E+00  0.00000000E+00  0.00000000E+00
  0.00000000E+00  0.00000000E+00  0.00000000E+00
  0.00000000E+00  0.00000000E+00  0.00000000E+00
  0.00000000E+00  0.00000000E+00  0.00000000E+00
  0.00000000E+00  0.00000000E+00  0.00000000E+00
  0.00000000E+00  0.00000000E+00  0.00000000E+00
  0.00000000E+00  0.00000000E+00  0.00000000E+00
  0.00000000E+00  0.00000000E+00  0.00000000E+00
  0.00000000E+00  0.00000000E+00  0.00000000E+00
  0.00000000E+00  0.00000000E+00  0.00000000E+00
  0.00000000E+00  0.00000000E+00  0.00000000E+00
