Title                                   
   1.00000000000000     
     9.8694509999999998    0.0000000000000000    0.0000000000000000
     0.0000000000000000    8.5490480000000009    0.0000000000000000
     0.0000000000000000    0.0000000000000000   20.0000000000000000
    28     2     1
Selective dynamics
Direct
  0.0556355517911298  0.0893272151916956  0.0813206902259623   T   T   T
  0.9302495049037804  0.1737673592995246  0.0834380933890316   T   T   T
  0.0568012416404470  0.9229939277510508  0.0813076770685899   T   T   T
  0.9318923976226975  0.3409253001369066  0.0832081808888544   T   T   T
  0.0563978917812225  0.5894540837663420  0.0798047717857839   T   T   T
  0.9329590725453272  0.6748528690369582  0.0837693777642926   T   T   T
  0.0560899910969819  0.4228625818605092  0.0798263046789428   T   T   T
  0.9325007563094949  0.8414963732718334  0.0842529862328909   T   T   T
  0.3053126820009153  0.0882418138197731  0.0909673374596599   T   T   T
  0.1799245343223277  0.1708437678184917  0.0843167575741474   T   T   T
  0.3068913182675885  0.9209651611385413  0.0901212790427957   T   T   T
  0.1795271696277659  0.3374841214574311  0.0838620278998190   T   T   T
  0.3041843151605535  0.5879738879389903  0.0937707499961238   T   T   T
  0.1805857598633643  0.6713875665258545  0.0832506829631978   T   T   T
  0.3022479134838087  0.4166678625864004  0.0950026687259343   T   T   T
  0.1821989535018023  0.8385619334418132  0.0834657955810283   T   T   T
  0.5556151044884754  0.0904477494101186  0.1048815881876127   T   T   T
  0.4263402595597752  0.1744133342188123  0.1023735062130717   T   T   T
  0.5568192083150225  0.9218353129876449  0.1049026459344335   T   T   T
  0.4249094769227281  0.6701562799709918  0.1057615727716759   T   T   T
  0.4301794612460860  0.8351451117972554  0.1007442812724433   T   T   T
  0.8055317616540686  0.0913678942904954  0.0900544352723602   T   T   T
  0.6822338391339244  0.1771780282807376  0.1006319822025352   T   T   T
  0.8071164024166203  0.9240914172682051  0.0908868620501015   T   T   T
  0.6875127783524428  0.3421877089180998  0.1055508272848859   T   T   T
  0.8102350520860578  0.5956393906986891  0.0948602234351543   T   T   T
  0.8082688356148436  0.4243380105115313  0.0936201672535954   T   T   T
  0.6860943643621132  0.8378844036981669  0.1022981555004963   T   T   T
  0.4189005152994579  0.3353695871927309  0.1089958606881139   T   T   T
  0.6936024235330990  0.6769143670963290  0.1088674782564670   T   T   T
  0.5563764630960847  0.5061005786180924  0.1648500324000400   T   T   T
 
  0.00000000E+00  0.00000000E+00  0.00000000E+00
  0.00000000E+00  0.00000000E+00  0.00000000E+00
  0.00000000E+00  0.00000000E+00  0.00000000E+00
  0.00000000E+00  0.00000000E+00  0.00000000E+00
  0.00000000E+00  0.00000000E+00  0.00000000E+00
  0.00000000E+00  0.00000000E+00  0.00000000E+00
  0.00000000E+00  0.00000000E+00  0.00000000E+00
  0.00000000E+00  0.00000000E+00  0.00000000E+00
  0.00000000E+00  0.00000000E+00  0.00000000E+00
  0.00000000E+00  0.00000000E+00  0.00000000E+00
  0.00000000E+00  0.00000000E+00  0.00000000E+00
  0.00000000E+00  0.00000000E+00  0.00000000E+00
  0.00000000E+00  0.00000000E+00  0.00000000E+00
  0.00000000E+00  0.00000000E+00  0.00000000E+00
  0.00000000E+00  0.00000000E+00  0.00000000E+00
  0.00000000E+00  0.00000000E+00  0.00000000E+00
  0.00000000E+00  0.00000000E+00  0.00000000E+00
  0.00000000E+00  0.00000000E+00  0.00000000E+00
  0.00000000E+00  0.00000000E+00  0.00000000E+00
  0.00000000E+00  0.00000000E+00  0.00000000E+00
  0.00000000E+00  0.00000000E+00  0.00000000E+00
  0.00000000E+00  0.00000000E+00  0.00000000E+00
  0.00000000E+00  0.00000000E+00  0.00000000E+00
  0.00000000E+00  0.00000000E+00  0.00000000E+00
  0.00000000E+00  0.00000000E+00  0.00000000E+00
  0.00000000E+00  0.00000000E+00  0.00000000E+00
  0.00000000E+00  0.00000000E+00  0.00000000E+00
  0.00000000E+00  0.00000000E+00  0.00000000E+00
  0.00000000E+00  0.00000000E+00  0.00000000E+00
  0.00000000E+00  0.00000000E+00  0.00000000E+00
  0.00000000E+00  0.00000000E+00  0.00000000E+00
