Title                                   
   1.00000000000000     
     9.8694509999999998    0.0000000000000000    0.0000000000000000
     0.0000000000000000    8.5490480000000009    0.0000000000000000
     0.0000000000000000    0.0000000000000000   20.0000000000000000
    28     3     1
Selective dynamics
Direct
  0.0556982054648307  0.0913689812209069  0.0853722733002421   T   T   T
  0.9302628254862598  0.1747284577413898  0.0880835462462707   T   T   T
  0.0567608275769885  0.9233870800599481  0.0832951300874244   T   T   T
  0.9291553151417635  0.3417367007113162  0.0917939696885532   T   T   T
  0.0555139975318529  0.5896790095117437  0.0871581762628994   T   T   T
  0.9323883671744273  0.6736594016785946  0.0860119535658032   T   T   T
  0.0560560320599092  0.4227670355166426  0.0908071872856102   T   T   T
  0.9317945075996846  0.8408786561018399  0.0834987806926656   T   T   T
  0.3046106129076800  0.0872507911028564  0.0877161728307247   T   T   T
  0.1814033474932963  0.1735192028605397  0.0883950824657482   T   T   T
  0.3068278471592192  0.9216591665829407  0.0877160184249257   T   T   T
  0.1807255189532744  0.3398699304104731  0.0931973021329031   T   T   T
  0.3047662919562666  0.5894944467736747  0.1018212391321102   T   T   T
  0.1812124506927586  0.6706570968281506  0.0886661447599922   T   T   T
  0.1817227420174419  0.8376455548943238  0.0858298085619735   T   T   T
  0.5551125729703900  0.0862315964482392  0.0937684254541635   T   T   T
  0.4294600604450645  0.1683785507836489  0.0929136377943722   T   T   T
  0.4292177347557373  0.3346296004348758  0.1022099886542382   T   T   T
  0.4285687201854017  0.8359527407731330  0.0989351636135195   T   T   T
  0.8061640665064003  0.0905732108637386  0.0871691628892000   T   T   T
  0.6797969935730253  0.1700359251262736  0.0927216944798928   T   T   T
  0.8066589309649606  0.9257074568920023  0.0849018979267579   T   T   T
  0.6768324831594467  0.3359546781907599  0.1011799713752351   T   T   T
  0.8060381651312125  0.5947307269595921  0.0938762052525995   T   T   T
  0.8023315874263595  0.4257846664608372  0.0973200415133550   T   T   T
  0.6838461469455285  0.8406572296644507  0.0924692974920737   T   T   T
  0.4228049738327497  0.6763521236534098  0.1169644142437495   T   T   T
  0.5511110962945337  0.4105406448997027  0.1144144265300577   T   T   T
  0.6893613777905415  0.6835114350257413  0.1011082208154315   T   T   T
  0.5566674133197718  0.9185394137853051  0.0963226036822181   T   T   T
  0.3047920062262337  0.4213098823019157  0.1013489139952304   T   T   T
  0.5819757812569956  0.5930546057410366  0.1886881488500753   T   T   T
 
  0.00000000E+00  0.00000000E+00  0.00000000E+00
  0.00000000E+00  0.00000000E+00  0.00000000E+00
  0.00000000E+00  0.00000000E+00  0.00000000E+00
  0.00000000E+00  0.00000000E+00  0.00000000E+00
  0.00000000E+00  0.00000000E+00  0.00000000E+00
  0.00000000E+00  0.00000000E+00  0.00000000E+00
  0.00000000E+00  0.00000000E+00  0.00000000E+00
  0.00000000E+00  0.00000000E+00  0.00000000E+00
  0.00000000E+00  0.00000000E+00  0.00000000E+00
  0.00000000E+00  0.00000000E+00  0.00000000E+00
  0.00000000E+00  0.00000000E+00  0.00000000E+00
  0.00000000E+00  0.00000000E+00  0.00000000E+00
  0.00000000E+00  0.00000000E+00  0.00000000E+00
  0.00000000E+00  0.00000000E+00  0.00000000E+00
  0.00000000E+00  0.00000000E+00  0.00000000E+00
  0.00000000E+00  0.00000000E+00  0.00000000E+00
  0.00000000E+00  0.00000000E+00  0.00000000E+00
  0.00000000E+00  0.00000000E+00  0.00000000E+00
  0.00000000E+00  0.00000000E+00  0.00000000E+00
  0.00000000E+00  0.00000000E+00  0.00000000E+00
  0.00000000E+00  0.00000000E+00  0.00000000E+00
  0.00000000E+00  0.00000000E+00  0.00000000E+00
  0.00000000E+00  0.00000000E+00  0.00000000E+00
  0.00000000E+00  0.00000000E+00  0.00000000E+00
  0.00000000E+00  0.00000000E+00  0.00000000E+00
  0.00000000E+00  0.00000000E+00  0.00000000E+00
  0.00000000E+00  0.00000000E+00  0.00000000E+00
  0.00000000E+00  0.00000000E+00  0.00000000E+00
  0.00000000E+00  0.00000000E+00  0.00000000E+00
  0.00000000E+00  0.00000000E+00  0.00000000E+00
  0.00000000E+00  0.00000000E+00  0.00000000E+00
  0.00000000E+00  0.00000000E+00  0.00000000E+00
