Title                                   
   1.00000000000000     
     9.8694509999999998    0.0000000000000000    0.0000000000000000
     0.0000000000000000    8.5490480000000009    0.0000000000000000
     0.0000000000000000    0.0000000000000000   20.0000000000000000
    26     4     1
Selective dynamics
Direct
  0.0556780148505253  0.0894089802538706  0.0948591780162114   T   T   T
  0.9303335779064679  0.1715825091035201  0.0951052701058588   T   T   T
  0.0572481356133207  0.9234175239394716  0.0948578469231335   T   T   T
  0.9338895890553044  0.3386029247872049  0.0951146922075993   T   T   T
  0.0582931421839466  0.5899669611153129  0.0947007098918442   T   T   T
  0.9343284629062748  0.6739871192692374  0.0950829391311602   T   T   T
  0.0582249390589099  0.4228050163664522  0.0946919303775998   T   T   T
  0.9313852406162962  0.8404461081647284  0.0950866601113301   T   T   T
  0.3064661723288490  0.0882102332568612  0.0945074194061186   T   T   T
  0.1816337832250716  0.1708697994504577  0.0946183529712617   T   T   T
  0.1816412829349300  0.3395215026886487  0.0945044051037563   T   T   T
  0.3056546264579000  0.5905526762957075  0.0944082361486231   T   T   T
  0.1820709201471064  0.6730152534163195  0.0945296551371547   T   T   T
  0.3052348276756185  0.4206910490128523  0.0944086519379228   T   T   T
  0.1818576632266967  0.8408897460220427  0.0946336081944191   T   T   T
  0.4304282577783367  0.1775546729009619  0.0945981278871073   T   T   T
  0.5525224419928734  0.9212675921391904  0.0948199816312125   T   T   T
  0.4295609712569098  0.8354907705243017  0.0945882070779306   T   T   T
  0.8030918401281724  0.0900820573441781  0.0952150912475147   T   T   T
  0.6793108797773785  0.1798375914498054  0.0951875494910230   T   T   T
  0.8044497049558245  0.9213566477598203  0.0952058513636006   T   T   T
  0.6839148409753389  0.3468393264296806  0.0954494147018827   T   T   T
  0.8122363867563409  0.5904383544187317  0.0954095774903140   T   T   T
  0.6848406745307432  0.6654347070424678  0.0953568547876242   T   T   T
  0.8123694266746359  0.4214394163162338  0.0954613009717947   T   T   T
  0.6793991905448986  0.8337170382303130  0.0951586725958032   T   T   T
  0.5534137075343697  0.0936313422569623  0.0947859795941472   T   T   T
  0.4267050996778975  0.3384516545540062  0.0945748645915796   T   T   T
  0.4254172914933238  0.6724035780144991  0.0945301889406737   T   T   T
  0.3056082914049901  0.9222120414422531  0.0944675760933961   T   T   T
  0.5559256163307641  0.5067508060339115  0.0950462058704508   T   T   T
 
  0.00000000E+00  0.00000000E+00  0.00000000E+00
  0.00000000E+00  0.00000000E+00  0.00000000E+00
  0.00000000E+00  0.00000000E+00  0.00000000E+00
  0.00000000E+00  0.00000000E+00  0.00000000E+00
  0.00000000E+00  0.00000000E+00  0.00000000E+00
  0.00000000E+00  0.00000000E+00  0.00000000E+00
  0.00000000E+00  0.00000000E+00  0.00000000E+00
  0.00000000E+00  0.00000000E+00  0.00000000E+00
  0.00000000E+00  0.00000000E+00  0.00000000E+00
  0.00000000E+00  0.00000000E+00  0.00000000E+00
  0.00000000E+00  0.00000000E+00  0.00000000E+00
  0.00000000E+00  0.00000000E+00  0.00000000E+00
  0.00000000E+00  0.00000000E+00  0.00000000E+00
  0.00000000E+00  0.00000000E+00  0.00000000E+00
  0.00000000E+00  0.00000000E+00  0.00000000E+00
  0.00000000E+00  0.00000000E+00  0.00000000E+00
  0.00000000E+00  0.00000000E+00  0.00000000E+00
  0.00000000E+00  0.00000000E+00  0.00000000E+00
  0.00000000E+00  0.00000000E+00  0.00000000E+00
  0.00000000E+00  0.00000000E+00  0.00000000E+00
  0.00000000E+00  0.00000000E+00  0.00000000E+00
  0.00000000E+00  0.00000000E+00  0.00000000E+00
  0.00000000E+00  0.00000000E+00  0.00000000E+00
  0.00000000E+00  0.00000000E+00  0.00000000E+00
  0.00000000E+00  0.00000000E+00  0.00000000E+00
  0.00000000E+00  0.00000000E+00  0.00000000E+00
  0.00000000E+00  0.00000000E+00  0.00000000E+00
  0.00000000E+00  0.00000000E+00  0.00000000E+00
  0.00000000E+00  0.00000000E+00  0.00000000E+00
  0.00000000E+00  0.00000000E+00  0.00000000E+00
  0.00000000E+00  0.00000000E+00  0.00000000E+00
