Title                                   
   1.00000000000000     
     9.8694509999999998    0.0000000000000000    0.0000000000000000
     0.0000000000000000    8.5490480000000009    0.0000000000000000
     0.0000000000000000    0.0000000000000000   20.0000000000000000
    27     3     1
Selective dynamics
Direct
  0.0554552737117463  0.0899362408483020  0.0845201908837151   T   T   T
  0.9308976223840548  0.1717210392613480  0.0863227064370471   T   T   T
  0.0570092658093298  0.9231355469372540  0.0848975400527158   T   T   T
  0.9341783981707932  0.3387277942851319  0.0846579988677662   T   T   T
  0.0579926647049259  0.5902338033897206  0.0801547952475693   T   T   T
  0.9342112608556106  0.6741468995822978  0.0845407505351169   T   T   T
  0.0581045200837932  0.4229488265667345  0.0800956955052831   T   T   T
  0.9313086835247664  0.8404138591684770  0.0863473068023577   T   T   T
  0.3059263523061906  0.0889058164045839  0.0920139754937137   T   T   T
  0.1807267506679635  0.1711771055819643  0.0854208151696375   T   T   T
  0.1816154254844507  0.3389145692698713  0.0833127022566618   T   T   T
  0.3038548061152238  0.5906423399679857  0.0923600075577994   T   T   T
  0.1819266225271329  0.6737689263979801  0.0835386377690486   T   T   T
  0.3042896371181352  0.4215814726355437  0.0924698104312005   T   T   T
  0.1810777116169373  0.8408548381687789  0.0860791518266036   T   T   T
  0.5543240009793469  0.0912809678380909  0.1045641808894300   T   T   T
  0.4272923724744315  0.1765856124060445  0.1015002119625152   T   T   T
  0.5531208603387803  0.9213294321525125  0.1041862497382173   T   T   T
  0.4267273731625016  0.8349822827413519  0.1014391654042656   T   T   T
  0.8040196428835104  0.0901567002765914  0.0928387199057316   T   T   T
  0.6809733714684864  0.1771597489603653  0.1024579642186457   T   T   T
  0.8041946707250069  0.9215842960500948  0.0926401503591752   T   T   T
  0.6896058476198125  0.3455417975402231  0.1102558529354581   T   T   T
  0.8135636900412867  0.5901253305450702  0.0944152221103746   T   T   T
  0.6893077984978540  0.6666235863671850  0.1091264256041760   T   T   T
  0.8137852502923064  0.4223811123838981  0.0946960945950225   T   T   T
  0.6804487176976372  0.8341487308091817  0.1018736215235578   T   T   T
  0.4212427680186487  0.3393635037807113  0.1065903345001152   T   T   T
  0.4204353722813617  0.6748597863967487  0.1065337355026446   T   T   T
  0.3061365620267019  0.9226120401801574  0.0920207441919453   T   T   T
  0.5593817064112901  0.5050309931058052  0.1390942417225372   T   T   T
 
  0.00000000E+00  0.00000000E+00  0.00000000E+00
  0.00000000E+00  0.00000000E+00  0.00000000E+00
  0.00000000E+00  0.00000000E+00  0.00000000E+00
  0.00000000E+00  0.00000000E+00  0.00000000E+00
  0.00000000E+00  0.00000000E+00  0.00000000E+00
  0.00000000E+00  0.00000000E+00  0.00000000E+00
  0.00000000E+00  0.00000000E+00  0.00000000E+00
  0.00000000E+00  0.00000000E+00  0.00000000E+00
  0.00000000E+00  0.00000000E+00  0.00000000E+00
  0.00000000E+00  0.00000000E+00  0.00000000E+00
  0.00000000E+00  0.00000000E+00  0.00000000E+00
  0.00000000E+00  0.00000000E+00  0.00000000E+00
  0.00000000E+00  0.00000000E+00  0.00000000E+00
  0.00000000E+00  0.00000000E+00  0.00000000E+00
  0.00000000E+00  0.00000000E+00  0.00000000E+00
  0.00000000E+00  0.00000000E+00  0.00000000E+00
  0.00000000E+00  0.00000000E+00  0.00000000E+00
  0.00000000E+00  0.00000000E+00  0.00000000E+00
  0.00000000E+00  0.00000000E+00  0.00000000E+00
  0.00000000E+00  0.00000000E+00  0.00000000E+00
  0.00000000E+00  0.00000000E+00  0.00000000E+00
  0.00000000E+00  0.00000000E+00  0.00000000E+00
  0.00000000E+00  0.00000000E+00  0.00000000E+00
  0.00000000E+00  0.00000000E+00  0.00000000E+00
  0.00000000E+00  0.00000000E+00  0.00000000E+00
  0.00000000E+00  0.00000000E+00  0.00000000E+00
  0.00000000E+00  0.00000000E+00  0.00000000E+00
  0.00000000E+00  0.00000000E+00  0.00000000E+00
  0.00000000E+00  0.00000000E+00  0.00000000E+00
  0.00000000E+00  0.00000000E+00  0.00000000E+00
  0.00000000E+00  0.00000000E+00  0.00000000E+00
