Title                                   
   1.00000000000000     
     4.9440799999999996    0.0000000000000000    0.0000000000000000
     0.0000000000000000   17.1295089999999988    0.0000000000000000
     0.0000000000000000    0.0000000000000000   20.0000000000000000
    30     1
Selective dynamics
Direct
 -0.0000229123117138  0.1041971562655373  0.2965769890545399   T   T   T
  0.2504200244955587  0.1462608232668784  0.2970101434892314   T   T   T
  0.2503614491983352  0.2290410332960977  0.2986721636994848   T   T   T
  0.0004915863808616  0.2715247613035620  0.2994840515438889   T   T   T
  0.0004857050511219  0.6034048222009942  0.2998478915187375   T   T   T
  0.2504337590268147  0.7286678211186812  0.2976220819519492   T   T   T
  0.0000969503304111  0.8539945337091243  0.2970806777819055   T   T   T
  0.2504033851131669  0.8958836626419643  0.2970319523680084   T   T   T
  0.2504053640660787  0.9790257755818934  0.2968017315171815   T   T   T
 -0.0000194084316488  0.7707334191584752  0.2972500211729246   T   T   T
  0.5007619703434009  0.1041787007705028  0.2965763635589223   T   T   T
  0.7503095083352566  0.1459045519323634  0.2966919923060074   T   T   T
  0.7502584702126034  0.2294153617580641  0.2979575874312988   T   T   T
  0.5006146491837841  0.0209320042885397  0.2966238346276842   T   T   T
  0.7502419416554190  0.3943749983656193  0.3003839606211431   T   T   T
  0.7502557841401961  0.4805710244498552  0.3004665072724133   T   T   T
  0.5001043522849102  0.2715381914487970  0.2995221427066939   T   T   T
  0.5001586170890064  0.6033863629476384  0.2998835880022410   T   T   T
  0.7503388979014651  0.7290366306796264  0.2972929256371528   T   T   T
  0.5006205157047320  0.8539842136853830  0.2970767256930804   T   T   T
  0.7503123742687721  0.8957551879242716  0.2969213342490462   T   T   T
  0.7503160464035288  0.9791649679599506  0.2966841265296944   T   T   T
  0.5007923679667906  0.7707485213362549  0.2972502065657540   T   T   T
  0.7502894065594904  0.6455296002768312  0.2984467082813532   T   T   T
  0.2503764695506820  0.6458818215974460  0.2991664683540245   T   T   T
  0.0001081204608730  0.0209271994665979  0.2966315821964992   T   T   T
  0.5039218473912572  0.5209861185778875  0.3027616498642237   T   T   T
  0.9966337759018467  0.5210003619992317  0.3026887270124313   T   T   T
  0.5039092793527270  0.3539317910780930  0.3025738708635130   T   T   T
 -0.0033753831559512  0.3539230949424403  0.3025087798400148   T   T   T
  0.2500020855302227  0.4374374859713937  0.3295732142889082   T   T   T
 
  0.00000000E+00  0.00000000E+00  0.00000000E+00
  0.00000000E+00  0.00000000E+00  0.00000000E+00
  0.00000000E+00  0.00000000E+00  0.00000000E+00
  0.00000000E+00  0.00000000E+00  0.00000000E+00
  0.00000000E+00  0.00000000E+00  0.00000000E+00
  0.00000000E+00  0.00000000E+00  0.00000000E+00
  0.00000000E+00  0.00000000E+00  0.00000000E+00
  0.00000000E+00  0.00000000E+00  0.00000000E+00
  0.00000000E+00  0.00000000E+00  0.00000000E+00
  0.00000000E+00  0.00000000E+00  0.00000000E+00
  0.00000000E+00  0.00000000E+00  0.00000000E+00
  0.00000000E+00  0.00000000E+00  0.00000000E+00
  0.00000000E+00  0.00000000E+00  0.00000000E+00
  0.00000000E+00  0.00000000E+00  0.00000000E+00
  0.00000000E+00  0.00000000E+00  0.00000000E+00
  0.00000000E+00  0.00000000E+00  0.00000000E+00
  0.00000000E+00  0.00000000E+00  0.00000000E+00
  0.00000000E+00  0.00000000E+00  0.00000000E+00
  0.00000000E+00  0.00000000E+00  0.00000000E+00
  0.00000000E+00  0.00000000E+00  0.00000000E+00
  0.00000000E+00  0.00000000E+00  0.00000000E+00
  0.00000000E+00  0.00000000E+00  0.00000000E+00
  0.00000000E+00  0.00000000E+00  0.00000000E+00
  0.00000000E+00  0.00000000E+00  0.00000000E+00
  0.00000000E+00  0.00000000E+00  0.00000000E+00
  0.00000000E+00  0.00000000E+00  0.00000000E+00
  0.00000000E+00  0.00000000E+00  0.00000000E+00
  0.00000000E+00  0.00000000E+00  0.00000000E+00
  0.00000000E+00  0.00000000E+00  0.00000000E+00
  0.00000000E+00  0.00000000E+00  0.00000000E+00
  0.00000000E+00  0.00000000E+00  0.00000000E+00
