Title                                   
   1.00000000000000     
     8.5490480000000009    0.0000000000000000    0.0000000000000000
     0.0000000000000000    8.5490480000000009    0.0000000000000000
     0.0000000000000000    0.0000000000000000   20.0000000000000000
    24     1
Selective dynamics
Direct
  0.9118365499419945  0.2051756739639374  0.0954454090487991   T   T   T
  0.9090615976892181  0.5018015401759444  0.0953026803199311   T   T   T
  0.9118319966221273  0.7983981178973104  0.0954586715473764   T   T   T
  0.1963592782810181  0.0829495332727150  0.0954747088301732   T   T   T
  0.0742167567325615  0.2051700663547694  0.0954606090882556   T   T   T
  0.1963454925629105  0.9206180764737041  0.0954801069073031   T   T   T
  0.1570502112449667  0.6485999256080792  0.0953482352609151   T   T   T
  0.0769653255163857  0.5018056072252245  0.0953253057819540   T   T   T
  0.1570466089985871  0.3549828047933424  0.0953396347640688   T   T   T
  0.0742090489818105  0.7983961682831525  0.0954715397868919   T   T   T
  0.4929986677620852  0.0856640945361933  0.0953534444018603   T   T   T
  0.3462269574718767  0.1658688261030263  0.0953588587879749   T   T   T
  0.4929932082799356  0.9179125561826355  0.0953594285552568   T   T   T
  0.3462249824977369  0.8377168792305830  0.0953629685883110   T   T   T
  0.7896983764486931  0.0829631366494239  0.0954551665704638   T   T   T
  0.6397870256150502  0.1658704675654647  0.0953280112076337   T   T   T
  0.7897040265398209  0.9206182783856068  0.0954576646079707   T   T   T
  0.8289727261400073  0.6486043624261472  0.0953101544398292   T   T   T
  0.8289782787892601  0.3549913966248376  0.0952989037292313   T   T   T
  0.6397940159076420  0.8377141897844607  0.0953301108270600   T   T   T
  0.3212435019416552  0.3299051653435778  0.0952485558757146   T   T   T
  0.3212545617892008  0.6736743922820854  0.0952532478447203   T   T   T
  0.6647861035030717  0.3299102335573392  0.0951950077703704   T   T   T
  0.6647929236149599  0.6736809837794657  0.0952101151350741   T   T   T
  0.4930337771274174  0.5017975235009868  0.0950764603228383   T   T   T
 
  0.00000000E+00  0.00000000E+00  0.00000000E+00
  0.00000000E+00  0.00000000E+00  0.00000000E+00
  0.00000000E+00  0.00000000E+00  0.00000000E+00
  0.00000000E+00  0.00000000E+00  0.00000000E+00
  0.00000000E+00  0.00000000E+00  0.00000000E+00
  0.00000000E+00  0.00000000E+00  0.00000000E+00
  0.00000000E+00  0.00000000E+00  0.00000000E+00
  0.00000000E+00  0.00000000E+00  0.00000000E+00
  0.00000000E+00  0.00000000E+00  0.00000000E+00
  0.00000000E+00  0.00000000E+00  0.00000000E+00
  0.00000000E+00  0.00000000E+00  0.00000000E+00
  0.00000000E+00  0.00000000E+00  0.00000000E+00
  0.00000000E+00  0.00000000E+00  0.00000000E+00
  0.00000000E+00  0.00000000E+00  0.00000000E+00
  0.00000000E+00  0.00000000E+00  0.00000000E+00
  0.00000000E+00  0.00000000E+00  0.00000000E+00
  0.00000000E+00  0.00000000E+00  0.00000000E+00
  0.00000000E+00  0.00000000E+00  0.00000000E+00
  0.00000000E+00  0.00000000E+00  0.00000000E+00
  0.00000000E+00  0.00000000E+00  0.00000000E+00
  0.00000000E+00  0.00000000E+00  0.00000000E+00
  0.00000000E+00  0.00000000E+00  0.00000000E+00
  0.00000000E+00  0.00000000E+00  0.00000000E+00
  0.00000000E+00  0.00000000E+00  0.00000000E+00
  0.00000000E+00  0.00000000E+00  0.00000000E+00
