Title                                   
   1.00000000000000     
     4.9440799999999996    0.0000000000000000    0.0000000000000000
     0.0000000000000000   17.1295089999999988    0.0000000000000000
     0.0000000000000000    0.0000000000000000   20.0000000000000000
    28     2     1
Selective dynamics
Direct
  0.0011351900344802  0.1059052623067250  0.2924085569093549   T   T   T
  0.2503206527682401  0.1483181160932029  0.2939150941961629   T   T   T
  0.2502001916496677  0.2326837132349244  0.2981293067744143   T   T   T
 -0.0011414097799457  0.2737550549383496  0.3003333529180508   T   T   T
  0.0009237551804415  0.6016743297943566  0.3022102097869528   T   T   T
  0.2502622703758625  0.7276607077219162  0.2943727148898149   T   T   T
  0.0005197467559543  0.8537303118432024  0.2913657498715063   T   T   T
  0.2504965029506262  0.8958412742374515  0.2910462056790923   T   T   T
  0.2505465732640851  0.9797370410183430  0.2909768508044140   T   T   T
  0.0003017816086533  0.7698757318920388  0.2928165123321801   T   T   T
  0.4996059724071773  0.1059156795049420  0.2923814044946452   T   T   T
  0.7503639616847395  0.1477018777149565  0.2931438697074356   T   T   T
  0.7502616748164332  0.2311925613138718  0.2966053920641559   T   T   T
  0.5001275693209758  0.0219557684708825  0.2911433675094723   T   T   T
  0.7500981694398094  0.3922164882552080  0.3091150979569440   T   T   T
  0.7500105641397269  0.4770623687532655  0.3128839636885662   T   T   T
  0.5015632539820039  0.2737029760605262  0.3002214574432717   T   T   T
  0.4993579655547700  0.6017492912195203  0.3020553061106138   T   T   T
  0.7503075978806959  0.7276996496457581  0.2939394021092925   T   T   T
  0.5004273792043078  0.8537251165158685  0.2913521873432134   T   T   T
  0.7504922959304865  0.8959342344969109  0.2909941804891684   T   T   T
  0.7505362406583400  0.9798875602591736  0.2908833183302123   T   T   T
  0.5003428353488263  0.7698639214848837  0.2927910883345864   T   T   T
  0.7502114948924666  0.6438781412752740  0.2980677332674080   T   T   T
  0.2501171143684393  0.6442601906183758  0.2991268874524657   T   T   T
  0.0009329750213251  0.0219461709207049  0.2911609313822538   T   T   T
  0.4997632849855975  0.5192425151677462  0.3117306949731389   T   T   T
  0.0005302085592514  0.5191645646247353  0.3120255009803946   T   T   T
  0.5085205620410496  0.3538257305757250  0.3072471191477982   T   T   T
 -0.0082101224081152  0.3538577181106838  0.3075928491185992   T   T   T
  0.2510807473636307  0.4373779319304741  0.3530236939343729   T   T   T
 
  0.00000000E+00  0.00000000E+00  0.00000000E+00
  0.00000000E+00  0.00000000E+00  0.00000000E+00
  0.00000000E+00  0.00000000E+00  0.00000000E+00
  0.00000000E+00  0.00000000E+00  0.00000000E+00
  0.00000000E+00  0.00000000E+00  0.00000000E+00
  0.00000000E+00  0.00000000E+00  0.00000000E+00
  0.00000000E+00  0.00000000E+00  0.00000000E+00
  0.00000000E+00  0.00000000E+00  0.00000000E+00
  0.00000000E+00  0.00000000E+00  0.00000000E+00
  0.00000000E+00  0.00000000E+00  0.00000000E+00
  0.00000000E+00  0.00000000E+00  0.00000000E+00
  0.00000000E+00  0.00000000E+00  0.00000000E+00
  0.00000000E+00  0.00000000E+00  0.00000000E+00
  0.00000000E+00  0.00000000E+00  0.00000000E+00
  0.00000000E+00  0.00000000E+00  0.00000000E+00
  0.00000000E+00  0.00000000E+00  0.00000000E+00
  0.00000000E+00  0.00000000E+00  0.00000000E+00
  0.00000000E+00  0.00000000E+00  0.00000000E+00
  0.00000000E+00  0.00000000E+00  0.00000000E+00
  0.00000000E+00  0.00000000E+00  0.00000000E+00
  0.00000000E+00  0.00000000E+00  0.00000000E+00
  0.00000000E+00  0.00000000E+00  0.00000000E+00
  0.00000000E+00  0.00000000E+00  0.00000000E+00
  0.00000000E+00  0.00000000E+00  0.00000000E+00
  0.00000000E+00  0.00000000E+00  0.00000000E+00
  0.00000000E+00  0.00000000E+00  0.00000000E+00
  0.00000000E+00  0.00000000E+00  0.00000000E+00
  0.00000000E+00  0.00000000E+00  0.00000000E+00
  0.00000000E+00  0.00000000E+00  0.00000000E+00
  0.00000000E+00  0.00000000E+00  0.00000000E+00
  0.00000000E+00  0.00000000E+00  0.00000000E+00
