Title                                   
   1.00000000000000     
     9.8694509999999998    0.0000000000000000    0.0000000000000000
     0.0000000000000000    8.5490480000000009    0.0000000000000000
     0.0000000000000000    0.0000000000000000   20.0000000000000000
    27     3     1
Selective dynamics
Direct
  0.0554742786482611  0.0898403028924493  0.0852859765474806   T   T   T
  0.9310636089384431  0.1716768697254380  0.0881163100999987   T   T   T
  0.0570625530301470  0.9229747160781245  0.0856579229926461   T   T   T
  0.9338918977524957  0.3389165067574537  0.0872926347789860   T   T   T
  0.0575547002579831  0.5899966975076972  0.0813829535260178   T   T   T
  0.9340210301493201  0.6738092427447491  0.0872163836136906   T   T   T
  0.0576176345562072  0.4229879669146008  0.0812943427773860   T   T   T
  0.9314543738408654  0.8402925924856576  0.0881648632127142   T   T   T
  0.3063722064369796  0.0886339361940126  0.0900904315317668   T   T   T
  0.1808041219767087  0.1711315962952050  0.0848506291036213   T   T   T
  0.1811447855992387  0.3386288886069310  0.0825312952649565   T   T   T
  0.3033585700944010  0.5899159320433249  0.0887058301193062   T   T   T
  0.1814183518445764  0.6738990343187136  0.0827216670958233   T   T   T
  0.3038226392063740  0.4222499948812817  0.0889463014460984   T   T   T
  0.1810412356349313  0.8405548067233654  0.0854689324969016   T   T   T
  0.5542873719757011  0.0914491072800859  0.1027433888710315   T   T   T
  0.4281548894076308  0.1754187072177071  0.0986352722180232   T   T   T
  0.5531366261059055  0.9211740492067948  0.1024495187658080   T   T   T
  0.4274967520388647  0.8362106021717310  0.0986336416868589   T   T   T
  0.8045037336397364  0.0899163794974696  0.0940691037416728   T   T   T
  0.6811143583012860  0.1756953436965577  0.1031331919877819   T   T   T
  0.8047096152232701  0.9219365167383151  0.0938889011309096   T   T   T
  0.6895536389512414  0.3427103018786047  0.1129766227016050   T   T   T
  0.8139830097337981  0.5899792331684046  0.0982467478819447   T   T   T
  0.6896814478262127  0.6696823609990361  0.1120129809261956   T   T   T
  0.8140552815810852  0.4224690011203247  0.0985285574009417   T   T   T
  0.6806480996445533  0.8358564970640400  0.1025854547531762   T   T   T
  0.4219979436942961  0.3391308561648270  0.1028754724702069   T   T   T
  0.4210764555605266  0.6751072932562531  0.1029622799159103   T   T   T
  0.3068129234953363  0.9227185901011984  0.0900623147772984   T   T   T
  0.5558208648536396  0.5059110762696514  0.1394350761632895   T   T   T
 
  0.00000000E+00  0.00000000E+00  0.00000000E+00
  0.00000000E+00  0.00000000E+00  0.00000000E+00
  0.00000000E+00  0.00000000E+00  0.00000000E+00
  0.00000000E+00  0.00000000E+00  0.00000000E+00
  0.00000000E+00  0.00000000E+00  0.00000000E+00
  0.00000000E+00  0.00000000E+00  0.00000000E+00
  0.00000000E+00  0.00000000E+00  0.00000000E+00
  0.00000000E+00  0.00000000E+00  0.00000000E+00
  0.00000000E+00  0.00000000E+00  0.00000000E+00
  0.00000000E+00  0.00000000E+00  0.00000000E+00
  0.00000000E+00  0.00000000E+00  0.00000000E+00
  0.00000000E+00  0.00000000E+00  0.00000000E+00
  0.00000000E+00  0.00000000E+00  0.00000000E+00
  0.00000000E+00  0.00000000E+00  0.00000000E+00
  0.00000000E+00  0.00000000E+00  0.00000000E+00
  0.00000000E+00  0.00000000E+00  0.00000000E+00
  0.00000000E+00  0.00000000E+00  0.00000000E+00
  0.00000000E+00  0.00000000E+00  0.00000000E+00
  0.00000000E+00  0.00000000E+00  0.00000000E+00
  0.00000000E+00  0.00000000E+00  0.00000000E+00
  0.00000000E+00  0.00000000E+00  0.00000000E+00
  0.00000000E+00  0.00000000E+00  0.00000000E+00
  0.00000000E+00  0.00000000E+00  0.00000000E+00
  0.00000000E+00  0.00000000E+00  0.00000000E+00
  0.00000000E+00  0.00000000E+00  0.00000000E+00
  0.00000000E+00  0.00000000E+00  0.00000000E+00
  0.00000000E+00  0.00000000E+00  0.00000000E+00
  0.00000000E+00  0.00000000E+00  0.00000000E+00
  0.00000000E+00  0.00000000E+00  0.00000000E+00
  0.00000000E+00  0.00000000E+00  0.00000000E+00
  0.00000000E+00  0.00000000E+00  0.00000000E+00
