Title                                   
   1.00000000000000     
     4.9440799999999996    0.0000000000000000    0.0000000000000000
     0.0000000000000000    8.5647549999999999    0.0000000000000000
     0.0000000000000000    0.0000000000000000   20.0000000000000000
    14     1
Selective dynamics
Direct
  0.2500000000000000  0.2075440182985069  0.0933445556791093   T   T   T
  0.0009671968888559  0.2931564187434114  0.0948622807760017   T   T   T
  0.2500000000000000  0.0419891371115556  0.0932677477379944   T   T   T
  0.0009570563836723  0.9563939371742672  0.0947384363066821   T   T   T
  0.7500000000000000  0.2088773319801390  0.0922422711683433   T   T   T
  0.4990328031111441  0.2931564187434114  0.0948622807760017   T   T   T
  0.7500000000000000  0.0406747772785035  0.0921778283336330   T   T   T
  0.7500000000000000  0.7102182983551725  0.1036653274679682   T   T   T
  0.7500000000000000  0.5393053300106273  0.1037237016414957   T   T   T
  0.4990429436163278  0.9563939371742672  0.0947384363066821   T   T   T
  0.5008047771789534  0.4583966406410933  0.1022545464671906   T   T   T
 -0.0008047771789534  0.4583966406410933  0.1022545464671906   T   T   T
 -0.0008311360585050  0.7911440526308832  0.1021435524609661   T   T   T
  0.5008311360585053  0.7911440526308832  0.1021435524609661   T   T   T
  0.2500000000000000  0.6248900085861873  0.1415609359497786   T   T   T
 
  0.00000000E+00  0.00000000E+00  0.00000000E+00
  0.00000000E+00  0.00000000E+00  0.00000000E+00
  0.00000000E+00  0.00000000E+00  0.00000000E+00
  0.00000000E+00  0.00000000E+00  0.00000000E+00
  0.00000000E+00  0.00000000E+00  0.00000000E+00
  0.00000000E+00  0.00000000E+00  0.00000000E+00
  0.00000000E+00  0.00000000E+00  0.00000000E+00
  0.00000000E+00  0.00000000E+00  0.00000000E+00
  0.00000000E+00  0.00000000E+00  0.00000000E+00
  0.00000000E+00  0.00000000E+00  0.00000000E+00
  0.00000000E+00  0.00000000E+00  0.00000000E+00
  0.00000000E+00  0.00000000E+00  0.00000000E+00
  0.00000000E+00  0.00000000E+00  0.00000000E+00
  0.00000000E+00  0.00000000E+00  0.00000000E+00
  0.00000000E+00  0.00000000E+00  0.00000000E+00
