Title                                   
   1.00000000000000     
     8.5490480000000009    0.0000000000000000    0.0000000000000000
     0.0000000000000000    8.5490480000000009    0.0000000000000000
     0.0000000000000000    0.0000000000000000   20.0000000000000000
    19     5     1
Selective dynamics
Direct
  0.9092171013489150  0.2053836794374250  0.0952776549505701   T   T   T
  0.9107431569758073  0.8010726341820841  0.0950400245682266   T   T   T
  0.1957513094004252  0.0840976935038645  0.0951326177500046   T   T   T
  0.0757332510629167  0.2009778830816075  0.0948640646105469   T   T   T
  0.1543556351150771  0.6525195630920533  0.0974828794437103   T   T   T
  0.0750486846320454  0.5012338087815208  0.0969832692114068   T   T   T
  0.1549449515391819  0.3533367970245939  0.0965157674400573   T   T   T
  0.0779928182371720  0.7995713354425279  0.0954927015221069   T   T   T
  0.4941264449905635  0.0852804638500792  0.0975413142213939   T   T   T
  0.3451481815675522  0.1649806786519669  0.0969161927600171   T   T   T
  0.4932775828198029  0.9154505114012088  0.0971674185856008   T   T   T
  0.3417145059209763  0.8365460763596785  0.0974785129704588   T   T   T
  0.7888494690080349  0.0868779567369688  0.0958713166402163   T   T   T
  0.6427437064873923  0.1669377576766978  0.0980769019745761   T   T   T
  0.7893622248996025  0.9185593869180289  0.0953640676960827   T   T   T
  0.8307077021029547  0.6520982814714625  0.0960563499406128   T   T   T
  0.8291017275550062  0.3531075611350114  0.0970848132163198   T   T   T
  0.6435857152471127  0.8354403507449315  0.0965157103860821   T   T   T
  0.3212658235692741  0.3306074396283467  0.0982411542519359   T   T   T
  0.9068340686613100  0.5027572731010658  0.0966908613762525   T   T   T
  0.3162558269005331  0.6783567991881123  0.0998310192930667   T   T   T
  0.6684776186870759  0.3310090060042847  0.1001956061311505   T   T   T
  0.6711818397596164  0.6728829796208298  0.0972072957882991   T   T   T
  0.1965013433239972  0.9165013473622494  0.0954404209117313   T   T   T
  0.4924913101876466  0.4992027356034202  0.1212370643595470   T   T   T
 
  0.00000000E+00  0.00000000E+00  0.00000000E+00
  0.00000000E+00  0.00000000E+00  0.00000000E+00
  0.00000000E+00  0.00000000E+00  0.00000000E+00
  0.00000000E+00  0.00000000E+00  0.00000000E+00
  0.00000000E+00  0.00000000E+00  0.00000000E+00
  0.00000000E+00  0.00000000E+00  0.00000000E+00
  0.00000000E+00  0.00000000E+00  0.00000000E+00
  0.00000000E+00  0.00000000E+00  0.00000000E+00
  0.00000000E+00  0.00000000E+00  0.00000000E+00
  0.00000000E+00  0.00000000E+00  0.00000000E+00
  0.00000000E+00  0.00000000E+00  0.00000000E+00
  0.00000000E+00  0.00000000E+00  0.00000000E+00
  0.00000000E+00  0.00000000E+00  0.00000000E+00
  0.00000000E+00  0.00000000E+00  0.00000000E+00
  0.00000000E+00  0.00000000E+00  0.00000000E+00
  0.00000000E+00  0.00000000E+00  0.00000000E+00
  0.00000000E+00  0.00000000E+00  0.00000000E+00
  0.00000000E+00  0.00000000E+00  0.00000000E+00
  0.00000000E+00  0.00000000E+00  0.00000000E+00
  0.00000000E+00  0.00000000E+00  0.00000000E+00
  0.00000000E+00  0.00000000E+00  0.00000000E+00
  0.00000000E+00  0.00000000E+00  0.00000000E+00
  0.00000000E+00  0.00000000E+00  0.00000000E+00
  0.00000000E+00  0.00000000E+00  0.00000000E+00
  0.00000000E+00  0.00000000E+00  0.00000000E+00
