Title                                   
   1.00000000000000     
     4.9440799999999996    0.0000000000000000    0.0000000000000000
     0.0000000000000000   17.1295089999999988    0.0000000000000000
     0.0000000000000000    0.0000000000000000   20.0000000000000000
    28     2     1
Selective dynamics
Direct
  0.0011653625195642  0.1055960724926504  0.2939978363745708   T   T   T
  0.2510282541086049  0.1480812851234164  0.2965739604091706   T   T   T
  0.2516246399917877  0.2322196633242628  0.3009857467553678   T   T   T
 -0.0031335244233692  0.2718144241841776  0.2984324136310128   T   T   T
 -0.0000042879503765  0.6037490553345054  0.2980402371507775   T   T   T
  0.2514266422692223  0.7282303117931040  0.2965858222895948   T   T   T
  0.0007396522206894  0.8539806603917376  0.2927696344116141   T   T   T
  0.2504641527653669  0.8959962557751477  0.2926641983762587   T   T   T
  0.2503637865092208  0.9796629011665297  0.2925692327155796   T   T   T
  0.0009480406741584  0.7701764169882356  0.2942768391455342   T   T   T
  0.4995965690907289  0.1052424227556070  0.2952385016250166   T   T   T
  0.7497131749583853  0.1464425877583431  0.2954831224574520   T   T   T
  0.7491050796062619  0.2297482862164907  0.2988974552215267   T   T   T
  0.4999517730536344  0.0215522496119098  0.2932194548436135   T   T   T
  0.7534505298842203  0.3904310705808448  0.3075731513147426   T   T   T
  0.7531879101831009  0.4782003017043336  0.3078641395099402   T   T   T
  0.5045268899004498  0.2728667904240437  0.3063300503670114   T   T   T
  0.5024402696560146  0.6024582138241582  0.3067409751412234   T   T   T
  0.7501424965424764  0.7287636419605292  0.2959863565470006   T   T   T
  0.5005966325350057  0.8542227483113555  0.2934394695210810   T   T   T
  0.7507803158669176  0.8960454598720560  0.2925376690975363   T   T   T
  0.7506440160979246  0.9799006083138173  0.2924217383876543   T   T   T
  0.5005690688198473  0.7705551457570455  0.2955939600273853   T   T   T
  0.7494258073901443  0.6451975384103197  0.2993511091202894   T   T   T
  0.2523698680851547  0.6444643913632098  0.3006142732580082   T   T   T
  0.0009793800895065  0.0218083805339816  0.2925603628006725   T   T   T
  0.5076848287825074  0.5193057979902373  0.3198119689184789   T   T   T
  0.9920228212519240  0.5213204502645832  0.2983763522259166   T   T   T
  0.5195058862290602  0.3525001715823655  0.3201199306759005   T   T   T
 -0.0168930462297861  0.3513719884732084  0.2954442773038057   T   T   T
  0.2355840095216551  0.4394367077177878  0.3205597603762162   T   T   T
 
  0.00000000E+00  0.00000000E+00  0.00000000E+00
  0.00000000E+00  0.00000000E+00  0.00000000E+00
  0.00000000E+00  0.00000000E+00  0.00000000E+00
  0.00000000E+00  0.00000000E+00  0.00000000E+00
  0.00000000E+00  0.00000000E+00  0.00000000E+00
  0.00000000E+00  0.00000000E+00  0.00000000E+00
  0.00000000E+00  0.00000000E+00  0.00000000E+00
  0.00000000E+00  0.00000000E+00  0.00000000E+00
  0.00000000E+00  0.00000000E+00  0.00000000E+00
  0.00000000E+00  0.00000000E+00  0.00000000E+00
  0.00000000E+00  0.00000000E+00  0.00000000E+00
  0.00000000E+00  0.00000000E+00  0.00000000E+00
  0.00000000E+00  0.00000000E+00  0.00000000E+00
  0.00000000E+00  0.00000000E+00  0.00000000E+00
  0.00000000E+00  0.00000000E+00  0.00000000E+00
  0.00000000E+00  0.00000000E+00  0.00000000E+00
  0.00000000E+00  0.00000000E+00  0.00000000E+00
  0.00000000E+00  0.00000000E+00  0.00000000E+00
  0.00000000E+00  0.00000000E+00  0.00000000E+00
  0.00000000E+00  0.00000000E+00  0.00000000E+00
  0.00000000E+00  0.00000000E+00  0.00000000E+00
  0.00000000E+00  0.00000000E+00  0.00000000E+00
  0.00000000E+00  0.00000000E+00  0.00000000E+00
  0.00000000E+00  0.00000000E+00  0.00000000E+00
  0.00000000E+00  0.00000000E+00  0.00000000E+00
  0.00000000E+00  0.00000000E+00  0.00000000E+00
  0.00000000E+00  0.00000000E+00  0.00000000E+00
  0.00000000E+00  0.00000000E+00  0.00000000E+00
  0.00000000E+00  0.00000000E+00  0.00000000E+00
  0.00000000E+00  0.00000000E+00  0.00000000E+00
  0.00000000E+00  0.00000000E+00  0.00000000E+00
