Title                                   
   1.00000000000000     
     4.9440799999999996    0.0000000000000000    0.0000000000000000
     0.0000000000000000    8.5647549999999999    0.0000000000000000
     0.0000000000000000    0.0000000000000000   20.0000000000000000
    14     1     1
Selective dynamics
Direct
 -0.0007334873823877  0.2885830536409510  0.0921992682181966   T   T   T
  0.2500000000000000  0.0437338515122213  0.0854775777224296   T   T   T
 -0.0005742566560645  0.7965475197834881  0.0990517913213864   T   T   T
 -0.0006342687504326  0.9606149257813131  0.0855794498344158   T   T   T
  0.7500000000000000  0.2068582677665025  0.0825664573796031   T   T   T
  0.5007334873823878  0.2885830536409510  0.0921992682181966   T   T   T
  0.7500000000000000  0.0418127138627755  0.0802037742776100   T   T   T
  0.7500000000000000  0.7088823171142961  0.1021860843576655   T   T   T
  0.5005742566560643  0.7965475197834881  0.0990517913213864   T   T   T
  0.7500000000000000  0.5399241917381454  0.1058956189246652   T   T   T
  0.5006342687504325  0.9606149257813131  0.0855794498344158   T   T   T
  0.5116966510256570  0.4469567842622993  0.1136251469070952   T   T   T
 -0.0116966510256572  0.4469567842622993  0.1136251469070952   T   T   T
  0.2500000000000000  0.7263882764141668  0.1164267240151256   T   T   T
  0.2500000000000000  0.2070980337994987  0.0889679603741403   T   T   T
  0.2500000000000000  0.5398977808562908  0.1698764903865822   T   T   T
 
  0.00000000E+00  0.00000000E+00  0.00000000E+00
  0.00000000E+00  0.00000000E+00  0.00000000E+00
  0.00000000E+00  0.00000000E+00  0.00000000E+00
  0.00000000E+00  0.00000000E+00  0.00000000E+00
  0.00000000E+00  0.00000000E+00  0.00000000E+00
  0.00000000E+00  0.00000000E+00  0.00000000E+00
  0.00000000E+00  0.00000000E+00  0.00000000E+00
  0.00000000E+00  0.00000000E+00  0.00000000E+00
  0.00000000E+00  0.00000000E+00  0.00000000E+00
  0.00000000E+00  0.00000000E+00  0.00000000E+00
  0.00000000E+00  0.00000000E+00  0.00000000E+00
  0.00000000E+00  0.00000000E+00  0.00000000E+00
  0.00000000E+00  0.00000000E+00  0.00000000E+00
  0.00000000E+00  0.00000000E+00  0.00000000E+00
  0.00000000E+00  0.00000000E+00  0.00000000E+00
  0.00000000E+00  0.00000000E+00  0.00000000E+00
