Title                                   
   1.00000000000000     
     8.5490480000000009    0.0000000000000000    0.0000000000000000
     0.0000000000000000    8.5490480000000009    0.0000000000000000
     0.0000000000000000    0.0000000000000000   20.0000000000000000
    20     4     1
Selective dynamics
Direct
  0.9088869426487690  0.2063013932530782  0.0977477546540306   T   T   T
  0.9053154392186735  0.5037807073999508  0.0977403289493660   T   T   T
  0.9096836222937320  0.8014750651144564  0.0975368586216265   T   T   T
  0.2000572335069008  0.0839885109395639  0.0977574910427533   T   T   T
  0.0759686212793658  0.2053383720113352  0.0977623624391406   T   T   T
  0.1578050509134638  0.6514857183992095  0.0977309571914501   T   T   T
  0.0759003448413795  0.5028703520711115  0.0977266262196990   T   T   T
  0.1590285538274166  0.3567928907946929  0.0977623698164427   T   T   T
  0.0785743103596795  0.7985777494256692  0.0976445037573438   T   T   T
  0.4939844644380174  0.0841678958580077  0.0977287119187127   T   T   T
  0.3476161583565555  0.1640745686157492  0.0977503686039568   T   T   T
  0.4932276583523723  0.9135713667300722  0.0977188381695510   T   T   T
  0.3449773578581193  0.8328737704578171  0.0978255599933390   T   T   T
  0.7874291755995063  0.0862845929349899  0.0976704145015287   T   T   T
  0.6404956843144473  0.1669324948388468  0.0977694818022895   T   T   T
  0.7883265110703596  0.9188232689228187  0.0975636020983415   T   T   T
  0.8271638725463197  0.6521652411461409  0.0976727796768852   T   T   T
  0.8241834389031566  0.3556254530365299  0.0978567090145604   T   T   T
  0.6407598655952669  0.8335090212774047  0.0976860276483335   T   T   T
  0.3268433455471306  0.3356223992460435  0.0977758240031321   T   T   T
  0.3207670019065431  0.6735232161864216  0.0978717347662609   T   T   T
  0.6618808544395278  0.3317679148522365  0.0979340572244644   T   T   T
  0.6648059156083546  0.6723117321564203  0.0977936937165298   T   T   T
  0.1991744685607246  0.9160630706891728  0.0977971022018219   T   T   T
  0.4925561080142100  0.4968632336422814  0.0978808419684127   T   T   T
 
  0.00000000E+00  0.00000000E+00  0.00000000E+00
  0.00000000E+00  0.00000000E+00  0.00000000E+00
  0.00000000E+00  0.00000000E+00  0.00000000E+00
  0.00000000E+00  0.00000000E+00  0.00000000E+00
  0.00000000E+00  0.00000000E+00  0.00000000E+00
  0.00000000E+00  0.00000000E+00  0.00000000E+00
  0.00000000E+00  0.00000000E+00  0.00000000E+00
  0.00000000E+00  0.00000000E+00  0.00000000E+00
  0.00000000E+00  0.00000000E+00  0.00000000E+00
  0.00000000E+00  0.00000000E+00  0.00000000E+00
  0.00000000E+00  0.00000000E+00  0.00000000E+00
  0.00000000E+00  0.00000000E+00  0.00000000E+00
  0.00000000E+00  0.00000000E+00  0.00000000E+00
  0.00000000E+00  0.00000000E+00  0.00000000E+00
  0.00000000E+00  0.00000000E+00  0.00000000E+00
  0.00000000E+00  0.00000000E+00  0.00000000E+00
  0.00000000E+00  0.00000000E+00  0.00000000E+00
  0.00000000E+00  0.00000000E+00  0.00000000E+00
  0.00000000E+00  0.00000000E+00  0.00000000E+00
  0.00000000E+00  0.00000000E+00  0.00000000E+00
  0.00000000E+00  0.00000000E+00  0.00000000E+00
  0.00000000E+00  0.00000000E+00  0.00000000E+00
  0.00000000E+00  0.00000000E+00  0.00000000E+00
  0.00000000E+00  0.00000000E+00  0.00000000E+00
  0.00000000E+00  0.00000000E+00  0.00000000E+00
