Title                                   
   1.00000000000000     
     4.9440799999999996    0.0000000000000000    0.0000000000000000
     0.0000000000000000   17.1295089999999988    0.0000000000000000
     0.0000000000000000    0.0000000000000000   20.0000000000000000
    29     2     1
Selective dynamics
Direct
  0.0000382928304642  0.1045999225876774  0.2858243127097549   T   T   T
  0.2499012039337670  0.1463303533466048  0.2897104011740649   T   T   T
  0.2499073602558975  0.2287750257035497  0.2999070790891369   T   T   T
  0.0026871332182383  0.3505358543283537  0.3192492412891629   T   T   T
 -0.0010891049036292  0.2700936905502776  0.3047201792429622   T   T   T
 -0.0033823856658175  0.6055654429769536  0.3089332715519056   T   T   T
  0.2498730713895017  0.7289435037128214  0.2929240700227927   T   T   T
  0.0001095063302236  0.8543267529141563  0.2832771576726470   T   T   T
  0.2498902399422054  0.8962216242583136  0.2819425362839938   T   T   T
  0.2498915662719699  0.9795685635200043  0.2811817449601438   T   T   T
  0.0001230309462911  0.7711155286118782  0.2885069339985528   T   T   T
  0.4997487130782017  0.1046004266432741  0.2858260554696981   T   T   T
  0.7499002415975560  0.1464719265948887  0.2887045618638798   T   T   T
  0.7499011489097887  0.2286551680869092  0.2972049666715602   T   T   T
  0.4999692449424052  0.0214546326839081  0.2818041712853199   T   T   T
  0.4971707319298259  0.3505353615260681  0.3192465798529926   T   T   T
  0.7499234152052140  0.4781895791040560  0.3174772870649084   T   T   T
  0.5008991496386727  0.2700937896041686  0.3047186405737219   T   T   T
  0.5031796601681366  0.6055648071508644  0.3089199001204511   T   T   T
  0.7498696115956367  0.7300658736296285  0.2917826780748485   T   T   T
  0.4996626122478168  0.8543267044004564  0.2832759492632268   T   T   T
  0.7498910431992675  0.8961187422556007  0.2816375261424275   T   T   T
  0.7498887519421971  0.9795085897822494  0.2808387838507180   T   T   T
  0.4996231525686958  0.7711167824801071  0.2885047987149360   T   T   T
  0.7499001297086367  0.6474511102804716  0.3014828422584444   T   T   T
  0.2498904261168142  0.6463481611458036  0.3039232252399305   T   T   T
 -0.0001784501839287  0.0214540766750476  0.2818039045013576   T   T   T
  0.5127031770198751  0.5233533087937796  0.3220427855343586   T   T   T
  0.9871286864902186  0.5233551124917273  0.3220679465019272   T   T   T
  0.2499250048106818  0.3868041275714558  0.3332971162726577   T   T   T
  0.7499276412325157  0.3938894254420378  0.3213739933465101   T   T   T
  0.2499489932326662  0.4831170311468967  0.3704543594009579   T   T   T
 
  0.00000000E+00  0.00000000E+00  0.00000000E+00
  0.00000000E+00  0.00000000E+00  0.00000000E+00
  0.00000000E+00  0.00000000E+00  0.00000000E+00
  0.00000000E+00  0.00000000E+00  0.00000000E+00
  0.00000000E+00  0.00000000E+00  0.00000000E+00
  0.00000000E+00  0.00000000E+00  0.00000000E+00
  0.00000000E+00  0.00000000E+00  0.00000000E+00
  0.00000000E+00  0.00000000E+00  0.00000000E+00
  0.00000000E+00  0.00000000E+00  0.00000000E+00
  0.00000000E+00  0.00000000E+00  0.00000000E+00
  0.00000000E+00  0.00000000E+00  0.00000000E+00
  0.00000000E+00  0.00000000E+00  0.00000000E+00
  0.00000000E+00  0.00000000E+00  0.00000000E+00
  0.00000000E+00  0.00000000E+00  0.00000000E+00
  0.00000000E+00  0.00000000E+00  0.00000000E+00
  0.00000000E+00  0.00000000E+00  0.00000000E+00
  0.00000000E+00  0.00000000E+00  0.00000000E+00
  0.00000000E+00  0.00000000E+00  0.00000000E+00
  0.00000000E+00  0.00000000E+00  0.00000000E+00
  0.00000000E+00  0.00000000E+00  0.00000000E+00
  0.00000000E+00  0.00000000E+00  0.00000000E+00
  0.00000000E+00  0.00000000E+00  0.00000000E+00
  0.00000000E+00  0.00000000E+00  0.00000000E+00
  0.00000000E+00  0.00000000E+00  0.00000000E+00
  0.00000000E+00  0.00000000E+00  0.00000000E+00
  0.00000000E+00  0.00000000E+00  0.00000000E+00
  0.00000000E+00  0.00000000E+00  0.00000000E+00
  0.00000000E+00  0.00000000E+00  0.00000000E+00
  0.00000000E+00  0.00000000E+00  0.00000000E+00
  0.00000000E+00  0.00000000E+00  0.00000000E+00
  0.00000000E+00  0.00000000E+00  0.00000000E+00
  0.00000000E+00  0.00000000E+00  0.00000000E+00
