Title                                   
   1.00000000000000     
     9.8694509999999998    0.0000000000000000    0.0000000000000000
     0.0000000000000000    8.5490480000000009    0.0000000000000000
     0.0000000000000000    0.0000000000000000   20.0000000000000000
    29     2     1
Selective dynamics
Direct
  0.0561944729864754  0.0902581240581881  0.0826911659535776   T   T   T
  0.9313294342793424  0.1732120257320237  0.0841443887534657   T   T   T
  0.0573298404896305  0.9234911504761935  0.0820336507238694   T   T   T
  0.9309614472990285  0.3405304271542338  0.0875567547228639   T   T   T
  0.0572716122297889  0.5905735779945981  0.0840630002142934   T   T   T
  0.9324622498128815  0.6731531737448131  0.0862597013380136   T   T   T
  0.0569621645377975  0.4230301232808487  0.0857913996711327   T   T   T
  0.9320352840286358  0.8396500744432458  0.0841902376675562   T   T   T
  0.3056362947624087  0.0884000204795356  0.0878790426775578   T   T   T
  0.1821834839654643  0.1726722288906807  0.0856863002289067   T   T   T
  0.1821390453307353  0.3398171983278500  0.0884769074267170   T   T   T
  0.3047401158255675  0.5889253670417838  0.0999699395503141   T   T   T
  0.1823820154181283  0.6738703127779706  0.0866256732713938   T   T   T
  0.3061032602118061  0.4213392521527358  0.0984957547624909   T   T   T
  0.1820343443694702  0.8408923858167245  0.0847345608588361   T   T   T
  0.5552051563145962  0.0872700810164823  0.0933921762270716   T   T   T
  0.5543188404058460  0.9236015640780578  0.0993046648679128   T   T   T
  0.4303642209546416  0.3328502960775251  0.1045240345963648   T   T   T
  0.4272943305893266  0.8409602486450870  0.1026560112701964   T   T   T
  0.8059243732307950  0.0891615968590638  0.0852174544360103   T   T   T
  0.6802127206308984  0.1711587505244104  0.0907770953109889   T   T   T
  0.8067413701090606  0.9237100240950349  0.0872347308719039   T   T   T
  0.6818602260447255  0.3360166639657571  0.1014657998557574   T   T   T
  0.8087853339451394  0.5909410942143906  0.0992534087373237   T   T   T
  0.8065363044832814  0.4222250667238512  0.0970284073180184   T   T   T
  0.6827839682075202  0.8417565757994243  0.1001780784384812   T   T   T
  0.4172654452321934  0.6829645863956078  0.1161363907103232   T   T   T
  0.5551592944811129  0.4017483949658855  0.1177627053019945   T   T   T
  0.6947030069439297  0.6817968956857575  0.1147599088957696   T   T   T
  0.3057069061675060  0.9259453845654451  0.0883381427528538   T   T   T
  0.4287904383503235  0.1680630803905829  0.0929684424294422   T   T   T
  0.5582219983619487  0.5902602536262135  0.1860790701586149   T   T   T
 
  0.00000000E+00  0.00000000E+00  0.00000000E+00
  0.00000000E+00  0.00000000E+00  0.00000000E+00
  0.00000000E+00  0.00000000E+00  0.00000000E+00
  0.00000000E+00  0.00000000E+00  0.00000000E+00
  0.00000000E+00  0.00000000E+00  0.00000000E+00
  0.00000000E+00  0.00000000E+00  0.00000000E+00
  0.00000000E+00  0.00000000E+00  0.00000000E+00
  0.00000000E+00  0.00000000E+00  0.00000000E+00
  0.00000000E+00  0.00000000E+00  0.00000000E+00
  0.00000000E+00  0.00000000E+00  0.00000000E+00
  0.00000000E+00  0.00000000E+00  0.00000000E+00
  0.00000000E+00  0.00000000E+00  0.00000000E+00
  0.00000000E+00  0.00000000E+00  0.00000000E+00
  0.00000000E+00  0.00000000E+00  0.00000000E+00
  0.00000000E+00  0.00000000E+00  0.00000000E+00
  0.00000000E+00  0.00000000E+00  0.00000000E+00
  0.00000000E+00  0.00000000E+00  0.00000000E+00
  0.00000000E+00  0.00000000E+00  0.00000000E+00
  0.00000000E+00  0.00000000E+00  0.00000000E+00
  0.00000000E+00  0.00000000E+00  0.00000000E+00
  0.00000000E+00  0.00000000E+00  0.00000000E+00
  0.00000000E+00  0.00000000E+00  0.00000000E+00
  0.00000000E+00  0.00000000E+00  0.00000000E+00
  0.00000000E+00  0.00000000E+00  0.00000000E+00
  0.00000000E+00  0.00000000E+00  0.00000000E+00
  0.00000000E+00  0.00000000E+00  0.00000000E+00
  0.00000000E+00  0.00000000E+00  0.00000000E+00
  0.00000000E+00  0.00000000E+00  0.00000000E+00
  0.00000000E+00  0.00000000E+00  0.00000000E+00
  0.00000000E+00  0.00000000E+00  0.00000000E+00
  0.00000000E+00  0.00000000E+00  0.00000000E+00
  0.00000000E+00  0.00000000E+00  0.00000000E+00
