Title                                   
   1.00000000000000     
     9.8694509999999998    0.0000000000000000    0.0000000000000000
     0.0000000000000000    8.5490480000000009    0.0000000000000000
     0.0000000000000000    0.0000000000000000   20.0000000000000000
    25     6     1
Selective dynamics
Direct
  0.0562398263989699  0.0930457073170038  0.0906589724620239   T   T   T
  0.9299450949306246  0.1755745087107501  0.0914705313527839   T   T   T
  0.0562366167126974  0.9243527763352596  0.0897827023527176   T   T   T
  0.9293737661249639  0.3418820136313593  0.0929708721320155   T   T   T
  0.0562384145088258  0.5902016151746587  0.0897438437691189   T   T   T
  0.9316948539618215  0.6717574441002238  0.0902738853649060   T   T   T
  0.0562431468623107  0.4232696737660815  0.0920953778856752   T   T   T
  0.9312918022981428  0.8398328851416060  0.0902237300119332   T   T   T
  0.3056359288277957  0.0892619720141502  0.0906529619673812   T   T   T
  0.1825551409826962  0.1755079721624088  0.0913496323942880   T   T   T
  0.3062259145433026  0.9234480646160551  0.0907253348014758   T   T   T
  0.1830948411233815  0.3418412409319107  0.0927787385046628   T   T   T
  0.3077263690748101  0.5936811269104745  0.0942048772612957   T   T   T
  0.1807991017823493  0.6717359231029899  0.0900224409521328   T   T   T
  0.1812053480805662  0.8398196695755936  0.0899719509643114   T   T   T
  0.5562241228619166  0.0841343397935288  0.0943216620878231   T   T   T
  0.4316210484168357  0.1692508735515975  0.0932117279395779   T   T   T
  0.4358886155221621  0.3354945879956579  0.0966908888909135   T   T   T
  0.4280182188849465  0.8354245710663277  0.0949202049480329   T   T   T
  0.8068740497594133  0.0892911611700435  0.0907741449080782   T   T   T
  0.6808720810468482  0.1692532308111727  0.0934129198890712   T   T   T
  0.8063262460962339  0.9234798836709359  0.0909570914480672   T   T   T
  0.6766267358845586  0.3354982528088872  0.0969719588435977   T   T   T
  0.8048354615261505  0.5937083139210677  0.0946482435252146   T   T   T
  0.6845296314753802  0.8354932761684746  0.0952256727885818   T   T   T
  0.4241528851210856  0.6768933119929310  0.1010141949270101   T   T   T
  0.5562259820322019  0.4116837042634927  0.1045598567422948   T   T   T
  0.6884833709381802  0.6769790245342334  0.1016110468869101   T   T   T
  0.5562579133868069  0.9153298952760889  0.0946396953988935   T   T   T
  0.3116511402056735  0.4248169491291011  0.0944390266190733   T   T   T
  0.8009147564712494  0.4248389522805984  0.0948395606924653   T   T   T
  0.5556305741571047  0.5934630780753380  0.1865112512876891   T   T   T
 
  0.00000000E+00  0.00000000E+00  0.00000000E+00
  0.00000000E+00  0.00000000E+00  0.00000000E+00
  0.00000000E+00  0.00000000E+00  0.00000000E+00
  0.00000000E+00  0.00000000E+00  0.00000000E+00
  0.00000000E+00  0.00000000E+00  0.00000000E+00
  0.00000000E+00  0.00000000E+00  0.00000000E+00
  0.00000000E+00  0.00000000E+00  0.00000000E+00
  0.00000000E+00  0.00000000E+00  0.00000000E+00
  0.00000000E+00  0.00000000E+00  0.00000000E+00
  0.00000000E+00  0.00000000E+00  0.00000000E+00
  0.00000000E+00  0.00000000E+00  0.00000000E+00
  0.00000000E+00  0.00000000E+00  0.00000000E+00
  0.00000000E+00  0.00000000E+00  0.00000000E+00
  0.00000000E+00  0.00000000E+00  0.00000000E+00
  0.00000000E+00  0.00000000E+00  0.00000000E+00
  0.00000000E+00  0.00000000E+00  0.00000000E+00
  0.00000000E+00  0.00000000E+00  0.00000000E+00
  0.00000000E+00  0.00000000E+00  0.00000000E+00
  0.00000000E+00  0.00000000E+00  0.00000000E+00
  0.00000000E+00  0.00000000E+00  0.00000000E+00
  0.00000000E+00  0.00000000E+00  0.00000000E+00
  0.00000000E+00  0.00000000E+00  0.00000000E+00
  0.00000000E+00  0.00000000E+00  0.00000000E+00
  0.00000000E+00  0.00000000E+00  0.00000000E+00
  0.00000000E+00  0.00000000E+00  0.00000000E+00
  0.00000000E+00  0.00000000E+00  0.00000000E+00
  0.00000000E+00  0.00000000E+00  0.00000000E+00
  0.00000000E+00  0.00000000E+00  0.00000000E+00
  0.00000000E+00  0.00000000E+00  0.00000000E+00
  0.00000000E+00  0.00000000E+00  0.00000000E+00
  0.00000000E+00  0.00000000E+00  0.00000000E+00
  0.00000000E+00  0.00000000E+00  0.00000000E+00
