Title                                   
   1.00000000000000     
     9.8694509999999998    0.0000000000000000    0.0000000000000000
     0.0000000000000000    8.5490480000000009    0.0000000000000000
     0.0000000000000000    0.0000000000000000   20.0000000000000000
    25     5     1
Selective dynamics
Direct
  0.0556075054552819  0.0891333208781963  0.0877209169311110   T   T   T
  0.9307123588796045  0.1716965204210908  0.0891105698485200   T   T   T
  0.0571936624968452  0.9213189847242020  0.0885190051955330   T   T   T
  0.9335354875658929  0.3389365054508115  0.0893458651963141   T   T   T
  0.0569415332703965  0.5904377159669351  0.0875855069008835   T   T   T
  0.0570875888519266  0.4238927235571783  0.0867381916142757   T   T   T
  0.9315829382056462  0.8383187053324487  0.0902732811246712   T   T   T
  0.3076926562972749  0.0890972858483015  0.0907251810837363   T   T   T
  0.1811884238429556  0.1720314582537751  0.0879124894234258   T   T   T
  0.1814066855707158  0.3394511064557355  0.0871166986949568   T   T   T
  0.3047210206652580  0.5897097584424373  0.0918122518193351   T   T   T
  0.1809271825650442  0.6734871929136205  0.0882875077441087   T   T   T
  0.3058726267794636  0.4218517521495003  0.0912393776562097   T   T   T
  0.1819196350236351  0.8400584532232216  0.0892189966212806   T   T   T
  0.4296575312683205  0.1759908651425172  0.0956950248376636   T   T   T
  0.5533750620728174  0.9218794705212040  0.0988760636872744   T   T   T
  0.4288600869115770  0.8365904932610050  0.0972119988706265   T   T   T
  0.8042871041863663  0.0889343969343440  0.0922967076935437   T   T   T
  0.6805837031742347  0.1776323514711835  0.0980299064241626   T   T   T
  0.8053994122530967  0.9203956188337065  0.0929320547567832   T   T   T
  0.6861107028036901  0.3430886202147460  0.1046734156288621   T   T   T
  0.8116330396924628  0.5915899715934074  0.0976142897076901   T   T   T
  0.6875504438412050  0.6694958918926324  0.1053172635387135   T   T   T
  0.8120135941000948  0.4216393718450760  0.0966655208283100   T   T   T
  0.6796532532205917  0.8363524401794595  0.0990059597177922   T   T   T
  0.9338176904854584  0.6725083318399989  0.0905726373937425   T   T   T
  0.5544732482160543  0.0938199393028620  0.0984075630905801   T   T   T
  0.4264553606364019  0.3381137842551037  0.0990570781741092   T   T   T
  0.4240757099870033  0.6754706958357186  0.1018675393575970   T   T   T
  0.3061033756419043  0.9221192392530740  0.0911001183083550   T   T   T
  0.5526963760387954  0.5058320340065118  0.1360360181298808   T   T   T
 
  0.00000000E+00  0.00000000E+00  0.00000000E+00
  0.00000000E+00  0.00000000E+00  0.00000000E+00
  0.00000000E+00  0.00000000E+00  0.00000000E+00
  0.00000000E+00  0.00000000E+00  0.00000000E+00
  0.00000000E+00  0.00000000E+00  0.00000000E+00
  0.00000000E+00  0.00000000E+00  0.00000000E+00
  0.00000000E+00  0.00000000E+00  0.00000000E+00
  0.00000000E+00  0.00000000E+00  0.00000000E+00
  0.00000000E+00  0.00000000E+00  0.00000000E+00
  0.00000000E+00  0.00000000E+00  0.00000000E+00
  0.00000000E+00  0.00000000E+00  0.00000000E+00
  0.00000000E+00  0.00000000E+00  0.00000000E+00
  0.00000000E+00  0.00000000E+00  0.00000000E+00
  0.00000000E+00  0.00000000E+00  0.00000000E+00
  0.00000000E+00  0.00000000E+00  0.00000000E+00
  0.00000000E+00  0.00000000E+00  0.00000000E+00
  0.00000000E+00  0.00000000E+00  0.00000000E+00
  0.00000000E+00  0.00000000E+00  0.00000000E+00
  0.00000000E+00  0.00000000E+00  0.00000000E+00
  0.00000000E+00  0.00000000E+00  0.00000000E+00
  0.00000000E+00  0.00000000E+00  0.00000000E+00
  0.00000000E+00  0.00000000E+00  0.00000000E+00
  0.00000000E+00  0.00000000E+00  0.00000000E+00
  0.00000000E+00  0.00000000E+00  0.00000000E+00
  0.00000000E+00  0.00000000E+00  0.00000000E+00
  0.00000000E+00  0.00000000E+00  0.00000000E+00
  0.00000000E+00  0.00000000E+00  0.00000000E+00
  0.00000000E+00  0.00000000E+00  0.00000000E+00
  0.00000000E+00  0.00000000E+00  0.00000000E+00
  0.00000000E+00  0.00000000E+00  0.00000000E+00
  0.00000000E+00  0.00000000E+00  0.00000000E+00
