Title                                   
   1.00000000000000     
     9.8694509999999998    0.0000000000000000    0.0000000000000000
     0.0000000000000000    8.5490480000000009    0.0000000000000000
     0.0000000000000000    0.0000000000000000   20.0000000000000000
    28     2     1
Selective dynamics
Direct
  0.0553638592158094  0.0888539620211123  0.0860337108082509   T   T   T
  0.9308164133126426  0.1736650888351428  0.0886036355709796   T   T   T
  0.0570644345742553  0.9234505045147181  0.0860285465689589   T   T   T
  0.9317765143128770  0.3403529640736713  0.0856870658726338   T   T   T
  0.0568063297565849  0.5893962224307328  0.0822279092373067   T   T   T
  0.9338859292520867  0.6754670885809683  0.0856187368512448   T   T   T
  0.0556820772609629  0.4229136019843732  0.0822390136867225   T   T   T
  0.9322347701717382  0.8416648673857954  0.0867022315797351   T   T   T
  0.3048471955292763  0.0876066778263537  0.0931839570603251   T   T   T
  0.1801873060345906  0.1706882773193242  0.0868009257537806   T   T   T
  0.3063235965412533  0.9204165999828168  0.0955213427350435   T   T   T
  0.1785932351432332  0.3368759585607710  0.0857402346877860   T   T   T
  0.3033165121892484  0.5880008639251317  0.0957475044979706   T   T   T
  0.1806995430931844  0.6719818637651932  0.0857960261487527   T   T   T
  0.3023443710106550  0.4165842068756094  0.0915606168660240   T   T   T
  0.1816048133572451  0.8386549626679306  0.0886995545353755   T   T   T
  0.5560885909266505  0.0910680403451355  0.1039035917608016   T   T   T
  0.4273581790047710  0.1757983767594416  0.0979377043720752   T   T   T
  0.5563743716068797  0.9212106664373649  0.1039128068999936   T   T   T
  0.4210156668389962  0.6685967164979159  0.1150805679668406   T   T   T
  0.4296526634758799  0.8338506041147553  0.1057807115143628   T   T   T
  0.8060787952220249  0.0918963933743461  0.0953696884644197   T   T   T
  0.6827804578175241  0.1784564001233204  0.1056570237046958   T   T   T
  0.8075665917766417  0.9247098352346593  0.0930540842138032   T   T   T
  0.6915171109824106  0.3437483317960861  0.1149346597203949   T   T   T
  0.8101696013558697  0.5957291829345732  0.0913715123325703   T   T   T
  0.8091638884616391  0.4243401153381186  0.0955337805319756   T   T   T
  0.6850847742704749  0.8364447035135018  0.0978279377846201   T   T   T
  0.4208488310740302  0.3357198440135547  0.0936653000709894   T   T   T
  0.6916314183515290  0.6765159631373923  0.0935127654572127   T   T   T
  0.5562571580790450  0.5062161156302013  0.1272318527443953   T   T   T
 
  0.00000000E+00  0.00000000E+00  0.00000000E+00
  0.00000000E+00  0.00000000E+00  0.00000000E+00
  0.00000000E+00  0.00000000E+00  0.00000000E+00
  0.00000000E+00  0.00000000E+00  0.00000000E+00
  0.00000000E+00  0.00000000E+00  0.00000000E+00
  0.00000000E+00  0.00000000E+00  0.00000000E+00
  0.00000000E+00  0.00000000E+00  0.00000000E+00
  0.00000000E+00  0.00000000E+00  0.00000000E+00
  0.00000000E+00  0.00000000E+00  0.00000000E+00
  0.00000000E+00  0.00000000E+00  0.00000000E+00
  0.00000000E+00  0.00000000E+00  0.00000000E+00
  0.00000000E+00  0.00000000E+00  0.00000000E+00
  0.00000000E+00  0.00000000E+00  0.00000000E+00
  0.00000000E+00  0.00000000E+00  0.00000000E+00
  0.00000000E+00  0.00000000E+00  0.00000000E+00
  0.00000000E+00  0.00000000E+00  0.00000000E+00
  0.00000000E+00  0.00000000E+00  0.00000000E+00
  0.00000000E+00  0.00000000E+00  0.00000000E+00
  0.00000000E+00  0.00000000E+00  0.00000000E+00
  0.00000000E+00  0.00000000E+00  0.00000000E+00
  0.00000000E+00  0.00000000E+00  0.00000000E+00
  0.00000000E+00  0.00000000E+00  0.00000000E+00
  0.00000000E+00  0.00000000E+00  0.00000000E+00
  0.00000000E+00  0.00000000E+00  0.00000000E+00
  0.00000000E+00  0.00000000E+00  0.00000000E+00
  0.00000000E+00  0.00000000E+00  0.00000000E+00
  0.00000000E+00  0.00000000E+00  0.00000000E+00
  0.00000000E+00  0.00000000E+00  0.00000000E+00
  0.00000000E+00  0.00000000E+00  0.00000000E+00
  0.00000000E+00  0.00000000E+00  0.00000000E+00
  0.00000000E+00  0.00000000E+00  0.00000000E+00
