Title                                   
   1.00000000000000     
     9.8694509999999998    0.0000000000000000    0.0000000000000000
     0.0000000000000000    8.5490480000000009    0.0000000000000000
     0.0000000000000000    0.0000000000000000   20.0000000000000000
    28     3     1
Selective dynamics
Direct
  0.0568323533235588  0.0918380841034290  0.0856566577471237   T   T   T
  0.9315874396397650  0.1753751319347483  0.0858253897770812   T   T   T
  0.0590540827376453  0.9250719855776384  0.0841306397886494   T   T   T
  0.9299398506531730  0.3435703237191055  0.0868475614412180   T   T   T
  0.0577291748085170  0.5916170010769675  0.0873144506868285   T   T   T
  0.9335671753653688  0.6753356751660073  0.0824888054754071   T   T   T
  0.0570666452094783  0.4240916903780519  0.0882763207452746   T   T   T
  0.9340193578253533  0.8417326223922431  0.0813453042694894   T   T   T
  0.3070198577156041  0.0871434729623741  0.0923410248355822   T   T   T
  0.1835337127136911  0.1726742944785783  0.0900775618129314   T   T   T
  0.1823985397231731  0.3398633237603104  0.0938563015977601   T   T   T
  0.3040199484940316  0.5883860729879086  0.1088753860788136   T   T   T
  0.1830553852250044  0.6741795597909970  0.0931817929282677   T   T   T
  0.3056066868300740  0.4205251932012333  0.1070123116631810   T   T   T
  0.1833184389866922  0.8409080631608576  0.0894942166620596   T   T   T
  0.5570028435461754  0.0852687171837493  0.0945052952528380   T   T   T
  0.5571757990462030  0.9194427366191470  0.0947602008901510   T   T   T
  0.4304644940238543  0.3306829561104926  0.1123701737886506   T   T   T
  0.4304111845777307  0.8381192242492388  0.1057713673645331   T   T   T
  0.8060995244836000  0.0910011125279678  0.0847945588323489   T   T   T
  0.6797659726281534  0.1731028287091917  0.0907090487242293   T   T   T
  0.8080941497718025  0.9251504436313343  0.0821194871320058   T   T   T
  0.6802960042415308  0.3398074029981695  0.1006344101046979   T   T   T
  0.8052210658362438  0.5969909935212313  0.0825339896352943   T   T   T
  0.8037633648448568  0.4273076865871134  0.0897365314089848   T   T   T
  0.6851382398143006  0.8362804798500308  0.0839583316534092   T   T   T
  0.4182473531299332  0.6818009968856185  0.1258853245395528   T   T   T
  0.5559654878912520  0.4025644803639382  0.1249650333668080   T   T   T
  0.6876165594122844  0.6782210498135544  0.0795840175540821   T   T   T
  0.3076597040478291  0.9239462830929905  0.0926966226367994   T   T   T
  0.4304757185221318  0.1667153886673579  0.0985945629264363   T   T   T
  0.5474928849309946  0.5815307244984250  0.1853323186795273   T   T   T
 
  0.00000000E+00  0.00000000E+00  0.00000000E+00
  0.00000000E+00  0.00000000E+00  0.00000000E+00
  0.00000000E+00  0.00000000E+00  0.00000000E+00
  0.00000000E+00  0.00000000E+00  0.00000000E+00
  0.00000000E+00  0.00000000E+00  0.00000000E+00
  0.00000000E+00  0.00000000E+00  0.00000000E+00
  0.00000000E+00  0.00000000E+00  0.00000000E+00
  0.00000000E+00  0.00000000E+00  0.00000000E+00
  0.00000000E+00  0.00000000E+00  0.00000000E+00
  0.00000000E+00  0.00000000E+00  0.00000000E+00
  0.00000000E+00  0.00000000E+00  0.00000000E+00
  0.00000000E+00  0.00000000E+00  0.00000000E+00
  0.00000000E+00  0.00000000E+00  0.00000000E+00
  0.00000000E+00  0.00000000E+00  0.00000000E+00
  0.00000000E+00  0.00000000E+00  0.00000000E+00
  0.00000000E+00  0.00000000E+00  0.00000000E+00
  0.00000000E+00  0.00000000E+00  0.00000000E+00
  0.00000000E+00  0.00000000E+00  0.00000000E+00
  0.00000000E+00  0.00000000E+00  0.00000000E+00
  0.00000000E+00  0.00000000E+00  0.00000000E+00
  0.00000000E+00  0.00000000E+00  0.00000000E+00
  0.00000000E+00  0.00000000E+00  0.00000000E+00
  0.00000000E+00  0.00000000E+00  0.00000000E+00
  0.00000000E+00  0.00000000E+00  0.00000000E+00
  0.00000000E+00  0.00000000E+00  0.00000000E+00
  0.00000000E+00  0.00000000E+00  0.00000000E+00
  0.00000000E+00  0.00000000E+00  0.00000000E+00
  0.00000000E+00  0.00000000E+00  0.00000000E+00
  0.00000000E+00  0.00000000E+00  0.00000000E+00
  0.00000000E+00  0.00000000E+00  0.00000000E+00
  0.00000000E+00  0.00000000E+00  0.00000000E+00
  0.00000000E+00  0.00000000E+00  0.00000000E+00
