Title                                   
   1.00000000000000     
     9.8694509999999998    0.0000000000000000    0.0000000000000000
     0.0000000000000000    8.5490480000000009    0.0000000000000000
     0.0000000000000000    0.0000000000000000   20.0000000000000000
    28     3     1
Selective dynamics
Direct
  0.0562776917351360  0.0907543915776540  0.0849516345011886   T   T   T
  0.9305121774981024  0.1738884738711889  0.0881864939388005   T   T   T
  0.0562699697343925  0.9225211656918303  0.0825523614839731   T   T   T
  0.9307277411206073  0.3399901141007721  0.0923488168416567   T   T   T
  0.0562020614543792  0.5892280672107647  0.0858862414507535   T   T   T
  0.9315741289605877  0.6704155539707582  0.0862488210720315   T   T   T
  0.0562548339987163  0.4225056209100553  0.0904451591106250   T   T   T
  0.9306306939584779  0.8385521676501282  0.0842301238501167   T   T   T
  0.3055736923293384  0.0892637917861312  0.0868482788237442   T   T   T
  0.1820976339796390  0.1738572330444924  0.0875226675609708   T   T   T
  0.3066757265032755  0.9237139497455152  0.0860101251639382   T   T   T
  0.1818176807722116  0.3399246901471621  0.0917258986157164   T   T   T
  0.3050880688038164  0.5895781702491307  0.0962840566103398   T   T   T
  0.1808539396936921  0.6703961851246671  0.0854453208966231   T   T   T
  0.1819308822257118  0.8385104169574600  0.0835192168246899   T   T   T
  0.5563304143545028  0.0884016248359827  0.0950332176245935   T   T   T
  0.4307722013561097  0.1709473493736982  0.0928962629178814   T   T   T
  0.4318609289927149  0.3361833332448626  0.1015329210119197   T   T   T
  0.4295234915240533  0.8399002366564484  0.0967946150048726   T   T   T
  0.8071041538219580  0.0892678529909723  0.0879019801456578   T   T   T
  0.6818850580100769  0.1709789208598181  0.0936362358104748   T   T   T
  0.8059533136260759  0.9237625442250958  0.0870850396300025   T   T   T
  0.6807040577279149  0.3362023530567765  0.1022196891175998   T   T   T
  0.8075207377899005  0.5896287601293313  0.0975972811972954   T   T   T
  0.6830635850522526  0.8399714207920138  0.0977446494632896   T   T   T
  0.4227064224728851  0.6776852821902126  0.1108394755580901   T   T   T
  0.5560911836896075  0.4121637755304325  0.1168451018573595   T   T   T
  0.6899824216754453  0.6778666149324807  0.1121910431645970   T   T   T
  0.5562812033225014  0.9211543410840958  0.0984147369438721   T   T   T
  0.3069366165807406  0.4222207380906041  0.0983621335569353   T   T   T
  0.8056195092226968  0.4222301649004724  0.0993873091644952   T   T   T
  0.5548167780124853  0.5985806950689939  0.1849880910859120   T   T   T
 
  0.00000000E+00  0.00000000E+00  0.00000000E+00
  0.00000000E+00  0.00000000E+00  0.00000000E+00
  0.00000000E+00  0.00000000E+00  0.00000000E+00
  0.00000000E+00  0.00000000E+00  0.00000000E+00
  0.00000000E+00  0.00000000E+00  0.00000000E+00
  0.00000000E+00  0.00000000E+00  0.00000000E+00
  0.00000000E+00  0.00000000E+00  0.00000000E+00
  0.00000000E+00  0.00000000E+00  0.00000000E+00
  0.00000000E+00  0.00000000E+00  0.00000000E+00
  0.00000000E+00  0.00000000E+00  0.00000000E+00
  0.00000000E+00  0.00000000E+00  0.00000000E+00
  0.00000000E+00  0.00000000E+00  0.00000000E+00
  0.00000000E+00  0.00000000E+00  0.00000000E+00
  0.00000000E+00  0.00000000E+00  0.00000000E+00
  0.00000000E+00  0.00000000E+00  0.00000000E+00
  0.00000000E+00  0.00000000E+00  0.00000000E+00
  0.00000000E+00  0.00000000E+00  0.00000000E+00
  0.00000000E+00  0.00000000E+00  0.00000000E+00
  0.00000000E+00  0.00000000E+00  0.00000000E+00
  0.00000000E+00  0.00000000E+00  0.00000000E+00
  0.00000000E+00  0.00000000E+00  0.00000000E+00
  0.00000000E+00  0.00000000E+00  0.00000000E+00
  0.00000000E+00  0.00000000E+00  0.00000000E+00
  0.00000000E+00  0.00000000E+00  0.00000000E+00
  0.00000000E+00  0.00000000E+00  0.00000000E+00
  0.00000000E+00  0.00000000E+00  0.00000000E+00
  0.00000000E+00  0.00000000E+00  0.00000000E+00
  0.00000000E+00  0.00000000E+00  0.00000000E+00
  0.00000000E+00  0.00000000E+00  0.00000000E+00
  0.00000000E+00  0.00000000E+00  0.00000000E+00
  0.00000000E+00  0.00000000E+00  0.00000000E+00
  0.00000000E+00  0.00000000E+00  0.00000000E+00
