Title                                   
   1.00000000000000     
     9.8694509999999998    0.0000000000000000    0.0000000000000000
     0.0000000000000000    8.5490480000000009    0.0000000000000000
     0.0000000000000000    0.0000000000000000   20.0000000000000000
    30     1     1
Selective dynamics
Direct
  0.0562581701564436  0.0899751068771089  0.0812794855239041   T   T   T
  0.9312398681058266  0.1734610234367072  0.0836275412335790   T   T   T
  0.0562344557574246  0.9227951672098217  0.0818016694584287   T   T   T
  0.9305113096051538  0.3403286280354255  0.0883150440867042   T   T   T
  0.0562346493305250  0.5891898070403013  0.0871695404225494   T   T   T
  0.9312894496364057  0.6724739559540884  0.0890497824965136   T   T   T
  0.0562349249244687  0.4228222033886512  0.0875216803968034   T   T   T
  0.9309192347974673  0.8392972683570266  0.0849150856503203   T   T   T
  0.3051997819664013  0.0893311633236923  0.0842956025230040   T   T   T
  0.1812770004625996  0.1734495722912271  0.0836265514027170   T   T   T
  0.3065918851666955  0.9237537765685810  0.0855565526889502   T   T   T
  0.1819493450854071  0.3403182059171333  0.0883025349290480   T   T   T
  0.3049060445546058  0.5912674419742151  0.1007554127560970   T   T   T
  0.1811782848754301  0.6724596646091993  0.0890242245227846   T   T   T
  0.3067326261335120  0.4226443482708345  0.0982431203490199   T   T   T
  0.1815402215653609  0.8392888194657379  0.0849121048848360   T   T   T
  0.5562491422722960  0.0871351489597972  0.0917433918847307   T   T   T
  0.4304957367684837  0.1694448487588928  0.0908527535769711   T   T   T
  0.4304283615567982  0.3336056048581098  0.1020464204463917   T   T   T
  0.4235993336167961  0.6834398629433910  0.1159721649083752   T   T   T
  0.5562189260867000  0.4042788784419238  0.1190013404606673   T   T   T
  0.4303579879095439  0.8427104880671545  0.0971005219659749   T   T   T
  0.8073078385451794  0.0893418988815045  0.0842993357609021   T   T   T
  0.6820164142801975  0.1694667538991543  0.0908681274161377   T   T   T
  0.8058708691433741  0.9237676932400313  0.0855640321567136   T   T   T
  0.6820550218699988  0.3336212283221340  0.1020740014914302   T   T   T
  0.8075894527519777  0.5912791326582086  0.1008177853825127   T   T   T
  0.6889193515964129  0.6834974643124836  0.1160684276055235   T   T   T
  0.8057403429255424  0.4226650232482808  0.0982831256012373   T   T   T
  0.6821060930114933  0.8427349186519841  0.0971338258438655   T   T   T
  0.5562295359080827  0.9232354330949669  0.0953091874407248   T   T   T
  0.5561573396334020  0.5871654689422393  0.1801446247326168   T   T   T
 
  0.00000000E+00  0.00000000E+00  0.00000000E+00
  0.00000000E+00  0.00000000E+00  0.00000000E+00
  0.00000000E+00  0.00000000E+00  0.00000000E+00
  0.00000000E+00  0.00000000E+00  0.00000000E+00
  0.00000000E+00  0.00000000E+00  0.00000000E+00
  0.00000000E+00  0.00000000E+00  0.00000000E+00
  0.00000000E+00  0.00000000E+00  0.00000000E+00
  0.00000000E+00  0.00000000E+00  0.00000000E+00
  0.00000000E+00  0.00000000E+00  0.00000000E+00
  0.00000000E+00  0.00000000E+00  0.00000000E+00
  0.00000000E+00  0.00000000E+00  0.00000000E+00
  0.00000000E+00  0.00000000E+00  0.00000000E+00
  0.00000000E+00  0.00000000E+00  0.00000000E+00
  0.00000000E+00  0.00000000E+00  0.00000000E+00
  0.00000000E+00  0.00000000E+00  0.00000000E+00
  0.00000000E+00  0.00000000E+00  0.00000000E+00
  0.00000000E+00  0.00000000E+00  0.00000000E+00
  0.00000000E+00  0.00000000E+00  0.00000000E+00
  0.00000000E+00  0.00000000E+00  0.00000000E+00
  0.00000000E+00  0.00000000E+00  0.00000000E+00
  0.00000000E+00  0.00000000E+00  0.00000000E+00
  0.00000000E+00  0.00000000E+00  0.00000000E+00
  0.00000000E+00  0.00000000E+00  0.00000000E+00
  0.00000000E+00  0.00000000E+00  0.00000000E+00
  0.00000000E+00  0.00000000E+00  0.00000000E+00
  0.00000000E+00  0.00000000E+00  0.00000000E+00
  0.00000000E+00  0.00000000E+00  0.00000000E+00
  0.00000000E+00  0.00000000E+00  0.00000000E+00
  0.00000000E+00  0.00000000E+00  0.00000000E+00
  0.00000000E+00  0.00000000E+00  0.00000000E+00
  0.00000000E+00  0.00000000E+00  0.00000000E+00
  0.00000000E+00  0.00000000E+00  0.00000000E+00
