Title                                   
   1.00000000000000     
     8.5490480000000009    0.0000000000000000    0.0000000000000000
     0.0000000000000000    8.5490480000000009    0.0000000000000000
     0.0000000000000000    0.0000000000000000   20.0000000000000000
    21     3     1
Selective dynamics
Direct
  0.9107460972700361  0.2068355965847638  0.0978055179043498   T   T   T
  0.9122846277726960  0.8014676368503143  0.0976535943043354   T   T   T
  0.1981716866579373  0.0829399057073773  0.0980386274071007   T   T   T
  0.0744022840900861  0.2026483802792645  0.0980474122794730   T   T   T
  0.1548014673861224  0.6497467595789528  0.0980207910849628   T   T   T
  0.0730578693004971  0.5035188123329161  0.0981094717329204   T   T   T
  0.1552052371361111  0.3568485736175873  0.0982100713011489   T   T   T
  0.0787303314738837  0.8000290817293522  0.0978318388913529   T   T   T
  0.4948326689992320  0.0835439211412488  0.0978751883559040   T   T   T
  0.3454864637496937  0.1636518567782745  0.0980760943876387   T   T   T
  0.4942953574953138  0.9138905930059764  0.0978804677687460   T   T   T
  0.3464397419396773  0.8327010554450958  0.0980505215184778   T   T   T
  0.7881042642050904  0.0853192267347578  0.0975955101865546   T   T   T
  0.6399875817744363  0.1647697516510639  0.0977282823047190   T   T   T
  0.7901691941078995  0.9194490919283728  0.0975988657319842   T   T   T
  0.8304638390457240  0.6521419256639996  0.0978579356755826   T   T   T
  0.8263050794692509  0.3584365355101216  0.0979525803909607   T   T   T
  0.6426378298995474  0.8351666286331538  0.0978236466416959   T   T   T
  0.3193283931788863  0.3323730832282518  0.0981954342278209   T   T   T
  0.3201133398617516  0.6705580850348957  0.0981336452385553   T   T   T
  0.6641093880842778  0.3339131480350356  0.0978995897668745   T   T   T
  0.9067594348802854  0.5052218028617103  0.0980644384218360   T   T   T
  0.6705077193130613  0.6735683107943679  0.0980843814198557   T   T   T
  0.1977385286108132  0.9162841534320260  0.0980139087339955   T   T   T
  0.4907335742976810  0.4997660834411333  0.0981571843231371   T   T   T
 
  0.00000000E+00  0.00000000E+00  0.00000000E+00
  0.00000000E+00  0.00000000E+00  0.00000000E+00
  0.00000000E+00  0.00000000E+00  0.00000000E+00
  0.00000000E+00  0.00000000E+00  0.00000000E+00
  0.00000000E+00  0.00000000E+00  0.00000000E+00
  0.00000000E+00  0.00000000E+00  0.00000000E+00
  0.00000000E+00  0.00000000E+00  0.00000000E+00
  0.00000000E+00  0.00000000E+00  0.00000000E+00
  0.00000000E+00  0.00000000E+00  0.00000000E+00
  0.00000000E+00  0.00000000E+00  0.00000000E+00
  0.00000000E+00  0.00000000E+00  0.00000000E+00
  0.00000000E+00  0.00000000E+00  0.00000000E+00
  0.00000000E+00  0.00000000E+00  0.00000000E+00
  0.00000000E+00  0.00000000E+00  0.00000000E+00
  0.00000000E+00  0.00000000E+00  0.00000000E+00
  0.00000000E+00  0.00000000E+00  0.00000000E+00
  0.00000000E+00  0.00000000E+00  0.00000000E+00
  0.00000000E+00  0.00000000E+00  0.00000000E+00
  0.00000000E+00  0.00000000E+00  0.00000000E+00
  0.00000000E+00  0.00000000E+00  0.00000000E+00
  0.00000000E+00  0.00000000E+00  0.00000000E+00
  0.00000000E+00  0.00000000E+00  0.00000000E+00
  0.00000000E+00  0.00000000E+00  0.00000000E+00
  0.00000000E+00  0.00000000E+00  0.00000000E+00
  0.00000000E+00  0.00000000E+00  0.00000000E+00
