Title                                   
   1.00000000000000     
     9.8694509999999998    0.0000000000000000    0.0000000000000000
     0.0000000000000000    8.5490480000000009    0.0000000000000000
     0.0000000000000000    0.0000000000000000   20.0000000000000000
    25     6     1
Selective dynamics
Direct
  0.0562377184885636  0.0927575484617338  0.0886615868497184   T   T   T
  0.9300856860002911  0.1755415826010870  0.0902415165833747   T   T   T
  0.0563839926877999  0.9237378533149881  0.0881750616726985   T   T   T
  0.9299219041182364  0.3414634394744443  0.0929030332491906   T   T   T
  0.0563204904603845  0.5899225394077927  0.0896297863045311   T   T   T
  0.9316776630771998  0.6714084096079964  0.0911841831467387   T   T   T
  0.0562701409569390  0.4231802505656846  0.0919204596644253   T   T   T
  0.9313176109631830  0.8395868225176040  0.0900266780668684   T   T   T
  0.3056289608259986  0.0891110161693117  0.0883384846812428   T   T   T
  0.1824608025359868  0.1752375191027062  0.0893052999561230   T   T   T
  0.3067165708962318  0.9234285528409585  0.0883825360914662   T   T   T
  0.1824439051068058  0.3411485920342439  0.0917934248737167   T   T   T
  0.3070876327783085  0.5921798681934554  0.0931901451780183   T   T   T
  0.1810920379610430  0.6712543852440375  0.0888285377501709   T   T   T
  0.1815079401356229  0.8393313064592181  0.0880472643273549   T   T   T
  0.5562932044877190  0.0855149015095289  0.0956864173851726   T   T   T
  0.4312293280408191  0.1695502825890599  0.0931432559712552   T   T   T
  0.4338526577377316  0.3344485464453597  0.0985462849635175   T   T   T
  0.4286125661042638  0.8367500254501264  0.0931666006878986   T   T   T
  0.8069786780477379  0.0896330676502552  0.0897173615969274   T   T   T
  0.6813251110890843  0.1699729995675927  0.0943308583669205   T   T   T
  0.8062656541466433  0.9239752826638716  0.0905288562690191   T   T   T
  0.6784586767545654  0.3350479554727466  0.1003577102483053   T   T   T
  0.8061014942761238  0.5923516081199198  0.0979078855605163   T   T   T
  0.6845811405124235  0.8376997382022026  0.0962840364569037   T   T   T
  0.4245847190471225  0.6769551094161813  0.1003504410699488   T   T   T
  0.5555410497223598  0.4081052888367505  0.1130599262551689   T   T   T
  0.6899841005768740  0.6789650514252883  0.1078792547417454   T   T   T
  0.5565319230455822  0.9157932416061124  0.0957671554674187   T   T   T
  0.3116254466594335  0.4246285887892722  0.0944246336121441   T   T   T
  0.8007946239763768  0.4251608503162961  0.0966855355658222   T   T   T
  0.5517255687825524  0.5964037759441747  0.1772107873856934   T   T   T
 
  0.00000000E+00  0.00000000E+00  0.00000000E+00
  0.00000000E+00  0.00000000E+00  0.00000000E+00
  0.00000000E+00  0.00000000E+00  0.00000000E+00
  0.00000000E+00  0.00000000E+00  0.00000000E+00
  0.00000000E+00  0.00000000E+00  0.00000000E+00
  0.00000000E+00  0.00000000E+00  0.00000000E+00
  0.00000000E+00  0.00000000E+00  0.00000000E+00
  0.00000000E+00  0.00000000E+00  0.00000000E+00
  0.00000000E+00  0.00000000E+00  0.00000000E+00
  0.00000000E+00  0.00000000E+00  0.00000000E+00
  0.00000000E+00  0.00000000E+00  0.00000000E+00
  0.00000000E+00  0.00000000E+00  0.00000000E+00
  0.00000000E+00  0.00000000E+00  0.00000000E+00
  0.00000000E+00  0.00000000E+00  0.00000000E+00
  0.00000000E+00  0.00000000E+00  0.00000000E+00
  0.00000000E+00  0.00000000E+00  0.00000000E+00
  0.00000000E+00  0.00000000E+00  0.00000000E+00
  0.00000000E+00  0.00000000E+00  0.00000000E+00
  0.00000000E+00  0.00000000E+00  0.00000000E+00
  0.00000000E+00  0.00000000E+00  0.00000000E+00
  0.00000000E+00  0.00000000E+00  0.00000000E+00
  0.00000000E+00  0.00000000E+00  0.00000000E+00
  0.00000000E+00  0.00000000E+00  0.00000000E+00
  0.00000000E+00  0.00000000E+00  0.00000000E+00
  0.00000000E+00  0.00000000E+00  0.00000000E+00
  0.00000000E+00  0.00000000E+00  0.00000000E+00
  0.00000000E+00  0.00000000E+00  0.00000000E+00
  0.00000000E+00  0.00000000E+00  0.00000000E+00
  0.00000000E+00  0.00000000E+00  0.00000000E+00
  0.00000000E+00  0.00000000E+00  0.00000000E+00
  0.00000000E+00  0.00000000E+00  0.00000000E+00
  0.00000000E+00  0.00000000E+00  0.00000000E+00
