Title                                   
   1.00000000000000     
     4.9440799999999996    0.0000000000000000    0.0000000000000000
     0.0000000000000000    8.5647549999999999    0.0000000000000000
     0.0000000000000000    0.0000000000000000   20.0000000000000000
    11     3     1
Selective dynamics
Direct
  0.0028054872725508  0.2946760840613346  0.0969321048723961   T   T   T
  0.2452935790004406  0.0402725208073727  0.0952208924097762   T   T   T
 -0.0067820723792374  0.9558731953180210  0.0982102097917484   T   T   T
  0.7526121284690256  0.2072029388325274  0.0914197293853570   T   T   T
  0.5033328934292001  0.2933754367532694  0.0936701869222446   T   T   T
  0.7466038823642505  0.0409350515255648  0.0915592765888662   T   T   T
  0.7421303941395220  0.7102183209173589  0.0993008151339258   T   T   T
  0.7515287466442236  0.5368500408878190  0.1009444964820312   T   T   T
  0.4943460491693911  0.9577746681218313  0.0919695031169513   T   T   T
  0.4991865274182521  0.7915154608434527  0.0916393487186571   T   T   T
 -0.0000286718090779  0.4570522610042338  0.1062848048121059   T   T   T
  0.5068146321741921  0.4526038564629982  0.0970916612878337   T   T   T
 -0.0137695587558111  0.7937394225173157  0.1096616066504016   T   T   T
  0.2514330765853313  0.2105237904313975  0.0949354072071062   T   T   T
  0.2744929062777462  0.6290679515155067  0.1491399566206020   T   T   T
 
  0.00000000E+00  0.00000000E+00  0.00000000E+00
  0.00000000E+00  0.00000000E+00  0.00000000E+00
  0.00000000E+00  0.00000000E+00  0.00000000E+00
  0.00000000E+00  0.00000000E+00  0.00000000E+00
  0.00000000E+00  0.00000000E+00  0.00000000E+00
  0.00000000E+00  0.00000000E+00  0.00000000E+00
  0.00000000E+00  0.00000000E+00  0.00000000E+00
  0.00000000E+00  0.00000000E+00  0.00000000E+00
  0.00000000E+00  0.00000000E+00  0.00000000E+00
  0.00000000E+00  0.00000000E+00  0.00000000E+00
  0.00000000E+00  0.00000000E+00  0.00000000E+00
  0.00000000E+00  0.00000000E+00  0.00000000E+00
  0.00000000E+00  0.00000000E+00  0.00000000E+00
  0.00000000E+00  0.00000000E+00  0.00000000E+00
  0.00000000E+00  0.00000000E+00  0.00000000E+00
