Title                                   
   1.00000000000000     
     9.8694509999999998    0.0000000000000000    0.0000000000000000
     0.0000000000000000    8.5490480000000009    0.0000000000000000
     0.0000000000000000    0.0000000000000000   20.0000000000000000
    27     3     1
Selective dynamics
Direct
  0.0552805693091452  0.0884723157281419  0.0839447055865390   T   T   T
  0.9307518308824181  0.1717095647276567  0.0853597631712524   T   T   T
  0.0568189290574904  0.9220370312226880  0.0848819993796313   T   T   T
  0.9322062697919167  0.3391883836354637  0.0860627196237705   T   T   T
  0.0559386807288596  0.5905068836686042  0.0858384261693084   T   T   T
  0.0561041701352712  0.4238283762897340  0.0845327553291299   T   T   T
  0.9313809293385881  0.8381633951760987  0.0869303118709006   T   T   T
  0.3071970916051046  0.0882125019672050  0.0893705732116186   T   T   T
  0.1819720547830699  0.1716565017211338  0.0854601887798157   T   T   T
  0.1806566640344738  0.3389090254524434  0.0861771820708008   T   T   T
  0.3031594087287122  0.5897225479943567  0.0950028980474221   T   T   T
  0.1803792844160119  0.6743857318550744  0.0880849690558533   T   T   T
  0.3039430506850979  0.4212395196882354  0.0939914672372091   T   T   T
  0.1825553142191641  0.8408789165643910  0.0871032716153776   T   T   T
  0.4319598818458797  0.1737494318617583  0.0971937333544695   T   T   T
  0.5556879063874067  0.9238296239675149  0.1004404862289283   T   T   T
  0.4275317513989198  0.3377577151501670  0.1040286906783134   T   T   T
  0.4255020805052360  0.6750535218941260  0.1059316139148911   T   T   T
  0.4299545872788998  0.8390039462490131  0.0995288734686346   T   T   T
  0.8051232890093202  0.0881186351550519  0.0893194065212697   T   T   T
  0.6806959373297600  0.1759937435821810  0.0971998980475703   T   T   T
  0.8060524194977601  0.9210345133710096  0.0903023158623305   T   T   T
  0.6848439362748564  0.3407366687895569  0.1042899832023539   T   T   T
  0.8100272318948005  0.5913964429255867  0.0957365341252594   T   T   T
  0.6874730747531521  0.6717994493037313  0.1064552560221160   T   T   T
  0.8103508442161188  0.4215381731159887  0.0942655274978029   T   T   T
  0.6799896093250343  0.8380350771627753  0.0990968600620702   T   T   T
  0.9329206863344299  0.6722744151461597  0.0876660379258116   T   T   T
  0.5569568870612607  0.0914232028805405  0.0992783423925557   T   T   T
  0.3054583951111879  0.9237449286780993  0.0899464723879737   T   T   T
  0.5542622340606562  0.5064748150755327  0.1575437371590467   T   T   T
 
  0.00000000E+00  0.00000000E+00  0.00000000E+00
  0.00000000E+00  0.00000000E+00  0.00000000E+00
  0.00000000E+00  0.00000000E+00  0.00000000E+00
  0.00000000E+00  0.00000000E+00  0.00000000E+00
  0.00000000E+00  0.00000000E+00  0.00000000E+00
  0.00000000E+00  0.00000000E+00  0.00000000E+00
  0.00000000E+00  0.00000000E+00  0.00000000E+00
  0.00000000E+00  0.00000000E+00  0.00000000E+00
  0.00000000E+00  0.00000000E+00  0.00000000E+00
  0.00000000E+00  0.00000000E+00  0.00000000E+00
  0.00000000E+00  0.00000000E+00  0.00000000E+00
  0.00000000E+00  0.00000000E+00  0.00000000E+00
  0.00000000E+00  0.00000000E+00  0.00000000E+00
  0.00000000E+00  0.00000000E+00  0.00000000E+00
  0.00000000E+00  0.00000000E+00  0.00000000E+00
  0.00000000E+00  0.00000000E+00  0.00000000E+00
  0.00000000E+00  0.00000000E+00  0.00000000E+00
  0.00000000E+00  0.00000000E+00  0.00000000E+00
  0.00000000E+00  0.00000000E+00  0.00000000E+00
  0.00000000E+00  0.00000000E+00  0.00000000E+00
  0.00000000E+00  0.00000000E+00  0.00000000E+00
  0.00000000E+00  0.00000000E+00  0.00000000E+00
  0.00000000E+00  0.00000000E+00  0.00000000E+00
  0.00000000E+00  0.00000000E+00  0.00000000E+00
  0.00000000E+00  0.00000000E+00  0.00000000E+00
  0.00000000E+00  0.00000000E+00  0.00000000E+00
  0.00000000E+00  0.00000000E+00  0.00000000E+00
  0.00000000E+00  0.00000000E+00  0.00000000E+00
  0.00000000E+00  0.00000000E+00  0.00000000E+00
  0.00000000E+00  0.00000000E+00  0.00000000E+00
  0.00000000E+00  0.00000000E+00  0.00000000E+00
