Title                                   
   1.00000000000000     
     4.9440799999999996    0.0000000000000000    0.0000000000000000
     0.0000000000000000   17.1295089999999988    0.0000000000000000
     0.0000000000000000    0.0000000000000000   20.0000000000000000
    29     2     1
Selective dynamics
Direct
  0.0023845063654845  0.1046027741233328  0.2792684526098956   T   T   T
  0.2529295469089226  0.1463529982600331  0.2836346644218391   T   T   T
  0.2542958694278634  0.2288249636353130  0.2951791211599899   T   T   T
  0.0058103937624667  0.3501783068334917  0.3195410332731604   T   T   T
  0.0032622870401497  0.2699312355462263  0.3010446197079732   T   T   T
 -0.0083396257283039  0.6065822598376829  0.3140807778489921   T   T   T
  0.2460453311432078  0.7286225321488723  0.2921038984546671   T   T   T
 -0.0013495731056850  0.8537002176486432  0.2777924435619844   T   T   T
  0.2488338402876116  0.8955845664823701  0.2757836533321302   T   T   T
  0.2504294074210050  0.9792267238620214  0.2741772695353386   T   T   T
 -0.0026520272194067  0.7704078087001950  0.2854573198079582   T   T   T
  0.5024368311934709  0.1045690256478086  0.2793758699562582   T   T   T
  0.7527768911024394  0.1463133519970662  0.2827661903787715   T   T   T
  0.7540807470218861  0.2288886734353077  0.2929470915808215   T   T   T
  0.5009939662972116  0.0211200770106502  0.2747864450657982   T   T   T
  0.5054311020265235  0.3503756738474408  0.3205127139562752   T   T   T
  0.7569149602533815  0.3962263315838145  0.3262937119624491   T   T   T
  0.7496062062315395  0.4820799130142239  0.3328082679354451   T   T   T
  0.5059695445895672  0.2700381943653259  0.3015964627616310   T   T   T
  0.4982022735783773  0.6067825308145544  0.3163314632168472   T   T   T
  0.7468373198319740  0.7293821041073838  0.2901520312417001   T   T   T
  0.4980053568514609  0.8536029507237298  0.2779869518093662   T   T   T
  0.7487833404165795  0.8953983498217747  0.2754219748059034   T   T   T
  0.7504065486908389  0.9791211209704205  0.2738741344157851   T   T   T
  0.4964389700360706  0.7703226986852252  0.2857940795481290   T   T   T
  0.7450668883611854  0.6472034495737649  0.3036553694022424   T   T   T
  0.2454952250515729  0.6465348316300202  0.3081944777236001   T   T   T
  0.0008085611186985  0.0211449441048384  0.2747258603139683   T   T   T
  0.5100612664852029  0.5276681948468313  0.3395916835316247   T   T   T
  0.9863220799240487  0.5279289448939225  0.3331314919230449   T   T   T
  0.2554864904579052  0.3830331566644939  0.3367795589104270   T   T   T
  0.2350484741767575  0.4768020951832119  0.3977759158459337   T   T   T
 
  0.00000000E+00  0.00000000E+00  0.00000000E+00
  0.00000000E+00  0.00000000E+00  0.00000000E+00
  0.00000000E+00  0.00000000E+00  0.00000000E+00
  0.00000000E+00  0.00000000E+00  0.00000000E+00
  0.00000000E+00  0.00000000E+00  0.00000000E+00
  0.00000000E+00  0.00000000E+00  0.00000000E+00
  0.00000000E+00  0.00000000E+00  0.00000000E+00
  0.00000000E+00  0.00000000E+00  0.00000000E+00
  0.00000000E+00  0.00000000E+00  0.00000000E+00
  0.00000000E+00  0.00000000E+00  0.00000000E+00
  0.00000000E+00  0.00000000E+00  0.00000000E+00
  0.00000000E+00  0.00000000E+00  0.00000000E+00
  0.00000000E+00  0.00000000E+00  0.00000000E+00
  0.00000000E+00  0.00000000E+00  0.00000000E+00
  0.00000000E+00  0.00000000E+00  0.00000000E+00
  0.00000000E+00  0.00000000E+00  0.00000000E+00
  0.00000000E+00  0.00000000E+00  0.00000000E+00
  0.00000000E+00  0.00000000E+00  0.00000000E+00
  0.00000000E+00  0.00000000E+00  0.00000000E+00
  0.00000000E+00  0.00000000E+00  0.00000000E+00
  0.00000000E+00  0.00000000E+00  0.00000000E+00
  0.00000000E+00  0.00000000E+00  0.00000000E+00
  0.00000000E+00  0.00000000E+00  0.00000000E+00
  0.00000000E+00  0.00000000E+00  0.00000000E+00
  0.00000000E+00  0.00000000E+00  0.00000000E+00
  0.00000000E+00  0.00000000E+00  0.00000000E+00
  0.00000000E+00  0.00000000E+00  0.00000000E+00
  0.00000000E+00  0.00000000E+00  0.00000000E+00
  0.00000000E+00  0.00000000E+00  0.00000000E+00
  0.00000000E+00  0.00000000E+00  0.00000000E+00
  0.00000000E+00  0.00000000E+00  0.00000000E+00
  0.00000000E+00  0.00000000E+00  0.00000000E+00
