Title                                   
   1.00000000000000     
     4.9440799999999996    0.0000000000000000    0.0000000000000000
     0.0000000000000000   17.1295089999999988    0.0000000000000000
     0.0000000000000000    0.0000000000000000   20.0000000000000000
    29     2     1
Selective dynamics
Direct
  0.0013776756338697  0.1043586353082526  0.2807445242259473   T   T   T
  0.2518894591132917  0.1460237872778808  0.2844773164507194   T   T   T
  0.2531018744715811  0.2286035108510799  0.2947416759375853   T   T   T
  0.0048204197762610  0.3504684756436227  0.3173681817693036   T   T   T
  0.0025792065502856  0.2699072378026109  0.2999485883282817   T   T   T
 -0.0077890770273629  0.6064609684450655  0.3141559837944031   T   T   T
  0.2467551367998943  0.7285781613993818  0.2931674096907533   T   T   T
 -0.0010278799886865  0.8537360068293977  0.2800304408848349   T   T   T
  0.2490455074992036  0.8955747586527627  0.2781520170863226   T   T   T
  0.2500708693146368  0.9790939828107548  0.2766066007142120   T   T   T
 -0.0019648562515861  0.7705561837440831  0.2870169250482679   T   T   T
  0.5014830229684173  0.1043346561391937  0.2808047260858840   T   T   T
  0.7516686117813388  0.1461234496745885  0.2836088637225953   T   T   T
  0.7527543649746593  0.2289372185119902  0.2924483364424048   T   T   T
  0.5004564345790146  0.0209054935034258  0.2770635989785509   T   T   T
  0.5037307740914021  0.3507517927580762  0.3180358354663172   T   T   T
  0.7555946373338422  0.3961188337739851  0.3226771901376385   T   T   T
  0.7502300238378568  0.4813901703834499  0.3280367142135885   T   T   T
  0.5040128114732839  0.2700144306011926  0.3004789413802691   T   T   T
  0.4996672527063349  0.6072605005748221  0.3158843779813612   T   T   T
  0.7476878647632206  0.7296659536874553  0.2912744097928476   T   T   T
  0.4982620342635032  0.8536599499824750  0.2801851587437623   T   T   T
  0.7488509786500220  0.8953524672381872  0.2779230772398754   T   T   T
  0.7499788517412818  0.9790162371778828  0.2763961443983477   T   T   T
  0.4970620814055253  0.7703328722100715  0.2872845283363974   T   T   T
  0.7459935702362713  0.6474257190191477  0.3041791418374010   T   T   T
  0.2464633586366435  0.6463911184303108  0.3082838519440920   T   T   T
  0.0002451168568223  0.0209254424011673  0.2770216523003530   T   T   T
  0.5142849159330715  0.5272538872566973  0.3378327473480415   T   T   T
  0.9828034420869977  0.5273791309508860  0.3320522951518829   T   T   T
  0.2540379914095002  0.3836614846190013  0.3353236103763402   T   T   T
  0.2426965243796129  0.4782884823410912  0.3893601341913698   T   T   T
 
  0.00000000E+00  0.00000000E+00  0.00000000E+00
  0.00000000E+00  0.00000000E+00  0.00000000E+00
  0.00000000E+00  0.00000000E+00  0.00000000E+00
  0.00000000E+00  0.00000000E+00  0.00000000E+00
  0.00000000E+00  0.00000000E+00  0.00000000E+00
  0.00000000E+00  0.00000000E+00  0.00000000E+00
  0.00000000E+00  0.00000000E+00  0.00000000E+00
  0.00000000E+00  0.00000000E+00  0.00000000E+00
  0.00000000E+00  0.00000000E+00  0.00000000E+00
  0.00000000E+00  0.00000000E+00  0.00000000E+00
  0.00000000E+00  0.00000000E+00  0.00000000E+00
  0.00000000E+00  0.00000000E+00  0.00000000E+00
  0.00000000E+00  0.00000000E+00  0.00000000E+00
  0.00000000E+00  0.00000000E+00  0.00000000E+00
  0.00000000E+00  0.00000000E+00  0.00000000E+00
  0.00000000E+00  0.00000000E+00  0.00000000E+00
  0.00000000E+00  0.00000000E+00  0.00000000E+00
  0.00000000E+00  0.00000000E+00  0.00000000E+00
  0.00000000E+00  0.00000000E+00  0.00000000E+00
  0.00000000E+00  0.00000000E+00  0.00000000E+00
  0.00000000E+00  0.00000000E+00  0.00000000E+00
  0.00000000E+00  0.00000000E+00  0.00000000E+00
  0.00000000E+00  0.00000000E+00  0.00000000E+00
  0.00000000E+00  0.00000000E+00  0.00000000E+00
  0.00000000E+00  0.00000000E+00  0.00000000E+00
  0.00000000E+00  0.00000000E+00  0.00000000E+00
  0.00000000E+00  0.00000000E+00  0.00000000E+00
  0.00000000E+00  0.00000000E+00  0.00000000E+00
  0.00000000E+00  0.00000000E+00  0.00000000E+00
  0.00000000E+00  0.00000000E+00  0.00000000E+00
  0.00000000E+00  0.00000000E+00  0.00000000E+00
  0.00000000E+00  0.00000000E+00  0.00000000E+00
