Title                                   
   1.00000000000000     
     9.8694509999999998    0.0000000000000000    0.0000000000000000
     0.0000000000000000    8.5490480000000009    0.0000000000000000
     0.0000000000000000    0.0000000000000000   20.0000000000000000
    27     4     1
Selective dynamics
Direct
  0.0559796660092766  0.0912608789988863  0.0845665180358381   T   T   T
  0.9307480859460765  0.1752242182185460  0.0859990381474652   T   T   T
  0.0579455257481271  0.9241800478481449  0.0845851916988192   T   T   T
  0.9288963964150175  0.3424693529944315  0.0880705095537557   T   T   T
  0.0567673548149949  0.5906721064184609  0.0853103829791916   T   T   T
  0.9323691169406396  0.6738258434515239  0.0882662892747248   T   T   T
  0.0558123824982130  0.4231710980610537  0.0865273295533810   T   T   T
  0.9332624246950181  0.8410910087497303  0.0874427664420849   T   T   T
  0.3058667744528122  0.0878073647435541  0.0881952040313074   T   T   T
  0.1820023377178480  0.1726909498079375  0.0862447922453007   T   T   T
  0.1815284794852322  0.3389161497630018  0.0881572188619000   T   T   T
  0.3053190551540482  0.5884843560234910  0.0979787375994405   T   T   T
  0.1822387466304748  0.6732867772047223  0.0872505424997896   T   T   T
  0.3079712761246551  0.4203701256829740  0.0962784854627920   T   T   T
  0.1827853703744227  0.8405616807946665  0.0861127313523641   T   T   T
  0.5564072896941602  0.0861808676427121  0.0954306406699045   T   T   T
  0.5559289667761464  0.9214222616447502  0.1011272330979839   T   T   T
  0.4304197496672807  0.3307568047043312  0.1013577957992418   T   T   T
  0.4281290759016642  0.8398066524343297  0.1022581460000566   T   T   T
  0.8061603577373797  0.0903781145802799  0.0877825854370666   T   T   T
  0.6797591018719789  0.1714074206113828  0.0922139709619729   T   T   T
  0.8082314537094086  0.9251365214037511  0.0903948939330569   T   T   T
  0.6784317089681812  0.3360736749329837  0.0991610374043513   T   T   T
  0.8079803707052382  0.5948362714050832  0.0982366269142620   T   T   T
  0.8009780872352824  0.4260383302767769  0.0955013766137468   T   T   T
  0.6854161280124007  0.8418245908794343  0.1016104829472501   T   T   T
  0.4200723411661544  0.6800849440429221  0.1138786238994767   T   T   T
  0.5518540375586396  0.4003632662194717  0.1157342631099043   T   T   T
  0.6945116024695136  0.6836027546198846  0.1146223908496081   T   T   T
  0.3068182692305206  0.9250632435829311  0.0889676278421290   T   T   T
  0.4291502656363216  0.1669855322751450  0.0933692234372892   T   T   T
  0.5598972006528785  0.5862727899827066  0.1730423433445603   T   T   T
 
  0.00000000E+00  0.00000000E+00  0.00000000E+00
  0.00000000E+00  0.00000000E+00  0.00000000E+00
  0.00000000E+00  0.00000000E+00  0.00000000E+00
  0.00000000E+00  0.00000000E+00  0.00000000E+00
  0.00000000E+00  0.00000000E+00  0.00000000E+00
  0.00000000E+00  0.00000000E+00  0.00000000E+00
  0.00000000E+00  0.00000000E+00  0.00000000E+00
  0.00000000E+00  0.00000000E+00  0.00000000E+00
  0.00000000E+00  0.00000000E+00  0.00000000E+00
  0.00000000E+00  0.00000000E+00  0.00000000E+00
  0.00000000E+00  0.00000000E+00  0.00000000E+00
  0.00000000E+00  0.00000000E+00  0.00000000E+00
  0.00000000E+00  0.00000000E+00  0.00000000E+00
  0.00000000E+00  0.00000000E+00  0.00000000E+00
  0.00000000E+00  0.00000000E+00  0.00000000E+00
  0.00000000E+00  0.00000000E+00  0.00000000E+00
  0.00000000E+00  0.00000000E+00  0.00000000E+00
  0.00000000E+00  0.00000000E+00  0.00000000E+00
  0.00000000E+00  0.00000000E+00  0.00000000E+00
  0.00000000E+00  0.00000000E+00  0.00000000E+00
  0.00000000E+00  0.00000000E+00  0.00000000E+00
  0.00000000E+00  0.00000000E+00  0.00000000E+00
  0.00000000E+00  0.00000000E+00  0.00000000E+00
  0.00000000E+00  0.00000000E+00  0.00000000E+00
  0.00000000E+00  0.00000000E+00  0.00000000E+00
  0.00000000E+00  0.00000000E+00  0.00000000E+00
  0.00000000E+00  0.00000000E+00  0.00000000E+00
  0.00000000E+00  0.00000000E+00  0.00000000E+00
  0.00000000E+00  0.00000000E+00  0.00000000E+00
  0.00000000E+00  0.00000000E+00  0.00000000E+00
  0.00000000E+00  0.00000000E+00  0.00000000E+00
  0.00000000E+00  0.00000000E+00  0.00000000E+00
