Title                                   
   1.00000000000000     
     8.5490480000000009    0.0000000000000000    0.0000000000000000
     0.0000000000000000    8.5490480000000009    0.0000000000000000
     0.0000000000000000    0.0000000000000000   20.0000000000000000
    24     1
Selective dynamics
Direct
  0.9114112196182836  0.2062553929731844  0.0954490252500206   T   T   T
  0.9093075268913253  0.5018054156753309  0.0953095545715832   T   T   T
  0.9114300492393137  0.7973359259736355  0.0954652140111449   T   T   T
  0.1974804246894811  0.0833777522041223  0.0954774642384356   T   T   T
  0.0746146568910507  0.2062305653342880  0.0954572934488570   T   T   T
  0.1974926362748382  0.9201642642685740  0.0954860055341141   T   T   T
  0.1578666659110052  0.6469681169921604  0.0953455329126681   T   T   T
  0.0767411222478254  0.5017955377429781  0.0953296087228078   T   T   T
  0.1578477204081438  0.3566092298500378  0.0953296783045478   T   T   T
  0.0746312786940428  0.7973190890108898  0.0954730904830979   T   T   T
  0.4929908797039712  0.0855000103502499  0.0953606437658700   T   T   T
  0.3478333142672885  0.1666149254154519  0.0953548975364388   T   T   T
  0.4929982877791392  0.9180791001260753  0.0953661581176503   T   T   T
  0.3478462554609059  0.8369542355303988  0.0953639830158277   T   T   T
  0.7885489564590361  0.0834067550635424  0.0954624580681891   T   T   T
  0.6381592947142773  0.1666379831074659  0.0953238815580058   T   T   T
  0.7885706885579443  0.9201968334556013  0.0954675104360860   T   T   T
  0.8281855990619292  0.6469792324754127  0.0953125864747094   T   T   T
  0.8281770648485298  0.3566313362740983  0.0952969365184362   T   T   T
  0.6381781652093382  0.8369717377793860  0.0953320476793473   T   T   T
  0.3217595345747911  0.3305072837328880  0.0952328497002632   T   T   T
  0.3217768658870394  0.6730588228874673  0.0952331161029775   T   T   T
  0.6642718570743971  0.3305249973979313  0.0951856380736228   T   T   T
  0.6642805012034800  0.6730835112594513  0.0952014666914286   T   T   T
  0.4930114343326155  0.5017819451193911  0.0950883587838481   T   T   T
 
  0.00000000E+00  0.00000000E+00  0.00000000E+00
  0.00000000E+00  0.00000000E+00  0.00000000E+00
  0.00000000E+00  0.00000000E+00  0.00000000E+00
  0.00000000E+00  0.00000000E+00  0.00000000E+00
  0.00000000E+00  0.00000000E+00  0.00000000E+00
  0.00000000E+00  0.00000000E+00  0.00000000E+00
  0.00000000E+00  0.00000000E+00  0.00000000E+00
  0.00000000E+00  0.00000000E+00  0.00000000E+00
  0.00000000E+00  0.00000000E+00  0.00000000E+00
  0.00000000E+00  0.00000000E+00  0.00000000E+00
  0.00000000E+00  0.00000000E+00  0.00000000E+00
  0.00000000E+00  0.00000000E+00  0.00000000E+00
  0.00000000E+00  0.00000000E+00  0.00000000E+00
  0.00000000E+00  0.00000000E+00  0.00000000E+00
  0.00000000E+00  0.00000000E+00  0.00000000E+00
  0.00000000E+00  0.00000000E+00  0.00000000E+00
  0.00000000E+00  0.00000000E+00  0.00000000E+00
  0.00000000E+00  0.00000000E+00  0.00000000E+00
  0.00000000E+00  0.00000000E+00  0.00000000E+00
  0.00000000E+00  0.00000000E+00  0.00000000E+00
  0.00000000E+00  0.00000000E+00  0.00000000E+00
  0.00000000E+00  0.00000000E+00  0.00000000E+00
  0.00000000E+00  0.00000000E+00  0.00000000E+00
  0.00000000E+00  0.00000000E+00  0.00000000E+00
  0.00000000E+00  0.00000000E+00  0.00000000E+00
