Title                                   
   1.00000000000000     
     9.8694509999999998    0.0000000000000000    0.0000000000000000
     0.0000000000000000    8.5490480000000009    0.0000000000000000
     0.0000000000000000    0.0000000000000000   20.0000000000000000
    25     6     1
Selective dynamics
Direct
  0.0558978238637250  0.0912644618654916  0.0860929749504574   T   T   T
  0.9310574706629587  0.1747494290810393  0.0863455202930694   T   T   T
  0.0573309699777282  0.9232394504069533  0.0867719868014662   T   T   T
  0.9301123110507281  0.3416269711718964  0.0887381468011713   T   T   T
  0.0564715212287531  0.5915100522675341  0.0881053162504795   T   T   T
  0.0560612369796533  0.4239385289986235  0.0885435946923906   T   T   T
  0.9328828315888789  0.8399755470952818  0.0886596746849015   T   T   T
  0.3059698841791537  0.0888507367395254  0.0888571091495293   T   T   T
  0.1821709784071697  0.1737215576124918  0.0877980818397218   T   T   T
  0.1824414586553601  0.3411455338353744  0.0896412989470507   T   T   T
  0.3038225069048767  0.5916022722181226  0.0987208786759332   T   T   T
  0.1801191665682765  0.6743759991940365  0.0900298397477171   T   T   T
  0.3103834230402425  0.4230284308336253  0.0962422011124964   T   T   T
  0.1816200053768979  0.8422551985552599  0.0888693146184104   T   T   T
  0.5562008938164201  0.0850965993704045  0.0924594374696526   T   T   T
  0.5550154400853916  0.9176437179663574  0.0973104307637846   T   T   T
  0.4318937526730606  0.3315738099254249  0.0997004865476867   T   T   T
  0.4262418765096812  0.8397238675537604  0.0999501955093670   T   T   T
  0.8066579716417051  0.0888488218151273  0.0865418927809050   T   T   T
  0.6800908126606010  0.1694896277927665  0.0898134487699882   T   T   T
  0.8080722322448938  0.9228996818183917  0.0893483148429680   T   T   T
  0.6799163604183562  0.3354884458471633  0.0976133036759461   T   T   T
  0.8100009233345973  0.5943585731526085  0.0994608862390188   T   T   T
  0.8030695375988585  0.4259321613886728  0.0954421658981546   T   T   T
  0.6845308083681283  0.8401442053768468  0.0989153725819479   T   T   T
  0.4153839182322478  0.6845044919204324  0.1143873078336314   T   T   T
  0.5547246340253444  0.3998756228493872  0.1135996232966662   T   T   T
  0.6980059074100490  0.6820986801516684  0.1149491985489213   T   T   T
  0.3056643626342077  0.9252771902260155  0.0900528944967552   T   T   T
  0.4296245474802696  0.1666192355520237  0.0923473405964423   T   T   T
  0.9327640985293209  0.6728778081998458  0.0899618757619436   T   T   T
  0.5554393338524716  0.5865092892178492  0.1704048858214423   T   T   T
 
  0.00000000E+00  0.00000000E+00  0.00000000E+00
  0.00000000E+00  0.00000000E+00  0.00000000E+00
  0.00000000E+00  0.00000000E+00  0.00000000E+00
  0.00000000E+00  0.00000000E+00  0.00000000E+00
  0.00000000E+00  0.00000000E+00  0.00000000E+00
  0.00000000E+00  0.00000000E+00  0.00000000E+00
  0.00000000E+00  0.00000000E+00  0.00000000E+00
  0.00000000E+00  0.00000000E+00  0.00000000E+00
  0.00000000E+00  0.00000000E+00  0.00000000E+00
  0.00000000E+00  0.00000000E+00  0.00000000E+00
  0.00000000E+00  0.00000000E+00  0.00000000E+00
  0.00000000E+00  0.00000000E+00  0.00000000E+00
  0.00000000E+00  0.00000000E+00  0.00000000E+00
  0.00000000E+00  0.00000000E+00  0.00000000E+00
  0.00000000E+00  0.00000000E+00  0.00000000E+00
  0.00000000E+00  0.00000000E+00  0.00000000E+00
  0.00000000E+00  0.00000000E+00  0.00000000E+00
  0.00000000E+00  0.00000000E+00  0.00000000E+00
  0.00000000E+00  0.00000000E+00  0.00000000E+00
  0.00000000E+00  0.00000000E+00  0.00000000E+00
  0.00000000E+00  0.00000000E+00  0.00000000E+00
  0.00000000E+00  0.00000000E+00  0.00000000E+00
  0.00000000E+00  0.00000000E+00  0.00000000E+00
  0.00000000E+00  0.00000000E+00  0.00000000E+00
  0.00000000E+00  0.00000000E+00  0.00000000E+00
  0.00000000E+00  0.00000000E+00  0.00000000E+00
  0.00000000E+00  0.00000000E+00  0.00000000E+00
  0.00000000E+00  0.00000000E+00  0.00000000E+00
  0.00000000E+00  0.00000000E+00  0.00000000E+00
  0.00000000E+00  0.00000000E+00  0.00000000E+00
  0.00000000E+00  0.00000000E+00  0.00000000E+00
  0.00000000E+00  0.00000000E+00  0.00000000E+00
