Title                                   
   1.00000000000000     
     8.5490480000000009    0.0000000000000000    0.0000000000000000
     0.0000000000000000    8.5490480000000009    0.0000000000000000
     0.0000000000000000    0.0000000000000000   20.0000000000000000
    20     4     1
Selective dynamics
Direct
  0.9092014712494685  0.2059579731182848  0.0976234167522680   T   T   T
  0.9115467678289970  0.8013467958181154  0.0975954519870215   T   T   T
  0.1973261396903035  0.0833190295235171  0.0976247568907238   T   T   T
  0.0754299268536065  0.2024997612719047  0.0976202505185290   T   T   T
  0.1545432829538544  0.6493783766026240  0.0977090147649235   T   T   T
  0.0722838963644464  0.5013256495589070  0.0977660584830192   T   T   T
  0.1533300778917523  0.3541485784606799  0.0977553842166433   T   T   T
  0.0787212353524513  0.7989708029690512  0.0976129424283030   T   T   T
  0.4951043464223707  0.0870739055196978  0.0976030212845888   T   T   T
  0.3456586997781975  0.1653093435630207  0.0976939576450177   T   T   T
  0.4947831689989721  0.9168258642829878  0.0975959602704631   T   T   T
  0.3461506198106781  0.8349711177569572  0.0976842552340330   T   T   T
  0.7888164214150880  0.0872381877511105  0.0975334945954401   T   T   T
  0.6428558904482994  0.1681125184418414  0.0977030509570788   T   T   T
  0.7898870213457604  0.9187721295737442  0.0975058179401730   T   T   T
  0.8285522339823728  0.6518104096239474  0.0977766156478365   T   T   T
  0.8269311344123039  0.3542685649952158  0.0978196119130506   T   T   T
  0.6435814966432024  0.8361003651191757  0.0976591309641768   T   T   T
  0.3217064729966476  0.3331326319978713  0.0979022915662468   T   T   T
  0.3222734909452701  0.6709007191323070  0.0977694369808822   T   T   T
  0.9042782415320814  0.5028435546361175  0.0978047131025055   T   T   T
  0.6675052793539379  0.3328023347193794  0.0980307920662953   T   T   T
  0.6693713356195358  0.6724653693339601  0.0979700820795970   T   T   T
  0.1976098893312990  0.9167627022071821  0.0976707770307691   T   T   T
  0.4879634587790946  0.4984533140224195  0.0986747146803873   T   T   T
 
  0.00000000E+00  0.00000000E+00  0.00000000E+00
  0.00000000E+00  0.00000000E+00  0.00000000E+00
  0.00000000E+00  0.00000000E+00  0.00000000E+00
  0.00000000E+00  0.00000000E+00  0.00000000E+00
  0.00000000E+00  0.00000000E+00  0.00000000E+00
  0.00000000E+00  0.00000000E+00  0.00000000E+00
  0.00000000E+00  0.00000000E+00  0.00000000E+00
  0.00000000E+00  0.00000000E+00  0.00000000E+00
  0.00000000E+00  0.00000000E+00  0.00000000E+00
  0.00000000E+00  0.00000000E+00  0.00000000E+00
  0.00000000E+00  0.00000000E+00  0.00000000E+00
  0.00000000E+00  0.00000000E+00  0.00000000E+00
  0.00000000E+00  0.00000000E+00  0.00000000E+00
  0.00000000E+00  0.00000000E+00  0.00000000E+00
  0.00000000E+00  0.00000000E+00  0.00000000E+00
  0.00000000E+00  0.00000000E+00  0.00000000E+00
  0.00000000E+00  0.00000000E+00  0.00000000E+00
  0.00000000E+00  0.00000000E+00  0.00000000E+00
  0.00000000E+00  0.00000000E+00  0.00000000E+00
  0.00000000E+00  0.00000000E+00  0.00000000E+00
  0.00000000E+00  0.00000000E+00  0.00000000E+00
  0.00000000E+00  0.00000000E+00  0.00000000E+00
  0.00000000E+00  0.00000000E+00  0.00000000E+00
  0.00000000E+00  0.00000000E+00  0.00000000E+00
  0.00000000E+00  0.00000000E+00  0.00000000E+00
