Title                                   
   1.00000000000000     
     4.9440799999999996    0.0000000000000000    0.0000000000000000
     0.0000000000000000    8.5647549999999999    0.0000000000000000
     0.0000000000000000    0.0000000000000000   20.0000000000000000
    12     3     1
Selective dynamics
Direct
 -0.0063667113426295  0.2918908488649666  0.0899396569414989   T   T   T
  0.2494978788492153  0.0449411731701189  0.0890912531225809   T   T   T
  0.0058113114237878  0.7956646856397109  0.0980578110359513   T   T   T
  0.0009868880511399  0.9613957837007424  0.0881298414847784   T   T   T
  0.7475623675109667  0.2069784523424099  0.0869624725860751   T   T   T
  0.4995119957203240  0.2905489089523048  0.0966427302869571   T   T   T
  0.7499387729716960  0.0414232055287110  0.0846343683360793   T   T   T
  0.7542425805336590  0.7066354180009174  0.1015263504620413   T   T   T
  0.5003668356645413  0.7950664147465870  0.0997759475740212   T   T   T
  0.7550044018003644  0.5339193290765581  0.1046665144549795   T   T   T
  0.4999534129056671  0.9610940956810942  0.0897173127864245   T   T   T
  0.5194980428561625  0.4458817861629714  0.1210343374621136   T   T   T
 -0.0067063823697881  0.4511359753864160  0.0907389875147522   T   T   T
  0.2527260360398929  0.7253848567061787  0.1104580751566261   T   T   T
  0.2473910673316863  0.2101872208140908  0.0905601109268381   T   T   T
  0.2305815020533147  0.5378518452262210  0.1705762298682920   T   T   T
 
  0.00000000E+00  0.00000000E+00  0.00000000E+00
  0.00000000E+00  0.00000000E+00  0.00000000E+00
  0.00000000E+00  0.00000000E+00  0.00000000E+00
  0.00000000E+00  0.00000000E+00  0.00000000E+00
  0.00000000E+00  0.00000000E+00  0.00000000E+00
  0.00000000E+00  0.00000000E+00  0.00000000E+00
  0.00000000E+00  0.00000000E+00  0.00000000E+00
  0.00000000E+00  0.00000000E+00  0.00000000E+00
  0.00000000E+00  0.00000000E+00  0.00000000E+00
  0.00000000E+00  0.00000000E+00  0.00000000E+00
  0.00000000E+00  0.00000000E+00  0.00000000E+00
  0.00000000E+00  0.00000000E+00  0.00000000E+00
  0.00000000E+00  0.00000000E+00  0.00000000E+00
  0.00000000E+00  0.00000000E+00  0.00000000E+00
  0.00000000E+00  0.00000000E+00  0.00000000E+00
  0.00000000E+00  0.00000000E+00  0.00000000E+00
