Title                                   
   1.00000000000000     
     9.8694509999999998    0.0000000000000000    0.0000000000000000
     0.0000000000000000    8.5490480000000009    0.0000000000000000
     0.0000000000000000    0.0000000000000000   20.0000000000000000
    27     4     1
Selective dynamics
Direct
  0.0558816590831455  0.0924143806990808  0.0894885429394933   T   T   T
  0.9310347140577185  0.1743887126593717  0.0905615930031817   T   T   T
  0.0573046677121052  0.9250212807276533  0.0893514720484742   T   T   T
  0.9297837875819467  0.3420048905592979  0.0923155762248826   T   T   T
  0.0567619147903930  0.5904463029643460  0.0898125421819588   T   T   T
  0.9325152361365951  0.6737283288642331  0.0915773314141018   T   T   T
  0.0568384946848730  0.4233132972616043  0.0908634867359950   T   T   T
  0.9329854086888014  0.8402540297589577  0.0907421815817026   T   T   T
  0.3057437564796018  0.0882042249279260  0.0907480231279691   T   T   T
  0.1820137875308166  0.1737047230267753  0.0901257461115533   T   T   T
  0.1837116322269315  0.3408952968297815  0.0912264485410460   T   T   T
  0.3061483513342075  0.5929221251810693  0.0943448470213746   T   T   T
  0.1810107397515746  0.6748899660175846  0.0900093980313444   T   T   T
  0.3101381420311252  0.4251883961184246  0.0943565819274622   T   T   T
  0.1808996156104986  0.8410920595103101  0.0898296042171449   T   T   T
  0.5565995132965860  0.0837784583052695  0.0940389108581237   T   T   T
  0.4312987191931464  0.1678712817563819  0.0930313269238806   T   T   T
  0.5552584499790262  0.9169282648053294  0.0959368665893445   T   T   T
  0.4343270506540431  0.3344454212760742  0.0963859522890041   T   T   T
  0.4265112205719453  0.8374674302805855  0.0955165347779380   T   T   T
  0.8066706082126405  0.0888522761056326  0.0909567761277968   T   T   T
  0.6807112506971843  0.1690066382204586  0.0932916391698548   T   T   T
  0.8074376831289563  0.9231075428271179  0.0918216783797127   T   T   T
  0.6778215059823887  0.3353931548775255  0.0972299806581944   T   T   T
  0.8067328146657181  0.5932875036343399  0.0971009368000295   T   T   T
  0.8029295863177519  0.4246961728135418  0.0963216304556410   T   T   T
  0.6844617827207662  0.8361200618513357  0.0968950846413160   T   T   T
  0.4219858490921670  0.6806761900396542  0.1013682456577267   T   T   T
  0.5557769407343067  0.4099466760104728  0.1032845234360910   T   T   T
  0.6894306627020481  0.6773645737501257  0.1044190028162014   T   T   T
  0.3050361646650323  0.9240345014090989  0.0909649790852928   T   T   T
  0.5538772896859641  0.5888018369306405  0.1817575562261838   T   T   T
 
  0.00000000E+00  0.00000000E+00  0.00000000E+00
  0.00000000E+00  0.00000000E+00  0.00000000E+00
  0.00000000E+00  0.00000000E+00  0.00000000E+00
  0.00000000E+00  0.00000000E+00  0.00000000E+00
  0.00000000E+00  0.00000000E+00  0.00000000E+00
  0.00000000E+00  0.00000000E+00  0.00000000E+00
  0.00000000E+00  0.00000000E+00  0.00000000E+00
  0.00000000E+00  0.00000000E+00  0.00000000E+00
  0.00000000E+00  0.00000000E+00  0.00000000E+00
  0.00000000E+00  0.00000000E+00  0.00000000E+00
  0.00000000E+00  0.00000000E+00  0.00000000E+00
  0.00000000E+00  0.00000000E+00  0.00000000E+00
  0.00000000E+00  0.00000000E+00  0.00000000E+00
  0.00000000E+00  0.00000000E+00  0.00000000E+00
  0.00000000E+00  0.00000000E+00  0.00000000E+00
  0.00000000E+00  0.00000000E+00  0.00000000E+00
  0.00000000E+00  0.00000000E+00  0.00000000E+00
  0.00000000E+00  0.00000000E+00  0.00000000E+00
  0.00000000E+00  0.00000000E+00  0.00000000E+00
  0.00000000E+00  0.00000000E+00  0.00000000E+00
  0.00000000E+00  0.00000000E+00  0.00000000E+00
  0.00000000E+00  0.00000000E+00  0.00000000E+00
  0.00000000E+00  0.00000000E+00  0.00000000E+00
  0.00000000E+00  0.00000000E+00  0.00000000E+00
  0.00000000E+00  0.00000000E+00  0.00000000E+00
  0.00000000E+00  0.00000000E+00  0.00000000E+00
  0.00000000E+00  0.00000000E+00  0.00000000E+00
  0.00000000E+00  0.00000000E+00  0.00000000E+00
  0.00000000E+00  0.00000000E+00  0.00000000E+00
  0.00000000E+00  0.00000000E+00  0.00000000E+00
  0.00000000E+00  0.00000000E+00  0.00000000E+00
  0.00000000E+00  0.00000000E+00  0.00000000E+00
