Title                                   
   1.00000000000000     
     4.9440799999999996    0.0000000000000000    0.0000000000000000
     0.0000000000000000   17.1295089999999988    0.0000000000000000
     0.0000000000000000    0.0000000000000000   20.0000000000000000
    28     2     1
Selective dynamics
Direct
 -0.0094238876453676  0.1057458347416938  0.2953908649801573   T   T   T
  0.2389760244137947  0.1482666945992404  0.2961847413804680   T   T   T
  0.2346854186200378  0.2322346366847037  0.2994382916465185   T   T   T
 -0.0177923509456657  0.2738240268829853  0.3042304356533151   T   T   T
  0.0174828086014097  0.6007287581674645  0.2982202251727371   T   T   T
  0.2580543033198704  0.7263171897124912  0.2954557591199215   T   T   T
  0.0033983253900915  0.8529034261457022  0.2938503597030417   T   T   T
  0.2511127217124662  0.8952752945445221  0.2939815892095431   T   T   T
  0.2466326947737042  0.9793706088510359  0.2941374147951452   T   T   T
  0.0075175997308456  0.7686138738734051  0.2942310841134932   T   T   T
  0.4905236776212185  0.1057966483619993  0.2943389643738531   T   T   T
  0.7392321644369368  0.1479611699687793  0.2948470705467425   T   T   T
  0.7336914746813267  0.2321467687582232  0.2967336523234799   T   T   T
  0.4951871881064387  0.0216474169418672  0.2939438164613158   T   T   T
  0.7479782330875049  0.3940656608314248  0.3068151710327122   T   T   T
  0.7658838340837082  0.4802994566169511  0.3067385200257776   T   T   T
  0.4820988389174732  0.2750791520414779  0.2966433858824795   T   T   T
  0.5127279834775528  0.6020135097596019  0.3009767111780188   T   T   T
  0.7589386433334142  0.7270430998067959  0.2942952042842187   T   T   T
  0.5016809347625768  0.8527580208785520  0.2939441130796687   T   T   T
  0.7511062136899620  0.8948918700793599  0.2937132852812654   T   T   T
  0.7466301027066302  0.9792305499208585  0.2938414520947442   T   T   T
  0.5065252559662085  0.7684201942738560  0.2945142029943678   T   T   T
  0.7628157549917421  0.6435369977475083  0.2961657976476166   T   T   T
 -0.0047859700606556  0.0215795581148301  0.2943910339230705   T   T   T
  0.5174115103938838  0.5208334082030026  0.3135521233479651   T   T   T
  0.0165686196355371  0.5172720663247180  0.3018332489638126   T   T   T
  0.4971496375374315  0.3588803500708723  0.2969486621671408   T   T   T
 -0.0208596657641573  0.3525925248230949  0.3181501095325227   T   T   T
  0.2612792051084969  0.6440516509992321  0.2982537052342986   T   T   T
  0.2675797053155870  0.4379615812737464  0.3392990038505415   T   T   T
 
  0.00000000E+00  0.00000000E+00  0.00000000E+00
  0.00000000E+00  0.00000000E+00  0.00000000E+00
  0.00000000E+00  0.00000000E+00  0.00000000E+00
  0.00000000E+00  0.00000000E+00  0.00000000E+00
  0.00000000E+00  0.00000000E+00  0.00000000E+00
  0.00000000E+00  0.00000000E+00  0.00000000E+00
  0.00000000E+00  0.00000000E+00  0.00000000E+00
  0.00000000E+00  0.00000000E+00  0.00000000E+00
  0.00000000E+00  0.00000000E+00  0.00000000E+00
  0.00000000E+00  0.00000000E+00  0.00000000E+00
  0.00000000E+00  0.00000000E+00  0.00000000E+00
  0.00000000E+00  0.00000000E+00  0.00000000E+00
  0.00000000E+00  0.00000000E+00  0.00000000E+00
  0.00000000E+00  0.00000000E+00  0.00000000E+00
  0.00000000E+00  0.00000000E+00  0.00000000E+00
  0.00000000E+00  0.00000000E+00  0.00000000E+00
  0.00000000E+00  0.00000000E+00  0.00000000E+00
  0.00000000E+00  0.00000000E+00  0.00000000E+00
  0.00000000E+00  0.00000000E+00  0.00000000E+00
  0.00000000E+00  0.00000000E+00  0.00000000E+00
  0.00000000E+00  0.00000000E+00  0.00000000E+00
  0.00000000E+00  0.00000000E+00  0.00000000E+00
  0.00000000E+00  0.00000000E+00  0.00000000E+00
  0.00000000E+00  0.00000000E+00  0.00000000E+00
  0.00000000E+00  0.00000000E+00  0.00000000E+00
  0.00000000E+00  0.00000000E+00  0.00000000E+00
  0.00000000E+00  0.00000000E+00  0.00000000E+00
  0.00000000E+00  0.00000000E+00  0.00000000E+00
  0.00000000E+00  0.00000000E+00  0.00000000E+00
  0.00000000E+00  0.00000000E+00  0.00000000E+00
  0.00000000E+00  0.00000000E+00  0.00000000E+00
