Title                                   
   1.00000000000000     
     9.8694509999999998    0.0000000000000000    0.0000000000000000
     0.0000000000000000    8.5490480000000009    0.0000000000000000
     0.0000000000000000    0.0000000000000000   20.0000000000000000
    29     1     1
Selective dynamics
Direct
  0.0558858799450091  0.0884357315984939  0.0829787596819876   T   T   T
  0.9308054032300934  0.1723715215687446  0.0849067258153411   T   T   T
  0.0566246129080799  0.9225321771438934  0.0832974324810047   T   T   T
  0.9327527682109501  0.3391428003676534  0.0853366409110400   T   T   T
  0.0568705224496093  0.5892802143146565  0.0829381881689185   T   T   T
  0.9329869078012654  0.6739368423317400  0.0861382834346773   T   T   T
  0.0566423623685806  0.4229034486537341  0.0826406371492788   T   T   T
  0.9313703569094025  0.8404785296805498  0.0857193349638508   T   T   T
  0.3055343526434816  0.0893530584266547  0.0908882737745084   T   T   T
  0.1803500435879673  0.1709918436774060  0.0855174949159061   T   T   T
  0.3068934109154935  0.9218373710637199  0.0909138232861107   T   T   T
  0.1799343117774534  0.3378925737847543  0.0855722754709712   T   T   T
  0.3046763941483174  0.5881690869607364  0.0942292913786408   T   T   T
  0.1810689323103528  0.6716928904903064  0.0859069913651524   T   T   T
  0.3026166267856578  0.4183531157331752  0.0941684379278081   T   T   T
  0.1819322295870166  0.8390322889122418  0.0856705134272752   T   T   T
  0.5548650774723541  0.0923528886333561  0.1025521386625086   T   T   T
  0.4278793330073930  0.1765428593418487  0.0997937873553136   T   T   T
  0.5555701780263145  0.9247095418273205  0.1029716722105727   T   T   T
  0.4271832798348996  0.6706894318839893  0.1046825912166797   T   T   T
  0.4307968823111981  0.8369157955097050  0.0999066136540978   T   T   T
  0.8057217474883537  0.0906825168968547  0.0902793702467172   T   T   T
  0.6817615886134017  0.1771703399846618  0.0994665863430142   T   T   T
  0.8060859127065840  0.9235013993018889  0.0909379521584230   T   T   T
  0.6875945193944677  0.3416798400009113  0.1043842896625259   T   T   T
  0.8104451204737307  0.5921199029413863  0.0954707175163304   T   T   T
  0.6879906440667759  0.6735322861564983  0.1074569579048201   T   T   T
  0.8104697412363495  0.4222723386777340  0.0943285516850615   T   T   T
  0.6823421119917538  0.8388619817448676  0.1010020764347324   T   T   T
  0.4219502318564168  0.3379809065615018  0.1048823232698134   T   T   T
  0.5555335159412860  0.5054594758290267  0.1560262675269591   T   T   T
 
  0.00000000E+00  0.00000000E+00  0.00000000E+00
  0.00000000E+00  0.00000000E+00  0.00000000E+00
  0.00000000E+00  0.00000000E+00  0.00000000E+00
  0.00000000E+00  0.00000000E+00  0.00000000E+00
  0.00000000E+00  0.00000000E+00  0.00000000E+00
  0.00000000E+00  0.00000000E+00  0.00000000E+00
  0.00000000E+00  0.00000000E+00  0.00000000E+00
  0.00000000E+00  0.00000000E+00  0.00000000E+00
  0.00000000E+00  0.00000000E+00  0.00000000E+00
  0.00000000E+00  0.00000000E+00  0.00000000E+00
  0.00000000E+00  0.00000000E+00  0.00000000E+00
  0.00000000E+00  0.00000000E+00  0.00000000E+00
  0.00000000E+00  0.00000000E+00  0.00000000E+00
  0.00000000E+00  0.00000000E+00  0.00000000E+00
  0.00000000E+00  0.00000000E+00  0.00000000E+00
  0.00000000E+00  0.00000000E+00  0.00000000E+00
  0.00000000E+00  0.00000000E+00  0.00000000E+00
  0.00000000E+00  0.00000000E+00  0.00000000E+00
  0.00000000E+00  0.00000000E+00  0.00000000E+00
  0.00000000E+00  0.00000000E+00  0.00000000E+00
  0.00000000E+00  0.00000000E+00  0.00000000E+00
  0.00000000E+00  0.00000000E+00  0.00000000E+00
  0.00000000E+00  0.00000000E+00  0.00000000E+00
  0.00000000E+00  0.00000000E+00  0.00000000E+00
  0.00000000E+00  0.00000000E+00  0.00000000E+00
  0.00000000E+00  0.00000000E+00  0.00000000E+00
  0.00000000E+00  0.00000000E+00  0.00000000E+00
  0.00000000E+00  0.00000000E+00  0.00000000E+00
  0.00000000E+00  0.00000000E+00  0.00000000E+00
  0.00000000E+00  0.00000000E+00  0.00000000E+00
  0.00000000E+00  0.00000000E+00  0.00000000E+00
