Title                                   
   1.00000000000000     
     8.5490480000000009    0.0000000000000000    0.0000000000000000
     0.0000000000000000    8.5490480000000009    0.0000000000000000
     0.0000000000000000    0.0000000000000000   20.0000000000000000
    20     4     1
Selective dynamics
Direct
  0.9096935475507542  0.2055694712014275  0.0954669458327448   T   T   T
  0.9068218006980470  0.5018167344436436  0.0953117615234230   T   T   T
  0.9097029295859177  0.7980256402862353  0.0954747707354317   T   T   T
  0.1967881009085690  0.0850773929133286  0.0954934735767242   T   T   T
  0.0763271342133814  0.2055418311362580  0.0954757765911450   T   T   T
  0.1968066760293978  0.9184475638178815  0.0954997140727584   T   T   T
  0.1592403734661916  0.6497008040049265  0.0953390630852673   T   T   T
  0.0792367187155922  0.5017881421024132  0.0953312874933991   T   T   T
  0.1592214589483380  0.3538510618831586  0.0953251739780335   T   T   T
  0.0763403149689232  0.7979970460160756  0.0954828222998691   T   T   T
  0.4929842296757074  0.0879996145984112  0.0953564563558353   T   T   T
  0.3450771116063916  0.1679897098868494  0.0953550087175147   T   T   T
  0.4929868384323156  0.9156004744065060  0.0953631312413610   T   T   T
  0.3451051497182873  0.8355569164365831  0.0953634705856536   T   T   T
  0.7892123836253411  0.0851259032804252  0.0954781814924887   T   T   T
  0.6408984165603170  0.1680349404828849  0.0953220951898846   T   T   T
  0.7892267265185227  0.9184955791102116  0.0954817601291208   T   T   T
  0.8268091273226086  0.6497362430584052  0.0953169501340350   T   T   T
  0.8268152113119503  0.3538897678561767  0.0953004340172828   T   T   T
  0.6409054627786520  0.8355918117237768  0.0953328200977936   T   T   T
  0.3205963682751050  0.3293321619733450  0.0951896810022435   T   T   T
  0.3206187924299693  0.6742065935009638  0.0951991477510372   T   T   T
  0.6654572883874780  0.3293716718182368  0.0951603270688870   T   T   T
  0.6654522523168853  0.6742431814589448  0.0951762058564256   T   T   T
  0.4930875859553497  0.5017997426029444  0.0951085411716186   T   T   T
 
  0.00000000E+00  0.00000000E+00  0.00000000E+00
  0.00000000E+00  0.00000000E+00  0.00000000E+00
  0.00000000E+00  0.00000000E+00  0.00000000E+00
  0.00000000E+00  0.00000000E+00  0.00000000E+00
  0.00000000E+00  0.00000000E+00  0.00000000E+00
  0.00000000E+00  0.00000000E+00  0.00000000E+00
  0.00000000E+00  0.00000000E+00  0.00000000E+00
  0.00000000E+00  0.00000000E+00  0.00000000E+00
  0.00000000E+00  0.00000000E+00  0.00000000E+00
  0.00000000E+00  0.00000000E+00  0.00000000E+00
  0.00000000E+00  0.00000000E+00  0.00000000E+00
  0.00000000E+00  0.00000000E+00  0.00000000E+00
  0.00000000E+00  0.00000000E+00  0.00000000E+00
  0.00000000E+00  0.00000000E+00  0.00000000E+00
  0.00000000E+00  0.00000000E+00  0.00000000E+00
  0.00000000E+00  0.00000000E+00  0.00000000E+00
  0.00000000E+00  0.00000000E+00  0.00000000E+00
  0.00000000E+00  0.00000000E+00  0.00000000E+00
  0.00000000E+00  0.00000000E+00  0.00000000E+00
  0.00000000E+00  0.00000000E+00  0.00000000E+00
  0.00000000E+00  0.00000000E+00  0.00000000E+00
  0.00000000E+00  0.00000000E+00  0.00000000E+00
  0.00000000E+00  0.00000000E+00  0.00000000E+00
  0.00000000E+00  0.00000000E+00  0.00000000E+00
  0.00000000E+00  0.00000000E+00  0.00000000E+00
