Title                                   
   1.00000000000000     
     4.9440799999999996    0.0000000000000000    0.0000000000000000
     0.0000000000000000    8.5647549999999999    0.0000000000000000
     0.0000000000000000    0.0000000000000000   20.0000000000000000
    11     3     1
Selective dynamics
Direct
  0.0003010912288561  0.2912483291390560  0.1003761418863511   T   T   T
  0.2500000000000000  0.0392596209603990  0.1005277276877310   T   T   T
 -0.0039227802496078  0.9573412945976970  0.1005877783962453   T   T   T
  0.7500000000000000  0.2076125637985521  0.1003427340018942   T   T   T
  0.4996989087711440  0.2912483291390560  0.1003761418863511   T   T   T
  0.7500000000000000  0.0417164317963151  0.1004752754136305   T   T   T
  0.7500000000000000  0.7192175217194642  0.1006696879051666   T   T   T
  0.7500000000000000  0.5376374773232703  0.1004875098521846   T   T   T
  0.5039227802496082  0.9573412945976970  0.1005877783962453   T   T   T
  0.5056442787254142  0.4555212482157162  0.1004614729710747   T   T   T
 -0.0056442787254142  0.4555212482157162  0.1004614729710747   T   T   T
 -0.0158530115342490  0.7967813441353546  0.1007349397772309   T   T   T
  0.5158530115342493  0.7967813441353546  0.1007349397772309   T   T   T
  0.2500000000000000  0.2056125328888986  0.1004348076941422   T   T   T
  0.2500000000000000  0.6188404193374556  0.1007215913834506   T   T   T
 
  0.00000000E+00  0.00000000E+00  0.00000000E+00
  0.00000000E+00  0.00000000E+00  0.00000000E+00
  0.00000000E+00  0.00000000E+00  0.00000000E+00
  0.00000000E+00  0.00000000E+00  0.00000000E+00
  0.00000000E+00  0.00000000E+00  0.00000000E+00
  0.00000000E+00  0.00000000E+00  0.00000000E+00
  0.00000000E+00  0.00000000E+00  0.00000000E+00
  0.00000000E+00  0.00000000E+00  0.00000000E+00
  0.00000000E+00  0.00000000E+00  0.00000000E+00
  0.00000000E+00  0.00000000E+00  0.00000000E+00
  0.00000000E+00  0.00000000E+00  0.00000000E+00
  0.00000000E+00  0.00000000E+00  0.00000000E+00
  0.00000000E+00  0.00000000E+00  0.00000000E+00
  0.00000000E+00  0.00000000E+00  0.00000000E+00
  0.00000000E+00  0.00000000E+00  0.00000000E+00
