Title                                   
   1.00000000000000     
     4.9440799999999996    0.0000000000000000    0.0000000000000000
     0.0000000000000000   17.1295089999999988    0.0000000000000000
     0.0000000000000000    0.0000000000000000   20.0000000000000000
    29     2     1
Selective dynamics
Direct
  0.0018915979674753  0.1044186028913578  0.2808606498106949   T   T   T
  0.2524675951207623  0.1461654574639525  0.2851982277096634   T   T   T
  0.2538725816913531  0.2288505193098406  0.2964140605681646   T   T   T
  0.0060190335219625  0.3506505890302312  0.3200816887391467   T   T   T
  0.0027889443634249  0.2699156126499977  0.3021654425470781   T   T   T
 -0.0077895588626492  0.6061827359671083  0.3124198076465345   T   T   T
  0.2468763446674365  0.7281695582548204  0.2903196785657362   T   T   T
 -0.0010505140769809  0.8533499562045908  0.2767742960651475   T   T   T
  0.2491088884698252  0.8953334627718131  0.2753258086033037   T   T   T
  0.2503647467716512  0.9789962021244106  0.2748518043007555   T   T   T
 -0.0021756286706080  0.7700075500152224  0.2836512744112231   T   T   T
  0.5020534744120502  0.1043932083672501  0.2809545133309356   T   T   T
  0.7522107181685912  0.1461452540524024  0.2844023508415691   T   T   T
  0.7535152957425888  0.2288254773377858  0.2945218397268936   T   T   T
  0.5008575372282543  0.0208846329373406  0.2759190761874556   T   T   T
  0.5045268199061883  0.3508611026960658  0.3209785923170455   T   T   T
  0.7561526890475462  0.3963192034529912  0.3269629209459518   T   T   T
  0.7508839216751656  0.4827021691680223  0.3337772114519826   T   T   T
  0.5053023692859572  0.2699959360230467  0.3027036469785703   T   T   T
  0.4990773733605438  0.6070730082204314  0.3166540001727058   T   T   T
  0.7472730048717088  0.7290566221766464  0.2884433195361485   T   T   T
  0.4984105440059714  0.8533910671018210  0.2770585171826532   T   T   T
  0.7490513056593445  0.8951501666894435  0.2749855972740635   T   T   T
  0.7503901469006512  0.9789446476107503  0.2745035167250912   T   T   T
  0.4970899547222017  0.7699751603128949  0.2842098455623256   T   T   T
  0.7451491834131806  0.6470116711664767  0.3028470624211009   T   T   T
  0.2465548457709677  0.6462601989237816  0.3067080653102411   T   T   T
  0.0006286564012031  0.0209444774599466  0.2758212817036435   T   T   T
  0.5133917357863039  0.5285899789095597  0.3429825999991376   T   T   T
  0.9855961874064803  0.5276993931984219  0.3293079701842504   T   T   T
  0.2552022648642474  0.3838370090950446  0.3358059003608692   T   T   T
  0.2311309404072072  0.4784503684165245  0.3949544328198724   T   T   T
 
  0.00000000E+00  0.00000000E+00  0.00000000E+00
  0.00000000E+00  0.00000000E+00  0.00000000E+00
  0.00000000E+00  0.00000000E+00  0.00000000E+00
  0.00000000E+00  0.00000000E+00  0.00000000E+00
  0.00000000E+00  0.00000000E+00  0.00000000E+00
  0.00000000E+00  0.00000000E+00  0.00000000E+00
  0.00000000E+00  0.00000000E+00  0.00000000E+00
  0.00000000E+00  0.00000000E+00  0.00000000E+00
  0.00000000E+00  0.00000000E+00  0.00000000E+00
  0.00000000E+00  0.00000000E+00  0.00000000E+00
  0.00000000E+00  0.00000000E+00  0.00000000E+00
  0.00000000E+00  0.00000000E+00  0.00000000E+00
  0.00000000E+00  0.00000000E+00  0.00000000E+00
  0.00000000E+00  0.00000000E+00  0.00000000E+00
  0.00000000E+00  0.00000000E+00  0.00000000E+00
  0.00000000E+00  0.00000000E+00  0.00000000E+00
  0.00000000E+00  0.00000000E+00  0.00000000E+00
  0.00000000E+00  0.00000000E+00  0.00000000E+00
  0.00000000E+00  0.00000000E+00  0.00000000E+00
  0.00000000E+00  0.00000000E+00  0.00000000E+00
  0.00000000E+00  0.00000000E+00  0.00000000E+00
  0.00000000E+00  0.00000000E+00  0.00000000E+00
  0.00000000E+00  0.00000000E+00  0.00000000E+00
  0.00000000E+00  0.00000000E+00  0.00000000E+00
  0.00000000E+00  0.00000000E+00  0.00000000E+00
  0.00000000E+00  0.00000000E+00  0.00000000E+00
  0.00000000E+00  0.00000000E+00  0.00000000E+00
  0.00000000E+00  0.00000000E+00  0.00000000E+00
  0.00000000E+00  0.00000000E+00  0.00000000E+00
  0.00000000E+00  0.00000000E+00  0.00000000E+00
  0.00000000E+00  0.00000000E+00  0.00000000E+00
  0.00000000E+00  0.00000000E+00  0.00000000E+00
