Title                                   
   1.00000000000000     
     9.8694509999999998    0.0000000000000000    0.0000000000000000
     0.0000000000000000    8.5490480000000009    0.0000000000000000
     0.0000000000000000    0.0000000000000000   20.0000000000000000
    27     4     1
Selective dynamics
Direct
  0.0561742491044619  0.0915918763197304  0.0852626854244928   T   T   T
  0.9306262526222626  0.1749912526239590  0.0878795797661687   T   T   T
  0.0570686001442519  0.9238535709431714  0.0846184537341384   T   T   T
  0.9288320645728095  0.3419810492186262  0.0911860553002630   T   T   T
  0.0558407037524962  0.5896865927654605  0.0878468820348842   T   T   T
  0.9319524375898021  0.6736180220729804  0.0888737131708373   T   T   T
  0.0567329487948648  0.4230215318953475  0.0904640813772199   T   T   T
  0.9320714412845005  0.8412976002457393  0.0865833467473918   T   T   T
  0.3055428410264239  0.0882110439860554  0.0866200000868832   T   T   T
  0.1821645904424343  0.1740291180752989  0.0869144467108793   T   T   T
  0.3074193096064800  0.9223325816222565  0.0883391811654806   T   T   T
  0.1818569209764734  0.3396132588632196  0.0913990203983703   T   T   T
  0.3057883310283058  0.5892017392390587  0.0995763908449209   T   T   T
  0.1817287885334600  0.6708507762925737  0.0890031610405396   T   T   T
  0.1825294402447367  0.8384028372276531  0.0867257062130007   T   T   T
  0.5561205210611873  0.0857890737099659  0.0956072947363482   T   T   T
  0.4307540412502653  0.1684790113174790  0.0923302545556488   T   T   T
  0.4316355418182104  0.3339833322854326  0.0992195129653587   T   T   T
  0.4297704458068770  0.8380405204894428  0.0995310336441890   T   T   T
  0.8067098611260385  0.0905486414252455  0.0885282469613242   T   T   T
  0.6801859617645923  0.1702567952090880  0.0941237756152695   T   T   T
  0.8070090252139411  0.9252722172652634  0.0883862221783364   T   T   T
  0.6771498025748837  0.3351308397732493  0.1000764995302272   T   T   T
  0.8065338235725708  0.5948877901307104  0.0975409642268456   T   T   T
  0.8012607044984765  0.4258784286371078  0.0969337638251768   T   T   T
  0.6838089086202084  0.8412059270901348  0.0973149030565888   T   T   T
  0.4216117958949494  0.6785857534279855  0.1178018677734070   T   T   T
  0.5517462267746711  0.4063978393038496  0.1118901118143050   T   T   T
  0.6907769356298513  0.6845548874718779  0.1091002799392976   T   T   T
  0.5577497060719935  0.9199354628537734  0.0985087024743300   T   T   T
  0.3085986923969323  0.4212211330445848  0.0975696191050610   T   T   T
  0.5618880862005955  0.5873954951736808  0.1699192435828316   T   T   T
 
  0.00000000E+00  0.00000000E+00  0.00000000E+00
  0.00000000E+00  0.00000000E+00  0.00000000E+00
  0.00000000E+00  0.00000000E+00  0.00000000E+00
  0.00000000E+00  0.00000000E+00  0.00000000E+00
  0.00000000E+00  0.00000000E+00  0.00000000E+00
  0.00000000E+00  0.00000000E+00  0.00000000E+00
  0.00000000E+00  0.00000000E+00  0.00000000E+00
  0.00000000E+00  0.00000000E+00  0.00000000E+00
  0.00000000E+00  0.00000000E+00  0.00000000E+00
  0.00000000E+00  0.00000000E+00  0.00000000E+00
  0.00000000E+00  0.00000000E+00  0.00000000E+00
  0.00000000E+00  0.00000000E+00  0.00000000E+00
  0.00000000E+00  0.00000000E+00  0.00000000E+00
  0.00000000E+00  0.00000000E+00  0.00000000E+00
  0.00000000E+00  0.00000000E+00  0.00000000E+00
  0.00000000E+00  0.00000000E+00  0.00000000E+00
  0.00000000E+00  0.00000000E+00  0.00000000E+00
  0.00000000E+00  0.00000000E+00  0.00000000E+00
  0.00000000E+00  0.00000000E+00  0.00000000E+00
  0.00000000E+00  0.00000000E+00  0.00000000E+00
  0.00000000E+00  0.00000000E+00  0.00000000E+00
  0.00000000E+00  0.00000000E+00  0.00000000E+00
  0.00000000E+00  0.00000000E+00  0.00000000E+00
  0.00000000E+00  0.00000000E+00  0.00000000E+00
  0.00000000E+00  0.00000000E+00  0.00000000E+00
  0.00000000E+00  0.00000000E+00  0.00000000E+00
  0.00000000E+00  0.00000000E+00  0.00000000E+00
  0.00000000E+00  0.00000000E+00  0.00000000E+00
  0.00000000E+00  0.00000000E+00  0.00000000E+00
  0.00000000E+00  0.00000000E+00  0.00000000E+00
  0.00000000E+00  0.00000000E+00  0.00000000E+00
  0.00000000E+00  0.00000000E+00  0.00000000E+00
