Title                                   
   1.00000000000000     
     9.8694509999999998    0.0000000000000000    0.0000000000000000
     0.0000000000000000    8.5490480000000009    0.0000000000000000
     0.0000000000000000    0.0000000000000000   20.0000000000000000
    24     6     1
Selective dynamics
Direct
  0.0550596680085613  0.0905084892547848  0.0883102395938463   T   T   T
  0.9301230877173768  0.1731396034456092  0.0878871857391101   T   T   T
  0.0577037521404703  0.9215714118566674  0.0890408339328789   T   T   T
  0.9327372847762142  0.3406335011804541  0.0873410714135741   T   T   T
  0.0565518161890033  0.5907517658296013  0.0868868070210902   T   T   T
  0.0563095263346093  0.4239393062168106  0.0860767910381564   T   T   T
  0.9328130948074972  0.8399932874723166  0.0904553969264832   T   T   T
  0.3073100053564107  0.0883356267054486  0.0942442983731182   T   T   T
  0.1802915435723821  0.1710943880585519  0.0905250369667166   T   T   T
  0.1802687087805405  0.3388239213772762  0.0893535100102943   T   T   T
  0.3023542532912862  0.5884297857906654  0.0952232806439066   T   T   T
  0.1800366118424551  0.6732535074245068  0.0890318460145026   T   T   T
  0.3028277944645858  0.4203727769425163  0.0970034990471061   T   T   T
  0.1819035807794109  0.8406678860544916  0.0900311413065107   T   T   T
  0.4281083968127647  0.1727824470086076  0.1020851334516151   T   T   T
  0.5546746129250588  0.9183974994166425  0.1021050024684286   T   T   T
  0.4289060516170940  0.8364836212513215  0.1003004209112396   T   T   T
  0.8036257590057576  0.0895076315783846  0.0911136179893422   T   T   T
  0.6799161445016597  0.1756990054551631  0.0978003638815572   T   T   T
  0.8063309649572364  0.9214685230980643  0.0930904238815503   T   T   T
  0.6863290278563157  0.3422467964097125  0.1045900275585783   T   T   T
  0.8134380243221251  0.5936510228284504  0.0973925737681233   T   T   T
  0.8110978346055155  0.4255465461237590  0.0944389502403746   T   T   T
  0.6834085137132374  0.8373445619420035  0.1018428425419509   T   T   T
  0.9337787822434771  0.6738233655692736  0.0898069670524598   T   T   T
  0.5552120587326269  0.0922426478938797  0.1018509311902740   T   T   T
  0.4215844343945441  0.3353324413802171  0.1120082342121810   T   T   T
  0.6954842930465430  0.6746541513618344  0.1122233251000787   T   T   T
  0.4213911424360945  0.6740951888899809  0.1068557001249332   T   T   T
  0.3065283234231259  0.9209353798575958  0.0926465771687159   T   T   T
  0.5570299073460294  0.5051489123254209  0.1394029704313391   T   T   T
 
  0.00000000E+00  0.00000000E+00  0.00000000E+00
  0.00000000E+00  0.00000000E+00  0.00000000E+00
  0.00000000E+00  0.00000000E+00  0.00000000E+00
  0.00000000E+00  0.00000000E+00  0.00000000E+00
  0.00000000E+00  0.00000000E+00  0.00000000E+00
  0.00000000E+00  0.00000000E+00  0.00000000E+00
  0.00000000E+00  0.00000000E+00  0.00000000E+00
  0.00000000E+00  0.00000000E+00  0.00000000E+00
  0.00000000E+00  0.00000000E+00  0.00000000E+00
  0.00000000E+00  0.00000000E+00  0.00000000E+00
  0.00000000E+00  0.00000000E+00  0.00000000E+00
  0.00000000E+00  0.00000000E+00  0.00000000E+00
  0.00000000E+00  0.00000000E+00  0.00000000E+00
  0.00000000E+00  0.00000000E+00  0.00000000E+00
  0.00000000E+00  0.00000000E+00  0.00000000E+00
  0.00000000E+00  0.00000000E+00  0.00000000E+00
  0.00000000E+00  0.00000000E+00  0.00000000E+00
  0.00000000E+00  0.00000000E+00  0.00000000E+00
  0.00000000E+00  0.00000000E+00  0.00000000E+00
  0.00000000E+00  0.00000000E+00  0.00000000E+00
  0.00000000E+00  0.00000000E+00  0.00000000E+00
  0.00000000E+00  0.00000000E+00  0.00000000E+00
  0.00000000E+00  0.00000000E+00  0.00000000E+00
  0.00000000E+00  0.00000000E+00  0.00000000E+00
  0.00000000E+00  0.00000000E+00  0.00000000E+00
  0.00000000E+00  0.00000000E+00  0.00000000E+00
  0.00000000E+00  0.00000000E+00  0.00000000E+00
  0.00000000E+00  0.00000000E+00  0.00000000E+00
  0.00000000E+00  0.00000000E+00  0.00000000E+00
  0.00000000E+00  0.00000000E+00  0.00000000E+00
  0.00000000E+00  0.00000000E+00  0.00000000E+00
