Title                                   
   1.00000000000000     
     9.8694509999999998    0.0000000000000000    0.0000000000000000
     0.0000000000000000    8.5490480000000009    0.0000000000000000
     0.0000000000000000    0.0000000000000000   20.0000000000000000
    28     2     1
Selective dynamics
Direct
  0.0566342110381204  0.0893014364152383  0.0916185535335578   T   T   T
  0.9314774626570819  0.1719411049341127  0.0960650136225354   T   T   T
  0.0578571773963109  0.9237056467264713  0.0920456459928165   T   T   T
  0.9329043254184695  0.3392275531162107  0.0977595868230395   T   T   T
  0.0579032499573936  0.5903670614137078  0.0949625027624828   T   T   T
  0.9332294821150385  0.6732952918473561  0.0986235925448085   T   T   T
  0.0576997335029691  0.4227141023138108  0.0942643869651093   T   T   T
  0.9322459356212048  0.8402183445887834  0.0967547121256220   T   T   T
  0.3089368894705609  0.0884083014274610  0.0840707200935295   T   T   T
  0.1831707027970254  0.1715554257316816  0.0876603359283831   T   T   T
  0.1814678503448314  0.3382923882883869  0.0891287812703138   T   T   T
  0.3064176029009956  0.5904166459140540  0.0839920194511590   T   T   T
  0.1821983150670611  0.6743893411395298  0.0905198089158112   T   T   T
  0.3060516875840399  0.4208277420476000  0.0834665768961643   T   T   T
  0.1833561657481251  0.8406417561067225  0.0889345240101081   T   T   T
  0.4347047591049480  0.1714718779625544  0.0840995949376696   T   T   T
  0.5568910231027950  0.9239045631460223  0.0944175847964413   T   T   T
  0.4315430302511709  0.3373129766668088  0.0836935293749589   T   T   T
  0.4305063078165163  0.6750933253030614  0.0842386595569275   T   T   T
  0.4328896564880664  0.8412396327430899  0.0853313687184462   T   T   T
  0.8045473429436303  0.0899113624297919  0.0981002197978795   T   T   T
  0.6797911770319398  0.1790095498010160  0.1007187090385008   T   T   T
  0.8055936577589752  0.9216279071404349  0.0986410237011881   T   T   T
  0.6813621382019603  0.3463123642677734  0.1101439694969460   T   T   T
  0.8101403389066332  0.5897626182881933  0.1050441681870955   T   T   T
  0.6824776488784438  0.6651241170119329  0.1108999367274747   T   T   T
  0.8099469172006585  0.4218151402616270  0.1045032590505964   T   T   T
  0.6797615073247633  0.8336183072064186  0.1021236923837023   T   T   T
  0.5587223377818880  0.0901085635590514  0.0933480431402848   T   T   T
  0.3071655852654495  0.9228024603049637  0.0845632120961136   T   T   T
  0.5255407803229381  0.5064580918961546  0.1312312680603606   T   T   T
 
  0.00000000E+00  0.00000000E+00  0.00000000E+00
  0.00000000E+00  0.00000000E+00  0.00000000E+00
  0.00000000E+00  0.00000000E+00  0.00000000E+00
  0.00000000E+00  0.00000000E+00  0.00000000E+00
  0.00000000E+00  0.00000000E+00  0.00000000E+00
  0.00000000E+00  0.00000000E+00  0.00000000E+00
  0.00000000E+00  0.00000000E+00  0.00000000E+00
  0.00000000E+00  0.00000000E+00  0.00000000E+00
  0.00000000E+00  0.00000000E+00  0.00000000E+00
  0.00000000E+00  0.00000000E+00  0.00000000E+00
  0.00000000E+00  0.00000000E+00  0.00000000E+00
  0.00000000E+00  0.00000000E+00  0.00000000E+00
  0.00000000E+00  0.00000000E+00  0.00000000E+00
  0.00000000E+00  0.00000000E+00  0.00000000E+00
  0.00000000E+00  0.00000000E+00  0.00000000E+00
  0.00000000E+00  0.00000000E+00  0.00000000E+00
  0.00000000E+00  0.00000000E+00  0.00000000E+00
  0.00000000E+00  0.00000000E+00  0.00000000E+00
  0.00000000E+00  0.00000000E+00  0.00000000E+00
  0.00000000E+00  0.00000000E+00  0.00000000E+00
  0.00000000E+00  0.00000000E+00  0.00000000E+00
  0.00000000E+00  0.00000000E+00  0.00000000E+00
  0.00000000E+00  0.00000000E+00  0.00000000E+00
  0.00000000E+00  0.00000000E+00  0.00000000E+00
  0.00000000E+00  0.00000000E+00  0.00000000E+00
  0.00000000E+00  0.00000000E+00  0.00000000E+00
  0.00000000E+00  0.00000000E+00  0.00000000E+00
  0.00000000E+00  0.00000000E+00  0.00000000E+00
  0.00000000E+00  0.00000000E+00  0.00000000E+00
  0.00000000E+00  0.00000000E+00  0.00000000E+00
  0.00000000E+00  0.00000000E+00  0.00000000E+00
