Title                                   
   1.00000000000000     
     4.9440799999999996    0.0000000000000000    0.0000000000000000
     0.0000000000000000   17.1295089999999988    0.0000000000000000
     0.0000000000000000    0.0000000000000000   20.0000000000000000
    29     1     1
Selective dynamics
Direct
 -0.0009057669480185  0.1049650160541781  0.2943554573891726   T   T   T
  0.2489398337670745  0.1472659086671654  0.2950150104351169   T   T   T
  0.2485238611757098  0.2306762893897094  0.2985020472247432   T   T   T
  0.0015874096796753  0.2747356252834043  0.3031719784472426   T   T   T
  0.0018926488899613  0.6008073187211470  0.3019788134715244   T   T   T
  0.2488555261851010  0.7266096184826261  0.2949822206803813   T   T   T
  0.0002078479053362  0.8528020579533060  0.2931244471668065   T   T   T
  0.2495098125908891  0.8951166377188630  0.2928632745045922   T   T   T
  0.2495151721097396  0.9790859057071786  0.2929354316526414   T   T   T
 -0.0002343757235989  0.7687282188587024  0.2941634787071864   T   T   T
  0.4998776522355971  0.1053072463725228  0.2936241936423524   T   T   T
  0.7500457923340405  0.1475821411431017  0.2946282396603081   T   T   T
  0.7504107550884219  0.2317935078048650  0.2975476895566332   T   T   T
  0.4996018456022608  0.0212514871380163  0.2929202945323442   T   T   T
  0.7469368648534691  0.3964570847863992  0.3087892185103839   T   T   T
  0.7472733098611574  0.4813217846458291  0.3078218431318001   T   T   T
  0.4972954958125893  0.2726163857858037  0.2982454385601023   T   T   T
  0.4954875661107549  0.6026292406308540  0.2971155671221562   T   T   T
  0.7496673551181917  0.7270216533130307  0.2941754795007764   T   T   T
  0.4984813408871031  0.8527065361955651  0.2927693067478979   T   T   T
  0.7492109720741560  0.8947000964557735  0.2927657749036662   T   T   T
  0.7492014058382812  0.9788028575558497  0.2928436177567212   T   T   T
  0.4988157086991054  0.7684801843083233  0.2934485367223075   T   T   T
  0.7497756417880317  0.6437814391963528  0.2963433481237564   T   T   T
 -0.0008502632099378  0.0211073265770529  0.2932856375450780   T   T   T
  0.4974559765566463  0.5207222125713217  0.3020568327819800   T   T   T
  0.0020451290991972  0.5189411344182054  0.3130736001265176   T   T   T
  0.5012578918403003  0.3553317586525481  0.3037882151947275   T   T   T
 -0.0007903354062133  0.3575849672078263  0.3143020958319450   T   T   T
  0.2486622106981144  0.6445709606653669  0.2978576309229006   T   T   T
  0.2822527144868652  0.4378393977391078  0.3465652794461880   T   T   T
 
  0.00000000E+00  0.00000000E+00  0.00000000E+00
  0.00000000E+00  0.00000000E+00  0.00000000E+00
  0.00000000E+00  0.00000000E+00  0.00000000E+00
  0.00000000E+00  0.00000000E+00  0.00000000E+00
  0.00000000E+00  0.00000000E+00  0.00000000E+00
  0.00000000E+00  0.00000000E+00  0.00000000E+00
  0.00000000E+00  0.00000000E+00  0.00000000E+00
  0.00000000E+00  0.00000000E+00  0.00000000E+00
  0.00000000E+00  0.00000000E+00  0.00000000E+00
  0.00000000E+00  0.00000000E+00  0.00000000E+00
  0.00000000E+00  0.00000000E+00  0.00000000E+00
  0.00000000E+00  0.00000000E+00  0.00000000E+00
  0.00000000E+00  0.00000000E+00  0.00000000E+00
  0.00000000E+00  0.00000000E+00  0.00000000E+00
  0.00000000E+00  0.00000000E+00  0.00000000E+00
  0.00000000E+00  0.00000000E+00  0.00000000E+00
  0.00000000E+00  0.00000000E+00  0.00000000E+00
  0.00000000E+00  0.00000000E+00  0.00000000E+00
  0.00000000E+00  0.00000000E+00  0.00000000E+00
  0.00000000E+00  0.00000000E+00  0.00000000E+00
  0.00000000E+00  0.00000000E+00  0.00000000E+00
  0.00000000E+00  0.00000000E+00  0.00000000E+00
  0.00000000E+00  0.00000000E+00  0.00000000E+00
  0.00000000E+00  0.00000000E+00  0.00000000E+00
  0.00000000E+00  0.00000000E+00  0.00000000E+00
  0.00000000E+00  0.00000000E+00  0.00000000E+00
  0.00000000E+00  0.00000000E+00  0.00000000E+00
  0.00000000E+00  0.00000000E+00  0.00000000E+00
  0.00000000E+00  0.00000000E+00  0.00000000E+00
  0.00000000E+00  0.00000000E+00  0.00000000E+00
  0.00000000E+00  0.00000000E+00  0.00000000E+00
