Title                                   
   1.00000000000000     
     8.5490480000000009    0.0000000000000000    0.0000000000000000
     0.0000000000000000    8.5490480000000009    0.0000000000000000
     0.0000000000000000    0.0000000000000000   20.0000000000000000
    19     5     1
Selective dynamics
Direct
  0.9083997837823501  0.2054739759553462  0.0975486924397232   T   T   T
  0.9076721672228290  0.5025686855299989  0.0976966611146709   T   T   T
  0.9105958701419469  0.8010016636544750  0.0975337956500929   T   T   T
  0.1969708542905077  0.0834695973077885  0.0976224855787820   T   T   T
  0.0757278115671390  0.2024474461675681  0.0975746449955757   T   T   T
  0.1596333136104766  0.6508822574750259  0.0977461016503667   T   T   T
  0.0794671248031299  0.5012802630615585  0.0977320942828959   T   T   T
  0.1596521430360178  0.3519495795921154  0.0977993415443337   T   T   T
  0.0783181740460266  0.7984005326730670  0.0975909014072430   T   T   T
  0.4926443464141286  0.0879289592550615  0.0978020838647681   T   T   T
  0.3438039397664311  0.1659967202553111  0.0978449219786652   T   T   T
  0.4921121612714978  0.9162291682176272  0.0977390700615102   T   T   T
  0.3440418890886320  0.8351835662262662  0.0977449994246510   T   T   T
  0.7875766509141490  0.0858804041983815  0.0975761487269633   T   T   T
  0.6397743544425815  0.1688774575522086  0.0978256592023581   T   T   T
  0.7882722495730639  0.9196227660708298  0.0975529424681962   T   T   T
  0.8287999345627873  0.6515483136454151  0.0976943128778318   T   T   T
  0.8265752365844432  0.3539968431552963  0.0977555336660132   T   T   T
  0.6403266600572479  0.8351011098142340  0.0977363474264933   T   T   T
  0.3209177482251792  0.3285466029962332  0.0980531442414559   T   T   T
  0.3210359660528469  0.6760248241379514  0.0979118156102842   T   T   T
  0.6640660722953531  0.3311403111694132  0.0980126620445319   T   T   T
  0.6656081482603251  0.6735996566672738  0.0978968224718981   T   T   T
  0.1980620440482286  0.9162757022743769  0.0976282450359774   T   T   T
  0.4953573559426743  0.5013635929471755  0.0980855722346983   T   T   T
 
  0.00000000E+00  0.00000000E+00  0.00000000E+00
  0.00000000E+00  0.00000000E+00  0.00000000E+00
  0.00000000E+00  0.00000000E+00  0.00000000E+00
  0.00000000E+00  0.00000000E+00  0.00000000E+00
  0.00000000E+00  0.00000000E+00  0.00000000E+00
  0.00000000E+00  0.00000000E+00  0.00000000E+00
  0.00000000E+00  0.00000000E+00  0.00000000E+00
  0.00000000E+00  0.00000000E+00  0.00000000E+00
  0.00000000E+00  0.00000000E+00  0.00000000E+00
  0.00000000E+00  0.00000000E+00  0.00000000E+00
  0.00000000E+00  0.00000000E+00  0.00000000E+00
  0.00000000E+00  0.00000000E+00  0.00000000E+00
  0.00000000E+00  0.00000000E+00  0.00000000E+00
  0.00000000E+00  0.00000000E+00  0.00000000E+00
  0.00000000E+00  0.00000000E+00  0.00000000E+00
  0.00000000E+00  0.00000000E+00  0.00000000E+00
  0.00000000E+00  0.00000000E+00  0.00000000E+00
  0.00000000E+00  0.00000000E+00  0.00000000E+00
  0.00000000E+00  0.00000000E+00  0.00000000E+00
  0.00000000E+00  0.00000000E+00  0.00000000E+00
  0.00000000E+00  0.00000000E+00  0.00000000E+00
  0.00000000E+00  0.00000000E+00  0.00000000E+00
  0.00000000E+00  0.00000000E+00  0.00000000E+00
  0.00000000E+00  0.00000000E+00  0.00000000E+00
  0.00000000E+00  0.00000000E+00  0.00000000E+00
