Title                                   
   1.00000000000000     
     4.9440799999999996    0.0000000000000000    0.0000000000000000
     0.0000000000000000   17.1295089999999988    0.0000000000000000
     0.0000000000000000    0.0000000000000000   20.0000000000000000
    28     3     1
Selective dynamics
Direct
  0.0000100168317531  0.1040538227276184  0.2934837312114240   T   T   T
  0.2503037748135514  0.1461916602203375  0.2931745467790677   T   T   T
  0.2526363186826212  0.2299549260679367  0.2925672932480478   T   T   T
  0.0144261888102800  0.3551491264748143  0.2929071867003047   T   T   T
  0.0021362750518411  0.2716504110485012  0.2928583045999582   T   T   T
 -0.0164330725453678  0.6015921044679745  0.2990515129936190   T   T   T
  0.2402169137933522  0.7263951166511338  0.2989950569894870   T   T   T
 -0.0061876792819615  0.8528447709551127  0.2944715605909451   T   T   T
  0.2440274820907040  0.8951053254535163  0.2946609374442654   T   T   T
  0.2464213396762447  0.9785223667089202  0.2940538496065905   T   T   T
 -0.0084575169832161  0.7693367868556193  0.2955846040348712   T   T   T
  0.4992868757889217  0.1041103761785261  0.2935596798472285   T   T   T
  0.7505461151421805  0.1460001438779682  0.2935003790979759   T   T   T
  0.7530453792161969  0.2291709827307860  0.2933995878978595   T   T   T
  0.4971135385849365  0.0205748697465851  0.2939231234317921   T   T   T
  0.4968596727117455  0.3544867634767174  0.2933219055606728   T   T   T
  0.7504022034995115  0.4824191666373761  0.3053996823701852   T   T   T
  0.5049624725071095  0.2712928866907860  0.2929361648550824   T   T   T
  0.4922940871388781  0.6023396954774064  0.3115192339252012   T   T   T
  0.7398915722038780  0.7282885553331568  0.2970151007249140   T   T   T
  0.4928766837724490  0.8529736830629726  0.2954335165802227   T   T   T
  0.7441478463277750  0.8948567518954283  0.2943398058342049   T   T   T
  0.7464608736159010  0.9784811431301335  0.2939422523702398   T   T   T
  0.4902237152498869  0.7695436206995765  0.2976368714068492   T   T   T
  0.7378531982485449  0.6451401480452479  0.3004560472212514   T   T   T
  0.2386337514567267  0.6429868748469380  0.3043834760259693   T   T   T
 -0.0027675994969776  0.0205671693485422  0.2937644822108362   T   T   T
  0.5218425941485372  0.5225501641098514  0.3313159501686657   T   T   T
  0.9722568121555702  0.5232345517055875  0.2902518946315731   T   T   T
  0.2570246002389490  0.3922268648529041  0.2914210943993145   T   T   T
  0.7557142718768132  0.3977383648593132  0.2968540148470197   T   T   T
  0.3390542946726713  0.4887718056627021  0.4163821523943121   T   T   T
 
  0.00000000E+00  0.00000000E+00  0.00000000E+00
  0.00000000E+00  0.00000000E+00  0.00000000E+00
  0.00000000E+00  0.00000000E+00  0.00000000E+00
  0.00000000E+00  0.00000000E+00  0.00000000E+00
  0.00000000E+00  0.00000000E+00  0.00000000E+00
  0.00000000E+00  0.00000000E+00  0.00000000E+00
  0.00000000E+00  0.00000000E+00  0.00000000E+00
  0.00000000E+00  0.00000000E+00  0.00000000E+00
  0.00000000E+00  0.00000000E+00  0.00000000E+00
  0.00000000E+00  0.00000000E+00  0.00000000E+00
  0.00000000E+00  0.00000000E+00  0.00000000E+00
  0.00000000E+00  0.00000000E+00  0.00000000E+00
  0.00000000E+00  0.00000000E+00  0.00000000E+00
  0.00000000E+00  0.00000000E+00  0.00000000E+00
  0.00000000E+00  0.00000000E+00  0.00000000E+00
  0.00000000E+00  0.00000000E+00  0.00000000E+00
  0.00000000E+00  0.00000000E+00  0.00000000E+00
  0.00000000E+00  0.00000000E+00  0.00000000E+00
  0.00000000E+00  0.00000000E+00  0.00000000E+00
  0.00000000E+00  0.00000000E+00  0.00000000E+00
  0.00000000E+00  0.00000000E+00  0.00000000E+00
  0.00000000E+00  0.00000000E+00  0.00000000E+00
  0.00000000E+00  0.00000000E+00  0.00000000E+00
  0.00000000E+00  0.00000000E+00  0.00000000E+00
  0.00000000E+00  0.00000000E+00  0.00000000E+00
  0.00000000E+00  0.00000000E+00  0.00000000E+00
  0.00000000E+00  0.00000000E+00  0.00000000E+00
  0.00000000E+00  0.00000000E+00  0.00000000E+00
  0.00000000E+00  0.00000000E+00  0.00000000E+00
  0.00000000E+00  0.00000000E+00  0.00000000E+00
  0.00000000E+00  0.00000000E+00  0.00000000E+00
  0.00000000E+00  0.00000000E+00  0.00000000E+00
