Title                                   
   1.00000000000000     
     9.8694509999999998    0.0000000000000000    0.0000000000000000
     0.0000000000000000    8.5490480000000009    0.0000000000000000
     0.0000000000000000    0.0000000000000000   20.0000000000000000
    26     4     1
Selective dynamics
Direct
  0.0554869582856512  0.0889385080432005  0.0946881078344001   T   T   T
  0.9302557699149260  0.1713700843510176  0.0950932910410169   T   T   T
  0.0571715355287029  0.9234017253800570  0.0946549025969479   T   T   T
  0.9340535749123615  0.3382651701391211  0.0951169670844438   T   T   T
  0.0582338551833673  0.5895131251545431  0.0946535993255287   T   T   T
  0.9343919357013684  0.6737170690322206  0.0951145840926391   T   T   T
  0.0581757907051695  0.4226760700629920  0.0946447761249865   T   T   T
  0.9312484557165184  0.8403026018187180  0.0950681251526562   T   T   T
  0.3067653339856872  0.0879507195435742  0.0941922413193914   T   T   T
  0.1818147376351983  0.1716177303372533  0.0943087881306380   T   T   T
  0.1816983413563016  0.3383151675926808  0.0943033877867290   T   T   T
  0.3054645397615888  0.5893593654759031  0.0942730005395881   T   T   T
  0.1821247723407018  0.6736036168051502  0.0943119679354033   T   T   T
  0.3053050013499665  0.4219276109130042  0.0942673182816614   T   T   T
  0.1815608102775003  0.8396518946916823  0.0942868647121664   T   T   T
  0.4301086349815234  0.1766902631184372  0.0944961416011222   T   T   T
  0.5522888098096249  0.9217020691409186  0.0951286500360554   T   T   T
  0.4295145310624388  0.8364822476965350  0.0945898935808603   T   T   T
  0.8031429212493556  0.0895143318305921  0.0953009745139247   T   T   T
  0.6780600386132002  0.1791934296324078  0.0953840560488731   T   T   T
  0.8045391213449986  0.9220806855278169  0.0953308891270256   T   T   T
  0.6854215857542234  0.3439623719427053  0.0957318102008897   T   T   T
  0.8121515765171230  0.5894022654215575  0.0955952248591648   T   T   T
  0.6868983647343019  0.6687554546349026  0.0958732245143995   T   T   T
  0.8120838537676254  0.4220748173374134  0.0955742773954259   T   T   T
  0.6784373887369924  0.8345234040947430  0.0955445797556873   T   T   T
  0.5532888703371968  0.0936850472555614  0.0949072514433404   T   T   T
  0.4266928020458509  0.3375776912919448  0.0944946246632490   T   T   T
  0.4257527769473176  0.6743737696703834  0.0944545578826937   T   T   T
  0.3060075635851913  0.9227209341047888  0.0941107486394396   T   T   T
  0.5549947478580423  0.5075257579581812  0.0954701737797005   T   T   T
 
  0.00000000E+00  0.00000000E+00  0.00000000E+00
  0.00000000E+00  0.00000000E+00  0.00000000E+00
  0.00000000E+00  0.00000000E+00  0.00000000E+00
  0.00000000E+00  0.00000000E+00  0.00000000E+00
  0.00000000E+00  0.00000000E+00  0.00000000E+00
  0.00000000E+00  0.00000000E+00  0.00000000E+00
  0.00000000E+00  0.00000000E+00  0.00000000E+00
  0.00000000E+00  0.00000000E+00  0.00000000E+00
  0.00000000E+00  0.00000000E+00  0.00000000E+00
  0.00000000E+00  0.00000000E+00  0.00000000E+00
  0.00000000E+00  0.00000000E+00  0.00000000E+00
  0.00000000E+00  0.00000000E+00  0.00000000E+00
  0.00000000E+00  0.00000000E+00  0.00000000E+00
  0.00000000E+00  0.00000000E+00  0.00000000E+00
  0.00000000E+00  0.00000000E+00  0.00000000E+00
  0.00000000E+00  0.00000000E+00  0.00000000E+00
  0.00000000E+00  0.00000000E+00  0.00000000E+00
  0.00000000E+00  0.00000000E+00  0.00000000E+00
  0.00000000E+00  0.00000000E+00  0.00000000E+00
  0.00000000E+00  0.00000000E+00  0.00000000E+00
  0.00000000E+00  0.00000000E+00  0.00000000E+00
  0.00000000E+00  0.00000000E+00  0.00000000E+00
  0.00000000E+00  0.00000000E+00  0.00000000E+00
  0.00000000E+00  0.00000000E+00  0.00000000E+00
  0.00000000E+00  0.00000000E+00  0.00000000E+00
  0.00000000E+00  0.00000000E+00  0.00000000E+00
  0.00000000E+00  0.00000000E+00  0.00000000E+00
  0.00000000E+00  0.00000000E+00  0.00000000E+00
  0.00000000E+00  0.00000000E+00  0.00000000E+00
  0.00000000E+00  0.00000000E+00  0.00000000E+00
  0.00000000E+00  0.00000000E+00  0.00000000E+00
