Title                                   
   1.00000000000000     
     8.5490480000000009    0.0000000000000000    0.0000000000000000
     0.0000000000000000    8.5490480000000009    0.0000000000000000
     0.0000000000000000    0.0000000000000000   20.0000000000000000
    23     1     1
Selective dynamics
Direct
  0.9104974215859477  0.2081168664700107  0.0975499162469947   T   T   T
  0.9052456223701286  0.5026684131344131  0.0958209708495102   T   T   T
  0.9114894310487287  0.7993958508907527  0.0964173636243674   T   T   T
  0.1987631997970123  0.0839723156456807  0.0966147365243509   T   T   T
  0.0751890895316850  0.2075475883331894  0.0965912487023371   T   T   T
  0.1993517508372092  0.9192815143622393  0.0975776944799744   T   T   T
  0.1560402598999765  0.6480467336510666  0.0969590721489056   T   T   T
  0.0744616759825099  0.5023182578626094  0.0959931465547785   T   T   T
  0.1567134760690167  0.3563198597027792  0.0950936269853340   T   T   T
  0.0762959440300811  0.7968606586539461  0.0976305439306080   T   T   T
  0.4934624262660043  0.0832424763099369  0.0960698930989077   T   T   T
  0.3474965762706551  0.1655163240702225  0.0951421706490268   T   T   T
  0.4938491449591778  0.9140135580388735  0.0959154042443135   T   T   T
  0.3476630040506613  0.8350922504192920  0.0968376536879746   T   T   T
  0.7880473082854321  0.0850576046654025  0.0976472737072196   T   T   T
  0.6392139225828956  0.1647821113738266  0.0969947491690550   T   T   T
  0.7906164450021597  0.9202372604361735  0.0964411952564879   T   T   T
  0.8270838306531751  0.6521534223237502  0.0947213451057266   T   T   T
  0.8263215073503690  0.3564423702667651  0.0967702252981452   T   T   T
  0.6433496895086022  0.8358256384508820  0.0947621875648211   T   T   T
  0.3264498474018950  0.3352230700279893  0.0917008411914865   T   T   T
  0.3235195241359692  0.6665336852357170  0.0945819580830174   T   T   T
  0.6577536871928764  0.3322304081458234  0.0945610351789432   T   T   T
  0.6671732848395860  0.6759166505946920  0.0921487558872804   T   T   T
  0.4893639303482396  0.4979951109339792  0.0831619918304112   T   T   T
 
  0.00000000E+00  0.00000000E+00  0.00000000E+00
  0.00000000E+00  0.00000000E+00  0.00000000E+00
  0.00000000E+00  0.00000000E+00  0.00000000E+00
  0.00000000E+00  0.00000000E+00  0.00000000E+00
  0.00000000E+00  0.00000000E+00  0.00000000E+00
  0.00000000E+00  0.00000000E+00  0.00000000E+00
  0.00000000E+00  0.00000000E+00  0.00000000E+00
  0.00000000E+00  0.00000000E+00  0.00000000E+00
  0.00000000E+00  0.00000000E+00  0.00000000E+00
  0.00000000E+00  0.00000000E+00  0.00000000E+00
  0.00000000E+00  0.00000000E+00  0.00000000E+00
  0.00000000E+00  0.00000000E+00  0.00000000E+00
  0.00000000E+00  0.00000000E+00  0.00000000E+00
  0.00000000E+00  0.00000000E+00  0.00000000E+00
  0.00000000E+00  0.00000000E+00  0.00000000E+00
  0.00000000E+00  0.00000000E+00  0.00000000E+00
  0.00000000E+00  0.00000000E+00  0.00000000E+00
  0.00000000E+00  0.00000000E+00  0.00000000E+00
  0.00000000E+00  0.00000000E+00  0.00000000E+00
  0.00000000E+00  0.00000000E+00  0.00000000E+00
  0.00000000E+00  0.00000000E+00  0.00000000E+00
  0.00000000E+00  0.00000000E+00  0.00000000E+00
  0.00000000E+00  0.00000000E+00  0.00000000E+00
  0.00000000E+00  0.00000000E+00  0.00000000E+00
  0.00000000E+00  0.00000000E+00  0.00000000E+00
