Title                                   
   1.00000000000000     
     9.8694509999999998    0.0000000000000000    0.0000000000000000
     0.0000000000000000    8.5490480000000009    0.0000000000000000
     0.0000000000000000    0.0000000000000000   20.0000000000000000
    29     1     1
Selective dynamics
Direct
  0.0549924109228032  0.0882130920715545  0.0849619650696981   T   T   T
  0.9297249942336027  0.1731595537138524  0.0851466690896418   T   T   T
  0.0567036718799237  0.9225553462939585  0.0852945285423600   T   T   T
  0.9322316560528849  0.3395735741850883  0.0836824464339334   T   T   T
  0.0575070476532971  0.5892458897447860  0.0828504711863577   T   T   T
  0.9338423337461867  0.6753128017283671  0.0853800909064968   T   T   T
  0.0565410747633160  0.4228082144325847  0.0825058786965696   T   T   T
  0.9313403957177196  0.8418546958489540  0.0867347874232384   T   T   T
  0.3050560891264144  0.0874018682460315  0.0946565793826872   T   T   T
  0.1797742571850044  0.1696863011477059  0.0881806345410419   T   T   T
  0.3077981201197454  0.9188702032559560  0.0940760214053301   T   T   T
  0.1794133238603589  0.3362553646115263  0.0867243954993307   T   T   T
  0.3051257593813832  0.5853530946529638  0.0936733868320162   T   T   T
  0.1821239531553921  0.6708984952328449  0.0864352964830606   T   T   T
  0.3021215606417116  0.4164337298223090  0.0956187990540042   T   T   T
  0.1825165556236578  0.8379313183888423  0.0876138502808051   T   T   T
  0.5538552440270637  0.0928648327629826  0.1036701777035434   T   T   T
  0.4262127940136231  0.1768050251574067  0.1032419070575120   T   T   T
  0.5561469016263206  0.9242855573552337  0.1040551885454300   T   T   T
  0.4298195776134932  0.6634020713150167  0.1029350918924604   T   T   T
  0.4330041657381124  0.8323488820557442  0.1011578912352195   T   T   T
  0.8035188621661720  0.0935264654220612  0.0909561577690384   T   T   T
  0.6781927315369811  0.1818178631489851  0.0979546584291405   T   T   T
  0.8052025733207174  0.9249749817247619  0.0921867464743765   T   T   T
  0.6846100033818481  0.3497240209361037  0.0987684308228691   T   T   T
  0.8117870305600984  0.5931945071688083  0.0925229422319738   T   T   T
  0.6891367009308113  0.6717232354030606  0.1083111562218076   T   T   T
  0.8102127009693244  0.4252954628775013  0.0896168374684600   T   T   T
  0.6823035685530644  0.8386305050788642  0.1015125656579671   T   T   T
  0.4198703159889582  0.3376874966781222  0.1087375119782047   T   T   T
  0.5624486255100201  0.5090405495380361  0.1418019356854665   T   T   T
 
  0.00000000E+00  0.00000000E+00  0.00000000E+00
  0.00000000E+00  0.00000000E+00  0.00000000E+00
  0.00000000E+00  0.00000000E+00  0.00000000E+00
  0.00000000E+00  0.00000000E+00  0.00000000E+00
  0.00000000E+00  0.00000000E+00  0.00000000E+00
  0.00000000E+00  0.00000000E+00  0.00000000E+00
  0.00000000E+00  0.00000000E+00  0.00000000E+00
  0.00000000E+00  0.00000000E+00  0.00000000E+00
  0.00000000E+00  0.00000000E+00  0.00000000E+00
  0.00000000E+00  0.00000000E+00  0.00000000E+00
  0.00000000E+00  0.00000000E+00  0.00000000E+00
  0.00000000E+00  0.00000000E+00  0.00000000E+00
  0.00000000E+00  0.00000000E+00  0.00000000E+00
  0.00000000E+00  0.00000000E+00  0.00000000E+00
  0.00000000E+00  0.00000000E+00  0.00000000E+00
  0.00000000E+00  0.00000000E+00  0.00000000E+00
  0.00000000E+00  0.00000000E+00  0.00000000E+00
  0.00000000E+00  0.00000000E+00  0.00000000E+00
  0.00000000E+00  0.00000000E+00  0.00000000E+00
  0.00000000E+00  0.00000000E+00  0.00000000E+00
  0.00000000E+00  0.00000000E+00  0.00000000E+00
  0.00000000E+00  0.00000000E+00  0.00000000E+00
  0.00000000E+00  0.00000000E+00  0.00000000E+00
  0.00000000E+00  0.00000000E+00  0.00000000E+00
  0.00000000E+00  0.00000000E+00  0.00000000E+00
  0.00000000E+00  0.00000000E+00  0.00000000E+00
  0.00000000E+00  0.00000000E+00  0.00000000E+00
  0.00000000E+00  0.00000000E+00  0.00000000E+00
  0.00000000E+00  0.00000000E+00  0.00000000E+00
  0.00000000E+00  0.00000000E+00  0.00000000E+00
  0.00000000E+00  0.00000000E+00  0.00000000E+00
