Title                                   
   1.00000000000000     
     4.9440799999999996    0.0000000000000000    0.0000000000000000
     0.0000000000000000    8.5647549999999999    0.0000000000000000
     0.0000000000000000    0.0000000000000000   20.0000000000000000
    13     1     1
Selective dynamics
Direct
  0.0020683452443981  0.2929943506387727  0.0936855712717978   T   T   T
  0.2500000000000000  0.0431018811379130  0.0937254613080978   T   T   T
  0.0012593126851441  0.9580849022021114  0.0948131940590625   T   T   T
  0.7500000000000000  0.2076844862601714  0.0904887731114006   T   T   T
  0.4979316547556020  0.2929943506387727  0.0936855712717978   T   T   T
  0.7500000000000000  0.0410935660054577  0.0911971012545385   T   T   T
  0.7500000000000000  0.7101568352890638  0.1041587523820175   T   T   T
  0.7500000000000000  0.5369300426923830  0.1034750491457294   T   T   T
  0.4987406873148558  0.9580849022021114  0.0948131940590625   T   T   T
  0.4987530355472325  0.4569252549335043  0.1016600307012437   T   T   T
  0.0012469644527675  0.4569252549335043  0.1016600307012437   T   T   T
  0.0000250393634960  0.7916136422124732  0.1031691320185646   T   T   T
  0.4999749606365038  0.7916136422124732  0.1031691320185646   T   T   T
  0.2500000000000000  0.2082253417384732  0.0927698909726486   T   T   T
  0.2500000000000000  0.6252525469028170  0.1455091157242336   T   T   T
 
  0.00000000E+00  0.00000000E+00  0.00000000E+00
  0.00000000E+00  0.00000000E+00  0.00000000E+00
  0.00000000E+00  0.00000000E+00  0.00000000E+00
  0.00000000E+00  0.00000000E+00  0.00000000E+00
  0.00000000E+00  0.00000000E+00  0.00000000E+00
  0.00000000E+00  0.00000000E+00  0.00000000E+00
  0.00000000E+00  0.00000000E+00  0.00000000E+00
  0.00000000E+00  0.00000000E+00  0.00000000E+00
  0.00000000E+00  0.00000000E+00  0.00000000E+00
  0.00000000E+00  0.00000000E+00  0.00000000E+00
  0.00000000E+00  0.00000000E+00  0.00000000E+00
  0.00000000E+00  0.00000000E+00  0.00000000E+00
  0.00000000E+00  0.00000000E+00  0.00000000E+00
  0.00000000E+00  0.00000000E+00  0.00000000E+00
  0.00000000E+00  0.00000000E+00  0.00000000E+00
