Title                                   
   1.00000000000000     
     8.5490480000000009    0.0000000000000000    0.0000000000000000
     0.0000000000000000    8.5490480000000009    0.0000000000000000
     0.0000000000000000    0.0000000000000000   20.0000000000000000
    20     4     1
Selective dynamics
Direct
  0.9095764190688100  0.2057250172970427  0.0954597583059155   T   T   T
  0.9071359636003358  0.5018186588617383  0.0953123299471946   T   T   T
  0.9095853697356557  0.7978777230344510  0.0954710230056728   T   T   T
  0.1969585002817710  0.0852014337228921  0.0954903621634408   T   T   T
  0.0764481234286747  0.2056951775293345  0.0954735542038880   T   T   T
  0.1969734890535288  0.9183383177758240  0.0954959480421628   T   T   T
  0.1577561399153731  0.6503263354663381  0.0953422919964453   T   T   T
  0.0789264174151852  0.5017912770789683  0.0953286740384530   T   T   T
  0.1577324360601991  0.3532354914575678  0.0953333316279014   T   T   T
  0.0764667494307402  0.7978492370707573  0.0954804552298702   T   T   T
  0.4929882946108498  0.0876918364730530  0.0953534194157354   T   T   T
  0.3444726816267848  0.1665057365663309  0.0953512067735866   T   T   T
  0.4929913978118288  0.9159190825166276  0.0953617580753838   T   T   T
  0.3444975362492659  0.8370587458173880  0.0953590664162727   T   T   T
  0.7890528409607442  0.0852466111992915  0.0954756580109667   T   T   T
  0.6415131535799262  0.1665408775408453  0.0953245761930549   T   T   T
  0.7890652906034147  0.9183733960812391  0.0954807034874207   T   T   T
  0.8282978837866216  0.6503552495856080  0.0953190280872944   T   T   T
  0.8283047960039883  0.3532745933678622  0.0952979034722529   T   T   T
  0.6415193302817538  0.8370738467024595  0.0953371378469963   T   T   T
  0.3204443951164794  0.3291834043172505  0.0951970153985169   T   T   T
  0.3204725489271802  0.6743620987857054  0.0952075654772390   T   T   T
  0.6656053019882693  0.3292136003254833  0.0951680188355046   T   T   T
  0.6655955497381837  0.6743860182635105  0.0951840709361258   T   T   T
  0.4930313907244285  0.5017462331624443  0.0951001430126825   T   T   T
 
  0.00000000E+00  0.00000000E+00  0.00000000E+00
  0.00000000E+00  0.00000000E+00  0.00000000E+00
  0.00000000E+00  0.00000000E+00  0.00000000E+00
  0.00000000E+00  0.00000000E+00  0.00000000E+00
  0.00000000E+00  0.00000000E+00  0.00000000E+00
  0.00000000E+00  0.00000000E+00  0.00000000E+00
  0.00000000E+00  0.00000000E+00  0.00000000E+00
  0.00000000E+00  0.00000000E+00  0.00000000E+00
  0.00000000E+00  0.00000000E+00  0.00000000E+00
  0.00000000E+00  0.00000000E+00  0.00000000E+00
  0.00000000E+00  0.00000000E+00  0.00000000E+00
  0.00000000E+00  0.00000000E+00  0.00000000E+00
  0.00000000E+00  0.00000000E+00  0.00000000E+00
  0.00000000E+00  0.00000000E+00  0.00000000E+00
  0.00000000E+00  0.00000000E+00  0.00000000E+00
  0.00000000E+00  0.00000000E+00  0.00000000E+00
  0.00000000E+00  0.00000000E+00  0.00000000E+00
  0.00000000E+00  0.00000000E+00  0.00000000E+00
  0.00000000E+00  0.00000000E+00  0.00000000E+00
  0.00000000E+00  0.00000000E+00  0.00000000E+00
  0.00000000E+00  0.00000000E+00  0.00000000E+00
  0.00000000E+00  0.00000000E+00  0.00000000E+00
  0.00000000E+00  0.00000000E+00  0.00000000E+00
  0.00000000E+00  0.00000000E+00  0.00000000E+00
  0.00000000E+00  0.00000000E+00  0.00000000E+00
