Title                                   
   1.00000000000000     
     9.8694509999999998    0.0000000000000000    0.0000000000000000
     0.0000000000000000    8.5490480000000009    0.0000000000000000
     0.0000000000000000    0.0000000000000000   20.0000000000000000
    29     2     1
Selective dynamics
Direct
  0.0563129540479093  0.0900757800746972  0.0825840248564960   T   T   T
  0.9312543469897440  0.1733904617565691  0.0838156992755991   T   T   T
  0.0574414820977459  0.9232689964246703  0.0831682794378974   T   T   T
  0.9310135899604709  0.3404895389950786  0.0862231859554877   T   T   T
  0.0572016372368158  0.5901737662025558  0.0842862603755722   T   T   T
  0.9324553123884161  0.6726651545963725  0.0877693859169379   T   T   T
  0.0568251004528062  0.4228083669025530  0.0845431858295597   T   T   T
  0.9323321794176473  0.8397399990665850  0.0861247452667826   T   T   T
  0.3058537471900383  0.0884341340856551  0.0873369858554702   T   T   T
  0.1823112537176562  0.1723920109849415  0.0845359208209754   T   T   T
  0.1821117014221296  0.3391876522412051  0.0864271532026139   T   T   T
  0.3047679317819473  0.5887036214078317  0.0992292236692186   T   T   T
  0.1825259754153863  0.6733669232585960  0.0868856642167104   T   T   T
  0.3064989109704555  0.4209978527317350  0.0968436978168699   T   T   T
  0.1823907991927733  0.8404796701515944  0.0855016135035298   T   T   T
  0.5555041016468095  0.0882431255297557  0.0929023751493530   T   T   T
  0.5544419990922913  0.9234509279525239  0.0997329745243669   T   T   T
  0.4298820701898476  0.3324616042652616  0.1032432229872382   T   T   T
  0.4273790734977850  0.8416292190548300  0.1027574552722064   T   T   T
  0.8061252573439071  0.0894154241724208  0.0858011103979401   T   T   T
  0.6801339052200376  0.1719580393385496  0.0906463075226440   T   T   T
  0.8066768508336813  0.9239513079577100  0.0889359039793415   T   T   T
  0.6817335681094739  0.3366467332907426  0.1006196461014864   T   T   T
  0.8092490877633878  0.5908027550405039  0.0999083818519372   T   T   T
  0.8060772874689113  0.4229059219698554  0.0962101098965755   T   T   T
  0.6828146715912412  0.8423018190859124  0.1014738352111427   T   T   T
  0.4187021776040833  0.6811284115687357  0.1181278513742164   T   T   T
  0.5548908109932761  0.4050041522203361  0.1189771739918208   T   T   T
  0.6926936462141078  0.6802555412459008  0.1180598706729021   T   T   T
  0.3065014970005939  0.9251507649944289  0.0889130350321057   T   T   T
  0.4290263450067494  0.1690565316006582  0.0925318709912700   T   T   T
  0.5565097281418807  0.5897097918312336  0.1815588490437484   T   T   T
 
  0.00000000E+00  0.00000000E+00  0.00000000E+00
  0.00000000E+00  0.00000000E+00  0.00000000E+00
  0.00000000E+00  0.00000000E+00  0.00000000E+00
  0.00000000E+00  0.00000000E+00  0.00000000E+00
  0.00000000E+00  0.00000000E+00  0.00000000E+00
  0.00000000E+00  0.00000000E+00  0.00000000E+00
  0.00000000E+00  0.00000000E+00  0.00000000E+00
  0.00000000E+00  0.00000000E+00  0.00000000E+00
  0.00000000E+00  0.00000000E+00  0.00000000E+00
  0.00000000E+00  0.00000000E+00  0.00000000E+00
  0.00000000E+00  0.00000000E+00  0.00000000E+00
  0.00000000E+00  0.00000000E+00  0.00000000E+00
  0.00000000E+00  0.00000000E+00  0.00000000E+00
  0.00000000E+00  0.00000000E+00  0.00000000E+00
  0.00000000E+00  0.00000000E+00  0.00000000E+00
  0.00000000E+00  0.00000000E+00  0.00000000E+00
  0.00000000E+00  0.00000000E+00  0.00000000E+00
  0.00000000E+00  0.00000000E+00  0.00000000E+00
  0.00000000E+00  0.00000000E+00  0.00000000E+00
  0.00000000E+00  0.00000000E+00  0.00000000E+00
  0.00000000E+00  0.00000000E+00  0.00000000E+00
  0.00000000E+00  0.00000000E+00  0.00000000E+00
  0.00000000E+00  0.00000000E+00  0.00000000E+00
  0.00000000E+00  0.00000000E+00  0.00000000E+00
  0.00000000E+00  0.00000000E+00  0.00000000E+00
  0.00000000E+00  0.00000000E+00  0.00000000E+00
  0.00000000E+00  0.00000000E+00  0.00000000E+00
  0.00000000E+00  0.00000000E+00  0.00000000E+00
  0.00000000E+00  0.00000000E+00  0.00000000E+00
  0.00000000E+00  0.00000000E+00  0.00000000E+00
  0.00000000E+00  0.00000000E+00  0.00000000E+00
  0.00000000E+00  0.00000000E+00  0.00000000E+00
