Title                                   
   1.00000000000000     
     4.9440799999999996    0.0000000000000000    0.0000000000000000
     0.0000000000000000    8.5647549999999999    0.0000000000000000
     0.0000000000000000    0.0000000000000000   20.0000000000000000
    15     1
Selective dynamics
Direct
  0.2500000000000000  0.2077855978205683  0.0927004632146671   T   T   T
 -0.0017635250116322  0.2897290893289849  0.0960580296000663   T   T   T
  0.2500000000000000  0.0423972651105054  0.0888556655747777   T   T   T
 -0.0005246032189427  0.7928987575573114  0.0969616494741690   T   T   T
  0.0005045909574302  0.9587881965131939  0.0885923739381310   T   T   T
  0.7500000000000000  0.2054913741863213  0.0897781977799560   T   T   T
  0.5017635250116325  0.2897290893289849  0.0960580296000663   T   T   T
  0.7500000000000000  0.0398863922019621  0.0857982526100921   T   T   T
  0.7500000000000000  0.7111962826550448  0.0982120601284428   T   T   T
  0.5005246032189428  0.7928987575573114  0.0969616494741690   T   T   T
  0.7500000000000000  0.5453397986569093  0.1019229733760667   T   T   T
  0.4994954090425697  0.9587881965131939  0.0885923739381310   T   T   T
  0.5192813413714641  0.4517106652178414  0.1061259635627714   T   T   T
 -0.0192813413714639  0.4517106652178414  0.1061259635627714   T   T   T
  0.2500000000000000  0.7195033696188680  0.1082194487301237   T   T   T
  0.2500000000000000  0.5421465025151575  0.1815489054356061   T   T   T
 
  0.00000000E+00  0.00000000E+00  0.00000000E+00
  0.00000000E+00  0.00000000E+00  0.00000000E+00
  0.00000000E+00  0.00000000E+00  0.00000000E+00
  0.00000000E+00  0.00000000E+00  0.00000000E+00
  0.00000000E+00  0.00000000E+00  0.00000000E+00
  0.00000000E+00  0.00000000E+00  0.00000000E+00
  0.00000000E+00  0.00000000E+00  0.00000000E+00
  0.00000000E+00  0.00000000E+00  0.00000000E+00
  0.00000000E+00  0.00000000E+00  0.00000000E+00
  0.00000000E+00  0.00000000E+00  0.00000000E+00
  0.00000000E+00  0.00000000E+00  0.00000000E+00
  0.00000000E+00  0.00000000E+00  0.00000000E+00
  0.00000000E+00  0.00000000E+00  0.00000000E+00
  0.00000000E+00  0.00000000E+00  0.00000000E+00
  0.00000000E+00  0.00000000E+00  0.00000000E+00
  0.00000000E+00  0.00000000E+00  0.00000000E+00
