Title                                   
   1.00000000000000     
     4.9440799999999996    0.0000000000000000    0.0000000000000000
     0.0000000000000000    8.5647549999999999    0.0000000000000000
     0.0000000000000000    0.0000000000000000   20.0000000000000000
    11     3     1
Selective dynamics
Direct
  0.0031062222852955  0.2938527992658832  0.1003507264668188   T   T   T
  0.2500000000000000  0.0367645222838356  0.1005620932373630   T   T   T
 -0.0011988436822979  0.9545047877703930  0.1006424749489646   T   T   T
  0.7500000000000000  0.2083128582993708  0.1003347374253527   T   T   T
  0.4968937777147044  0.2938527992658832  0.1003507264668188   T   T   T
  0.7500000000000000  0.0402919160365824  0.1005840396561334   T   T   T
  0.7500000000000000  0.7157486972283393  0.1005986669396284   T   T   T
  0.7500000000000000  0.5432194891675323  0.1005336749700559   T   T   T
  0.5011988436822979  0.9545047877703930  0.1006424749489646   T   T   T
  0.5010678859371546  0.4588547754393096  0.1005221042428475   T   T   T
 -0.0010678859371547  0.4588547754393096  0.1005221042428475   T   T   T
 -0.0106390530642326  0.7913225382291893  0.1006303142081386   T   T   T
  0.5106390530642326  0.7913225382291893  0.1006303142081386   T   T   T
  0.2500000000000000  0.2070365043538238  0.1004042409045376   T   T   T
  0.2500000000000000  0.6232372112209685  0.1006713071333936   T   T   T
 
  0.00000000E+00  0.00000000E+00  0.00000000E+00
  0.00000000E+00  0.00000000E+00  0.00000000E+00
  0.00000000E+00  0.00000000E+00  0.00000000E+00
  0.00000000E+00  0.00000000E+00  0.00000000E+00
  0.00000000E+00  0.00000000E+00  0.00000000E+00
  0.00000000E+00  0.00000000E+00  0.00000000E+00
  0.00000000E+00  0.00000000E+00  0.00000000E+00
  0.00000000E+00  0.00000000E+00  0.00000000E+00
  0.00000000E+00  0.00000000E+00  0.00000000E+00
  0.00000000E+00  0.00000000E+00  0.00000000E+00
  0.00000000E+00  0.00000000E+00  0.00000000E+00
  0.00000000E+00  0.00000000E+00  0.00000000E+00
  0.00000000E+00  0.00000000E+00  0.00000000E+00
  0.00000000E+00  0.00000000E+00  0.00000000E+00
  0.00000000E+00  0.00000000E+00  0.00000000E+00
