Title                                   
   1.00000000000000     
     4.9440799999999996    0.0000000000000000    0.0000000000000000
     0.0000000000000000    8.5647549999999999    0.0000000000000000
     0.0000000000000000    0.0000000000000000   20.0000000000000000
    14     1     1
Selective dynamics
Direct
 -0.0007868002637613  0.2892873566220682  0.0911056039709057   T   T   T
  0.2500000000000000  0.0436000340180908  0.0864874501788042   T   T   T
 -0.0004807355511452  0.7965081869658555  0.1009436761490018   T   T   T
 -0.0003786020777708  0.9609649547546197  0.0868773100338355   T   T   T
  0.7500000000000000  0.2072588301825913  0.0812307064202735   T   T   T
  0.5007868002637615  0.2892873566220682  0.0911056039709057   T   T   T
  0.7500000000000000  0.0420006992337384  0.0807007241400613   T   T   T
  0.7500000000000000  0.7091637228700244  0.1037637262370910   T   T   T
  0.5004807355511449  0.7965081869658555  0.1009436761490018   T   T   T
  0.7500000000000000  0.5396360490866403  0.1058858232700920   T   T   T
  0.5003786020777702  0.9609649547546197  0.0868773100338355   T   T   T
  0.5124982668721786  0.4463630743729521  0.1112438882692342   T   T   T
 -0.0124982668721785  0.4463630743729521  0.1112438882692342   T   T   T
  0.2500000000000000  0.7275123167196450  0.1169596869710252   T   T   T
  0.2500000000000000  0.2066418323983166  0.0882230047654457   T   T   T
  0.2500000000000000  0.5379393700599632  0.1689199211712626   T   T   T
 
  0.00000000E+00  0.00000000E+00  0.00000000E+00
  0.00000000E+00  0.00000000E+00  0.00000000E+00
  0.00000000E+00  0.00000000E+00  0.00000000E+00
  0.00000000E+00  0.00000000E+00  0.00000000E+00
  0.00000000E+00  0.00000000E+00  0.00000000E+00
  0.00000000E+00  0.00000000E+00  0.00000000E+00
  0.00000000E+00  0.00000000E+00  0.00000000E+00
  0.00000000E+00  0.00000000E+00  0.00000000E+00
  0.00000000E+00  0.00000000E+00  0.00000000E+00
  0.00000000E+00  0.00000000E+00  0.00000000E+00
  0.00000000E+00  0.00000000E+00  0.00000000E+00
  0.00000000E+00  0.00000000E+00  0.00000000E+00
  0.00000000E+00  0.00000000E+00  0.00000000E+00
  0.00000000E+00  0.00000000E+00  0.00000000E+00
  0.00000000E+00  0.00000000E+00  0.00000000E+00
  0.00000000E+00  0.00000000E+00  0.00000000E+00
