Title                                   
   1.00000000000000     
     8.5490480000000009    0.0000000000000000    0.0000000000000000
     0.0000000000000000    8.5490480000000009    0.0000000000000000
     0.0000000000000000    0.0000000000000000   20.0000000000000000
    20     4     1
Selective dynamics
Direct
  0.9071766615000394  0.2074174804785034  0.0936076504317135   T   T   T
  0.9125844663496400  0.8013465440686248  0.0956985252465494   T   T   T
  0.1950516125096453  0.0820744065833555  0.0961612459154401   T   T   T
  0.0737304934173860  0.2012130049658449  0.0959084017213327   T   T   T
  0.1576363562822821  0.6482966057211306  0.0940675934022597   T   T   T
  0.0764834177941839  0.5005307592921009  0.0964836926274058   T   T   T
  0.1531084767139135  0.3497415113708425  0.0989522383316539   T   T   T
  0.0803662085454875  0.7979041678675985  0.0939855001607868   T   T   T
  0.4927754614166100  0.0865922820386865  0.0972142591202901   T   T   T
  0.3408086992665049  0.1623922689525767  0.0990734992795343   T   T   T
  0.4941625239646746  0.9176780309014595  0.0974742080439169   T   T   T
  0.3470107145090859  0.8350143049199732  0.0945138394580644   T   T   T
  0.7873122267739616  0.0889364428733540  0.0941745899416838   T   T   T
  0.6382556372113996  0.1697741759938312  0.0948093294212107   T   T   T
  0.7901526804181388  0.9203253742845170  0.0963487197744353   T   T   T
  0.8330832791452691  0.6527227490438333  0.0984585673802647   T   T   T
  0.8279892819733549  0.3588530020878085  0.0935887982716308   T   T   T
  0.6443709981487828  0.8379204588209570  0.0996308984131005   T   T   T
  0.3245514396356515  0.6716486218699639  0.0930246620171554   T   T   T
  0.6625933675995561  0.3387648083899488  0.0937879674454017   T   T   T
  0.9095484046122208  0.5041527663766395  0.0961163486580053   T   T   T
  0.3162833186182697  0.3253118665769927  0.1037734087358960   T   T   T
  0.6712406646887200  0.6730767914627745  0.1041390460733545   T   T   T
  0.1977921579200961  0.9147778235950764  0.0940031286810175   T   T   T
  0.4913434509851122  0.4983237514636192  0.1287088814478762   T   T   T
 
  0.00000000E+00  0.00000000E+00  0.00000000E+00
  0.00000000E+00  0.00000000E+00  0.00000000E+00
  0.00000000E+00  0.00000000E+00  0.00000000E+00
  0.00000000E+00  0.00000000E+00  0.00000000E+00
  0.00000000E+00  0.00000000E+00  0.00000000E+00
  0.00000000E+00  0.00000000E+00  0.00000000E+00
  0.00000000E+00  0.00000000E+00  0.00000000E+00
  0.00000000E+00  0.00000000E+00  0.00000000E+00
  0.00000000E+00  0.00000000E+00  0.00000000E+00
  0.00000000E+00  0.00000000E+00  0.00000000E+00
  0.00000000E+00  0.00000000E+00  0.00000000E+00
  0.00000000E+00  0.00000000E+00  0.00000000E+00
  0.00000000E+00  0.00000000E+00  0.00000000E+00
  0.00000000E+00  0.00000000E+00  0.00000000E+00
  0.00000000E+00  0.00000000E+00  0.00000000E+00
  0.00000000E+00  0.00000000E+00  0.00000000E+00
  0.00000000E+00  0.00000000E+00  0.00000000E+00
  0.00000000E+00  0.00000000E+00  0.00000000E+00
  0.00000000E+00  0.00000000E+00  0.00000000E+00
  0.00000000E+00  0.00000000E+00  0.00000000E+00
  0.00000000E+00  0.00000000E+00  0.00000000E+00
  0.00000000E+00  0.00000000E+00  0.00000000E+00
  0.00000000E+00  0.00000000E+00  0.00000000E+00
  0.00000000E+00  0.00000000E+00  0.00000000E+00
  0.00000000E+00  0.00000000E+00  0.00000000E+00
