Title                                   
   1.00000000000000     
     8.5490480000000009    0.0000000000000000    0.0000000000000000
     0.0000000000000000    8.5490480000000009    0.0000000000000000
     0.0000000000000000    0.0000000000000000   20.0000000000000000
    19     5     1
Selective dynamics
Direct
  0.9092096149065377  0.2061603298451112  0.0948211075878599   T   T   T
  0.9105304376789209  0.8007856502126349  0.0945432892059469   T   T   T
  0.1968499655068225  0.0845404343223786  0.0945120607146124   T   T   T
  0.0761250642825749  0.2021654909242900  0.0941161801195905   T   T   T
  0.1540773268313241  0.6523321530362742  0.0973280724124065   T   T   T
  0.0746486604690761  0.5014787483794986  0.0965206287075429   T   T   T
  0.1551668530513078  0.3542848143057007  0.0958712627502634   T   T   T
  0.0779496903084788  0.7993973123137925  0.0951349619453118   T   T   T
  0.4941815379652169  0.0848361947329665  0.0972662490085192   T   T   T
  0.3458216694878071  0.1651834451902947  0.0965962706419277   T   T   T
  0.4931968549487950  0.9149466225686359  0.0968658612264114   T   T   T
  0.3421169693620516  0.8357826156633178  0.0976774007337506   T   T   T
  0.7885657292671607  0.0868571913156662  0.0954201510186141   T   T   T
  0.6425165111174935  0.1663304956444118  0.0979997685826726   T   T   T
  0.7890982627503993  0.9183705836390567  0.0947489714858031   T   T   T
  0.8302517782549349  0.6517761522477650  0.0957840842809403   T   T   T
  0.8287182512536909  0.3535924308789366  0.0970936234983538   T   T   T
  0.6432488349333020  0.8351913896650407  0.0960674671360906   T   T   T
  0.3224064404459020  0.3320434112475275  0.0988695188045111   T   T   T
  0.9063616361276452  0.5027396608840839  0.0964037951358338   T   T   T
  0.3164303826055379  0.6769387596974077  0.1006978179607486   T   T   T
  0.6672597867199397  0.3310860843817847  0.1014523564125559   T   T   T
  0.6704426675384911  0.6726318539971001  0.0973695202639380   T   T   T
  0.1971845450433025  0.9164448306340345  0.0951941365491532   T   T   T
  0.4930525291432793  0.4988933442723084  0.1253504438166149   T   T   T
 
  0.00000000E+00  0.00000000E+00  0.00000000E+00
  0.00000000E+00  0.00000000E+00  0.00000000E+00
  0.00000000E+00  0.00000000E+00  0.00000000E+00
  0.00000000E+00  0.00000000E+00  0.00000000E+00
  0.00000000E+00  0.00000000E+00  0.00000000E+00
  0.00000000E+00  0.00000000E+00  0.00000000E+00
  0.00000000E+00  0.00000000E+00  0.00000000E+00
  0.00000000E+00  0.00000000E+00  0.00000000E+00
  0.00000000E+00  0.00000000E+00  0.00000000E+00
  0.00000000E+00  0.00000000E+00  0.00000000E+00
  0.00000000E+00  0.00000000E+00  0.00000000E+00
  0.00000000E+00  0.00000000E+00  0.00000000E+00
  0.00000000E+00  0.00000000E+00  0.00000000E+00
  0.00000000E+00  0.00000000E+00  0.00000000E+00
  0.00000000E+00  0.00000000E+00  0.00000000E+00
  0.00000000E+00  0.00000000E+00  0.00000000E+00
  0.00000000E+00  0.00000000E+00  0.00000000E+00
  0.00000000E+00  0.00000000E+00  0.00000000E+00
  0.00000000E+00  0.00000000E+00  0.00000000E+00
  0.00000000E+00  0.00000000E+00  0.00000000E+00
  0.00000000E+00  0.00000000E+00  0.00000000E+00
  0.00000000E+00  0.00000000E+00  0.00000000E+00
  0.00000000E+00  0.00000000E+00  0.00000000E+00
  0.00000000E+00  0.00000000E+00  0.00000000E+00
  0.00000000E+00  0.00000000E+00  0.00000000E+00
