Title                                   
   1.00000000000000     
     4.9440799999999996    0.0000000000000000    0.0000000000000000
     0.0000000000000000    8.5647549999999999    0.0000000000000000
     0.0000000000000000    0.0000000000000000   20.0000000000000000
    12     2     1
Selective dynamics
Direct
  0.2492488122330279  0.2093607827660728  0.0998333178929341   T   T   T
 -0.0036190112400457  0.2952985033965570  0.1000117396356793   T   T   T
  0.2507512317327634  0.0401987423491705  0.0998511537141176   T   T   T
  0.0013880866855674  0.9571863518887591  0.0986676374177150   T   T   T
  0.7483842361494493  0.2088375881072753  0.0979100081623040   T   T   T
  0.4986348409364443  0.2923673484497603  0.0986111390567622   T   T   T
  0.7516400778685572  0.0407028427394312  0.0979243759450213   T   T   T
  0.7528564180035039  0.7129865710871391  0.0995037705542702   T   T   T
  0.7471376781464086  0.5365844136246752  0.0994751172162213   T   T   T
  0.5036213443190207  0.9542536977782961  0.1000273846072240   T   T   T
  0.5054983625808147  0.4580282730947192  0.0988007631365598   T   T   T
 -0.0054848320241146  0.7915382547951487  0.0988733082339205   T   T   T
 -0.0106435072209016  0.4578603223653601  0.1026611546970702   T   T   T
  0.5106347838433609  0.7917105668422508  0.1026597918084211   T   T   T
  0.2499514779861428  0.6247667407153868  0.1131693379217831   T   T   T
 
  0.00000000E+00  0.00000000E+00  0.00000000E+00
  0.00000000E+00  0.00000000E+00  0.00000000E+00
  0.00000000E+00  0.00000000E+00  0.00000000E+00
  0.00000000E+00  0.00000000E+00  0.00000000E+00
  0.00000000E+00  0.00000000E+00  0.00000000E+00
  0.00000000E+00  0.00000000E+00  0.00000000E+00
  0.00000000E+00  0.00000000E+00  0.00000000E+00
  0.00000000E+00  0.00000000E+00  0.00000000E+00
  0.00000000E+00  0.00000000E+00  0.00000000E+00
  0.00000000E+00  0.00000000E+00  0.00000000E+00
  0.00000000E+00  0.00000000E+00  0.00000000E+00
  0.00000000E+00  0.00000000E+00  0.00000000E+00
  0.00000000E+00  0.00000000E+00  0.00000000E+00
  0.00000000E+00  0.00000000E+00  0.00000000E+00
  0.00000000E+00  0.00000000E+00  0.00000000E+00
