Title                                   
   1.00000000000000     
     8.5490480000000009    0.0000000000000000    0.0000000000000000
     0.0000000000000000    8.5490480000000009    0.0000000000000000
     0.0000000000000000    0.0000000000000000   20.0000000000000000
    21     3     1
Selective dynamics
Direct
  0.9079124695456513  0.2061456432995073  0.0948849278245319   T   T   T
  0.9052803023836326  0.5035052295610818  0.0965314189525386   T   T   T
  0.9115243353295883  0.8019384036583928  0.0953374880628776   T   T   T
  0.1980566136763176  0.0825187157835821  0.0943917421785475   T   T   T
  0.0751429571308144  0.2034123564951371  0.0947734530182372   T   T   T
  0.1572793858619962  0.6488348612212983  0.0973119654567592   T   T   T
  0.0740270033244786  0.5014652742125523  0.0968139904688412   T   T   T
  0.1533223071166491  0.3531944337222134  0.0965165945364951   T   T   T
  0.0799842295523929  0.7970938224205989  0.0954786479789095   T   T   T
  0.4947508349428087  0.0865822510413096  0.0967126264054256   T   T   T
  0.3457101702499324  0.1615391038980447  0.0959113343324563   T   T   T
  0.4948963685485944  0.9181660452800784  0.0964551778221126   T   T   T
  0.3476334968949151  0.8385597057729806  0.0958527497108142   T   T   T
  0.7878466623336021  0.0873482574917605  0.0957232690125173   T   T   T
  0.6412566958255599  0.1678318491293398  0.0977909162139869   T   T   T
  0.7898512444153715  0.9198838521930778  0.0954761422952281   T   T   T
  0.8291511941113500  0.6533110956542748  0.0970343170571937   T   T   T
  0.8276226510266509  0.3543966824667782  0.0961357165470584   T   T   T
  0.6429821201453848  0.8373609102685406  0.0972477955223514   T   T   T
  0.3221571166598421  0.3293603130175294  0.0997959356506573   T   T   T
  0.3266421014868650  0.6736759072411680  0.0991911971708333   T   T   T
  0.6653862496316466  0.3322151933706081  0.0995894485590842   T   T   T
  0.6669234777402274  0.6754888010221457  0.1000023375825298   T   T   T
  0.1997196882772590  0.9166665264236873  0.0945075047945615   T   T   T
  0.4803523237884617  0.4942947653543341  0.1242383028454243   T   T   T
 
  0.00000000E+00  0.00000000E+00  0.00000000E+00
  0.00000000E+00  0.00000000E+00  0.00000000E+00
  0.00000000E+00  0.00000000E+00  0.00000000E+00
  0.00000000E+00  0.00000000E+00  0.00000000E+00
  0.00000000E+00  0.00000000E+00  0.00000000E+00
  0.00000000E+00  0.00000000E+00  0.00000000E+00
  0.00000000E+00  0.00000000E+00  0.00000000E+00
  0.00000000E+00  0.00000000E+00  0.00000000E+00
  0.00000000E+00  0.00000000E+00  0.00000000E+00
  0.00000000E+00  0.00000000E+00  0.00000000E+00
  0.00000000E+00  0.00000000E+00  0.00000000E+00
  0.00000000E+00  0.00000000E+00  0.00000000E+00
  0.00000000E+00  0.00000000E+00  0.00000000E+00
  0.00000000E+00  0.00000000E+00  0.00000000E+00
  0.00000000E+00  0.00000000E+00  0.00000000E+00
  0.00000000E+00  0.00000000E+00  0.00000000E+00
  0.00000000E+00  0.00000000E+00  0.00000000E+00
  0.00000000E+00  0.00000000E+00  0.00000000E+00
  0.00000000E+00  0.00000000E+00  0.00000000E+00
  0.00000000E+00  0.00000000E+00  0.00000000E+00
  0.00000000E+00  0.00000000E+00  0.00000000E+00
  0.00000000E+00  0.00000000E+00  0.00000000E+00
  0.00000000E+00  0.00000000E+00  0.00000000E+00
  0.00000000E+00  0.00000000E+00  0.00000000E+00
  0.00000000E+00  0.00000000E+00  0.00000000E+00
