Title                                   
   1.00000000000000     
     8.5490480000000009    0.0000000000000000    0.0000000000000000
     0.0000000000000000    8.5490480000000009    0.0000000000000000
     0.0000000000000000    0.0000000000000000   20.0000000000000000
    18     6     1
Selective dynamics
Direct
  0.9083048594986876  0.2056622898854947  0.0974930070881673   T   T   T
  0.9111135398847208  0.8012440747182191  0.0973919543462591   T   T   T
  0.1981790491459798  0.0839506946773770  0.0977532664654664   T   T   T
  0.0766709812694883  0.2016356729026454  0.0976262582889239   T   T   T
  0.1562946108605404  0.6516838785977497  0.0978369160046925   T   T   T
  0.0752785663193285  0.5006454133184227  0.0977297860932533   T   T   T
  0.1562062534185304  0.3541474978838396  0.0977486666886237   T   T   T
  0.0791638261714027  0.7997092668853718  0.0975734199600825   T   T   T
  0.3477672041773419  0.1657839633896143  0.0978283275554004   T   T   T
  0.4938166442760765  0.9157468884231630  0.0978080675092236   T   T   T
  0.3437432830747470  0.8352005997063608  0.0979577629245420   T   T   T
  0.7884400033828615  0.0863548058220630  0.0974255741982316   T   T   T
  0.6409220742012093  0.1665208849923655  0.0977004239460798   T   T   T
  0.7907588683633749  0.9190296746480029  0.0973753345886406   T   T   T
  0.8281537202501240  0.6522400511069940  0.0976746193696216   T   T   T
  0.8249849535333207  0.3530402999660779  0.0977044032521138   T   T   T
  0.6432925961613305  0.8368048088817031  0.0977214590773155   T   T   T
  0.3264612977780065  0.3332870030941290  0.0978746309672188   T   T   T
  0.4945791263697966  0.0860494439037936  0.0978327230017578   T   T   T
  0.9035270831118271  0.5026248594048981  0.0977585851547983   T   T   T
  0.3192646746692083  0.6751099125457263  0.0980598903668724   T   T   T
  0.6622896025653890  0.3290887423032082  0.0979348699861350   T   T   T
  0.6685491386841044  0.6742537012762443  0.0979719088058398   T   T   T
  0.1969751809484523  0.9157357322661568  0.0977789290359021   T   T   T
  0.4906748618841431  0.4992398394003999  0.0981442153248107   T   T   T
 
  0.00000000E+00  0.00000000E+00  0.00000000E+00
  0.00000000E+00  0.00000000E+00  0.00000000E+00
  0.00000000E+00  0.00000000E+00  0.00000000E+00
  0.00000000E+00  0.00000000E+00  0.00000000E+00
  0.00000000E+00  0.00000000E+00  0.00000000E+00
  0.00000000E+00  0.00000000E+00  0.00000000E+00
  0.00000000E+00  0.00000000E+00  0.00000000E+00
  0.00000000E+00  0.00000000E+00  0.00000000E+00
  0.00000000E+00  0.00000000E+00  0.00000000E+00
  0.00000000E+00  0.00000000E+00  0.00000000E+00
  0.00000000E+00  0.00000000E+00  0.00000000E+00
  0.00000000E+00  0.00000000E+00  0.00000000E+00
  0.00000000E+00  0.00000000E+00  0.00000000E+00
  0.00000000E+00  0.00000000E+00  0.00000000E+00
  0.00000000E+00  0.00000000E+00  0.00000000E+00
  0.00000000E+00  0.00000000E+00  0.00000000E+00
  0.00000000E+00  0.00000000E+00  0.00000000E+00
  0.00000000E+00  0.00000000E+00  0.00000000E+00
  0.00000000E+00  0.00000000E+00  0.00000000E+00
  0.00000000E+00  0.00000000E+00  0.00000000E+00
  0.00000000E+00  0.00000000E+00  0.00000000E+00
  0.00000000E+00  0.00000000E+00  0.00000000E+00
  0.00000000E+00  0.00000000E+00  0.00000000E+00
  0.00000000E+00  0.00000000E+00  0.00000000E+00
  0.00000000E+00  0.00000000E+00  0.00000000E+00
