Title                                   
   1.00000000000000     
     9.8694509999999998    0.0000000000000000    0.0000000000000000
     0.0000000000000000    8.5490480000000009    0.0000000000000000
     0.0000000000000000    0.0000000000000000   20.0000000000000000
    30     1
Selective dynamics
Direct
  0.0562234016354432  0.0888713638592371  0.0889098420961756   T   T   T
  0.9311417103999147  0.1721346680624662  0.0901388752454686   T   T   T
  0.0562201616708892  0.9234149399156485  0.0888795428155785   T   T   T
  0.9321127039808333  0.3387377159187948  0.0901265282642417   T   T   T
  0.0562504714122948  0.5893786372845502  0.0889829927960613   T   T   T
  0.9321055938539377  0.6735430735719614  0.0901063112804645   T   T   T
  0.0562418279309844  0.4229336479101928  0.0890032641022075   T   T   T
  0.9311310361100776  0.8401546180545303  0.0901104854106221   T   T   T
  0.3063080805631125  0.0897984200477897  0.0930768473704581   T   T   T
  0.1813132563059384  0.1721459062594178  0.0902354482400472   T   T   T
  0.3062945233851521  0.9225425158245625  0.0930405532831644   T   T   T
  0.1803572153604440  0.3387371271052637  0.0902263810373101   T   T   T
  0.3045160299828482  0.5910127664399764  0.0939328633846410   T   T   T
  0.1803839295647007  0.6735508772807763  0.0901716803812496   T   T   T
  0.3044757100736338  0.4212366739944383  0.0939790924018883   T   T   T
  0.1813163617825826  0.8401584663938167  0.0901807694998909   T   T   T
  0.5562201709487870  0.0885772796995142  0.0985005929602589   T   T   T
  0.4310384153361024  0.1754559366550049  0.0973721385220486   T   T   T
  0.5562123196463339  0.9237349380219272  0.0984671352475470   T   T   T
  0.4277485526686486  0.3398793540869346  0.1000154010675374   T   T   T
  0.4277584052913402  0.6724753335374598  0.0999339868389864   T   T   T
  0.4310421680621088  0.8368932370244522  0.0973041367124940   T   T   T
  0.8061495081324060  0.0897745297181191  0.0929836154827314   T   T   T
  0.6813880799614923  0.1754054791347647  0.0973352544915217   T   T   T
  0.8061524142235542  0.9225442958589238  0.0929762473284073   T   T   T
  0.6847068150165763  0.3398109593050442  0.1000147616676849   T   T   T
  0.8079560000638770  0.5910448268037798  0.0939128414274680   T   T   T
  0.6847301582962582  0.6725369474688944  0.0999971193650667   T   T   T
  0.8079607568138004  0.4212411956475592  0.0939180353755895   T   T   T
  0.6814127971400584  0.8369412709230887  0.0973102378311694   T   T   T
  0.5562664243858775  0.5062079981911225  0.1298220180720607   T   T   T
 
  0.00000000E+00  0.00000000E+00  0.00000000E+00
  0.00000000E+00  0.00000000E+00  0.00000000E+00
  0.00000000E+00  0.00000000E+00  0.00000000E+00
  0.00000000E+00  0.00000000E+00  0.00000000E+00
  0.00000000E+00  0.00000000E+00  0.00000000E+00
  0.00000000E+00  0.00000000E+00  0.00000000E+00
  0.00000000E+00  0.00000000E+00  0.00000000E+00
  0.00000000E+00  0.00000000E+00  0.00000000E+00
  0.00000000E+00  0.00000000E+00  0.00000000E+00
  0.00000000E+00  0.00000000E+00  0.00000000E+00
  0.00000000E+00  0.00000000E+00  0.00000000E+00
  0.00000000E+00  0.00000000E+00  0.00000000E+00
  0.00000000E+00  0.00000000E+00  0.00000000E+00
  0.00000000E+00  0.00000000E+00  0.00000000E+00
  0.00000000E+00  0.00000000E+00  0.00000000E+00
  0.00000000E+00  0.00000000E+00  0.00000000E+00
  0.00000000E+00  0.00000000E+00  0.00000000E+00
  0.00000000E+00  0.00000000E+00  0.00000000E+00
  0.00000000E+00  0.00000000E+00  0.00000000E+00
  0.00000000E+00  0.00000000E+00  0.00000000E+00
  0.00000000E+00  0.00000000E+00  0.00000000E+00
  0.00000000E+00  0.00000000E+00  0.00000000E+00
  0.00000000E+00  0.00000000E+00  0.00000000E+00
  0.00000000E+00  0.00000000E+00  0.00000000E+00
  0.00000000E+00  0.00000000E+00  0.00000000E+00
  0.00000000E+00  0.00000000E+00  0.00000000E+00
  0.00000000E+00  0.00000000E+00  0.00000000E+00
  0.00000000E+00  0.00000000E+00  0.00000000E+00
  0.00000000E+00  0.00000000E+00  0.00000000E+00
  0.00000000E+00  0.00000000E+00  0.00000000E+00
  0.00000000E+00  0.00000000E+00  0.00000000E+00
