Title                                   
   1.00000000000000     
     4.9440799999999996    0.0000000000000000    0.0000000000000000
     0.0000000000000000   17.1295089999999988    0.0000000000000000
     0.0000000000000000    0.0000000000000000   20.0000000000000000
    29     1     1
Selective dynamics
Direct
  0.0001623477378040  0.1044320750654332  0.2993437756795778   T   T   T
  0.2502898539012396  0.1466839179392988  0.2989614486555551   T   T   T
  0.2502783202752556  0.2297987564362495  0.2995455232594101   T   T   T
  0.0008319076470402  0.2722877438774488  0.3036882810720334   T   T   T
  0.0013509004761481  0.6030961268059011  0.3028938905142228   T   T   T
  0.2503159309135585  0.7274123108787511  0.2987995955354070   T   T   T
  0.0014309642161478  0.8533685231641208  0.2984545999669985   T   T   T
  0.2503814270330126  0.8954349040088070  0.2981962822506867   T   T   T
  0.2504002719368313  0.9790315064020768  0.2983193346993699   T   T   T
  0.0011398596732353  0.7694292013431095  0.2989383736606558   T   T   T
  0.5004928137251909  0.1044603980600345  0.2981934971572271   T   T   T
  0.7503328566582941  0.1462442777655909  0.2989546641413653   T   T   T
  0.7503479244665170  0.2300145318872536  0.2995986938853424   T   T   T
  0.5004087068864768  0.0208469935029082  0.2982431072201920   T   T   T
  0.7501988924636200  0.3956405381256990  0.3015999874010099   T   T   T
  0.7502057303328988  0.4816504540571336  0.3017582621356420   T   T   T
  0.4998003638150587  0.2723480060740444  0.2963840835338253   T   T   T
  0.4992695045001520  0.6030675377720571  0.2976191585832770   T   T   T
  0.7503373123051549  0.7285702235750040  0.2988005475990357   T   T   T
  0.4992971198119885  0.8533637230460644  0.2980360369673653   T   T   T
  0.7503598925630828  0.8949435492168045  0.2982623006493533   T   T   T
  0.7503720307887681  0.9788060093451181  0.2983890251532936   T   T   T
  0.4995204481953888  0.7694200349540015  0.2980943733048432   T   T   T
  0.7503777728633342  0.6455641464972159  0.2996856746329589   T   T   T
  0.0003345978968226  0.0208296164886231  0.2987225262255493   T   T   T
  0.5062303232051744  0.5217058635271661  0.2935391916174142   T   T   T
  0.9944010955190912  0.5218769534444571  0.3091302087612843   T   T   T
  0.5100732473902249  0.3544229486418901  0.2906770719056727   T   T   T
 -0.0093719299659182  0.3541728135635048  0.3114089857878783   T   T   T
  0.2502958799931050  0.6452733930642059  0.2995728118660455   T   T   T
  0.2501406327753042  0.4371449214700226  0.3012486861774604   T   T   T
 
  0.00000000E+00  0.00000000E+00  0.00000000E+00
  0.00000000E+00  0.00000000E+00  0.00000000E+00
  0.00000000E+00  0.00000000E+00  0.00000000E+00
  0.00000000E+00  0.00000000E+00  0.00000000E+00
  0.00000000E+00  0.00000000E+00  0.00000000E+00
  0.00000000E+00  0.00000000E+00  0.00000000E+00
  0.00000000E+00  0.00000000E+00  0.00000000E+00
  0.00000000E+00  0.00000000E+00  0.00000000E+00
  0.00000000E+00  0.00000000E+00  0.00000000E+00
  0.00000000E+00  0.00000000E+00  0.00000000E+00
  0.00000000E+00  0.00000000E+00  0.00000000E+00
  0.00000000E+00  0.00000000E+00  0.00000000E+00
  0.00000000E+00  0.00000000E+00  0.00000000E+00
  0.00000000E+00  0.00000000E+00  0.00000000E+00
  0.00000000E+00  0.00000000E+00  0.00000000E+00
  0.00000000E+00  0.00000000E+00  0.00000000E+00
  0.00000000E+00  0.00000000E+00  0.00000000E+00
  0.00000000E+00  0.00000000E+00  0.00000000E+00
  0.00000000E+00  0.00000000E+00  0.00000000E+00
  0.00000000E+00  0.00000000E+00  0.00000000E+00
  0.00000000E+00  0.00000000E+00  0.00000000E+00
  0.00000000E+00  0.00000000E+00  0.00000000E+00
  0.00000000E+00  0.00000000E+00  0.00000000E+00
  0.00000000E+00  0.00000000E+00  0.00000000E+00
  0.00000000E+00  0.00000000E+00  0.00000000E+00
  0.00000000E+00  0.00000000E+00  0.00000000E+00
  0.00000000E+00  0.00000000E+00  0.00000000E+00
  0.00000000E+00  0.00000000E+00  0.00000000E+00
  0.00000000E+00  0.00000000E+00  0.00000000E+00
  0.00000000E+00  0.00000000E+00  0.00000000E+00
  0.00000000E+00  0.00000000E+00  0.00000000E+00
