Title                                   
   1.00000000000000     
     8.5490480000000009    0.0000000000000000    0.0000000000000000
     0.0000000000000000    8.5490480000000009    0.0000000000000000
     0.0000000000000000    0.0000000000000000   20.0000000000000000
    23     1     1
Selective dynamics
Direct
  0.9116286027596682  0.2065190154887742  0.0954325939419854   T   T   T
  0.9056909290917914  0.5031478072917690  0.0952941156521255   T   T   T
  0.9114206565933376  0.7998656593574971  0.0954540097593393   T   T   T
  0.1977651734350497  0.0830580357519198  0.0954631164743142   T   T   T
  0.0742769917826121  0.2065161093148285  0.0954415121289444   T   T   T
  0.1977703513920664  0.9204070066922312  0.0954736409224698   T   T   T
  0.1546692999915002  0.6490450423634931  0.0953510767488834   T   T   T
  0.0741827850380747  0.5032202992065952  0.0953139772393223   T   T   T
  0.1565517673390235  0.3568531246103182  0.0953441372769518   T   T   T
  0.0748007446274269  0.7984101509404340  0.0954610672089781   T   T   T
  0.4944039201910236  0.0829607783703779  0.0953555642533847   T   T   T
  0.3480604872099686  0.1653543417477643  0.0953736075550883   T   T   T
  0.4943506002446242  0.9144571631739097  0.0953452850964869   T   T   T
  0.3475024005454926  0.8352532490881902  0.0953781631058654   T   T   T
  0.7896285113580714  0.0835661299777515  0.0954486709664468   T   T   T
  0.6402322342290733  0.1634431446262349  0.0953269286838388   T   T   T
  0.7911020992155883  0.9201817703982029  0.0954602571827589   T   T   T
  0.8277574383777171  0.6517311999389492  0.0952949933808443   T   T   T
  0.8264769609404277  0.3562817412019501  0.0953100148321851   T   T   T
  0.6429445937578078  0.8365007473041187  0.0953035463867740   T   T   T
  0.3210257314159192  0.3298044818635801  0.0952912962643428   T   T   T
  0.3196135425881406  0.6720971870524377  0.0952861969561950   T   T   T
  0.6633082208762906  0.3283702733351533  0.0952177788003946   T   T   T
  0.6687600342643631  0.6775025970549504  0.0951442141226434   T   T   T
  0.4914879227349336  0.5002429438485820  0.0951392350594147   T   T   T
 
  0.00000000E+00  0.00000000E+00  0.00000000E+00
  0.00000000E+00  0.00000000E+00  0.00000000E+00
  0.00000000E+00  0.00000000E+00  0.00000000E+00
  0.00000000E+00  0.00000000E+00  0.00000000E+00
  0.00000000E+00  0.00000000E+00  0.00000000E+00
  0.00000000E+00  0.00000000E+00  0.00000000E+00
  0.00000000E+00  0.00000000E+00  0.00000000E+00
  0.00000000E+00  0.00000000E+00  0.00000000E+00
  0.00000000E+00  0.00000000E+00  0.00000000E+00
  0.00000000E+00  0.00000000E+00  0.00000000E+00
  0.00000000E+00  0.00000000E+00  0.00000000E+00
  0.00000000E+00  0.00000000E+00  0.00000000E+00
  0.00000000E+00  0.00000000E+00  0.00000000E+00
  0.00000000E+00  0.00000000E+00  0.00000000E+00
  0.00000000E+00  0.00000000E+00  0.00000000E+00
  0.00000000E+00  0.00000000E+00  0.00000000E+00
  0.00000000E+00  0.00000000E+00  0.00000000E+00
  0.00000000E+00  0.00000000E+00  0.00000000E+00
  0.00000000E+00  0.00000000E+00  0.00000000E+00
  0.00000000E+00  0.00000000E+00  0.00000000E+00
  0.00000000E+00  0.00000000E+00  0.00000000E+00
  0.00000000E+00  0.00000000E+00  0.00000000E+00
  0.00000000E+00  0.00000000E+00  0.00000000E+00
  0.00000000E+00  0.00000000E+00  0.00000000E+00
  0.00000000E+00  0.00000000E+00  0.00000000E+00
