Title                                   
   1.00000000000000     
     9.8694509999999998    0.0000000000000000    0.0000000000000000
     0.0000000000000000    8.5490480000000009    0.0000000000000000
     0.0000000000000000    0.0000000000000000   20.0000000000000000
    26     5     1
Selective dynamics
Direct
  0.0565858781213983  0.0926578452696498  0.0867257363741830   T   T   T
  0.9307964197082119  0.1751254287181949  0.0895358524323968   T   T   T
  0.0569086207704824  0.9244785070515711  0.0859318460449732   T   T   T
  0.9292074940032167  0.3421095859594857  0.0938533588168771   T   T   T
  0.0557730175275399  0.5898304077822311  0.0896380009233131   T   T   T
  0.9321896686855404  0.6734607331522926  0.0914567991308991   T   T   T
  0.0572698099792149  0.4233049434543373  0.0921299868073288   T   T   T
  0.9321202520990520  0.8410075858999092  0.0883353248137296   T   T   T
  0.3054832936158891  0.0887279258728376  0.0862351324764346   T   T   T
  0.1827069100130976  0.1755111339138326  0.0877485462286234   T   T   T
  0.3065325823978020  0.9235782686135993  0.0870104318879221   T   T   T
  0.1830918331061124  0.3415054323029462  0.0915882921547347   T   T   T
  0.3066241882315036  0.5925643987403613  0.0948408355485320   T   T   T
  0.1808600908629097  0.6717206141418087  0.0884851051409502   T   T   T
  0.1815864452363803  0.8390024365060635  0.0866673762037511   T   T   T
  0.5556982494436256  0.0835984102238795  0.0945517668452606   T   T   T
  0.4313564800836756  0.1681057130313660  0.0913680600398351   T   T   T
  0.4339303742040041  0.3330422513397611  0.0992982471299128   T   T   T
  0.4278445638207728  0.8364680585732532  0.0943295315045022   T   T   T
  0.8070669150555599  0.0903173882378408  0.0889467190714932   T   T   T
  0.6802854086742154  0.1683352399094691  0.0946971209868423   T   T   T
  0.8070010070456543  0.9247429560547695  0.0887600224399462   T   T   T
  0.6769691779055902  0.3332075505774241  0.1034780592024043   T   T   T
  0.8068618307113771  0.5947797974001593  0.1016204706191125   T   T   T
  0.8014695857371875  0.4251463714841838  0.1008684102874618   T   T   T
  0.6852872659170255  0.8391316310895600  0.0974093256490164   T   T   T
  0.4216694001122254  0.6788686248968971  0.1038623740521709   T   T   T
  0.5523848265655189  0.4035096232582400  0.1161701292665071   T   T   T
  0.6924634148595090  0.6850670543445887  0.1130229053684251   T   T   T
  0.5564044825317663  0.9158315399786154  0.0955481900717240   T   T   T
  0.3112329446461257  0.4241515898438246  0.0953407370011721   T   T   T
  0.5539765683278204  0.5913569523770486  0.1662203054795809   T   T   T
 
  0.00000000E+00  0.00000000E+00  0.00000000E+00
  0.00000000E+00  0.00000000E+00  0.00000000E+00
  0.00000000E+00  0.00000000E+00  0.00000000E+00
  0.00000000E+00  0.00000000E+00  0.00000000E+00
  0.00000000E+00  0.00000000E+00  0.00000000E+00
  0.00000000E+00  0.00000000E+00  0.00000000E+00
  0.00000000E+00  0.00000000E+00  0.00000000E+00
  0.00000000E+00  0.00000000E+00  0.00000000E+00
  0.00000000E+00  0.00000000E+00  0.00000000E+00
  0.00000000E+00  0.00000000E+00  0.00000000E+00
  0.00000000E+00  0.00000000E+00  0.00000000E+00
  0.00000000E+00  0.00000000E+00  0.00000000E+00
  0.00000000E+00  0.00000000E+00  0.00000000E+00
  0.00000000E+00  0.00000000E+00  0.00000000E+00
  0.00000000E+00  0.00000000E+00  0.00000000E+00
  0.00000000E+00  0.00000000E+00  0.00000000E+00
  0.00000000E+00  0.00000000E+00  0.00000000E+00
  0.00000000E+00  0.00000000E+00  0.00000000E+00
  0.00000000E+00  0.00000000E+00  0.00000000E+00
  0.00000000E+00  0.00000000E+00  0.00000000E+00
  0.00000000E+00  0.00000000E+00  0.00000000E+00
  0.00000000E+00  0.00000000E+00  0.00000000E+00
  0.00000000E+00  0.00000000E+00  0.00000000E+00
  0.00000000E+00  0.00000000E+00  0.00000000E+00
  0.00000000E+00  0.00000000E+00  0.00000000E+00
  0.00000000E+00  0.00000000E+00  0.00000000E+00
  0.00000000E+00  0.00000000E+00  0.00000000E+00
  0.00000000E+00  0.00000000E+00  0.00000000E+00
  0.00000000E+00  0.00000000E+00  0.00000000E+00
  0.00000000E+00  0.00000000E+00  0.00000000E+00
  0.00000000E+00  0.00000000E+00  0.00000000E+00
  0.00000000E+00  0.00000000E+00  0.00000000E+00
