Title                                   
   1.00000000000000     
     8.5490480000000009    0.0000000000000000    0.0000000000000000
     0.0000000000000000    8.5490480000000009    0.0000000000000000
     0.0000000000000000    0.0000000000000000   20.0000000000000000
    23     1     1
Selective dynamics
Direct
  0.9086655586431898  0.2065907842433923  0.0954218728376665   T   T   T
  0.9091063454025434  0.5051471986183348  0.0953346006102579   T   T   T
  0.9122482322323076  0.7999723508043192  0.0954067588304277   T   T   T
  0.1943196454734080  0.0813366411008574  0.0954729276190817   T   T   T
  0.0725547069904349  0.2030732430202588  0.0954416413978282   T   T   T
  0.1978691875764974  0.9174678041570060  0.0954964442197694   T   T   T
  0.1606507557577996  0.6470207251102912  0.0953442411138671   T   T   T
  0.0770081746883808  0.5024979615160974  0.0953613440117412   T   T   T
  0.1507588151574618  0.3518593120339090  0.0954363956505999   T   T   T
  0.0788853824089575  0.7953595768384876  0.0954240930625522   T   T   T
  0.4937165776613433  0.0857586959651472  0.0954063204890498   T   T   T
  0.3430989011099502  0.1594883210396250  0.0954695940082695   T   T   T
  0.4964011614329538  0.9178599884503124  0.0954091936662733   T   T   T
  0.3489621167494473  0.8410744138272218  0.0955226789578845   T   T   T
  0.7865436686493031  0.0876116385193574  0.0953878056531923   T   T   T
  0.6382048873641332  0.1694511977625945  0.0953306334447147   T   T   T
  0.7912386817091357  0.9209631528004054  0.0953988824465255   T   T   T
  0.8285991577387947  0.6531547579471768  0.0952719339489907   T   T   T
  0.8322241803810897  0.3577471637880884  0.0954191628241025   T   T   T
  0.6444169494009788  0.8373220715000583  0.0952822370687838   T   T   T
  0.3164490294735002  0.3251582433758770  0.0953896281048454   T   T   T
  0.3317649647067196  0.6766610187778300  0.0953833818984137   T   T   T
  0.6677975563919391  0.3405784127732517  0.0953145620483567   T   T   T
  0.6670039891229496  0.6757322564262356  0.0950597161761901   T   T   T
  0.4769233737767734  0.4859030696038784  0.0945189499105933   T   T   T
 
  0.00000000E+00  0.00000000E+00  0.00000000E+00
  0.00000000E+00  0.00000000E+00  0.00000000E+00
  0.00000000E+00  0.00000000E+00  0.00000000E+00
  0.00000000E+00  0.00000000E+00  0.00000000E+00
  0.00000000E+00  0.00000000E+00  0.00000000E+00
  0.00000000E+00  0.00000000E+00  0.00000000E+00
  0.00000000E+00  0.00000000E+00  0.00000000E+00
  0.00000000E+00  0.00000000E+00  0.00000000E+00
  0.00000000E+00  0.00000000E+00  0.00000000E+00
  0.00000000E+00  0.00000000E+00  0.00000000E+00
  0.00000000E+00  0.00000000E+00  0.00000000E+00
  0.00000000E+00  0.00000000E+00  0.00000000E+00
  0.00000000E+00  0.00000000E+00  0.00000000E+00
  0.00000000E+00  0.00000000E+00  0.00000000E+00
  0.00000000E+00  0.00000000E+00  0.00000000E+00
  0.00000000E+00  0.00000000E+00  0.00000000E+00
  0.00000000E+00  0.00000000E+00  0.00000000E+00
  0.00000000E+00  0.00000000E+00  0.00000000E+00
  0.00000000E+00  0.00000000E+00  0.00000000E+00
  0.00000000E+00  0.00000000E+00  0.00000000E+00
  0.00000000E+00  0.00000000E+00  0.00000000E+00
  0.00000000E+00  0.00000000E+00  0.00000000E+00
  0.00000000E+00  0.00000000E+00  0.00000000E+00
  0.00000000E+00  0.00000000E+00  0.00000000E+00
  0.00000000E+00  0.00000000E+00  0.00000000E+00
