Title                                   
   1.00000000000000     
     8.5490480000000009    0.0000000000000000    0.0000000000000000
     0.0000000000000000    8.5490480000000009    0.0000000000000000
     0.0000000000000000    0.0000000000000000   20.0000000000000000
    21     3     1
Selective dynamics
Direct
  0.9082024792370716  0.2072217650495900  0.0977813014078361   T   T   T
  0.9088684721584228  0.5036382061542762  0.0974770042351959   T   T   T
  0.9128740174843848  0.8017086701179091  0.0979056668086642   T   T   T
  0.1963413859609791  0.0817464277959178  0.0978774522462909   T   T   T
  0.0739784720354165  0.2014325719506613  0.0978362530634366   T   T   T
  0.1614161688915232  0.6469705898653064  0.0980167232883584   T   T   T
  0.0782852796032716  0.5009862507929422  0.0976034919061334   T   T   T
  0.1587387571379376  0.3522690741874981  0.0975049851612727   T   T   T
  0.0803214977425521  0.7974643173762626  0.0979803970549720   T   T   T
  0.4915302929499665  0.0865341206859423  0.0975732378366980   T   T   T
  0.3419049471084850  0.1647497220961136  0.0975668621763584   T   T   T
  0.4925261637031774  0.9169637555867424  0.0974453714543417   T   T   T
  0.3477330006391336  0.8335726661467103  0.0980441773239841   T   T   T
  0.7860647317794338  0.0860986591987430  0.0977268700832189   T   T   T
  0.6358363721587713  0.1684194846643064  0.0978798378221762   T   T   T
  0.7899212677304482  0.9214753990443144  0.0978036698934275   T   T   T
  0.8298965302316018  0.6530269172153914  0.0972571978037509   T   T   T
  0.8265064936991303  0.3580640512931095  0.0978935410949422   T   T   T
  0.6407414850929595  0.8361405393027442  0.0971535370141141   T   T   T
  0.3261062863437585  0.6697341561100786  0.0988213762509724   T   T   T
  0.6602117932949468  0.3349788979556686  0.0991447913749062   T   T   T
  0.3181885623189167  0.3278968094672003  0.0970127914778907   T   T   T
  0.6670714100267037  0.6762715504528584  0.0960398352755815   T   T   T
  0.1986634089704627  0.9150952130321052  0.0980797677476175   T   T   T
  0.4934827237005308  0.5023301844576209  0.0982788601978398   T   T   T
 
  0.00000000E+00  0.00000000E+00  0.00000000E+00
  0.00000000E+00  0.00000000E+00  0.00000000E+00
  0.00000000E+00  0.00000000E+00  0.00000000E+00
  0.00000000E+00  0.00000000E+00  0.00000000E+00
  0.00000000E+00  0.00000000E+00  0.00000000E+00
  0.00000000E+00  0.00000000E+00  0.00000000E+00
  0.00000000E+00  0.00000000E+00  0.00000000E+00
  0.00000000E+00  0.00000000E+00  0.00000000E+00
  0.00000000E+00  0.00000000E+00  0.00000000E+00
  0.00000000E+00  0.00000000E+00  0.00000000E+00
  0.00000000E+00  0.00000000E+00  0.00000000E+00
  0.00000000E+00  0.00000000E+00  0.00000000E+00
  0.00000000E+00  0.00000000E+00  0.00000000E+00
  0.00000000E+00  0.00000000E+00  0.00000000E+00
  0.00000000E+00  0.00000000E+00  0.00000000E+00
  0.00000000E+00  0.00000000E+00  0.00000000E+00
  0.00000000E+00  0.00000000E+00  0.00000000E+00
  0.00000000E+00  0.00000000E+00  0.00000000E+00
  0.00000000E+00  0.00000000E+00  0.00000000E+00
  0.00000000E+00  0.00000000E+00  0.00000000E+00
  0.00000000E+00  0.00000000E+00  0.00000000E+00
  0.00000000E+00  0.00000000E+00  0.00000000E+00
  0.00000000E+00  0.00000000E+00  0.00000000E+00
  0.00000000E+00  0.00000000E+00  0.00000000E+00
  0.00000000E+00  0.00000000E+00  0.00000000E+00
