Title                                   
   1.00000000000000     
     8.5490480000000009    0.0000000000000000    0.0000000000000000
     0.0000000000000000    8.5490480000000009    0.0000000000000000
     0.0000000000000000    0.0000000000000000   20.0000000000000000
    21     3     1
Selective dynamics
Direct
  0.9103169566093673  0.2050276430926384  0.0954541313510423   T   T   T
  0.9051033037885396  0.5031798492530862  0.0953025041289899   T   T   T
  0.9093668038986810  0.7987500567215192  0.0954678252578032   T   T   T
  0.1980027382818491  0.0833029018637347  0.0954801460501269   T   T   T
  0.0745212914603770  0.2067408029484845  0.0954602199405183   T   T   T
  0.1962780568967809  0.9190973279493452  0.0954821598402866   T   T   T
  0.1569159211504712  0.6515615566179600  0.0953359559736721   T   T   T
  0.0760265602044062  0.5030360231461002  0.0953219054605374   T   T   T
  0.1564403803002676  0.3559427100114003  0.0953650243845826   T   T   T
  0.0758149793687664  0.7979377289799021  0.0954653406349698   T   T   T
  0.4942200962955002  0.0848059765924473  0.0953560397566767   T   T   T
  0.3471655252183357  0.1652484144714161  0.0953872795898806   T   T   T
  0.4943760221768292  0.9138686601784363  0.0953518862555513   T   T   T
  0.3455641215253463  0.8344269576252624  0.0953517963792652   T   T   T
  0.7891417900062594  0.0845735173713479  0.0954624859703780   T   T   T
  0.6427569273302308  0.1656992494180196  0.0953167664132274   T   T   T
  0.7899869345806957  0.9181283920346099  0.0954723942855536   T   T   T
  0.8263862585969659  0.6510940857400306  0.0953087715257983   T   T   T
  0.8256706842832342  0.3543414387251665  0.0952969957070453   T   T   T
  0.6422975832331144  0.8351423260486524  0.0953208882848318   T   T   T
  0.3236521450952408  0.3324427719252041  0.0953037158172032   T   T   T
  0.3207667089119787  0.6746080193025277  0.0952086190767211   T   T   T
  0.6658445634430382  0.3295099187011800  0.0951621157975631   T   T   T
  0.6653919408720720  0.6741638629899035  0.0951733588541627   T   T   T
  0.4934037064716445  0.5021598082916381  0.0950966732635900   T   T   T
 
  0.00000000E+00  0.00000000E+00  0.00000000E+00
  0.00000000E+00  0.00000000E+00  0.00000000E+00
  0.00000000E+00  0.00000000E+00  0.00000000E+00
  0.00000000E+00  0.00000000E+00  0.00000000E+00
  0.00000000E+00  0.00000000E+00  0.00000000E+00
  0.00000000E+00  0.00000000E+00  0.00000000E+00
  0.00000000E+00  0.00000000E+00  0.00000000E+00
  0.00000000E+00  0.00000000E+00  0.00000000E+00
  0.00000000E+00  0.00000000E+00  0.00000000E+00
  0.00000000E+00  0.00000000E+00  0.00000000E+00
  0.00000000E+00  0.00000000E+00  0.00000000E+00
  0.00000000E+00  0.00000000E+00  0.00000000E+00
  0.00000000E+00  0.00000000E+00  0.00000000E+00
  0.00000000E+00  0.00000000E+00  0.00000000E+00
  0.00000000E+00  0.00000000E+00  0.00000000E+00
  0.00000000E+00  0.00000000E+00  0.00000000E+00
  0.00000000E+00  0.00000000E+00  0.00000000E+00
  0.00000000E+00  0.00000000E+00  0.00000000E+00
  0.00000000E+00  0.00000000E+00  0.00000000E+00
  0.00000000E+00  0.00000000E+00  0.00000000E+00
  0.00000000E+00  0.00000000E+00  0.00000000E+00
  0.00000000E+00  0.00000000E+00  0.00000000E+00
  0.00000000E+00  0.00000000E+00  0.00000000E+00
  0.00000000E+00  0.00000000E+00  0.00000000E+00
  0.00000000E+00  0.00000000E+00  0.00000000E+00
