Title                                   
   1.00000000000000     
     4.9440799999999996    0.0000000000000000    0.0000000000000000
     0.0000000000000000   17.1295089999999988    0.0000000000000000
     0.0000000000000000    0.0000000000000000   20.0000000000000000
    30     1
Selective dynamics
Direct
 -0.0001129285266176  0.1043756545023314  0.2977762047042029   T   T   T
  0.2503488801080488  0.1465742698105674  0.2984218310493478   T   T   T
  0.2503863997977000  0.2292976695302849  0.2999229677202181   T   T   T
  0.0007194713750770  0.2719217180919747  0.3009968495711109   T   T   T
  0.0006155371158407  0.6030148231122278  0.3015990072464565   T   T   T
  0.2502966702580412  0.7283410261145992  0.2991099515479472   T   T   T
  0.0000191306323493  0.8538740333438527  0.2972273326419395   T   T   T
  0.2502935335031006  0.8958768603394056  0.2968637587902497   T   T   T
  0.2503205581696624  0.9790528852064898  0.2966859609192598   T   T   T
 -0.0001547692856900  0.7705461895369866  0.2983955245495640   T   T   T
  0.5007757384741214  0.1043850583384719  0.2977050774469617   T   T   T
  0.7503465902242850  0.1461357969395052  0.2984234063980400   T   T   T
  0.7503733572835254  0.2297354355639307  0.3000053405929836   T   T   T
  0.5005545746027027  0.0210738417583997  0.2968359661142625   T   T   T
  0.7503597822046725  0.3947425705215066  0.3026284277067497   T   T   T
  0.7503378709211284  0.4801764633438118  0.3028182786235078   T   T   T
  0.5000459691949135  0.2719265234137201  0.3005265075741965   T   T   T
  0.4999530305426246  0.6029992118404924  0.3011902282600867   T   T   T
  0.7502933610193169  0.7287808696281529  0.2991423791189515   T   T   T
  0.5005244128567305  0.8538564970194450  0.2971974660847693   T   T   T
  0.7502495644001685  0.8956987735774411  0.2968470232979204   T   T   T
  0.7502678932405471  0.9792360732000759  0.2966573654058114   T   T   T
  0.5007491927090767  0.7705362838767874  0.2983300988770379   T   T   T
  0.7502697092583078  0.6451965768586809  0.3007159627196833   T   T   T
  0.2502889145845846  0.6456398589814698  0.3006571334919809   T   T   T
  0.0000473041800288  0.0210566738676682  0.2968723920183773   T   T   T
  0.5082116430244710  0.5209596299355075  0.3018186559980949   T   T   T
  0.9924537422841170  0.5209781434767294  0.3030559627233324   T   T   T
  0.5082464732803454  0.3539548173479368  0.3014366739799493   T   T   T
 -0.0074807682207728  0.3539466943080952  0.3027542884526419   T   T   T
  0.2504061607875933  0.4374510766134468  0.3024419763743147   T   T   T
 
  0.00000000E+00  0.00000000E+00  0.00000000E+00
  0.00000000E+00  0.00000000E+00  0.00000000E+00
  0.00000000E+00  0.00000000E+00  0.00000000E+00
  0.00000000E+00  0.00000000E+00  0.00000000E+00
  0.00000000E+00  0.00000000E+00  0.00000000E+00
  0.00000000E+00  0.00000000E+00  0.00000000E+00
  0.00000000E+00  0.00000000E+00  0.00000000E+00
  0.00000000E+00  0.00000000E+00  0.00000000E+00
  0.00000000E+00  0.00000000E+00  0.00000000E+00
  0.00000000E+00  0.00000000E+00  0.00000000E+00
  0.00000000E+00  0.00000000E+00  0.00000000E+00
  0.00000000E+00  0.00000000E+00  0.00000000E+00
  0.00000000E+00  0.00000000E+00  0.00000000E+00
  0.00000000E+00  0.00000000E+00  0.00000000E+00
  0.00000000E+00  0.00000000E+00  0.00000000E+00
  0.00000000E+00  0.00000000E+00  0.00000000E+00
  0.00000000E+00  0.00000000E+00  0.00000000E+00
  0.00000000E+00  0.00000000E+00  0.00000000E+00
  0.00000000E+00  0.00000000E+00  0.00000000E+00
  0.00000000E+00  0.00000000E+00  0.00000000E+00
  0.00000000E+00  0.00000000E+00  0.00000000E+00
  0.00000000E+00  0.00000000E+00  0.00000000E+00
  0.00000000E+00  0.00000000E+00  0.00000000E+00
  0.00000000E+00  0.00000000E+00  0.00000000E+00
  0.00000000E+00  0.00000000E+00  0.00000000E+00
  0.00000000E+00  0.00000000E+00  0.00000000E+00
  0.00000000E+00  0.00000000E+00  0.00000000E+00
  0.00000000E+00  0.00000000E+00  0.00000000E+00
  0.00000000E+00  0.00000000E+00  0.00000000E+00
  0.00000000E+00  0.00000000E+00  0.00000000E+00
  0.00000000E+00  0.00000000E+00  0.00000000E+00
