Title                                   
   1.00000000000000     
     9.8694509999999998    0.0000000000000000    0.0000000000000000
     0.0000000000000000    8.5490480000000009    0.0000000000000000
     0.0000000000000000    0.0000000000000000   20.0000000000000000
    24     6     1
Selective dynamics
Direct
  0.0559217243490021  0.0901214372232088  0.0903157906392955   T   T   T
  0.9312299963018775  0.1736044847599656  0.0938525028716069   T   T   T
  0.0578417549016964  0.9214588878291033  0.0908518255678636   T   T   T
  0.9326372623907810  0.3409131734563403  0.0956474356699864   T   T   T
  0.0570504360669550  0.5903969873604518  0.0912699247348157   T   T   T
  0.0564815179217444  0.4236207972036376  0.0905178958504306   T   T   T
  0.9331798370188943  0.8399025024115245  0.0947008853737627   T   T   T
  0.3081333977766073  0.0875783866096242  0.0892543585869952   T   T   T
  0.1813803662325273  0.1717571018934167  0.0883499884972256   T   T   T
  0.1807858991150319  0.3386517435503696  0.0876689454879840   T   T   T
  0.3068957620997963  0.5890547988831354  0.0855268082035199   T   T   T
  0.1806184706845856  0.6726183774796618  0.0886987339608973   T   T   T
  0.3072440776693549  0.4194059623628116  0.0864208116911709   T   T   T
  0.1825367683383030  0.8395015313158600  0.0888416001074053   T   T   T
  0.4298098396348608  0.1714394457964946  0.0923286577376626   T   T   T
  0.5556077916704729  0.9189681122109228  0.0986773542457028   T   T   T
  0.4296886761338535  0.8372368647507876  0.0907484846876646   T   T   T
  0.8055196997713312  0.0894432653789211  0.0964979604648499   T   T   T
  0.6815698288322392  0.1767309667515229  0.1037129510492143   T   T   T
  0.8078127334795969  0.9221330109450780  0.0971307349922532   T   T   T
  0.6857390525017054  0.3396146886743329  0.1158075799113935   T   T   T
  0.8108027183537153  0.5937033114834501  0.1063345946195108   T   T   T
  0.8093398288592739  0.4237756315605561  0.1067095243615769   T   T   T
  0.6834170031720567  0.8373715259944247  0.1032032585631594   T   T   T
  0.9332116761234728  0.6725738236866374  0.0957554006236347   T   T   T
  0.5561401091423535  0.0918062095207764  0.0994034490873416   T   T   T
  0.4272238097684883  0.3330578115866821  0.0908454274787311   T   T   T
  0.6934997572235131  0.6758527213992599  0.1143466708829456   T   T   T
  0.4269121544017861  0.6768942050653377  0.0846475961469561   T   T   T
  0.3064780982269155  0.9208155791096672  0.0891796340758159   T   T   T
  0.5284249518372176  0.5108716537460489  0.1537182138286636   T   T   T
 
  0.00000000E+00  0.00000000E+00  0.00000000E+00
  0.00000000E+00  0.00000000E+00  0.00000000E+00
  0.00000000E+00  0.00000000E+00  0.00000000E+00
  0.00000000E+00  0.00000000E+00  0.00000000E+00
  0.00000000E+00  0.00000000E+00  0.00000000E+00
  0.00000000E+00  0.00000000E+00  0.00000000E+00
  0.00000000E+00  0.00000000E+00  0.00000000E+00
  0.00000000E+00  0.00000000E+00  0.00000000E+00
  0.00000000E+00  0.00000000E+00  0.00000000E+00
  0.00000000E+00  0.00000000E+00  0.00000000E+00
  0.00000000E+00  0.00000000E+00  0.00000000E+00
  0.00000000E+00  0.00000000E+00  0.00000000E+00
  0.00000000E+00  0.00000000E+00  0.00000000E+00
  0.00000000E+00  0.00000000E+00  0.00000000E+00
  0.00000000E+00  0.00000000E+00  0.00000000E+00
  0.00000000E+00  0.00000000E+00  0.00000000E+00
  0.00000000E+00  0.00000000E+00  0.00000000E+00
  0.00000000E+00  0.00000000E+00  0.00000000E+00
  0.00000000E+00  0.00000000E+00  0.00000000E+00
  0.00000000E+00  0.00000000E+00  0.00000000E+00
  0.00000000E+00  0.00000000E+00  0.00000000E+00
  0.00000000E+00  0.00000000E+00  0.00000000E+00
  0.00000000E+00  0.00000000E+00  0.00000000E+00
  0.00000000E+00  0.00000000E+00  0.00000000E+00
  0.00000000E+00  0.00000000E+00  0.00000000E+00
  0.00000000E+00  0.00000000E+00  0.00000000E+00
  0.00000000E+00  0.00000000E+00  0.00000000E+00
  0.00000000E+00  0.00000000E+00  0.00000000E+00
  0.00000000E+00  0.00000000E+00  0.00000000E+00
  0.00000000E+00  0.00000000E+00  0.00000000E+00
  0.00000000E+00  0.00000000E+00  0.00000000E+00
