Title                                   
   1.00000000000000     
     4.9440799999999996    0.0000000000000000    0.0000000000000000
     0.0000000000000000   17.1295089999999988    0.0000000000000000
     0.0000000000000000    0.0000000000000000   20.0000000000000000
    25     5     1
Selective dynamics
Direct
  0.0011392595061847  0.1056253477992547  0.2979696537362744   T   T   T
  0.2503067479461715  0.1485660648228426  0.2987263920866205   T   T   T
  0.2503039559216388  0.2333709763546987  0.3003047423721339   T   T   T
 -0.0027919512014867  0.2745444104714905  0.3009057793733811   T   T   T
 -0.0021836198781823  0.6007892098109331  0.3007508798396248   T   T   T
  0.2503330936468734  0.7261043380046155  0.2987082884631850   T   T   T
  0.0017646655010230  0.8526146966029240  0.2971365777043939   T   T   T
  0.2503179802815003  0.8950451938847044  0.2969386244557412   T   T   T
  0.2503084023971034  0.9792733450398190  0.2969178479063491   T   T   T
  0.0023820621722847  0.7682628038280033  0.2980180636026099   T   T   T
  0.4994747444069277  0.1056332684009403  0.2979686167567573   T   T   T
  0.7503223302257407  0.1475772348478817  0.2984831404028781   T   T   T
  0.7503128354609867  0.2309419821743081  0.2998310922689938   T   T   T
  0.4998969351438647  0.0214993102657134  0.2971043294224726   T   T   T
  0.7503395275909401  0.3955536987834154  0.3021557828306876   T   T   T
  0.7503385846372174  0.4808539317587752  0.3020579894872582   T   T   T
  0.5034029044833950  0.2745385268799200  0.3009024593282320   T   T   T
  0.5028704305234113  0.6007949735333422  0.3007619598745506   T   T   T
  0.7503518478621165  0.7271332168781297  0.2984511887813818   T   T   T
  0.4988796177725063  0.8526168187235862  0.2971443197841400   T   T   T
  0.7503049614110672  0.8947486294627670  0.2968525725377298   T   T   T
  0.7503004157939662  0.9789267404802053  0.2968353786637859   T   T   T
  0.4982890554308502  0.7682581259419279  0.2980228721557466   T   T   T
  0.7503555786654290  0.6448854060232059  0.2996827626927752   T   T   T
  0.0007361592077846  0.0214966319710575  0.2971057074593176   T   T   T
  0.5100820330856223  0.5219188681594660  0.3024589557645490   T   T   T
  0.9905556373934886  0.5219177217942869  0.3024379949983325   T   T   T
  0.5121826318416004  0.3546316209924900  0.3024798247640544   T   T   T
 -0.0115447233942014  0.3546290695723684  0.3024971458648066   T   T   T
  0.2503283393624308  0.6411300856595616  0.3000975145612085   T   T   T
  0.2503465568017468  0.4374597510773626  0.3053515420599797   T   T   T
 
  0.00000000E+00  0.00000000E+00  0.00000000E+00
  0.00000000E+00  0.00000000E+00  0.00000000E+00
  0.00000000E+00  0.00000000E+00  0.00000000E+00
  0.00000000E+00  0.00000000E+00  0.00000000E+00
  0.00000000E+00  0.00000000E+00  0.00000000E+00
  0.00000000E+00  0.00000000E+00  0.00000000E+00
  0.00000000E+00  0.00000000E+00  0.00000000E+00
  0.00000000E+00  0.00000000E+00  0.00000000E+00
  0.00000000E+00  0.00000000E+00  0.00000000E+00
  0.00000000E+00  0.00000000E+00  0.00000000E+00
  0.00000000E+00  0.00000000E+00  0.00000000E+00
  0.00000000E+00  0.00000000E+00  0.00000000E+00
  0.00000000E+00  0.00000000E+00  0.00000000E+00
  0.00000000E+00  0.00000000E+00  0.00000000E+00
  0.00000000E+00  0.00000000E+00  0.00000000E+00
  0.00000000E+00  0.00000000E+00  0.00000000E+00
  0.00000000E+00  0.00000000E+00  0.00000000E+00
  0.00000000E+00  0.00000000E+00  0.00000000E+00
  0.00000000E+00  0.00000000E+00  0.00000000E+00
  0.00000000E+00  0.00000000E+00  0.00000000E+00
  0.00000000E+00  0.00000000E+00  0.00000000E+00
  0.00000000E+00  0.00000000E+00  0.00000000E+00
  0.00000000E+00  0.00000000E+00  0.00000000E+00
  0.00000000E+00  0.00000000E+00  0.00000000E+00
  0.00000000E+00  0.00000000E+00  0.00000000E+00
  0.00000000E+00  0.00000000E+00  0.00000000E+00
  0.00000000E+00  0.00000000E+00  0.00000000E+00
  0.00000000E+00  0.00000000E+00  0.00000000E+00
  0.00000000E+00  0.00000000E+00  0.00000000E+00
  0.00000000E+00  0.00000000E+00  0.00000000E+00
  0.00000000E+00  0.00000000E+00  0.00000000E+00
