Title                                   
   1.00000000000000     
     8.5490480000000009    0.0000000000000000    0.0000000000000000
     0.0000000000000000    8.5490480000000009    0.0000000000000000
     0.0000000000000000    0.0000000000000000   20.0000000000000000
    19     5     1
Selective dynamics
Direct
  0.9096459528645332  0.2045217105528358  0.0936630382896161   T   T   T
  0.9103554815235155  0.8009579534903312  0.0932361932847354   T   T   T
  0.1954708278950263  0.0845084590468126  0.0935462622487448   T   T   T
  0.0762022573710014  0.2005613688775526  0.0930924396087188   T   T   T
  0.1538503611440446  0.6530973316608570  0.0965902015382114   T   T   T
  0.0751363061964841  0.5013597122795181  0.0961759722020554   T   T   T
  0.1552469124487890  0.3533809394033495  0.0958712782985134   T   T   T
  0.0774583918853726  0.8001721270915562  0.0936956702893449   T   T   T
  0.4943131484338398  0.0854001375778033  0.0976481493577393   T   T   T
  0.3454199907162359  0.1653361598261235  0.0967112972089536   T   T   T
  0.4929171542217275  0.9155112352104078  0.0969675408519608   T   T   T
  0.3409130962088143  0.8372296152820295  0.0969075826454194   T   T   T
  0.7895411951532945  0.0863344556529515  0.0947797081890775   T   T   T
  0.6434094048550782  0.1666694362349734  0.0980921107262617   T   T   T
  0.7892230058992072  0.9181391833952652  0.0940664257617412   T   T   T
  0.8305788104331839  0.6517459997695423  0.0947020598952196   T   T   T
  0.8296965798845225  0.3521585388787482  0.0962674293037733   T   T   T
  0.6433791050151263  0.8351087077643484  0.0958629606245581   T   T   T
  0.3211443516557944  0.3304451830553404  0.0984921764252692   T   T   T
  0.9070281377441254  0.5024249934646845  0.0956661151414771   T   T   T
  0.3152185582849107  0.6794534852122709  0.0999074191546747   T   T   T
  0.6695828739422630  0.3301105270177521  0.1004804536611183   T   T   T
  0.6711803133651988  0.6724974541550789  0.0964083441109080   T   T   T
  0.1957428126911213  0.9169466296417005  0.0937691728319316   T   T   T
  0.4927569701667833  0.5007186554581868  0.1411049983499494   T   T   T
 
  0.00000000E+00  0.00000000E+00  0.00000000E+00
  0.00000000E+00  0.00000000E+00  0.00000000E+00
  0.00000000E+00  0.00000000E+00  0.00000000E+00
  0.00000000E+00  0.00000000E+00  0.00000000E+00
  0.00000000E+00  0.00000000E+00  0.00000000E+00
  0.00000000E+00  0.00000000E+00  0.00000000E+00
  0.00000000E+00  0.00000000E+00  0.00000000E+00
  0.00000000E+00  0.00000000E+00  0.00000000E+00
  0.00000000E+00  0.00000000E+00  0.00000000E+00
  0.00000000E+00  0.00000000E+00  0.00000000E+00
  0.00000000E+00  0.00000000E+00  0.00000000E+00
  0.00000000E+00  0.00000000E+00  0.00000000E+00
  0.00000000E+00  0.00000000E+00  0.00000000E+00
  0.00000000E+00  0.00000000E+00  0.00000000E+00
  0.00000000E+00  0.00000000E+00  0.00000000E+00
  0.00000000E+00  0.00000000E+00  0.00000000E+00
  0.00000000E+00  0.00000000E+00  0.00000000E+00
  0.00000000E+00  0.00000000E+00  0.00000000E+00
  0.00000000E+00  0.00000000E+00  0.00000000E+00
  0.00000000E+00  0.00000000E+00  0.00000000E+00
  0.00000000E+00  0.00000000E+00  0.00000000E+00
  0.00000000E+00  0.00000000E+00  0.00000000E+00
  0.00000000E+00  0.00000000E+00  0.00000000E+00
  0.00000000E+00  0.00000000E+00  0.00000000E+00
  0.00000000E+00  0.00000000E+00  0.00000000E+00
