Title                                   
   1.00000000000000     
     8.5490480000000009    0.0000000000000000    0.0000000000000000
     0.0000000000000000    8.5490480000000009    0.0000000000000000
     0.0000000000000000    0.0000000000000000   20.0000000000000000
    24     1
Selective dynamics
Direct
  0.9109792381673514  0.2065780858808136  0.0954430840602855   T   T   T
  0.9087934952865150  0.5017956593241587  0.0953064283741167   T   T   T
  0.9110017618948378  0.7969775077074535  0.0954550448105656   T   T   T
  0.1978425459446752  0.0837982082242893  0.0954708920838496   T   T   T
  0.0750449014588044  0.2065577487578420  0.0954514077807678   T   T   T
  0.1978514085037971  0.9197345814092894  0.0954794863984843   T   T   T
  0.1592510091156332  0.6475150473139709  0.0953501855976987   T   T   T
  0.0772369790803152  0.5017867752018196  0.0953264746511602   T   T   T
  0.1592457139515472  0.3560378031301784  0.0953343257146630   T   T   T
  0.0750678249416172  0.7969656870341756  0.0954671014569275   T   T   T
  0.4929995258756076  0.0860024509096179  0.0953570625820831   T   T   T
  0.3472775979420792  0.1680345134397931  0.0953605247352113   T   T   T
  0.4930006876814452  0.9175613475137036  0.0953625244478976   T   T   T
  0.3472838521446961  0.8355254323299297  0.0953699974070914   T   T   T
  0.7882079567431877  0.0838205989381948  0.0954556628368202   T   T   T
  0.6387313545960662  0.1680425544364988  0.0953303232871421   T   T   T
  0.7882319861398320  0.9197530313760305  0.0954618446775754   T   T   T
  0.8267769480375382  0.6475319127566098  0.0953128449606524   T   T   T
  0.8267576458807405  0.3560600440742367  0.0953100730581717   T   T   T
  0.6387546563737819  0.8355611462797454  0.0953343292468176   T   T   T
  0.3269708481323857  0.3357756497682255  0.0952350369372824   T   T   T
  0.3269867348839965  0.6678146700441810  0.0952521866222328   T   T   T
  0.6590286845771651  0.3357806739935756  0.0952046992330319   T   T   T
  0.6590375452558332  0.6678430340421424  0.0952136880032615   T   T   T
  0.4930510973905429  0.5019358361135380  0.0950597710361875   T   T   T
 
  0.00000000E+00  0.00000000E+00  0.00000000E+00
  0.00000000E+00  0.00000000E+00  0.00000000E+00
  0.00000000E+00  0.00000000E+00  0.00000000E+00
  0.00000000E+00  0.00000000E+00  0.00000000E+00
  0.00000000E+00  0.00000000E+00  0.00000000E+00
  0.00000000E+00  0.00000000E+00  0.00000000E+00
  0.00000000E+00  0.00000000E+00  0.00000000E+00
  0.00000000E+00  0.00000000E+00  0.00000000E+00
  0.00000000E+00  0.00000000E+00  0.00000000E+00
  0.00000000E+00  0.00000000E+00  0.00000000E+00
  0.00000000E+00  0.00000000E+00  0.00000000E+00
  0.00000000E+00  0.00000000E+00  0.00000000E+00
  0.00000000E+00  0.00000000E+00  0.00000000E+00
  0.00000000E+00  0.00000000E+00  0.00000000E+00
  0.00000000E+00  0.00000000E+00  0.00000000E+00
  0.00000000E+00  0.00000000E+00  0.00000000E+00
  0.00000000E+00  0.00000000E+00  0.00000000E+00
  0.00000000E+00  0.00000000E+00  0.00000000E+00
  0.00000000E+00  0.00000000E+00  0.00000000E+00
  0.00000000E+00  0.00000000E+00  0.00000000E+00
  0.00000000E+00  0.00000000E+00  0.00000000E+00
  0.00000000E+00  0.00000000E+00  0.00000000E+00
  0.00000000E+00  0.00000000E+00  0.00000000E+00
  0.00000000E+00  0.00000000E+00  0.00000000E+00
  0.00000000E+00  0.00000000E+00  0.00000000E+00
