Title                                   
   1.00000000000000     
     8.5490480000000009    0.0000000000000000    0.0000000000000000
     0.0000000000000000    8.5490480000000009    0.0000000000000000
     0.0000000000000000    0.0000000000000000   20.0000000000000000
    20     4     1
Selective dynamics
Direct
  0.9098897523471959  0.2055550970431546  0.0975302517644988   T   T   T
  0.9113947165113333  0.8007131761270638  0.0975274497844328   T   T   T
  0.1985215773475355  0.0834761689049379  0.0975298778525679   T   T   T
  0.0755569187386341  0.2034982091796581  0.0975311863119375   T   T   T
  0.1533938033224517  0.6497967420724087  0.0977729606014843   T   T   T
  0.0718547840105868  0.5015260563818815  0.0977974088846945   T   T   T
  0.1519509344159175  0.3547323803603198  0.0976995855462777   T   T   T
  0.0785835690905489  0.7990258042486673  0.0975875694892596   T   T   T
  0.4953978166844491  0.0866677293604063  0.0977608776244125   T   T   T
  0.3458139890877283  0.1642477557952836  0.0976901646168722   T   T   T
  0.4944709740413521  0.9169046250372886  0.0977532117676793   T   T   T
  0.3461642470589638  0.8357158136898826  0.0977578591199156   T   T   T
  0.7896773343588528  0.0863472594515265  0.0975509310020477   T   T   T
  0.6434056226126749  0.1664361638774241  0.0978132788814485   T   T   T
  0.7900050727058227  0.9186800559618942  0.0975286335501273   T   T   T
  0.8291667516182364  0.6520177065418538  0.0977351371907861   T   T   T
  0.8276322857302891  0.3538473522611144  0.0977889159032840   T   T   T
  0.6434212887813453  0.8370193940301056  0.0977469153680608   T   T   T
  0.3213688343876257  0.3334860849022181  0.0978516887558600   T   T   T
  0.3213669823299094  0.6712387148653747  0.0979180101824229   T   T   T
  0.9036256655751200  0.5026634893923325  0.0978447196515040   T   T   T
  0.6685055831495169  0.3307156447924677  0.0980503331073806   T   T   T
  0.6692852940150824  0.6739209047747882  0.0979431626087366   T   T   T
  0.1977777194665994  0.9170699421181909  0.0975858419991583   T   T   T
  0.4871804826122220  0.4994877288297773  0.0984090284351234   T   T   T
 
  0.00000000E+00  0.00000000E+00  0.00000000E+00
  0.00000000E+00  0.00000000E+00  0.00000000E+00
  0.00000000E+00  0.00000000E+00  0.00000000E+00
  0.00000000E+00  0.00000000E+00  0.00000000E+00
  0.00000000E+00  0.00000000E+00  0.00000000E+00
  0.00000000E+00  0.00000000E+00  0.00000000E+00
  0.00000000E+00  0.00000000E+00  0.00000000E+00
  0.00000000E+00  0.00000000E+00  0.00000000E+00
  0.00000000E+00  0.00000000E+00  0.00000000E+00
  0.00000000E+00  0.00000000E+00  0.00000000E+00
  0.00000000E+00  0.00000000E+00  0.00000000E+00
  0.00000000E+00  0.00000000E+00  0.00000000E+00
  0.00000000E+00  0.00000000E+00  0.00000000E+00
  0.00000000E+00  0.00000000E+00  0.00000000E+00
  0.00000000E+00  0.00000000E+00  0.00000000E+00
  0.00000000E+00  0.00000000E+00  0.00000000E+00
  0.00000000E+00  0.00000000E+00  0.00000000E+00
  0.00000000E+00  0.00000000E+00  0.00000000E+00
  0.00000000E+00  0.00000000E+00  0.00000000E+00
  0.00000000E+00  0.00000000E+00  0.00000000E+00
  0.00000000E+00  0.00000000E+00  0.00000000E+00
  0.00000000E+00  0.00000000E+00  0.00000000E+00
  0.00000000E+00  0.00000000E+00  0.00000000E+00
  0.00000000E+00  0.00000000E+00  0.00000000E+00
  0.00000000E+00  0.00000000E+00  0.00000000E+00
