Title                                   
   1.00000000000000     
     9.8694509999999998    0.0000000000000000    0.0000000000000000
     0.0000000000000000    8.5490480000000009    0.0000000000000000
     0.0000000000000000    0.0000000000000000   20.0000000000000000
    24     6     1
Selective dynamics
Direct
  0.0560757143101602  0.0901106206133630  0.0930391894271023   T   T   T
  0.9315820850438039  0.1722227306269104  0.0937491440697381   T   T   T
  0.0574160513204163  0.9223898040814100  0.0930384087164490   T   T   T
  0.9332281915062902  0.3392868543016515  0.0930459627741092   T   T   T
  0.0565908030763061  0.5894362870454339  0.0911254706769790   T   T   T
  0.9333415402608747  0.6722688033282175  0.0929063985980105   T   T   T
  0.0567130411506299  0.4226743448870878  0.0912319672106779   T   T   T
  0.9320581093068705  0.8394770366367518  0.0936574082912567   T   T   T
  0.3074800294242589  0.0882790178537725  0.0958993789096050   T   T   T
  0.1813581125991314  0.1718028891369752  0.0936161148583828   T   T   T
  0.1798834217054252  0.3385234249122961  0.0927868353816559   T   T   T
  0.3026952363164281  0.5908354993036476  0.0964388532699236   T   T   T
  0.1800059637238509  0.6732811266276200  0.0926830450372540   T   T   T
  0.3034362316783569  0.4210850936083992  0.0963560389909589   T   T   T
  0.1807607966781523  0.8400527144007600  0.0935755469224687   T   T   T
  0.4288787904626643  0.1762969850857171  0.0994812578601386   T   T   T
  0.5547742172696861  0.9195621763030772  0.1008027409628987   T   T   T
  0.4280790158782798  0.8365908954543687  0.0999388087845902   T   T   T
  0.8050693315169034  0.0890049312838357  0.0959838235564406   T   T   T
  0.6833322056366402  0.1778247326994520  0.0994578926933549   T   T   T
  0.8064863331615736  0.9218026830565949  0.0960478174295490   T   T   T
  0.8097627143949381  0.5911232738766655  0.0967511635880871   T   T   T
  0.8096078502035077  0.4201576597021797  0.0967047878943053   T   T   T
  0.6827729294979987  0.8349743904332787  0.0998663245327646   T   T   T
  0.5565479665231066  0.0960690171664014  0.1007222638723603   T   T   T
  0.4220907951956910  0.3367410883356496  0.1013499726438233   T   T   T
  0.4205597023641370  0.6773288752232390  0.1021844718236464   T   T   T
  0.6901729958508999  0.3373110148311791  0.1013570765051918   T   T   T
  0.6909911819930781  0.6736554108251424  0.1017791732116331   T   T   T
  0.3057713810357944  0.9225275925765675  0.0956521644148912   T   T   T
  0.5556132609141450  0.5081780257823527  0.1097354970918107   T   T   T
 
  0.00000000E+00  0.00000000E+00  0.00000000E+00
  0.00000000E+00  0.00000000E+00  0.00000000E+00
  0.00000000E+00  0.00000000E+00  0.00000000E+00
  0.00000000E+00  0.00000000E+00  0.00000000E+00
  0.00000000E+00  0.00000000E+00  0.00000000E+00
  0.00000000E+00  0.00000000E+00  0.00000000E+00
  0.00000000E+00  0.00000000E+00  0.00000000E+00
  0.00000000E+00  0.00000000E+00  0.00000000E+00
  0.00000000E+00  0.00000000E+00  0.00000000E+00
  0.00000000E+00  0.00000000E+00  0.00000000E+00
  0.00000000E+00  0.00000000E+00  0.00000000E+00
  0.00000000E+00  0.00000000E+00  0.00000000E+00
  0.00000000E+00  0.00000000E+00  0.00000000E+00
  0.00000000E+00  0.00000000E+00  0.00000000E+00
  0.00000000E+00  0.00000000E+00  0.00000000E+00
  0.00000000E+00  0.00000000E+00  0.00000000E+00
  0.00000000E+00  0.00000000E+00  0.00000000E+00
  0.00000000E+00  0.00000000E+00  0.00000000E+00
  0.00000000E+00  0.00000000E+00  0.00000000E+00
  0.00000000E+00  0.00000000E+00  0.00000000E+00
  0.00000000E+00  0.00000000E+00  0.00000000E+00
  0.00000000E+00  0.00000000E+00  0.00000000E+00
  0.00000000E+00  0.00000000E+00  0.00000000E+00
  0.00000000E+00  0.00000000E+00  0.00000000E+00
  0.00000000E+00  0.00000000E+00  0.00000000E+00
  0.00000000E+00  0.00000000E+00  0.00000000E+00
  0.00000000E+00  0.00000000E+00  0.00000000E+00
  0.00000000E+00  0.00000000E+00  0.00000000E+00
  0.00000000E+00  0.00000000E+00  0.00000000E+00
  0.00000000E+00  0.00000000E+00  0.00000000E+00
  0.00000000E+00  0.00000000E+00  0.00000000E+00
