Title                                   
   1.00000000000000     
     4.9440799999999996    0.0000000000000000    0.0000000000000000
     0.0000000000000000    8.5647549999999999    0.0000000000000000
     0.0000000000000000    0.0000000000000000   20.0000000000000000
    12     2     1
Selective dynamics
Direct
  0.2500000000000000  0.2066940743494089  0.0952454817844205   T   T   T
  0.0012864976222442  0.2925531783012073  0.0961031400960203   T   T   T
  0.2500000000000000  0.0369110370306492  0.0948591940664370   T   T   T
 -0.0009838506100222  0.9544014846591909  0.0951806186265745   T   T   T
  0.7500000000000000  0.2078246955854199  0.0932038331466102   T   T   T
  0.4987135023777560  0.2925531783012073  0.0961031400960203   T   T   T
  0.7500000000000000  0.0400296755276002  0.0927371726882717   T   T   T
  0.7500000000000000  0.7147274428353059  0.0995474505822698   T   T   T
  0.7500000000000000  0.5443322737904909  0.1016206815071497   T   T   T
  0.5009838506100224  0.9544014846591909  0.0951806186265745   T   T   T
  0.5005447985433243  0.4594227701144017  0.1027374787208092   T   T   T
 -0.0005447985433244  0.4594227701144017  0.1027374787208092   T   T   T
 -0.0082302885627290  0.7924293412277750  0.0997938119350008   T   T   T
  0.5082302885627290  0.7924293412277750  0.0997938119350008   T   T   T
  0.2500000000000000  0.6235482522759777  0.1431360874680349   T   T   T
 
  0.00000000E+00  0.00000000E+00  0.00000000E+00
  0.00000000E+00  0.00000000E+00  0.00000000E+00
  0.00000000E+00  0.00000000E+00  0.00000000E+00
  0.00000000E+00  0.00000000E+00  0.00000000E+00
  0.00000000E+00  0.00000000E+00  0.00000000E+00
  0.00000000E+00  0.00000000E+00  0.00000000E+00
  0.00000000E+00  0.00000000E+00  0.00000000E+00
  0.00000000E+00  0.00000000E+00  0.00000000E+00
  0.00000000E+00  0.00000000E+00  0.00000000E+00
  0.00000000E+00  0.00000000E+00  0.00000000E+00
  0.00000000E+00  0.00000000E+00  0.00000000E+00
  0.00000000E+00  0.00000000E+00  0.00000000E+00
  0.00000000E+00  0.00000000E+00  0.00000000E+00
  0.00000000E+00  0.00000000E+00  0.00000000E+00
  0.00000000E+00  0.00000000E+00  0.00000000E+00
