Title                                   
   1.00000000000000     
     4.9440799999999996    0.0000000000000000    0.0000000000000000
     0.0000000000000000   17.1295089999999988    0.0000000000000000
     0.0000000000000000    0.0000000000000000   20.0000000000000000
    29     2     1
Selective dynamics
Direct
  0.0018529499238019  0.1043004515918887  0.2865172453107072   T   T   T
  0.2527275108114674  0.1460018936437015  0.2891625078399234   T   T   T
  0.2554907436754741  0.2290210246829186  0.2963556916836566   T   T   T
  0.0107418337695800  0.3533724488444340  0.3112386277380152   T   T   T
  0.0061580294182760  0.2705375674330260  0.3000486846836181   T   T   T
 -0.0165980510795705  0.6040133530927519  0.3033058878143604   T   T   T
  0.2404586432105544  0.7281891541550595  0.2951845376929736   T   T   T
 -0.0053662419131566  0.8537641141244799  0.2860992224330219   T   T   T
  0.2450703636970765  0.8957598036363791  0.2850576104593303   T   T   T
  0.2480513513362107  0.9790841373530204  0.2838623839126494   T   T   T
 -0.0083009837427256  0.7704494857069549  0.2903913653252086   T   T   T
  0.5020524001325906  0.1043403783727877  0.2865928316111386   T   T   T
  0.7529844235855707  0.1460238659421809  0.2884373595014300   T   T   T
  0.7560122956308232  0.2292726505025659  0.2947052326363929   T   T   T
  0.4991578077009128  0.0208826023124701  0.2841192581359135   T   T   T
  0.5079396883883499  0.3526823287988288  0.3117460833737562   T   T   T
  0.7597038733160220  0.3969485131806559  0.3134580189402763   T   T   T
  0.7549749213211533  0.4834681148662737  0.3162933129940838   T   T   T
  0.5070989161457793  0.2703151403209881  0.3000910353729965   T   T   T
  0.4895971303581545  0.6052201172843826  0.3136008688224560   T   T   T
  0.7401341835068426  0.7296034057413719  0.2940238350516940   T   T   T
  0.4939445659989811  0.8539226411404314  0.2868947672333838   T   T   T
  0.7452938106429429  0.8954853671391083  0.2848790873112284   T   T   T
  0.7481944670658612  0.9790552925554749  0.2836565891840622   T   T   T
  0.4907592962871296  0.7707565729490243  0.2921145711098500   T   T   T
  0.7372088380834788  0.6469041722740880  0.3024519674373986   T   T   T
  0.2377981323855709  0.6454221090334702  0.3042167069423287   T   T   T
 -0.0011158259269372  0.0208683008907117  0.2839791032576971   T   T   T
  0.5221666113663852  0.5264414566981093  0.3356814063842574   T   T   T
  0.9831656332415050  0.5246665564821005  0.3019327620094340   T   T   T
  0.2608687577939745  0.3887558893427199  0.3217032512050691   T   T   T
  0.2785969238679254  0.4730220899076308  0.3947631865916402   T   T   T
 
  0.00000000E+00  0.00000000E+00  0.00000000E+00
  0.00000000E+00  0.00000000E+00  0.00000000E+00
  0.00000000E+00  0.00000000E+00  0.00000000E+00
  0.00000000E+00  0.00000000E+00  0.00000000E+00
  0.00000000E+00  0.00000000E+00  0.00000000E+00
  0.00000000E+00  0.00000000E+00  0.00000000E+00
  0.00000000E+00  0.00000000E+00  0.00000000E+00
  0.00000000E+00  0.00000000E+00  0.00000000E+00
  0.00000000E+00  0.00000000E+00  0.00000000E+00
  0.00000000E+00  0.00000000E+00  0.00000000E+00
  0.00000000E+00  0.00000000E+00  0.00000000E+00
  0.00000000E+00  0.00000000E+00  0.00000000E+00
  0.00000000E+00  0.00000000E+00  0.00000000E+00
  0.00000000E+00  0.00000000E+00  0.00000000E+00
  0.00000000E+00  0.00000000E+00  0.00000000E+00
  0.00000000E+00  0.00000000E+00  0.00000000E+00
  0.00000000E+00  0.00000000E+00  0.00000000E+00
  0.00000000E+00  0.00000000E+00  0.00000000E+00
  0.00000000E+00  0.00000000E+00  0.00000000E+00
  0.00000000E+00  0.00000000E+00  0.00000000E+00
  0.00000000E+00  0.00000000E+00  0.00000000E+00
  0.00000000E+00  0.00000000E+00  0.00000000E+00
  0.00000000E+00  0.00000000E+00  0.00000000E+00
  0.00000000E+00  0.00000000E+00  0.00000000E+00
  0.00000000E+00  0.00000000E+00  0.00000000E+00
  0.00000000E+00  0.00000000E+00  0.00000000E+00
  0.00000000E+00  0.00000000E+00  0.00000000E+00
  0.00000000E+00  0.00000000E+00  0.00000000E+00
  0.00000000E+00  0.00000000E+00  0.00000000E+00
  0.00000000E+00  0.00000000E+00  0.00000000E+00
  0.00000000E+00  0.00000000E+00  0.00000000E+00
  0.00000000E+00  0.00000000E+00  0.00000000E+00
