Title                                   
   1.00000000000000     
     4.9440799999999996    0.0000000000000000    0.0000000000000000
     0.0000000000000000    8.5647549999999999    0.0000000000000000
     0.0000000000000000    0.0000000000000000   20.0000000000000000
    15     1
Selective dynamics
Direct
  0.2500000000000000  0.2069039941209547  0.0903130819438189   T   T   T
 -0.0018937682573058  0.2879028672701965  0.0960152813563940   T   T   T
  0.2500000000000000  0.0418607547570997  0.0822300339703305   T   T   T
 -0.0021212788933616  0.7955452636904123  0.0964753465688357   T   T   T
 -0.0014603752585540  0.9588524954337714  0.0827272842866468   T   T   T
  0.7500000000000000  0.2074417256744347  0.0856143051917109   T   T   T
  0.5018937682573053  0.2879028672701965  0.0960152813563940   T   T   T
  0.7500000000000000  0.0418193116846540  0.0794093976618214   T   T   T
  0.7500000000000000  0.7097267108355809  0.1033359151083314   T   T   T
  0.5021212788933611  0.7955452636904123  0.0964753465688357   T   T   T
  0.7500000000000000  0.5407461363240318  0.1120781195621363   T   T   T
  0.5014603752585542  0.9588524954337714  0.0827272842866468   T   T   T
  0.5117175283255605  0.4463779627596159  0.1172298397752247   T   T   T
 -0.0117175283255606  0.4463779627596159  0.1172298397752247   T   T   T
  0.2500000000000000  0.7254959147876388  0.1131794342191864   T   T   T
  0.2500000000000000  0.5486482735076137  0.1714562083684689   T   T   T
 
  0.00000000E+00  0.00000000E+00  0.00000000E+00
  0.00000000E+00  0.00000000E+00  0.00000000E+00
  0.00000000E+00  0.00000000E+00  0.00000000E+00
  0.00000000E+00  0.00000000E+00  0.00000000E+00
  0.00000000E+00  0.00000000E+00  0.00000000E+00
  0.00000000E+00  0.00000000E+00  0.00000000E+00
  0.00000000E+00  0.00000000E+00  0.00000000E+00
  0.00000000E+00  0.00000000E+00  0.00000000E+00
  0.00000000E+00  0.00000000E+00  0.00000000E+00
  0.00000000E+00  0.00000000E+00  0.00000000E+00
  0.00000000E+00  0.00000000E+00  0.00000000E+00
  0.00000000E+00  0.00000000E+00  0.00000000E+00
  0.00000000E+00  0.00000000E+00  0.00000000E+00
  0.00000000E+00  0.00000000E+00  0.00000000E+00
  0.00000000E+00  0.00000000E+00  0.00000000E+00
  0.00000000E+00  0.00000000E+00  0.00000000E+00
