Title                                   
   1.00000000000000     
     4.9440799999999996    0.0000000000000000    0.0000000000000000
     0.0000000000000000   17.1295089999999988    0.0000000000000000
     0.0000000000000000    0.0000000000000000   20.0000000000000000
    29     1     1
Selective dynamics
Direct
 -0.0008987554208110  0.1051367386202990  0.2950216112836184   T   T   T
  0.2491036188608612  0.1473696664096946  0.2956966227589672   T   T   T
  0.2487666440782170  0.2307292301421278  0.2988394704850738   T   T   T
  0.0022708756512387  0.2748020858770959  0.3028712530697180   T   T   T
  0.0026334835527983  0.6006738781778973  0.3010638646420780   T   T   T
  0.2490363803196193  0.7265422807615601  0.2953445383308853   T   T   T
  0.0002211371997195  0.8528357283334165  0.2938465183453046   T   T   T
  0.2494707534246744  0.8951398875302327  0.2936693836914290   T   T   T
  0.2495534158611548  0.9791652889381208  0.2937503820325298   T   T   T
 -0.0002506460100543  0.7685635891272258  0.2946352366126616   T   T   T
  0.5000315274663067  0.1054064858075250  0.2944234464060211   T   T   T
  0.7500499570714355  0.1477593075490022  0.2952653722579512   T   T   T
  0.7503729630906758  0.2321535360624984  0.2979203347396277   T   T   T
  0.4997085837567738  0.0213139415324525  0.2937347772788837   T   T   T
  0.7484995530544802  0.3963809243887364  0.3066105795799172   T   T   T
  0.7485490816141440  0.4811544368869462  0.3050593902742485   T   T   T
  0.4967650242239679  0.2730755705722703  0.2988193950642765   T   T   T
  0.4956732609846456  0.6021078014792585  0.2969738227857993   T   T   T
  0.7497890915864445  0.7269034928656410  0.2945162144513942   T   T   T
  0.4985881944558719  0.8527187505492420  0.2935153906214806   T   T   T
  0.7493500144717131  0.8947029510012577  0.2934955949767564   T   T   T
  0.7493402003575123  0.9789081115233309  0.2936178330608747   T   T   T
  0.4990436782515051  0.7683819053764582  0.2940121229703094   T   T   T
  0.7497736310472182  0.6433274072413276  0.2962092115922568   T   T   T
 -0.0007933009730522  0.0212031156504856  0.2940505172388854   T   T   T
  0.4985928190193146  0.5199820684152707  0.3014077640716664   T   T   T
  0.0014275811490400  0.5185896590498121  0.3108584675831548   T   T   T
  0.5025583551787611  0.3558894367969322  0.3044048378096422   T   T   T
 -0.0019548315505437  0.3577218028009544  0.3133939207504814   T   T   T
  0.2487552773201478  0.6443896807837942  0.2977564614117559   T   T   T
  0.2759794309062210  0.4383132397491294  0.3442756638223032   T   T   T
 
  0.00000000E+00  0.00000000E+00  0.00000000E+00
  0.00000000E+00  0.00000000E+00  0.00000000E+00
  0.00000000E+00  0.00000000E+00  0.00000000E+00
  0.00000000E+00  0.00000000E+00  0.00000000E+00
  0.00000000E+00  0.00000000E+00  0.00000000E+00
  0.00000000E+00  0.00000000E+00  0.00000000E+00
  0.00000000E+00  0.00000000E+00  0.00000000E+00
  0.00000000E+00  0.00000000E+00  0.00000000E+00
  0.00000000E+00  0.00000000E+00  0.00000000E+00
  0.00000000E+00  0.00000000E+00  0.00000000E+00
  0.00000000E+00  0.00000000E+00  0.00000000E+00
  0.00000000E+00  0.00000000E+00  0.00000000E+00
  0.00000000E+00  0.00000000E+00  0.00000000E+00
  0.00000000E+00  0.00000000E+00  0.00000000E+00
  0.00000000E+00  0.00000000E+00  0.00000000E+00
  0.00000000E+00  0.00000000E+00  0.00000000E+00
  0.00000000E+00  0.00000000E+00  0.00000000E+00
  0.00000000E+00  0.00000000E+00  0.00000000E+00
  0.00000000E+00  0.00000000E+00  0.00000000E+00
  0.00000000E+00  0.00000000E+00  0.00000000E+00
  0.00000000E+00  0.00000000E+00  0.00000000E+00
  0.00000000E+00  0.00000000E+00  0.00000000E+00
  0.00000000E+00  0.00000000E+00  0.00000000E+00
  0.00000000E+00  0.00000000E+00  0.00000000E+00
  0.00000000E+00  0.00000000E+00  0.00000000E+00
  0.00000000E+00  0.00000000E+00  0.00000000E+00
  0.00000000E+00  0.00000000E+00  0.00000000E+00
  0.00000000E+00  0.00000000E+00  0.00000000E+00
  0.00000000E+00  0.00000000E+00  0.00000000E+00
  0.00000000E+00  0.00000000E+00  0.00000000E+00
  0.00000000E+00  0.00000000E+00  0.00000000E+00
