Title                                   
   1.00000000000000     
     4.9440799999999996    0.0000000000000000    0.0000000000000000
     0.0000000000000000   17.1295089999999988    0.0000000000000000
     0.0000000000000000    0.0000000000000000   20.0000000000000000
    28     2     1
Selective dynamics
Direct
 -0.0040041082705741  0.1052813459118863  0.2968582332520203   T   T   T
  0.2445613656367365  0.1485348188208049  0.2983694571417518   T   T   T
  0.2423387729385275  0.2321082514160698  0.2997285932926291   T   T   T
 -0.0117205051728939  0.2743076846795100  0.2947304026261318   T   T   T
  0.0061175583055259  0.6013168345170702  0.3058899666263416   T   T   T
  0.2560642134119774  0.7264020427715780  0.2987280686785920   T   T   T
  0.0023367519475476  0.8532193507522239  0.2977883220233444   T   T   T
  0.2514925575596380  0.8957538026029110  0.2971090591908614   T   T   T
  0.2490858884843603  0.9791955606722164  0.2969888701200838   T   T   T
  0.0048993760518858  0.7694854549078363  0.2991522656091266   T   T   T
  0.4957276755449345  0.1054483621843727  0.2987615410735361   T   T   T
  0.7455571660377596  0.1470394521576240  0.2982478919500335   T   T   T
  0.7423100954872968  0.2307134109140841  0.2993692734817515   T   T   T
  0.4982744660666686  0.0217174997561521  0.2975225832718389   T   T   T
  0.7466367469021381  0.3931758549433036  0.2975889802583723   T   T   T
  0.7540400704451244  0.4817412280329002  0.2977388828265463   T   T   T
  0.4945986588025298  0.2735868108310294  0.3055710355749109   T   T   T
  0.5123926233713272  0.6006438255828199  0.2950577811470686   T   T   T
  0.7551198671732292  0.7278763756449202  0.2986305862770977   T   T   T
  0.5022301638551602  0.8532978709122258  0.2970535256797441   T   T   T
  0.7515276552708007  0.8954642704576913  0.2971884619605957   T   T   T
  0.7490485307759744  0.9794550328422789  0.2970653508337319   T   T   T
  0.5046579923214946  0.7696502519707695  0.2972409258981181   T   T   T
  0.7583759024723432  0.6442054502143325  0.2997100220703207   T   T   T
  0.2583014864873289  0.6428335788091878  0.3000857879326533   T   T   T
 -0.0016386456406612  0.0216292881000516  0.2968058189100252   T   T   T
  0.9910201175643227  0.5195951948338108  0.3165828291516175   T   T   T
  0.5096655062649401  0.3552791782881942  0.3163957622489884   T   T   T
  0.5207330497085456  0.5215560635130120  0.2850029170199026   T   T   T
 -0.0199905037485288  0.3534063426367846  0.2848013658463941   T   T   T
  0.2502465039445411  0.4374215103223449  0.3232954380258223   T   T   T
 
  0.00000000E+00  0.00000000E+00  0.00000000E+00
  0.00000000E+00  0.00000000E+00  0.00000000E+00
  0.00000000E+00  0.00000000E+00  0.00000000E+00
  0.00000000E+00  0.00000000E+00  0.00000000E+00
  0.00000000E+00  0.00000000E+00  0.00000000E+00
  0.00000000E+00  0.00000000E+00  0.00000000E+00
  0.00000000E+00  0.00000000E+00  0.00000000E+00
  0.00000000E+00  0.00000000E+00  0.00000000E+00
  0.00000000E+00  0.00000000E+00  0.00000000E+00
  0.00000000E+00  0.00000000E+00  0.00000000E+00
  0.00000000E+00  0.00000000E+00  0.00000000E+00
  0.00000000E+00  0.00000000E+00  0.00000000E+00
  0.00000000E+00  0.00000000E+00  0.00000000E+00
  0.00000000E+00  0.00000000E+00  0.00000000E+00
  0.00000000E+00  0.00000000E+00  0.00000000E+00
  0.00000000E+00  0.00000000E+00  0.00000000E+00
  0.00000000E+00  0.00000000E+00  0.00000000E+00
  0.00000000E+00  0.00000000E+00  0.00000000E+00
  0.00000000E+00  0.00000000E+00  0.00000000E+00
  0.00000000E+00  0.00000000E+00  0.00000000E+00
  0.00000000E+00  0.00000000E+00  0.00000000E+00
  0.00000000E+00  0.00000000E+00  0.00000000E+00
  0.00000000E+00  0.00000000E+00  0.00000000E+00
  0.00000000E+00  0.00000000E+00  0.00000000E+00
  0.00000000E+00  0.00000000E+00  0.00000000E+00
  0.00000000E+00  0.00000000E+00  0.00000000E+00
  0.00000000E+00  0.00000000E+00  0.00000000E+00
  0.00000000E+00  0.00000000E+00  0.00000000E+00
  0.00000000E+00  0.00000000E+00  0.00000000E+00
  0.00000000E+00  0.00000000E+00  0.00000000E+00
  0.00000000E+00  0.00000000E+00  0.00000000E+00
