Title                                   
   1.00000000000000     
     4.9440799999999996    0.0000000000000000    0.0000000000000000
     0.0000000000000000    8.5647549999999999    0.0000000000000000
     0.0000000000000000    0.0000000000000000   20.0000000000000000
    11     4     1
Selective dynamics
Direct
 -0.0039142570898291  0.2920092791687317  0.0911363687266446   T   T   T
  0.2500000000000000  0.0448961333137113  0.0878718663172280   T   T   T
  0.0021759541157823  0.7963468074955403  0.0989487478386588   T   T   T
  0.0001463642333244  0.9613466012468003  0.0866152176104467   T   T   T
  0.7500000000000000  0.2078460126991761  0.0813935511616262   T   T   T
  0.5039142570898291  0.2920092791687317  0.0911363687266446   T   T   T
  0.7500000000000000  0.0424307050388321  0.0799406983195636   T   T   T
  0.7500000000000000  0.7046432992838602  0.1028427648309739   T   T   T
  0.4978240458842181  0.7963468074955403  0.0989487478386588   T   T   T
  0.7500000000000000  0.5323728534812958  0.1081359906387660   T   T   T
  0.4998536357666755  0.9613466012468003  0.0866152176104467   T   T   T
  0.5152118851829396  0.4433090564112405  0.1127217110648196   T   T   T
 -0.0152118851829396  0.4433090564112405  0.1127217110648196   T   T   T
  0.2500000000000000  0.7289738377112054  0.1141219240930132   T   T   T
  0.2500000000000000  0.2115009136697940  0.0899501960329194   T   T   T
  0.2500000000000000  0.5413127561574999  0.1694109181247798   T   T   T
 
  0.00000000E+00  0.00000000E+00  0.00000000E+00
  0.00000000E+00  0.00000000E+00  0.00000000E+00
  0.00000000E+00  0.00000000E+00  0.00000000E+00
  0.00000000E+00  0.00000000E+00  0.00000000E+00
  0.00000000E+00  0.00000000E+00  0.00000000E+00
  0.00000000E+00  0.00000000E+00  0.00000000E+00
  0.00000000E+00  0.00000000E+00  0.00000000E+00
  0.00000000E+00  0.00000000E+00  0.00000000E+00
  0.00000000E+00  0.00000000E+00  0.00000000E+00
  0.00000000E+00  0.00000000E+00  0.00000000E+00
  0.00000000E+00  0.00000000E+00  0.00000000E+00
  0.00000000E+00  0.00000000E+00  0.00000000E+00
  0.00000000E+00  0.00000000E+00  0.00000000E+00
  0.00000000E+00  0.00000000E+00  0.00000000E+00
  0.00000000E+00  0.00000000E+00  0.00000000E+00
  0.00000000E+00  0.00000000E+00  0.00000000E+00
