Title                                   
   1.00000000000000     
     4.9440799999999996    0.0000000000000000    0.0000000000000000
     0.0000000000000000    8.5647549999999999    0.0000000000000000
     0.0000000000000000    0.0000000000000000   20.0000000000000000
    12     3     1
Selective dynamics
Direct
  0.2500000000000000  0.2110772611948081  0.0920247545977845   T   T   T
 -0.0046865180764665  0.2908257584558035  0.0948611818183901   T   T   T
  0.2500000000000000  0.0442635756703722  0.0867329409776652   T   T   T
  0.0019358118988055  0.7958992606345923  0.0984467147634217   T   T   T
 -0.0003378852123796  0.9596236127124254  0.0860326549612607   T   T   T
  0.7500000000000000  0.2076686303598048  0.0852375929507412   T   T   T
  0.5046865180764664  0.2908257584558035  0.0948611818183901   T   T   T
  0.7500000000000000  0.0418013824340344  0.0814154819602893   T   T   T
  0.7500000000000000  0.7050190724604538  0.1031856467370662   T   T   T
  0.4980641881011943  0.7958992606345923  0.0984467147634217   T   T   T
  0.7500000000000000  0.5341175752477847  0.1072935398771678   T   T   T
  0.5003378852123798  0.9596236127124254  0.0860326549612607   T   T   T
  0.5175852945909691  0.4463608111819999  0.1128322345249345   T   T   T
 -0.0175852945909692  0.4463608111819999  0.1128322345249345   T   T   T
  0.2500000000000000  0.7288346253437112  0.1132856368107363   T   T   T
  0.2500000000000000  0.5417989913193886  0.1689908339525425   T   T   T
 
  0.00000000E+00  0.00000000E+00  0.00000000E+00
  0.00000000E+00  0.00000000E+00  0.00000000E+00
  0.00000000E+00  0.00000000E+00  0.00000000E+00
  0.00000000E+00  0.00000000E+00  0.00000000E+00
  0.00000000E+00  0.00000000E+00  0.00000000E+00
  0.00000000E+00  0.00000000E+00  0.00000000E+00
  0.00000000E+00  0.00000000E+00  0.00000000E+00
  0.00000000E+00  0.00000000E+00  0.00000000E+00
  0.00000000E+00  0.00000000E+00  0.00000000E+00
  0.00000000E+00  0.00000000E+00  0.00000000E+00
  0.00000000E+00  0.00000000E+00  0.00000000E+00
  0.00000000E+00  0.00000000E+00  0.00000000E+00
  0.00000000E+00  0.00000000E+00  0.00000000E+00
  0.00000000E+00  0.00000000E+00  0.00000000E+00
  0.00000000E+00  0.00000000E+00  0.00000000E+00
  0.00000000E+00  0.00000000E+00  0.00000000E+00
