Title                                   
   1.00000000000000     
     9.8694509999999998    0.0000000000000000    0.0000000000000000
     0.0000000000000000    8.5490480000000009    0.0000000000000000
     0.0000000000000000    0.0000000000000000   20.0000000000000000
    30     1     1
Selective dynamics
Direct
  0.0564885631507206  0.0908016759484964  0.0805277437200868   T   T   T
  0.9313621036799178  0.1730719030402197  0.0826798234947910   T   T   T
  0.0554214422774282  0.9237016123695829  0.0814173740478532   T   T   T
  0.9315029522487850  0.3397188190091567  0.0859294659674709   T   T   T
  0.0568007435328683  0.5890321440467099  0.0842618121378499   T   T   T
  0.9325514817395243  0.6724295478391380  0.0876461152052887   T   T   T
  0.0569980910012644  0.4232087476397827  0.0845152996032718   T   T   T
  0.9314536125370606  0.8395112978576675  0.0848639190664081   T   T   T
  0.3056852053009140  0.0898554430743753  0.0851637788363368   T   T   T
  0.1818866173344123  0.1740983692281097  0.0826792217425936   T   T   T
  0.3041981383318474  0.9234453472519186  0.0878197896804653   T   T   T
  0.1832038891846180  0.3415385523516701  0.0860954398229881   T   T   T
  0.3025331095432636  0.5932620530410759  0.0997024864601504   T   T   T
  0.1803284143685914  0.6740537255420005  0.0872773699095150   T   T   T
  0.3077890681415118  0.4244359183472925  0.0967951411668499   T   T   T
  0.1796577812673576  0.8406085507049433  0.0849543748857499   T   T   T
  0.5557251256005339  0.0857315819078432  0.0935898281989529   T   T   T
  0.4306292055509462  0.1709864401488284  0.0916663067942559   T   T   T
  0.5553052842301623  0.9198904449686112  0.0995061549218497   T   T   T
  0.4308616794657634  0.3351063002732901  0.1014308507112925   T   T   T
  0.5575311294097400  0.4046668194454140  0.1206754345436883   T   T   T
  0.4255104373509007  0.8409889129900328  0.1009099079608965   T   T   T
  0.8070647834450179  0.0887276031600074  0.0854546346221373   T   T   T
  0.6820817820489511  0.1695078258630635  0.0922648977674126   T   T   T
  0.8064781834883573  0.9225662743461651  0.0878231970008943   T   T   T
  0.6837582011487142  0.3332678488667564  0.1025169786925804   T   T   T
  0.8113026741077677  0.5890181598684709  0.1003972181182040   T   T   T
  0.6952932792978198  0.6796944229343317  0.1188491550271730   T   T   T
  0.8074921458116578  0.4214262877728925  0.0972222907543607   T   T   T
  0.6837990002748934  0.8407684395291681  0.1006282957317346   T   T   T
  0.4145934229791968  0.6835807199288786  0.1186976224924351   T   T   T
  0.5543514521494982  0.5915442107041149  0.1717130709144972   T   T   T
 
  0.00000000E+00  0.00000000E+00  0.00000000E+00
  0.00000000E+00  0.00000000E+00  0.00000000E+00
  0.00000000E+00  0.00000000E+00  0.00000000E+00
  0.00000000E+00  0.00000000E+00  0.00000000E+00
  0.00000000E+00  0.00000000E+00  0.00000000E+00
  0.00000000E+00  0.00000000E+00  0.00000000E+00
  0.00000000E+00  0.00000000E+00  0.00000000E+00
  0.00000000E+00  0.00000000E+00  0.00000000E+00
  0.00000000E+00  0.00000000E+00  0.00000000E+00
  0.00000000E+00  0.00000000E+00  0.00000000E+00
  0.00000000E+00  0.00000000E+00  0.00000000E+00
  0.00000000E+00  0.00000000E+00  0.00000000E+00
  0.00000000E+00  0.00000000E+00  0.00000000E+00
  0.00000000E+00  0.00000000E+00  0.00000000E+00
  0.00000000E+00  0.00000000E+00  0.00000000E+00
  0.00000000E+00  0.00000000E+00  0.00000000E+00
  0.00000000E+00  0.00000000E+00  0.00000000E+00
  0.00000000E+00  0.00000000E+00  0.00000000E+00
  0.00000000E+00  0.00000000E+00  0.00000000E+00
  0.00000000E+00  0.00000000E+00  0.00000000E+00
  0.00000000E+00  0.00000000E+00  0.00000000E+00
  0.00000000E+00  0.00000000E+00  0.00000000E+00
  0.00000000E+00  0.00000000E+00  0.00000000E+00
  0.00000000E+00  0.00000000E+00  0.00000000E+00
  0.00000000E+00  0.00000000E+00  0.00000000E+00
  0.00000000E+00  0.00000000E+00  0.00000000E+00
  0.00000000E+00  0.00000000E+00  0.00000000E+00
  0.00000000E+00  0.00000000E+00  0.00000000E+00
  0.00000000E+00  0.00000000E+00  0.00000000E+00
  0.00000000E+00  0.00000000E+00  0.00000000E+00
  0.00000000E+00  0.00000000E+00  0.00000000E+00
  0.00000000E+00  0.00000000E+00  0.00000000E+00
