Title                                   
   1.00000000000000     
     9.8694509999999998    0.0000000000000000    0.0000000000000000
     0.0000000000000000    8.5490480000000009    0.0000000000000000
     0.0000000000000000    0.0000000000000000   20.0000000000000000
    26     4     1
Selective dynamics
Direct
  0.0545812777042089  0.0900091952010650  0.0932689506772659   T   T   T
  0.9295115757607256  0.1741032960975287  0.0891672242439426   T   T   T
  0.0569326749506477  0.9230508700425266  0.0935386645418133   T   T   T
  0.9306564653169227  0.3416799087997288  0.0903004292497549   T   T   T
  0.0554458070933517  0.5901010586086651  0.0961926958308590   T   T   T
  0.9318824499695861  0.6738998642626598  0.0920489086855961   T   T   T
  0.0551942103964221  0.4227267183255511  0.0959141631320460   T   T   T
  0.9318667293820123  0.8406616652865159  0.0908472617461836   T   T   T
  0.3064643900403426  0.0872389676002926  0.0989662826034617   T   T   T
  0.1804288047617264  0.1703168195982082  0.0978930047578800   T   T   T
  0.1800341626686718  0.3371709958997520  0.0997245667901739   T   T   T
  0.3048056613884859  0.5861502253117953  0.1047341355281702   T   T   T
  0.1810780693879968  0.6721720238418112  0.0992803971077997   T   T   T
  0.3036232121934495  0.4177970214930253  0.1057199704647813   T   T   T
  0.1821358783854292  0.8390365016534136  0.0971845907686601   T   T   T
  0.4295101758749117  0.1756170588887363  0.1008056530597430   T   T   T
  0.5544086404782521  0.9223668137782934  0.0934958137256321   T   T   T
  0.4290560519465419  0.6686099707068702  0.1072843625565104   T   T   T
  0.4309038067743496  0.8342769100693425  0.1002808554509892   T   T   T
  0.8037376212600513  0.0897719214222781  0.0858397083318528   T   T   T
  0.6778026129707467  0.1750278756562105  0.0835292586255488   T   T   T
  0.8062855197126343  0.9245171534008528  0.0871602098744694   T   T   T
  0.6801100704910307  0.3376559647692296  0.0770066145734068   T   T   T
  0.8066204504416320  0.5945501203657541  0.0855447486923794   T   T   T
  0.8043372623717937  0.4243899117649254  0.0827707130367327   T   T   T
  0.6805830827597350  0.8410828437105998  0.0871973501193987   T   T   T
  0.5537893755745447  0.0922785667653926  0.0926532553861403   T   T   T
  0.4268264211130485  0.3367320397152926  0.1099124132227287   T   T   T
  0.6853891856062407  0.6794537098391021  0.0845355278317528   T   T   T
  0.3062799317561360  0.9214291542234190  0.0981967097253651   T   T   T
  0.5828534214683734  0.5069998529011879  0.1199705596589956   T   T   T
 
  0.00000000E+00  0.00000000E+00  0.00000000E+00
  0.00000000E+00  0.00000000E+00  0.00000000E+00
  0.00000000E+00  0.00000000E+00  0.00000000E+00
  0.00000000E+00  0.00000000E+00  0.00000000E+00
  0.00000000E+00  0.00000000E+00  0.00000000E+00
  0.00000000E+00  0.00000000E+00  0.00000000E+00
  0.00000000E+00  0.00000000E+00  0.00000000E+00
  0.00000000E+00  0.00000000E+00  0.00000000E+00
  0.00000000E+00  0.00000000E+00  0.00000000E+00
  0.00000000E+00  0.00000000E+00  0.00000000E+00
  0.00000000E+00  0.00000000E+00  0.00000000E+00
  0.00000000E+00  0.00000000E+00  0.00000000E+00
  0.00000000E+00  0.00000000E+00  0.00000000E+00
  0.00000000E+00  0.00000000E+00  0.00000000E+00
  0.00000000E+00  0.00000000E+00  0.00000000E+00
  0.00000000E+00  0.00000000E+00  0.00000000E+00
  0.00000000E+00  0.00000000E+00  0.00000000E+00
  0.00000000E+00  0.00000000E+00  0.00000000E+00
  0.00000000E+00  0.00000000E+00  0.00000000E+00
  0.00000000E+00  0.00000000E+00  0.00000000E+00
  0.00000000E+00  0.00000000E+00  0.00000000E+00
  0.00000000E+00  0.00000000E+00  0.00000000E+00
  0.00000000E+00  0.00000000E+00  0.00000000E+00
  0.00000000E+00  0.00000000E+00  0.00000000E+00
  0.00000000E+00  0.00000000E+00  0.00000000E+00
  0.00000000E+00  0.00000000E+00  0.00000000E+00
  0.00000000E+00  0.00000000E+00  0.00000000E+00
  0.00000000E+00  0.00000000E+00  0.00000000E+00
  0.00000000E+00  0.00000000E+00  0.00000000E+00
  0.00000000E+00  0.00000000E+00  0.00000000E+00
  0.00000000E+00  0.00000000E+00  0.00000000E+00
