Title                                   
   1.00000000000000     
     4.9440799999999996    0.0000000000000000    0.0000000000000000
     0.0000000000000000    8.5647549999999999    0.0000000000000000
     0.0000000000000000    0.0000000000000000   20.0000000000000000
    11     4     1
Selective dynamics
Direct
 -0.0035628051998341  0.2908578788022242  0.0927712255372806   T   T   T
  0.2500000000000000  0.0441628654468233  0.0872601017119265   T   T   T
  0.0019241532240139  0.7957935432072306  0.0977884432329914   T   T   T
 -0.0004025967782844  0.9607920643546395  0.0867139791776449   T   T   T
  0.7500000000000000  0.2064930827346657  0.0847097436188119   T   T   T
  0.5035628051998341  0.2908578788022242  0.0927712255372806   T   T   T
  0.7500000000000000  0.0417511593452603  0.0816174433693812   T   T   T
  0.7500000000000000  0.7033257087275686  0.1020352699364495   T   T   T
  0.4980758467759863  0.7957935432072306  0.0977884432329914   T   T   T
  0.7500000000000000  0.5318607664449285  0.1086734283919951   T   T   T
  0.5004025967782846  0.9607920643546395  0.0867139791776449   T   T   T
  0.5112159086341307  0.4453571845057517  0.1109626284397615   T   T   T
 -0.0112159086341308  0.4453571845057517  0.1109626284397615   T   T   T
  0.2500000000000000  0.7273297691977926  0.1106683006343562   T   T   T
  0.2500000000000000  0.2120915810398420  0.0893289576704246   T   T   T
  0.2500000000000000  0.5473837253234264  0.1717462018913077   T   T   T
 
  0.00000000E+00  0.00000000E+00  0.00000000E+00
  0.00000000E+00  0.00000000E+00  0.00000000E+00
  0.00000000E+00  0.00000000E+00  0.00000000E+00
  0.00000000E+00  0.00000000E+00  0.00000000E+00
  0.00000000E+00  0.00000000E+00  0.00000000E+00
  0.00000000E+00  0.00000000E+00  0.00000000E+00
  0.00000000E+00  0.00000000E+00  0.00000000E+00
  0.00000000E+00  0.00000000E+00  0.00000000E+00
  0.00000000E+00  0.00000000E+00  0.00000000E+00
  0.00000000E+00  0.00000000E+00  0.00000000E+00
  0.00000000E+00  0.00000000E+00  0.00000000E+00
  0.00000000E+00  0.00000000E+00  0.00000000E+00
  0.00000000E+00  0.00000000E+00  0.00000000E+00
  0.00000000E+00  0.00000000E+00  0.00000000E+00
  0.00000000E+00  0.00000000E+00  0.00000000E+00
  0.00000000E+00  0.00000000E+00  0.00000000E+00
