Title                                   
   1.00000000000000     
     4.9440799999999996    0.0000000000000000    0.0000000000000000
     0.0000000000000000   17.1295089999999988    0.0000000000000000
     0.0000000000000000    0.0000000000000000   20.0000000000000000
    25     5     1
Selective dynamics
Direct
  0.0007018995082492  0.1072581173448392  0.2981557558613341   T   T   T
  0.2503978540742818  0.1505559576201259  0.2987634306166942   T   T   T
  0.2503613934937958  0.2355910326307709  0.3001242541054579   T   T   T
 -0.0007002871745354  0.2778734679189011  0.3007315876548566   T   T   T
 -0.0005211506951886  0.5973518074641493  0.3008620428610588   T   T   T
  0.2503201320949292  0.7242442070095970  0.2991208238249153   T   T   T
  0.0016876290104138  0.8516882423097474  0.2975067390063860   T   T   T
  0.2504000404262484  0.8947113581036533  0.2971809442654528   T   T   T
  0.2503880770172261  0.9796621489990364  0.2970530824949419   T   T   T
  0.0021276124291626  0.7666001738492014  0.2985052280986947   T   T   T
  0.5000905293589225  0.1072595381514340  0.2981382426167509   T   T   T
  0.7503886053558462  0.1498825852720322  0.2987353800982193   T   T   T
  0.7503537033161326  0.2345073882268005  0.3000564543749900   T   T   T
  0.5001270452412044  0.0223988431884157  0.2972928566727348   T   T   T
  0.7502703740766159  0.3965267944384442  0.3020283524091424   T   T   T
  0.7502409382837072  0.4800561231208215  0.3022076655147055   T   T   T
  0.5013790889869346  0.2778717115010350  0.3007489354097627   T   T   T
  0.5009923094899005  0.5973545795599139  0.3009344251252776   T   T   T
  0.7502865888377506  0.7245602917770027  0.2991263228929456   T   T   T
  0.4990955743267653  0.8516989625229441  0.2975168707382988   T   T   T
  0.7503909758428278  0.8943704349798096  0.2971890862501798   T   T   T
  0.7503663895422937  0.9792839371187125  0.2970661034679695   T   T   T
  0.4985137999607370  0.7666193695981721  0.2985237578093516   T   T   T
  0.7502325473337438  0.6414150461827496  0.3002571703172306   T   T   T
  0.0006255439611484  0.0223927591777436  0.2973008723688046   T   T   T
  0.5057226020377100  0.5178165265565658  0.3019451547398359   T   T   T
  0.9947497003605174  0.5178160001810299  0.3019366388238895   T   T   T
  0.5072741189297864  0.3588757952054157  0.3018383218233889   T   T   T
 -0.0067129815722211  0.3588771104953906  0.3017778380069370   T   T   T
  0.2502551434457538  0.6389626146947374  0.3003267727160670   T   T   T
  0.2502012026993417  0.4372590748008039  0.3021088890336770   T   T   T
 
  0.00000000E+00  0.00000000E+00  0.00000000E+00
  0.00000000E+00  0.00000000E+00  0.00000000E+00
  0.00000000E+00  0.00000000E+00  0.00000000E+00
  0.00000000E+00  0.00000000E+00  0.00000000E+00
  0.00000000E+00  0.00000000E+00  0.00000000E+00
  0.00000000E+00  0.00000000E+00  0.00000000E+00
  0.00000000E+00  0.00000000E+00  0.00000000E+00
  0.00000000E+00  0.00000000E+00  0.00000000E+00
  0.00000000E+00  0.00000000E+00  0.00000000E+00
  0.00000000E+00  0.00000000E+00  0.00000000E+00
  0.00000000E+00  0.00000000E+00  0.00000000E+00
  0.00000000E+00  0.00000000E+00  0.00000000E+00
  0.00000000E+00  0.00000000E+00  0.00000000E+00
  0.00000000E+00  0.00000000E+00  0.00000000E+00
  0.00000000E+00  0.00000000E+00  0.00000000E+00
  0.00000000E+00  0.00000000E+00  0.00000000E+00
  0.00000000E+00  0.00000000E+00  0.00000000E+00
  0.00000000E+00  0.00000000E+00  0.00000000E+00
  0.00000000E+00  0.00000000E+00  0.00000000E+00
  0.00000000E+00  0.00000000E+00  0.00000000E+00
  0.00000000E+00  0.00000000E+00  0.00000000E+00
  0.00000000E+00  0.00000000E+00  0.00000000E+00
  0.00000000E+00  0.00000000E+00  0.00000000E+00
  0.00000000E+00  0.00000000E+00  0.00000000E+00
  0.00000000E+00  0.00000000E+00  0.00000000E+00
  0.00000000E+00  0.00000000E+00  0.00000000E+00
  0.00000000E+00  0.00000000E+00  0.00000000E+00
  0.00000000E+00  0.00000000E+00  0.00000000E+00
  0.00000000E+00  0.00000000E+00  0.00000000E+00
  0.00000000E+00  0.00000000E+00  0.00000000E+00
  0.00000000E+00  0.00000000E+00  0.00000000E+00
