Title                                   
   1.00000000000000     
     4.9440799999999996    0.0000000000000000    0.0000000000000000
     0.0000000000000000    8.5647549999999999    0.0000000000000000
     0.0000000000000000    0.0000000000000000   20.0000000000000000
    10     4     1
Selective dynamics
Direct
  0.2500000000000000  0.2108547039281313  0.0956470011184618   T   T   T
 -0.0035899904807837  0.2952544954655889  0.0961224974657055   T   T   T
  0.2500000000000000  0.0387119797313780  0.0956659972588836   T   T   T
 -0.0036046994319043  0.9543321442496985  0.0961283219455088   T   T   T
  0.7500000000000000  0.2086771524730517  0.0966605710836426   T   T   T
  0.5035899904807838  0.2952544954655889  0.0961224974657055   T   T   T
  0.7500000000000000  0.0409557093238965  0.0966483154696934   T   T   T
  0.7500000000000000  0.7185738500604639  0.0954103149277355   T   T   T
  0.7500000000000000  0.5310508615690244  0.0954028700548714   T   T   T
  0.5036046994319042  0.9543321442496985  0.0961283219455088   T   T   T
  0.5117675862910420  0.4570909941090557  0.0957166132443387   T   T   T
 -0.0117675862910421  0.4570909941090557  0.0957166132443387   T   T   T
 -0.0117760291651606  0.7925080564577963  0.0957491921030500   T   T   T
  0.5117760291651605  0.7925080564577963  0.0957491921030500   T   T   T
  0.2500000000000000  0.6244853623497781  0.1651116805695091   T   T   T
 
  0.00000000E+00  0.00000000E+00  0.00000000E+00
  0.00000000E+00  0.00000000E+00  0.00000000E+00
  0.00000000E+00  0.00000000E+00  0.00000000E+00
  0.00000000E+00  0.00000000E+00  0.00000000E+00
  0.00000000E+00  0.00000000E+00  0.00000000E+00
  0.00000000E+00  0.00000000E+00  0.00000000E+00
  0.00000000E+00  0.00000000E+00  0.00000000E+00
  0.00000000E+00  0.00000000E+00  0.00000000E+00
  0.00000000E+00  0.00000000E+00  0.00000000E+00
  0.00000000E+00  0.00000000E+00  0.00000000E+00
  0.00000000E+00  0.00000000E+00  0.00000000E+00
  0.00000000E+00  0.00000000E+00  0.00000000E+00
  0.00000000E+00  0.00000000E+00  0.00000000E+00
  0.00000000E+00  0.00000000E+00  0.00000000E+00
  0.00000000E+00  0.00000000E+00  0.00000000E+00
