Title                                   
   1.00000000000000     
     9.8694509999999998    0.0000000000000000    0.0000000000000000
     0.0000000000000000    8.5490480000000009    0.0000000000000000
     0.0000000000000000    0.0000000000000000   20.0000000000000000
    26     4     1
Selective dynamics
Direct
  0.0562299604081106  0.0895438150292202  0.0938186188723959   T   T   T
  0.9320968972839225  0.1720672965581386  0.0940946312272888   T   T   T
  0.0562158582830097  0.9227804079910583  0.0938182987658493   T   T   T
  0.9344174006203412  0.3381070964017417  0.0940160674667877   T   T   T
  0.0562368185435293  0.5893939572569935  0.0936189888169975   T   T   T
  0.9344151405903415  0.6741940490866563  0.0939859349394720   T   T   T
  0.0562337846319994  0.4229194015680761  0.0936276377348643   T   T   T
  0.9320864168824139  0.8402458716367741  0.0940751246176441   T   T   T
  0.3067305678686629  0.0895162174630777  0.0948683509271523   T   T   T
  0.1803579478813405  0.1720887464626363  0.0941355682777956   T   T   T
  0.3067214417150937  0.9227981493720905  0.0948766482460184   T   T   T
  0.1780533506724696  0.3381352780015220  0.0940710925177840   T   T   T
  0.2994712886100353  0.5896980309639211  0.0949713974060159   T   T   T
  0.1780462298850562  0.6742097438131526  0.0940721797177110   T   T   T
  0.2994783701951245  0.4226278625023438  0.0949655209385267   T   T   T
  0.1803424789658678  0.8402542114154765  0.0941459357836966   T   T   T
  0.5562093064438971  0.0934077958945309  0.0959025054998575   T   T   T
  0.4297449537866798  0.1770758297719226  0.0956740222577180   T   T   T
  0.5562033739586738  0.9188857054143116  0.0959050301006964   T   T   T
  0.4297388428697148  0.8352189786052742  0.0956760580949992   T   T   T
  0.8057106437375195  0.0895108507325340  0.0948324043977456   T   T   T
  0.6826950614667772  0.1770712468061886  0.0956440668220726   T   T   T
  0.8057057170651677  0.9227974975429263  0.0948161877691143   T   T   T
  0.8130156908008110  0.5896916300993114  0.0948587180106034   T   T   T
  0.8130195412181760  0.4226201071576098  0.0948728623237382   T   T   T
  0.6826930948718054  0.8352337130540612  0.0956220702970556   T   T   T
  0.4194399110226250  0.3391316270011738  0.0959082812424307   T   T   T
  0.4194384308020357  0.6731809678066278  0.0959209882389986   T   T   T
  0.6930662688452768  0.3391249114299603  0.0958568496750291   T   T   T
  0.6930620334951439  0.6731889270327087  0.0958373031942023   T   T   T
  0.5562591765783838  0.5061550761279784  0.0964756558197792   T   T   T
 
  0.00000000E+00  0.00000000E+00  0.00000000E+00
  0.00000000E+00  0.00000000E+00  0.00000000E+00
  0.00000000E+00  0.00000000E+00  0.00000000E+00
  0.00000000E+00  0.00000000E+00  0.00000000E+00
  0.00000000E+00  0.00000000E+00  0.00000000E+00
  0.00000000E+00  0.00000000E+00  0.00000000E+00
  0.00000000E+00  0.00000000E+00  0.00000000E+00
  0.00000000E+00  0.00000000E+00  0.00000000E+00
  0.00000000E+00  0.00000000E+00  0.00000000E+00
  0.00000000E+00  0.00000000E+00  0.00000000E+00
  0.00000000E+00  0.00000000E+00  0.00000000E+00
  0.00000000E+00  0.00000000E+00  0.00000000E+00
  0.00000000E+00  0.00000000E+00  0.00000000E+00
  0.00000000E+00  0.00000000E+00  0.00000000E+00
  0.00000000E+00  0.00000000E+00  0.00000000E+00
  0.00000000E+00  0.00000000E+00  0.00000000E+00
  0.00000000E+00  0.00000000E+00  0.00000000E+00
  0.00000000E+00  0.00000000E+00  0.00000000E+00
  0.00000000E+00  0.00000000E+00  0.00000000E+00
  0.00000000E+00  0.00000000E+00  0.00000000E+00
  0.00000000E+00  0.00000000E+00  0.00000000E+00
  0.00000000E+00  0.00000000E+00  0.00000000E+00
  0.00000000E+00  0.00000000E+00  0.00000000E+00
  0.00000000E+00  0.00000000E+00  0.00000000E+00
  0.00000000E+00  0.00000000E+00  0.00000000E+00
  0.00000000E+00  0.00000000E+00  0.00000000E+00
  0.00000000E+00  0.00000000E+00  0.00000000E+00
  0.00000000E+00  0.00000000E+00  0.00000000E+00
  0.00000000E+00  0.00000000E+00  0.00000000E+00
  0.00000000E+00  0.00000000E+00  0.00000000E+00
  0.00000000E+00  0.00000000E+00  0.00000000E+00
