Title                                   
   1.00000000000000     
     8.5490480000000009    0.0000000000000000    0.0000000000000000
     0.0000000000000000    8.5490480000000009    0.0000000000000000
     0.0000000000000000    0.0000000000000000   20.0000000000000000
    18     6     1
Selective dynamics
Direct
  0.9105767445737446  0.2027420823289105  0.0975055172371490   T   T   T
  0.9084621365738218  0.7993433017038992  0.0974030737046704   T   T   T
  0.1969034413108879  0.0856002797353515  0.0977176856306344   T   T   T
  0.0783894454319741  0.2006843129000158  0.0976367620194419   T   T   T
  0.1563290843191450  0.6545893142502587  0.0978335676526830   T   T   T
  0.0768115293912994  0.5011666798189397  0.0978145059413871   T   T   T
  0.1582771092863506  0.3543081571908316  0.0977872893500077   T   T   T
  0.0766763711495512  0.8009534562867835  0.0976117991233815   T   T   T
  0.3485892449829828  0.1684645016420456  0.0978876062470384   T   T   T
  0.4930616681940865  0.9183101634467493  0.0978340702375708   T   T   T
  0.3396798804360086  0.8397501447846228  0.0979317565466101   T   T   T
  0.7900716888810217  0.0841209778188233  0.0974782319944412   T   T   T
  0.6436233050796067  0.1669169087891446  0.0977984113724088   T   T   T
  0.7887466562291829  0.9167278788640983  0.0974052030047306   T   T   T
  0.8263189499062584  0.6500461673943317  0.0975979475715816   T   T   T
  0.8290254452530609  0.3496035489043107  0.0977306846296310   T   T   T
  0.6405918361230016  0.8350104085561306  0.0975990249563292   T   T   T
  0.3262357236756068  0.3321073159874608  0.0979238762299833   T   T   T
  0.4962012924949284  0.0869729148647020  0.0978877413015241   T   T   T
  0.9058513245188209  0.5009837804966929  0.0977549249499157   T   T   T
  0.3169453159581736  0.6828945655216864  0.0981487982290349   T   T   T
  0.6684648087203546  0.3274488539126854  0.0979589061220838   T   T   T
  0.6659488731009239  0.6712379660929625  0.0977050118631321   T   T   T
  0.1940304138972986  0.9185627907968954  0.0977520060895976   T   T   T
  0.4895997105119011  0.4962435279116869  0.0980005979950047   T   T   T
 
  0.00000000E+00  0.00000000E+00  0.00000000E+00
  0.00000000E+00  0.00000000E+00  0.00000000E+00
  0.00000000E+00  0.00000000E+00  0.00000000E+00
  0.00000000E+00  0.00000000E+00  0.00000000E+00
  0.00000000E+00  0.00000000E+00  0.00000000E+00
  0.00000000E+00  0.00000000E+00  0.00000000E+00
  0.00000000E+00  0.00000000E+00  0.00000000E+00
  0.00000000E+00  0.00000000E+00  0.00000000E+00
  0.00000000E+00  0.00000000E+00  0.00000000E+00
  0.00000000E+00  0.00000000E+00  0.00000000E+00
  0.00000000E+00  0.00000000E+00  0.00000000E+00
  0.00000000E+00  0.00000000E+00  0.00000000E+00
  0.00000000E+00  0.00000000E+00  0.00000000E+00
  0.00000000E+00  0.00000000E+00  0.00000000E+00
  0.00000000E+00  0.00000000E+00  0.00000000E+00
  0.00000000E+00  0.00000000E+00  0.00000000E+00
  0.00000000E+00  0.00000000E+00  0.00000000E+00
  0.00000000E+00  0.00000000E+00  0.00000000E+00
  0.00000000E+00  0.00000000E+00  0.00000000E+00
  0.00000000E+00  0.00000000E+00  0.00000000E+00
  0.00000000E+00  0.00000000E+00  0.00000000E+00
  0.00000000E+00  0.00000000E+00  0.00000000E+00
  0.00000000E+00  0.00000000E+00  0.00000000E+00
  0.00000000E+00  0.00000000E+00  0.00000000E+00
  0.00000000E+00  0.00000000E+00  0.00000000E+00
