Title                                   
   1.00000000000000     
     4.9440799999999996    0.0000000000000000    0.0000000000000000
     0.0000000000000000   17.1295089999999988    0.0000000000000000
     0.0000000000000000    0.0000000000000000   20.0000000000000000
    27     3     1
Selective dynamics
Direct
  0.0013291218505379  0.1054312736491634  0.2920838365377050   T   T   T
  0.2503722960120429  0.1480158391831970  0.2941842540548542   T   T   T
  0.2503095649560825  0.2323363292161845  0.2993595955823913   T   T   T
 -0.0024202307302336  0.2734321862284771  0.3013477191080893   T   T   T
 -0.0000291034777524  0.6023354346977418  0.3011551732088547   T   T   T
  0.2502066259354673  0.7273026964566064  0.2942530729050951   T   T   T
  0.0016455645447715  0.8533745097045116  0.2903945270030648   T   T   T
  0.2503967288956404  0.8955956847602748  0.2902727642342370   T   T   T
  0.2504441203225202  0.9794880674492275  0.2902334204519812   T   T   T
  0.0016711883300223  0.7693619659227825  0.2920172949119225   T   T   T
  0.4994500248282686  0.1054405471269298  0.2920536346614617   T   T   T
  0.7504111889898379  0.1471152168930502  0.2927902097420271   T   T   T
  0.7503731713963078  0.2303894776537581  0.2965154958714023   T   T   T
  0.4999272531481356  0.0215054411698274  0.2903754177364124   T   T   T
  0.7502719208442590  0.3925396001679285  0.3093319474873775   T   T   T
  0.7500794105474746  0.4791389886872853  0.3096285921138875   T   T   T
  0.5030851213663637  0.2734187097459484  0.3011528401915415   T   T   T
  0.4999612968734956  0.6022830913582724  0.3007794682811958   T   T   T
  0.7502082546385286  0.7280182526719629  0.2922337587928854   T   T   T
  0.4990960209433098  0.8533651220960948  0.2903692243970860   T   T   T
  0.7503859337134671  0.8952730937538229  0.2897298881865649   T   T   T
  0.7504453147151315  0.9793006877216920  0.2897723680007792   T   T   T
  0.4988842627370358  0.7693539195717058  0.2919771539215553   T   T   T
  0.7500925318580072  0.6454336882481935  0.2954878957485471   T   T   T
  0.0009504778184285  0.0214971798939423  0.2903926433614369   T   T   T
  0.5006581094756003  0.5213576557743593  0.3103728918802333   T   T   T
 -0.0007503648851174  0.5215146932731707  0.3115449599531847   T   T   T
  0.5097928115748174  0.3531399606108728  0.3087849520797136   T   T   T
 -0.0091492537675518  0.3531182394371885  0.3094433317119719   T   T   T
  0.2500491052678667  0.6451331729211419  0.2990929211134438   T   T   T
  0.2518585312772358  0.4363312739546815  0.3679287467690474   T   T   T
 
  0.00000000E+00  0.00000000E+00  0.00000000E+00
  0.00000000E+00  0.00000000E+00  0.00000000E+00
  0.00000000E+00  0.00000000E+00  0.00000000E+00
  0.00000000E+00  0.00000000E+00  0.00000000E+00
  0.00000000E+00  0.00000000E+00  0.00000000E+00
  0.00000000E+00  0.00000000E+00  0.00000000E+00
  0.00000000E+00  0.00000000E+00  0.00000000E+00
  0.00000000E+00  0.00000000E+00  0.00000000E+00
  0.00000000E+00  0.00000000E+00  0.00000000E+00
  0.00000000E+00  0.00000000E+00  0.00000000E+00
  0.00000000E+00  0.00000000E+00  0.00000000E+00
  0.00000000E+00  0.00000000E+00  0.00000000E+00
  0.00000000E+00  0.00000000E+00  0.00000000E+00
  0.00000000E+00  0.00000000E+00  0.00000000E+00
  0.00000000E+00  0.00000000E+00  0.00000000E+00
  0.00000000E+00  0.00000000E+00  0.00000000E+00
  0.00000000E+00  0.00000000E+00  0.00000000E+00
  0.00000000E+00  0.00000000E+00  0.00000000E+00
  0.00000000E+00  0.00000000E+00  0.00000000E+00
  0.00000000E+00  0.00000000E+00  0.00000000E+00
  0.00000000E+00  0.00000000E+00  0.00000000E+00
  0.00000000E+00  0.00000000E+00  0.00000000E+00
  0.00000000E+00  0.00000000E+00  0.00000000E+00
  0.00000000E+00  0.00000000E+00  0.00000000E+00
  0.00000000E+00  0.00000000E+00  0.00000000E+00
  0.00000000E+00  0.00000000E+00  0.00000000E+00
  0.00000000E+00  0.00000000E+00  0.00000000E+00
  0.00000000E+00  0.00000000E+00  0.00000000E+00
  0.00000000E+00  0.00000000E+00  0.00000000E+00
  0.00000000E+00  0.00000000E+00  0.00000000E+00
  0.00000000E+00  0.00000000E+00  0.00000000E+00
