Title                                   
   1.00000000000000     
     9.8694509999999998    0.0000000000000000    0.0000000000000000
     0.0000000000000000    8.5490480000000009    0.0000000000000000
     0.0000000000000000    0.0000000000000000   20.0000000000000000
    27     4     1
Selective dynamics
Direct
  0.0557669243637744  0.0914365864375373  0.0857437064730289   T   T   T
  0.9297950882729311  0.1753214880716885  0.0883918635523504   T   T   T
  0.0566686415666692  0.9229923725050326  0.0840755777838441   T   T   T
  0.9293726972628229  0.3415862422236007  0.0918997904838741   T   T   T
  0.0560248149031273  0.5892142793702049  0.0863262951245069   T   T   T
  0.9318705586853904  0.6718318226181227  0.0873269117294526   T   T   T
  0.0553997495209885  0.4226674470867451  0.0903213594650923   T   T   T
  0.9317209866118822  0.8397960557477923  0.0860872365696239   T   T   T
  0.3052608172029017  0.0880699046623261  0.0874165636638327   T   T   T
  0.1816083080851463  0.1733028111581164  0.0879598514526435   T   T   T
  0.3074229747673412  0.9221670898246513  0.0870508903530799   T   T   T
  0.1806752566683530  0.3392633243449836  0.0917756367153657   T   T   T
  0.3048338092707135  0.5880585532702107  0.0972815479197241   T   T   T
  0.1807929068856670  0.6698890680812976  0.0867036244028876   T   T   T
  0.1823749420213712  0.8379277488513867  0.0849201549775824   T   T   T
  0.5564139673569545  0.0872046516481794  0.0948639078637752   T   T   T
  0.4301447001246103  0.1690804923696637  0.0934205512476916   T   T   T
  0.4300300580026860  0.3345878918643775  0.1024359417694289   T   T   T
  0.4304359277680177  0.8375275345410197  0.0966122914905735   T   T   T
  0.8066634794188644  0.0904138939481765  0.0881252758845739   T   T   T
  0.6813237811186602  0.1719759804514713  0.0935741545350735   T   T   T
  0.8068371111771654  0.9249300078380656  0.0884183452975498   T   T   T
  0.6786750605310983  0.3374505108680424  0.1020608633295940   T   T   T
  0.8076072185217744  0.5930307655432749  0.0972305065518292   T   T   T
  0.6854315830485623  0.8402072672726928  0.0973292971356801   T   T   T
  0.4229058968609847  0.6748691213276659  0.1107195524788591   T   T   T
  0.5531747282098016  0.4110278420462105  0.1176356762349323   T   T   T
  0.6939169741240900  0.6814222850306897  0.1114157399618811   T   T   T
  0.5576303202159681  0.9181106606764912  0.0967064175882823   T   T   T
  0.3058822621351830  0.4206698713775859  0.0982653696728335   T   T   T
  0.8029951616946893  0.4256698697677113  0.0978554978660680   T   T   T
  0.5599822936018168  0.5985425591749866  0.1757246004245008   T   T   T
 
  0.00000000E+00  0.00000000E+00  0.00000000E+00
  0.00000000E+00  0.00000000E+00  0.00000000E+00
  0.00000000E+00  0.00000000E+00  0.00000000E+00
  0.00000000E+00  0.00000000E+00  0.00000000E+00
  0.00000000E+00  0.00000000E+00  0.00000000E+00
  0.00000000E+00  0.00000000E+00  0.00000000E+00
  0.00000000E+00  0.00000000E+00  0.00000000E+00
  0.00000000E+00  0.00000000E+00  0.00000000E+00
  0.00000000E+00  0.00000000E+00  0.00000000E+00
  0.00000000E+00  0.00000000E+00  0.00000000E+00
  0.00000000E+00  0.00000000E+00  0.00000000E+00
  0.00000000E+00  0.00000000E+00  0.00000000E+00
  0.00000000E+00  0.00000000E+00  0.00000000E+00
  0.00000000E+00  0.00000000E+00  0.00000000E+00
  0.00000000E+00  0.00000000E+00  0.00000000E+00
  0.00000000E+00  0.00000000E+00  0.00000000E+00
  0.00000000E+00  0.00000000E+00  0.00000000E+00
  0.00000000E+00  0.00000000E+00  0.00000000E+00
  0.00000000E+00  0.00000000E+00  0.00000000E+00
  0.00000000E+00  0.00000000E+00  0.00000000E+00
  0.00000000E+00  0.00000000E+00  0.00000000E+00
  0.00000000E+00  0.00000000E+00  0.00000000E+00
  0.00000000E+00  0.00000000E+00  0.00000000E+00
  0.00000000E+00  0.00000000E+00  0.00000000E+00
  0.00000000E+00  0.00000000E+00  0.00000000E+00
  0.00000000E+00  0.00000000E+00  0.00000000E+00
  0.00000000E+00  0.00000000E+00  0.00000000E+00
  0.00000000E+00  0.00000000E+00  0.00000000E+00
  0.00000000E+00  0.00000000E+00  0.00000000E+00
  0.00000000E+00  0.00000000E+00  0.00000000E+00
  0.00000000E+00  0.00000000E+00  0.00000000E+00
  0.00000000E+00  0.00000000E+00  0.00000000E+00
