Title                                   
   1.00000000000000     
     9.8694509999999998    0.0000000000000000    0.0000000000000000
     0.0000000000000000    8.5490480000000009    0.0000000000000000
     0.0000000000000000    0.0000000000000000   20.0000000000000000
    26     4     1
Selective dynamics
Direct
  0.0565927219889045  0.0899722408665279  0.0921844799559394   T   T   T
  0.9321818223179079  0.1725059968007384  0.0968643672820420   T   T   T
  0.0565726555413287  0.9223694765095668  0.0921981148674510   T   T   T
  0.9328767969690953  0.3394983000441867  0.0979675212287430   T   T   T
  0.0571051558764732  0.5893586897436462  0.0936287145593221   T   T   T
  0.9328742912725319  0.6728280529457364  0.0979767666108125   T   T   T
  0.0570949755893472  0.4229719307251944  0.0936410624422326   T   T   T
  0.9321705474812041  0.8398138838502853  0.0968515467041591   T   T   T
  0.3073107748885271  0.0894473823457359  0.0859061372797771   T   T   T
  0.1812965986856073  0.1731442959202044  0.0883958402261935   T   T   T
  0.3072918935220134  0.9228564808430539  0.0859212788535052   T   T   T
  0.1807575123040066  0.3393800007291478  0.0892073144216789   T   T   T
  0.3065216593289614  0.5910322206207417  0.0843961994386881   T   T   T
  0.1807702197750146  0.6729579476013079  0.0892094872584745   T   T   T
  0.3065142225670771  0.4212596871475824  0.0844072868510522   T   T   T
  0.1812651409013295  0.8392057063923717  0.0883768211804521   T   T   T
  0.5574377715641976  0.0924102175629882  0.0946357850260772   T   T   T
  0.4309306410728023  0.1746474953624601  0.0867833075088759   T   T   T
  0.5574163105376181  0.9198657718090520  0.0946543851821664   T   T   T
  0.4309077310623640  0.8376481335446401  0.0867964452555986   T   T   T
  0.8055675370159802  0.0902298459610920  0.0990791922112552   T   T   T
  0.6828060944400859  0.1788876008265820  0.1014697836252534   T   T   T
  0.8055672257398535  0.9220716703694463  0.0990966702050544   T   T   T
  0.8089851489202367  0.5903135372631457  0.1042142640824172   T   T   T
  0.8089898028410650  0.4219953376166607  0.1042146814134620   T   T   T
  0.6828017408591255  0.8334122991251678  0.1014613163866190   T   T   T
  0.4272769777475630  0.3364727469746117  0.0833886485890159   T   T   T
  0.4272838534399436  0.6758147374150336  0.0834278635981418   T   T   T
  0.6870108139584390  0.3418816453684078  0.1091156073630666   T   T   T
  0.6869937026944983  0.6704499700802866  0.1091039676611397   T   T   T
  0.5339636590969059  0.5061716976343938  0.1263901427313745   T   T   T
 
  0.00000000E+00  0.00000000E+00  0.00000000E+00
  0.00000000E+00  0.00000000E+00  0.00000000E+00
  0.00000000E+00  0.00000000E+00  0.00000000E+00
  0.00000000E+00  0.00000000E+00  0.00000000E+00
  0.00000000E+00  0.00000000E+00  0.00000000E+00
  0.00000000E+00  0.00000000E+00  0.00000000E+00
  0.00000000E+00  0.00000000E+00  0.00000000E+00
  0.00000000E+00  0.00000000E+00  0.00000000E+00
  0.00000000E+00  0.00000000E+00  0.00000000E+00
  0.00000000E+00  0.00000000E+00  0.00000000E+00
  0.00000000E+00  0.00000000E+00  0.00000000E+00
  0.00000000E+00  0.00000000E+00  0.00000000E+00
  0.00000000E+00  0.00000000E+00  0.00000000E+00
  0.00000000E+00  0.00000000E+00  0.00000000E+00
  0.00000000E+00  0.00000000E+00  0.00000000E+00
  0.00000000E+00  0.00000000E+00  0.00000000E+00
  0.00000000E+00  0.00000000E+00  0.00000000E+00
  0.00000000E+00  0.00000000E+00  0.00000000E+00
  0.00000000E+00  0.00000000E+00  0.00000000E+00
  0.00000000E+00  0.00000000E+00  0.00000000E+00
  0.00000000E+00  0.00000000E+00  0.00000000E+00
  0.00000000E+00  0.00000000E+00  0.00000000E+00
  0.00000000E+00  0.00000000E+00  0.00000000E+00
  0.00000000E+00  0.00000000E+00  0.00000000E+00
  0.00000000E+00  0.00000000E+00  0.00000000E+00
  0.00000000E+00  0.00000000E+00  0.00000000E+00
  0.00000000E+00  0.00000000E+00  0.00000000E+00
  0.00000000E+00  0.00000000E+00  0.00000000E+00
  0.00000000E+00  0.00000000E+00  0.00000000E+00
  0.00000000E+00  0.00000000E+00  0.00000000E+00
  0.00000000E+00  0.00000000E+00  0.00000000E+00
