Title                                   
   1.00000000000000     
     4.9440799999999996    0.0000000000000000    0.0000000000000000
     0.0000000000000000   17.1295089999999988    0.0000000000000000
     0.0000000000000000    0.0000000000000000   20.0000000000000000
    28     2     1
Selective dynamics
Direct
  0.0012508115840461  0.1052991130880346  0.2972253314476194   T   T   T
  0.2503221102596960  0.1477491554966275  0.2976943062661617   T   T   T
  0.2503081741885389  0.2321991982034387  0.2991496883664761   T   T   T
 -0.0026566055715108  0.2725665303692913  0.2996922130926798   T   T   T
 -0.0003421887518681  0.6026076963006251  0.3006685896843710   T   T   T
  0.2503468815252969  0.7281371633291899  0.2981132005989692   T   T   T
  0.0003665239622613  0.8540438604653626  0.2971221107711298   T   T   T
  0.2503234847658812  0.8959689624249161  0.2971294247649698   T   T   T
  0.2503327745617905  0.9795276124959418  0.2970861394524190   T   T   T
  0.0002881216227577  0.7704133558432420  0.2974566139774271   T   T   T
  0.4993901577597954  0.1053000219220571  0.2972043653138209   T   T   T
  0.7503209252514285  0.1465114883721056  0.2972294571578193   T   T   T
  0.7503130370829906  0.2298744745448010  0.2981693600624257   T   T   T
  0.4998454336658396  0.0215569736154251  0.2970278215040350   T   T   T
  0.7502777307228510  0.3908761934195119  0.3016487109357361   T   T   T
  0.7503091303761442  0.4784338026895171  0.3018561727381623   T   T   T
  0.5032487555821531  0.2725742563272646  0.2995613283467531   T   T   T
  0.5010016935195015  0.6026070969260783  0.3006163925706918   T   T   T
  0.7503421513910439  0.7287103004801252  0.2976313742350900   T   T   T
  0.5002674922619311  0.8540379764242642  0.2971152086022484   T   T   T
  0.7503074441238554  0.8959680329178457  0.2970044208000410   T   T   T
  0.7503174606207020  0.9797727953285944  0.2969542953265014   T   T   T
  0.5003904851318339  0.7704072353943974  0.2974484372825770   T   T   T
  0.7503317643685169  0.6449832750581518  0.2989654759573087   T   T   T
  0.2503403888562356  0.6448238129540996  0.3000142460059576   T   T   T
  0.0008084789661885  0.0215498816412549  0.2970406182955969   T   T   T
  0.5050707485204912  0.5197568647959765  0.3031865128512260   T   T   T
 -0.0044371331532379  0.5197451764192291  0.3033483768927401   T   T   T
  0.5132744117245164  0.3531455794898390  0.3016118289367629   T   T   T
 -0.0127386945780746  0.3531356277226119  0.3020997744378329   T   T   T
  0.2504850496584055  0.4390584855401750  0.3179882033244019   T   T   T
 
  0.00000000E+00  0.00000000E+00  0.00000000E+00
  0.00000000E+00  0.00000000E+00  0.00000000E+00
  0.00000000E+00  0.00000000E+00  0.00000000E+00
  0.00000000E+00  0.00000000E+00  0.00000000E+00
  0.00000000E+00  0.00000000E+00  0.00000000E+00
  0.00000000E+00  0.00000000E+00  0.00000000E+00
  0.00000000E+00  0.00000000E+00  0.00000000E+00
  0.00000000E+00  0.00000000E+00  0.00000000E+00
  0.00000000E+00  0.00000000E+00  0.00000000E+00
  0.00000000E+00  0.00000000E+00  0.00000000E+00
  0.00000000E+00  0.00000000E+00  0.00000000E+00
  0.00000000E+00  0.00000000E+00  0.00000000E+00
  0.00000000E+00  0.00000000E+00  0.00000000E+00
  0.00000000E+00  0.00000000E+00  0.00000000E+00
  0.00000000E+00  0.00000000E+00  0.00000000E+00
  0.00000000E+00  0.00000000E+00  0.00000000E+00
  0.00000000E+00  0.00000000E+00  0.00000000E+00
  0.00000000E+00  0.00000000E+00  0.00000000E+00
  0.00000000E+00  0.00000000E+00  0.00000000E+00
  0.00000000E+00  0.00000000E+00  0.00000000E+00
  0.00000000E+00  0.00000000E+00  0.00000000E+00
  0.00000000E+00  0.00000000E+00  0.00000000E+00
  0.00000000E+00  0.00000000E+00  0.00000000E+00
  0.00000000E+00  0.00000000E+00  0.00000000E+00
  0.00000000E+00  0.00000000E+00  0.00000000E+00
  0.00000000E+00  0.00000000E+00  0.00000000E+00
  0.00000000E+00  0.00000000E+00  0.00000000E+00
  0.00000000E+00  0.00000000E+00  0.00000000E+00
  0.00000000E+00  0.00000000E+00  0.00000000E+00
  0.00000000E+00  0.00000000E+00  0.00000000E+00
  0.00000000E+00  0.00000000E+00  0.00000000E+00
