Title                                   
   1.00000000000000     
     9.8694509999999998    0.0000000000000000    0.0000000000000000
     0.0000000000000000    8.5490480000000009    0.0000000000000000
     0.0000000000000000    0.0000000000000000   20.0000000000000000
    27     3     1
Selective dynamics
Direct
  0.0558535963436605  0.0897222291943157  0.0928644918105768   T   T   T
  0.9315236785173171  0.1732335513469059  0.0975910110577447   T   T   T
  0.0582811197206010  0.9228789024752594  0.0925474521029335   T   T   T
  0.9331120519322449  0.3409967079887558  0.0993500692227696   T   T   T
  0.0583864408977604  0.5903328286235862  0.0947752644701586   T   T   T
  0.9343816216415574  0.6746284441584702  0.0993841835981658   T   T   T
  0.0575966506525415  0.4228116316049714  0.0950066119863774   T   T   T
  0.9337926638966364  0.8412923980667963  0.0976938425241817   T   T   T
  0.3066802560496409  0.0870283104834253  0.0851510912695902   T   T   T
  0.1808066181278968  0.1705492746825799  0.0889718558345107   T   T   T
  0.1800206694114669  0.3366995470152190  0.0901602442613873   T   T   T
  0.3066696664224101  0.5865124207717614  0.0801627951264121   T   T   T
  0.1824085537116281  0.6728292985309006  0.0884786074328778   T   T   T
  0.3042033552635755  0.4180600288883153  0.0838535780081462   T   T   T
  0.1832988273634644  0.8387744474054941  0.0877762982499361   T   T   T
  0.5572727944476957  0.0904193504500919  0.0940491884297648   T   T   T
  0.4301409569033893  0.1703096993323233  0.0862215686753457   T   T   T
  0.5574690240848590  0.9209991382998046  0.0942152768837037   T   T   T
  0.4296930657922954  0.6745614682096951  0.0759104561531809   T   T   T
  0.4318638203218485  0.8373753235074045  0.0837045545777518   T   T   T
  0.8049383377328320  0.0911826034506036  0.0993184684741398   T   T   T
  0.6804934111975003  0.1789284120592470  0.1010821224259447   T   T   T
  0.8063939694293363  0.9231265288883967  0.0997272832771597   T   T   T
  0.6833552887544208  0.3467310412864139  0.1079586896571688   T   T   T
  0.8116180290221836  0.5936162680233570  0.1060274671946416   T   T   T
  0.8096164739162068  0.4256351351210997  0.1051387124360106   T   T   T
  0.6826882968620530  0.8352251350956917  0.1022939718640832   T   T   T
  0.4254783511024091  0.3335969833511004  0.0846283340226681   T   T   T
  0.6882371185120156  0.6714404657141027  0.1118454024763533   T   T   T
  0.3076399861122384  0.9223454570378418  0.0841169556296389   T   T   T
  0.5292203058563196  0.5090319689360969  0.1309591508667100   T   T   T
 
  0.00000000E+00  0.00000000E+00  0.00000000E+00
  0.00000000E+00  0.00000000E+00  0.00000000E+00
  0.00000000E+00  0.00000000E+00  0.00000000E+00
  0.00000000E+00  0.00000000E+00  0.00000000E+00
  0.00000000E+00  0.00000000E+00  0.00000000E+00
  0.00000000E+00  0.00000000E+00  0.00000000E+00
  0.00000000E+00  0.00000000E+00  0.00000000E+00
  0.00000000E+00  0.00000000E+00  0.00000000E+00
  0.00000000E+00  0.00000000E+00  0.00000000E+00
  0.00000000E+00  0.00000000E+00  0.00000000E+00
  0.00000000E+00  0.00000000E+00  0.00000000E+00
  0.00000000E+00  0.00000000E+00  0.00000000E+00
  0.00000000E+00  0.00000000E+00  0.00000000E+00
  0.00000000E+00  0.00000000E+00  0.00000000E+00
  0.00000000E+00  0.00000000E+00  0.00000000E+00
  0.00000000E+00  0.00000000E+00  0.00000000E+00
  0.00000000E+00  0.00000000E+00  0.00000000E+00
  0.00000000E+00  0.00000000E+00  0.00000000E+00
  0.00000000E+00  0.00000000E+00  0.00000000E+00
  0.00000000E+00  0.00000000E+00  0.00000000E+00
  0.00000000E+00  0.00000000E+00  0.00000000E+00
  0.00000000E+00  0.00000000E+00  0.00000000E+00
  0.00000000E+00  0.00000000E+00  0.00000000E+00
  0.00000000E+00  0.00000000E+00  0.00000000E+00
  0.00000000E+00  0.00000000E+00  0.00000000E+00
  0.00000000E+00  0.00000000E+00  0.00000000E+00
  0.00000000E+00  0.00000000E+00  0.00000000E+00
  0.00000000E+00  0.00000000E+00  0.00000000E+00
  0.00000000E+00  0.00000000E+00  0.00000000E+00
  0.00000000E+00  0.00000000E+00  0.00000000E+00
  0.00000000E+00  0.00000000E+00  0.00000000E+00
