Title                                   
   1.00000000000000     
     4.9440799999999996    0.0000000000000000    0.0000000000000000
     0.0000000000000000   17.1295089999999988    0.0000000000000000
     0.0000000000000000    0.0000000000000000   20.0000000000000000
    27     3     1
Selective dynamics
Direct
 -0.0040768264245156  0.1050717188266915  0.2941292712219315   T   T   T
  0.2437563763825835  0.1478317095082563  0.2953276357227299   T   T   T
  0.2408547101483522  0.2319864855225746  0.2993101525058225   T   T   T
 -0.0102809072184430  0.2741979364543343  0.3030626563326747   T   T   T
  0.0080440519259746  0.6013172293613592  0.3015911871658560   T   T   T
  0.2555342157872115  0.7267500406579697  0.2950434191243669   T   T   T
  0.0028890900890250  0.8527415046102775  0.2927168703648970   T   T   T
  0.2510499771441705  0.8951457506869597  0.2925920023343022   T   T   T
  0.2485445072005603  0.9792336472184018  0.2926840072131404   T   T   T
  0.0056042248156574  0.7685294497070790  0.2936867902602741   T   T   T
  0.4950779395051865  0.1055271837545120  0.2934161447301835   T   T   T
  0.7459226209823747  0.1473779312620243  0.2941152642026191   T   T   T
  0.7432926455932173  0.2309703626155623  0.2966671364765233   T   T   T
  0.4976045354887402  0.0214715781317111  0.2925810160089744   T   T   T
  0.7437023260118859  0.3959077567456588  0.3061586084609719   T   T   T
  0.7542438727170878  0.4813927253386318  0.3079436930628234   T   T   T
  0.4922957048041375  0.2734871506071586  0.2978829202337906   T   T   T
  0.5082186655172861  0.6016037582163950  0.2996051125021553   T   T   T
  0.7540705756824075  0.7272860376307873  0.2937145527394406   T   T   T
  0.5004310764021548  0.8529700526984397  0.2925109012326849   T   T   T
  0.7509505252428686  0.8948752490701727  0.2923314317123610   T   T   T
  0.7484998944938362  0.9788821218284360  0.2923946765681885   T   T   T
  0.5026714018989704  0.7687467143861111  0.2934139802068087   T   T   T
  0.7573012802330362  0.6447385409346326  0.2963231760933359   T   T   T
 -0.0018764325273184  0.0211569634121688  0.2929477012486539   T   T   T
  0.0034259159436628  0.5206284872156047  0.3114382022897864   T   T   T
  0.4992914293417001  0.3558536311853934  0.2990145723181123   T   T   T
  0.5088490918756020  0.5225147359971534  0.3053190049197852   T   T   T
 -0.0143141814534242  0.3545810548383933  0.3144291122318893   T   T   T
  0.2588114598964728  0.6429463809424362  0.2986418957521215   T   T   T
  0.2696172324995398  0.4356181106347077  0.3540669047627467   T   T   T
 
  0.00000000E+00  0.00000000E+00  0.00000000E+00
  0.00000000E+00  0.00000000E+00  0.00000000E+00
  0.00000000E+00  0.00000000E+00  0.00000000E+00
  0.00000000E+00  0.00000000E+00  0.00000000E+00
  0.00000000E+00  0.00000000E+00  0.00000000E+00
  0.00000000E+00  0.00000000E+00  0.00000000E+00
  0.00000000E+00  0.00000000E+00  0.00000000E+00
  0.00000000E+00  0.00000000E+00  0.00000000E+00
  0.00000000E+00  0.00000000E+00  0.00000000E+00
  0.00000000E+00  0.00000000E+00  0.00000000E+00
  0.00000000E+00  0.00000000E+00  0.00000000E+00
  0.00000000E+00  0.00000000E+00  0.00000000E+00
  0.00000000E+00  0.00000000E+00  0.00000000E+00
  0.00000000E+00  0.00000000E+00  0.00000000E+00
  0.00000000E+00  0.00000000E+00  0.00000000E+00
  0.00000000E+00  0.00000000E+00  0.00000000E+00
  0.00000000E+00  0.00000000E+00  0.00000000E+00
  0.00000000E+00  0.00000000E+00  0.00000000E+00
  0.00000000E+00  0.00000000E+00  0.00000000E+00
  0.00000000E+00  0.00000000E+00  0.00000000E+00
  0.00000000E+00  0.00000000E+00  0.00000000E+00
  0.00000000E+00  0.00000000E+00  0.00000000E+00
  0.00000000E+00  0.00000000E+00  0.00000000E+00
  0.00000000E+00  0.00000000E+00  0.00000000E+00
  0.00000000E+00  0.00000000E+00  0.00000000E+00
  0.00000000E+00  0.00000000E+00  0.00000000E+00
  0.00000000E+00  0.00000000E+00  0.00000000E+00
  0.00000000E+00  0.00000000E+00  0.00000000E+00
  0.00000000E+00  0.00000000E+00  0.00000000E+00
  0.00000000E+00  0.00000000E+00  0.00000000E+00
  0.00000000E+00  0.00000000E+00  0.00000000E+00
