Title                                   
   1.00000000000000     
     9.8694509999999998    0.0000000000000000    0.0000000000000000
     0.0000000000000000    8.5490480000000009    0.0000000000000000
     0.0000000000000000    0.0000000000000000   20.0000000000000000
    28     3     1
Selective dynamics
Direct
  0.0561347450929118  0.0913496792640446  0.0838604947116493   T   T   T
  0.9306784449593116  0.1747608486544685  0.0867608368180884   T   T   T
  0.0573217824532315  0.9234369339098922  0.0829805309730633   T   T   T
  0.9293066884629216  0.3419579121149866  0.0906078483329086   T   T   T
  0.0555659862979001  0.5893644579481863  0.0866221303810521   T   T   T
  0.9322866304147257  0.6737017076439626  0.0878735338147849   T   T   T
  0.0561894640909961  0.4230345042560096  0.0891886347486736   T   T   T
  0.9321910211443641  0.8410774411005129  0.0850774839647202   T   T   T
  0.3053511923425897  0.0874505997638885  0.0856355807224060   T   T   T
  0.1820824714337067  0.1735019496415318  0.0859738878219668   T   T   T
  0.3078779625802300  0.9214843799873011  0.0865547104728616   T   T   T
  0.1810915961071691  0.3396847650370776  0.0904665360165455   T   T   T
  0.3041954929882591  0.5883578267774050  0.0997483483824617   T   T   T
  0.1812323458985470  0.6705679750963797  0.0876649671925083   T   T   T
  0.1823833576156896  0.8376902702437241  0.0850482684261151   T   T   T
  0.5557870906394293  0.0864850216458637  0.0939051098748335   T   T   T
  0.4299645048869427  0.1686920317670429  0.0917703457928893   T   T   T
  0.4286955745052587  0.3343699908838549  0.1014716126025089   T   T   T
  0.4297932299547224  0.8368267546975614  0.0980391498793337   T   T   T
  0.8067040359394616  0.0908129055509674  0.0870361728463814   T   T   T
  0.6805926705831095  0.1708085172088156  0.0934515851055131   T   T   T
  0.8071237853124894  0.9254130126771285  0.0864813329953358   T   T   T
  0.6783425302552210  0.3359046968397578  0.1029388046419177   T   T   T
  0.8077219979693400  0.5947854318909584  0.0984976657675116   T   T   T
  0.8030678518614593  0.4258777062149941  0.0985875454511023   T   T   T
  0.6844697080408545  0.8415797508882555  0.0962237206191933   T   T   T
  0.4216508364399985  0.6763339437345268  0.1170477508283894   T   T   T
  0.5509915691519718  0.4081637716878921  0.1182843676101380   T   T   T
  0.6929681806030424  0.6857633910367232  0.1117005317653400   T   T   T
  0.5575988563659410  0.9188698486627873  0.0965102340917301   T   T   T
  0.3051633899127853  0.4213981029680688  0.0984430214147814   T   T   T
  0.5651140056954258  0.5907398702054338  0.1812222559333110   T   T   T
 
  0.00000000E+00  0.00000000E+00  0.00000000E+00
  0.00000000E+00  0.00000000E+00  0.00000000E+00
  0.00000000E+00  0.00000000E+00  0.00000000E+00
  0.00000000E+00  0.00000000E+00  0.00000000E+00
  0.00000000E+00  0.00000000E+00  0.00000000E+00
  0.00000000E+00  0.00000000E+00  0.00000000E+00
  0.00000000E+00  0.00000000E+00  0.00000000E+00
  0.00000000E+00  0.00000000E+00  0.00000000E+00
  0.00000000E+00  0.00000000E+00  0.00000000E+00
  0.00000000E+00  0.00000000E+00  0.00000000E+00
  0.00000000E+00  0.00000000E+00  0.00000000E+00
  0.00000000E+00  0.00000000E+00  0.00000000E+00
  0.00000000E+00  0.00000000E+00  0.00000000E+00
  0.00000000E+00  0.00000000E+00  0.00000000E+00
  0.00000000E+00  0.00000000E+00  0.00000000E+00
  0.00000000E+00  0.00000000E+00  0.00000000E+00
  0.00000000E+00  0.00000000E+00  0.00000000E+00
  0.00000000E+00  0.00000000E+00  0.00000000E+00
  0.00000000E+00  0.00000000E+00  0.00000000E+00
  0.00000000E+00  0.00000000E+00  0.00000000E+00
  0.00000000E+00  0.00000000E+00  0.00000000E+00
  0.00000000E+00  0.00000000E+00  0.00000000E+00
  0.00000000E+00  0.00000000E+00  0.00000000E+00
  0.00000000E+00  0.00000000E+00  0.00000000E+00
  0.00000000E+00  0.00000000E+00  0.00000000E+00
  0.00000000E+00  0.00000000E+00  0.00000000E+00
  0.00000000E+00  0.00000000E+00  0.00000000E+00
  0.00000000E+00  0.00000000E+00  0.00000000E+00
  0.00000000E+00  0.00000000E+00  0.00000000E+00
  0.00000000E+00  0.00000000E+00  0.00000000E+00
  0.00000000E+00  0.00000000E+00  0.00000000E+00
  0.00000000E+00  0.00000000E+00  0.00000000E+00
