Title                                   
   1.00000000000000     
     9.8694509999999998    0.0000000000000000    0.0000000000000000
     0.0000000000000000    8.5490480000000009    0.0000000000000000
     0.0000000000000000    0.0000000000000000   20.0000000000000000
    25     5     1
Selective dynamics
Direct
  0.0557480556183876  0.0901019641836102  0.0872035716536703   T   T   T
  0.9316021870635381  0.1719639599199057  0.0887186749820917   T   T   T
  0.0572700234500490  0.9227758242153952  0.0875082190905925   T   T   T
  0.9329631080110086  0.3395302440224773  0.0871762285549581   T   T   T
  0.0568453564571004  0.5898636033636997  0.0828959485863229   T   T   T
  0.9331700350368036  0.6732487516897712  0.0870332822930130   T   T   T
  0.0568177854121888  0.4231018039467470  0.0828979359266442   T   T   T
  0.9322378895353459  0.8401627444571417  0.0887033656591641   T   T   T
  0.3068400043976712  0.0884900426791697  0.0942061342437350   T   T   T
  0.1809188777567498  0.1711045328308652  0.0883447030280492   T   T   T
  0.1802907971747367  0.3383466203748275  0.0864360342523346   T   T   T
  0.3013310995556895  0.5895180449261123  0.0949380477641204   T   T   T
  0.1806983638780129  0.6741002726482583  0.0864716274024995   T   T   T
  0.3016423253624509  0.4224092652836336  0.0952160661814710   T   T   T
  0.1813965620656486  0.8404325078914685  0.0886793413427054   T   T   T
  0.5563754728370164  0.0929846254151650  0.1048517202581497   T   T   T
  0.4281107378557966  0.1744779778708681  0.1033063849403629   T   T   T
  0.5551119132513717  0.9197647016621835  0.1044167707581540   T   T   T
  0.4277579650455290  0.8368780819508317  0.1029431874322044   T   T   T
  0.8051527347899869  0.0899816235406054  0.0939938992885246   T   T   T
  0.6832318332551334  0.1763743735708472  0.1030945423669937   T   T   T
  0.8053254457323055  0.9222290461022831  0.0937530441075058   T   T   T
  0.8117264204947874  0.5902198869049361  0.0958049342588875   T   T   T
  0.8116554136944859  0.4223463905831789  0.0960856739662921   T   T   T
  0.6831140695771376  0.8353835986391591  0.1024535011412428   T   T   T
  0.4197065628230383  0.3381935060359363  0.1110286400071235   T   T   T
  0.4190609205518521  0.6756290484011799  0.1111109731419508   T   T   T
  0.6917697987411169  0.3403673070671797  0.1110115824131120   T   T   T
  0.6919942331022664  0.6724082823323959  0.1101545000817189   T   T   T
  0.3073010122426927  0.9225130341145112  0.0938756328758437   T   T   T
  0.5559689952301022  0.5059733333756550  0.1366508320006191   T   T   T
 
  0.00000000E+00  0.00000000E+00  0.00000000E+00
  0.00000000E+00  0.00000000E+00  0.00000000E+00
  0.00000000E+00  0.00000000E+00  0.00000000E+00
  0.00000000E+00  0.00000000E+00  0.00000000E+00
  0.00000000E+00  0.00000000E+00  0.00000000E+00
  0.00000000E+00  0.00000000E+00  0.00000000E+00
  0.00000000E+00  0.00000000E+00  0.00000000E+00
  0.00000000E+00  0.00000000E+00  0.00000000E+00
  0.00000000E+00  0.00000000E+00  0.00000000E+00
  0.00000000E+00  0.00000000E+00  0.00000000E+00
  0.00000000E+00  0.00000000E+00  0.00000000E+00
  0.00000000E+00  0.00000000E+00  0.00000000E+00
  0.00000000E+00  0.00000000E+00  0.00000000E+00
  0.00000000E+00  0.00000000E+00  0.00000000E+00
  0.00000000E+00  0.00000000E+00  0.00000000E+00
  0.00000000E+00  0.00000000E+00  0.00000000E+00
  0.00000000E+00  0.00000000E+00  0.00000000E+00
  0.00000000E+00  0.00000000E+00  0.00000000E+00
  0.00000000E+00  0.00000000E+00  0.00000000E+00
  0.00000000E+00  0.00000000E+00  0.00000000E+00
  0.00000000E+00  0.00000000E+00  0.00000000E+00
  0.00000000E+00  0.00000000E+00  0.00000000E+00
  0.00000000E+00  0.00000000E+00  0.00000000E+00
  0.00000000E+00  0.00000000E+00  0.00000000E+00
  0.00000000E+00  0.00000000E+00  0.00000000E+00
  0.00000000E+00  0.00000000E+00  0.00000000E+00
  0.00000000E+00  0.00000000E+00  0.00000000E+00
  0.00000000E+00  0.00000000E+00  0.00000000E+00
  0.00000000E+00  0.00000000E+00  0.00000000E+00
  0.00000000E+00  0.00000000E+00  0.00000000E+00
  0.00000000E+00  0.00000000E+00  0.00000000E+00
