Title                                   
   1.00000000000000     
     4.9440799999999996    0.0000000000000000    0.0000000000000000
     0.0000000000000000   17.1295089999999988    0.0000000000000000
     0.0000000000000000    0.0000000000000000   20.0000000000000000
    26     4     1
Selective dynamics
Direct
  0.0011610054233360  0.1058659884547813  0.2978353018534576   T   T   T
  0.2503418899657421  0.1488910109989390  0.2985745921916262   T   T   T
  0.2503230132508870  0.2332970337508052  0.3001284621653497   T   T   T
 -0.0028563600358343  0.2742157826499481  0.3008789984675999   T   T   T
 -0.0029209933061991  0.6007207333323428  0.3012833080829940   T   T   T
  0.2503297493525555  0.7260085834009143  0.2990213833388010   T   T   T
  0.0008327326084943  0.8530992172257275  0.2971512730573387   T   T   T
  0.2503519221766443  0.8954968014781246  0.2968250254297008   T   T   T
  0.2503461898404002  0.9793970050369570  0.2966994257470512   T   T   T
  0.0011818419960237  0.7690459518016407  0.2982751668893264   T   T   T
  0.4995438483028903  0.1058645089344247  0.2978236595600320   T   T   T
  0.7503662216446866  0.1474870811411683  0.2984546608125779   T   T   T
  0.7503356047602201  0.2311061070714616  0.2999720264947872   T   T   T
  0.4998749449907724  0.0218232787384818  0.2968949164346070   T   T   T
  0.7502885724515421  0.3931233472189870  0.3024907326599417   T   T   T
  0.7502735727648794  0.4817919858234064  0.3026025989689506   T   T   T
  0.5034893165892417  0.2742172220988854  0.3008117418075065   T   T   T
  0.5035147916487975  0.6007174778279574  0.3012242865792457   T   T   T
  0.7503462462367271  0.7274402610018721  0.2989017293255217   T   T   T
  0.4998943768019088  0.8530949924053948  0.2971393294560156   T   T   T
  0.7503406021364002  0.8953460435179598  0.2967597038110011   T   T   T
  0.7503312691642733  0.9795801793876165  0.2966354260830167   T   T   T
  0.4994967425552488  0.7690489671381404  0.2982596389002100   T   T   T
  0.7503217535178742  0.6438267792646923  0.3004225061785351   T   T   T
  0.2503080122015435  0.6416139124448279  0.3005683562606249   T   T   T
  0.0008436470309964  0.0218148723663917  0.2969044879053118   T   T   T
  0.5150000545397910  0.5204062474823204  0.3023791664190468   T   T   T
  0.9855224054515621  0.5204057062286550  0.3025221873174658   T   T   T
  0.5149627358212743  0.3545281890817093  0.3021307894473430   T   T   T
 -0.0144052374125069  0.3545257318988540  0.3022942724164711   T   T   T
  0.2502665275298285  0.4375410007966083  0.3031948459384951   T   T   T
 
  0.00000000E+00  0.00000000E+00  0.00000000E+00
  0.00000000E+00  0.00000000E+00  0.00000000E+00
  0.00000000E+00  0.00000000E+00  0.00000000E+00
  0.00000000E+00  0.00000000E+00  0.00000000E+00
  0.00000000E+00  0.00000000E+00  0.00000000E+00
  0.00000000E+00  0.00000000E+00  0.00000000E+00
  0.00000000E+00  0.00000000E+00  0.00000000E+00
  0.00000000E+00  0.00000000E+00  0.00000000E+00
  0.00000000E+00  0.00000000E+00  0.00000000E+00
  0.00000000E+00  0.00000000E+00  0.00000000E+00
  0.00000000E+00  0.00000000E+00  0.00000000E+00
  0.00000000E+00  0.00000000E+00  0.00000000E+00
  0.00000000E+00  0.00000000E+00  0.00000000E+00
  0.00000000E+00  0.00000000E+00  0.00000000E+00
  0.00000000E+00  0.00000000E+00  0.00000000E+00
  0.00000000E+00  0.00000000E+00  0.00000000E+00
  0.00000000E+00  0.00000000E+00  0.00000000E+00
  0.00000000E+00  0.00000000E+00  0.00000000E+00
  0.00000000E+00  0.00000000E+00  0.00000000E+00
  0.00000000E+00  0.00000000E+00  0.00000000E+00
  0.00000000E+00  0.00000000E+00  0.00000000E+00
  0.00000000E+00  0.00000000E+00  0.00000000E+00
  0.00000000E+00  0.00000000E+00  0.00000000E+00
  0.00000000E+00  0.00000000E+00  0.00000000E+00
  0.00000000E+00  0.00000000E+00  0.00000000E+00
  0.00000000E+00  0.00000000E+00  0.00000000E+00
  0.00000000E+00  0.00000000E+00  0.00000000E+00
  0.00000000E+00  0.00000000E+00  0.00000000E+00
  0.00000000E+00  0.00000000E+00  0.00000000E+00
  0.00000000E+00  0.00000000E+00  0.00000000E+00
  0.00000000E+00  0.00000000E+00  0.00000000E+00
