Title                                   
   1.00000000000000     
     8.5490480000000009    0.0000000000000000    0.0000000000000000
     0.0000000000000000    8.5490480000000009    0.0000000000000000
     0.0000000000000000    0.0000000000000000   20.0000000000000000
    21     3     1
Selective dynamics
Direct
  0.9062118300200342  0.2072421552373228  0.0942530092448009   T   T   T
  0.9091785119648654  0.5045347748392337  0.0968225111167944   T   T   T
  0.9135663735559267  0.8032075366083562  0.0967555679689793   T   T   T
  0.1951297724832182  0.0808209803033774  0.0968039626058679   T   T   T
  0.0727659906996648  0.2006049098514547  0.0964757656493530   T   T   T
  0.1607169535338604  0.6465047241515400  0.0942215878583656   T   T   T
  0.0781885119003957  0.5000173345910872  0.0968588505862158   T   T   T
  0.1557603736231929  0.3494219886139107  0.0994551350021174   T   T   T
  0.0809562594185606  0.7968591302189095  0.0947268002420352   T   T   T
  0.4912117120357976  0.0867137939084299  0.0967362045947350   T   T   T
  0.3405541777720005  0.1624580051845470  0.0997753602302073   T   T   T
  0.4938455995233085  0.9172329570812596  0.0971518234672318   T   T   T
  0.3485058607846520  0.8347524398426489  0.0942094966771228   T   T   T
  0.7855425838653027  0.0880736547969009  0.0940829658179774   T   T   T
  0.6353697617380059  0.1688090341692653  0.0933690693509717   T   T   T
  0.7903266910950404  0.9221758037392087  0.0965357922965974   T   T   T
  0.8321640718438954  0.6543422250701998  0.0996926665367582   T   T   T
  0.8265187335767237  0.3588124843077563  0.0937564106650240   T   T   T
  0.6432538494290607  0.8384618457281250  0.0996721845812372   T   T   T
  0.3265078854224008  0.6702334157624801  0.0926419166657208   T   T   T
  0.6598532744237140  0.3366497635781152  0.0918772459717687   T   T   T
  0.3165516170409606  0.3252008939620326  0.1050752893311389   T   T   T
  0.6693275942707831  0.6769967697953266  0.1053457269905960   T   T   T
  0.1995722410905804  0.9144376004418374  0.0943737562987073   T   T   T
  0.4938317688880391  0.5002257782166880  0.1230359002496558   T   T   T
 
  0.00000000E+00  0.00000000E+00  0.00000000E+00
  0.00000000E+00  0.00000000E+00  0.00000000E+00
  0.00000000E+00  0.00000000E+00  0.00000000E+00
  0.00000000E+00  0.00000000E+00  0.00000000E+00
  0.00000000E+00  0.00000000E+00  0.00000000E+00
  0.00000000E+00  0.00000000E+00  0.00000000E+00
  0.00000000E+00  0.00000000E+00  0.00000000E+00
  0.00000000E+00  0.00000000E+00  0.00000000E+00
  0.00000000E+00  0.00000000E+00  0.00000000E+00
  0.00000000E+00  0.00000000E+00  0.00000000E+00
  0.00000000E+00  0.00000000E+00  0.00000000E+00
  0.00000000E+00  0.00000000E+00  0.00000000E+00
  0.00000000E+00  0.00000000E+00  0.00000000E+00
  0.00000000E+00  0.00000000E+00  0.00000000E+00
  0.00000000E+00  0.00000000E+00  0.00000000E+00
  0.00000000E+00  0.00000000E+00  0.00000000E+00
  0.00000000E+00  0.00000000E+00  0.00000000E+00
  0.00000000E+00  0.00000000E+00  0.00000000E+00
  0.00000000E+00  0.00000000E+00  0.00000000E+00
  0.00000000E+00  0.00000000E+00  0.00000000E+00
  0.00000000E+00  0.00000000E+00  0.00000000E+00
  0.00000000E+00  0.00000000E+00  0.00000000E+00
  0.00000000E+00  0.00000000E+00  0.00000000E+00
  0.00000000E+00  0.00000000E+00  0.00000000E+00
  0.00000000E+00  0.00000000E+00  0.00000000E+00
