Title                                   
   1.00000000000000     
     4.9440799999999996    0.0000000000000000    0.0000000000000000
     0.0000000000000000    8.5647549999999999    0.0000000000000000
     0.0000000000000000    0.0000000000000000   20.0000000000000000
    13     2     1
Selective dynamics
Direct
 -0.0007303239951480  0.2899995655202514  0.1022720276408313   T   T   T
  0.2500000000000000  0.0451922846111895  0.0904320508358562   T   T   T
  0.0076365168572030  0.7947956244804907  0.0852956404959709   T   T   T
  0.0006312345944984  0.9621304460576575  0.0870619728299277   T   T   T
  0.7500000000000000  0.2069499242696630  0.0930712714995534   T   T   T
  0.5007303239951476  0.2899995655202514  0.1022720276408313   T   T   T
  0.7500000000000000  0.0432575459933101  0.0880403775226767   T   T   T
  0.7500000000000000  0.7077099775516865  0.0912796466193394   T   T   T
  0.4923634831427969  0.7947956244804907  0.0852956404959709   T   T   T
  0.7500000000000000  0.5413757624154799  0.1060209414747636   T   T   T
  0.4993687654055015  0.9621304460576575  0.0870619728299277   T   T   T
  0.5076319853239714  0.4489302980258806  0.1158153350689653   T   T   T
 -0.0076319853239713  0.4489302980258806  0.1158153350689653   T   T   T
  0.2500000000000000  0.7189894209058727  0.0823379707971759   T   T   T
  0.2500000000000000  0.2063163836012660  0.0992694508479394   T   T   T
  0.2500000000000000  0.5384968324829729  0.1811703383313138   T   T   T
 
  0.00000000E+00  0.00000000E+00  0.00000000E+00
  0.00000000E+00  0.00000000E+00  0.00000000E+00
  0.00000000E+00  0.00000000E+00  0.00000000E+00
  0.00000000E+00  0.00000000E+00  0.00000000E+00
  0.00000000E+00  0.00000000E+00  0.00000000E+00
  0.00000000E+00  0.00000000E+00  0.00000000E+00
  0.00000000E+00  0.00000000E+00  0.00000000E+00
  0.00000000E+00  0.00000000E+00  0.00000000E+00
  0.00000000E+00  0.00000000E+00  0.00000000E+00
  0.00000000E+00  0.00000000E+00  0.00000000E+00
  0.00000000E+00  0.00000000E+00  0.00000000E+00
  0.00000000E+00  0.00000000E+00  0.00000000E+00
  0.00000000E+00  0.00000000E+00  0.00000000E+00
  0.00000000E+00  0.00000000E+00  0.00000000E+00
  0.00000000E+00  0.00000000E+00  0.00000000E+00
  0.00000000E+00  0.00000000E+00  0.00000000E+00
