Title                                   
   1.00000000000000     
     9.8694509999999998    0.0000000000000000    0.0000000000000000
     0.0000000000000000    8.5490480000000009    0.0000000000000000
     0.0000000000000000    0.0000000000000000   20.0000000000000000
    30     1     1
Selective dynamics
Direct
  0.0558864042498781  0.0902184083658512  0.0808209977358605   T   T   T
  0.9310065082788044  0.1733883729799962  0.0820527117314950   T   T   T
  0.0569778612599822  0.9235713853328308  0.0822949094398038   T   T   T
  0.9308891555497274  0.3404223776787562  0.0848115779675692   T   T   T
  0.0571028304893299  0.5896199671234379  0.0835116039603502   T   T   T
  0.9325620891987036  0.6725463101784874  0.0873354268689355   T   T   T
  0.0568867355379071  0.4230457418600680  0.0831668470526711   T   T   T
  0.9322939846156273  0.8397064737355496  0.0851520066320715   T   T   T
  0.3050890837530451  0.0879698396102721  0.0863045273676227   T   T   T
  0.1812695862641459  0.1718063485003603  0.0827476838410024   T   T   T
  0.1825328025719035  0.3393601086038086  0.0848556688970663   T   T   T
  0.3028489206607772  0.5897283795293660  0.1002506779948978   T   T   T
  0.1820774186694915  0.6733793149376659  0.0873310540538414   T   T   T
  0.3060937837385269  0.4220167858303086  0.0963815801711926   T   T   T
  0.1818902456126820  0.8406880996392583  0.0858545863966725   T   T   T
  0.5561275213746210  0.0873830158037633  0.0920011135993947   T   T   T
  0.4300202475009079  0.1697408586854512  0.0919451923653816   T   T   T
  0.5548396820345812  0.9225089401625328  0.0982128777315570   T   T   T
  0.4291828759883080  0.3338096895893259  0.1021408092340488   T   T   T
  0.4164463138644637  0.6820509849132803  0.1218230994036490   T   T   T
  0.5558557738450196  0.4052256085210938  0.1213027281500604   T   T   T
  0.4261092417266940  0.8432316157349616  0.1025451061207013   T   T   T
  0.8067664484061396  0.0894253887690415  0.0844788604006587   T   T   T
  0.6816926324714864  0.1713218081860831  0.0906471682595772   T   T   T
  0.8066810211088795  0.9232686159708927  0.0875067602964914   T   T   T
  0.6825262468349523  0.3349952961745691  0.1015610100089311   T   T   T
  0.8107126406640076  0.5900733334236242  0.0997759080372562   T   T   T
  0.6945349358089475  0.6809519017998985  0.1190625768502579   T   T   T
  0.8066505873354708  0.4225771500533583  0.0961722658710703   T   T   T
  0.6831729447253896  0.8418346588307034  0.1000872641391445   T   T   T
  0.3051554873445629  0.9237236277020164  0.0894212409040191   T   T   T
  0.5577569885150401  0.5906555917733974  0.1741191585167827   T   T   T
 
  0.00000000E+00  0.00000000E+00  0.00000000E+00
  0.00000000E+00  0.00000000E+00  0.00000000E+00
  0.00000000E+00  0.00000000E+00  0.00000000E+00
  0.00000000E+00  0.00000000E+00  0.00000000E+00
  0.00000000E+00  0.00000000E+00  0.00000000E+00
  0.00000000E+00  0.00000000E+00  0.00000000E+00
  0.00000000E+00  0.00000000E+00  0.00000000E+00
  0.00000000E+00  0.00000000E+00  0.00000000E+00
  0.00000000E+00  0.00000000E+00  0.00000000E+00
  0.00000000E+00  0.00000000E+00  0.00000000E+00
  0.00000000E+00  0.00000000E+00  0.00000000E+00
  0.00000000E+00  0.00000000E+00  0.00000000E+00
  0.00000000E+00  0.00000000E+00  0.00000000E+00
  0.00000000E+00  0.00000000E+00  0.00000000E+00
  0.00000000E+00  0.00000000E+00  0.00000000E+00
  0.00000000E+00  0.00000000E+00  0.00000000E+00
  0.00000000E+00  0.00000000E+00  0.00000000E+00
  0.00000000E+00  0.00000000E+00  0.00000000E+00
  0.00000000E+00  0.00000000E+00  0.00000000E+00
  0.00000000E+00  0.00000000E+00  0.00000000E+00
  0.00000000E+00  0.00000000E+00  0.00000000E+00
  0.00000000E+00  0.00000000E+00  0.00000000E+00
  0.00000000E+00  0.00000000E+00  0.00000000E+00
  0.00000000E+00  0.00000000E+00  0.00000000E+00
  0.00000000E+00  0.00000000E+00  0.00000000E+00
  0.00000000E+00  0.00000000E+00  0.00000000E+00
  0.00000000E+00  0.00000000E+00  0.00000000E+00
  0.00000000E+00  0.00000000E+00  0.00000000E+00
  0.00000000E+00  0.00000000E+00  0.00000000E+00
  0.00000000E+00  0.00000000E+00  0.00000000E+00
  0.00000000E+00  0.00000000E+00  0.00000000E+00
  0.00000000E+00  0.00000000E+00  0.00000000E+00
