Title                                   
   1.00000000000000     
     4.9440799999999996    0.0000000000000000    0.0000000000000000
     0.0000000000000000    8.5647549999999999    0.0000000000000000
     0.0000000000000000    0.0000000000000000   20.0000000000000000
    15     1
Selective dynamics
Direct
  0.2500000000000000  0.2068560896632498  0.0890708753206637   T   T   T
 -0.0021844923195049  0.2876299681083724  0.0941414853570674   T   T   T
  0.2500000000000000  0.0415514569208936  0.0825240450487185   T   T   T
 -0.0018985130705307  0.7968721596774199  0.0988837052050610   T   T   T
 -0.0012320085430746  0.9588055814229061  0.0834998007893397   T   T   T
  0.7500000000000000  0.2067198349303131  0.0838595442865802   T   T   T
  0.5021844923195050  0.2876299681083724  0.0941414853570674   T   T   T
  0.7500000000000000  0.0414105040354075  0.0790094193147341   T   T   T
  0.7500000000000000  0.7099044662641374  0.1039205070341407   T   T   T
  0.5018985130705306  0.7968721596774199  0.0988837052050610   T   T   T
  0.7500000000000000  0.5416289608913856  0.1099572969832301   T   T   T
  0.5012320085430747  0.9588055814229061  0.0834998007893397   T   T   T
  0.5108705834354639  0.4466344591578999  0.1147928550773957   T   T   T
 -0.0108705834354635  0.4466344591578999  0.1147928550773957   T   T   T
  0.2500000000000000  0.7283959392838597  0.1168174932397458   T   T   T
  0.2500000000000000  0.5436484112775565  0.1747171259144670   T   T   T
 
  0.00000000E+00  0.00000000E+00  0.00000000E+00
  0.00000000E+00  0.00000000E+00  0.00000000E+00
  0.00000000E+00  0.00000000E+00  0.00000000E+00
  0.00000000E+00  0.00000000E+00  0.00000000E+00
  0.00000000E+00  0.00000000E+00  0.00000000E+00
  0.00000000E+00  0.00000000E+00  0.00000000E+00
  0.00000000E+00  0.00000000E+00  0.00000000E+00
  0.00000000E+00  0.00000000E+00  0.00000000E+00
  0.00000000E+00  0.00000000E+00  0.00000000E+00
  0.00000000E+00  0.00000000E+00  0.00000000E+00
  0.00000000E+00  0.00000000E+00  0.00000000E+00
  0.00000000E+00  0.00000000E+00  0.00000000E+00
  0.00000000E+00  0.00000000E+00  0.00000000E+00
  0.00000000E+00  0.00000000E+00  0.00000000E+00
  0.00000000E+00  0.00000000E+00  0.00000000E+00
  0.00000000E+00  0.00000000E+00  0.00000000E+00
