Title                                   
   1.00000000000000     
     9.8694509999999998    0.0000000000000000    0.0000000000000000
     0.0000000000000000    8.5490480000000009    0.0000000000000000
     0.0000000000000000    0.0000000000000000   20.0000000000000000
    28     3     1
Selective dynamics
Direct
  0.0562020117346902  0.0911314622746985  0.0858984237023612   T   T   T
  0.9304880940749153  0.1741162130275998  0.0884757967462926   T   T   T
  0.0562037892496895  0.9228174730737293  0.0842438061836620   T   T   T
  0.9304128484561544  0.3400723273493471  0.0937483360193045   T   T   T
  0.0562502658124539  0.5898060221955610  0.0901388241504352   T   T   T
  0.9313605450798518  0.6711214644904230  0.0892635289272440   T   T   T
  0.0562216078778098  0.4226227264282661  0.0934680395899483   T   T   T
  0.9306167641968628  0.8385975635127869  0.0857302148860651   T   T   T
  0.3054188929032237  0.0889505219167219  0.0869191275314044   T   T   T
  0.1819007678832119  0.1741176774962856  0.0886010928114925   T   T   T
  0.3066264008142736  0.9238914270974580  0.0865261709770768   T   T   T
  0.1819934661435084  0.3400817133515271  0.0940208769962451   T   T   T
  0.3065039664815586  0.5894302895091863  0.0996570873110544   T   T   T
  0.1811664758196813  0.6711489706876484  0.0897635505915132   T   T   T
  0.1817876318838012  0.8386074744854961  0.0860273733923668   T   T   T
  0.5561925746186736  0.0881465506101347  0.0928309966001049   T   T   T
  0.4306253271462554  0.1707964031384133  0.0921578116024313   T   T   T
  0.4320004472304629  0.3351908205536931  0.1027611891602589   T   T   T
  0.4305336367140228  0.8408217643204345  0.0957024740698369   T   T   T
  0.8069828141918559  0.0889515344675896  0.0868055989454487   T   T   T
  0.6817970803517727  0.1707705696300496  0.0920612325691246   T   T   T
  0.8057789054699578  0.9239234035464627  0.0862670560383794   T   T   T
  0.6804602319791279  0.3351663344404351  0.1025364899294580   T   T   T
  0.8059424725514450  0.5893567056321692  0.0989010668780548   T   T   T
  0.6818305984521228  0.8408112692884958  0.0952860934513282   T   T   T
  0.4233497543139744  0.6808438929972767  0.1114306193401728   T   T   T
  0.5563023338321995  0.4063347035663610  0.1193753972302868   T   T   T
  0.6891777172812544  0.6807247941084534  0.1107016951473439   T   T   T
  0.5562023284793217  0.9229410130909177  0.0947257834353059   T   T   T
  0.3069350130538769  0.4220596520443545  0.1003045538574061   T   T   T
  0.8055103323826895  0.4220358595004770  0.0997938274604816   T   T   T
  0.5568639035393087  0.5948574021675486  0.1615508644681267   T   T   T
 
  0.00000000E+00  0.00000000E+00  0.00000000E+00
  0.00000000E+00  0.00000000E+00  0.00000000E+00
  0.00000000E+00  0.00000000E+00  0.00000000E+00
  0.00000000E+00  0.00000000E+00  0.00000000E+00
  0.00000000E+00  0.00000000E+00  0.00000000E+00
  0.00000000E+00  0.00000000E+00  0.00000000E+00
  0.00000000E+00  0.00000000E+00  0.00000000E+00
  0.00000000E+00  0.00000000E+00  0.00000000E+00
  0.00000000E+00  0.00000000E+00  0.00000000E+00
  0.00000000E+00  0.00000000E+00  0.00000000E+00
  0.00000000E+00  0.00000000E+00  0.00000000E+00
  0.00000000E+00  0.00000000E+00  0.00000000E+00
  0.00000000E+00  0.00000000E+00  0.00000000E+00
  0.00000000E+00  0.00000000E+00  0.00000000E+00
  0.00000000E+00  0.00000000E+00  0.00000000E+00
  0.00000000E+00  0.00000000E+00  0.00000000E+00
  0.00000000E+00  0.00000000E+00  0.00000000E+00
  0.00000000E+00  0.00000000E+00  0.00000000E+00
  0.00000000E+00  0.00000000E+00  0.00000000E+00
  0.00000000E+00  0.00000000E+00  0.00000000E+00
  0.00000000E+00  0.00000000E+00  0.00000000E+00
  0.00000000E+00  0.00000000E+00  0.00000000E+00
  0.00000000E+00  0.00000000E+00  0.00000000E+00
  0.00000000E+00  0.00000000E+00  0.00000000E+00
  0.00000000E+00  0.00000000E+00  0.00000000E+00
  0.00000000E+00  0.00000000E+00  0.00000000E+00
  0.00000000E+00  0.00000000E+00  0.00000000E+00
  0.00000000E+00  0.00000000E+00  0.00000000E+00
  0.00000000E+00  0.00000000E+00  0.00000000E+00
  0.00000000E+00  0.00000000E+00  0.00000000E+00
  0.00000000E+00  0.00000000E+00  0.00000000E+00
  0.00000000E+00  0.00000000E+00  0.00000000E+00
