Title                                   
   1.00000000000000     
     9.8694509999999998    0.0000000000000000    0.0000000000000000
     0.0000000000000000    8.5490480000000009    0.0000000000000000
     0.0000000000000000    0.0000000000000000   20.0000000000000000
    25     5     1
Selective dynamics
Direct
  0.0560428934087613  0.0892595578599669  0.0852868423850145   T   T   T
  0.9312618893002491  0.1722567776225738  0.0896403148472239   T   T   T
  0.0575228053327435  0.9213900889464726  0.0860733814334669   T   T   T
  0.9330508396414280  0.3396509368602446  0.0923286846431104   T   T   T
  0.0566924481575794  0.5905567945663709  0.0869307927969337   T   T   T
  0.0566539213854147  0.4237573472557639  0.0860347390181052   T   T   T
  0.9322533660431424  0.8380145039523982  0.0906679784673969   T   T   T
  0.3081310949456452  0.0884985793366938  0.0852613467516495   T   T   T
  0.1815735318009654  0.1724252950219787  0.0834210415158079   T   T   T
  0.1811761935942887  0.3393556601030755  0.0827886988585133   T   T   T
  0.3066862109556125  0.5898514982794814  0.0840108064831613   T   T   T
  0.1808074651063392  0.6732427868280502  0.0843639144976223   T   T   T
  0.3077299088845272  0.4207939681229418  0.0832389950038988   T   T   T
  0.1823921563791887  0.8394782200878882  0.0847328206589538   T   T   T
  0.4302099897162219  0.1739336435658928  0.0900886155829106   T   T   T
  0.5542807692867067  0.9222612488911492  0.0992410005529686   T   T   T
  0.4295036892328181  0.8379366601290574  0.0914444781149079   T   T   T
  0.8058497193149907  0.0887334604265934  0.0932498209914240   T   T   T
  0.6825747956352411  0.1762398534930894  0.1028007717488525   T   T   T
  0.8068845576908026  0.9209920771171914  0.0940126575306952   T   T   T
  0.6884890215757572  0.3376523929906949  0.1169331566951027   T   T   T
  0.8115481152269890  0.5927072368263744  0.1073628972266842   T   T   T
  0.6907270495487031  0.6749469946792865  0.1176757565540001   T   T   T
  0.8118501330511977  0.4206297096403307  0.1065373515927561   T   T   T
  0.6816458845747774  0.8383415489601899  0.1039489909612402   T   T   T
  0.9338582658210131  0.6722003474388052  0.0930662954017692   T   T   T
  0.5553716849727339  0.0933432219559144  0.0983050326088126   T   T   T
  0.4277335040362514  0.3349590216750057  0.0887743670654865   T   T   T
  0.4256938698285000  0.6783456846588140  0.0898760034182353   T   T   T
  0.3062499869993983  0.9223124696978211  0.0852459005446218   T   T   T
  0.5286892385520292  0.5068074130098943  0.1576215460487225   T   T   T
 
  0.00000000E+00  0.00000000E+00  0.00000000E+00
  0.00000000E+00  0.00000000E+00  0.00000000E+00
  0.00000000E+00  0.00000000E+00  0.00000000E+00
  0.00000000E+00  0.00000000E+00  0.00000000E+00
  0.00000000E+00  0.00000000E+00  0.00000000E+00
  0.00000000E+00  0.00000000E+00  0.00000000E+00
  0.00000000E+00  0.00000000E+00  0.00000000E+00
  0.00000000E+00  0.00000000E+00  0.00000000E+00
  0.00000000E+00  0.00000000E+00  0.00000000E+00
  0.00000000E+00  0.00000000E+00  0.00000000E+00
  0.00000000E+00  0.00000000E+00  0.00000000E+00
  0.00000000E+00  0.00000000E+00  0.00000000E+00
  0.00000000E+00  0.00000000E+00  0.00000000E+00
  0.00000000E+00  0.00000000E+00  0.00000000E+00
  0.00000000E+00  0.00000000E+00  0.00000000E+00
  0.00000000E+00  0.00000000E+00  0.00000000E+00
  0.00000000E+00  0.00000000E+00  0.00000000E+00
  0.00000000E+00  0.00000000E+00  0.00000000E+00
  0.00000000E+00  0.00000000E+00  0.00000000E+00
  0.00000000E+00  0.00000000E+00  0.00000000E+00
  0.00000000E+00  0.00000000E+00  0.00000000E+00
  0.00000000E+00  0.00000000E+00  0.00000000E+00
  0.00000000E+00  0.00000000E+00  0.00000000E+00
  0.00000000E+00  0.00000000E+00  0.00000000E+00
  0.00000000E+00  0.00000000E+00  0.00000000E+00
  0.00000000E+00  0.00000000E+00  0.00000000E+00
  0.00000000E+00  0.00000000E+00  0.00000000E+00
  0.00000000E+00  0.00000000E+00  0.00000000E+00
  0.00000000E+00  0.00000000E+00  0.00000000E+00
  0.00000000E+00  0.00000000E+00  0.00000000E+00
  0.00000000E+00  0.00000000E+00  0.00000000E+00
