Title                                   
   1.00000000000000     
     4.9440799999999996    0.0000000000000000    0.0000000000000000
     0.0000000000000000   17.1295089999999988    0.0000000000000000
     0.0000000000000000    0.0000000000000000   20.0000000000000000
    27     3     1
Selective dynamics
Direct
 -0.0011521633209686  0.1048330769029938  0.2976891855662024   T   T   T
  0.2471635939100315  0.1476103983799241  0.2984388415448009   T   T   T
  0.2464691379416389  0.2316217393123272  0.3002721314919579   T   T   T
 -0.0049212666947648  0.2742333253523355  0.3011208123047661   T   T   T
  0.0029922589085294  0.6028641159455113  0.2991693959300310   T   T   T
  0.2536584240918445  0.7269211794494854  0.2985909701708753   T   T   T
  0.0024589372798767  0.8528895793258020  0.2969423701155961   T   T   T
  0.2508835373545043  0.8952300299433785  0.2968479337381004   T   T   T
  0.2499048877654390  0.9791492559650248  0.2968704585685562   T   T   T
  0.0037111818615821  0.7685672416102350  0.2977003608996425   T   T   T
  0.4982645959464311  0.1053272684883743  0.2976032310028903   T   T   T
  0.7493099917897619  0.1467932492113382  0.2979126761815155   T   T   T
  0.7479141820602017  0.2306338346026037  0.2991272731106259   T   T   T
  0.4993239288774661  0.0212401834420003  0.2969679244216235   T   T   T
  0.7469943148119808  0.3947720460722900  0.3017718231827174   T   T   T
  0.7535045299017987  0.4819877332217961  0.3015615155565849   T   T   T
  0.4982248796888258  0.2723798326884422  0.3002232829148008   T   T   T
  0.5052737248759338  0.6012442030799173  0.3015238212028268   T   T   T
  0.7513584770332669  0.7280728065923574  0.2980188177092448   T   T   T
  0.4999374047465612  0.8532388307476968  0.2970025190338028   T   T   T
  0.7508751230729626  0.8947582489625534  0.2967162128101023   T   T   T
  0.7497765814280568  0.9789264376984903  0.2967285882489188   T   T   T
  0.5007644902803613  0.7690146403075907  0.2978434944054201   T   T   T
  0.7532976562029347  0.6450036518727865  0.2990118621287612   T   T   T
 -0.0002652705324332  0.0209691711880077  0.2969982192292409   T   T   T
  0.9959044468169161  0.5213156475125538  0.2989874613147426   T   T   T
  0.5057933871555038  0.3548803199313385  0.3017609142158401   T   T   T
  0.5091532816970401  0.5213540406393335  0.3057237201766785   T   T   T
 -0.0108649448318337  0.3551470951883554  0.3037837680915025   T   T   T
  0.2551865859043948  0.6430358417608565  0.3001347210111205   T   T   T
  0.2491111039761580  0.4373269746042950  0.3120156937204627   T   T   T
 
  0.00000000E+00  0.00000000E+00  0.00000000E+00
  0.00000000E+00  0.00000000E+00  0.00000000E+00
  0.00000000E+00  0.00000000E+00  0.00000000E+00
  0.00000000E+00  0.00000000E+00  0.00000000E+00
  0.00000000E+00  0.00000000E+00  0.00000000E+00
  0.00000000E+00  0.00000000E+00  0.00000000E+00
  0.00000000E+00  0.00000000E+00  0.00000000E+00
  0.00000000E+00  0.00000000E+00  0.00000000E+00
  0.00000000E+00  0.00000000E+00  0.00000000E+00
  0.00000000E+00  0.00000000E+00  0.00000000E+00
  0.00000000E+00  0.00000000E+00  0.00000000E+00
  0.00000000E+00  0.00000000E+00  0.00000000E+00
  0.00000000E+00  0.00000000E+00  0.00000000E+00
  0.00000000E+00  0.00000000E+00  0.00000000E+00
  0.00000000E+00  0.00000000E+00  0.00000000E+00
  0.00000000E+00  0.00000000E+00  0.00000000E+00
  0.00000000E+00  0.00000000E+00  0.00000000E+00
  0.00000000E+00  0.00000000E+00  0.00000000E+00
  0.00000000E+00  0.00000000E+00  0.00000000E+00
  0.00000000E+00  0.00000000E+00  0.00000000E+00
  0.00000000E+00  0.00000000E+00  0.00000000E+00
  0.00000000E+00  0.00000000E+00  0.00000000E+00
  0.00000000E+00  0.00000000E+00  0.00000000E+00
  0.00000000E+00  0.00000000E+00  0.00000000E+00
  0.00000000E+00  0.00000000E+00  0.00000000E+00
  0.00000000E+00  0.00000000E+00  0.00000000E+00
  0.00000000E+00  0.00000000E+00  0.00000000E+00
  0.00000000E+00  0.00000000E+00  0.00000000E+00
  0.00000000E+00  0.00000000E+00  0.00000000E+00
  0.00000000E+00  0.00000000E+00  0.00000000E+00
  0.00000000E+00  0.00000000E+00  0.00000000E+00
