Title                                   
   1.00000000000000     
     9.8694509999999998    0.0000000000000000    0.0000000000000000
     0.0000000000000000    8.5490480000000009    0.0000000000000000
     0.0000000000000000    0.0000000000000000   20.0000000000000000
    26     5     1
Selective dynamics
Direct
  0.0559673400963133  0.0923358160136483  0.0847520350361814   T   T   T
  0.9298860096637724  0.1753774338575007  0.0872090180353496   T   T   T
  0.0567109358303855  0.9237994554931482  0.0836421301438933   T   T   T
  0.9291915151269314  0.3416682678183498  0.0913847675028017   T   T   T
  0.0557287848618878  0.5902689865210516  0.0857544477707621   T   T   T
  0.9311981982064126  0.6724341295489201  0.0865150102280060   T   T   T
  0.0554361824897178  0.4232712985326219  0.0901304169603397   T   T   T
  0.9314935885973493  0.8402825754899828  0.0856239903906857   T   T   T
  0.3055709954077773  0.0889206344820308  0.0862924880614660   T   T   T
  0.1821084372293932  0.1742806083062083  0.0867487643513833   T   T   T
  0.3075280693004013  0.9232460961619942  0.0873481323429564   T   T   T
  0.1821588354371954  0.3402406058146665  0.0913261957259936   T   T   T
  0.3046817200979228  0.5900292955917377  0.0988579388416431   T   T   T
  0.1809504997945956  0.6710371608679090  0.0872778296322613   T   T   T
  0.1820222321702962  0.8392534719296081  0.0852679123201212   T   T   T
  0.5567712184290069  0.0852900852999745  0.0953796359657660   T   T   T
  0.4310591516156553  0.1693927323509348  0.0926797802177420   T   T   T
  0.4323339124532954  0.3334457846981257  0.1003395275574078   T   T   T
  0.4296646992644545  0.8397572819922696  0.0990533122756709   T   T   T
  0.8068178583096089  0.0897809147482498  0.0867510024488671   T   T   T
  0.6810106159923148  0.1707964864484437  0.0923358238976216   T   T   T
  0.8063646830370900  0.9244963082685242  0.0878678152898591   T   T   T
  0.6778418129527777  0.3346561287516891  0.0989405101513706   T   T   T
  0.8063079867131583  0.5938238195178336  0.0960949289396127   T   T   T
  0.6846183168560990  0.8402751549621674  0.0982650684619672   T   T   T
  0.4199151665168550  0.6797221369988623  0.1192633750526669   T   T   T
  0.5551694687984670  0.4038282706600526  0.1181928076844479   T   T   T
  0.6950275548247722  0.6826488198621288  0.1157555637464194   T   T   T
  0.5574618633820442  0.9196018398493510  0.0987398224076826   T   T   T
  0.3080075346925123  0.4219576271358972  0.0976697901656808   T   T   T
  0.8013662076890448  0.4252447030771420  0.0965494056406103   T   T   T
  0.5592676041624967  0.5890820689489763  0.1736657527527789   T   T   T
 
  0.00000000E+00  0.00000000E+00  0.00000000E+00
  0.00000000E+00  0.00000000E+00  0.00000000E+00
  0.00000000E+00  0.00000000E+00  0.00000000E+00
  0.00000000E+00  0.00000000E+00  0.00000000E+00
  0.00000000E+00  0.00000000E+00  0.00000000E+00
  0.00000000E+00  0.00000000E+00  0.00000000E+00
  0.00000000E+00  0.00000000E+00  0.00000000E+00
  0.00000000E+00  0.00000000E+00  0.00000000E+00
  0.00000000E+00  0.00000000E+00  0.00000000E+00
  0.00000000E+00  0.00000000E+00  0.00000000E+00
  0.00000000E+00  0.00000000E+00  0.00000000E+00
  0.00000000E+00  0.00000000E+00  0.00000000E+00
  0.00000000E+00  0.00000000E+00  0.00000000E+00
  0.00000000E+00  0.00000000E+00  0.00000000E+00
  0.00000000E+00  0.00000000E+00  0.00000000E+00
  0.00000000E+00  0.00000000E+00  0.00000000E+00
  0.00000000E+00  0.00000000E+00  0.00000000E+00
  0.00000000E+00  0.00000000E+00  0.00000000E+00
  0.00000000E+00  0.00000000E+00  0.00000000E+00
  0.00000000E+00  0.00000000E+00  0.00000000E+00
  0.00000000E+00  0.00000000E+00  0.00000000E+00
  0.00000000E+00  0.00000000E+00  0.00000000E+00
  0.00000000E+00  0.00000000E+00  0.00000000E+00
  0.00000000E+00  0.00000000E+00  0.00000000E+00
  0.00000000E+00  0.00000000E+00  0.00000000E+00
  0.00000000E+00  0.00000000E+00  0.00000000E+00
  0.00000000E+00  0.00000000E+00  0.00000000E+00
  0.00000000E+00  0.00000000E+00  0.00000000E+00
  0.00000000E+00  0.00000000E+00  0.00000000E+00
  0.00000000E+00  0.00000000E+00  0.00000000E+00
  0.00000000E+00  0.00000000E+00  0.00000000E+00
  0.00000000E+00  0.00000000E+00  0.00000000E+00
