Title                                   
   1.00000000000000     
     9.8694509999999998    0.0000000000000000    0.0000000000000000
     0.0000000000000000    8.5490480000000009    0.0000000000000000
     0.0000000000000000    0.0000000000000000   20.0000000000000000
    26     5     1
Selective dynamics
Direct
  0.0561599179225544  0.0921565974728902  0.0870676100590929   T   T   T
  0.9311327503923198  0.1747179820427137  0.0887541456445249   T   T   T
  0.0575064737438111  0.9246796692201845  0.0858057125089306   T   T   T
  0.9297123292398310  0.3423736441538462  0.0925323965365691   T   T   T
  0.0569922514681865  0.5907436813437076  0.0882003789333754   T   T   T
  0.9328328800574025  0.6737135828711385  0.0902866757566814   T   T   T
  0.0566611092608849  0.4232747568775471  0.0904252635654277   T   T   T
  0.9330615240712522  0.8402923154192306  0.0877193831642547   T   T   T
  0.3058835171416988  0.0885510360556470  0.0897568305338021   T   T   T
  0.1826536915558709  0.1740674471865555  0.0894932737600565   T   T   T
  0.1836083313492244  0.3408056370220988  0.0915562543770885   T   T   T
  0.3062070685922206  0.5920476444765311  0.0957609217792066   T   T   T
  0.1812528230652298  0.6746381956882497  0.0881094743927208   T   T   T
  0.3107368915733963  0.4230014491216024  0.0973213228686056   T   T   T
  0.1809836358514094  0.8409970688568509  0.0868158757729821   T   T   T
  0.5563363325437279  0.0834726071880444  0.0936861391440475   T   T   T
  0.5549375857264496  0.9184144992507189  0.0968043084096980   T   T   T
  0.4334253666665796  0.3307389746547582  0.1029919952545516   T   T   T
  0.4263210023992534  0.8380638708223174  0.0972245068887225   T   T   T
  0.8064385502072589  0.0894200690481414  0.0879283985991849   T   T   T
  0.6799373529353778  0.1689968142415886  0.0922856509261750   T   T   T
  0.8080434601622140  0.9239922762947093  0.0888720635520424   T   T   T
  0.6786388117885019  0.3333770252469818  0.1027656850379455   T   T   T
  0.8077340185352614  0.5943719348318706  0.1008400733994826   T   T   T
  0.8019261415584595  0.4245719519258895  0.1002611281941151   T   T   T
  0.6856650216303654  0.8389644440615484  0.0983918105629492   T   T   T
  0.4186383578465113  0.6837203499827231  0.1039606085165573   T   T   T
  0.5539556742730003  0.3967866016528056  0.1172687272731630   T   T   T
  0.6946060322917736  0.6832737810468833  0.1117503165274435   T   T   T
  0.3053815544763240  0.9258832995351306  0.0887280974858983   T   T   T
  0.4293727612724416  0.1661466702235414  0.0933183774535716   T   T   T
  0.5528957804012115  0.5939901221835560  0.1589915931211492   T   T   T
 
  0.00000000E+00  0.00000000E+00  0.00000000E+00
  0.00000000E+00  0.00000000E+00  0.00000000E+00
  0.00000000E+00  0.00000000E+00  0.00000000E+00
  0.00000000E+00  0.00000000E+00  0.00000000E+00
  0.00000000E+00  0.00000000E+00  0.00000000E+00
  0.00000000E+00  0.00000000E+00  0.00000000E+00
  0.00000000E+00  0.00000000E+00  0.00000000E+00
  0.00000000E+00  0.00000000E+00  0.00000000E+00
  0.00000000E+00  0.00000000E+00  0.00000000E+00
  0.00000000E+00  0.00000000E+00  0.00000000E+00
  0.00000000E+00  0.00000000E+00  0.00000000E+00
  0.00000000E+00  0.00000000E+00  0.00000000E+00
  0.00000000E+00  0.00000000E+00  0.00000000E+00
  0.00000000E+00  0.00000000E+00  0.00000000E+00
  0.00000000E+00  0.00000000E+00  0.00000000E+00
  0.00000000E+00  0.00000000E+00  0.00000000E+00
  0.00000000E+00  0.00000000E+00  0.00000000E+00
  0.00000000E+00  0.00000000E+00  0.00000000E+00
  0.00000000E+00  0.00000000E+00  0.00000000E+00
  0.00000000E+00  0.00000000E+00  0.00000000E+00
  0.00000000E+00  0.00000000E+00  0.00000000E+00
  0.00000000E+00  0.00000000E+00  0.00000000E+00
  0.00000000E+00  0.00000000E+00  0.00000000E+00
  0.00000000E+00  0.00000000E+00  0.00000000E+00
  0.00000000E+00  0.00000000E+00  0.00000000E+00
  0.00000000E+00  0.00000000E+00  0.00000000E+00
  0.00000000E+00  0.00000000E+00  0.00000000E+00
  0.00000000E+00  0.00000000E+00  0.00000000E+00
  0.00000000E+00  0.00000000E+00  0.00000000E+00
  0.00000000E+00  0.00000000E+00  0.00000000E+00
  0.00000000E+00  0.00000000E+00  0.00000000E+00
  0.00000000E+00  0.00000000E+00  0.00000000E+00
