Title                                   
   1.00000000000000     
     9.8694509999999998    0.0000000000000000    0.0000000000000000
     0.0000000000000000    8.5490480000000009    0.0000000000000000
     0.0000000000000000    0.0000000000000000   20.0000000000000000
    28     2     1
Selective dynamics
Direct
  0.0558088123792731  0.0889749990398635  0.0904923125470550   T   T   T
  0.9309143250900440  0.1723456696749504  0.0904907287908716   T   T   T
  0.0567492734750792  0.9233423830489499  0.0905410260827838   T   T   T
  0.9329800944651413  0.3396554616868468  0.0894074643198502   T   T   T
  0.0562940743424069  0.5891328958830252  0.0885815036710649   T   T   T
  0.9332657170671931  0.6746452043987667  0.0895861407061537   T   T   T
  0.0564585270306006  0.4232041659950834  0.0885946300886421   T   T   T
  0.9322392030464666  0.8409384941661987  0.0907388849400227   T   T   T
  0.3057054988383350  0.0904654904364802  0.0960534666787813   T   T   T
  0.1802559467721255  0.1714254574635200  0.0923134826621349   T   T   T
  0.3063994443538058  0.9225798666154919  0.0961448290519184   T   T   T
  0.1793352812274378  0.3377300646179334  0.0915450402554350   T   T   T
  0.3020918974691284  0.5887368750009198  0.0966114455462292   T   T   T
  0.1796225496759771  0.6726438576988367  0.0916353182004171   T   T   T
  0.3013974711409057  0.4190385721917677  0.0963918193928609   T   T   T
  0.1815809317009965  0.8399653007259327  0.0923597371719205   T   T   T
  0.5563493982485603  0.0907151570906769  0.0999291550880353   T   T   T
  0.4290466481568823  0.1779653885980446  0.0997356944479524   T   T   T
  0.5562404820222783  0.9215732362097078  0.1002261830035317   T   T   T
  0.4257029693137501  0.6704875650390274  0.1020450850529272   T   T   T
  0.4300487220692404  0.8357973101960943  0.1001672005928139   T   T   T
  0.8059397682683290  0.0897824961441210  0.0935114304020667   T   T   T
  0.6823110558487390  0.1767488924839399  0.0972285415477133   T   T   T
  0.8066420224061510  0.9217949970082054  0.0937453946573405   T   T   T
  0.6865888250067957  0.3421575590211479  0.0974430368991421   T   T   T
  0.8110112880646595  0.5932389579424854  0.0927331154897916   T   T   T
  0.8103232240771322  0.4236387602412923  0.0923810550913061   T   T   T
  0.6833702716960245  0.8340989465826099  0.0977555466682158   T   T   T
  0.4232148961414111  0.3404217552081802  0.1012064045893501   T   T   T
  0.6891516480617378  0.6715752984656389  0.0980469708920090   T   T   T
  0.5560947325433998  0.5060539211242748  0.1033223554717042   T   T   T
 
  0.00000000E+00  0.00000000E+00  0.00000000E+00
  0.00000000E+00  0.00000000E+00  0.00000000E+00
  0.00000000E+00  0.00000000E+00  0.00000000E+00
  0.00000000E+00  0.00000000E+00  0.00000000E+00
  0.00000000E+00  0.00000000E+00  0.00000000E+00
  0.00000000E+00  0.00000000E+00  0.00000000E+00
  0.00000000E+00  0.00000000E+00  0.00000000E+00
  0.00000000E+00  0.00000000E+00  0.00000000E+00
  0.00000000E+00  0.00000000E+00  0.00000000E+00
  0.00000000E+00  0.00000000E+00  0.00000000E+00
  0.00000000E+00  0.00000000E+00  0.00000000E+00
  0.00000000E+00  0.00000000E+00  0.00000000E+00
  0.00000000E+00  0.00000000E+00  0.00000000E+00
  0.00000000E+00  0.00000000E+00  0.00000000E+00
  0.00000000E+00  0.00000000E+00  0.00000000E+00
  0.00000000E+00  0.00000000E+00  0.00000000E+00
  0.00000000E+00  0.00000000E+00  0.00000000E+00
  0.00000000E+00  0.00000000E+00  0.00000000E+00
  0.00000000E+00  0.00000000E+00  0.00000000E+00
  0.00000000E+00  0.00000000E+00  0.00000000E+00
  0.00000000E+00  0.00000000E+00  0.00000000E+00
  0.00000000E+00  0.00000000E+00  0.00000000E+00
  0.00000000E+00  0.00000000E+00  0.00000000E+00
  0.00000000E+00  0.00000000E+00  0.00000000E+00
  0.00000000E+00  0.00000000E+00  0.00000000E+00
  0.00000000E+00  0.00000000E+00  0.00000000E+00
  0.00000000E+00  0.00000000E+00  0.00000000E+00
  0.00000000E+00  0.00000000E+00  0.00000000E+00
  0.00000000E+00  0.00000000E+00  0.00000000E+00
  0.00000000E+00  0.00000000E+00  0.00000000E+00
  0.00000000E+00  0.00000000E+00  0.00000000E+00
