Title                                   
   1.00000000000000     
     4.9440799999999996    0.0000000000000000    0.0000000000000000
     0.0000000000000000   17.1295089999999988    0.0000000000000000
     0.0000000000000000    0.0000000000000000   20.0000000000000000
    25     5     1
Selective dynamics
Direct
  0.0027018775136861  0.1056049617279628  0.2965216534934453   T   T   T
  0.2513045747928145  0.1485884142646350  0.2976537032821483   T   T   T
  0.2510443554884971  0.2336710448185366  0.3012538462424547   T   T   T
  0.0005129364567965  0.2751649749135860  0.3062072396795650   T   T   T
 -0.0075156257357954  0.6002345674033921  0.3052584304721551   T   T   T
  0.2473234408932004  0.7255775875235606  0.2961843941514837   T   T   T
  0.0006389407671413  0.8526092623222568  0.2940145797051304   T   T   T
  0.2498691138764743  0.8949119566609003  0.2935520830383269   T   T   T
  0.2508826933314082  0.9792501233077302  0.2938621814413235   T   T   T
 -0.0001873257494093  0.7680387355675299  0.2953664127983993   T   T   T
  0.5013820682937933  0.1061152856880455  0.2955572525510428   T   T   T
  0.7534170818759939  0.1475758573868352  0.2968164714865785   T   T   T
  0.7552831271448457  0.2316010423679327  0.2996968832494004   T   T   T
  0.5007334399413357  0.0216314418429100  0.2940480601370203   T   T   T
  0.7489708641567195  0.3951163840998274  0.3052641471027836   T   T   T
  0.7394917967915888  0.4815046324858546  0.3057524944140214   T   T   T
  0.5060081555022350  0.2729345363269915  0.2990025834715214   T   T   T
  0.4985794590275801  0.6020751171885690  0.2941686516951866   T   T   T
  0.7487667029944391  0.7271553642147861  0.2950597742303435   T   T   T
  0.4980220225246455  0.8523956184799258  0.2933830843102173   T   T   T
  0.7494798464506315  0.8945016230037447  0.2934073178025684   T   T   T
  0.7505603800712687  0.9790225470341329  0.2937240296453290   T   T   T
  0.4969435024726542  0.7676507547935950  0.2942698866112340   T   T   T
  0.7481248482642314  0.6439201469311346  0.2971277015352699   T   T   T
  0.0013619767814345  0.0212742651271908  0.2945916780905526   T   T   T
  0.5079576188465157  0.5224855350210662  0.2880793151890801   T   T   T
  0.9802935361274463  0.5209386497099009  0.3222542155486985   T   T   T
  0.5163819722324208  0.3532836511049250  0.2985757686113307   T   T   T
 -0.0117456851287268  0.3572846868884647  0.3193984062966543   T   T   T
  0.2453624191534950  0.6405566204805446  0.2988994728629981   T   T   T
  0.2780568848406427  0.4386666113135278  0.3261082808536873   T   T   T
 
  0.00000000E+00  0.00000000E+00  0.00000000E+00
  0.00000000E+00  0.00000000E+00  0.00000000E+00
  0.00000000E+00  0.00000000E+00  0.00000000E+00
  0.00000000E+00  0.00000000E+00  0.00000000E+00
  0.00000000E+00  0.00000000E+00  0.00000000E+00
  0.00000000E+00  0.00000000E+00  0.00000000E+00
  0.00000000E+00  0.00000000E+00  0.00000000E+00
  0.00000000E+00  0.00000000E+00  0.00000000E+00
  0.00000000E+00  0.00000000E+00  0.00000000E+00
  0.00000000E+00  0.00000000E+00  0.00000000E+00
  0.00000000E+00  0.00000000E+00  0.00000000E+00
  0.00000000E+00  0.00000000E+00  0.00000000E+00
  0.00000000E+00  0.00000000E+00  0.00000000E+00
  0.00000000E+00  0.00000000E+00  0.00000000E+00
  0.00000000E+00  0.00000000E+00  0.00000000E+00
  0.00000000E+00  0.00000000E+00  0.00000000E+00
  0.00000000E+00  0.00000000E+00  0.00000000E+00
  0.00000000E+00  0.00000000E+00  0.00000000E+00
  0.00000000E+00  0.00000000E+00  0.00000000E+00
  0.00000000E+00  0.00000000E+00  0.00000000E+00
  0.00000000E+00  0.00000000E+00  0.00000000E+00
  0.00000000E+00  0.00000000E+00  0.00000000E+00
  0.00000000E+00  0.00000000E+00  0.00000000E+00
  0.00000000E+00  0.00000000E+00  0.00000000E+00
  0.00000000E+00  0.00000000E+00  0.00000000E+00
  0.00000000E+00  0.00000000E+00  0.00000000E+00
  0.00000000E+00  0.00000000E+00  0.00000000E+00
  0.00000000E+00  0.00000000E+00  0.00000000E+00
  0.00000000E+00  0.00000000E+00  0.00000000E+00
  0.00000000E+00  0.00000000E+00  0.00000000E+00
  0.00000000E+00  0.00000000E+00  0.00000000E+00
