Title                                   
   1.00000000000000     
     4.9440799999999996    0.0000000000000000    0.0000000000000000
     0.0000000000000000   17.1295089999999988    0.0000000000000000
     0.0000000000000000    0.0000000000000000   20.0000000000000000
    28     2     1
Selective dynamics
Direct
 -0.0011031086002741  0.1048164113337418  0.2928391209254626   T   T   T
  0.2474096129729293  0.1475210047853366  0.2952477095276929   T   T   T
  0.2466658066138334  0.2311264934537130  0.3003685545550175   T   T   T
 -0.0059932947136302  0.2732441895416048  0.2992451277571519   T   T   T
  0.0057647716140873  0.6025070347870267  0.2955327975194668   T   T   T
  0.2544389949237220  0.7270106255737857  0.2945509993731098   T   T   T
  0.0036099389551216  0.8533197473937607  0.2915538731367429   T   T   T
  0.2519258627271593  0.8955022265107357  0.2918835513798138   T   T   T
  0.2505499446992748  0.9792113143740124  0.2918054917610275   T   T   T
  0.0048419015389900  0.7692760562468189  0.2921021990397622   T   T   T
  0.4980839725662627  0.1050092457036983  0.2939134242643716   T   T   T
  0.7485845788740807  0.1464220885957097  0.2942078426895720   T   T   T
  0.7466333639831102  0.2299918097549894  0.2980128194764217   T   T   T
  0.4997283525357151  0.0212096316762284  0.2922611235434442   T   T   T
  0.7493015426845029  0.3928607911641699  0.3084782852406720   T   T   T
  0.7554316094394714  0.4816405160347053  0.3072348276354976   T   T   T
  0.4986421058077809  0.2722179072043202  0.3055903412949766   T   T   T
  0.5070799017137402  0.6030689395076425  0.3046126857755032   T   T   T
  0.7540405049640619  0.7284711547700338  0.2929496287384065   T   T   T
  0.5012130397402963  0.8533599732781160  0.2923634936776027   T   T   T
  0.7519126516456502  0.8950380298844122  0.2915611163216448   T   T   T
  0.7504725918546208  0.9790584278702290  0.2915607493642513   T   T   T
  0.5028575267579216  0.7694362985172266  0.2936628851071664   T   T   T
  0.7553822967866972  0.6456014984724293  0.2955062182360034   T   T   T
  0.0003136244567713  0.0210542097038317  0.2916271908582430   T   T   T
  0.5095639155638183  0.5232278720755005  0.3208805764557784   T   T   T
  0.0016909039590031  0.5206893373761613  0.2943581807553657   T   T   T
  0.5067656530468728  0.3535635901770698  0.3191969558652807   T   T   T
 -0.0116254943555605  0.3535892726326030  0.2994069813620929   T   T   T
  0.2560362567375670  0.6451218869421717  0.2986830566156241   T   T   T
  0.2197876705064050  0.4371744146582106  0.3538621917467855   T   T   T
 
  0.00000000E+00  0.00000000E+00  0.00000000E+00
  0.00000000E+00  0.00000000E+00  0.00000000E+00
  0.00000000E+00  0.00000000E+00  0.00000000E+00
  0.00000000E+00  0.00000000E+00  0.00000000E+00
  0.00000000E+00  0.00000000E+00  0.00000000E+00
  0.00000000E+00  0.00000000E+00  0.00000000E+00
  0.00000000E+00  0.00000000E+00  0.00000000E+00
  0.00000000E+00  0.00000000E+00  0.00000000E+00
  0.00000000E+00  0.00000000E+00  0.00000000E+00
  0.00000000E+00  0.00000000E+00  0.00000000E+00
  0.00000000E+00  0.00000000E+00  0.00000000E+00
  0.00000000E+00  0.00000000E+00  0.00000000E+00
  0.00000000E+00  0.00000000E+00  0.00000000E+00
  0.00000000E+00  0.00000000E+00  0.00000000E+00
  0.00000000E+00  0.00000000E+00  0.00000000E+00
  0.00000000E+00  0.00000000E+00  0.00000000E+00
  0.00000000E+00  0.00000000E+00  0.00000000E+00
  0.00000000E+00  0.00000000E+00  0.00000000E+00
  0.00000000E+00  0.00000000E+00  0.00000000E+00
  0.00000000E+00  0.00000000E+00  0.00000000E+00
  0.00000000E+00  0.00000000E+00  0.00000000E+00
  0.00000000E+00  0.00000000E+00  0.00000000E+00
  0.00000000E+00  0.00000000E+00  0.00000000E+00
  0.00000000E+00  0.00000000E+00  0.00000000E+00
  0.00000000E+00  0.00000000E+00  0.00000000E+00
  0.00000000E+00  0.00000000E+00  0.00000000E+00
  0.00000000E+00  0.00000000E+00  0.00000000E+00
  0.00000000E+00  0.00000000E+00  0.00000000E+00
  0.00000000E+00  0.00000000E+00  0.00000000E+00
  0.00000000E+00  0.00000000E+00  0.00000000E+00
  0.00000000E+00  0.00000000E+00  0.00000000E+00
