Title                                   
   1.00000000000000     
     9.8694509999999998    0.0000000000000000    0.0000000000000000
     0.0000000000000000    8.5490480000000009    0.0000000000000000
     0.0000000000000000    0.0000000000000000   20.0000000000000000
    26     5     1
Selective dynamics
Direct
  0.0563812903788824  0.0928258194771582  0.0910893248847451   T   T   T
  0.9302959908375785  0.1749252261448957  0.0905226031031140   T   T   T
  0.0566958642903119  0.9253509342851572  0.0912597131407100   T   T   T
  0.9283963869573369  0.3426710413665355  0.0900109385641241   T   T   T
  0.0557302999783780  0.5903075387004717  0.0908590080996288   T   T   T
  0.9313161201326563  0.6738303117281397  0.0903516313902445   T   T   T
  0.0570769488076187  0.4243787251933321  0.0905466374698327   T   T   T
  0.9318390050608996  0.8408073455445310  0.0907899211184747   T   T   T
  0.3057067750582604  0.0881216388711317  0.0912417702671200   T   T   T
  0.1831074765201494  0.1764963784158257  0.0911226530685931   T   T   T
  0.3060977803778387  0.9228067098002533  0.0913899656882617   T   T   T
  0.1847511115870386  0.3430010209120560  0.0908264655960266   T   T   T
  0.3095082490285709  0.5950120991736697  0.0907532723385701   T   T   T
  0.1809191330184828  0.6728452266220434  0.0913816679675972   T   T   T
  0.1812661340248153  0.8391764279170576  0.0915006155995116   T   T   T
  0.5554951780369948  0.0808589738515533  0.0902899489979405   T   T   T
  0.4314958469569881  0.1671982870398104  0.0907147717131082   T   T   T
  0.4382221226296551  0.3355606701235285  0.0900281475512050   T   T   T
  0.4276326697909293  0.8316129811907141  0.0905386077266036   T   T   T
  0.8066463038997520  0.0889376122783989  0.0904759464436068   T   T   T
  0.6791978638393724  0.1672751104114622  0.0900384287553579   T   T   T
  0.8068083999549314  0.9239461869030895  0.0905525569426092   T   T   T
  0.6738181035576217  0.3351340890708304  0.0891979983541135   T   T   T
  0.8029254376849683  0.5952182713218012  0.0890976298345532   T   T   T
  0.8005983519708609  0.4253549549697398  0.0890956229064283   T   T   T
  0.6849550084898548  0.8321899166940182  0.0895630266392705   T   T   T
  0.4250712583798128  0.6760702298177299  0.0898332989067836   T   T   T
  0.5535756704033687  0.4115041776389735  0.0886052958826668   T   T   T
  0.6858659799203116  0.6788876058831652  0.0880843760026152   T   T   T
  0.5553304527578509  0.9138373720169969  0.0899827853165910   T   T   T
  0.3113238028728935  0.4261876200314537  0.0904948683909892   T   T   T
  0.5615879827950229  0.5979154966044762  0.2854355013390196   T   T   T
 
  0.00000000E+00  0.00000000E+00  0.00000000E+00
  0.00000000E+00  0.00000000E+00  0.00000000E+00
  0.00000000E+00  0.00000000E+00  0.00000000E+00
  0.00000000E+00  0.00000000E+00  0.00000000E+00
  0.00000000E+00  0.00000000E+00  0.00000000E+00
  0.00000000E+00  0.00000000E+00  0.00000000E+00
  0.00000000E+00  0.00000000E+00  0.00000000E+00
  0.00000000E+00  0.00000000E+00  0.00000000E+00
  0.00000000E+00  0.00000000E+00  0.00000000E+00
  0.00000000E+00  0.00000000E+00  0.00000000E+00
  0.00000000E+00  0.00000000E+00  0.00000000E+00
  0.00000000E+00  0.00000000E+00  0.00000000E+00
  0.00000000E+00  0.00000000E+00  0.00000000E+00
  0.00000000E+00  0.00000000E+00  0.00000000E+00
  0.00000000E+00  0.00000000E+00  0.00000000E+00
  0.00000000E+00  0.00000000E+00  0.00000000E+00
  0.00000000E+00  0.00000000E+00  0.00000000E+00
  0.00000000E+00  0.00000000E+00  0.00000000E+00
  0.00000000E+00  0.00000000E+00  0.00000000E+00
  0.00000000E+00  0.00000000E+00  0.00000000E+00
  0.00000000E+00  0.00000000E+00  0.00000000E+00
  0.00000000E+00  0.00000000E+00  0.00000000E+00
  0.00000000E+00  0.00000000E+00  0.00000000E+00
  0.00000000E+00  0.00000000E+00  0.00000000E+00
  0.00000000E+00  0.00000000E+00  0.00000000E+00
  0.00000000E+00  0.00000000E+00  0.00000000E+00
  0.00000000E+00  0.00000000E+00  0.00000000E+00
  0.00000000E+00  0.00000000E+00  0.00000000E+00
  0.00000000E+00  0.00000000E+00  0.00000000E+00
  0.00000000E+00  0.00000000E+00  0.00000000E+00
  0.00000000E+00  0.00000000E+00  0.00000000E+00
  0.00000000E+00  0.00000000E+00  0.00000000E+00
