Title                                   
   1.00000000000000     
     9.8694509999999998    0.0000000000000000    0.0000000000000000
     0.0000000000000000    8.5490480000000009    0.0000000000000000
     0.0000000000000000    0.0000000000000000   20.0000000000000000
    26     5     1
Selective dynamics
Direct
  0.0565761485589294  0.0918076856820173  0.0876687809151769   T   T   T
  0.9314369968780337  0.1744230326397579  0.0892113052506203   T   T   T
  0.0579249972328284  0.9243550648502100  0.0868749522228110   T   T   T
  0.9305328036690398  0.3418808103798339  0.0920302636351596   T   T   T
  0.0573920687547975  0.5906251544623008  0.0885452445838469   T   T   T
  0.9329720631251949  0.6733686225424359  0.0908902083157614   T   T   T
  0.0569452247626734  0.4228239861295841  0.0904594419971741   T   T   T
  0.9334030117782560  0.8403030734310505  0.0894767048919827   T   T   T
  0.3066415206379978  0.0885115686136212  0.0894074426241795   T   T   T
  0.1830024071420787  0.1737097706230191  0.0893035481529223   T   T   T
  0.1832302860078892  0.3400392862630763  0.0912019731706446   T   T   T
  0.3068301102448869  0.5918057469470686  0.0933083186622340   T   T   T
  0.1813583265673050  0.6744643698438004  0.0877140620906788   T   T   T
  0.3109331429904424  0.4227677917511010  0.0949300398901334   T   T   T
  0.1815773951906901  0.8408100660105925  0.0866385750514201   T   T   T
  0.5570091179974627  0.0849780478796485  0.0948131111799752   T   T   T
  0.5551651290303149  0.9182212540657256  0.0985445350105633   T   T   T
  0.4331768193658428  0.3318687097630200  0.0979658535835022   T   T   T
  0.4278233523026569  0.8383002034777741  0.0949550369209985   T   T   T
  0.8066832407586778  0.0893060595981459  0.0893804715403547   T   T   T
  0.6799255013915273  0.1694627916410174  0.0925566071988033   T   T   T
  0.8081812458985389  0.9237318549149256  0.0910922538132812   T   T   T
  0.6793226212182051  0.3355246299582774  0.0982232183751200   T   T   T
  0.8081174215600164  0.5936876613780886  0.0996028372248381   T   T   T
  0.8025500923888732  0.4248058009665656  0.0977306657359654   T   T   T
  0.6855199395562842  0.8382026369435646  0.0997855419196907   T   T   T
  0.4210808611240027  0.6817736434624802  0.0999713235987980   T   T   T
  0.5542402205463253  0.4040796209185499  0.1081447783754349   T   T   T
  0.6927520083818197  0.6803361257353131  0.1116064451645782   T   T   T
  0.3063951705898379  0.9253884524785951  0.0873885231824983   T   T   T
  0.4297827820688433  0.1671553454508284  0.0928118910566178   T   T   T
  0.5411569722797345  0.5917271311980122  0.1834410446642505   T   T   T
 
  0.00000000E+00  0.00000000E+00  0.00000000E+00
  0.00000000E+00  0.00000000E+00  0.00000000E+00
  0.00000000E+00  0.00000000E+00  0.00000000E+00
  0.00000000E+00  0.00000000E+00  0.00000000E+00
  0.00000000E+00  0.00000000E+00  0.00000000E+00
  0.00000000E+00  0.00000000E+00  0.00000000E+00
  0.00000000E+00  0.00000000E+00  0.00000000E+00
  0.00000000E+00  0.00000000E+00  0.00000000E+00
  0.00000000E+00  0.00000000E+00  0.00000000E+00
  0.00000000E+00  0.00000000E+00  0.00000000E+00
  0.00000000E+00  0.00000000E+00  0.00000000E+00
  0.00000000E+00  0.00000000E+00  0.00000000E+00
  0.00000000E+00  0.00000000E+00  0.00000000E+00
  0.00000000E+00  0.00000000E+00  0.00000000E+00
  0.00000000E+00  0.00000000E+00  0.00000000E+00
  0.00000000E+00  0.00000000E+00  0.00000000E+00
  0.00000000E+00  0.00000000E+00  0.00000000E+00
  0.00000000E+00  0.00000000E+00  0.00000000E+00
  0.00000000E+00  0.00000000E+00  0.00000000E+00
  0.00000000E+00  0.00000000E+00  0.00000000E+00
  0.00000000E+00  0.00000000E+00  0.00000000E+00
  0.00000000E+00  0.00000000E+00  0.00000000E+00
  0.00000000E+00  0.00000000E+00  0.00000000E+00
  0.00000000E+00  0.00000000E+00  0.00000000E+00
  0.00000000E+00  0.00000000E+00  0.00000000E+00
  0.00000000E+00  0.00000000E+00  0.00000000E+00
  0.00000000E+00  0.00000000E+00  0.00000000E+00
  0.00000000E+00  0.00000000E+00  0.00000000E+00
  0.00000000E+00  0.00000000E+00  0.00000000E+00
  0.00000000E+00  0.00000000E+00  0.00000000E+00
  0.00000000E+00  0.00000000E+00  0.00000000E+00
  0.00000000E+00  0.00000000E+00  0.00000000E+00
