Title                                   
   1.00000000000000     
     9.8694509999999998    0.0000000000000000    0.0000000000000000
     0.0000000000000000    8.5490480000000009    0.0000000000000000
     0.0000000000000000    0.0000000000000000   20.0000000000000000
    27     4     1
Selective dynamics
Direct
  0.0563200145106900  0.0916399398291093  0.0856412961257396   T   T   T
  0.9307183540325304  0.1751539638145848  0.0876404295982953   T   T   T
  0.0572145620061290  0.9238815903736245  0.0843200602284152   T   T   T
  0.9289044318250415  0.3420420422794356  0.0899963029784034   T   T   T
  0.0559291380632492  0.5896814618252935  0.0868262899300549   T   T   T
  0.9321855636313157  0.6736267042334199  0.0869556834099027   T   T   T
  0.0567796235282142  0.4231097800905072  0.0900221907911352   T   T   T
  0.9320388224984013  0.8410766697669525  0.0855753761911979   T   T   T
  0.3053267846052306  0.0878326987901198  0.0889918737602546   T   T   T
  0.1821988958184326  0.1742356802225093  0.0885036144812224   T   T   T
  0.3071337507768148  0.9223729011849865  0.0892455129107936   T   T   T
  0.1822196633605168  0.3400005091118103  0.0927486541147252   T   T   T
  0.3055472559923438  0.5900227740133349  0.1020006930232911   T   T   T
  0.1818175602670377  0.6707468483845687  0.0886669851209533   T   T   T
  0.1823602671980721  0.8381754748647058  0.0866025583142798   T   T   T
  0.5561080958708889  0.0850527507939387  0.0968410093661271   T   T   T
  0.4304087457874042  0.1681694807633215  0.0946549419221552   T   T   T
  0.4326132987835370  0.3338144835467727  0.1002176822669279   T   T   T
  0.4289433195923008  0.8376060473680704  0.1022433144381200   T   T   T
  0.8068652945437831  0.0905132714505954  0.0886988504982596   T   T   T
  0.6801514352825911  0.1697076564071155  0.0935930985982616   T   T   T
  0.8071534896678227  0.9255095827190202  0.0882017874792218   T   T   T
  0.6761302919864262  0.3354319385827659  0.0971490212634411   T   T   T
  0.8056465218443672  0.5952044642054496  0.0940126737487527   T   T   T
  0.8008228048394552  0.4259561068412154  0.0939357462382735   T   T   T
  0.6846061849618930  0.8398584627133230  0.0965683616031434   T   T   T
  0.4196865531634972  0.6799072026182073  0.1204865839399828   T   T   T
  0.5523481427192030  0.4089618586652836  0.1075155710360658   T   T   T
  0.6893919535916477  0.6832062691197007  0.1036414706418316   T   T   T
  0.5574805447086520  0.9194928629345227  0.1006000858344649   T   T   T
  0.3087433448652978  0.4217690567014135  0.1002532144474571   T   T   T
  0.5658442896772202  0.5864854657843238  0.1733240656988661   T   T   T
 
  0.00000000E+00  0.00000000E+00  0.00000000E+00
  0.00000000E+00  0.00000000E+00  0.00000000E+00
  0.00000000E+00  0.00000000E+00  0.00000000E+00
  0.00000000E+00  0.00000000E+00  0.00000000E+00
  0.00000000E+00  0.00000000E+00  0.00000000E+00
  0.00000000E+00  0.00000000E+00  0.00000000E+00
  0.00000000E+00  0.00000000E+00  0.00000000E+00
  0.00000000E+00  0.00000000E+00  0.00000000E+00
  0.00000000E+00  0.00000000E+00  0.00000000E+00
  0.00000000E+00  0.00000000E+00  0.00000000E+00
  0.00000000E+00  0.00000000E+00  0.00000000E+00
  0.00000000E+00  0.00000000E+00  0.00000000E+00
  0.00000000E+00  0.00000000E+00  0.00000000E+00
  0.00000000E+00  0.00000000E+00  0.00000000E+00
  0.00000000E+00  0.00000000E+00  0.00000000E+00
  0.00000000E+00  0.00000000E+00  0.00000000E+00
  0.00000000E+00  0.00000000E+00  0.00000000E+00
  0.00000000E+00  0.00000000E+00  0.00000000E+00
  0.00000000E+00  0.00000000E+00  0.00000000E+00
  0.00000000E+00  0.00000000E+00  0.00000000E+00
  0.00000000E+00  0.00000000E+00  0.00000000E+00
  0.00000000E+00  0.00000000E+00  0.00000000E+00
  0.00000000E+00  0.00000000E+00  0.00000000E+00
  0.00000000E+00  0.00000000E+00  0.00000000E+00
  0.00000000E+00  0.00000000E+00  0.00000000E+00
  0.00000000E+00  0.00000000E+00  0.00000000E+00
  0.00000000E+00  0.00000000E+00  0.00000000E+00
  0.00000000E+00  0.00000000E+00  0.00000000E+00
  0.00000000E+00  0.00000000E+00  0.00000000E+00
  0.00000000E+00  0.00000000E+00  0.00000000E+00
  0.00000000E+00  0.00000000E+00  0.00000000E+00
  0.00000000E+00  0.00000000E+00  0.00000000E+00
