Title                                   
   1.00000000000000     
     4.9440799999999996    0.0000000000000000    0.0000000000000000
     0.0000000000000000   17.1295089999999988    0.0000000000000000
     0.0000000000000000    0.0000000000000000   20.0000000000000000
    29     1     1
Selective dynamics
Direct
 -0.0097876608091777  0.1056029384007299  0.2948369681812585   T   T   T
  0.2387848167068746  0.1479804160437800  0.2958661968350783   T   T   T
  0.2342328247590613  0.2315150113763631  0.2995667393250628   T   T   T
 -0.0190100826050540  0.2725003263400343  0.3040483616143173   T   T   T
  0.0179455350138326  0.6014609303575835  0.2977435225387214   T   T   T
  0.2594741215490348  0.7275902780380666  0.2958720023110064   T   T   T
  0.0030487728032635  0.8535845240415004  0.2932148988638024   T   T   T
  0.2515858243131222  0.8957019233234567  0.2932530990445729   T   T   T
  0.2465162117415512  0.9794707843728202  0.2931867252012221   T   T   T
  0.0078822279680402  0.7697451053025640  0.2939936684933276   T   T   T
  0.4900322712520168  0.1054959852657754  0.2939095446233218   T   T   T
  0.7383855389645341  0.1474099042033779  0.2948470601527918   T   T   T
  0.7322397436238961  0.2313256894591642  0.2975528469656943   T   T   T
  0.4949683690435248  0.0216502911111213  0.2931270286553641   T   T   T
  0.7494842965020410  0.3929537928309390  0.3064399757364689   T   T   T
  0.7667546824180724  0.4791940897176517  0.3074604454367672   T   T   T
  0.4812522208787584  0.2746354249462362  0.2979322876497005   T   T   T
  0.5160000296249956  0.6019640171791151  0.3049524598336809   T   T   T
  0.7601083036383537  0.7275927316337758  0.2950871787534207   T   T   T
  0.5034423197581548  0.8535287750508507  0.2936159359106149   T   T   T
  0.7517766453799934  0.8956718213018535  0.2930389078912915   T   T   T
  0.7466561245056311  0.9796408357974076  0.2929679496572422   T   T   T
  0.5085708431603777  0.7697011661089260  0.2950516637693427   T   T   T
  0.7650905275736646  0.6435672345455815  0.2979480079906210   T   T   T
  0.2645877538835942  0.6442764983305792  0.2996273734934091   T   T   T
 -0.0048739946713212  0.0217331196986752  0.2934775809187351   T   T   T
  0.5226777798293029  0.5205163577619999  0.3181479144783342   T   T   T
  0.0101417150455120  0.5178830156206110  0.2988012837801039   T   T   T
  0.4987024984407223  0.3581177489280730  0.2988688336419505   T   T   T
 -0.0222211037111855  0.3510183086288229  0.3152072783907470   T   T   T
  0.2555578434188149  0.4383129542825618  0.3354162598619779   T   T   T
 
  0.00000000E+00  0.00000000E+00  0.00000000E+00
  0.00000000E+00  0.00000000E+00  0.00000000E+00
  0.00000000E+00  0.00000000E+00  0.00000000E+00
  0.00000000E+00  0.00000000E+00  0.00000000E+00
  0.00000000E+00  0.00000000E+00  0.00000000E+00
  0.00000000E+00  0.00000000E+00  0.00000000E+00
  0.00000000E+00  0.00000000E+00  0.00000000E+00
  0.00000000E+00  0.00000000E+00  0.00000000E+00
  0.00000000E+00  0.00000000E+00  0.00000000E+00
  0.00000000E+00  0.00000000E+00  0.00000000E+00
  0.00000000E+00  0.00000000E+00  0.00000000E+00
  0.00000000E+00  0.00000000E+00  0.00000000E+00
  0.00000000E+00  0.00000000E+00  0.00000000E+00
  0.00000000E+00  0.00000000E+00  0.00000000E+00
  0.00000000E+00  0.00000000E+00  0.00000000E+00
  0.00000000E+00  0.00000000E+00  0.00000000E+00
  0.00000000E+00  0.00000000E+00  0.00000000E+00
  0.00000000E+00  0.00000000E+00  0.00000000E+00
  0.00000000E+00  0.00000000E+00  0.00000000E+00
  0.00000000E+00  0.00000000E+00  0.00000000E+00
  0.00000000E+00  0.00000000E+00  0.00000000E+00
  0.00000000E+00  0.00000000E+00  0.00000000E+00
  0.00000000E+00  0.00000000E+00  0.00000000E+00
  0.00000000E+00  0.00000000E+00  0.00000000E+00
  0.00000000E+00  0.00000000E+00  0.00000000E+00
  0.00000000E+00  0.00000000E+00  0.00000000E+00
  0.00000000E+00  0.00000000E+00  0.00000000E+00
  0.00000000E+00  0.00000000E+00  0.00000000E+00
  0.00000000E+00  0.00000000E+00  0.00000000E+00
  0.00000000E+00  0.00000000E+00  0.00000000E+00
  0.00000000E+00  0.00000000E+00  0.00000000E+00
