Title                                   
   1.00000000000000     
     9.8694509999999998    0.0000000000000000    0.0000000000000000
     0.0000000000000000    8.5490480000000009    0.0000000000000000
     0.0000000000000000    0.0000000000000000   20.0000000000000000
    30     1     1
Selective dynamics
Direct
  0.0558126414609622  0.0902071413264338  0.0830409449628734   T   T   T
  0.9316950176466360  0.1724395829095415  0.0848595055856942   T   T   T
  0.0571420064639879  0.9233568253904959  0.0831133503638182   T   T   T
  0.9316452084980877  0.3397810264066294  0.0875948464460157   T   T   T
  0.0569373775567039  0.5898422436868064  0.0845052067348658   T   T   T
  0.9326270599363419  0.6728544955578828  0.0870273140376735   T   T   T
  0.0569757560554257  0.4225412604199632  0.0857183550290791   T   T   T
  0.9320546378720609  0.8392045891605103  0.0853675363127115   T   T   T
  0.3053866022716293  0.0885603148768056  0.0878669640824338   T   T   T
  0.1813680620986977  0.1722552233633078  0.0852138878431642   T   T   T
  0.1821417573744263  0.3391172377700457  0.0877761844592116   T   T   T
  0.3033271691672780  0.5891705560780977  0.0994046978158216   T   T   T
  0.1812276147521343  0.6743585774837848  0.0872011235440133   T   T   T
  0.3054486228930459  0.4227572223874795  0.0971127962346684   T   T   T
  0.1813436799342358  0.8405066215596917  0.0859324509480221   T   T   T
  0.5563782829513493  0.0880963277022423  0.0937277276872330   T   T   T
  0.4301854672740625  0.1699687718518297  0.0931375929889543   T   T   T
  0.5547426435032000  0.9229177863590105  0.0977916898059429   T   T   T
  0.4295498687188050  0.3356568507526443  0.1018794161754949   T   T   T
  0.4154098635870704  0.6836303227583113  0.1161825207142597   T   T   T
  0.5567822304502904  0.4044332475670282  0.1150824041131598   T   T   T
  0.4271332370916888  0.8430328554837437  0.1014162317323013   T   T   T
  0.8066983824526984  0.0886963292398615  0.0867451798524061   T   T   T
  0.6818093812368187  0.1703131200016824  0.0924641884022117   T   T   T
  0.8068807296712517  0.9231412196556590  0.0882095796135074   T   T   T
  0.6830465324453532  0.3360013335908336  0.1011231453030690   T   T   T
  0.8093938384218432  0.5889545301933549  0.0982961712994923   T   T   T
  0.6945018047548619  0.6803335155627623  0.1126872131373315   T   T   T
  0.8078120036170947  0.4217223053176077  0.0961457615579439   T   T   T
  0.6820701871386169  0.8409919571091804  0.0991403842189908   T   T   T
  0.3050510557387327  0.9249167680512071  0.0890524664768613   T   T   T
  0.5570602769646138  0.5904858404255741  0.1708581625208079   T   T   T
 
  0.00000000E+00  0.00000000E+00  0.00000000E+00
  0.00000000E+00  0.00000000E+00  0.00000000E+00
  0.00000000E+00  0.00000000E+00  0.00000000E+00
  0.00000000E+00  0.00000000E+00  0.00000000E+00
  0.00000000E+00  0.00000000E+00  0.00000000E+00
  0.00000000E+00  0.00000000E+00  0.00000000E+00
  0.00000000E+00  0.00000000E+00  0.00000000E+00
  0.00000000E+00  0.00000000E+00  0.00000000E+00
  0.00000000E+00  0.00000000E+00  0.00000000E+00
  0.00000000E+00  0.00000000E+00  0.00000000E+00
  0.00000000E+00  0.00000000E+00  0.00000000E+00
  0.00000000E+00  0.00000000E+00  0.00000000E+00
  0.00000000E+00  0.00000000E+00  0.00000000E+00
  0.00000000E+00  0.00000000E+00  0.00000000E+00
  0.00000000E+00  0.00000000E+00  0.00000000E+00
  0.00000000E+00  0.00000000E+00  0.00000000E+00
  0.00000000E+00  0.00000000E+00  0.00000000E+00
  0.00000000E+00  0.00000000E+00  0.00000000E+00
  0.00000000E+00  0.00000000E+00  0.00000000E+00
  0.00000000E+00  0.00000000E+00  0.00000000E+00
  0.00000000E+00  0.00000000E+00  0.00000000E+00
  0.00000000E+00  0.00000000E+00  0.00000000E+00
  0.00000000E+00  0.00000000E+00  0.00000000E+00
  0.00000000E+00  0.00000000E+00  0.00000000E+00
  0.00000000E+00  0.00000000E+00  0.00000000E+00
  0.00000000E+00  0.00000000E+00  0.00000000E+00
  0.00000000E+00  0.00000000E+00  0.00000000E+00
  0.00000000E+00  0.00000000E+00  0.00000000E+00
  0.00000000E+00  0.00000000E+00  0.00000000E+00
  0.00000000E+00  0.00000000E+00  0.00000000E+00
  0.00000000E+00  0.00000000E+00  0.00000000E+00
  0.00000000E+00  0.00000000E+00  0.00000000E+00
