Title                                   
   1.00000000000000     
     8.5490480000000009    0.0000000000000000    0.0000000000000000
     0.0000000000000000    8.5490480000000009    0.0000000000000000
     0.0000000000000000    0.0000000000000000   20.0000000000000000
    20     4     1
Selective dynamics
Direct
  0.9071728478459523  0.2065471128843042  0.0938850737174057   T   T   T
  0.9121287189078719  0.8017127223063316  0.0947489651515719   T   T   T
  0.1961957035183152  0.0822807489547388  0.0944980382461580   T   T   T
  0.0751869771289574  0.2005516789963490  0.0950395971000847   T   T   T
  0.1571356446929351  0.6489809192901059  0.0953603195155146   T   T   T
  0.0750067237566069  0.5001487149506259  0.0971788964051345   T   T   T
  0.1546807600268666  0.3517726855445334  0.0991484708294606   T   T   T
  0.0804088833244786  0.7986779716185514  0.0938566516944737   T   T   T
  0.3453218569933362  0.1623591672323329  0.0981551474297614   T   T   T
  0.4945359851990811  0.9179678874223446  0.0967686069737466   T   T   T
  0.3457794860061548  0.8366217409386825  0.0950950528244145   T   T   T
  0.7871203129316775  0.0877018180330902  0.0941356764059282   T   T   T
  0.6372139561983120  0.1679129031964198  0.0957820686976530   T   T   T
  0.7907128588617925  0.9203166748041508  0.0953195016581477   T   T   T
  0.8313743952969969  0.6532794602903185  0.0971432177316627   T   T   T
  0.8261561429688759  0.3566375597777080  0.0953693793243790   T   T   T
  0.6439132576734613  0.8384454898759259  0.0981642680510204   T   T   T
  0.3234619501753205  0.3275865851902232  0.1041005872962084   T   T   T
  0.3240414316287145  0.6729318976084870  0.0956257523462419   T   T   T
  0.6589620303046891  0.3353374514584971  0.0971865485082948   T   T   T
  0.4937921938696673  0.0839194650742854  0.0967756189434385   T   T   T
  0.9073809068391794  0.5035293446672906  0.0963832458011950   T   T   T
  0.6704235905808315  0.6742007859516910  0.1014515727571887   T   T   T
  0.1967743349810367  0.9151610102786849  0.0934573834271678   T   T   T
  0.4905310502888809  0.5002082036543409  0.1340753591637302   T   T   T
 
  0.00000000E+00  0.00000000E+00  0.00000000E+00
  0.00000000E+00  0.00000000E+00  0.00000000E+00
  0.00000000E+00  0.00000000E+00  0.00000000E+00
  0.00000000E+00  0.00000000E+00  0.00000000E+00
  0.00000000E+00  0.00000000E+00  0.00000000E+00
  0.00000000E+00  0.00000000E+00  0.00000000E+00
  0.00000000E+00  0.00000000E+00  0.00000000E+00
  0.00000000E+00  0.00000000E+00  0.00000000E+00
  0.00000000E+00  0.00000000E+00  0.00000000E+00
  0.00000000E+00  0.00000000E+00  0.00000000E+00
  0.00000000E+00  0.00000000E+00  0.00000000E+00
  0.00000000E+00  0.00000000E+00  0.00000000E+00
  0.00000000E+00  0.00000000E+00  0.00000000E+00
  0.00000000E+00  0.00000000E+00  0.00000000E+00
  0.00000000E+00  0.00000000E+00  0.00000000E+00
  0.00000000E+00  0.00000000E+00  0.00000000E+00
  0.00000000E+00  0.00000000E+00  0.00000000E+00
  0.00000000E+00  0.00000000E+00  0.00000000E+00
  0.00000000E+00  0.00000000E+00  0.00000000E+00
  0.00000000E+00  0.00000000E+00  0.00000000E+00
  0.00000000E+00  0.00000000E+00  0.00000000E+00
  0.00000000E+00  0.00000000E+00  0.00000000E+00
  0.00000000E+00  0.00000000E+00  0.00000000E+00
  0.00000000E+00  0.00000000E+00  0.00000000E+00
  0.00000000E+00  0.00000000E+00  0.00000000E+00
