Title                                   
   1.00000000000000     
     9.8694509999999998    0.0000000000000000    0.0000000000000000
     0.0000000000000000    8.5490480000000009    0.0000000000000000
     0.0000000000000000    0.0000000000000000   20.0000000000000000
    27     4     1
Selective dynamics
Direct
  0.0577538948073561  0.0911652286274870  0.0886582006096922   T   T   T
  0.9318717051142780  0.1749016881859687  0.0883714941412882   T   T   T
  0.0593492383171121  0.9236096398840437  0.0886093701958170   T   T   T
  0.9290091449552660  0.3427665078953968  0.0871350097010922   T   T   T
  0.0579181558911867  0.5894020549970971  0.0877640394458093   T   T   T
  0.9331617894987387  0.6735426469564720  0.0866276270663145   T   T   T
  0.0579525014321473  0.4229089038568469  0.0891011298592837   T   T   T
  0.9339422170904215  0.8406769231580743  0.0879373188833841   T   T   T
  0.3076205946537596  0.0854593652173255  0.0926766991125191   T   T   T
  0.1843984784845427  0.1732730427396666  0.0906890890175325   T   T   T
  0.3098605321833715  0.9196703209752546  0.0937023876581310   T   T   T
  0.1843482596717310  0.3394183884759721  0.0926709328265394   T   T   T
  0.3091383539709012  0.5876629089623793  0.1042751385548652   T   T   T
  0.1845893235889118  0.6705398352241444  0.0916090546215454   T   T   T
  0.1843412300888169  0.8370677053896624  0.0912436892809761   T   T   T
  0.5579866059572086  0.0832046067344880  0.0959238611868747   T   T   T
  0.4327431203274764  0.1663059993300295  0.0953287687177850   T   T   T
  0.4371508722913057  0.3336332741784510  0.0935249328442451   T   T   T
  0.4332796888536587  0.8351525586544024  0.1059657711319153   T   T   T
  0.8081214415520800  0.0902448865362797  0.0904904420183136   T   T   T
  0.6807580375280560  0.1696833541873655  0.0913465458598757   T   T   T
  0.8091698753453318  0.9250481930342966  0.0904977625557232   T   T   T
  0.6736852440139525  0.3372407384222244  0.0868130597278476   T   T   T
  0.8034842603692128  0.5963080140827525  0.0855030590569923   T   T   T
  0.8006961075984472  0.4265621002307056  0.0852175197338679   T   T   T
  0.6869482095383709  0.8353787546850412  0.0926086338426681   T   T   T
  0.4230226999052021  0.6765296562854022  0.1262669615425117   T   T   T
  0.5514169268319004  0.4119199563573960  0.0870029292671059   T   T   T
  0.6862247987924578  0.6817775406642496  0.0876478822966523   T   T   T
  0.5595053826455019  0.9175844641806871  0.1008941512541579   T   T   T
  0.3101654712765639  0.4212729254852044  0.0986954332570367   T   T   T
  0.5200248374247384  0.6103338164052341  0.2108761047316530   T   T   T
 
  0.00000000E+00  0.00000000E+00  0.00000000E+00
  0.00000000E+00  0.00000000E+00  0.00000000E+00
  0.00000000E+00  0.00000000E+00  0.00000000E+00
  0.00000000E+00  0.00000000E+00  0.00000000E+00
  0.00000000E+00  0.00000000E+00  0.00000000E+00
  0.00000000E+00  0.00000000E+00  0.00000000E+00
  0.00000000E+00  0.00000000E+00  0.00000000E+00
  0.00000000E+00  0.00000000E+00  0.00000000E+00
  0.00000000E+00  0.00000000E+00  0.00000000E+00
  0.00000000E+00  0.00000000E+00  0.00000000E+00
  0.00000000E+00  0.00000000E+00  0.00000000E+00
  0.00000000E+00  0.00000000E+00  0.00000000E+00
  0.00000000E+00  0.00000000E+00  0.00000000E+00
  0.00000000E+00  0.00000000E+00  0.00000000E+00
  0.00000000E+00  0.00000000E+00  0.00000000E+00
  0.00000000E+00  0.00000000E+00  0.00000000E+00
  0.00000000E+00  0.00000000E+00  0.00000000E+00
  0.00000000E+00  0.00000000E+00  0.00000000E+00
  0.00000000E+00  0.00000000E+00  0.00000000E+00
  0.00000000E+00  0.00000000E+00  0.00000000E+00
  0.00000000E+00  0.00000000E+00  0.00000000E+00
  0.00000000E+00  0.00000000E+00  0.00000000E+00
  0.00000000E+00  0.00000000E+00  0.00000000E+00
  0.00000000E+00  0.00000000E+00  0.00000000E+00
  0.00000000E+00  0.00000000E+00  0.00000000E+00
  0.00000000E+00  0.00000000E+00  0.00000000E+00
  0.00000000E+00  0.00000000E+00  0.00000000E+00
  0.00000000E+00  0.00000000E+00  0.00000000E+00
  0.00000000E+00  0.00000000E+00  0.00000000E+00
  0.00000000E+00  0.00000000E+00  0.00000000E+00
  0.00000000E+00  0.00000000E+00  0.00000000E+00
  0.00000000E+00  0.00000000E+00  0.00000000E+00
