Title                                   
   1.00000000000000     
     9.8694509999999998    0.0000000000000000    0.0000000000000000
     0.0000000000000000    8.5490480000000009    0.0000000000000000
     0.0000000000000000    0.0000000000000000   20.0000000000000000
    28     3     1
Selective dynamics
Direct
  0.0561366702503808  0.0909249813328742  0.0876690037874896   T   T   T
  0.9303454210389731  0.1725255277049320  0.0891921310678676   T   T   T
  0.0549614377334406  0.9239703401613887  0.0879960667165414   T   T   T
  0.9299903891279050  0.3399754315337055  0.0925735930841823   T   T   T
  0.0561347617549691  0.5894222992817278  0.0897029292796084   T   T   T
  0.9307537703758029  0.6720170323218694  0.0938485637203591   T   T   T
  0.0570977878292076  0.4232903669168431  0.0903058331840970   T   T   T
  0.9299997129903399  0.8387304662364615  0.0910823593414852   T   T   T
  0.3051497246755708  0.0907524427092767  0.0890748432619111   T   T   T
  0.1818505050328219  0.1752311148727430  0.0881209752476995   T   T   T
  0.3045960445976749  0.9252541479351611  0.0889212210732426   T   T   T
  0.1846533072351967  0.3430800787298864  0.0885966043632568   T   T   T
  0.3090279871801060  0.5961886641768871  0.0884315406475045   T   T   T
  0.1809804291381910  0.6741164512327917  0.0878159088684377   T   T   T
  0.3120955686337447  0.4265934298676232  0.0889666610413983   T   T   T
  0.1799586957315010  0.8406847067850015  0.0877054020900673   T   T   T
  0.5551866646193631  0.0838664618974533  0.0936975706529624   T   T   T
  0.4321980767995012  0.1694527266863306  0.0915054455634770   T   T   T
  0.4376181359114106  0.3369557778848505  0.0926526731156467   T   T   T
  0.4267751849738990  0.8380588708100640  0.0915569584030769   T   T   T
  0.8065442200976894  0.0871555129464114  0.0902240821320028   T   T   T
  0.6803652714266702  0.1666900459770302  0.0936156867570762   T   T   T
  0.8044996114897088  0.9211018546096099  0.0915129989964948   T   T   T
  0.6781255960176770  0.3331388369947938  0.0977709199148375   T   T   T
  0.8059706606761576  0.5896342712891695  0.1047882124050416   T   T   T
  0.6894622597139947  0.6807054528695132  0.1209032926100475   T   T   T
  0.8044202951477745  0.4212014717378089  0.0996482610576856   T   T   T
  0.6797441598804028  0.8374144997065932  0.1010999742426349   T   T   T
  0.4275216407500405  0.6821961025545035  0.0906955922748337   T   T   T
  0.5588035505946181  0.4116253284136906  0.0988106386266987   T   T   T
  0.5536767975359977  0.9191264774228741  0.0958562350783889   T   T   T
  0.5549946610392761  0.5891648264001410  0.1813328213939805   T   T   T
 
  0.00000000E+00  0.00000000E+00  0.00000000E+00
  0.00000000E+00  0.00000000E+00  0.00000000E+00
  0.00000000E+00  0.00000000E+00  0.00000000E+00
  0.00000000E+00  0.00000000E+00  0.00000000E+00
  0.00000000E+00  0.00000000E+00  0.00000000E+00
  0.00000000E+00  0.00000000E+00  0.00000000E+00
  0.00000000E+00  0.00000000E+00  0.00000000E+00
  0.00000000E+00  0.00000000E+00  0.00000000E+00
  0.00000000E+00  0.00000000E+00  0.00000000E+00
  0.00000000E+00  0.00000000E+00  0.00000000E+00
  0.00000000E+00  0.00000000E+00  0.00000000E+00
  0.00000000E+00  0.00000000E+00  0.00000000E+00
  0.00000000E+00  0.00000000E+00  0.00000000E+00
  0.00000000E+00  0.00000000E+00  0.00000000E+00
  0.00000000E+00  0.00000000E+00  0.00000000E+00
  0.00000000E+00  0.00000000E+00  0.00000000E+00
  0.00000000E+00  0.00000000E+00  0.00000000E+00
  0.00000000E+00  0.00000000E+00  0.00000000E+00
  0.00000000E+00  0.00000000E+00  0.00000000E+00
  0.00000000E+00  0.00000000E+00  0.00000000E+00
  0.00000000E+00  0.00000000E+00  0.00000000E+00
  0.00000000E+00  0.00000000E+00  0.00000000E+00
  0.00000000E+00  0.00000000E+00  0.00000000E+00
  0.00000000E+00  0.00000000E+00  0.00000000E+00
  0.00000000E+00  0.00000000E+00  0.00000000E+00
  0.00000000E+00  0.00000000E+00  0.00000000E+00
  0.00000000E+00  0.00000000E+00  0.00000000E+00
  0.00000000E+00  0.00000000E+00  0.00000000E+00
  0.00000000E+00  0.00000000E+00  0.00000000E+00
  0.00000000E+00  0.00000000E+00  0.00000000E+00
  0.00000000E+00  0.00000000E+00  0.00000000E+00
  0.00000000E+00  0.00000000E+00  0.00000000E+00
