Title                                   
   1.00000000000000     
     9.8694509999999998    0.0000000000000000    0.0000000000000000
     0.0000000000000000    8.5490480000000009    0.0000000000000000
     0.0000000000000000    0.0000000000000000   20.0000000000000000
    28     3     1
Selective dynamics
Direct
  0.0561779364339896  0.0916686052354376  0.0858536408911234   T   T   T
  0.9316276739303321  0.1723881098074320  0.0868570224915598   T   T   T
  0.0564761154704605  0.9243628053962588  0.0859976440346226   T   T   T
  0.9314230428150836  0.3395742703315249  0.0896740832271045   T   T   T
  0.0569359704057358  0.5901433421950246  0.0879948947417890   T   T   T
  0.9319424370238624  0.6721497283714475  0.0901547731879898   T   T   T
  0.0580903924805116  0.4230652918763348  0.0890964764806666   T   T   T
  0.9313410580456468  0.8386525641756255  0.0882598949989482   T   T   T
  0.3053526363668430  0.0902185949658685  0.0888510771492736   T   T   T
  0.1820841466971481  0.1747258121326602  0.0878450849423527   T   T   T
  0.1849581404493777  0.3420390103605440  0.0905616221760144   T   T   T
  0.3050518500345957  0.5950809745878436  0.0985724631461156   T   T   T
  0.1806148348927597  0.6756208752140455  0.0894066078330201   T   T   T
  0.3114028641602943  0.4273384504117416  0.0971590967392240   T   T   T
  0.1797332278894312  0.8420377734735085  0.0880448345969684   T   T   T
  0.5556913189805011  0.0852093967352367  0.0930337326544614   T   T   T
  0.4310842309689606  0.1700102399954536  0.0924153413714463   T   T   T
  0.5528355278805733  0.9203906891459902  0.0974201962250442   T   T   T
  0.4353504925975922  0.3356062470219304  0.0992801121553061   T   T   T
  0.4242380727407989  0.8426157394841197  0.0993419859014934   T   T   T
  0.8069538243909007  0.0871126887365812  0.0877974847277505   T   T   T
  0.6816224571210190  0.1671711613020780  0.0911650938623027   T   T   T
  0.8060900357436195  0.9214341964185737  0.0901719993134513   T   T   T
  0.6811469271558793  0.3319139299375543  0.0979892472650407   T   T   T
  0.8078662136792728  0.5881459611197170  0.0991899083631227   T   T   T
  0.6907025832861891  0.6769618678769457  0.1122932379792384   T   T   T
  0.8059897827675899  0.4203041059351714  0.0961310770156748   T   T   T
  0.6809614391706862  0.8381346163004395  0.0995233853758401   T   T   T
  0.4167573264592286  0.6882191466061386  0.1115334442295781   T   T   T
  0.5601802470733919  0.4042220601742342  0.1092173993657624   T   T   T
  0.3037612597579208  0.9265550077381695  0.0895165934936220   T   T   T
  0.5551949331298099  0.5871727369363785  0.1553255440641268   T   T   T
 
  0.00000000E+00  0.00000000E+00  0.00000000E+00
  0.00000000E+00  0.00000000E+00  0.00000000E+00
  0.00000000E+00  0.00000000E+00  0.00000000E+00
  0.00000000E+00  0.00000000E+00  0.00000000E+00
  0.00000000E+00  0.00000000E+00  0.00000000E+00
  0.00000000E+00  0.00000000E+00  0.00000000E+00
  0.00000000E+00  0.00000000E+00  0.00000000E+00
  0.00000000E+00  0.00000000E+00  0.00000000E+00
  0.00000000E+00  0.00000000E+00  0.00000000E+00
  0.00000000E+00  0.00000000E+00  0.00000000E+00
  0.00000000E+00  0.00000000E+00  0.00000000E+00
  0.00000000E+00  0.00000000E+00  0.00000000E+00
  0.00000000E+00  0.00000000E+00  0.00000000E+00
  0.00000000E+00  0.00000000E+00  0.00000000E+00
  0.00000000E+00  0.00000000E+00  0.00000000E+00
  0.00000000E+00  0.00000000E+00  0.00000000E+00
  0.00000000E+00  0.00000000E+00  0.00000000E+00
  0.00000000E+00  0.00000000E+00  0.00000000E+00
  0.00000000E+00  0.00000000E+00  0.00000000E+00
  0.00000000E+00  0.00000000E+00  0.00000000E+00
  0.00000000E+00  0.00000000E+00  0.00000000E+00
  0.00000000E+00  0.00000000E+00  0.00000000E+00
  0.00000000E+00  0.00000000E+00  0.00000000E+00
  0.00000000E+00  0.00000000E+00  0.00000000E+00
  0.00000000E+00  0.00000000E+00  0.00000000E+00
  0.00000000E+00  0.00000000E+00  0.00000000E+00
  0.00000000E+00  0.00000000E+00  0.00000000E+00
  0.00000000E+00  0.00000000E+00  0.00000000E+00
  0.00000000E+00  0.00000000E+00  0.00000000E+00
  0.00000000E+00  0.00000000E+00  0.00000000E+00
  0.00000000E+00  0.00000000E+00  0.00000000E+00
  0.00000000E+00  0.00000000E+00  0.00000000E+00
