Title                                   
   1.00000000000000     
     9.8694509999999998    0.0000000000000000    0.0000000000000000
     0.0000000000000000    8.5490480000000009    0.0000000000000000
     0.0000000000000000    0.0000000000000000   20.0000000000000000
    27     4     1
Selective dynamics
Direct
  0.0557798113397523  0.0922323910637891  0.0838250594607757   T   T   T
  0.9308278832038622  0.1746081322332394  0.0848882131536032   T   T   T
  0.0572266002444773  0.9249962385206691  0.0846677063835657   T   T   T
  0.9299618556954398  0.3416998567791218  0.0878201472231924   T   T   T
  0.0570510301221974  0.5899366065367954  0.0848537795616674   T   T   T
  0.9329072295029694  0.6734254429391763  0.0875414157937783   T   T   T
  0.0568397148040309  0.4230707312877983  0.0861112078488757   T   T   T
  0.9329723354866497  0.8406411194772356  0.0863481786486610   T   T   T
  0.3053447719468504  0.0880432628473359  0.0880239482586591   T   T   T
  0.1819045016718665  0.1734034433348038  0.0856231083486656   T   T   T
  0.1836581272289931  0.3406255129119148  0.0876257727697214   T   T   T
  0.3032772051430585  0.5923950811694813  0.0994628396164862   T   T   T
  0.1812760184901388  0.6741447425960883  0.0883991064217062   T   T   T
  0.3099589183046957  0.4250073542824681  0.0961827683698048   T   T   T
  0.1809730442915546  0.8414022333354293  0.0881013599393802   T   T   T
  0.5564391621280111  0.0840353038914665  0.0938638502233474   T   T   T
  0.4307877712771250  0.1678488839378006  0.0929293892754313   T   T   T
  0.5548634787404674  0.9169038269494304  0.0982338507399593   T   T   T
  0.4319938118936943  0.3322851247835268  0.1005757311133119   T   T   T
  0.4249638855514633  0.8404766020744736  0.1016963894306971   T   T   T
  0.8065685366887380  0.0894404122336302  0.0856597952018466   T   T   T
  0.6809068045399440  0.1689488732144461  0.0913948848394912   T   T   T
  0.8072984091872419  0.9234344697360471  0.0877732318828117   T   T   T
  0.6797414102690450  0.3336066379709815  0.1001646614768790   T   T   T
  0.8096628636628059  0.5930786879191701  0.0984366180394786   T   T   T
  0.8030162006417144  0.4245954260817049  0.0962796076233820   T   T   T
  0.6851657615025281  0.8391128684356113  0.0987855116850188   T   T   T
  0.4126187762398243  0.6857438495175315  0.1207479260996169   T   T   T
  0.5559519728443945  0.4011886433331763  0.1170932070055739   T   T   T
  0.6967267202695113  0.6821018474605330  0.1154334352410028   T   T   T
  0.3050246221656676  0.9237637398236522  0.0908194516029390   T   T   T
  0.5579497649212928  0.5880486533214738  0.1763128467206857   T   T   T
 
  0.00000000E+00  0.00000000E+00  0.00000000E+00
  0.00000000E+00  0.00000000E+00  0.00000000E+00
  0.00000000E+00  0.00000000E+00  0.00000000E+00
  0.00000000E+00  0.00000000E+00  0.00000000E+00
  0.00000000E+00  0.00000000E+00  0.00000000E+00
  0.00000000E+00  0.00000000E+00  0.00000000E+00
  0.00000000E+00  0.00000000E+00  0.00000000E+00
  0.00000000E+00  0.00000000E+00  0.00000000E+00
  0.00000000E+00  0.00000000E+00  0.00000000E+00
  0.00000000E+00  0.00000000E+00  0.00000000E+00
  0.00000000E+00  0.00000000E+00  0.00000000E+00
  0.00000000E+00  0.00000000E+00  0.00000000E+00
  0.00000000E+00  0.00000000E+00  0.00000000E+00
  0.00000000E+00  0.00000000E+00  0.00000000E+00
  0.00000000E+00  0.00000000E+00  0.00000000E+00
  0.00000000E+00  0.00000000E+00  0.00000000E+00
  0.00000000E+00  0.00000000E+00  0.00000000E+00
  0.00000000E+00  0.00000000E+00  0.00000000E+00
  0.00000000E+00  0.00000000E+00  0.00000000E+00
  0.00000000E+00  0.00000000E+00  0.00000000E+00
  0.00000000E+00  0.00000000E+00  0.00000000E+00
  0.00000000E+00  0.00000000E+00  0.00000000E+00
  0.00000000E+00  0.00000000E+00  0.00000000E+00
  0.00000000E+00  0.00000000E+00  0.00000000E+00
  0.00000000E+00  0.00000000E+00  0.00000000E+00
  0.00000000E+00  0.00000000E+00  0.00000000E+00
  0.00000000E+00  0.00000000E+00  0.00000000E+00
  0.00000000E+00  0.00000000E+00  0.00000000E+00
  0.00000000E+00  0.00000000E+00  0.00000000E+00
  0.00000000E+00  0.00000000E+00  0.00000000E+00
  0.00000000E+00  0.00000000E+00  0.00000000E+00
  0.00000000E+00  0.00000000E+00  0.00000000E+00
