Title                                   
   1.00000000000000     
     4.9440799999999996    0.0000000000000000    0.0000000000000000
     0.0000000000000000   17.1295089999999988    0.0000000000000000
     0.0000000000000000    0.0000000000000000   20.0000000000000000
    27     3     1
Selective dynamics
Direct
  0.0018511600967146  0.1056190768279423  0.2967091576591322   T   T   T
  0.2513476969176690  0.1481082230119469  0.2978114482038192   T   T   T
  0.2522064037556530  0.2328605482019510  0.2996991517437861   T   T   T
 -0.0015112419208228  0.2727054931428619  0.2981322255961935   T   T   T
 -0.0038524917516924  0.6013090057566759  0.2996983972174766   T   T   T
  0.2483519610653487  0.7271938850441596  0.2981001357578596   T   T   T
 -0.0000443757478624  0.8537129025356029  0.2963990205066199   T   T   T
  0.2497968912861379  0.8957382492738334  0.2963460662116946   T   T   T
  0.2502016017399045  0.9795133038033612  0.2962525329496066   T   T   T
 -0.0004125985015781  0.7699005614288159  0.2970687981794112   T   T   T
  0.4997570569763875  0.1054305968967740  0.2972074653979567   T   T   T
  0.7505460046510619  0.1468729272094226  0.2971667089461600   T   T   T
  0.7508146205352791  0.2303384071384106  0.2983596348848779   T   T   T
  0.4998469463081357  0.0215625725194215  0.2964729813474952   T   T   T
  0.7559664719091919  0.3920977395924260  0.3021627100797162   T   T   T
  0.7531971400986543  0.4807683677795171  0.3024031336323020   T   T   T
  0.5050474779249903  0.2737901065633779  0.3019927341902097   T   T   T
  0.5000931510986028  0.6021037910657228  0.3020435225778349   T   T   T
  0.7496220258818577  0.7281671537424549  0.2975183214970145   T   T   T
  0.4993157137374069  0.8535893012462989  0.2966182787408754   T   T   T
  0.7497103536118536  0.8956687454699450  0.2962616136408099   T   T   T
  0.7502188010913406  0.9796673480120069  0.2961658180496187   T   T   T
  0.4987008891697966  0.7696392671985058  0.2974559638942675   T   T   T
  0.7482479905884029  0.6444478231620427  0.2989418514834717   T   T   T
  0.2484789991716682  0.6432544828269144  0.3002854093665810   T   T   T
  0.0008515718860643  0.0216448203238405  0.2961805047822978   T   T   T
  0.5090009534595974  0.5192989569220529  0.3076369337540952   T   T   T
  0.9915911991401537  0.5208335550392449  0.3000108923497807   T   T   T
  0.5173797465460743  0.3545838007913829  0.3088197978685747   T   T   T
 -0.0109966661678029  0.3530896572114630  0.2963066390067175   T   T   T
  0.2446815454418138  0.4378313302616188  0.3188321504836951   T   T   T
 
  0.00000000E+00  0.00000000E+00  0.00000000E+00
  0.00000000E+00  0.00000000E+00  0.00000000E+00
  0.00000000E+00  0.00000000E+00  0.00000000E+00
  0.00000000E+00  0.00000000E+00  0.00000000E+00
  0.00000000E+00  0.00000000E+00  0.00000000E+00
  0.00000000E+00  0.00000000E+00  0.00000000E+00
  0.00000000E+00  0.00000000E+00  0.00000000E+00
  0.00000000E+00  0.00000000E+00  0.00000000E+00
  0.00000000E+00  0.00000000E+00  0.00000000E+00
  0.00000000E+00  0.00000000E+00  0.00000000E+00
  0.00000000E+00  0.00000000E+00  0.00000000E+00
  0.00000000E+00  0.00000000E+00  0.00000000E+00
  0.00000000E+00  0.00000000E+00  0.00000000E+00
  0.00000000E+00  0.00000000E+00  0.00000000E+00
  0.00000000E+00  0.00000000E+00  0.00000000E+00
  0.00000000E+00  0.00000000E+00  0.00000000E+00
  0.00000000E+00  0.00000000E+00  0.00000000E+00
  0.00000000E+00  0.00000000E+00  0.00000000E+00
  0.00000000E+00  0.00000000E+00  0.00000000E+00
  0.00000000E+00  0.00000000E+00  0.00000000E+00
  0.00000000E+00  0.00000000E+00  0.00000000E+00
  0.00000000E+00  0.00000000E+00  0.00000000E+00
  0.00000000E+00  0.00000000E+00  0.00000000E+00
  0.00000000E+00  0.00000000E+00  0.00000000E+00
  0.00000000E+00  0.00000000E+00  0.00000000E+00
  0.00000000E+00  0.00000000E+00  0.00000000E+00
  0.00000000E+00  0.00000000E+00  0.00000000E+00
  0.00000000E+00  0.00000000E+00  0.00000000E+00
  0.00000000E+00  0.00000000E+00  0.00000000E+00
  0.00000000E+00  0.00000000E+00  0.00000000E+00
  0.00000000E+00  0.00000000E+00  0.00000000E+00
