Title                                   
   1.00000000000000     
     8.5490480000000009    0.0000000000000000    0.0000000000000000
     0.0000000000000000    8.5490480000000009    0.0000000000000000
     0.0000000000000000    0.0000000000000000   20.0000000000000000
    20     4     1
Selective dynamics
Direct
  0.9111192259231117  0.2031304388544681  0.0954708722293009   T   T   T
  0.9073007751714541  0.5018061601240046  0.0953089522382497   T   T   T
  0.9111268845188825  0.8004566407612103  0.0954859539260143   T   T   T
  0.1943606700689751  0.0836637038281965  0.0954997347261438   T   T   T
  0.0749034446762045  0.2031100436311975  0.0954789419934536   T   T   T
  0.1943747721035998  0.9198800055907425  0.0955044259571054   T   T   T
  0.1561140919691522  0.6523541983617025  0.0953457874220934   T   T   T
  0.0787563058719638  0.5017844770822242  0.0953259397568298   T   T   T
  0.1561051625918549  0.3511978730346575  0.0953321111103691   T   T   T
  0.0749127036310822  0.8004395077658645  0.0954919240772763   T   T   T
  0.4929895076851086  0.0875241745459061  0.0953528549959712   T   T   T
  0.3424337173363604  0.1648928244896849  0.0953572531977901   T   T   T
  0.4929933182915934  0.9160742835590435  0.0953594455349886   T   T   T
  0.3424538006075761  0.8386811050109549  0.0953648323051205   T   T   T
  0.7916634255851833  0.0836890385353369  0.0954819549571366   T   T   T
  0.6435691390926608  0.1649097056736877  0.0953240711184105   T   T   T
  0.7916729512181817  0.9199076931059871  0.0954925195667399   T   T   T
  0.8299325535394199  0.6523773402957346  0.0953263145854391   T   T   T
  0.8299268506353269  0.3512269708384265  0.0953003941171807   T   T   T
  0.6435772939947044  0.8387072077697396  0.0953377889389711   T   T   T
  0.3144343358019141  0.3231954920987154  0.0951889641715336   T   T   T
  0.3144448393608508  0.6803597748874328  0.0952002705924372   T   T   T
  0.6716134289043045  0.3232198373100169  0.0951519099157663   T   T   T
  0.6716202253935619  0.6803838586364100  0.0951700140881235   T   T   T
  0.4930125760269651  0.5018176442086683  0.0950517684775325   T   T   T
 
  0.00000000E+00  0.00000000E+00  0.00000000E+00
  0.00000000E+00  0.00000000E+00  0.00000000E+00
  0.00000000E+00  0.00000000E+00  0.00000000E+00
  0.00000000E+00  0.00000000E+00  0.00000000E+00
  0.00000000E+00  0.00000000E+00  0.00000000E+00
  0.00000000E+00  0.00000000E+00  0.00000000E+00
  0.00000000E+00  0.00000000E+00  0.00000000E+00
  0.00000000E+00  0.00000000E+00  0.00000000E+00
  0.00000000E+00  0.00000000E+00  0.00000000E+00
  0.00000000E+00  0.00000000E+00  0.00000000E+00
  0.00000000E+00  0.00000000E+00  0.00000000E+00
  0.00000000E+00  0.00000000E+00  0.00000000E+00
  0.00000000E+00  0.00000000E+00  0.00000000E+00
  0.00000000E+00  0.00000000E+00  0.00000000E+00
  0.00000000E+00  0.00000000E+00  0.00000000E+00
  0.00000000E+00  0.00000000E+00  0.00000000E+00
  0.00000000E+00  0.00000000E+00  0.00000000E+00
  0.00000000E+00  0.00000000E+00  0.00000000E+00
  0.00000000E+00  0.00000000E+00  0.00000000E+00
  0.00000000E+00  0.00000000E+00  0.00000000E+00
  0.00000000E+00  0.00000000E+00  0.00000000E+00
  0.00000000E+00  0.00000000E+00  0.00000000E+00
  0.00000000E+00  0.00000000E+00  0.00000000E+00
  0.00000000E+00  0.00000000E+00  0.00000000E+00
  0.00000000E+00  0.00000000E+00  0.00000000E+00
