Title                                   
   1.00000000000000     
     9.8694509999999998    0.0000000000000000    0.0000000000000000
     0.0000000000000000    8.5490480000000009    0.0000000000000000
     0.0000000000000000    0.0000000000000000   20.0000000000000000
    28     2     1
Selective dynamics
Direct
  0.0561878347021074  0.0888566626782819  0.0933860018480394   T   T   T
  0.9318433743067864  0.1720298047688375  0.0937256807054814   T   T   T
  0.0562502193564716  0.9234795257185893  0.0933935114126442   T   T   T
  0.9353868093960506  0.3386656176354224  0.0936384747391975   T   T   T
  0.0558181433141932  0.5893649561676967  0.0930947388658946   T   T   T
  0.9346194787661678  0.6751243212138781  0.0936274799773826   T   T   T
  0.0566528201627121  0.4229591775683569  0.0930913655910086   T   T   T
  0.9328121376457487  0.8412090213375395  0.0937768097253590   T   T   T
  0.3053974747038022  0.0901774610892119  0.0947692864910276   T   T   T
  0.1796296856902737  0.1711235690621200  0.0938021463345232   T   T   T
  0.3054033278048821  0.9231047903414963  0.0947305312226323   T   T   T
  0.1778500059759804  0.3372034230547499  0.0936724794752978   T   T   T
  0.2985362119472296  0.5895335114590744  0.0950863571225370   T   T   T
  0.1770783741877288  0.6736533822770649  0.0937021192649386   T   T   T
  0.2985352752906357  0.4193617740139851  0.0950572014476946   T   T   T
  0.1805954777244353  0.8402961296577667  0.0937747950907760   T   T   T
  0.5562189529052547  0.0908452404007615  0.0961291900652076   T   T   T
  0.4285839619688775  0.1762997722415919  0.0958979554066869   T   T   T
  0.5562133639622067  0.9214376278574664  0.0961244675955826   T   T   T
  0.4193122757772115  0.6734374051913129  0.0965332807163511   T   T   T
  0.4290158028791548  0.8369513851334479  0.0958912126095444   T   T   T
  0.8070358926422515  0.0892021591694327  0.0946957714771665   T   T   T
  0.6834341861267810  0.1753780259368500  0.0958770000827435   T   T   T
  0.8070300890765435  0.9221230175941545  0.0947333025641903   T   T   T
  0.6931903425032311  0.3388853747412763  0.0964911754898012   T   T   T
  0.8139559434328235  0.5929500155354062  0.0949716342295681   T   T   T
  0.8139577760959057  0.4227936754601809  0.0950084717292981   T   T   T
  0.6838548643228662  0.8359798258677491  0.0958626284118680   T   T   T
  0.4181867473133549  0.3386048450623775  0.0964485030851603   T   T   T
  0.6942990119174719  0.6736947005746005  0.0963817657494947   T   T   T
  0.5562491381008692  0.5061488011893331  0.0975896614729435   T   T   T
 
  0.00000000E+00  0.00000000E+00  0.00000000E+00
  0.00000000E+00  0.00000000E+00  0.00000000E+00
  0.00000000E+00  0.00000000E+00  0.00000000E+00
  0.00000000E+00  0.00000000E+00  0.00000000E+00
  0.00000000E+00  0.00000000E+00  0.00000000E+00
  0.00000000E+00  0.00000000E+00  0.00000000E+00
  0.00000000E+00  0.00000000E+00  0.00000000E+00
  0.00000000E+00  0.00000000E+00  0.00000000E+00
  0.00000000E+00  0.00000000E+00  0.00000000E+00
  0.00000000E+00  0.00000000E+00  0.00000000E+00
  0.00000000E+00  0.00000000E+00  0.00000000E+00
  0.00000000E+00  0.00000000E+00  0.00000000E+00
  0.00000000E+00  0.00000000E+00  0.00000000E+00
  0.00000000E+00  0.00000000E+00  0.00000000E+00
  0.00000000E+00  0.00000000E+00  0.00000000E+00
  0.00000000E+00  0.00000000E+00  0.00000000E+00
  0.00000000E+00  0.00000000E+00  0.00000000E+00
  0.00000000E+00  0.00000000E+00  0.00000000E+00
  0.00000000E+00  0.00000000E+00  0.00000000E+00
  0.00000000E+00  0.00000000E+00  0.00000000E+00
  0.00000000E+00  0.00000000E+00  0.00000000E+00
  0.00000000E+00  0.00000000E+00  0.00000000E+00
  0.00000000E+00  0.00000000E+00  0.00000000E+00
  0.00000000E+00  0.00000000E+00  0.00000000E+00
  0.00000000E+00  0.00000000E+00  0.00000000E+00
  0.00000000E+00  0.00000000E+00  0.00000000E+00
  0.00000000E+00  0.00000000E+00  0.00000000E+00
  0.00000000E+00  0.00000000E+00  0.00000000E+00
  0.00000000E+00  0.00000000E+00  0.00000000E+00
  0.00000000E+00  0.00000000E+00  0.00000000E+00
  0.00000000E+00  0.00000000E+00  0.00000000E+00
