Title                                   
   1.00000000000000     
     4.9440799999999996    0.0000000000000000    0.0000000000000000
     0.0000000000000000   17.1295089999999988    0.0000000000000000
     0.0000000000000000    0.0000000000000000   20.0000000000000000
    29     2     1
Selective dynamics
Direct
  0.0036097291970636  0.1038990219423656  0.2893299529115523   T   T   T
  0.2543702273253746  0.1453573465791790  0.2929957456601011   T   T   T
  0.2553880747897773  0.2279217237367905  0.3019588949463028   T   T   T
  0.0075038989130490  0.3507141355368220  0.3161060803884564   T   T   T
  0.0044753240718222  0.2688431746138024  0.3054521388548277   T   T   T
 -0.0050829495611585  0.6038624468394678  0.2979602452043476   T   T   T
  0.2496129578842353  0.7286382461474198  0.2930067044851770   T   T   T
  0.0016736796531218  0.8540334062204852  0.2859283056602428   T   T   T
  0.2516032749038729  0.8957197511336854  0.2852704345577043   T   T   T
  0.2525706055939144  0.9790685271783378  0.2848766196376837   T   T   T
  0.0012147357910339  0.7707216173716390  0.2892916637034767   T   T   T
  0.5039399482614573  0.1037692084297290  0.2895228066697752   T   T   T
  0.7538147176060958  0.1454233114256034  0.2920703468745717   T   T   T
  0.7545750603117471  0.2280741098219972  0.2998140880004773   T   T   T
  0.5029873442795244  0.0206284248345577  0.2856471274447758   T   T   T
  0.5050314243835688  0.3516198012395140  0.3183999028256360   T   T   T
  0.7578052144890827  0.3961514030065333  0.3172290611421883   T   T   T
  0.7517355316084238  0.4819560249159507  0.3135391889181012   T   T   T
  0.5061532874644540  0.2695648854065029  0.3066168846460953   T   T   T
  0.5031784164997709  0.6054120807051818  0.3077296442006060   T   T   T
  0.7503933668173159  0.7297487365247646  0.2922290569776274   T   T   T
  0.5008387552006909  0.8539513407131706  0.2866409391438287   T   T   T
  0.7515424072403559  0.8955424531238069  0.2850782023006359   T   T   T
  0.7525553615728748  0.9788842619124559  0.2846528586404211   T   T   T
  0.4994776956855168  0.7706893090865981  0.2907757554846618   T   T   T
  0.7489092352151171  0.6471410314673599  0.2981115084189164   T   T   T
  0.2496909445881258  0.6447684162960551  0.2998701110054365   T   T   T
  0.0026974818361707  0.0206784191322349  0.2854733026104127   T   T   T
  0.5198493853352988  0.5258501686105274  0.3307934652011341   T   T   T
  0.9858617195141830  0.5218144305925991  0.2890824939763926   T   T   T
  0.2558423345803230  0.3871064934687052  0.3288655877180226   T   T   T
  0.1630038089478030  0.4909972919861516  0.3782458817903629   T   T   T
 
  0.00000000E+00  0.00000000E+00  0.00000000E+00
  0.00000000E+00  0.00000000E+00  0.00000000E+00
  0.00000000E+00  0.00000000E+00  0.00000000E+00
  0.00000000E+00  0.00000000E+00  0.00000000E+00
  0.00000000E+00  0.00000000E+00  0.00000000E+00
  0.00000000E+00  0.00000000E+00  0.00000000E+00
  0.00000000E+00  0.00000000E+00  0.00000000E+00
  0.00000000E+00  0.00000000E+00  0.00000000E+00
  0.00000000E+00  0.00000000E+00  0.00000000E+00
  0.00000000E+00  0.00000000E+00  0.00000000E+00
  0.00000000E+00  0.00000000E+00  0.00000000E+00
  0.00000000E+00  0.00000000E+00  0.00000000E+00
  0.00000000E+00  0.00000000E+00  0.00000000E+00
  0.00000000E+00  0.00000000E+00  0.00000000E+00
  0.00000000E+00  0.00000000E+00  0.00000000E+00
  0.00000000E+00  0.00000000E+00  0.00000000E+00
  0.00000000E+00  0.00000000E+00  0.00000000E+00
  0.00000000E+00  0.00000000E+00  0.00000000E+00
  0.00000000E+00  0.00000000E+00  0.00000000E+00
  0.00000000E+00  0.00000000E+00  0.00000000E+00
  0.00000000E+00  0.00000000E+00  0.00000000E+00
  0.00000000E+00  0.00000000E+00  0.00000000E+00
  0.00000000E+00  0.00000000E+00  0.00000000E+00
  0.00000000E+00  0.00000000E+00  0.00000000E+00
  0.00000000E+00  0.00000000E+00  0.00000000E+00
  0.00000000E+00  0.00000000E+00  0.00000000E+00
  0.00000000E+00  0.00000000E+00  0.00000000E+00
  0.00000000E+00  0.00000000E+00  0.00000000E+00
  0.00000000E+00  0.00000000E+00  0.00000000E+00
  0.00000000E+00  0.00000000E+00  0.00000000E+00
  0.00000000E+00  0.00000000E+00  0.00000000E+00
  0.00000000E+00  0.00000000E+00  0.00000000E+00
