Title                                   
   1.00000000000000     
     8.5490480000000009    0.0000000000000000    0.0000000000000000
     0.0000000000000000    8.5490480000000009    0.0000000000000000
     0.0000000000000000    0.0000000000000000   20.0000000000000000
    20     4     1
Selective dynamics
Direct
  0.9100732556608743  0.2053562833015118  0.0974585003104451   T   T   T
  0.9116260726209966  0.8010402391532003  0.0974375507397550   T   T   T
  0.1985947498150228  0.0833176895989706  0.0978423821348623   T   T   T
  0.0754152469886198  0.2033762299425645  0.0976598996459920   T   T   T
  0.1533925923329913  0.6498107549117695  0.0977691923602556   T   T   T
  0.0715717337519683  0.5015569757432624  0.0977556947462325   T   T   T
  0.1518728415893246  0.3547324155255553  0.0977708432247110   T   T   T
  0.0785108937805555  0.7991553121845665  0.0976937788428519   T   T   T
  0.4955870406410549  0.0867065188753888  0.0978480188612594   T   T   T
  0.3459248302354019  0.1644911664795753  0.0979400674177897   T   T   T
  0.4947246533155100  0.9168086752463132  0.0978061806740136   T   T   T
  0.3463479649516931  0.8352731814322225  0.0979443002472768   T   T   T
  0.7899277036756570  0.0862711471972150  0.0974103055650991   T   T   T
  0.6437140197676964  0.1665350029428386  0.0976832662127552   T   T   T
  0.7904019745792574  0.9188117094258422  0.0973937062112302   T   T   T
  0.8288004135661341  0.6522239255926269  0.0976249382470902   T   T   T
  0.8272078999545248  0.3538236357843598  0.0976634265480858   T   T   T
  0.6437715102411167  0.8368883511896602  0.0976128367685037   T   T   T
  0.3207082655366156  0.3334582973252985  0.0979857306801659   T   T   T
  0.3209488894767979  0.6711979861861830  0.0979523561249659   T   T   T
  0.9035137441172110  0.5027478369747146  0.0977423357165680   T   T   T
  0.6689147221031687  0.3304730196342986  0.0978440075779388   T   T   T
  0.6697082509723599  0.6742705527141604  0.0977584259121912   T   T   T
  0.1978060357760142  0.9171542649762477  0.0979097463382639   T   T   T
  0.4863466945494259  0.4993088276616748  0.0981975088916698   T   T   T
 
  0.00000000E+00  0.00000000E+00  0.00000000E+00
  0.00000000E+00  0.00000000E+00  0.00000000E+00
  0.00000000E+00  0.00000000E+00  0.00000000E+00
  0.00000000E+00  0.00000000E+00  0.00000000E+00
  0.00000000E+00  0.00000000E+00  0.00000000E+00
  0.00000000E+00  0.00000000E+00  0.00000000E+00
  0.00000000E+00  0.00000000E+00  0.00000000E+00
  0.00000000E+00  0.00000000E+00  0.00000000E+00
  0.00000000E+00  0.00000000E+00  0.00000000E+00
  0.00000000E+00  0.00000000E+00  0.00000000E+00
  0.00000000E+00  0.00000000E+00  0.00000000E+00
  0.00000000E+00  0.00000000E+00  0.00000000E+00
  0.00000000E+00  0.00000000E+00  0.00000000E+00
  0.00000000E+00  0.00000000E+00  0.00000000E+00
  0.00000000E+00  0.00000000E+00  0.00000000E+00
  0.00000000E+00  0.00000000E+00  0.00000000E+00
  0.00000000E+00  0.00000000E+00  0.00000000E+00
  0.00000000E+00  0.00000000E+00  0.00000000E+00
  0.00000000E+00  0.00000000E+00  0.00000000E+00
  0.00000000E+00  0.00000000E+00  0.00000000E+00
  0.00000000E+00  0.00000000E+00  0.00000000E+00
  0.00000000E+00  0.00000000E+00  0.00000000E+00
  0.00000000E+00  0.00000000E+00  0.00000000E+00
  0.00000000E+00  0.00000000E+00  0.00000000E+00
  0.00000000E+00  0.00000000E+00  0.00000000E+00
