Title                                   
   1.00000000000000     
     4.9440799999999996    0.0000000000000000    0.0000000000000000
     0.0000000000000000   17.1295089999999988    0.0000000000000000
     0.0000000000000000    0.0000000000000000   20.0000000000000000
    31     1
Selective dynamics
Direct
  0.0001181607785497  0.1041069923355976  0.2814116441770418   T   T   T
  0.2499066694239840  0.1457418373712016  0.2855895545450009   T   T   T
  0.2499160794874825  0.2283594365712473  0.2965593227200678   T   T   T
 -0.0019092373979401  0.3508759604973367  0.3184658872629217   T   T   T
 -0.0014795177742719  0.2691086256514379  0.3025877470149809   T   T   T
 -0.0023282271868731  0.6070378754833163  0.3147446786174463   T   T   T
  0.2499073321843450  0.7295148490924791  0.2937942315413970   T   T   T
  0.0000913849602506  0.8540841299601063  0.2799868860589641   T   T   T
  0.2498907511336386  0.8957811446073104  0.2778389823020609   T   T   T
  0.2499054742398082  0.9791285905816831  0.2761784143851070   T   T   T
  0.0001804494895091  0.7711360897504892  0.2876444129569783   T   T   T
  0.4996808859856821  0.1041100538650419  0.2814065043072085   T   T   T
  0.7498980589223702  0.1454249626082307  0.2849060627900952   T   T   T
  0.7499088472132002  0.2279139005194632  0.2953142548792976   T   T   T
  0.4998243800209567  0.0208446787690558  0.2768277670991259   T   T   T
  0.5017488177678164  0.3508669315121982  0.3184688101585645   T   T   T
  0.7499119926213873  0.3941550716283758  0.3239110477395131   T   T   T
  0.7498895520420436  0.4799107669266416  0.3282010964632033   T   T   T
  0.5013176511684911  0.2691049466799608  0.3025901869406263   T   T   T
  0.5021235050916437  0.6070330047238095  0.3147463516788416   T   T   T
  0.7498843187459461  0.7302044381598819  0.2922690736166022   T   T   T
  0.4997086581996379  0.8540873555782232  0.2799858209111535   T   T   T
  0.7499108604420429  0.8956575168890870  0.2775609976676722   T   T   T
  0.7499100637015538  0.9791512243320754  0.2759883887903498   T   T   T
  0.4996167621438534  0.7711394729243967  0.2876404931589432   T   T   T
  0.7498882961722487  0.6481554453912692  0.3050134653520206   T   T   T
  0.2499006044158084  0.6478251083520173  0.3084664902910312   T   T   T
 -0.0000159734082195  0.0208440542664129  0.2768260955171025   T   T   T
  0.5104407346279698  0.5260178908375336  0.3311251755133524   T   T   T
  0.9893119839496750  0.5260226458293358  0.3311184831362218   T   T   T
  0.2499249820192062  0.3871906992273079  0.3316121274098698   T   T   T
  0.2498386988182098  0.4780152990774672  0.3837845449971895   T   T   T
 
  0.00000000E+00  0.00000000E+00  0.00000000E+00
  0.00000000E+00  0.00000000E+00  0.00000000E+00
  0.00000000E+00  0.00000000E+00  0.00000000E+00
  0.00000000E+00  0.00000000E+00  0.00000000E+00
  0.00000000E+00  0.00000000E+00  0.00000000E+00
  0.00000000E+00  0.00000000E+00  0.00000000E+00
  0.00000000E+00  0.00000000E+00  0.00000000E+00
  0.00000000E+00  0.00000000E+00  0.00000000E+00
  0.00000000E+00  0.00000000E+00  0.00000000E+00
  0.00000000E+00  0.00000000E+00  0.00000000E+00
  0.00000000E+00  0.00000000E+00  0.00000000E+00
  0.00000000E+00  0.00000000E+00  0.00000000E+00
  0.00000000E+00  0.00000000E+00  0.00000000E+00
  0.00000000E+00  0.00000000E+00  0.00000000E+00
  0.00000000E+00  0.00000000E+00  0.00000000E+00
  0.00000000E+00  0.00000000E+00  0.00000000E+00
  0.00000000E+00  0.00000000E+00  0.00000000E+00
  0.00000000E+00  0.00000000E+00  0.00000000E+00
  0.00000000E+00  0.00000000E+00  0.00000000E+00
  0.00000000E+00  0.00000000E+00  0.00000000E+00
  0.00000000E+00  0.00000000E+00  0.00000000E+00
  0.00000000E+00  0.00000000E+00  0.00000000E+00
  0.00000000E+00  0.00000000E+00  0.00000000E+00
  0.00000000E+00  0.00000000E+00  0.00000000E+00
  0.00000000E+00  0.00000000E+00  0.00000000E+00
  0.00000000E+00  0.00000000E+00  0.00000000E+00
  0.00000000E+00  0.00000000E+00  0.00000000E+00
  0.00000000E+00  0.00000000E+00  0.00000000E+00
  0.00000000E+00  0.00000000E+00  0.00000000E+00
  0.00000000E+00  0.00000000E+00  0.00000000E+00
  0.00000000E+00  0.00000000E+00  0.00000000E+00
  0.00000000E+00  0.00000000E+00  0.00000000E+00
