Title                                   
   1.00000000000000     
     9.8694509999999998    0.0000000000000000    0.0000000000000000
     0.0000000000000000    8.5490480000000009    0.0000000000000000
     0.0000000000000000    0.0000000000000000   20.0000000000000000
    27     4     1
Selective dynamics
Direct
  0.0555038859789644  0.0903540762698676  0.0812771402396381   T   T   T
  0.9304658659964408  0.1747791152054764  0.0810962161104786   T   T   T
  0.0573967755225048  0.9230276428716478  0.0829610879672758   T   T   T
  0.9297956134371923  0.3418813006054921  0.0833883469223647   T   T   T
  0.0560383435978924  0.5913855369448889  0.0852605878793533   T   T   T
  0.0554479402191705  0.4247629043221571  0.0840386683078905   T   T   T
  0.9332530657137110  0.8392648640429708  0.0853239205059242   T   T   T
  0.3054080924808672  0.0881900150622883  0.0881230258419682   T   T   T
  0.1815341079532156  0.1728596983522215  0.0844460085983479   T   T   T
  0.1812610589938444  0.3400590557986891  0.0870794698444898   T   T   T
  0.3014253997419343  0.5879419388209762  0.1040019533952093   T   T   T
  0.1807448973455286  0.6740552480475787  0.0903708227224158   T   T   T
  0.3059201095484248  0.4203217973130600  0.0998181676812762   T   T   T
  0.1826647036299034  0.8411183589783969  0.0874365003647723   T   T   T
  0.5560738556565482  0.0861369451485983  0.0917582247210966   T   T   T
  0.5553547352407584  0.9195503083038060  0.0989312554630638   T   T   T
  0.4287344547512923  0.3300902061084739  0.1063347020150278   T   T   T
  0.4267543971801350  0.8413591556157327  0.1056139290249112   T   T   T
  0.8062358486252174  0.0888613558364095  0.0826737204133537   T   T   T
  0.6797559585951376  0.1711195667198646  0.0879445618392383   T   T   T
  0.8076338865762667  0.9230363554720997  0.0868959926111129   T   T   T
  0.6817560244255733  0.3362901027858963  0.0987827374606048   T   T   T
  0.8103770823329468  0.5940784533637580  0.0986356650476987   T   T   T
  0.8047346482959272  0.4262130486581114  0.0932196668027337   T   T   T
  0.6849568702083234  0.8418525256854719  0.0995554636544830   T   T   T
  0.4153144506607787  0.6817484142431285  0.1241826697964477   T   T   T
  0.5563651093874604  0.4009003521433578  0.1222241531836377   T   T   T
  0.7005473024837703  0.6837729031059938  0.1187593236154068   T   T   T
  0.3056835299745381  0.9246983794292096  0.0907728868710336   T   T   T
  0.4285935928172650  0.1666977428319963  0.0943055949437791   T   T   T
  0.9329309470969472  0.6744619413193941  0.0871420416887048   T   T   T
  0.5609764455315240  0.5893766905929875  0.1733204944662768   T   T   T
 
  0.00000000E+00  0.00000000E+00  0.00000000E+00
  0.00000000E+00  0.00000000E+00  0.00000000E+00
  0.00000000E+00  0.00000000E+00  0.00000000E+00
  0.00000000E+00  0.00000000E+00  0.00000000E+00
  0.00000000E+00  0.00000000E+00  0.00000000E+00
  0.00000000E+00  0.00000000E+00  0.00000000E+00
  0.00000000E+00  0.00000000E+00  0.00000000E+00
  0.00000000E+00  0.00000000E+00  0.00000000E+00
  0.00000000E+00  0.00000000E+00  0.00000000E+00
  0.00000000E+00  0.00000000E+00  0.00000000E+00
  0.00000000E+00  0.00000000E+00  0.00000000E+00
  0.00000000E+00  0.00000000E+00  0.00000000E+00
  0.00000000E+00  0.00000000E+00  0.00000000E+00
  0.00000000E+00  0.00000000E+00  0.00000000E+00
  0.00000000E+00  0.00000000E+00  0.00000000E+00
  0.00000000E+00  0.00000000E+00  0.00000000E+00
  0.00000000E+00  0.00000000E+00  0.00000000E+00
  0.00000000E+00  0.00000000E+00  0.00000000E+00
  0.00000000E+00  0.00000000E+00  0.00000000E+00
  0.00000000E+00  0.00000000E+00  0.00000000E+00
  0.00000000E+00  0.00000000E+00  0.00000000E+00
  0.00000000E+00  0.00000000E+00  0.00000000E+00
  0.00000000E+00  0.00000000E+00  0.00000000E+00
  0.00000000E+00  0.00000000E+00  0.00000000E+00
  0.00000000E+00  0.00000000E+00  0.00000000E+00
  0.00000000E+00  0.00000000E+00  0.00000000E+00
  0.00000000E+00  0.00000000E+00  0.00000000E+00
  0.00000000E+00  0.00000000E+00  0.00000000E+00
  0.00000000E+00  0.00000000E+00  0.00000000E+00
  0.00000000E+00  0.00000000E+00  0.00000000E+00
  0.00000000E+00  0.00000000E+00  0.00000000E+00
  0.00000000E+00  0.00000000E+00  0.00000000E+00
