Title                                   
   1.00000000000000     
     9.8694509999999998    0.0000000000000000    0.0000000000000000
     0.0000000000000000    8.5490480000000009    0.0000000000000000
     0.0000000000000000    0.0000000000000000   20.0000000000000000
    28     3     1
Selective dynamics
Direct
  0.0565886707153707  0.0913595110534160  0.0814807279702814   T   T   T
  0.9309684477363139  0.1737649804037609  0.0842088135016009   T   T   T
  0.0557965433878774  0.9241578475271602  0.0814119431989503   T   T   T
  0.9305020335131154  0.3403121202457266  0.0891396134400317   T   T   T
  0.0566350049351986  0.5895343333452163  0.0859765698250964   T   T   T
  0.9315937205907749  0.6724506981855027  0.0882813253468993   T   T   T
  0.0570492601539001  0.4234171874198266  0.0876047116323211   T   T   T
  0.9305029739714905  0.8395115361484786  0.0843396482208235   T   T   T
  0.3057364265868820  0.0905436903614519  0.0846775325565263   T   T   T
  0.1820929780727255  0.1752498768713554  0.0839484053947488   T   T   T
  0.3056919612085894  0.9250585242433269  0.0852551401251450   T   T   T
  0.1840693773066501  0.3423660666488956  0.0882060295297176   T   T   T
  0.3054881794237867  0.5950178224129946  0.0974199383667184   T   T   T
  0.1811342378995111  0.6737298665145307  0.0869062720737457   T   T   T
  0.3112486872241079  0.4259486299685970  0.0962396299218797   T   T   T
  0.1807605819550646  0.8408990536473293  0.0839767698900565   T   T   T
  0.5557551764832828  0.0846755316527527  0.0949074468486512   T   T   T
  0.4317796957322787  0.1696229653192360  0.0921070327516141   T   T   T
  0.4340379560711166  0.3337584220077645  0.1007065432840115   T   T   T
  0.4279108858096135  0.8409674147738251  0.0965458167107823   T   T   T
  0.8070848960541734  0.0890716447954787  0.0851104208823030   T   T   T
  0.6813249485550313  0.1675400552918745  0.0930053825679458   T   T   T
  0.8051525495356432  0.9230059276536430  0.0858143550882032   T   T   T
  0.6809425306191802  0.3318166221404095  0.1025400877657456   T   T   T
  0.8082900991788456  0.5913007890749198  0.1014271844576678   T   T   T
  0.6910912010591390  0.6820366507909918  0.1177850950423504   T   T   T
  0.8045622190705091  0.4222805607822477  0.0990029461462913   T   T   T
  0.6825959430933255  0.8395153718446395  0.0985290419742178   T   T   T
  0.4200058229036163  0.6860970513519381  0.1126263642697310   T   T   T
  0.5576403807335965  0.4010225825418254  0.1190434751377643   T   T   T
  0.5543258614620156  0.9197200549154005  0.0977708239550249   T   T   T
  0.5512797489572789  0.5844926100654899  0.1796799121231875   T   T   T
 
  0.00000000E+00  0.00000000E+00  0.00000000E+00
  0.00000000E+00  0.00000000E+00  0.00000000E+00
  0.00000000E+00  0.00000000E+00  0.00000000E+00
  0.00000000E+00  0.00000000E+00  0.00000000E+00
  0.00000000E+00  0.00000000E+00  0.00000000E+00
  0.00000000E+00  0.00000000E+00  0.00000000E+00
  0.00000000E+00  0.00000000E+00  0.00000000E+00
  0.00000000E+00  0.00000000E+00  0.00000000E+00
  0.00000000E+00  0.00000000E+00  0.00000000E+00
  0.00000000E+00  0.00000000E+00  0.00000000E+00
  0.00000000E+00  0.00000000E+00  0.00000000E+00
  0.00000000E+00  0.00000000E+00  0.00000000E+00
  0.00000000E+00  0.00000000E+00  0.00000000E+00
  0.00000000E+00  0.00000000E+00  0.00000000E+00
  0.00000000E+00  0.00000000E+00  0.00000000E+00
  0.00000000E+00  0.00000000E+00  0.00000000E+00
  0.00000000E+00  0.00000000E+00  0.00000000E+00
  0.00000000E+00  0.00000000E+00  0.00000000E+00
  0.00000000E+00  0.00000000E+00  0.00000000E+00
  0.00000000E+00  0.00000000E+00  0.00000000E+00
  0.00000000E+00  0.00000000E+00  0.00000000E+00
  0.00000000E+00  0.00000000E+00  0.00000000E+00
  0.00000000E+00  0.00000000E+00  0.00000000E+00
  0.00000000E+00  0.00000000E+00  0.00000000E+00
  0.00000000E+00  0.00000000E+00  0.00000000E+00
  0.00000000E+00  0.00000000E+00  0.00000000E+00
  0.00000000E+00  0.00000000E+00  0.00000000E+00
  0.00000000E+00  0.00000000E+00  0.00000000E+00
  0.00000000E+00  0.00000000E+00  0.00000000E+00
  0.00000000E+00  0.00000000E+00  0.00000000E+00
  0.00000000E+00  0.00000000E+00  0.00000000E+00
  0.00000000E+00  0.00000000E+00  0.00000000E+00
