Title                                   
   1.00000000000000     
     9.8694509999999998    0.0000000000000000    0.0000000000000000
     0.0000000000000000    8.5490480000000009    0.0000000000000000
     0.0000000000000000    0.0000000000000000   20.0000000000000000
    27     4     1
Selective dynamics
Direct
  0.0557890693798971  0.0919724870483322  0.0870120999620612   T   T   T
  0.9298319321982459  0.1757539532771195  0.0895362945177030   T   T   T
  0.0572128769541390  0.9236226170802792  0.0850767453748445   T   T   T
  0.9292156364434175  0.3424857486101632  0.0927899943683738   T   T   T
  0.0562097740415562  0.5900405771033944  0.0864610909085024   T   T   T
  0.9327423514520922  0.6730428178681856  0.0870375946609957   T   T   T
  0.0549945237834357  0.4226933377701469  0.0905341931391712   T   T   T
  0.9324163513511072  0.8406200612860767  0.0861844358994361   T   T   T
  0.3055131605441830  0.0868435607856889  0.0896280995874748   T   T   T
  0.1818148834830475  0.1727511502823034  0.0891590759996255   T   T   T
  0.3080157879614272  0.9212359149876548  0.0895505541942043   T   T   T
  0.1806635554954458  0.3390938023965486  0.0919441734431837   T   T   T
  0.3044703348532674  0.5873085742380791  0.0972796718152284   T   T   T
  0.1807020513326733  0.6704721601131440  0.0873638803349724   T   T   T
  0.1825564462803083  0.8381336405909295  0.0864503988221777   T   T   T
  0.5568782626723718  0.0867152652427118  0.0961067139289148   T   T   T
  0.4304055833938394  0.1685535220291399  0.0945993936386878   T   T   T
  0.4293059175823973  0.3344771886503938  0.1012827162494650   T   T   T
  0.4316316320822944  0.8362231564744594  0.0986006477715696   T   T   T
  0.8067429282685206  0.0910274402093085  0.0893135947603979   T   T   T
  0.6805962227207789  0.1724206155161911  0.0946635238948886   T   T   T
  0.8074136185104984  0.9259521157577094  0.0887429349528168   T   T   T
  0.6780792587913292  0.3392833797213300  0.1017728344713682   T   T   T
  0.8076370781491887  0.5949364311515385  0.0969288781264620   T   T   T
  0.6867177314157692  0.8397884008226869  0.0975550581209011   T   T   T
  0.4221182000837816  0.6725894387574335  0.1117287874652776   T   T   T
  0.5515103637859115  0.4126043835007964  0.1149471804673688   T   T   T
  0.6955199311219408  0.6825562598462144  0.1098042589163328   T   T   T
  0.5584102401905466  0.9181523042794373  0.0984231449757053   T   T   T
  0.3044471615053249  0.4201663788202069  0.0971597608169653   T   T   T
  0.8033495290674391  0.4267463622510812  0.0984350877410684   T   T   T
  0.5567266051038300  0.5919829535313154  0.1596021806738714   T   T   T
 
  0.00000000E+00  0.00000000E+00  0.00000000E+00
  0.00000000E+00  0.00000000E+00  0.00000000E+00
  0.00000000E+00  0.00000000E+00  0.00000000E+00
  0.00000000E+00  0.00000000E+00  0.00000000E+00
  0.00000000E+00  0.00000000E+00  0.00000000E+00
  0.00000000E+00  0.00000000E+00  0.00000000E+00
  0.00000000E+00  0.00000000E+00  0.00000000E+00
  0.00000000E+00  0.00000000E+00  0.00000000E+00
  0.00000000E+00  0.00000000E+00  0.00000000E+00
  0.00000000E+00  0.00000000E+00  0.00000000E+00
  0.00000000E+00  0.00000000E+00  0.00000000E+00
  0.00000000E+00  0.00000000E+00  0.00000000E+00
  0.00000000E+00  0.00000000E+00  0.00000000E+00
  0.00000000E+00  0.00000000E+00  0.00000000E+00
  0.00000000E+00  0.00000000E+00  0.00000000E+00
  0.00000000E+00  0.00000000E+00  0.00000000E+00
  0.00000000E+00  0.00000000E+00  0.00000000E+00
  0.00000000E+00  0.00000000E+00  0.00000000E+00
  0.00000000E+00  0.00000000E+00  0.00000000E+00
  0.00000000E+00  0.00000000E+00  0.00000000E+00
  0.00000000E+00  0.00000000E+00  0.00000000E+00
  0.00000000E+00  0.00000000E+00  0.00000000E+00
  0.00000000E+00  0.00000000E+00  0.00000000E+00
  0.00000000E+00  0.00000000E+00  0.00000000E+00
  0.00000000E+00  0.00000000E+00  0.00000000E+00
  0.00000000E+00  0.00000000E+00  0.00000000E+00
  0.00000000E+00  0.00000000E+00  0.00000000E+00
  0.00000000E+00  0.00000000E+00  0.00000000E+00
  0.00000000E+00  0.00000000E+00  0.00000000E+00
  0.00000000E+00  0.00000000E+00  0.00000000E+00
  0.00000000E+00  0.00000000E+00  0.00000000E+00
  0.00000000E+00  0.00000000E+00  0.00000000E+00
