Title                                   
   1.00000000000000     
     9.8694509999999998    0.0000000000000000    0.0000000000000000
     0.0000000000000000    8.5490480000000009    0.0000000000000000
     0.0000000000000000    0.0000000000000000   20.0000000000000000
    30     1     1
Selective dynamics
Direct
  0.0559031217337401  0.0899784054960011  0.0823682467039737   T   T   T
  0.9315397395203525  0.1727294106980191  0.0842701756445253   T   T   T
  0.0571155699435697  0.9231393375659013  0.0820775477806895   T   T   T
  0.9314319048591787  0.3398097014339313  0.0874085279829786   T   T   T
  0.0568706879042773  0.5897489088204955  0.0840564380824059   T   T   T
  0.9326268666445383  0.6722194752232582  0.0864962186365886   T   T   T
  0.0568407867054389  0.4223614942427795  0.0854546484924140   T   T   T
  0.9322208625402045  0.8391551515262738  0.0845955845006149   T   T   T
  0.3054253335168428  0.0882592712054037  0.0873302328162658   T   T   T
  0.1812040423688680  0.1721860813422181  0.0848702939170835   T   T   T
  0.1820827237391744  0.3388011330196212  0.0874779246049460   T   T   T
  0.3037384691447768  0.5892765665679327  0.0973239918027847   T   T   T
  0.1813881635779116  0.6735839412606350  0.0855179167158887   T   T   T
  0.3060042141890327  0.4222383642953028  0.0969918157900768   T   T   T
  0.1818721459906929  0.8401530647539395  0.0841008125107146   T   T   T
  0.5565173219493074  0.0878555599158443  0.0937970984149942   T   T   T
  0.4300905051675247  0.1694876488136745  0.0933696208698858   T   T   T
  0.5549706105058230  0.9222344842141708  0.0981172410372352   T   T   T
  0.4301342883555905  0.3348269654356864  0.1029529323622135   T   T   T
  0.4185698774693011  0.6811362346233312  0.1128112063523602   T   T   T
  0.5560891211262764  0.4081002466519274  0.1174874213600163   T   T   T
  0.4270247952809699  0.8419461757578427  0.0998136846291638   T   T   T
  0.8067608314602782  0.0888425815535398  0.0860833736267937   T   T   T
  0.6816625301930994  0.1707891636309569  0.0922342308932176   T   T   T
  0.8069630955669393  0.9233774604988200  0.0876240700098269   T   T   T
  0.6820045045569704  0.3357759490871616  0.1019615872597137   T   T   T
  0.8096437044327491  0.5894710583903824  0.0982646357377339   T   T   T
  0.6926411800605750  0.6785554224903124  0.1133351023462030   T   T   T
  0.8070089702965537  0.4219096237403018  0.0968494802681589   T   T   T
  0.6830498426324570  0.8402257050778847  0.0994018194735048   T   T   T
  0.3050198503532502  0.9247410433429470  0.0873212661555264   T   T   T
  0.5552233382137428  0.5973303693235120  0.1839098532215356   T   T   T
 
  0.00000000E+00  0.00000000E+00  0.00000000E+00
  0.00000000E+00  0.00000000E+00  0.00000000E+00
  0.00000000E+00  0.00000000E+00  0.00000000E+00
  0.00000000E+00  0.00000000E+00  0.00000000E+00
  0.00000000E+00  0.00000000E+00  0.00000000E+00
  0.00000000E+00  0.00000000E+00  0.00000000E+00
  0.00000000E+00  0.00000000E+00  0.00000000E+00
  0.00000000E+00  0.00000000E+00  0.00000000E+00
  0.00000000E+00  0.00000000E+00  0.00000000E+00
  0.00000000E+00  0.00000000E+00  0.00000000E+00
  0.00000000E+00  0.00000000E+00  0.00000000E+00
  0.00000000E+00  0.00000000E+00  0.00000000E+00
  0.00000000E+00  0.00000000E+00  0.00000000E+00
  0.00000000E+00  0.00000000E+00  0.00000000E+00
  0.00000000E+00  0.00000000E+00  0.00000000E+00
  0.00000000E+00  0.00000000E+00  0.00000000E+00
  0.00000000E+00  0.00000000E+00  0.00000000E+00
  0.00000000E+00  0.00000000E+00  0.00000000E+00
  0.00000000E+00  0.00000000E+00  0.00000000E+00
  0.00000000E+00  0.00000000E+00  0.00000000E+00
  0.00000000E+00  0.00000000E+00  0.00000000E+00
  0.00000000E+00  0.00000000E+00  0.00000000E+00
  0.00000000E+00  0.00000000E+00  0.00000000E+00
  0.00000000E+00  0.00000000E+00  0.00000000E+00
  0.00000000E+00  0.00000000E+00  0.00000000E+00
  0.00000000E+00  0.00000000E+00  0.00000000E+00
  0.00000000E+00  0.00000000E+00  0.00000000E+00
  0.00000000E+00  0.00000000E+00  0.00000000E+00
  0.00000000E+00  0.00000000E+00  0.00000000E+00
  0.00000000E+00  0.00000000E+00  0.00000000E+00
  0.00000000E+00  0.00000000E+00  0.00000000E+00
  0.00000000E+00  0.00000000E+00  0.00000000E+00
