Title                                   
   1.00000000000000     
     9.8694509999999998    0.0000000000000000    0.0000000000000000
     0.0000000000000000    8.5490480000000009    0.0000000000000000
     0.0000000000000000    0.0000000000000000   20.0000000000000000
    28     3     1
Selective dynamics
Direct
  0.0562612777236474  0.0924150496530690  0.0855191731815999   T   T   T
  0.9305543025623280  0.1748122924929392  0.0876249036478687   T   T   T
  0.0562770269348123  0.9252988971652298  0.0840682785862520   T   T   T
  0.9288287937132029  0.3422932185236056  0.0907426952823362   T   T   T
  0.0562447942832326  0.5896543223179715  0.0863957464244870   T   T   T
  0.9321892059412078  0.6739123144701464  0.0871972845266396   T   T   T
  0.0562605623052733  0.4238907711209438  0.0890850385502886   T   T   T
  0.9322407017244421  0.8407012351203209  0.0856674137044254   T   T   T
  0.3056760099043642  0.0895031868575072  0.0880455047595986   T   T   T
  0.1819657922442457  0.1748088131302709  0.0875943003073367   T   T   T
  0.3048628964191509  0.9231278879897531  0.0880339509956024   T   T   T
  0.1836868098064279  0.3422820145282258  0.0906476178865773   T   T   T
  0.3060557344520988  0.5948378156688016  0.0960976310349574   T   T   T
  0.1803040452489460  0.6739091701639416  0.0870601477244752   T   T   T
  0.3098985281360843  0.4247022973288352  0.0962619803963487   T   T   T
  0.1802919252437488  0.8407061667840154  0.0855803346121489   T   T   T
  0.5562789801956429  0.0823791051056047  0.0938224469454880   T   T   T
  0.4318022188431862  0.1686364604311869  0.0920221693774731   T   T   T
  0.5562795615113889  0.9156104261464615  0.0976585421960778   T   T   T
  0.4357462312667322  0.3347373742215753  0.0980504980126021   T   T   T
  0.4266786847131798  0.8356369291121951  0.0969979440674054   T   T   T
  0.8068536642548375  0.0894933087689873  0.0881039307866309   T   T   T
  0.6807538170776627  0.1686566374710495  0.0920765623803831   T   T   T
  0.8076868182942604  0.9231111203725637  0.0881642086163112   T   T   T
  0.6768061407777831  0.3347610322123632  0.0981627718655183   T   T   T
  0.8064876356543254  0.5948577723480292  0.0964560239484719   T   T   T
  0.8026477457761217  0.4247086740344128  0.0965150070131889   T   T   T
  0.6859074116921068  0.8356316089560730  0.0972391647426626   T   T   T
  0.4210549409213857  0.6787206871123994  0.1058736416873813   T   T   T
  0.5562543502027366  0.4088885620208285  0.1065021733605824   T   T   T
  0.6916125484996533  0.6787924782134740  0.1063844625848642   T   T   T
  0.5551898436757898  0.5887683701572277  0.1960234507940505   T   T   T
 
  0.00000000E+00  0.00000000E+00  0.00000000E+00
  0.00000000E+00  0.00000000E+00  0.00000000E+00
  0.00000000E+00  0.00000000E+00  0.00000000E+00
  0.00000000E+00  0.00000000E+00  0.00000000E+00
  0.00000000E+00  0.00000000E+00  0.00000000E+00
  0.00000000E+00  0.00000000E+00  0.00000000E+00
  0.00000000E+00  0.00000000E+00  0.00000000E+00
  0.00000000E+00  0.00000000E+00  0.00000000E+00
  0.00000000E+00  0.00000000E+00  0.00000000E+00
  0.00000000E+00  0.00000000E+00  0.00000000E+00
  0.00000000E+00  0.00000000E+00  0.00000000E+00
  0.00000000E+00  0.00000000E+00  0.00000000E+00
  0.00000000E+00  0.00000000E+00  0.00000000E+00
  0.00000000E+00  0.00000000E+00  0.00000000E+00
  0.00000000E+00  0.00000000E+00  0.00000000E+00
  0.00000000E+00  0.00000000E+00  0.00000000E+00
  0.00000000E+00  0.00000000E+00  0.00000000E+00
  0.00000000E+00  0.00000000E+00  0.00000000E+00
  0.00000000E+00  0.00000000E+00  0.00000000E+00
  0.00000000E+00  0.00000000E+00  0.00000000E+00
  0.00000000E+00  0.00000000E+00  0.00000000E+00
  0.00000000E+00  0.00000000E+00  0.00000000E+00
  0.00000000E+00  0.00000000E+00  0.00000000E+00
  0.00000000E+00  0.00000000E+00  0.00000000E+00
  0.00000000E+00  0.00000000E+00  0.00000000E+00
  0.00000000E+00  0.00000000E+00  0.00000000E+00
  0.00000000E+00  0.00000000E+00  0.00000000E+00
  0.00000000E+00  0.00000000E+00  0.00000000E+00
  0.00000000E+00  0.00000000E+00  0.00000000E+00
  0.00000000E+00  0.00000000E+00  0.00000000E+00
  0.00000000E+00  0.00000000E+00  0.00000000E+00
  0.00000000E+00  0.00000000E+00  0.00000000E+00
