Title                                   
   1.00000000000000     
     9.8694509999999998    0.0000000000000000    0.0000000000000000
     0.0000000000000000    8.5490480000000009    0.0000000000000000
     0.0000000000000000    0.0000000000000000   20.0000000000000000
    30     1     1
Selective dynamics
Direct
  0.0557457639438815  0.0904808836912763  0.0827961451057914   T   T   T
  0.9314491778036789  0.1730016609629182  0.0847058011716762   T   T   T
  0.0571447883245778  0.9238297691793692  0.0827403629661972   T   T   T
  0.9308973121162450  0.3404808511150799  0.0882412533627949   T   T   T
  0.0568531940577659  0.5898476748028364  0.0847412343796255   T   T   T
  0.9327352629749065  0.6728602193379579  0.0874717061978384   T   T   T
  0.0568932064337900  0.4231123371879273  0.0860251034228453   T   T   T
  0.9321603287139054  0.8394042835037708  0.0852013038115462   T   T   T
  0.3050584378479210  0.0884275889223192  0.0874788177062537   T   T   T
  0.1813587093397868  0.1722450519742348  0.0850460242573559   T   T   T
  0.1823947099629312  0.3398025109279278  0.0878740071805636   T   T   T
  0.3037623757993405  0.5903252992755653  0.0993180034502064   T   T   T
  0.1816832550581595  0.6741050746017770  0.0868692074536494   T   T   T
  0.3057845905142507  0.4223436783299381  0.0971867675838783   T   T   T
  0.1817039916934396  0.8409010453970007  0.0853932377525290   T   T   T
  0.5562475706259564  0.0869259114030244  0.0932060510300041   T   T   T
  0.4301771190553989  0.1693824183441467  0.0925389114529881   T   T   T
  0.5549352563195799  0.9226096505342598  0.0982295622095737   T   T   T
  0.4303046374899034  0.3348699628649207  0.1018543847729953   T   T   T
  0.4166755887673387  0.6829059997520205  0.1158027189325785   T   T   T
  0.5561655354198741  0.4040829349863929  0.1166078537804992   T   T   T
  0.4266849476525985  0.8417834446217498  0.1014122754751040   T   T   T
  0.8068829144506394  0.0889826791600074  0.0862871245866819   T   T   T
  0.6819379500280828  0.1703969069916985  0.0917449605401918   T   T   T
  0.8070715590308722  0.9230573373408600  0.0877654876491187   T   T   T
  0.6817157198367773  0.3353960126308561  0.1016530093615973   T   T   T
  0.8093431853768845  0.5902690587389536  0.0998396537949117   T   T   T
  0.6948836135269498  0.6811251376884181  0.1150285506307495   T   T   T
  0.8074237553740069  0.4220087299816364  0.0976964038114233   T   T   T
  0.6827661144627151  0.8403306854632621  0.0996497373701109   T   T   T
  0.3048209423621658  0.9245149412484519  0.0886523675368266   T   T   T
  0.5559774856356827  0.5904362590394511  0.1666169712619280   T   T   T
 
  0.00000000E+00  0.00000000E+00  0.00000000E+00
  0.00000000E+00  0.00000000E+00  0.00000000E+00
  0.00000000E+00  0.00000000E+00  0.00000000E+00
  0.00000000E+00  0.00000000E+00  0.00000000E+00
  0.00000000E+00  0.00000000E+00  0.00000000E+00
  0.00000000E+00  0.00000000E+00  0.00000000E+00
  0.00000000E+00  0.00000000E+00  0.00000000E+00
  0.00000000E+00  0.00000000E+00  0.00000000E+00
  0.00000000E+00  0.00000000E+00  0.00000000E+00
  0.00000000E+00  0.00000000E+00  0.00000000E+00
  0.00000000E+00  0.00000000E+00  0.00000000E+00
  0.00000000E+00  0.00000000E+00  0.00000000E+00
  0.00000000E+00  0.00000000E+00  0.00000000E+00
  0.00000000E+00  0.00000000E+00  0.00000000E+00
  0.00000000E+00  0.00000000E+00  0.00000000E+00
  0.00000000E+00  0.00000000E+00  0.00000000E+00
  0.00000000E+00  0.00000000E+00  0.00000000E+00
  0.00000000E+00  0.00000000E+00  0.00000000E+00
  0.00000000E+00  0.00000000E+00  0.00000000E+00
  0.00000000E+00  0.00000000E+00  0.00000000E+00
  0.00000000E+00  0.00000000E+00  0.00000000E+00
  0.00000000E+00  0.00000000E+00  0.00000000E+00
  0.00000000E+00  0.00000000E+00  0.00000000E+00
  0.00000000E+00  0.00000000E+00  0.00000000E+00
  0.00000000E+00  0.00000000E+00  0.00000000E+00
  0.00000000E+00  0.00000000E+00  0.00000000E+00
  0.00000000E+00  0.00000000E+00  0.00000000E+00
  0.00000000E+00  0.00000000E+00  0.00000000E+00
  0.00000000E+00  0.00000000E+00  0.00000000E+00
  0.00000000E+00  0.00000000E+00  0.00000000E+00
  0.00000000E+00  0.00000000E+00  0.00000000E+00
  0.00000000E+00  0.00000000E+00  0.00000000E+00
