Title                                   
   1.00000000000000     
     9.8694509999999998    0.0000000000000000    0.0000000000000000
     0.0000000000000000    8.5490480000000009    0.0000000000000000
     0.0000000000000000    0.0000000000000000   20.0000000000000000
    26     4     1
Selective dynamics
Direct
  0.0562258731881778  0.0900275347412441  0.0869218345295762   T   T   T
  0.9317131815513471  0.1729246209863501  0.0882194286092886   T   T   T
  0.0562044525963616  0.9222743436859679  0.0869121079659952   T   T   T
  0.9324443081781567  0.3394166523268126  0.0888102199230194   T   T   T
  0.0562050130822225  0.5894085989875613  0.0873954916257971   T   T   T
  0.9324297325723383  0.6729323827396176  0.0888009628410516   T   T   T
  0.0562249186548625  0.4229055559761727  0.0874050971436579   T   T   T
  0.9316825925109693  0.8394146978364067  0.0882115170916479   T   T   T
  0.3067455466593252  0.0894434749679032  0.0909098846216946   T   T   T
  0.1807446676559203  0.1729089546118654  0.0883782351325257   T   T   T
  0.3067163133479838  0.9228653408254924  0.0909005189149680   T   T   T
  0.1800287794398480  0.3394304838129324  0.0889956136782436   T   T   T
  0.3046237959122746  0.5906147880119759  0.0944009328808891   T   T   T
  0.1799969558109936  0.6728810603587532  0.0889809288400728   T   T   T
  0.3046516300485430  0.4216651490827760  0.0943940749314965   T   T   T
  0.1807169847508494  0.8393999987117496  0.0883608170541199   T   T   T
  0.5562214140177515  0.0924767707076391  0.0984296224945944   T   T   T
  0.4293766556391829  0.1763424826693369  0.0968533528270877   T   T   T
  0.5561830973547153  0.9198368204829651  0.0983969752811494   T   T   T
  0.4293226994442854  0.8359412568684620  0.0968425238912482   T   T   T
  0.8057348474984960  0.0894374909470167  0.0906828224201058   T   T   T
  0.6830945474641705  0.1762935437029179  0.0966135546092245   T   T   T
  0.8057039050704238  0.9228835895797203  0.0906763421431357   T   T   T
  0.8077854673601953  0.5906683197952172  0.0940276415201462   T   T   T
  0.8077934984858307  0.4216883763528836  0.0940317163984801   T   T   T
  0.6830488022713008  0.8360221535447772  0.0965729169110994   T   T   T
  0.4243288935053058  0.3380886988104230  0.1016564598495049   T   T   T
  0.4242957235684233  0.6741994728739565  0.1016701154762851   T   T   T
  0.6881203427825662  0.3380714935581208  0.1012429659657002   T   T   T
  0.6880803941908497  0.6742437464337883  0.1012030372526935   T   T   T
  0.5566909653863379  0.5061671460091911  0.1540672871755413   T   T   T
 
  0.00000000E+00  0.00000000E+00  0.00000000E+00
  0.00000000E+00  0.00000000E+00  0.00000000E+00
  0.00000000E+00  0.00000000E+00  0.00000000E+00
  0.00000000E+00  0.00000000E+00  0.00000000E+00
  0.00000000E+00  0.00000000E+00  0.00000000E+00
  0.00000000E+00  0.00000000E+00  0.00000000E+00
  0.00000000E+00  0.00000000E+00  0.00000000E+00
  0.00000000E+00  0.00000000E+00  0.00000000E+00
  0.00000000E+00  0.00000000E+00  0.00000000E+00
  0.00000000E+00  0.00000000E+00  0.00000000E+00
  0.00000000E+00  0.00000000E+00  0.00000000E+00
  0.00000000E+00  0.00000000E+00  0.00000000E+00
  0.00000000E+00  0.00000000E+00  0.00000000E+00
  0.00000000E+00  0.00000000E+00  0.00000000E+00
  0.00000000E+00  0.00000000E+00  0.00000000E+00
  0.00000000E+00  0.00000000E+00  0.00000000E+00
  0.00000000E+00  0.00000000E+00  0.00000000E+00
  0.00000000E+00  0.00000000E+00  0.00000000E+00
  0.00000000E+00  0.00000000E+00  0.00000000E+00
  0.00000000E+00  0.00000000E+00  0.00000000E+00
  0.00000000E+00  0.00000000E+00  0.00000000E+00
  0.00000000E+00  0.00000000E+00  0.00000000E+00
  0.00000000E+00  0.00000000E+00  0.00000000E+00
  0.00000000E+00  0.00000000E+00  0.00000000E+00
  0.00000000E+00  0.00000000E+00  0.00000000E+00
  0.00000000E+00  0.00000000E+00  0.00000000E+00
  0.00000000E+00  0.00000000E+00  0.00000000E+00
  0.00000000E+00  0.00000000E+00  0.00000000E+00
  0.00000000E+00  0.00000000E+00  0.00000000E+00
  0.00000000E+00  0.00000000E+00  0.00000000E+00
  0.00000000E+00  0.00000000E+00  0.00000000E+00
