Title                                   
   1.00000000000000     
     9.8694509999999998    0.0000000000000000    0.0000000000000000
     0.0000000000000000    8.5490480000000009    0.0000000000000000
     0.0000000000000000    0.0000000000000000   20.0000000000000000
    25     6     1
Selective dynamics
Direct
  0.0558857866865612  0.0917493330797808  0.0890723877397196   T   T   T
  0.9308975144502608  0.1749533344393157  0.0895169784860374   T   T   T
  0.0569797205107537  0.9238736696827028  0.0890118881143220   T   T   T
  0.9294018845329176  0.3424179736550322  0.0911462142118208   T   T   T
  0.0565217066955218  0.5918897279179428  0.0897226124878989   T   T   T
  0.0558702426446891  0.4246200833672429  0.0905332770602719   T   T   T
  0.9330548262349669  0.8396818137749902  0.0899420641033302   T   T   T
  0.3062154681135066  0.0887917215523464  0.0901986637637786   T   T   T
  0.1825311257166552  0.1743248047283761  0.0899309833996514   T   T   T
  0.1830803115511886  0.3418974431366978  0.0910773573970224   T   T   T
  0.3066828064719886  0.5925516100832124  0.0960197739143121   T   T   T
  0.1804367869685654  0.6748776053106454  0.0906145476116835   T   T   T
  0.3104963601400817  0.4240556489566360  0.0942631391511974   T   T   T
  0.1818471692781847  0.8418696900086199  0.0899695360572497   T   T   T
  0.5560708819079768  0.0839649367707928  0.0929472995482571   T   T   T
  0.5550451023588463  0.9164970766080809  0.0956130446964574   T   T   T
  0.4356547088762281  0.3347149930898134  0.0957729822631420   T   T   T
  0.4267841273792173  0.8347040363595286  0.0966622765921959   T   T   T
  0.8064456610248795  0.0885894041455073  0.0895491205803918   T   T   T
  0.6796892994114315  0.1691912936093703  0.0915599312831131   T   T   T
  0.8078408908227194  0.9223067392890901  0.0906063566178827   T   T   T
  0.6774289427874928  0.3372633410652864  0.0957450108902602   T   T   T
  0.8062510304490538  0.5960526360311048  0.0961569492169758   T   T   T
  0.8024101954835831  0.4259275127581077  0.0945409113959013   T   T   T
  0.6842521830586732  0.8363099291098499  0.0965463592825039   T   T   T
  0.4212006251272438  0.6811371823463259  0.1037166623661308   T   T   T
  0.5537411286206971  0.4072218638879035  0.1017746757851996   T   T   T
  0.6923929327463403  0.6775924345731724  0.1037035143509450   T   T   T
  0.3049001887862465  0.9250095455343447  0.0905921644928381   T   T   T
  0.4303882235968744  0.1657936486235519  0.0918520648734950   T   T   T
  0.9329652829632921  0.6737116322555849  0.0904327663336221   T   T   T
  0.5562758846033701  0.5867033342490471  0.1968834859324084   T   T   T
 
  0.00000000E+00  0.00000000E+00  0.00000000E+00
  0.00000000E+00  0.00000000E+00  0.00000000E+00
  0.00000000E+00  0.00000000E+00  0.00000000E+00
  0.00000000E+00  0.00000000E+00  0.00000000E+00
  0.00000000E+00  0.00000000E+00  0.00000000E+00
  0.00000000E+00  0.00000000E+00  0.00000000E+00
  0.00000000E+00  0.00000000E+00  0.00000000E+00
  0.00000000E+00  0.00000000E+00  0.00000000E+00
  0.00000000E+00  0.00000000E+00  0.00000000E+00
  0.00000000E+00  0.00000000E+00  0.00000000E+00
  0.00000000E+00  0.00000000E+00  0.00000000E+00
  0.00000000E+00  0.00000000E+00  0.00000000E+00
  0.00000000E+00  0.00000000E+00  0.00000000E+00
  0.00000000E+00  0.00000000E+00  0.00000000E+00
  0.00000000E+00  0.00000000E+00  0.00000000E+00
  0.00000000E+00  0.00000000E+00  0.00000000E+00
  0.00000000E+00  0.00000000E+00  0.00000000E+00
  0.00000000E+00  0.00000000E+00  0.00000000E+00
  0.00000000E+00  0.00000000E+00  0.00000000E+00
  0.00000000E+00  0.00000000E+00  0.00000000E+00
  0.00000000E+00  0.00000000E+00  0.00000000E+00
  0.00000000E+00  0.00000000E+00  0.00000000E+00
  0.00000000E+00  0.00000000E+00  0.00000000E+00
  0.00000000E+00  0.00000000E+00  0.00000000E+00
  0.00000000E+00  0.00000000E+00  0.00000000E+00
  0.00000000E+00  0.00000000E+00  0.00000000E+00
  0.00000000E+00  0.00000000E+00  0.00000000E+00
  0.00000000E+00  0.00000000E+00  0.00000000E+00
  0.00000000E+00  0.00000000E+00  0.00000000E+00
  0.00000000E+00  0.00000000E+00  0.00000000E+00
  0.00000000E+00  0.00000000E+00  0.00000000E+00
  0.00000000E+00  0.00000000E+00  0.00000000E+00
