Title                                   
   1.00000000000000     
     9.8694509999999998    0.0000000000000000    0.0000000000000000
     0.0000000000000000    8.5490480000000009    0.0000000000000000
     0.0000000000000000    0.0000000000000000   20.0000000000000000
    27     3     1
Selective dynamics
Direct
  0.0559476428817943  0.0885670543468658  0.0910374920886465   T   T   T
  0.9313373354468905  0.1723647543192050  0.0954129065795886   T   T   T
  0.0578144716199391  0.9223376846315646  0.0910627198279676   T   T   T
  0.9334233390113862  0.3396818188125197  0.0982414625407473   T   T   T
  0.0586334546652137  0.5897750511177785  0.0945019868223205   T   T   T
  0.9339724390847215  0.6729183389776844  0.0988759499531793   T   T   T
  0.0581069141709921  0.4224024986198073  0.0942762910139273   T   T   T
  0.9325382684555451  0.8400580454116735  0.0961662266826946   T   T   T
  0.3074492334663165  0.0871522660584997  0.0851901913872338   T   T   T
  0.1818280880792986  0.1707218017637137  0.0880167481979789   T   T   T
  0.1808803738876243  0.3366190947813363  0.0892115958176090   T   T   T
  0.3086504759815407  0.5867773195373468  0.0829213940324055   T   T   T
  0.1831071129668084  0.6723469576147648  0.0890074140507422   T   T   T
  0.3056844658794888  0.4177064571321625  0.0842176655392971   T   T   T
  0.1834087761375428  0.8383219920734379  0.0875521054540482   T   T   T
  0.4308052196069012  0.1722657225977267  0.0865993017102152   T   T   T
  0.5558048942435239  0.9251894183343307  0.0945771172621476   T   T   T
  0.4316271135573273  0.6754018668496579  0.0815183726346991   T   T   T
  0.4323610039637034  0.8405277253415188  0.0852678615009469   T   T   T
  0.8045925038352757  0.0902452779560746  0.0967236204959424   T   T   T
  0.6798391106442798  0.1792324182069058  0.0997493770756667   T   T   T
  0.8060910580832744  0.9233550527412191  0.0977352283184526   T   T   T
  0.6830350453182898  0.3437392842878346  0.1084516462497353   T   T   T
  0.8106299811043867  0.5912510619609745  0.1063121491021361   T   T   T
  0.6840948058616541  0.6714762077356915  0.1123200326663942   T   T   T
  0.8104057419407948  0.4223737204292943  0.1051900282644502   T   T   T
  0.6800550721105575  0.8384326167845549  0.1021508754475038   T   T   T
  0.5562315230259314  0.0939070895500086  0.0934574737779628   T   T   T
  0.4273660308247914  0.3333468955795286  0.0849094644111915   T   T   T
  0.3068822063556891  0.9224953767924984  0.0838126617390473   T   T   T
  0.5305312977885329  0.5098841296538401  0.1364976393551705   T   T   T
 
  0.00000000E+00  0.00000000E+00  0.00000000E+00
  0.00000000E+00  0.00000000E+00  0.00000000E+00
  0.00000000E+00  0.00000000E+00  0.00000000E+00
  0.00000000E+00  0.00000000E+00  0.00000000E+00
  0.00000000E+00  0.00000000E+00  0.00000000E+00
  0.00000000E+00  0.00000000E+00  0.00000000E+00
  0.00000000E+00  0.00000000E+00  0.00000000E+00
  0.00000000E+00  0.00000000E+00  0.00000000E+00
  0.00000000E+00  0.00000000E+00  0.00000000E+00
  0.00000000E+00  0.00000000E+00  0.00000000E+00
  0.00000000E+00  0.00000000E+00  0.00000000E+00
  0.00000000E+00  0.00000000E+00  0.00000000E+00
  0.00000000E+00  0.00000000E+00  0.00000000E+00
  0.00000000E+00  0.00000000E+00  0.00000000E+00
  0.00000000E+00  0.00000000E+00  0.00000000E+00
  0.00000000E+00  0.00000000E+00  0.00000000E+00
  0.00000000E+00  0.00000000E+00  0.00000000E+00
  0.00000000E+00  0.00000000E+00  0.00000000E+00
  0.00000000E+00  0.00000000E+00  0.00000000E+00
  0.00000000E+00  0.00000000E+00  0.00000000E+00
  0.00000000E+00  0.00000000E+00  0.00000000E+00
  0.00000000E+00  0.00000000E+00  0.00000000E+00
  0.00000000E+00  0.00000000E+00  0.00000000E+00
  0.00000000E+00  0.00000000E+00  0.00000000E+00
  0.00000000E+00  0.00000000E+00  0.00000000E+00
  0.00000000E+00  0.00000000E+00  0.00000000E+00
  0.00000000E+00  0.00000000E+00  0.00000000E+00
  0.00000000E+00  0.00000000E+00  0.00000000E+00
  0.00000000E+00  0.00000000E+00  0.00000000E+00
  0.00000000E+00  0.00000000E+00  0.00000000E+00
  0.00000000E+00  0.00000000E+00  0.00000000E+00
