Title                                   
   1.00000000000000     
     8.5490480000000009    0.0000000000000000    0.0000000000000000
     0.0000000000000000    8.5490480000000009    0.0000000000000000
     0.0000000000000000    0.0000000000000000   20.0000000000000000
    18     6     1
Selective dynamics
Direct
  0.9072016579850803  0.2071579627837415  0.0975821031876890   T   T   T
  0.9102655847113117  0.8003987380755362  0.0975172607193229   T   T   T
  0.1977108447115021  0.0851688258140590  0.0977997978357024   T   T   T
  0.0778747483723297  0.2017208558695063  0.0976769184348055   T   T   T
  0.1579911100134813  0.6508778648080886  0.0977943106737143   T   T   T
  0.0757819386835389  0.5005855561742343  0.0977215891370729   T   T   T
  0.1595673525439937  0.3557096246316319  0.0976946679966632   T   T   T
  0.0796402533435852  0.7986111638152722  0.0976334025002001   T   T   T
  0.3497009393271647  0.1688336876060630  0.0978104962241593   T   T   T
  0.4941840058723226  0.9160880463855720  0.0978039967008782   T   T   T
  0.3441244701553069  0.8337998170555980  0.0978935210962209   T   T   T
  0.7874948406063602  0.0873158260286424  0.0975616454061037   T   T   T
  0.6394251855788571  0.1685017478820119  0.0977983949228463   T   T   T
  0.7896644672157033  0.9185358955753083  0.0975174489471143   T   T   T
  0.8262205150288818  0.6512000488956113  0.0976825427452561   T   T   T
  0.8233025965925315  0.3540967025982922  0.0977359060473411   T   T   T
  0.6419895658994873  0.8348252091993001  0.0977267566991371   T   T   T
  0.3295801330884846  0.3345586405426841  0.0976996910537763   T   T   T
  0.4949158163155315  0.0859059055601238  0.0978792706311377   T   T   T
  0.9039964710413582  0.5024924159539911  0.0977688998056204   T   T   T
  0.3212312780511131  0.6732127627879663  0.0979674798918208   T   T   T
  0.6582670009029814  0.3316305729685771  0.0979923786448038   T   T   T
  0.6657730191643213  0.6707536905511454  0.0978513992419349   T   T   T
  0.1982216307296568  0.9150455853596305  0.0977848473017479   T   T   T
  0.4912865740651068  0.4977628530774318  0.0978102741549040   T   T   T
 
  0.00000000E+00  0.00000000E+00  0.00000000E+00
  0.00000000E+00  0.00000000E+00  0.00000000E+00
  0.00000000E+00  0.00000000E+00  0.00000000E+00
  0.00000000E+00  0.00000000E+00  0.00000000E+00
  0.00000000E+00  0.00000000E+00  0.00000000E+00
  0.00000000E+00  0.00000000E+00  0.00000000E+00
  0.00000000E+00  0.00000000E+00  0.00000000E+00
  0.00000000E+00  0.00000000E+00  0.00000000E+00
  0.00000000E+00  0.00000000E+00  0.00000000E+00
  0.00000000E+00  0.00000000E+00  0.00000000E+00
  0.00000000E+00  0.00000000E+00  0.00000000E+00
  0.00000000E+00  0.00000000E+00  0.00000000E+00
  0.00000000E+00  0.00000000E+00  0.00000000E+00
  0.00000000E+00  0.00000000E+00  0.00000000E+00
  0.00000000E+00  0.00000000E+00  0.00000000E+00
  0.00000000E+00  0.00000000E+00  0.00000000E+00
  0.00000000E+00  0.00000000E+00  0.00000000E+00
  0.00000000E+00  0.00000000E+00  0.00000000E+00
  0.00000000E+00  0.00000000E+00  0.00000000E+00
  0.00000000E+00  0.00000000E+00  0.00000000E+00
  0.00000000E+00  0.00000000E+00  0.00000000E+00
  0.00000000E+00  0.00000000E+00  0.00000000E+00
  0.00000000E+00  0.00000000E+00  0.00000000E+00
  0.00000000E+00  0.00000000E+00  0.00000000E+00
  0.00000000E+00  0.00000000E+00  0.00000000E+00
