Title                                   
   1.00000000000000     
     8.5490480000000009    0.0000000000000000    0.0000000000000000
     0.0000000000000000    8.5490480000000009    0.0000000000000000
     0.0000000000000000    0.0000000000000000   20.0000000000000000
    20     4     1
Selective dynamics
Direct
  0.9086233000764752  0.2057309845728955  0.0976500655965583   T   T   T
  0.9058596112600633  0.5034606988324057  0.0976794071283988   T   T   T
  0.9104902038187181  0.8020506775867298  0.0974178909984663   T   T   T
  0.1987249985644989  0.0834184424184317  0.0977125496570670   T   T   T
  0.0752731925232618  0.2043860587912709  0.0976392175907804   T   T   T
  0.1561815488938251  0.6518927226251026  0.0976906550766657   T   T   T
  0.0758403359146808  0.5020637936670268  0.0976541562671658   T   T   T
  0.1557268204817545  0.3545057020360514  0.0977001439926104   T   T   T
  0.0784263253767851  0.7989776130656983  0.0975413572446602   T   T   T
  0.4936740484070528  0.0841801123174251  0.0977840140142106   T   T   T
  0.3461813258649520  0.1622472127059729  0.0978083747684964   T   T   T
  0.4931610872562356  0.9144677925963575  0.0977334315488099   T   T   T
  0.3441461720101053  0.8355326825497524  0.0978330201397830   T   T   T
  0.7880084817401715  0.0861931007923481  0.0976118173155097   T   T   T
  0.6409249891204990  0.1651586504541541  0.0978328510998147   T   T   T
  0.7890794408695054  0.9196099721194463  0.0974545757582058   T   T   T
  0.8299565461283377  0.6532138439514310  0.0976107052028647   T   T   T
  0.8270239699813474  0.3541674693718171  0.0978184413346506   T   T   T
  0.6421639661799833  0.8364135648547805  0.0976496136777024   T   T   T
  0.3240838531879609  0.3321556343968641  0.0979128270644949   T   T   T
  0.3188737489972205  0.6763525423797989  0.0979695737463570   T   T   T
  0.6644863041667388  0.3290042385591163  0.0980710309733298   T   T   T
  0.6679364039339241  0.6756714602771139  0.0978501384261930   T   T   T
  0.1983594968171541  0.9166129770960583  0.0977313455901506   T   T   T
  0.4922058284287416  0.4973220519819715  0.0983477957870269   T   T   T
 
  0.00000000E+00  0.00000000E+00  0.00000000E+00
  0.00000000E+00  0.00000000E+00  0.00000000E+00
  0.00000000E+00  0.00000000E+00  0.00000000E+00
  0.00000000E+00  0.00000000E+00  0.00000000E+00
  0.00000000E+00  0.00000000E+00  0.00000000E+00
  0.00000000E+00  0.00000000E+00  0.00000000E+00
  0.00000000E+00  0.00000000E+00  0.00000000E+00
  0.00000000E+00  0.00000000E+00  0.00000000E+00
  0.00000000E+00  0.00000000E+00  0.00000000E+00
  0.00000000E+00  0.00000000E+00  0.00000000E+00
  0.00000000E+00  0.00000000E+00  0.00000000E+00
  0.00000000E+00  0.00000000E+00  0.00000000E+00
  0.00000000E+00  0.00000000E+00  0.00000000E+00
  0.00000000E+00  0.00000000E+00  0.00000000E+00
  0.00000000E+00  0.00000000E+00  0.00000000E+00
  0.00000000E+00  0.00000000E+00  0.00000000E+00
  0.00000000E+00  0.00000000E+00  0.00000000E+00
  0.00000000E+00  0.00000000E+00  0.00000000E+00
  0.00000000E+00  0.00000000E+00  0.00000000E+00
  0.00000000E+00  0.00000000E+00  0.00000000E+00
  0.00000000E+00  0.00000000E+00  0.00000000E+00
  0.00000000E+00  0.00000000E+00  0.00000000E+00
  0.00000000E+00  0.00000000E+00  0.00000000E+00
  0.00000000E+00  0.00000000E+00  0.00000000E+00
  0.00000000E+00  0.00000000E+00  0.00000000E+00
