Title                                   
   1.00000000000000     
     9.8694509999999998    0.0000000000000000    0.0000000000000000
     0.0000000000000000    8.5490480000000009    0.0000000000000000
     0.0000000000000000    0.0000000000000000   20.0000000000000000
    28     3     1
Selective dynamics
Direct
  0.0563343299973594  0.0914009303252293  0.0845570992639628   T   T   T
  0.9307934556808807  0.1736693374012342  0.0872300853934274   T   T   T
  0.0556944168491833  0.9242295675280495  0.0839389419180583   T   T   T
  0.9297607859207567  0.3405360753743157  0.0921760870534659   T   T   T
  0.0563564949660105  0.5894483720345448  0.0876070974551560   T   T   T
  0.9315767920947784  0.6727300265573416  0.0909854745784552   T   T   T
  0.0567540837860070  0.4233242224452649  0.0895320110983091   T   T   T
  0.9308856895215113  0.8394150303378989  0.0870487426842511   T   T   T
  0.3052153658171441  0.0898995501769394  0.0873468330490772   T   T   T
  0.1818869209383275  0.1749227873219975  0.0864932091352970   T   T   T
  0.3052504400170724  0.9247794969813322  0.0871338991091415   T   T   T
  0.1840283781277350  0.3423422040607217  0.0891447812606379   T   T   T
  0.3068309010846845  0.5947328161817678  0.0929424029187837   T   T   T
  0.1806169454517431  0.6737263413651572  0.0866067050269076   T   T   T
  0.3109586921428710  0.4255829538489547  0.0935075321081991   T   T   T
  0.1805116008768211  0.8405106952026353  0.0850504043529334   T   T   T
  0.5556169165910252  0.0836058992089257  0.0950934345342614   T   T   T
  0.4317657429856440  0.1682270574492325  0.0924529430165775   T   T   T
  0.4356172879661871  0.3340700398149731  0.0978579795279159   T   T   T
  0.4276013979819424  0.8389959034127078  0.0952723420075295   T   T   T
  0.8071349921926196  0.0884263820821860  0.0879920939183759   T   T   T
  0.6808189897739636  0.1668883788879847  0.0940147498590956   T   T   T
  0.8057226664782572  0.9228557763561925  0.0885506648336127   T   T   T
  0.6786397408969549  0.3327590813255896  0.1019857526582036   T   T   T
  0.8082745131269390  0.5917639780955378  0.1049771923534809   T   T   T
  0.6930742899485753  0.6838100558115208  0.1218107057846931   T   T   T
  0.8044358953821654  0.4225712501287407  0.1015604600753832   T   T   T
  0.6833434096254024  0.8389498421063695  0.1013982433308955   T   T   T
  0.4232092328987605  0.6827365492018744  0.1014897351162991   T   T   T
  0.5567213933019598  0.4052583812535177  0.1093090439528734   T   T   T
  0.5545627624284417  0.9191565426190449  0.0983371408700277   T   T   T
  0.5496444751482826  0.5889204751022254  0.1622712117547460   T   T   T
 
  0.00000000E+00  0.00000000E+00  0.00000000E+00
  0.00000000E+00  0.00000000E+00  0.00000000E+00
  0.00000000E+00  0.00000000E+00  0.00000000E+00
  0.00000000E+00  0.00000000E+00  0.00000000E+00
  0.00000000E+00  0.00000000E+00  0.00000000E+00
  0.00000000E+00  0.00000000E+00  0.00000000E+00
  0.00000000E+00  0.00000000E+00  0.00000000E+00
  0.00000000E+00  0.00000000E+00  0.00000000E+00
  0.00000000E+00  0.00000000E+00  0.00000000E+00
  0.00000000E+00  0.00000000E+00  0.00000000E+00
  0.00000000E+00  0.00000000E+00  0.00000000E+00
  0.00000000E+00  0.00000000E+00  0.00000000E+00
  0.00000000E+00  0.00000000E+00  0.00000000E+00
  0.00000000E+00  0.00000000E+00  0.00000000E+00
  0.00000000E+00  0.00000000E+00  0.00000000E+00
  0.00000000E+00  0.00000000E+00  0.00000000E+00
  0.00000000E+00  0.00000000E+00  0.00000000E+00
  0.00000000E+00  0.00000000E+00  0.00000000E+00
  0.00000000E+00  0.00000000E+00  0.00000000E+00
  0.00000000E+00  0.00000000E+00  0.00000000E+00
  0.00000000E+00  0.00000000E+00  0.00000000E+00
  0.00000000E+00  0.00000000E+00  0.00000000E+00
  0.00000000E+00  0.00000000E+00  0.00000000E+00
  0.00000000E+00  0.00000000E+00  0.00000000E+00
  0.00000000E+00  0.00000000E+00  0.00000000E+00
  0.00000000E+00  0.00000000E+00  0.00000000E+00
  0.00000000E+00  0.00000000E+00  0.00000000E+00
  0.00000000E+00  0.00000000E+00  0.00000000E+00
  0.00000000E+00  0.00000000E+00  0.00000000E+00
  0.00000000E+00  0.00000000E+00  0.00000000E+00
  0.00000000E+00  0.00000000E+00  0.00000000E+00
  0.00000000E+00  0.00000000E+00  0.00000000E+00
