Title                                   
   1.00000000000000     
     4.9440799999999996    0.0000000000000000    0.0000000000000000
     0.0000000000000000   17.1295089999999988    0.0000000000000000
     0.0000000000000000    0.0000000000000000   20.0000000000000000
    28     2     1
Selective dynamics
Direct
  0.0011428654545100  0.1059564492417627  0.2935846130681690   T   T   T
  0.2503354542959276  0.1483365271979450  0.2947632564886733   T   T   T
  0.2503210606208013  0.2327841431358285  0.2982154589920537   T   T   T
 -0.0011786185375812  0.2738207594743334  0.2999105277195748   T   T   T
  0.0009605354849961  0.6014976746999586  0.3012605599276392   T   T   T
  0.2503948663157527  0.7276735717470154  0.2954134109540271   T   T   T
  0.0004977299767105  0.8538422637629282  0.2931765491298821   T   T   T
  0.2504057649146564  0.8959398382192374  0.2929898922932559   T   T   T
  0.2503688672535850  0.9798257932279343  0.2927991317219292   T   T   T
  0.0004234065614952  0.7699229739849406  0.2942614149156667   T   T   T
  0.4995176162207379  0.1059474642437599  0.2936051131414777   T   T   T
  0.7503123431516657  0.1476594779628806  0.2941682936312793   T   T   T
  0.7502807075647575  0.2312141036043200  0.2969925398466445   T   T   T
  0.4999498837469096  0.0219759212855682  0.2928072728269311   T   T   T
  0.7502516784467517  0.3919992834263252  0.3074293172801834   T   T   T
  0.7503298628676112  0.4771798533924203  0.3095186847828786   T   T   T
  0.5017679185992514  0.2738423658926952  0.2999742406992674   T   T   T
  0.4998468280351971  0.6014855205728682  0.3014037906098486   T   T   T
  0.7503841312695606  0.7278260471582280  0.2950778833102901   T   T   T
  0.5003301668054049  0.8538425953085246  0.2931934352697093   T   T   T
  0.7504039051964547  0.8959636126230938  0.2928038500734012   T   T   T
  0.7503698600119489  0.9799704129647958  0.2925989767950031   T   T   T
  0.5003741320009882  0.7699321245336059  0.2942877577946365   T   T   T
  0.7503873990678834  0.6438555186483812  0.2982313656396961   T   T   T
  0.2504175759016933  0.6441555774513268  0.2990772723908013   T   T   T
  0.0007651086166491  0.0219793109806718  0.2927821870456824   T   T   T
  0.4993729513453748  0.5185842583510494  0.3087176145319455   T   T   T
  0.0012174030668523  0.5185850375517231  0.3083766299582123   T   T   T
  0.5080944657245359  0.3541941126025431  0.3058732968831441   T   T   T
 -0.0077473025018977  0.3541735729402520  0.3056476624648096   T   T   T
  0.2497084325208180  0.4373758338130807  0.3461179998132390   T   T   T
 
  0.00000000E+00  0.00000000E+00  0.00000000E+00
  0.00000000E+00  0.00000000E+00  0.00000000E+00
  0.00000000E+00  0.00000000E+00  0.00000000E+00
  0.00000000E+00  0.00000000E+00  0.00000000E+00
  0.00000000E+00  0.00000000E+00  0.00000000E+00
  0.00000000E+00  0.00000000E+00  0.00000000E+00
  0.00000000E+00  0.00000000E+00  0.00000000E+00
  0.00000000E+00  0.00000000E+00  0.00000000E+00
  0.00000000E+00  0.00000000E+00  0.00000000E+00
  0.00000000E+00  0.00000000E+00  0.00000000E+00
  0.00000000E+00  0.00000000E+00  0.00000000E+00
  0.00000000E+00  0.00000000E+00  0.00000000E+00
  0.00000000E+00  0.00000000E+00  0.00000000E+00
  0.00000000E+00  0.00000000E+00  0.00000000E+00
  0.00000000E+00  0.00000000E+00  0.00000000E+00
  0.00000000E+00  0.00000000E+00  0.00000000E+00
  0.00000000E+00  0.00000000E+00  0.00000000E+00
  0.00000000E+00  0.00000000E+00  0.00000000E+00
  0.00000000E+00  0.00000000E+00  0.00000000E+00
  0.00000000E+00  0.00000000E+00  0.00000000E+00
  0.00000000E+00  0.00000000E+00  0.00000000E+00
  0.00000000E+00  0.00000000E+00  0.00000000E+00
  0.00000000E+00  0.00000000E+00  0.00000000E+00
  0.00000000E+00  0.00000000E+00  0.00000000E+00
  0.00000000E+00  0.00000000E+00  0.00000000E+00
  0.00000000E+00  0.00000000E+00  0.00000000E+00
  0.00000000E+00  0.00000000E+00  0.00000000E+00
  0.00000000E+00  0.00000000E+00  0.00000000E+00
  0.00000000E+00  0.00000000E+00  0.00000000E+00
  0.00000000E+00  0.00000000E+00  0.00000000E+00
  0.00000000E+00  0.00000000E+00  0.00000000E+00
