Title                                   
   1.00000000000000     
     9.8694509999999998    0.0000000000000000    0.0000000000000000
     0.0000000000000000    8.5490480000000009    0.0000000000000000
     0.0000000000000000    0.0000000000000000   20.0000000000000000
    28     2     1
Selective dynamics
Direct
  0.0553512377357143  0.0883750887253598  0.0814178787160748   T   T   T
  0.9312381130545146  0.1716464890868737  0.0841188442748794   T   T   T
  0.0571889658217064  0.9229237504390664  0.0822321960715739   T   T   T
  0.9344773172069644  0.3385973290925285  0.0831857835481117   T   T   T
  0.0573281429321696  0.5900070034707984  0.0787116550911848   T   T   T
  0.9341758669947525  0.6742388025368168  0.0840712308725157   T   T   T
  0.0574764150788685  0.4231022595098278  0.0781740222784405   T   T   T
  0.9319118628031829  0.8403422455464226  0.0850575001522337   T   T   T
  0.3041392742025121  0.0877813392757146  0.0923805625355275   T   T   T
  0.1802012988944761  0.1697351081501621  0.0837923251073413   T   T   T
  0.1800106149206948  0.3370367176959481  0.0825119229377748   T   T   T
  0.3016832657061947  0.5888686784613931  0.0950731591600978   T   T   T
  0.1814765366122305  0.6730976320494301  0.0834965788596495   T   T   T
  0.3004933987053219  0.4177250123619605  0.0948749644473201   T   T   T
  0.1822658963950685  0.8405253378275732  0.0849111291029785   T   T   T
  0.5554196637524036  0.0922754058217378  0.1072974526710725   T   T   T
  0.4255132395423187  0.1759495317680872  0.1039815490416712   T   T   T
  0.5540406204042368  0.9255440179627858  0.1070915091753168   T   T   T
  0.4208165526492985  0.6741323946827300  0.1095953284241772   T   T   T
  0.4268593247291013  0.8379300849061113  0.1041631476736532   T   T   T
  0.8061615148936407  0.0899778330856704  0.0927741540572165   T   T   T
  0.6839348312146679  0.1778157862783780  0.1043535427084437   T   T   T
  0.8063076989601592  0.9225356252862832  0.0932274470321872   T   T   T
  0.6933305500276294  0.3422349654161526  0.1110468591790560   T   T   T
  0.8145208358384707  0.5912120159758030  0.0963972466635132   T   T   T
  0.6914659373671151  0.6711734071388491  0.1105126048826398   T   T   T
  0.8151895870300772  0.4218564630361321  0.0961902749499911   T   T   T
  0.6825952760789705  0.8365599531293896  0.1046273240769166   T   T   T
  0.4161200591512996  0.3351538583596796  0.1087243250819796   T   T   T
  0.3048701866668204  0.9230856490207117  0.0925761666038770   T   T   T
  0.5565709146294361  0.5094352139016426  0.1243963146226325   T   T   T
 
  0.00000000E+00  0.00000000E+00  0.00000000E+00
  0.00000000E+00  0.00000000E+00  0.00000000E+00
  0.00000000E+00  0.00000000E+00  0.00000000E+00
  0.00000000E+00  0.00000000E+00  0.00000000E+00
  0.00000000E+00  0.00000000E+00  0.00000000E+00
  0.00000000E+00  0.00000000E+00  0.00000000E+00
  0.00000000E+00  0.00000000E+00  0.00000000E+00
  0.00000000E+00  0.00000000E+00  0.00000000E+00
  0.00000000E+00  0.00000000E+00  0.00000000E+00
  0.00000000E+00  0.00000000E+00  0.00000000E+00
  0.00000000E+00  0.00000000E+00  0.00000000E+00
  0.00000000E+00  0.00000000E+00  0.00000000E+00
  0.00000000E+00  0.00000000E+00  0.00000000E+00
  0.00000000E+00  0.00000000E+00  0.00000000E+00
  0.00000000E+00  0.00000000E+00  0.00000000E+00
  0.00000000E+00  0.00000000E+00  0.00000000E+00
  0.00000000E+00  0.00000000E+00  0.00000000E+00
  0.00000000E+00  0.00000000E+00  0.00000000E+00
  0.00000000E+00  0.00000000E+00  0.00000000E+00
  0.00000000E+00  0.00000000E+00  0.00000000E+00
  0.00000000E+00  0.00000000E+00  0.00000000E+00
  0.00000000E+00  0.00000000E+00  0.00000000E+00
  0.00000000E+00  0.00000000E+00  0.00000000E+00
  0.00000000E+00  0.00000000E+00  0.00000000E+00
  0.00000000E+00  0.00000000E+00  0.00000000E+00
  0.00000000E+00  0.00000000E+00  0.00000000E+00
  0.00000000E+00  0.00000000E+00  0.00000000E+00
  0.00000000E+00  0.00000000E+00  0.00000000E+00
  0.00000000E+00  0.00000000E+00  0.00000000E+00
  0.00000000E+00  0.00000000E+00  0.00000000E+00
  0.00000000E+00  0.00000000E+00  0.00000000E+00
