Title                                   
   1.00000000000000     
     8.5490480000000009    0.0000000000000000    0.0000000000000000
     0.0000000000000000    8.5490480000000009    0.0000000000000000
     0.0000000000000000    0.0000000000000000   20.0000000000000000
    22     2     1
Selective dynamics
Direct
  0.9103727614337210  0.2068901707175398  0.0949882508941292   T   T   T
  0.9124231310953739  0.7998483434235945  0.0948895600413522   T   T   T
  0.1976261142128124  0.0828672529090266  0.0950720397090230   T   T   T
  0.0746451958311797  0.2019840300698893  0.0950775241283697   T   T   T
  0.1572889181103132  0.6485165265178513  0.0959705444324886   T   T   T
  0.0756858482844011  0.5018049911719276  0.0959664440159125   T   T   T
  0.1566574041711581  0.3549762574488795  0.0965809630328638   T   T   T
  0.0782077978501288  0.7989335404411965  0.0947411313659284   T   T   T
  0.4936452472284558  0.0862652714238799  0.0966082248564969   T   T   T
  0.3445534126346740  0.1645742066137413  0.0965450246010271   T   T   T
  0.4931345419394926  0.9173444384321616  0.0966006083299906   T   T   T
  0.3458332668528220  0.8348518264475019  0.0962721337340750   T   T   T
  0.7870573412389422  0.0856883780803074  0.0957170941814203   T   T   T
  0.6387117235714801  0.1685655195180017  0.0969946764810473   T   T   T
  0.7883040549615410  0.9196367305658836  0.0957986040749856   T   T   T
  0.8305905718042593  0.6482163636763372  0.0961149904007002   T   T   T
  0.8285024962188612  0.3583763372561593  0.0958664066921834   T   T   T
  0.6392074204596303  0.8349383872377972  0.0974402976519506   T   T   T
  0.3220204963744916  0.3335944966323390  0.0991203581311533   T   T   T
  0.3236254846306990  0.6701329682884775  0.0977883777435901   T   T   T
  0.6632884514696337  0.3389871362613656  0.0986749520457285   T   T   T
  0.6642926271982869  0.6663945582499086  0.0997407401278164   T   T   T
  0.9105006205974918  0.5031228106842204  0.0956585468927069   T   T   T
  0.1977721837504412  0.9162192428970717  0.0947929937869200   T   T   T
  0.4914648880796966  0.5020602150349474  0.1306845126481204   T   T   T
 
  0.00000000E+00  0.00000000E+00  0.00000000E+00
  0.00000000E+00  0.00000000E+00  0.00000000E+00
  0.00000000E+00  0.00000000E+00  0.00000000E+00
  0.00000000E+00  0.00000000E+00  0.00000000E+00
  0.00000000E+00  0.00000000E+00  0.00000000E+00
  0.00000000E+00  0.00000000E+00  0.00000000E+00
  0.00000000E+00  0.00000000E+00  0.00000000E+00
  0.00000000E+00  0.00000000E+00  0.00000000E+00
  0.00000000E+00  0.00000000E+00  0.00000000E+00
  0.00000000E+00  0.00000000E+00  0.00000000E+00
  0.00000000E+00  0.00000000E+00  0.00000000E+00
  0.00000000E+00  0.00000000E+00  0.00000000E+00
  0.00000000E+00  0.00000000E+00  0.00000000E+00
  0.00000000E+00  0.00000000E+00  0.00000000E+00
  0.00000000E+00  0.00000000E+00  0.00000000E+00
  0.00000000E+00  0.00000000E+00  0.00000000E+00
  0.00000000E+00  0.00000000E+00  0.00000000E+00
  0.00000000E+00  0.00000000E+00  0.00000000E+00
  0.00000000E+00  0.00000000E+00  0.00000000E+00
  0.00000000E+00  0.00000000E+00  0.00000000E+00
  0.00000000E+00  0.00000000E+00  0.00000000E+00
  0.00000000E+00  0.00000000E+00  0.00000000E+00
  0.00000000E+00  0.00000000E+00  0.00000000E+00
  0.00000000E+00  0.00000000E+00  0.00000000E+00
  0.00000000E+00  0.00000000E+00  0.00000000E+00
