Title                                   
   1.00000000000000     
     9.8694509999999998    0.0000000000000000    0.0000000000000000
     0.0000000000000000    8.5490480000000009    0.0000000000000000
     0.0000000000000000    0.0000000000000000   20.0000000000000000
    27     3     1
Selective dynamics
Direct
  0.0555697054408873  0.0880920310438592  0.0945821162468907   T   T   T
  0.9306883357399834  0.1715401821833083  0.0947887109230608   T   T   T
  0.0570835924091826  0.9228369044695824  0.0944834467033319   T   T   T
  0.9341395098778605  0.3388777099015208  0.0948625398379425   T   T   T
  0.0573610323856667  0.5898688121481951  0.0945372239514458   T   T   T
  0.9334262566127648  0.6736484359510707  0.0946573682756146   T   T   T
  0.0576775772003143  0.4227320374070588  0.0945746076039054   T   T   T
  0.9313673294923029  0.8399922715837649  0.0945472622019529   T   T   T
  0.3061508592037377  0.0879448057135121  0.0946700338897841   T   T   T
  0.1815455971767299  0.1697511992035293  0.0945669404790372   T   T   T
  0.1806333245988531  0.3377677218478377  0.0945626420710902   T   T   T
  0.3058062803268074  0.5879206154443718  0.0949773353657623   T   T   T
  0.1818281826696390  0.6728757723540416  0.0946196947893547   T   T   T
  0.3030701820641913  0.4183139637771624  0.0948913148303509   T   T   T
  0.1824932033066161  0.8395988888190821  0.0945631388198039   T   T   T
  0.4302595364212292  0.1768893772886660  0.0948920647487948   T   T   T
  0.5538853113119724  0.9253723397339646  0.0949769235818667   T   T   T
  0.4283778562650323  0.6717525811772384  0.0953538647671275   T   T   T
  0.4309710788751098  0.8383053785168053  0.0950421561603944   T   T   T
  0.8041446780954306  0.0896178493434436  0.0947858838063253   T   T   T
  0.6800194295865442  0.1796935722857902  0.0949900630286170   T   T   T
  0.8051662267766063  0.9221396700927148  0.0947006381462395   T   T   T
  0.6860090589783950  0.3438619104647896  0.0953557693606875   T   T   T
  0.8102273621527442  0.5904264122829810  0.0951011806111204   T   T   T
  0.6844615547048343  0.6697768744336107  0.0953236113571046   T   T   T
  0.8120869739429110  0.4215548363359656  0.0952000192307027   T   T   T
  0.6784154760145860  0.8371186574394300  0.0949893733841397   T   T   T
  0.5542417636610398  0.0953190217730720  0.0948384601352312   T   T   T
  0.4244819823426945  0.3374164915332087  0.0951588974992550   T   T   T
  0.3058786367181389  0.9222027662658939  0.0946758057787931   T   T   T
  0.5556671056472107  0.5076659091845478  0.0956959124143210   T   T   T
 
  0.00000000E+00  0.00000000E+00  0.00000000E+00
  0.00000000E+00  0.00000000E+00  0.00000000E+00
  0.00000000E+00  0.00000000E+00  0.00000000E+00
  0.00000000E+00  0.00000000E+00  0.00000000E+00
  0.00000000E+00  0.00000000E+00  0.00000000E+00
  0.00000000E+00  0.00000000E+00  0.00000000E+00
  0.00000000E+00  0.00000000E+00  0.00000000E+00
  0.00000000E+00  0.00000000E+00  0.00000000E+00
  0.00000000E+00  0.00000000E+00  0.00000000E+00
  0.00000000E+00  0.00000000E+00  0.00000000E+00
  0.00000000E+00  0.00000000E+00  0.00000000E+00
  0.00000000E+00  0.00000000E+00  0.00000000E+00
  0.00000000E+00  0.00000000E+00  0.00000000E+00
  0.00000000E+00  0.00000000E+00  0.00000000E+00
  0.00000000E+00  0.00000000E+00  0.00000000E+00
  0.00000000E+00  0.00000000E+00  0.00000000E+00
  0.00000000E+00  0.00000000E+00  0.00000000E+00
  0.00000000E+00  0.00000000E+00  0.00000000E+00
  0.00000000E+00  0.00000000E+00  0.00000000E+00
  0.00000000E+00  0.00000000E+00  0.00000000E+00
  0.00000000E+00  0.00000000E+00  0.00000000E+00
  0.00000000E+00  0.00000000E+00  0.00000000E+00
  0.00000000E+00  0.00000000E+00  0.00000000E+00
  0.00000000E+00  0.00000000E+00  0.00000000E+00
  0.00000000E+00  0.00000000E+00  0.00000000E+00
  0.00000000E+00  0.00000000E+00  0.00000000E+00
  0.00000000E+00  0.00000000E+00  0.00000000E+00
  0.00000000E+00  0.00000000E+00  0.00000000E+00
  0.00000000E+00  0.00000000E+00  0.00000000E+00
  0.00000000E+00  0.00000000E+00  0.00000000E+00
  0.00000000E+00  0.00000000E+00  0.00000000E+00
