Title                                   
   1.00000000000000     
     8.5490480000000009    0.0000000000000000    0.0000000000000000
     0.0000000000000000    8.5490480000000009    0.0000000000000000
     0.0000000000000000    0.0000000000000000   20.0000000000000000
    20     4     1
Selective dynamics
Direct
  0.9091783709604013  0.2048316003593140  0.0952144192402950   T   T   T
  0.9068013039761824  0.5028998726295667  0.0967692950229444   T   T   T
  0.9094230242973060  0.8015128636774429  0.0943163253833473   T   T   T
  0.1978840221544996  0.0846445190585904  0.0942034235770275   T   T   T
  0.0766146161023416  0.2035526187435152  0.0942249538744078   T   T   T
  0.1551273710799896  0.6530788440589365  0.0975194638230314   T   T   T
  0.0758652031262763  0.5026446445820789  0.0967637346533639   T   T   T
  0.1563187330760402  0.3544419998997080  0.0957635312484892   T   T   T
  0.0774261703435148  0.7996198910094121  0.0950387535793741   T   T   T
  0.4939588965862437  0.0843606297785351  0.0968557960988277   T   T   T
  0.3466200803928410  0.1634041773569850  0.0958522862049161   T   T   T
  0.4922616079217696  0.9155017688753315  0.0963985017205279   T   T   T
  0.3421694933949397  0.8379839851524167  0.0974842030006969   T   T   T
  0.7887058978774002  0.0856063880232010  0.0953686400325960   T   T   T
  0.6420726619943762  0.1640585625665703  0.0980290432604682   T   T   T
  0.7883021070829437  0.9186820460528391  0.0942857854180583   T   T   T
  0.8297029952398874  0.6525071279080515  0.0955697388383340   T   T   T
  0.8295655684040725  0.3522678727289337  0.0977027793174636   T   T   T
  0.6414034758459928  0.8365547973452471  0.0952986169411924   T   T   T
  0.3231166633936182  0.3308847063786381  0.0979314378268541   T   T   T
  0.3174647631526173  0.6791033058658474  0.1011046169674064   T   T   T
  0.6668120538881288  0.3272729514301850  0.1018750677910650   T   T   T
  0.6672923194401190  0.6752636026048724  0.0962886066185139   T   T   T
  0.1973793124622184  0.9175418107373521  0.0949724803494362   T   T   T
  0.4939452878062724  0.4965694131764499  0.1288734992113354   T   T   T
 
  0.00000000E+00  0.00000000E+00  0.00000000E+00
  0.00000000E+00  0.00000000E+00  0.00000000E+00
  0.00000000E+00  0.00000000E+00  0.00000000E+00
  0.00000000E+00  0.00000000E+00  0.00000000E+00
  0.00000000E+00  0.00000000E+00  0.00000000E+00
  0.00000000E+00  0.00000000E+00  0.00000000E+00
  0.00000000E+00  0.00000000E+00  0.00000000E+00
  0.00000000E+00  0.00000000E+00  0.00000000E+00
  0.00000000E+00  0.00000000E+00  0.00000000E+00
  0.00000000E+00  0.00000000E+00  0.00000000E+00
  0.00000000E+00  0.00000000E+00  0.00000000E+00
  0.00000000E+00  0.00000000E+00  0.00000000E+00
  0.00000000E+00  0.00000000E+00  0.00000000E+00
  0.00000000E+00  0.00000000E+00  0.00000000E+00
  0.00000000E+00  0.00000000E+00  0.00000000E+00
  0.00000000E+00  0.00000000E+00  0.00000000E+00
  0.00000000E+00  0.00000000E+00  0.00000000E+00
  0.00000000E+00  0.00000000E+00  0.00000000E+00
  0.00000000E+00  0.00000000E+00  0.00000000E+00
  0.00000000E+00  0.00000000E+00  0.00000000E+00
  0.00000000E+00  0.00000000E+00  0.00000000E+00
  0.00000000E+00  0.00000000E+00  0.00000000E+00
  0.00000000E+00  0.00000000E+00  0.00000000E+00
  0.00000000E+00  0.00000000E+00  0.00000000E+00
  0.00000000E+00  0.00000000E+00  0.00000000E+00
