Title                                   
   1.00000000000000     
     9.8694509999999998    0.0000000000000000    0.0000000000000000
     0.0000000000000000    8.5490480000000009    0.0000000000000000
     0.0000000000000000    0.0000000000000000   20.0000000000000000
    23     7     1
Selective dynamics
Direct
  0.0557836170214855  0.0899124028570016  0.0917080377548033   T   T   T
  0.9316020700100682  0.1722190871659042  0.0920658325382710   T   T   T
  0.0573174486132551  0.9206894700153873  0.0921651610719893   T   T   T
  0.9326213689535168  0.3393785913032530  0.0915512017702210   T   T   T
  0.0557263237579195  0.5903346078795459  0.0909718559284574   T   T   T
  0.0558150253811265  0.4239746959696571  0.0904156203298601   T   T   T
  0.9320711894748971  0.8384853863869607  0.0928458499662461   T   T   T
  0.3076131109235642  0.0887416559248363  0.0946509114603735   T   T   T
  0.1809430755899419  0.1714721058586158  0.0924896008611131   T   T   T
  0.1801354367902848  0.3395351415628264  0.0920031780136029   T   T   T
  0.3026318390628570  0.5902406375508855  0.0969238248835565   T   T   T
  0.1794692324071219  0.6732131321208327  0.0926711552113106   T   T   T
  0.3036859834750641  0.4210349097663337  0.0966098110619254   T   T   T
  0.1813069525399691  0.8408180421687578  0.0930496176391967   T   T   T
  0.4288040648735262  0.1749918524835254  0.0991969194101189   T   T   T
  0.5550856612700023  0.9200035280074679  0.1002793957598849   T   T   T
  0.4283893387166822  0.8376331021741913  0.0998586373969369   T   T   T
  0.8053833688895898  0.0887378287980684  0.0942248415519228   T   T   T
  0.6832055746194577  0.1769639274464127  0.0984646358641075   T   T   T
  0.8065649581137267  0.9211251572317503  0.0946984297316028   T   T   T
  0.8096633158054789  0.5913287712042358  0.0965716554124912   T   T   T
  0.8098038408382915  0.4214350482001110  0.0958051119009049   T   T   T
  0.6824671430128894  0.8369211649016540  0.0992766146180037   T   T   T
  0.9327214090433370  0.6719238329343833  0.0922563398890160   T   T   T
  0.5569925177586496  0.0955779042239932  0.1003730187739938   T   T   T
  0.4237749111257078  0.3364730757322402  0.1037026185505812   T   T   T
  0.4221223352905332  0.6767911096849420  0.1048748285619517   T   T   T
  0.6885920245631744  0.3380903956808425  0.1022336451947263   T   T   T
  0.6915682583686530  0.6738469835427657  0.1034815780310415   T   T   T
  0.3056202322487506  0.9220730936524684  0.0943763694014337   T   T   T
  0.5556543714604787  0.5069083575701471  0.1211687014604128   T   T   T
 
  0.00000000E+00  0.00000000E+00  0.00000000E+00
  0.00000000E+00  0.00000000E+00  0.00000000E+00
  0.00000000E+00  0.00000000E+00  0.00000000E+00
  0.00000000E+00  0.00000000E+00  0.00000000E+00
  0.00000000E+00  0.00000000E+00  0.00000000E+00
  0.00000000E+00  0.00000000E+00  0.00000000E+00
  0.00000000E+00  0.00000000E+00  0.00000000E+00
  0.00000000E+00  0.00000000E+00  0.00000000E+00
  0.00000000E+00  0.00000000E+00  0.00000000E+00
  0.00000000E+00  0.00000000E+00  0.00000000E+00
  0.00000000E+00  0.00000000E+00  0.00000000E+00
  0.00000000E+00  0.00000000E+00  0.00000000E+00
  0.00000000E+00  0.00000000E+00  0.00000000E+00
  0.00000000E+00  0.00000000E+00  0.00000000E+00
  0.00000000E+00  0.00000000E+00  0.00000000E+00
  0.00000000E+00  0.00000000E+00  0.00000000E+00
  0.00000000E+00  0.00000000E+00  0.00000000E+00
  0.00000000E+00  0.00000000E+00  0.00000000E+00
  0.00000000E+00  0.00000000E+00  0.00000000E+00
  0.00000000E+00  0.00000000E+00  0.00000000E+00
  0.00000000E+00  0.00000000E+00  0.00000000E+00
  0.00000000E+00  0.00000000E+00  0.00000000E+00
  0.00000000E+00  0.00000000E+00  0.00000000E+00
  0.00000000E+00  0.00000000E+00  0.00000000E+00
  0.00000000E+00  0.00000000E+00  0.00000000E+00
  0.00000000E+00  0.00000000E+00  0.00000000E+00
  0.00000000E+00  0.00000000E+00  0.00000000E+00
  0.00000000E+00  0.00000000E+00  0.00000000E+00
  0.00000000E+00  0.00000000E+00  0.00000000E+00
  0.00000000E+00  0.00000000E+00  0.00000000E+00
  0.00000000E+00  0.00000000E+00  0.00000000E+00
