Title                                   
   1.00000000000000     
     4.9440799999999996    0.0000000000000000    0.0000000000000000
     0.0000000000000000   17.1295089999999988    0.0000000000000000
     0.0000000000000000    0.0000000000000000   20.0000000000000000
    27     3     1
Selective dynamics
Direct
  0.0009419698817205  0.1063356844445855  0.2978783784714346   T   T   T
  0.2503407956943671  0.1494013319106807  0.2985819768101771   T   T   T
  0.2502907727231022  0.2340391306733843  0.3001044624145086   T   T   T
 -0.0022735159198088  0.2755090972100245  0.3008416393797346   T   T   T
  0.0017964530386478  0.6004098344114654  0.3010880986972043   T   T   T
  0.2503670980444777  0.7255206926509100  0.2991177878426888   T   T   T
  0.0012914339619920  0.8526907357894343  0.2973844279672845   T   T   T
  0.2503653944020883  0.8952229986646056  0.2970031736371620   T   T   T
  0.2503478599591272  0.9795012995926933  0.2967815000063235   T   T   T
  0.0007446841579209  0.7681728545236987  0.2984826790325311   T   T   T
  0.4997743439700291  0.1063368559507105  0.2978738034233291   T   T   T
  0.7503502494413117  0.1481104472562350  0.2985249703538005   T   T   T
  0.7502987089892438  0.2322841459450880  0.3000108614436743   T   T   T
  0.4999955898136457  0.0218964323148713  0.2969716157345006   T   T   T
  0.7502313305604725  0.3928328205950939  0.3024079500297237   T   T   T
  0.7502498040764768  0.4796280563838435  0.3024609124105587   T   T   T
  0.5028486833690318  0.2755008562701000  0.3008243216147191   T   T   T
  0.4988750049233877  0.6004227834555813  0.3010861601662000   T   T   T
  0.7503770954988889  0.7267039722439254  0.2991207571735076   T   T   T
  0.4994596814323781  0.8526922104456325  0.2973850716695335   T   T   T
  0.7503780279545093  0.8948591218275532  0.2970092454685016   T   T   T
  0.7503572430244261  0.9794970650221774  0.2967775331840557   T   T   T
  0.5000170387485958  0.7681689594760734  0.2984844751954724   T   T   T
  0.7503536381507186  0.6429212258754610  0.3004491338305262   T   T   T
  0.0007071248874095  0.0219022295840523  0.2969728187588393   T   T   T
  0.4985992471567205  0.5177984300341089  0.3021025333988839   T   T   T
  0.0019148979812509  0.5177974328033721  0.3021170538479536   T   T   T
  0.5115415143867742  0.3560697169601112  0.3021063899712537   T   T   T
 -0.0110630196256225  0.3560697258333447  0.3021414971483659   T   T   T
  0.2503351216006117  0.6436567131122276  0.3003967427610300   T   T   T
  0.2501927277161083  0.4393891387389513  0.3025720281564726   T   T   T
 
  0.00000000E+00  0.00000000E+00  0.00000000E+00
  0.00000000E+00  0.00000000E+00  0.00000000E+00
  0.00000000E+00  0.00000000E+00  0.00000000E+00
  0.00000000E+00  0.00000000E+00  0.00000000E+00
  0.00000000E+00  0.00000000E+00  0.00000000E+00
  0.00000000E+00  0.00000000E+00  0.00000000E+00
  0.00000000E+00  0.00000000E+00  0.00000000E+00
  0.00000000E+00  0.00000000E+00  0.00000000E+00
  0.00000000E+00  0.00000000E+00  0.00000000E+00
  0.00000000E+00  0.00000000E+00  0.00000000E+00
  0.00000000E+00  0.00000000E+00  0.00000000E+00
  0.00000000E+00  0.00000000E+00  0.00000000E+00
  0.00000000E+00  0.00000000E+00  0.00000000E+00
  0.00000000E+00  0.00000000E+00  0.00000000E+00
  0.00000000E+00  0.00000000E+00  0.00000000E+00
  0.00000000E+00  0.00000000E+00  0.00000000E+00
  0.00000000E+00  0.00000000E+00  0.00000000E+00
  0.00000000E+00  0.00000000E+00  0.00000000E+00
  0.00000000E+00  0.00000000E+00  0.00000000E+00
  0.00000000E+00  0.00000000E+00  0.00000000E+00
  0.00000000E+00  0.00000000E+00  0.00000000E+00
  0.00000000E+00  0.00000000E+00  0.00000000E+00
  0.00000000E+00  0.00000000E+00  0.00000000E+00
  0.00000000E+00  0.00000000E+00  0.00000000E+00
  0.00000000E+00  0.00000000E+00  0.00000000E+00
  0.00000000E+00  0.00000000E+00  0.00000000E+00
  0.00000000E+00  0.00000000E+00  0.00000000E+00
  0.00000000E+00  0.00000000E+00  0.00000000E+00
  0.00000000E+00  0.00000000E+00  0.00000000E+00
  0.00000000E+00  0.00000000E+00  0.00000000E+00
  0.00000000E+00  0.00000000E+00  0.00000000E+00
