Title                                   
   1.00000000000000     
     9.8694509999999998    0.0000000000000000    0.0000000000000000
     0.0000000000000000    8.5490480000000009    0.0000000000000000
     0.0000000000000000    0.0000000000000000   20.0000000000000000
    29     2     1
Selective dynamics
Direct
  0.0565189675473083  0.0911883955158693  0.0845340643637707   T   T   T
  0.9313267523690396  0.1728086154405512  0.0862144194076657   T   T   T
  0.0552848087333252  0.9239810937173406  0.0846387331760272   T   T   T
  0.9308981331587235  0.3393356775486376  0.0894193470615758   T   T   T
  0.0563105852181881  0.5892019308742144  0.0878076390551927   T   T   T
  0.9317647193374284  0.6720773009246427  0.0902165697384080   T   T   T
  0.0573214262123998  0.4231508597197192  0.0888958286398769   T   T   T
  0.9309706735917009  0.8389777190841557  0.0878966464914013   T   T   T
  0.3054981761880136  0.0913792971185124  0.0866452477190630   T   T   T
  0.1817965225378982  0.1754594676570941  0.0863043298127715   T   T   T
  0.3036970963315132  0.9254059868663009  0.0881138599894870   T   T   T
  0.1841332126868349  0.3424269678354558  0.0900599347109843   T   T   T
  0.3048170111455060  0.5952993760614336  0.0987126424789853   T   T   T
  0.1800953601239084  0.6743770160326042  0.0890058355518654   T   T   T
  0.3108877487242656  0.4262628295728900  0.0972207656035468   T   T   T
  0.1794095688049134  0.8411684310732361  0.0866741604496507   T   T   T
  0.5556066609849911  0.0852253333035218  0.0927683773211279   T   T   T
  0.4315449709654116  0.1711831940345670  0.0910272203237524   T   T   T
  0.5543320879929821  0.9201054113213937  0.0979446654098337   T   T   T
  0.4352869087215714  0.3357450840124866  0.0991825826847209   T   T   T
  0.4252765491228588  0.8417841710683794  0.0983709269992887   T   T   T
  0.8071637365415332  0.0877676788859975  0.0876633155293599   T   T   T
  0.6817316167760067  0.1679288436638042  0.0914440845040876   T   T   T
  0.8062761228505712  0.9218743164807932  0.0903617325287725   T   T   T
  0.6811411411924171  0.3318112256311060  0.0989015356434376   T   T   T
  0.8082415477149042  0.5884676775203993  0.1004500289828488   T   T   T
  0.6916331817114452  0.6780832087891335  0.1153361766249602   T   T   T
  0.8056144730472395  0.4206467060309267  0.0969451745013417   T   T   T
  0.6820435011560338  0.8394002791057578  0.1008726561198568   T   T   T
  0.4182969373008913  0.6850469358352888  0.1114576880455742   T   T   T
  0.5597225170856664  0.4043933911376596  0.1114469887858670   T   T   T
  0.5549962841245154  0.5882815781361357  0.1591418217449324   T   T   T
 
  0.00000000E+00  0.00000000E+00  0.00000000E+00
  0.00000000E+00  0.00000000E+00  0.00000000E+00
  0.00000000E+00  0.00000000E+00  0.00000000E+00
  0.00000000E+00  0.00000000E+00  0.00000000E+00
  0.00000000E+00  0.00000000E+00  0.00000000E+00
  0.00000000E+00  0.00000000E+00  0.00000000E+00
  0.00000000E+00  0.00000000E+00  0.00000000E+00
  0.00000000E+00  0.00000000E+00  0.00000000E+00
  0.00000000E+00  0.00000000E+00  0.00000000E+00
  0.00000000E+00  0.00000000E+00  0.00000000E+00
  0.00000000E+00  0.00000000E+00  0.00000000E+00
  0.00000000E+00  0.00000000E+00  0.00000000E+00
  0.00000000E+00  0.00000000E+00  0.00000000E+00
  0.00000000E+00  0.00000000E+00  0.00000000E+00
  0.00000000E+00  0.00000000E+00  0.00000000E+00
  0.00000000E+00  0.00000000E+00  0.00000000E+00
  0.00000000E+00  0.00000000E+00  0.00000000E+00
  0.00000000E+00  0.00000000E+00  0.00000000E+00
  0.00000000E+00  0.00000000E+00  0.00000000E+00
  0.00000000E+00  0.00000000E+00  0.00000000E+00
  0.00000000E+00  0.00000000E+00  0.00000000E+00
  0.00000000E+00  0.00000000E+00  0.00000000E+00
  0.00000000E+00  0.00000000E+00  0.00000000E+00
  0.00000000E+00  0.00000000E+00  0.00000000E+00
  0.00000000E+00  0.00000000E+00  0.00000000E+00
  0.00000000E+00  0.00000000E+00  0.00000000E+00
  0.00000000E+00  0.00000000E+00  0.00000000E+00
  0.00000000E+00  0.00000000E+00  0.00000000E+00
  0.00000000E+00  0.00000000E+00  0.00000000E+00
  0.00000000E+00  0.00000000E+00  0.00000000E+00
  0.00000000E+00  0.00000000E+00  0.00000000E+00
  0.00000000E+00  0.00000000E+00  0.00000000E+00
