Title                                   
   1.00000000000000     
     9.8694509999999998    0.0000000000000000    0.0000000000000000
     0.0000000000000000    8.5490480000000009    0.0000000000000000
     0.0000000000000000    0.0000000000000000   20.0000000000000000
    29     2     1
Selective dynamics
Direct
  0.0563098565417849  0.0904428543320288  0.0815384859001075   T   T   T
  0.9311483484623999  0.1734594824089896  0.0823770593911675   T   T   T
  0.0573062110118340  0.9237711207723253  0.0824236436417138   T   T   T
  0.9309584236606449  0.3407544616355121  0.0850454686773243   T   T   T
  0.0572868167534957  0.5907362640170730  0.0836834170050415   T   T   T
  0.9325020324969927  0.6731089122631271  0.0871918357253449   T   T   T
  0.0572046580521738  0.4232399531766752  0.0836854280445140   T   T   T
  0.9322311232343999  0.8399997385908078  0.0851816383007241   T   T   T
  0.3056727873010274  0.0883030238182840  0.0876793684900137   T   T   T
  0.1824591282641631  0.1727096232123128  0.0839637305412570   T   T   T
  0.1825235339613143  0.3399241711717956  0.0860773281975216   T   T   T
  0.3036032283941270  0.5891076415435953  0.1013568920980912   T   T   T
  0.1824330989722253  0.6739636463630581  0.0875936293434798   T   T   T
  0.3067124897132801  0.4213096084982630  0.0979380000511807   T   T   T
  0.1821763188661536  0.8411924284094860  0.0858917774313149   T   T   T
  0.5552760582117828  0.0872251356270320  0.0931586902659831   T   T   T
  0.5542983318128225  0.9232337195662341  0.1004910992118147   T   T   T
  0.4296153119052247  0.3316903017091573  0.1051086499746422   T   T   T
  0.4265345471862138  0.8424543565692225  0.1052608362492671   T   T   T
  0.8060794385731332  0.0891698555602448  0.0844343113241021   T   T   T
  0.6801323468104715  0.1711238369571880  0.0901825963588415   T   T   T
  0.8066972633518276  0.9237604610681501  0.0879698336677688   T   T   T
  0.6823731475845215  0.3350169716548737  0.1010628139702126   T   T   T
  0.8097451186719902  0.5907844931380328  0.0997833322994366   T   T   T
  0.8063402763043057  0.4224648113301688  0.0957505909018394   T   T   T
  0.6830841850229158  0.8427222119175993  0.1014320562583998   T   T   T
  0.4164348371863575  0.6824423410826614  0.1220263253514053   T   T   T
  0.5562008581902741  0.4022315034371052  0.1216735560572109   T   T   T
  0.6939204205003956  0.6809493952483344  0.1186343409492381   T   T   T
  0.3057861660686029  0.9258184271399105  0.0901090947310553   T   T   T
  0.4289868423399275  0.1683140995780149  0.0936475867319712   T   T   T
  0.5576057945932235  0.5888211482027377  0.1733215828580313   T   T   T
 
  0.00000000E+00  0.00000000E+00  0.00000000E+00
  0.00000000E+00  0.00000000E+00  0.00000000E+00
  0.00000000E+00  0.00000000E+00  0.00000000E+00
  0.00000000E+00  0.00000000E+00  0.00000000E+00
  0.00000000E+00  0.00000000E+00  0.00000000E+00
  0.00000000E+00  0.00000000E+00  0.00000000E+00
  0.00000000E+00  0.00000000E+00  0.00000000E+00
  0.00000000E+00  0.00000000E+00  0.00000000E+00
  0.00000000E+00  0.00000000E+00  0.00000000E+00
  0.00000000E+00  0.00000000E+00  0.00000000E+00
  0.00000000E+00  0.00000000E+00  0.00000000E+00
  0.00000000E+00  0.00000000E+00  0.00000000E+00
  0.00000000E+00  0.00000000E+00  0.00000000E+00
  0.00000000E+00  0.00000000E+00  0.00000000E+00
  0.00000000E+00  0.00000000E+00  0.00000000E+00
  0.00000000E+00  0.00000000E+00  0.00000000E+00
  0.00000000E+00  0.00000000E+00  0.00000000E+00
  0.00000000E+00  0.00000000E+00  0.00000000E+00
  0.00000000E+00  0.00000000E+00  0.00000000E+00
  0.00000000E+00  0.00000000E+00  0.00000000E+00
  0.00000000E+00  0.00000000E+00  0.00000000E+00
  0.00000000E+00  0.00000000E+00  0.00000000E+00
  0.00000000E+00  0.00000000E+00  0.00000000E+00
  0.00000000E+00  0.00000000E+00  0.00000000E+00
  0.00000000E+00  0.00000000E+00  0.00000000E+00
  0.00000000E+00  0.00000000E+00  0.00000000E+00
  0.00000000E+00  0.00000000E+00  0.00000000E+00
  0.00000000E+00  0.00000000E+00  0.00000000E+00
  0.00000000E+00  0.00000000E+00  0.00000000E+00
  0.00000000E+00  0.00000000E+00  0.00000000E+00
  0.00000000E+00  0.00000000E+00  0.00000000E+00
  0.00000000E+00  0.00000000E+00  0.00000000E+00
