Title                                   
   1.00000000000000     
     9.8694509999999998    0.0000000000000000    0.0000000000000000
     0.0000000000000000    8.5490480000000009    0.0000000000000000
     0.0000000000000000    0.0000000000000000   20.0000000000000000
    27     3     1
Selective dynamics
Direct
  0.0549452220315136  0.0896363314857385  0.0838722426098585   T   T   T
  0.9304053824299940  0.1730410226105938  0.0840286702097409   T   T   T
  0.0581896748808548  0.9236403692711797  0.0842861127437969   T   T   T
  0.9328779625702713  0.3408467648047767  0.0828413010605140   T   T   T
  0.0570693093986016  0.5901719856443027  0.0808153513011058   T   T   T
  0.9339870814597757  0.6755869203104067  0.0836913334054158   T   T   T
  0.0570999982731055  0.4232223263178418  0.0809110752014953   T   T   T
  0.9329940905704946  0.8414790600513603  0.0855211014131535   T   T   T
  0.3049837053185789  0.0879489925949713  0.0950196055873462   T   T   T
  0.1800718966824630  0.1696980788014920  0.0876179588851853   T   T   T
  0.1796941985471985  0.3366758730623898  0.0866754527890664   T   T   T
  0.3012071931161125  0.5870799844635027  0.0964227561071701   T   T   T
  0.1811638438076580  0.6728393622343644  0.0858475474541677   T   T   T
  0.3002198506743258  0.4174014028764128  0.0983405859659299   T   T   T
  0.1828120287897645  0.8403496003652809  0.0869287508945351   T   T   T
  0.5559054637898032  0.0907716409602099  0.1048813653560888   T   T   T
  0.4263751837461858  0.1756123957595893  0.1054647671812001   T   T   T
  0.5554467559049209  0.9215400082856879  0.1049497607445234   T   T   T
  0.4224789064902471  0.6694236980940078  0.1084268239327208   T   T   T
  0.4291543041199739  0.8349617170032768  0.1027410103638638   T   T   T
  0.8045252059060961  0.0910145252930625  0.0899716465930319   T   T   T
  0.6810801437047511  0.1775551304377613  0.0986898753604829   T   T   T
  0.8066864170055779  0.9228536448924901  0.0914014858342643   T   T   T
  0.6883742520186988  0.3450194102004466  0.1030952231590006   T   T   T
  0.8123155861562897  0.5947353842407588  0.0928982637339925   T   T   T
  0.8111403354378960  0.4252887089989716  0.0907555079299766   T   T   T
  0.6849168410564580  0.8344452065810100  0.1019175744635681   T   T   T
  0.4180988565623851  0.3370192587504879  0.1125363362992236   T   T   T
  0.6940253106155676  0.6731791758272598  0.1076231530104493   T   T   T
  0.3068405501990999  0.9218562294029907  0.0935720294321359   T   T   T
  0.5580494487353389  0.5059807903774007  0.1292203309770300   T   T   T
 
  0.00000000E+00  0.00000000E+00  0.00000000E+00
  0.00000000E+00  0.00000000E+00  0.00000000E+00
  0.00000000E+00  0.00000000E+00  0.00000000E+00
  0.00000000E+00  0.00000000E+00  0.00000000E+00
  0.00000000E+00  0.00000000E+00  0.00000000E+00
  0.00000000E+00  0.00000000E+00  0.00000000E+00
  0.00000000E+00  0.00000000E+00  0.00000000E+00
  0.00000000E+00  0.00000000E+00  0.00000000E+00
  0.00000000E+00  0.00000000E+00  0.00000000E+00
  0.00000000E+00  0.00000000E+00  0.00000000E+00
  0.00000000E+00  0.00000000E+00  0.00000000E+00
  0.00000000E+00  0.00000000E+00  0.00000000E+00
  0.00000000E+00  0.00000000E+00  0.00000000E+00
  0.00000000E+00  0.00000000E+00  0.00000000E+00
  0.00000000E+00  0.00000000E+00  0.00000000E+00
  0.00000000E+00  0.00000000E+00  0.00000000E+00
  0.00000000E+00  0.00000000E+00  0.00000000E+00
  0.00000000E+00  0.00000000E+00  0.00000000E+00
  0.00000000E+00  0.00000000E+00  0.00000000E+00
  0.00000000E+00  0.00000000E+00  0.00000000E+00
  0.00000000E+00  0.00000000E+00  0.00000000E+00
  0.00000000E+00  0.00000000E+00  0.00000000E+00
  0.00000000E+00  0.00000000E+00  0.00000000E+00
  0.00000000E+00  0.00000000E+00  0.00000000E+00
  0.00000000E+00  0.00000000E+00  0.00000000E+00
  0.00000000E+00  0.00000000E+00  0.00000000E+00
  0.00000000E+00  0.00000000E+00  0.00000000E+00
  0.00000000E+00  0.00000000E+00  0.00000000E+00
  0.00000000E+00  0.00000000E+00  0.00000000E+00
  0.00000000E+00  0.00000000E+00  0.00000000E+00
  0.00000000E+00  0.00000000E+00  0.00000000E+00
