Title                                   
   1.00000000000000     
     4.9440799999999996    0.0000000000000000    0.0000000000000000
     0.0000000000000000    8.5647549999999999    0.0000000000000000
     0.0000000000000000    0.0000000000000000   20.0000000000000000
    13     1     1
Selective dynamics
Direct
  0.2534999358853305  0.2070285007680541  0.0969225460346765   T   T   T
  0.0005792345701331  0.2898562525423641  0.0941817223841502   T   T   T
  0.2584528337163617  0.0391441602354677  0.0963678610858371   T   T   T
  0.0091329625493629  0.9570655146126152  0.0912604512017979   T   T   T
  0.7486429382497777  0.2088730910954018  0.0944298426984099   T   T   T
  0.4981216160868285  0.2960596012113287  0.1001271591279683   T   T   T
  0.7548835950067015  0.0392288241293344  0.0933955138998814   T   T   T
  0.7533978576687962  0.7132761600245522  0.0994329795731632   T   T   T
  0.7460491952865850  0.5414868665138571  0.0994465675687853   T   T   T
  0.5090745667622607  0.9522277097927945  0.1004897066579276   T   T   T
  0.4989972251206060  0.4650031904007934  0.1076095974557637   T   T   T
 -0.0095407327283651  0.4559041557871997  0.0988619294833249   T   T   T
 -0.0009435479602498  0.7905900824939501  0.0903115812058214   T   T   T
  0.5165036292159723  0.7914868064136258  0.1126953709957289   T   T   T
  0.2131486905698984  0.6244500839786621  0.1324471706267668   T   T   T
 
  0.00000000E+00  0.00000000E+00  0.00000000E+00
  0.00000000E+00  0.00000000E+00  0.00000000E+00
  0.00000000E+00  0.00000000E+00  0.00000000E+00
  0.00000000E+00  0.00000000E+00  0.00000000E+00
  0.00000000E+00  0.00000000E+00  0.00000000E+00
  0.00000000E+00  0.00000000E+00  0.00000000E+00
  0.00000000E+00  0.00000000E+00  0.00000000E+00
  0.00000000E+00  0.00000000E+00  0.00000000E+00
  0.00000000E+00  0.00000000E+00  0.00000000E+00
  0.00000000E+00  0.00000000E+00  0.00000000E+00
  0.00000000E+00  0.00000000E+00  0.00000000E+00
  0.00000000E+00  0.00000000E+00  0.00000000E+00
  0.00000000E+00  0.00000000E+00  0.00000000E+00
  0.00000000E+00  0.00000000E+00  0.00000000E+00
  0.00000000E+00  0.00000000E+00  0.00000000E+00
