Title                                   
   1.00000000000000     
     9.8694509999999998    0.0000000000000000    0.0000000000000000
     0.0000000000000000    8.5490480000000009    0.0000000000000000
     0.0000000000000000    0.0000000000000000   20.0000000000000000
    27     3     1
Selective dynamics
Direct
  0.0559105952336390  0.0894717747546540  0.0944456464428246   T   T   T
  0.9311733410119536  0.1714795496874976  0.0948331426228431   T   T   T
  0.0574863541100661  0.9233256600128142  0.0944734659092517   T   T   T
  0.9343776133446893  0.3382471634090224  0.0947687136718043   T   T   T
  0.0579740487867448  0.5901066185013405  0.0942261125829552   T   T   T
  0.9345034475557761  0.6745077076629025  0.0947878593343555   T   T   T
  0.0580240811995913  0.4228226133897106  0.0942163878282345   T   T   T
  0.9316586854425579  0.8405880907422755  0.0948512966053890   T   T   T
  0.3061927138741701  0.0889261895177339  0.0944446209936560   T   T   T
  0.1807646367423761  0.1707445922573287  0.0942189945342290   T   T   T
  0.1811379960866795  0.3388683097657000  0.0940958154896396   T   T   T
  0.3040875377598291  0.5905779708627449  0.0942499882311111   T   T   T
  0.1815500981437470  0.6734825341548767  0.0940758467710042   T   T   T
  0.3045624727689639  0.4213045055047935  0.0942734006198648   T   T   T
  0.1813629198066094  0.8410885800400050  0.0942322998981285   T   T   T
  0.5545397419718151  0.0913338943543211  0.0954397728006791   T   T   T
  0.4288041906895718  0.1778553310889741  0.0949110710261555   T   T   T
  0.5533858843125371  0.9215229773321341  0.0953683521607493   T   T   T
  0.4283527095402315  0.8338618789620275  0.0948431364424140   T   T   T
  0.8045201335962070  0.0903476765152614  0.0953428471923985   T   T   T
  0.6802336802095770  0.1792662750923946  0.0956935961620448   T   T   T
  0.8047061855750183  0.9215171763566966  0.0953150576965700   T   T   T
  0.6853926322187898  0.3475659455666744  0.0959094696390948   T   T   T
  0.8127973074146466  0.5904888041107266  0.0954089845942307   T   T   T
  0.6854908647429001  0.6648983836477496  0.0958392119739055   T   T   T
  0.8128335473245782  0.4221391641240402  0.0954348458822683   T   T   T
  0.6798866644530159  0.8324357978056407  0.0955928827711083   T   T   T
  0.4251715628127536  0.3407861317778275  0.0948096321256655   T   T   T
  0.4244249934436666  0.6730169443298653  0.0947474205801602   T   T   T
  0.3063207716744202  0.9222245808868565  0.0943809577248305   T   T   T
  0.5555075881528959  0.5060721777854147  0.0957341696924821   T   T   T
 
  0.00000000E+00  0.00000000E+00  0.00000000E+00
  0.00000000E+00  0.00000000E+00  0.00000000E+00
  0.00000000E+00  0.00000000E+00  0.00000000E+00
  0.00000000E+00  0.00000000E+00  0.00000000E+00
  0.00000000E+00  0.00000000E+00  0.00000000E+00
  0.00000000E+00  0.00000000E+00  0.00000000E+00
  0.00000000E+00  0.00000000E+00  0.00000000E+00
  0.00000000E+00  0.00000000E+00  0.00000000E+00
  0.00000000E+00  0.00000000E+00  0.00000000E+00
  0.00000000E+00  0.00000000E+00  0.00000000E+00
  0.00000000E+00  0.00000000E+00  0.00000000E+00
  0.00000000E+00  0.00000000E+00  0.00000000E+00
  0.00000000E+00  0.00000000E+00  0.00000000E+00
  0.00000000E+00  0.00000000E+00  0.00000000E+00
  0.00000000E+00  0.00000000E+00  0.00000000E+00
  0.00000000E+00  0.00000000E+00  0.00000000E+00
  0.00000000E+00  0.00000000E+00  0.00000000E+00
  0.00000000E+00  0.00000000E+00  0.00000000E+00
  0.00000000E+00  0.00000000E+00  0.00000000E+00
  0.00000000E+00  0.00000000E+00  0.00000000E+00
  0.00000000E+00  0.00000000E+00  0.00000000E+00
  0.00000000E+00  0.00000000E+00  0.00000000E+00
  0.00000000E+00  0.00000000E+00  0.00000000E+00
  0.00000000E+00  0.00000000E+00  0.00000000E+00
  0.00000000E+00  0.00000000E+00  0.00000000E+00
  0.00000000E+00  0.00000000E+00  0.00000000E+00
  0.00000000E+00  0.00000000E+00  0.00000000E+00
  0.00000000E+00  0.00000000E+00  0.00000000E+00
  0.00000000E+00  0.00000000E+00  0.00000000E+00
  0.00000000E+00  0.00000000E+00  0.00000000E+00
  0.00000000E+00  0.00000000E+00  0.00000000E+00
