Title                                   
   1.00000000000000     
     4.9440799999999996    0.0000000000000000    0.0000000000000000
     0.0000000000000000   17.1295089999999988    0.0000000000000000
     0.0000000000000000    0.0000000000000000   20.0000000000000000
    29     1     1
Selective dynamics
Direct
  0.0002305895323370  0.1031695544098455  0.2976800717848949   T   T   T
  0.2503579737872474  0.1453169431911521  0.2983880754727326   T   T   T
  0.2503057582028145  0.2279878730715764  0.3000153338751089   T   T   T
 -0.0013580005935262  0.2697195162154444  0.3011114790722065   T   T   T
 -0.0003665485608380  0.6057158445621155  0.3017375057301661   T   T   T
  0.2503211634462472  0.7284816047198709  0.2988978229396531   T   T   T
  0.0013965179337950  0.8539127740676565  0.2970314912852872   T   T   T
  0.2503206807684907  0.8957351049959273  0.2967266078211919   T   T   T
  0.2503568948207749  0.9786200540306631  0.2966098225736318   T   T   T
  0.0011452075531776  0.7707042842885820  0.2981875842938678   T   T   T
  0.5004978730828705  0.1031781430375876  0.2975861435677530   T   T   T
  0.7503589369229137  0.1443459509959730  0.2982904181144076   T   T   T
  0.7503280913723860  0.2273985314756323  0.2999473026117997   T   T   T
  0.5004215900604910  0.0201432872411560  0.2967044693267132   T   T   T
  0.7503304647291439  0.3941842067956833  0.3027668823287191   T   T   T
  0.7503261484086006  0.4831461121171455  0.3030135923435741   T   T   T
  0.5020078379334654  0.2697306415802520  0.3006028691974576   T   T   T
  0.5009358028679685  0.6057212996502150  0.3011250453638550   T   T   T
  0.7502955089763320  0.7304012897027991  0.2987949050149720   T   T   T
  0.4991877730432024  0.8539037800433663  0.2969465947252545   T   T   T
  0.7503056143661547  0.8951350527367393  0.2966324484971541   T   T   T
  0.7503254958414739  0.9784688159407640  0.2965200587252029   T   T   T
  0.4994358399971970  0.7706875448362387  0.2980109154836727   T   T   T
  0.7502973440178138  0.6481998344279474  0.3005066388591441   T   T   T
  0.0002634311570858  0.0201296885133253  0.2967533797315630   T   T   T
  0.5099992390845203  0.5247605723228942  0.3019821505841456   T   T   T
  0.9906621811276908  0.5247919479527953  0.3036973224355553   T   T   T
  0.5133940238811224  0.3514597212824472  0.3017100678198654   T   T   T
 -0.0127561166417251  0.3514430596325213  0.3031011719388269   T   T   T
  0.2503203405158367  0.6474159768329706  0.3005499085670157   T   T   T
  0.2503593423649368  0.4373329893287102  0.3034319199145597   T   T   T
 
  0.00000000E+00  0.00000000E+00  0.00000000E+00
  0.00000000E+00  0.00000000E+00  0.00000000E+00
  0.00000000E+00  0.00000000E+00  0.00000000E+00
  0.00000000E+00  0.00000000E+00  0.00000000E+00
  0.00000000E+00  0.00000000E+00  0.00000000E+00
  0.00000000E+00  0.00000000E+00  0.00000000E+00
  0.00000000E+00  0.00000000E+00  0.00000000E+00
  0.00000000E+00  0.00000000E+00  0.00000000E+00
  0.00000000E+00  0.00000000E+00  0.00000000E+00
  0.00000000E+00  0.00000000E+00  0.00000000E+00
  0.00000000E+00  0.00000000E+00  0.00000000E+00
  0.00000000E+00  0.00000000E+00  0.00000000E+00
  0.00000000E+00  0.00000000E+00  0.00000000E+00
  0.00000000E+00  0.00000000E+00  0.00000000E+00
  0.00000000E+00  0.00000000E+00  0.00000000E+00
  0.00000000E+00  0.00000000E+00  0.00000000E+00
  0.00000000E+00  0.00000000E+00  0.00000000E+00
  0.00000000E+00  0.00000000E+00  0.00000000E+00
  0.00000000E+00  0.00000000E+00  0.00000000E+00
  0.00000000E+00  0.00000000E+00  0.00000000E+00
  0.00000000E+00  0.00000000E+00  0.00000000E+00
  0.00000000E+00  0.00000000E+00  0.00000000E+00
  0.00000000E+00  0.00000000E+00  0.00000000E+00
  0.00000000E+00  0.00000000E+00  0.00000000E+00
  0.00000000E+00  0.00000000E+00  0.00000000E+00
  0.00000000E+00  0.00000000E+00  0.00000000E+00
  0.00000000E+00  0.00000000E+00  0.00000000E+00
  0.00000000E+00  0.00000000E+00  0.00000000E+00
  0.00000000E+00  0.00000000E+00  0.00000000E+00
  0.00000000E+00  0.00000000E+00  0.00000000E+00
  0.00000000E+00  0.00000000E+00  0.00000000E+00
