Title                                   
   1.00000000000000     
     9.8694509999999998    0.0000000000000000    0.0000000000000000
     0.0000000000000000    8.5490480000000009    0.0000000000000000
     0.0000000000000000    0.0000000000000000   20.0000000000000000
    29     2     1
Selective dynamics
Direct
  0.0564917043436490  0.0912606895582656  0.0815690107263480   T   T   T
  0.9313222895112974  0.1737524240324901  0.0840012876723286   T   T   T
  0.0559016743376060  0.9240818415227758  0.0817201098570584   T   T   T
  0.9307082541998489  0.3399312939662170  0.0866550057358504   T   T   T
  0.0567463351915320  0.5892900714849933  0.0824209726476237   T   T   T
  0.9324298581526952  0.6725166396983058  0.0858610555600133   T   T   T
  0.0569844814410586  0.4232977517086292  0.0839355200829523   T   T   T
  0.9313626693397722  0.8397569394490163  0.0843337653338511   T   T   T
  0.3057379010687849  0.0903748204376515  0.0864079148428014   T   T   T
  0.1817961037963124  0.1747916248507310  0.0833255926251721   T   T   T
  0.3042832273203855  0.9246163126237855  0.0892465037493372   T   T   T
  0.1834695628489997  0.3416698140506865  0.0854771075737865   T   T   T
  0.3030139318721975  0.5930634657806626  0.0965373280502029   T   T   T
  0.1805324691237725  0.6737519821413712  0.0853784425989594   T   T   T
  0.3100419467164722  0.4251821166872284  0.0943226972987420   T   T   T
  0.1799636753102227  0.8410364723980608  0.0849596475789643   T   T   T
  0.5558058843769272  0.0853495218495592  0.0963437841507310   T   T   T
  0.4312988045544555  0.1704485344822157  0.0931264526351980   T   T   T
  0.5551801916963885  0.9195706922150921  0.1011657752595432   T   T   T
  0.4324372722669610  0.3341736231955454  0.1005035244202572   T   T   T
  0.4258696165819844  0.8416058224716124  0.1015498275354026   T   T   T
  0.8070821906886707  0.0894661783660024  0.0870259403071963   T   T   T
  0.6817421414639699  0.1688769764060052  0.0944795335580813   T   T   T
  0.8069502033040554  0.9234957435203991  0.0885143932164558   T   T   T
  0.6820263018059881  0.3326036092946796  0.1027309374700724   T   T   T
  0.8105649490880134  0.5899064602308088  0.0991489611576333   T   T   T
  0.6954619677728917  0.6800602761189238  0.1173486046600158   T   T   T
  0.8053457446510407  0.4219293243056069  0.0968990376148195   T   T   T
  0.6845943054453538  0.8412306391867546  0.1019287789795639   T   T   T
  0.4147221246162299  0.6827905920651004  0.1160735661247971   T   T   T
  0.5569374332048060  0.4009312954750994  0.1200036195205069   T   T   T
  0.5528337839076638  0.5894324504257320  0.1726803014557686   T   T   T
 
  0.00000000E+00  0.00000000E+00  0.00000000E+00
  0.00000000E+00  0.00000000E+00  0.00000000E+00
  0.00000000E+00  0.00000000E+00  0.00000000E+00
  0.00000000E+00  0.00000000E+00  0.00000000E+00
  0.00000000E+00  0.00000000E+00  0.00000000E+00
  0.00000000E+00  0.00000000E+00  0.00000000E+00
  0.00000000E+00  0.00000000E+00  0.00000000E+00
  0.00000000E+00  0.00000000E+00  0.00000000E+00
  0.00000000E+00  0.00000000E+00  0.00000000E+00
  0.00000000E+00  0.00000000E+00  0.00000000E+00
  0.00000000E+00  0.00000000E+00  0.00000000E+00
  0.00000000E+00  0.00000000E+00  0.00000000E+00
  0.00000000E+00  0.00000000E+00  0.00000000E+00
  0.00000000E+00  0.00000000E+00  0.00000000E+00
  0.00000000E+00  0.00000000E+00  0.00000000E+00
  0.00000000E+00  0.00000000E+00  0.00000000E+00
  0.00000000E+00  0.00000000E+00  0.00000000E+00
  0.00000000E+00  0.00000000E+00  0.00000000E+00
  0.00000000E+00  0.00000000E+00  0.00000000E+00
  0.00000000E+00  0.00000000E+00  0.00000000E+00
  0.00000000E+00  0.00000000E+00  0.00000000E+00
  0.00000000E+00  0.00000000E+00  0.00000000E+00
  0.00000000E+00  0.00000000E+00  0.00000000E+00
  0.00000000E+00  0.00000000E+00  0.00000000E+00
  0.00000000E+00  0.00000000E+00  0.00000000E+00
  0.00000000E+00  0.00000000E+00  0.00000000E+00
  0.00000000E+00  0.00000000E+00  0.00000000E+00
  0.00000000E+00  0.00000000E+00  0.00000000E+00
  0.00000000E+00  0.00000000E+00  0.00000000E+00
  0.00000000E+00  0.00000000E+00  0.00000000E+00
  0.00000000E+00  0.00000000E+00  0.00000000E+00
  0.00000000E+00  0.00000000E+00  0.00000000E+00
