Title                                   
   1.00000000000000     
     4.9440799999999996    0.0000000000000000    0.0000000000000000
     0.0000000000000000    8.5647549999999999    0.0000000000000000
     0.0000000000000000    0.0000000000000000   20.0000000000000000
    12     2     1
Selective dynamics
Direct
  0.2476762453575820  0.2085134887461704  0.0995280021359065   T   T   T
 -0.0080274911077629  0.2954728050237550  0.0952434323099716   T   T   T
  0.2523695848339750  0.0410384777252388  0.0995249615566599   T   T   T
  0.0014741473260436  0.9551393328125686  0.1037208855241016   T   T   T
  0.7465714142992311  0.2086924543532824  0.0988639421535319   T   T   T
  0.4985429167056230  0.2944121048149358  0.1037099088201713   T   T   T
  0.7534636549598485  0.0408594243563962  0.0988581095328789   T   T   T
  0.7524447149476009  0.7145679927364564  0.0962856049072905   T   T   T
  0.7475143932865953  0.5349929087479584  0.0962898972857612   T   T   T
  0.5080537233977206  0.9540840266727775  0.0952173814826399   T   T   T
  0.5098353587235214  0.4583976429157665  0.1143411537698314   T   T   T
 -0.0098674955948914  0.7911703445837980  0.1143552728763043   T   T   T
 -0.0181694700586360  0.4541227863748882  0.0849298302518060   T   T   T
  0.5181422421918189  0.7954235546669024  0.0849087846619062   T   T   T
  0.2499760607317307  0.6247936554691080  0.1222028327312423   T   T   T
 
  0.00000000E+00  0.00000000E+00  0.00000000E+00
  0.00000000E+00  0.00000000E+00  0.00000000E+00
  0.00000000E+00  0.00000000E+00  0.00000000E+00
  0.00000000E+00  0.00000000E+00  0.00000000E+00
  0.00000000E+00  0.00000000E+00  0.00000000E+00
  0.00000000E+00  0.00000000E+00  0.00000000E+00
  0.00000000E+00  0.00000000E+00  0.00000000E+00
  0.00000000E+00  0.00000000E+00  0.00000000E+00
  0.00000000E+00  0.00000000E+00  0.00000000E+00
  0.00000000E+00  0.00000000E+00  0.00000000E+00
  0.00000000E+00  0.00000000E+00  0.00000000E+00
  0.00000000E+00  0.00000000E+00  0.00000000E+00
  0.00000000E+00  0.00000000E+00  0.00000000E+00
  0.00000000E+00  0.00000000E+00  0.00000000E+00
  0.00000000E+00  0.00000000E+00  0.00000000E+00
