Title                                   
   1.00000000000000     
     4.9440799999999996    0.0000000000000000    0.0000000000000000
     0.0000000000000000   17.1295089999999988    0.0000000000000000
     0.0000000000000000    0.0000000000000000   20.0000000000000000
    29     1     1
Selective dynamics
Direct
 -0.0011115166400254  0.1043443522927932  0.2923746598765979   T   T   T
  0.2488624720517086  0.1466458698196014  0.2943841085994846   T   T   T
  0.2487152342373027  0.2296999902236315  0.3007527013612120   T   T   T
 -0.0021889123618000  0.2713023634029711  0.3070085793010041   T   T   T
 -0.0006069961475415  0.6040794765563661  0.3061604333769516   T   T   T
  0.2492403391772589  0.7273738273584309  0.2937792284177383   T   T   T
  0.0001106715752551  0.8532098694884436  0.2890103157793257   T   T   T
  0.2489879730927139  0.8953300171188128  0.2883078983185059   T   T   T
  0.2488496407624962  0.9789269417461364  0.2885020267615787   T   T   T
  0.0000661519508734  0.7694315457442833  0.2916779125769055   T   T   T
  0.4988335921541698  0.1044193524486340  0.2912284566023478   T   T   T
  0.7488169889724813  0.1461021795610645  0.2933241162634032   T   T   T
  0.7488117848070297  0.2296942648140298  0.2985753340796222   T   T   T
  0.4987367213628286  0.0207944133192035  0.2888178946197494   T   T   T
  0.7525594243342600  0.3951086058832468  0.3115485452795518   T   T   T
  0.7532915546022718  0.4829918738987365  0.3111667869643367   T   T   T
  0.4988001187121412  0.2724297563407595  0.2999158266174586   T   T   T
  0.4984755243964972  0.6030070474149266  0.2990262569840775   T   T   T
  0.7493018172092045  0.7284383343742401  0.2921349742116628   T   T   T
  0.4979330747136863  0.8531804346856727  0.2883688176457486   T   T   T
  0.7489779583399299  0.8948363597331388  0.2880249479560899   T   T   T
  0.7488513395715641  0.9787253134010886  0.2882861053540157   T   T   T
  0.4982945139119396  0.7693351222498102  0.2904438442530929   T   T   T
  0.7492460210764321  0.6458383769811296  0.2970316633567491   T   T   T
 -0.0011102563252684  0.0207703669428211  0.2894610905967273   T   T   T
  0.5038945989493545  0.5210000206148767  0.3012862887505715   T   T   T
 -0.0017345543257709  0.5241425061893364  0.3221989596353067   T   T   T
  0.5074175171771670  0.3556654446452254  0.3012743581123075   T   T   T
 -0.0053742790078989  0.3527207741060663  0.3219864238946146   T   T   T
  0.2489746273043192  0.6456878819979578  0.3002242076435670   T   T   T
  0.2760838543654195  0.4361093166465603  0.3587772368096463   T   T   T
 
  0.00000000E+00  0.00000000E+00  0.00000000E+00
  0.00000000E+00  0.00000000E+00  0.00000000E+00
  0.00000000E+00  0.00000000E+00  0.00000000E+00
  0.00000000E+00  0.00000000E+00  0.00000000E+00
  0.00000000E+00  0.00000000E+00  0.00000000E+00
  0.00000000E+00  0.00000000E+00  0.00000000E+00
  0.00000000E+00  0.00000000E+00  0.00000000E+00
  0.00000000E+00  0.00000000E+00  0.00000000E+00
  0.00000000E+00  0.00000000E+00  0.00000000E+00
  0.00000000E+00  0.00000000E+00  0.00000000E+00
  0.00000000E+00  0.00000000E+00  0.00000000E+00
  0.00000000E+00  0.00000000E+00  0.00000000E+00
  0.00000000E+00  0.00000000E+00  0.00000000E+00
  0.00000000E+00  0.00000000E+00  0.00000000E+00
  0.00000000E+00  0.00000000E+00  0.00000000E+00
  0.00000000E+00  0.00000000E+00  0.00000000E+00
  0.00000000E+00  0.00000000E+00  0.00000000E+00
  0.00000000E+00  0.00000000E+00  0.00000000E+00
  0.00000000E+00  0.00000000E+00  0.00000000E+00
  0.00000000E+00  0.00000000E+00  0.00000000E+00
  0.00000000E+00  0.00000000E+00  0.00000000E+00
  0.00000000E+00  0.00000000E+00  0.00000000E+00
  0.00000000E+00  0.00000000E+00  0.00000000E+00
  0.00000000E+00  0.00000000E+00  0.00000000E+00
  0.00000000E+00  0.00000000E+00  0.00000000E+00
  0.00000000E+00  0.00000000E+00  0.00000000E+00
  0.00000000E+00  0.00000000E+00  0.00000000E+00
  0.00000000E+00  0.00000000E+00  0.00000000E+00
  0.00000000E+00  0.00000000E+00  0.00000000E+00
  0.00000000E+00  0.00000000E+00  0.00000000E+00
  0.00000000E+00  0.00000000E+00  0.00000000E+00
