Title                                   
   1.00000000000000     
     9.8694509999999998    0.0000000000000000    0.0000000000000000
     0.0000000000000000    8.5490480000000009    0.0000000000000000
     0.0000000000000000    0.0000000000000000   20.0000000000000000
    24     6     1
Selective dynamics
Direct
  0.0556049254754304  0.0898182371156978  0.0881502721199998   T   T   T
  0.9311567555264461  0.1726085094024198  0.0894286616528582   T   T   T
  0.0569484083660098  0.9229313402957461  0.0881600022318926   T   T   T
  0.9316080910249892  0.3405081597512142  0.0885339439578411   T   T   T
  0.0567030099195897  0.5896488860611498  0.0853707178010147   T   T   T
  0.9315649555174372  0.6716115355152512  0.0882348211502796   T   T   T
  0.0567956505847547  0.4230984601300278  0.0856022765197677   T   T   T
  0.9315360122937504  0.8387976905225821  0.0892920279655162   T   T   T
  0.3061537160041177  0.0876894007904006  0.0930048605248562   T   T   T
  0.1821124159996028  0.1726114520428437  0.0891600671954295   T   T   T
  0.1819205383844833  0.3398049210609879  0.0880595029946060   T   T   T
  0.3078721691920036  0.5921221819665600  0.0946179835827683   T   T   T
  0.1819065045957079  0.6731416003018459  0.0876667168156228   T   T   T
  0.3078773490179329  0.4201728183778266  0.0944668102851568   T   T   T
  0.1813642880813209  0.8395800783537296  0.0891249420335151   T   T   T
  0.4285773154721880  0.1767259242570653  0.0995616427128460   T   T   T
  0.5547354050383366  0.9204872713882620  0.1022877748408027   T   T   T
  0.4279704428830924  0.8366833747150656  0.1008715589984367   T   T   T
  0.8055805604623922  0.0882758062311297  0.0930703953969389   T   T   T
  0.6835925731107636  0.1781571824168029  0.0996791136104459   T   T   T
  0.8065426593903210  0.9222373317086335  0.0932863878824113   T   T   T
  0.8054173699419391  0.5918786056269240  0.0954321239014124   T   T   T
  0.8056851528345927  0.4194611469321540  0.0951265666520816   T   T   T
  0.6830019619241122  0.8344225554809075  0.1008698329730875   T   T   T
  0.5565683043789900  0.0942859796713498  0.1014583431105004   T   T   T
  0.4237561879000531  0.3334605572482522  0.1032170302120806   T   T   T
  0.4220230165421773  0.6794774275687553  0.1050096694934693   T   T   T
  0.6879981014687516  0.3349438713328462  0.1036646105519740   T   T   T
  0.6887189704630268  0.6750754739838871  0.1052732465376530   T   T   T
  0.3048319124365846  0.9239379131837201  0.0928195405735468   T   T   T
  0.5570112757691018  0.5072193065659580  0.1704635557212458   T   T   T
 
  0.00000000E+00  0.00000000E+00  0.00000000E+00
  0.00000000E+00  0.00000000E+00  0.00000000E+00
  0.00000000E+00  0.00000000E+00  0.00000000E+00
  0.00000000E+00  0.00000000E+00  0.00000000E+00
  0.00000000E+00  0.00000000E+00  0.00000000E+00
  0.00000000E+00  0.00000000E+00  0.00000000E+00
  0.00000000E+00  0.00000000E+00  0.00000000E+00
  0.00000000E+00  0.00000000E+00  0.00000000E+00
  0.00000000E+00  0.00000000E+00  0.00000000E+00
  0.00000000E+00  0.00000000E+00  0.00000000E+00
  0.00000000E+00  0.00000000E+00  0.00000000E+00
  0.00000000E+00  0.00000000E+00  0.00000000E+00
  0.00000000E+00  0.00000000E+00  0.00000000E+00
  0.00000000E+00  0.00000000E+00  0.00000000E+00
  0.00000000E+00  0.00000000E+00  0.00000000E+00
  0.00000000E+00  0.00000000E+00  0.00000000E+00
  0.00000000E+00  0.00000000E+00  0.00000000E+00
  0.00000000E+00  0.00000000E+00  0.00000000E+00
  0.00000000E+00  0.00000000E+00  0.00000000E+00
  0.00000000E+00  0.00000000E+00  0.00000000E+00
  0.00000000E+00  0.00000000E+00  0.00000000E+00
  0.00000000E+00  0.00000000E+00  0.00000000E+00
  0.00000000E+00  0.00000000E+00  0.00000000E+00
  0.00000000E+00  0.00000000E+00  0.00000000E+00
  0.00000000E+00  0.00000000E+00  0.00000000E+00
  0.00000000E+00  0.00000000E+00  0.00000000E+00
  0.00000000E+00  0.00000000E+00  0.00000000E+00
  0.00000000E+00  0.00000000E+00  0.00000000E+00
  0.00000000E+00  0.00000000E+00  0.00000000E+00
  0.00000000E+00  0.00000000E+00  0.00000000E+00
  0.00000000E+00  0.00000000E+00  0.00000000E+00
