Title                                   
   1.00000000000000     
     4.9440799999999996    0.0000000000000000    0.0000000000000000
     0.0000000000000000    8.5647549999999999    0.0000000000000000
     0.0000000000000000    0.0000000000000000   20.0000000000000000
    14     1
Selective dynamics
Direct
  0.2500000000000000  0.2062335852692608  0.1004012897977071   T   T   T
 -0.0001927405510215  0.2924976487315177  0.1004757749718351   T   T   T
  0.2500000000000000  0.0433614332386672  0.1004137744878686   T   T   T
 -0.0001748747751092  0.9570603619534371  0.1005113012492244   T   T   T
  0.7500000000000000  0.2081208629428263  0.1004848854393716   T   T   T
  0.5001927405510214  0.2924976487315177  0.1004757749718351   T   T   T
  0.7500000000000000  0.0414318823916702  0.1005084289398148   T   T   T
  0.7500000000000000  0.7100544472991046  0.1008372560192780   T   T   T
  0.7500000000000000  0.5395011444544970  0.1008155858272805   T   T   T
  0.5001748747751089  0.9570603619534371  0.1005113012492244   T   T   T
  0.5063793677512314  0.4552276482986439  0.1005670642965549   T   T   T
 -0.0063793677512312  0.4552276482986439  0.1005670642965549   T   T   T
 -0.0063559117005867  0.7943146599879631  0.1006224870161856   T   T   T
  0.5063559117005870  0.7943146599879631  0.1006224870161856   T   T   T
  0.2500000000000000  0.6247770064608525  0.1001655244210829   T   T   T
 
  0.00000000E+00  0.00000000E+00  0.00000000E+00
  0.00000000E+00  0.00000000E+00  0.00000000E+00
  0.00000000E+00  0.00000000E+00  0.00000000E+00
  0.00000000E+00  0.00000000E+00  0.00000000E+00
  0.00000000E+00  0.00000000E+00  0.00000000E+00
  0.00000000E+00  0.00000000E+00  0.00000000E+00
  0.00000000E+00  0.00000000E+00  0.00000000E+00
  0.00000000E+00  0.00000000E+00  0.00000000E+00
  0.00000000E+00  0.00000000E+00  0.00000000E+00
  0.00000000E+00  0.00000000E+00  0.00000000E+00
  0.00000000E+00  0.00000000E+00  0.00000000E+00
  0.00000000E+00  0.00000000E+00  0.00000000E+00
  0.00000000E+00  0.00000000E+00  0.00000000E+00
  0.00000000E+00  0.00000000E+00  0.00000000E+00
  0.00000000E+00  0.00000000E+00  0.00000000E+00
