Title                                   
   1.00000000000000     
     9.8694509999999998    0.0000000000000000    0.0000000000000000
     0.0000000000000000    8.5490480000000009    0.0000000000000000
     0.0000000000000000    0.0000000000000000   20.0000000000000000
    30     1     1
Selective dynamics
Direct
  0.0558448476933854  0.0901847474531192  0.0813373360637689   T   T   T
  0.9313366571493943  0.1730342848871853  0.0828791882120016   T   T   T
  0.0569691008685470  0.9234383373127897  0.0822122593334345   T   T   T
  0.9312570822172981  0.3400507456962603  0.0861411965400846   T   T   T
  0.0569573559160723  0.5897653843732381  0.0842258359079612   T   T   T
  0.9326110242073423  0.6724532585218492  0.0874435247890978   T   T   T
  0.0569394761108876  0.4227124685705988  0.0844558565497550   T   T   T
  0.9321852334487672  0.8393438185454302  0.0850649751764249   T   T   T
  0.3052266494907040  0.0881559163005563  0.0864313339394196   T   T   T
  0.1813119572466256  0.1722965219876059  0.0833980907459351   T   T   T
  0.1824170343302563  0.3392288317676801  0.0859473247014547   T   T   T
  0.3031592576791785  0.5897648215162563  0.0996271185602697   T   T   T
  0.1817174700826276  0.6738166795966830  0.0870504962421411   T   T   T
  0.3061942779691717  0.4225876086479332  0.0965590807323564   T   T   T
  0.1817202547612509  0.8405119203078820  0.0853802105472547   T   T   T
  0.5562838736518744  0.0876555340269538  0.0922132780457249   T   T   T
  0.4301226866075986  0.1698373685320003  0.0920046663736170   T   T   T
  0.5547682585865295  0.9224312184327853  0.0980517494892738   T   T   T
  0.4296965899416372  0.3343817888308332  0.1020635055894888   T   T   T
  0.4170304680118971  0.6826648052869080  0.1188395973190231   T   T   T
  0.5563228231151539  0.4058862787939860  0.1191998800645167   T   T   T
  0.4263053658938020  0.8431529189449972  0.1018799092535585   T   T   T
  0.8067638286132344  0.0888806257112597  0.0847852975774280   T   T   T
  0.6817701009543379  0.1707016304073903  0.0907361008697075   T   T   T
  0.8067072783865561  0.9232359462014935  0.0873838413044107   T   T   T
  0.6824048673218363  0.3348364880818182  0.1015756373833750   T   T   T
  0.8101070668760937  0.5896551223748275  0.0996054059659499   T   T   T
  0.6933907439549508  0.6800045797929116  0.1167979702177269   T   T   T
  0.8069605806006783  0.4221817980808020  0.0967705606586436   T   T   T
  0.6829511694485371  0.8412836482828190  0.0997745643865579   T   T   T
  0.3049794549553519  0.9248064082418567  0.0886084458389615   T   T   T
  0.5572261639084275  0.5913044944912974  0.1772307616207105   T   T   T
 
  0.00000000E+00  0.00000000E+00  0.00000000E+00
  0.00000000E+00  0.00000000E+00  0.00000000E+00
  0.00000000E+00  0.00000000E+00  0.00000000E+00
  0.00000000E+00  0.00000000E+00  0.00000000E+00
  0.00000000E+00  0.00000000E+00  0.00000000E+00
  0.00000000E+00  0.00000000E+00  0.00000000E+00
  0.00000000E+00  0.00000000E+00  0.00000000E+00
  0.00000000E+00  0.00000000E+00  0.00000000E+00
  0.00000000E+00  0.00000000E+00  0.00000000E+00
  0.00000000E+00  0.00000000E+00  0.00000000E+00
  0.00000000E+00  0.00000000E+00  0.00000000E+00
  0.00000000E+00  0.00000000E+00  0.00000000E+00
  0.00000000E+00  0.00000000E+00  0.00000000E+00
  0.00000000E+00  0.00000000E+00  0.00000000E+00
  0.00000000E+00  0.00000000E+00  0.00000000E+00
  0.00000000E+00  0.00000000E+00  0.00000000E+00
  0.00000000E+00  0.00000000E+00  0.00000000E+00
  0.00000000E+00  0.00000000E+00  0.00000000E+00
  0.00000000E+00  0.00000000E+00  0.00000000E+00
  0.00000000E+00  0.00000000E+00  0.00000000E+00
  0.00000000E+00  0.00000000E+00  0.00000000E+00
  0.00000000E+00  0.00000000E+00  0.00000000E+00
  0.00000000E+00  0.00000000E+00  0.00000000E+00
  0.00000000E+00  0.00000000E+00  0.00000000E+00
  0.00000000E+00  0.00000000E+00  0.00000000E+00
  0.00000000E+00  0.00000000E+00  0.00000000E+00
  0.00000000E+00  0.00000000E+00  0.00000000E+00
  0.00000000E+00  0.00000000E+00  0.00000000E+00
  0.00000000E+00  0.00000000E+00  0.00000000E+00
  0.00000000E+00  0.00000000E+00  0.00000000E+00
  0.00000000E+00  0.00000000E+00  0.00000000E+00
  0.00000000E+00  0.00000000E+00  0.00000000E+00
