Title                                   
   1.00000000000000     
     8.5490480000000009    0.0000000000000000    0.0000000000000000
     0.0000000000000000    8.5490480000000009    0.0000000000000000
     0.0000000000000000    0.0000000000000000   20.0000000000000000
    20     4     1
Selective dynamics
Direct
  0.9098848301463284  0.2059161941095070  0.0975262934670443   T   T   T
  0.9114083683619388  0.8004848140929754  0.0975168314824790   T   T   T
  0.1997686768419098  0.0835952654971051  0.0978514409615362   T   T   T
  0.0756231736913238  0.2044755798892265  0.0977189066176295   T   T   T
  0.1534415640920381  0.6490768243267095  0.0977637178517046   T   T   T
  0.0710305100902379  0.5014856070092216  0.0978110426759030   T   T   T
  0.1522370698294069  0.3555003217911613  0.0978082398484265   T   T   T
  0.0786287271253633  0.7981579392100225  0.0977245605127037   T   T   T
  0.4952936138725715  0.0867861966939406  0.0978142833610832   T   T   T
  0.3466111940021341  0.1654290260054158  0.0979074895245048   T   T   T
  0.4943602506409255  0.9163083941103596  0.0977443693770963   T   T   T
  0.3469123722784642  0.8342912547526996  0.0978723749118120   T   T   T
  0.7896505589519214  0.0862876337714592  0.0974378290631385   T   T   T
  0.6432916481950267  0.1665156231987447  0.0976744308091433   T   T   T
  0.7900963458361581  0.9186686429375781  0.0974117071849084   T   T   T
  0.8278494072647280  0.6516939605154104  0.0976707219907191   T   T   T
  0.8258995415258316  0.3541610839213359  0.0977216356807234   T   T   T
  0.6433898229197977  0.8367410331276771  0.0975692930099804   T   T   T
  0.3231842302627796  0.3367503252616407  0.0979491390755421   T   T   T
  0.3225048702358077  0.6678311240462572  0.0978760045145672   T   T   T
  0.9023353192440285  0.5026340034228648  0.0978092226531824   T   T   T
  0.6667928780034945  0.3306904856208813  0.0978499881248769   T   T   T
  0.6681227959252390  0.6738711469523072  0.0977346232050266   T   T   T
  0.1990200047838295  0.9170187642315649  0.0978944303145610   T   T   T
  0.4880742258787088  0.5004187555039546  0.0980464237816805   T   T   T
 
  0.00000000E+00  0.00000000E+00  0.00000000E+00
  0.00000000E+00  0.00000000E+00  0.00000000E+00
  0.00000000E+00  0.00000000E+00  0.00000000E+00
  0.00000000E+00  0.00000000E+00  0.00000000E+00
  0.00000000E+00  0.00000000E+00  0.00000000E+00
  0.00000000E+00  0.00000000E+00  0.00000000E+00
  0.00000000E+00  0.00000000E+00  0.00000000E+00
  0.00000000E+00  0.00000000E+00  0.00000000E+00
  0.00000000E+00  0.00000000E+00  0.00000000E+00
  0.00000000E+00  0.00000000E+00  0.00000000E+00
  0.00000000E+00  0.00000000E+00  0.00000000E+00
  0.00000000E+00  0.00000000E+00  0.00000000E+00
  0.00000000E+00  0.00000000E+00  0.00000000E+00
  0.00000000E+00  0.00000000E+00  0.00000000E+00
  0.00000000E+00  0.00000000E+00  0.00000000E+00
  0.00000000E+00  0.00000000E+00  0.00000000E+00
  0.00000000E+00  0.00000000E+00  0.00000000E+00
  0.00000000E+00  0.00000000E+00  0.00000000E+00
  0.00000000E+00  0.00000000E+00  0.00000000E+00
  0.00000000E+00  0.00000000E+00  0.00000000E+00
  0.00000000E+00  0.00000000E+00  0.00000000E+00
  0.00000000E+00  0.00000000E+00  0.00000000E+00
  0.00000000E+00  0.00000000E+00  0.00000000E+00
  0.00000000E+00  0.00000000E+00  0.00000000E+00
  0.00000000E+00  0.00000000E+00  0.00000000E+00
