Title                                   
   1.00000000000000     
     9.8694509999999998    0.0000000000000000    0.0000000000000000
     0.0000000000000000    8.5490480000000009    0.0000000000000000
     0.0000000000000000    0.0000000000000000   20.0000000000000000
    27     4     1
Selective dynamics
Direct
  0.0562492378180778  0.0920490616079533  0.0894962995159053   T   T   T
  0.9306039564878054  0.1748065209030789  0.0905201159688695   T   T   T
  0.0562627982185218  0.9246597353702695  0.0893151129066935   T   T   T
  0.9291212086565261  0.3421409728861410  0.0925296533058951   T   T   T
  0.0562487876499646  0.5899681032189997  0.0908624058734084   T   T   T
  0.9316444131062306  0.6737895250531029  0.0917159726763261   T   T   T
  0.0562496492169225  0.4236715352354001  0.0918015793352598   T   T   T
  0.9317402303625721  0.8403663285630881  0.0904582421791369   T   T   T
  0.3054483013436750  0.0894030600565349  0.0900866958825264   T   T   T
  0.1818888029828742  0.1747839463817360  0.0903048416791661   T   T   T
  0.3060050014334104  0.9239688879582022  0.0903983692376124   T   T   T
  0.1833640822541265  0.3420981771395779  0.0922004257175947   T   T   T
  0.3070784890008674  0.5940414459583949  0.0958929530858447   T   T   T
  0.1808627951589132  0.6737942529143117  0.0913620217581736   T   T   T
  0.3105026384611828  0.4249964817203763  0.0953994161995432   T   T   T
  0.1807796487325756  0.8403323664562565  0.0901074858724438   T   T   T
  0.5562623557765025  0.0829878426084914  0.0937338665444742   T   T   T
  0.4322378408043749  0.1677172494213459  0.0928230159693078   T   T   T
  0.4351599576096174  0.3343730086397863  0.0966507574697485   T   T   T
  0.4280408798420264  0.8369262884734607  0.0949737784064403   T   T   T
  0.8070787203360249  0.0894243339547141  0.0904011305674632   T   T   T
  0.6802786659600408  0.1677500868731117  0.0931436383885862   T   T   T
  0.8065488100982540  0.9240052341759470  0.0907944603938405   T   T   T
  0.6773399319142708  0.3343690869824299  0.0970970944833547   T   T   T
  0.8054534673649922  0.5940620411998405  0.0965137658646163   T   T   T
  0.8020110140181952  0.4250132110941721  0.0960208149555832   T   T   T
  0.6844865595829910  0.8369697774801720  0.0953609865063058   T   T   T
  0.4254079776809528  0.6801343967480812  0.1022503582302060   T   T   T
  0.5562003348219196  0.4101437213442144  0.1034281855864407   T   T   T
  0.6872019207199979  0.6802240691617960  0.1028934618613745   T   T   T
  0.5562754568676184  0.9162904141720234  0.0948223689914362   T   T   T
  0.5556050657179824  0.5849848362469913  0.1823157245864385   T   T   T
 
  0.00000000E+00  0.00000000E+00  0.00000000E+00
  0.00000000E+00  0.00000000E+00  0.00000000E+00
  0.00000000E+00  0.00000000E+00  0.00000000E+00
  0.00000000E+00  0.00000000E+00  0.00000000E+00
  0.00000000E+00  0.00000000E+00  0.00000000E+00
  0.00000000E+00  0.00000000E+00  0.00000000E+00
  0.00000000E+00  0.00000000E+00  0.00000000E+00
  0.00000000E+00  0.00000000E+00  0.00000000E+00
  0.00000000E+00  0.00000000E+00  0.00000000E+00
  0.00000000E+00  0.00000000E+00  0.00000000E+00
  0.00000000E+00  0.00000000E+00  0.00000000E+00
  0.00000000E+00  0.00000000E+00  0.00000000E+00
  0.00000000E+00  0.00000000E+00  0.00000000E+00
  0.00000000E+00  0.00000000E+00  0.00000000E+00
  0.00000000E+00  0.00000000E+00  0.00000000E+00
  0.00000000E+00  0.00000000E+00  0.00000000E+00
  0.00000000E+00  0.00000000E+00  0.00000000E+00
  0.00000000E+00  0.00000000E+00  0.00000000E+00
  0.00000000E+00  0.00000000E+00  0.00000000E+00
  0.00000000E+00  0.00000000E+00  0.00000000E+00
  0.00000000E+00  0.00000000E+00  0.00000000E+00
  0.00000000E+00  0.00000000E+00  0.00000000E+00
  0.00000000E+00  0.00000000E+00  0.00000000E+00
  0.00000000E+00  0.00000000E+00  0.00000000E+00
  0.00000000E+00  0.00000000E+00  0.00000000E+00
  0.00000000E+00  0.00000000E+00  0.00000000E+00
  0.00000000E+00  0.00000000E+00  0.00000000E+00
  0.00000000E+00  0.00000000E+00  0.00000000E+00
  0.00000000E+00  0.00000000E+00  0.00000000E+00
  0.00000000E+00  0.00000000E+00  0.00000000E+00
  0.00000000E+00  0.00000000E+00  0.00000000E+00
  0.00000000E+00  0.00000000E+00  0.00000000E+00
