Title                                   
   1.00000000000000     
     9.8694509999999998    0.0000000000000000    0.0000000000000000
     0.0000000000000000    8.5490480000000009    0.0000000000000000
     0.0000000000000000    0.0000000000000000   20.0000000000000000
    29     1     1
Selective dynamics
Direct
  0.0563896460453387  0.0893785436720137  0.0909276524684318   T   T   T
  0.9321062659824392  0.1717826794124257  0.0965489985233502   T   T   T
  0.0577336996012237  0.9236356560368181  0.0911826395425788   T   T   T
  0.9335644880653591  0.3390368514579470  0.0982041002219433   T   T   T
  0.0578185311510511  0.5903842636157519  0.0935787575278821   T   T   T
  0.9337915364103379  0.6736757599394457  0.0984850677293324   T   T   T
  0.0578260818560215  0.4227692378070544  0.0930945524102531   T   T   T
  0.9325867052510037  0.8402591478101712  0.0966318619166548   T   T   T
  0.3074030239215229  0.0882709787208751  0.0827855208054718   T   T   T
  0.1819525597304498  0.1713492978422316  0.0861287399131287   T   T   T
  0.1808809173877119  0.3380718708347100  0.0874835197585908   T   T   T
  0.3050689929346189  0.5906862804703217  0.0832160132491633   T   T   T
  0.1815184071978140  0.6748206976910908  0.0885916192299679   T   T   T
  0.3051889559673592  0.4214765437440233  0.0826912579522184   T   T   T
  0.1827518084365991  0.8407588217633928  0.0872854764931209   T   T   T
  0.5581106412080015  0.0895490497726316  0.0947156765088589   T   T   T
  0.4329404633836095  0.1716651199139467  0.0841544344315057   T   T   T
  0.5568531664532170  0.9229498978343609  0.0951481709145569   T   T   T
  0.4297881461635454  0.3376690152644728  0.0831046396460266   T   T   T
  0.4289296648392836  0.6755433176268485  0.0833630210003648   T   T   T
  0.4317053987287101  0.8398787329988456  0.0856444900682769   T   T   T
  0.8056901262464435  0.0899797202167428  0.0994945517540068   T   T   T
  0.6811293478963543  0.1782853857025437  0.1029454780778416   T   T   T
  0.8057479042711595  0.9217451445664536  0.0993201588620040   T   T   T
  0.6838512488679879  0.3458935577790191  0.1119521115147738   T   T   T
  0.8114660495086573  0.5901349020738127  0.1061704529285909   T   T   T
  0.6840728652872203  0.6662096119818113  0.1115405190631120   T   T   T
  0.8114778160656860  0.4223012766519714  0.1062650067861803   T   T   T
  0.6806295010942347  0.8332467908832868  0.1027513510733475   T   T   T
  0.3072889104407470  0.9234849976403727  0.0836219300893844   T   T   T
  0.5268721296062961  0.5059818482746287  0.1339372295391076   T   T   T
 
  0.00000000E+00  0.00000000E+00  0.00000000E+00
  0.00000000E+00  0.00000000E+00  0.00000000E+00
  0.00000000E+00  0.00000000E+00  0.00000000E+00
  0.00000000E+00  0.00000000E+00  0.00000000E+00
  0.00000000E+00  0.00000000E+00  0.00000000E+00
  0.00000000E+00  0.00000000E+00  0.00000000E+00
  0.00000000E+00  0.00000000E+00  0.00000000E+00
  0.00000000E+00  0.00000000E+00  0.00000000E+00
  0.00000000E+00  0.00000000E+00  0.00000000E+00
  0.00000000E+00  0.00000000E+00  0.00000000E+00
  0.00000000E+00  0.00000000E+00  0.00000000E+00
  0.00000000E+00  0.00000000E+00  0.00000000E+00
  0.00000000E+00  0.00000000E+00  0.00000000E+00
  0.00000000E+00  0.00000000E+00  0.00000000E+00
  0.00000000E+00  0.00000000E+00  0.00000000E+00
  0.00000000E+00  0.00000000E+00  0.00000000E+00
  0.00000000E+00  0.00000000E+00  0.00000000E+00
  0.00000000E+00  0.00000000E+00  0.00000000E+00
  0.00000000E+00  0.00000000E+00  0.00000000E+00
  0.00000000E+00  0.00000000E+00  0.00000000E+00
  0.00000000E+00  0.00000000E+00  0.00000000E+00
  0.00000000E+00  0.00000000E+00  0.00000000E+00
  0.00000000E+00  0.00000000E+00  0.00000000E+00
  0.00000000E+00  0.00000000E+00  0.00000000E+00
  0.00000000E+00  0.00000000E+00  0.00000000E+00
  0.00000000E+00  0.00000000E+00  0.00000000E+00
  0.00000000E+00  0.00000000E+00  0.00000000E+00
  0.00000000E+00  0.00000000E+00  0.00000000E+00
  0.00000000E+00  0.00000000E+00  0.00000000E+00
  0.00000000E+00  0.00000000E+00  0.00000000E+00
  0.00000000E+00  0.00000000E+00  0.00000000E+00
