Title                                   
   1.00000000000000     
     4.9440799999999996    0.0000000000000000    0.0000000000000000
     0.0000000000000000    8.5647549999999999    0.0000000000000000
     0.0000000000000000    0.0000000000000000   20.0000000000000000
    13     1     1
Selective dynamics
Direct
  0.2505258294693138  0.2062643207096599  0.0989243754366152   T   T   T
 -0.0011319022061096  0.2932321943552798  0.0995734780697268   T   T   T
  0.2524320243563539  0.0400169604620129  0.0987843490373366   T   T   T
  0.0015988341755952  0.9558023912597428  0.0984344054826753   T   T   T
  0.7499569887616259  0.2081470626051456  0.0971181406020517   T   T   T
  0.4999437588406191  0.2918518990295317  0.0978552991285147   T   T   T
  0.7524962259414327  0.0406177987143134  0.0968479847689977   T   T   T
  0.7476176384836930  0.7147609630766024  0.0988712528343217   T   T   T
  0.7438219145828088  0.5402634587287076  0.0987770681507446   T   T   T
  0.5051668540567410  0.9551139811483252  0.0984144666113957   T   T   T
  0.5009320427680950  0.4570641532771162  0.0988826293632387   T   T   T
 -0.0079595899725218  0.4591529332083347  0.1031952061188066   T   T   T
 -0.0065559757759333  0.7912266913776258  0.1004530481389998   T   T   T
  0.5099220245480983  0.7944457826705824  0.1000834543561048   T   T   T
  0.2512333319701881  0.6237204093770219  0.1217648419004734   T   T   T
 
  0.00000000E+00  0.00000000E+00  0.00000000E+00
  0.00000000E+00  0.00000000E+00  0.00000000E+00
  0.00000000E+00  0.00000000E+00  0.00000000E+00
  0.00000000E+00  0.00000000E+00  0.00000000E+00
  0.00000000E+00  0.00000000E+00  0.00000000E+00
  0.00000000E+00  0.00000000E+00  0.00000000E+00
  0.00000000E+00  0.00000000E+00  0.00000000E+00
  0.00000000E+00  0.00000000E+00  0.00000000E+00
  0.00000000E+00  0.00000000E+00  0.00000000E+00
  0.00000000E+00  0.00000000E+00  0.00000000E+00
  0.00000000E+00  0.00000000E+00  0.00000000E+00
  0.00000000E+00  0.00000000E+00  0.00000000E+00
  0.00000000E+00  0.00000000E+00  0.00000000E+00
  0.00000000E+00  0.00000000E+00  0.00000000E+00
  0.00000000E+00  0.00000000E+00  0.00000000E+00
