Title                                   
   1.00000000000000     
     8.5490480000000009    0.0000000000000000    0.0000000000000000
     0.0000000000000000    8.5490480000000009    0.0000000000000000
     0.0000000000000000    0.0000000000000000   20.0000000000000000
    21     3     1
Selective dynamics
Direct
  0.9097839843049896  0.2053519806730907  0.0954491256070292   T   T   T
  0.9058257948521956  0.5030822160561677  0.0953100222374621   T   T   T
  0.9101894367839674  0.7993670926980144  0.0954784103047726   T   T   T
  0.1968254361828468  0.0838542245310518  0.0954863309096099   T   T   T
  0.0750831448907771  0.2055802124824264  0.0954732250311850   T   T   T
  0.1965989801973837  0.9185537240727868  0.0954768632056306   T   T   T
  0.1548992342662357  0.6513951849333040  0.0953438706725354   T   T   T
  0.0756150337165048  0.5025464384731047  0.0953347754487247   T   T   T
  0.1541175970441677  0.3544903058775920  0.0953970749267680   T   T   T
  0.0765845822282115  0.7982308642499316  0.0954720885610796   T   T   T
  0.4937350846071141  0.0844161961199413  0.0953675510528117   T   T   T
  0.3457057223985120  0.1629188505065350  0.0954096162872656   T   T   T
  0.4942892228509302  0.9146125960195248  0.0953531312454075   T   T   T
  0.3445116379394683  0.8374906903803185  0.0953506194341081   T   T   T
  0.7894464012941345  0.0853522231638865  0.0954654342415951   T   T   T
  0.6425984021845863  0.1636673495440130  0.0953230383612317   T   T   T
  0.7906057050387186  0.9189600910226032  0.0954821405475934   T   T   T
  0.8296253534053257  0.6524937257968793  0.0953391967306382   T   T   T
  0.8287130400915372  0.3532682867588087  0.0952899198156699   T   T   T
  0.6437076389493578  0.8384053189702370  0.0953446545475148   T   T   T
  0.3210055541256175  0.3297894532364330  0.0953553553237243   T   T   T
  0.3189290483041312  0.6755735759313807  0.0951873534647897   T   T   T
  0.6668023003405474  0.3276621529096886  0.0951420342008235   T   T   T
  0.6685577593184029  0.6773280732558937  0.0951951591760384   T   T   T
  0.4916559046843298  0.5003991723363993  0.0948780086659688   T   T   T
 
  0.00000000E+00  0.00000000E+00  0.00000000E+00
  0.00000000E+00  0.00000000E+00  0.00000000E+00
  0.00000000E+00  0.00000000E+00  0.00000000E+00
  0.00000000E+00  0.00000000E+00  0.00000000E+00
  0.00000000E+00  0.00000000E+00  0.00000000E+00
  0.00000000E+00  0.00000000E+00  0.00000000E+00
  0.00000000E+00  0.00000000E+00  0.00000000E+00
  0.00000000E+00  0.00000000E+00  0.00000000E+00
  0.00000000E+00  0.00000000E+00  0.00000000E+00
  0.00000000E+00  0.00000000E+00  0.00000000E+00
  0.00000000E+00  0.00000000E+00  0.00000000E+00
  0.00000000E+00  0.00000000E+00  0.00000000E+00
  0.00000000E+00  0.00000000E+00  0.00000000E+00
  0.00000000E+00  0.00000000E+00  0.00000000E+00
  0.00000000E+00  0.00000000E+00  0.00000000E+00
  0.00000000E+00  0.00000000E+00  0.00000000E+00
  0.00000000E+00  0.00000000E+00  0.00000000E+00
  0.00000000E+00  0.00000000E+00  0.00000000E+00
  0.00000000E+00  0.00000000E+00  0.00000000E+00
  0.00000000E+00  0.00000000E+00  0.00000000E+00
  0.00000000E+00  0.00000000E+00  0.00000000E+00
  0.00000000E+00  0.00000000E+00  0.00000000E+00
  0.00000000E+00  0.00000000E+00  0.00000000E+00
  0.00000000E+00  0.00000000E+00  0.00000000E+00
  0.00000000E+00  0.00000000E+00  0.00000000E+00
