Title                                   
   1.00000000000000     
     9.8694509999999998    0.0000000000000000    0.0000000000000000
     0.0000000000000000    8.5490480000000009    0.0000000000000000
     0.0000000000000000    0.0000000000000000   20.0000000000000000
    28     2     1
Selective dynamics
Direct
  0.0556881587605084  0.0882647518387828  0.0839152079199663   T   T   T
  0.9314671516141412  0.1715390793529085  0.0860880111905296   T   T   T
  0.0572008578981509  0.9229688081121671  0.0845842199642138   T   T   T
  0.9350179914176815  0.3381624799218000  0.0842280848782957   T   T   T
  0.0573077138998244  0.5905018283186448  0.0797058037972286   T   T   T
  0.9345618799908569  0.6745146475919539  0.0848377672071749   T   T   T
  0.0576061013111644  0.4226113173394881  0.0791632745062550   T   T   T
  0.9319444418896855  0.8402764661744513  0.0867818065344932   T   T   T
  0.3042357830143925  0.0877835982270816  0.0934183240568499   T   T   T
  0.1799763794026444  0.1697661142470533  0.0856112009954779   T   T   T
  0.1792144551403413  0.3371443318382582  0.0835148002097869   T   T   T
  0.3016844710516675  0.5887441592830304  0.0945295529619893   T   T   T
  0.1804923383638504  0.6734993787464877  0.0842751836091401   T   T   T
  0.3004041962711113  0.4180171801560312  0.0942290623984229   T   T   T
  0.1817479395103068  0.8403989340499982  0.0864936543011191   T   T   T
  0.5551243846309569  0.0925115115636636  0.1062933434579701   T   T   T
  0.4260930537680180  0.1746751447778224  0.1031755254548360   T   T   T
  0.5541613204973939  0.9253342017116368  0.1058397299449698   T   T   T
  0.4190839798860934  0.6762270190443893  0.1073827929136156   T   T   T
  0.4271318765177511  0.8388737787737611  0.1032947969637178   T   T   T
  0.8064969073081918  0.0896373224804425  0.0941009856184085   T   T   T
  0.6836924412837356  0.1765398023302733  0.1042679090486242   T   T   T
  0.8064644091278357  0.9226395011342866  0.0942125176634311   T   T   T
  0.6954657166357071  0.3399935880743385  0.1093417685642180   T   T   T
  0.8138111894584948  0.5912667700827352  0.0953823206039461   T   T   T
  0.6935284918220948  0.6734035990107985  0.1074886888642626   T   T   T
  0.8149708016830198  0.4211651619889414  0.0956562259879458   T   T   T
  0.6819080831437049  0.8378611846702245  0.1035629873840984   T   T   T
  0.4156431761651795  0.3348118535944885  0.1066490757238052   T   T   T
  0.3047438508858101  0.9235822983730370  0.0934605341187368   T   T   T
  0.5562654576497020  0.5081591871910437  0.1194798431565190   T   T   T
 
  0.00000000E+00  0.00000000E+00  0.00000000E+00
  0.00000000E+00  0.00000000E+00  0.00000000E+00
  0.00000000E+00  0.00000000E+00  0.00000000E+00
  0.00000000E+00  0.00000000E+00  0.00000000E+00
  0.00000000E+00  0.00000000E+00  0.00000000E+00
  0.00000000E+00  0.00000000E+00  0.00000000E+00
  0.00000000E+00  0.00000000E+00  0.00000000E+00
  0.00000000E+00  0.00000000E+00  0.00000000E+00
  0.00000000E+00  0.00000000E+00  0.00000000E+00
  0.00000000E+00  0.00000000E+00  0.00000000E+00
  0.00000000E+00  0.00000000E+00  0.00000000E+00
  0.00000000E+00  0.00000000E+00  0.00000000E+00
  0.00000000E+00  0.00000000E+00  0.00000000E+00
  0.00000000E+00  0.00000000E+00  0.00000000E+00
  0.00000000E+00  0.00000000E+00  0.00000000E+00
  0.00000000E+00  0.00000000E+00  0.00000000E+00
  0.00000000E+00  0.00000000E+00  0.00000000E+00
  0.00000000E+00  0.00000000E+00  0.00000000E+00
  0.00000000E+00  0.00000000E+00  0.00000000E+00
  0.00000000E+00  0.00000000E+00  0.00000000E+00
  0.00000000E+00  0.00000000E+00  0.00000000E+00
  0.00000000E+00  0.00000000E+00  0.00000000E+00
  0.00000000E+00  0.00000000E+00  0.00000000E+00
  0.00000000E+00  0.00000000E+00  0.00000000E+00
  0.00000000E+00  0.00000000E+00  0.00000000E+00
  0.00000000E+00  0.00000000E+00  0.00000000E+00
  0.00000000E+00  0.00000000E+00  0.00000000E+00
  0.00000000E+00  0.00000000E+00  0.00000000E+00
  0.00000000E+00  0.00000000E+00  0.00000000E+00
  0.00000000E+00  0.00000000E+00  0.00000000E+00
  0.00000000E+00  0.00000000E+00  0.00000000E+00
