Title                                   
   1.00000000000000     
     9.8694509999999998    0.0000000000000000    0.0000000000000000
     0.0000000000000000    8.5490480000000009    0.0000000000000000
     0.0000000000000000    0.0000000000000000   20.0000000000000000
    27     4     1
Selective dynamics
Direct
  0.0559276491801424  0.0917684491630370  0.0855903230679742   T   T   T
  0.9298468943528994  0.1749065588751240  0.0882301183504779   T   T   T
  0.0566954485597947  0.9231816246467081  0.0839433755943527   T   T   T
  0.9295840227640014  0.3416651018732269  0.0919869707434508   T   T   T
  0.0558600304607336  0.5896392123493782  0.0865709427506049   T   T   T
  0.9314304210072750  0.6719943353706285  0.0867510810083932   T   T   T
  0.0555641311627451  0.4227969283061152  0.0904602375158200   T   T   T
  0.9316647560672086  0.8397726334427338  0.0856598518024754   T   T   T
  0.3056038462512411  0.0885753510161936  0.0869022463283478   T   T   T
  0.1819245430362150  0.1735952058354331  0.0876824670243487   T   T   T
  0.3076241871138348  0.9225614809408016  0.0865648138026798   T   T   T
  0.1813352193758939  0.3397912938709826  0.0918335289961859   T   T   T
  0.3051443919816392  0.5887067572134254  0.0975652772786873   T   T   T
  0.1808747840444015  0.6704643966984062  0.0868836563205449   T   T   T
  0.1822649344948368  0.8384431871651444  0.0848620701509035   T   T   T
  0.5566951391442256  0.0868902882854537  0.0940479996899311   T   T   T
  0.4306741417756438  0.1697047806707445  0.0924986850992217   T   T   T
  0.4309442414102148  0.3353755005965015  0.1013860546462539   T   T   T
  0.4303001706018232  0.8381853741935952  0.0963837831171584   T   T   T
  0.8066673472309009  0.0897084146344710  0.0877672139248333   T   T   T
  0.6814062551574585  0.1717386763365805  0.0925915479256561   T   T   T
  0.8063221112131644  0.9240556202912396  0.0877624969837154   T   T   T
  0.6791760697702490  0.3370859779592013  0.1006472616287142   T   T   T
  0.8064981258154221  0.5928598272851378  0.0958841013031184   T   T   T
  0.6847128464100447  0.8389196740209303  0.0964656194916374   T   T   T
  0.4228685633595076  0.6762509327659365  0.1130628469714657   T   T   T
  0.5545859259878270  0.4114556098509545  0.1175831634994292   T   T   T
  0.6925183961726642  0.6797231365307688  0.1113293591227513   T   T   T
  0.5575828213199631  0.9184347865225398  0.0970680247488779   T   T   T
  0.3059600811247309  0.4212780458205511  0.0985728744067905   T   T   T
  0.8037795928468161  0.4252797580498448  0.0979733829188077   T   T   T
  0.5576019108064882  0.5954370794182123  0.1831636237864068   T   T   T
 
  0.00000000E+00  0.00000000E+00  0.00000000E+00
  0.00000000E+00  0.00000000E+00  0.00000000E+00
  0.00000000E+00  0.00000000E+00  0.00000000E+00
  0.00000000E+00  0.00000000E+00  0.00000000E+00
  0.00000000E+00  0.00000000E+00  0.00000000E+00
  0.00000000E+00  0.00000000E+00  0.00000000E+00
  0.00000000E+00  0.00000000E+00  0.00000000E+00
  0.00000000E+00  0.00000000E+00  0.00000000E+00
  0.00000000E+00  0.00000000E+00  0.00000000E+00
  0.00000000E+00  0.00000000E+00  0.00000000E+00
  0.00000000E+00  0.00000000E+00  0.00000000E+00
  0.00000000E+00  0.00000000E+00  0.00000000E+00
  0.00000000E+00  0.00000000E+00  0.00000000E+00
  0.00000000E+00  0.00000000E+00  0.00000000E+00
  0.00000000E+00  0.00000000E+00  0.00000000E+00
  0.00000000E+00  0.00000000E+00  0.00000000E+00
  0.00000000E+00  0.00000000E+00  0.00000000E+00
  0.00000000E+00  0.00000000E+00  0.00000000E+00
  0.00000000E+00  0.00000000E+00  0.00000000E+00
  0.00000000E+00  0.00000000E+00  0.00000000E+00
  0.00000000E+00  0.00000000E+00  0.00000000E+00
  0.00000000E+00  0.00000000E+00  0.00000000E+00
  0.00000000E+00  0.00000000E+00  0.00000000E+00
  0.00000000E+00  0.00000000E+00  0.00000000E+00
  0.00000000E+00  0.00000000E+00  0.00000000E+00
  0.00000000E+00  0.00000000E+00  0.00000000E+00
  0.00000000E+00  0.00000000E+00  0.00000000E+00
  0.00000000E+00  0.00000000E+00  0.00000000E+00
  0.00000000E+00  0.00000000E+00  0.00000000E+00
  0.00000000E+00  0.00000000E+00  0.00000000E+00
  0.00000000E+00  0.00000000E+00  0.00000000E+00
  0.00000000E+00  0.00000000E+00  0.00000000E+00
