Title                                   
   1.00000000000000     
     9.8694509999999998    0.0000000000000000    0.0000000000000000
     0.0000000000000000    8.5490480000000009    0.0000000000000000
     0.0000000000000000    0.0000000000000000   20.0000000000000000
    25     5     1
Selective dynamics
Direct
  0.0557046812864383  0.0898506051875608  0.0950034004914140   T   T   T
  0.9318589902434822  0.1719627206564954  0.0954017377599159   T   T   T
  0.0572804036890890  0.9230064655296347  0.0951003486139121   T   T   T
  0.9332266262592523  0.3394931842178010  0.0948416394052381   T   T   T
  0.0567246721179716  0.5900715758259487  0.0938597622336775   T   T   T
  0.9331445389006732  0.6732298758736815  0.0948576553021716   T   T   T
  0.0567505169020150  0.4231504423080932  0.0938418525560696   T   T   T
  0.9320418167255177  0.8398291812457213  0.0954640650063565   T   T   T
  0.3066106573895090  0.0887789677172182  0.0967905035319999   T   T   T
  0.1811427594154658  0.1715721875214817  0.0952923061890796   T   T   T
  0.1800958407674217  0.3385802867540317  0.0947749029778996   T   T   T
  0.3029777486274427  0.5902831507848093  0.0966763549332585   T   T   T
  0.1802542026135166  0.6743596682840973  0.0947950698846965   T   T   T
  0.3033564836095881  0.4220346003330253  0.0966977819974516   T   T   T
  0.1811740105335142  0.8403323422354367  0.0953826741259155   T   T   T
  0.5563916563347330  0.0930932764329513  0.0989556693989660   T   T   T
  0.4293562941116859  0.1774600255150201  0.0984789278178527   T   T   T
  0.5551032713231930  0.9193420992071663  0.0989095637246541   T   T   T
  0.4289985168873905  0.8340376415585989  0.0984116583078368   T   T   T
  0.8053626026614624  0.0896273277722943  0.0968280370073367   T   T   T
  0.6824418032086313  0.1787207148089798  0.0984030434287766   T   T   T
  0.8054954941176696  0.9222095502490066  0.0968217856096621   T   T   T
  0.8095648743767997  0.5907269903476684  0.0966968165350898   T   T   T
  0.8095366887718155  0.4213609589735461  0.0967061561557575   T   T   T
  0.6820669162622580  0.8325815681203584  0.0983780530722824   T   T   T
  0.4228966876854199  0.3396427250337744  0.0991076645228424   T   T   T
  0.4222131386507995  0.6745288599866247  0.0991086588485777   T   T   T
  0.6891996187160312  0.3410028192703506  0.0989612060754246   T   T   T
  0.6892518417805227  0.6710871957316666  0.0989132777219327   T   T   T
  0.3069030866771997  0.9230991146307118  0.0967610805467014   T   T   T
  0.5560095593534906  0.5058188778862444  0.1007433462173075   T   T   T
 
  0.00000000E+00  0.00000000E+00  0.00000000E+00
  0.00000000E+00  0.00000000E+00  0.00000000E+00
  0.00000000E+00  0.00000000E+00  0.00000000E+00
  0.00000000E+00  0.00000000E+00  0.00000000E+00
  0.00000000E+00  0.00000000E+00  0.00000000E+00
  0.00000000E+00  0.00000000E+00  0.00000000E+00
  0.00000000E+00  0.00000000E+00  0.00000000E+00
  0.00000000E+00  0.00000000E+00  0.00000000E+00
  0.00000000E+00  0.00000000E+00  0.00000000E+00
  0.00000000E+00  0.00000000E+00  0.00000000E+00
  0.00000000E+00  0.00000000E+00  0.00000000E+00
  0.00000000E+00  0.00000000E+00  0.00000000E+00
  0.00000000E+00  0.00000000E+00  0.00000000E+00
  0.00000000E+00  0.00000000E+00  0.00000000E+00
  0.00000000E+00  0.00000000E+00  0.00000000E+00
  0.00000000E+00  0.00000000E+00  0.00000000E+00
  0.00000000E+00  0.00000000E+00  0.00000000E+00
  0.00000000E+00  0.00000000E+00  0.00000000E+00
  0.00000000E+00  0.00000000E+00  0.00000000E+00
  0.00000000E+00  0.00000000E+00  0.00000000E+00
  0.00000000E+00  0.00000000E+00  0.00000000E+00
  0.00000000E+00  0.00000000E+00  0.00000000E+00
  0.00000000E+00  0.00000000E+00  0.00000000E+00
  0.00000000E+00  0.00000000E+00  0.00000000E+00
  0.00000000E+00  0.00000000E+00  0.00000000E+00
  0.00000000E+00  0.00000000E+00  0.00000000E+00
  0.00000000E+00  0.00000000E+00  0.00000000E+00
  0.00000000E+00  0.00000000E+00  0.00000000E+00
  0.00000000E+00  0.00000000E+00  0.00000000E+00
  0.00000000E+00  0.00000000E+00  0.00000000E+00
  0.00000000E+00  0.00000000E+00  0.00000000E+00
