Title                                   
   1.00000000000000     
     9.8694509999999998    0.0000000000000000    0.0000000000000000
     0.0000000000000000    8.5490480000000009    0.0000000000000000
     0.0000000000000000    0.0000000000000000   20.0000000000000000
    26     5     1
Selective dynamics
Direct
  0.0555692255945291  0.0903944070906158  0.0851063245204871   T   T   T
  0.9307242673530958  0.1752868286921536  0.0854714108332305   T   T   T
  0.0576908754064932  0.9226377091285825  0.0859295273665169   T   T   T
  0.9290984896582992  0.3420673548196040  0.0874917908063925   T   T   T
  0.0561172587585346  0.5915528092826366  0.0877078008700181   T   T   T
  0.0551160069675616  0.4240514031207435  0.0877691043559191   T   T   T
  0.9330922686128632  0.8399992762182776  0.0884382143471050   T   T   T
  0.3056261546702069  0.0882413210805922  0.0881515474888421   T   T   T
  0.1813770066744143  0.1726860515655442  0.0868639439681920   T   T   T
  0.1808663416402410  0.3395940742651667  0.0892471996429042   T   T   T
  0.3040901271500920  0.5886842127839295  0.0998873036844094   T   T   T
  0.1807212485718671  0.6736696605038173  0.0899976898485706   T   T   T
  0.3079467161267453  0.4201912963103194  0.0972408201244212   T   T   T
  0.1829750184383935  0.8413931879941882  0.0880176048672364   T   T   T
  0.5565959883959793  0.0867352097371858  0.0929510633896062   T   T   T
  0.5562926559947002  0.9209841739906957  0.0990380262629401   T   T   T
  0.4302825182077090  0.3308894374874231  0.1006459237616576   T   T   T
  0.4282354308445699  0.8403787922420908  0.1019672156185006   T   T   T
  0.8063705470821427  0.0896740818261900  0.0864798292809971   T   T   T
  0.6800820728401793  0.1712317609618265  0.0897735896351728   T   T   T
  0.8084762417242013  0.9239013038827322  0.0898414348238326   T   T   T
  0.6789500650209334  0.3371536696581401  0.0967894723284648   T   T   T
  0.8094215229556810  0.5955719220593481  0.0985830986726143   T   T   T
  0.8017397997498584  0.4271960561226051  0.0940444066643579   T   T   T
  0.6848584978468397  0.8421230788099924  0.1004860485790672   T   T   T
  0.4196598902583514  0.6808947239829740  0.1143867231795203   T   T   T
  0.5526868555258783  0.4000796315417485  0.1139847470072546   T   T   T
  0.6975011044072805  0.6840013427830782  0.1158885769607099   T   T   T
  0.3062830167294626  0.9255903072048951  0.0895839015905626   T   T   T
  0.4293907648379007  0.1666850008694802  0.0921108267876348   T   T   T
  0.9320719304135716  0.6732241750878558  0.0896629398660457   T   T   T
  0.5597290915414281  0.5834817388955690  0.1721368928668323   T   T   T
 
  0.00000000E+00  0.00000000E+00  0.00000000E+00
  0.00000000E+00  0.00000000E+00  0.00000000E+00
  0.00000000E+00  0.00000000E+00  0.00000000E+00
  0.00000000E+00  0.00000000E+00  0.00000000E+00
  0.00000000E+00  0.00000000E+00  0.00000000E+00
  0.00000000E+00  0.00000000E+00  0.00000000E+00
  0.00000000E+00  0.00000000E+00  0.00000000E+00
  0.00000000E+00  0.00000000E+00  0.00000000E+00
  0.00000000E+00  0.00000000E+00  0.00000000E+00
  0.00000000E+00  0.00000000E+00  0.00000000E+00
  0.00000000E+00  0.00000000E+00  0.00000000E+00
  0.00000000E+00  0.00000000E+00  0.00000000E+00
  0.00000000E+00  0.00000000E+00  0.00000000E+00
  0.00000000E+00  0.00000000E+00  0.00000000E+00
  0.00000000E+00  0.00000000E+00  0.00000000E+00
  0.00000000E+00  0.00000000E+00  0.00000000E+00
  0.00000000E+00  0.00000000E+00  0.00000000E+00
  0.00000000E+00  0.00000000E+00  0.00000000E+00
  0.00000000E+00  0.00000000E+00  0.00000000E+00
  0.00000000E+00  0.00000000E+00  0.00000000E+00
  0.00000000E+00  0.00000000E+00  0.00000000E+00
  0.00000000E+00  0.00000000E+00  0.00000000E+00
  0.00000000E+00  0.00000000E+00  0.00000000E+00
  0.00000000E+00  0.00000000E+00  0.00000000E+00
  0.00000000E+00  0.00000000E+00  0.00000000E+00
  0.00000000E+00  0.00000000E+00  0.00000000E+00
  0.00000000E+00  0.00000000E+00  0.00000000E+00
  0.00000000E+00  0.00000000E+00  0.00000000E+00
  0.00000000E+00  0.00000000E+00  0.00000000E+00
  0.00000000E+00  0.00000000E+00  0.00000000E+00
  0.00000000E+00  0.00000000E+00  0.00000000E+00
  0.00000000E+00  0.00000000E+00  0.00000000E+00
