Title                                   
   1.00000000000000     
     9.8694509999999998    0.0000000000000000    0.0000000000000000
     0.0000000000000000    8.5490480000000009    0.0000000000000000
     0.0000000000000000    0.0000000000000000   20.0000000000000000
    25     6     1
Selective dynamics
Direct
  0.0562818066899063  0.0932644199691371  0.0911652611007989   T   T   T
  0.9299566419574272  0.1757079719322581  0.0920155035438967   T   T   T
  0.0562710806623157  0.9245159556271977  0.0906752050580388   T   T   T
  0.9293735253226342  0.3419992895836508  0.0934622718915484   T   T   T
  0.0562377066204980  0.5903627335651964  0.0910749387017561   T   T   T
  0.9318080725807887  0.6719368695627385  0.0918081488488654   T   T   T
  0.0562589601664802  0.4233777390540915  0.0928341502288739   T   T   T
  0.9314152785167512  0.8399352590247694  0.0913970414282223   T   T   T
  0.3055971310903859  0.0892692554870555  0.0907618372431215   T   T   T
  0.1825921035738713  0.1756701619104573  0.0915597116542024   T   T   T
  0.3062081866136508  0.9236025870872159  0.0910685877996646   T   T   T
  0.1831434835932057  0.3419460399139939  0.0929874300690692   T   T   T
  0.3077472796648583  0.5940187046133580  0.0947710818049002   T   T   T
  0.1807030850387371  0.6719390149562370  0.0912540220928602   T   T   T
  0.1811447730851471  0.8399635722089008  0.0908503538348008   T   T   T
  0.5562510228448407  0.0844905446442774  0.0941034488868478   T   T   T
  0.4316282820031059  0.1691979457953322  0.0930548505305906   T   T   T
  0.4359227152043861  0.3355403852375758  0.0964993092915499   T   T   T
  0.4279236114952758  0.8354788733399091  0.0945187613595505   T   T   T
  0.8069682607350561  0.0892970550359477  0.0914352142118368   T   T   T
  0.6808986864832167  0.1692327162320316  0.0936011710132856   T   T   T
  0.8063827204887665  0.9236263024873184  0.0918312465618821   T   T   T
  0.6766179598039381  0.3355963258399936  0.0970611983136703   T   T   T
  0.8048337223654455  0.5940393385889018  0.0957896583011450   T   T   T
  0.6846696874047997  0.8355450036145549  0.0953269128666523   T   T   T
  0.4245726664097376  0.6769279073795688  0.0999422195038842   T   T   T
  0.5561826957569109  0.4118017680415192  0.1033822309953260   T   T   T
  0.6881962700101290  0.6770939228680779  0.1013146072344052   T   T   T
  0.5562834198392530  0.9153094131126223  0.0944217299011434   T   T   T
  0.3116861283961161  0.4249382215099735  0.0943090194834008   T   T   T
  0.8008855559958484  0.4250134843473991  0.0951605568353322   T   T   T
  0.5549964795865238  0.5896072174287400  0.1762373194088940   T   T   T
 
  0.00000000E+00  0.00000000E+00  0.00000000E+00
  0.00000000E+00  0.00000000E+00  0.00000000E+00
  0.00000000E+00  0.00000000E+00  0.00000000E+00
  0.00000000E+00  0.00000000E+00  0.00000000E+00
  0.00000000E+00  0.00000000E+00  0.00000000E+00
  0.00000000E+00  0.00000000E+00  0.00000000E+00
  0.00000000E+00  0.00000000E+00  0.00000000E+00
  0.00000000E+00  0.00000000E+00  0.00000000E+00
  0.00000000E+00  0.00000000E+00  0.00000000E+00
  0.00000000E+00  0.00000000E+00  0.00000000E+00
  0.00000000E+00  0.00000000E+00  0.00000000E+00
  0.00000000E+00  0.00000000E+00  0.00000000E+00
  0.00000000E+00  0.00000000E+00  0.00000000E+00
  0.00000000E+00  0.00000000E+00  0.00000000E+00
  0.00000000E+00  0.00000000E+00  0.00000000E+00
  0.00000000E+00  0.00000000E+00  0.00000000E+00
  0.00000000E+00  0.00000000E+00  0.00000000E+00
  0.00000000E+00  0.00000000E+00  0.00000000E+00
  0.00000000E+00  0.00000000E+00  0.00000000E+00
  0.00000000E+00  0.00000000E+00  0.00000000E+00
  0.00000000E+00  0.00000000E+00  0.00000000E+00
  0.00000000E+00  0.00000000E+00  0.00000000E+00
  0.00000000E+00  0.00000000E+00  0.00000000E+00
  0.00000000E+00  0.00000000E+00  0.00000000E+00
  0.00000000E+00  0.00000000E+00  0.00000000E+00
  0.00000000E+00  0.00000000E+00  0.00000000E+00
  0.00000000E+00  0.00000000E+00  0.00000000E+00
  0.00000000E+00  0.00000000E+00  0.00000000E+00
  0.00000000E+00  0.00000000E+00  0.00000000E+00
  0.00000000E+00  0.00000000E+00  0.00000000E+00
  0.00000000E+00  0.00000000E+00  0.00000000E+00
  0.00000000E+00  0.00000000E+00  0.00000000E+00
