Title                                   
   1.00000000000000     
     4.9440799999999996    0.0000000000000000    0.0000000000000000
     0.0000000000000000   17.1295089999999988    0.0000000000000000
     0.0000000000000000    0.0000000000000000   20.0000000000000000
    26     4     1
Selective dynamics
Direct
  0.0011025670081505  0.1058213924662676  0.2935914439043494   T   T   T
  0.2502487016790844  0.1484434902139394  0.2954743668785602   T   T   T
  0.2501694404235259  0.2330335040079880  0.3003802527837712   T   T   T
 -0.0023037980601857  0.2739844560567791  0.3018230894276530   T   T   T
 -0.0023394649596382  0.6009182755116453  0.3017551203175017   T   T   T
  0.2501902098409534  0.7265006904018326  0.2957373257373994   T   T   T
  0.0006889829823064  0.8531731213141476  0.2925900077833132   T   T   T
  0.2502720640886013  0.8954121389521641  0.2924128706364330   T   T   T
  0.2502859343931287  0.9795382319122192  0.2923449900714050   T   T   T
  0.0011127447662434  0.7691373742608142  0.2938739754648809   T   T   T
  0.4994658832459313  0.1058402421438797  0.2935221323344049   T   T   T
  0.7503492007821384  0.1476967375754450  0.2938104284358713   T   T   T
  0.7503916596906618  0.2310746823547584  0.2964216106051527   T   T   T
  0.4998835115841977  0.0217901276947316  0.2923842613147522   T   T   T
  0.7503180664630543  0.3950996635362926  0.3048229190491987   T   T   T
  0.7503345844464339  0.4797829215913952  0.3046420576111328   T   T   T
  0.5028457858470822  0.2738911480321135  0.3013662691344409   T   T   T
  0.5028620713991196  0.6010126635529571  0.3012874830211996   T   T   T
  0.7503022513206034  0.7272723292709599  0.2940948454052201   T   T   T
  0.4998398300515323  0.8531627171265691  0.2925558517874708   T   T   T
  0.7502599901571351  0.8954562352932807  0.2920920746652628   T   T   T
  0.7502807539405678  0.9794892846457756  0.2920175493219703   T   T   T
  0.4993830738656377  0.7691133975971693  0.2938095712505682   T   T   T
  0.7503782185615736  0.6438902147577487  0.2965410903853138   T   T   T
  0.2501551123559255  0.6418898316514021  0.3004036380454963   T   T   T
  0.0006985445324768  0.0217842804370606  0.2924319379503300   T   T   T
  0.5118661601369460  0.5211397236338107  0.3091158431001543   T   T   T
  0.9885143730348843  0.5210501416006652  0.3105735330727630   T   T   T
  0.5119205945226620  0.3537149931490264  0.3094202237194760   T   T   T
 -0.0115735874709038  0.3537993995314002  0.3109129527686997   T   T   T
  0.2521035393701720  0.4374285897257585  0.3428502840158066   T   T   T
 
  0.00000000E+00  0.00000000E+00  0.00000000E+00
  0.00000000E+00  0.00000000E+00  0.00000000E+00
  0.00000000E+00  0.00000000E+00  0.00000000E+00
  0.00000000E+00  0.00000000E+00  0.00000000E+00
  0.00000000E+00  0.00000000E+00  0.00000000E+00
  0.00000000E+00  0.00000000E+00  0.00000000E+00
  0.00000000E+00  0.00000000E+00  0.00000000E+00
  0.00000000E+00  0.00000000E+00  0.00000000E+00
  0.00000000E+00  0.00000000E+00  0.00000000E+00
  0.00000000E+00  0.00000000E+00  0.00000000E+00
  0.00000000E+00  0.00000000E+00  0.00000000E+00
  0.00000000E+00  0.00000000E+00  0.00000000E+00
  0.00000000E+00  0.00000000E+00  0.00000000E+00
  0.00000000E+00  0.00000000E+00  0.00000000E+00
  0.00000000E+00  0.00000000E+00  0.00000000E+00
  0.00000000E+00  0.00000000E+00  0.00000000E+00
  0.00000000E+00  0.00000000E+00  0.00000000E+00
  0.00000000E+00  0.00000000E+00  0.00000000E+00
  0.00000000E+00  0.00000000E+00  0.00000000E+00
  0.00000000E+00  0.00000000E+00  0.00000000E+00
  0.00000000E+00  0.00000000E+00  0.00000000E+00
  0.00000000E+00  0.00000000E+00  0.00000000E+00
  0.00000000E+00  0.00000000E+00  0.00000000E+00
  0.00000000E+00  0.00000000E+00  0.00000000E+00
  0.00000000E+00  0.00000000E+00  0.00000000E+00
  0.00000000E+00  0.00000000E+00  0.00000000E+00
  0.00000000E+00  0.00000000E+00  0.00000000E+00
  0.00000000E+00  0.00000000E+00  0.00000000E+00
  0.00000000E+00  0.00000000E+00  0.00000000E+00
  0.00000000E+00  0.00000000E+00  0.00000000E+00
  0.00000000E+00  0.00000000E+00  0.00000000E+00
