Title                                   
   1.00000000000000     
     9.8694509999999998    0.0000000000000000    0.0000000000000000
     0.0000000000000000    8.5490480000000009    0.0000000000000000
     0.0000000000000000    0.0000000000000000   20.0000000000000000
    28     2     1
Selective dynamics
Direct
  0.0558395850100694  0.0893240742496735  0.0838939299648030   T   T   T
  0.9305303579775462  0.1720624623267145  0.0853927339784941   T   T   T
  0.0569456458395351  0.9236928237406170  0.0842498980576885   T   T   T
  0.9322456194054831  0.3397525810679183  0.0858985058864096   T   T   T
  0.0566991780861791  0.5900812239284692  0.0841904936808556   T   T   T
  0.9325301984760351  0.6727627699562680  0.0866300045052836   T   T   T
  0.0568432295414306  0.4230329887828158  0.0837276378689428   T   T   T
  0.9313658630767602  0.8397659347886908  0.0861663651316453   T   T   T
  0.3070514289217064  0.0882307560387764  0.0899471104399809   T   T   T
  0.1824752692169108  0.1712186298552235  0.0856204726225881   T   T   T
  0.1813592678832697  0.3391657187934306  0.0861867782732011   T   T   T
  0.3041677551095057  0.5907047946685003  0.0958161248591800   T   T   T
  0.1815675467178333  0.6740737744232050  0.0867404233059851   T   T   T
  0.3040048814094816  0.4207238240784341  0.0951076214902275   T   T   T
  0.1824405528184166  0.8408353046456916  0.0863645952599555   T   T   T
  0.4318302443357209  0.1736339584909671  0.0984387800125997   T   T   T
  0.5546784853465448  0.9236156404831949  0.1012188036123241   T   T   T
  0.4274917051129383  0.3378462599282515  0.1062123923429350   T   T   T
  0.4252540081246139  0.6741760382655133  0.1083237592089131   T   T   T
  0.4295412776787327  0.8394779787247625  0.1008306442209072   T   T   T
  0.8048060737956314  0.0888572976373027  0.0892102925928306   T   T   T
  0.6798556692434496  0.1753543787158549  0.0970109249297864   T   T   T
  0.8056537370191034  0.9222842581560313  0.0899710291882644   T   T   T
  0.6839980251669600  0.3394452731591505  0.1035652755183211   T   T   T
  0.8087831241939663  0.5904584633149424  0.0941712490685021   T   T   T
  0.6854008195504514  0.6716819217278990  0.1051636296028188   T   T   T
  0.8090287687546142  0.4208065252506765  0.0935160607484819   T   T   T
  0.6800625315733331  0.8377633529913215  0.0990431902122234   T   T   T
  0.5563423724547121  0.0904918747680315  0.0995087524978956   T   T   T
  0.3054816038135845  0.9231138648232177  0.0903968466306403   T   T   T
  0.5588601743454816  0.5064402522184736  0.1584506742873426   T   T   T
 
  0.00000000E+00  0.00000000E+00  0.00000000E+00
  0.00000000E+00  0.00000000E+00  0.00000000E+00
  0.00000000E+00  0.00000000E+00  0.00000000E+00
  0.00000000E+00  0.00000000E+00  0.00000000E+00
  0.00000000E+00  0.00000000E+00  0.00000000E+00
  0.00000000E+00  0.00000000E+00  0.00000000E+00
  0.00000000E+00  0.00000000E+00  0.00000000E+00
  0.00000000E+00  0.00000000E+00  0.00000000E+00
  0.00000000E+00  0.00000000E+00  0.00000000E+00
  0.00000000E+00  0.00000000E+00  0.00000000E+00
  0.00000000E+00  0.00000000E+00  0.00000000E+00
  0.00000000E+00  0.00000000E+00  0.00000000E+00
  0.00000000E+00  0.00000000E+00  0.00000000E+00
  0.00000000E+00  0.00000000E+00  0.00000000E+00
  0.00000000E+00  0.00000000E+00  0.00000000E+00
  0.00000000E+00  0.00000000E+00  0.00000000E+00
  0.00000000E+00  0.00000000E+00  0.00000000E+00
  0.00000000E+00  0.00000000E+00  0.00000000E+00
  0.00000000E+00  0.00000000E+00  0.00000000E+00
  0.00000000E+00  0.00000000E+00  0.00000000E+00
  0.00000000E+00  0.00000000E+00  0.00000000E+00
  0.00000000E+00  0.00000000E+00  0.00000000E+00
  0.00000000E+00  0.00000000E+00  0.00000000E+00
  0.00000000E+00  0.00000000E+00  0.00000000E+00
  0.00000000E+00  0.00000000E+00  0.00000000E+00
  0.00000000E+00  0.00000000E+00  0.00000000E+00
  0.00000000E+00  0.00000000E+00  0.00000000E+00
  0.00000000E+00  0.00000000E+00  0.00000000E+00
  0.00000000E+00  0.00000000E+00  0.00000000E+00
  0.00000000E+00  0.00000000E+00  0.00000000E+00
  0.00000000E+00  0.00000000E+00  0.00000000E+00
