Title                                   
   1.00000000000000     
     8.5490480000000009    0.0000000000000000    0.0000000000000000
     0.0000000000000000    8.5490480000000009    0.0000000000000000
     0.0000000000000000    0.0000000000000000   20.0000000000000000
    21     3     1
Selective dynamics
Direct
  0.9085572457408299  0.2054432387688760  0.0944812433887577   T   T   T
  0.9091204632221047  0.5034433923426214  0.0968412847699991   T   T   T
  0.9130216776937056  0.8031055504145602  0.0959014248161213   T   T   T
  0.1951877285694782  0.0813689071249264  0.0959501434668872   T   T   T
  0.0737566581732091  0.2001965115716513  0.0957295176164181   T   T   T
  0.1592874189933879  0.6487691059894650  0.0954169731137179   T   T   T
  0.0780517400425722  0.5009226837074807  0.0968718998865885   T   T   T
  0.1564268183833080  0.3500826434253578  0.0981831217945711   T   T   T
  0.0795985267132440  0.7988923741488388  0.0947935767743902   T   T   T
  0.4919069836738843  0.0864746517720426  0.0967030989723091   T   T   T
  0.3406924336620366  0.1628060244327066  0.0983026594848217   T   T   T
  0.4927264332492621  0.9174245861712103  0.0968258085720536   T   T   T
  0.3461887735679429  0.8355996376207446  0.0953207973634139   T   T   T
  0.7876492726469002  0.0858877190277504  0.0944226431019674   T   T   T
  0.6378934432567117  0.1669016993878636  0.0949641932928374   T   T   T
  0.7909379959203255  0.9216601010709264  0.0957175370668430   T   T   T
  0.8317235474650272  0.6544876049394124  0.0982777496319714   T   T   T
  0.8283574581307218  0.3562140755958774  0.0951123397801576   T   T   T
  0.6427026507365610  0.8381731032058684  0.0981654110620440   T   T   T
  0.3236409491381591  0.6729637226104788  0.0949692430289623   T   T   T
  0.6629209785305903  0.3327171873850776  0.0948498104860151   T   T   T
  0.3161197294398951  0.3251202559050791  0.1016390298400060   T   T   T
  0.6697137283545336  0.6781563944740814  0.1017039824812956   T   T   T
  0.1972511819199989  0.9158825820749555  0.0945565449299266   T   T   T
  0.4919781627755953  0.5020962468321593  0.1280049652779043   T   T   T
 
  0.00000000E+00  0.00000000E+00  0.00000000E+00
  0.00000000E+00  0.00000000E+00  0.00000000E+00
  0.00000000E+00  0.00000000E+00  0.00000000E+00
  0.00000000E+00  0.00000000E+00  0.00000000E+00
  0.00000000E+00  0.00000000E+00  0.00000000E+00
  0.00000000E+00  0.00000000E+00  0.00000000E+00
  0.00000000E+00  0.00000000E+00  0.00000000E+00
  0.00000000E+00  0.00000000E+00  0.00000000E+00
  0.00000000E+00  0.00000000E+00  0.00000000E+00
  0.00000000E+00  0.00000000E+00  0.00000000E+00
  0.00000000E+00  0.00000000E+00  0.00000000E+00
  0.00000000E+00  0.00000000E+00  0.00000000E+00
  0.00000000E+00  0.00000000E+00  0.00000000E+00
  0.00000000E+00  0.00000000E+00  0.00000000E+00
  0.00000000E+00  0.00000000E+00  0.00000000E+00
  0.00000000E+00  0.00000000E+00  0.00000000E+00
  0.00000000E+00  0.00000000E+00  0.00000000E+00
  0.00000000E+00  0.00000000E+00  0.00000000E+00
  0.00000000E+00  0.00000000E+00  0.00000000E+00
  0.00000000E+00  0.00000000E+00  0.00000000E+00
  0.00000000E+00  0.00000000E+00  0.00000000E+00
  0.00000000E+00  0.00000000E+00  0.00000000E+00
  0.00000000E+00  0.00000000E+00  0.00000000E+00
  0.00000000E+00  0.00000000E+00  0.00000000E+00
  0.00000000E+00  0.00000000E+00  0.00000000E+00
