Title                                   
   1.00000000000000     
     4.9440799999999996    0.0000000000000000    0.0000000000000000
     0.0000000000000000   17.1295089999999988    0.0000000000000000
     0.0000000000000000    0.0000000000000000   20.0000000000000000
    30     1     1
Selective dynamics
Direct
 -0.0002028755701569  0.1043447955102314  0.2779087313071218   T   T   T
  0.2498428348595327  0.1459387654940561  0.2828772247830486   T   T   T
  0.2498618107316468  0.2277385051206567  0.2960038190615543   T   T   T
 -0.0009997877150920  0.3481941098372722  0.3228902707214648   T   T   T
 -0.0015592905662494  0.2686021874013739  0.3030288803208138   T   T   T
 -0.0029831378318686  0.6087232223803547  0.3169113012600581   T   T   T
  0.2499291782993983  0.7299720555713969  0.2915622118117166   T   T   T
  0.0001872610278247  0.8542949277452856  0.2754716994918992   T   T   T
  0.2498524760218371  0.8960794438388912  0.2730160998711386   T   T   T
  0.2498514778956979  0.9794639364947855  0.2715267308492319   T   T   T
  0.0004240333401016  0.7714457746244364  0.2843717262100097   T   T   T
  0.4998829601870717  0.1043455992167951  0.2779099731628639   T   T   T
  0.7498440993191449  0.1458359235493663  0.2819427800829559   T   T   T
  0.7498566471224339  0.2279108236092077  0.2937832322594359   T   T   T
  0.4999151837664869  0.0212163883722036  0.2724451839702020   T   T   T
  0.5007790954076731  0.3482011934866078  0.3228907466596804   T   T   T
  0.7499135883026944  0.3939455046852261  0.3295337813057578   T   T   T
  0.7499934112405263  0.4804337742272071  0.3354362235967965   T   T   T
  0.5012919265044558  0.2686045736188740  0.3030256343487131   T   T   T
  0.5029865800656403  0.6087202777644301  0.3169080162971904   T   T   T
  0.7499220362491162  0.7306609493122440  0.2899037647593667   T   T   T
  0.4995509469155410  0.8542983201169060  0.2754764390528716   T   T   T
  0.7498661586123399  0.8958859901485480  0.2727701731301624   T   T   T
  0.7498467871888910  0.9793600710730627  0.2712806280824682   T   T   T
  0.4994047024383054  0.7714490619711646  0.2843759536660009   T   T   T
  0.7499944644814214  0.6492488823501027  0.3051274308322252   T   T   T
  0.2499964241069004  0.6487101100053343  0.3091519410915747   T   T   T
 -0.0002226854771580  0.0212148558957697  0.2724424681925352   T   T   T
  0.5105975787631818  0.5286062323607378  0.3375027318188778   T   T   T
  0.9894034383426979  0.5286025740500061  0.3374812037052611   T   T   T
  0.2498898571661007  0.3807078110048592  0.3401022320558168   T   T   T
  0.2499058188038699  0.4757943591625979  0.3975057662411385   T   T   T
 
  0.00000000E+00  0.00000000E+00  0.00000000E+00
  0.00000000E+00  0.00000000E+00  0.00000000E+00
  0.00000000E+00  0.00000000E+00  0.00000000E+00
  0.00000000E+00  0.00000000E+00  0.00000000E+00
  0.00000000E+00  0.00000000E+00  0.00000000E+00
  0.00000000E+00  0.00000000E+00  0.00000000E+00
  0.00000000E+00  0.00000000E+00  0.00000000E+00
  0.00000000E+00  0.00000000E+00  0.00000000E+00
  0.00000000E+00  0.00000000E+00  0.00000000E+00
  0.00000000E+00  0.00000000E+00  0.00000000E+00
  0.00000000E+00  0.00000000E+00  0.00000000E+00
  0.00000000E+00  0.00000000E+00  0.00000000E+00
  0.00000000E+00  0.00000000E+00  0.00000000E+00
  0.00000000E+00  0.00000000E+00  0.00000000E+00
  0.00000000E+00  0.00000000E+00  0.00000000E+00
  0.00000000E+00  0.00000000E+00  0.00000000E+00
  0.00000000E+00  0.00000000E+00  0.00000000E+00
  0.00000000E+00  0.00000000E+00  0.00000000E+00
  0.00000000E+00  0.00000000E+00  0.00000000E+00
  0.00000000E+00  0.00000000E+00  0.00000000E+00
  0.00000000E+00  0.00000000E+00  0.00000000E+00
  0.00000000E+00  0.00000000E+00  0.00000000E+00
  0.00000000E+00  0.00000000E+00  0.00000000E+00
  0.00000000E+00  0.00000000E+00  0.00000000E+00
  0.00000000E+00  0.00000000E+00  0.00000000E+00
  0.00000000E+00  0.00000000E+00  0.00000000E+00
  0.00000000E+00  0.00000000E+00  0.00000000E+00
  0.00000000E+00  0.00000000E+00  0.00000000E+00
  0.00000000E+00  0.00000000E+00  0.00000000E+00
  0.00000000E+00  0.00000000E+00  0.00000000E+00
  0.00000000E+00  0.00000000E+00  0.00000000E+00
  0.00000000E+00  0.00000000E+00  0.00000000E+00
