Title                                   
   1.00000000000000     
     9.8694509999999998    0.0000000000000000    0.0000000000000000
     0.0000000000000000    8.5490480000000009    0.0000000000000000
     0.0000000000000000    0.0000000000000000   20.0000000000000000
    27     4     1
Selective dynamics
Direct
  0.0553790453001755  0.0899724929481642  0.0845040286885654   T   T   T
  0.9306419686853281  0.1747520953537084  0.0852306606154393   T   T   T
  0.0572011091950541  0.9223225448487777  0.0841752608330687   T   T   T
  0.9301786442145199  0.3412496185194560  0.0876298730074064   T   T   T
  0.0564066699453106  0.5908453921930511  0.0867753492822054   T   T   T
  0.0553311110440536  0.4235834829373318  0.0877815863505438   T   T   T
  0.9326918969447308  0.8395833265983705  0.0847146389682223   T   T   T
  0.3054335691672256  0.0876706468588761  0.0891771223006508   T   T   T
  0.1811866268395576  0.1722442482009483  0.0877390313435993   T   T   T
  0.1804453027479311  0.3391682471756727  0.0909381040617226   T   T   T
  0.3026668797091074  0.5881648072034925  0.1038258984829247   T   T   T
  0.1803047216067522  0.6730695517594019  0.0908819377059793   T   T   T
  0.3053375453438767  0.4199673851070439  0.1011731615624155   T   T   T
  0.1823627774081883  0.8405341498022141  0.0878499816473251   T   T   T
  0.5555232597749640  0.0872228600423126  0.0926630895264571   T   T   T
  0.5552755466490416  0.9198154224160430  0.0975680061506484   T   T   T
  0.4292916238886718  0.3324103027155786  0.1046392113494115   T   T   T
  0.4269789324117440  0.8390311111530476  0.1037091721973667   T   T   T
  0.8056953476223958  0.0893533975037975  0.0856424478971896   T   T   T
  0.6798076888594582  0.1712605801384076  0.0901302328526020   T   T   T
  0.8078779623919855  0.9234199057074902  0.0864289402710460   T   T   T
  0.6798728265347329  0.3386116917253156  0.0994471189892420   T   T   T
  0.8094401899385920  0.5946566056956238  0.0945180205511398   T   T   T
  0.8044661410399212  0.4265267468289785  0.0945150022404268   T   T   T
  0.6838552849548668  0.8405248913410618  0.0956818040189496   T   T   T
  0.4184306013433293  0.6804486503592054  0.1186018551526788   T   T   T
  0.5534627999811581  0.4061307608556030  0.1152452134025655   T   T   T
  0.6958147657909928  0.6809333169891452  0.1066160154193695   T   T   T
  0.3053836028790909  0.9245903510703886  0.0901457002552310   T   T   T
  0.4289631822187884  0.1660720597703995  0.0934269080093027   T   T   T
  0.9326338767368548  0.6732247523992730  0.0854059903612770   T   T   T
  0.5712974988316062  0.5928846037818212  0.1788936365050432   T   T   T
 
  0.00000000E+00  0.00000000E+00  0.00000000E+00
  0.00000000E+00  0.00000000E+00  0.00000000E+00
  0.00000000E+00  0.00000000E+00  0.00000000E+00
  0.00000000E+00  0.00000000E+00  0.00000000E+00
  0.00000000E+00  0.00000000E+00  0.00000000E+00
  0.00000000E+00  0.00000000E+00  0.00000000E+00
  0.00000000E+00  0.00000000E+00  0.00000000E+00
  0.00000000E+00  0.00000000E+00  0.00000000E+00
  0.00000000E+00  0.00000000E+00  0.00000000E+00
  0.00000000E+00  0.00000000E+00  0.00000000E+00
  0.00000000E+00  0.00000000E+00  0.00000000E+00
  0.00000000E+00  0.00000000E+00  0.00000000E+00
  0.00000000E+00  0.00000000E+00  0.00000000E+00
  0.00000000E+00  0.00000000E+00  0.00000000E+00
  0.00000000E+00  0.00000000E+00  0.00000000E+00
  0.00000000E+00  0.00000000E+00  0.00000000E+00
  0.00000000E+00  0.00000000E+00  0.00000000E+00
  0.00000000E+00  0.00000000E+00  0.00000000E+00
  0.00000000E+00  0.00000000E+00  0.00000000E+00
  0.00000000E+00  0.00000000E+00  0.00000000E+00
  0.00000000E+00  0.00000000E+00  0.00000000E+00
  0.00000000E+00  0.00000000E+00  0.00000000E+00
  0.00000000E+00  0.00000000E+00  0.00000000E+00
  0.00000000E+00  0.00000000E+00  0.00000000E+00
  0.00000000E+00  0.00000000E+00  0.00000000E+00
  0.00000000E+00  0.00000000E+00  0.00000000E+00
  0.00000000E+00  0.00000000E+00  0.00000000E+00
  0.00000000E+00  0.00000000E+00  0.00000000E+00
  0.00000000E+00  0.00000000E+00  0.00000000E+00
  0.00000000E+00  0.00000000E+00  0.00000000E+00
  0.00000000E+00  0.00000000E+00  0.00000000E+00
  0.00000000E+00  0.00000000E+00  0.00000000E+00
