Title                                   
   1.00000000000000     
     9.8694509999999998    0.0000000000000000    0.0000000000000000
     0.0000000000000000    8.5490480000000009    0.0000000000000000
     0.0000000000000000    0.0000000000000000   20.0000000000000000
    25     6     1
Selective dynamics
Direct
  0.0562497589437532  0.0926085093604294  0.0899349465970561   T   T   T
  0.9300262906469274  0.1752244714685720  0.0905894681001685   T   T   T
  0.0562708412266937  0.9236855225562957  0.0896530086353396   T   T   T
  0.9298510629847664  0.3412678394485636  0.0923593199451745   T   T   T
  0.0562282732476537  0.5899225456328463  0.0897287113150007   T   T   T
  0.9312947420322565  0.6714667901896526  0.0908656494615731   T   T   T
  0.0562411873345292  0.4232974968803238  0.0916790008695779   T   T   T
  0.9310852119661279  0.8396075017524950  0.0905255718573176   T   T   T
  0.3058892595127057  0.0893614409807580  0.0898090915855731   T   T   T
  0.1824615659599550  0.1751970190580666  0.0905553825409287   T   T   T
  0.3068716185633357  0.9233612318320242  0.0905881057456375   T   T   T
  0.1825980883443342  0.3412437512972498  0.0921311802893008   T   T   T
  0.3068538280817251  0.5920587746335005  0.0947874626174101   T   T   T
  0.1812237928759526  0.6714356515772694  0.0904323629300326   T   T   T
  0.1814494747308148  0.8395845437326920  0.0901959576816317   T   T   T
  0.5562490094771249  0.0857376417954920  0.0943256866026481   T   T   T
  0.4314105310615551  0.1702125146782447  0.0930174987748970   T   T   T
  0.4340974882765138  0.3358190132336961  0.0973088436520251   T   T   T
  0.4289014177584825  0.8372152016944773  0.0949946420740623   T   T   T
  0.8066141472985950  0.0893918269994323  0.0897225385990978   T   T   T
  0.6810893630275561  0.1702513031455703  0.0930513607268825   T   T   T
  0.8056825138966774  0.9233984512148437  0.0907625000406398   T   T   T
  0.6783645138916304  0.3358266509193463  0.0975814389740905   T   T   T
  0.8057112298003022  0.5920832461260896  0.0956154872691408   T   T   T
  0.6836535451748730  0.8372933454622608  0.0954110577812466   T   T   T
  0.4249026211954745  0.6767018985507015  0.1036924691081514   T   T   T
  0.5561779733561708  0.4110943866012212  0.1092817016800207   T   T   T
  0.6880270777875465  0.6770644908159290  0.1051193026114506   T   T   T
  0.5563037547195813  0.9161827250816411  0.0947522743238028   T   T   T
  0.3112293800878097  0.4248141679156073  0.0942830073913742   T   T   T
  0.8012610463715358  0.4248869620890804  0.0948149246645093   T   T   T
  0.5553683903670471  0.5929490832756290  0.1781050455542543   T   T   T
 
  0.00000000E+00  0.00000000E+00  0.00000000E+00
  0.00000000E+00  0.00000000E+00  0.00000000E+00
  0.00000000E+00  0.00000000E+00  0.00000000E+00
  0.00000000E+00  0.00000000E+00  0.00000000E+00
  0.00000000E+00  0.00000000E+00  0.00000000E+00
  0.00000000E+00  0.00000000E+00  0.00000000E+00
  0.00000000E+00  0.00000000E+00  0.00000000E+00
  0.00000000E+00  0.00000000E+00  0.00000000E+00
  0.00000000E+00  0.00000000E+00  0.00000000E+00
  0.00000000E+00  0.00000000E+00  0.00000000E+00
  0.00000000E+00  0.00000000E+00  0.00000000E+00
  0.00000000E+00  0.00000000E+00  0.00000000E+00
  0.00000000E+00  0.00000000E+00  0.00000000E+00
  0.00000000E+00  0.00000000E+00  0.00000000E+00
  0.00000000E+00  0.00000000E+00  0.00000000E+00
  0.00000000E+00  0.00000000E+00  0.00000000E+00
  0.00000000E+00  0.00000000E+00  0.00000000E+00
  0.00000000E+00  0.00000000E+00  0.00000000E+00
  0.00000000E+00  0.00000000E+00  0.00000000E+00
  0.00000000E+00  0.00000000E+00  0.00000000E+00
  0.00000000E+00  0.00000000E+00  0.00000000E+00
  0.00000000E+00  0.00000000E+00  0.00000000E+00
  0.00000000E+00  0.00000000E+00  0.00000000E+00
  0.00000000E+00  0.00000000E+00  0.00000000E+00
  0.00000000E+00  0.00000000E+00  0.00000000E+00
  0.00000000E+00  0.00000000E+00  0.00000000E+00
  0.00000000E+00  0.00000000E+00  0.00000000E+00
  0.00000000E+00  0.00000000E+00  0.00000000E+00
  0.00000000E+00  0.00000000E+00  0.00000000E+00
  0.00000000E+00  0.00000000E+00  0.00000000E+00
  0.00000000E+00  0.00000000E+00  0.00000000E+00
  0.00000000E+00  0.00000000E+00  0.00000000E+00
