Title                                   
   1.00000000000000     
     9.8694509999999998    0.0000000000000000    0.0000000000000000
     0.0000000000000000    8.5490480000000009    0.0000000000000000
     0.0000000000000000    0.0000000000000000   20.0000000000000000
    28     3     1
Selective dynamics
Direct
  0.0562440120310681  0.0922804335598787  0.0833938875034625   T   T   T
  0.9307817098748679  0.1747947220651006  0.0857994727111979   T   T   T
  0.0562351345406740  0.9247990543025909  0.0826340385540302   T   T   T
  0.9293312522094146  0.3415702408184119  0.0893891567732931   T   T   T
  0.0562350702369035  0.5893216561623589  0.0852445954916220   T   T   T
  0.9326078381793607  0.6736750190545899  0.0870844522424702   T   T   T
  0.0562320570850993  0.4232724924373519  0.0876759429292144   T   T   T
  0.9324168493549624  0.8405202992449357  0.0852233882218192   T   T   T
  0.3057083583060827  0.0895146131337942  0.0870598352010645   T   T   T
  0.1817008959792392  0.1747936893856182  0.0857649995493460   T   T   T
  0.3048018347730528  0.9235609524547356  0.0882838288561191   T   T   T
  0.1831343275276135  0.3415652450482238  0.0893800630665981   T   T   T
  0.3035923135147866  0.5936880962523684  0.0987268460128602   T   T   T
  0.1798537691169868  0.6736932977091220  0.0870522242395680   T   T   T
  0.3094965425814579  0.4245484615267803  0.0974562563251588   T   T   T
  0.1800476432164179  0.8405354968303610  0.0851748154975961   T   T   T
  0.5562459853054128  0.0830696191846348  0.0949544649142603   T   T   T
  0.4314195775567283  0.1685920258186261  0.0926745526596815   T   T   T
  0.5562407965246713  0.9162862634182127  0.0999246838325569   T   T   T
  0.4336722698107477  0.3335132223499204  0.1008277531218315   T   T   T
  0.4258705574901008  0.8384270030249196  0.1001882549803799   T   T   T
  0.8067834046289832  0.0894978448793204  0.0871185161077834   T   T   T
  0.6810878187462438  0.1685788934765935  0.0927068469965638   T   T   T
  0.8076842583455869  0.9235453445105124  0.0883789425197021   T   T   T
  0.6788173775112908  0.3335011322773480  0.1008414540834308   T   T   T
  0.8088941820820674  0.5936563707662305  0.0987815706765727   T   T   T
  0.8029705927573606  0.4245327918345608  0.0974695987218853   T   T   T
  0.6866172184056499  0.8383949801291563  0.1002543078737323   T   T   T
  0.4158035272901947  0.6817120732182699  0.1137015781171624   T   T   T
  0.5562340644373784  0.4030602398148314  0.1144301807269403   T   T   T
  0.6966899090748226  0.6816791001253156  0.1137593383577320   T   T   T
  0.5561878515047795  0.5900653251853337  0.1643191531343989   T   T   T
 
  0.00000000E+00  0.00000000E+00  0.00000000E+00
  0.00000000E+00  0.00000000E+00  0.00000000E+00
  0.00000000E+00  0.00000000E+00  0.00000000E+00
  0.00000000E+00  0.00000000E+00  0.00000000E+00
  0.00000000E+00  0.00000000E+00  0.00000000E+00
  0.00000000E+00  0.00000000E+00  0.00000000E+00
  0.00000000E+00  0.00000000E+00  0.00000000E+00
  0.00000000E+00  0.00000000E+00  0.00000000E+00
  0.00000000E+00  0.00000000E+00  0.00000000E+00
  0.00000000E+00  0.00000000E+00  0.00000000E+00
  0.00000000E+00  0.00000000E+00  0.00000000E+00
  0.00000000E+00  0.00000000E+00  0.00000000E+00
  0.00000000E+00  0.00000000E+00  0.00000000E+00
  0.00000000E+00  0.00000000E+00  0.00000000E+00
  0.00000000E+00  0.00000000E+00  0.00000000E+00
  0.00000000E+00  0.00000000E+00  0.00000000E+00
  0.00000000E+00  0.00000000E+00  0.00000000E+00
  0.00000000E+00  0.00000000E+00  0.00000000E+00
  0.00000000E+00  0.00000000E+00  0.00000000E+00
  0.00000000E+00  0.00000000E+00  0.00000000E+00
  0.00000000E+00  0.00000000E+00  0.00000000E+00
  0.00000000E+00  0.00000000E+00  0.00000000E+00
  0.00000000E+00  0.00000000E+00  0.00000000E+00
  0.00000000E+00  0.00000000E+00  0.00000000E+00
  0.00000000E+00  0.00000000E+00  0.00000000E+00
  0.00000000E+00  0.00000000E+00  0.00000000E+00
  0.00000000E+00  0.00000000E+00  0.00000000E+00
  0.00000000E+00  0.00000000E+00  0.00000000E+00
  0.00000000E+00  0.00000000E+00  0.00000000E+00
  0.00000000E+00  0.00000000E+00  0.00000000E+00
  0.00000000E+00  0.00000000E+00  0.00000000E+00
  0.00000000E+00  0.00000000E+00  0.00000000E+00
