Title                                   
   1.00000000000000     
     4.9440799999999996    0.0000000000000000    0.0000000000000000
     0.0000000000000000   17.1295089999999988    0.0000000000000000
     0.0000000000000000    0.0000000000000000   20.0000000000000000
    27     3     1
Selective dynamics
Direct
  0.0027803221384929  0.1058464659988220  0.2925950260152748   T   T   T
  0.2523012870974440  0.1483486937708562  0.2942043471534070   T   T   T
  0.2536544159856518  0.2329250764913334  0.2987872897048212   T   T   T
  0.0021746912788326  0.2738762583546006  0.3010500498820528   T   T   T
 -0.0062867265758675  0.6011572898046321  0.3025328493434362   T   T   T
  0.2460008664592351  0.7270167092272638  0.2950800325250579   T   T   T
 -0.0012270125932104  0.8535534696735552  0.2919713785726615   T   T   T
  0.2488782352592831  0.8955972886937876  0.2916966821416365   T   T   T
  0.2501569267590277  0.9796505306513767  0.2913909785366148   T   T   T
 -0.0023519663447971  0.7696366086969442  0.2934482417411644   T   T   T
  0.5009342090342295  0.1058593955647437  0.2925315977793089   T   T   T
  0.7521821512271342  0.1478056891498369  0.2932177725655217   T   T   T
  0.7534451610030639  0.2310773954521370  0.2965583358949491   T   T   T
  0.5000317366246966  0.0218788365582553  0.2914029575077856   T   T   T
  0.7568067153868349  0.3936752308723335  0.3076663675449842   T   T   T
  0.7511354439829813  0.4787104530323710  0.3083743921601509   T   T   T
  0.5056860889744829  0.2741360760821540  0.3004720078644113   T   T   T
  0.4954360679271038  0.6010661857137909  0.3004167835008689   T   T   T
  0.7476523484250209  0.7273527298061677  0.2938552066838970   T   T   T
  0.4981544653871455  0.8532407448033570  0.2918880233034215   T   T   T
  0.7487947267669903  0.8957177208145284  0.2914098655562973   T   T   T
  0.7500494089373123  0.9796211651664249  0.2911630116641803   T   T   T
  0.4967181329588633  0.7693107768991722  0.2931937859151683   T   T   T
  0.7460889719784347  0.6438408971138624  0.2970115861761115   T   T   T
  0.2444438573457632  0.6430155571718397  0.2997475159201826   T   T   T
  0.0009211737101273  0.0218562532170966  0.2914371813964939   T   T   T
  0.5030402733695939  0.5190162961192917  0.3058752658588860   T   T   T
  0.9926900513216020  0.5208634535886871  0.3126594476172860   T   T   T
  0.5138859889561274  0.3540718095471669  0.3071037543014488   T   T   T
 -0.0024975271176563  0.3537748607751759  0.3087613213619231   T   T   T
  0.2583265143360584  0.4378420811884309  0.3575569438105466   T   T   T
 
  0.00000000E+00  0.00000000E+00  0.00000000E+00
  0.00000000E+00  0.00000000E+00  0.00000000E+00
  0.00000000E+00  0.00000000E+00  0.00000000E+00
  0.00000000E+00  0.00000000E+00  0.00000000E+00
  0.00000000E+00  0.00000000E+00  0.00000000E+00
  0.00000000E+00  0.00000000E+00  0.00000000E+00
  0.00000000E+00  0.00000000E+00  0.00000000E+00
  0.00000000E+00  0.00000000E+00  0.00000000E+00
  0.00000000E+00  0.00000000E+00  0.00000000E+00
  0.00000000E+00  0.00000000E+00  0.00000000E+00
  0.00000000E+00  0.00000000E+00  0.00000000E+00
  0.00000000E+00  0.00000000E+00  0.00000000E+00
  0.00000000E+00  0.00000000E+00  0.00000000E+00
  0.00000000E+00  0.00000000E+00  0.00000000E+00
  0.00000000E+00  0.00000000E+00  0.00000000E+00
  0.00000000E+00  0.00000000E+00  0.00000000E+00
  0.00000000E+00  0.00000000E+00  0.00000000E+00
  0.00000000E+00  0.00000000E+00  0.00000000E+00
  0.00000000E+00  0.00000000E+00  0.00000000E+00
  0.00000000E+00  0.00000000E+00  0.00000000E+00
  0.00000000E+00  0.00000000E+00  0.00000000E+00
  0.00000000E+00  0.00000000E+00  0.00000000E+00
  0.00000000E+00  0.00000000E+00  0.00000000E+00
  0.00000000E+00  0.00000000E+00  0.00000000E+00
  0.00000000E+00  0.00000000E+00  0.00000000E+00
  0.00000000E+00  0.00000000E+00  0.00000000E+00
  0.00000000E+00  0.00000000E+00  0.00000000E+00
  0.00000000E+00  0.00000000E+00  0.00000000E+00
  0.00000000E+00  0.00000000E+00  0.00000000E+00
  0.00000000E+00  0.00000000E+00  0.00000000E+00
  0.00000000E+00  0.00000000E+00  0.00000000E+00
