Title                                   
   1.00000000000000     
     9.8694509999999998    0.0000000000000000    0.0000000000000000
     0.0000000000000000    8.5490480000000009    0.0000000000000000
     0.0000000000000000    0.0000000000000000   20.0000000000000000
    27     4     1
Selective dynamics
Direct
  0.0556103809294286  0.0915344350098545  0.0863574802231804   T   T   T
  0.9295934803001867  0.1748616733467187  0.0886729270575345   T   T   T
  0.0563122971437299  0.9229666367182104  0.0836642817361373   T   T   T
  0.9294754303483940  0.3411535125688638  0.0924357459613729   T   T   T
  0.0559874863668100  0.5893050061125295  0.0871036415038761   T   T   T
  0.9320390488049445  0.6713895685254729  0.0853662981877029   T   T   T
  0.0554548246112421  0.4221706938167042  0.0918264763105407   T   T   T
  0.9314713986551261  0.8393920605087802  0.0838673867980861   T   T   T
  0.3049961228713176  0.0883632897505638  0.0880712191980757   T   T   T
  0.1815232756699039  0.1733504373824256  0.0895768550634597   T   T   T
  0.3065329660641151  0.9225987947199659  0.0868820718568829   T   T   T
  0.1809251633835391  0.3394644391069364  0.0943905112123765   T   T   T
  0.3049062691702668  0.5889622189922041  0.0996781098014883   T   T   T
  0.1804869574170391  0.6699570777064704  0.0877539584488047   T   T   T
  0.1817467792464937  0.8381035284105242  0.0851503771232849   T   T   T
  0.5561225030321746  0.0867165841197345  0.0938952465237385   T   T   T
  0.4304104393079306  0.1691033793091566  0.0937104300969237   T   T   T
  0.4314324250348637  0.3348471430001337  0.1040427910718369   T   T   T
  0.4289120864534613  0.8368835105018396  0.0962656073224611   T   T   T
  0.8064859341840009  0.0895516579515450  0.0870821422207168   T   T   T
  0.6807662822241707  0.1709077825706150  0.0921944875998909   T   T   T
  0.8065456011573919  0.9243787743698355  0.0858556906689859   T   T   T
  0.6777729644202316  0.3363254453624569  0.1011771749746444   T   T   T
  0.8062897999993988  0.5926697204895619  0.0927348317360516   T   T   T
  0.6847735096055428  0.8379865793156344  0.0929417882494080   T   T   T
  0.4226531336914620  0.6760092097023399  0.1120047012930057   T   T   T
  0.5547635065502525  0.4114807123655101  0.1178487045968796   T   T   T
  0.6907177522673604  0.6781882332100084  0.1010096977719288   T   T   T
  0.5569245368673599  0.9172018840541710  0.0952706829581050   T   T   T
  0.3058838209674098  0.4208052560186708  0.1016365086727773   T   T   T
  0.8029334502662537  0.4248961099039670  0.0972066297497173   T   T   T
  0.5691893729882024  0.6087206450785977  0.1900005440101406   T   T   T
 
  0.00000000E+00  0.00000000E+00  0.00000000E+00
  0.00000000E+00  0.00000000E+00  0.00000000E+00
  0.00000000E+00  0.00000000E+00  0.00000000E+00
  0.00000000E+00  0.00000000E+00  0.00000000E+00
  0.00000000E+00  0.00000000E+00  0.00000000E+00
  0.00000000E+00  0.00000000E+00  0.00000000E+00
  0.00000000E+00  0.00000000E+00  0.00000000E+00
  0.00000000E+00  0.00000000E+00  0.00000000E+00
  0.00000000E+00  0.00000000E+00  0.00000000E+00
  0.00000000E+00  0.00000000E+00  0.00000000E+00
  0.00000000E+00  0.00000000E+00  0.00000000E+00
  0.00000000E+00  0.00000000E+00  0.00000000E+00
  0.00000000E+00  0.00000000E+00  0.00000000E+00
  0.00000000E+00  0.00000000E+00  0.00000000E+00
  0.00000000E+00  0.00000000E+00  0.00000000E+00
  0.00000000E+00  0.00000000E+00  0.00000000E+00
  0.00000000E+00  0.00000000E+00  0.00000000E+00
  0.00000000E+00  0.00000000E+00  0.00000000E+00
  0.00000000E+00  0.00000000E+00  0.00000000E+00
  0.00000000E+00  0.00000000E+00  0.00000000E+00
  0.00000000E+00  0.00000000E+00  0.00000000E+00
  0.00000000E+00  0.00000000E+00  0.00000000E+00
  0.00000000E+00  0.00000000E+00  0.00000000E+00
  0.00000000E+00  0.00000000E+00  0.00000000E+00
  0.00000000E+00  0.00000000E+00  0.00000000E+00
  0.00000000E+00  0.00000000E+00  0.00000000E+00
  0.00000000E+00  0.00000000E+00  0.00000000E+00
  0.00000000E+00  0.00000000E+00  0.00000000E+00
  0.00000000E+00  0.00000000E+00  0.00000000E+00
  0.00000000E+00  0.00000000E+00  0.00000000E+00
  0.00000000E+00  0.00000000E+00  0.00000000E+00
  0.00000000E+00  0.00000000E+00  0.00000000E+00
