Title                                   
   1.00000000000000     
     8.5490480000000009    0.0000000000000000    0.0000000000000000
     0.0000000000000000    8.5490480000000009    0.0000000000000000
     0.0000000000000000    0.0000000000000000   20.0000000000000000
    19     5     1
Selective dynamics
Direct
  0.9075660072346395  0.2049953447072729  0.0975745235616535   T   T   T
  0.9073913029234201  0.5024390272539500  0.0977382682599626   T   T   T
  0.9101605189938419  0.8014757920750762  0.0975757149344891   T   T   T
  0.1964977214054764  0.0841370284196534  0.0976415503700732   T   T   T
  0.0762732110295301  0.2016907801213844  0.0976015768878961   T   T   T
  0.1595415292262746  0.6503242721540052  0.0977433700677352   T   T   T
  0.0793652526989613  0.5009504918564315  0.0977355024299726   T   T   T
  0.1595223546897031  0.3519849441024591  0.0977874802495779   T   T   T
  0.0788913369184131  0.7984421708054089  0.0976139123099346   T   T   T
  0.4927034220711025  0.0883328233951987  0.0977876032610481   T   T   T
  0.3442287953913388  0.1662348029507060  0.0978361415024373   T   T   T
  0.4923015389190115  0.9161566391698185  0.0977165223928663   T   T   T
  0.3445839093088135  0.8352271812871177  0.0977316435643157   T   T   T
  0.7881001260427385  0.0867957969056397  0.0975829473669050   T   T   T
  0.6394639048148021  0.1691605324391729  0.0978111159467394   T   T   T
  0.7888543058831765  0.9191931935674964  0.0975732604946258   T   T   T
  0.8285360893517754  0.6510569665051893  0.0977306515175422   T   T   T
  0.8262919533588620  0.3542768436131193  0.0977755383314727   T   T   T
  0.6405390173211294  0.8353706840137340  0.0977177218439402   T   T   T
  0.3206971441926922  0.3284162266164391  0.0980220479706232   T   T   T
  0.3210783468817253  0.6757924597446867  0.0978763961187474   T   T   T
  0.6641777527126621  0.3310779968547870  0.0980068390797840   T   T   T
  0.6662610606982832  0.6739374778175727  0.0978841531568273   T   T   T
  0.1980001432494435  0.9153318030043900  0.0976522148973969   T   T   T
  0.4943852546821762  0.5019887206192895  0.0979883034834138   T   T   T
 
  0.00000000E+00  0.00000000E+00  0.00000000E+00
  0.00000000E+00  0.00000000E+00  0.00000000E+00
  0.00000000E+00  0.00000000E+00  0.00000000E+00
  0.00000000E+00  0.00000000E+00  0.00000000E+00
  0.00000000E+00  0.00000000E+00  0.00000000E+00
  0.00000000E+00  0.00000000E+00  0.00000000E+00
  0.00000000E+00  0.00000000E+00  0.00000000E+00
  0.00000000E+00  0.00000000E+00  0.00000000E+00
  0.00000000E+00  0.00000000E+00  0.00000000E+00
  0.00000000E+00  0.00000000E+00  0.00000000E+00
  0.00000000E+00  0.00000000E+00  0.00000000E+00
  0.00000000E+00  0.00000000E+00  0.00000000E+00
  0.00000000E+00  0.00000000E+00  0.00000000E+00
  0.00000000E+00  0.00000000E+00  0.00000000E+00
  0.00000000E+00  0.00000000E+00  0.00000000E+00
  0.00000000E+00  0.00000000E+00  0.00000000E+00
  0.00000000E+00  0.00000000E+00  0.00000000E+00
  0.00000000E+00  0.00000000E+00  0.00000000E+00
  0.00000000E+00  0.00000000E+00  0.00000000E+00
  0.00000000E+00  0.00000000E+00  0.00000000E+00
  0.00000000E+00  0.00000000E+00  0.00000000E+00
  0.00000000E+00  0.00000000E+00  0.00000000E+00
  0.00000000E+00  0.00000000E+00  0.00000000E+00
  0.00000000E+00  0.00000000E+00  0.00000000E+00
  0.00000000E+00  0.00000000E+00  0.00000000E+00
