Title                                   
   1.00000000000000     
     4.9440799999999996    0.0000000000000000    0.0000000000000000
     0.0000000000000000    8.5647549999999999    0.0000000000000000
     0.0000000000000000    0.0000000000000000   20.0000000000000000
    11     3     1
Selective dynamics
Direct
  0.0010606515620241  0.2926469587478099  0.1005406996534688   T   T   T
  0.2500000000000000  0.0377777466026489  0.1004689608157628   T   T   T
 -0.0023504527544294  0.9562618441481422  0.1005018969548704   T   T   T
  0.7500000000000000  0.2079631627017677  0.1004614594186623   T   T   T
  0.4989393484379760  0.2926469587478099  0.1005406996534688   T   T   T
  0.7500000000000000  0.0402416552372218  0.1004264055147294   T   T   T
  0.7500000000000000  0.7172141195131897  0.1006567956318189   T   T   T
  0.7500000000000000  0.5403497941868219  0.1006931817200799   T   T   T
  0.5023504527544290  0.9562618441481422  0.1005018969548704   T   T   T
  0.5009649870131266  0.4584036916502587  0.1006231546090281   T   T   T
 -0.0009649870131263  0.4584036916502587  0.1006231546090281   T   T   T
 -0.0114251595779412  0.7924304674762870  0.1005894904794957   T   T   T
  0.5114251595779414  0.7924304674762870  0.1005894904794957   T   T   T
  0.2500000000000000  0.2071574236495101  0.1004327917839387   T   T   T
  0.2500000000000000  0.6214911740638472  0.1003299217212853   T   T   T
 
  0.00000000E+00  0.00000000E+00  0.00000000E+00
  0.00000000E+00  0.00000000E+00  0.00000000E+00
  0.00000000E+00  0.00000000E+00  0.00000000E+00
  0.00000000E+00  0.00000000E+00  0.00000000E+00
  0.00000000E+00  0.00000000E+00  0.00000000E+00
  0.00000000E+00  0.00000000E+00  0.00000000E+00
  0.00000000E+00  0.00000000E+00  0.00000000E+00
  0.00000000E+00  0.00000000E+00  0.00000000E+00
  0.00000000E+00  0.00000000E+00  0.00000000E+00
  0.00000000E+00  0.00000000E+00  0.00000000E+00
  0.00000000E+00  0.00000000E+00  0.00000000E+00
  0.00000000E+00  0.00000000E+00  0.00000000E+00
  0.00000000E+00  0.00000000E+00  0.00000000E+00
  0.00000000E+00  0.00000000E+00  0.00000000E+00
  0.00000000E+00  0.00000000E+00  0.00000000E+00
