Title                                   
   1.00000000000000     
     4.9440799999999996    0.0000000000000000    0.0000000000000000
     0.0000000000000000   17.1295089999999988    0.0000000000000000
     0.0000000000000000    0.0000000000000000   20.0000000000000000
    29     1     1
Selective dynamics
Direct
 -0.0000084044934546  0.1044155506326744  0.2971967633893697   T   T   T
  0.2503090581811158  0.1465257027957051  0.2972555948723173   T   T   T
  0.2503405966298939  0.2297431058185782  0.2982140783742491   T   T   T
  0.0010269855738431  0.2724610171447044  0.2988469183977180   T   T   T
  0.0021790362121208  0.6030290506182530  0.2996145252625899   T   T   T
  0.2502843626239947  0.7274288673913104  0.2977742463441025   T   T   T
  0.0011867733546200  0.8532172427134838  0.2975142986737859   T   T   T
  0.2502693181781270  0.8953326314316564  0.2977731018767815   T   T   T
  0.2502772034270319  0.9789265642298693  0.2978206760321530   T   T   T
  0.0009391996011226  0.7693847959166922  0.2973307397871375   T   T   T
  0.5006283166199407  0.1044232141200443  0.2971844778322171   T   T   T
  0.7503295738273773  0.1464080118148667  0.2969090928657794   T   T   T
  0.7503659533162740  0.2302479436221932  0.2974618946059251   T   T   T
  0.5004787193996528  0.0207797642084967  0.2975974948294804   T   T   T
  0.7503688272105391  0.3960594713694445  0.3001375934609763   T   T   T
  0.7503441901650373  0.4816715224711334  0.3008482551866274   T   T   T
  0.4996825001890033  0.2724547515945447  0.2987834507904742   T   T   T
  0.4984934225301867  0.6030361123143263  0.2995502262040354   T   T   T
  0.7503169360205671  0.7282874552157499  0.2970723692419201   T   T   T
  0.4993554895367711  0.8532126599071969  0.2975025862554177   T   T   T
  0.7502676697570122  0.8948672116858287  0.2975510798915213   T   T   T
  0.7502857094466727  0.9786898437702808  0.2976446919210779   T   T   T
  0.4996471345965146  0.7693762613049708  0.2973127843522621   T   T   T
  0.7503526375070764  0.6453592465508472  0.2977250552165850   T   T   T
  0.0000849326795864  0.0207738755200997  0.2976063500657910   T   T   T
  0.4994415679625280  0.5211796370442561  0.3026206846851839   T   T   T
  0.0012365114033790  0.5211813570754605  0.3028108339131839   T   T   T
  0.5025070613013501  0.3551602858571155  0.3016942168372779   T   T   T
 -0.0017814663289270  0.3551572757125379  0.3018542193463044   T   T   T
  0.2503113667830604  0.6455037575048291  0.2991986192654331   T   T   T
  0.2504858167879849  0.4370478126428470  0.3266530802222737   T   T   T
 
  0.00000000E+00  0.00000000E+00  0.00000000E+00
  0.00000000E+00  0.00000000E+00  0.00000000E+00
  0.00000000E+00  0.00000000E+00  0.00000000E+00
  0.00000000E+00  0.00000000E+00  0.00000000E+00
  0.00000000E+00  0.00000000E+00  0.00000000E+00
  0.00000000E+00  0.00000000E+00  0.00000000E+00
  0.00000000E+00  0.00000000E+00  0.00000000E+00
  0.00000000E+00  0.00000000E+00  0.00000000E+00
  0.00000000E+00  0.00000000E+00  0.00000000E+00
  0.00000000E+00  0.00000000E+00  0.00000000E+00
  0.00000000E+00  0.00000000E+00  0.00000000E+00
  0.00000000E+00  0.00000000E+00  0.00000000E+00
  0.00000000E+00  0.00000000E+00  0.00000000E+00
  0.00000000E+00  0.00000000E+00  0.00000000E+00
  0.00000000E+00  0.00000000E+00  0.00000000E+00
  0.00000000E+00  0.00000000E+00  0.00000000E+00
  0.00000000E+00  0.00000000E+00  0.00000000E+00
  0.00000000E+00  0.00000000E+00  0.00000000E+00
  0.00000000E+00  0.00000000E+00  0.00000000E+00
  0.00000000E+00  0.00000000E+00  0.00000000E+00
  0.00000000E+00  0.00000000E+00  0.00000000E+00
  0.00000000E+00  0.00000000E+00  0.00000000E+00
  0.00000000E+00  0.00000000E+00  0.00000000E+00
  0.00000000E+00  0.00000000E+00  0.00000000E+00
  0.00000000E+00  0.00000000E+00  0.00000000E+00
  0.00000000E+00  0.00000000E+00  0.00000000E+00
  0.00000000E+00  0.00000000E+00  0.00000000E+00
  0.00000000E+00  0.00000000E+00  0.00000000E+00
  0.00000000E+00  0.00000000E+00  0.00000000E+00
  0.00000000E+00  0.00000000E+00  0.00000000E+00
  0.00000000E+00  0.00000000E+00  0.00000000E+00
