Title                                   
   1.00000000000000     
     9.8694509999999998    0.0000000000000000    0.0000000000000000
     0.0000000000000000    8.5490480000000009    0.0000000000000000
     0.0000000000000000    0.0000000000000000   20.0000000000000000
    26     4     1
Selective dynamics
Direct
  0.0554238878812341  0.0892697217215876  0.0865801456064835   T   T   T
  0.9307365012647042  0.1728575782467453  0.0868681639109650   T   T   T
  0.0571192062982530  0.9239204127700511  0.0868819346804256   T   T   T
  0.9339837197216879  0.3405675547871700  0.0854222164950176   T   T   T
  0.0567276155613630  0.5898838877555985  0.0834676538817068   T   T   T
  0.9337868103717751  0.6744727064758824  0.0858973430847396   T   T   T
  0.0575122998119503  0.4232139869584826  0.0832793169363661   T   T   T
  0.9323279614143386  0.8411752328466382  0.0877239502466383   T   T   T
  0.3056479267797000  0.0876321299756589  0.0947088250304182   T   T   T
  0.1814786774878338  0.1698420597491018  0.0891156858757834   T   T   T
  0.1803017423549197  0.3375166352239857  0.0883129674832737   T   T   T
  0.3012888315728393  0.5885692001524635  0.0984204986372131   T   T   T
  0.1802446076420010  0.6730683974280277  0.0885097601353955   T   T   T
  0.3008006305850762  0.4173953181677146  0.0978468124197878   T   T   T
  0.1822308935967895  0.8403291252687504  0.0893186685014606   T   T   T
  0.4295320066667025  0.1747650319361795  0.1018537168621661   T   T   T
  0.5554201406820835  0.9213139042613646  0.1027983659275454   T   T   T
  0.4208226234148557  0.6735242684438293  0.1092925580168264   T   T   T
  0.4282518178867227  0.8374872542307793  0.1033212726810276   T   T   T
  0.8048937200265077  0.0895353547022611  0.0917633818965629   T   T   T
  0.6818237578064753  0.1774466532773933  0.0983953363625085   T   T   T
  0.8068394508405248  0.9225986969718327  0.0925735883109351   T   T   T
  0.6894159618742604  0.3405600633598509  0.1020284282942713   T   T   T
  0.8120573309932230  0.5937624141581347  0.0929348840758847   T   T   T
  0.8120275228602869  0.4234822365530438  0.0922220600938365   T   T   T
  0.6823630704989574  0.8363092346639721  0.1000569688560588   T   T   T
  0.5552074854560645  0.0931607631049003  0.1020076282713233   T   T   T
  0.4205531679131823  0.3345542118757342  0.1070878523922592   T   T   T
  0.6925663642792017  0.6737527775718137  0.1033154235829253   T   T   T
  0.3051852279852915  0.9222624280884788  0.0947680956012736   T   T   T
  0.5565640384711977  0.5066457592725997  0.1141914958489544   T   T   T
 
  0.00000000E+00  0.00000000E+00  0.00000000E+00
  0.00000000E+00  0.00000000E+00  0.00000000E+00
  0.00000000E+00  0.00000000E+00  0.00000000E+00
  0.00000000E+00  0.00000000E+00  0.00000000E+00
  0.00000000E+00  0.00000000E+00  0.00000000E+00
  0.00000000E+00  0.00000000E+00  0.00000000E+00
  0.00000000E+00  0.00000000E+00  0.00000000E+00
  0.00000000E+00  0.00000000E+00  0.00000000E+00
  0.00000000E+00  0.00000000E+00  0.00000000E+00
  0.00000000E+00  0.00000000E+00  0.00000000E+00
  0.00000000E+00  0.00000000E+00  0.00000000E+00
  0.00000000E+00  0.00000000E+00  0.00000000E+00
  0.00000000E+00  0.00000000E+00  0.00000000E+00
  0.00000000E+00  0.00000000E+00  0.00000000E+00
  0.00000000E+00  0.00000000E+00  0.00000000E+00
  0.00000000E+00  0.00000000E+00  0.00000000E+00
  0.00000000E+00  0.00000000E+00  0.00000000E+00
  0.00000000E+00  0.00000000E+00  0.00000000E+00
  0.00000000E+00  0.00000000E+00  0.00000000E+00
  0.00000000E+00  0.00000000E+00  0.00000000E+00
  0.00000000E+00  0.00000000E+00  0.00000000E+00
  0.00000000E+00  0.00000000E+00  0.00000000E+00
  0.00000000E+00  0.00000000E+00  0.00000000E+00
  0.00000000E+00  0.00000000E+00  0.00000000E+00
  0.00000000E+00  0.00000000E+00  0.00000000E+00
  0.00000000E+00  0.00000000E+00  0.00000000E+00
  0.00000000E+00  0.00000000E+00  0.00000000E+00
  0.00000000E+00  0.00000000E+00  0.00000000E+00
  0.00000000E+00  0.00000000E+00  0.00000000E+00
  0.00000000E+00  0.00000000E+00  0.00000000E+00
  0.00000000E+00  0.00000000E+00  0.00000000E+00
