Title                                   
   1.00000000000000     
     8.5490480000000009    0.0000000000000000    0.0000000000000000
     0.0000000000000000    8.5490480000000009    0.0000000000000000
     0.0000000000000000    0.0000000000000000   20.0000000000000000
    19     5     1
Selective dynamics
Direct
  0.9103951060436776  0.2045543536241279  0.0976428337790693   T   T   T
  0.9097088937172185  0.8008702660749093  0.0974816969317419   T   T   T
  0.1969281812780926  0.0849782627259403  0.0978195675202630   T   T   T
  0.0767369886000591  0.2013201126127752  0.0977736856973853   T   T   T
  0.1556996912266653  0.6527529943809789  0.0978094894844051   T   T   T
  0.0753885874294300  0.5025154577064237  0.0977934104142538   T   T   T
  0.1576218355427576  0.3564068556629563  0.0977532902298737   T   T   T
  0.0776712110780332  0.8004486205023837  0.0976671613996474   T   T   T
  0.4950463994663606  0.0864025424247485  0.0977689385793949   T   T   T
  0.3472039940036073  0.1666966155137922  0.0977832411127568   T   T   T
  0.4935396586238373  0.9140602518952795  0.0977392283615358   T   T   T
  0.3425285632750110  0.8340725099470361  0.0978875195351397   T   T   T
  0.7897481310176153  0.0861630847766477  0.0975474027487880   T   T   T
  0.6431660865486915  0.1679947297078594  0.0977890091680917   T   T   T
  0.7891318192676765  0.9177300915426216  0.0974451359139131   T   T   T
  0.8271154975842165  0.6508327437074680  0.0976462999989155   T   T   T
  0.8269556545814165  0.3539105884103995  0.0978336159258174   T   T   T
  0.6416947625088791  0.8330173788141350  0.0976078219995486   T   T   T
  0.3233720661579289  0.3339534145303580  0.0976790984345306   T   T   T
  0.9055083472229197  0.5031408212417151  0.0978514100905863   T   T   T
  0.3173021573238378  0.6767006782398658  0.0979797044920010   T   T   T
  0.6682807463431337  0.3317467752068544  0.0980467867695567   T   T   T
  0.6677117193683020  0.6700986240964357  0.0977255735834122   T   T   T
  0.1961486169446000  0.9165804076360978  0.0978297766276180   T   T   T
  0.4908072848460261  0.4978418190182107  0.0978033012017271   T   T   T
 
  0.00000000E+00  0.00000000E+00  0.00000000E+00
  0.00000000E+00  0.00000000E+00  0.00000000E+00
  0.00000000E+00  0.00000000E+00  0.00000000E+00
  0.00000000E+00  0.00000000E+00  0.00000000E+00
  0.00000000E+00  0.00000000E+00  0.00000000E+00
  0.00000000E+00  0.00000000E+00  0.00000000E+00
  0.00000000E+00  0.00000000E+00  0.00000000E+00
  0.00000000E+00  0.00000000E+00  0.00000000E+00
  0.00000000E+00  0.00000000E+00  0.00000000E+00
  0.00000000E+00  0.00000000E+00  0.00000000E+00
  0.00000000E+00  0.00000000E+00  0.00000000E+00
  0.00000000E+00  0.00000000E+00  0.00000000E+00
  0.00000000E+00  0.00000000E+00  0.00000000E+00
  0.00000000E+00  0.00000000E+00  0.00000000E+00
  0.00000000E+00  0.00000000E+00  0.00000000E+00
  0.00000000E+00  0.00000000E+00  0.00000000E+00
  0.00000000E+00  0.00000000E+00  0.00000000E+00
  0.00000000E+00  0.00000000E+00  0.00000000E+00
  0.00000000E+00  0.00000000E+00  0.00000000E+00
  0.00000000E+00  0.00000000E+00  0.00000000E+00
  0.00000000E+00  0.00000000E+00  0.00000000E+00
  0.00000000E+00  0.00000000E+00  0.00000000E+00
  0.00000000E+00  0.00000000E+00  0.00000000E+00
  0.00000000E+00  0.00000000E+00  0.00000000E+00
  0.00000000E+00  0.00000000E+00  0.00000000E+00
