Title                                   
   1.00000000000000     
     4.9440799999999996    0.0000000000000000    0.0000000000000000
     0.0000000000000000    8.5647549999999999    0.0000000000000000
     0.0000000000000000    0.0000000000000000   20.0000000000000000
     9     5     1
Selective dynamics
Direct
 -0.0023425028976795  0.2970696168179078  0.1003512751355018   T   T   T
  0.2500000000000000  0.0375531936143401  0.1006130527389207   T   T   T
 -0.0018492804376014  0.9540965885072854  0.1005770170510262   T   T   T
  0.7500000000000000  0.2064946615767785  0.1001303477937008   T   T   T
  0.5023425028976791  0.2970696168179078  0.1003512751355018   T   T   T
  0.7500000000000000  0.0412354193195314  0.1003101843695588   T   T   T
  0.7500000000000000  0.7120267073249860  0.1007428730560686   T   T   T
  0.7500000000000000  0.5367004112900416  0.1007218501600234   T   T   T
  0.5018492804376014  0.9540965885072854  0.1005770170510262   T   T   T
  0.5111898123160804  0.4551054974567915  0.1006932629573745   T   T   T
 -0.0111898123160801  0.4551054974567915  0.1006932629573745   T   T   T
 -0.0126118517123196  0.7922752997318754  0.1007769125379282   T   T   T
  0.5126118517123198  0.7922752997318754  0.1007769125379282   T   T   T
  0.2500000000000000  0.2139851510279413  0.1004332051385985   T   T   T
  0.2500000000000000  0.6265914508186640  0.1002315513794711   T   T   T
 
  0.00000000E+00  0.00000000E+00  0.00000000E+00
  0.00000000E+00  0.00000000E+00  0.00000000E+00
  0.00000000E+00  0.00000000E+00  0.00000000E+00
  0.00000000E+00  0.00000000E+00  0.00000000E+00
  0.00000000E+00  0.00000000E+00  0.00000000E+00
  0.00000000E+00  0.00000000E+00  0.00000000E+00
  0.00000000E+00  0.00000000E+00  0.00000000E+00
  0.00000000E+00  0.00000000E+00  0.00000000E+00
  0.00000000E+00  0.00000000E+00  0.00000000E+00
  0.00000000E+00  0.00000000E+00  0.00000000E+00
  0.00000000E+00  0.00000000E+00  0.00000000E+00
  0.00000000E+00  0.00000000E+00  0.00000000E+00
  0.00000000E+00  0.00000000E+00  0.00000000E+00
  0.00000000E+00  0.00000000E+00  0.00000000E+00
  0.00000000E+00  0.00000000E+00  0.00000000E+00
