Title                                   
   1.00000000000000     
     8.5490480000000009    0.0000000000000000    0.0000000000000000
     0.0000000000000000    8.5490480000000009    0.0000000000000000
     0.0000000000000000    0.0000000000000000   20.0000000000000000
    20     4     1
Selective dynamics
Direct
  0.9089500481158451  0.2067829756082208  0.0978391730219176   T   T   T
  0.9112771350611778  0.8009917100985006  0.0977314359401085   T   T   T
  0.1987022027388259  0.0827671056793678  0.0980616684185764   T   T   T
  0.0754556417978194  0.2029544457984816  0.0980187482384513   T   T   T
  0.1565036182113934  0.6501382892099750  0.0979733571610660   T   T   T
  0.0744288287306693  0.5017753783918755  0.0980084635954874   T   T   T
  0.1566559956620155  0.3548280482374782  0.0980496206381008   T   T   T
  0.0791796699625317  0.7994672423804119  0.0978653007251393   T   T   T
  0.3471109970418026  0.1641130063494845  0.0980362239710427   T   T   T
  0.4941730220808930  0.9163470453090105  0.0980198263110744   T   T   T
  0.3460197497314180  0.8346942666768469  0.0981051147517759   T   T   T
  0.7869740748127075  0.0857109325352247  0.0977265892730152   T   T   T
  0.6385064978452347  0.1659377662079426  0.0977793651024022   T   T   T
  0.7899911282582621  0.9190249465080054  0.0977346599598296   T   T   T
  0.8289209207438170  0.6521394694591183  0.0979056829069148   T   T   T
  0.8246011803055940  0.3570351936876158  0.0978482600551743   T   T   T
  0.6424585084045233  0.8360199020601411  0.0979315244803945   T   T   T
  0.3256588304533082  0.3319600796408578  0.0980326380552915   T   T   T
  0.3233326247221959  0.6712516850415463  0.0980756692912160   T   T   T
  0.6586988263183495  0.3347755941804258  0.0977899113100866   T   T   T
  0.4949634979931999  0.0835043274626910  0.0979860789895252   T   T   T
  0.9062002863245392  0.5036519386987088  0.0979985149896283   T   T   T
  0.6679685939005320  0.6725650636151986  0.0980585764685610   T   T   T
  0.1968284036868539  0.9165090379318578  0.0980727544059840   T   T   T
  0.4918517170964841  0.4998445492310251  0.0980558419392195   T   T   T
 
  0.00000000E+00  0.00000000E+00  0.00000000E+00
  0.00000000E+00  0.00000000E+00  0.00000000E+00
  0.00000000E+00  0.00000000E+00  0.00000000E+00
  0.00000000E+00  0.00000000E+00  0.00000000E+00
  0.00000000E+00  0.00000000E+00  0.00000000E+00
  0.00000000E+00  0.00000000E+00  0.00000000E+00
  0.00000000E+00  0.00000000E+00  0.00000000E+00
  0.00000000E+00  0.00000000E+00  0.00000000E+00
  0.00000000E+00  0.00000000E+00  0.00000000E+00
  0.00000000E+00  0.00000000E+00  0.00000000E+00
  0.00000000E+00  0.00000000E+00  0.00000000E+00
  0.00000000E+00  0.00000000E+00  0.00000000E+00
  0.00000000E+00  0.00000000E+00  0.00000000E+00
  0.00000000E+00  0.00000000E+00  0.00000000E+00
  0.00000000E+00  0.00000000E+00  0.00000000E+00
  0.00000000E+00  0.00000000E+00  0.00000000E+00
  0.00000000E+00  0.00000000E+00  0.00000000E+00
  0.00000000E+00  0.00000000E+00  0.00000000E+00
  0.00000000E+00  0.00000000E+00  0.00000000E+00
  0.00000000E+00  0.00000000E+00  0.00000000E+00
  0.00000000E+00  0.00000000E+00  0.00000000E+00
  0.00000000E+00  0.00000000E+00  0.00000000E+00
  0.00000000E+00  0.00000000E+00  0.00000000E+00
  0.00000000E+00  0.00000000E+00  0.00000000E+00
  0.00000000E+00  0.00000000E+00  0.00000000E+00
