Title                                   
   1.00000000000000     
     8.5490480000000009    0.0000000000000000    0.0000000000000000
     0.0000000000000000    8.5490480000000009    0.0000000000000000
     0.0000000000000000    0.0000000000000000   20.0000000000000000
    20     4     1
Selective dynamics
Direct
  0.9086521953959520  0.2054246534525405  0.0916360957858456   T   T   T
  0.9123349884658351  0.8025685360836379  0.0923684464785827   T   T   T
  0.1962666753717756  0.0810724809124173  0.0927112357818434   T   T   T
  0.0739675456390706  0.1999200080026599  0.0926295156973741   T   T   T
  0.1560508269219329  0.6502449841276546  0.0955299097484709   T   T   T
  0.0748146906760498  0.5009710989682913  0.0968574902920414   T   T   T
  0.1551610658517950  0.3519701395936871  0.0980325784776031   T   T   T
  0.0792072490163701  0.7997246234560343  0.0920676672289500   T   T   T
  0.3445069477630371  0.1619162117795057  0.0977843524904149   T   T   T
  0.4944452871785200  0.9170557904153418  0.0964806313643623   T   T   T
  0.3448928169341282  0.8360402631993606  0.0955222089593960   T   T   T
  0.7870344288189975  0.0859295445272578  0.0923301968232548   T   T   T
  0.6390078554047093  0.1659060990885654  0.0963783111464854   T   T   T
  0.7913778774067224  0.9199353690776741  0.0929653964598540   T   T   T
  0.8310548354439170  0.6535463733495060  0.0958028220923572   T   T   T
  0.8256463560827959  0.3559976771263473  0.0953210912322821   T   T   T
  0.6442512592913573  0.8377440206367300  0.0967183526486039   T   T   T
  0.3212534827400151  0.3266908114999346  0.1043602335106106   T   T   T
  0.3218374942777074  0.6742200350308553  0.0979627819555968   T   T   T
  0.6618572521933579  0.3333860715653373  0.1005786781031077   T   T   T
  0.4942277449051922  0.0833934858577510  0.0970842937987550   T   T   T
  0.9070781079892216  0.5039270788809525  0.0959610564933122   T   T   T
  0.6719110209404092  0.6752913463869832  0.1001166975960213   T   T   T
  0.1954725460220496  0.9159696651286590  0.0917321274718945   T   T   T
  0.4931014492690752  0.5059436318523282  0.1497728283629630   T   T   T
 
  0.00000000E+00  0.00000000E+00  0.00000000E+00
  0.00000000E+00  0.00000000E+00  0.00000000E+00
  0.00000000E+00  0.00000000E+00  0.00000000E+00
  0.00000000E+00  0.00000000E+00  0.00000000E+00
  0.00000000E+00  0.00000000E+00  0.00000000E+00
  0.00000000E+00  0.00000000E+00  0.00000000E+00
  0.00000000E+00  0.00000000E+00  0.00000000E+00
  0.00000000E+00  0.00000000E+00  0.00000000E+00
  0.00000000E+00  0.00000000E+00  0.00000000E+00
  0.00000000E+00  0.00000000E+00  0.00000000E+00
  0.00000000E+00  0.00000000E+00  0.00000000E+00
  0.00000000E+00  0.00000000E+00  0.00000000E+00
  0.00000000E+00  0.00000000E+00  0.00000000E+00
  0.00000000E+00  0.00000000E+00  0.00000000E+00
  0.00000000E+00  0.00000000E+00  0.00000000E+00
  0.00000000E+00  0.00000000E+00  0.00000000E+00
  0.00000000E+00  0.00000000E+00  0.00000000E+00
  0.00000000E+00  0.00000000E+00  0.00000000E+00
  0.00000000E+00  0.00000000E+00  0.00000000E+00
  0.00000000E+00  0.00000000E+00  0.00000000E+00
  0.00000000E+00  0.00000000E+00  0.00000000E+00
  0.00000000E+00  0.00000000E+00  0.00000000E+00
  0.00000000E+00  0.00000000E+00  0.00000000E+00
  0.00000000E+00  0.00000000E+00  0.00000000E+00
  0.00000000E+00  0.00000000E+00  0.00000000E+00
