Title                                   
   1.00000000000000     
     9.8694509999999998    0.0000000000000000    0.0000000000000000
     0.0000000000000000    8.5490480000000009    0.0000000000000000
     0.0000000000000000    0.0000000000000000   20.0000000000000000
    27     4     1
Selective dynamics
Direct
  0.0557724808648842  0.0916010742783968  0.0854399093289049   T   T   T
  0.9297305183605934  0.1752657682864878  0.0872128335076060   T   T   T
  0.0566652368578547  0.9231807072861583  0.0837382571697565   T   T   T
  0.9295037911003274  0.3415551580677125  0.0905164824303519   T   T   T
  0.0561543704954705  0.5892766854745364  0.0860397315090983   T   T   T
  0.9318232752606380  0.6719298006853109  0.0853703364689734   T   T   T
  0.0556166243858516  0.4227834895898751  0.0900212368878191   T   T   T
  0.9314695359007561  0.8397536584383323  0.0844195265561951   T   T   T
  0.3052401692740450  0.0883284481121088  0.0880835220513170   T   T   T
  0.1817881608427236  0.1734409971476059  0.0885210778264660   T   T   T
  0.3072985310025084  0.9222548745971584  0.0877478901279715   T   T   T
  0.1810785418374989  0.3395711401074418  0.0926901951017748   T   T   T
  0.3042561037725312  0.5885148908594116  0.1007506106878013   T   T   T
  0.1808545485568578  0.6701572539006666  0.0881148186672039   T   T   T
  0.1820840723794974  0.8382328064687968  0.0857972178787071   T   T   T
  0.5563466356404113  0.0871328340728851  0.0943373120456862   T   T   T
  0.4303070333583449  0.1694125614415662  0.0941401983386304   T   T   T
  0.4302633211114144  0.3348857788054709  0.1040281508106998   T   T   T
  0.4298729639822352  0.8378550671163688  0.0979615437081258   T   T   T
  0.8064628669373691  0.0901817181074803  0.0864104424957475   T   T   T
  0.6811547093100782  0.1720028588854219  0.0920241285451478   T   T   T
  0.8064570157946300  0.9246359747477231  0.0863774602537049   T   T   T
  0.6789775090316865  0.3371067676322452  0.1006765485930605   T   T   T
  0.8068829977624939  0.5930347315897232  0.0939067831046387   T   T   T
  0.6847594292451610  0.8391398371976705  0.0948269427697977   T   T   T
  0.4212358252033049  0.6770486257549585  0.1168509764139498   T   T   T
  0.5547396579390342  0.4099794622611124  0.1199169175600419   T   T   T
  0.6920965227637211  0.6795707012286268  0.1058875558328859   T   T   T
  0.5575302257155281  0.9181729881576376  0.0959918388875250   T   T   T
  0.3059725281716622  0.4211858651714958  0.1005371875827063   T   T   T
  0.8033062202029649  0.4255239823135170  0.0955273208017599   T   T   T
  0.5639375769379262  0.5975294922161005  0.1818100460559612   T   T   T
 
  0.00000000E+00  0.00000000E+00  0.00000000E+00
  0.00000000E+00  0.00000000E+00  0.00000000E+00
  0.00000000E+00  0.00000000E+00  0.00000000E+00
  0.00000000E+00  0.00000000E+00  0.00000000E+00
  0.00000000E+00  0.00000000E+00  0.00000000E+00
  0.00000000E+00  0.00000000E+00  0.00000000E+00
  0.00000000E+00  0.00000000E+00  0.00000000E+00
  0.00000000E+00  0.00000000E+00  0.00000000E+00
  0.00000000E+00  0.00000000E+00  0.00000000E+00
  0.00000000E+00  0.00000000E+00  0.00000000E+00
  0.00000000E+00  0.00000000E+00  0.00000000E+00
  0.00000000E+00  0.00000000E+00  0.00000000E+00
  0.00000000E+00  0.00000000E+00  0.00000000E+00
  0.00000000E+00  0.00000000E+00  0.00000000E+00
  0.00000000E+00  0.00000000E+00  0.00000000E+00
  0.00000000E+00  0.00000000E+00  0.00000000E+00
  0.00000000E+00  0.00000000E+00  0.00000000E+00
  0.00000000E+00  0.00000000E+00  0.00000000E+00
  0.00000000E+00  0.00000000E+00  0.00000000E+00
  0.00000000E+00  0.00000000E+00  0.00000000E+00
  0.00000000E+00  0.00000000E+00  0.00000000E+00
  0.00000000E+00  0.00000000E+00  0.00000000E+00
  0.00000000E+00  0.00000000E+00  0.00000000E+00
  0.00000000E+00  0.00000000E+00  0.00000000E+00
  0.00000000E+00  0.00000000E+00  0.00000000E+00
  0.00000000E+00  0.00000000E+00  0.00000000E+00
  0.00000000E+00  0.00000000E+00  0.00000000E+00
  0.00000000E+00  0.00000000E+00  0.00000000E+00
  0.00000000E+00  0.00000000E+00  0.00000000E+00
  0.00000000E+00  0.00000000E+00  0.00000000E+00
  0.00000000E+00  0.00000000E+00  0.00000000E+00
  0.00000000E+00  0.00000000E+00  0.00000000E+00
