Title                                   
   1.00000000000000     
     8.5490480000000009    0.0000000000000000    0.0000000000000000
     0.0000000000000000    8.5490480000000009    0.0000000000000000
     0.0000000000000000    0.0000000000000000   20.0000000000000000
    20     4     1
Selective dynamics
Direct
  0.9088159511020726  0.2064452930079345  0.0941054643108403   T   T   T
  0.9111627549880651  0.8005884959851530  0.0943446057622330   T   T   T
  0.1962880633525340  0.0837318250861898  0.0943720976955004   T   T   T
  0.0758301979304196  0.2020345670471120  0.0941851732482907   T   T   T
  0.1545369849669114  0.6494498753056326  0.0966166948387772   T   T   T
  0.0728957015140424  0.5011378679832046  0.0964924260559945   T   T   T
  0.1532333792392474  0.3537063769653966  0.0968804951640976   T   T   T
  0.0791473052473845  0.7986616512535278  0.0941925476835386   T   T   T
  0.4946735211261245  0.0864769864100025  0.0971568974842803   T   T   T
  0.3447363326435320  0.1642055326880016  0.0971859803688743   T   T   T
  0.4943640928962127  0.9179638905196486  0.0969803521046268   T   T   T
  0.3452634985753547  0.8366234316742790  0.0969107098073865   T   T   T
  0.7885078653876461  0.0875115477821686  0.0950645077704079   T   T   T
  0.6424003914679142  0.1678182829205225  0.0971788599467331   T   T   T
  0.7893844035580005  0.9187333368460372  0.0951186933620328   T   T   T
  0.8303415402704376  0.6521442625606576  0.0959325987039672   T   T   T
  0.8288920758561827  0.3540699546591524  0.0955724842478396   T   T   T
  0.6431945086763504  0.8367705218149362  0.0970840785805807   T   T   T
  0.3208183330518228  0.3308181924227786  0.1008198926184863   T   T   T
  0.3220454505132261  0.6730968484720503  0.0997662838615888   T   T   T
  0.9055806191985953  0.5027563939712492  0.0957730478974577   T   T   T
  0.6675577580003175  0.3328089671128201  0.0988067634247941   T   T   T
  0.6693328793649319  0.6725959936972199  0.0989048807052069   T   T   T
  0.1970596983999550  0.9161236873231907  0.0941059227971892   T   T   T
  0.4893486926727117  0.4985162164911535  0.1301535415592484   T   T   T
 
  0.00000000E+00  0.00000000E+00  0.00000000E+00
  0.00000000E+00  0.00000000E+00  0.00000000E+00
  0.00000000E+00  0.00000000E+00  0.00000000E+00
  0.00000000E+00  0.00000000E+00  0.00000000E+00
  0.00000000E+00  0.00000000E+00  0.00000000E+00
  0.00000000E+00  0.00000000E+00  0.00000000E+00
  0.00000000E+00  0.00000000E+00  0.00000000E+00
  0.00000000E+00  0.00000000E+00  0.00000000E+00
  0.00000000E+00  0.00000000E+00  0.00000000E+00
  0.00000000E+00  0.00000000E+00  0.00000000E+00
  0.00000000E+00  0.00000000E+00  0.00000000E+00
  0.00000000E+00  0.00000000E+00  0.00000000E+00
  0.00000000E+00  0.00000000E+00  0.00000000E+00
  0.00000000E+00  0.00000000E+00  0.00000000E+00
  0.00000000E+00  0.00000000E+00  0.00000000E+00
  0.00000000E+00  0.00000000E+00  0.00000000E+00
  0.00000000E+00  0.00000000E+00  0.00000000E+00
  0.00000000E+00  0.00000000E+00  0.00000000E+00
  0.00000000E+00  0.00000000E+00  0.00000000E+00
  0.00000000E+00  0.00000000E+00  0.00000000E+00
  0.00000000E+00  0.00000000E+00  0.00000000E+00
  0.00000000E+00  0.00000000E+00  0.00000000E+00
  0.00000000E+00  0.00000000E+00  0.00000000E+00
  0.00000000E+00  0.00000000E+00  0.00000000E+00
  0.00000000E+00  0.00000000E+00  0.00000000E+00
