Title                                   
   1.00000000000000     
     4.9440799999999996    0.0000000000000000    0.0000000000000000
     0.0000000000000000   17.1295089999999988    0.0000000000000000
     0.0000000000000000    0.0000000000000000   20.0000000000000000
    30     1     1
Selective dynamics
Direct
 -0.0002648914271674  0.1040787937238351  0.2773388397724350   T   T   T
  0.2498826619162165  0.1456748464836078  0.2817839708474940   T   T   T
  0.2499074116545363  0.2277723395921404  0.2938752411403077   T   T   T
  0.0001983160875721  0.3496461644417122  0.3180450701660150   T   T   T
 -0.0008158567372704  0.2687394261877429  0.3005094201385417   T   T   T
 -0.0025519971071008  0.6083446704663314  0.3202276360965405   T   T   T
  0.2499013700398246  0.7297140433251037  0.2965310886610681   T   T   T
  0.0000312324881464  0.8539041209104572  0.2788098238674983   T   T   T
  0.2498512665170239  0.8957658770030100  0.2755635640080836   T   T   T
  0.2498507043020018  0.9789019191085280  0.2725461019836477   T   T   T
  0.0000617464395389  0.7713656483899075  0.2888739683287828   T   T   T
  0.5000252746917745  0.1040792996971216  0.2773389659266650   T   T   T
  0.7498827699663857  0.1456223666100263  0.2811848324095079   T   T   T
  0.7499030370305492  0.2281035348186660  0.2923964840390371   T   T   T
  0.5000227382774712  0.0208342750363070  0.2727707637798593   T   T   T
  0.4996489735774623  0.3496481543135148  0.3180387574792627   T   T   T
  0.7499317942782523  0.3937253743172154  0.3244980078589938   T   T   T
  0.7499546046325840  0.4799747071767062  0.3306454510721867   T   T   T
  0.5006479362188180  0.2687407788527159  0.3005065849500425   T   T   T
  0.5024148074554676  0.6083455321600193  0.3202222258630398   T   T   T
  0.7498922497660483  0.7306699007356542  0.2944969715808826   T   T   T
  0.4996728659150615  0.8539086255766773  0.2788069482518010   T   T   T
  0.7498545912706964  0.8954433927611442  0.2752568754706903   T   T   T
  0.7498534838052811  0.9789951437465940  0.2722594723042087   T   T   T
  0.4997064458863574  0.7713662583934774  0.2888725181169812   T   T   T
  0.7499270107127063  0.6490333749456159  0.3093918822149317   T   T   T
  0.2499246853463444  0.6488924631060399  0.3131523699229933   T   T   T
 -0.0003200141891323  0.0208352719391401  0.2727710239871100   T   T   T
  0.5185241451670164  0.5277872232651906  0.3378616834398314   T   T   T
  0.9813822026764059  0.5277848745808983  0.3378787444659145   T   T   T
  0.2499280128692021  0.3837736391428310  0.3307665581513269   T   T   T
  0.2499934204719315  0.4770789591920573  0.3893431537042713   T   T   T
 
  0.00000000E+00  0.00000000E+00  0.00000000E+00
  0.00000000E+00  0.00000000E+00  0.00000000E+00
  0.00000000E+00  0.00000000E+00  0.00000000E+00
  0.00000000E+00  0.00000000E+00  0.00000000E+00
  0.00000000E+00  0.00000000E+00  0.00000000E+00
  0.00000000E+00  0.00000000E+00  0.00000000E+00
  0.00000000E+00  0.00000000E+00  0.00000000E+00
  0.00000000E+00  0.00000000E+00  0.00000000E+00
  0.00000000E+00  0.00000000E+00  0.00000000E+00
  0.00000000E+00  0.00000000E+00  0.00000000E+00
  0.00000000E+00  0.00000000E+00  0.00000000E+00
  0.00000000E+00  0.00000000E+00  0.00000000E+00
  0.00000000E+00  0.00000000E+00  0.00000000E+00
  0.00000000E+00  0.00000000E+00  0.00000000E+00
  0.00000000E+00  0.00000000E+00  0.00000000E+00
  0.00000000E+00  0.00000000E+00  0.00000000E+00
  0.00000000E+00  0.00000000E+00  0.00000000E+00
  0.00000000E+00  0.00000000E+00  0.00000000E+00
  0.00000000E+00  0.00000000E+00  0.00000000E+00
  0.00000000E+00  0.00000000E+00  0.00000000E+00
  0.00000000E+00  0.00000000E+00  0.00000000E+00
  0.00000000E+00  0.00000000E+00  0.00000000E+00
  0.00000000E+00  0.00000000E+00  0.00000000E+00
  0.00000000E+00  0.00000000E+00  0.00000000E+00
  0.00000000E+00  0.00000000E+00  0.00000000E+00
  0.00000000E+00  0.00000000E+00  0.00000000E+00
  0.00000000E+00  0.00000000E+00  0.00000000E+00
  0.00000000E+00  0.00000000E+00  0.00000000E+00
  0.00000000E+00  0.00000000E+00  0.00000000E+00
  0.00000000E+00  0.00000000E+00  0.00000000E+00
  0.00000000E+00  0.00000000E+00  0.00000000E+00
  0.00000000E+00  0.00000000E+00  0.00000000E+00
