Title                                   
   1.00000000000000     
     9.8694509999999998    0.0000000000000000    0.0000000000000000
     0.0000000000000000    8.5490480000000009    0.0000000000000000
     0.0000000000000000    0.0000000000000000   20.0000000000000000
    28     3     1
Selective dynamics
Direct
  0.0561923212112730  0.0917798188657350  0.0842223202354536   T   T   T
  0.9315904777049465  0.1733357374882062  0.0856428230212839   T   T   T
  0.0570850056941199  0.9244435684965960  0.0842506165167321   T   T   T
  0.9309180705862852  0.3402786296882992  0.0891547454195957   T   T   T
  0.0571953620378595  0.5901956445079397  0.0860207778729691   T   T   T
  0.9325272751134707  0.6726664444911078  0.0886330484324975   T   T   T
  0.0576241528687432  0.4230288483271000  0.0875606136002790   T   T   T
  0.9320068287640654  0.8394214781337125  0.0864725669268305   T   T   T
  0.3055482734162303  0.0889971220703744  0.0879739691768799   T   T   T
  0.1821599158939534  0.1739109356674006  0.0862405339772388   T   T   T
  0.1842711446669378  0.3412061124167580  0.0886463823927859   T   T   T
  0.3048170130087905  0.5938131006379571  0.0969283918292503   T   T   T
  0.1810955785032359  0.6749417888192922  0.0873918170207615   T   T   T
  0.3105580224649518  0.4262288849923601  0.0954362040130543   T   T   T
  0.1804451123045255  0.8415561460554569  0.0865596519559408   T   T   T
  0.5560136783678954  0.0853096564125731  0.0935760566981238   T   T   T
  0.4308630487507881  0.1693178695960462  0.0921294064249486   T   T   T
  0.5540121256613072  0.9198737148655813  0.0987339605236130   T   T   T
  0.4337834941132977  0.3344885426538051  0.0987583251489530   T   T   T
  0.4255387757248126  0.8412555072093896  0.0998351626176702   T   T   T
  0.8069253893396721  0.0885282186716719  0.0867107957227894   T   T   T
  0.6813924941902518  0.1685346083386723  0.0914631339804010   T   T   T
  0.8067218897867990  0.9227405539973795  0.0887796550961327   T   T   T
  0.6803828383632191  0.3337195899336773  0.0993217847873970   T   T   T
  0.8089851379997247  0.5904399693348757  0.1002319693570044   T   T   T
  0.6922157782532825  0.6786824160945056  0.1155627642505210   T   T   T
  0.8053904000700491  0.4220472186881528  0.0973889183472549   T   T   T
  0.6832574820433213  0.8390801945214981  0.1006062731526873   T   T   T
  0.4166502292351262  0.6853056942706178  0.1125063496632110   T   T   T
  0.5574208641900825  0.4047559416230774  0.1112716269135578   T   T   T
  0.3047872777762200  0.9251222531417717  0.0890977566556671   T   T   T
  0.5512635418947670  0.5852397899884183  0.1685665982685493   T   T   T
 
  0.00000000E+00  0.00000000E+00  0.00000000E+00
  0.00000000E+00  0.00000000E+00  0.00000000E+00
  0.00000000E+00  0.00000000E+00  0.00000000E+00
  0.00000000E+00  0.00000000E+00  0.00000000E+00
  0.00000000E+00  0.00000000E+00  0.00000000E+00
  0.00000000E+00  0.00000000E+00  0.00000000E+00
  0.00000000E+00  0.00000000E+00  0.00000000E+00
  0.00000000E+00  0.00000000E+00  0.00000000E+00
  0.00000000E+00  0.00000000E+00  0.00000000E+00
  0.00000000E+00  0.00000000E+00  0.00000000E+00
  0.00000000E+00  0.00000000E+00  0.00000000E+00
  0.00000000E+00  0.00000000E+00  0.00000000E+00
  0.00000000E+00  0.00000000E+00  0.00000000E+00
  0.00000000E+00  0.00000000E+00  0.00000000E+00
  0.00000000E+00  0.00000000E+00  0.00000000E+00
  0.00000000E+00  0.00000000E+00  0.00000000E+00
  0.00000000E+00  0.00000000E+00  0.00000000E+00
  0.00000000E+00  0.00000000E+00  0.00000000E+00
  0.00000000E+00  0.00000000E+00  0.00000000E+00
  0.00000000E+00  0.00000000E+00  0.00000000E+00
  0.00000000E+00  0.00000000E+00  0.00000000E+00
  0.00000000E+00  0.00000000E+00  0.00000000E+00
  0.00000000E+00  0.00000000E+00  0.00000000E+00
  0.00000000E+00  0.00000000E+00  0.00000000E+00
  0.00000000E+00  0.00000000E+00  0.00000000E+00
  0.00000000E+00  0.00000000E+00  0.00000000E+00
  0.00000000E+00  0.00000000E+00  0.00000000E+00
  0.00000000E+00  0.00000000E+00  0.00000000E+00
  0.00000000E+00  0.00000000E+00  0.00000000E+00
  0.00000000E+00  0.00000000E+00  0.00000000E+00
  0.00000000E+00  0.00000000E+00  0.00000000E+00
  0.00000000E+00  0.00000000E+00  0.00000000E+00
