Title                                   
   1.00000000000000     
     9.8694509999999998    0.0000000000000000    0.0000000000000000
     0.0000000000000000    8.5490480000000009    0.0000000000000000
     0.0000000000000000    0.0000000000000000   20.0000000000000000
    29     2     1
Selective dynamics
Direct
  0.0563647683833701  0.0900615128243760  0.0840003717487360   T   T   T
  0.9315018750365275  0.1731220205822392  0.0852784381865440   T   T   T
  0.0573296948186645  0.9234134628882539  0.0841463610826299   T   T   T
  0.9311846563235415  0.3403922492252306  0.0880497596897368   T   T   T
  0.0570735711947795  0.5906762069139663  0.0863165361101735   T   T   T
  0.9322636416361740  0.6729988943723230  0.0884344567033916   T   T   T
  0.0569666623086496  0.4229198720127455  0.0868211169257778   T   T   T
  0.9320877825229634  0.8396348060966347  0.0864865083506692   T   T   T
  0.3060126936782562  0.0883579610576762  0.0883993347296683   T   T   T
  0.1824167593708370  0.1725437197381207  0.0860854466730554   T   T   T
  0.1820854839201327  0.3396014346361972  0.0885231180314196   T   T   T
  0.3049804472874375  0.5889163334018183  0.0998460958173569   T   T   T
  0.1821506261895403  0.6738394746555968  0.0887303136769550   T   T   T
  0.3062919433586736  0.4214733076341636  0.0978060576823630   T   T   T
  0.1821374837728951  0.8408131095511265  0.0867616031599422   T   T   T
  0.5554927775338541  0.0877708496316103  0.0938706943053751   T   T   T
  0.5544186667519558  0.9239417304521477  0.0997832877596642   T   T   T
  0.4305727966923428  0.3335288926673216  0.1033088119099375   T   T   T
  0.4276233971672713  0.8409365097809438  0.1027092824739864   T   T   T
  0.8061926963167533  0.0890024740215566  0.0868322650548016   T   T   T
  0.6803727772411868  0.1713428578738058  0.0916026263872417   T   T   T
  0.8066977736403224  0.9236952407641744  0.0890807726791844   T   T   T
  0.6817961404707235  0.3362732906202833  0.1006103985309876   T   T   T
  0.8081175106173776  0.5908461032721755  0.0990471625842053   T   T   T
  0.8062813458560255  0.4222164928828697  0.0965399155947198   T   T   T
  0.6824511359224538  0.8415638042599290  0.1003478652080754   T   T   T
  0.4207185534241737  0.6807439546259221  0.1151663472812394   T   T   T
  0.5550281013409398  0.4065873224320606  0.1158124057551924   T   T   T
  0.6902213566182420  0.6790002795411603  0.1131049133473080   T   T   T
  0.3060064835372537  0.9257617753104577  0.0896530659186340   T   T   T
  0.4291171413919921  0.1685604741597161  0.0930864458863012   T   T   T
  0.5576822556746961  0.5897095821133995  0.1694332207547426   T   T   T
 
  0.00000000E+00  0.00000000E+00  0.00000000E+00
  0.00000000E+00  0.00000000E+00  0.00000000E+00
  0.00000000E+00  0.00000000E+00  0.00000000E+00
  0.00000000E+00  0.00000000E+00  0.00000000E+00
  0.00000000E+00  0.00000000E+00  0.00000000E+00
  0.00000000E+00  0.00000000E+00  0.00000000E+00
  0.00000000E+00  0.00000000E+00  0.00000000E+00
  0.00000000E+00  0.00000000E+00  0.00000000E+00
  0.00000000E+00  0.00000000E+00  0.00000000E+00
  0.00000000E+00  0.00000000E+00  0.00000000E+00
  0.00000000E+00  0.00000000E+00  0.00000000E+00
  0.00000000E+00  0.00000000E+00  0.00000000E+00
  0.00000000E+00  0.00000000E+00  0.00000000E+00
  0.00000000E+00  0.00000000E+00  0.00000000E+00
  0.00000000E+00  0.00000000E+00  0.00000000E+00
  0.00000000E+00  0.00000000E+00  0.00000000E+00
  0.00000000E+00  0.00000000E+00  0.00000000E+00
  0.00000000E+00  0.00000000E+00  0.00000000E+00
  0.00000000E+00  0.00000000E+00  0.00000000E+00
  0.00000000E+00  0.00000000E+00  0.00000000E+00
  0.00000000E+00  0.00000000E+00  0.00000000E+00
  0.00000000E+00  0.00000000E+00  0.00000000E+00
  0.00000000E+00  0.00000000E+00  0.00000000E+00
  0.00000000E+00  0.00000000E+00  0.00000000E+00
  0.00000000E+00  0.00000000E+00  0.00000000E+00
  0.00000000E+00  0.00000000E+00  0.00000000E+00
  0.00000000E+00  0.00000000E+00  0.00000000E+00
  0.00000000E+00  0.00000000E+00  0.00000000E+00
  0.00000000E+00  0.00000000E+00  0.00000000E+00
  0.00000000E+00  0.00000000E+00  0.00000000E+00
  0.00000000E+00  0.00000000E+00  0.00000000E+00
  0.00000000E+00  0.00000000E+00  0.00000000E+00
