Title                                   
   1.00000000000000     
     4.9440799999999996    0.0000000000000000    0.0000000000000000
     0.0000000000000000   17.1295089999999988    0.0000000000000000
     0.0000000000000000    0.0000000000000000   20.0000000000000000
    28     2     1
Selective dynamics
Direct
 -0.0051390414625318  0.1054779662412345  0.2943712247782681   T   T   T
  0.2423557195391085  0.1480678594822730  0.2949902796102558   T   T   T
  0.2389180227652156  0.2321849545353114  0.2981952364462120   T   T   T
 -0.0102377243678087  0.2749486767983333  0.3037041719745471   T   T   T
  0.0088518881218347  0.6002578185326382  0.3043446839118419   T   T   T
  0.2550441818429158  0.7269941596382155  0.2959688574338568   T   T   T
  0.0017021303249968  0.8533749401619253  0.2935328485109050   T   T   T
  0.2508533644144879  0.8955439379997058  0.2930927738454325   T   T   T
  0.2481072436336644  0.9795587893004247  0.2929421005229306   T   T   T
  0.0044733808893513  0.7693574881704219  0.2949238582208780   T   T   T
  0.4944097554463246  0.1061142114854818  0.2930979967736265   T   T   T
  0.7452831517381119  0.1478578545386846  0.2939437089918306   T   T   T
  0.7429994319246938  0.2318795965111719  0.2959563876402336   T   T   T
  0.4969959256028652  0.0219750787555959  0.2926568062242228   T   T   T
  0.7404640164967948  0.3950908740054163  0.3060683252029806   T   T   T
  0.7517952169586563  0.4799719239444419  0.3079788192866046   T   T   T
  0.4896086005517342  0.2728303585327370  0.2946993620103235   T   T   T
  0.5087632030272142  0.6020470935301162  0.2998223792605113   T   T   T
  0.7550696482701204  0.7272634691947448  0.2952476194584114   T   T   T
  0.5013771403292115  0.8533310654991226  0.2930821195965125   T   T   T
  0.7505003723116860  0.8955060161099634  0.2929561216307076   T   T   T
  0.7477747297551863  0.9796015951120705  0.2927771176501487   T   T   T
  0.5039312695713231  0.7692504262954268  0.2941636477842115   T   T   T
  0.7587395406651913  0.6433274060859959  0.2983989847903333   T   T   T
  0.2570158167001095  0.6429985701311007  0.3000211368254347   T   T   T
 -0.0027385542930961  0.0215149938761643  0.2933130000657657   T   T   T
  0.0016508223121393  0.5174441816317170  0.3153614683423158   T   T   T
  0.4989563258068472  0.3551599762668238  0.2935490346679033   T   T   T
  0.5117899659398601  0.5213709250089011  0.3032636564391120   T   T   T
 -0.0157026409813188  0.3556633694024054  0.3196289504494967   T   T   T
  0.2863940961651131  0.4353764232214316  0.3430073216541375   T   T   T
 
  0.00000000E+00  0.00000000E+00  0.00000000E+00
  0.00000000E+00  0.00000000E+00  0.00000000E+00
  0.00000000E+00  0.00000000E+00  0.00000000E+00
  0.00000000E+00  0.00000000E+00  0.00000000E+00
  0.00000000E+00  0.00000000E+00  0.00000000E+00
  0.00000000E+00  0.00000000E+00  0.00000000E+00
  0.00000000E+00  0.00000000E+00  0.00000000E+00
  0.00000000E+00  0.00000000E+00  0.00000000E+00
  0.00000000E+00  0.00000000E+00  0.00000000E+00
  0.00000000E+00  0.00000000E+00  0.00000000E+00
  0.00000000E+00  0.00000000E+00  0.00000000E+00
  0.00000000E+00  0.00000000E+00  0.00000000E+00
  0.00000000E+00  0.00000000E+00  0.00000000E+00
  0.00000000E+00  0.00000000E+00  0.00000000E+00
  0.00000000E+00  0.00000000E+00  0.00000000E+00
  0.00000000E+00  0.00000000E+00  0.00000000E+00
  0.00000000E+00  0.00000000E+00  0.00000000E+00
  0.00000000E+00  0.00000000E+00  0.00000000E+00
  0.00000000E+00  0.00000000E+00  0.00000000E+00
  0.00000000E+00  0.00000000E+00  0.00000000E+00
  0.00000000E+00  0.00000000E+00  0.00000000E+00
  0.00000000E+00  0.00000000E+00  0.00000000E+00
  0.00000000E+00  0.00000000E+00  0.00000000E+00
  0.00000000E+00  0.00000000E+00  0.00000000E+00
  0.00000000E+00  0.00000000E+00  0.00000000E+00
  0.00000000E+00  0.00000000E+00  0.00000000E+00
  0.00000000E+00  0.00000000E+00  0.00000000E+00
  0.00000000E+00  0.00000000E+00  0.00000000E+00
  0.00000000E+00  0.00000000E+00  0.00000000E+00
  0.00000000E+00  0.00000000E+00  0.00000000E+00
  0.00000000E+00  0.00000000E+00  0.00000000E+00
