Title                                   
   1.00000000000000     
     9.8694509999999998    0.0000000000000000    0.0000000000000000
     0.0000000000000000    8.5490480000000009    0.0000000000000000
     0.0000000000000000    0.0000000000000000   20.0000000000000000
    28     3     1
Selective dynamics
Direct
  0.0563708991276512  0.0913575436564754  0.0869358002202897   T   T   T
  0.9308013766514777  0.1745823979684548  0.0890439879435586   T   T   T
  0.0575293708480758  0.9239260181396483  0.0852311628604508   T   T   T
  0.9292879558844134  0.3421900514047822  0.0914681187592309   T   T   T
  0.0559316676219132  0.5898415442069762  0.0884541501871213   T   T   T
  0.9322728048432198  0.6739864759077635  0.0871450984483050   T   T   T
  0.0563221071335424  0.4233836723830052  0.0910003525484447   T   T   T
  0.9324596341984167  0.8412803248394310  0.0854073420984277   T   T   T
  0.3060817987783519  0.0873789288428561  0.0886772697276396   T   T   T
  0.1823630789424697  0.1738328939485489  0.0893803883323959   T   T   T
  0.3080253080812800  0.9216973155548545  0.0888259312746937   T   T   T
  0.1814620733290390  0.3397501889779346  0.0937899682345978   T   T   T
  0.3050973478198873  0.5881708162713063  0.1015735213310186   T   T   T
  0.1817241676187230  0.6713659462579308  0.0899814604756271   T   T   T
  0.1827373397794160  0.8379608964497324  0.0873783769677122   T   T   T
  0.5562979527265232  0.0857380054545218  0.0942767418633766   T   T   T
  0.4309150835774301  0.1691056885427574  0.0938352611048106   T   T   T
  0.4298582372487180  0.3351402561768013  0.1038976511778572   T   T   T
  0.4311758006309947  0.8361113339291478  0.0981890064211162   T   T   T
  0.8068346719526039  0.0906526489130209  0.0886507534784841   T   T   T
  0.6801233956798093  0.1706765821876917  0.0939764157705698   T   T   T
  0.8073766579475621  0.9255623962772852  0.0870415417369248   T   T   T
  0.6778455837827333  0.3368408030241830  0.1025604337184698   T   T   T
  0.8056545926322903  0.5948100401040800  0.0921790243677261   T   T   T
  0.8030023380945378  0.4259942769266347  0.0960852331803290   T   T   T
  0.6845908846990342  0.8388799011455553  0.0912851517949945   T   T   T
  0.4226463053762867  0.6757498245944679  0.1162938685442362   T   T   T
  0.5519149103463560  0.4088172050730720  0.1191646017958057   T   T   T
  0.6872179847950073  0.6814278391735009  0.0946922128847916   T   T   T
  0.5576446763647341  0.9185043033993259  0.0946915058527579   T   T   T
  0.3047495394798866  0.4213488558754864  0.1016521803167733   T   T   T
  0.5633234540076213  0.5941810243927697  0.1729104865814791   T   T   T
 
  0.00000000E+00  0.00000000E+00  0.00000000E+00
  0.00000000E+00  0.00000000E+00  0.00000000E+00
  0.00000000E+00  0.00000000E+00  0.00000000E+00
  0.00000000E+00  0.00000000E+00  0.00000000E+00
  0.00000000E+00  0.00000000E+00  0.00000000E+00
  0.00000000E+00  0.00000000E+00  0.00000000E+00
  0.00000000E+00  0.00000000E+00  0.00000000E+00
  0.00000000E+00  0.00000000E+00  0.00000000E+00
  0.00000000E+00  0.00000000E+00  0.00000000E+00
  0.00000000E+00  0.00000000E+00  0.00000000E+00
  0.00000000E+00  0.00000000E+00  0.00000000E+00
  0.00000000E+00  0.00000000E+00  0.00000000E+00
  0.00000000E+00  0.00000000E+00  0.00000000E+00
  0.00000000E+00  0.00000000E+00  0.00000000E+00
  0.00000000E+00  0.00000000E+00  0.00000000E+00
  0.00000000E+00  0.00000000E+00  0.00000000E+00
  0.00000000E+00  0.00000000E+00  0.00000000E+00
  0.00000000E+00  0.00000000E+00  0.00000000E+00
  0.00000000E+00  0.00000000E+00  0.00000000E+00
  0.00000000E+00  0.00000000E+00  0.00000000E+00
  0.00000000E+00  0.00000000E+00  0.00000000E+00
  0.00000000E+00  0.00000000E+00  0.00000000E+00
  0.00000000E+00  0.00000000E+00  0.00000000E+00
  0.00000000E+00  0.00000000E+00  0.00000000E+00
  0.00000000E+00  0.00000000E+00  0.00000000E+00
  0.00000000E+00  0.00000000E+00  0.00000000E+00
  0.00000000E+00  0.00000000E+00  0.00000000E+00
  0.00000000E+00  0.00000000E+00  0.00000000E+00
  0.00000000E+00  0.00000000E+00  0.00000000E+00
  0.00000000E+00  0.00000000E+00  0.00000000E+00
  0.00000000E+00  0.00000000E+00  0.00000000E+00
  0.00000000E+00  0.00000000E+00  0.00000000E+00
