Title                                   
   1.00000000000000     
     9.8694509999999998    0.0000000000000000    0.0000000000000000
     0.0000000000000000    8.5490480000000009    0.0000000000000000
     0.0000000000000000    0.0000000000000000   20.0000000000000000
    27     4     1
Selective dynamics
Direct
  0.0562122219252075  0.0922222080825894  0.0836265909719205   T   T   T
  0.9305101051242251  0.1749587046266711  0.0864659999857532   T   T   T
  0.0562484672200757  0.9246412230412376  0.0832469284393157   T   T   T
  0.9289672894529023  0.3419851979565923  0.0910348228119194   T   T   T
  0.0562502295915905  0.5896346689203940  0.0877336941957668   T   T   T
  0.9318949834424074  0.6735423597522291  0.0892220233151123   T   T   T
  0.0562440628100995  0.4234681601058402  0.0896420675531305   T   T   T
  0.9317249551534498  0.8402561646385871  0.0860580347932524   T   T   T
  0.3055592383242485  0.0895614577778730  0.0862185062954647   T   T   T
  0.1819058599122318  0.1749513575857123  0.0860200505074009   T   T   T
  0.3061182149359731  0.9240844827545388  0.0865368770780591   T   T   T
  0.1834685279383033  0.3419642359228462  0.0905469834698240   T   T   T
  0.3052288730564148  0.5939639828636641  0.0991074708070715   T   T   T
  0.1806150054656866  0.6735501126324163  0.0886116670928185   T   T   T
  0.3104780592532305  0.4247085742922703  0.0984614329395896   T   T   T
  0.1807920603380339  0.8402133229444561  0.0854786133309266   T   T   T
  0.5562560818983607  0.0824352477389791  0.0957423316356277   T   T   T
  0.4319247687552296  0.1673242299681381  0.0934006767095156   T   T   T
  0.4342889515314772  0.3322113229297508  0.1027537593570345   T   T   T
  0.4271197453271228  0.8382645641898946  0.0973614093123903   T   T   T
  0.8069414857255484  0.0895729787584822  0.0869429995301670   T   T   T
  0.6806246289088650  0.1673068913788906  0.0940604463350967   T   T   T
  0.8064657934789682  0.9241694792246327  0.0873790320009221   T   T   T
  0.6781479486654610  0.3321913340080571  0.1033894238672107   T   T   T
  0.8073707056126270  0.5940328828399708  0.1001761755436018   T   T   T
  0.8019854994348731  0.4247465699310939  0.0993583802223790   T   T   T
  0.6855365572481243  0.8383717381446367  0.0982234183938626   T   T   T
  0.4193500549892228  0.6842357360835499  0.1122891593441723   T   T   T
  0.5560352555473576  0.4012528711569456  0.1185111134140174   T   T   T
  0.6934479379529928  0.6845010728798844  0.1135510532867720   T   T   T
  0.5562853551298442  0.9160567428952141  0.0981204828624933   T   T   T
  0.5556400758498522  0.5898661239739644  0.1664033745974277   T   T   T
 
  0.00000000E+00  0.00000000E+00  0.00000000E+00
  0.00000000E+00  0.00000000E+00  0.00000000E+00
  0.00000000E+00  0.00000000E+00  0.00000000E+00
  0.00000000E+00  0.00000000E+00  0.00000000E+00
  0.00000000E+00  0.00000000E+00  0.00000000E+00
  0.00000000E+00  0.00000000E+00  0.00000000E+00
  0.00000000E+00  0.00000000E+00  0.00000000E+00
  0.00000000E+00  0.00000000E+00  0.00000000E+00
  0.00000000E+00  0.00000000E+00  0.00000000E+00
  0.00000000E+00  0.00000000E+00  0.00000000E+00
  0.00000000E+00  0.00000000E+00  0.00000000E+00
  0.00000000E+00  0.00000000E+00  0.00000000E+00
  0.00000000E+00  0.00000000E+00  0.00000000E+00
  0.00000000E+00  0.00000000E+00  0.00000000E+00
  0.00000000E+00  0.00000000E+00  0.00000000E+00
  0.00000000E+00  0.00000000E+00  0.00000000E+00
  0.00000000E+00  0.00000000E+00  0.00000000E+00
  0.00000000E+00  0.00000000E+00  0.00000000E+00
  0.00000000E+00  0.00000000E+00  0.00000000E+00
  0.00000000E+00  0.00000000E+00  0.00000000E+00
  0.00000000E+00  0.00000000E+00  0.00000000E+00
  0.00000000E+00  0.00000000E+00  0.00000000E+00
  0.00000000E+00  0.00000000E+00  0.00000000E+00
  0.00000000E+00  0.00000000E+00  0.00000000E+00
  0.00000000E+00  0.00000000E+00  0.00000000E+00
  0.00000000E+00  0.00000000E+00  0.00000000E+00
  0.00000000E+00  0.00000000E+00  0.00000000E+00
  0.00000000E+00  0.00000000E+00  0.00000000E+00
  0.00000000E+00  0.00000000E+00  0.00000000E+00
  0.00000000E+00  0.00000000E+00  0.00000000E+00
  0.00000000E+00  0.00000000E+00  0.00000000E+00
  0.00000000E+00  0.00000000E+00  0.00000000E+00
