Title                                   
   1.00000000000000     
     9.8694509999999998    0.0000000000000000    0.0000000000000000
     0.0000000000000000    8.5490480000000009    0.0000000000000000
     0.0000000000000000    0.0000000000000000   20.0000000000000000
    28     3     1
Selective dynamics
Direct
  0.0557649664832026  0.0891085574767594  0.0837083986727107   T   T   T
  0.9313146385155500  0.1735569656328143  0.0847656142773424   T   T   T
  0.0570898412721601  0.9220471574379367  0.0841238501704217   T   T   T
  0.9312754355028863  0.3400921240857659  0.0872467742289693   T   T   T
  0.0566932918980480  0.5908411426923031  0.0857910878929279   T   T   T
  0.0560237922079518  0.4236041436359427  0.0862556895093116   T   T   T
  0.9322470050448657  0.8383387982642396  0.0861457647673069   T   T   T
  0.3054453308454521  0.0888677947101705  0.0875251828165970   T   T   T
  0.1816544209853305  0.1724567556029930  0.0858048099240816   T   T   T
  0.1810975182248348  0.3395219553727264  0.0880281851224449   T   T   T
  0.3036568308968148  0.5886795403783356  0.1002274076352122   T   T   T
  0.1808982896277913  0.6735902690937359  0.0887478085307088   T   T   T
  0.3063662276966765  0.4208951183524429  0.0971409064037223   T   T   T
  0.1825586866645351  0.8407927304135433  0.0868849998419969   T   T   T
  0.5556516864563443  0.0890612049390710  0.0920978700346130   T   T   T
  0.5545293131696726  0.9231830975860410  0.0985389942175638   T   T   T
  0.4297375558072722  0.3332067455711136  0.1016366998513827   T   T   T
  0.4272181664374393  0.8419656020843714  0.1025354481921252   T   T   T
  0.8065821535756403  0.0889076878807784  0.0861043844819917   T   T   T
  0.6807228162445372  0.1715476134658488  0.0903506105609731   T   T   T
  0.8072763649921094  0.9225929140963024  0.0884254518991938   T   T   T
  0.6824191692878661  0.3379489846624563  0.0997059616080542   T   T   T
  0.8107918102983313  0.5924743656599417  0.0997769801358589   T   T   T
  0.8069183553101094  0.4240368374033448  0.0960569811816755   T   T   T
  0.6823459467424913  0.8423282755764699  0.1001092873569413   T   T   T
  0.4187694317163674  0.6816948283459596  0.1167514191529874   T   T   T
  0.5545240360084717  0.4060270864857617  0.1149959617159208   T   T   T
  0.6942870033275927  0.6801135889468189  0.1153888284223600   T   T   T
  0.3054856605685238  0.9253976280272549  0.0892955935794492   T   T   T
  0.4290961076985457  0.1681939864510736  0.0913689387189484   T   T   T
  0.9330328240618244  0.6724610697392667  0.0873536991357586   T   T   T
  0.5581643224307701  0.5867114299284181  0.1827854099604641   T   T   T
 
  0.00000000E+00  0.00000000E+00  0.00000000E+00
  0.00000000E+00  0.00000000E+00  0.00000000E+00
  0.00000000E+00  0.00000000E+00  0.00000000E+00
  0.00000000E+00  0.00000000E+00  0.00000000E+00
  0.00000000E+00  0.00000000E+00  0.00000000E+00
  0.00000000E+00  0.00000000E+00  0.00000000E+00
  0.00000000E+00  0.00000000E+00  0.00000000E+00
  0.00000000E+00  0.00000000E+00  0.00000000E+00
  0.00000000E+00  0.00000000E+00  0.00000000E+00
  0.00000000E+00  0.00000000E+00  0.00000000E+00
  0.00000000E+00  0.00000000E+00  0.00000000E+00
  0.00000000E+00  0.00000000E+00  0.00000000E+00
  0.00000000E+00  0.00000000E+00  0.00000000E+00
  0.00000000E+00  0.00000000E+00  0.00000000E+00
  0.00000000E+00  0.00000000E+00  0.00000000E+00
  0.00000000E+00  0.00000000E+00  0.00000000E+00
  0.00000000E+00  0.00000000E+00  0.00000000E+00
  0.00000000E+00  0.00000000E+00  0.00000000E+00
  0.00000000E+00  0.00000000E+00  0.00000000E+00
  0.00000000E+00  0.00000000E+00  0.00000000E+00
  0.00000000E+00  0.00000000E+00  0.00000000E+00
  0.00000000E+00  0.00000000E+00  0.00000000E+00
  0.00000000E+00  0.00000000E+00  0.00000000E+00
  0.00000000E+00  0.00000000E+00  0.00000000E+00
  0.00000000E+00  0.00000000E+00  0.00000000E+00
  0.00000000E+00  0.00000000E+00  0.00000000E+00
  0.00000000E+00  0.00000000E+00  0.00000000E+00
  0.00000000E+00  0.00000000E+00  0.00000000E+00
  0.00000000E+00  0.00000000E+00  0.00000000E+00
  0.00000000E+00  0.00000000E+00  0.00000000E+00
  0.00000000E+00  0.00000000E+00  0.00000000E+00
  0.00000000E+00  0.00000000E+00  0.00000000E+00
