Title                                   
   1.00000000000000     
     9.8694509999999998    0.0000000000000000    0.0000000000000000
     0.0000000000000000    8.5490480000000009    0.0000000000000000
     0.0000000000000000    0.0000000000000000   20.0000000000000000
    28     3     1
Selective dynamics
Direct
  0.0566135199341301  0.0914034621374194  0.0824444048947422   T   T   T
  0.9312223952289674  0.1739978132036756  0.0848438901099120   T   T   T
  0.0558743275556250  0.9241071200989962  0.0824577802983500   T   T   T
  0.9306744809573814  0.3403814982282824  0.0901461173322173   T   T   T
  0.0567149501578424  0.5897412042835917  0.0879600893162518   T   T   T
  0.9313005270056289  0.6725140604950831  0.0893282109025322   T   T   T
  0.0571280553126703  0.4234113413364173  0.0893476082496745   T   T   T
  0.9304668931281286  0.8393696749814717  0.0850279742763558   T   T   T
  0.3054056267735999  0.0903133754250501  0.0845982260393604   T   T   T
  0.1820975230859594  0.1753792422714903  0.0847757454353106   T   T   T
  0.3055703467359759  0.9249759434570384  0.0854386097771777   T   T   T
  0.1840706352707333  0.3424740715770807  0.0893892912396833   T   T   T
  0.3065070397619528  0.5953157790615139  0.0986348023803697   T   T   T
  0.1813078260821059  0.6737175647933014  0.0888136227573924   T   T   T
  0.3116609245149982  0.4262051359497200  0.0968236556342851   T   T   T
  0.1806829597645449  0.8408354577115023  0.0852356521433269   T   T   T
  0.5558631528343035  0.0849364270027132  0.0926880441177053   T   T   T
  0.4315065522661190  0.1695527341041798  0.0905511734360342   T   T   T
  0.4340459893449466  0.3333408763357080  0.0992718286002370   T   T   T
  0.4283998740027272  0.8414937309123038  0.0955041628037773   T   T   T
  0.8074072832952416  0.0889914237784311  0.0846761102971106   T   T   T
  0.6815381566840774  0.1674250665356204  0.0910770238752039   T   T   T
  0.8053996578992848  0.9232210543628766  0.0853991122593402   T   T   T
  0.6809757381641404  0.3315984336833377  0.1006921446061401   T   T   T
  0.8068889028331580  0.5916811649685525  0.1012533832104732   T   T   T
  0.6887253922434939  0.6827596137038984  0.1151383488621858   T   T   T
  0.8041434824893485  0.4223052091124433  0.0990000919437395   T   T   T
  0.6820132822547395  0.8401213437595589  0.0967769753159344   T   T   T
  0.4219570947547284  0.6869034941270432  0.1126937167115331   T   T   T
  0.5578011137507626  0.4008812325679615  0.1158423343134293   T   T   T
  0.5544887776301669  0.9204573363312155  0.0957017663479619   T   T   T
  0.5511865182825242  0.5804341137025291  0.1841431025122864   T   T   T
 
  0.00000000E+00  0.00000000E+00  0.00000000E+00
  0.00000000E+00  0.00000000E+00  0.00000000E+00
  0.00000000E+00  0.00000000E+00  0.00000000E+00
  0.00000000E+00  0.00000000E+00  0.00000000E+00
  0.00000000E+00  0.00000000E+00  0.00000000E+00
  0.00000000E+00  0.00000000E+00  0.00000000E+00
  0.00000000E+00  0.00000000E+00  0.00000000E+00
  0.00000000E+00  0.00000000E+00  0.00000000E+00
  0.00000000E+00  0.00000000E+00  0.00000000E+00
  0.00000000E+00  0.00000000E+00  0.00000000E+00
  0.00000000E+00  0.00000000E+00  0.00000000E+00
  0.00000000E+00  0.00000000E+00  0.00000000E+00
  0.00000000E+00  0.00000000E+00  0.00000000E+00
  0.00000000E+00  0.00000000E+00  0.00000000E+00
  0.00000000E+00  0.00000000E+00  0.00000000E+00
  0.00000000E+00  0.00000000E+00  0.00000000E+00
  0.00000000E+00  0.00000000E+00  0.00000000E+00
  0.00000000E+00  0.00000000E+00  0.00000000E+00
  0.00000000E+00  0.00000000E+00  0.00000000E+00
  0.00000000E+00  0.00000000E+00  0.00000000E+00
  0.00000000E+00  0.00000000E+00  0.00000000E+00
  0.00000000E+00  0.00000000E+00  0.00000000E+00
  0.00000000E+00  0.00000000E+00  0.00000000E+00
  0.00000000E+00  0.00000000E+00  0.00000000E+00
  0.00000000E+00  0.00000000E+00  0.00000000E+00
  0.00000000E+00  0.00000000E+00  0.00000000E+00
  0.00000000E+00  0.00000000E+00  0.00000000E+00
  0.00000000E+00  0.00000000E+00  0.00000000E+00
  0.00000000E+00  0.00000000E+00  0.00000000E+00
  0.00000000E+00  0.00000000E+00  0.00000000E+00
  0.00000000E+00  0.00000000E+00  0.00000000E+00
  0.00000000E+00  0.00000000E+00  0.00000000E+00
