Title                                   
   1.00000000000000     
     9.8694509999999998    0.0000000000000000    0.0000000000000000
     0.0000000000000000    8.5490480000000009    0.0000000000000000
     0.0000000000000000    0.0000000000000000   20.0000000000000000
    28     3     1
Selective dynamics
Direct
  0.0561864490775072  0.0925335396081895  0.0875212198014535   T   T   T
  0.9305077597349484  0.1750552542234483  0.0886612575781868   T   T   T
  0.0561633271772074  0.9255395113396480  0.0870881082147443   T   T   T
  0.9287906985204986  0.3425647401855485  0.0903659157241080   T   T   T
  0.0562038453131812  0.5901114576886736  0.0881052217704403   T   T   T
  0.9322267673951765  0.6742555715597277  0.0890768647337386   T   T   T
  0.0562070942162148  0.4242940015525513  0.0893371306036916   T   T   T
  0.9322617653774751  0.8409244903212110  0.0882868810131081   T   T   T
  0.3055078422283660  0.0895901377227307  0.0893305294200691   T   T   T
  0.1818764319577979  0.1750368595124256  0.0886407499424679   T   T   T
  0.3045832015221622  0.9233155384825824  0.0898193933600878   T   T   T
  0.1836227157962197  0.3425552068031272  0.0903512801591754   T   T   T
  0.3063608736847652  0.5948760353287671  0.0952078971789682   T   T   T
  0.1801609642153998  0.6742618797097424  0.0890299908934806   T   T   T
  0.3099879659449779  0.4249370059692084  0.0944899298730331   T   T   T
  0.1800990311493522  0.8409239458758305  0.0882160409780209   T   T   T
  0.5562017722477981  0.0824564148230502  0.0935908297010682   T   T   T
  0.4317039437906144  0.1687491714699528  0.0924702174760788   T   T   T
  0.5561918469433759  0.9155787595423839  0.0957399119915784   T   T   T
  0.4354620109088495  0.3350263690120728  0.0970954247199615   T   T   T
  0.4268465768161911  0.8354867050851122  0.0960439092811954   T   T   T
  0.8069034365343968  0.0896080642584738  0.0893936788040674   T   T   T
  0.6807024129229450  0.1687489535522706  0.0925062373816683   T   T   T
  0.8077917791534341  0.9233470690992079  0.0899254343698072   T   T   T
  0.6769404379015920  0.3350134208250860  0.0971148883525161   T   T   T
  0.8061245654274644  0.5948242666048941  0.0953637545415504   T   T   T
  0.8024134353111618  0.4249221567760537  0.0945519599384913   T   T   T
  0.6855528343800162  0.8355896185842121  0.0962009122184757   T   T   T
  0.4226699659202606  0.6778003586876921  0.1022595206345949   T   T   T
  0.5561915853328524  0.4102186264648693  0.1039050305645430   T   T   T
  0.6898921112761790  0.6778826299031016  0.1025998553667050   T   T   T
  0.5573035518216251  0.5842182394281650  0.1933850234129586   T   T   T
 
  0.00000000E+00  0.00000000E+00  0.00000000E+00
  0.00000000E+00  0.00000000E+00  0.00000000E+00
  0.00000000E+00  0.00000000E+00  0.00000000E+00
  0.00000000E+00  0.00000000E+00  0.00000000E+00
  0.00000000E+00  0.00000000E+00  0.00000000E+00
  0.00000000E+00  0.00000000E+00  0.00000000E+00
  0.00000000E+00  0.00000000E+00  0.00000000E+00
  0.00000000E+00  0.00000000E+00  0.00000000E+00
  0.00000000E+00  0.00000000E+00  0.00000000E+00
  0.00000000E+00  0.00000000E+00  0.00000000E+00
  0.00000000E+00  0.00000000E+00  0.00000000E+00
  0.00000000E+00  0.00000000E+00  0.00000000E+00
  0.00000000E+00  0.00000000E+00  0.00000000E+00
  0.00000000E+00  0.00000000E+00  0.00000000E+00
  0.00000000E+00  0.00000000E+00  0.00000000E+00
  0.00000000E+00  0.00000000E+00  0.00000000E+00
  0.00000000E+00  0.00000000E+00  0.00000000E+00
  0.00000000E+00  0.00000000E+00  0.00000000E+00
  0.00000000E+00  0.00000000E+00  0.00000000E+00
  0.00000000E+00  0.00000000E+00  0.00000000E+00
  0.00000000E+00  0.00000000E+00  0.00000000E+00
  0.00000000E+00  0.00000000E+00  0.00000000E+00
  0.00000000E+00  0.00000000E+00  0.00000000E+00
  0.00000000E+00  0.00000000E+00  0.00000000E+00
  0.00000000E+00  0.00000000E+00  0.00000000E+00
  0.00000000E+00  0.00000000E+00  0.00000000E+00
  0.00000000E+00  0.00000000E+00  0.00000000E+00
  0.00000000E+00  0.00000000E+00  0.00000000E+00
  0.00000000E+00  0.00000000E+00  0.00000000E+00
  0.00000000E+00  0.00000000E+00  0.00000000E+00
  0.00000000E+00  0.00000000E+00  0.00000000E+00
  0.00000000E+00  0.00000000E+00  0.00000000E+00
