Title                                   
   1.00000000000000     
     8.5490480000000009    0.0000000000000000    0.0000000000000000
     0.0000000000000000    8.5490480000000009    0.0000000000000000
     0.0000000000000000    0.0000000000000000   20.0000000000000000
    22     2     1
Selective dynamics
Direct
  0.9108808691687211  0.2070214647881781  0.0954467409340831   T   T   T
  0.9079733972579288  0.5012347169996254  0.0953094807313506   T   T   T
  0.9095998190567426  0.7972807155414621  0.0954599032035173   T   T   T
  0.1975497800081691  0.0851876398499607  0.0954790684802740   T   T   T
  0.0764400949905035  0.2062804121275216  0.0954601202868900   T   T   T
  0.1982719782851236  0.9196499689205975  0.0954832645993346   T   T   T
  0.1567898471670956  0.6485262619800013  0.0953622985612336   T   T   T
  0.0780904700107917  0.5023621790270342  0.0953274549764277   T   T   T
  0.1591706232619616  0.3539050984981058  0.0953205641443101   T   T   T
  0.0751583102708295  0.7965544531799261  0.0954662065969839   T   T   T
  0.4935746160206769  0.0868464136152795  0.0953556897935099   T   T   T
  0.3451607081810678  0.1679365432374968  0.0953461292031588   T   T   T
  0.4924260896653748  0.9167460501911237  0.0953587628185903   T   T   T
  0.3462935955182145  0.8380282649696016  0.0953815453590384   T   T   T
  0.7877644022643270  0.0839324291236704  0.0954632612541218   T   T   T
  0.6397200490774428  0.1655708971249304  0.0953471820069238   T   T   T
  0.7884841936165516  0.9183828510664599  0.0954708160521930   T   T   T
  0.8268628473534919  0.6496711118578671  0.0953097136179850   T   T   T
  0.8292532371874697  0.3550669234776609  0.0953136911588449   T   T   T
  0.6408523358829646  0.8356398444726068  0.0953308361671972   T   T   T
  0.3250990915007936  0.6697328003395131  0.0952909812097417   T   T   T
  0.6609366245647068  0.3338554751581658  0.0952380268127276   T   T   T
  0.3220504962055822  0.3307877944244734  0.0951937656392487   T   T   T
  0.6639847433080093  0.6727868711949557  0.0951828451735780   T   T   T
  0.4930237801754521  0.5018028188337954  0.0950066512187137   T   T   T
 
  0.00000000E+00  0.00000000E+00  0.00000000E+00
  0.00000000E+00  0.00000000E+00  0.00000000E+00
  0.00000000E+00  0.00000000E+00  0.00000000E+00
  0.00000000E+00  0.00000000E+00  0.00000000E+00
  0.00000000E+00  0.00000000E+00  0.00000000E+00
  0.00000000E+00  0.00000000E+00  0.00000000E+00
  0.00000000E+00  0.00000000E+00  0.00000000E+00
  0.00000000E+00  0.00000000E+00  0.00000000E+00
  0.00000000E+00  0.00000000E+00  0.00000000E+00
  0.00000000E+00  0.00000000E+00  0.00000000E+00
  0.00000000E+00  0.00000000E+00  0.00000000E+00
  0.00000000E+00  0.00000000E+00  0.00000000E+00
  0.00000000E+00  0.00000000E+00  0.00000000E+00
  0.00000000E+00  0.00000000E+00  0.00000000E+00
  0.00000000E+00  0.00000000E+00  0.00000000E+00
  0.00000000E+00  0.00000000E+00  0.00000000E+00
  0.00000000E+00  0.00000000E+00  0.00000000E+00
  0.00000000E+00  0.00000000E+00  0.00000000E+00
  0.00000000E+00  0.00000000E+00  0.00000000E+00
  0.00000000E+00  0.00000000E+00  0.00000000E+00
  0.00000000E+00  0.00000000E+00  0.00000000E+00
  0.00000000E+00  0.00000000E+00  0.00000000E+00
  0.00000000E+00  0.00000000E+00  0.00000000E+00
  0.00000000E+00  0.00000000E+00  0.00000000E+00
  0.00000000E+00  0.00000000E+00  0.00000000E+00
