Title                                   
   1.00000000000000     
     4.9440799999999996    0.0000000000000000    0.0000000000000000
     0.0000000000000000   17.1295089999999988    0.0000000000000000
     0.0000000000000000    0.0000000000000000   20.0000000000000000
    29     1     1
Selective dynamics
Direct
 -0.0043080932847556  0.1044080633225809  0.2976745201671293   T   T   T
  0.2442120106247548  0.1467893700018644  0.2977469127364269   T   T   T
  0.2421614971997335  0.2301416009223939  0.2989223989154020   T   T   T
 -0.0105023789878415  0.2714703279291354  0.3018590712943541   T   T   T
  0.0067013621817966  0.6042841811975270  0.2988191757936741   T   T   T
  0.2545558830471789  0.7288459655141455  0.2978590057484363   T   T   T
  0.0014637242718128  0.8542226299691064  0.2969846243377237   T   T   T
  0.2507303432567732  0.8959841319349117  0.2971312579393539   T   T   T
  0.2484401553854705  0.9792764946821029  0.2970957899183610   T   T   T
  0.0037541497439872  0.7707999055482143  0.2970301565167534   T   T   T
  0.4951036165574468  0.1045939491451883  0.2968956058378778   T   T   T
  0.7451665184144769  0.1457044039971091  0.2972688065503842   T   T   T
  0.7421048037189784  0.2290518217334948  0.2980188232803750   T   T   T
  0.4975215071399529  0.0211457806254610  0.2969130630080651   T   T   T
  0.7522748992725519  0.3922560106506051  0.3007795116297703   T   T   T
  0.7588636510480039  0.4796987538527311  0.3009568274671900   T   T   T
  0.4927392721258232  0.2713225316406513  0.2968232938744773   T   T   T
  0.5081226538383141  0.6035044188769018  0.3026417913106557   T   T   T
  0.7543777967509732  0.7293976836341909  0.2975302748714474   T   T   T
  0.5014988146386770  0.8542429903649218  0.2972514758535531   T   T   T
  0.7508073550348379  0.8959128657713300  0.2970631053959666   T   T   T
  0.7484099487647486  0.9794319754375671  0.2970156838845826   T   T   T
  0.5038066212424477  0.7708872074330861  0.2976497758336675   T   T   T
  0.7562145855579273  0.6460233389725381  0.2991751002072300   T   T   T
  0.2567751997573666  0.6456239299782495  0.2997371336519657   T   T   T
 -0.0020981671311580  0.0210334374444540  0.2972247646503431   T   T   T
  0.5179365800501210  0.5211057336832160  0.3087244578376432   T   T   T
  0.9969048875021697  0.5218172502447721  0.3000845210770717   T   T   T
  0.5094984169446546  0.3534890279748583  0.2962161676033926   T   T   T
 -0.0181206420767650  0.3508894269345537  0.3084401119062775   T   T   T
  0.2548900274095423  0.4379867905821336  0.3175267909004006   T   T   T
 
  0.00000000E+00  0.00000000E+00  0.00000000E+00
  0.00000000E+00  0.00000000E+00  0.00000000E+00
  0.00000000E+00  0.00000000E+00  0.00000000E+00
  0.00000000E+00  0.00000000E+00  0.00000000E+00
  0.00000000E+00  0.00000000E+00  0.00000000E+00
  0.00000000E+00  0.00000000E+00  0.00000000E+00
  0.00000000E+00  0.00000000E+00  0.00000000E+00
  0.00000000E+00  0.00000000E+00  0.00000000E+00
  0.00000000E+00  0.00000000E+00  0.00000000E+00
  0.00000000E+00  0.00000000E+00  0.00000000E+00
  0.00000000E+00  0.00000000E+00  0.00000000E+00
  0.00000000E+00  0.00000000E+00  0.00000000E+00
  0.00000000E+00  0.00000000E+00  0.00000000E+00
  0.00000000E+00  0.00000000E+00  0.00000000E+00
  0.00000000E+00  0.00000000E+00  0.00000000E+00
  0.00000000E+00  0.00000000E+00  0.00000000E+00
  0.00000000E+00  0.00000000E+00  0.00000000E+00
  0.00000000E+00  0.00000000E+00  0.00000000E+00
  0.00000000E+00  0.00000000E+00  0.00000000E+00
  0.00000000E+00  0.00000000E+00  0.00000000E+00
  0.00000000E+00  0.00000000E+00  0.00000000E+00
  0.00000000E+00  0.00000000E+00  0.00000000E+00
  0.00000000E+00  0.00000000E+00  0.00000000E+00
  0.00000000E+00  0.00000000E+00  0.00000000E+00
  0.00000000E+00  0.00000000E+00  0.00000000E+00
  0.00000000E+00  0.00000000E+00  0.00000000E+00
  0.00000000E+00  0.00000000E+00  0.00000000E+00
  0.00000000E+00  0.00000000E+00  0.00000000E+00
  0.00000000E+00  0.00000000E+00  0.00000000E+00
  0.00000000E+00  0.00000000E+00  0.00000000E+00
  0.00000000E+00  0.00000000E+00  0.00000000E+00
