Title                                   
   1.00000000000000     
     8.5490480000000009    0.0000000000000000    0.0000000000000000
     0.0000000000000000    8.5490480000000009    0.0000000000000000
     0.0000000000000000    0.0000000000000000   20.0000000000000000
    21     3     1
Selective dynamics
Direct
  0.9102630216844412  0.2080268379914905  0.0977308300532487   T   T   T
  0.9123470990831748  0.8016389437447516  0.0978207867188106   T   T   T
  0.1992592651779927  0.0824711012934578  0.0978126844196981   T   T   T
  0.0740356277708421  0.2049545679469688  0.0978350297774631   T   T   T
  0.1546406568463042  0.6504812285841768  0.0977371226118923   T   T   T
  0.0733026189962744  0.5031214705283911  0.0979063095167825   T   T   T
  0.1535265516459050  0.3556726368691212  0.0979261376790884   T   T   T
  0.0781503931049255  0.7994665168776853  0.0977364245582708   T   T   T
  0.4950316588229347  0.0829447855865714  0.0977123955031969   T   T   T
  0.3456435460304797  0.1626021519852882  0.0977966455872350   T   T   T
  0.4946089470766101  0.9140283853297808  0.0978575440160782   T   T   T
  0.3462291654440939  0.8337337113502061  0.0978537431239202   T   T   T
  0.7876403373892245  0.0859245004417998  0.0976570014151934   T   T   T
  0.6403995398385772  0.1652453161568958  0.0976785576660661   T   T   T
  0.7899613783570376  0.9195063614659854  0.0978123050992511   T   T   T
  0.8299363070667077  0.6520935746058802  0.0980608987314571   T   T   T
  0.8273691652299279  0.3583690617301084  0.0978801511395303   T   T   T
  0.6435082206459829  0.8348073838581942  0.0980046302023725   T   T   T
  0.3220909757702932  0.3331979899763818  0.0981992437286997   T   T   T
  0.3215556603989311  0.6707331689904977  0.0979744401518295   T   T   T
  0.6625512602905600  0.3359742118014497  0.0981584337181850   T   T   T
  0.9067306851970738  0.5046461793886935  0.0980493422915201   T   T   T
  0.6703796129547475  0.6725177926680196  0.0983741424882645   T   T   T
  0.1982622112942409  0.9178392570102515  0.0978212292888779   T   T   T
  0.4879880938827111  0.4947928638179657  0.0993089705130507   T   T   T
 
  0.00000000E+00  0.00000000E+00  0.00000000E+00
  0.00000000E+00  0.00000000E+00  0.00000000E+00
  0.00000000E+00  0.00000000E+00  0.00000000E+00
  0.00000000E+00  0.00000000E+00  0.00000000E+00
  0.00000000E+00  0.00000000E+00  0.00000000E+00
  0.00000000E+00  0.00000000E+00  0.00000000E+00
  0.00000000E+00  0.00000000E+00  0.00000000E+00
  0.00000000E+00  0.00000000E+00  0.00000000E+00
  0.00000000E+00  0.00000000E+00  0.00000000E+00
  0.00000000E+00  0.00000000E+00  0.00000000E+00
  0.00000000E+00  0.00000000E+00  0.00000000E+00
  0.00000000E+00  0.00000000E+00  0.00000000E+00
  0.00000000E+00  0.00000000E+00  0.00000000E+00
  0.00000000E+00  0.00000000E+00  0.00000000E+00
  0.00000000E+00  0.00000000E+00  0.00000000E+00
  0.00000000E+00  0.00000000E+00  0.00000000E+00
  0.00000000E+00  0.00000000E+00  0.00000000E+00
  0.00000000E+00  0.00000000E+00  0.00000000E+00
  0.00000000E+00  0.00000000E+00  0.00000000E+00
  0.00000000E+00  0.00000000E+00  0.00000000E+00
  0.00000000E+00  0.00000000E+00  0.00000000E+00
  0.00000000E+00  0.00000000E+00  0.00000000E+00
  0.00000000E+00  0.00000000E+00  0.00000000E+00
  0.00000000E+00  0.00000000E+00  0.00000000E+00
  0.00000000E+00  0.00000000E+00  0.00000000E+00
