Title                                   
   1.00000000000000     
     9.8694509999999998    0.0000000000000000    0.0000000000000000
     0.0000000000000000    8.5490480000000009    0.0000000000000000
     0.0000000000000000    0.0000000000000000   20.0000000000000000
    26     5     1
Selective dynamics
Direct
  0.0565493017375627  0.0925503476901871  0.0886553783692513   T   T   T
  0.9307326760765390  0.1749451060986667  0.0909100564182243   T   T   T
  0.0567952289007224  0.9244754764091261  0.0874059441657184   T   T   T
  0.9292380791832953  0.3420687994106092  0.0940682742641912   T   T   T
  0.0557797146916131  0.5899654256254614  0.0896902681480269   T   T   T
  0.9320351627952850  0.6734722797742135  0.0908154759939169   T   T   T
  0.0575684688426469  0.4232819650048777  0.0924000030124580   T   T   T
  0.9319149783334338  0.8409100176336415  0.0889174191307072   T   T   T
  0.3054035008290021  0.0884555013404004  0.0886442827656079   T   T   T
  0.1827603693501803  0.1753501803488391  0.0897537114115097   T   T   T
  0.3063368171809472  0.9231787426806525  0.0884469557174189   T   T   T
  0.1832774774958995  0.3415881287602193  0.0925386399552487   T   T   T
  0.3076078337880278  0.5933428352341088  0.0943286124394979   T   T   T
  0.1810671896048924  0.6717815312007709  0.0888134672648926   T   T   T
  0.1813650022076732  0.8389261222880500  0.0876487820698178   T   T   T
  0.5554788971968599  0.0836221316609787  0.0947769197960209   T   T   T
  0.4315096214329954  0.1680227950832085  0.0923354149248888   T   T   T
  0.4350117977679820  0.3346851563722545  0.0974051231534930   T   T   T
  0.4275253080086830  0.8348946883968086  0.0941815628652462   T   T   T
  0.8068058946332891  0.0900356114291830  0.0904065565974594   T   T   T
  0.6800193424987130  0.1686134958849488  0.0943819478347359   T   T   T
  0.8067907464631806  0.9244565808537941  0.0897512646293117   T   T   T
  0.6762201600160035  0.3347024192837261  0.1002161257272320   T   T   T
  0.8054161115474237  0.5948632031502145  0.0984892080337471   T   T   T
  0.8015808800812709  0.4252274162487072  0.0988524278163104   T   T   T
  0.6848115976259850  0.8373580245244083  0.0960840738368143   T   T   T
  0.4235457964815379  0.6776138388413010  0.1013902770440971   T   T   T
  0.5532118272180936  0.4092085509907805  0.1081799931349867   T   T   T
  0.6890803271064674  0.6818043689698283  0.1064655978726071   T   T   T
  0.5562831185060674  0.9157286485521945  0.0960900979325420   T   T   T
  0.3117819849600826  0.4243902390734713  0.0953932296905470   T   T   T
  0.5561337874376490  0.5907263711843704  0.1782379079834889   T   T   T
 
  0.00000000E+00  0.00000000E+00  0.00000000E+00
  0.00000000E+00  0.00000000E+00  0.00000000E+00
  0.00000000E+00  0.00000000E+00  0.00000000E+00
  0.00000000E+00  0.00000000E+00  0.00000000E+00
  0.00000000E+00  0.00000000E+00  0.00000000E+00
  0.00000000E+00  0.00000000E+00  0.00000000E+00
  0.00000000E+00  0.00000000E+00  0.00000000E+00
  0.00000000E+00  0.00000000E+00  0.00000000E+00
  0.00000000E+00  0.00000000E+00  0.00000000E+00
  0.00000000E+00  0.00000000E+00  0.00000000E+00
  0.00000000E+00  0.00000000E+00  0.00000000E+00
  0.00000000E+00  0.00000000E+00  0.00000000E+00
  0.00000000E+00  0.00000000E+00  0.00000000E+00
  0.00000000E+00  0.00000000E+00  0.00000000E+00
  0.00000000E+00  0.00000000E+00  0.00000000E+00
  0.00000000E+00  0.00000000E+00  0.00000000E+00
  0.00000000E+00  0.00000000E+00  0.00000000E+00
  0.00000000E+00  0.00000000E+00  0.00000000E+00
  0.00000000E+00  0.00000000E+00  0.00000000E+00
  0.00000000E+00  0.00000000E+00  0.00000000E+00
  0.00000000E+00  0.00000000E+00  0.00000000E+00
  0.00000000E+00  0.00000000E+00  0.00000000E+00
  0.00000000E+00  0.00000000E+00  0.00000000E+00
  0.00000000E+00  0.00000000E+00  0.00000000E+00
  0.00000000E+00  0.00000000E+00  0.00000000E+00
  0.00000000E+00  0.00000000E+00  0.00000000E+00
  0.00000000E+00  0.00000000E+00  0.00000000E+00
  0.00000000E+00  0.00000000E+00  0.00000000E+00
  0.00000000E+00  0.00000000E+00  0.00000000E+00
  0.00000000E+00  0.00000000E+00  0.00000000E+00
  0.00000000E+00  0.00000000E+00  0.00000000E+00
  0.00000000E+00  0.00000000E+00  0.00000000E+00
