Title                                   
   1.00000000000000     
     9.8694509999999998    0.0000000000000000    0.0000000000000000
     0.0000000000000000    8.5490480000000009    0.0000000000000000
     0.0000000000000000    0.0000000000000000   20.0000000000000000
    28     2     1
Selective dynamics
Direct
  0.0559736908641596  0.0883941929316789  0.0931833717337263   T   T   T
  0.9314276278912951  0.1715867250394033  0.0934856885197425   T   T   T
  0.0574130058255490  0.9228445146002290  0.0933470655108704   T   T   T
  0.9346214778169576  0.3382664870538408  0.0930601797298143   T   T   T
  0.0572215921159219  0.5904869858447097  0.0924973926164156   T   T   T
  0.9337745424974440  0.6745262179093464  0.0931485639924733   T   T   T
  0.0576275052305079  0.4226257954031291  0.0923519960207899   T   T   T
  0.9317669164080576  0.8402915288751285  0.0935832543465543   T   T   T
  0.3056921738065542  0.0885818389811500  0.0948019107321680   T   T   T
  0.1802285906853884  0.1696247551921328  0.0934912718197675   T   T   T
  0.1796448556735198  0.3373017290780571  0.0931615044201852   T   T   T
  0.3039987195967323  0.5882527971731303  0.0950299797689812   T   T   T
  0.1810005282060540  0.6733503015256317  0.0934384965187526   T   T   T
  0.3023801037737696  0.4187023773152929  0.0949664308607217   T   T   T
  0.1820903837586503  0.8404467909373744  0.0937397611477099   T   T   T
  0.5552291233603711  0.0928986979960159  0.0968186798092578   T   T   T
  0.4284057680674066  0.1771522226037606  0.0963778572031893   T   T   T
  0.5543004888506375  0.9251559300009671  0.0966662691311490   T   T   T
  0.4264846274284411  0.6716121076209891  0.0968273595150684   T   T   T
  0.4296552049511341  0.8365549246251761  0.0962845471355731   T   T   T
  0.8054091643374073  0.0902028923765798  0.0948581055390108   T   T   T
  0.6815449825595363  0.1789089015352238  0.0964223841837273   T   T   T
  0.8052667585879376  0.9220578936770581  0.0948203888530072   T   T   T
  0.6883956209214280  0.3446113818371058  0.0968855928598001   T   T   T
  0.8109778809185512  0.5909028794512120  0.0945822114342982   T   T   T
  0.6862475596735484  0.6690248053160328  0.0964543749911189   T   T   T
  0.8125697952593577  0.4218005412294995  0.0946930190939073   T   T   T
  0.6797747780751163  0.8356348408705945  0.0961686442704286   T   T   T
  0.4222997275756443  0.3395649496609017  0.0969000562201677   T   T   T
  0.3060988127855828  0.9226930670852651  0.0948208679274353   T   T   T
  0.5556129924973542  0.5068159262534037  0.0980977740942365   T   T   T
 
  0.00000000E+00  0.00000000E+00  0.00000000E+00
  0.00000000E+00  0.00000000E+00  0.00000000E+00
  0.00000000E+00  0.00000000E+00  0.00000000E+00
  0.00000000E+00  0.00000000E+00  0.00000000E+00
  0.00000000E+00  0.00000000E+00  0.00000000E+00
  0.00000000E+00  0.00000000E+00  0.00000000E+00
  0.00000000E+00  0.00000000E+00  0.00000000E+00
  0.00000000E+00  0.00000000E+00  0.00000000E+00
  0.00000000E+00  0.00000000E+00  0.00000000E+00
  0.00000000E+00  0.00000000E+00  0.00000000E+00
  0.00000000E+00  0.00000000E+00  0.00000000E+00
  0.00000000E+00  0.00000000E+00  0.00000000E+00
  0.00000000E+00  0.00000000E+00  0.00000000E+00
  0.00000000E+00  0.00000000E+00  0.00000000E+00
  0.00000000E+00  0.00000000E+00  0.00000000E+00
  0.00000000E+00  0.00000000E+00  0.00000000E+00
  0.00000000E+00  0.00000000E+00  0.00000000E+00
  0.00000000E+00  0.00000000E+00  0.00000000E+00
  0.00000000E+00  0.00000000E+00  0.00000000E+00
  0.00000000E+00  0.00000000E+00  0.00000000E+00
  0.00000000E+00  0.00000000E+00  0.00000000E+00
  0.00000000E+00  0.00000000E+00  0.00000000E+00
  0.00000000E+00  0.00000000E+00  0.00000000E+00
  0.00000000E+00  0.00000000E+00  0.00000000E+00
  0.00000000E+00  0.00000000E+00  0.00000000E+00
  0.00000000E+00  0.00000000E+00  0.00000000E+00
  0.00000000E+00  0.00000000E+00  0.00000000E+00
  0.00000000E+00  0.00000000E+00  0.00000000E+00
  0.00000000E+00  0.00000000E+00  0.00000000E+00
  0.00000000E+00  0.00000000E+00  0.00000000E+00
  0.00000000E+00  0.00000000E+00  0.00000000E+00
