Title                                   
   1.00000000000000     
     9.8694509999999998    0.0000000000000000    0.0000000000000000
     0.0000000000000000    8.5490480000000009    0.0000000000000000
     0.0000000000000000    0.0000000000000000   20.0000000000000000
    30     1     1
Selective dynamics
Direct
  0.0556861263878637  0.0901868894035900  0.0828604315338095   T   T   T
  0.9313690747255269  0.1726595052551284  0.0847843426693698   T   T   T
  0.0571454621891408  0.9237450234315805  0.0828508003617273   T   T   T
  0.9309822170060787  0.3403059406282039  0.0882667556825399   T   T   T
  0.0567660740146260  0.5899173572565586  0.0849714319998043   T   T   T
  0.9324634237770427  0.6729496571017451  0.0876849625815670   T   T   T
  0.0569240692737989  0.4230715668618347  0.0860495981075218   T   T   T
  0.9320594508122677  0.8393482877742349  0.0853507563899194   T   T   T
  0.3052364217567123  0.0884333380451825  0.0875267201470906   T   T   T
  0.1814890237609274  0.1719189708347477  0.0849836503101066   T   T   T
  0.1823190832303977  0.3396904529074390  0.0877096346472732   T   T   T
  0.3039378099385938  0.5901411030429830  0.0988283141726679   T   T   T
  0.1817446997840156  0.6742002225805748  0.0870458111668121   T   T   T
  0.3056370259234126  0.4223000912513716  0.0967806333202671   T   T   T
  0.1817926800395100  0.8408742831032189  0.0854813816449165   T   T   T
  0.5562547628709285  0.0873235430292614  0.0933290419314347   T   T   T
  0.4304932300113702  0.1698661657559303  0.0927759466115587   T   T   T
  0.5549514320041802  0.9226903583450452  0.0981169071988692   T   T   T
  0.4303094253048389  0.3354004267084503  0.1015648508932682   T   T   T
  0.4182995903979916  0.6815053028021126  0.1152391523275417   T   T   T
  0.5562836116787117  0.4068675390495411  0.1159146202537203   T   T   T
  0.4270920024206210  0.8417866130662771  0.1010827869793703   T   T   T
  0.8066355199907266  0.0889381491416467  0.0863705992007085   T   T   T
  0.6816354394397272  0.1706795350544787  0.0918952575721031   T   T   T
  0.8068561841467876  0.9228197138582459  0.0879385681033749   T   T   T
  0.6817420979357104  0.3358741748207346  0.1015802231567749   T   T   T
  0.8090259248144022  0.5900842144453453  0.0994836984116529   T   T   T
  0.6927025974996065  0.6796060444561478  0.1138666758567270   T   T   T
  0.8076902123505690  0.4218193751745404  0.0976631826601203   T   T   T
  0.6823722394791448  0.8402997054978812  0.0992115133020611   T   T   T
  0.3050800990402389  0.9241836985864366  0.0887700925601728   T   T   T
  0.5566619879945365  0.5907587507295400  0.1696966582451827   T   T   T
 
  0.00000000E+00  0.00000000E+00  0.00000000E+00
  0.00000000E+00  0.00000000E+00  0.00000000E+00
  0.00000000E+00  0.00000000E+00  0.00000000E+00
  0.00000000E+00  0.00000000E+00  0.00000000E+00
  0.00000000E+00  0.00000000E+00  0.00000000E+00
  0.00000000E+00  0.00000000E+00  0.00000000E+00
  0.00000000E+00  0.00000000E+00  0.00000000E+00
  0.00000000E+00  0.00000000E+00  0.00000000E+00
  0.00000000E+00  0.00000000E+00  0.00000000E+00
  0.00000000E+00  0.00000000E+00  0.00000000E+00
  0.00000000E+00  0.00000000E+00  0.00000000E+00
  0.00000000E+00  0.00000000E+00  0.00000000E+00
  0.00000000E+00  0.00000000E+00  0.00000000E+00
  0.00000000E+00  0.00000000E+00  0.00000000E+00
  0.00000000E+00  0.00000000E+00  0.00000000E+00
  0.00000000E+00  0.00000000E+00  0.00000000E+00
  0.00000000E+00  0.00000000E+00  0.00000000E+00
  0.00000000E+00  0.00000000E+00  0.00000000E+00
  0.00000000E+00  0.00000000E+00  0.00000000E+00
  0.00000000E+00  0.00000000E+00  0.00000000E+00
  0.00000000E+00  0.00000000E+00  0.00000000E+00
  0.00000000E+00  0.00000000E+00  0.00000000E+00
  0.00000000E+00  0.00000000E+00  0.00000000E+00
  0.00000000E+00  0.00000000E+00  0.00000000E+00
  0.00000000E+00  0.00000000E+00  0.00000000E+00
  0.00000000E+00  0.00000000E+00  0.00000000E+00
  0.00000000E+00  0.00000000E+00  0.00000000E+00
  0.00000000E+00  0.00000000E+00  0.00000000E+00
  0.00000000E+00  0.00000000E+00  0.00000000E+00
  0.00000000E+00  0.00000000E+00  0.00000000E+00
  0.00000000E+00  0.00000000E+00  0.00000000E+00
  0.00000000E+00  0.00000000E+00  0.00000000E+00
