Title                                   
   1.00000000000000     
     9.8694509999999998    0.0000000000000000    0.0000000000000000
     0.0000000000000000    8.5490480000000009    0.0000000000000000
     0.0000000000000000    0.0000000000000000   20.0000000000000000
    27     4     1
Selective dynamics
Direct
  0.0577876249220493  0.0906105110579111  0.0866196877385195   T   T   T
  0.9323431660761060  0.1742871235439329  0.0861912984523244   T   T   T
  0.0598503672480443  0.9238449014384728  0.0872506994113994   T   T   T
  0.9294141686328187  0.3424972720557426  0.0858285825981891   T   T   T
  0.0590171189854743  0.5900778976248177  0.0882931013592161   T   T   T
  0.9339353609523158  0.6735853164341817  0.0862411951609720   T   T   T
  0.0575779560385107  0.4226032651732712  0.0885500674992552   T   T   T
  0.9348269162871514  0.8398387461756094  0.0867523516180282   T   T   T
  0.3081953956777648  0.0855559230696261  0.0915735001659494   T   T   T
  0.1848707648637053  0.1716348036785186  0.0885524642586416   T   T   T
  0.1842901871353827  0.3391103568270829  0.0914773681306087   T   T   T
  0.3080514394299528  0.5874452336070544  0.1075006008427579   T   T   T
  0.1849407793588338  0.6730168427789590  0.0935001728542665   T   T   T
  0.3097942840602353  0.4205204690890213  0.0998152650778119   T   T   T
  0.1842563324576773  0.8396446161143948  0.0912003520794647   T   T   T
  0.5580306091800563  0.0828313194121640  0.0948361219373981   T   T   T
  0.5578286580287405  0.9189239271348831  0.1015400390437721   T   T   T
  0.4367893942801357  0.3330295583739239  0.0947249897140780   T   T   T
  0.4302959279285531  0.8380030725361947  0.1103785083262070   T   T   T
  0.8076292181013817  0.0889074238876620  0.0878295950833295   T   T   T
  0.6808451920755066  0.1696864258064433  0.0889878974535761   T   T   T
  0.8094993421071365  0.9234230124088080  0.0886085377846294   T   T   T
  0.6761062405187234  0.3365875354824041  0.0864766710893222   T   T   T
  0.8042330191473323  0.5959912974253733  0.0859949507729185   T   T   T
  0.8014143402983459  0.4253160952993646  0.0849130490691105   T   T   T
  0.6864811168175387  0.8352853038393580  0.0932899566188236   T   T   T
  0.4175728193859865  0.6822372265823421  0.1305204018594574   T   T   T
  0.5524939495047969  0.4076040426790076  0.0887576581981788   T   T   T
  0.6875907708935514  0.6782870486765915  0.0900834411706105   T   T   T
  0.3085235930056464  0.9223656235351074  0.0935915809490705   T   T   T
  0.4315771935198490  0.1645262481937259  0.0948142689960503   T   T   T
  0.5235757530807023  0.6129675600580516  0.2109806246860793   T   T   T
 
  0.00000000E+00  0.00000000E+00  0.00000000E+00
  0.00000000E+00  0.00000000E+00  0.00000000E+00
  0.00000000E+00  0.00000000E+00  0.00000000E+00
  0.00000000E+00  0.00000000E+00  0.00000000E+00
  0.00000000E+00  0.00000000E+00  0.00000000E+00
  0.00000000E+00  0.00000000E+00  0.00000000E+00
  0.00000000E+00  0.00000000E+00  0.00000000E+00
  0.00000000E+00  0.00000000E+00  0.00000000E+00
  0.00000000E+00  0.00000000E+00  0.00000000E+00
  0.00000000E+00  0.00000000E+00  0.00000000E+00
  0.00000000E+00  0.00000000E+00  0.00000000E+00
  0.00000000E+00  0.00000000E+00  0.00000000E+00
  0.00000000E+00  0.00000000E+00  0.00000000E+00
  0.00000000E+00  0.00000000E+00  0.00000000E+00
  0.00000000E+00  0.00000000E+00  0.00000000E+00
  0.00000000E+00  0.00000000E+00  0.00000000E+00
  0.00000000E+00  0.00000000E+00  0.00000000E+00
  0.00000000E+00  0.00000000E+00  0.00000000E+00
  0.00000000E+00  0.00000000E+00  0.00000000E+00
  0.00000000E+00  0.00000000E+00  0.00000000E+00
  0.00000000E+00  0.00000000E+00  0.00000000E+00
  0.00000000E+00  0.00000000E+00  0.00000000E+00
  0.00000000E+00  0.00000000E+00  0.00000000E+00
  0.00000000E+00  0.00000000E+00  0.00000000E+00
  0.00000000E+00  0.00000000E+00  0.00000000E+00
  0.00000000E+00  0.00000000E+00  0.00000000E+00
  0.00000000E+00  0.00000000E+00  0.00000000E+00
  0.00000000E+00  0.00000000E+00  0.00000000E+00
  0.00000000E+00  0.00000000E+00  0.00000000E+00
  0.00000000E+00  0.00000000E+00  0.00000000E+00
  0.00000000E+00  0.00000000E+00  0.00000000E+00
  0.00000000E+00  0.00000000E+00  0.00000000E+00
