Title                                   
   1.00000000000000     
     9.8694509999999998    0.0000000000000000    0.0000000000000000
     0.0000000000000000    8.5490480000000009    0.0000000000000000
     0.0000000000000000    0.0000000000000000   20.0000000000000000
    24     6     1
Selective dynamics
Direct
  0.0561108810843360  0.0900414899236664  0.0907290144955035   T   T   T
  0.9316021872131185  0.1719698618342398  0.0917217407557718   T   T   T
  0.0571624967997500  0.9226040140290690  0.0907661232701050   T   T   T
  0.9333094588633646  0.3392415171707142  0.0907435607127159   T   T   T
  0.0567566658383382  0.5893873058604464  0.0878713230986298   T   T   T
  0.9334602123980609  0.6724692246144337  0.0903976561836275   T   T   T
  0.0568501732864601  0.4229697871429643  0.0879946135170126   T   T   T
  0.9323481422666779  0.8397580976884813  0.0914828206241239   T   T   T
  0.3071002778608717  0.0878876004588761  0.0948000852280382   T   T   T
  0.1811583767518951  0.1713568366116658  0.0914828954894708   T   T   T
  0.1800306783073536  0.3385178941749833  0.0904693311782807   T   T   T
  0.3016060391978735  0.5904926501805962  0.0970970379671112   T   T   T
  0.1802996103316793  0.6737985239325432  0.0905192134663897   T   T   T
  0.3018471795125361  0.4215458370592817  0.0964206014753124   T   T   T
  0.1810882459090160  0.8405667406348234  0.0917284818688982   T   T   T
  0.4285593666054791  0.1741802148916540  0.1005122415710722   T   T   T
  0.5544741977331650  0.9203187474586606  0.1022566361479377   T   T   T
  0.4283471259511586  0.8392783869054212  0.1018591378092369   T   T   T
  0.8054527923222169  0.0891548922095287  0.0946727634940309   T   T   T
  0.6831364424700005  0.1758206555772248  0.1002188505260374   T   T   T
  0.8064250372653223  0.9221123043536493  0.0947312335850399   T   T   T
  0.8111508143925390  0.5902742130715570  0.0959340991250093   T   T   T
  0.8112305934766511  0.4208891106996048  0.0961364184705098   T   T   T
  0.6832962628893964  0.8370980506120254  0.1008423166003911   T   T   T
  0.5569629860839270  0.0950286851517472  0.1018248807781432   T   T   T
  0.4216936933903081  0.3349620871367727  0.1055685676116549   T   T   T
  0.4196933325466047  0.6779142451148042  0.1087787292014292   T   T   T
  0.6901057897578563  0.3362483740345882  0.1048794283119202   T   T   T
  0.6911660173230714  0.6748766106571100  0.1047977011230837   T   T   T
  0.3051887751244047  0.9229922977264509  0.0948361431076476   T   T   T
  0.5555221470465667  0.5071187430824133  0.1188913532059223   T   T   T
 
  0.00000000E+00  0.00000000E+00  0.00000000E+00
  0.00000000E+00  0.00000000E+00  0.00000000E+00
  0.00000000E+00  0.00000000E+00  0.00000000E+00
  0.00000000E+00  0.00000000E+00  0.00000000E+00
  0.00000000E+00  0.00000000E+00  0.00000000E+00
  0.00000000E+00  0.00000000E+00  0.00000000E+00
  0.00000000E+00  0.00000000E+00  0.00000000E+00
  0.00000000E+00  0.00000000E+00  0.00000000E+00
  0.00000000E+00  0.00000000E+00  0.00000000E+00
  0.00000000E+00  0.00000000E+00  0.00000000E+00
  0.00000000E+00  0.00000000E+00  0.00000000E+00
  0.00000000E+00  0.00000000E+00  0.00000000E+00
  0.00000000E+00  0.00000000E+00  0.00000000E+00
  0.00000000E+00  0.00000000E+00  0.00000000E+00
  0.00000000E+00  0.00000000E+00  0.00000000E+00
  0.00000000E+00  0.00000000E+00  0.00000000E+00
  0.00000000E+00  0.00000000E+00  0.00000000E+00
  0.00000000E+00  0.00000000E+00  0.00000000E+00
  0.00000000E+00  0.00000000E+00  0.00000000E+00
  0.00000000E+00  0.00000000E+00  0.00000000E+00
  0.00000000E+00  0.00000000E+00  0.00000000E+00
  0.00000000E+00  0.00000000E+00  0.00000000E+00
  0.00000000E+00  0.00000000E+00  0.00000000E+00
  0.00000000E+00  0.00000000E+00  0.00000000E+00
  0.00000000E+00  0.00000000E+00  0.00000000E+00
  0.00000000E+00  0.00000000E+00  0.00000000E+00
  0.00000000E+00  0.00000000E+00  0.00000000E+00
  0.00000000E+00  0.00000000E+00  0.00000000E+00
  0.00000000E+00  0.00000000E+00  0.00000000E+00
  0.00000000E+00  0.00000000E+00  0.00000000E+00
  0.00000000E+00  0.00000000E+00  0.00000000E+00
