Title                                   
   1.00000000000000     
     9.8694509999999998    0.0000000000000000    0.0000000000000000
     0.0000000000000000    8.5490480000000009    0.0000000000000000
     0.0000000000000000    0.0000000000000000   20.0000000000000000
    27     4     1
Selective dynamics
Direct
  0.0559011921187529  0.0924009273835806  0.0839222195307398   T   T   T
  0.9312309439782617  0.1742699261495793  0.0859462418188353   T   T   T
  0.0574131539140092  0.9246156764638772  0.0838542871849952   T   T   T
  0.9300223754021785  0.3418314076389263  0.0893413631803562   T   T   T
  0.0568566537044796  0.5901038104671988  0.0857248619761244   T   T   T
  0.9327322800824254  0.6736653021328279  0.0882057453391393   T   T   T
  0.0567250959985991  0.4229807533169374  0.0874956946130065   T   T   T
  0.9330613423105271  0.8402014172481418  0.0863089635723566   T   T   T
  0.3059310953555368  0.0885573284815756  0.0876404045330434   T   T   T
  0.1819870918586997  0.1735309048446214  0.0859647240421646   T   T   T
  0.1835775237344178  0.3404960623783077  0.0889108705304435   T   T   T
  0.3033753758304683  0.5922296865226793  0.0986965242204337   T   T   T
  0.1806131993052476  0.6748969876022425  0.0877846152756512   T   T   T
  0.3095706917293743  0.4251027734057867  0.0970866909691452   T   T   T
  0.1806063334261973  0.8408268791244476  0.0864530832888885   T   T   T
  0.5567461840242285  0.0837139908019696  0.0954822256106378   T   T   T
  0.4305422734201233  0.1676558495840425  0.0934727051720492   T   T   T
  0.5552273283108595  0.9178463851467977  0.0998542958112835   T   T   T
  0.4322904731083289  0.3324968108686264  0.1014496623421081   T   T   T
  0.4249299822973543  0.8405174721581332  0.1014105991257089   T   T   T
  0.8067412911061852  0.0891184332712386  0.0869984590588876   T   T   T
  0.6809947869093069  0.1686090733874738  0.0929337770343497   T   T   T
  0.8076886670651577  0.9234423055814779  0.0885075810910201   T   T   T
  0.6800319434804181  0.3333742490274678  0.1013402043794143   T   T   T
  0.8092871465835468  0.5927331967490110  0.0991627542050496   T   T   T
  0.8032562227076682  0.4242629997935098  0.0975146040244453   T   T   T
  0.6854111082060710  0.8388981896260046  0.0996868378906671   T   T   T
  0.4132709464698028  0.6860870594305553  0.1166146066118274   T   T   T
  0.5558628073301688  0.4001596637050625  0.1169135164778490   T   T   T
  0.6965455644759931  0.6824886366242768  0.1141476901969973   T   T   T
  0.3052637454997970  0.9236048925276059  0.0888965999867207   T   T   T
  0.5559441802558203  0.5895269485560165  0.1679525909056775   T   T   T
 
  0.00000000E+00  0.00000000E+00  0.00000000E+00
  0.00000000E+00  0.00000000E+00  0.00000000E+00
  0.00000000E+00  0.00000000E+00  0.00000000E+00
  0.00000000E+00  0.00000000E+00  0.00000000E+00
  0.00000000E+00  0.00000000E+00  0.00000000E+00
  0.00000000E+00  0.00000000E+00  0.00000000E+00
  0.00000000E+00  0.00000000E+00  0.00000000E+00
  0.00000000E+00  0.00000000E+00  0.00000000E+00
  0.00000000E+00  0.00000000E+00  0.00000000E+00
  0.00000000E+00  0.00000000E+00  0.00000000E+00
  0.00000000E+00  0.00000000E+00  0.00000000E+00
  0.00000000E+00  0.00000000E+00  0.00000000E+00
  0.00000000E+00  0.00000000E+00  0.00000000E+00
  0.00000000E+00  0.00000000E+00  0.00000000E+00
  0.00000000E+00  0.00000000E+00  0.00000000E+00
  0.00000000E+00  0.00000000E+00  0.00000000E+00
  0.00000000E+00  0.00000000E+00  0.00000000E+00
  0.00000000E+00  0.00000000E+00  0.00000000E+00
  0.00000000E+00  0.00000000E+00  0.00000000E+00
  0.00000000E+00  0.00000000E+00  0.00000000E+00
  0.00000000E+00  0.00000000E+00  0.00000000E+00
  0.00000000E+00  0.00000000E+00  0.00000000E+00
  0.00000000E+00  0.00000000E+00  0.00000000E+00
  0.00000000E+00  0.00000000E+00  0.00000000E+00
  0.00000000E+00  0.00000000E+00  0.00000000E+00
  0.00000000E+00  0.00000000E+00  0.00000000E+00
  0.00000000E+00  0.00000000E+00  0.00000000E+00
  0.00000000E+00  0.00000000E+00  0.00000000E+00
  0.00000000E+00  0.00000000E+00  0.00000000E+00
  0.00000000E+00  0.00000000E+00  0.00000000E+00
  0.00000000E+00  0.00000000E+00  0.00000000E+00
  0.00000000E+00  0.00000000E+00  0.00000000E+00
