Title                                   
   1.00000000000000     
     4.9440799999999996    0.0000000000000000    0.0000000000000000
     0.0000000000000000   17.1295089999999988    0.0000000000000000
     0.0000000000000000    0.0000000000000000   20.0000000000000000
    25     5     1
Selective dynamics
Direct
  0.0009251470157356  0.1062447293260002  0.2979503241031872   T   T   T
  0.2503123108789201  0.1490675837619212  0.2985866515147980   T   T   T
  0.2503030863173989  0.2341112703959579  0.3000763575259142   T   T   T
 -0.0015930576831821  0.2755145688337682  0.3008119312982309   T   T   T
 -0.0010878425225692  0.5995934608184920  0.3007983167673475   T   T   T
  0.2503193663357278  0.7255626854781873  0.2988668174042843   T   T   T
  0.0015995752715849  0.8523884308616330  0.2973813342520413   T   T   T
  0.2503547631826202  0.8949396687053379  0.2971717561442751   T   T   T
  0.2503427091494221  0.9794498863360205  0.2970973381252900   T   T   T
  0.0019807434853882  0.7677101829059195  0.2982107398862581   T   T   T
  0.4997183716244201  0.1062452192530701  0.2979448142898127   T   T   T
  0.7503009864967750  0.1484393454244997  0.2984447948306043   T   T   T
  0.7502707721540929  0.2323482665091022  0.2998611147396079   T   T   T
  0.5000776218836284  0.0218043644131795  0.2972496725710042   T   T   T
  0.7503196286469774  0.3967732658427711  0.3024115783943671   T   T   T
  0.7503315798150024  0.4799218131032603  0.3023992797153835   T   T   T
  0.5021784367639452  0.2755235032314018  0.3007908601939481   T   T   T
  0.5017049466265883  0.5995863547199934  0.3007721192800662   T   T   T
  0.7503278566574249  0.7263207981365989  0.2986414091263740   T   T   T
  0.4991049567494122  0.8523882614849788  0.2973884096007112   T   T   T
  0.7503451052832327  0.8946675770345497  0.2971195671436844   T   T   T
  0.7503387931870467  0.9791381322870312  0.2970583726113870   T   T   T
  0.4986855543597385  0.7677105371120847  0.2982235667344009   T   T   T
  0.7502959636019001  0.6435794336785543  0.2998583538610541   T   T   T
  0.0005939206040369  0.0218044624287280  0.2972484607043379   T   T   T
  0.5074100841758240  0.5204626636994495  0.3022569825534152   T   T   T
  0.9932369393610248  0.5204689376256637  0.3023373357073941   T   T   T
  0.5093299914491315  0.3562516404572644  0.3023246043130445   T   T   T
 -0.0087012782968146  0.3562462297778269  0.3023864653518202   T   T   T
  0.2503141942965794  0.6403344297599953  0.3001800571073190   T   T   T
  0.2503657731289866  0.4367442965967536  0.3032106141485880   T   T   T
 
  0.00000000E+00  0.00000000E+00  0.00000000E+00
  0.00000000E+00  0.00000000E+00  0.00000000E+00
  0.00000000E+00  0.00000000E+00  0.00000000E+00
  0.00000000E+00  0.00000000E+00  0.00000000E+00
  0.00000000E+00  0.00000000E+00  0.00000000E+00
  0.00000000E+00  0.00000000E+00  0.00000000E+00
  0.00000000E+00  0.00000000E+00  0.00000000E+00
  0.00000000E+00  0.00000000E+00  0.00000000E+00
  0.00000000E+00  0.00000000E+00  0.00000000E+00
  0.00000000E+00  0.00000000E+00  0.00000000E+00
  0.00000000E+00  0.00000000E+00  0.00000000E+00
  0.00000000E+00  0.00000000E+00  0.00000000E+00
  0.00000000E+00  0.00000000E+00  0.00000000E+00
  0.00000000E+00  0.00000000E+00  0.00000000E+00
  0.00000000E+00  0.00000000E+00  0.00000000E+00
  0.00000000E+00  0.00000000E+00  0.00000000E+00
  0.00000000E+00  0.00000000E+00  0.00000000E+00
  0.00000000E+00  0.00000000E+00  0.00000000E+00
  0.00000000E+00  0.00000000E+00  0.00000000E+00
  0.00000000E+00  0.00000000E+00  0.00000000E+00
  0.00000000E+00  0.00000000E+00  0.00000000E+00
  0.00000000E+00  0.00000000E+00  0.00000000E+00
  0.00000000E+00  0.00000000E+00  0.00000000E+00
  0.00000000E+00  0.00000000E+00  0.00000000E+00
  0.00000000E+00  0.00000000E+00  0.00000000E+00
  0.00000000E+00  0.00000000E+00  0.00000000E+00
  0.00000000E+00  0.00000000E+00  0.00000000E+00
  0.00000000E+00  0.00000000E+00  0.00000000E+00
  0.00000000E+00  0.00000000E+00  0.00000000E+00
  0.00000000E+00  0.00000000E+00  0.00000000E+00
  0.00000000E+00  0.00000000E+00  0.00000000E+00
