Title                                   
   1.00000000000000     
     9.8694509999999998    0.0000000000000000    0.0000000000000000
     0.0000000000000000    8.5490480000000009    0.0000000000000000
     0.0000000000000000    0.0000000000000000   20.0000000000000000
    30     1     1
Selective dynamics
Direct
  0.0558508994027681  0.0900538146485763  0.0832620714412737   T   T   T
  0.9313178419693201  0.1729320848729871  0.0849658786365733   T   T   T
  0.0570553749240051  0.9233979841376225  0.0835285387777592   T   T   T
  0.9311233206683384  0.3400591790938189  0.0877780556873138   T   T   T
  0.0569576086783754  0.5897094213891602  0.0850268804624577   T   T   T
  0.9324319345945700  0.6723992158770524  0.0878535035041643   T   T   T
  0.0568512268761971  0.4227419476922297  0.0857485363710998   T   T   T
  0.9320795452898425  0.8392938619404184  0.0859539451231628   T   T   T
  0.3053591780733121  0.0881479408503639  0.0876502520081446   T   T   T
  0.1812810777158442  0.1719105090620285  0.0850491340941041   T   T   T
  0.1822361326879237  0.3392351677591181  0.0872285224719197   T   T   T
  0.3042367638493587  0.5900386352072640  0.0985083932434322   T   T   T
  0.1819771309713327  0.6735340399692711  0.0871489409480953   T   T   T
  0.3060232165308241  0.4223538559723425  0.0963029365170080   T   T   T
  0.1818680956051997  0.8404710993985941  0.0858943548579798   T   T   T
  0.5562083117602724  0.0878153162858300  0.0931050181319068   T   T   T
  0.4301941268450997  0.1700408790194085  0.0926777561530311   T   T   T
  0.5548470089933005  0.9226696399256404  0.0977458137205876   T   T   T
  0.4302323720435872  0.3356124868057013  0.1012187835233776   T   T   T
  0.4202772140085280  0.6801886362354650  0.1154910472338288   T   T   T
  0.5558025284368192  0.4104646404780865  0.1156936461156617   T   T   T
  0.4270347445082546  0.8415750793478467  0.1007432216678096   T   T   T
  0.8066538783036021  0.0890350403479692  0.0867382179363190   T   T   T
  0.6816853873545085  0.1712919682117882  0.0919904658072781   T   T   T
  0.8066209468844268  0.9229983029926498  0.0884053336835741   T   T   T
  0.6815497085407254  0.3363538584417748  0.1011357642134202   T   T   T
  0.8090074170349711  0.5900731564549142  0.0988440470822084   T   T   T
  0.6905043161275261  0.6781038740468236  0.1135255568408205   T   T   T
  0.8069050934242925  0.4222725298996753  0.0968821641477309   T   T   T
  0.6823522903279214  0.8401570397745570  0.0991109010176167   T   T   T
  0.3053338920116637  0.9239534308430500  0.0890165278350186   T   T   T
  0.5577804155572945  0.5913613630179797  0.1714507907453564   T   T   T
 
  0.00000000E+00  0.00000000E+00  0.00000000E+00
  0.00000000E+00  0.00000000E+00  0.00000000E+00
  0.00000000E+00  0.00000000E+00  0.00000000E+00
  0.00000000E+00  0.00000000E+00  0.00000000E+00
  0.00000000E+00  0.00000000E+00  0.00000000E+00
  0.00000000E+00  0.00000000E+00  0.00000000E+00
  0.00000000E+00  0.00000000E+00  0.00000000E+00
  0.00000000E+00  0.00000000E+00  0.00000000E+00
  0.00000000E+00  0.00000000E+00  0.00000000E+00
  0.00000000E+00  0.00000000E+00  0.00000000E+00
  0.00000000E+00  0.00000000E+00  0.00000000E+00
  0.00000000E+00  0.00000000E+00  0.00000000E+00
  0.00000000E+00  0.00000000E+00  0.00000000E+00
  0.00000000E+00  0.00000000E+00  0.00000000E+00
  0.00000000E+00  0.00000000E+00  0.00000000E+00
  0.00000000E+00  0.00000000E+00  0.00000000E+00
  0.00000000E+00  0.00000000E+00  0.00000000E+00
  0.00000000E+00  0.00000000E+00  0.00000000E+00
  0.00000000E+00  0.00000000E+00  0.00000000E+00
  0.00000000E+00  0.00000000E+00  0.00000000E+00
  0.00000000E+00  0.00000000E+00  0.00000000E+00
  0.00000000E+00  0.00000000E+00  0.00000000E+00
  0.00000000E+00  0.00000000E+00  0.00000000E+00
  0.00000000E+00  0.00000000E+00  0.00000000E+00
  0.00000000E+00  0.00000000E+00  0.00000000E+00
  0.00000000E+00  0.00000000E+00  0.00000000E+00
  0.00000000E+00  0.00000000E+00  0.00000000E+00
  0.00000000E+00  0.00000000E+00  0.00000000E+00
  0.00000000E+00  0.00000000E+00  0.00000000E+00
  0.00000000E+00  0.00000000E+00  0.00000000E+00
  0.00000000E+00  0.00000000E+00  0.00000000E+00
  0.00000000E+00  0.00000000E+00  0.00000000E+00
