Title                                   
   1.00000000000000     
     9.8694509999999998    0.0000000000000000    0.0000000000000000
     0.0000000000000000    8.5490480000000009    0.0000000000000000
     0.0000000000000000    0.0000000000000000   20.0000000000000000
    28     2     1
Selective dynamics
Direct
  0.0556767924205020  0.0896431387281369  0.0923312954427684   T   T   T
  0.9305475115727390  0.1726077907544373  0.0884967396184734   T   T   T
  0.0556720222776677  0.9226733260205866  0.0923228171296949   T   T   T
  0.9326904108632662  0.3386470289742899  0.0895676296710600   T   T   T
  0.0563324277219365  0.5896817768965824  0.0933222803617852   T   T   T
  0.9327000379648756  0.6736492282767482  0.0895264720830155   T   T   T
  0.0563321292810123  0.4226443829620449  0.0933386841307616   T   T   T
  0.9305444828647398  0.8396991946386544  0.0884680028008323   T   T   T
  0.3060841286663929  0.0905146303408035  0.0991770286653726   T   T   T
  0.1798412423078804  0.1722197215060473  0.0966040622413475   T   T   T
  0.3060792373030362  0.9218115111220531  0.0991770185921119   T   T   T
  0.1802000045268249  0.3394799254933373  0.0970830115232862   T   T   T
  0.3040588535833854  0.5902739255698664  0.1032285128030080   T   T   T
  0.1801963829706124  0.6728584710305575  0.0970685797695893   T   T   T
  0.3040688236301675  0.4220347902123844  0.1032319758098519   T   T   T
  0.1798413393733228  0.8401301272590183  0.0966069622541808   T   T   T
  0.5524119492765982  0.0910749942999915  0.0948288264827780   T   T   T
  0.4289916151785516  0.1786317681433487  0.1017513377606653   T   T   T
  0.5524194543687968  0.9211929412273607  0.0947857329372355   T   T   T
  0.4289982223841786  0.8336851260304385  0.1017224499775245   T   T   T
  0.8047280584676121  0.0894251908748666  0.0857616111253786   T   T   T
  0.6790704120679902  0.1722534269902785  0.0859288126523088   T   T   T
  0.8047432442639002  0.9228867007456570  0.0857383311211187   T   T   T
  0.6836259095551990  0.3372582570507958  0.0823156231020297   T   T   T
  0.8076396614214526  0.5911926645866621  0.0845484624705320   T   T   T
  0.6836585208305404  0.6750314241649173  0.0822597300376992   T   T   T
  0.8076192750392074  0.4210938844608047  0.0845929413663776   T   T   T
  0.6790915324430609  0.8400460352157733  0.0858839250255677   T   T   T
  0.4263190674953963  0.3433787660312158  0.1092846590950628   T   T   T
  0.4263059366844685  0.6689568442299438  0.1092542819357309   T   T   T
  0.5866463131946943  0.5061980061624081  0.1327572020128925   T   T   T
 
  0.00000000E+00  0.00000000E+00  0.00000000E+00
  0.00000000E+00  0.00000000E+00  0.00000000E+00
  0.00000000E+00  0.00000000E+00  0.00000000E+00
  0.00000000E+00  0.00000000E+00  0.00000000E+00
  0.00000000E+00  0.00000000E+00  0.00000000E+00
  0.00000000E+00  0.00000000E+00  0.00000000E+00
  0.00000000E+00  0.00000000E+00  0.00000000E+00
  0.00000000E+00  0.00000000E+00  0.00000000E+00
  0.00000000E+00  0.00000000E+00  0.00000000E+00
  0.00000000E+00  0.00000000E+00  0.00000000E+00
  0.00000000E+00  0.00000000E+00  0.00000000E+00
  0.00000000E+00  0.00000000E+00  0.00000000E+00
  0.00000000E+00  0.00000000E+00  0.00000000E+00
  0.00000000E+00  0.00000000E+00  0.00000000E+00
  0.00000000E+00  0.00000000E+00  0.00000000E+00
  0.00000000E+00  0.00000000E+00  0.00000000E+00
  0.00000000E+00  0.00000000E+00  0.00000000E+00
  0.00000000E+00  0.00000000E+00  0.00000000E+00
  0.00000000E+00  0.00000000E+00  0.00000000E+00
  0.00000000E+00  0.00000000E+00  0.00000000E+00
  0.00000000E+00  0.00000000E+00  0.00000000E+00
  0.00000000E+00  0.00000000E+00  0.00000000E+00
  0.00000000E+00  0.00000000E+00  0.00000000E+00
  0.00000000E+00  0.00000000E+00  0.00000000E+00
  0.00000000E+00  0.00000000E+00  0.00000000E+00
  0.00000000E+00  0.00000000E+00  0.00000000E+00
  0.00000000E+00  0.00000000E+00  0.00000000E+00
  0.00000000E+00  0.00000000E+00  0.00000000E+00
  0.00000000E+00  0.00000000E+00  0.00000000E+00
  0.00000000E+00  0.00000000E+00  0.00000000E+00
  0.00000000E+00  0.00000000E+00  0.00000000E+00
