Title                                   
   1.00000000000000     
     8.5490480000000009    0.0000000000000000    0.0000000000000000
     0.0000000000000000    8.5490480000000009    0.0000000000000000
     0.0000000000000000    0.0000000000000000   20.0000000000000000
    19     5     1
Selective dynamics
Direct
  0.9083802449516769  0.2032351442368924  0.0974842812511168   T   T   T
  0.9080366749414487  0.5024489177851702  0.0977908624670550   T   T   T
  0.9108355723655459  0.8033403780591952  0.0975280677529248   T   T   T
  0.1950022909982644  0.0832084935570914  0.0976091345684436   T   T   T
  0.0754676957173504  0.2000315855879174  0.0975085114478265   T   T   T
  0.1577193058194016  0.6520392978401266  0.0976416065544609   T   T   T
  0.0790531645800298  0.5010242662737817  0.0977047476422114   T   T   T
  0.1577398050250481  0.3502536505789865  0.0977270207932101   T   T   T
  0.0779130995309962  0.8002824527093745  0.0975529748073346   T   T   T
  0.4927892386190925  0.0879106291421761  0.0978525055099544   T   T   T
  0.3427563305712104  0.1644436967792176  0.0978653924439018   T   T   T
  0.4923607715880650  0.9165831240994700  0.0977004368164370   T   T   T
  0.3428083812273992  0.8370152051609911  0.0976890390199746   T   T   T
  0.7896441970364066  0.0861185612104616  0.0975160996472330   T   T   T
  0.6411570182013192  0.1675501655086178  0.0979272508960544   T   T   T
  0.7902709321379831  0.9199251982801814  0.0974886317173955   T   T   T
  0.8301859373770175  0.6525592534590419  0.0977565630787036   T   T   T
  0.8281539156487088  0.3527564898552833  0.0978707988975994   T   T   T
  0.6421127311632631  0.8370355655693585  0.0976849334712107   T   T   T
  0.3164571021185382  0.3240224743707462  0.0980224230681035   T   T   T
  0.3168335350648590  0.6802640886420683  0.0977551909317568   T   T   T
  0.6687471206158065  0.3269452684778396  0.0983140323679874   T   T   T
  0.6707649359035432  0.6778778108835439  0.0979033267240659   T   T   T
  0.1962406145504669  0.9164129035449827  0.0976272294083478   T   T   T
  0.4939813842465501  0.5015053783874839  0.0981839387166704   T   T   T
 
  0.00000000E+00  0.00000000E+00  0.00000000E+00
  0.00000000E+00  0.00000000E+00  0.00000000E+00
  0.00000000E+00  0.00000000E+00  0.00000000E+00
  0.00000000E+00  0.00000000E+00  0.00000000E+00
  0.00000000E+00  0.00000000E+00  0.00000000E+00
  0.00000000E+00  0.00000000E+00  0.00000000E+00
  0.00000000E+00  0.00000000E+00  0.00000000E+00
  0.00000000E+00  0.00000000E+00  0.00000000E+00
  0.00000000E+00  0.00000000E+00  0.00000000E+00
  0.00000000E+00  0.00000000E+00  0.00000000E+00
  0.00000000E+00  0.00000000E+00  0.00000000E+00
  0.00000000E+00  0.00000000E+00  0.00000000E+00
  0.00000000E+00  0.00000000E+00  0.00000000E+00
  0.00000000E+00  0.00000000E+00  0.00000000E+00
  0.00000000E+00  0.00000000E+00  0.00000000E+00
  0.00000000E+00  0.00000000E+00  0.00000000E+00
  0.00000000E+00  0.00000000E+00  0.00000000E+00
  0.00000000E+00  0.00000000E+00  0.00000000E+00
  0.00000000E+00  0.00000000E+00  0.00000000E+00
  0.00000000E+00  0.00000000E+00  0.00000000E+00
  0.00000000E+00  0.00000000E+00  0.00000000E+00
  0.00000000E+00  0.00000000E+00  0.00000000E+00
  0.00000000E+00  0.00000000E+00  0.00000000E+00
  0.00000000E+00  0.00000000E+00  0.00000000E+00
  0.00000000E+00  0.00000000E+00  0.00000000E+00
