Title                                   
   1.00000000000000     
     8.5490480000000009    0.0000000000000000    0.0000000000000000
     0.0000000000000000    8.5490480000000009    0.0000000000000000
     0.0000000000000000    0.0000000000000000   20.0000000000000000
    19     5     1
Selective dynamics
Direct
  0.9080025919426528  0.2054653161466332  0.0976520702444771   T   T   T
  0.9086486984897654  0.5025451832666691  0.0978030641896091   T   T   T
  0.9098233811240695  0.8011453089792755  0.0975884924866785   T   T   T
  0.1968310320970990  0.0836655353312139  0.0976789734490148   T   T   T
  0.0757369525271766  0.2027450373333100  0.0976286913994982   T   T   T
  0.1577845842389408  0.6521206634174338  0.0977103234836781   T   T   T
  0.0789412180886930  0.5013442880678146  0.0977725235482276   T   T   T
  0.1574630615556721  0.3507781458727702  0.0977695764286904   T   T   T
  0.0780301624862497  0.7984863185275244  0.0975947655304139   T   T   T
  0.4929314917434242  0.0872040603645594  0.0978387143165556   T   T   T
  0.3431848333895378  0.1643142917797460  0.0978411153485402   T   T   T
  0.4922483206913291  0.9172673088611647  0.0977695578685693   T   T   T
  0.3430746299338798  0.8374190307421508  0.0977399590621342   T   T   T
  0.7875234273943884  0.0863096273854954  0.0976578495570356   T   T   T
  0.6409154001861953  0.1670040025077680  0.0978447426224228   T   T   T
  0.7879821082492372  0.9191956413262168  0.0975968420140856   T   T   T
  0.8301721378244792  0.6522873316579838  0.0977338503195826   T   T   T
  0.8288113615243881  0.3531986009178132  0.0978174988849216   T   T   T
  0.6412969321173571  0.8368797131615694  0.0977285357624668   T   T   T
  0.3196536925804113  0.3266145638511715  0.0979055130113782   T   T   T
  0.3198878568560172  0.6786392739849912  0.0977923679365145   T   T   T
  0.6656617669083058  0.3301053800875173  0.0979497061001537   T   T   T
  0.6668356093074258  0.6745979266589960  0.0977946407437347   T   T   T
  0.1977498328280774  0.9166861612891158  0.0976536574988700   T   T   T
  0.4962209159152208  0.4987712884810944  0.0978419681927271   T   T   T
 
  0.00000000E+00  0.00000000E+00  0.00000000E+00
  0.00000000E+00  0.00000000E+00  0.00000000E+00
  0.00000000E+00  0.00000000E+00  0.00000000E+00
  0.00000000E+00  0.00000000E+00  0.00000000E+00
  0.00000000E+00  0.00000000E+00  0.00000000E+00
  0.00000000E+00  0.00000000E+00  0.00000000E+00
  0.00000000E+00  0.00000000E+00  0.00000000E+00
  0.00000000E+00  0.00000000E+00  0.00000000E+00
  0.00000000E+00  0.00000000E+00  0.00000000E+00
  0.00000000E+00  0.00000000E+00  0.00000000E+00
  0.00000000E+00  0.00000000E+00  0.00000000E+00
  0.00000000E+00  0.00000000E+00  0.00000000E+00
  0.00000000E+00  0.00000000E+00  0.00000000E+00
  0.00000000E+00  0.00000000E+00  0.00000000E+00
  0.00000000E+00  0.00000000E+00  0.00000000E+00
  0.00000000E+00  0.00000000E+00  0.00000000E+00
  0.00000000E+00  0.00000000E+00  0.00000000E+00
  0.00000000E+00  0.00000000E+00  0.00000000E+00
  0.00000000E+00  0.00000000E+00  0.00000000E+00
  0.00000000E+00  0.00000000E+00  0.00000000E+00
  0.00000000E+00  0.00000000E+00  0.00000000E+00
  0.00000000E+00  0.00000000E+00  0.00000000E+00
  0.00000000E+00  0.00000000E+00  0.00000000E+00
  0.00000000E+00  0.00000000E+00  0.00000000E+00
  0.00000000E+00  0.00000000E+00  0.00000000E+00
