Title                                   
   1.00000000000000     
     9.8694509999999998    0.0000000000000000    0.0000000000000000
     0.0000000000000000    8.5490480000000009    0.0000000000000000
     0.0000000000000000    0.0000000000000000   20.0000000000000000
    25     6     1
Selective dynamics
Direct
  0.0562456863773938  0.0927615344928888  0.0884521203710866   T   T   T
  0.9299716290650100  0.1751281001142656  0.0900342885763618   T   T   T
  0.0562445635741646  0.9238565049394588  0.0875093260796677   T   T   T
  0.9297539047872512  0.3412215619487936  0.0928873738588257   T   T   T
  0.0562148600828110  0.5899054390451872  0.0884198260802504   T   T   T
  0.9312685708526176  0.6715828584006885  0.0893256760533520   T   T   T
  0.0562346223406629  0.4230414511213541  0.0917963181157348   T   T   T
  0.9311180424166675  0.8397804185937682  0.0886464023753921   T   T   T
  0.3061159569582736  0.0893481440874450  0.0884914564119504   T   T   T
  0.1825500690313315  0.1751017167066127  0.0896759470516558   T   T   T
  0.3068000140803570  0.9232543848278575  0.0889135051634043   T   T   T
  0.1827140300929326  0.3412216948769867  0.0926209799874619   T   T   T
  0.3066456507866580  0.5924331924474331  0.0958203331750140   T   T   T
  0.1811848605604487  0.6715855824097932  0.0890708848465514   T   T   T
  0.1813834342224209  0.8397780661572218  0.0882935185176498   T   T   T
  0.5562430717411759  0.0855421403694115  0.0952141128559132   T   T   T
  0.4316859842846761  0.1701374257156499  0.0929251912098893   T   T   T
  0.4342938759732952  0.3356856401040150  0.0979213544873480   T   T   T
  0.4287447188001903  0.8371863826816633  0.0957829085657849   T   T   T
  0.8064576984012942  0.0893469361040651  0.0890787677077107   T   T   T
  0.6808498426391612  0.1700751221221183  0.0933216759009498   T   T   T
  0.8057527887142494  0.9232640949425004  0.0894889670438851   T   T   T
  0.6781692373882224  0.3356176494931015  0.0982449616002504   T   T   T
  0.8058150622074203  0.5923979420408282  0.0962532816379894   T   T   T
  0.6837822042362428  0.8372040253565399  0.0962049372427558   T   T   T
  0.4219292486768503  0.6789153340575629  0.1091639787338040   T   T   T
  0.5561918135386001  0.4096005854862304  0.1108239833184991   T   T   T
  0.6906359919733094  0.6789524822528414  0.1096687619568466   T   T   T
  0.5562526667375535  0.9164237347168240  0.0963998922194148   T   T   T
  0.3109426757962939  0.4245242313272189  0.0958560929792380   T   T   T
  0.8015515636462708  0.4244859146963130  0.0963315449782488   T   T   T
  0.5558946600162010  0.5908857083633638  0.1730366308971293   T   T   T
 
  0.00000000E+00  0.00000000E+00  0.00000000E+00
  0.00000000E+00  0.00000000E+00  0.00000000E+00
  0.00000000E+00  0.00000000E+00  0.00000000E+00
  0.00000000E+00  0.00000000E+00  0.00000000E+00
  0.00000000E+00  0.00000000E+00  0.00000000E+00
  0.00000000E+00  0.00000000E+00  0.00000000E+00
  0.00000000E+00  0.00000000E+00  0.00000000E+00
  0.00000000E+00  0.00000000E+00  0.00000000E+00
  0.00000000E+00  0.00000000E+00  0.00000000E+00
  0.00000000E+00  0.00000000E+00  0.00000000E+00
  0.00000000E+00  0.00000000E+00  0.00000000E+00
  0.00000000E+00  0.00000000E+00  0.00000000E+00
  0.00000000E+00  0.00000000E+00  0.00000000E+00
  0.00000000E+00  0.00000000E+00  0.00000000E+00
  0.00000000E+00  0.00000000E+00  0.00000000E+00
  0.00000000E+00  0.00000000E+00  0.00000000E+00
  0.00000000E+00  0.00000000E+00  0.00000000E+00
  0.00000000E+00  0.00000000E+00  0.00000000E+00
  0.00000000E+00  0.00000000E+00  0.00000000E+00
  0.00000000E+00  0.00000000E+00  0.00000000E+00
  0.00000000E+00  0.00000000E+00  0.00000000E+00
  0.00000000E+00  0.00000000E+00  0.00000000E+00
  0.00000000E+00  0.00000000E+00  0.00000000E+00
  0.00000000E+00  0.00000000E+00  0.00000000E+00
  0.00000000E+00  0.00000000E+00  0.00000000E+00
  0.00000000E+00  0.00000000E+00  0.00000000E+00
  0.00000000E+00  0.00000000E+00  0.00000000E+00
  0.00000000E+00  0.00000000E+00  0.00000000E+00
  0.00000000E+00  0.00000000E+00  0.00000000E+00
  0.00000000E+00  0.00000000E+00  0.00000000E+00
  0.00000000E+00  0.00000000E+00  0.00000000E+00
  0.00000000E+00  0.00000000E+00  0.00000000E+00
