Title                                   
   1.00000000000000     
     9.8694509999999998    0.0000000000000000    0.0000000000000000
     0.0000000000000000    8.5490480000000009    0.0000000000000000
     0.0000000000000000    0.0000000000000000   20.0000000000000000
    28     2     1
Selective dynamics
Direct
  0.0561506389007166  0.0893821100533590  0.0916024966152611   T   T   T
  0.9309478967458962  0.1735617712219804  0.0957091094593604   T   T   T
  0.0572113128156947  0.9229351631211813  0.0910687027956900   T   T   T
  0.9325724213706601  0.3407701806820789  0.0970772888250798   T   T   T
  0.0572069975905414  0.5895415302027240  0.0930560909202505   T   T   T
  0.9333782863273047  0.6751015672220898  0.0968166484701634   T   T   T
  0.0569114204550698  0.4230206415658129  0.0936208359595641   T   T   T
  0.9327855575002050  0.8416708584245297  0.0956472127220279   T   T   T
  0.3064355846888420  0.0883661885012169  0.0871454623501308   T   T   T
  0.1806177164007015  0.1710408718255329  0.0894775588582976   T   T   T
  0.3077800269748799  0.9210307014101157  0.0855502733352248   T   T   T
  0.1800705435750651  0.3376713540377105  0.0908338627939364   T   T   T
  0.3069070361646054  0.5874542760120794  0.0851789221318094   T   T   T
  0.1812912481324600  0.6713879540497443  0.0887800527235726   T   T   T
  0.3046963966309724  0.4172852889999172  0.0880011980500561   T   T   T
  0.1824451003777417  0.8384873991831058  0.0874914183875039   T   T   T
  0.5568425782371174  0.0906641968315141  0.0953700539136979   T   T   T
  0.4300801037510144  0.1730844218125957  0.0896122592825515   T   T   T
  0.5582105236939154  0.9212909733786756  0.0946477698470327   T   T   T
  0.4308561028735203  0.6709256125221355  0.0827794088307042   T   T   T
  0.4333942637925277  0.8362404000743765  0.0859534287452613   T   T   T
  0.8050778654841771  0.0920026630721309  0.0980284388852940   T   T   T
  0.6807193524263008  0.1801052981113365  0.1003928854258189   T   T   T
  0.8064358929125582  0.9231240509163988  0.0983604563862949   T   T   T
  0.6836971399776107  0.3475894534416958  0.1055320657443752   T   T   T
  0.8101243484519199  0.5946131784241564  0.1035872765869294   T   T   T
  0.8090887154195057  0.4255063081222894  0.1025627476594462   T   T   T
  0.6837012114735966  0.8346430863982549  0.1013867206323731   T   T   T
  0.4259776949382305  0.3353790965843444  0.0898782690927953   T   T   T
  0.6877197982791151  0.6713285719429782  0.1090829015270034   T   T   T
  0.5338012236375419  0.5056698318539502  0.1267331830425347   T   T   T
 
  0.00000000E+00  0.00000000E+00  0.00000000E+00
  0.00000000E+00  0.00000000E+00  0.00000000E+00
  0.00000000E+00  0.00000000E+00  0.00000000E+00
  0.00000000E+00  0.00000000E+00  0.00000000E+00
  0.00000000E+00  0.00000000E+00  0.00000000E+00
  0.00000000E+00  0.00000000E+00  0.00000000E+00
  0.00000000E+00  0.00000000E+00  0.00000000E+00
  0.00000000E+00  0.00000000E+00  0.00000000E+00
  0.00000000E+00  0.00000000E+00  0.00000000E+00
  0.00000000E+00  0.00000000E+00  0.00000000E+00
  0.00000000E+00  0.00000000E+00  0.00000000E+00
  0.00000000E+00  0.00000000E+00  0.00000000E+00
  0.00000000E+00  0.00000000E+00  0.00000000E+00
  0.00000000E+00  0.00000000E+00  0.00000000E+00
  0.00000000E+00  0.00000000E+00  0.00000000E+00
  0.00000000E+00  0.00000000E+00  0.00000000E+00
  0.00000000E+00  0.00000000E+00  0.00000000E+00
  0.00000000E+00  0.00000000E+00  0.00000000E+00
  0.00000000E+00  0.00000000E+00  0.00000000E+00
  0.00000000E+00  0.00000000E+00  0.00000000E+00
  0.00000000E+00  0.00000000E+00  0.00000000E+00
  0.00000000E+00  0.00000000E+00  0.00000000E+00
  0.00000000E+00  0.00000000E+00  0.00000000E+00
  0.00000000E+00  0.00000000E+00  0.00000000E+00
  0.00000000E+00  0.00000000E+00  0.00000000E+00
  0.00000000E+00  0.00000000E+00  0.00000000E+00
  0.00000000E+00  0.00000000E+00  0.00000000E+00
  0.00000000E+00  0.00000000E+00  0.00000000E+00
  0.00000000E+00  0.00000000E+00  0.00000000E+00
  0.00000000E+00  0.00000000E+00  0.00000000E+00
  0.00000000E+00  0.00000000E+00  0.00000000E+00
