Title                                   
   1.00000000000000     
     9.8694509999999998    0.0000000000000000    0.0000000000000000
     0.0000000000000000    8.5490480000000009    0.0000000000000000
     0.0000000000000000    0.0000000000000000   20.0000000000000000
    28     2     1
Selective dynamics
Direct
  0.0558287850220658  0.0883533644115427  0.0830685270214785   T   T   T
  0.9314842153008137  0.1713982997741717  0.0853683744705701   T   T   T
  0.0571940147364219  0.9231006124595357  0.0837632351370085   T   T   T
  0.9353076056928576  0.3379768858760067  0.0834508711883052   T   T   T
  0.0571607117959236  0.5905873047669539  0.0782670894507619   T   T   T
  0.9348553992363069  0.6747032448121898  0.0840484672329567   T   T   T
  0.0576014972370400  0.4226094216919334  0.0777464201044296   T   T   T
  0.9319737918941379  0.8404621829638688  0.0861483077266128   T   T   T
  0.3044253657997326  0.0880279841874938  0.0935116979377412   T   T   T
  0.1800686071700085  0.1695631908526829  0.0849931642799919   T   T   T
  0.1790275641703634  0.3371234784789799  0.0827323667987509   T   T   T
  0.2999633422251892  0.5890780652490089  0.0947182012830748   T   T   T
  0.1798782985884427  0.6737554262776791  0.0834748412393766   T   T   T
  0.2991159336734465  0.4183150598950331  0.0944915733381610   T   T   T
  0.1816523904225394  0.8407654657944883  0.0859038549219324   T   T   T
  0.5551401317049959  0.0926685503689000  0.1071489490979181   T   T   T
  0.4261024474268580  0.1749066900741997  0.1040756748407475   T   T   T
  0.5541385308310224  0.9247615986672232  0.1068347233959986   T   T   T
  0.4176056706270873  0.6751141190420706  0.1084478703599301   T   T   T
  0.4268237204467742  0.8383949318559918  0.1041209798442037   T   T   T
  0.8065696663195168  0.0896635063390107  0.0940765153708794   T   T   T
  0.6839627928008469  0.1766670779846643  0.1047770970727475   T   T   T
  0.8064567650063594  0.9224050780310636  0.0942996702648090   T   T   T
  0.6962331234049880  0.3406259234284063  0.1097435394598254   T   T   T
  0.8152381551684995  0.5914311984889555  0.0956862130592053   T   T   T
  0.6948341571489306  0.6722307270448544  0.1088572766971049   T   T   T
  0.8161634955671309  0.4209129426237718  0.0957366907126989   T   T   T
  0.6822392872970021  0.8373574216709537  0.1045070500523879   T   T   T
  0.4144276040972200  0.3358694927534400  0.1081710984060202   T   T   T
  0.3047677572130589  0.9234111928182359  0.0935301639385007   T   T   T
  0.5568941719744350  0.5086345613167085  0.1192644952959190   T   T   T
 
  0.00000000E+00  0.00000000E+00  0.00000000E+00
  0.00000000E+00  0.00000000E+00  0.00000000E+00
  0.00000000E+00  0.00000000E+00  0.00000000E+00
  0.00000000E+00  0.00000000E+00  0.00000000E+00
  0.00000000E+00  0.00000000E+00  0.00000000E+00
  0.00000000E+00  0.00000000E+00  0.00000000E+00
  0.00000000E+00  0.00000000E+00  0.00000000E+00
  0.00000000E+00  0.00000000E+00  0.00000000E+00
  0.00000000E+00  0.00000000E+00  0.00000000E+00
  0.00000000E+00  0.00000000E+00  0.00000000E+00
  0.00000000E+00  0.00000000E+00  0.00000000E+00
  0.00000000E+00  0.00000000E+00  0.00000000E+00
  0.00000000E+00  0.00000000E+00  0.00000000E+00
  0.00000000E+00  0.00000000E+00  0.00000000E+00
  0.00000000E+00  0.00000000E+00  0.00000000E+00
  0.00000000E+00  0.00000000E+00  0.00000000E+00
  0.00000000E+00  0.00000000E+00  0.00000000E+00
  0.00000000E+00  0.00000000E+00  0.00000000E+00
  0.00000000E+00  0.00000000E+00  0.00000000E+00
  0.00000000E+00  0.00000000E+00  0.00000000E+00
  0.00000000E+00  0.00000000E+00  0.00000000E+00
  0.00000000E+00  0.00000000E+00  0.00000000E+00
  0.00000000E+00  0.00000000E+00  0.00000000E+00
  0.00000000E+00  0.00000000E+00  0.00000000E+00
  0.00000000E+00  0.00000000E+00  0.00000000E+00
  0.00000000E+00  0.00000000E+00  0.00000000E+00
  0.00000000E+00  0.00000000E+00  0.00000000E+00
  0.00000000E+00  0.00000000E+00  0.00000000E+00
  0.00000000E+00  0.00000000E+00  0.00000000E+00
  0.00000000E+00  0.00000000E+00  0.00000000E+00
  0.00000000E+00  0.00000000E+00  0.00000000E+00
