Title                                   
   1.00000000000000     
     4.9440799999999996    0.0000000000000000    0.0000000000000000
     0.0000000000000000   17.1295089999999988    0.0000000000000000
     0.0000000000000000    0.0000000000000000   20.0000000000000000
    30     1     1
Selective dynamics
Direct
  0.0004654345567311  0.1053305887129170  0.2817314527669425   T   T   T
  0.2499349737200612  0.1469995318406629  0.2874417010563623   T   T   T
  0.2499468119583642  0.2289556866043304  0.3024154583354384   T   T   T
  0.0008096126742259  0.3476019485753625  0.3346754921162593   T   T   T
 -0.0024598424341249  0.2692063083670841  0.3101268676290088   T   T   T
 -0.0047386691951167  0.6060138900458411  0.3061157807956147   T   T   T
  0.2498592208535899  0.7289063011321167  0.2858847122310205   T   T   T
  0.0004542277409258  0.8547577014175031  0.2749250449661184   T   T   T
  0.2498727769124778  0.8968076802979105  0.2735989240920205   T   T   T
  0.2498978855423667  0.9802503511186732  0.2738086409506829   T   T   T
  0.0006346484845081  0.7715020489727431  0.2807946670388258   T   T   T
  0.4993962816647456  0.1053339575315412  0.2817328791241955   T   T   T
  0.7499278322991487  0.1467010045305308  0.2860545985297773   T   T   T
  0.7499166901226901  0.2284432034761468  0.2992189579812126   T   T   T
  0.4996976480320012  0.0221562534956359  0.2752533849354799   T   T   T
  0.4990543231808998  0.3475933096175473  0.3346758150588749   T   T   T
  0.7498750834094078  0.4780220911071398  0.3283153342837711   T   T   T
  0.5023147021817550  0.2692154571320342  0.3101298808506160   T   T   T
  0.5044506418957253  0.6060095813771365  0.3061157705546914   T   T   T
  0.7498646975629975  0.7307192829244110  0.2848954936928428   T   T   T
  0.4993006275822890  0.8547624508453794  0.2749275079734368   T   T   T
  0.7499146022841431  0.8965774753466534  0.2734014264421241   T   T   T
  0.7499159483084444  0.9802514484140018  0.2735422139140969   T   T   T
  0.4991027513120699  0.7714984545274176  0.2807948781176158   T   T   T
  0.7498551587791913  0.6487734561039330  0.2971612903387832   T   T   T
  0.2498702026121307  0.6464903421970448  0.2983594393683938   T   T   T
  0.0001476848135485  0.0221545770297690  0.2752545629395728   T   T   T
  0.5186981823421566  0.5263817538292579  0.3251564920331388   T   T   T
  0.9810726992000299  0.5263862897477014  0.3251693231009259   T   T   T
  0.2499448142502349  0.3789285480776274  0.3565051434271631   T   T   T
  0.7499416616124139  0.3917833925166789  0.3378397227204893   T   T   T
  0.2498836857399720  0.4840366330872567  0.3865421426344553   T   T   T
 
  0.00000000E+00  0.00000000E+00  0.00000000E+00
  0.00000000E+00  0.00000000E+00  0.00000000E+00
  0.00000000E+00  0.00000000E+00  0.00000000E+00
  0.00000000E+00  0.00000000E+00  0.00000000E+00
  0.00000000E+00  0.00000000E+00  0.00000000E+00
  0.00000000E+00  0.00000000E+00  0.00000000E+00
  0.00000000E+00  0.00000000E+00  0.00000000E+00
  0.00000000E+00  0.00000000E+00  0.00000000E+00
  0.00000000E+00  0.00000000E+00  0.00000000E+00
  0.00000000E+00  0.00000000E+00  0.00000000E+00
  0.00000000E+00  0.00000000E+00  0.00000000E+00
  0.00000000E+00  0.00000000E+00  0.00000000E+00
  0.00000000E+00  0.00000000E+00  0.00000000E+00
  0.00000000E+00  0.00000000E+00  0.00000000E+00
  0.00000000E+00  0.00000000E+00  0.00000000E+00
  0.00000000E+00  0.00000000E+00  0.00000000E+00
  0.00000000E+00  0.00000000E+00  0.00000000E+00
  0.00000000E+00  0.00000000E+00  0.00000000E+00
  0.00000000E+00  0.00000000E+00  0.00000000E+00
  0.00000000E+00  0.00000000E+00  0.00000000E+00
  0.00000000E+00  0.00000000E+00  0.00000000E+00
  0.00000000E+00  0.00000000E+00  0.00000000E+00
  0.00000000E+00  0.00000000E+00  0.00000000E+00
  0.00000000E+00  0.00000000E+00  0.00000000E+00
  0.00000000E+00  0.00000000E+00  0.00000000E+00
  0.00000000E+00  0.00000000E+00  0.00000000E+00
  0.00000000E+00  0.00000000E+00  0.00000000E+00
  0.00000000E+00  0.00000000E+00  0.00000000E+00
  0.00000000E+00  0.00000000E+00  0.00000000E+00
  0.00000000E+00  0.00000000E+00  0.00000000E+00
  0.00000000E+00  0.00000000E+00  0.00000000E+00
  0.00000000E+00  0.00000000E+00  0.00000000E+00
