Title                                   
   1.00000000000000     
     9.8694509999999998    0.0000000000000000    0.0000000000000000
     0.0000000000000000    8.5490480000000009    0.0000000000000000
     0.0000000000000000    0.0000000000000000   20.0000000000000000
    26     5     1
Selective dynamics
Direct
  0.0562802993785886  0.0918574338462527  0.0860096944354919   T   T   T
  0.9311420981737615  0.1745698873323376  0.0874911830752042   T   T   T
  0.0576207372779019  0.9245453486108136  0.0856579030255111   T   T   T
  0.9301603082325558  0.3419232603926389  0.0898250568213687   T   T   T
  0.0572581470676206  0.5906760759628712  0.0863675034249720   T   T   T
  0.9327829107980451  0.6734713065436009  0.0889099742177169   T   T   T
  0.0567443726385462  0.4230832571512781  0.0880241935301252   T   T   T
  0.9329001652684669  0.8405548676881051  0.0878340806944931   T   T   T
  0.3063260067800094  0.0885861199629162  0.0892793388371518   T   T   T
  0.1827507448855725  0.1739096005164734  0.0876903362354391   T   T   T
  0.1832132883079972  0.3403804239340428  0.0893692579868842   T   T   T
  0.3054636680192245  0.5916508575047739  0.0971624882903322   T   T   T
  0.1816335566382174  0.6745462014379451  0.0877546964504630   T   T   T
  0.3104424443059985  0.4232898312610469  0.0960136127889708   T   T   T
  0.1813097803419796  0.8411250994287655  0.0870534760151151   T   T   T
  0.5562583734947936  0.0847662946976946  0.0955695306186323   T   T   T
  0.5545205112454035  0.9185774633792172  0.0998045760286812   T   T   T
  0.4320772535528059  0.3317000088174192  0.1007911760286647   T   T   T
  0.4265361505717982  0.8391146378384372  0.1004894078075508   T   T   T
  0.8062418834381544  0.0893972325204224  0.0883347180811334   T   T   T
  0.6796910349426207  0.1694060424019851  0.0927816922324607   T   T   T
  0.8077485096338317  0.9239367037322047  0.0900368110708818   T   T   T
  0.6796411574296511  0.3344369131813024  0.1000147657662055   T   T   T
  0.8084091560298606  0.5935448647483900  0.0983405336528817   T   T   T
  0.8020888130548943  0.4245519153126299  0.0966415346364109   T   T   T
  0.6848681483388620  0.8391772728196387  0.0997705571572731   T   T   T
  0.4168051478235680  0.6838130607887883  0.1121652589737617   T   T   T
  0.5539881033479587  0.4004906090252239  0.1147713150321620   T   T   T
  0.6938288786813769  0.6812864248040443  0.1114973201855433   T   T   T
  0.3060968213001923  0.9255462985011613  0.0895348672266683   T   T   T
  0.4293402207996428  0.1674882022922964  0.0940080435620981   T   T   T
  0.5554703082001063  0.5888424835652851  0.1666800961097673   T   T   T
 
  0.00000000E+00  0.00000000E+00  0.00000000E+00
  0.00000000E+00  0.00000000E+00  0.00000000E+00
  0.00000000E+00  0.00000000E+00  0.00000000E+00
  0.00000000E+00  0.00000000E+00  0.00000000E+00
  0.00000000E+00  0.00000000E+00  0.00000000E+00
  0.00000000E+00  0.00000000E+00  0.00000000E+00
  0.00000000E+00  0.00000000E+00  0.00000000E+00
  0.00000000E+00  0.00000000E+00  0.00000000E+00
  0.00000000E+00  0.00000000E+00  0.00000000E+00
  0.00000000E+00  0.00000000E+00  0.00000000E+00
  0.00000000E+00  0.00000000E+00  0.00000000E+00
  0.00000000E+00  0.00000000E+00  0.00000000E+00
  0.00000000E+00  0.00000000E+00  0.00000000E+00
  0.00000000E+00  0.00000000E+00  0.00000000E+00
  0.00000000E+00  0.00000000E+00  0.00000000E+00
  0.00000000E+00  0.00000000E+00  0.00000000E+00
  0.00000000E+00  0.00000000E+00  0.00000000E+00
  0.00000000E+00  0.00000000E+00  0.00000000E+00
  0.00000000E+00  0.00000000E+00  0.00000000E+00
  0.00000000E+00  0.00000000E+00  0.00000000E+00
  0.00000000E+00  0.00000000E+00  0.00000000E+00
  0.00000000E+00  0.00000000E+00  0.00000000E+00
  0.00000000E+00  0.00000000E+00  0.00000000E+00
  0.00000000E+00  0.00000000E+00  0.00000000E+00
  0.00000000E+00  0.00000000E+00  0.00000000E+00
  0.00000000E+00  0.00000000E+00  0.00000000E+00
  0.00000000E+00  0.00000000E+00  0.00000000E+00
  0.00000000E+00  0.00000000E+00  0.00000000E+00
  0.00000000E+00  0.00000000E+00  0.00000000E+00
  0.00000000E+00  0.00000000E+00  0.00000000E+00
  0.00000000E+00  0.00000000E+00  0.00000000E+00
  0.00000000E+00  0.00000000E+00  0.00000000E+00
