Title                                   
   1.00000000000000     
     9.8694509999999998    0.0000000000000000    0.0000000000000000
     0.0000000000000000    8.5490480000000009    0.0000000000000000
     0.0000000000000000    0.0000000000000000   20.0000000000000000
    30     1     1
Selective dynamics
Direct
  0.0562437112987019  0.0899265130720849  0.0805921863189913   T   T   T
  0.9307231978118060  0.1727791090583383  0.0837559702146176   T   T   T
  0.0562383991104952  0.9233423246229489  0.0802260022203719   T   T   T
  0.9301707889754388  0.3405671981414832  0.0887673622957799   T   T   T
  0.0562468202356556  0.5889603697843416  0.0853787620416988   T   T   T
  0.9317114084872540  0.6728068326936120  0.0874915710620720   T   T   T
  0.0562233005555314  0.4231420743441806  0.0869021361925593   T   T   T
  0.9309472544963444  0.8395497017844099  0.0833743908103205   T   T   T
  0.3053533769487185  0.0893554702100635  0.0850506875723153   T   T   T
  0.1817418660621777  0.1727856035870102  0.0837333536565547   T   T   T
  0.3065155788013171  0.9231532297981255  0.0853000794126743   T   T   T
  0.1822861072010888  0.3405717006713342  0.0887503689598407   T   T   T
  0.3033634251734515  0.5914636284683688  0.1009063778073192   T   T   T
  0.1807751435584193  0.6728026871789351  0.0874636207520603   T   T   T
  0.3055462901428822  0.4222925033835572  0.0993971334633398   T   T   T
  0.1815327944386385  0.8395495227277667  0.0833482971273442   T   T   T
  0.5562248579863139  0.0867335745029599  0.0940107145065384   T   T   T
  0.4312264511877476  0.1693072234874249  0.0930366108887440   T   T   T
  0.4307255584650114  0.3341303686519462  0.1041264279112235   T   T   T
  0.4201179238562840  0.6833716754560553  0.1162243642868368   T   T   T
  0.5562321407123189  0.4041824786234540  0.1199949140077555   T   T   T
  0.4300893489156538  0.8413847397528962  0.0976870079955772   T   T   T
  0.8071168151038253  0.0893414196799791  0.0850640220434360   T   T   T
  0.6812577617865027  0.1693055862606478  0.0930437506825564   T   T   T
  0.8059441107061091  0.9231440490908241  0.0853227748968121   T   T   T
  0.6817347218066043  0.3341244848832524  0.1041358774713310   T   T   T
  0.8091551349252962  0.5914453548074350  0.1009464487833703   T   T   T
  0.6924284854971698  0.6833846449236776  0.1162619741587007   T   T   T
  0.8069218754929547  0.4222873541470565  0.0994254333046835   T   T   T
  0.6823606699662377  0.8413704256893876  0.0976976407465353   T   T   T
  0.5562293337925736  0.9223612514282625  0.0963447164745106   T   T   T
  0.5562543465014834  0.5913228990881894  0.1719140219335635   T   T   T
 
  0.00000000E+00  0.00000000E+00  0.00000000E+00
  0.00000000E+00  0.00000000E+00  0.00000000E+00
  0.00000000E+00  0.00000000E+00  0.00000000E+00
  0.00000000E+00  0.00000000E+00  0.00000000E+00
  0.00000000E+00  0.00000000E+00  0.00000000E+00
  0.00000000E+00  0.00000000E+00  0.00000000E+00
  0.00000000E+00  0.00000000E+00  0.00000000E+00
  0.00000000E+00  0.00000000E+00  0.00000000E+00
  0.00000000E+00  0.00000000E+00  0.00000000E+00
  0.00000000E+00  0.00000000E+00  0.00000000E+00
  0.00000000E+00  0.00000000E+00  0.00000000E+00
  0.00000000E+00  0.00000000E+00  0.00000000E+00
  0.00000000E+00  0.00000000E+00  0.00000000E+00
  0.00000000E+00  0.00000000E+00  0.00000000E+00
  0.00000000E+00  0.00000000E+00  0.00000000E+00
  0.00000000E+00  0.00000000E+00  0.00000000E+00
  0.00000000E+00  0.00000000E+00  0.00000000E+00
  0.00000000E+00  0.00000000E+00  0.00000000E+00
  0.00000000E+00  0.00000000E+00  0.00000000E+00
  0.00000000E+00  0.00000000E+00  0.00000000E+00
  0.00000000E+00  0.00000000E+00  0.00000000E+00
  0.00000000E+00  0.00000000E+00  0.00000000E+00
  0.00000000E+00  0.00000000E+00  0.00000000E+00
  0.00000000E+00  0.00000000E+00  0.00000000E+00
  0.00000000E+00  0.00000000E+00  0.00000000E+00
  0.00000000E+00  0.00000000E+00  0.00000000E+00
  0.00000000E+00  0.00000000E+00  0.00000000E+00
  0.00000000E+00  0.00000000E+00  0.00000000E+00
  0.00000000E+00  0.00000000E+00  0.00000000E+00
  0.00000000E+00  0.00000000E+00  0.00000000E+00
  0.00000000E+00  0.00000000E+00  0.00000000E+00
  0.00000000E+00  0.00000000E+00  0.00000000E+00
