Title                                   
   1.00000000000000     
     4.9440799999999996    0.0000000000000000    0.0000000000000000
     0.0000000000000000   17.1295089999999988    0.0000000000000000
     0.0000000000000000    0.0000000000000000   20.0000000000000000
    28     3     1
Selective dynamics
Direct
  0.0031459375776225  0.1042585816658644  0.2909728161461947   T   T   T
  0.2533737277462350  0.1464055058973024  0.2921532757711378   T   T   T
  0.2553610928777979  0.2297224463150148  0.2955598921000713   T   T   T
  0.0126170021574322  0.3536273076021546  0.3030825623355841   T   T   T
  0.0042841036319124  0.2714347807760092  0.2969627340394738   T   T   T
 -0.0113797056546318  0.6030092169271429  0.3023260121158007   T   T   T
  0.2448050597462602  0.7276710228656890  0.2976448795876072   T   T   T
 -0.0020287569929764  0.8536969361053353  0.2923879330919609   T   T   T
  0.2482089458638920  0.8956628750389509  0.2918764565095299   T   T   T
  0.2502897086691710  0.9790030914248199  0.2908283647577716   T   T   T
 -0.0038644485335885  0.7702395318720142  0.2946188888294211   T   T   T
  0.5026548174274427  0.1042882037054144  0.2911233050945659   T   T   T
  0.7535746117125877  0.1461863593796136  0.2915455057784416   T   T   T
  0.7555694793982034  0.2290003146981585  0.2940929702452365   T   T   T
  0.5008788538994912  0.0209649332245936  0.2906115513009876   T   T   T
  0.5030622675635903  0.3532395221916170  0.3044176799381323   T   T   T
  0.7502210929933011  0.4815052902505946  0.3099946423289878   T   T   T
  0.5077564218882344  0.2711593956414128  0.2976465195439469   T   T   T
  0.4963789452149420  0.6039252412411750  0.3100450652785921   T   T   T
  0.7454185750151041  0.7291267301051365  0.2966596753455610   T   T   T
  0.4973299575509453  0.8536460271670724  0.2929440394606130   T   T   T
  0.7482895740944877  0.8955164031409901  0.2917186205293679   T   T   T
  0.7502962430459642  0.9789809976282335  0.2906600304375571   T   T   T
  0.4952850627872475  0.7702686540898688  0.2959191914736778   T   T   T
  0.7434500506910485  0.6459497572586638  0.3017060690062492   T   T   T
  0.2430028218747030  0.6442806592432162  0.3036168012760019   T   T   T
  0.0009354702820898  0.0209264923791136  0.2904781463049461   T   T   T
  0.5165041910018753  0.5234654133412291  0.3284272342652628   T   T   T
  0.9866430649977940  0.5222002581391998  0.2990498138604148   T   T   T
  0.2591153658614175  0.3907838826643795  0.3100214984358097   T   T   T
  0.7570807099201480  0.3973982774004881  0.3043926811862417   T   T   T
  0.2285627556902617  0.4810068906195244  0.3790801436248030   T   T   T
 
  0.00000000E+00  0.00000000E+00  0.00000000E+00
  0.00000000E+00  0.00000000E+00  0.00000000E+00
  0.00000000E+00  0.00000000E+00  0.00000000E+00
  0.00000000E+00  0.00000000E+00  0.00000000E+00
  0.00000000E+00  0.00000000E+00  0.00000000E+00
  0.00000000E+00  0.00000000E+00  0.00000000E+00
  0.00000000E+00  0.00000000E+00  0.00000000E+00
  0.00000000E+00  0.00000000E+00  0.00000000E+00
  0.00000000E+00  0.00000000E+00  0.00000000E+00
  0.00000000E+00  0.00000000E+00  0.00000000E+00
  0.00000000E+00  0.00000000E+00  0.00000000E+00
  0.00000000E+00  0.00000000E+00  0.00000000E+00
  0.00000000E+00  0.00000000E+00  0.00000000E+00
  0.00000000E+00  0.00000000E+00  0.00000000E+00
  0.00000000E+00  0.00000000E+00  0.00000000E+00
  0.00000000E+00  0.00000000E+00  0.00000000E+00
  0.00000000E+00  0.00000000E+00  0.00000000E+00
  0.00000000E+00  0.00000000E+00  0.00000000E+00
  0.00000000E+00  0.00000000E+00  0.00000000E+00
  0.00000000E+00  0.00000000E+00  0.00000000E+00
  0.00000000E+00  0.00000000E+00  0.00000000E+00
  0.00000000E+00  0.00000000E+00  0.00000000E+00
  0.00000000E+00  0.00000000E+00  0.00000000E+00
  0.00000000E+00  0.00000000E+00  0.00000000E+00
  0.00000000E+00  0.00000000E+00  0.00000000E+00
  0.00000000E+00  0.00000000E+00  0.00000000E+00
  0.00000000E+00  0.00000000E+00  0.00000000E+00
  0.00000000E+00  0.00000000E+00  0.00000000E+00
  0.00000000E+00  0.00000000E+00  0.00000000E+00
  0.00000000E+00  0.00000000E+00  0.00000000E+00
  0.00000000E+00  0.00000000E+00  0.00000000E+00
  0.00000000E+00  0.00000000E+00  0.00000000E+00
