Title                                   
   1.00000000000000     
     4.9440799999999996    0.0000000000000000    0.0000000000000000
     0.0000000000000000   17.1295089999999988    0.0000000000000000
     0.0000000000000000    0.0000000000000000   20.0000000000000000
    27     3     1
Selective dynamics
Direct
 -0.0097540513813704  0.1056647568362290  0.2948073114340938   T   T   T
  0.2381583985059218  0.1482867819769314  0.2962534581078087   T   T   T
  0.2327523352673760  0.2324459862182761  0.3003227347455481   T   T   T
 -0.0205846597256586  0.2738439419023199  0.3035013148423554   T   T   T
  0.0222709552708986  0.6006003462113330  0.2940811966257731   T   T   T
  0.2639525942898822  0.7256373427876438  0.2954148556237217   T   T   T
  0.0066816421206727  0.8522473985260719  0.2928943293962680   T   T   T
  0.2537145177376396  0.8948591015248331  0.2932265365669893   T   T   T
  0.2478250079515397  0.9791367537692984  0.2932974668876290   T   T   T
  0.0123206492178398  0.7677315402201365  0.2933044769140689   T   T   T
  0.4900248809401516  0.1057326684532504  0.2943959624019355   T   T   T
  0.7383272663621430  0.1478964245694050  0.2950699772743804   T   T   T
  0.7314133670549499  0.2321484705391355  0.2979267027920488   T   T   T
  0.4959214607287325  0.0213823395373469  0.2933442682156023   T   T   T
  0.7391967694196616  0.3955531006874404  0.3079341024333763   T   T   T
  0.7656618429330069  0.4816178816933285  0.3084492301634017   T   T   T
  0.4802866826771113  0.2752243369828565  0.3000907970659553   T   T   T
  0.5220094755517037  0.6007889717815539  0.3043568376777518   T   T   T
  0.7625063404297421  0.7265338658390950  0.2936143503516468   T   T   T
  0.5045686921042227  0.8525134311661148  0.2934435482931420   T   T   T
  0.7537379552816474  0.8944518276426244  0.2928839146219178   T   T   T
  0.7479423549599018  0.9789040507204709  0.2929862159706161   T   T   T
  0.5104437956379920  0.7679336257360880  0.2944221738031317   T   T   T
  0.7689200337651887  0.6431384262697748  0.2954166658660103   T   T   T
 -0.0039644366153644  0.0214123382791590  0.2934515513714203   T   T   T
  0.0123253314944666  0.5179499051000942  0.2928599767258452   T   T   T
  0.4880769505121875  0.3593580313723380  0.3030830458274036   T   T   T
  0.5260814315898161  0.5232143173578723  0.3223846146088830   T   T   T
 -0.0264211178568367  0.3533667947423415  0.3146550065368989   T   T   T
  0.2699813015256778  0.6420751983510499  0.2984404053375305   T   T   T
  0.2356292322491592  0.4396920432055843  0.3387469715167972   T   T   T
 
  0.00000000E+00  0.00000000E+00  0.00000000E+00
  0.00000000E+00  0.00000000E+00  0.00000000E+00
  0.00000000E+00  0.00000000E+00  0.00000000E+00
  0.00000000E+00  0.00000000E+00  0.00000000E+00
  0.00000000E+00  0.00000000E+00  0.00000000E+00
  0.00000000E+00  0.00000000E+00  0.00000000E+00
  0.00000000E+00  0.00000000E+00  0.00000000E+00
  0.00000000E+00  0.00000000E+00  0.00000000E+00
  0.00000000E+00  0.00000000E+00  0.00000000E+00
  0.00000000E+00  0.00000000E+00  0.00000000E+00
  0.00000000E+00  0.00000000E+00  0.00000000E+00
  0.00000000E+00  0.00000000E+00  0.00000000E+00
  0.00000000E+00  0.00000000E+00  0.00000000E+00
  0.00000000E+00  0.00000000E+00  0.00000000E+00
  0.00000000E+00  0.00000000E+00  0.00000000E+00
  0.00000000E+00  0.00000000E+00  0.00000000E+00
  0.00000000E+00  0.00000000E+00  0.00000000E+00
  0.00000000E+00  0.00000000E+00  0.00000000E+00
  0.00000000E+00  0.00000000E+00  0.00000000E+00
  0.00000000E+00  0.00000000E+00  0.00000000E+00
  0.00000000E+00  0.00000000E+00  0.00000000E+00
  0.00000000E+00  0.00000000E+00  0.00000000E+00
  0.00000000E+00  0.00000000E+00  0.00000000E+00
  0.00000000E+00  0.00000000E+00  0.00000000E+00
  0.00000000E+00  0.00000000E+00  0.00000000E+00
  0.00000000E+00  0.00000000E+00  0.00000000E+00
  0.00000000E+00  0.00000000E+00  0.00000000E+00
  0.00000000E+00  0.00000000E+00  0.00000000E+00
  0.00000000E+00  0.00000000E+00  0.00000000E+00
  0.00000000E+00  0.00000000E+00  0.00000000E+00
  0.00000000E+00  0.00000000E+00  0.00000000E+00
