Title                                   
   1.00000000000000     
     8.5490480000000009    0.0000000000000000    0.0000000000000000
     0.0000000000000000    8.5490480000000009    0.0000000000000000
     0.0000000000000000    0.0000000000000000   20.0000000000000000
    22     2     1
Selective dynamics
Direct
  0.9109580849728807  0.2067212798720351  0.0954520167840260   T   T   T
  0.9081366877003252  0.5013371307276258  0.0953117633988751   T   T   T
  0.9096500002890949  0.7973388808517602  0.0954669956395893   T   T   T
  0.1974834577017362  0.0851406186388108  0.0954837683841398   T   T   T
  0.0763896223222121  0.2062254848867153  0.0954645769217441   T   T   T
  0.1979664162056956  0.9197245108325969  0.0954887376899742   T   T   T
  0.1561866504084289  0.6488809056269024  0.0953565105386854   T   T   T
  0.0779307111167486  0.5022564280045864  0.0953304525420312   T   T   T
  0.1582660704937747  0.3538048318278189  0.0953255414072339   T   T   T
  0.0750806040116963  0.7968464666305805  0.0954735575422029   T   T   T
  0.4934660561436042  0.0866841831107834  0.0953590997573007   T   T   T
  0.3450520369273200  0.1670303237448411  0.0953512776583241   T   T   T
  0.4925261976233432  0.9169109381788688  0.0953624722450949   T   T   T
  0.3459341278373138  0.8386370087687002  0.0953755076943080   T   T   T
  0.7880625617155647  0.0838563009611490  0.0954675296177460   T   T   T
  0.6400779266052582  0.1649622642741858  0.0953399167945778   T   T   T
  0.7885446424619866  0.9184295570273161  0.0954752827600116   T   T   T
  0.8277753830230588  0.6497732601134221  0.0953152240811258   T   T   T
  0.8298609900916917  0.3547062750814265  0.0953058977971157   T   T   T
  0.6409584844150754  0.8365534013984939  0.0953354870469233   T   T   T
  0.3240479739723325  0.6707901956376164  0.0952592208624876   T   T   T
  0.6620023020746587  0.3328012167322760  0.0952061630693873   T   T   T
  0.3214314873073776  0.3301644842720667  0.0951929753030858   T   T   T
  0.6646107957741028  0.6734141004629622  0.0951818043516116   T   T   T
  0.4930127288047113  0.5017999523364732  0.0950232201123757   T   T   T
 
  0.00000000E+00  0.00000000E+00  0.00000000E+00
  0.00000000E+00  0.00000000E+00  0.00000000E+00
  0.00000000E+00  0.00000000E+00  0.00000000E+00
  0.00000000E+00  0.00000000E+00  0.00000000E+00
  0.00000000E+00  0.00000000E+00  0.00000000E+00
  0.00000000E+00  0.00000000E+00  0.00000000E+00
  0.00000000E+00  0.00000000E+00  0.00000000E+00
  0.00000000E+00  0.00000000E+00  0.00000000E+00
  0.00000000E+00  0.00000000E+00  0.00000000E+00
  0.00000000E+00  0.00000000E+00  0.00000000E+00
  0.00000000E+00  0.00000000E+00  0.00000000E+00
  0.00000000E+00  0.00000000E+00  0.00000000E+00
  0.00000000E+00  0.00000000E+00  0.00000000E+00
  0.00000000E+00  0.00000000E+00  0.00000000E+00
  0.00000000E+00  0.00000000E+00  0.00000000E+00
  0.00000000E+00  0.00000000E+00  0.00000000E+00
  0.00000000E+00  0.00000000E+00  0.00000000E+00
  0.00000000E+00  0.00000000E+00  0.00000000E+00
  0.00000000E+00  0.00000000E+00  0.00000000E+00
  0.00000000E+00  0.00000000E+00  0.00000000E+00
  0.00000000E+00  0.00000000E+00  0.00000000E+00
  0.00000000E+00  0.00000000E+00  0.00000000E+00
  0.00000000E+00  0.00000000E+00  0.00000000E+00
  0.00000000E+00  0.00000000E+00  0.00000000E+00
  0.00000000E+00  0.00000000E+00  0.00000000E+00
