Title                                   
   1.00000000000000     
     9.8694509999999998    0.0000000000000000    0.0000000000000000
     0.0000000000000000    8.5490480000000009    0.0000000000000000
     0.0000000000000000    0.0000000000000000   20.0000000000000000
    27     3     1
Selective dynamics
Direct
  0.0551849679318079  0.0881002067608200  0.0939149560146643   T   T   T
  0.9311300797885166  0.1711947875308131  0.0935906064413043   T   T   T
  0.0567489253789044  0.9221620313688240  0.0939837537650433   T   T   T
  0.9334981705875286  0.3383928228313404  0.0939988466178158   T   T   T
  0.0557506044764840  0.5905218396069315  0.0941865651345014   T   T   T
  0.0560880506113521  0.4238686504132830  0.0940162313320529   T   T   T
  0.9316290708716853  0.8383002509389127  0.0943602905253661   T   T   T
  0.3069893398025675  0.0884432235781882  0.0952903671204575   T   T   T
  0.1816370079014585  0.1711831259959174  0.0946370816573301   T   T   T
  0.1794925938024922  0.3381582856749701  0.0944421916589143   T   T   T
  0.3007319834079669  0.5893668318675485  0.0951376093662188   T   T   T
  0.1789418788335008  0.6752420951080170  0.0951343584512613   T   T   T
  0.3015137085128656  0.4219387296239736  0.0964690999161446   T   T   T
  0.1820776729973717  0.8410866397766813  0.0943661771687036   T   T   T
  0.4324040139697002  0.1750673052137858  0.0971489868880029   T   T   T
  0.5555618010352230  0.9232314641977030  0.0955770433749248   T   T   T
  0.4256164723441498  0.3391903207711119  0.1008620369952014   T   T   T
  0.4235729637821704  0.6735744794533280  0.0907970790065019   T   T   T
  0.4304940866515993  0.8377998124110549  0.0937015966604229   T   T   T
  0.8053499520164871  0.0880850936319731  0.0939225017087225   T   T   T
  0.6800772975661350  0.1762674705673165  0.0933168167376922   T   T   T
  0.8062476192868830  0.9209358385617056  0.0950454205813119   T   T   T
  0.6870805067545958  0.3408199346456995  0.0900059536519026   T   T   T
  0.8119148778320260  0.5910807275925529  0.0954617563310954   T   T   T
  0.6892549878421320  0.6714727674073619  0.1010577035901483   T   T   T
  0.8123700163508456  0.4217046695527826  0.0933823446892358   T   T   T
  0.6793591738556185  0.8373797180943533  0.0972387041869576   T   T   T
  0.9337715011770050  0.6728033339867487  0.0936926089019470   T   T   T
  0.5568436965572273  0.0919326469088474  0.0952455542058815   T   T   T
  0.3053828068285796  0.9235433917891473  0.0946153809881964   T   T   T
  0.5564191712451227  0.5080265041383250  0.0963653763321036   T   T   T
 
  0.00000000E+00  0.00000000E+00  0.00000000E+00
  0.00000000E+00  0.00000000E+00  0.00000000E+00
  0.00000000E+00  0.00000000E+00  0.00000000E+00
  0.00000000E+00  0.00000000E+00  0.00000000E+00
  0.00000000E+00  0.00000000E+00  0.00000000E+00
  0.00000000E+00  0.00000000E+00  0.00000000E+00
  0.00000000E+00  0.00000000E+00  0.00000000E+00
  0.00000000E+00  0.00000000E+00  0.00000000E+00
  0.00000000E+00  0.00000000E+00  0.00000000E+00
  0.00000000E+00  0.00000000E+00  0.00000000E+00
  0.00000000E+00  0.00000000E+00  0.00000000E+00
  0.00000000E+00  0.00000000E+00  0.00000000E+00
  0.00000000E+00  0.00000000E+00  0.00000000E+00
  0.00000000E+00  0.00000000E+00  0.00000000E+00
  0.00000000E+00  0.00000000E+00  0.00000000E+00
  0.00000000E+00  0.00000000E+00  0.00000000E+00
  0.00000000E+00  0.00000000E+00  0.00000000E+00
  0.00000000E+00  0.00000000E+00  0.00000000E+00
  0.00000000E+00  0.00000000E+00  0.00000000E+00
  0.00000000E+00  0.00000000E+00  0.00000000E+00
  0.00000000E+00  0.00000000E+00  0.00000000E+00
  0.00000000E+00  0.00000000E+00  0.00000000E+00
  0.00000000E+00  0.00000000E+00  0.00000000E+00
  0.00000000E+00  0.00000000E+00  0.00000000E+00
  0.00000000E+00  0.00000000E+00  0.00000000E+00
  0.00000000E+00  0.00000000E+00  0.00000000E+00
  0.00000000E+00  0.00000000E+00  0.00000000E+00
  0.00000000E+00  0.00000000E+00  0.00000000E+00
  0.00000000E+00  0.00000000E+00  0.00000000E+00
  0.00000000E+00  0.00000000E+00  0.00000000E+00
  0.00000000E+00  0.00000000E+00  0.00000000E+00
