Title                                   
   1.00000000000000     
     4.9440799999999996    0.0000000000000000    0.0000000000000000
     0.0000000000000000    8.5647549999999999    0.0000000000000000
     0.0000000000000000    0.0000000000000000   20.0000000000000000
     9     5     1
Selective dynamics
Direct
 -0.0018620098278303  0.2945273676720153  0.0956174134683957   T   T   T
  0.2500000000000000  0.0382212735141675  0.0959456095927640   T   T   T
 -0.0020636879766579  0.9562308020369723  0.0960502550818698   T   T   T
  0.7500000000000000  0.2080987022026017  0.0923318783454894   T   T   T
  0.5018620098278301  0.2945273676720153  0.0956174134683957   T   T   T
  0.7500000000000000  0.0399469055736371  0.0925163342031100   T   T   T
  0.7500000000000000  0.7093859631170820  0.0982097922938715   T   T   T
  0.7500000000000000  0.5388972031602668  0.0982857700826918   T   T   T
  0.5020636879766580  0.9562308020369723  0.0960502550818698   T   T   T
  0.5055750994391540  0.4555852930204190  0.1017212137542380   T   T   T
 -0.0055750994391538  0.4555852930204190  0.1017212137542380   T   T   T
 -0.0070664193266343  0.7923120302850251  0.1017270240259270   T   T   T
  0.5070664193266341  0.7923120302850251  0.1017270240259270   T   T   T
  0.2500000000000000  0.2135880170713092  0.0951879760106664   T   T   T
  0.2500000000000000  0.6262319493320747  0.1452708268105491   T   T   T
 
  0.00000000E+00  0.00000000E+00  0.00000000E+00
  0.00000000E+00  0.00000000E+00  0.00000000E+00
  0.00000000E+00  0.00000000E+00  0.00000000E+00
  0.00000000E+00  0.00000000E+00  0.00000000E+00
  0.00000000E+00  0.00000000E+00  0.00000000E+00
  0.00000000E+00  0.00000000E+00  0.00000000E+00
  0.00000000E+00  0.00000000E+00  0.00000000E+00
  0.00000000E+00  0.00000000E+00  0.00000000E+00
  0.00000000E+00  0.00000000E+00  0.00000000E+00
  0.00000000E+00  0.00000000E+00  0.00000000E+00
  0.00000000E+00  0.00000000E+00  0.00000000E+00
  0.00000000E+00  0.00000000E+00  0.00000000E+00
  0.00000000E+00  0.00000000E+00  0.00000000E+00
  0.00000000E+00  0.00000000E+00  0.00000000E+00
  0.00000000E+00  0.00000000E+00  0.00000000E+00
