Title                                   
   1.00000000000000     
     9.8694509999999998    0.0000000000000000    0.0000000000000000
     0.0000000000000000    8.5490480000000009    0.0000000000000000
     0.0000000000000000    0.0000000000000000   20.0000000000000000
    26     4     1
Selective dynamics
Direct
  0.0562356311195747  0.0893237164741405  0.0940895958966791   T   T   T
  0.9318938979536129  0.1720883302052945  0.0941825401838407   T   T   T
  0.0562354951603150  0.9230343913306350  0.0940881088463387   T   T   T
  0.9335915126380351  0.3393545895515184  0.0940036490497022   T   T   T
  0.0562186907433768  0.5891119604157494  0.0937316119927525   T   T   T
  0.9335994918125048  0.6729717664292673  0.0940292001587125   T   T   T
  0.0562025044105176  0.4232758031822304  0.0937141468240756   T   T   T
  0.9318969162975710  0.8402433438501239  0.0941968951412162   T   T   T
  0.3056892526149785  0.0900443553077686  0.0948677503039457   T   T   T
  0.1805611716843590  0.1721332766458976  0.0942809885046894   T   T   T
  0.3056903678276441  0.9223034732971256  0.0948706098914909   T   T   T
  0.1788219788470474  0.3394009043991336  0.0941090922901174   T   T   T
  0.3020694483865100  0.5922558039020753  0.0948678896942564   T   T   T
  0.1788444320455840  0.6729823860064615  0.0941509529960671   T   T   T
  0.3020755122525497  0.4200461061904247  0.0948149893614332   T   T   T
  0.1805675059621441  0.8402545091002857  0.0942970725218023   T   T   T
  0.5562410964431818  0.0932705361162985  0.0958238910634153   T   T   T
  0.4288869647822647  0.1776214677823401  0.0955452087052414   T   T   T
  0.5562361682305147  0.9189444196622898  0.0958420370001065   T   T   T
  0.4288672903415542  0.8346540140770162  0.0955697558550280   T   T   T
  0.8067726270031083  0.0900099871255019  0.0947784840022322   T   T   T
  0.6835920587192414  0.1776146452416248  0.0954832352033004   T   T   T
  0.8067723238516403  0.9222769422350792  0.0947800208876672   T   T   T
  0.8103949011415534  0.5922297613828824  0.0946629764603620   T   T   T
  0.8103703183047666  0.4200301798945668  0.0946689101105270   T   T   T
  0.6836048877865851  0.8346316747731783  0.0954623148483606   T   T   T
  0.4206450915958413  0.3391614489111499  0.0956819233020309   T   T   T
  0.4206269655917801  0.6731451418278656  0.0957580872031422   T   T   T
  0.6918355240683711  0.3391439431762784  0.0955927125245659   T   T   T
  0.6918664777194649  0.6731247574652955  0.0955519597047829   T   T   T
  0.5562294946638137  0.5061913640404982  0.0974683894721586   T   T   T
 
  0.00000000E+00  0.00000000E+00  0.00000000E+00
  0.00000000E+00  0.00000000E+00  0.00000000E+00
  0.00000000E+00  0.00000000E+00  0.00000000E+00
  0.00000000E+00  0.00000000E+00  0.00000000E+00
  0.00000000E+00  0.00000000E+00  0.00000000E+00
  0.00000000E+00  0.00000000E+00  0.00000000E+00
  0.00000000E+00  0.00000000E+00  0.00000000E+00
  0.00000000E+00  0.00000000E+00  0.00000000E+00
  0.00000000E+00  0.00000000E+00  0.00000000E+00
  0.00000000E+00  0.00000000E+00  0.00000000E+00
  0.00000000E+00  0.00000000E+00  0.00000000E+00
  0.00000000E+00  0.00000000E+00  0.00000000E+00
  0.00000000E+00  0.00000000E+00  0.00000000E+00
  0.00000000E+00  0.00000000E+00  0.00000000E+00
  0.00000000E+00  0.00000000E+00  0.00000000E+00
  0.00000000E+00  0.00000000E+00  0.00000000E+00
  0.00000000E+00  0.00000000E+00  0.00000000E+00
  0.00000000E+00  0.00000000E+00  0.00000000E+00
  0.00000000E+00  0.00000000E+00  0.00000000E+00
  0.00000000E+00  0.00000000E+00  0.00000000E+00
  0.00000000E+00  0.00000000E+00  0.00000000E+00
  0.00000000E+00  0.00000000E+00  0.00000000E+00
  0.00000000E+00  0.00000000E+00  0.00000000E+00
  0.00000000E+00  0.00000000E+00  0.00000000E+00
  0.00000000E+00  0.00000000E+00  0.00000000E+00
  0.00000000E+00  0.00000000E+00  0.00000000E+00
  0.00000000E+00  0.00000000E+00  0.00000000E+00
  0.00000000E+00  0.00000000E+00  0.00000000E+00
  0.00000000E+00  0.00000000E+00  0.00000000E+00
  0.00000000E+00  0.00000000E+00  0.00000000E+00
  0.00000000E+00  0.00000000E+00  0.00000000E+00
