Title                                   
   1.00000000000000     
     9.8694509999999998    0.0000000000000000    0.0000000000000000
     0.0000000000000000    8.5490480000000009    0.0000000000000000
     0.0000000000000000    0.0000000000000000   20.0000000000000000
    28     3     1
Selective dynamics
Direct
  0.0556193010419075  0.0922143328204504  0.0811643686736901   T   T   T
  0.9309037464158364  0.1739983613557753  0.0839994073334260   T   T   T
  0.0571433622524340  0.9247589698357862  0.0810938156031752   T   T   T
  0.9295840087278826  0.3410070286550727  0.0893746153117037   T   T   T
  0.0566415573084075  0.5901049355934531  0.0829875435981898   T   T   T
  0.9328742704415491  0.6733174535409008  0.0879650062511180   T   T   T
  0.0567913307677399  0.4229619236927257  0.0855440301666725   T   T   T
  0.9323514088010029  0.8398250517322677  0.0847897282574028   T   T   T
  0.3050961770575786  0.0878426941759690  0.0858669862396025   T   T   T
  0.1818133074279173  0.1735462516878312  0.0831020444451267   T   T   T
  0.1835792162022788  0.3409944754005308  0.0856434638934337   T   T   T
  0.3035636043618165  0.5933697659203712  0.0945780411389503   T   T   T
  0.1803547265104952  0.6746370805060228  0.0835581364227435   T   T   T
  0.3097593002549253  0.4253457895800097  0.0927463478912609   T   T   T
  0.1803540518811492  0.8413130013186987  0.0833959362694774   T   T   T
  0.5557221250667533  0.0837407076787448  0.0952038373456726   T   T   T
  0.4303328333003549  0.1672793214055379  0.0910785650286489   T   T   T
  0.5544799906160212  0.9187680293981690  0.1036586768930877   T   T   T
  0.4330427072463925  0.3326082238780809  0.0973810662545747   T   T   T
  0.4246519745731320  0.8398342613910500  0.1020027279451986   T   T   T
  0.8065201887282630  0.0887591872097700  0.0860954567595369   T   T   T
  0.6811248939837564  0.1682141985744580  0.0924041203906485   T   T   T
  0.8074020960447299  0.9232017236611737  0.0889579088324498   T   T   T
  0.6788769546416965  0.3334727058213124  0.1017623987267096   T   T   T
  0.8119139214305191  0.5926069423442609  0.1065913193337229   T   T   T
  0.7030260711032066  0.6854513258517813  0.1284823684177808   T   T   T
  0.8049916729470965  0.4230249997843362  0.1014723188328896   T   T   T
  0.6866878934204813  0.8405761339683874  0.1075534676453973   T   T   T
  0.4128025409571829  0.6843025560907340  0.1123201027027600   T   T   T
  0.5547918138575634  0.4020768293921386  0.1110727759792452   T   T   T
  0.3048713784763584  0.9244266802189033  0.0875024983122561   T   T   T
  0.5519705741535771  0.5866650575153046  0.1663259191034820   T   T   T
 
  0.00000000E+00  0.00000000E+00  0.00000000E+00
  0.00000000E+00  0.00000000E+00  0.00000000E+00
  0.00000000E+00  0.00000000E+00  0.00000000E+00
  0.00000000E+00  0.00000000E+00  0.00000000E+00
  0.00000000E+00  0.00000000E+00  0.00000000E+00
  0.00000000E+00  0.00000000E+00  0.00000000E+00
  0.00000000E+00  0.00000000E+00  0.00000000E+00
  0.00000000E+00  0.00000000E+00  0.00000000E+00
  0.00000000E+00  0.00000000E+00  0.00000000E+00
  0.00000000E+00  0.00000000E+00  0.00000000E+00
  0.00000000E+00  0.00000000E+00  0.00000000E+00
  0.00000000E+00  0.00000000E+00  0.00000000E+00
  0.00000000E+00  0.00000000E+00  0.00000000E+00
  0.00000000E+00  0.00000000E+00  0.00000000E+00
  0.00000000E+00  0.00000000E+00  0.00000000E+00
  0.00000000E+00  0.00000000E+00  0.00000000E+00
  0.00000000E+00  0.00000000E+00  0.00000000E+00
  0.00000000E+00  0.00000000E+00  0.00000000E+00
  0.00000000E+00  0.00000000E+00  0.00000000E+00
  0.00000000E+00  0.00000000E+00  0.00000000E+00
  0.00000000E+00  0.00000000E+00  0.00000000E+00
  0.00000000E+00  0.00000000E+00  0.00000000E+00
  0.00000000E+00  0.00000000E+00  0.00000000E+00
  0.00000000E+00  0.00000000E+00  0.00000000E+00
  0.00000000E+00  0.00000000E+00  0.00000000E+00
  0.00000000E+00  0.00000000E+00  0.00000000E+00
  0.00000000E+00  0.00000000E+00  0.00000000E+00
  0.00000000E+00  0.00000000E+00  0.00000000E+00
  0.00000000E+00  0.00000000E+00  0.00000000E+00
  0.00000000E+00  0.00000000E+00  0.00000000E+00
  0.00000000E+00  0.00000000E+00  0.00000000E+00
  0.00000000E+00  0.00000000E+00  0.00000000E+00
