Title                                   
   1.00000000000000     
     9.8694509999999998    0.0000000000000000    0.0000000000000000
     0.0000000000000000    8.5490480000000009    0.0000000000000000
     0.0000000000000000    0.0000000000000000   20.0000000000000000
    30     1
Selective dynamics
Direct
  0.0562729179519588  0.0889402519737443  0.0793091757213260   T   T   T
  0.9315121385614237  0.1713876184641912  0.0824741036994542   T   T   T
  0.0562660733510504  0.9233538017372933  0.0793031554685373   T   T   T
  0.9339021879131634  0.3378042962236622  0.0808636286022334   T   T   T
  0.0563231565869096  0.5899830382106248  0.0754762460763460   T   T   T
  0.9338934496407875  0.6744919611799980  0.0808312761728263   T   T   T
  0.0563170050094993  0.4222873494362286  0.0754898026136873   T   T   T
  0.9315143304626500  0.8409032145797374  0.0824684192741481   T   T   T
  0.3052816525446473  0.0896775785056490  0.0932694863022268   T   T   T
  0.1809843229079982  0.1714082363650550  0.0828741168754652   T   T   T
  0.3052725880201106  0.9226213643965623  0.0932631864972541   T   T   T
  0.1786472214684224  0.3378395033135984  0.0814161640952531   T   T   T
  0.2971109803532299  0.5914367082423897  0.0964326398695467   T   T   T
  0.1786506858603634  0.6744636526254598  0.0814100459713573   T   T   T
  0.2971284874467702  0.4208479836251399  0.0964060965993470   T   T   T
  0.1809790941514026  0.8408858841868394  0.0828733969639431   T   T   T
  0.5562485994356626  0.0897632781753168  0.1096061997154920   T   T   T
  0.4273869476054020  0.1751494172240639  0.1064815164018812   T   T   T
  0.5562405343302861  0.9225613811932158  0.1096124154514936   T   T   T
  0.4161101126839435  0.3396885670759320  0.1130235935191531   T   T   T
  0.4160822255503970  0.6726485201683070  0.1130621318957076   T   T   T
  0.4273662124583882  0.8371646852447650  0.1065073636689867   T   T   T
  0.8071449907438755  0.0897023922839493  0.0927380456563217   T   T   T
  0.6850283592425795  0.1751886369394828  0.1059036143671500   T   T   T
  0.8071593461065276  0.9226284787453034  0.0927294133307191   T   T   T
  0.6962464261645543  0.3398226872528636  0.1120054734980613   T   T   T
  0.8152027950520441  0.5914300808175593  0.0953078228591907   T   T   T
  0.6962764978813663  0.6725582061364508  0.1120101315540147   T   T   T
  0.8152158672068393  0.4208757866090782  0.0953295176994152   T   T   T
  0.6850281718317619  0.8371659686919301  0.1059062080193023   T   T   T
  0.5563416214759950  0.5061944703756208  0.1265806115601998   T   T   T
 
  0.00000000E+00  0.00000000E+00  0.00000000E+00
  0.00000000E+00  0.00000000E+00  0.00000000E+00
  0.00000000E+00  0.00000000E+00  0.00000000E+00
  0.00000000E+00  0.00000000E+00  0.00000000E+00
  0.00000000E+00  0.00000000E+00  0.00000000E+00
  0.00000000E+00  0.00000000E+00  0.00000000E+00
  0.00000000E+00  0.00000000E+00  0.00000000E+00
  0.00000000E+00  0.00000000E+00  0.00000000E+00
  0.00000000E+00  0.00000000E+00  0.00000000E+00
  0.00000000E+00  0.00000000E+00  0.00000000E+00
  0.00000000E+00  0.00000000E+00  0.00000000E+00
  0.00000000E+00  0.00000000E+00  0.00000000E+00
  0.00000000E+00  0.00000000E+00  0.00000000E+00
  0.00000000E+00  0.00000000E+00  0.00000000E+00
  0.00000000E+00  0.00000000E+00  0.00000000E+00
  0.00000000E+00  0.00000000E+00  0.00000000E+00
  0.00000000E+00  0.00000000E+00  0.00000000E+00
  0.00000000E+00  0.00000000E+00  0.00000000E+00
  0.00000000E+00  0.00000000E+00  0.00000000E+00
  0.00000000E+00  0.00000000E+00  0.00000000E+00
  0.00000000E+00  0.00000000E+00  0.00000000E+00
  0.00000000E+00  0.00000000E+00  0.00000000E+00
  0.00000000E+00  0.00000000E+00  0.00000000E+00
  0.00000000E+00  0.00000000E+00  0.00000000E+00
  0.00000000E+00  0.00000000E+00  0.00000000E+00
  0.00000000E+00  0.00000000E+00  0.00000000E+00
  0.00000000E+00  0.00000000E+00  0.00000000E+00
  0.00000000E+00  0.00000000E+00  0.00000000E+00
  0.00000000E+00  0.00000000E+00  0.00000000E+00
  0.00000000E+00  0.00000000E+00  0.00000000E+00
  0.00000000E+00  0.00000000E+00  0.00000000E+00
