Title                                   
   1.00000000000000     
     8.5490480000000009    0.0000000000000000    0.0000000000000000
     0.0000000000000000    8.5490480000000009    0.0000000000000000
     0.0000000000000000    0.0000000000000000   20.0000000000000000
    20     4     1
Selective dynamics
Direct
  0.9092298102878030  0.2058671906123007  0.0976080290960122   T   T   T
  0.9050340874651008  0.5035816791629716  0.0977428037866235   T   T   T
  0.9103647746033192  0.8021478213171686  0.0975031568936035   T   T   T
  0.2001854788959037  0.0834129087723581  0.0976183517449593   T   T   T
  0.0753367684828752  0.2058354664883765  0.0975722416439567   T   T   T
  0.1564581845572485  0.6524458418377567  0.0977266324473734   T   T   T
  0.0755295548955999  0.5026223825797304  0.0977188887459733   T   T   T
  0.1566116197316642  0.3557968094867996  0.0977016160058532   T   T   T
  0.0780127840165480  0.7993507686376344  0.0975438766999251   T   T   T
  0.4941969906995772  0.0835074202845716  0.0978039207283899   T   T   T
  0.3471726440101480  0.1625223045610000  0.0977615441621548   T   T   T
  0.4933148911699874  0.9134845853283917  0.0977775323864962   T   T   T
  0.3444009511550045  0.8337606806767802  0.0978760287998031   T   T   T
  0.7884980700724130  0.0856972396262816  0.0975507736668273   T   T   T
  0.6415607929984820  0.1654764080829863  0.0977924832746870   T   T   T
  0.7893642571292988  0.9194365355717661  0.0974984487961556   T   T   T
  0.8285108817247501  0.6530500514830444  0.0976646696358938   T   T   T
  0.8251295639643218  0.3546222492807681  0.0977888099553057   T   T   T
  0.6419937332936138  0.8348760010423643  0.0976848822741806   T   T   T
  0.3257928212887495  0.3341617580840670  0.0979295434046410   T   T   T
  0.3185561808665361  0.6753912093323474  0.0980287288488467   T   T   T
  0.6635240066660987  0.3290464369045276  0.0980318539840001   T   T   T
  0.6672625317388975  0.6748599449638522  0.0978407485470796   T   T   T
  0.1984454668180315  0.9171571785010076  0.0976847203145402   T   T   T
  0.4909251534680197  0.4966791273811672  0.0982547141566911   T   T   T
 
  0.00000000E+00  0.00000000E+00  0.00000000E+00
  0.00000000E+00  0.00000000E+00  0.00000000E+00
  0.00000000E+00  0.00000000E+00  0.00000000E+00
  0.00000000E+00  0.00000000E+00  0.00000000E+00
  0.00000000E+00  0.00000000E+00  0.00000000E+00
  0.00000000E+00  0.00000000E+00  0.00000000E+00
  0.00000000E+00  0.00000000E+00  0.00000000E+00
  0.00000000E+00  0.00000000E+00  0.00000000E+00
  0.00000000E+00  0.00000000E+00  0.00000000E+00
  0.00000000E+00  0.00000000E+00  0.00000000E+00
  0.00000000E+00  0.00000000E+00  0.00000000E+00
  0.00000000E+00  0.00000000E+00  0.00000000E+00
  0.00000000E+00  0.00000000E+00  0.00000000E+00
  0.00000000E+00  0.00000000E+00  0.00000000E+00
  0.00000000E+00  0.00000000E+00  0.00000000E+00
  0.00000000E+00  0.00000000E+00  0.00000000E+00
  0.00000000E+00  0.00000000E+00  0.00000000E+00
  0.00000000E+00  0.00000000E+00  0.00000000E+00
  0.00000000E+00  0.00000000E+00  0.00000000E+00
  0.00000000E+00  0.00000000E+00  0.00000000E+00
  0.00000000E+00  0.00000000E+00  0.00000000E+00
  0.00000000E+00  0.00000000E+00  0.00000000E+00
  0.00000000E+00  0.00000000E+00  0.00000000E+00
  0.00000000E+00  0.00000000E+00  0.00000000E+00
  0.00000000E+00  0.00000000E+00  0.00000000E+00
