Title                                   
   1.00000000000000     
     8.5490480000000009    0.0000000000000000    0.0000000000000000
     0.0000000000000000    8.5490480000000009    0.0000000000000000
     0.0000000000000000    0.0000000000000000   20.0000000000000000
    20     4     1
Selective dynamics
Direct
  0.9088524002838781  0.2052438342593728  0.0977763440547875   T   T   T
  0.9061798653309697  0.5037231250298434  0.0977424476606896   T   T   T
  0.9101624755152065  0.8022524892453063  0.0975436870992920   T   T   T
  0.1980722520238516  0.0831453696927415  0.0977612353498569   T   T   T
  0.0751714191519045  0.2032219837919746  0.0977286002552804   T   T   T
  0.1570098500077516  0.6519662600916600  0.0976809592676532   T   T   T
  0.0760738987931628  0.5024454896315576  0.0976961387656664   T   T   T
  0.1573105710701034  0.3545793290501954  0.0976977371625345   T   T   T
  0.0781946679168637  0.7989421579410090  0.0976259126489677   T   T   T
  0.4935395179665112  0.0845612023727778  0.0978401193227573   T   T   T
  0.3458834159371760  0.1632040139977365  0.0977857707717096   T   T   T
  0.4930406833918471  0.9145956222350340  0.0978052592898214   T   T   T
  0.3435867896823075  0.8349953094151449  0.0978230631453396   T   T   T
  0.7877065310399747  0.0861839158050075  0.0977428089686606   T   T   T
  0.6411872786577383  0.1660714006922165  0.0978726835634131   T   T   T
  0.7889430681961762  0.9193501681824016  0.0976007008479627   T   T   T
  0.8286808050053369  0.6529526828562081  0.0976354303187618   T   T   T
  0.8266084368126149  0.3541946128633571  0.0978437929833124   T   T   T
  0.6416907768831733  0.8355134396064714  0.0976943278254089   T   T   T
  0.3237454104941700  0.3324451573159257  0.0977100874027090   T   T   T
  0.3193532616210706  0.6763090283306625  0.0978241866819713   T   T   T
  0.6647605222703881  0.3302525104585199  0.0979512219109426   T   T   T
  0.6670897372769153  0.6747372089524036  0.0977171256420360   T   T   T
  0.1980048646166127  0.9163725043050908  0.0977873523197400   T   T   T
  0.4945635000542868  0.4975311838774014  0.0978180067406988   T   T   T
 
  0.00000000E+00  0.00000000E+00  0.00000000E+00
  0.00000000E+00  0.00000000E+00  0.00000000E+00
  0.00000000E+00  0.00000000E+00  0.00000000E+00
  0.00000000E+00  0.00000000E+00  0.00000000E+00
  0.00000000E+00  0.00000000E+00  0.00000000E+00
  0.00000000E+00  0.00000000E+00  0.00000000E+00
  0.00000000E+00  0.00000000E+00  0.00000000E+00
  0.00000000E+00  0.00000000E+00  0.00000000E+00
  0.00000000E+00  0.00000000E+00  0.00000000E+00
  0.00000000E+00  0.00000000E+00  0.00000000E+00
  0.00000000E+00  0.00000000E+00  0.00000000E+00
  0.00000000E+00  0.00000000E+00  0.00000000E+00
  0.00000000E+00  0.00000000E+00  0.00000000E+00
  0.00000000E+00  0.00000000E+00  0.00000000E+00
  0.00000000E+00  0.00000000E+00  0.00000000E+00
  0.00000000E+00  0.00000000E+00  0.00000000E+00
  0.00000000E+00  0.00000000E+00  0.00000000E+00
  0.00000000E+00  0.00000000E+00  0.00000000E+00
  0.00000000E+00  0.00000000E+00  0.00000000E+00
  0.00000000E+00  0.00000000E+00  0.00000000E+00
  0.00000000E+00  0.00000000E+00  0.00000000E+00
  0.00000000E+00  0.00000000E+00  0.00000000E+00
  0.00000000E+00  0.00000000E+00  0.00000000E+00
  0.00000000E+00  0.00000000E+00  0.00000000E+00
  0.00000000E+00  0.00000000E+00  0.00000000E+00
