Title                                   
   1.00000000000000     
     4.9440799999999996    0.0000000000000000    0.0000000000000000
     0.0000000000000000    8.5647549999999999    0.0000000000000000
     0.0000000000000000    0.0000000000000000   20.0000000000000000
    14     1     1
Selective dynamics
Direct
  0.2500000000000000  0.2070991605120429  0.0894477363727628   T   T   T
 -0.0031287694011959  0.2871704144296900  0.0945904328511370   T   T   T
  0.2500000000000000  0.0421539434792093  0.0826333535967286   T   T   T
  0.0010413357080435  0.7977420961021877  0.0985825773949007   T   T   T
 -0.0004386307911507  0.9587139159715085  0.0830461806284860   T   T   T
  0.7500000000000000  0.2057371180484837  0.0839235821315406   T   T   T
  0.5031287694011956  0.2871704144296900  0.0945904328511370   T   T   T
  0.7500000000000000  0.0402976838516760  0.0782702139806709   T   T   T
  0.7500000000000000  0.7094805810648193  0.1046943467533188   T   T   T
  0.4989586642919567  0.7977420961021877  0.0985825773949007   T   T   T
  0.7500000000000000  0.5411090280201569  0.1111441838656629   T   T   T
  0.5004386307911509  0.9587139159715085  0.0830461806284860   T   T   T
  0.5127477589464170  0.4460960261383446  0.1154682946600687   T   T   T
 -0.0127477589464169  0.4460960261383446  0.1154682946600687   T   T   T
  0.2500000000000000  0.7310601966726907  0.1152575142517892   T   T   T
  0.2500000000000000  0.5436173830674591  0.1737660979783491   T   T   T
 
  0.00000000E+00  0.00000000E+00  0.00000000E+00
  0.00000000E+00  0.00000000E+00  0.00000000E+00
  0.00000000E+00  0.00000000E+00  0.00000000E+00
  0.00000000E+00  0.00000000E+00  0.00000000E+00
  0.00000000E+00  0.00000000E+00  0.00000000E+00
  0.00000000E+00  0.00000000E+00  0.00000000E+00
  0.00000000E+00  0.00000000E+00  0.00000000E+00
  0.00000000E+00  0.00000000E+00  0.00000000E+00
  0.00000000E+00  0.00000000E+00  0.00000000E+00
  0.00000000E+00  0.00000000E+00  0.00000000E+00
  0.00000000E+00  0.00000000E+00  0.00000000E+00
  0.00000000E+00  0.00000000E+00  0.00000000E+00
  0.00000000E+00  0.00000000E+00  0.00000000E+00
  0.00000000E+00  0.00000000E+00  0.00000000E+00
  0.00000000E+00  0.00000000E+00  0.00000000E+00
  0.00000000E+00  0.00000000E+00  0.00000000E+00
