Title                                   
   1.00000000000000     
     9.8694509999999998    0.0000000000000000    0.0000000000000000
     0.0000000000000000    8.5490480000000009    0.0000000000000000
     0.0000000000000000    0.0000000000000000   20.0000000000000000
    27     4     1
Selective dynamics
Direct
  0.0561309315553557  0.0921761300256770  0.0911004793343015   T   T   T
  0.9303613031340708  0.1749774171597701  0.0920141690978915   T   T   T
  0.0561052123272662  0.9251687672876518  0.0907297750216954   T   T   T
  0.9286427113758553  0.3426292499984098  0.0937370543872513   T   T   T
  0.0561950919122730  0.5902049427109409  0.0920862588026814   T   T   T
  0.9314987040912126  0.6739034137230636  0.0932178845105232   T   T   T
  0.0562318134635906  0.4242158994452134  0.0925378804192593   T   T   T
  0.9315388458678159  0.8406154457997638  0.0918695664380239   T   T   T
  0.3053271120653724  0.0894189921135016  0.0910785371931110   T   T   T
  0.1819297748802309  0.1750249212524406  0.0914753383283158   T   T   T
  0.3055952431556052  0.9239423691249543  0.0908775694419436   T   T   T
  0.1838204029017241  0.3426715933725615  0.0923754103541915   T   T   T
  0.3079982821078352  0.5950447298515007  0.0924083733375591   T   T   T
  0.1808571901261390  0.6739709410884931  0.0913930698797397   T   T   T
  0.3108032877537039  0.4252598214512694  0.0937381454091551   T   T   T
  0.1807003952058781  0.8405758544767072  0.0907033182317613   T   T   T
  0.5561714353747947  0.0816710631575740  0.0929885680926402   T   T   T
  0.4323874929122247  0.1673059349766647  0.0929698928340804   T   T   T
  0.4362116890646269  0.3348548720631013  0.0968555923477014   T   T   T
  0.4274629429860730  0.8344964897963625  0.0916998694301102   T   T   T
  0.8069538039877855  0.0893833349459763  0.0916442814392807   T   T   T
  0.6799757717526818  0.1673319367324877  0.0937057877545915   T   T   T
  0.8066124488636932  0.9238640073352596  0.0919060393349230   T   T   T
  0.6761300053765786  0.3346109361546193  0.0985743787886865   T   T   T
  0.8048195139795332  0.5947177950875576  0.0973762518352146   T   T   T
  0.8017991538529300  0.4250147928354501  0.0971469195226849   T   T   T
  0.6844683656136453  0.8350288818464680  0.0949492159751447   T   T   T
  0.4264784684462323  0.6788720727219978  0.0926207425331915   T   T   T
  0.5560985873242068  0.4100042769449573  0.1040766114532666   T   T   T
  0.6869086361335813  0.6795665734861729  0.1009942013755698   T   T   T
  0.5562131915355122  0.9153157208192944  0.0919295922115217   T   T   T
  0.5572111908719762  0.5884068222141402  0.1848942248840041   T   T   T
 
  0.00000000E+00  0.00000000E+00  0.00000000E+00
  0.00000000E+00  0.00000000E+00  0.00000000E+00
  0.00000000E+00  0.00000000E+00  0.00000000E+00
  0.00000000E+00  0.00000000E+00  0.00000000E+00
  0.00000000E+00  0.00000000E+00  0.00000000E+00
  0.00000000E+00  0.00000000E+00  0.00000000E+00
  0.00000000E+00  0.00000000E+00  0.00000000E+00
  0.00000000E+00  0.00000000E+00  0.00000000E+00
  0.00000000E+00  0.00000000E+00  0.00000000E+00
  0.00000000E+00  0.00000000E+00  0.00000000E+00
  0.00000000E+00  0.00000000E+00  0.00000000E+00
  0.00000000E+00  0.00000000E+00  0.00000000E+00
  0.00000000E+00  0.00000000E+00  0.00000000E+00
  0.00000000E+00  0.00000000E+00  0.00000000E+00
  0.00000000E+00  0.00000000E+00  0.00000000E+00
  0.00000000E+00  0.00000000E+00  0.00000000E+00
  0.00000000E+00  0.00000000E+00  0.00000000E+00
  0.00000000E+00  0.00000000E+00  0.00000000E+00
  0.00000000E+00  0.00000000E+00  0.00000000E+00
  0.00000000E+00  0.00000000E+00  0.00000000E+00
  0.00000000E+00  0.00000000E+00  0.00000000E+00
  0.00000000E+00  0.00000000E+00  0.00000000E+00
  0.00000000E+00  0.00000000E+00  0.00000000E+00
  0.00000000E+00  0.00000000E+00  0.00000000E+00
  0.00000000E+00  0.00000000E+00  0.00000000E+00
  0.00000000E+00  0.00000000E+00  0.00000000E+00
  0.00000000E+00  0.00000000E+00  0.00000000E+00
  0.00000000E+00  0.00000000E+00  0.00000000E+00
  0.00000000E+00  0.00000000E+00  0.00000000E+00
  0.00000000E+00  0.00000000E+00  0.00000000E+00
  0.00000000E+00  0.00000000E+00  0.00000000E+00
  0.00000000E+00  0.00000000E+00  0.00000000E+00
