Title                                   
   1.00000000000000     
     9.8694509999999998    0.0000000000000000    0.0000000000000000
     0.0000000000000000    8.5490480000000009    0.0000000000000000
     0.0000000000000000    0.0000000000000000   20.0000000000000000
    29     1     1
Selective dynamics
Direct
  0.0558657336054565  0.0893081016092418  0.0852948994237722   T   T   T
  0.9311955117575734  0.1711868995281900  0.0867375870878183   T   T   T
  0.0570931300816780  0.9237371210219896  0.0856023396938194   T   T   T
  0.9332094577370539  0.3384402132667095  0.0843932834298145   T   T   T
  0.0566744008308292  0.5902642628135755  0.0809097604046904   T   T   T
  0.9327199509710790  0.6735972231516564  0.0838916144540633   T   T   T
  0.0570003008498379  0.4229688722069622  0.0808981049064838   T   T   T
  0.9310189474853167  0.8398903665807278  0.0863404312010417   T   T   T
  0.3073656247373164  0.0904133919951733  0.0931524995846322   T   T   T
  0.1819974949916398  0.1710445021032546  0.0861841951380458   T   T   T
  0.1808463323352215  0.3384165661040966  0.0839156019928469   T   T   T
  0.3011850080124970  0.5910045817761067  0.0929548511180313   T   T   T
  0.1807051586111336  0.6753151441026780  0.0844553545550354   T   T   T
  0.3019846295998399  0.4230280494579298  0.0919767925660456   T   T   T
  0.1821170979204729  0.8420908189806641  0.0871484262463642   T   T   T
  0.5565845193412715  0.0898960902050722  0.1039729074516863   T   T   T
  0.4314572368329338  0.1774481463487691  0.1014960005408576   T   T   T
  0.5546157785762827  0.9225008326340000  0.1038344677202380   T   T   T
  0.4257687303160179  0.3463671977779696  0.1055712632693411   T   T   T
  0.4230453977363718  0.6691718835820452  0.1090720846022984   T   T   T
  0.4290248545612356  0.8359107948439887  0.1026577041474832   T   T   T
  0.8049065676792302  0.0893909832014059  0.0930871076473504   T   T   T
  0.6813904876359890  0.1767008516714823  0.1015902092914878   T   T   T
  0.8045166697683725  0.9206444614206704  0.0926729282458604   T   T   T
  0.6883384728788100  0.3448094989331961  0.1080859289103918   T   T   T
  0.8109456602119448  0.5893024518111856  0.0912132463059365   T   T   T
  0.6860957886091336  0.6648348027504942  0.1038860285267720   T   T   T
  0.8117482954248577  0.4214708505351534  0.0923571007036743   T   T   T
  0.6792950473659425  0.8329205972646356  0.1002892454923204   T   T   T
  0.3068141964000450  0.9228938219402946  0.0934612655156596   T   T   T
  0.5576085171346179  0.5059056203807017  0.1438617698261641   T   T   T
 
  0.00000000E+00  0.00000000E+00  0.00000000E+00
  0.00000000E+00  0.00000000E+00  0.00000000E+00
  0.00000000E+00  0.00000000E+00  0.00000000E+00
  0.00000000E+00  0.00000000E+00  0.00000000E+00
  0.00000000E+00  0.00000000E+00  0.00000000E+00
  0.00000000E+00  0.00000000E+00  0.00000000E+00
  0.00000000E+00  0.00000000E+00  0.00000000E+00
  0.00000000E+00  0.00000000E+00  0.00000000E+00
  0.00000000E+00  0.00000000E+00  0.00000000E+00
  0.00000000E+00  0.00000000E+00  0.00000000E+00
  0.00000000E+00  0.00000000E+00  0.00000000E+00
  0.00000000E+00  0.00000000E+00  0.00000000E+00
  0.00000000E+00  0.00000000E+00  0.00000000E+00
  0.00000000E+00  0.00000000E+00  0.00000000E+00
  0.00000000E+00  0.00000000E+00  0.00000000E+00
  0.00000000E+00  0.00000000E+00  0.00000000E+00
  0.00000000E+00  0.00000000E+00  0.00000000E+00
  0.00000000E+00  0.00000000E+00  0.00000000E+00
  0.00000000E+00  0.00000000E+00  0.00000000E+00
  0.00000000E+00  0.00000000E+00  0.00000000E+00
  0.00000000E+00  0.00000000E+00  0.00000000E+00
  0.00000000E+00  0.00000000E+00  0.00000000E+00
  0.00000000E+00  0.00000000E+00  0.00000000E+00
  0.00000000E+00  0.00000000E+00  0.00000000E+00
  0.00000000E+00  0.00000000E+00  0.00000000E+00
  0.00000000E+00  0.00000000E+00  0.00000000E+00
  0.00000000E+00  0.00000000E+00  0.00000000E+00
  0.00000000E+00  0.00000000E+00  0.00000000E+00
  0.00000000E+00  0.00000000E+00  0.00000000E+00
  0.00000000E+00  0.00000000E+00  0.00000000E+00
  0.00000000E+00  0.00000000E+00  0.00000000E+00
