Title                                   
   1.00000000000000     
     4.9440799999999996    0.0000000000000000    0.0000000000000000
     0.0000000000000000    8.5647549999999999    0.0000000000000000
     0.0000000000000000    0.0000000000000000   20.0000000000000000
    11     3     1
Selective dynamics
Direct
  0.0016839548702633  0.2946800576758012  0.0997251003245216   T   T   T
  0.2499170465344762  0.0407983682007315  0.1006450442734371   T   T   T
 -0.0022573518073190  0.9531021921198171  0.1008175910188857   T   T   T
  0.7522160822403715  0.2087085039158492  0.1000716607602984   T   T   T
  0.5028423524399811  0.2973888575336471  0.1008747485169547   T   T   T
  0.7489743249424287  0.0395017158975594  0.1001730755711553   T   T   T
  0.7472965867701518  0.7119639961268331  0.1002510323257492   T   T   T
  0.7516691334052983  0.5360149214494846  0.1001574264065057   T   T   T
  0.4984511500205646  0.9567873990522137  0.1001051054324625   T   T   T
  0.5019089001977162  0.7881672830853378  0.0998089044828343   T   T   T
 -0.0018450356092360  0.4603539288466065  0.0987971906050432   T   T   T
  0.5059603086911530  0.4592700216041907  0.1020723604439191   T   T   T
 -0.0068772492105389  0.7880218562980958  0.1016171449633715   T   T   T
  0.2507083570623548  0.2107585154545999  0.1006136924102481   T   T   T
  0.2493514394523355  0.6261633827392351  0.1022499224646171   T   T   T
 
  0.00000000E+00  0.00000000E+00  0.00000000E+00
  0.00000000E+00  0.00000000E+00  0.00000000E+00
  0.00000000E+00  0.00000000E+00  0.00000000E+00
  0.00000000E+00  0.00000000E+00  0.00000000E+00
  0.00000000E+00  0.00000000E+00  0.00000000E+00
  0.00000000E+00  0.00000000E+00  0.00000000E+00
  0.00000000E+00  0.00000000E+00  0.00000000E+00
  0.00000000E+00  0.00000000E+00  0.00000000E+00
  0.00000000E+00  0.00000000E+00  0.00000000E+00
  0.00000000E+00  0.00000000E+00  0.00000000E+00
  0.00000000E+00  0.00000000E+00  0.00000000E+00
  0.00000000E+00  0.00000000E+00  0.00000000E+00
  0.00000000E+00  0.00000000E+00  0.00000000E+00
  0.00000000E+00  0.00000000E+00  0.00000000E+00
  0.00000000E+00  0.00000000E+00  0.00000000E+00
