Title                                   
   1.00000000000000     
     9.8694509999999998    0.0000000000000000    0.0000000000000000
     0.0000000000000000    8.5490480000000009    0.0000000000000000
     0.0000000000000000    0.0000000000000000   20.0000000000000000
    25     5     1
Selective dynamics
Direct
  0.0562688564507254  0.0907377274237260  0.0919429071951596   T   T   T
  0.9309565360831599  0.1736724071286016  0.0960436303195769   T   T   T
  0.0582488192773655  0.9230002746572638  0.0920877669389369   T   T   T
  0.9325407898433307  0.3411369359078561  0.0981497413798669   T   T   T
  0.0579832232374820  0.5897246654733632  0.0935572158394259   T   T   T
  0.9338639090962625  0.6734253323223514  0.0981485493665417   T   T   T
  0.0574857838391620  0.4228200811143669  0.0933067428989796   T   T   T
  0.9331126570220736  0.8406327854825992  0.0963971009511928   T   T   T
  0.3082796290117926  0.0874071469932861  0.0887832651142818   T   T   T
  0.1819775998612312  0.1720593248114509  0.0894635832204182   T   T   T
  0.1813874465696341  0.3383231318077079  0.0895618419978814   T   T   T
  0.3082427756553670  0.5893512005987299  0.0849351033722136   T   T   T
  0.1823737581336508  0.6729324326872862  0.0896720705730481   T   T   T
  0.3078268376772328  0.4197684645301309  0.0863206945197014   T   T   T
  0.1821906577055028  0.8385594191229649  0.0893931436488140   T   T   T
  0.4301375107952664  0.1705932932310303  0.0913111369393519   T   T   T
  0.5553997977811901  0.9190913953096992  0.0978220587322788   T   T   T
  0.4302225639540958  0.8377707001609256  0.0894822073997530   T   T   T
  0.8043934372045994  0.0902627230412818  0.0979487330333434   T   T   T
  0.6802233799968971  0.1767417994840444  0.1031427894110240   T   T   T
  0.8069193815697318  0.9227469801010241  0.0984020860238052   T   T   T
  0.6834038152567264  0.3407332971931433  0.1133270351154003   T   T   T
  0.8103499094067732  0.5928724625460354  0.1061611239941856   T   T   T
  0.8081843480677716  0.4238047265550354  0.1066956517940422   T   T   T
  0.6828844007049384  0.8359374857817312  0.1031578184184537   T   T   T
  0.5561390557514968  0.0911478763948168  0.0979803006797830   T   T   T
  0.4277498520193380  0.3323192318643726  0.0895229193857489   T   T   T
  0.6891594038114172  0.6746758180030721  0.1126591638760759   T   T   T
  0.4280043362890520  0.6779905270156872  0.0829920996315272   T   T   T
  0.3070817256700946  0.9210139991329979  0.0878218121886845   T   T   T
  0.5301428022566488  0.5096213541234318  0.1447747060405400   T   T   T
 
  0.00000000E+00  0.00000000E+00  0.00000000E+00
  0.00000000E+00  0.00000000E+00  0.00000000E+00
  0.00000000E+00  0.00000000E+00  0.00000000E+00
  0.00000000E+00  0.00000000E+00  0.00000000E+00
  0.00000000E+00  0.00000000E+00  0.00000000E+00
  0.00000000E+00  0.00000000E+00  0.00000000E+00
  0.00000000E+00  0.00000000E+00  0.00000000E+00
  0.00000000E+00  0.00000000E+00  0.00000000E+00
  0.00000000E+00  0.00000000E+00  0.00000000E+00
  0.00000000E+00  0.00000000E+00  0.00000000E+00
  0.00000000E+00  0.00000000E+00  0.00000000E+00
  0.00000000E+00  0.00000000E+00  0.00000000E+00
  0.00000000E+00  0.00000000E+00  0.00000000E+00
  0.00000000E+00  0.00000000E+00  0.00000000E+00
  0.00000000E+00  0.00000000E+00  0.00000000E+00
  0.00000000E+00  0.00000000E+00  0.00000000E+00
  0.00000000E+00  0.00000000E+00  0.00000000E+00
  0.00000000E+00  0.00000000E+00  0.00000000E+00
  0.00000000E+00  0.00000000E+00  0.00000000E+00
  0.00000000E+00  0.00000000E+00  0.00000000E+00
  0.00000000E+00  0.00000000E+00  0.00000000E+00
  0.00000000E+00  0.00000000E+00  0.00000000E+00
  0.00000000E+00  0.00000000E+00  0.00000000E+00
  0.00000000E+00  0.00000000E+00  0.00000000E+00
  0.00000000E+00  0.00000000E+00  0.00000000E+00
  0.00000000E+00  0.00000000E+00  0.00000000E+00
  0.00000000E+00  0.00000000E+00  0.00000000E+00
  0.00000000E+00  0.00000000E+00  0.00000000E+00
  0.00000000E+00  0.00000000E+00  0.00000000E+00
  0.00000000E+00  0.00000000E+00  0.00000000E+00
  0.00000000E+00  0.00000000E+00  0.00000000E+00
