Title                                   
   1.00000000000000     
     9.8694509999999998    0.0000000000000000    0.0000000000000000
     0.0000000000000000    8.5490480000000009    0.0000000000000000
     0.0000000000000000    0.0000000000000000   20.0000000000000000
    29     2     1
Selective dynamics
Direct
  0.0560495952316084  0.0910738395999779  0.0859280314782186   T   T   T
  0.9303642297504099  0.1729588694152157  0.0898830798245189   T   T   T
  0.0550237645608236  0.9242836487378199  0.0842398547297231   T   T   T
  0.9304052325503757  0.3407312062149595  0.0953747397389087   T   T   T
  0.0561517751917653  0.5898870568899559  0.0887628986563168   T   T   T
  0.9312303611250466  0.6726596761611022  0.0928694050508535   T   T   T
  0.0566849581618762  0.4241237790467832  0.0905441631186450   T   T   T
  0.9300872650973319  0.8392157986908803  0.0878125014952669   T   T   T
  0.3052215938447365  0.0907820205710972  0.0868929939434481   T   T   T
  0.1817117837472727  0.1747625900573160  0.0874062330046428   T   T   T
  0.3048820952049394  0.9248569495425809  0.0849207081808502   T   T   T
  0.1835224525041568  0.3433949600065756  0.0895351884973721   T   T   T
  0.3080070718899363  0.5961672243209306  0.0875669820764531   T   T   T
  0.1806296130254993  0.6741781969743346  0.0849065272470332   T   T   T
  0.3090772828239133  0.4263175212897531  0.0930937583475723   T   T   T
  0.1801329118834469  0.8409964287369089  0.0834188542710950   T   T   T
  0.5552164979706943  0.0843631288980199  0.0941430749038277   T   T   T
  0.4320154110838323  0.1701368176651589  0.0921459515682325   T   T   T
  0.4335713408092577  0.3374406094560596  0.1015079671457158   T   T   T
  0.5560349717891204  0.4059964203916996  0.1212796782435730   T   T   T
  0.4271022240238170  0.8358029206172148  0.0877057658006392   T   T   T
  0.8066165700243474  0.0883556181582668  0.0897457724742743   T   T   T
  0.6805381181044627  0.1677676968806099  0.0966321874951901   T   T   T
  0.8047592538551646  0.9217441611515589  0.0885205215122102   T   T   T
  0.6807880662153388  0.3332729439360383  0.1095321427339523   T   T   T
  0.8079411649933570  0.5914034870563687  0.1073239474721703   T   T   T
  0.6900883450870803  0.6815747438180573  0.1191988084593437   T   T   T
  0.8071200712010674  0.4214442742183744  0.1067940239521934   T   T   T
  0.6808308654709886  0.8371415104421193  0.0991737537679507   T   T   T
  0.4262539154853811  0.6804296005285367  0.0871568212861287   T   T   T
  0.5540403853742611  0.9181820949604953  0.0937545508907856   T   T   T
  0.5575398119186992  0.5888002055652175  0.1959041126329398   T   T   T
 
  0.00000000E+00  0.00000000E+00  0.00000000E+00
  0.00000000E+00  0.00000000E+00  0.00000000E+00
  0.00000000E+00  0.00000000E+00  0.00000000E+00
  0.00000000E+00  0.00000000E+00  0.00000000E+00
  0.00000000E+00  0.00000000E+00  0.00000000E+00
  0.00000000E+00  0.00000000E+00  0.00000000E+00
  0.00000000E+00  0.00000000E+00  0.00000000E+00
  0.00000000E+00  0.00000000E+00  0.00000000E+00
  0.00000000E+00  0.00000000E+00  0.00000000E+00
  0.00000000E+00  0.00000000E+00  0.00000000E+00
  0.00000000E+00  0.00000000E+00  0.00000000E+00
  0.00000000E+00  0.00000000E+00  0.00000000E+00
  0.00000000E+00  0.00000000E+00  0.00000000E+00
  0.00000000E+00  0.00000000E+00  0.00000000E+00
  0.00000000E+00  0.00000000E+00  0.00000000E+00
  0.00000000E+00  0.00000000E+00  0.00000000E+00
  0.00000000E+00  0.00000000E+00  0.00000000E+00
  0.00000000E+00  0.00000000E+00  0.00000000E+00
  0.00000000E+00  0.00000000E+00  0.00000000E+00
  0.00000000E+00  0.00000000E+00  0.00000000E+00
  0.00000000E+00  0.00000000E+00  0.00000000E+00
  0.00000000E+00  0.00000000E+00  0.00000000E+00
  0.00000000E+00  0.00000000E+00  0.00000000E+00
  0.00000000E+00  0.00000000E+00  0.00000000E+00
  0.00000000E+00  0.00000000E+00  0.00000000E+00
  0.00000000E+00  0.00000000E+00  0.00000000E+00
  0.00000000E+00  0.00000000E+00  0.00000000E+00
  0.00000000E+00  0.00000000E+00  0.00000000E+00
  0.00000000E+00  0.00000000E+00  0.00000000E+00
  0.00000000E+00  0.00000000E+00  0.00000000E+00
  0.00000000E+00  0.00000000E+00  0.00000000E+00
  0.00000000E+00  0.00000000E+00  0.00000000E+00
