Title                                   
   1.00000000000000     
     9.8694509999999998    0.0000000000000000    0.0000000000000000
     0.0000000000000000    8.5490480000000009    0.0000000000000000
     0.0000000000000000    0.0000000000000000   20.0000000000000000
    27     4     1
Selective dynamics
Direct
  0.0561710373525247  0.0920550936847384  0.0890052140941345   T   T   T
  0.9306860217163556  0.1751939361998650  0.0909343643848293   T   T   T
  0.0563769820321215  0.9245777917287223  0.0878718659735687   T   T   T
  0.9290076076777666  0.3421806885786350  0.0956593963551554   T   T   T
  0.0563729448327770  0.5898166766501056  0.0921111465464347   T   T   T
  0.9319432613673648  0.6737756966676005  0.0936909323328619   T   T   T
  0.0562609155032495  0.4235464933531949  0.0933941960383500   T   T   T
  0.9319354392879641  0.8401152177168788  0.0898985848323386   T   T   T
  0.3051885484415774  0.0889056911808126  0.0899438540719588   T   T   T
  0.1818380107033818  0.1745365044148356  0.0907126861701559   T   T   T
  0.3058898288598493  0.9239896756519781  0.0893828100166827   T   T   T
  0.1836095139963217  0.3418432349337001  0.0927629671257694   T   T   T
  0.3076877186102109  0.5935667843191839  0.0916067927919250   T   T   T
  0.1809413097705382  0.6734642501586418  0.0899393124896113   T   T   T
  0.3110134711464964  0.4244071591540896  0.0955179674444690   T   T   T
  0.1807848478581583  0.8400585488204485  0.0881764545215148   T   T   T
  0.5566399121274664  0.0822726991158867  0.0932194722595487   T   T   T
  0.4322422252657036  0.1667990933289605  0.0933800656744161   T   T   T
  0.4350690663982884  0.3320952647469622  0.1013558376025829   T   T   T
  0.4277225449538676  0.8359876213946655  0.0907448365979249   T   T   T
  0.8071725573729992  0.0898070180517977  0.0890646942967248   T   T   T
  0.6803828594055644  0.1677905895889428  0.0938152239062609   T   T   T
  0.8071022183208201  0.9245153804253785  0.0890970605711460   T   T   T
  0.6772943859511865  0.3329983247502333  0.1047840659283896   T   T   T
  0.8061945394942531  0.5942687681146235  0.1027979361082105   T   T   T
  0.8019525629154162  0.4250371061723731  0.1030162422481994   T   T   T
  0.6853137905990034  0.8378294795204352  0.0958420669719567   T   T   T
  0.4266288897807058  0.6792246825593280  0.0893862737382299   T   T   T
  0.5555424376876059  0.4021683198536860  0.1170780330334476   T   T   T
  0.6906989340099042  0.6841244404747915  0.1102371099825186   T   T   T
  0.5572547043348675  0.9164909129073822  0.0916137490478122   T   T   T
  0.5467199122256956  0.5968028557811266  0.1596337868428871   T   T   T
 
  0.00000000E+00  0.00000000E+00  0.00000000E+00
  0.00000000E+00  0.00000000E+00  0.00000000E+00
  0.00000000E+00  0.00000000E+00  0.00000000E+00
  0.00000000E+00  0.00000000E+00  0.00000000E+00
  0.00000000E+00  0.00000000E+00  0.00000000E+00
  0.00000000E+00  0.00000000E+00  0.00000000E+00
  0.00000000E+00  0.00000000E+00  0.00000000E+00
  0.00000000E+00  0.00000000E+00  0.00000000E+00
  0.00000000E+00  0.00000000E+00  0.00000000E+00
  0.00000000E+00  0.00000000E+00  0.00000000E+00
  0.00000000E+00  0.00000000E+00  0.00000000E+00
  0.00000000E+00  0.00000000E+00  0.00000000E+00
  0.00000000E+00  0.00000000E+00  0.00000000E+00
  0.00000000E+00  0.00000000E+00  0.00000000E+00
  0.00000000E+00  0.00000000E+00  0.00000000E+00
  0.00000000E+00  0.00000000E+00  0.00000000E+00
  0.00000000E+00  0.00000000E+00  0.00000000E+00
  0.00000000E+00  0.00000000E+00  0.00000000E+00
  0.00000000E+00  0.00000000E+00  0.00000000E+00
  0.00000000E+00  0.00000000E+00  0.00000000E+00
  0.00000000E+00  0.00000000E+00  0.00000000E+00
  0.00000000E+00  0.00000000E+00  0.00000000E+00
  0.00000000E+00  0.00000000E+00  0.00000000E+00
  0.00000000E+00  0.00000000E+00  0.00000000E+00
  0.00000000E+00  0.00000000E+00  0.00000000E+00
  0.00000000E+00  0.00000000E+00  0.00000000E+00
  0.00000000E+00  0.00000000E+00  0.00000000E+00
  0.00000000E+00  0.00000000E+00  0.00000000E+00
  0.00000000E+00  0.00000000E+00  0.00000000E+00
  0.00000000E+00  0.00000000E+00  0.00000000E+00
  0.00000000E+00  0.00000000E+00  0.00000000E+00
  0.00000000E+00  0.00000000E+00  0.00000000E+00
