Title                                   
   1.00000000000000     
     8.5490480000000009    0.0000000000000000    0.0000000000000000
     0.0000000000000000    8.5490480000000009    0.0000000000000000
     0.0000000000000000    0.0000000000000000   20.0000000000000000
    19     5     1
Selective dynamics
Direct
  0.9093816552367422  0.2067292629244722  0.0976516136048737   T   T   T
  0.9110305735548413  0.8006412666253033  0.0974940630453112   T   T   T
  0.1995117760924124  0.0844571046115753  0.0978054695987416   T   T   T
  0.0754914554039997  0.2046277529415848  0.0977422624069670   T   T   T
  0.1557734286123464  0.6513294727715223  0.0977835837045527   T   T   T
  0.0743518201491757  0.5017718403672927  0.0977634758413679   T   T   T
  0.1550316062213279  0.3565929874253669  0.0978270260156204   T   T   T
  0.0790289419965332  0.7992162656651911  0.0976634195037728   T   T   T
  0.4944643016659052  0.0848744009672795  0.0977341529639088   T   T   T
  0.3467598059931469  0.1644607090401883  0.0978397255689085   T   T   T
  0.4938515744354012  0.9129067669678798  0.0977448357447211   T   T   T
  0.3449721218473909  0.8320626902299381  0.0978615554454358   T   T   T
  0.7886403793488939  0.0867429312413013  0.0975798212585221   T   T   T
  0.6416380926412184  0.1668068238288874  0.0977020092835416   T   T   T
  0.7895900068990234  0.9186540346441899  0.0975138563094994   T   T   T
  0.8285801495657927  0.6518213714118172  0.0976412036006188   T   T   T
  0.8246498329166623  0.3557756266863358  0.0977506647609700   T   T   T
  0.6428693099189153  0.8341664833325778  0.0976965341284374   T   T   T
  0.3256114458009569  0.3369026532513157  0.0978431272930125   T   T   T
  0.9039200523460793  0.5036385488465118  0.0977653246963777   T   T   T
  0.3189837411155542  0.6725067460032186  0.0979084360506251   T   T   T
  0.6644000121112209  0.3328374727692877  0.0978285375052233   T   T   T
  0.6684455938565199  0.6719001757844754  0.0978333270850050   T   T   T
  0.1983161390713895  0.9156006068933135  0.0978300747382828   T   T   T
  0.4901181831985434  0.4977660047691940  0.0979008998456756   T   T   T
 
  0.00000000E+00  0.00000000E+00  0.00000000E+00
  0.00000000E+00  0.00000000E+00  0.00000000E+00
  0.00000000E+00  0.00000000E+00  0.00000000E+00
  0.00000000E+00  0.00000000E+00  0.00000000E+00
  0.00000000E+00  0.00000000E+00  0.00000000E+00
  0.00000000E+00  0.00000000E+00  0.00000000E+00
  0.00000000E+00  0.00000000E+00  0.00000000E+00
  0.00000000E+00  0.00000000E+00  0.00000000E+00
  0.00000000E+00  0.00000000E+00  0.00000000E+00
  0.00000000E+00  0.00000000E+00  0.00000000E+00
  0.00000000E+00  0.00000000E+00  0.00000000E+00
  0.00000000E+00  0.00000000E+00  0.00000000E+00
  0.00000000E+00  0.00000000E+00  0.00000000E+00
  0.00000000E+00  0.00000000E+00  0.00000000E+00
  0.00000000E+00  0.00000000E+00  0.00000000E+00
  0.00000000E+00  0.00000000E+00  0.00000000E+00
  0.00000000E+00  0.00000000E+00  0.00000000E+00
  0.00000000E+00  0.00000000E+00  0.00000000E+00
  0.00000000E+00  0.00000000E+00  0.00000000E+00
  0.00000000E+00  0.00000000E+00  0.00000000E+00
  0.00000000E+00  0.00000000E+00  0.00000000E+00
  0.00000000E+00  0.00000000E+00  0.00000000E+00
  0.00000000E+00  0.00000000E+00  0.00000000E+00
  0.00000000E+00  0.00000000E+00  0.00000000E+00
  0.00000000E+00  0.00000000E+00  0.00000000E+00
