Title                                   
   1.00000000000000     
     9.8694509999999998    0.0000000000000000    0.0000000000000000
     0.0000000000000000    8.5490480000000009    0.0000000000000000
     0.0000000000000000    0.0000000000000000   20.0000000000000000
    28     2     1
Selective dynamics
Direct
  0.0556934017644722  0.0892894977593747  0.0861667785805118   T   T   T
  0.9305733111880589  0.1715026582420780  0.0871112300595515   T   T   T
  0.0569199824746447  0.9236938968128482  0.0863587733509210   T   T   T
  0.9327672240114268  0.3388728251599252  0.0854229182522059   T   T   T
  0.0566235466151510  0.5900959716546801  0.0826578415735789   T   T   T
  0.9324079763911861  0.6730150677297347  0.0856135200885212   T   T   T
  0.0568755142473401  0.4230302221368851  0.0825783259443618   T   T   T
  0.9308036384371682  0.8399673399559997  0.0874559193331161   T   T   T
  0.3084320166736207  0.0896617484757868  0.0921660048000098   T   T   T
  0.1827577579565002  0.1712241462483468  0.0869602861575867   T   T   T
  0.1810205580565799  0.3384628260314070  0.0852177375191999   T   T   T
  0.3020804244380293  0.5905452400068451  0.0932000283275379   T   T   T
  0.1810750469353949  0.6748980538608093  0.0853673647620304   T   T   T
  0.3025791166193227  0.4224086912047131  0.0924051380463840   T   T   T
  0.1822758984842880  0.8416781675690075  0.0875118065095551   T   T   T
  0.4328102217145621  0.1769891316970766  0.0992498466974666   T   T   T
  0.5545794339152633  0.9229748877586798  0.1024738279868930   T   T   T
  0.4278079541273547  0.3447516778050104  0.1041642017483878   T   T   T
  0.4247108171108372  0.6692637113142733  0.1087171447954867   T   T   T
  0.4303576680412183  0.8370604708729543  0.1015436762120354   T   T   T
  0.8036878379870733  0.0891976301693753  0.0920118578770009   T   T   T
  0.6796116017384828  0.1766366298520607  0.0990928212560191   T   T   T
  0.8046570932765658  0.9210796210134894  0.0926615962776688   T   T   T
  0.6854161706022469  0.3434245347413603  0.1061454906388672   T   T   T
  0.8105249215716057  0.5891758659939788  0.0925941661287095   T   T   T
  0.6853144750568003  0.6661076594438468  0.1055161254979166   T   T   T
  0.8108542911025431  0.4211163303044106  0.0927160163259255   T   T   T
  0.6786049769239931  0.8347845049602698  0.1001980777042959   T   T   T
  0.5567189341543362  0.0909767597510498  0.1015262566631507   T   T   T
  0.3065902214630317  0.9226612270486890  0.0926005759669415   T   T   T
  0.5580029669209037  0.5063280044250541  0.1435596449181897   T   T   T
 
  0.00000000E+00  0.00000000E+00  0.00000000E+00
  0.00000000E+00  0.00000000E+00  0.00000000E+00
  0.00000000E+00  0.00000000E+00  0.00000000E+00
  0.00000000E+00  0.00000000E+00  0.00000000E+00
  0.00000000E+00  0.00000000E+00  0.00000000E+00
  0.00000000E+00  0.00000000E+00  0.00000000E+00
  0.00000000E+00  0.00000000E+00  0.00000000E+00
  0.00000000E+00  0.00000000E+00  0.00000000E+00
  0.00000000E+00  0.00000000E+00  0.00000000E+00
  0.00000000E+00  0.00000000E+00  0.00000000E+00
  0.00000000E+00  0.00000000E+00  0.00000000E+00
  0.00000000E+00  0.00000000E+00  0.00000000E+00
  0.00000000E+00  0.00000000E+00  0.00000000E+00
  0.00000000E+00  0.00000000E+00  0.00000000E+00
  0.00000000E+00  0.00000000E+00  0.00000000E+00
  0.00000000E+00  0.00000000E+00  0.00000000E+00
  0.00000000E+00  0.00000000E+00  0.00000000E+00
  0.00000000E+00  0.00000000E+00  0.00000000E+00
  0.00000000E+00  0.00000000E+00  0.00000000E+00
  0.00000000E+00  0.00000000E+00  0.00000000E+00
  0.00000000E+00  0.00000000E+00  0.00000000E+00
  0.00000000E+00  0.00000000E+00  0.00000000E+00
  0.00000000E+00  0.00000000E+00  0.00000000E+00
  0.00000000E+00  0.00000000E+00  0.00000000E+00
  0.00000000E+00  0.00000000E+00  0.00000000E+00
  0.00000000E+00  0.00000000E+00  0.00000000E+00
  0.00000000E+00  0.00000000E+00  0.00000000E+00
  0.00000000E+00  0.00000000E+00  0.00000000E+00
  0.00000000E+00  0.00000000E+00  0.00000000E+00
  0.00000000E+00  0.00000000E+00  0.00000000E+00
  0.00000000E+00  0.00000000E+00  0.00000000E+00
