Title                                   
   1.00000000000000     
     8.5490480000000009    0.0000000000000000    0.0000000000000000
     0.0000000000000000    8.5490480000000009    0.0000000000000000
     0.0000000000000000    0.0000000000000000   20.0000000000000000
    20     4     1
Selective dynamics
Direct
  0.9096301965637565  0.2060493623648907  0.0976423664787568   T   T   T
  0.9047492787812709  0.5037247070268461  0.0977018867054758   T   T   T
  0.9103868877543085  0.8020756899453336  0.0974196734722735   T   T   T
  0.2007973748791665  0.0832879573920276  0.0976934671504732   T   T   T
  0.0752995784969309  0.2064220643340315  0.0976741430302169   T   T   T
  0.1567522481319079  0.6524736016421313  0.0977427548418530   T   T   T
  0.0754727820967296  0.5029840341411727  0.0977031761481586   T   T   T
  0.1572779660282806  0.3564197017349562  0.0977912457884033   T   T   T
  0.0778755022228782  0.7993605519964289  0.0975854119459325   T   T   T
  0.4943704955339434  0.0832544957026350  0.0977596190273459   T   T   T
  0.3475495297278952  0.1630206139222567  0.0978100737670665   T   T   T
  0.4934394863555761  0.9133524127880296  0.0977647583567959   T   T   T
  0.3446220102465543  0.8328804561995782  0.0978831301090607   T   T   T
  0.7885486717407146  0.0854220154896504  0.0975708697498130   T   T   T
  0.6416807511624050  0.1657311849792725  0.0977779761870311   T   T   T
  0.7892784840491476  0.9194690569938814  0.0974461518284515   T   T   T
  0.8278232921664369  0.6529499936744563  0.0976552070006101   T   T   T
  0.8244196968404386  0.3548811572365733  0.0978350271178256   T   T   T
  0.6416295076484658  0.8341769725965898  0.0977117140489794   T   T   T
  0.3264468750215691  0.3349281481118679  0.0978738197650674   T   T   T
  0.3187771468726313  0.6749053933253478  0.0979707741380638   T   T   T
  0.6630911974850039  0.3291399571056590  0.0979798201319282   T   T   T
  0.6665562382507392  0.6744868488342586  0.0979105808415204   T   T   T
  0.1987568665604755  0.9173800782484742  0.0977582562672782   T   T   T
  0.4901799353827667  0.4960135442136704  0.0980430961015918   T   T   T
 
  0.00000000E+00  0.00000000E+00  0.00000000E+00
  0.00000000E+00  0.00000000E+00  0.00000000E+00
  0.00000000E+00  0.00000000E+00  0.00000000E+00
  0.00000000E+00  0.00000000E+00  0.00000000E+00
  0.00000000E+00  0.00000000E+00  0.00000000E+00
  0.00000000E+00  0.00000000E+00  0.00000000E+00
  0.00000000E+00  0.00000000E+00  0.00000000E+00
  0.00000000E+00  0.00000000E+00  0.00000000E+00
  0.00000000E+00  0.00000000E+00  0.00000000E+00
  0.00000000E+00  0.00000000E+00  0.00000000E+00
  0.00000000E+00  0.00000000E+00  0.00000000E+00
  0.00000000E+00  0.00000000E+00  0.00000000E+00
  0.00000000E+00  0.00000000E+00  0.00000000E+00
  0.00000000E+00  0.00000000E+00  0.00000000E+00
  0.00000000E+00  0.00000000E+00  0.00000000E+00
  0.00000000E+00  0.00000000E+00  0.00000000E+00
  0.00000000E+00  0.00000000E+00  0.00000000E+00
  0.00000000E+00  0.00000000E+00  0.00000000E+00
  0.00000000E+00  0.00000000E+00  0.00000000E+00
  0.00000000E+00  0.00000000E+00  0.00000000E+00
  0.00000000E+00  0.00000000E+00  0.00000000E+00
  0.00000000E+00  0.00000000E+00  0.00000000E+00
  0.00000000E+00  0.00000000E+00  0.00000000E+00
  0.00000000E+00  0.00000000E+00  0.00000000E+00
  0.00000000E+00  0.00000000E+00  0.00000000E+00
