Title                                   
   1.00000000000000     
     4.9440799999999996    0.0000000000000000    0.0000000000000000
     0.0000000000000000   17.1295089999999988    0.0000000000000000
     0.0000000000000000    0.0000000000000000   20.0000000000000000
    27     3     1
Selective dynamics
Direct
  0.0011332642523602  0.1056700744823958  0.2941009055751526   T   T   T
  0.2503052400655895  0.1481548762587584  0.2954518415897544   T   T   T
  0.2503370696238444  0.2328759171290194  0.2990650121591290   T   T   T
 -0.0013728598146935  0.2739649562958278  0.3007249799615682   T   T   T
  0.0011671175384162  0.6016876018665623  0.3001940101778967   T   T   T
  0.2500834676420118  0.7269540249910953  0.2950915476598749   T   T   T
  0.0013731916009631  0.8531328999719422  0.2928570014875471   T   T   T
  0.2501927672867933  0.8954279757538487  0.2928783613630687   T   T   T
  0.2502423510982240  0.9795655627071146  0.2929637019238091   T   T   T
  0.0014337305127926  0.7690302513955800  0.2936435861533592   T   T   T
  0.4995141481741460  0.1056792478635515  0.2940303545727639   T   T   T
  0.7503640300996640  0.1476596375370222  0.2944296958535685   T   T   T
  0.7504932699464308  0.2310425016546085  0.2969436455570309   T   T   T
  0.4998532888946233  0.0216396041987196  0.2930501987021109   T   T   T
  0.7503019429870657  0.3937207927563003  0.3059792534449929   T   T   T
  0.7500537272075044  0.4787480463203423  0.3066761524710526   T   T   T
  0.5021756133394970  0.2739236812246106  0.3002678638087182   T   T   T
  0.4988807837050430  0.6017288309746861  0.2996136965132264   T   T   T
  0.7501274793322849  0.7274183958137810  0.2935366891720851   T   T   T
  0.4989543510465105  0.8531266347686620  0.2928079604912306   T   T   T
  0.7501908586461002  0.8952587053425315  0.2925660649280536   T   T   T
  0.7502261641195535  0.9792131656389991  0.2927063649943049   T   T   T
  0.4988070197542609  0.7690256815395848  0.2935516690548771   T   T   T
  0.7500977540041461  0.6448918178650362  0.2955503563446767   T   T   T
  0.0006104211296065  0.0216279812631454  0.2930881947569848   T   T   T
  0.4993211297858950  0.5202956201598852  0.3072366095341820   T   T   T
  0.0008510444936662  0.5203269031530419  0.3088675687774896   T   T   T
  0.5087645492482230  0.3542451534284216  0.3058589630445646   T   T   T
 -0.0078994691390638  0.3543010999733522  0.3072356185675937   T   T   T
  0.2500257600566131  0.6443168459914163  0.2984904779114400   T   T   T
  0.2533977933619320  0.4366875116801531  0.3556016534478449   T   T   T
 
  0.00000000E+00  0.00000000E+00  0.00000000E+00
  0.00000000E+00  0.00000000E+00  0.00000000E+00
  0.00000000E+00  0.00000000E+00  0.00000000E+00
  0.00000000E+00  0.00000000E+00  0.00000000E+00
  0.00000000E+00  0.00000000E+00  0.00000000E+00
  0.00000000E+00  0.00000000E+00  0.00000000E+00
  0.00000000E+00  0.00000000E+00  0.00000000E+00
  0.00000000E+00  0.00000000E+00  0.00000000E+00
  0.00000000E+00  0.00000000E+00  0.00000000E+00
  0.00000000E+00  0.00000000E+00  0.00000000E+00
  0.00000000E+00  0.00000000E+00  0.00000000E+00
  0.00000000E+00  0.00000000E+00  0.00000000E+00
  0.00000000E+00  0.00000000E+00  0.00000000E+00
  0.00000000E+00  0.00000000E+00  0.00000000E+00
  0.00000000E+00  0.00000000E+00  0.00000000E+00
  0.00000000E+00  0.00000000E+00  0.00000000E+00
  0.00000000E+00  0.00000000E+00  0.00000000E+00
  0.00000000E+00  0.00000000E+00  0.00000000E+00
  0.00000000E+00  0.00000000E+00  0.00000000E+00
  0.00000000E+00  0.00000000E+00  0.00000000E+00
  0.00000000E+00  0.00000000E+00  0.00000000E+00
  0.00000000E+00  0.00000000E+00  0.00000000E+00
  0.00000000E+00  0.00000000E+00  0.00000000E+00
  0.00000000E+00  0.00000000E+00  0.00000000E+00
  0.00000000E+00  0.00000000E+00  0.00000000E+00
  0.00000000E+00  0.00000000E+00  0.00000000E+00
  0.00000000E+00  0.00000000E+00  0.00000000E+00
  0.00000000E+00  0.00000000E+00  0.00000000E+00
  0.00000000E+00  0.00000000E+00  0.00000000E+00
  0.00000000E+00  0.00000000E+00  0.00000000E+00
  0.00000000E+00  0.00000000E+00  0.00000000E+00
