Title                                   
   1.00000000000000     
     8.5490480000000009    0.0000000000000000    0.0000000000000000
     0.0000000000000000    8.5490480000000009    0.0000000000000000
     0.0000000000000000    0.0000000000000000   20.0000000000000000
    20     4     1
Selective dynamics
Direct
  0.9074021193505053  0.2074811648885404  0.0942790222515476   T   T   T
  0.9118910905642985  0.8013107505775664  0.0955424999682840   T   T   T
  0.1984097188234392  0.0825767506775752  0.0951459344981156   T   T   T
  0.0753201619504243  0.2027269905044609  0.0955758532780991   T   T   T
  0.1571057990129686  0.6489963345396976  0.0958523596404383   T   T   T
  0.0744495785824930  0.5006731888291780  0.0972531965054376   T   T   T
  0.1545756148260777  0.3530360615852752  0.0988927413898112   T   T   T
  0.0803750260000118  0.7984445943918270  0.0946371065791914   T   T   T
  0.3462284662846419  0.1624483513257861  0.0980812691107733   T   T   T
  0.4947117364226511  0.9172050739972755  0.0969689496757518   T   T   T
  0.3466427357416946  0.8355920280717947  0.0956015688560454   T   T   T
  0.7866300151436718  0.0875704703439114  0.0944974235980932   T   T   T
  0.6370350167600491  0.1674015384504851  0.0954037678953881   T   T   T
  0.7903594905135543  0.9200925846017685  0.0958897468935522   T   T   T
  0.8301477849612628  0.6530145235086832  0.0977971680601683   T   T   T
  0.8256734616388764  0.3576280080160108  0.0952800186038150   T   T   T
  0.6434731210079581  0.8377613275539846  0.0984230622853549   T   T   T
  0.3249835305512489  0.3302343866839533  0.1047142688749407   T   T   T
  0.3246613228746885  0.6714186882178274  0.0966417779806713   T   T   T
  0.6581320961253108  0.3358228186325225  0.0973463604741559   T   T   T
  0.4940659876745505  0.0836190127523039  0.0965238079667012   T   T   T
  0.9066485294481050  0.5036374908196585  0.0965053327608672   T   T   T
  0.6689936730158514  0.6737122110974971  0.1021490718253370   T   T   T
  0.1977587914258641  0.9153896387102789  0.0941174717967968   T   T   T
  0.4897371312997962  0.4969960112221507  0.1255852192306456   T   T   T
 
  0.00000000E+00  0.00000000E+00  0.00000000E+00
  0.00000000E+00  0.00000000E+00  0.00000000E+00
  0.00000000E+00  0.00000000E+00  0.00000000E+00
  0.00000000E+00  0.00000000E+00  0.00000000E+00
  0.00000000E+00  0.00000000E+00  0.00000000E+00
  0.00000000E+00  0.00000000E+00  0.00000000E+00
  0.00000000E+00  0.00000000E+00  0.00000000E+00
  0.00000000E+00  0.00000000E+00  0.00000000E+00
  0.00000000E+00  0.00000000E+00  0.00000000E+00
  0.00000000E+00  0.00000000E+00  0.00000000E+00
  0.00000000E+00  0.00000000E+00  0.00000000E+00
  0.00000000E+00  0.00000000E+00  0.00000000E+00
  0.00000000E+00  0.00000000E+00  0.00000000E+00
  0.00000000E+00  0.00000000E+00  0.00000000E+00
  0.00000000E+00  0.00000000E+00  0.00000000E+00
  0.00000000E+00  0.00000000E+00  0.00000000E+00
  0.00000000E+00  0.00000000E+00  0.00000000E+00
  0.00000000E+00  0.00000000E+00  0.00000000E+00
  0.00000000E+00  0.00000000E+00  0.00000000E+00
  0.00000000E+00  0.00000000E+00  0.00000000E+00
  0.00000000E+00  0.00000000E+00  0.00000000E+00
  0.00000000E+00  0.00000000E+00  0.00000000E+00
  0.00000000E+00  0.00000000E+00  0.00000000E+00
  0.00000000E+00  0.00000000E+00  0.00000000E+00
  0.00000000E+00  0.00000000E+00  0.00000000E+00
