Title                                   
   1.00000000000000     
     9.8694509999999998    0.0000000000000000    0.0000000000000000
     0.0000000000000000    8.5490480000000009    0.0000000000000000
     0.0000000000000000    0.0000000000000000   20.0000000000000000
    27     3     1
Selective dynamics
Direct
  0.0558341261490627  0.0897256116034586  0.0883905263166335   T   T   T
  0.9308682053336748  0.1730123290612566  0.0883004208318631   T   T   T
  0.0572936254560316  0.9234109960858955  0.0887582039361420   T   T   T
  0.9331227637661144  0.3404947424180141  0.0864678402139553   T   T   T
  0.0564993429266606  0.5901898324529736  0.0848045393200779   T   T   T
  0.9330305170056584  0.6746934109250832  0.0872628732473070   T   T   T
  0.0571508209934345  0.4232201670186361  0.0846844877510789   T   T   T
  0.9326057676049953  0.8410448617365947  0.0893733809466650   T   T   T
  0.3061105273883888  0.0884407624699181  0.0951536904870153   T   T   T
  0.1804386753171981  0.1702479351170863  0.0900613489657656   T   T   T
  0.1803111004662128  0.3375299118043648  0.0884226846814639   T   T   T
  0.3026023363783888  0.5876159707251449  0.0944828000435416   T   T   T
  0.1806661059007300  0.6731797845759849  0.0881694249046902   T   T   T
  0.3022419169326666  0.4189191920382631  0.0950343372634068   T   T   T
  0.1824742927360546  0.8402467175010505  0.0899116016533785   T   T   T
  0.5558786716545896  0.0909521690174549  0.1018073087353477   T   T   T
  0.4289849148082528  0.1749769032233338  0.1012901553903177   T   T   T
  0.5558489908377094  0.9213902223253708  0.1018621803332966   T   T   T
  0.4241400629259329  0.6717997954750671  0.1035112345571023   T   T   T
  0.4292200364244762  0.8354293173712503  0.1007395904743989   T   T   T
  0.8053756361126255  0.0901508021023119  0.0927795816569808   T   T   T
  0.6816047756751199  0.1772824662862046  0.0986180587534166   T   T   T
  0.8059384673813387  0.9222332290256673  0.0936190683620223   T   T   T
  0.6869972429838022  0.3431396455922396  0.1006680243711204   T   T   T
  0.8105410961467624  0.5935233495521551  0.0926108238449429   T   T   T
  0.8100502184105642  0.4245587935369893  0.0916262873998070   T   T   T
  0.6824367214667350  0.8349582720464871  0.0997149211688238   T   T   T
  0.4231765686364510  0.3390473162479938  0.1041680444813939   T   T   T
  0.6889357826475189  0.6711229384952829  0.1019421273532350   T   T   T
  0.3062537046150751  0.9228033260305255  0.0944506983042451   T   T   T
  0.5565019849177768  0.5055342281379679  0.1222787342505990   T   T   T
 
  0.00000000E+00  0.00000000E+00  0.00000000E+00
  0.00000000E+00  0.00000000E+00  0.00000000E+00
  0.00000000E+00  0.00000000E+00  0.00000000E+00
  0.00000000E+00  0.00000000E+00  0.00000000E+00
  0.00000000E+00  0.00000000E+00  0.00000000E+00
  0.00000000E+00  0.00000000E+00  0.00000000E+00
  0.00000000E+00  0.00000000E+00  0.00000000E+00
  0.00000000E+00  0.00000000E+00  0.00000000E+00
  0.00000000E+00  0.00000000E+00  0.00000000E+00
  0.00000000E+00  0.00000000E+00  0.00000000E+00
  0.00000000E+00  0.00000000E+00  0.00000000E+00
  0.00000000E+00  0.00000000E+00  0.00000000E+00
  0.00000000E+00  0.00000000E+00  0.00000000E+00
  0.00000000E+00  0.00000000E+00  0.00000000E+00
  0.00000000E+00  0.00000000E+00  0.00000000E+00
  0.00000000E+00  0.00000000E+00  0.00000000E+00
  0.00000000E+00  0.00000000E+00  0.00000000E+00
  0.00000000E+00  0.00000000E+00  0.00000000E+00
  0.00000000E+00  0.00000000E+00  0.00000000E+00
  0.00000000E+00  0.00000000E+00  0.00000000E+00
  0.00000000E+00  0.00000000E+00  0.00000000E+00
  0.00000000E+00  0.00000000E+00  0.00000000E+00
  0.00000000E+00  0.00000000E+00  0.00000000E+00
  0.00000000E+00  0.00000000E+00  0.00000000E+00
  0.00000000E+00  0.00000000E+00  0.00000000E+00
  0.00000000E+00  0.00000000E+00  0.00000000E+00
  0.00000000E+00  0.00000000E+00  0.00000000E+00
  0.00000000E+00  0.00000000E+00  0.00000000E+00
  0.00000000E+00  0.00000000E+00  0.00000000E+00
  0.00000000E+00  0.00000000E+00  0.00000000E+00
  0.00000000E+00  0.00000000E+00  0.00000000E+00
