Title                                   
   1.00000000000000     
     4.9440799999999996    0.0000000000000000    0.0000000000000000
     0.0000000000000000    8.5647549999999999    0.0000000000000000
     0.0000000000000000    0.0000000000000000   20.0000000000000000
    13     1     1
Selective dynamics
Direct
  0.2546908501121526  0.2064980622034297  0.0961788381813475   T   T   T
  0.0030748505493799  0.2905970117825527  0.0934001671936299   T   T   T
  0.2571255155875089  0.0392350758268886  0.0958082030797505   T   T   T
  0.0067586761037918  0.9566180444272877  0.0914992648255658   T   T   T
  0.7507543492883376  0.2086887872155014  0.0937238752838612   T   T   T
  0.5006336147033361  0.2956598636698864  0.0996718592360059   T   T   T
  0.7539095852581092  0.0398213081484012  0.0928831072876811   T   T   T
  0.7520000548675859  0.7126444708544954  0.0986899759230972   T   T   T
  0.7499722379261269  0.5420434517652011  0.1019043348347417   T   T   T
  0.5072882289500730  0.9521723681204217  0.0989427874904115   T   T   T
  0.4984825670428099  0.4623548189176623  0.1087537020186027   T   T   T
 -0.0024910764948046  0.4567942594464816  0.0970851044719779   T   T   T
 -0.0024989286650433  0.7913012746334278  0.0906844958040330   T   T   T
  0.5110487618771075  0.7910180928161528  0.1084346550398522   T   T   T
  0.2092507128935283  0.6262341101722119  0.1403196293294451   T   T   T
 
  0.00000000E+00  0.00000000E+00  0.00000000E+00
  0.00000000E+00  0.00000000E+00  0.00000000E+00
  0.00000000E+00  0.00000000E+00  0.00000000E+00
  0.00000000E+00  0.00000000E+00  0.00000000E+00
  0.00000000E+00  0.00000000E+00  0.00000000E+00
  0.00000000E+00  0.00000000E+00  0.00000000E+00
  0.00000000E+00  0.00000000E+00  0.00000000E+00
  0.00000000E+00  0.00000000E+00  0.00000000E+00
  0.00000000E+00  0.00000000E+00  0.00000000E+00
  0.00000000E+00  0.00000000E+00  0.00000000E+00
  0.00000000E+00  0.00000000E+00  0.00000000E+00
  0.00000000E+00  0.00000000E+00  0.00000000E+00
  0.00000000E+00  0.00000000E+00  0.00000000E+00
  0.00000000E+00  0.00000000E+00  0.00000000E+00
  0.00000000E+00  0.00000000E+00  0.00000000E+00
