Title                                   
   1.00000000000000     
     9.8694509999999998    0.0000000000000000    0.0000000000000000
     0.0000000000000000    8.5490480000000009    0.0000000000000000
     0.0000000000000000    0.0000000000000000   20.0000000000000000
    27     3     1
Selective dynamics
Direct
  0.0560267497605084  0.0886252585040069  0.0906939098714862   T   T   T
  0.9312631932197482  0.1723851156325799  0.0946725298965593   T   T   T
  0.0580735783088201  0.9222801757901391  0.0907672669202383   T   T   T
  0.9331113756909504  0.3396926950655244  0.0973912059156296   T   T   T
  0.0586816413993191  0.5898426229951025  0.0945671652173149   T   T   T
  0.9337334954283025  0.6729307519280394  0.0980193375981997   T   T   T
  0.0579493206266574  0.4224169148962454  0.0942362227412544   T   T   T
  0.9325778722289489  0.8400532835317144  0.0953697240200932   T   T   T
  0.3077317483716807  0.0873558551576991  0.0857908840672941   T   T   T
  0.1818477797140818  0.1708294732501481  0.0882366724785193   T   T   T
  0.1810823828672918  0.3366079577597433  0.0896139214531982   T   T   T
  0.3094722045248904  0.5865462655458810  0.0841360169008715   T   T   T
  0.1835857309240976  0.6722978156878838  0.0898239492632822   T   T   T
  0.3063549025778445  0.4175974140672895  0.0850107140324863   T   T   T
  0.1836752798281752  0.8382428898729325  0.0879597581372252   T   T   T
  0.4304549616116652  0.1722577673414229  0.0873765585250538   T   T   T
  0.5558124197019745  0.9256525312509468  0.0947142812157713   T   T   T
  0.4325584237786779  0.6753470513768138  0.0833652501967488   T   T   T
  0.4325803294675804  0.8406501680305615  0.0859209281573345   T   T   T
  0.8045295702824925  0.0903853860742306  0.0959696108780592   T   T   T
  0.6797699028375072  0.1793543756782321  0.0994524224747879   T   T   T
  0.8061367682311471  0.9233685206835462  0.0967902504258269   T   T   T
  0.6825076902099144  0.3440124977708779  0.1081746308396456   T   T   T
  0.8098591792721853  0.5911819570343182  0.1047400395631346   T   T   T
  0.6832640647458985  0.6712197913615482  0.1105400088800974   T   T   T
  0.8096256093675904  0.4224472642113072  0.1039040390776445   T   T   T
  0.6801677951285662  0.8382222721853911  0.1011899975692434   T   T   T
  0.5563441783032517  0.0936313531067189  0.0939257757946325   T   T   T
  0.4277721320318030  0.3335031397584792  0.0860933303644623   T   T   T
  0.3071078130341162  0.9222090662329188  0.0842546513793923   T   T   T
  0.5294769065243294  0.5097273682177763  0.1382639461445609   T   T   T
 
  0.00000000E+00  0.00000000E+00  0.00000000E+00
  0.00000000E+00  0.00000000E+00  0.00000000E+00
  0.00000000E+00  0.00000000E+00  0.00000000E+00
  0.00000000E+00  0.00000000E+00  0.00000000E+00
  0.00000000E+00  0.00000000E+00  0.00000000E+00
  0.00000000E+00  0.00000000E+00  0.00000000E+00
  0.00000000E+00  0.00000000E+00  0.00000000E+00
  0.00000000E+00  0.00000000E+00  0.00000000E+00
  0.00000000E+00  0.00000000E+00  0.00000000E+00
  0.00000000E+00  0.00000000E+00  0.00000000E+00
  0.00000000E+00  0.00000000E+00  0.00000000E+00
  0.00000000E+00  0.00000000E+00  0.00000000E+00
  0.00000000E+00  0.00000000E+00  0.00000000E+00
  0.00000000E+00  0.00000000E+00  0.00000000E+00
  0.00000000E+00  0.00000000E+00  0.00000000E+00
  0.00000000E+00  0.00000000E+00  0.00000000E+00
  0.00000000E+00  0.00000000E+00  0.00000000E+00
  0.00000000E+00  0.00000000E+00  0.00000000E+00
  0.00000000E+00  0.00000000E+00  0.00000000E+00
  0.00000000E+00  0.00000000E+00  0.00000000E+00
  0.00000000E+00  0.00000000E+00  0.00000000E+00
  0.00000000E+00  0.00000000E+00  0.00000000E+00
  0.00000000E+00  0.00000000E+00  0.00000000E+00
  0.00000000E+00  0.00000000E+00  0.00000000E+00
  0.00000000E+00  0.00000000E+00  0.00000000E+00
  0.00000000E+00  0.00000000E+00  0.00000000E+00
  0.00000000E+00  0.00000000E+00  0.00000000E+00
  0.00000000E+00  0.00000000E+00  0.00000000E+00
  0.00000000E+00  0.00000000E+00  0.00000000E+00
  0.00000000E+00  0.00000000E+00  0.00000000E+00
  0.00000000E+00  0.00000000E+00  0.00000000E+00
