Title                                   
   1.00000000000000     
     9.8694509999999998    0.0000000000000000    0.0000000000000000
     0.0000000000000000    8.5490480000000009    0.0000000000000000
     0.0000000000000000    0.0000000000000000   20.0000000000000000
    30     1     1
Selective dynamics
Direct
  0.0566646432178938  0.0902267079887670  0.0840553678713325   T   T   T
  0.9316324825932795  0.1721982332004744  0.0863566196037031   T   T   T
  0.0558681526951958  0.9232129473157823  0.0830468443650066   T   T   T
  0.9319121282267691  0.3386191609806385  0.0882421568427011   T   T   T
  0.0567012275394371  0.5887208338382499  0.0835597220394649   T   T   T
  0.9326037398379288  0.6718009366047101  0.0863930417294457   T   T   T
  0.0571289085521246  0.4224019921536640  0.0855372517732748   T   T   T
  0.9312911407582918  0.8388850142928048  0.0855748306248938   T   T   T
  0.3060754975826291  0.0904066857628072  0.0885834323508926   T   T   T
  0.1815853917884386  0.1741400048498983  0.0862445462038684   T   T   T
  0.3043963720415041  0.9243904191470176  0.0882691264938854   T   T   T
  0.1825808202629750  0.3409114862861912  0.0880814860691339   T   T   T
  0.3032858245950269  0.5924539370180856  0.0947217788658253   T   T   T
  0.1800551435037650  0.6734636694951486  0.0848070133302115   T   T   T
  0.3076847896961533  0.4248823245922187  0.0960595313599319   T   T   T
  0.1799916674205045  0.8403550232044356  0.0843557830726443   T   T   T
  0.5557185470859524  0.0864206418737025  0.0968981375310549   T   T   T
  0.4311497311568633  0.1714434845012424  0.0951408747586773   T   T   T
  0.5547929491897149  0.9190878411823100  0.0996276833082281   T   T   T
  0.4322637487242629  0.3378057412131459  0.1029271618700253   T   T   T
  0.5583530822823097  0.4107095551318017  0.1166663389944388   T   T   T
  0.4263877506844157  0.8400390291809461  0.0977536231225682   T   T   T
  0.8069203606450779  0.0881451087648548  0.0892956769931825   T   T   T
  0.6819699799415541  0.1694406307373372  0.0955631396060008   T   T   T
  0.8067879394470288  0.9222421209548587  0.0900643172768084   T   T   T
  0.6832966368377227  0.3349301515620090  0.1029435928892997   T   T   T
  0.8104257082185126  0.5879801953128325  0.0974256468590150   T   T   T
  0.6927054678848537  0.6751009316497322  0.1112878287545488   T   T   T
  0.8080507017372008  0.4204726749922489  0.0970233391337871   T   T   T
  0.6832732376932842  0.8378643689056696  0.1005120626508870   T   T   T
  0.4176972779517998  0.6802383569180863  0.1080331715676164   T   T   T
  0.5503879502075379  0.6012557903883360  0.1706238720876805   T   T   T
 
  0.00000000E+00  0.00000000E+00  0.00000000E+00
  0.00000000E+00  0.00000000E+00  0.00000000E+00
  0.00000000E+00  0.00000000E+00  0.00000000E+00
  0.00000000E+00  0.00000000E+00  0.00000000E+00
  0.00000000E+00  0.00000000E+00  0.00000000E+00
  0.00000000E+00  0.00000000E+00  0.00000000E+00
  0.00000000E+00  0.00000000E+00  0.00000000E+00
  0.00000000E+00  0.00000000E+00  0.00000000E+00
  0.00000000E+00  0.00000000E+00  0.00000000E+00
  0.00000000E+00  0.00000000E+00  0.00000000E+00
  0.00000000E+00  0.00000000E+00  0.00000000E+00
  0.00000000E+00  0.00000000E+00  0.00000000E+00
  0.00000000E+00  0.00000000E+00  0.00000000E+00
  0.00000000E+00  0.00000000E+00  0.00000000E+00
  0.00000000E+00  0.00000000E+00  0.00000000E+00
  0.00000000E+00  0.00000000E+00  0.00000000E+00
  0.00000000E+00  0.00000000E+00  0.00000000E+00
  0.00000000E+00  0.00000000E+00  0.00000000E+00
  0.00000000E+00  0.00000000E+00  0.00000000E+00
  0.00000000E+00  0.00000000E+00  0.00000000E+00
  0.00000000E+00  0.00000000E+00  0.00000000E+00
  0.00000000E+00  0.00000000E+00  0.00000000E+00
  0.00000000E+00  0.00000000E+00  0.00000000E+00
  0.00000000E+00  0.00000000E+00  0.00000000E+00
  0.00000000E+00  0.00000000E+00  0.00000000E+00
  0.00000000E+00  0.00000000E+00  0.00000000E+00
  0.00000000E+00  0.00000000E+00  0.00000000E+00
  0.00000000E+00  0.00000000E+00  0.00000000E+00
  0.00000000E+00  0.00000000E+00  0.00000000E+00
  0.00000000E+00  0.00000000E+00  0.00000000E+00
  0.00000000E+00  0.00000000E+00  0.00000000E+00
  0.00000000E+00  0.00000000E+00  0.00000000E+00
