Title                                   
   1.00000000000000     
     4.9440799999999996    0.0000000000000000    0.0000000000000000
     0.0000000000000000   17.1295089999999988    0.0000000000000000
     0.0000000000000000    0.0000000000000000   20.0000000000000000
    29     1     1
Selective dynamics
Direct
 -0.0031085729319345  0.1050507248719767  0.2938134258566350   T   T   T
  0.2455931771496455  0.1474581809265181  0.2952204216395438   T   T   T
  0.2443721962484995  0.2309498673676421  0.2991269841908611   T   T   T
 -0.0070124209491170  0.2727972395845371  0.3011727651732611   T   T   T
  0.0057354634726779  0.6025748565487691  0.3003807664207016   T   T   T
  0.2534931719261643  0.7280415785342395  0.2954308851511481   T   T   T
  0.0010618677952827  0.8539027842975750  0.2928918934175968   T   T   T
  0.2506067802069670  0.8959000855361590  0.2927072662779384   T   T   T
  0.2488445301796250  0.9794407938288381  0.2926231067762685   T   T   T
  0.0027661213372573  0.7702386239774813  0.2939684985487010   T   T   T
  0.4964771539075632  0.1052454266675999  0.2937401649507625   T   T   T
  0.7467771488242718  0.1468105019968669  0.2944211001427585   T   T   T
  0.7445570486263979  0.2304231677951721  0.2974128204413550   T   T   T
  0.4981656444419985  0.0215845160845963  0.2927112444743113   T   T   T
  0.7508458502506272  0.3925811999114094  0.3070375187443372   T   T   T
  0.7588594932275146  0.4791696139579539  0.3082711417798991   T   T   T
  0.4945986611986177  0.2727188607907027  0.3002774410235079   T   T   T
  0.5056216628063822  0.6022716410668612  0.3023634882711650   T   T   T
  0.7533819166730948  0.7284289378936714  0.2949352825368488   T   T   T
  0.5011884548869596  0.8538762413076774  0.2930135529424637   T   T   T
  0.7506230491643399  0.8958594639790778  0.2926106742965340   T   T   T
  0.7487954163187506  0.9796270879814412  0.2924874978977264   T   T   T
  0.5031172937492895  0.7703160976821037  0.2942793718632750   T   T   T
  0.7549965287470525  0.6446637960037487  0.2982310436712070   T   T   T
  0.2552043752892059  0.6449251453539242  0.2992867962801465   T   T   T
 -0.0014913697748103  0.0214305118341192  0.2927183900831654   T   T   T
  0.5090804850697955  0.5197417606365045  0.3103816520879056   T   T   T
  0.0055294154821300  0.5196243414743686  0.3048857667213010   T   T   T
  0.5020812955128180  0.3552644386694719  0.3052746078086527   T   T   T
 -0.0093322811210565  0.3530361087336158  0.3076202659903604   T   T   T
  0.2485774422839915  0.4373884047053727  0.3457641645396143   T   T   T
 
  0.00000000E+00  0.00000000E+00  0.00000000E+00
  0.00000000E+00  0.00000000E+00  0.00000000E+00
  0.00000000E+00  0.00000000E+00  0.00000000E+00
  0.00000000E+00  0.00000000E+00  0.00000000E+00
  0.00000000E+00  0.00000000E+00  0.00000000E+00
  0.00000000E+00  0.00000000E+00  0.00000000E+00
  0.00000000E+00  0.00000000E+00  0.00000000E+00
  0.00000000E+00  0.00000000E+00  0.00000000E+00
  0.00000000E+00  0.00000000E+00  0.00000000E+00
  0.00000000E+00  0.00000000E+00  0.00000000E+00
  0.00000000E+00  0.00000000E+00  0.00000000E+00
  0.00000000E+00  0.00000000E+00  0.00000000E+00
  0.00000000E+00  0.00000000E+00  0.00000000E+00
  0.00000000E+00  0.00000000E+00  0.00000000E+00
  0.00000000E+00  0.00000000E+00  0.00000000E+00
  0.00000000E+00  0.00000000E+00  0.00000000E+00
  0.00000000E+00  0.00000000E+00  0.00000000E+00
  0.00000000E+00  0.00000000E+00  0.00000000E+00
  0.00000000E+00  0.00000000E+00  0.00000000E+00
  0.00000000E+00  0.00000000E+00  0.00000000E+00
  0.00000000E+00  0.00000000E+00  0.00000000E+00
  0.00000000E+00  0.00000000E+00  0.00000000E+00
  0.00000000E+00  0.00000000E+00  0.00000000E+00
  0.00000000E+00  0.00000000E+00  0.00000000E+00
  0.00000000E+00  0.00000000E+00  0.00000000E+00
  0.00000000E+00  0.00000000E+00  0.00000000E+00
  0.00000000E+00  0.00000000E+00  0.00000000E+00
  0.00000000E+00  0.00000000E+00  0.00000000E+00
  0.00000000E+00  0.00000000E+00  0.00000000E+00
  0.00000000E+00  0.00000000E+00  0.00000000E+00
  0.00000000E+00  0.00000000E+00  0.00000000E+00
