Title                                   
   1.00000000000000     
     8.5490480000000009    0.0000000000000000    0.0000000000000000
     0.0000000000000000    8.5490480000000009    0.0000000000000000
     0.0000000000000000    0.0000000000000000   20.0000000000000000
    22     2     1
Selective dynamics
Direct
  0.9107762136630395  0.2067732376121870  0.0954506739070274   T   T   T
  0.9081215514039661  0.5014835645024927  0.0953062905469797   T   T   T
  0.9102474293488708  0.7979900566350410  0.0954532152399354   T   T   T
  0.1968276904471141  0.0845577878849536  0.0954662583917554   T   T   T
  0.0757735186034472  0.2055953394221769  0.0954486524030847   T   T   T
  0.1980146757589929  0.9195790639664881  0.0954904208756891   T   T   T
  0.1564955359688858  0.6486712610866952  0.0953975438515549   T   T   T
  0.0779226391994582  0.5021014012531317  0.0953305748725248   T   T   T
  0.1583237875136533  0.3531182696208593  0.0953178839148907   T   T   T
  0.0752319207161201  0.7967975683742272  0.0954723041274445   T   T   T
  0.4932921458676685  0.0866813166658795  0.0953678075763120   T   T   T
  0.3443449620018981  0.1671035072200051  0.0953454770152476   T   T   T
  0.4926664858284951  0.9168911410020947  0.0953689664851254   T   T   T
  0.3461197907239656  0.8383115454564478  0.0954247771813092   T   T   T
  0.7879638902184322  0.0840124416875243  0.0954788836693665   T   T   T
  0.6398385524283294  0.1652778707226659  0.0953883745871928   T   T   T
  0.7891611714629816  0.9190290667594714  0.0954665418233293   T   T   T
  0.8277310910920129  0.6504695802163453  0.0953057069928323   T   T   T
  0.8295432597368809  0.3549013162375217  0.0953307249716243   T   T   T
  0.6416290649982205  0.8364843224501016  0.0953305962695697   T   T   T
  0.3241012243069698  0.6707303451465289  0.0953107167560003   T   T   T
  0.6619561976800250  0.3328563887212032  0.0952252028451886   T   T   T
  0.3204578246821186  0.3291800330535901  0.0951683092218774   T   T   T
  0.6656330978241816  0.6743817562430764  0.0951494296302574   T   T   T
  0.4932382785242648  0.5018118180593049  0.0949096668438585   T   T   T
 
  0.00000000E+00  0.00000000E+00  0.00000000E+00
  0.00000000E+00  0.00000000E+00  0.00000000E+00
  0.00000000E+00  0.00000000E+00  0.00000000E+00
  0.00000000E+00  0.00000000E+00  0.00000000E+00
  0.00000000E+00  0.00000000E+00  0.00000000E+00
  0.00000000E+00  0.00000000E+00  0.00000000E+00
  0.00000000E+00  0.00000000E+00  0.00000000E+00
  0.00000000E+00  0.00000000E+00  0.00000000E+00
  0.00000000E+00  0.00000000E+00  0.00000000E+00
  0.00000000E+00  0.00000000E+00  0.00000000E+00
  0.00000000E+00  0.00000000E+00  0.00000000E+00
  0.00000000E+00  0.00000000E+00  0.00000000E+00
  0.00000000E+00  0.00000000E+00  0.00000000E+00
  0.00000000E+00  0.00000000E+00  0.00000000E+00
  0.00000000E+00  0.00000000E+00  0.00000000E+00
  0.00000000E+00  0.00000000E+00  0.00000000E+00
  0.00000000E+00  0.00000000E+00  0.00000000E+00
  0.00000000E+00  0.00000000E+00  0.00000000E+00
  0.00000000E+00  0.00000000E+00  0.00000000E+00
  0.00000000E+00  0.00000000E+00  0.00000000E+00
  0.00000000E+00  0.00000000E+00  0.00000000E+00
  0.00000000E+00  0.00000000E+00  0.00000000E+00
  0.00000000E+00  0.00000000E+00  0.00000000E+00
  0.00000000E+00  0.00000000E+00  0.00000000E+00
  0.00000000E+00  0.00000000E+00  0.00000000E+00
