Title                                   
   1.00000000000000     
     8.5490480000000009    0.0000000000000000    0.0000000000000000
     0.0000000000000000    8.5490480000000009    0.0000000000000000
     0.0000000000000000    0.0000000000000000   20.0000000000000000
    20     4     1
Selective dynamics
Direct
  0.9099245682418329  0.2049931777696548  0.0976971270334510   T   T   T
  0.9050592030677365  0.5039519034472871  0.0977741060500145   T   T   T
  0.9103289094048298  0.8022843056336358  0.0974740386842606   T   T   T
  0.1994912295991739  0.0834817692884161  0.0977096440619704   T   T   T
  0.0756704809565622  0.2043405381225816  0.0977147913672547   T   T   T
  0.1567839677691466  0.6522026407627463  0.0977580779485067   T   T   T
  0.0755662105768149  0.5031845281832082  0.0977468670619940   T   T   T
  0.1580209216297614  0.3565767153780336  0.0977683079679828   T   T   T
  0.0781115857418184  0.7997952361292202  0.0976185807303954   T   T   T
  0.4942754960201785  0.0841734130248870  0.0977173119255238   T   T   T
  0.3474155034086140  0.1633175978507554  0.0977270172011543   T   T   T
  0.4933144290145237  0.9135338703729439  0.0977478856149290   T   T   T
  0.3445740521062232  0.8332726993636166  0.0978567488438265   T   T   T
  0.7889274933735990  0.0853812288648206  0.0975869538914222   T   T   T
  0.6416257936102147  0.1657574974668713  0.0977601825248498   T   T   T
  0.7895411389579620  0.9192910639388504  0.0974811057230213   T   T   T
  0.8279777520029994  0.6528560494605957  0.0976755443192042   T   T   T
  0.8247100538167729  0.3549860828960608  0.0978783497451434   T   T   T
  0.6413788350875559  0.8344385223500925  0.0976955208643539   T   T   T
  0.3234911319037175  0.3331688627286722  0.0977837123297981   T   T   T
  0.3180893715111112  0.6755830820202825  0.0979433432341134   T   T   T
  0.6650393998408032  0.3283654692360981  0.0980257003271468   T   T   T
  0.6670475211491230  0.6750966628389323  0.0978534013634792   T   T   T
  0.1982067955783683  0.9166266222663446  0.0977706134954887   T   T   T
  0.4908401556305503  0.4981304606054118  0.0979400676906884   T   T   T
 
  0.00000000E+00  0.00000000E+00  0.00000000E+00
  0.00000000E+00  0.00000000E+00  0.00000000E+00
  0.00000000E+00  0.00000000E+00  0.00000000E+00
  0.00000000E+00  0.00000000E+00  0.00000000E+00
  0.00000000E+00  0.00000000E+00  0.00000000E+00
  0.00000000E+00  0.00000000E+00  0.00000000E+00
  0.00000000E+00  0.00000000E+00  0.00000000E+00
  0.00000000E+00  0.00000000E+00  0.00000000E+00
  0.00000000E+00  0.00000000E+00  0.00000000E+00
  0.00000000E+00  0.00000000E+00  0.00000000E+00
  0.00000000E+00  0.00000000E+00  0.00000000E+00
  0.00000000E+00  0.00000000E+00  0.00000000E+00
  0.00000000E+00  0.00000000E+00  0.00000000E+00
  0.00000000E+00  0.00000000E+00  0.00000000E+00
  0.00000000E+00  0.00000000E+00  0.00000000E+00
  0.00000000E+00  0.00000000E+00  0.00000000E+00
  0.00000000E+00  0.00000000E+00  0.00000000E+00
  0.00000000E+00  0.00000000E+00  0.00000000E+00
  0.00000000E+00  0.00000000E+00  0.00000000E+00
  0.00000000E+00  0.00000000E+00  0.00000000E+00
  0.00000000E+00  0.00000000E+00  0.00000000E+00
  0.00000000E+00  0.00000000E+00  0.00000000E+00
  0.00000000E+00  0.00000000E+00  0.00000000E+00
  0.00000000E+00  0.00000000E+00  0.00000000E+00
  0.00000000E+00  0.00000000E+00  0.00000000E+00
