Title                                   
   1.00000000000000     
     4.9440799999999996    0.0000000000000000    0.0000000000000000
     0.0000000000000000    8.5647549999999999    0.0000000000000000
     0.0000000000000000    0.0000000000000000   20.0000000000000000
     9     5     1
Selective dynamics
Direct
 -0.0015829851181639  0.2940075906546336  0.0945252851020949   T   T   T
  0.2500000000000000  0.0388722510659320  0.0954126511284684   T   T   T
 -0.0016394347054677  0.9568796172931145  0.0957054329703626   T   T   T
  0.7500000000000000  0.2081077957124606  0.0906268016531081   T   T   T
  0.5015829851181638  0.2940075906546336  0.0945252851020949   T   T   T
  0.7500000000000000  0.0400960129903416  0.0914019533722682   T   T   T
  0.7500000000000000  0.7099197986043914  0.0996274426947850   T   T   T
  0.7500000000000000  0.5384520091233408  0.0992709664758077   T   T   T
  0.5016394347054676  0.9568796172931145  0.0957054329703626   T   T   T
  0.5071628717691633  0.4552689400359270  0.1034334677769371   T   T   T
 -0.0071628717691637  0.4552689400359270  0.1034334677769371   T   T   T
 -0.0083208313835774  0.7926942848604946  0.1041742778779033   T   T   T
  0.5083208313835772  0.7926942848604946  0.1041742778779033   T   T   T
  0.2500000000000000  0.2131243515705700  0.0946034238190110   T   T   T
  0.2500000000000000  0.6254079152446270  0.1413598334019592   T   T   T
 
  0.00000000E+00  0.00000000E+00  0.00000000E+00
  0.00000000E+00  0.00000000E+00  0.00000000E+00
  0.00000000E+00  0.00000000E+00  0.00000000E+00
  0.00000000E+00  0.00000000E+00  0.00000000E+00
  0.00000000E+00  0.00000000E+00  0.00000000E+00
  0.00000000E+00  0.00000000E+00  0.00000000E+00
  0.00000000E+00  0.00000000E+00  0.00000000E+00
  0.00000000E+00  0.00000000E+00  0.00000000E+00
  0.00000000E+00  0.00000000E+00  0.00000000E+00
  0.00000000E+00  0.00000000E+00  0.00000000E+00
  0.00000000E+00  0.00000000E+00  0.00000000E+00
  0.00000000E+00  0.00000000E+00  0.00000000E+00
  0.00000000E+00  0.00000000E+00  0.00000000E+00
  0.00000000E+00  0.00000000E+00  0.00000000E+00
  0.00000000E+00  0.00000000E+00  0.00000000E+00
