Title                                   
   1.00000000000000     
     4.9440799999999996    0.0000000000000000    0.0000000000000000
     0.0000000000000000    8.5647549999999999    0.0000000000000000
     0.0000000000000000    0.0000000000000000   20.0000000000000000
    11     3     1
Selective dynamics
Direct
  0.0012881648978184  0.2913056649448978  0.1003251766896483   T   T   T
  0.2500000000000000  0.0383638510445623  0.1003953836520350   T   T   T
 -0.0022353316644474  0.9577955893412280  0.1005517288898842   T   T   T
  0.7500000000000000  0.2070037472152624  0.1002114567342885   T   T   T
  0.4987118351021817  0.2913056649448978  0.1003251766896483   T   T   T
  0.7500000000000000  0.0419961357755267  0.1003324054405395   T   T   T
  0.7500000000000000  0.7170409094538578  0.1008351759825003   T   T   T
  0.7500000000000000  0.5403006748501563  0.1007007863258131   T   T   T
  0.5022353316644476  0.9577955893412280  0.1005517288898842   T   T   T
  0.5096776850962885  0.4540469770719542  0.1004957252647324   T   T   T
 -0.0096776850962888  0.4540469770719542  0.1004957252647324   T   T   T
 -0.0167686144862926  0.7969193167833736  0.1009013168394448   T   T   T
  0.5167686144862930  0.7969193167833736  0.1009013168394448   T   T   T
  0.2500000000000000  0.2067737664149004  0.1002776952001971   T   T   T
  0.2500000000000000  0.6200668189628288  0.1006792012972105   T   T   T
 
  0.00000000E+00  0.00000000E+00  0.00000000E+00
  0.00000000E+00  0.00000000E+00  0.00000000E+00
  0.00000000E+00  0.00000000E+00  0.00000000E+00
  0.00000000E+00  0.00000000E+00  0.00000000E+00
  0.00000000E+00  0.00000000E+00  0.00000000E+00
  0.00000000E+00  0.00000000E+00  0.00000000E+00
  0.00000000E+00  0.00000000E+00  0.00000000E+00
  0.00000000E+00  0.00000000E+00  0.00000000E+00
  0.00000000E+00  0.00000000E+00  0.00000000E+00
  0.00000000E+00  0.00000000E+00  0.00000000E+00
  0.00000000E+00  0.00000000E+00  0.00000000E+00
  0.00000000E+00  0.00000000E+00  0.00000000E+00
  0.00000000E+00  0.00000000E+00  0.00000000E+00
  0.00000000E+00  0.00000000E+00  0.00000000E+00
  0.00000000E+00  0.00000000E+00  0.00000000E+00
