Title                                   
   1.00000000000000     
     4.9440799999999996    0.0000000000000000    0.0000000000000000
     0.0000000000000000   17.1295089999999988    0.0000000000000000
     0.0000000000000000    0.0000000000000000   20.0000000000000000
    26     4     1
Selective dynamics
Direct
  0.0006902749420122  0.1058180459550983  0.2962511575072518   T   T   T
  0.2489755749012540  0.1487221686078652  0.2964157689219279   T   T   T
  0.2477953609913017  0.2336340458809513  0.2987971747221786   T   T   T
  0.9969176966775871  0.2748668800799751  0.3042573746800428   T   T   T
  0.9967976648416242  0.6000568311848203  0.3044169386559964   T   T   T
  0.2489405053238612  0.7261952830418655  0.2965803717497736   T   T   T
  0.0003692126123955  0.8533104948835567  0.2959545509734388   T   T   T
  0.2501844682449086  0.8953821514892160  0.2957057854844558   T   T   T
  0.2501984288561298  0.9795257369587419  0.2956426583437118   T   T   T
  0.0006467427191465  0.7690942510714424  0.2964122358946627   T   T   T
  0.4993081278362926  0.1062812518467702  0.2951013224212236   T   T   T
  0.7510020664838045  0.1475725119243522  0.2956172976426323   T   T   T
  0.7519714061148856  0.2315846424142634  0.2972834262308096   T   T   T
  0.4996243773816051  0.0219524808201952  0.2952050511977257   T   T   T
  0.7448384569275315  0.3941517409014254  0.3046905683629568   T   T   T
  0.7447294051313235  0.4807676967182207  0.3047665871885488   T   T   T
  0.5023177495745580  0.2727021929308061  0.2955143895136844   T   T   T
  0.5022852236392790  0.6022611163907508  0.2956467398085726   T   T   T
  0.7509405137886634  0.7273420605196718  0.2958026723422859   T   T   T
  0.4996136502698503  0.8529732470170114  0.2952940762373192   T   T   T
  0.7498250654579364  0.8953005276318178  0.2955168423516296   T   T   T
  0.7498385187683788  0.9796226651413729  0.2954601922220314   T   T   T
  0.4992683197095736  0.7686375207083804  0.2952402373336817   T   T   T
  0.7518905217172019  0.6433561777180417  0.2974621403978260   T   T   T
  0.2477162297099561  0.6412945591344683  0.2989617076530857   T   T   T
  0.0004047065792379  0.0216031249502224  0.2958480211943175   T   T   T
  0.5128525099215742  0.5217760871960403  0.2939064914724107   T   T   T
  0.9843727917588100  0.5183853001623130  0.3193439178570621   T   T   T
  0.5128669504741024  0.3531776428896198  0.2938673909716782   T   T   T
  0.9844810464612365  0.3565247807297184  0.3192052998521713   T   T   T
  0.2783434321839657  0.4374687831010081  0.3248916108148308   T   T   T
 
  0.00000000E+00  0.00000000E+00  0.00000000E+00
  0.00000000E+00  0.00000000E+00  0.00000000E+00
  0.00000000E+00  0.00000000E+00  0.00000000E+00
  0.00000000E+00  0.00000000E+00  0.00000000E+00
  0.00000000E+00  0.00000000E+00  0.00000000E+00
  0.00000000E+00  0.00000000E+00  0.00000000E+00
  0.00000000E+00  0.00000000E+00  0.00000000E+00
  0.00000000E+00  0.00000000E+00  0.00000000E+00
  0.00000000E+00  0.00000000E+00  0.00000000E+00
  0.00000000E+00  0.00000000E+00  0.00000000E+00
  0.00000000E+00  0.00000000E+00  0.00000000E+00
  0.00000000E+00  0.00000000E+00  0.00000000E+00
  0.00000000E+00  0.00000000E+00  0.00000000E+00
  0.00000000E+00  0.00000000E+00  0.00000000E+00
  0.00000000E+00  0.00000000E+00  0.00000000E+00
  0.00000000E+00  0.00000000E+00  0.00000000E+00
  0.00000000E+00  0.00000000E+00  0.00000000E+00
  0.00000000E+00  0.00000000E+00  0.00000000E+00
  0.00000000E+00  0.00000000E+00  0.00000000E+00
  0.00000000E+00  0.00000000E+00  0.00000000E+00
  0.00000000E+00  0.00000000E+00  0.00000000E+00
  0.00000000E+00  0.00000000E+00  0.00000000E+00
  0.00000000E+00  0.00000000E+00  0.00000000E+00
  0.00000000E+00  0.00000000E+00  0.00000000E+00
  0.00000000E+00  0.00000000E+00  0.00000000E+00
  0.00000000E+00  0.00000000E+00  0.00000000E+00
  0.00000000E+00  0.00000000E+00  0.00000000E+00
  0.00000000E+00  0.00000000E+00  0.00000000E+00
  0.00000000E+00  0.00000000E+00  0.00000000E+00
  0.00000000E+00  0.00000000E+00  0.00000000E+00
  0.00000000E+00  0.00000000E+00  0.00000000E+00
