Title                                   
   1.00000000000000     
     9.8694509999999998    0.0000000000000000    0.0000000000000000
     0.0000000000000000    8.5490480000000009    0.0000000000000000
     0.0000000000000000    0.0000000000000000   20.0000000000000000
    28     3     1
Selective dynamics
Direct
  0.0561192987069201  0.0914130428725007  0.0845098821971291   T   T   T
  0.9306570733542409  0.1746687369194696  0.0874315591123888   T   T   T
  0.0572306711358337  0.9236267142102227  0.0835287381407729   T   T   T
  0.9294182264431098  0.3419836313341312  0.0913657169035582   T   T   T
  0.0555341098133846  0.5895460431814448  0.0874289615681081   T   T   T
  0.9322582729257065  0.6737844996244498  0.0886904674377206   T   T   T
  0.0562480950063590  0.4232003401564568  0.0899932787152163   T   T   T
  0.9321737821228872  0.8410125964130593  0.0858042935979571   T   T   T
  0.3053447403504623  0.0873978078884206  0.0864896472383393   T   T   T
  0.1820568906514095  0.1738410152098535  0.0866817671613409   T   T   T
  0.3076692962731887  0.9218357895554007  0.0868849019894848   T   T   T
  0.1814410821478731  0.3399303772775520  0.0911464508704917   T   T   T
  0.3044947655713540  0.5887539230234401  0.0995369250017011   T   T   T
  0.1811378828878896  0.6709347114870247  0.0879704987440421   T   T   T
  0.1822982432449496  0.8378325190731104  0.0852994187240227   T   T   T
  0.5558906036043265  0.0859665494195236  0.0942294717335921   T   T   T
  0.4300596508611779  0.1685480841564901  0.0924250363390514   T   T   T
  0.4294959681799209  0.3343897415296778  0.1016528077471070   T   T   T
  0.4296821354027726  0.8366093786060552  0.0979825795203380   T   T   T
  0.8067187821691429  0.0904355436791357  0.0877156546132555   T   T   T
  0.6804825265348946  0.1703527700876460  0.0937231701210730   T   T   T
  0.8070859714178203  0.9252791730639727  0.0872776332125201   T   T   T
  0.6780875429212341  0.3357779746725157  0.1027215566043495   T   T   T
  0.8074261101584670  0.5946300248365972  0.0989300095568220   T   T   T
  0.8031735702899763  0.4257612759573244  0.0989178571535128   T   T   T
  0.6845195989156557  0.8407498913105390  0.0968063349035830   T   T   T
  0.4225077283652712  0.6760651252878899  0.1151152906287090   T   T   T
  0.5515553105337777  0.4093078162844762  0.1164507426984743   T   T   T
  0.6923068583233095  0.6849982205361448  0.1111186745625124   T   T   T
  0.5573887102792728  0.9185473245621026  0.0969454740664043   T   T   T
  0.3051827312267226  0.4217108643197430  0.0986809041804509   T   T   T
  0.5639927701806976  0.5913544934636313  0.1722192949559873   T   T   T
 
  0.00000000E+00  0.00000000E+00  0.00000000E+00
  0.00000000E+00  0.00000000E+00  0.00000000E+00
  0.00000000E+00  0.00000000E+00  0.00000000E+00
  0.00000000E+00  0.00000000E+00  0.00000000E+00
  0.00000000E+00  0.00000000E+00  0.00000000E+00
  0.00000000E+00  0.00000000E+00  0.00000000E+00
  0.00000000E+00  0.00000000E+00  0.00000000E+00
  0.00000000E+00  0.00000000E+00  0.00000000E+00
  0.00000000E+00  0.00000000E+00  0.00000000E+00
  0.00000000E+00  0.00000000E+00  0.00000000E+00
  0.00000000E+00  0.00000000E+00  0.00000000E+00
  0.00000000E+00  0.00000000E+00  0.00000000E+00
  0.00000000E+00  0.00000000E+00  0.00000000E+00
  0.00000000E+00  0.00000000E+00  0.00000000E+00
  0.00000000E+00  0.00000000E+00  0.00000000E+00
  0.00000000E+00  0.00000000E+00  0.00000000E+00
  0.00000000E+00  0.00000000E+00  0.00000000E+00
  0.00000000E+00  0.00000000E+00  0.00000000E+00
  0.00000000E+00  0.00000000E+00  0.00000000E+00
  0.00000000E+00  0.00000000E+00  0.00000000E+00
  0.00000000E+00  0.00000000E+00  0.00000000E+00
  0.00000000E+00  0.00000000E+00  0.00000000E+00
  0.00000000E+00  0.00000000E+00  0.00000000E+00
  0.00000000E+00  0.00000000E+00  0.00000000E+00
  0.00000000E+00  0.00000000E+00  0.00000000E+00
  0.00000000E+00  0.00000000E+00  0.00000000E+00
  0.00000000E+00  0.00000000E+00  0.00000000E+00
  0.00000000E+00  0.00000000E+00  0.00000000E+00
  0.00000000E+00  0.00000000E+00  0.00000000E+00
  0.00000000E+00  0.00000000E+00  0.00000000E+00
  0.00000000E+00  0.00000000E+00  0.00000000E+00
  0.00000000E+00  0.00000000E+00  0.00000000E+00
