Title                                   
   1.00000000000000     
     9.8694509999999998    0.0000000000000000    0.0000000000000000
     0.0000000000000000    8.5490480000000009    0.0000000000000000
     0.0000000000000000    0.0000000000000000   20.0000000000000000
    30     1     1
Selective dynamics
Direct
  0.0562417925052794  0.0894632118993146  0.0850425130008953   T   T   T
  0.9310190650226829  0.1726923802836474  0.0872585665004074   T   T   T
  0.0562287472317227  0.9229761782563080  0.0842649706847302   T   T   T
  0.9303456401413956  0.3404338388614921  0.0902219427384328   T   T   T
  0.0562297694267211  0.5891855043475672  0.0874735370987742   T   T   T
  0.9310656222274746  0.6724914436061352  0.0884094728506154   T   T   T
  0.0562217949758330  0.4231803317488469  0.0885459615150507   T   T   T
  0.9306923733884435  0.8392910363343001  0.0859427534109683   T   T   T
  0.3053192425286138  0.0894089751419139  0.0878483194934514   T   T   T
  0.1814576967869750  0.1727038616810659  0.0872524113312488   T   T   T
  0.3064970804130523  0.9234163339271297  0.0872525626671031   T   T   T
  0.1821054259919693  0.3404404879531154  0.0902097982130932   T   T   T
  0.3066394408777571  0.5908179408233057  0.0964946830955985   T   T   T
  0.1814052745072920  0.6724857827256435  0.0883745379804910   T   T   T
  0.3062407955029343  0.4222302634626502  0.0971057387366059   T   T   T
  0.1817570521200128  0.8392847866863828  0.0859191267355265   T   T   T
  0.5562297130596726  0.0870155503798881  0.0934724925097868   T   T   T
  0.4313502978597051  0.1697696843504225  0.0933032911287147   T   T   T
  0.4317510336760875  0.3360884218046613  0.1018887109093125   T   T   T
  0.4268568725963525  0.6792363031754675  0.1041303570744692   T   T   T
  0.5562335108600556  0.4082968522291344  0.1146097356840955   T   T   T
  0.4313886203711965  0.8399527874942326  0.0944430703521969   T   T   T
  0.8071495813249679  0.0893972590370294  0.0878593923987710   T   T   T
  0.6811317270320051  0.1697562878937953  0.0933163371353490   T   T   T
  0.8059466535738808  0.9234149970988403  0.0872766020294866   T   T   T
  0.6807221755754231  0.3360742964641281  0.1019077840567606   T   T   T
  0.8058400972280755  0.5908172735239746  0.0965454871404781   T   T   T
  0.6856456447624936  0.6792674943936128  0.1042032192897524   T   T   T
  0.8062239886487708  0.4222249331003298  0.0971356992127032   T   T   T
  0.6810579738792687  0.8399762618958261  0.0944798026654420   T   T   T
  0.5562200160794102  0.9228875849934612  0.0934903361565943   T   T   T
  0.5564242798244819  0.5955676544263855  0.1899957862031290   T   T   T
 
  0.00000000E+00  0.00000000E+00  0.00000000E+00
  0.00000000E+00  0.00000000E+00  0.00000000E+00
  0.00000000E+00  0.00000000E+00  0.00000000E+00
  0.00000000E+00  0.00000000E+00  0.00000000E+00
  0.00000000E+00  0.00000000E+00  0.00000000E+00
  0.00000000E+00  0.00000000E+00  0.00000000E+00
  0.00000000E+00  0.00000000E+00  0.00000000E+00
  0.00000000E+00  0.00000000E+00  0.00000000E+00
  0.00000000E+00  0.00000000E+00  0.00000000E+00
  0.00000000E+00  0.00000000E+00  0.00000000E+00
  0.00000000E+00  0.00000000E+00  0.00000000E+00
  0.00000000E+00  0.00000000E+00  0.00000000E+00
  0.00000000E+00  0.00000000E+00  0.00000000E+00
  0.00000000E+00  0.00000000E+00  0.00000000E+00
  0.00000000E+00  0.00000000E+00  0.00000000E+00
  0.00000000E+00  0.00000000E+00  0.00000000E+00
  0.00000000E+00  0.00000000E+00  0.00000000E+00
  0.00000000E+00  0.00000000E+00  0.00000000E+00
  0.00000000E+00  0.00000000E+00  0.00000000E+00
  0.00000000E+00  0.00000000E+00  0.00000000E+00
  0.00000000E+00  0.00000000E+00  0.00000000E+00
  0.00000000E+00  0.00000000E+00  0.00000000E+00
  0.00000000E+00  0.00000000E+00  0.00000000E+00
  0.00000000E+00  0.00000000E+00  0.00000000E+00
  0.00000000E+00  0.00000000E+00  0.00000000E+00
  0.00000000E+00  0.00000000E+00  0.00000000E+00
  0.00000000E+00  0.00000000E+00  0.00000000E+00
  0.00000000E+00  0.00000000E+00  0.00000000E+00
  0.00000000E+00  0.00000000E+00  0.00000000E+00
  0.00000000E+00  0.00000000E+00  0.00000000E+00
  0.00000000E+00  0.00000000E+00  0.00000000E+00
  0.00000000E+00  0.00000000E+00  0.00000000E+00
