Title                                   
   1.00000000000000     
     4.9440799999999996    0.0000000000000000    0.0000000000000000
     0.0000000000000000   17.1295089999999988    0.0000000000000000
     0.0000000000000000    0.0000000000000000   20.0000000000000000
    27     3     1
Selective dynamics
Direct
 -0.0004926260880950  0.1057800663259935  0.2968010910072158   T   T   T
  0.2481800894361891  0.1487040791259617  0.2968714537382606   T   T   T
  0.2473737449398465  0.2333668077851873  0.2987985442048154   T   T   T
 -0.0034989019545198  0.2756983288498127  0.3033927841066489   T   T   T
  0.0003535798844073  0.5999047693205138  0.3033335680693831   T   T   T
  0.2480430222830529  0.7267135100112868  0.2971626184612327   T   T   T
 -0.0001743196127159  0.8532518363298094  0.2973050732991936   T   T   T
  0.2491557047121615  0.8954228944651633  0.2969968486020598   T   T   T
  0.2491567434998564  0.9796078197317217  0.2966820583814543   T   T   T
 -0.0002651371898099  0.7689809402056458  0.2974935459463887   T   T   T
  0.4986135853192898  0.1062197481062995  0.2954676862317056   T   T   T
  0.7499978587335010  0.1477373356421604  0.2955222975509706   T   T   T
  0.7505775657762479  0.2317340543360910  0.2957998548109643   T   T   T
  0.4987079779883756  0.0219184172725839  0.2959640700655091   T   T   T
  0.7465332873439386  0.3938666556406084  0.3000152877399737   T   T   T
  0.7448286290805974  0.4781339732695971  0.3015519196502845   T   T   T
  0.5007792087192409  0.2729729920379247  0.2940138052258182   T   T   T
  0.4961762652724952  0.6032638194535599  0.2935841995560643   T   T   T
  0.7500516576319205  0.7272181409571560  0.2962289654423155   T   T   T
  0.4980648981625044  0.8529323714046896  0.2965432768993029   T   T   T
  0.7487743641445559  0.8951194984039376  0.2967467648760915   T   T   T
  0.7487394727807550  0.9794401511308387  0.2963990486364894   T   T   T
  0.4983176415068247  0.7685179681365170  0.2961200852142225   T   T   T
  0.7502581011170500  0.6439718331803509  0.2959376673061823   T   T   T
 -0.0008650065529654  0.0216084407677293  0.2967409655374972   T   T   T
  0.4985917650299470  0.5214541201942577  0.2934486877949345   T   T   T
 -0.0003866181997054  0.5174522619640008  0.3171367076288941   T   T   T
  0.5093903751167048  0.3530413596271130  0.2895392434162968   T   T   T
 -0.0147748199538933  0.3560740728542567  0.3168573435257165   T   T   T
  0.2467962001028071  0.6439266856452843  0.2981667582872689   T   T   T
  0.3030026909694378  0.4373070478239445  0.3384377787867956   T   T   T
 
  0.00000000E+00  0.00000000E+00  0.00000000E+00
  0.00000000E+00  0.00000000E+00  0.00000000E+00
  0.00000000E+00  0.00000000E+00  0.00000000E+00
  0.00000000E+00  0.00000000E+00  0.00000000E+00
  0.00000000E+00  0.00000000E+00  0.00000000E+00
  0.00000000E+00  0.00000000E+00  0.00000000E+00
  0.00000000E+00  0.00000000E+00  0.00000000E+00
  0.00000000E+00  0.00000000E+00  0.00000000E+00
  0.00000000E+00  0.00000000E+00  0.00000000E+00
  0.00000000E+00  0.00000000E+00  0.00000000E+00
  0.00000000E+00  0.00000000E+00  0.00000000E+00
  0.00000000E+00  0.00000000E+00  0.00000000E+00
  0.00000000E+00  0.00000000E+00  0.00000000E+00
  0.00000000E+00  0.00000000E+00  0.00000000E+00
  0.00000000E+00  0.00000000E+00  0.00000000E+00
  0.00000000E+00  0.00000000E+00  0.00000000E+00
  0.00000000E+00  0.00000000E+00  0.00000000E+00
  0.00000000E+00  0.00000000E+00  0.00000000E+00
  0.00000000E+00  0.00000000E+00  0.00000000E+00
  0.00000000E+00  0.00000000E+00  0.00000000E+00
  0.00000000E+00  0.00000000E+00  0.00000000E+00
  0.00000000E+00  0.00000000E+00  0.00000000E+00
  0.00000000E+00  0.00000000E+00  0.00000000E+00
  0.00000000E+00  0.00000000E+00  0.00000000E+00
  0.00000000E+00  0.00000000E+00  0.00000000E+00
  0.00000000E+00  0.00000000E+00  0.00000000E+00
  0.00000000E+00  0.00000000E+00  0.00000000E+00
  0.00000000E+00  0.00000000E+00  0.00000000E+00
  0.00000000E+00  0.00000000E+00  0.00000000E+00
  0.00000000E+00  0.00000000E+00  0.00000000E+00
  0.00000000E+00  0.00000000E+00  0.00000000E+00
