Title                                   
   1.00000000000000     
     8.5490480000000009    0.0000000000000000    0.0000000000000000
     0.0000000000000000    8.5490480000000009    0.0000000000000000
     0.0000000000000000    0.0000000000000000   20.0000000000000000
    19     5     1
Selective dynamics
Direct
  0.9074378163211616  0.2062551320170701  0.0950386954497000   T   T   T
  0.9116894923784301  0.8013250473768968  0.0961856097350424   T   T   T
  0.1963058850544069  0.0822884565709882  0.0962730821210277   T   T   T
  0.0754196978382820  0.2011463255518298  0.0964348629630368   T   T   T
  0.1580357849398320  0.6494961669242300  0.0956578921484538   T   T   T
  0.0773014649223147  0.5001572451933145  0.0972472382986442   T   T   T
  0.1563154271336936  0.3495072154638196  0.0986881381562869   T   T   T
  0.0796952154670013  0.7990831633540385  0.0951022300329266   T   T   T
  0.3427465741518472  0.1632452261677818  0.0983200748940383   T   T   T
  0.4936957768739362  0.9189106441384484  0.0973730152539065   T   T   T
  0.3456280493553000  0.8367648608665544  0.0956883898259147   T   T   T
  0.7873767819093820  0.0873603811304486  0.0950751639176315   T   T   T
  0.6378128796820911  0.1694214420276052  0.0956411028047546   T   T   T
  0.7901178534474862  0.9200511721175043  0.0964377329326660   T   T   T
  0.8308340565821336  0.6525415652036241  0.0982747778660958   T   T   T
  0.8265254703405062  0.3565085050845995  0.0955331242415882   T   T   T
  0.6431458782680823  0.8382878941437238  0.0987352922333781   T   T   T
  0.3241438206565248  0.6737575944345661  0.0951554122914803   T   T   T
  0.6602050012512800  0.3354629268992728  0.0958173211949382   T   T   T
  0.4929835842387810  0.0865656457792860  0.0970467154584881   T   T   T
  0.9088907734889936  0.5026782033937318  0.0969645117119106   T   T   T
  0.3208347589381063  0.3242556069560728  0.1015163180570083   T   T   T
  0.6696572368789456  0.6733632542299069  0.1016448689692456   T   T   T
  0.1961208318021543  0.9155647226056652  0.0949016723734479   T   T   T
  0.4924918880793139  0.5007916023690332  0.1189517570683691   T   T   T
 
  0.00000000E+00  0.00000000E+00  0.00000000E+00
  0.00000000E+00  0.00000000E+00  0.00000000E+00
  0.00000000E+00  0.00000000E+00  0.00000000E+00
  0.00000000E+00  0.00000000E+00  0.00000000E+00
  0.00000000E+00  0.00000000E+00  0.00000000E+00
  0.00000000E+00  0.00000000E+00  0.00000000E+00
  0.00000000E+00  0.00000000E+00  0.00000000E+00
  0.00000000E+00  0.00000000E+00  0.00000000E+00
  0.00000000E+00  0.00000000E+00  0.00000000E+00
  0.00000000E+00  0.00000000E+00  0.00000000E+00
  0.00000000E+00  0.00000000E+00  0.00000000E+00
  0.00000000E+00  0.00000000E+00  0.00000000E+00
  0.00000000E+00  0.00000000E+00  0.00000000E+00
  0.00000000E+00  0.00000000E+00  0.00000000E+00
  0.00000000E+00  0.00000000E+00  0.00000000E+00
  0.00000000E+00  0.00000000E+00  0.00000000E+00
  0.00000000E+00  0.00000000E+00  0.00000000E+00
  0.00000000E+00  0.00000000E+00  0.00000000E+00
  0.00000000E+00  0.00000000E+00  0.00000000E+00
  0.00000000E+00  0.00000000E+00  0.00000000E+00
  0.00000000E+00  0.00000000E+00  0.00000000E+00
  0.00000000E+00  0.00000000E+00  0.00000000E+00
  0.00000000E+00  0.00000000E+00  0.00000000E+00
  0.00000000E+00  0.00000000E+00  0.00000000E+00
  0.00000000E+00  0.00000000E+00  0.00000000E+00
