Title                                   
   1.00000000000000     
     4.9440799999999996    0.0000000000000000    0.0000000000000000
     0.0000000000000000   17.1295089999999988    0.0000000000000000
     0.0000000000000000    0.0000000000000000   20.0000000000000000
    27     4     1
Selective dynamics
Direct
  0.0001314972077781  0.1047402798815400  0.2900847238922996   T   T   T
  0.2499047218789674  0.1468314953940009  0.2926094490308060   T   T   T
  0.2498284680226368  0.2304801011009171  0.2995175113054027   T   T   T
  0.0066632491334220  0.3537442252316076  0.3144501685711260   T   T   T
 -0.0020154560021989  0.2719919906903364  0.3027301321578025   T   T   T
 -0.0054189970703907  0.6014976410959715  0.3011735149079543   T   T   T
  0.2499682539215752  0.7260835087274706  0.2925778766564226   T   T   T
  0.0005223426787115  0.8528694037344303  0.2883461113715832   T   T   T
  0.2500158390269888  0.8950406379905702  0.2876741347710899   T   T   T
  0.2500249748785025  0.9789371516350797  0.2873931756228891   T   T   T
  0.0006775574064034  0.7689351991975257  0.2906604163796531   T   T   T
  0.4996860815747197  0.1047338313411743  0.2900713720826493   T   T   T
  0.7498739319717270  0.1468584595650319  0.2916726919114719   T   T   T
  0.7498328075954644  0.2297758178797768  0.2970456511009498   T   T   T
  0.5000291450276243  0.0209950215523467  0.2877091722365175   T   T   T
  0.4931379741840037  0.3537588212293615  0.3141666486457738   T   T   T
  0.7494785673636934  0.4830898831524880  0.3097928079219776   T   T   T
  0.5016456716107983  0.2720132474228596  0.3026047338712416   T   T   T
  0.5050396578706761  0.6013113109491128  0.3001774725897003   T   T   T
  0.7498167291728479  0.7279127777258233  0.2919758691517108   T   T   T
  0.4994592767380251  0.8528843989310401  0.2882638849050944   T   T   T
  0.7499982359746422  0.8948792762277713  0.2875605641188488   T   T   T
  0.7500021702873082  0.9787669389194339  0.2871813885185213   T   T   T
  0.4991063295073820  0.7689574591315381  0.2905220578852553   T   T   T
  0.7495118607323310  0.6445062490313545  0.2967904883075377   T   T   T
  0.2499444420683110  0.6416463903870787  0.2975697032011477   T   T   T
 -0.0000187463956076  0.0209906735912437  0.2877170516800867   T   T   T
  0.5108754477495212  0.5203433904847824  0.3064563783080159   T   T   T
  0.9873262308114852  0.5213076415256339  0.3115294826087466   T   T   T
  0.2498316248262614  0.3891655931284376  0.3255087663554884   T   T   T
  0.7498480262995344  0.3988950079950507  0.3154965732788143   T   T   T
  0.2520950839468635  0.4946071751492019  0.3955350266533700   T   T   T
 
  0.00000000E+00  0.00000000E+00  0.00000000E+00
  0.00000000E+00  0.00000000E+00  0.00000000E+00
  0.00000000E+00  0.00000000E+00  0.00000000E+00
  0.00000000E+00  0.00000000E+00  0.00000000E+00
  0.00000000E+00  0.00000000E+00  0.00000000E+00
  0.00000000E+00  0.00000000E+00  0.00000000E+00
  0.00000000E+00  0.00000000E+00  0.00000000E+00
  0.00000000E+00  0.00000000E+00  0.00000000E+00
  0.00000000E+00  0.00000000E+00  0.00000000E+00
  0.00000000E+00  0.00000000E+00  0.00000000E+00
  0.00000000E+00  0.00000000E+00  0.00000000E+00
  0.00000000E+00  0.00000000E+00  0.00000000E+00
  0.00000000E+00  0.00000000E+00  0.00000000E+00
  0.00000000E+00  0.00000000E+00  0.00000000E+00
  0.00000000E+00  0.00000000E+00  0.00000000E+00
  0.00000000E+00  0.00000000E+00  0.00000000E+00
  0.00000000E+00  0.00000000E+00  0.00000000E+00
  0.00000000E+00  0.00000000E+00  0.00000000E+00
  0.00000000E+00  0.00000000E+00  0.00000000E+00
  0.00000000E+00  0.00000000E+00  0.00000000E+00
  0.00000000E+00  0.00000000E+00  0.00000000E+00
  0.00000000E+00  0.00000000E+00  0.00000000E+00
  0.00000000E+00  0.00000000E+00  0.00000000E+00
  0.00000000E+00  0.00000000E+00  0.00000000E+00
  0.00000000E+00  0.00000000E+00  0.00000000E+00
  0.00000000E+00  0.00000000E+00  0.00000000E+00
  0.00000000E+00  0.00000000E+00  0.00000000E+00
  0.00000000E+00  0.00000000E+00  0.00000000E+00
  0.00000000E+00  0.00000000E+00  0.00000000E+00
  0.00000000E+00  0.00000000E+00  0.00000000E+00
  0.00000000E+00  0.00000000E+00  0.00000000E+00
  0.00000000E+00  0.00000000E+00  0.00000000E+00
