Title                                   
   1.00000000000000     
     4.9440799999999996    0.0000000000000000    0.0000000000000000
     0.0000000000000000    8.5647549999999999    0.0000000000000000
     0.0000000000000000    0.0000000000000000   20.0000000000000000
    14     1     1
Selective dynamics
Direct
 -0.0004938179299530  0.2887220972752285  0.0917408801343821   T   T   T
  0.2500000000000000  0.0428609549586935  0.0838127968993756   T   T   T
 -0.0009634900068533  0.7964486568910668  0.0984168050876211   T   T   T
 -0.0011210366118845  0.9602399178739413  0.0841185324333188   T   T   T
  0.7500000000000000  0.2066519288553466  0.0813824484297047   T   T   T
  0.5004938179299527  0.2887220972752285  0.0917408801343821   T   T   T
  0.7500000000000000  0.0420890036288827  0.0790461128177357   T   T   T
  0.7500000000000000  0.7082745974539807  0.1033681586070675   T   T   T
  0.5009634900068533  0.7964486568910668  0.0984168050876211   T   T   T
  0.7500000000000000  0.5378406877924918  0.1091619940740241   T   T   T
  0.5011210366118842  0.9602399178739413  0.0841185324333188   T   T   T
  0.5051393534890751  0.4455640648760598  0.1127957048552583   T   T   T
 -0.0051393534890750  0.4455640648760598  0.1127957048552583   T   T   T
  0.2500000000000000  0.7271164540643595  0.1148121513037568   T   T   T
  0.2500000000000000  0.2065768315090096  0.0880267127851812   T   T   T
  0.2500000000000000  0.5466400679046427  0.1787577800620032   T   T   T
 
  0.00000000E+00  0.00000000E+00  0.00000000E+00
  0.00000000E+00  0.00000000E+00  0.00000000E+00
  0.00000000E+00  0.00000000E+00  0.00000000E+00
  0.00000000E+00  0.00000000E+00  0.00000000E+00
  0.00000000E+00  0.00000000E+00  0.00000000E+00
  0.00000000E+00  0.00000000E+00  0.00000000E+00
  0.00000000E+00  0.00000000E+00  0.00000000E+00
  0.00000000E+00  0.00000000E+00  0.00000000E+00
  0.00000000E+00  0.00000000E+00  0.00000000E+00
  0.00000000E+00  0.00000000E+00  0.00000000E+00
  0.00000000E+00  0.00000000E+00  0.00000000E+00
  0.00000000E+00  0.00000000E+00  0.00000000E+00
  0.00000000E+00  0.00000000E+00  0.00000000E+00
  0.00000000E+00  0.00000000E+00  0.00000000E+00
  0.00000000E+00  0.00000000E+00  0.00000000E+00
  0.00000000E+00  0.00000000E+00  0.00000000E+00
