Title                                   
   1.00000000000000     
     4.9440799999999996    0.0000000000000000    0.0000000000000000
     0.0000000000000000    8.5647549999999999    0.0000000000000000
     0.0000000000000000    0.0000000000000000   20.0000000000000000
    10     4     1
Selective dynamics
Direct
  0.2500000000000000  0.2116040285664113  0.1003577146887535   T   T   T
 -0.0011386488043921  0.2958366028797997  0.1004353752510209   T   T   T
  0.2500000000000000  0.0379310234000405  0.1003913948879783   T   T   T
 -0.0011786862772334  0.9537054162630125  0.1004732500677209   T   T   T
  0.7500000000000000  0.2089804194812816  0.1003347792312575   T   T   T
  0.5011386488043922  0.2958366028797997  0.1004353752510209   T   T   T
  0.7500000000000000  0.0406505210713827  0.1003561872511698   T   T   T
  0.7500000000000000  0.7100679085048642  0.1005846744465543   T   T   T
  0.7500000000000000  0.5394931099894321  0.1005845480704423   T   T   T
  0.5011786862772336  0.9537054162630125  0.1004732500677209   T   T   T
  0.5097163398662381  0.4587998231164753  0.1006453476549690   T   T   T
 -0.0097163398662380  0.4587998231164753  0.1006453476549690   T   T   T
 -0.0097339889798109  0.7907747780115046  0.1006653741686143   T   T   T
  0.5097339889798111  0.7907747780115046  0.1006653741686143   T   T   T
  0.2500000000000000  0.6247207484450048  0.1009320071391971   T   T   T
 
  0.00000000E+00  0.00000000E+00  0.00000000E+00
  0.00000000E+00  0.00000000E+00  0.00000000E+00
  0.00000000E+00  0.00000000E+00  0.00000000E+00
  0.00000000E+00  0.00000000E+00  0.00000000E+00
  0.00000000E+00  0.00000000E+00  0.00000000E+00
  0.00000000E+00  0.00000000E+00  0.00000000E+00
  0.00000000E+00  0.00000000E+00  0.00000000E+00
  0.00000000E+00  0.00000000E+00  0.00000000E+00
  0.00000000E+00  0.00000000E+00  0.00000000E+00
  0.00000000E+00  0.00000000E+00  0.00000000E+00
  0.00000000E+00  0.00000000E+00  0.00000000E+00
  0.00000000E+00  0.00000000E+00  0.00000000E+00
  0.00000000E+00  0.00000000E+00  0.00000000E+00
  0.00000000E+00  0.00000000E+00  0.00000000E+00
  0.00000000E+00  0.00000000E+00  0.00000000E+00
