Title                                   
   1.00000000000000     
     8.5490480000000009    0.0000000000000000    0.0000000000000000
     0.0000000000000000    8.5490480000000009    0.0000000000000000
     0.0000000000000000    0.0000000000000000   20.0000000000000000
    23     1     1
Selective dynamics
Direct
  0.9081435273110103  0.2084091796419698  0.0990259555203893   T   T   T
  0.9057144944684444  0.5045538332890339  0.0968751664984981   T   T   T
  0.9126285912570306  0.8002416158590524  0.0977196850141141   T   T   T
  0.1971685175517360  0.0815433852415941  0.0977039138395086   T   T   T
  0.0727391085974577  0.2059373010313746  0.0977263935845406   T   T   T
  0.1996448108892016  0.9169519999130581  0.0989733364756730   T   T   T
  0.1576773465787352  0.6458550249040289  0.0985322346686952   T   T   T
  0.0747102897791972  0.5015929616611619  0.0968031039472134   T   T   T
  0.1548970382207110  0.3543061032568748  0.0946685602497187   T   T   T
  0.0780391342976551  0.7957629714686327  0.0989920169086106   T   T   T
  0.4927682106985230  0.0834879761462103  0.0968079712710283   T   T   T
  0.3455234418578833  0.1636753036381076  0.0946429971295509   T   T   T
  0.4957690245591208  0.9144846984672134  0.0968673590208642   T   T   T
  0.3504321660813525  0.8331307876707258  0.0986005368767424   T   T   T
  0.7869727647565575  0.0868076434799012  0.0990325274653458   T   T   T
  0.6370238812794791  0.1664447177320959  0.0985777143984322   T   T   T
  0.7915014131771615  0.9213542928839545  0.0977395379970873   T   T   T
  0.8289651153982301  0.6532775684096860  0.0948546004833867   T   T   T
  0.8243378079628080  0.3592159857522871  0.0986462869388284   T   T   T
  0.6445178125905962  0.8377156715095471  0.0948602330017819   T   T   T
  0.3221737077096622  0.3309507687211737  0.0875162134978560   T   T   T
  0.3262476849042323  0.6666788169028234  0.0980139665708254   T   T   T
  0.6578665207438755  0.3350102989277782  0.0980551878679736   T   T   T
  0.6682728629803578  0.6770150101503750  0.0897987100042992   T   T   T
  0.4916767263489736  0.5003860833413527  0.0626707907690140   T   T   T
 
  0.00000000E+00  0.00000000E+00  0.00000000E+00
  0.00000000E+00  0.00000000E+00  0.00000000E+00
  0.00000000E+00  0.00000000E+00  0.00000000E+00
  0.00000000E+00  0.00000000E+00  0.00000000E+00
  0.00000000E+00  0.00000000E+00  0.00000000E+00
  0.00000000E+00  0.00000000E+00  0.00000000E+00
  0.00000000E+00  0.00000000E+00  0.00000000E+00
  0.00000000E+00  0.00000000E+00  0.00000000E+00
  0.00000000E+00  0.00000000E+00  0.00000000E+00
  0.00000000E+00  0.00000000E+00  0.00000000E+00
  0.00000000E+00  0.00000000E+00  0.00000000E+00
  0.00000000E+00  0.00000000E+00  0.00000000E+00
  0.00000000E+00  0.00000000E+00  0.00000000E+00
  0.00000000E+00  0.00000000E+00  0.00000000E+00
  0.00000000E+00  0.00000000E+00  0.00000000E+00
  0.00000000E+00  0.00000000E+00  0.00000000E+00
  0.00000000E+00  0.00000000E+00  0.00000000E+00
  0.00000000E+00  0.00000000E+00  0.00000000E+00
  0.00000000E+00  0.00000000E+00  0.00000000E+00
  0.00000000E+00  0.00000000E+00  0.00000000E+00
  0.00000000E+00  0.00000000E+00  0.00000000E+00
  0.00000000E+00  0.00000000E+00  0.00000000E+00
  0.00000000E+00  0.00000000E+00  0.00000000E+00
  0.00000000E+00  0.00000000E+00  0.00000000E+00
  0.00000000E+00  0.00000000E+00  0.00000000E+00
