Title                                   
   1.00000000000000     
     9.8694509999999998    0.0000000000000000    0.0000000000000000
     0.0000000000000000    8.5490480000000009    0.0000000000000000
     0.0000000000000000    0.0000000000000000   20.0000000000000000
    27     3     1
Selective dynamics
Direct
  0.0561699324234791  0.0894867833518915  0.0865039565133809   T   T   T
  0.9314735082690683  0.1720090638205280  0.0894314245209521   T   T   T
  0.0575362586275873  0.9232272858893589  0.0868697284254155   T   T   T
  0.9338270855627537  0.3389662958078468  0.0909377503971778   T   T   T
  0.0578955140880970  0.5900980805518972  0.0875178736890644   T   T   T
  0.9337784732168183  0.6735135920797194  0.0910931168921028   T   T   T
  0.0579787796509250  0.4227694457238552  0.0872228908164732   T   T   T
  0.9318834191079881  0.8399156539606066  0.0896248897931653   T   T   T
  0.3065508302855544  0.0882788304907874  0.0887746159976545   T   T   T
  0.1811694538814184  0.1717608238712938  0.0864650955898122   T   T   T
  0.1814000311699164  0.3387020820147728  0.0867623263929356   T   T   T
  0.3055638956617308  0.5899541900880864  0.0902492282317798   T   T   T
  0.1815769393833804  0.6738722147031483  0.0873420230715676   T   T   T
  0.3060390177494430  0.4220889342777971  0.0901221114130777   T   T   T
  0.1814846534634919  0.8399374965036688  0.0871552894204455   T   T   T
  0.5546450129047620  0.0909732638430345  0.0980819068930383   T   T   T
  0.4293094618522501  0.1745136138489617  0.0941597654617503   T   T   T
  0.5534541966210911  0.9217234892050180  0.0979076925419931   T   T   T
  0.4286409001734815  0.8373370401552626  0.0942901735586050   T   T   T
  0.8056690376323685  0.0893458568170877  0.0927771488307854   T   T   T
  0.6814175560155667  0.1755511789854362  0.0997288942457885   T   T   T
  0.8057105685250514  0.9224799090281188  0.0927018940087071   T   T   T
  0.6873341503255685  0.3403872157467369  0.1072631451047279   T   T   T
  0.8110022253493773  0.5908450174725549  0.0993608098983593   T   T   T
  0.6870738075027185  0.6716048214228175  0.1064937930075524   T   T   T
  0.8110766459765180  0.4213944714644285  0.0995872775506180   T   T   T
  0.6808726168252526  0.8360955988220490  0.0992849652823069   T   T   T
  0.4256064008182547  0.3376513417819133  0.0970056787309391   T   T   T
  0.4245178211243257  0.6766520926680828  0.0971041541056652   T   T   T
  0.3067956010282624  0.9234416098178734  0.0888636889040409   T   T   T
  0.5456812047835148  0.5062977057853697  0.1502816907101658   T   T   T
 
  0.00000000E+00  0.00000000E+00  0.00000000E+00
  0.00000000E+00  0.00000000E+00  0.00000000E+00
  0.00000000E+00  0.00000000E+00  0.00000000E+00
  0.00000000E+00  0.00000000E+00  0.00000000E+00
  0.00000000E+00  0.00000000E+00  0.00000000E+00
  0.00000000E+00  0.00000000E+00  0.00000000E+00
  0.00000000E+00  0.00000000E+00  0.00000000E+00
  0.00000000E+00  0.00000000E+00  0.00000000E+00
  0.00000000E+00  0.00000000E+00  0.00000000E+00
  0.00000000E+00  0.00000000E+00  0.00000000E+00
  0.00000000E+00  0.00000000E+00  0.00000000E+00
  0.00000000E+00  0.00000000E+00  0.00000000E+00
  0.00000000E+00  0.00000000E+00  0.00000000E+00
  0.00000000E+00  0.00000000E+00  0.00000000E+00
  0.00000000E+00  0.00000000E+00  0.00000000E+00
  0.00000000E+00  0.00000000E+00  0.00000000E+00
  0.00000000E+00  0.00000000E+00  0.00000000E+00
  0.00000000E+00  0.00000000E+00  0.00000000E+00
  0.00000000E+00  0.00000000E+00  0.00000000E+00
  0.00000000E+00  0.00000000E+00  0.00000000E+00
  0.00000000E+00  0.00000000E+00  0.00000000E+00
  0.00000000E+00  0.00000000E+00  0.00000000E+00
  0.00000000E+00  0.00000000E+00  0.00000000E+00
  0.00000000E+00  0.00000000E+00  0.00000000E+00
  0.00000000E+00  0.00000000E+00  0.00000000E+00
  0.00000000E+00  0.00000000E+00  0.00000000E+00
  0.00000000E+00  0.00000000E+00  0.00000000E+00
  0.00000000E+00  0.00000000E+00  0.00000000E+00
  0.00000000E+00  0.00000000E+00  0.00000000E+00
  0.00000000E+00  0.00000000E+00  0.00000000E+00
  0.00000000E+00  0.00000000E+00  0.00000000E+00
