Title                                   
   1.00000000000000     
     8.5490480000000009    0.0000000000000000    0.0000000000000000
     0.0000000000000000    8.5490480000000009    0.0000000000000000
     0.0000000000000000    0.0000000000000000   20.0000000000000000
    19     5     1
Selective dynamics
Direct
  0.9079990939012577  0.2043299931028717  0.0944193113026841   T   T   T
  0.9088925729535305  0.5025475058597042  0.0968696627711227   T   T   T
  0.9104202944766123  0.8024542720603437  0.0945791740829171   T   T   T
  0.1956860807211450  0.0831443381395227  0.0945729298427347   T   T   T
  0.0753811934874781  0.2013365760497888  0.0945590883290713   T   T   T
  0.1567438315613600  0.6528073656122568  0.0961667578284554   T   T   T
  0.0786249798992337  0.5010846925230130  0.0967609879813715   T   T   T
  0.1562857993226260  0.3493123880565974  0.0966523900291806   T   T   T
  0.0779125216164519  0.7993270360173367  0.0942624367143377   T   T   T
  0.4929342427623858  0.0870398564104151  0.0967104178718990   T   T   T
  0.3421991581679708  0.1631390887259950  0.0966621068137152   T   T   T
  0.4923942798811484  0.9176266227037448  0.0965893514041605   T   T   T
  0.3424079508774119  0.8384952647710471  0.0960725676430858   T   T   T
  0.7885692711652941  0.0863582572551005  0.0944365809110387   T   T   T
  0.6417669385356224  0.1664574695260402  0.0964306389260927   T   T   T
  0.7892184175063056  0.9196566322643711  0.0945683772223922   T   T   T
  0.8313614312286157  0.6533311613283165  0.0967547454185572   T   T   T
  0.8294407322952998  0.3522769023197558  0.0964221930930130   T   T   T
  0.6427353810609988  0.8379911707941204  0.0966306378943175   T   T   T
  0.3174036306970021  0.3240399788671499  0.0988171486457725   T   T   T
  0.3180094360425559  0.6806311136927559  0.0980306666238415   T   T   T
  0.6676263018908820  0.3282151947184475  0.0984171304822388   T   T   T
  0.6695824965568649  0.6767960097174601  0.0989941541763301   T   T   T
  0.1969637237754414  0.9167141013607841  0.0940673582281991   T   T   T
  0.4948522396164987  0.4996770081230587  0.1352581857634511   T   T   T
 
  0.00000000E+00  0.00000000E+00  0.00000000E+00
  0.00000000E+00  0.00000000E+00  0.00000000E+00
  0.00000000E+00  0.00000000E+00  0.00000000E+00
  0.00000000E+00  0.00000000E+00  0.00000000E+00
  0.00000000E+00  0.00000000E+00  0.00000000E+00
  0.00000000E+00  0.00000000E+00  0.00000000E+00
  0.00000000E+00  0.00000000E+00  0.00000000E+00
  0.00000000E+00  0.00000000E+00  0.00000000E+00
  0.00000000E+00  0.00000000E+00  0.00000000E+00
  0.00000000E+00  0.00000000E+00  0.00000000E+00
  0.00000000E+00  0.00000000E+00  0.00000000E+00
  0.00000000E+00  0.00000000E+00  0.00000000E+00
  0.00000000E+00  0.00000000E+00  0.00000000E+00
  0.00000000E+00  0.00000000E+00  0.00000000E+00
  0.00000000E+00  0.00000000E+00  0.00000000E+00
  0.00000000E+00  0.00000000E+00  0.00000000E+00
  0.00000000E+00  0.00000000E+00  0.00000000E+00
  0.00000000E+00  0.00000000E+00  0.00000000E+00
  0.00000000E+00  0.00000000E+00  0.00000000E+00
  0.00000000E+00  0.00000000E+00  0.00000000E+00
  0.00000000E+00  0.00000000E+00  0.00000000E+00
  0.00000000E+00  0.00000000E+00  0.00000000E+00
  0.00000000E+00  0.00000000E+00  0.00000000E+00
  0.00000000E+00  0.00000000E+00  0.00000000E+00
  0.00000000E+00  0.00000000E+00  0.00000000E+00
