Title                                   
   1.00000000000000     
     9.8694509999999998    0.0000000000000000    0.0000000000000000
     0.0000000000000000    8.5490480000000009    0.0000000000000000
     0.0000000000000000    0.0000000000000000   20.0000000000000000
    26     5     1
Selective dynamics
Direct
  0.0561337047945478  0.0924984168497218  0.0878760683770879   T   T   T
  0.9304207599558698  0.1751414462170941  0.0898219144827174   T   T   T
  0.0565833186673453  0.9242177820020714  0.0870384005462895   T   T   T
  0.9291775658547814  0.3419881243196002  0.0932147271585007   T   T   T
  0.0561557474194846  0.5899605983097597  0.0894427801708120   T   T   T
  0.9320299534341415  0.6736428219604724  0.0894124043705205   T   T   T
  0.0568885704489836  0.4233247577012089  0.0919079500162243   T   T   T
  0.9314592696306956  0.8410558823479212  0.0871117455337377   T   T   T
  0.3051456299611530  0.0883599702250364  0.0879182946986089   T   T   T
  0.1822542078540546  0.1750560323023802  0.0889300612790429   T   T   T
  0.3064905062097706  0.9225518081747697  0.0897690190327122   T   T   T
  0.1825907035481694  0.3414907829773207  0.0919736684213735   T   T   T
  0.3072924570132292  0.5923749439550978  0.0976974221438433   T   T   T
  0.1815888082527587  0.6714768981387038  0.0902658297010635   T   T   T
  0.1812498875192499  0.8390312535054745  0.0892181846256731   T   T   T
  0.5550060585348486  0.0846339594193533  0.0936648091254718   T   T   T
  0.4305778063145237  0.1690909506878692  0.0909153698467798   T   T   T
  0.4325229688487531  0.3349854803140651  0.0962027625092792   T   T   T
  0.4281028249369329  0.8357287748770924  0.0972827547184160   T   T   T
  0.8063976114899429  0.0906359529892782  0.0885060520968472   T   T   T
  0.6797801213784793  0.1688654782178947  0.0930143004455099   T   T   T
  0.8060131274176391  0.9247546613619005  0.0869414758789329   T   T   T
  0.6763650220814010  0.3344358591202144  0.0994394555127804   T   T   T
  0.8058409151841966  0.5948458338406508  0.0965588376740605   T   T   T
  0.8007249789264678  0.4254931484840756  0.0979492931126991   T   T   T
  0.6834244608858808  0.8394076518828496  0.0928732678860548   T   T   T
  0.4230316298689032  0.6776962194206305  0.1105643261937550   T   T   T
  0.5521274631513176  0.4076706968135211  0.1100799895843985   T   T   T
  0.6886129908372367  0.6828506489046072  0.1041610810135309   T   T   T
  0.5553885103349082  0.9166716692690837  0.0955934435322920   T   T   T
  0.3104963438161060  0.4244851712169294  0.0957575350235299   T   T   T
  0.5697650754282326  0.5858223241933529  0.1845717752874708   T   T   T
 
  0.00000000E+00  0.00000000E+00  0.00000000E+00
  0.00000000E+00  0.00000000E+00  0.00000000E+00
  0.00000000E+00  0.00000000E+00  0.00000000E+00
  0.00000000E+00  0.00000000E+00  0.00000000E+00
  0.00000000E+00  0.00000000E+00  0.00000000E+00
  0.00000000E+00  0.00000000E+00  0.00000000E+00
  0.00000000E+00  0.00000000E+00  0.00000000E+00
  0.00000000E+00  0.00000000E+00  0.00000000E+00
  0.00000000E+00  0.00000000E+00  0.00000000E+00
  0.00000000E+00  0.00000000E+00  0.00000000E+00
  0.00000000E+00  0.00000000E+00  0.00000000E+00
  0.00000000E+00  0.00000000E+00  0.00000000E+00
  0.00000000E+00  0.00000000E+00  0.00000000E+00
  0.00000000E+00  0.00000000E+00  0.00000000E+00
  0.00000000E+00  0.00000000E+00  0.00000000E+00
  0.00000000E+00  0.00000000E+00  0.00000000E+00
  0.00000000E+00  0.00000000E+00  0.00000000E+00
  0.00000000E+00  0.00000000E+00  0.00000000E+00
  0.00000000E+00  0.00000000E+00  0.00000000E+00
  0.00000000E+00  0.00000000E+00  0.00000000E+00
  0.00000000E+00  0.00000000E+00  0.00000000E+00
  0.00000000E+00  0.00000000E+00  0.00000000E+00
  0.00000000E+00  0.00000000E+00  0.00000000E+00
  0.00000000E+00  0.00000000E+00  0.00000000E+00
  0.00000000E+00  0.00000000E+00  0.00000000E+00
  0.00000000E+00  0.00000000E+00  0.00000000E+00
  0.00000000E+00  0.00000000E+00  0.00000000E+00
  0.00000000E+00  0.00000000E+00  0.00000000E+00
  0.00000000E+00  0.00000000E+00  0.00000000E+00
  0.00000000E+00  0.00000000E+00  0.00000000E+00
  0.00000000E+00  0.00000000E+00  0.00000000E+00
  0.00000000E+00  0.00000000E+00  0.00000000E+00
