Title                                   
   1.00000000000000     
     9.8694509999999998    0.0000000000000000    0.0000000000000000
     0.0000000000000000    8.5490480000000009    0.0000000000000000
     0.0000000000000000    0.0000000000000000   20.0000000000000000
    25     5     1
Selective dynamics
Direct
  0.0545589072229063  0.0884108102708944  0.0873586067760791   T   T   T
  0.9307385488249781  0.1718649219985921  0.0926618620521508   T   T   T
  0.0565478653083553  0.9219044694299248  0.0880892130168339   T   T   T
  0.9331469285222557  0.3391364816323765  0.0954068209189632   T   T   T
  0.0556905490540209  0.5903237340604941  0.0867994527046073   T   T   T
  0.0555792497310892  0.4239311342720479  0.0862785807548129   T   T   T
  0.9314670086718557  0.8377103614628553  0.0934244572025854   T   T   T
  0.3055718722147499  0.0885822478335124  0.0868824219050881   T   T   T
  0.1807081876348254  0.1719706956645287  0.0841453076143928   T   T   T
  0.1797116407301294  0.3396288411500525  0.0816500009108523   T   T   T
  0.3040058436840775  0.5908757521383620  0.0815446753977821   T   T   T
  0.1792224685958065  0.6738619635942872  0.0827525081738671   T   T   T
  0.3049391313090771  0.4201988483420518  0.0799374432192012   T   T   T
  0.1810886282426294  0.8400419993799015  0.0857482287361170   T   T   T
  0.4292625208513935  0.1771157522709859  0.0897626515300138   T   T   T
  0.5524072303585618  0.9212055999020996  0.1001071033352798   T   T   T
  0.4282188136045989  0.8356786130320051  0.0927176292470391   T   T   T
  0.8055499686651152  0.0884946390979710  0.0969916157534262   T   T   T
  0.6822266287911863  0.1757927940110242  0.1063063389025296   T   T   T
  0.8067691426598371  0.9212857807632990  0.0976205999742803   T   T   T
  0.6903373168634792  0.3355035588227721  0.1211239405798575   T   T   T
  0.8132816292839965  0.5937284573179695  0.1107620998166260   T   T   T
  0.6926595668849684  0.6763540615124666  0.1182321575168923   T   T   T
  0.8134274097195200  0.4191942720182180  0.1112405712770575   T   T   T
  0.6811067084983146  0.8384011958575993  0.1058561235817028   T   T   T
  0.9341435845805636  0.6725231197163943  0.0958423641394673   T   T   T
  0.5532208221181812  0.0939268919228601  0.0993251071767957   T   T   T
  0.4239906874437087  0.3359144446854016  0.0834222169908647   T   T   T
  0.4206363005655190  0.6762078679120396  0.0893447510771045   T   T   T
  0.3044864286086382  0.9234869422883358  0.0876607397405222   T   T   T
  0.5584334107556770  0.5076187476386804  0.1219694099772556   T   T   T
 
  0.00000000E+00  0.00000000E+00  0.00000000E+00
  0.00000000E+00  0.00000000E+00  0.00000000E+00
  0.00000000E+00  0.00000000E+00  0.00000000E+00
  0.00000000E+00  0.00000000E+00  0.00000000E+00
  0.00000000E+00  0.00000000E+00  0.00000000E+00
  0.00000000E+00  0.00000000E+00  0.00000000E+00
  0.00000000E+00  0.00000000E+00  0.00000000E+00
  0.00000000E+00  0.00000000E+00  0.00000000E+00
  0.00000000E+00  0.00000000E+00  0.00000000E+00
  0.00000000E+00  0.00000000E+00  0.00000000E+00
  0.00000000E+00  0.00000000E+00  0.00000000E+00
  0.00000000E+00  0.00000000E+00  0.00000000E+00
  0.00000000E+00  0.00000000E+00  0.00000000E+00
  0.00000000E+00  0.00000000E+00  0.00000000E+00
  0.00000000E+00  0.00000000E+00  0.00000000E+00
  0.00000000E+00  0.00000000E+00  0.00000000E+00
  0.00000000E+00  0.00000000E+00  0.00000000E+00
  0.00000000E+00  0.00000000E+00  0.00000000E+00
  0.00000000E+00  0.00000000E+00  0.00000000E+00
  0.00000000E+00  0.00000000E+00  0.00000000E+00
  0.00000000E+00  0.00000000E+00  0.00000000E+00
  0.00000000E+00  0.00000000E+00  0.00000000E+00
  0.00000000E+00  0.00000000E+00  0.00000000E+00
  0.00000000E+00  0.00000000E+00  0.00000000E+00
  0.00000000E+00  0.00000000E+00  0.00000000E+00
  0.00000000E+00  0.00000000E+00  0.00000000E+00
  0.00000000E+00  0.00000000E+00  0.00000000E+00
  0.00000000E+00  0.00000000E+00  0.00000000E+00
  0.00000000E+00  0.00000000E+00  0.00000000E+00
  0.00000000E+00  0.00000000E+00  0.00000000E+00
  0.00000000E+00  0.00000000E+00  0.00000000E+00
