Title                                   
   1.00000000000000     
     8.5490480000000009    0.0000000000000000    0.0000000000000000
     0.0000000000000000    8.5490480000000009    0.0000000000000000
     0.0000000000000000    0.0000000000000000   20.0000000000000000
    22     2     1
Selective dynamics
Direct
  0.9096214858601088  0.2062878939629672  0.0953096870060436   T   T   T
  0.9082152567948901  0.5031018366073104  0.0938960611466865   T   T   T
  0.9139108446297544  0.8013966302209199  0.0938140189953257   T   T   T
  0.1934152850203069  0.0809322987346293  0.0938803704462116   T   T   T
  0.0721419074590428  0.2021419174661815  0.0939017356548356   T   T   T
  0.1975784920246552  0.9184132341226832  0.0953116426299607   T   T   T
  0.1566934221866000  0.6475175441061128  0.0978769425104543   T   T   T
  0.0778185235196965  0.5005137874650097  0.0939281083517838   T   T   T
  0.1548139497717925  0.3497342136035834  0.0911810993092448   T   T   T
  0.0764286883072123  0.7972876476671430  0.0952802125459933   T   T   T
  0.4916986502719251  0.0866092810957696  0.0938778341391622   T   T   T
  0.3409703150280533  0.1636376909732403  0.0911380822327957   T   T   T
  0.4943163914969825  0.9170111808582667  0.0938847149665527   T   T   T
  0.3473377582007211  0.8381549764012174  0.0978764147422051   T   T   T
  0.7884820660121679  0.0851703764049104  0.0952867563234309   T   T   T
  0.6387089097866936  0.1654456158547464  0.0978406517490785   T   T   T
  0.7926646258812464  0.9226538834139250  0.0938200526211631   T   T   T
  0.8311918742240317  0.6538119842333150  0.0910996340598388   T   T   T
  0.8293613818812229  0.3560717478256967  0.0978601960443803   T   T   T
  0.6450784910617520  0.8399604188989634  0.0911088189985992   T   T   T
  0.3188074840404719  0.6760532724162218  0.1066441255028878   T   T   T
  0.6672369068910978  0.3275574607188743  0.1065894388743267   T   T   T
  0.3124257819774580  0.3212514432774963  0.0856785849227026   T   T   T
  0.6735706886818067  0.6823301479835022  0.0856477247432926   T   T   T
  0.4929228189903010  0.5017435156873263  0.1109720914830216   T   T   T
 
  0.00000000E+00  0.00000000E+00  0.00000000E+00
  0.00000000E+00  0.00000000E+00  0.00000000E+00
  0.00000000E+00  0.00000000E+00  0.00000000E+00
  0.00000000E+00  0.00000000E+00  0.00000000E+00
  0.00000000E+00  0.00000000E+00  0.00000000E+00
  0.00000000E+00  0.00000000E+00  0.00000000E+00
  0.00000000E+00  0.00000000E+00  0.00000000E+00
  0.00000000E+00  0.00000000E+00  0.00000000E+00
  0.00000000E+00  0.00000000E+00  0.00000000E+00
  0.00000000E+00  0.00000000E+00  0.00000000E+00
  0.00000000E+00  0.00000000E+00  0.00000000E+00
  0.00000000E+00  0.00000000E+00  0.00000000E+00
  0.00000000E+00  0.00000000E+00  0.00000000E+00
  0.00000000E+00  0.00000000E+00  0.00000000E+00
  0.00000000E+00  0.00000000E+00  0.00000000E+00
  0.00000000E+00  0.00000000E+00  0.00000000E+00
  0.00000000E+00  0.00000000E+00  0.00000000E+00
  0.00000000E+00  0.00000000E+00  0.00000000E+00
  0.00000000E+00  0.00000000E+00  0.00000000E+00
  0.00000000E+00  0.00000000E+00  0.00000000E+00
  0.00000000E+00  0.00000000E+00  0.00000000E+00
  0.00000000E+00  0.00000000E+00  0.00000000E+00
  0.00000000E+00  0.00000000E+00  0.00000000E+00
  0.00000000E+00  0.00000000E+00  0.00000000E+00
  0.00000000E+00  0.00000000E+00  0.00000000E+00
