Title                                   
   1.00000000000000     
     9.8694509999999998    0.0000000000000000    0.0000000000000000
     0.0000000000000000    8.5490480000000009    0.0000000000000000
     0.0000000000000000    0.0000000000000000   20.0000000000000000
    29     2     1
Selective dynamics
Direct
  0.0562270008802236  0.0910225700318073  0.0854484487832511   T   T   T
  0.9314762980464851  0.1716705735693287  0.0871066758291581   T   T   T
  0.0562224655757690  0.9240271728724900  0.0853621561897066   T   T   T
  0.9325325281312032  0.3388685495933897  0.0892949672292500   T   T   T
  0.0570281189365574  0.5898608606826103  0.0859601662741858   T   T   T
  0.9326574279819965  0.6718931376966149  0.0889605025168454   T   T   T
  0.0579846195477551  0.4228088996245913  0.0873801960640017   T   T   T
  0.9312880206738784  0.8384721707632150  0.0877763106561007   T   T   T
  0.3056915972296493  0.0903101392826106  0.0895198825974828   T   T   T
  0.1818777766837686  0.1742565815116767  0.0874158226085495   T   T   T
  0.1838688399020827  0.3416144421509847  0.0896227239071547   T   T   T
  0.3033720621750908  0.5945669055076261  0.0984643488155263   T   T   T
  0.1803515837136983  0.6755727854799157  0.0875196254722353   T   T   T
  0.3083692828553938  0.4272942540055503  0.0979783373518516   T   T   T
  0.1798079007161525  0.8417894913790632  0.0869887656701841   T   T   T
  0.5555510996622859  0.0863870929594873  0.0956021877047002   T   T   T
  0.4309135481737205  0.1713488902826167  0.0947522120856442   T   T   T
  0.5524571025028079  0.9194491916157623  0.0995125573258755   T   T   T
  0.4327644118405352  0.3385326759182584  0.1028441164046041   T   T   T
  0.5603217261551680  0.4092629020392953  0.1150886701665084   T   T   T
  0.4237275752980829  0.8415747143760300  0.1005648237152507   T   T   T
  0.8065663064108572  0.0865311219230453  0.0892189416010653   T   T   T
  0.6817409956907095  0.1682307321947323  0.0942597529915715   T   T   T
  0.8055519828113723  0.9207058941728195  0.0908250000571703   T   T   T
  0.6838618095759840  0.3337807624115220  0.1021333606913443   T   T   T
  0.8102176726261813  0.5875801066505454  0.0995858940375002   T   T   T
  0.6921337890384257  0.6736208594121280  0.1134181668866065   T   T   T
  0.8087532270013420  0.4201339538908523  0.0976056002262172   T   T   T
  0.6806227422784432  0.8361097081975426  0.1010656128796183   T   T   T
  0.4142682521284369  0.6865924051441549  0.1137685993487049   T   T   T
  0.3038838550123213  0.9263814163259428  0.0896433192229938   T   T   T
  0.5575473807436289  0.5899950383337782  0.1689872546891867   T   T   T
 
  0.00000000E+00  0.00000000E+00  0.00000000E+00
  0.00000000E+00  0.00000000E+00  0.00000000E+00
  0.00000000E+00  0.00000000E+00  0.00000000E+00
  0.00000000E+00  0.00000000E+00  0.00000000E+00
  0.00000000E+00  0.00000000E+00  0.00000000E+00
  0.00000000E+00  0.00000000E+00  0.00000000E+00
  0.00000000E+00  0.00000000E+00  0.00000000E+00
  0.00000000E+00  0.00000000E+00  0.00000000E+00
  0.00000000E+00  0.00000000E+00  0.00000000E+00
  0.00000000E+00  0.00000000E+00  0.00000000E+00
  0.00000000E+00  0.00000000E+00  0.00000000E+00
  0.00000000E+00  0.00000000E+00  0.00000000E+00
  0.00000000E+00  0.00000000E+00  0.00000000E+00
  0.00000000E+00  0.00000000E+00  0.00000000E+00
  0.00000000E+00  0.00000000E+00  0.00000000E+00
  0.00000000E+00  0.00000000E+00  0.00000000E+00
  0.00000000E+00  0.00000000E+00  0.00000000E+00
  0.00000000E+00  0.00000000E+00  0.00000000E+00
  0.00000000E+00  0.00000000E+00  0.00000000E+00
  0.00000000E+00  0.00000000E+00  0.00000000E+00
  0.00000000E+00  0.00000000E+00  0.00000000E+00
  0.00000000E+00  0.00000000E+00  0.00000000E+00
  0.00000000E+00  0.00000000E+00  0.00000000E+00
  0.00000000E+00  0.00000000E+00  0.00000000E+00
  0.00000000E+00  0.00000000E+00  0.00000000E+00
  0.00000000E+00  0.00000000E+00  0.00000000E+00
  0.00000000E+00  0.00000000E+00  0.00000000E+00
  0.00000000E+00  0.00000000E+00  0.00000000E+00
  0.00000000E+00  0.00000000E+00  0.00000000E+00
  0.00000000E+00  0.00000000E+00  0.00000000E+00
  0.00000000E+00  0.00000000E+00  0.00000000E+00
  0.00000000E+00  0.00000000E+00  0.00000000E+00
