Title                                   
   1.00000000000000     
     9.8694509999999998    0.0000000000000000    0.0000000000000000
     0.0000000000000000    8.5490480000000009    0.0000000000000000
     0.0000000000000000    0.0000000000000000   20.0000000000000000
    28     3     1
Selective dynamics
Direct
  0.0558824577680395  0.0906951719421301  0.0842654556192749   T   T   T
  0.9308456950871984  0.1744961572607756  0.0859956634671235   T   T   T
  0.0577068831291171  0.9235055757831123  0.0839278007136422   T   T   T
  0.9299390910465297  0.3418796748255335  0.0883626843752258   T   T   T
  0.0568379339423305  0.5900926687195248  0.0851081472885718   T   T   T
  0.9326832091985917  0.6735332925097800  0.0873140581120593   T   T   T
  0.0558493020625623  0.4226849593160151  0.0865560234809456   T   T   T
  0.9332573702517822  0.8404120930847205  0.0862964322865129   T   T   T
  0.3056536442662479  0.0874798692328011  0.0880317847292154   T   T   T
  0.1818994878249331  0.1719438531087228  0.0864217283258757   T   T   T
  0.1809331886429593  0.3385809271287201  0.0888236402801268   T   T   T
  0.3042183675548425  0.5876082820534666  0.0990768434363166   T   T   T
  0.1817220826986989  0.6728920739170917  0.0874205261882711   T   T   T
  0.3053932486406024  0.4199286419017384  0.0981821193359949   T   T   T
  0.1823363396539343  0.8398625132754727  0.0856795372890281   T   T   T
  0.5559964553313935  0.0870175142338527  0.0936294688458696   T   T   T
  0.5556510812999829  0.9207189632439605  0.0984660605597323   T   T   T
  0.4290117109142487  0.3311857392543857  0.1035374462315030   T   T   T
  0.4276753250824712  0.8390839270668956  0.1004134877993460   T   T   T
  0.8059887320922948  0.0899904100161276  0.0870956760825270   T   T   T
  0.6796920302573414  0.1717527749825652  0.0919349306579959   T   T   T
  0.8079257065048254  0.9246644277391457  0.0887471945211855   T   T   T
  0.6800342007852648  0.3373401713819297  0.1011348630244288   T   T   T
  0.8092155367035164  0.5935939943964753  0.0976889105020890   T   T   T
  0.8037731999068201  0.4253916252392262  0.0966536726922017   T   T   T
  0.6849458481367899  0.8416305674170688  0.0988653416912144   T   T   T
  0.4201832829826233  0.6793879312517892  0.1135668136988536   T   T   T
  0.5522813415315133  0.4053945838021405  0.1166013685557673   T   T   T
  0.6950719116167632  0.6827719538769415  0.1132144623142604   T   T   T
  0.3063711650565933  0.9240804960203275  0.0881378841692941   T   T   T
  0.4286311434192671  0.1666665901790998  0.0929428580997695   T   T   T
  0.5620320266099258  0.5939785758384649  0.1815821156257938   T   T   T
 
  0.00000000E+00  0.00000000E+00  0.00000000E+00
  0.00000000E+00  0.00000000E+00  0.00000000E+00
  0.00000000E+00  0.00000000E+00  0.00000000E+00
  0.00000000E+00  0.00000000E+00  0.00000000E+00
  0.00000000E+00  0.00000000E+00  0.00000000E+00
  0.00000000E+00  0.00000000E+00  0.00000000E+00
  0.00000000E+00  0.00000000E+00  0.00000000E+00
  0.00000000E+00  0.00000000E+00  0.00000000E+00
  0.00000000E+00  0.00000000E+00  0.00000000E+00
  0.00000000E+00  0.00000000E+00  0.00000000E+00
  0.00000000E+00  0.00000000E+00  0.00000000E+00
  0.00000000E+00  0.00000000E+00  0.00000000E+00
  0.00000000E+00  0.00000000E+00  0.00000000E+00
  0.00000000E+00  0.00000000E+00  0.00000000E+00
  0.00000000E+00  0.00000000E+00  0.00000000E+00
  0.00000000E+00  0.00000000E+00  0.00000000E+00
  0.00000000E+00  0.00000000E+00  0.00000000E+00
  0.00000000E+00  0.00000000E+00  0.00000000E+00
  0.00000000E+00  0.00000000E+00  0.00000000E+00
  0.00000000E+00  0.00000000E+00  0.00000000E+00
  0.00000000E+00  0.00000000E+00  0.00000000E+00
  0.00000000E+00  0.00000000E+00  0.00000000E+00
  0.00000000E+00  0.00000000E+00  0.00000000E+00
  0.00000000E+00  0.00000000E+00  0.00000000E+00
  0.00000000E+00  0.00000000E+00  0.00000000E+00
  0.00000000E+00  0.00000000E+00  0.00000000E+00
  0.00000000E+00  0.00000000E+00  0.00000000E+00
  0.00000000E+00  0.00000000E+00  0.00000000E+00
  0.00000000E+00  0.00000000E+00  0.00000000E+00
  0.00000000E+00  0.00000000E+00  0.00000000E+00
  0.00000000E+00  0.00000000E+00  0.00000000E+00
  0.00000000E+00  0.00000000E+00  0.00000000E+00
