Title                                   
   1.00000000000000     
     9.8694509999999998    0.0000000000000000    0.0000000000000000
     0.0000000000000000    8.5490480000000009    0.0000000000000000
     0.0000000000000000    0.0000000000000000   20.0000000000000000
    31     1
Selective dynamics
Direct
  0.0562405518077594  0.0895700668643502  0.0856151636198660   T   T   T
  0.9313399205123298  0.1725970186337031  0.0872099533776608   T   T   T
  0.0562361800456935  0.9229311698334117  0.0858265495901497   T   T   T
  0.9309461977287810  0.3396979262702173  0.0890699849068552   T   T   T
  0.0562279556456557  0.5890373264004256  0.0873440137882242   T   T   T
  0.9319305229222166  0.6728240029502269  0.0895014683150079   T   T   T
  0.0562219966440457  0.4228736158481518  0.0876389691513820   T   T   T
  0.9315157767662943  0.8395730725746705  0.0881601885816597   T   T   T
  0.3055232437508644  0.0895291014121668  0.0893865555921363   T   T   T
  0.1811468182168378  0.1726034313822549  0.0871595230603967   T   T   T
  0.3053154105299248  0.9231605162057094  0.0908186769296093   T   T   T
  0.1815072218079581  0.3397003980759455  0.0890087505551159   T   T   T
  0.3042765926663459  0.5894925262804172  0.0976811293268081   T   T   T
  0.1805388861587531  0.6728203727768460  0.0894060917545506   T   T   T
  0.3052250713749304  0.4218503662506741  0.0960241715268302   T   T   T
  0.1809548083518921  0.8395601730298755  0.0880767239629233   T   T   T
  0.5562622318891103  0.0883221534694866  0.0947228803060005   T   T   T
  0.4306835972359730  0.1715113975749048  0.0937620635566017   T   T   T
  0.5562428611735329  0.9232064741424971  0.0980490641556924   T   T   T
  0.4303698434533655  0.3371488344903823  0.0999831938706462   T   T   T
  0.4228867738509614  0.6777018843177399  0.1091448173258637   T   T   T
  0.5562186606967882  0.4117662142489757  0.1112248876734426   T   T   T
  0.4297920076744353  0.8407696287398111  0.0990983164536241   T   T   T
  0.8069806269555154  0.0895432446429711  0.0894544472709360   T   T   T
  0.6818288547452624  0.1715223464608099  0.0938052457571640   T   T   T
  0.8071611888665051  0.9231767818531920  0.0908965841275964   T   T   T
  0.6820917474148991  0.3371525466855249  0.1000275809411249   T   T   T
  0.8082064038640698  0.5894832675963239  0.0978024196232886   T   T   T
  0.6896260979654432  0.6777224184723708  0.1092272617981873   T   T   T
  0.8072347104769017  0.4218462035759632  0.0961182018670449   T   T   T
  0.6826800585813180  0.8407682373925200  0.0991517294850876   T   T   T
  0.5562261802256435  0.5907832815474886  0.1552783917485573   T   T   T
 
  0.00000000E+00  0.00000000E+00  0.00000000E+00
  0.00000000E+00  0.00000000E+00  0.00000000E+00
  0.00000000E+00  0.00000000E+00  0.00000000E+00
  0.00000000E+00  0.00000000E+00  0.00000000E+00
  0.00000000E+00  0.00000000E+00  0.00000000E+00
  0.00000000E+00  0.00000000E+00  0.00000000E+00
  0.00000000E+00  0.00000000E+00  0.00000000E+00
  0.00000000E+00  0.00000000E+00  0.00000000E+00
  0.00000000E+00  0.00000000E+00  0.00000000E+00
  0.00000000E+00  0.00000000E+00  0.00000000E+00
  0.00000000E+00  0.00000000E+00  0.00000000E+00
  0.00000000E+00  0.00000000E+00  0.00000000E+00
  0.00000000E+00  0.00000000E+00  0.00000000E+00
  0.00000000E+00  0.00000000E+00  0.00000000E+00
  0.00000000E+00  0.00000000E+00  0.00000000E+00
  0.00000000E+00  0.00000000E+00  0.00000000E+00
  0.00000000E+00  0.00000000E+00  0.00000000E+00
  0.00000000E+00  0.00000000E+00  0.00000000E+00
  0.00000000E+00  0.00000000E+00  0.00000000E+00
  0.00000000E+00  0.00000000E+00  0.00000000E+00
  0.00000000E+00  0.00000000E+00  0.00000000E+00
  0.00000000E+00  0.00000000E+00  0.00000000E+00
  0.00000000E+00  0.00000000E+00  0.00000000E+00
  0.00000000E+00  0.00000000E+00  0.00000000E+00
  0.00000000E+00  0.00000000E+00  0.00000000E+00
  0.00000000E+00  0.00000000E+00  0.00000000E+00
  0.00000000E+00  0.00000000E+00  0.00000000E+00
  0.00000000E+00  0.00000000E+00  0.00000000E+00
  0.00000000E+00  0.00000000E+00  0.00000000E+00
  0.00000000E+00  0.00000000E+00  0.00000000E+00
  0.00000000E+00  0.00000000E+00  0.00000000E+00
  0.00000000E+00  0.00000000E+00  0.00000000E+00
