Title                                   
   1.00000000000000     
     4.9440799999999996    0.0000000000000000    0.0000000000000000
     0.0000000000000000   17.1295089999999988    0.0000000000000000
     0.0000000000000000    0.0000000000000000   20.0000000000000000
    31     1
Selective dynamics
Direct
 -0.0000304140420000  0.1042202166226778  0.2785934462088972   T   T   T
  0.2498612160719330  0.1456945905996314  0.2836572663007576   T   T   T
  0.2499122797330109  0.2280466220704175  0.2967818672237627   T   T   T
 -0.0017205583839164  0.3499832711769935  0.3219981366103348   T   T   T
 -0.0010770557854719  0.2687093694914227  0.3036930905539423   T   T   T
 -0.0034147417575446  0.6080300004347660  0.3177924835003747   T   T   T
  0.2498990905513884  0.7294641775550583  0.2935860061298991   T   T   T
  0.0001013105112408  0.8538801169665032  0.2768989675702390   T   T   T
  0.2498648456604921  0.8956270190670554  0.2741551415257676   T   T   T
  0.2498395272286471  0.9791146501522091  0.2720759559986319   T   T   T
  0.0002849563248978  0.7710180932888886  0.2861937428411888   T   T   T
  0.4997299022102790  0.1042199598694975  0.2785933637924533   T   T   T
  0.7498499174006081  0.1456260699031699  0.2828847018662752   T   T   T
  0.7499030786447478  0.2279549952634517  0.2950125299268388   T   T   T
  0.4998377118411568  0.0208773894282276  0.2729450854960369   T   T   T
  0.5016163778724438  0.3499859876284110  0.3219940322995209   T   T   T
  0.7499497519668640  0.3936944329442507  0.3256296908192099   T   T   T
  0.7499610389193168  0.4787474368939879  0.3281608753266131   T   T   T
  0.5009073544662849  0.2687125815453607  0.3036911634436387   T   T   T
  0.5032650899293559  0.6080238474039158  0.3177768430178956   T   T   T
  0.7498964874852908  0.7303024377429722  0.2915626541330520   T   T   T
  0.4996333585996792  0.8538723362805133  0.2768973300066176   T   T   T
  0.7498536232287588  0.8954629708988067  0.2738759423780124   T   T   T
  0.7498313659638084  0.9790694693298343  0.2719151075970199   T   T   T
  0.4995026957333213  0.7710112691942050  0.2861924894947741   T   T   T
  0.7499141981007147  0.6488404214217917  0.3064953438167777   T   T   T
  0.2499236936468027  0.6481457856901753  0.3107557350235061   T   T   T
 -0.0001800942232512  0.0208760975538104  0.2729457575979088   T   T   T
  0.5193318113266563  0.5273825721943770  0.3358804003089196   T   T   T
  0.9805913449588373  0.5273799202563173  0.3359036665647018   T   T   T
  0.2499580234437480  0.3843692240334330  0.3381381432322401   T   T   T
  0.2500258123719050  0.4802076670978606  0.3898880393941440   T   T   T
 
  0.00000000E+00  0.00000000E+00  0.00000000E+00
  0.00000000E+00  0.00000000E+00  0.00000000E+00
  0.00000000E+00  0.00000000E+00  0.00000000E+00
  0.00000000E+00  0.00000000E+00  0.00000000E+00
  0.00000000E+00  0.00000000E+00  0.00000000E+00
  0.00000000E+00  0.00000000E+00  0.00000000E+00
  0.00000000E+00  0.00000000E+00  0.00000000E+00
  0.00000000E+00  0.00000000E+00  0.00000000E+00
  0.00000000E+00  0.00000000E+00  0.00000000E+00
  0.00000000E+00  0.00000000E+00  0.00000000E+00
  0.00000000E+00  0.00000000E+00  0.00000000E+00
  0.00000000E+00  0.00000000E+00  0.00000000E+00
  0.00000000E+00  0.00000000E+00  0.00000000E+00
  0.00000000E+00  0.00000000E+00  0.00000000E+00
  0.00000000E+00  0.00000000E+00  0.00000000E+00
  0.00000000E+00  0.00000000E+00  0.00000000E+00
  0.00000000E+00  0.00000000E+00  0.00000000E+00
  0.00000000E+00  0.00000000E+00  0.00000000E+00
  0.00000000E+00  0.00000000E+00  0.00000000E+00
  0.00000000E+00  0.00000000E+00  0.00000000E+00
  0.00000000E+00  0.00000000E+00  0.00000000E+00
  0.00000000E+00  0.00000000E+00  0.00000000E+00
  0.00000000E+00  0.00000000E+00  0.00000000E+00
  0.00000000E+00  0.00000000E+00  0.00000000E+00
  0.00000000E+00  0.00000000E+00  0.00000000E+00
  0.00000000E+00  0.00000000E+00  0.00000000E+00
  0.00000000E+00  0.00000000E+00  0.00000000E+00
  0.00000000E+00  0.00000000E+00  0.00000000E+00
  0.00000000E+00  0.00000000E+00  0.00000000E+00
  0.00000000E+00  0.00000000E+00  0.00000000E+00
  0.00000000E+00  0.00000000E+00  0.00000000E+00
  0.00000000E+00  0.00000000E+00  0.00000000E+00
