Title                                   
   1.00000000000000     
     9.8694509999999998    0.0000000000000000    0.0000000000000000
     0.0000000000000000    8.5490480000000009    0.0000000000000000
     0.0000000000000000    0.0000000000000000   20.0000000000000000
    27     3     1
Selective dynamics
Direct
  0.0560046170916375  0.0898284307098302  0.0931916774226523   T   T   T
  0.9316414290028956  0.1733869022472818  0.0986216786503571   T   T   T
  0.0586317139525663  0.9229992965774722  0.0925977641282770   T   T   T
  0.9329064561346080  0.3411527199871489  0.1002969972100903   T   T   T
  0.0583855403918335  0.5904053408949733  0.0948530562904388   T   T   T
  0.9345243593842198  0.6747727788650894  0.0996537959544649   T   T   T
  0.0575007353054115  0.4227742488300704  0.0953588512324196   T   T   T
  0.9341116179101546  0.8412664094367127  0.0979946535705220   T   T   T
  0.3070649033524597  0.0872233938757311  0.0840570009112157   T   T   T
  0.1809175385607543  0.1706110768165225  0.0885968609871984   T   T   T
  0.1800435709596905  0.3365275627176996  0.0899353314343892   T   T   T
  0.3068319046909563  0.5864913671244993  0.0794464516354424   T   T   T
  0.1825835944906782  0.6729022736549929  0.0880395912886296   T   T   T
  0.3044716302199369  0.4180407147061758  0.0829144968233479   T   T   T
  0.1836584381866221  0.8388030441037747  0.0873345411561815   T   T   T
  0.5575237751151532  0.0903756067303643  0.0937178630025626   T   T   T
  0.4301254525371584  0.1704331911170832  0.0849004436988300   T   T   T
  0.5575860511418729  0.9212390617194237  0.0936504185671207   T   T   T
  0.4301986855100698  0.6737690131066557  0.0760307884869451   T   T   T
  0.4324123948110338  0.8372260326901793  0.0826659442006376   T   T   T
  0.8050776013139981  0.0912869706079248  0.1002658819045876   T   T   T
  0.6804325317177511  0.1789954180394951  0.1018109248772932   T   T   T
  0.8067125636436053  0.9233018535092821  0.1001697141233022   T   T   T
  0.6827747062035028  0.3469672906821866  0.1093423288877052   T   T   T
  0.8110750229855452  0.5940031659610818  0.1066514630928599   T   T   T
  0.8090298805813412  0.4258404298490456  0.1062381808071010   T   T   T
  0.6831598259525768  0.8349302619367686  0.1022583021756306   T   T   T
  0.4257575508719276  0.3338382743055571  0.0836029833880706   T   T   T
  0.6882178404512794  0.6720277348208343  0.1116650989033544   T   T   T
  0.3081698000705271  0.9219003581664802  0.0831699246280024   T   T   T
  0.5256032674582343  0.5075547762096906  0.1319319905604044   T   T   T
 
  0.00000000E+00  0.00000000E+00  0.00000000E+00
  0.00000000E+00  0.00000000E+00  0.00000000E+00
  0.00000000E+00  0.00000000E+00  0.00000000E+00
  0.00000000E+00  0.00000000E+00  0.00000000E+00
  0.00000000E+00  0.00000000E+00  0.00000000E+00
  0.00000000E+00  0.00000000E+00  0.00000000E+00
  0.00000000E+00  0.00000000E+00  0.00000000E+00
  0.00000000E+00  0.00000000E+00  0.00000000E+00
  0.00000000E+00  0.00000000E+00  0.00000000E+00
  0.00000000E+00  0.00000000E+00  0.00000000E+00
  0.00000000E+00  0.00000000E+00  0.00000000E+00
  0.00000000E+00  0.00000000E+00  0.00000000E+00
  0.00000000E+00  0.00000000E+00  0.00000000E+00
  0.00000000E+00  0.00000000E+00  0.00000000E+00
  0.00000000E+00  0.00000000E+00  0.00000000E+00
  0.00000000E+00  0.00000000E+00  0.00000000E+00
  0.00000000E+00  0.00000000E+00  0.00000000E+00
  0.00000000E+00  0.00000000E+00  0.00000000E+00
  0.00000000E+00  0.00000000E+00  0.00000000E+00
  0.00000000E+00  0.00000000E+00  0.00000000E+00
  0.00000000E+00  0.00000000E+00  0.00000000E+00
  0.00000000E+00  0.00000000E+00  0.00000000E+00
  0.00000000E+00  0.00000000E+00  0.00000000E+00
  0.00000000E+00  0.00000000E+00  0.00000000E+00
  0.00000000E+00  0.00000000E+00  0.00000000E+00
  0.00000000E+00  0.00000000E+00  0.00000000E+00
  0.00000000E+00  0.00000000E+00  0.00000000E+00
  0.00000000E+00  0.00000000E+00  0.00000000E+00
  0.00000000E+00  0.00000000E+00  0.00000000E+00
  0.00000000E+00  0.00000000E+00  0.00000000E+00
  0.00000000E+00  0.00000000E+00  0.00000000E+00
