Title                                   
   1.00000000000000     
     8.5490480000000009    0.0000000000000000    0.0000000000000000
     0.0000000000000000    8.5490480000000009    0.0000000000000000
     0.0000000000000000    0.0000000000000000   20.0000000000000000
    23     1     1
Selective dynamics
Direct
  0.9102024967096362  0.2060503816361224  0.0976787698517511   T   T   T
  0.9096688699429277  0.5029180823353242  0.0977111530054840   T   T   T
  0.9126992717608938  0.8006123303255376  0.0976939839242456   T   T   T
  0.1980043864753550  0.0823507768375196  0.0977791451648525   T   T   T
  0.0745269130187262  0.2031595863373067  0.0977504244414576   T   T   T
  0.1604948433533322  0.6481156417040412  0.0977822813801235   T   T   T
  0.0775689561756210  0.5016291640335392  0.0977825922953295   T   T   T
  0.1593516126791385  0.3556018814442790  0.0978145853269039   T   T   T
  0.0782235223919845  0.7984567204772560  0.0977769547738261   T   T   T
  0.4920468383407420  0.0854935558711508  0.0977689190726668   T   T   T
  0.3455516786254305  0.1651633859901120  0.0977949810921817   T   T   T
  0.4914724456042482  0.9178241438013617  0.0977366779764802   T   T   T
  0.3463846435128232  0.8348354640480504  0.0977339718636983   T   T   T
  0.7871526115312802  0.0841955331738306  0.0976977189186393   T   T   T
  0.6369625096868912  0.1681781230471156  0.0977638851046505   T   T   T
  0.7882525833839988  0.9209565435557948  0.0976918420018364   T   T   T
  0.8297063015667852  0.6495871433582607  0.0976785765432524   T   T   T
  0.8269269843285285  0.3566582491645739  0.0977078006042640   T   T   T
  0.6376268367753208  0.8353810984253114  0.0977243652010914   T   T   T
  0.3237486987774604  0.3334118515406010  0.0978368134390906   T   T   T
  0.3249324872022740  0.6700036487814105  0.0977256816493959   T   T   T
  0.6603567045925663  0.3342085757240416  0.0977801770140550   T   T   T
  0.6619434118072005  0.6709067862101903  0.0977294301509315   T   T   T
  0.1983151152101122  0.9173532576329591  0.0978246615074140   T   T   T
  0.4932912765467088  0.5017380745443165  0.0977396076963583   T   T   T
 
  0.00000000E+00  0.00000000E+00  0.00000000E+00
  0.00000000E+00  0.00000000E+00  0.00000000E+00
  0.00000000E+00  0.00000000E+00  0.00000000E+00
  0.00000000E+00  0.00000000E+00  0.00000000E+00
  0.00000000E+00  0.00000000E+00  0.00000000E+00
  0.00000000E+00  0.00000000E+00  0.00000000E+00
  0.00000000E+00  0.00000000E+00  0.00000000E+00
  0.00000000E+00  0.00000000E+00  0.00000000E+00
  0.00000000E+00  0.00000000E+00  0.00000000E+00
  0.00000000E+00  0.00000000E+00  0.00000000E+00
  0.00000000E+00  0.00000000E+00  0.00000000E+00
  0.00000000E+00  0.00000000E+00  0.00000000E+00
  0.00000000E+00  0.00000000E+00  0.00000000E+00
  0.00000000E+00  0.00000000E+00  0.00000000E+00
  0.00000000E+00  0.00000000E+00  0.00000000E+00
  0.00000000E+00  0.00000000E+00  0.00000000E+00
  0.00000000E+00  0.00000000E+00  0.00000000E+00
  0.00000000E+00  0.00000000E+00  0.00000000E+00
  0.00000000E+00  0.00000000E+00  0.00000000E+00
  0.00000000E+00  0.00000000E+00  0.00000000E+00
  0.00000000E+00  0.00000000E+00  0.00000000E+00
  0.00000000E+00  0.00000000E+00  0.00000000E+00
  0.00000000E+00  0.00000000E+00  0.00000000E+00
  0.00000000E+00  0.00000000E+00  0.00000000E+00
  0.00000000E+00  0.00000000E+00  0.00000000E+00
