Title                                   
   1.00000000000000     
     9.8694509999999998    0.0000000000000000    0.0000000000000000
     0.0000000000000000    8.5490480000000009    0.0000000000000000
     0.0000000000000000    0.0000000000000000   20.0000000000000000
    25     6     1
Selective dynamics
Direct
  0.0551053315445676  0.0921617529404154  0.0913500871388228   T   T   T
  0.9298556153688997  0.1747502460902701  0.0911467211925186   T   T   T
  0.0560224541794656  0.9239605884562434  0.0914131176671592   T   T   T
  0.9277480635953262  0.3429829447625533  0.0908571765088871   T   T   T
  0.0550537469570293  0.5923255974127146  0.0910935232379873   T   T   T
  0.0545678567154963  0.4252377122924588  0.0909747893050310   T   T   T
  0.9322246690434406  0.8389823616165721  0.0910987482900043   T   T   T
  0.3054331039477183  0.0887178417387932  0.0908927854338459   T   T   T
  0.1817285214967360  0.1746344198210445  0.0911326658472088   T   T   T
  0.1826243248727121  0.3426676075907288  0.0908266990780271   T   T   T
  0.3069810624952166  0.5927406112957541  0.0895997712116786   T   T   T
  0.1798320606023025  0.6753188455768722  0.0908680952398477   T   T   T
  0.3094399701519841  0.4245138906626176  0.0899960361924187   T   T   T
  0.1809427383752943  0.8417354335931204  0.0911638006738898   T   T   T
  0.5550166366291274  0.0824242983371046  0.0898996864175917   T   T   T
  0.5543015450725877  0.9155721555097741  0.0889073852024813   T   T   T
  0.4365284156059134  0.3354521949370374  0.0898352949309651   T   T   T
  0.4267407935057873  0.8312258324212419  0.0889497788279159   T   T   T
  0.8057319793962595  0.0880440043764918  0.0907523307282930   T   T   T
  0.6786281244048512  0.1688834063587092  0.0902922743011805   T   T   T
  0.8066801070313671  0.9218388670018873  0.0905181835148592   T   T   T
  0.6754912536627570  0.3369234409544021  0.0899320220565068   T   T   T
  0.8026883902443538  0.5962280067279737  0.0895658993695002   T   T   T
  0.8010983347369177  0.4256218710469604  0.0900636709730928   T   T   T
  0.6832743730481452  0.8342821320152152  0.0890254448444565   T   T   T
  0.4220908142503791  0.6793895368653284  0.0877837231440239   T   T   T
  0.5529691604396023  0.4079394042284314  0.0892997938494056   T   T   T
  0.6894669845494541  0.6764213480793106  0.0878608109018906   T   T   T
  0.3035632735772271  0.9246349031162677  0.0908603774150196   T   T   T
  0.4292073293073064  0.1651033628077732  0.0903470238119761   T   T   T
  0.9321502258851581  0.6742206851093012  0.0909994621767532   T   T   T
  0.5864517393066252  0.5953106962566360  0.2883678205167776   T   T   T
 
  0.00000000E+00  0.00000000E+00  0.00000000E+00
  0.00000000E+00  0.00000000E+00  0.00000000E+00
  0.00000000E+00  0.00000000E+00  0.00000000E+00
  0.00000000E+00  0.00000000E+00  0.00000000E+00
  0.00000000E+00  0.00000000E+00  0.00000000E+00
  0.00000000E+00  0.00000000E+00  0.00000000E+00
  0.00000000E+00  0.00000000E+00  0.00000000E+00
  0.00000000E+00  0.00000000E+00  0.00000000E+00
  0.00000000E+00  0.00000000E+00  0.00000000E+00
  0.00000000E+00  0.00000000E+00  0.00000000E+00
  0.00000000E+00  0.00000000E+00  0.00000000E+00
  0.00000000E+00  0.00000000E+00  0.00000000E+00
  0.00000000E+00  0.00000000E+00  0.00000000E+00
  0.00000000E+00  0.00000000E+00  0.00000000E+00
  0.00000000E+00  0.00000000E+00  0.00000000E+00
  0.00000000E+00  0.00000000E+00  0.00000000E+00
  0.00000000E+00  0.00000000E+00  0.00000000E+00
  0.00000000E+00  0.00000000E+00  0.00000000E+00
  0.00000000E+00  0.00000000E+00  0.00000000E+00
  0.00000000E+00  0.00000000E+00  0.00000000E+00
  0.00000000E+00  0.00000000E+00  0.00000000E+00
  0.00000000E+00  0.00000000E+00  0.00000000E+00
  0.00000000E+00  0.00000000E+00  0.00000000E+00
  0.00000000E+00  0.00000000E+00  0.00000000E+00
  0.00000000E+00  0.00000000E+00  0.00000000E+00
  0.00000000E+00  0.00000000E+00  0.00000000E+00
  0.00000000E+00  0.00000000E+00  0.00000000E+00
  0.00000000E+00  0.00000000E+00  0.00000000E+00
  0.00000000E+00  0.00000000E+00  0.00000000E+00
  0.00000000E+00  0.00000000E+00  0.00000000E+00
  0.00000000E+00  0.00000000E+00  0.00000000E+00
  0.00000000E+00  0.00000000E+00  0.00000000E+00
