Title                                   
   1.00000000000000     
     8.5490480000000009    0.0000000000000000    0.0000000000000000
     0.0000000000000000    8.5490480000000009    0.0000000000000000
     0.0000000000000000    0.0000000000000000   20.0000000000000000
    19     5     1
Selective dynamics
Direct
  0.9082712341454232  0.2052191314555207  0.0947880961173572   T   T   T
  0.9111245760135178  0.8014662371170203  0.0945711669869296   T   T   T
  0.1956056879955866  0.0832760233547043  0.0944787063388591   T   T   T
  0.0763969074958617  0.2004064057675345  0.0949306117917707   T   T   T
  0.1553840693495220  0.6504437119834001  0.0969559262456945   T   T   T
  0.0738104070404181  0.5000003389894571  0.0972712469153499   T   T   T
  0.1553041831379512  0.3525173024657863  0.0976883795170213   T   T   T
  0.0790057495306464  0.8000068769053306  0.0944753646157914   T   T   T
  0.3456114017456091  0.1653464234407336  0.0970018946099269   T   T   T
  0.4941213742403386  0.9194845067707611  0.0969832455008172   T   T   T
  0.3439921851786520  0.8381256275775224  0.0969602988084450   T   T   T
  0.7882646862172424  0.0863192105058758  0.0949247385495340   T   T   T
  0.6417062621814503  0.1666807417104343  0.0965881868730163   T   T   T
  0.7903329654536196  0.9189680295953297  0.0951044455483321   T   T   T
  0.8293005353394813  0.6530815133095935  0.0963080205732406   T   T   T
  0.8269389975611748  0.3515087250157981  0.0963396476774688   T   T   T
  0.6431953774952931  0.8382847001696154  0.0970742216849850   T   T   T
  0.3236669882652077  0.3290282418921706  0.1002249762466894   T   T   T
  0.3214147200903716  0.6752055092229110  0.0991137359920902   T   T   T
  0.4952105822023808  0.0862408988353655  0.0968157146619489   T   T   T
  0.9046546310203981  0.5018227560576700  0.0965380195313871   T   T   T
  0.6647371666460600  0.3281981293749867  0.0982636473743613   T   T   T
  0.6697064404535513  0.6749505112524565  0.0986867921904230   T   T   T
  0.1949343168362709  0.9166817448459508  0.0942358669446525   T   T   T
  0.4927205543639646  0.5015267023840910  0.1273820487038810   T   T   T
 
  0.00000000E+00  0.00000000E+00  0.00000000E+00
  0.00000000E+00  0.00000000E+00  0.00000000E+00
  0.00000000E+00  0.00000000E+00  0.00000000E+00
  0.00000000E+00  0.00000000E+00  0.00000000E+00
  0.00000000E+00  0.00000000E+00  0.00000000E+00
  0.00000000E+00  0.00000000E+00  0.00000000E+00
  0.00000000E+00  0.00000000E+00  0.00000000E+00
  0.00000000E+00  0.00000000E+00  0.00000000E+00
  0.00000000E+00  0.00000000E+00  0.00000000E+00
  0.00000000E+00  0.00000000E+00  0.00000000E+00
  0.00000000E+00  0.00000000E+00  0.00000000E+00
  0.00000000E+00  0.00000000E+00  0.00000000E+00
  0.00000000E+00  0.00000000E+00  0.00000000E+00
  0.00000000E+00  0.00000000E+00  0.00000000E+00
  0.00000000E+00  0.00000000E+00  0.00000000E+00
  0.00000000E+00  0.00000000E+00  0.00000000E+00
  0.00000000E+00  0.00000000E+00  0.00000000E+00
  0.00000000E+00  0.00000000E+00  0.00000000E+00
  0.00000000E+00  0.00000000E+00  0.00000000E+00
  0.00000000E+00  0.00000000E+00  0.00000000E+00
  0.00000000E+00  0.00000000E+00  0.00000000E+00
  0.00000000E+00  0.00000000E+00  0.00000000E+00
  0.00000000E+00  0.00000000E+00  0.00000000E+00
  0.00000000E+00  0.00000000E+00  0.00000000E+00
  0.00000000E+00  0.00000000E+00  0.00000000E+00
