Title                                   
   1.00000000000000     
     8.5490480000000009    0.0000000000000000    0.0000000000000000
     0.0000000000000000    8.5490480000000009    0.0000000000000000
     0.0000000000000000    0.0000000000000000   20.0000000000000000
    24     1
Selective dynamics
Direct
  0.9113302696766220  0.2063205390107569  0.0954410319952611   T   T   T
  0.9088503175152455  0.5018083335805749  0.0953017752184191   T   T   T
  0.9113520306370535  0.7972774593737604  0.0954549457990010   T   T   T
  0.1975165424162652  0.0834510752253917  0.0954677366969433   T   T   T
  0.0747102376976123  0.2063011426745426  0.0954491835828291   T   T   T
  0.1975270056413664  0.9201098410944700  0.0954764807391887   T   T   T
  0.1591135276276635  0.6472726674381452  0.0953440898737271   T   T   T
  0.0771871745663341  0.5018073289013293  0.0953224634876823   T   T   T
  0.1591087255424497  0.3563207579399412  0.0953269266530711   T   T   T
  0.0747172736723036  0.7972694867753132  0.0954653589234471   T   T   T
  0.4930048973885713  0.0858824264830566  0.0953539881630643   T   T   T
  0.3475588038337722  0.1679372349524851  0.0953539700366452   T   T   T
  0.4930107479157114  0.9176944073625563  0.0953594240156569   T   T   T
  0.3475660935846486  0.8356252651526982  0.0953650503895966   T   T   T
  0.7885431946691035  0.0834730387279209  0.0954527303146158   T   T   T
  0.6384653379786371  0.1679522879290435  0.0953222165043359   T   T   T
  0.7885656418789950  0.9201299057194874  0.0954571312373864   T   T   T
  0.8269139091947872  0.6472801579026910  0.0953070047871481   T   T   T
  0.8269018530404961  0.3563413377172743  0.0953025780681176   T   T   T
  0.6384866079144641  0.8356524190745469  0.0953272174854363   T   T   T
  0.3250893728378554  0.3337691094207174  0.0952466188628955   T   T   T
  0.3250958949032901  0.6697873689626904  0.0952666309852961   T   T   T
  0.6609098531490614  0.3337850795552822  0.0952093443964692   T   T   T
  0.6609286288917682  0.6698090387340037  0.0952135188732223   T   T   T
  0.4929580578259160  0.5017322902913341  0.0951175829105219   T   T   T
 
  0.00000000E+00  0.00000000E+00  0.00000000E+00
  0.00000000E+00  0.00000000E+00  0.00000000E+00
  0.00000000E+00  0.00000000E+00  0.00000000E+00
  0.00000000E+00  0.00000000E+00  0.00000000E+00
  0.00000000E+00  0.00000000E+00  0.00000000E+00
  0.00000000E+00  0.00000000E+00  0.00000000E+00
  0.00000000E+00  0.00000000E+00  0.00000000E+00
  0.00000000E+00  0.00000000E+00  0.00000000E+00
  0.00000000E+00  0.00000000E+00  0.00000000E+00
  0.00000000E+00  0.00000000E+00  0.00000000E+00
  0.00000000E+00  0.00000000E+00  0.00000000E+00
  0.00000000E+00  0.00000000E+00  0.00000000E+00
  0.00000000E+00  0.00000000E+00  0.00000000E+00
  0.00000000E+00  0.00000000E+00  0.00000000E+00
  0.00000000E+00  0.00000000E+00  0.00000000E+00
  0.00000000E+00  0.00000000E+00  0.00000000E+00
  0.00000000E+00  0.00000000E+00  0.00000000E+00
  0.00000000E+00  0.00000000E+00  0.00000000E+00
  0.00000000E+00  0.00000000E+00  0.00000000E+00
  0.00000000E+00  0.00000000E+00  0.00000000E+00
  0.00000000E+00  0.00000000E+00  0.00000000E+00
  0.00000000E+00  0.00000000E+00  0.00000000E+00
  0.00000000E+00  0.00000000E+00  0.00000000E+00
  0.00000000E+00  0.00000000E+00  0.00000000E+00
  0.00000000E+00  0.00000000E+00  0.00000000E+00
