Title                                   
   1.00000000000000     
     4.9440799999999996    0.0000000000000000    0.0000000000000000
     0.0000000000000000   17.1295089999999988    0.0000000000000000
     0.0000000000000000    0.0000000000000000   20.0000000000000000
    28     3     1
Selective dynamics
Direct
  0.0003698952186914  0.1044089439838536  0.2908932828529114   T   T   T
  0.2504976547007015  0.1464536415953965  0.2935599300488951   T   T   T
  0.2496198272202026  0.2294874721413158  0.3001410179393091   T   T   T
  0.0019628515170970  0.3521982439060021  0.3125918111637048   T   T   T
 -0.0018715619844592  0.2711135713766937  0.3018839943181809   T   T   T
  0.0007852324831879  0.5988082289178510  0.2982655946474489   T   T   T
  0.2542477420897717  0.7264933741214006  0.2950532087400207   T   T   T
  0.0041945698001108  0.8528811581790566  0.2902363567666593   T   T   T
  0.2534994717158592  0.8950575836145773  0.2895902603020016   T   T   T
  0.2522578682108822  0.9787416890309591  0.2888484379624480   T   T   T
  0.0057669575672571  0.7693713631878684  0.2927220532019363   T   T   T
  0.5005195246978031  0.1043065507823655  0.2912443396991536   T   T   T
  0.7496602883549606  0.1465457871186845  0.2923739953591422   T   T   T
  0.7479807290995016  0.2297639662940705  0.2971623253601437   T   T   T
  0.5019079911564841  0.0207340805270601  0.2891391270394676   T   T   T
  0.4927933520560097  0.3542882019798101  0.3143533093442674   T   T   T
  0.7612537426741331  0.4798253465597045  0.3097636726367093   T   T   T
  0.4989592123688290  0.2720384317372242  0.3034113630441896   T   T   T
  0.5112580675292825  0.6036330629465071  0.3070781912154810   T   T   T
  0.7557142016814710  0.7278178038507254  0.2955851048249017   T   T   T
  0.5030897730319335  0.8527972680336871  0.2909659339667096   T   T   T
  0.7531458733614892  0.8948493765604552  0.2895763031803211   T   T   T
  0.7521166513493873  0.9785478942152677  0.2886668405550098   T   T   T
  0.5035901394606208  0.7690020608366360  0.2942527543691526   T   T   T
  0.7557630665634608  0.6451561472418753  0.3005479909549141   T   T   T
  0.2565676330007661  0.6417693071155072  0.2985492384884588   T   T   T
  0.0017558135980900  0.0208622336427490  0.2888685988509303   T   T   T
  0.5316870469883108  0.5225936975958860  0.3277860557143426   T   T   T
  0.9876818705968261  0.5168262497135876  0.2772521539810713   T   T   T
  0.2435332139746233  0.3911903070756850  0.3283599223934550   T   T   T
  0.7503628022968003  0.3952905121268422  0.3126857591511129   T   T   T
  0.1661514976199200  0.5056974439906897  0.3711560719275023   T   T   T
 
  0.00000000E+00  0.00000000E+00  0.00000000E+00
  0.00000000E+00  0.00000000E+00  0.00000000E+00
  0.00000000E+00  0.00000000E+00  0.00000000E+00
  0.00000000E+00  0.00000000E+00  0.00000000E+00
  0.00000000E+00  0.00000000E+00  0.00000000E+00
  0.00000000E+00  0.00000000E+00  0.00000000E+00
  0.00000000E+00  0.00000000E+00  0.00000000E+00
  0.00000000E+00  0.00000000E+00  0.00000000E+00
  0.00000000E+00  0.00000000E+00  0.00000000E+00
  0.00000000E+00  0.00000000E+00  0.00000000E+00
  0.00000000E+00  0.00000000E+00  0.00000000E+00
  0.00000000E+00  0.00000000E+00  0.00000000E+00
  0.00000000E+00  0.00000000E+00  0.00000000E+00
  0.00000000E+00  0.00000000E+00  0.00000000E+00
  0.00000000E+00  0.00000000E+00  0.00000000E+00
  0.00000000E+00  0.00000000E+00  0.00000000E+00
  0.00000000E+00  0.00000000E+00  0.00000000E+00
  0.00000000E+00  0.00000000E+00  0.00000000E+00
  0.00000000E+00  0.00000000E+00  0.00000000E+00
  0.00000000E+00  0.00000000E+00  0.00000000E+00
  0.00000000E+00  0.00000000E+00  0.00000000E+00
  0.00000000E+00  0.00000000E+00  0.00000000E+00
  0.00000000E+00  0.00000000E+00  0.00000000E+00
  0.00000000E+00  0.00000000E+00  0.00000000E+00
  0.00000000E+00  0.00000000E+00  0.00000000E+00
  0.00000000E+00  0.00000000E+00  0.00000000E+00
  0.00000000E+00  0.00000000E+00  0.00000000E+00
  0.00000000E+00  0.00000000E+00  0.00000000E+00
  0.00000000E+00  0.00000000E+00  0.00000000E+00
  0.00000000E+00  0.00000000E+00  0.00000000E+00
  0.00000000E+00  0.00000000E+00  0.00000000E+00
  0.00000000E+00  0.00000000E+00  0.00000000E+00
