Title                                   
   1.00000000000000     
     4.9440799999999996    0.0000000000000000    0.0000000000000000
     0.0000000000000000    8.5647549999999999    0.0000000000000000
     0.0000000000000000    0.0000000000000000   20.0000000000000000
    14     1
Selective dynamics
Direct
  0.2500000000000000  0.2075421147712087  0.0953883458232499   T   T   T
  0.0014618157098835  0.2938128136178306  0.0958409138562893   T   T   T
  0.2500000000000000  0.0420533979017373  0.0953953435842361   T   T   T
  0.0014967455258751  0.9557494623781503  0.0958814795730359   T   T   T
  0.7500000000000000  0.2093161008010205  0.0935539659972894   T   T   T
  0.4985381842901165  0.2938128136178306  0.0958409138562893   T   T   T
  0.7500000000000000  0.0402204954112188  0.0935836359106750   T   T   T
  0.7500000000000000  0.7100613858094382  0.1000602085121163   T   T   T
  0.7500000000000000  0.5395497185608574  0.1000194042350058   T   T   T
  0.4985032544741250  0.9557494623781503  0.0958814795730359   T   T   T
  0.5020242418205495  0.4599862488971261  0.1014928065190767   T   T   T
 -0.0020242418205494  0.4599862488971261  0.1014928065190767   T   T   T
 -0.0019623379895707  0.7895842423712767  0.1015730752627538   T   T   T
  0.5019623379895708  0.7895842423712767  0.1015730752627538   T   T   T
  0.2500000000000000  0.6246722522157532  0.1404025455151195   T   T   T
 
  0.00000000E+00  0.00000000E+00  0.00000000E+00
  0.00000000E+00  0.00000000E+00  0.00000000E+00
  0.00000000E+00  0.00000000E+00  0.00000000E+00
  0.00000000E+00  0.00000000E+00  0.00000000E+00
  0.00000000E+00  0.00000000E+00  0.00000000E+00
  0.00000000E+00  0.00000000E+00  0.00000000E+00
  0.00000000E+00  0.00000000E+00  0.00000000E+00
  0.00000000E+00  0.00000000E+00  0.00000000E+00
  0.00000000E+00  0.00000000E+00  0.00000000E+00
  0.00000000E+00  0.00000000E+00  0.00000000E+00
  0.00000000E+00  0.00000000E+00  0.00000000E+00
  0.00000000E+00  0.00000000E+00  0.00000000E+00
  0.00000000E+00  0.00000000E+00  0.00000000E+00
  0.00000000E+00  0.00000000E+00  0.00000000E+00
  0.00000000E+00  0.00000000E+00  0.00000000E+00
