Title                                   
   1.00000000000000     
     9.8694509999999998    0.0000000000000000    0.0000000000000000
     0.0000000000000000    8.5490480000000009    0.0000000000000000
     0.0000000000000000    0.0000000000000000   20.0000000000000000
    27     3     1
Selective dynamics
Direct
  0.0559312160791907  0.0894301305330923  0.0849576860614502   T   T   T
  0.9314074244278377  0.1723441141458716  0.0851247423067816   T   T   T
  0.0573490290106434  0.9238733151708540  0.0854573226582069   T   T   T
  0.9346941784282856  0.3396132683427730  0.0829141722892823   T   T   T
  0.0566531957116259  0.5903665931791564  0.0803195079817463   T   T   T
  0.9342864809289239  0.6752834565636461  0.0835766997074281   T   T   T
  0.0576890694164141  0.4230629841692715  0.0802302904796386   T   T   T
  0.9329406521066874  0.8411657960368130  0.0862612795185408   T   T   T
  0.3052443644798997  0.0886737427451478  0.0959912227669682   T   T   T
  0.1802714048145480  0.1699150171172266  0.0881110817925994   T   T   T
  0.1793749217646126  0.3370531263871641  0.0866060818988045   T   T   T
  0.2985464361922672  0.5892313161502148  0.0980629163387463   T   T   T
  0.1793772121062314  0.6740658513282235  0.0865731648103627   T   T   T
  0.2987870574512859  0.4184969723515921  0.0981562039886691   T   T   T
  0.1820691313418748  0.8412574775297623  0.0881987059903292   T   T   T
  0.5564977990846209  0.0908988608314162  0.1053794309194572   T   T   T
  0.4273717555633792  0.1755041485887316  0.1051362250662617   T   T   T
  0.5551835598599526  0.9215023337630268  0.1052300785365407   T   T   T
  0.4184715009637799  0.6727189773337491  0.1100013204880485   T   T   T
  0.4270134195458508  0.8363897226726217  0.1046410224669243   T   T   T
  0.8062582260998051  0.0896239888318519  0.0919804669798557   T   T   T
  0.6836213370079877  0.1761811205166536  0.1007487890398097   T   T   T
  0.8066353169881726  0.9218684236767819  0.0926414847943140   T   T   T
  0.6923857234413664  0.3419024063001022  0.1036767738754039   T   T   T
  0.8134858184065461  0.5934613075788674  0.0921082009075179   T   T   T
  0.8136998210743366  0.4231547337138887  0.0912617663439985   T   T   T
  0.6840874770960504  0.8345197489787156  0.1014548667910470   T   T   T
  0.4170967825207505  0.3382741837540053  0.1099357214255010   T   T   T
  0.6947586875288025  0.6718467476854812  0.1044237759357748   T   T   T
  0.3052589906295152  0.9232038894207266  0.0953977708143881   T   T   T
  0.5566870099287572  0.5059912446025986  0.1164062270256367   T   T   T
 
  0.00000000E+00  0.00000000E+00  0.00000000E+00
  0.00000000E+00  0.00000000E+00  0.00000000E+00
  0.00000000E+00  0.00000000E+00  0.00000000E+00
  0.00000000E+00  0.00000000E+00  0.00000000E+00
  0.00000000E+00  0.00000000E+00  0.00000000E+00
  0.00000000E+00  0.00000000E+00  0.00000000E+00
  0.00000000E+00  0.00000000E+00  0.00000000E+00
  0.00000000E+00  0.00000000E+00  0.00000000E+00
  0.00000000E+00  0.00000000E+00  0.00000000E+00
  0.00000000E+00  0.00000000E+00  0.00000000E+00
  0.00000000E+00  0.00000000E+00  0.00000000E+00
  0.00000000E+00  0.00000000E+00  0.00000000E+00
  0.00000000E+00  0.00000000E+00  0.00000000E+00
  0.00000000E+00  0.00000000E+00  0.00000000E+00
  0.00000000E+00  0.00000000E+00  0.00000000E+00
  0.00000000E+00  0.00000000E+00  0.00000000E+00
  0.00000000E+00  0.00000000E+00  0.00000000E+00
  0.00000000E+00  0.00000000E+00  0.00000000E+00
  0.00000000E+00  0.00000000E+00  0.00000000E+00
  0.00000000E+00  0.00000000E+00  0.00000000E+00
  0.00000000E+00  0.00000000E+00  0.00000000E+00
  0.00000000E+00  0.00000000E+00  0.00000000E+00
  0.00000000E+00  0.00000000E+00  0.00000000E+00
  0.00000000E+00  0.00000000E+00  0.00000000E+00
  0.00000000E+00  0.00000000E+00  0.00000000E+00
  0.00000000E+00  0.00000000E+00  0.00000000E+00
  0.00000000E+00  0.00000000E+00  0.00000000E+00
  0.00000000E+00  0.00000000E+00  0.00000000E+00
  0.00000000E+00  0.00000000E+00  0.00000000E+00
  0.00000000E+00  0.00000000E+00  0.00000000E+00
  0.00000000E+00  0.00000000E+00  0.00000000E+00
