Title                                   
   1.00000000000000     
     4.9440799999999996    0.0000000000000000    0.0000000000000000
     0.0000000000000000   17.1295089999999988    0.0000000000000000
     0.0000000000000000    0.0000000000000000   20.0000000000000000
    25     5     1
Selective dynamics
Direct
  0.0008246522263720  0.1058503890653052  0.2935414467597960   T   T   T
  0.2503345787072170  0.1485052098072917  0.2957460468773496   T   T   T
  0.2502428425579007  0.2333606276902918  0.3012772463948233   T   T   T
 -0.0021768580000817  0.2742729332397290  0.3029060234035646   T   T   T
 -0.0011889713958725  0.6012132287245674  0.3006645866495318   T   T   T
  0.2503856919071444  0.7257562680184799  0.2946204802256506   T   T   T
  0.0016192320971534  0.8524224820468431  0.2913747299775680   T   T   T
  0.2505341765349484  0.8948537088176546  0.2914506804639127   T   T   T
  0.2505203492477376  0.9792190953137311  0.2917472184103094   T   T   T
  0.0015767908209288  0.7678638439140665  0.2924888097084583   T   T   T
  0.4999064675264840  0.1058536338174186  0.2935413489338784   T   T   T
  0.7503290806698084  0.1477940980312267  0.2939656624633391   T   T   T
  0.7502233343908553  0.2318503451571178  0.2972383805122777   T   T   T
  0.5003154894305776  0.0214480971771650  0.2919678059416858   T   T   T
  0.7500871021990165  0.3967729708156134  0.3051362191309595   T   T   T
  0.7501250337914642  0.4801549687027504  0.3040071589785854   T   T   T
  0.5025636129426512  0.2742778561798740  0.3029397597688054   T   T   T
  0.5017574536354762  0.6012183917943225  0.3007466406909650   T   T   T
  0.7503986555733756  0.7268861663384062  0.2922695201569319   T   T   T
  0.4994090533586786  0.8524178235410461  0.2913988864099001   T   T   T
  0.7505190318846826  0.8945061711225786  0.2910057853974931   T   T   T
  0.7505007071630340  0.9789693251563520  0.2913158786310108   T   T   T
  0.4992674013647422  0.7678598276417263  0.2925199461396168   T   T   T
  0.7503057597511555  0.6437546166520326  0.2947482949008847   T   T   T
  0.0006517046181950  0.0214424252693716  0.2919635335411150   T   T   T
  0.5094814663848937  0.5220655011056636  0.3132414738752115   T   T   T
  0.9909444874040718  0.5220484861393061  0.3130503336458583   T   T   T
  0.5111285470930107  0.3547727302780141  0.3134530939003475   T   T   T
 -0.0109405893505691  0.3547611665783034  0.3133891433343055   T   T   T
  0.2503095218002018  0.6411895397244386  0.2991316293444934   T   T   T
  0.2500511936647472  0.4379800721393074  0.3422122354313232   T   T   T
 
  0.00000000E+00  0.00000000E+00  0.00000000E+00
  0.00000000E+00  0.00000000E+00  0.00000000E+00
  0.00000000E+00  0.00000000E+00  0.00000000E+00
  0.00000000E+00  0.00000000E+00  0.00000000E+00
  0.00000000E+00  0.00000000E+00  0.00000000E+00
  0.00000000E+00  0.00000000E+00  0.00000000E+00
  0.00000000E+00  0.00000000E+00  0.00000000E+00
  0.00000000E+00  0.00000000E+00  0.00000000E+00
  0.00000000E+00  0.00000000E+00  0.00000000E+00
  0.00000000E+00  0.00000000E+00  0.00000000E+00
  0.00000000E+00  0.00000000E+00  0.00000000E+00
  0.00000000E+00  0.00000000E+00  0.00000000E+00
  0.00000000E+00  0.00000000E+00  0.00000000E+00
  0.00000000E+00  0.00000000E+00  0.00000000E+00
  0.00000000E+00  0.00000000E+00  0.00000000E+00
  0.00000000E+00  0.00000000E+00  0.00000000E+00
  0.00000000E+00  0.00000000E+00  0.00000000E+00
  0.00000000E+00  0.00000000E+00  0.00000000E+00
  0.00000000E+00  0.00000000E+00  0.00000000E+00
  0.00000000E+00  0.00000000E+00  0.00000000E+00
  0.00000000E+00  0.00000000E+00  0.00000000E+00
  0.00000000E+00  0.00000000E+00  0.00000000E+00
  0.00000000E+00  0.00000000E+00  0.00000000E+00
  0.00000000E+00  0.00000000E+00  0.00000000E+00
  0.00000000E+00  0.00000000E+00  0.00000000E+00
  0.00000000E+00  0.00000000E+00  0.00000000E+00
  0.00000000E+00  0.00000000E+00  0.00000000E+00
  0.00000000E+00  0.00000000E+00  0.00000000E+00
  0.00000000E+00  0.00000000E+00  0.00000000E+00
  0.00000000E+00  0.00000000E+00  0.00000000E+00
  0.00000000E+00  0.00000000E+00  0.00000000E+00
