Title                                   
   1.00000000000000     
     4.9440799999999996    0.0000000000000000    0.0000000000000000
     0.0000000000000000   17.1295089999999988    0.0000000000000000
     0.0000000000000000    0.0000000000000000   20.0000000000000000
    27     3     1
Selective dynamics
Direct
  0.0011540546354074  0.1058350052123369  0.2946006932167883   T   T   T
  0.2503852038162816  0.1484460312410565  0.2958356578072020   T   T   T
  0.2503896677112999  0.2330560037744078  0.2991090382228662   T   T   T
 -0.0014461498811486  0.2743260152750202  0.3004819402156196   T   T   T
  0.0018363530512961  0.6013788377817835  0.2996888871735520   T   T   T
  0.2503771082637482  0.7268677255325116  0.2956774207048617   T   T   T
  0.0014065678081190  0.8531164576331385  0.2939716953131393   T   T   T
  0.2502402999716592  0.8954357016997979  0.2939289761503933   T   T   T
  0.2502457368080430  0.9796109299513872  0.2938084322298896   T   T   T
  0.0015347355464271  0.7689236657504377  0.2946445375215391   T   T   T
  0.4995507154531871  0.1058214779844903  0.2946346025608801   T   T   T
  0.7503413132883703  0.1478133057453187  0.2950378579702340   T   T   T
  0.7503172594084208  0.2312575692517408  0.2974953472972907   T   T   T
  0.4998527031948620  0.0217458009753561  0.2938130290527177   T   T   T
  0.7503913699797211  0.3934416201255910  0.3059185594849219   T   T   T
  0.7505155926601261  0.4784984250190530  0.3066491489774663   T   T   T
  0.5021406664683561  0.2743692988052248  0.3005906027614980   T   T   T
  0.4990679678374177  0.6013360106587625  0.2998335122156522   T   T   T
  0.7503515662661441  0.7272745333375946  0.2947407285084239   T   T   T
  0.4991142294026846  0.8531255347206412  0.2939877007692889   T   T   T
  0.7502643995412859  0.8952429314873485  0.2936680162588544   T   T   T
  0.7502704463733756  0.9792971904060871  0.2935543220932237   T   T   T
  0.4991519090576042  0.7689341042234999  0.2946664778823262   T   T   T
  0.7504108026410773  0.6445123991052540  0.2965955997641951   T   T   T
  0.0006840512087099  0.0217579699046206  0.2937864284015902   T   T   T
  0.4980858324390529  0.5197312180516387  0.3066762821777372   T   T   T
  0.0027719066907336  0.5197651699637608  0.3062754001214674   T   T   T
  0.5087446321246644  0.3545480506934167  0.3058558086143332   T   T   T
 -0.0081072349673924  0.3545016494334544  0.3055191221605396   T   T   T
  0.2504527887370344  0.6441455168731017  0.2980814560171172   T   T   T
  0.2495105044634334  0.4372258493821630  0.3459327183543425   T   T   T
 
  0.00000000E+00  0.00000000E+00  0.00000000E+00
  0.00000000E+00  0.00000000E+00  0.00000000E+00
  0.00000000E+00  0.00000000E+00  0.00000000E+00
  0.00000000E+00  0.00000000E+00  0.00000000E+00
  0.00000000E+00  0.00000000E+00  0.00000000E+00
  0.00000000E+00  0.00000000E+00  0.00000000E+00
  0.00000000E+00  0.00000000E+00  0.00000000E+00
  0.00000000E+00  0.00000000E+00  0.00000000E+00
  0.00000000E+00  0.00000000E+00  0.00000000E+00
  0.00000000E+00  0.00000000E+00  0.00000000E+00
  0.00000000E+00  0.00000000E+00  0.00000000E+00
  0.00000000E+00  0.00000000E+00  0.00000000E+00
  0.00000000E+00  0.00000000E+00  0.00000000E+00
  0.00000000E+00  0.00000000E+00  0.00000000E+00
  0.00000000E+00  0.00000000E+00  0.00000000E+00
  0.00000000E+00  0.00000000E+00  0.00000000E+00
  0.00000000E+00  0.00000000E+00  0.00000000E+00
  0.00000000E+00  0.00000000E+00  0.00000000E+00
  0.00000000E+00  0.00000000E+00  0.00000000E+00
  0.00000000E+00  0.00000000E+00  0.00000000E+00
  0.00000000E+00  0.00000000E+00  0.00000000E+00
  0.00000000E+00  0.00000000E+00  0.00000000E+00
  0.00000000E+00  0.00000000E+00  0.00000000E+00
  0.00000000E+00  0.00000000E+00  0.00000000E+00
  0.00000000E+00  0.00000000E+00  0.00000000E+00
  0.00000000E+00  0.00000000E+00  0.00000000E+00
  0.00000000E+00  0.00000000E+00  0.00000000E+00
  0.00000000E+00  0.00000000E+00  0.00000000E+00
  0.00000000E+00  0.00000000E+00  0.00000000E+00
  0.00000000E+00  0.00000000E+00  0.00000000E+00
  0.00000000E+00  0.00000000E+00  0.00000000E+00
