Title                                   
   1.00000000000000     
     9.8694509999999998    0.0000000000000000    0.0000000000000000
     0.0000000000000000    8.5490480000000009    0.0000000000000000
     0.0000000000000000    0.0000000000000000   20.0000000000000000
    27     3     1
Selective dynamics
Direct
  0.0556829875665416  0.0903183576614280  0.0853140446756673   T   T   T
  0.9299748664042831  0.1735046117644171  0.0862711640646115   T   T   T
  0.0567445818357981  0.9234482430449046  0.0850082172342212   T   T   T
  0.9322543991809333  0.3407588346558415  0.0851217057643589   T   T   T
  0.0569589574751354  0.5893849549556704  0.0815340712740550   T   T   T
  0.9337165264446622  0.6751608411179585  0.0853812078962525   T   T   T
  0.0565750192569849  0.4232505855781363  0.0819184413678292   T   T   T
  0.9321188650785563  0.8416661967701702  0.0869151666552519   T   T   T
  0.3064888884858088  0.0892869648480288  0.0931580586634928   T   T   T
  0.1803669440282639  0.1715861820467737  0.0877842628040847   T   T   T
  0.3074341511000282  0.9206131131257791  0.0917777694227117   T   T   T
  0.1799997398577026  0.3387698608651356  0.0861544869890075   T   T   T
  0.3028154838442624  0.5884927232089067  0.0920213006814040   T   T   T
  0.1805625840267107  0.6723268021869367  0.0845388016956115   T   T   T
  0.3021531254070510  0.4204370859989831  0.0945790819779989   T   T   T
  0.1814996105966819  0.8397680663971635  0.0860531884618599   T   T   T
  0.5544446807154892  0.0900418364117273  0.1028155792070875   T   T   T
  0.4285621580549446  0.1750507627572448  0.1022275334812680   T   T   T
  0.5558575369461154  0.9174377401847815  0.1025571403383843   T   T   T
  0.4301150558868904  0.8326353362495307  0.0989791103782106   T   T   T
  0.8041091231863055  0.0913340304568906  0.0916302680682047   T   T   T
  0.6798067881908371  0.1764455173014272  0.0994928121376495   T   T   T
  0.8058919305280468  0.9228902598862391  0.0923247749068130   T   T   T
  0.6861222976393655  0.3446690352564898  0.1042115913441438   T   T   T
  0.8126139876885689  0.5938218927117173  0.0945135839093715   T   T   T
  0.8101597197215082  0.4255795231070728  0.0930445877269522   T   T   T
  0.6842259871321140  0.8357959666162539  0.1015329956096453   T   T   T
  0.4214924940798655  0.3396574622946024  0.1105962485749961   T   T   T
  0.6934041846881339  0.6731605116596022  0.1100137568859181   T   T   T
  0.4239493111353182  0.6681219402962097  0.1017381493443367   T   T   T
  0.5570330138170997  0.5054597605839918  0.1417558984586411   T   T   T
 
  0.00000000E+00  0.00000000E+00  0.00000000E+00
  0.00000000E+00  0.00000000E+00  0.00000000E+00
  0.00000000E+00  0.00000000E+00  0.00000000E+00
  0.00000000E+00  0.00000000E+00  0.00000000E+00
  0.00000000E+00  0.00000000E+00  0.00000000E+00
  0.00000000E+00  0.00000000E+00  0.00000000E+00
  0.00000000E+00  0.00000000E+00  0.00000000E+00
  0.00000000E+00  0.00000000E+00  0.00000000E+00
  0.00000000E+00  0.00000000E+00  0.00000000E+00
  0.00000000E+00  0.00000000E+00  0.00000000E+00
  0.00000000E+00  0.00000000E+00  0.00000000E+00
  0.00000000E+00  0.00000000E+00  0.00000000E+00
  0.00000000E+00  0.00000000E+00  0.00000000E+00
  0.00000000E+00  0.00000000E+00  0.00000000E+00
  0.00000000E+00  0.00000000E+00  0.00000000E+00
  0.00000000E+00  0.00000000E+00  0.00000000E+00
  0.00000000E+00  0.00000000E+00  0.00000000E+00
  0.00000000E+00  0.00000000E+00  0.00000000E+00
  0.00000000E+00  0.00000000E+00  0.00000000E+00
  0.00000000E+00  0.00000000E+00  0.00000000E+00
  0.00000000E+00  0.00000000E+00  0.00000000E+00
  0.00000000E+00  0.00000000E+00  0.00000000E+00
  0.00000000E+00  0.00000000E+00  0.00000000E+00
  0.00000000E+00  0.00000000E+00  0.00000000E+00
  0.00000000E+00  0.00000000E+00  0.00000000E+00
  0.00000000E+00  0.00000000E+00  0.00000000E+00
  0.00000000E+00  0.00000000E+00  0.00000000E+00
  0.00000000E+00  0.00000000E+00  0.00000000E+00
  0.00000000E+00  0.00000000E+00  0.00000000E+00
  0.00000000E+00  0.00000000E+00  0.00000000E+00
  0.00000000E+00  0.00000000E+00  0.00000000E+00
