Title                                   
   1.00000000000000     
     4.9440799999999996    0.0000000000000000    0.0000000000000000
     0.0000000000000000    8.5647549999999999    0.0000000000000000
     0.0000000000000000    0.0000000000000000   20.0000000000000000
     9     5     1
Selective dynamics
Direct
 -0.0013531078753213  0.2934825609869841  0.0942286547113150   T   T   T
  0.2500000000000000  0.0394669527292634  0.0953574056093651   T   T   T
 -0.0016386238149859  0.9573677795461055  0.0955928387291377   T   T   T
  0.7500000000000000  0.2084034976671061  0.0899824410875021   T   T   T
  0.5013531078753212  0.2934825609869841  0.0942286547113150   T   T   T
  0.7500000000000000  0.0401422406066842  0.0910209352444144   T   T   T
  0.7500000000000000  0.7093448429509474  0.0994051394253032   T   T   T
  0.7500000000000000  0.5391002588652395  0.0989977958330931   T   T   T
  0.5016386238149860  0.9573677795461055  0.0955928387291377   T   T   T
  0.5069676867547587  0.4551372232888904  0.1045912428713447   T   T   T
 -0.0069676867547586  0.4551372232888904  0.1045912428713447   T   T   T
 -0.0079346798932911  0.7929892558119153  0.1049434007400109   T   T   T
  0.5079346798932912  0.7929892558119153  0.1049434007400109   T   T   T
  0.2500000000000000  0.2125350383052176  0.0945962507795459   T   T   T
  0.2500000000000000  0.6247345296077544  0.1399077579171629   T   T   T
 
  0.00000000E+00  0.00000000E+00  0.00000000E+00
  0.00000000E+00  0.00000000E+00  0.00000000E+00
  0.00000000E+00  0.00000000E+00  0.00000000E+00
  0.00000000E+00  0.00000000E+00  0.00000000E+00
  0.00000000E+00  0.00000000E+00  0.00000000E+00
  0.00000000E+00  0.00000000E+00  0.00000000E+00
  0.00000000E+00  0.00000000E+00  0.00000000E+00
  0.00000000E+00  0.00000000E+00  0.00000000E+00
  0.00000000E+00  0.00000000E+00  0.00000000E+00
  0.00000000E+00  0.00000000E+00  0.00000000E+00
  0.00000000E+00  0.00000000E+00  0.00000000E+00
  0.00000000E+00  0.00000000E+00  0.00000000E+00
  0.00000000E+00  0.00000000E+00  0.00000000E+00
  0.00000000E+00  0.00000000E+00  0.00000000E+00
  0.00000000E+00  0.00000000E+00  0.00000000E+00
