Title                                   
   1.00000000000000     
     4.9440799999999996    0.0000000000000000    0.0000000000000000
     0.0000000000000000   17.1295089999999988    0.0000000000000000
     0.0000000000000000    0.0000000000000000   20.0000000000000000
    26     4     1
Selective dynamics
Direct
  0.0011684234618833  0.1055051807210474  0.2979471502364160   T   T   T
  0.2507991175632425  0.1483799809668449  0.2986116785795944   T   T   T
  0.2514323831506529  0.2328335596690343  0.3000435668725130   T   T   T
 -0.0025655966392837  0.2732881410378040  0.3007240008393652   T   T   T
 -0.0033101389992930  0.6014524896242627  0.3012504139220541   T   T   T
  0.2477241422857660  0.7267509577302680  0.2991057670465184   T   T   T
  0.0004741479958953  0.8531507243667608  0.2973167609842735   T   T   T
  0.2491029683253159  0.8952889617368287  0.2969527839397224   T   T   T
  0.2496596395792713  0.9793395189256314  0.2967759041652793   T   T   T
  0.0003162735600342  0.7688934869165908  0.2984578650522349   T   T   T
  0.4993829171936283  0.1052675328959114  0.2979416403777357   T   T   T
  0.7498988762233367  0.1470455603109735  0.2985769696735329   T   T   T
  0.7499959180526614  0.2303326245786566  0.2999902498240322   T   T   T
  0.4991944189086092  0.0214018849466262  0.2970115036390591   T   T   T
  0.7568930962763123  0.3936331668494572  0.3023564423932612   T   T   T
  0.7555508366413771  0.4805134318386176  0.3025673718413294   T   T   T
  0.5042030912618690  0.2745970932837756  0.3007595193126759   T   T   T
  0.4990472559381658  0.6016751247010690  0.3012162632068103   T   T   T
  0.7494471816980898  0.7276022123920842  0.2991188571464785   T   T   T
  0.4977022790172870  0.8528408810416587  0.2973360204740310   T   T   T
  0.7492475935193338  0.8950063791752731  0.2969433477202594   T   T   T
  0.7497051853028657  0.9790385861583384  0.2967712582892869   T   T   T
  0.4969178715163873  0.7686931166634344  0.2984609505908588   T   T   T
  0.7474171005376361  0.6449788017415460  0.3005278045455457   T   T   T
  0.0002902012421788  0.0214772300037872  0.2970168622393095   T   T   T
  0.5116957872962641  0.5204970950932089  0.3021781094943115   T   T   T
  0.9929861978283564  0.5229047518681407  0.3023302857766443   T   T   T
  0.5188460869032623  0.3544562687777023  0.3020548291591865   T   T   T
 -0.0126021338894680  0.3524822782463642  0.3019336251713741   T   T   T
  0.2462547084328744  0.6431785163327056  0.3004965592287344   T   T   T
  0.2531311698154905  0.4388364614055918  0.3022856382575225   T   T   T
 
  0.00000000E+00  0.00000000E+00  0.00000000E+00
  0.00000000E+00  0.00000000E+00  0.00000000E+00
  0.00000000E+00  0.00000000E+00  0.00000000E+00
  0.00000000E+00  0.00000000E+00  0.00000000E+00
  0.00000000E+00  0.00000000E+00  0.00000000E+00
  0.00000000E+00  0.00000000E+00  0.00000000E+00
  0.00000000E+00  0.00000000E+00  0.00000000E+00
  0.00000000E+00  0.00000000E+00  0.00000000E+00
  0.00000000E+00  0.00000000E+00  0.00000000E+00
  0.00000000E+00  0.00000000E+00  0.00000000E+00
  0.00000000E+00  0.00000000E+00  0.00000000E+00
  0.00000000E+00  0.00000000E+00  0.00000000E+00
  0.00000000E+00  0.00000000E+00  0.00000000E+00
  0.00000000E+00  0.00000000E+00  0.00000000E+00
  0.00000000E+00  0.00000000E+00  0.00000000E+00
  0.00000000E+00  0.00000000E+00  0.00000000E+00
  0.00000000E+00  0.00000000E+00  0.00000000E+00
  0.00000000E+00  0.00000000E+00  0.00000000E+00
  0.00000000E+00  0.00000000E+00  0.00000000E+00
  0.00000000E+00  0.00000000E+00  0.00000000E+00
  0.00000000E+00  0.00000000E+00  0.00000000E+00
  0.00000000E+00  0.00000000E+00  0.00000000E+00
  0.00000000E+00  0.00000000E+00  0.00000000E+00
  0.00000000E+00  0.00000000E+00  0.00000000E+00
  0.00000000E+00  0.00000000E+00  0.00000000E+00
  0.00000000E+00  0.00000000E+00  0.00000000E+00
  0.00000000E+00  0.00000000E+00  0.00000000E+00
  0.00000000E+00  0.00000000E+00  0.00000000E+00
  0.00000000E+00  0.00000000E+00  0.00000000E+00
  0.00000000E+00  0.00000000E+00  0.00000000E+00
  0.00000000E+00  0.00000000E+00  0.00000000E+00
