Title                                   
   1.00000000000000     
     8.5490480000000009    0.0000000000000000    0.0000000000000000
     0.0000000000000000    8.5490480000000009    0.0000000000000000
     0.0000000000000000    0.0000000000000000   20.0000000000000000
    21     3     1
Selective dynamics
Direct
  0.9088131920635488  0.2095231100478331  0.0945284226268968   T   T   T
  0.9120540480700678  0.8010042770417123  0.0960769016235227   T   T   T
  0.1996569640297683  0.0828960627089104  0.0973983219207155   T   T   T
  0.0744474775636051  0.2059060793850799  0.0960780795897857   T   T   T
  0.1556219007061754  0.6493229966207987  0.0949317300077791   T   T   T
  0.0732925546334580  0.5024982858267867  0.0956381638256261   T   T   T
  0.1533269807295628  0.3556868167394001  0.0972571753353127   T   T   T
  0.0794946423990461  0.7980749462700009  0.0949646513039107   T   T   T
  0.4943476260496557  0.0828402313526743  0.0985037682814330   T   T   T
  0.3457212097408617  0.1623437188768141  0.0998349433484288   T   T   T
  0.4945612413304998  0.9140345503105552  0.0985881487276220   T   T   T
  0.3473501856695645  0.8330000862303070  0.0977850636242665   T   T   T
  0.7868428146603498  0.0873289273815847  0.0959143636051772   T   T   T
  0.6391638906177605  0.1660788243567946  0.0969507341284099   T   T   T
  0.7899695790177796  0.9194797244568307  0.0972592352552161   T   T   T
  0.8297527329620638  0.6522504658022791  0.0972029137889513   T   T   T
  0.8266530529579122  0.3595215469879234  0.0940908771747493   T   T   T
  0.6435757159465757  0.8348395496442466  0.0992965837893598   T   T   T
  0.3242341611094806  0.3348802203187510  0.1033407220254275   T   T   T
  0.3237179363044637  0.6684706760314930  0.0985725090496237   T   T   T
  0.6593868724128822  0.3374331780239042  0.0979104011605043   T   T   T
  0.9061989340756404  0.5046039028453911  0.0952804620417891   T   T   T
  0.6691029019616395  0.6721721966904812  0.1013492005696742   T   T   T
  0.1993462080986617  0.9164520737655677  0.0959901935729366   T   T   T
  0.4887791768889680  0.4941475522838925  0.1139614336228634   T   T   T
 
  0.00000000E+00  0.00000000E+00  0.00000000E+00
  0.00000000E+00  0.00000000E+00  0.00000000E+00
  0.00000000E+00  0.00000000E+00  0.00000000E+00
  0.00000000E+00  0.00000000E+00  0.00000000E+00
  0.00000000E+00  0.00000000E+00  0.00000000E+00
  0.00000000E+00  0.00000000E+00  0.00000000E+00
  0.00000000E+00  0.00000000E+00  0.00000000E+00
  0.00000000E+00  0.00000000E+00  0.00000000E+00
  0.00000000E+00  0.00000000E+00  0.00000000E+00
  0.00000000E+00  0.00000000E+00  0.00000000E+00
  0.00000000E+00  0.00000000E+00  0.00000000E+00
  0.00000000E+00  0.00000000E+00  0.00000000E+00
  0.00000000E+00  0.00000000E+00  0.00000000E+00
  0.00000000E+00  0.00000000E+00  0.00000000E+00
  0.00000000E+00  0.00000000E+00  0.00000000E+00
  0.00000000E+00  0.00000000E+00  0.00000000E+00
  0.00000000E+00  0.00000000E+00  0.00000000E+00
  0.00000000E+00  0.00000000E+00  0.00000000E+00
  0.00000000E+00  0.00000000E+00  0.00000000E+00
  0.00000000E+00  0.00000000E+00  0.00000000E+00
  0.00000000E+00  0.00000000E+00  0.00000000E+00
  0.00000000E+00  0.00000000E+00  0.00000000E+00
  0.00000000E+00  0.00000000E+00  0.00000000E+00
  0.00000000E+00  0.00000000E+00  0.00000000E+00
  0.00000000E+00  0.00000000E+00  0.00000000E+00
