Title                                   
   1.00000000000000     
     4.9440799999999996    0.0000000000000000    0.0000000000000000
     0.0000000000000000    8.5647549999999999    0.0000000000000000
     0.0000000000000000    0.0000000000000000   20.0000000000000000
    11     3     1
Selective dynamics
Direct
  0.0023016094629944  0.2962259392256351  0.1004441296363514   T   T   T
  0.2444836427564499  0.0399115920071110  0.0965517373536632   T   T   T
 -0.0066487959492843  0.9547133626273481  0.1006540004570870   T   T   T
  0.7521108921678530  0.2077611474511918  0.0939793970392033   T   T   T
  0.5021291715066739  0.2914860130823648  0.0940913974006080   T   T   T
  0.7481254900511318  0.0403587308238786  0.0935548865154352   T   T   T
  0.7400354629744987  0.7090583156124456  0.0973332848366888   T   T   T
  0.7481342154495808  0.5374305809089777  0.1000343106768497   T   T   T
  0.4942579514167955  0.9588367470376725  0.0908337627270126   T   T   T
  0.4995498139712117  0.7927810949493345  0.0861593810792874   T   T   T
 -0.0016854561267329  0.4599499601510964  0.1099146393625624   T   T   T
  0.5038267881241766  0.4523538347509039  0.0950912258678359   T   T   T
 -0.0143300165942539  0.7897086994252941  0.1134726936037206   T   T   T
  0.2495818114994493  0.2104070698751460  0.0969891174991395   T   T   T
  0.2881274192894556  0.6306979120716010  0.1388760359445583   T   T   T
 
  0.00000000E+00  0.00000000E+00  0.00000000E+00
  0.00000000E+00  0.00000000E+00  0.00000000E+00
  0.00000000E+00  0.00000000E+00  0.00000000E+00
  0.00000000E+00  0.00000000E+00  0.00000000E+00
  0.00000000E+00  0.00000000E+00  0.00000000E+00
  0.00000000E+00  0.00000000E+00  0.00000000E+00
  0.00000000E+00  0.00000000E+00  0.00000000E+00
  0.00000000E+00  0.00000000E+00  0.00000000E+00
  0.00000000E+00  0.00000000E+00  0.00000000E+00
  0.00000000E+00  0.00000000E+00  0.00000000E+00
  0.00000000E+00  0.00000000E+00  0.00000000E+00
  0.00000000E+00  0.00000000E+00  0.00000000E+00
  0.00000000E+00  0.00000000E+00  0.00000000E+00
  0.00000000E+00  0.00000000E+00  0.00000000E+00
  0.00000000E+00  0.00000000E+00  0.00000000E+00
