Title                                   
   1.00000000000000     
     9.8694509999999998    0.0000000000000000    0.0000000000000000
     0.0000000000000000    8.5490480000000009    0.0000000000000000
     0.0000000000000000    0.0000000000000000   20.0000000000000000
    26     4     1
Selective dynamics
Direct
  0.0553526426455134  0.0897482897514755  0.0841827608186049   T   T   T
  0.9306240934529432  0.1718719562214979  0.0858420723385244   T   T   T
  0.0569200976134428  0.9233229280680416  0.0843731781524093   T   T   T
  0.9346256773110638  0.3389544853763951  0.0842808549629596   T   T   T
  0.0583933709074071  0.5898410972716632  0.0795136557576797   T   T   T
  0.9347152388032842  0.6737920578282782  0.0844782133584996   T   T   T
  0.0583734442884285  0.4231327124744609  0.0793728927979723   T   T   T
  0.9313325996355373  0.8406949195337974  0.0860856966590211   T   T   T
  0.3057563125550758  0.0876438850211693  0.0920098615587761   T   T   T
  0.1812932018732479  0.1708228782570236  0.0857640472455136   T   T   T
  0.1812526560765310  0.3390512301850951  0.0839768799555388   T   T   T
  0.3026748903210421  0.5906199549079583  0.0945303995493834   T   T   T
  0.1818333984942333  0.6731434257301181  0.0841397843153589   T   T   T
  0.3025515488535332  0.4203457558640183  0.0942630635753353   T   T   T
  0.1813664261809475  0.8411042914393594  0.0863497748248860   T   T   T
  0.4280101275679241  0.1752644880716995  0.1013784367917007   T   T   T
  0.5528509679992454  0.9214467092152983  0.1047184090750482   T   T   T
  0.4272395534501753  0.8371904892750227  0.1027500001340950   T   T   T
  0.8035816594828843  0.0901539535870606  0.0924126895480803   T   T   T
  0.6811859327921348  0.1773903653712374  0.1015384861759533   T   T   T
  0.8050840796221396  0.9218933155589024  0.0929056762353203   T   T   T
  0.6900568300922858  0.3439243611911136  0.1096356654445127   T   T   T
  0.8158048843600921  0.5905699075005070  0.0959501550955616   T   T   T
  0.6908147437529798  0.6684294966935457  0.1112719451225911   T   T   T
  0.8158684677095673  0.4218475507677473  0.0955018872175408   T   T   T
  0.6812673304065558  0.8364762426861935  0.1033807586692456   T   T   T
  0.5537353991722985  0.0930558020599140  0.1038343600122956   T   T   T
  0.4197306767974532  0.3345906802103049  0.1082236062251243   T   T   T
  0.4185710981241901  0.6758780829050762  0.1098058253052290   T   T   T
  0.3048444124947024  0.9224969598216441  0.0924446752720113   T   T   T
  0.5574232371631561  0.5061767271543867  0.1260492878052753   T   T   T
 
  0.00000000E+00  0.00000000E+00  0.00000000E+00
  0.00000000E+00  0.00000000E+00  0.00000000E+00
  0.00000000E+00  0.00000000E+00  0.00000000E+00
  0.00000000E+00  0.00000000E+00  0.00000000E+00
  0.00000000E+00  0.00000000E+00  0.00000000E+00
  0.00000000E+00  0.00000000E+00  0.00000000E+00
  0.00000000E+00  0.00000000E+00  0.00000000E+00
  0.00000000E+00  0.00000000E+00  0.00000000E+00
  0.00000000E+00  0.00000000E+00  0.00000000E+00
  0.00000000E+00  0.00000000E+00  0.00000000E+00
  0.00000000E+00  0.00000000E+00  0.00000000E+00
  0.00000000E+00  0.00000000E+00  0.00000000E+00
  0.00000000E+00  0.00000000E+00  0.00000000E+00
  0.00000000E+00  0.00000000E+00  0.00000000E+00
  0.00000000E+00  0.00000000E+00  0.00000000E+00
  0.00000000E+00  0.00000000E+00  0.00000000E+00
  0.00000000E+00  0.00000000E+00  0.00000000E+00
  0.00000000E+00  0.00000000E+00  0.00000000E+00
  0.00000000E+00  0.00000000E+00  0.00000000E+00
  0.00000000E+00  0.00000000E+00  0.00000000E+00
  0.00000000E+00  0.00000000E+00  0.00000000E+00
  0.00000000E+00  0.00000000E+00  0.00000000E+00
  0.00000000E+00  0.00000000E+00  0.00000000E+00
  0.00000000E+00  0.00000000E+00  0.00000000E+00
  0.00000000E+00  0.00000000E+00  0.00000000E+00
  0.00000000E+00  0.00000000E+00  0.00000000E+00
  0.00000000E+00  0.00000000E+00  0.00000000E+00
  0.00000000E+00  0.00000000E+00  0.00000000E+00
  0.00000000E+00  0.00000000E+00  0.00000000E+00
  0.00000000E+00  0.00000000E+00  0.00000000E+00
  0.00000000E+00  0.00000000E+00  0.00000000E+00
