Title                                   
   1.00000000000000     
     8.5490480000000009    0.0000000000000000    0.0000000000000000
     0.0000000000000000    8.5490480000000009    0.0000000000000000
     0.0000000000000000    0.0000000000000000   20.0000000000000000
    21     3     1
Selective dynamics
Direct
  0.9098677514077386  0.2057052308642550  0.0975242894369391   T   T   T
  0.9091025065283342  0.5026011999188196  0.0977334731951527   T   T   T
  0.9121209038385533  0.8017614051045062  0.0977408813021102   T   T   T
  0.1965821280510683  0.0826097639705732  0.0977762597363886   T   T   T
  0.0749655878410396  0.2016443511202819  0.0977479331922641   T   T   T
  0.1590505457934110  0.6494400183962514  0.0976477569419657   T   T   T
  0.0781203787454171  0.5016936822471948  0.0977997513027817   T   T   T
  0.1586087062690852  0.3518148445810218  0.0979189000840660   T   T   T
  0.0783909122656488  0.7992218847736525  0.0976259038751862   T   T   T
  0.4924115000856872  0.0865132738617435  0.0977554209268157   T   T   T
  0.3420268017038562  0.1648797703724044  0.0979446286554981   T   T   T
  0.4916293706061893  0.9170964805401784  0.0977367999532838   T   T   T
  0.3450847220236689  0.8359843351409364  0.0976207285102832   T   T   T
  0.7875655038196505  0.0845143250970983  0.0975163856531906   T   T   T
  0.6382914961377568  0.1662689212957802  0.0975745727925333   T   T   T
  0.7896074433866140  0.9206548727721140  0.0977195179659644   T   T   T
  0.8299423084253869  0.6529913464739865  0.0978285409561027   T   T   T
  0.8290424865450877  0.3551841692047819  0.0975679389076708   T   T   T
  0.6409672715080172  0.8362758770232148  0.0978153845002244   T   T   T
  0.3234790297396234  0.6721971728511009  0.0976134129720323   T   T   T
  0.6623141476193597  0.3327641310770935  0.0975829192891542   T   T   T
  0.3184594752398189  0.3279921600410895  0.0981386457252659   T   T   T
  0.6673067803565784  0.6760167793723978  0.0979709568395011   T   T   T
  0.1971355965237797  0.9171611189674337  0.0976388171729743   T   T   T
  0.4933386455386146  0.5018028849321030  0.0981651801126313   T   T   T
 
  0.00000000E+00  0.00000000E+00  0.00000000E+00
  0.00000000E+00  0.00000000E+00  0.00000000E+00
  0.00000000E+00  0.00000000E+00  0.00000000E+00
  0.00000000E+00  0.00000000E+00  0.00000000E+00
  0.00000000E+00  0.00000000E+00  0.00000000E+00
  0.00000000E+00  0.00000000E+00  0.00000000E+00
  0.00000000E+00  0.00000000E+00  0.00000000E+00
  0.00000000E+00  0.00000000E+00  0.00000000E+00
  0.00000000E+00  0.00000000E+00  0.00000000E+00
  0.00000000E+00  0.00000000E+00  0.00000000E+00
  0.00000000E+00  0.00000000E+00  0.00000000E+00
  0.00000000E+00  0.00000000E+00  0.00000000E+00
  0.00000000E+00  0.00000000E+00  0.00000000E+00
  0.00000000E+00  0.00000000E+00  0.00000000E+00
  0.00000000E+00  0.00000000E+00  0.00000000E+00
  0.00000000E+00  0.00000000E+00  0.00000000E+00
  0.00000000E+00  0.00000000E+00  0.00000000E+00
  0.00000000E+00  0.00000000E+00  0.00000000E+00
  0.00000000E+00  0.00000000E+00  0.00000000E+00
  0.00000000E+00  0.00000000E+00  0.00000000E+00
  0.00000000E+00  0.00000000E+00  0.00000000E+00
  0.00000000E+00  0.00000000E+00  0.00000000E+00
  0.00000000E+00  0.00000000E+00  0.00000000E+00
  0.00000000E+00  0.00000000E+00  0.00000000E+00
  0.00000000E+00  0.00000000E+00  0.00000000E+00
