Title                                   
   1.00000000000000     
     4.9440799999999996    0.0000000000000000    0.0000000000000000
     0.0000000000000000    8.5647549999999999    0.0000000000000000
     0.0000000000000000    0.0000000000000000   20.0000000000000000
    10     4     1
Selective dynamics
Direct
 -0.0016145643160156  0.2925492111604841  0.0928392593538793   T   T   T
  0.2528320668943139  0.0378323327069060  0.0961999112201770   T   T   T
  0.0006775516548051  0.9566986058401988  0.0922144797553365   T   T   T
  0.7495658969704959  0.2075280398136768  0.0922975703499189   T   T   T
  0.4999573392543311  0.2960762872458635  0.0995466301755898   T   T   T
  0.7512118389428621  0.0404520493903684  0.0930736973863334   T   T   T
  0.7580150526498074  0.7116955777601331  0.0970831675425225   T   T   T
  0.7560295309480568  0.5392469535164267  0.0992020909377107   T   T   T
  0.5051819954348605  0.9544343496811664  0.0992995313762428   T   T   T
  0.5066950879368013  0.4581532727027672  0.1111733528161595   T   T   T
 -0.0009533107347875  0.4525475297983102  0.0926302291759190   T   T   T
 -0.0041285850515342  0.7944640781236184  0.0874734091750111   T   T   T
  0.5167814729455718  0.7915577083727260  0.1108459867206869   T   T   T
  0.2498747819194815  0.2099302836674889  0.0965557362451455   T   T   T
  0.2098738445509492  0.6285147202198678  0.1475449477693705   T   T   T
 
  0.00000000E+00  0.00000000E+00  0.00000000E+00
  0.00000000E+00  0.00000000E+00  0.00000000E+00
  0.00000000E+00  0.00000000E+00  0.00000000E+00
  0.00000000E+00  0.00000000E+00  0.00000000E+00
  0.00000000E+00  0.00000000E+00  0.00000000E+00
  0.00000000E+00  0.00000000E+00  0.00000000E+00
  0.00000000E+00  0.00000000E+00  0.00000000E+00
  0.00000000E+00  0.00000000E+00  0.00000000E+00
  0.00000000E+00  0.00000000E+00  0.00000000E+00
  0.00000000E+00  0.00000000E+00  0.00000000E+00
  0.00000000E+00  0.00000000E+00  0.00000000E+00
  0.00000000E+00  0.00000000E+00  0.00000000E+00
  0.00000000E+00  0.00000000E+00  0.00000000E+00
  0.00000000E+00  0.00000000E+00  0.00000000E+00
  0.00000000E+00  0.00000000E+00  0.00000000E+00
