Title                                   
   1.00000000000000     
     4.9440799999999996    0.0000000000000000    0.0000000000000000
     0.0000000000000000    8.5647549999999999    0.0000000000000000
     0.0000000000000000    0.0000000000000000   20.0000000000000000
    12     2     1
Selective dynamics
Direct
  0.2459181338916344  0.2093774167373039  0.0961838199585107   T   T   T
 -0.0082916770980297  0.2942926713709485  0.0975782723424755   T   T   T
  0.2539383728690922  0.0401796807392465  0.0961969204221198   T   T   T
  0.0075079190127699  0.9552292602680531  0.0942544842799871   T   T   T
  0.7450311760871965  0.2092177915401253  0.0922868237495533   T   T   T
  0.4923824924173911  0.2942311329742731  0.0940817166252733   T   T   T
  0.7550396807445098  0.0403888769179649  0.0923139299867591   T   T   T
  0.7573088510391729  0.7113929459858203  0.1006949748762178   T   T   T
  0.7423680369853867  0.5381565903092947  0.1007072521607379   T   T   T
  0.5082523365412498  0.9554033088749907  0.0974529113319757   T   T   T
  0.4960215443858773  0.4616414343040213  0.0955717377886331   T   T   T
  0.0038265672873186  0.7877983842926244  0.0959617852591890   T   T   T
 -0.0177121619584710  0.4548597703615732  0.1081462917192345   T   T   T
  0.5175612725950977  0.7948326304140431  0.1076987316373535   T   T   T
  0.2508474551998037  0.6246791049097193  0.1388503478619831   T   T   T
 
  0.00000000E+00  0.00000000E+00  0.00000000E+00
  0.00000000E+00  0.00000000E+00  0.00000000E+00
  0.00000000E+00  0.00000000E+00  0.00000000E+00
  0.00000000E+00  0.00000000E+00  0.00000000E+00
  0.00000000E+00  0.00000000E+00  0.00000000E+00
  0.00000000E+00  0.00000000E+00  0.00000000E+00
  0.00000000E+00  0.00000000E+00  0.00000000E+00
  0.00000000E+00  0.00000000E+00  0.00000000E+00
  0.00000000E+00  0.00000000E+00  0.00000000E+00
  0.00000000E+00  0.00000000E+00  0.00000000E+00
  0.00000000E+00  0.00000000E+00  0.00000000E+00
  0.00000000E+00  0.00000000E+00  0.00000000E+00
  0.00000000E+00  0.00000000E+00  0.00000000E+00
  0.00000000E+00  0.00000000E+00  0.00000000E+00
  0.00000000E+00  0.00000000E+00  0.00000000E+00
