Title                                   
   1.00000000000000     
     4.9440799999999996    0.0000000000000000    0.0000000000000000
     0.0000000000000000    8.5647549999999999    0.0000000000000000
     0.0000000000000000    0.0000000000000000   20.0000000000000000
    15     1
Selective dynamics
Direct
  0.2500000000000000  0.2072674095315698  0.0896434864336544   T   T   T
 -0.0022420022564922  0.2874696891031701  0.0954083864231643   T   T   T
  0.2500000000000000  0.0419545327981018  0.0819451580276477   T   T   T
 -0.0020358559449679  0.7963668643116406  0.0972372495006954   T   T   T
 -0.0013569739960174  0.9590629690706218  0.0826524498652953   T   T   T
  0.7500000000000000  0.2072074899580227  0.0848515541754749   T   T   T
  0.5022420022564921  0.2874696891031701  0.0954083864231643   T   T   T
  0.7500000000000000  0.0417174638232674  0.0787411869527840   T   T   T
  0.7500000000000000  0.7100868737728349  0.1032726125633966   T   T   T
  0.5020358559449685  0.7963668643116406  0.0972372495006954   T   T   T
  0.7500000000000000  0.5420323023739604  0.1114162811123917   T   T   T
  0.5013569739960172  0.9590629690706218  0.0826524498652953   T   T   T
  0.5137527151638633  0.4459032790240508  0.1175117959346275   T   T   T
 -0.0137527151638633  0.4459032790240508  0.1175117959346275   T   T   T
  0.2500000000000000  0.7268996929846784  0.1147688552002548   T   T   T
  0.2500000000000000  0.5452286317385965  0.1722531020868378   T   T   T
 
  0.00000000E+00  0.00000000E+00  0.00000000E+00
  0.00000000E+00  0.00000000E+00  0.00000000E+00
  0.00000000E+00  0.00000000E+00  0.00000000E+00
  0.00000000E+00  0.00000000E+00  0.00000000E+00
  0.00000000E+00  0.00000000E+00  0.00000000E+00
  0.00000000E+00  0.00000000E+00  0.00000000E+00
  0.00000000E+00  0.00000000E+00  0.00000000E+00
  0.00000000E+00  0.00000000E+00  0.00000000E+00
  0.00000000E+00  0.00000000E+00  0.00000000E+00
  0.00000000E+00  0.00000000E+00  0.00000000E+00
  0.00000000E+00  0.00000000E+00  0.00000000E+00
  0.00000000E+00  0.00000000E+00  0.00000000E+00
  0.00000000E+00  0.00000000E+00  0.00000000E+00
  0.00000000E+00  0.00000000E+00  0.00000000E+00
  0.00000000E+00  0.00000000E+00  0.00000000E+00
  0.00000000E+00  0.00000000E+00  0.00000000E+00
