Title                                   
   1.00000000000000     
     9.8694509999999998    0.0000000000000000    0.0000000000000000
     0.0000000000000000    8.5490480000000009    0.0000000000000000
     0.0000000000000000    0.0000000000000000   20.0000000000000000
    29     1     1
Selective dynamics
Direct
  0.0545633128083930  0.0881856683013414  0.0842722442621928   T   T   T
  0.9294160475396338  0.1737167798550731  0.0857538546662401   T   T   T
  0.0569394501550850  0.9226044639146102  0.0847628862428525   T   T   T
  0.9318073421446817  0.3403152871986830  0.0851261446061839   T   T   T
  0.0575867443773397  0.5891602332645104  0.0831981149096171   T   T   T
  0.9343912548115769  0.6759240993269209  0.0877209140742836   T   T   T
  0.0562400656190871  0.4229513759701387  0.0828073731200026   T   T   T
  0.9320141977077050  0.8425556482223983  0.0884317791960724   T   T   T
  0.3042617247383251  0.0860247014590892  0.0927720628323662   T   T   T
  0.1792992237210966  0.1690737712778838  0.0868940242626471   T   T   T
  0.3080370986779080  0.9179594639409726  0.0914367000131926   T   T   T
  0.1789354667555086  0.3355630090978823  0.0858164311912762   T   T   T
  0.3058734322927518  0.5841708664690146  0.0909024519942600   T   T   T
  0.1825776469819189  0.6702484233744230  0.0849687621620549   T   T   T
  0.3020589033176463  0.4144244321038850  0.0946170559136632   T   T   T
  0.1829427693556690  0.8372255886480597  0.0855817030519768   T   T   T
  0.5534065231303666  0.0920564615624627  0.1037337856837916   T   T   T
  0.4245438679130946  0.1746667820725290  0.1027213036005655   T   T   T
  0.5569312718960387  0.9245629744060730  0.1043804583070056   T   T   T
  0.4301889845208751  0.6642702820365601  0.0972924697329813   T   T   T
  0.4340281839048921  0.8323648999387040  0.0981528249344843   T   T   T
  0.8035329218234716  0.0943785769372102  0.0922701223864548   T   T   T
  0.6774425091662224  0.1826328084643154  0.0985324696065184   T   T   T
  0.8061701691166477  0.9259915956989225  0.0945503247141357   T   T   T
  0.6848612285533667  0.3499395105616979  0.0986271142754752   T   T   T
  0.8129251774966141  0.5949112952474447  0.0973492611792750   T   T   T
  0.6916902067124707  0.6746070283280126  0.1149153214251529   T   T   T
  0.8104009856447746  0.4269213090343376  0.0922684090507432   T   T   T
  0.6842338840069290  0.8395075395014767  0.1054456904490848   T   T   T
  0.4175806609728137  0.3335270428714238  0.1094344246220043   T   T   T
  0.5582537441371044  0.5104330809139572  0.1362285175334866   T   T   T
 
  0.00000000E+00  0.00000000E+00  0.00000000E+00
  0.00000000E+00  0.00000000E+00  0.00000000E+00
  0.00000000E+00  0.00000000E+00  0.00000000E+00
  0.00000000E+00  0.00000000E+00  0.00000000E+00
  0.00000000E+00  0.00000000E+00  0.00000000E+00
  0.00000000E+00  0.00000000E+00  0.00000000E+00
  0.00000000E+00  0.00000000E+00  0.00000000E+00
  0.00000000E+00  0.00000000E+00  0.00000000E+00
  0.00000000E+00  0.00000000E+00  0.00000000E+00
  0.00000000E+00  0.00000000E+00  0.00000000E+00
  0.00000000E+00  0.00000000E+00  0.00000000E+00
  0.00000000E+00  0.00000000E+00  0.00000000E+00
  0.00000000E+00  0.00000000E+00  0.00000000E+00
  0.00000000E+00  0.00000000E+00  0.00000000E+00
  0.00000000E+00  0.00000000E+00  0.00000000E+00
  0.00000000E+00  0.00000000E+00  0.00000000E+00
  0.00000000E+00  0.00000000E+00  0.00000000E+00
  0.00000000E+00  0.00000000E+00  0.00000000E+00
  0.00000000E+00  0.00000000E+00  0.00000000E+00
  0.00000000E+00  0.00000000E+00  0.00000000E+00
  0.00000000E+00  0.00000000E+00  0.00000000E+00
  0.00000000E+00  0.00000000E+00  0.00000000E+00
  0.00000000E+00  0.00000000E+00  0.00000000E+00
  0.00000000E+00  0.00000000E+00  0.00000000E+00
  0.00000000E+00  0.00000000E+00  0.00000000E+00
  0.00000000E+00  0.00000000E+00  0.00000000E+00
  0.00000000E+00  0.00000000E+00  0.00000000E+00
  0.00000000E+00  0.00000000E+00  0.00000000E+00
  0.00000000E+00  0.00000000E+00  0.00000000E+00
  0.00000000E+00  0.00000000E+00  0.00000000E+00
  0.00000000E+00  0.00000000E+00  0.00000000E+00
