Title                                   
   1.00000000000000     
     8.5490480000000009    0.0000000000000000    0.0000000000000000
     0.0000000000000000    8.5490480000000009    0.0000000000000000
     0.0000000000000000    0.0000000000000000   20.0000000000000000
    19     5     1
Selective dynamics
Direct
  0.9089053186350226  0.2047427361450847  0.0970702612946752   T   T   T
  0.9116420665115478  0.8017221528611115  0.0979896232150453   T   T   T
  0.1969200249819615  0.0821748092197904  0.0963984716878031   T   T   T
  0.0756349203568750  0.2012890175704463  0.0970374119262498   T   T   T
  0.1563858345497015  0.6504347271303608  0.0968033840329415   T   T   T
  0.0743245752339087  0.5003419806883262  0.0980010261559653   T   T   T
  0.1550870879569745  0.3527176391703290  0.0994212726949552   T   T   T
  0.0790539548768474  0.8000358807387429  0.0976269058045939   T   T   T
  0.3466279451700949  0.1642371369678041  0.0983181298830764   T   T   T
  0.4953759987937168  0.9187737899208924  0.0969837960390429   T   T   T
  0.3459477035699506  0.8376418945216468  0.0960510466291936   T   T   T
  0.7885808367016153  0.0861987251843337  0.0973870468064309   T   T   T
  0.6425784934739446  0.1681199176568151  0.0972136973719279   T   T   T
  0.7909193720026262  0.9188214354459965  0.0978265084049044   T   T   T
  0.8282986971913089  0.6525206637022086  0.0979785562251534   T   T   T
  0.8258978280384841  0.3530183319846249  0.0968845117227512   T   T   T
  0.6437727977491283  0.8367083583841721  0.0977268354506424   T   T   T
  0.3229042839320031  0.3272179885256191  0.1044969948886832   T   T   T
  0.3225233099119275  0.6756678751831041  0.0949892722746208   T   T   T
  0.4964135779905634  0.0867826946986190  0.0975330538415619   T   T   T
  0.9043233032314489  0.5019011914933171  0.0975586902035031   T   T   T
  0.6658678751521072  0.3303822148045711  0.0966845233258948   T   T   T
  0.6698623734124828  0.6737077510287954  0.0982791638717519   T   T   T
  0.1952302824475497  0.9171761756361819  0.0971331853643206   T   T   T
  0.4823335381282009  0.5024549113371263  0.1003116308842846   T   T   T
 
  0.00000000E+00  0.00000000E+00  0.00000000E+00
  0.00000000E+00  0.00000000E+00  0.00000000E+00
  0.00000000E+00  0.00000000E+00  0.00000000E+00
  0.00000000E+00  0.00000000E+00  0.00000000E+00
  0.00000000E+00  0.00000000E+00  0.00000000E+00
  0.00000000E+00  0.00000000E+00  0.00000000E+00
  0.00000000E+00  0.00000000E+00  0.00000000E+00
  0.00000000E+00  0.00000000E+00  0.00000000E+00
  0.00000000E+00  0.00000000E+00  0.00000000E+00
  0.00000000E+00  0.00000000E+00  0.00000000E+00
  0.00000000E+00  0.00000000E+00  0.00000000E+00
  0.00000000E+00  0.00000000E+00  0.00000000E+00
  0.00000000E+00  0.00000000E+00  0.00000000E+00
  0.00000000E+00  0.00000000E+00  0.00000000E+00
  0.00000000E+00  0.00000000E+00  0.00000000E+00
  0.00000000E+00  0.00000000E+00  0.00000000E+00
  0.00000000E+00  0.00000000E+00  0.00000000E+00
  0.00000000E+00  0.00000000E+00  0.00000000E+00
  0.00000000E+00  0.00000000E+00  0.00000000E+00
  0.00000000E+00  0.00000000E+00  0.00000000E+00
  0.00000000E+00  0.00000000E+00  0.00000000E+00
  0.00000000E+00  0.00000000E+00  0.00000000E+00
  0.00000000E+00  0.00000000E+00  0.00000000E+00
  0.00000000E+00  0.00000000E+00  0.00000000E+00
  0.00000000E+00  0.00000000E+00  0.00000000E+00
