Title                                   
   1.00000000000000     
     9.8694509999999998    0.0000000000000000    0.0000000000000000
     0.0000000000000000    8.5490480000000009    0.0000000000000000
     0.0000000000000000    0.0000000000000000   20.0000000000000000
    31     1
Selective dynamics
Direct
  0.0562553725256816  0.0901086748120205  0.0813519547376611   T   T   T
  0.9311637903715142  0.1731163949210698  0.0835368367307237   T   T   T
  0.0562313135964637  0.9231460038409791  0.0818757770041544   T   T   T
  0.9305819271680830  0.3401989791608503  0.0868623734441545   T   T   T
  0.0562391527121201  0.5891820862491703  0.0850635588617835   T   T   T
  0.9319766618076886  0.6729436505700422  0.0878945401792487   T   T   T
  0.0562259541518138  0.4233228547537831  0.0853948941300766   T   T   T
  0.9316583268184322  0.8397674658563032  0.0852221141714122   T   T   T
  0.3054646738200277  0.0894611315339170  0.0859837073305422   T   T   T
  0.1813377490706293  0.1731195198388149  0.0835372447832255   T   T   T
  0.3052551118952326  0.9231665112659391  0.0883911449277275   T   T   T
  0.1818789761946958  0.3402040917262382  0.0868431803633228   T   T   T
  0.3028430217300574  0.5902654998919331  0.0999179316555268   T   T   T
  0.1805111549454110  0.6729408197491119  0.0878356132834339   T   T   T
  0.3054791402902929  0.4222347023247451  0.0972311691738741   T   T   T
  0.1808000980180670  0.8397656040866601  0.0851870408453927   T   T   T
  0.5562365917252575  0.0872794692646864  0.0928742900599100   T   T   T
  0.4305368324145983  0.1710080492148573  0.0916865710528809   T   T   T
  0.5562306864762688  0.9225501070574291  0.0993129128729540   T   T   T
  0.4301999578979219  0.3353151204783045  0.1012682829770308   T   T   T
  0.4191152756331800  0.6801806949059604  0.1168194418307653   T   T   T
  0.5562137849292900  0.4068688148512898  0.1178655389633561   T   T   T
  0.4283826760350686  0.8414701580131997  0.1009009939769406   T   T   T
  0.8070267580240782  0.0894591837567291  0.0860105495911548   T   T   T
  0.6819500473543052  0.1709977641593077  0.0917158235517440   T   T   T
  0.8072082131809721  0.9231697303533836  0.0884597283093892   T   T   T
  0.6822678175928881  0.3353014384460531  0.1013131384505985   T   T   T
  0.8096848261096528  0.5902578577753963  0.1000419319688317   T   T   T
  0.6934350313609318  0.6801950582489028  0.1169416659763155   T   T   T
  0.8069924969666405  0.4222158219121857  0.0973018632878150   T   T   T
  0.6840917395269638  0.8414579783537267  0.1009882137573625   T   T   T
  0.5561638396557788  0.5895747626270181  0.1700449717507254   T   T   T
 
  0.00000000E+00  0.00000000E+00  0.00000000E+00
  0.00000000E+00  0.00000000E+00  0.00000000E+00
  0.00000000E+00  0.00000000E+00  0.00000000E+00
  0.00000000E+00  0.00000000E+00  0.00000000E+00
  0.00000000E+00  0.00000000E+00  0.00000000E+00
  0.00000000E+00  0.00000000E+00  0.00000000E+00
  0.00000000E+00  0.00000000E+00  0.00000000E+00
  0.00000000E+00  0.00000000E+00  0.00000000E+00
  0.00000000E+00  0.00000000E+00  0.00000000E+00
  0.00000000E+00  0.00000000E+00  0.00000000E+00
  0.00000000E+00  0.00000000E+00  0.00000000E+00
  0.00000000E+00  0.00000000E+00  0.00000000E+00
  0.00000000E+00  0.00000000E+00  0.00000000E+00
  0.00000000E+00  0.00000000E+00  0.00000000E+00
  0.00000000E+00  0.00000000E+00  0.00000000E+00
  0.00000000E+00  0.00000000E+00  0.00000000E+00
  0.00000000E+00  0.00000000E+00  0.00000000E+00
  0.00000000E+00  0.00000000E+00  0.00000000E+00
  0.00000000E+00  0.00000000E+00  0.00000000E+00
  0.00000000E+00  0.00000000E+00  0.00000000E+00
  0.00000000E+00  0.00000000E+00  0.00000000E+00
  0.00000000E+00  0.00000000E+00  0.00000000E+00
  0.00000000E+00  0.00000000E+00  0.00000000E+00
  0.00000000E+00  0.00000000E+00  0.00000000E+00
  0.00000000E+00  0.00000000E+00  0.00000000E+00
  0.00000000E+00  0.00000000E+00  0.00000000E+00
  0.00000000E+00  0.00000000E+00  0.00000000E+00
  0.00000000E+00  0.00000000E+00  0.00000000E+00
  0.00000000E+00  0.00000000E+00  0.00000000E+00
  0.00000000E+00  0.00000000E+00  0.00000000E+00
  0.00000000E+00  0.00000000E+00  0.00000000E+00
  0.00000000E+00  0.00000000E+00  0.00000000E+00
