Title                                   
   1.00000000000000     
     4.9440799999999996    0.0000000000000000    0.0000000000000000
     0.0000000000000000   17.1295089999999988    0.0000000000000000
     0.0000000000000000    0.0000000000000000   20.0000000000000000
    29     1     1
Selective dynamics
Direct
  0.0000104839294842  0.1043778115415446  0.2976284491698666   T   T   T
  0.2503652682363241  0.1464697972052225  0.2981825384440098   T   T   T
  0.2503534133350656  0.2298315200561204  0.2997187119296466   T   T   T
  0.0003644106639863  0.2723543643831723  0.3007367057709335   T   T   T
  0.0017969838324648  0.6031353150979238  0.3008700530014471   T   T   T
  0.2503711482743199  0.7271958451191342  0.2985711637934325   T   T   T
  0.0012646086779132  0.8531043064621326  0.2972561843370776   T   T   T
  0.2503264914582532  0.8952395840701063  0.2970342634920264   T   T   T
  0.2503208748716426  0.9788686715592866  0.2968760874939406   T   T   T
  0.0009205326563742  0.7693358389684621  0.2980154565939406   T   T   T
  0.5006707847626664  0.1043673332139525  0.2976240457201124   T   T   T
  0.7503450127915019  0.1462444289107470  0.2982215413254736   T   T   T
  0.7503288413611428  0.2300060475179237  0.2998603216602824   T   T   T
  0.5005547586770286  0.0206756775358182  0.2969733742922423   T   T   T
  0.7503009509620104  0.3960308434278035  0.3028154418155678   T   T   T
  0.7502971887923598  0.4818055841849854  0.3029281261948925   T   T   T
  0.5003026707244371  0.2723696878445050  0.3007307656080228   T   T   T
  0.4988589817640829  0.6031215714048977  0.3008689242934127   T   T   T
  0.7503432611173784  0.7282638308863864  0.2984876187763413   T   T   T
  0.4994228255089379  0.8531137198624635  0.2972524158718232   T   T   T
  0.7503431376210297  0.8947697119028539  0.2969587615864476   T   T   T
  0.7503470025335061  0.9786007016486231  0.2968142307641106   T   T   T
  0.4997877817527352  0.7693467500918355  0.2980161396849025   T   T   T
  0.7503232495195534  0.6454927322200552  0.2998993473398865   T   T   T
  0.0001097891840526  0.0206867612892538  0.2969777937636052   T   T   T
  0.4999700924272600  0.5213345213924256  0.3025940231619925   T   T   T
  0.0005858093226262  0.5213553970227538  0.3025848159759919   T   T   T
  0.5035619306465778  0.3549586214815430  0.3025340525472013   T   T   T
 -0.0029987315883374  0.3549333444471580  0.3025383403937434   T   T   T
  0.2503487005858037  0.6456687948657965  0.2999024738094224   T   T   T
  0.2501087455978211  0.4382828843851097  0.3055878313881546   T   T   T
 
  0.00000000E+00  0.00000000E+00  0.00000000E+00
  0.00000000E+00  0.00000000E+00  0.00000000E+00
  0.00000000E+00  0.00000000E+00  0.00000000E+00
  0.00000000E+00  0.00000000E+00  0.00000000E+00
  0.00000000E+00  0.00000000E+00  0.00000000E+00
  0.00000000E+00  0.00000000E+00  0.00000000E+00
  0.00000000E+00  0.00000000E+00  0.00000000E+00
  0.00000000E+00  0.00000000E+00  0.00000000E+00
  0.00000000E+00  0.00000000E+00  0.00000000E+00
  0.00000000E+00  0.00000000E+00  0.00000000E+00
  0.00000000E+00  0.00000000E+00  0.00000000E+00
  0.00000000E+00  0.00000000E+00  0.00000000E+00
  0.00000000E+00  0.00000000E+00  0.00000000E+00
  0.00000000E+00  0.00000000E+00  0.00000000E+00
  0.00000000E+00  0.00000000E+00  0.00000000E+00
  0.00000000E+00  0.00000000E+00  0.00000000E+00
  0.00000000E+00  0.00000000E+00  0.00000000E+00
  0.00000000E+00  0.00000000E+00  0.00000000E+00
  0.00000000E+00  0.00000000E+00  0.00000000E+00
  0.00000000E+00  0.00000000E+00  0.00000000E+00
  0.00000000E+00  0.00000000E+00  0.00000000E+00
  0.00000000E+00  0.00000000E+00  0.00000000E+00
  0.00000000E+00  0.00000000E+00  0.00000000E+00
  0.00000000E+00  0.00000000E+00  0.00000000E+00
  0.00000000E+00  0.00000000E+00  0.00000000E+00
  0.00000000E+00  0.00000000E+00  0.00000000E+00
  0.00000000E+00  0.00000000E+00  0.00000000E+00
  0.00000000E+00  0.00000000E+00  0.00000000E+00
  0.00000000E+00  0.00000000E+00  0.00000000E+00
  0.00000000E+00  0.00000000E+00  0.00000000E+00
  0.00000000E+00  0.00000000E+00  0.00000000E+00
