Title                                   
   1.00000000000000     
     9.8694509999999998    0.0000000000000000    0.0000000000000000
     0.0000000000000000    8.5490480000000009    0.0000000000000000
     0.0000000000000000    0.0000000000000000   20.0000000000000000
    27     3     1
Selective dynamics
Direct
  0.0560350959811657  0.0896518638289516  0.0942795918066380   T   T   T
  0.9309046432429753  0.1727256719557334  0.0945010525919159   T   T   T
  0.0571576422621290  0.9235540636494941  0.0942707181805894   T   T   T
  0.9335401942895974  0.3401617555698569  0.0937493075105499   T   T   T
  0.0562813131761254  0.5902345026830935  0.0933781421562218   T   T   T
  0.9328151980467839  0.6747349671439755  0.0939059123559887   T   T   T
  0.0571015952629351  0.4232240739375008  0.0934531801802933   T   T   T
  0.9322690584136377  0.8411425700260564  0.0941515345746851   T   T   T
  0.3068818714524384  0.0892452105963910  0.0949615252850430   T   T   T
  0.1806774607757243  0.1699579153995955  0.0942345466146498   T   T   T
  0.1804273130825401  0.3375790436120380  0.0940782695816921   T   T   T
  0.3022971220876646  0.5874634795628141  0.0950085307915085   T   T   T
  0.1801083050833556  0.6734586874468309  0.0937498991270342   T   T   T
  0.3023996298627183  0.4194908918417908  0.0942507457333325   T   T   T
  0.1823968345270134  0.8407231759567412  0.0944497107812457   T   T   T
  0.5557167721590801  0.0912514018623499  0.0957686778666725   T   T   T
  0.4305694198583644  0.1765376326673113  0.0949044822906576   T   T   T
  0.5557135759012476  0.9208212830563302  0.0956160181503313   T   T   T
  0.4249890521163319  0.6698261785862411  0.0983970403059728   T   T   T
  0.4301683318140303  0.8341951618117215  0.0965198873700390   T   T   T
  0.8051348228268784  0.0903158741393725  0.0954483802803605   T   T   T
  0.6806542857594668  0.1783032669815992  0.0965632801841916   T   T   T
  0.8052759353908215  0.9216046896849144  0.0949228154675662   T   T   T
  0.6866663813857257  0.3440423431627739  0.0981694627185367   T   T   T
  0.8104259073576259  0.5929123125410504  0.0940195046161996   T   T   T
  0.8103656507140089  0.4247523666886442  0.0947868337790029   T   T   T
  0.6808999009255945  0.8336375175461619  0.0947865205025957   T   T   T
  0.4253299453109400  0.3417783803174335  0.0929956899544401   T   T   T
  0.6872482944065713  0.6689892125420464  0.0929626684635698   T   T   T
  0.3066162445555589  0.9222557102960220  0.0952989161233262   T   T   T
  0.5560672019709525  0.5063037949051914  0.0973821546551838   T   T   T
 
  0.00000000E+00  0.00000000E+00  0.00000000E+00
  0.00000000E+00  0.00000000E+00  0.00000000E+00
  0.00000000E+00  0.00000000E+00  0.00000000E+00
  0.00000000E+00  0.00000000E+00  0.00000000E+00
  0.00000000E+00  0.00000000E+00  0.00000000E+00
  0.00000000E+00  0.00000000E+00  0.00000000E+00
  0.00000000E+00  0.00000000E+00  0.00000000E+00
  0.00000000E+00  0.00000000E+00  0.00000000E+00
  0.00000000E+00  0.00000000E+00  0.00000000E+00
  0.00000000E+00  0.00000000E+00  0.00000000E+00
  0.00000000E+00  0.00000000E+00  0.00000000E+00
  0.00000000E+00  0.00000000E+00  0.00000000E+00
  0.00000000E+00  0.00000000E+00  0.00000000E+00
  0.00000000E+00  0.00000000E+00  0.00000000E+00
  0.00000000E+00  0.00000000E+00  0.00000000E+00
  0.00000000E+00  0.00000000E+00  0.00000000E+00
  0.00000000E+00  0.00000000E+00  0.00000000E+00
  0.00000000E+00  0.00000000E+00  0.00000000E+00
  0.00000000E+00  0.00000000E+00  0.00000000E+00
  0.00000000E+00  0.00000000E+00  0.00000000E+00
  0.00000000E+00  0.00000000E+00  0.00000000E+00
  0.00000000E+00  0.00000000E+00  0.00000000E+00
  0.00000000E+00  0.00000000E+00  0.00000000E+00
  0.00000000E+00  0.00000000E+00  0.00000000E+00
  0.00000000E+00  0.00000000E+00  0.00000000E+00
  0.00000000E+00  0.00000000E+00  0.00000000E+00
  0.00000000E+00  0.00000000E+00  0.00000000E+00
  0.00000000E+00  0.00000000E+00  0.00000000E+00
  0.00000000E+00  0.00000000E+00  0.00000000E+00
  0.00000000E+00  0.00000000E+00  0.00000000E+00
  0.00000000E+00  0.00000000E+00  0.00000000E+00
