Title                                   
   1.00000000000000     
     4.9440799999999996    0.0000000000000000    0.0000000000000000
     0.0000000000000000   17.1295089999999988    0.0000000000000000
     0.0000000000000000    0.0000000000000000   20.0000000000000000
    31     1
Selective dynamics
Direct
  0.0023510263289108  0.1042897850029433  0.2770441296017709   T   T   T
  0.2523659254645365  0.1459974450223060  0.2821916090544265   T   T   T
  0.2534060779871520  0.2282892477245521  0.2955620482843734   T   T   T
  0.0024696706296209  0.3495405364422217  0.3225912919523150   T   T   T
  0.0017392624783023  0.2688496365999192  0.3029809808540568   T   T   T
 -0.0067449456473750  0.6091496167698244  0.3180070354407671   T   T   T
  0.2478188006857999  0.7296954655080149  0.2918330489414161   T   T   T
 -0.0007999368307468  0.8538713568433234  0.2747212363062490   T   T   T
  0.2492646945119268  0.8956799560145294  0.2719874980250165   T   T   T
  0.2505887527311668  0.9791997027207601  0.2701374505250597   T   T   T
 -0.0017989389247977  0.7709371752745281  0.2842343659880868   T   T   T
  0.5017780445846205  0.1043189381386893  0.2770002098470348   T   T   T
  0.7524825314333677  0.1455884942990477  0.2814499805249167   T   T   T
  0.7537102745758192  0.2275796221840463  0.2939693721697854   T   T   T
  0.5008322581806027  0.0210278607298633  0.2711135078034406   T   T   T
  0.5080469439532120  0.3488960616598411  0.3226638948090303   T   T   T
  0.7541628194463399  0.3937709793593497  0.3295298143774038   T   T   T
  0.7488523582221858  0.4795830536276123  0.3379558368710191   T   T   T
  0.5060667966498663  0.2686353626083092  0.3028196291078832   T   T   T
  0.4987890666261192  0.6078170481574829  0.3186323726748508   T   T   T
  0.7469918563105972  0.7302024075544822  0.2900351003304423   T   T   T
  0.4986949221165352  0.8539802141045881  0.2747296106251303   T   T   T
  0.7493595400286382  0.8955781889925959  0.2717625943252882   T   T   T
  0.7505798647052785  0.9791950533852538  0.2699814915161509   T   T   T
  0.4973067609145564  0.7711470723915406  0.2842867929945361   T   T   T
  0.7454812247650616  0.6488103939383766  0.3059328283756983   T   T   T
  0.2470171126610590  0.6485189213916218  0.3101684202428890   T   T   T
  0.0010822577195028  0.0209985233132781  0.2711378660278968   T   T   T
  0.5068060313443001  0.5277278351051146  0.3409126159682633   T   T   T
  0.9850639894245402  0.5296583554717121  0.3394694338665922   T   T   T
  0.2567181558528482  0.3837657205783668  0.3382872568081060   T   T   T
  0.2363398010704557  0.4762509690858964  0.3994356757600558   T   T   T
 
  0.00000000E+00  0.00000000E+00  0.00000000E+00
  0.00000000E+00  0.00000000E+00  0.00000000E+00
  0.00000000E+00  0.00000000E+00  0.00000000E+00
  0.00000000E+00  0.00000000E+00  0.00000000E+00
  0.00000000E+00  0.00000000E+00  0.00000000E+00
  0.00000000E+00  0.00000000E+00  0.00000000E+00
  0.00000000E+00  0.00000000E+00  0.00000000E+00
  0.00000000E+00  0.00000000E+00  0.00000000E+00
  0.00000000E+00  0.00000000E+00  0.00000000E+00
  0.00000000E+00  0.00000000E+00  0.00000000E+00
  0.00000000E+00  0.00000000E+00  0.00000000E+00
  0.00000000E+00  0.00000000E+00  0.00000000E+00
  0.00000000E+00  0.00000000E+00  0.00000000E+00
  0.00000000E+00  0.00000000E+00  0.00000000E+00
  0.00000000E+00  0.00000000E+00  0.00000000E+00
  0.00000000E+00  0.00000000E+00  0.00000000E+00
  0.00000000E+00  0.00000000E+00  0.00000000E+00
  0.00000000E+00  0.00000000E+00  0.00000000E+00
  0.00000000E+00  0.00000000E+00  0.00000000E+00
  0.00000000E+00  0.00000000E+00  0.00000000E+00
  0.00000000E+00  0.00000000E+00  0.00000000E+00
  0.00000000E+00  0.00000000E+00  0.00000000E+00
  0.00000000E+00  0.00000000E+00  0.00000000E+00
  0.00000000E+00  0.00000000E+00  0.00000000E+00
  0.00000000E+00  0.00000000E+00  0.00000000E+00
  0.00000000E+00  0.00000000E+00  0.00000000E+00
  0.00000000E+00  0.00000000E+00  0.00000000E+00
  0.00000000E+00  0.00000000E+00  0.00000000E+00
  0.00000000E+00  0.00000000E+00  0.00000000E+00
  0.00000000E+00  0.00000000E+00  0.00000000E+00
  0.00000000E+00  0.00000000E+00  0.00000000E+00
  0.00000000E+00  0.00000000E+00  0.00000000E+00
