Title                                   
   1.00000000000000     
     9.8694509999999998    0.0000000000000000    0.0000000000000000
     0.0000000000000000    8.5490480000000009    0.0000000000000000
     0.0000000000000000    0.0000000000000000   20.0000000000000000
    26     5     1
Selective dynamics
Direct
  0.0560308315203791  0.0922583039081590  0.0882870494485158   T   T   T
  0.9297809908176916  0.1760153764104522  0.0889880975021178   T   T   T
  0.0569819777298159  0.9237975446007344  0.0878970241816996   T   T   T
  0.9284271860488686  0.3426680222418068  0.0894538059039594   T   T   T
  0.0565964293099408  0.5904599695142639  0.0881689745729376   T   T   T
  0.9315639202436909  0.6726848490298674  0.0881616162785886   T   T   T
  0.0555247919883389  0.4234843736417053  0.0903348249187540   T   T   T
  0.9318545028656738  0.8402304661720977  0.0883770773167313   T   T   T
  0.3059806272347608  0.0878477389242819  0.0911997500237983   T   T   T
  0.1824379510459580  0.1738145072862805  0.0900776823159753   T   T   T
  0.3081327177356497  0.9218298125377452  0.0917945935582444   T   T   T
  0.1822265740053261  0.3400762692341660  0.0926956621593907   T   T   T
  0.3071517704117087  0.5892162867643932  0.1010328424868242   T   T   T
  0.1821613255137142  0.6711064351681389  0.0906020379709705   T   T   T
  0.1825736469883980  0.8388156656335906  0.0897515768482049   T   T   T
  0.5572310815711321  0.0857533824138241  0.0969449747095766   T   T   T
  0.4313013859968869  0.1694739894510227  0.0955486383574239   T   T   T
  0.4336115378826073  0.3349722368797092  0.0981194024537247   T   T   T
  0.4313312127109814  0.8373193230131025  0.1019689567950237   T   T   T
  0.8067101357815186  0.0901046820836473  0.0903948829473357   T   T   T
  0.6808249529645569  0.1717067342616999  0.0936550292928028   T   T   T
  0.8065896560186460  0.9247260784863168  0.0907802755908337   T   T   T
  0.6760084570934271  0.3376049748520306  0.0933713707662501   T   T   T
  0.8040180030332702  0.5950945996765720  0.0902961153943278   T   T   T
  0.6844616920998644  0.8378768445117389  0.0957594636669789   T   T   T
  0.4228252700503822  0.6775277455610589  0.1215845900511532   T   T   T
  0.5541539956195969  0.4149159716635458  0.1001172648570549   T   T   T
  0.6861705708162930  0.6784503299704188  0.0965174715353988   T   T   T
  0.5584544964322778  0.9194907053042556  0.1000124142997131   T   T   T
  0.3086360622689425  0.4218735854649369  0.0979358538388243   T   T   T
  0.8002797442125100  0.4266736662027224  0.0894248003882560   T   T   T
  0.5596055019871969  0.5823755291357171  0.1764208795686258   T   T   T
 
  0.00000000E+00  0.00000000E+00  0.00000000E+00
  0.00000000E+00  0.00000000E+00  0.00000000E+00
  0.00000000E+00  0.00000000E+00  0.00000000E+00
  0.00000000E+00  0.00000000E+00  0.00000000E+00
  0.00000000E+00  0.00000000E+00  0.00000000E+00
  0.00000000E+00  0.00000000E+00  0.00000000E+00
  0.00000000E+00  0.00000000E+00  0.00000000E+00
  0.00000000E+00  0.00000000E+00  0.00000000E+00
  0.00000000E+00  0.00000000E+00  0.00000000E+00
  0.00000000E+00  0.00000000E+00  0.00000000E+00
  0.00000000E+00  0.00000000E+00  0.00000000E+00
  0.00000000E+00  0.00000000E+00  0.00000000E+00
  0.00000000E+00  0.00000000E+00  0.00000000E+00
  0.00000000E+00  0.00000000E+00  0.00000000E+00
  0.00000000E+00  0.00000000E+00  0.00000000E+00
  0.00000000E+00  0.00000000E+00  0.00000000E+00
  0.00000000E+00  0.00000000E+00  0.00000000E+00
  0.00000000E+00  0.00000000E+00  0.00000000E+00
  0.00000000E+00  0.00000000E+00  0.00000000E+00
  0.00000000E+00  0.00000000E+00  0.00000000E+00
  0.00000000E+00  0.00000000E+00  0.00000000E+00
  0.00000000E+00  0.00000000E+00  0.00000000E+00
  0.00000000E+00  0.00000000E+00  0.00000000E+00
  0.00000000E+00  0.00000000E+00  0.00000000E+00
  0.00000000E+00  0.00000000E+00  0.00000000E+00
  0.00000000E+00  0.00000000E+00  0.00000000E+00
  0.00000000E+00  0.00000000E+00  0.00000000E+00
  0.00000000E+00  0.00000000E+00  0.00000000E+00
  0.00000000E+00  0.00000000E+00  0.00000000E+00
  0.00000000E+00  0.00000000E+00  0.00000000E+00
  0.00000000E+00  0.00000000E+00  0.00000000E+00
  0.00000000E+00  0.00000000E+00  0.00000000E+00
