Title                                   
   1.00000000000000     
     9.8694509999999998    0.0000000000000000    0.0000000000000000
     0.0000000000000000    8.5490480000000009    0.0000000000000000
     0.0000000000000000    0.0000000000000000   20.0000000000000000
    26     4     1
Selective dynamics
Direct
  0.0562970749229560  0.0896564627131013  0.0936429632783387   T   T   T
  0.9311952398387182  0.1735305101176729  0.0980387641231413   T   T   T
  0.0586015687541142  0.9226377554425024  0.0935458428985429   T   T   T
  0.9328475793161923  0.3411710058168067  0.1000655761552414   T   T   T
  0.0583850658698152  0.5899047846446683  0.0956775671496034   T   T   T
  0.9340775993206627  0.6739097596146828  0.1007196939591990   T   T   T
  0.0577188724403745  0.4227366196596838  0.0956657642300239   T   T   T
  0.9335706813073534  0.8411511005044112  0.0989783419722796   T   T   T
  0.3084169035655423  0.0865867325331732  0.0854190195240077   T   T   T
  0.1818164601161609  0.1710534564250757  0.0895378187047889   T   T   T
  0.1806446737085916  0.3364262724702371  0.0903579006836017   T   T   T
  0.3076202503660592  0.5861646035800244  0.0782200488625134   T   T   T
  0.1829605049076536  0.6724217191670553  0.0887490135324140   T   T   T
  0.3052495537119381  0.4174684684271511  0.0823881724531115   T   T   T
  0.1835404941046341  0.8379633940414375  0.0882861601101643   T   T   T
  0.4306963422213165  0.1691594186866516  0.0857112343375966   T   T   T
  0.5579078798860206  0.9215544702110984  0.0935164906800394   T   T   T
  0.4306317616843600  0.6762895757698495  0.0733057156806796   T   T   T
  0.4321120856491832  0.8387312339043090  0.0820627346654568   T   T   T
  0.8042442885712725  0.0907249158754490  0.0990356181807157   T   T   T
  0.6794851834842144  0.1794935327058843  0.1004811763618761   T   T   T
  0.8068996866225852  0.9234726396712808  0.1003121024234207   T   T   T
  0.6815817399862929  0.3452088427727819  0.1085981472356885   T   T   T
  0.8108795522379765  0.5929725456001592  0.1071348874894712   T   T   T
  0.8088478656686138  0.4252728627940249  0.1058995207152734   T   T   T
  0.6817027276216953  0.8366427813729691  0.1027405926655502   T   T   T
  0.5574875566024274  0.0917803307642953  0.0928344821700867   T   T   T
  0.4270489732045157  0.3315499622309242  0.0836756213871589   T   T   T
  0.6869004629801689  0.6725220115817487  0.1132865052859969   T   T   T
  0.3075566812532559  0.9216529400189224  0.0834206403534047   T   T   T
  0.5262096900753375  0.5110642908819933  0.1296568827306472   T   T   T
 
  0.00000000E+00  0.00000000E+00  0.00000000E+00
  0.00000000E+00  0.00000000E+00  0.00000000E+00
  0.00000000E+00  0.00000000E+00  0.00000000E+00
  0.00000000E+00  0.00000000E+00  0.00000000E+00
  0.00000000E+00  0.00000000E+00  0.00000000E+00
  0.00000000E+00  0.00000000E+00  0.00000000E+00
  0.00000000E+00  0.00000000E+00  0.00000000E+00
  0.00000000E+00  0.00000000E+00  0.00000000E+00
  0.00000000E+00  0.00000000E+00  0.00000000E+00
  0.00000000E+00  0.00000000E+00  0.00000000E+00
  0.00000000E+00  0.00000000E+00  0.00000000E+00
  0.00000000E+00  0.00000000E+00  0.00000000E+00
  0.00000000E+00  0.00000000E+00  0.00000000E+00
  0.00000000E+00  0.00000000E+00  0.00000000E+00
  0.00000000E+00  0.00000000E+00  0.00000000E+00
  0.00000000E+00  0.00000000E+00  0.00000000E+00
  0.00000000E+00  0.00000000E+00  0.00000000E+00
  0.00000000E+00  0.00000000E+00  0.00000000E+00
  0.00000000E+00  0.00000000E+00  0.00000000E+00
  0.00000000E+00  0.00000000E+00  0.00000000E+00
  0.00000000E+00  0.00000000E+00  0.00000000E+00
  0.00000000E+00  0.00000000E+00  0.00000000E+00
  0.00000000E+00  0.00000000E+00  0.00000000E+00
  0.00000000E+00  0.00000000E+00  0.00000000E+00
  0.00000000E+00  0.00000000E+00  0.00000000E+00
  0.00000000E+00  0.00000000E+00  0.00000000E+00
  0.00000000E+00  0.00000000E+00  0.00000000E+00
  0.00000000E+00  0.00000000E+00  0.00000000E+00
  0.00000000E+00  0.00000000E+00  0.00000000E+00
  0.00000000E+00  0.00000000E+00  0.00000000E+00
  0.00000000E+00  0.00000000E+00  0.00000000E+00
