Title                                   
   1.00000000000000     
     4.9440799999999996    0.0000000000000000    0.0000000000000000
     0.0000000000000000   17.1295089999999988    0.0000000000000000
     0.0000000000000000    0.0000000000000000   20.0000000000000000
    27     3     1
Selective dynamics
Direct
  0.0044067891088518  0.1063180334697325  0.2955321645487314   T   T   T
  0.2550968650654942  0.1489251432804727  0.2970803897795735   T   T   T
  0.2578090515647586  0.2335823165325649  0.2987866534090420   T   T   T
  0.0046131201761410  0.2730624173284504  0.2936783972521960   T   T   T
 -0.0081870771907079  0.6021823641117097  0.2973646160841507   T   T   T
  0.2463896691995433  0.7267583253292557  0.2973138907085227   T   T   T
 -0.0011009513970022  0.8533471181237094  0.2956311066779437   T   T   T
  0.2491912012964980  0.8956515186473137  0.2960559983448658   T   T   T
  0.2510838546737874  0.9797063312888326  0.2961648855531172   T   T   T
 -0.0030855235518080  0.7691811405543455  0.2958171086107507   T   T   T
  0.5030954234251126  0.1059331620467222  0.2969891715036789   T   T   T
  0.7535612585545165  0.1476890196167398  0.2958299632131784   T   T   T
  0.7552648210725630  0.2315260243477120  0.2962719758508027   T   T   T
  0.5015266301397556  0.0218666909667448  0.2964765069237907   T   T   T
  0.7641664967105193  0.3931318853188608  0.3011121972462977   T   T   T
  0.7565971122275172  0.4792775833204093  0.3027801484900105   T   T   T
  0.5104687237957825  0.2755405169302848  0.3036496996240319   T   T   T
  0.4942608019311205  0.5997044395298238  0.3045613404666348   T   T   T
  0.7455333766520111  0.7274118374113610  0.2964847065687723   T   T   T
  0.4985908621142512  0.8535193726608322  0.2962578125583940   T   T   T
  0.7495580849760334  0.8956484426309688  0.2958319376306993   T   T   T
  0.7514891734011677  0.9798414340884338  0.2958960281450057   T   T   T
  0.4963762892846291  0.7694393574093787  0.2968950467267669   T   T   T
  0.7417557419577790  0.6434356686444895  0.2982649637730668   T   T   T
  0.2453720680264296  0.6425686393396645  0.3000414989873919   T   T   T
  0.0022779148997861  0.0220931885657937  0.2956837997010479   T   T   T
  0.5057346299343233  0.5161874907819759  0.3168781906855627   T   T   T
  0.9889665652288712  0.5221605126673220  0.2950811081686316   T   T   T
  0.5254612966817939  0.3554472827444738  0.3175161753884090   T   T   T
 -0.0040055019732251  0.3530168577195517  0.2866895530062681   T   T   T
  0.2177382320137086  0.4371878845920659  0.3324429643726161   T   T   T
 
  0.00000000E+00  0.00000000E+00  0.00000000E+00
  0.00000000E+00  0.00000000E+00  0.00000000E+00
  0.00000000E+00  0.00000000E+00  0.00000000E+00
  0.00000000E+00  0.00000000E+00  0.00000000E+00
  0.00000000E+00  0.00000000E+00  0.00000000E+00
  0.00000000E+00  0.00000000E+00  0.00000000E+00
  0.00000000E+00  0.00000000E+00  0.00000000E+00
  0.00000000E+00  0.00000000E+00  0.00000000E+00
  0.00000000E+00  0.00000000E+00  0.00000000E+00
  0.00000000E+00  0.00000000E+00  0.00000000E+00
  0.00000000E+00  0.00000000E+00  0.00000000E+00
  0.00000000E+00  0.00000000E+00  0.00000000E+00
  0.00000000E+00  0.00000000E+00  0.00000000E+00
  0.00000000E+00  0.00000000E+00  0.00000000E+00
  0.00000000E+00  0.00000000E+00  0.00000000E+00
  0.00000000E+00  0.00000000E+00  0.00000000E+00
  0.00000000E+00  0.00000000E+00  0.00000000E+00
  0.00000000E+00  0.00000000E+00  0.00000000E+00
  0.00000000E+00  0.00000000E+00  0.00000000E+00
  0.00000000E+00  0.00000000E+00  0.00000000E+00
  0.00000000E+00  0.00000000E+00  0.00000000E+00
  0.00000000E+00  0.00000000E+00  0.00000000E+00
  0.00000000E+00  0.00000000E+00  0.00000000E+00
  0.00000000E+00  0.00000000E+00  0.00000000E+00
  0.00000000E+00  0.00000000E+00  0.00000000E+00
  0.00000000E+00  0.00000000E+00  0.00000000E+00
  0.00000000E+00  0.00000000E+00  0.00000000E+00
  0.00000000E+00  0.00000000E+00  0.00000000E+00
  0.00000000E+00  0.00000000E+00  0.00000000E+00
  0.00000000E+00  0.00000000E+00  0.00000000E+00
  0.00000000E+00  0.00000000E+00  0.00000000E+00
