Title                                   
   1.00000000000000     
     8.5490480000000009    0.0000000000000000    0.0000000000000000
     0.0000000000000000    8.5490480000000009    0.0000000000000000
     0.0000000000000000    0.0000000000000000   20.0000000000000000
    20     4     1
Selective dynamics
Direct
  0.9100358341265848  0.2057026462376483  0.0974242537998551   T   T   T
  0.9117067549331299  0.8008405163266656  0.0974152416416180   T   T   T
  0.1999306813129830  0.0834651168697986  0.0977306322436269   T   T   T
  0.0754919356373504  0.2042998623773908  0.0975646672957013   T   T   T
  0.1534827138458014  0.6490812444789507  0.0977175966398712   T   T   T
  0.0707005515478952  0.5015204924762788  0.0977300680180705   T   T   T
  0.1521901285603078  0.3555169892254890  0.0977516532242383   T   T   T
  0.0786287802174327  0.7983725536226941  0.0975819710454252   T   T   T
  0.4955273631949885  0.0868549088650855  0.0978178287247545   T   T   T
  0.3468087625362424  0.1658103907890413  0.0979009442369425   T   T   T
  0.4946688408473075  0.9161771933217501  0.0977862481837687   T   T   T
  0.3472501096877563  0.8337038191697436  0.0979134024157130   T   T   T
  0.7899319195522899  0.0862325356059207  0.0973853890113064   T   T   T
  0.6435812425219944  0.1666920475663849  0.0976972950991922   T   T   T
  0.7905243777489752  0.9187631721820130  0.0973737429680931   T   T   T
  0.8274297643009255  0.6518804298035850  0.0976611637567012   T   T   T
  0.8253712737371898  0.3541768560885661  0.0977046200230088   T   T   T
  0.6437721493157539  0.8365393044743014  0.0976269640046658   T   T   T
  0.3224577588465305  0.3368218960616308  0.0980788624231925   T   T   T
  0.3220484232581584  0.6676979609229189  0.0980118361165182   T   T   T
  0.9021885821377086  0.5027169119316400  0.0977567267681601   T   T   T
  0.6671082235334701  0.3305870552476194  0.0979563482755935   T   T   T
  0.6685093036187993  0.6740970636656451  0.0978506685019860   T   T   T
  0.1991863851507006  0.9170389257176254  0.0977814681260619   T   T   T
  0.4868801398297159  0.5002001069716348  0.0984854074559079   T   T   T
 
  0.00000000E+00  0.00000000E+00  0.00000000E+00
  0.00000000E+00  0.00000000E+00  0.00000000E+00
  0.00000000E+00  0.00000000E+00  0.00000000E+00
  0.00000000E+00  0.00000000E+00  0.00000000E+00
  0.00000000E+00  0.00000000E+00  0.00000000E+00
  0.00000000E+00  0.00000000E+00  0.00000000E+00
  0.00000000E+00  0.00000000E+00  0.00000000E+00
  0.00000000E+00  0.00000000E+00  0.00000000E+00
  0.00000000E+00  0.00000000E+00  0.00000000E+00
  0.00000000E+00  0.00000000E+00  0.00000000E+00
  0.00000000E+00  0.00000000E+00  0.00000000E+00
  0.00000000E+00  0.00000000E+00  0.00000000E+00
  0.00000000E+00  0.00000000E+00  0.00000000E+00
  0.00000000E+00  0.00000000E+00  0.00000000E+00
  0.00000000E+00  0.00000000E+00  0.00000000E+00
  0.00000000E+00  0.00000000E+00  0.00000000E+00
  0.00000000E+00  0.00000000E+00  0.00000000E+00
  0.00000000E+00  0.00000000E+00  0.00000000E+00
  0.00000000E+00  0.00000000E+00  0.00000000E+00
  0.00000000E+00  0.00000000E+00  0.00000000E+00
  0.00000000E+00  0.00000000E+00  0.00000000E+00
  0.00000000E+00  0.00000000E+00  0.00000000E+00
  0.00000000E+00  0.00000000E+00  0.00000000E+00
  0.00000000E+00  0.00000000E+00  0.00000000E+00
  0.00000000E+00  0.00000000E+00  0.00000000E+00
