Title                                   
   1.00000000000000     
     9.8694509999999998    0.0000000000000000    0.0000000000000000
     0.0000000000000000    8.5490480000000009    0.0000000000000000
     0.0000000000000000    0.0000000000000000   20.0000000000000000
    24     6     1
Selective dynamics
Direct
  0.0564466061391177  0.0906457709337748  0.0890404848216672   T   T   T
  0.9313316187579969  0.1722423623575972  0.0901191474404859   T   T   T
  0.0572657072192167  0.9220330980638766  0.0890387462042602   T   T   T
  0.9324141716608394  0.3394822410766343  0.0891345780615133   T   T   T
  0.0564708378338083  0.5894892999308099  0.0859249861796961   T   T   T
  0.9321439347850997  0.6718380722113102  0.0888638984630983   T   T   T
  0.0568512051532705  0.4229184410901897  0.0860642004571472   T   T   T
  0.9317148706011241  0.8392167822571963  0.0899132301538645   T   T   T
  0.3089069607286138  0.0892246481910539  0.0928482470497340   T   T   T
  0.1816417432866730  0.1720459296474939  0.0896592917438665   T   T   T
  0.1810868363745348  0.3391424276914148  0.0883061321523927   T   T   T
  0.3036446231186219  0.5905469640276636  0.0951024616076957   T   T   T
  0.1808788235747559  0.6735890604527386  0.0882368082934149   T   T   T
  0.3044985216712628  0.4227683571072196  0.0946500889782426   T   T   T
  0.1810654177201264  0.8402454915142237  0.0897837123108090   T   T   T
  0.4290956544955878  0.1750038966825404  0.0993387051866568   T   T   T
  0.5544186613873147  0.9200675751020286  0.1018634014583210   T   T   T
  0.4288096166333989  0.8387824327108887  0.1011413357783872   T   T   T
  0.8044485669602970  0.0894415184213860  0.0929328258964645   T   T   T
  0.6826295844112896  0.1761417085271657  0.1000359114398762   T   T   T
  0.8052332249376499  0.9210710356326085  0.0931738209543200   T   T   T
  0.8088273286846176  0.5893058362546462  0.0959868295810039   T   T   T
  0.8090998307126113  0.4209975194756147  0.0961761611579290   T   T   T
  0.6824668745288019  0.8357036437100653  0.1005537029138673   T   T   T
  0.5574497443871432  0.0952583026025877  0.1015956305967411   T   T   T
  0.4242865587388620  0.3380214913865915  0.1062242378171044   T   T   T
  0.4212684798623256  0.6772911132655658  0.1106343847305949   T   T   T
  0.6888092700458491  0.3371006610865113  0.1087485346781143   T   T   T
  0.6888227973225700  0.6725241020861042  0.1076383750341811   T   T   T
  0.3064508377964213  0.9221175113926375  0.0924463053795596   T   T   T
  0.5546570904701993  0.5066177051098611  0.1457888234790478   T   T   T
 
  0.00000000E+00  0.00000000E+00  0.00000000E+00
  0.00000000E+00  0.00000000E+00  0.00000000E+00
  0.00000000E+00  0.00000000E+00  0.00000000E+00
  0.00000000E+00  0.00000000E+00  0.00000000E+00
  0.00000000E+00  0.00000000E+00  0.00000000E+00
  0.00000000E+00  0.00000000E+00  0.00000000E+00
  0.00000000E+00  0.00000000E+00  0.00000000E+00
  0.00000000E+00  0.00000000E+00  0.00000000E+00
  0.00000000E+00  0.00000000E+00  0.00000000E+00
  0.00000000E+00  0.00000000E+00  0.00000000E+00
  0.00000000E+00  0.00000000E+00  0.00000000E+00
  0.00000000E+00  0.00000000E+00  0.00000000E+00
  0.00000000E+00  0.00000000E+00  0.00000000E+00
  0.00000000E+00  0.00000000E+00  0.00000000E+00
  0.00000000E+00  0.00000000E+00  0.00000000E+00
  0.00000000E+00  0.00000000E+00  0.00000000E+00
  0.00000000E+00  0.00000000E+00  0.00000000E+00
  0.00000000E+00  0.00000000E+00  0.00000000E+00
  0.00000000E+00  0.00000000E+00  0.00000000E+00
  0.00000000E+00  0.00000000E+00  0.00000000E+00
  0.00000000E+00  0.00000000E+00  0.00000000E+00
  0.00000000E+00  0.00000000E+00  0.00000000E+00
  0.00000000E+00  0.00000000E+00  0.00000000E+00
  0.00000000E+00  0.00000000E+00  0.00000000E+00
  0.00000000E+00  0.00000000E+00  0.00000000E+00
  0.00000000E+00  0.00000000E+00  0.00000000E+00
  0.00000000E+00  0.00000000E+00  0.00000000E+00
  0.00000000E+00  0.00000000E+00  0.00000000E+00
  0.00000000E+00  0.00000000E+00  0.00000000E+00
  0.00000000E+00  0.00000000E+00  0.00000000E+00
  0.00000000E+00  0.00000000E+00  0.00000000E+00
