Title                                   
   1.00000000000000     
     8.5490480000000009    0.0000000000000000    0.0000000000000000
     0.0000000000000000    8.5490480000000009    0.0000000000000000
     0.0000000000000000    0.0000000000000000   20.0000000000000000
    20     4     1
Selective dynamics
Direct
  0.9105790764438852  0.2036895896528305  0.0976466200541663   T   T   T
  0.9056835568147524  0.5037976879165048  0.0977214315286940   T   T   T
  0.9092793839877022  0.8018201646480815  0.0975500746198703   T   T   T
  0.1992034251712306  0.0836609695610559  0.0977988826522282   T   T   T
  0.0758230958738290  0.2037979505320752  0.0976101770425055   T   T   T
  0.1572659521659115  0.6529605283762764  0.0976082235560827   T   T   T
  0.0761540108808554  0.5036885838903453  0.0976004777562336   T   T   T
  0.1586701788522955  0.3566764164715250  0.0976233346251152   T   T   T
  0.0772508069686141  0.8001100488451721  0.0976399942684147   T   T   T
  0.4946315680700877  0.0847505514108652  0.0978629185699839   T   T   T
  0.3474555549738698  0.1638385184602524  0.0978752730985730   T   T   T
  0.4929920724602443  0.9140475972025192  0.0977366025919875   T   T   T
  0.3437158194923730  0.8342777927566549  0.0977741385555922   T   T   T
  0.7890122058510320  0.0848070548774802  0.0976956928261891   T   T   T
  0.6425563121748485  0.1663254811672384  0.0979645584298838   T   T   T
  0.7887503379106648  0.9182485717830504  0.0975785285260687   T   T   T
  0.8265922322732057  0.6518272326159035  0.0976471013565254   T   T   T
  0.8256904056193431  0.3544513865665992  0.0978523581746576   T   T   T
  0.6404467094746390  0.8332892281295291  0.0976616881808923   T   T   T
  0.3233200598477183  0.3331532596604204  0.0978739198366438   T   T   T
  0.3184841958586725  0.6773255947195378  0.0976969736472877   T   T   T
  0.6670138939998563  0.3293805480133600  0.0982294343152721   T   T   T
  0.6653679107107844  0.6731572213771410  0.0977578624793229   T   T   T
  0.1970827244726894  0.9173084130100644  0.0978605607065934   T   T   T
  0.4923905096508871  0.4983996083555394  0.0978381726011888   T   T   T
 
  0.00000000E+00  0.00000000E+00  0.00000000E+00
  0.00000000E+00  0.00000000E+00  0.00000000E+00
  0.00000000E+00  0.00000000E+00  0.00000000E+00
  0.00000000E+00  0.00000000E+00  0.00000000E+00
  0.00000000E+00  0.00000000E+00  0.00000000E+00
  0.00000000E+00  0.00000000E+00  0.00000000E+00
  0.00000000E+00  0.00000000E+00  0.00000000E+00
  0.00000000E+00  0.00000000E+00  0.00000000E+00
  0.00000000E+00  0.00000000E+00  0.00000000E+00
  0.00000000E+00  0.00000000E+00  0.00000000E+00
  0.00000000E+00  0.00000000E+00  0.00000000E+00
  0.00000000E+00  0.00000000E+00  0.00000000E+00
  0.00000000E+00  0.00000000E+00  0.00000000E+00
  0.00000000E+00  0.00000000E+00  0.00000000E+00
  0.00000000E+00  0.00000000E+00  0.00000000E+00
  0.00000000E+00  0.00000000E+00  0.00000000E+00
  0.00000000E+00  0.00000000E+00  0.00000000E+00
  0.00000000E+00  0.00000000E+00  0.00000000E+00
  0.00000000E+00  0.00000000E+00  0.00000000E+00
  0.00000000E+00  0.00000000E+00  0.00000000E+00
  0.00000000E+00  0.00000000E+00  0.00000000E+00
  0.00000000E+00  0.00000000E+00  0.00000000E+00
  0.00000000E+00  0.00000000E+00  0.00000000E+00
  0.00000000E+00  0.00000000E+00  0.00000000E+00
  0.00000000E+00  0.00000000E+00  0.00000000E+00
