Title                                   
   1.00000000000000     
     8.5490480000000009    0.0000000000000000    0.0000000000000000
     0.0000000000000000    8.5490480000000009    0.0000000000000000
     0.0000000000000000    0.0000000000000000   20.0000000000000000
    20     4     1
Selective dynamics
Direct
  0.9094506826373472  0.2057897785733613  0.0954592875578748   T   T   T
  0.9076452965367228  0.5018129035561187  0.0953133975243261   T   T   T
  0.9094632994869776  0.7978041516739593  0.0954721623833079   T   T   T
  0.1970323204399601  0.0853260724931210  0.0954914337931241   T   T   T
  0.0765750501082459  0.2057600426445825  0.0954738189679965   T   T   T
  0.1970450188538299  0.9182129306886034  0.0954969237827328   T   T   T
  0.1561386354896959  0.6509074396531658  0.0953502000445172   T   T   T
  0.0784111997384856  0.5017860187319506  0.0953315710764897   T   T   T
  0.1561276475909941  0.3526479742176362  0.0953369818544533   T   T   T
  0.0765865141109171  0.7977797479443963  0.0954823887022664   T   T   T
  0.4929902521966566  0.0871759895563696  0.0953551362532130   T   T   T
  0.3438930725056173  0.1649082221532658  0.0953592104335446   T   T   T
  0.4929965983706844  0.9164273835009971  0.0953616486495049   T   T   T
  0.3439160829309476  0.8386658793580233  0.0953648363821102   T   T   T
  0.7889868293682424  0.0853651036266367  0.0954756752441041   T   T   T
  0.6421033901793894  0.1649275118895220  0.0953276926303719   T   T   T
  0.7890004673682445  0.9182476952908739  0.0954805720905887   T   T   T
  0.8299000267361463  0.6509368331462054  0.0953241969434915   T   T   T
  0.8299023837565299  0.3526876189679879  0.0952984107160035   T   T   T
  0.6421209873712675  0.8386912211979447  0.0953411516023550   T   T   T
  0.3198337923106512  0.3285800379305252  0.0952018030406668   T   T   T
  0.3198514873377246  0.6749754249396863  0.0952112401592600   T   T   T
  0.6662124772332049  0.3285993582129901  0.0951695938466339   T   T   T
  0.6662088075518048  0.6749984640148436  0.0951860735766694   T   T   T
  0.4930196797897053  0.5017761960372461  0.0950395927443716   T   T   T
 
  0.00000000E+00  0.00000000E+00  0.00000000E+00
  0.00000000E+00  0.00000000E+00  0.00000000E+00
  0.00000000E+00  0.00000000E+00  0.00000000E+00
  0.00000000E+00  0.00000000E+00  0.00000000E+00
  0.00000000E+00  0.00000000E+00  0.00000000E+00
  0.00000000E+00  0.00000000E+00  0.00000000E+00
  0.00000000E+00  0.00000000E+00  0.00000000E+00
  0.00000000E+00  0.00000000E+00  0.00000000E+00
  0.00000000E+00  0.00000000E+00  0.00000000E+00
  0.00000000E+00  0.00000000E+00  0.00000000E+00
  0.00000000E+00  0.00000000E+00  0.00000000E+00
  0.00000000E+00  0.00000000E+00  0.00000000E+00
  0.00000000E+00  0.00000000E+00  0.00000000E+00
  0.00000000E+00  0.00000000E+00  0.00000000E+00
  0.00000000E+00  0.00000000E+00  0.00000000E+00
  0.00000000E+00  0.00000000E+00  0.00000000E+00
  0.00000000E+00  0.00000000E+00  0.00000000E+00
  0.00000000E+00  0.00000000E+00  0.00000000E+00
  0.00000000E+00  0.00000000E+00  0.00000000E+00
  0.00000000E+00  0.00000000E+00  0.00000000E+00
  0.00000000E+00  0.00000000E+00  0.00000000E+00
  0.00000000E+00  0.00000000E+00  0.00000000E+00
  0.00000000E+00  0.00000000E+00  0.00000000E+00
  0.00000000E+00  0.00000000E+00  0.00000000E+00
  0.00000000E+00  0.00000000E+00  0.00000000E+00
