Title                                   
   1.00000000000000     
     8.5490480000000009    0.0000000000000000    0.0000000000000000
     0.0000000000000000    8.5490480000000009    0.0000000000000000
     0.0000000000000000    0.0000000000000000   20.0000000000000000
    20     4     1
Selective dynamics
Direct
  0.9100092752575129  0.2042647379525288  0.0973863693498051   T   T   T
  0.9122707027341185  0.8022884822185105  0.0979871722683143   T   T   T
  0.1962631086278131  0.0817365202076267  0.0970935845507441   T   T   T
  0.0742171533007130  0.2012857672398844  0.0974499380033669   T   T   T
  0.1555394619908266  0.6496206989033170  0.0969959581397102   T   T   T
  0.0736485848387573  0.5014512113761562  0.0980935513968476   T   T   T
  0.1538535373066565  0.3537881108540697  0.0991159396649492   T   T   T
  0.0783262053994617  0.7999037992270867  0.0974030113032179   T   T   T
  0.4959221131459431  0.0873200233254684  0.0974521667325349   T   T   T
  0.3450065839741652  0.1634822393409916  0.0983102337705443   T   T   T
  0.4957560014251893  0.9165524336198276  0.0968049377809779   T   T   T
  0.3466721686801790  0.8352644709578464  0.0963102500641989   T   T   T
  0.7892696858884798  0.0867303404698209  0.0975507622467126   T   T   T
  0.6433742484078208  0.1687248798056150  0.0974840000591986   T   T   T
  0.7905648812177505  0.9191364578869179  0.0978008923658538   T   T   T
  0.8288055426834094  0.6521282184316558  0.0978486017730184   T   T   T
  0.8264356181122184  0.3551018713139396  0.0974534568989834   T   T   T
  0.6441551204094185  0.8354812214059169  0.0973705170841431   T   T   T
  0.3190488046232121  0.3286817797467964  0.1026193899009584   T   T   T
  0.3213248704780209  0.6739466507909775  0.0957904778380570   T   T   T
  0.9048420604417581  0.5031550127494391  0.0978294131330081   T   T   T
  0.6698384898503076  0.3334928809140897  0.0974676903261422   T   T   T
  0.6712702912018551  0.6726648592159671  0.0975144618928636   T   T   T
  0.1959966000649969  0.9171996038168910  0.0968954768810891   T   T   T
  0.4830008899394078  0.5013877282286799  0.0996767465747336   T   T   T
 
  0.00000000E+00  0.00000000E+00  0.00000000E+00
  0.00000000E+00  0.00000000E+00  0.00000000E+00
  0.00000000E+00  0.00000000E+00  0.00000000E+00
  0.00000000E+00  0.00000000E+00  0.00000000E+00
  0.00000000E+00  0.00000000E+00  0.00000000E+00
  0.00000000E+00  0.00000000E+00  0.00000000E+00
  0.00000000E+00  0.00000000E+00  0.00000000E+00
  0.00000000E+00  0.00000000E+00  0.00000000E+00
  0.00000000E+00  0.00000000E+00  0.00000000E+00
  0.00000000E+00  0.00000000E+00  0.00000000E+00
  0.00000000E+00  0.00000000E+00  0.00000000E+00
  0.00000000E+00  0.00000000E+00  0.00000000E+00
  0.00000000E+00  0.00000000E+00  0.00000000E+00
  0.00000000E+00  0.00000000E+00  0.00000000E+00
  0.00000000E+00  0.00000000E+00  0.00000000E+00
  0.00000000E+00  0.00000000E+00  0.00000000E+00
  0.00000000E+00  0.00000000E+00  0.00000000E+00
  0.00000000E+00  0.00000000E+00  0.00000000E+00
  0.00000000E+00  0.00000000E+00  0.00000000E+00
  0.00000000E+00  0.00000000E+00  0.00000000E+00
  0.00000000E+00  0.00000000E+00  0.00000000E+00
  0.00000000E+00  0.00000000E+00  0.00000000E+00
  0.00000000E+00  0.00000000E+00  0.00000000E+00
  0.00000000E+00  0.00000000E+00  0.00000000E+00
  0.00000000E+00  0.00000000E+00  0.00000000E+00
