Title                                   
   1.00000000000000     
     8.5490480000000009    0.0000000000000000    0.0000000000000000
     0.0000000000000000    8.5490480000000009    0.0000000000000000
     0.0000000000000000    0.0000000000000000   20.0000000000000000
    19     5     1
Selective dynamics
Direct
  0.9073590574029171  0.2059955385305509  0.0976439485768777   T   T   T
  0.9078548482274545  0.5025688917231832  0.0977503414983647   T   T   T
  0.9097079924271775  0.8009526877036526  0.0976220307347192   T   T   T
  0.1972863088344940  0.0842222054439166  0.0976909784045029   T   T   T
  0.0761650415635856  0.2027629137729119  0.0976690667922738   T   T   T
  0.1600264495059992  0.6505398673161684  0.0977348664151329   T   T   T
  0.0793858776253592  0.5011371416898791  0.0977489664595377   T   T   T
  0.1603220790465909  0.3523915045094107  0.0977862843133357   T   T   T
  0.0787849419619538  0.7977810992131072  0.0976606216334189   T   T   T
  0.4927374148332976  0.0879527128223158  0.0977741332701153   T   T   T
  0.3444123580487628  0.1665451309780203  0.0978153758002558   T   T   T
  0.4923899057659651  0.9162536267427840  0.0977046899801859   T   T   T
  0.3444952015911832  0.8347403918445448  0.0977341482779212   T   T   T
  0.7868349006844615  0.0870374344901370  0.0976451907009152   T   T   T
  0.6393584551217120  0.1696474636662773  0.0977960496448996   T   T   T
  0.7877038317843663  0.9188481557308978  0.0976175385768242   T   T   T
  0.8278875477152865  0.6508255584082501  0.0977228273238790   T   T   T
  0.8257039517865177  0.3547564888086475  0.0977824229118627   T   T   T
  0.6400654578520911  0.8344938639895426  0.0977026295798986   T   T   T
  0.3225840912022055  0.3297753942163598  0.0979454722397579   T   T   T
  0.3224260698317066  0.6748452843976546  0.0977973501877907   T   T   T
  0.6624998425102618  0.3332664611658541  0.0979338310482599   T   T   T
  0.6645334979052263  0.6715265391408062  0.0978153192523292   T   T   T
  0.1987593056551870  0.9155222545605254  0.0977049316988056   T   T   T
  0.4961275711162300  0.5004013891346015  0.0979059846781157   T   T   T
 
  0.00000000E+00  0.00000000E+00  0.00000000E+00
  0.00000000E+00  0.00000000E+00  0.00000000E+00
  0.00000000E+00  0.00000000E+00  0.00000000E+00
  0.00000000E+00  0.00000000E+00  0.00000000E+00
  0.00000000E+00  0.00000000E+00  0.00000000E+00
  0.00000000E+00  0.00000000E+00  0.00000000E+00
  0.00000000E+00  0.00000000E+00  0.00000000E+00
  0.00000000E+00  0.00000000E+00  0.00000000E+00
  0.00000000E+00  0.00000000E+00  0.00000000E+00
  0.00000000E+00  0.00000000E+00  0.00000000E+00
  0.00000000E+00  0.00000000E+00  0.00000000E+00
  0.00000000E+00  0.00000000E+00  0.00000000E+00
  0.00000000E+00  0.00000000E+00  0.00000000E+00
  0.00000000E+00  0.00000000E+00  0.00000000E+00
  0.00000000E+00  0.00000000E+00  0.00000000E+00
  0.00000000E+00  0.00000000E+00  0.00000000E+00
  0.00000000E+00  0.00000000E+00  0.00000000E+00
  0.00000000E+00  0.00000000E+00  0.00000000E+00
  0.00000000E+00  0.00000000E+00  0.00000000E+00
  0.00000000E+00  0.00000000E+00  0.00000000E+00
  0.00000000E+00  0.00000000E+00  0.00000000E+00
  0.00000000E+00  0.00000000E+00  0.00000000E+00
  0.00000000E+00  0.00000000E+00  0.00000000E+00
  0.00000000E+00  0.00000000E+00  0.00000000E+00
  0.00000000E+00  0.00000000E+00  0.00000000E+00
