Title                                   
   1.00000000000000     
     9.8694509999999998    0.0000000000000000    0.0000000000000000
     0.0000000000000000    8.5490480000000009    0.0000000000000000
     0.0000000000000000    0.0000000000000000   20.0000000000000000
    27     4     1
Selective dynamics
Direct
  0.0556426628245230  0.0902085914042187  0.0843310769881258   T   T   T
  0.9310393659391496  0.1752215688431542  0.0853477983774785   T   T   T
  0.0579316784412126  0.9226230114049554  0.0847177441683166   T   T   T
  0.9299546835802454  0.3421748846023518  0.0873878538851452   T   T   T
  0.0564840977679642  0.5910022570320389  0.0859688572065650   T   T   T
  0.0552048472727695  0.4238493364690974  0.0862957930427994   T   T   T
  0.9336589238095954  0.8403907695869721  0.0863342356441643   T   T   T
  0.3061285633168251  0.0869366641169002  0.0888924038386106   T   T   T
  0.1817459260157246  0.1714207875627129  0.0865100530223199   T   T   T
  0.1803239059321026  0.3386083962287804  0.0884867560724134   T   T   T
  0.3020417980728756  0.5866099103896386  0.1010729283912526   T   T   T
  0.1802800138486244  0.6732310321598395  0.0895631171598398   T   T   T
  0.3045581238106841  0.4193573019484537  0.0981943567587823   T   T   T
  0.1832045523052284  0.8404257602153585  0.0876141387298916   T   T   T
  0.5564531168756558  0.0871986202351001  0.0939571156481912   T   T   T
  0.5568885567688919  0.9196533057131586  0.0990881306169787   T   T   T
  0.4284724615014618  0.3314181100596961  0.1035070504032208   T   T   T
  0.4287058084885744  0.8380162220401868  0.1032814769019056   T   T   T
  0.8062175789657672  0.0905386537271299  0.0869823892193966   T   T   T
  0.6798630082912360  0.1729284923479102  0.0918424524566270   T   T   T
  0.8085522272524953  0.9245969652136339  0.0885001661628329   T   T   T
  0.6804089666525860  0.3407557656650743  0.1003793284760188   T   T   T
  0.8107132725538395  0.5963224595136225  0.0980065543446958   T   T   T
  0.8050148442454781  0.4275942077060291  0.0955429860279251   T   T   T
  0.6859020310277180  0.8412280734986141  0.0990238448467198   T   T   T
  0.4173220337178741  0.6775570120468430  0.1171891903472733   T   T   T
  0.5517580855354054  0.4063770707773242  0.1157413906044462   T   T   T
  0.6994910399537361  0.6828809039024588  0.1130370072813251   T   T   T
  0.3070739736628856  0.9231578493424616  0.0903594017721685   T   T   T
  0.4291696424623159  0.1661889932859208  0.0936506164286165   T   T   T
  0.9329643529856373  0.6740530706124975  0.0869937901075667   T   T   T
  0.5564688561209247  0.5877199523478688  0.1678749950684026   T   T   T
 
  0.00000000E+00  0.00000000E+00  0.00000000E+00
  0.00000000E+00  0.00000000E+00  0.00000000E+00
  0.00000000E+00  0.00000000E+00  0.00000000E+00
  0.00000000E+00  0.00000000E+00  0.00000000E+00
  0.00000000E+00  0.00000000E+00  0.00000000E+00
  0.00000000E+00  0.00000000E+00  0.00000000E+00
  0.00000000E+00  0.00000000E+00  0.00000000E+00
  0.00000000E+00  0.00000000E+00  0.00000000E+00
  0.00000000E+00  0.00000000E+00  0.00000000E+00
  0.00000000E+00  0.00000000E+00  0.00000000E+00
  0.00000000E+00  0.00000000E+00  0.00000000E+00
  0.00000000E+00  0.00000000E+00  0.00000000E+00
  0.00000000E+00  0.00000000E+00  0.00000000E+00
  0.00000000E+00  0.00000000E+00  0.00000000E+00
  0.00000000E+00  0.00000000E+00  0.00000000E+00
  0.00000000E+00  0.00000000E+00  0.00000000E+00
  0.00000000E+00  0.00000000E+00  0.00000000E+00
  0.00000000E+00  0.00000000E+00  0.00000000E+00
  0.00000000E+00  0.00000000E+00  0.00000000E+00
  0.00000000E+00  0.00000000E+00  0.00000000E+00
  0.00000000E+00  0.00000000E+00  0.00000000E+00
  0.00000000E+00  0.00000000E+00  0.00000000E+00
  0.00000000E+00  0.00000000E+00  0.00000000E+00
  0.00000000E+00  0.00000000E+00  0.00000000E+00
  0.00000000E+00  0.00000000E+00  0.00000000E+00
  0.00000000E+00  0.00000000E+00  0.00000000E+00
  0.00000000E+00  0.00000000E+00  0.00000000E+00
  0.00000000E+00  0.00000000E+00  0.00000000E+00
  0.00000000E+00  0.00000000E+00  0.00000000E+00
  0.00000000E+00  0.00000000E+00  0.00000000E+00
  0.00000000E+00  0.00000000E+00  0.00000000E+00
  0.00000000E+00  0.00000000E+00  0.00000000E+00
