Title                                   
   1.00000000000000     
     9.8694509999999998    0.0000000000000000    0.0000000000000000
     0.0000000000000000    8.5490480000000009    0.0000000000000000
     0.0000000000000000    0.0000000000000000   20.0000000000000000
    27     4     1
Selective dynamics
Direct
  0.0562337950918333  0.0920722254592421  0.0848168843185244   T   T   T
  0.9306832865336245  0.1747809184329031  0.0869796603405253   T   T   T
  0.0562171025602777  0.9245056580807613  0.0851034978387076   T   T   T
  0.9294571679537288  0.3417282004897878  0.0908542525539961   T   T   T
  0.0562036710372194  0.5895553847994992  0.0885533526679707   T   T   T
  0.9319471083283020  0.6733806806169543  0.0904760060231604   T   T   T
  0.0562609906995692  0.4231914038686461  0.0897437320089257   T   T   T
  0.9317079376713292  0.8404124904060130  0.0877820094439519   T   T   T
  0.3054094569535999  0.0896901207244383  0.0864175073488230   T   T   T
  0.1818279782531017  0.1747842940671460  0.0864364459730482   T   T   T
  0.3061110998368450  0.9240588448364838  0.0875970512129380   T   T   T
  0.1830833608178763  0.3417271989432111  0.0902480474271013   T   T   T
  0.3050329765921254  0.5938586396794074  0.0992290571640038   T   T   T
  0.1805085073901954  0.6734111224793381  0.0899185103551563   T   T   T
  0.3104164045705739  0.4248055904349335  0.0971543344990200   T   T   T
  0.1807783393155878  0.8404524245604562  0.0873261434405797   T   T   T
  0.5562494000141678  0.0834766984955565  0.0943135758832877   T   T   T
  0.4317411635231223  0.1678467681142397  0.0921209575105341   T   T   T
  0.4334674598312365  0.3328958646863470  0.0996809279206453   T   T   T
  0.4277775704323019  0.8392484389055797  0.0971028327932848   T   T   T
  0.8071574171941747  0.0896065896838657  0.0871496838526415   T   T   T
  0.6808521903286887  0.1677665518594737  0.0927466217328158   T   T   T
  0.8064002606663873  0.9239634479820200  0.0882618113040964   T   T   T
  0.6791373312548490  0.3328062154079066  0.1003307134486510   T   T   T
  0.8075556131122267  0.5938207956967779  0.1001167108770611   T   T   T
  0.8021938298929873  0.4247687530601097  0.0980095031923183   T   T   T
  0.6847187334363577  0.8391744065346467  0.0977704691936141   T   T   T
  0.4199630576265227  0.6839512722882266  0.1129440169990449   T   T   T
  0.5561625465728643  0.4033548073446200  0.1139266089751529   T   T   T
  0.6926641984913635  0.6839379918817314  0.1139085966651553   T   T   T
  0.5562396573295193  0.9164059626925732  0.0966761236606705   T   T   T
  0.5554793866874483  0.5848062374871063  0.1719793533746106   T   T   T
 
  0.00000000E+00  0.00000000E+00  0.00000000E+00
  0.00000000E+00  0.00000000E+00  0.00000000E+00
  0.00000000E+00  0.00000000E+00  0.00000000E+00
  0.00000000E+00  0.00000000E+00  0.00000000E+00
  0.00000000E+00  0.00000000E+00  0.00000000E+00
  0.00000000E+00  0.00000000E+00  0.00000000E+00
  0.00000000E+00  0.00000000E+00  0.00000000E+00
  0.00000000E+00  0.00000000E+00  0.00000000E+00
  0.00000000E+00  0.00000000E+00  0.00000000E+00
  0.00000000E+00  0.00000000E+00  0.00000000E+00
  0.00000000E+00  0.00000000E+00  0.00000000E+00
  0.00000000E+00  0.00000000E+00  0.00000000E+00
  0.00000000E+00  0.00000000E+00  0.00000000E+00
  0.00000000E+00  0.00000000E+00  0.00000000E+00
  0.00000000E+00  0.00000000E+00  0.00000000E+00
  0.00000000E+00  0.00000000E+00  0.00000000E+00
  0.00000000E+00  0.00000000E+00  0.00000000E+00
  0.00000000E+00  0.00000000E+00  0.00000000E+00
  0.00000000E+00  0.00000000E+00  0.00000000E+00
  0.00000000E+00  0.00000000E+00  0.00000000E+00
  0.00000000E+00  0.00000000E+00  0.00000000E+00
  0.00000000E+00  0.00000000E+00  0.00000000E+00
  0.00000000E+00  0.00000000E+00  0.00000000E+00
  0.00000000E+00  0.00000000E+00  0.00000000E+00
  0.00000000E+00  0.00000000E+00  0.00000000E+00
  0.00000000E+00  0.00000000E+00  0.00000000E+00
  0.00000000E+00  0.00000000E+00  0.00000000E+00
  0.00000000E+00  0.00000000E+00  0.00000000E+00
  0.00000000E+00  0.00000000E+00  0.00000000E+00
  0.00000000E+00  0.00000000E+00  0.00000000E+00
  0.00000000E+00  0.00000000E+00  0.00000000E+00
  0.00000000E+00  0.00000000E+00  0.00000000E+00
