Title                                   
   1.00000000000000     
     8.5490480000000009    0.0000000000000000    0.0000000000000000
     0.0000000000000000    8.5490480000000009    0.0000000000000000
     0.0000000000000000    0.0000000000000000   20.0000000000000000
    18     6     1
Selective dynamics
Direct
  0.9086200411086828  0.2045771852342968  0.0939063672379923   T   T   T
  0.9102166841390741  0.8007494236778332  0.0928491650976200   T   T   T
  0.1967536501111135  0.0838953953021922  0.0931204857341573   T   T   T
  0.0772376476790858  0.2006689450565759  0.0935471279266160   T   T   T
  0.1543616645516672  0.6529006650472954  0.0967967976227369   T   T   T
  0.0759162886898108  0.5010354781478599  0.0969273047780348   T   T   T
  0.1564231289710507  0.3523629902180574  0.0968356355499836   T   T   T
  0.0780534836635040  0.8001431238837935  0.0934196590880009   T   T   T
  0.3471481578476863  0.1648070423020097  0.0962035982861763   T   T   T
  0.4923752398503799  0.9162630385050444  0.0965252057152216   T   T   T
  0.3419156387809412  0.8393187370658571  0.0969289852559162   T   T   T
  0.7885984551533242  0.0861976408782822  0.0939238304001487   T   T   T
  0.6423114182295981  0.1656132181942711  0.0971209583605837   T   T   T
  0.7897092637814263  0.9176448381275922  0.0932605480003572   T   T   T
  0.8301720997666293  0.6515203071117153  0.0948410617695183   T   T   T
  0.8283182439520625  0.3515016316650708  0.0969274577721719   T   T   T
  0.6434237532645674  0.8366759523580224  0.0953865519294396   T   T   T
  0.3240221538999479  0.3284559093763969  0.0994304932380945   T   T   T
  0.4948238654474060  0.0862016049806660  0.0966984501888854   T   T   T
  0.9055382254170273  0.5020440391642560  0.0963443344708940   T   T   T
  0.3162679557134440  0.6799380286239719  0.1005987100164570   T   T   T
  0.6659308630840673  0.3275528022630749  0.1006806916985404   T   T   T
  0.6701828351789701  0.6738970928378927  0.0966382512496323   T   T   T
  0.1955083777841362  0.9167921888721166  0.0934209673564713   T   T   T
  0.4915828639343905  0.5040327211058755  0.1413723612563228   T   T   T
 
  0.00000000E+00  0.00000000E+00  0.00000000E+00
  0.00000000E+00  0.00000000E+00  0.00000000E+00
  0.00000000E+00  0.00000000E+00  0.00000000E+00
  0.00000000E+00  0.00000000E+00  0.00000000E+00
  0.00000000E+00  0.00000000E+00  0.00000000E+00
  0.00000000E+00  0.00000000E+00  0.00000000E+00
  0.00000000E+00  0.00000000E+00  0.00000000E+00
  0.00000000E+00  0.00000000E+00  0.00000000E+00
  0.00000000E+00  0.00000000E+00  0.00000000E+00
  0.00000000E+00  0.00000000E+00  0.00000000E+00
  0.00000000E+00  0.00000000E+00  0.00000000E+00
  0.00000000E+00  0.00000000E+00  0.00000000E+00
  0.00000000E+00  0.00000000E+00  0.00000000E+00
  0.00000000E+00  0.00000000E+00  0.00000000E+00
  0.00000000E+00  0.00000000E+00  0.00000000E+00
  0.00000000E+00  0.00000000E+00  0.00000000E+00
  0.00000000E+00  0.00000000E+00  0.00000000E+00
  0.00000000E+00  0.00000000E+00  0.00000000E+00
  0.00000000E+00  0.00000000E+00  0.00000000E+00
  0.00000000E+00  0.00000000E+00  0.00000000E+00
  0.00000000E+00  0.00000000E+00  0.00000000E+00
  0.00000000E+00  0.00000000E+00  0.00000000E+00
  0.00000000E+00  0.00000000E+00  0.00000000E+00
  0.00000000E+00  0.00000000E+00  0.00000000E+00
  0.00000000E+00  0.00000000E+00  0.00000000E+00
