Title                                   
   1.00000000000000     
     4.9440799999999996    0.0000000000000000    0.0000000000000000
     0.0000000000000000    8.5647549999999999    0.0000000000000000
     0.0000000000000000    0.0000000000000000   20.0000000000000000
    14     1     1
Selective dynamics
Direct
  0.2500000000000000  0.2073644873574080  0.0934451508984682   T   T   T
 -0.0022942337216392  0.2882615776586246  0.0972067404695112   T   T   T
  0.2500000000000000  0.0425367328319967  0.0886355131675698   T   T   T
  0.0018003716379576  0.7955352092172325  0.0987300666647885   T   T   T
  0.0002022557301651  0.9591906654065334  0.0887864820192138   T   T   T
  0.7500000000000000  0.2057436566662607  0.0901411033459688   T   T   T
  0.5022942337216391  0.2882615776586246  0.0972067404695112   T   T   T
  0.7500000000000000  0.0402458517539910  0.0859046849645423   T   T   T
  0.7500000000000000  0.7098836982637072  0.1023723051635784   T   T   T
  0.4981996283620422  0.7955352092172325  0.0987300666647885   T   T   T
  0.7500000000000000  0.5414201544822048  0.1057734195418760   T   T   T
  0.4997977442698351  0.9591906654065334  0.0887864820192138   T   T   T
  0.5122425627925385  0.4506222391696756  0.1105926115339337   T   T   T
 -0.0122425627925385  0.4506222391696756  0.1105926115339337   T   T   T
  0.2500000000000000  0.7235290930946433  0.1102819082912450   T   T   T
  0.2500000000000000  0.5420569426456564  0.1553261132518646   T   T   T
 
  0.00000000E+00  0.00000000E+00  0.00000000E+00
  0.00000000E+00  0.00000000E+00  0.00000000E+00
  0.00000000E+00  0.00000000E+00  0.00000000E+00
  0.00000000E+00  0.00000000E+00  0.00000000E+00
  0.00000000E+00  0.00000000E+00  0.00000000E+00
  0.00000000E+00  0.00000000E+00  0.00000000E+00
  0.00000000E+00  0.00000000E+00  0.00000000E+00
  0.00000000E+00  0.00000000E+00  0.00000000E+00
  0.00000000E+00  0.00000000E+00  0.00000000E+00
  0.00000000E+00  0.00000000E+00  0.00000000E+00
  0.00000000E+00  0.00000000E+00  0.00000000E+00
  0.00000000E+00  0.00000000E+00  0.00000000E+00
  0.00000000E+00  0.00000000E+00  0.00000000E+00
  0.00000000E+00  0.00000000E+00  0.00000000E+00
  0.00000000E+00  0.00000000E+00  0.00000000E+00
  0.00000000E+00  0.00000000E+00  0.00000000E+00
