Title                                   
   1.00000000000000     
     9.8694509999999998    0.0000000000000000    0.0000000000000000
     0.0000000000000000    8.5490480000000009    0.0000000000000000
     0.0000000000000000    0.0000000000000000   20.0000000000000000
    30     1     1
Selective dynamics
Direct
  0.0556684517700800  0.0900450333159036  0.0848493216439151   T   T   T
  0.9313237494914823  0.1726143183706287  0.0859667627642274   T   T   T
  0.0570374726171509  0.9235727066339600  0.0849604086490784   T   T   T
  0.9311050911966042  0.3401985528814978  0.0883293724788229   T   T   T
  0.0567581414327610  0.5900009908486726  0.0859083525258436   T   T   T
  0.9322409000478176  0.6728004748761941  0.0879632310129244   T   T   T
  0.0568561964658367  0.4230394423949634  0.0868432983365123   T   T   T
  0.9318840216180715  0.8392527064231734  0.0865659122623307   T   T   T
  0.3052126021183296  0.0884521230186574  0.0890791470346030   T   T   T
  0.1812323549253913  0.1720009555965921  0.0867220548696236   T   T   T
  0.1821286718992309  0.3395693602143087  0.0884296411448430   T   T   T
  0.3054506883797753  0.5899600076042338  0.0967469095053699   T   T   T
  0.1819215430749637  0.6740641343042482  0.0877381600712132   T   T   T
  0.3058337715036883  0.4224543902237996  0.0950916299971062   T   T   T
  0.1818263530209988  0.8407255514253942  0.0871088620758093   T   T   T
  0.5561996705938617  0.0878074711962754  0.0932333576114277   T   T   T
  0.4303957584331743  0.1701635089262821  0.0928576653948819   T   T   T
  0.5549150486709367  0.9229355396284556  0.0964746905050596   T   T   T
  0.4307916939168505  0.3370268080827309  0.0989825908510955   T   T   T
  0.4221259476278262  0.6796076628343515  0.1086435345266360   T   T   T
  0.5563330823575240  0.4110032391477458  0.1087115433911547   T   T   T
  0.4281060729553433  0.8404764551430249  0.0988535763991223   T   T   T
  0.8065014269678321  0.0887817431609091  0.0875623596804178   T   T   T
  0.6816089988894279  0.1710484387602188  0.0919037940867542   T   T   T
  0.8066222321005280  0.9226166803982714  0.0886763138794699   T   T   T
  0.6813037597874476  0.3373831459191126  0.0985527688689851   T   T   T
  0.8075715900638761  0.5897935372138156  0.0971983881724605   T   T   T
  0.6899939417053638  0.6777366944017682  0.1090267822683739   T   T   T
  0.8072932229167241  0.4221037600681589  0.0952012970121842   T   T   T
  0.6813455065039681  0.8391141076759595  0.0976389173561526   T   T   T
  0.3049499928428051  0.9243307583972206  0.0899275716766589   T   T   T
  0.5571010441043347  0.5895657009134798  0.1899267839469766   T   T   T
 
  0.00000000E+00  0.00000000E+00  0.00000000E+00
  0.00000000E+00  0.00000000E+00  0.00000000E+00
  0.00000000E+00  0.00000000E+00  0.00000000E+00
  0.00000000E+00  0.00000000E+00  0.00000000E+00
  0.00000000E+00  0.00000000E+00  0.00000000E+00
  0.00000000E+00  0.00000000E+00  0.00000000E+00
  0.00000000E+00  0.00000000E+00  0.00000000E+00
  0.00000000E+00  0.00000000E+00  0.00000000E+00
  0.00000000E+00  0.00000000E+00  0.00000000E+00
  0.00000000E+00  0.00000000E+00  0.00000000E+00
  0.00000000E+00  0.00000000E+00  0.00000000E+00
  0.00000000E+00  0.00000000E+00  0.00000000E+00
  0.00000000E+00  0.00000000E+00  0.00000000E+00
  0.00000000E+00  0.00000000E+00  0.00000000E+00
  0.00000000E+00  0.00000000E+00  0.00000000E+00
  0.00000000E+00  0.00000000E+00  0.00000000E+00
  0.00000000E+00  0.00000000E+00  0.00000000E+00
  0.00000000E+00  0.00000000E+00  0.00000000E+00
  0.00000000E+00  0.00000000E+00  0.00000000E+00
  0.00000000E+00  0.00000000E+00  0.00000000E+00
  0.00000000E+00  0.00000000E+00  0.00000000E+00
  0.00000000E+00  0.00000000E+00  0.00000000E+00
  0.00000000E+00  0.00000000E+00  0.00000000E+00
  0.00000000E+00  0.00000000E+00  0.00000000E+00
  0.00000000E+00  0.00000000E+00  0.00000000E+00
  0.00000000E+00  0.00000000E+00  0.00000000E+00
  0.00000000E+00  0.00000000E+00  0.00000000E+00
  0.00000000E+00  0.00000000E+00  0.00000000E+00
  0.00000000E+00  0.00000000E+00  0.00000000E+00
  0.00000000E+00  0.00000000E+00  0.00000000E+00
  0.00000000E+00  0.00000000E+00  0.00000000E+00
  0.00000000E+00  0.00000000E+00  0.00000000E+00
