Title                                   
   1.00000000000000     
     8.5490480000000009    0.0000000000000000    0.0000000000000000
     0.0000000000000000    8.5490480000000009    0.0000000000000000
     0.0000000000000000    0.0000000000000000   20.0000000000000000
    20     4     1
Selective dynamics
Direct
  0.9094900751578449  0.2078334478332738  0.0974364659556322   T   T   T
  0.9118727177733760  0.8013995298301106  0.0978134300625643   T   T   T
  0.2003179693369357  0.0826681706804279  0.0978164283410061   T   T   T
  0.0752125074061631  0.2047429049849189  0.0976554260140114   T   T   T
  0.1558204402446864  0.6505795043877941  0.0978298061487045   T   T   T
  0.0739353981283432  0.5020971084559643  0.0979882172969559   T   T   T
  0.1558154890597201  0.3555739584495886  0.0979941566463747   T   T   T
  0.0788550643749012  0.7997531507540036  0.0977782952217294   T   T   T
  0.3474284624427188  0.1636024476602504  0.0980520101152201   T   T   T
  0.4939769390588810  0.9153023126292525  0.0979500054232837   T   T   T
  0.3465053821410795  0.8340493689181366  0.0977891751120390   T   T   T
  0.7867415778115699  0.0852558573675276  0.0975296478170377   T   T   T
  0.6386202872571453  0.1647386933410909  0.0977416798207320   T   T   T
  0.7904292081234442  0.9194259916511535  0.0977047822426089   T   T   T
  0.8285223961467506  0.6524560682781004  0.0980651661867658   T   T   T
  0.8246581143657978  0.3570358084257537  0.0976619185942033   T   T   T
  0.6429144977125616  0.8358711284848055  0.0979911630210538   T   T   T
  0.3269993770202933  0.3340046527906955  0.0984690143743401   T   T   T
  0.3230745811050414  0.6697726700016656  0.0978350971537779   T   T   T
  0.6573521947303324  0.3340355127089871  0.0981318502389327   T   T   T
  0.4950310991131279  0.0831090950182974  0.0979897922949804   T   T   T
  0.9051161823677684  0.5035232859849669  0.0980121956293722   T   T   T
  0.6685868705020822  0.6737028656956763  0.0983209529887649   T   T   T
  0.1972877715986167  0.9174821811980616  0.0977498525533938   T   T   T
  0.4908473970208120  0.4967742844695109  0.0993984707464978   T   T   T
 
  0.00000000E+00  0.00000000E+00  0.00000000E+00
  0.00000000E+00  0.00000000E+00  0.00000000E+00
  0.00000000E+00  0.00000000E+00  0.00000000E+00
  0.00000000E+00  0.00000000E+00  0.00000000E+00
  0.00000000E+00  0.00000000E+00  0.00000000E+00
  0.00000000E+00  0.00000000E+00  0.00000000E+00
  0.00000000E+00  0.00000000E+00  0.00000000E+00
  0.00000000E+00  0.00000000E+00  0.00000000E+00
  0.00000000E+00  0.00000000E+00  0.00000000E+00
  0.00000000E+00  0.00000000E+00  0.00000000E+00
  0.00000000E+00  0.00000000E+00  0.00000000E+00
  0.00000000E+00  0.00000000E+00  0.00000000E+00
  0.00000000E+00  0.00000000E+00  0.00000000E+00
  0.00000000E+00  0.00000000E+00  0.00000000E+00
  0.00000000E+00  0.00000000E+00  0.00000000E+00
  0.00000000E+00  0.00000000E+00  0.00000000E+00
  0.00000000E+00  0.00000000E+00  0.00000000E+00
  0.00000000E+00  0.00000000E+00  0.00000000E+00
  0.00000000E+00  0.00000000E+00  0.00000000E+00
  0.00000000E+00  0.00000000E+00  0.00000000E+00
  0.00000000E+00  0.00000000E+00  0.00000000E+00
  0.00000000E+00  0.00000000E+00  0.00000000E+00
  0.00000000E+00  0.00000000E+00  0.00000000E+00
  0.00000000E+00  0.00000000E+00  0.00000000E+00
  0.00000000E+00  0.00000000E+00  0.00000000E+00
