Title                                   
   1.00000000000000     
     9.8694509999999998    0.0000000000000000    0.0000000000000000
     0.0000000000000000    8.5490480000000009    0.0000000000000000
     0.0000000000000000    0.0000000000000000   20.0000000000000000
    30     1     1
Selective dynamics
Direct
  0.0565963973695258  0.0899565244889108  0.0823595456385227   T   T   T
  0.9315324140552673  0.1720799679643557  0.0851996935823636   T   T   T
  0.0558933335401248  0.9229320605059903  0.0808729562008111   T   T   T
  0.9317164152901770  0.3383678561218260  0.0874317549401617   T   T   T
  0.0567679465625572  0.5883634068754622  0.0812965028641608   T   T   T
  0.9328183865409732  0.6714784857048682  0.0842986829835558   T   T   T
  0.0570122631140574  0.4220382523050338  0.0839561217200304   T   T   T
  0.9312751274022660  0.8387123906067848  0.0834787778599592   T   T   T
  0.3061068288165081  0.0901800277525544  0.0880515541326279   T   T   T
  0.1815603198820540  0.1738050054560334  0.0850950623571465   T   T   T
  0.3043503791278011  0.9243093287624596  0.0872445471004414   T   T   T
  0.1825335335791816  0.3404458441908179  0.0870789297434696   T   T   T
  0.3026370193721550  0.5915440535767451  0.0937198799445133   T   T   T
  0.1800661654713499  0.6729773697676628  0.0824978615966458   T   T   T
  0.3075476540181067  0.4242751701702433  0.0961460307099727   T   T   T
  0.1801463402236233  0.8400262932037117  0.0822934971022961   T   T   T
  0.5556661830810471  0.0860319057574738  0.0983685721062549   T   T   T
  0.4311107917364175  0.1710585372506116  0.0961270973863657   T   T   T
  0.5548117899065199  0.9182096395744374  0.1006978125055032   T   T   T
  0.4320613384356612  0.3371863823358445  0.1047573756073183   T   T   T
  0.5577245148419390  0.4096049983155438  0.1205796421848477   T   T   T
  0.4259524960725051  0.8395775710521711  0.0978725247077298   T   T   T
  0.8067677775465332  0.0883611235248905  0.0886907456941904   T   T   T
  0.6817774273661600  0.1693570659851134  0.0967039052142018   T   T   T
  0.8069774238222962  0.9225372509411394  0.0888906755393682   T   T   T
  0.6828988045828750  0.3347811439584929  0.1051229299668672   T   T   T
  0.8113822064552711  0.5874826035644287  0.0968852130175904   T   T   T
  0.6953282261432927  0.6757503645564523  0.1120715791770358   T   T   T
  0.8079716053749517  0.4201510977658904  0.0975197305623390   T   T   T
  0.6841143012490929  0.8380061429382183  0.1007974865938353   T   T   T
  0.4155696874992385  0.6799712561710232  0.1085917709646767   T   T   T
  0.5509639015204770  0.6106868788548180  0.1809765402952311   T   T   T
 
  0.00000000E+00  0.00000000E+00  0.00000000E+00
  0.00000000E+00  0.00000000E+00  0.00000000E+00
  0.00000000E+00  0.00000000E+00  0.00000000E+00
  0.00000000E+00  0.00000000E+00  0.00000000E+00
  0.00000000E+00  0.00000000E+00  0.00000000E+00
  0.00000000E+00  0.00000000E+00  0.00000000E+00
  0.00000000E+00  0.00000000E+00  0.00000000E+00
  0.00000000E+00  0.00000000E+00  0.00000000E+00
  0.00000000E+00  0.00000000E+00  0.00000000E+00
  0.00000000E+00  0.00000000E+00  0.00000000E+00
  0.00000000E+00  0.00000000E+00  0.00000000E+00
  0.00000000E+00  0.00000000E+00  0.00000000E+00
  0.00000000E+00  0.00000000E+00  0.00000000E+00
  0.00000000E+00  0.00000000E+00  0.00000000E+00
  0.00000000E+00  0.00000000E+00  0.00000000E+00
  0.00000000E+00  0.00000000E+00  0.00000000E+00
  0.00000000E+00  0.00000000E+00  0.00000000E+00
  0.00000000E+00  0.00000000E+00  0.00000000E+00
  0.00000000E+00  0.00000000E+00  0.00000000E+00
  0.00000000E+00  0.00000000E+00  0.00000000E+00
  0.00000000E+00  0.00000000E+00  0.00000000E+00
  0.00000000E+00  0.00000000E+00  0.00000000E+00
  0.00000000E+00  0.00000000E+00  0.00000000E+00
  0.00000000E+00  0.00000000E+00  0.00000000E+00
  0.00000000E+00  0.00000000E+00  0.00000000E+00
  0.00000000E+00  0.00000000E+00  0.00000000E+00
  0.00000000E+00  0.00000000E+00  0.00000000E+00
  0.00000000E+00  0.00000000E+00  0.00000000E+00
  0.00000000E+00  0.00000000E+00  0.00000000E+00
  0.00000000E+00  0.00000000E+00  0.00000000E+00
  0.00000000E+00  0.00000000E+00  0.00000000E+00
  0.00000000E+00  0.00000000E+00  0.00000000E+00
