Title                                   
   1.00000000000000     
     9.8694509999999998    0.0000000000000000    0.0000000000000000
     0.0000000000000000    8.5490480000000009    0.0000000000000000
     0.0000000000000000    0.0000000000000000   20.0000000000000000
    26     4     1
Selective dynamics
Direct
  0.0543892303476687  0.0898198231491499  0.0884499496869147   T   T   T
  0.9290220549599163  0.1748465485879938  0.0860952992497194   T   T   T
  0.0580817333917921  0.9232267132974346  0.0886612142774776   T   T   T
  0.9309598698251960  0.3420700566748462  0.0861851058209044   T   T   T
  0.0572634832031606  0.5898988784400366  0.0879659036066892   T   T   T
  0.9341647483119975  0.6754986033724251  0.0878603506220707   T   T   T
  0.0560564111201951  0.4227781949526429  0.0880004010816685   T   T   T
  0.9328954767603637  0.8422750708568509  0.0885068736631077   T   T   T
  0.3063413422278292  0.0854851484815011  0.0964297719547501   T   T   T
  0.1800096886250244  0.1690389401281819  0.0926749720520349   T   T   T
  0.1795770674400976  0.3356063749610840  0.0925209352504190   T   T   T
  0.3042638958037696  0.5832946374697515  0.0978820545177752   T   T   T
  0.1824886264065164  0.6713054194539019  0.0909365566884302   T   T   T
  0.3018997818958046  0.4158042375995055  0.1012712256733445   T   T   T
  0.1833630601523037  0.8382752536888959  0.0909588034496433   T   T   T
  0.4273651557656090  0.1736550769258807  0.1034625627407197   T   T   T
  0.5557431402434269  0.9216910037985344  0.0994557116764370   T   T   T
  0.4285626255902973  0.6640368377027251  0.1049522330104886   T   T   T
  0.4326660831897707  0.8327367525042134  0.1003162899012345   T   T   T
  0.8021351056370027  0.0929543440529043  0.0871204390490060   T   T   T
  0.6761163681292141  0.1791878602442558  0.0891946367656884   T   T   T
  0.8064877266176375  0.9259428951085268  0.0895702186913579   T   T   T
  0.6787649355645600  0.3457537069634845  0.0866391110001134   T   T   T
  0.8102005185581022  0.5961342316114461  0.0898287441465374   T   T   T
  0.8059329347991097  0.4271195777092035  0.0859231285312101   T   T   T
  0.6833265275058134  0.8405828196180427  0.0962827311311477   T   T   T
  0.5539501154132340  0.0925416832606200  0.0983860984379132   T   T   T
  0.4218752797998217  0.3337837981370591  0.1148374825976517   T   T   T
  0.6911043880968641  0.6787761052264319  0.1017080329313089   T   T   T
  0.3076340693104286  0.9193231085386302  0.0947247049283519   T   T   T
  0.5704935553074759  0.5074312974838653  0.1341634568659182   T   T   T
 
  0.00000000E+00  0.00000000E+00  0.00000000E+00
  0.00000000E+00  0.00000000E+00  0.00000000E+00
  0.00000000E+00  0.00000000E+00  0.00000000E+00
  0.00000000E+00  0.00000000E+00  0.00000000E+00
  0.00000000E+00  0.00000000E+00  0.00000000E+00
  0.00000000E+00  0.00000000E+00  0.00000000E+00
  0.00000000E+00  0.00000000E+00  0.00000000E+00
  0.00000000E+00  0.00000000E+00  0.00000000E+00
  0.00000000E+00  0.00000000E+00  0.00000000E+00
  0.00000000E+00  0.00000000E+00  0.00000000E+00
  0.00000000E+00  0.00000000E+00  0.00000000E+00
  0.00000000E+00  0.00000000E+00  0.00000000E+00
  0.00000000E+00  0.00000000E+00  0.00000000E+00
  0.00000000E+00  0.00000000E+00  0.00000000E+00
  0.00000000E+00  0.00000000E+00  0.00000000E+00
  0.00000000E+00  0.00000000E+00  0.00000000E+00
  0.00000000E+00  0.00000000E+00  0.00000000E+00
  0.00000000E+00  0.00000000E+00  0.00000000E+00
  0.00000000E+00  0.00000000E+00  0.00000000E+00
  0.00000000E+00  0.00000000E+00  0.00000000E+00
  0.00000000E+00  0.00000000E+00  0.00000000E+00
  0.00000000E+00  0.00000000E+00  0.00000000E+00
  0.00000000E+00  0.00000000E+00  0.00000000E+00
  0.00000000E+00  0.00000000E+00  0.00000000E+00
  0.00000000E+00  0.00000000E+00  0.00000000E+00
  0.00000000E+00  0.00000000E+00  0.00000000E+00
  0.00000000E+00  0.00000000E+00  0.00000000E+00
  0.00000000E+00  0.00000000E+00  0.00000000E+00
  0.00000000E+00  0.00000000E+00  0.00000000E+00
  0.00000000E+00  0.00000000E+00  0.00000000E+00
  0.00000000E+00  0.00000000E+00  0.00000000E+00
