Title                                   
   1.00000000000000     
     9.8694509999999998    0.0000000000000000    0.0000000000000000
     0.0000000000000000    8.5490480000000009    0.0000000000000000
     0.0000000000000000    0.0000000000000000   20.0000000000000000
    26     4     1
Selective dynamics
Direct
  0.0549347010772757  0.0896108012041104  0.0846362408625712   T   T   T
  0.9298806155652128  0.1732124371679265  0.0844987618903352   T   T   T
  0.0578037465813439  0.9236400918868015  0.0850497526441267   T   T   T
  0.9328225670734493  0.3411707370301779  0.0836970649161763   T   T   T
  0.0569520030915236  0.5899417610735943  0.0823130836390340   T   T   T
  0.9335652858949823  0.6749171103754585  0.0853636964434924   T   T   T
  0.0571555689336520  0.4233607659279074  0.0820844720864809   T   T   T
  0.9325848373593302  0.8415385228566163  0.0867499202767013   T   T   T
  0.3059394577220103  0.0874196802947811  0.0941253941372532   T   T   T
  0.1809875387207547  0.1698098624380417  0.0879871995609033   T   T   T
  0.1805048243753626  0.3371063317499567  0.0871879078679122   T   T   T
  0.3023160622011327  0.5869171383633840  0.0964738351140783   T   T   T
  0.1815121517288681  0.6724020829834918  0.0865075990094869   T   T   T
  0.3010130754953876  0.4171354054816253  0.0981322677486273   T   T   T
  0.1829740180007603  0.8400393346389288  0.0872635349417127   T   T   T
  0.4282801136157132  0.1750296412956601  0.1036116963483561   T   T   T
  0.5555164720649054  0.9215658810965581  0.1040230692812558   T   T   T
  0.4234750857896588  0.6703911875565531  0.1086639396366367   T   T   T
  0.4300340998504197  0.8364751856834350  0.1021359079143277   T   T   T
  0.8033807659798770  0.0905236285331610  0.0894988705720641   T   T   T
  0.6800716123517330  0.1781945258913983  0.0964254014071654   T   T   T
  0.8066117311284466  0.9228533949650082  0.0918635288731614   T   T   T
  0.6866364174660599  0.3432881355892591  0.1009774031327388   T   T   T
  0.8118495170101400  0.5943760680048817  0.0939659690033087   T   T   T
  0.8105897669697117  0.4249391905886317  0.0909271088157571   T   T   T
  0.6836413723388840  0.8359711027709291  0.1022012385308613   T   T   T
  0.5550336317475694  0.0927192494836464  0.1027047897999866   T   T   T
  0.4202006671656238  0.3347174753225348  0.1124369732347039   T   T   T
  0.6926939856657781  0.6737445765871817  0.1089842769192152   T   T   T
  0.3065465090070271  0.9218423508702810  0.0930095102364433   T   T   T
  0.5576267980274091  0.5060213422881036  0.1274645851551599   T   T   T
 
  0.00000000E+00  0.00000000E+00  0.00000000E+00
  0.00000000E+00  0.00000000E+00  0.00000000E+00
  0.00000000E+00  0.00000000E+00  0.00000000E+00
  0.00000000E+00  0.00000000E+00  0.00000000E+00
  0.00000000E+00  0.00000000E+00  0.00000000E+00
  0.00000000E+00  0.00000000E+00  0.00000000E+00
  0.00000000E+00  0.00000000E+00  0.00000000E+00
  0.00000000E+00  0.00000000E+00  0.00000000E+00
  0.00000000E+00  0.00000000E+00  0.00000000E+00
  0.00000000E+00  0.00000000E+00  0.00000000E+00
  0.00000000E+00  0.00000000E+00  0.00000000E+00
  0.00000000E+00  0.00000000E+00  0.00000000E+00
  0.00000000E+00  0.00000000E+00  0.00000000E+00
  0.00000000E+00  0.00000000E+00  0.00000000E+00
  0.00000000E+00  0.00000000E+00  0.00000000E+00
  0.00000000E+00  0.00000000E+00  0.00000000E+00
  0.00000000E+00  0.00000000E+00  0.00000000E+00
  0.00000000E+00  0.00000000E+00  0.00000000E+00
  0.00000000E+00  0.00000000E+00  0.00000000E+00
  0.00000000E+00  0.00000000E+00  0.00000000E+00
  0.00000000E+00  0.00000000E+00  0.00000000E+00
  0.00000000E+00  0.00000000E+00  0.00000000E+00
  0.00000000E+00  0.00000000E+00  0.00000000E+00
  0.00000000E+00  0.00000000E+00  0.00000000E+00
  0.00000000E+00  0.00000000E+00  0.00000000E+00
  0.00000000E+00  0.00000000E+00  0.00000000E+00
  0.00000000E+00  0.00000000E+00  0.00000000E+00
  0.00000000E+00  0.00000000E+00  0.00000000E+00
  0.00000000E+00  0.00000000E+00  0.00000000E+00
  0.00000000E+00  0.00000000E+00  0.00000000E+00
  0.00000000E+00  0.00000000E+00  0.00000000E+00
