Title                                   
   1.00000000000000     
     8.5490480000000009    0.0000000000000000    0.0000000000000000
     0.0000000000000000    8.5490480000000009    0.0000000000000000
     0.0000000000000000    0.0000000000000000   20.0000000000000000
    20     4     1
Selective dynamics
Direct
  0.9094116689075572  0.2054118037024669  0.0975684472335309   T   T   T
  0.9115538096915221  0.8014218551185520  0.0975638828943660   T   T   T
  0.1977461831094761  0.0831437602433487  0.0978926244569376   T   T   T
  0.0750174246788558  0.2031077231889279  0.0977567227617288   T   T   T
  0.1547530844140438  0.6493153332726106  0.0977957304053661   T   T   T
  0.0721670464596996  0.5014678573219770  0.0977733582810145   T   T   T
  0.1535026622949490  0.3545522985563924  0.0977722042485869   T   T   T
  0.0781327915902593  0.7992693008437802  0.0977975165314009   T   T   T
  0.4953082539569824  0.0870856438904479  0.0977960594153325   T   T   T
  0.3459615608104323  0.1659402722891309  0.0978888079617049   T   T   T
  0.4946835297608727  0.9163324588421825  0.0977522867605227   T   T   T
  0.3463225799913532  0.8339092953713385  0.0978642022531847   T   T   T
  0.7891338055595897  0.0867083663273380  0.0974672116555831   T   T   T
  0.6429266678805317  0.1679108154507465  0.0976931219142993   T   T   T
  0.7898049189556522  0.9188183764035612  0.0974411076339691   T   T   T
  0.8277875959468810  0.6514541901241458  0.0976935384170812   T   T   T
  0.8258292746611152  0.3543407273204514  0.0977227283484682   T   T   T
  0.6434056800788698  0.8359368322369860  0.0976131598896931   T   T   T
  0.3220125839987292  0.3339352171500952  0.0978122771367751   T   T   T
  0.3219574779790682  0.6700111020734910  0.0978010798207624   T   T   T
  0.9036487730728456  0.5027736683777673  0.0978122590174042   T   T   T
  0.6672974073129513  0.3324041094411247  0.0978566792544575   T   T   T
  0.6691261226275291  0.6723992016437644  0.0977746630352269   T   T   T
  0.1973358078386734  0.9172453745291218  0.0979557427943058   T   T   T
  0.4905852884215527  0.4998944162802723  0.0978395878782705   T   T   T
 
  0.00000000E+00  0.00000000E+00  0.00000000E+00
  0.00000000E+00  0.00000000E+00  0.00000000E+00
  0.00000000E+00  0.00000000E+00  0.00000000E+00
  0.00000000E+00  0.00000000E+00  0.00000000E+00
  0.00000000E+00  0.00000000E+00  0.00000000E+00
  0.00000000E+00  0.00000000E+00  0.00000000E+00
  0.00000000E+00  0.00000000E+00  0.00000000E+00
  0.00000000E+00  0.00000000E+00  0.00000000E+00
  0.00000000E+00  0.00000000E+00  0.00000000E+00
  0.00000000E+00  0.00000000E+00  0.00000000E+00
  0.00000000E+00  0.00000000E+00  0.00000000E+00
  0.00000000E+00  0.00000000E+00  0.00000000E+00
  0.00000000E+00  0.00000000E+00  0.00000000E+00
  0.00000000E+00  0.00000000E+00  0.00000000E+00
  0.00000000E+00  0.00000000E+00  0.00000000E+00
  0.00000000E+00  0.00000000E+00  0.00000000E+00
  0.00000000E+00  0.00000000E+00  0.00000000E+00
  0.00000000E+00  0.00000000E+00  0.00000000E+00
  0.00000000E+00  0.00000000E+00  0.00000000E+00
  0.00000000E+00  0.00000000E+00  0.00000000E+00
  0.00000000E+00  0.00000000E+00  0.00000000E+00
  0.00000000E+00  0.00000000E+00  0.00000000E+00
  0.00000000E+00  0.00000000E+00  0.00000000E+00
  0.00000000E+00  0.00000000E+00  0.00000000E+00
  0.00000000E+00  0.00000000E+00  0.00000000E+00
