Title                                   
   1.00000000000000     
     9.8694509999999998    0.0000000000000000    0.0000000000000000
     0.0000000000000000    8.5490480000000009    0.0000000000000000
     0.0000000000000000    0.0000000000000000   20.0000000000000000
    28     2     1
Selective dynamics
Direct
  0.0556412503052008  0.0887779539080078  0.0869957322175923   T   T   T
  0.9307740094746639  0.1722102477974500  0.0875410798824742   T   T   T
  0.0574337440634691  0.9227277645600438  0.0878329633522785   T   T   T
  0.9333933155082401  0.3393147871693359  0.0860395266067041   T   T   T
  0.0573856689756125  0.5901908427466936  0.0847485474013861   T   T   T
  0.9335018239266747  0.6741970280109563  0.0881705904102655   T   T   T
  0.0573590369333427  0.4227921837449455  0.0839980666638375   T   T   T
  0.9316956704198336  0.8406299806077100  0.0895075997068021   T   T   T
  0.3062170432495868  0.0881496609771227  0.0927400509075448   T   T   T
  0.1805116696025691  0.1696183690661291  0.0878616561194637   T   T   T
  0.1803563455222126  0.3370817248286780  0.0861982070741056   T   T   T
  0.3044354566719631  0.5869257042001012  0.0917111647143422   T   T   T
  0.1819218082983716  0.6728426491636359  0.0867005369970026   T   T   T
  0.3024512203049851  0.4191708901812181  0.0920432545336787   T   T   T
  0.1827471825476188  0.8397767600333352  0.0884245794964393   T   T   T
  0.5548003196160576  0.0931815109627635  0.1007210589074926   T   T   T
  0.4287264012311336  0.1758771799349393  0.0990904251992435   T   T   T
  0.5546398777880348  0.9241995345898245  0.1012124962062210   T   T   T
  0.4279827833437949  0.6684582495194240  0.1021937135578773   T   T   T
  0.4309537987697911  0.8359361013851191  0.0989274934437273   T   T   T
  0.8046385473170915  0.0911323701512565  0.0924385272721137   T   T   T
  0.6802145437470425  0.1791273574092690  0.0982513491893852   T   T   T
  0.8048532280818498  0.9229857892245495  0.0936385955253058   T   T   T
  0.6860984981824590  0.3464178134453385  0.1010796074272035   T   T   T
  0.8110810508489245  0.5914393395431464  0.0942635757772858   T   T   T
  0.6859475399594955  0.6690697755840684  0.1060008255696389   T   T   T
  0.8112380729793541  0.4232987097801819  0.0918777885113716   T   T   T
  0.6800159833445196  0.8371116343313197  0.1003419862213051   T   T   T
  0.4231181769750098  0.3403635498540619  0.1029930077413578   T   T   T
  0.3073465637239743  0.9217960231462938  0.0923843762908099   T   T   T
  0.5556543682871402  0.5060735141430984  0.1450366170757917   T   T   T
 
  0.00000000E+00  0.00000000E+00  0.00000000E+00
  0.00000000E+00  0.00000000E+00  0.00000000E+00
  0.00000000E+00  0.00000000E+00  0.00000000E+00
  0.00000000E+00  0.00000000E+00  0.00000000E+00
  0.00000000E+00  0.00000000E+00  0.00000000E+00
  0.00000000E+00  0.00000000E+00  0.00000000E+00
  0.00000000E+00  0.00000000E+00  0.00000000E+00
  0.00000000E+00  0.00000000E+00  0.00000000E+00
  0.00000000E+00  0.00000000E+00  0.00000000E+00
  0.00000000E+00  0.00000000E+00  0.00000000E+00
  0.00000000E+00  0.00000000E+00  0.00000000E+00
  0.00000000E+00  0.00000000E+00  0.00000000E+00
  0.00000000E+00  0.00000000E+00  0.00000000E+00
  0.00000000E+00  0.00000000E+00  0.00000000E+00
  0.00000000E+00  0.00000000E+00  0.00000000E+00
  0.00000000E+00  0.00000000E+00  0.00000000E+00
  0.00000000E+00  0.00000000E+00  0.00000000E+00
  0.00000000E+00  0.00000000E+00  0.00000000E+00
  0.00000000E+00  0.00000000E+00  0.00000000E+00
  0.00000000E+00  0.00000000E+00  0.00000000E+00
  0.00000000E+00  0.00000000E+00  0.00000000E+00
  0.00000000E+00  0.00000000E+00  0.00000000E+00
  0.00000000E+00  0.00000000E+00  0.00000000E+00
  0.00000000E+00  0.00000000E+00  0.00000000E+00
  0.00000000E+00  0.00000000E+00  0.00000000E+00
  0.00000000E+00  0.00000000E+00  0.00000000E+00
  0.00000000E+00  0.00000000E+00  0.00000000E+00
  0.00000000E+00  0.00000000E+00  0.00000000E+00
  0.00000000E+00  0.00000000E+00  0.00000000E+00
  0.00000000E+00  0.00000000E+00  0.00000000E+00
  0.00000000E+00  0.00000000E+00  0.00000000E+00
