Title                                   
   1.00000000000000     
     9.8694509999999998    0.0000000000000000    0.0000000000000000
     0.0000000000000000    8.5490480000000009    0.0000000000000000
     0.0000000000000000    0.0000000000000000   20.0000000000000000
    25     5     1
Selective dynamics
Direct
  0.0549653177555901  0.0879220409812600  0.0878911825732243   T   T   T
  0.9310754911138899  0.1705115737545800  0.0902769813620976   T   T   T
  0.0569248093575570  0.9219626295301294  0.0887103340950187   T   T   T
  0.9354283012052987  0.3378190671514956  0.0903317915922638   T   T   T
  0.0569796886152885  0.5905081548796353  0.0869496985364339   T   T   T
  0.0572984748603217  0.4237572553751208  0.0859287855336133   T   T   T
  0.9320044828193030  0.8384736432244873  0.0914309024433343   T   T   T
  0.3051237190610033  0.0881843067877382  0.0918708149422566   T   T   T
  0.1807779863882310  0.1712055600600181  0.0878886773972031   T   T   T
  0.1798492340530461  0.3389258444784231  0.0865548595853091   T   T   T
  0.3015513578262264  0.5905994729761727  0.0921158835980481   T   T   T
  0.1792648170192414  0.6745334066245682  0.0877591557128269   T   T   T
  0.3021817379857127  0.4207103873173152  0.0916489646798102   T   T   T
  0.1811600688052422  0.8405346711100795  0.0892226589132682   T   T   T
  0.4285754800025778  0.1756086893578454  0.0973534782261347   T   T   T
  0.5526617500632383  0.9213712353932467  0.1009679337004951   T   T   T
  0.4273110439368906  0.8377343533464391  0.0983352864087315   T   T   T
  0.8051484740079967  0.0885444146437341  0.0950038276154323   T   T   T
  0.6816964282577258  0.1775145538566919  0.1006950215200341   T   T   T
  0.8061402030162682  0.9205932517136212  0.0956006242382167   T   T   T
  0.6910494293462770  0.3423594154489906  0.1052920676876745   T   T   T
  0.8166667030465682  0.5920307260167329  0.0994896196202839   T   T   T
  0.6924911635573818  0.6706952227203160  0.1059449103492447   T   T   T
  0.8171399536516640  0.4209773997832602  0.0988132142324460   T   T   T
  0.6807089443393451  0.8367008616916594  0.1015441323724606   T   T   T
  0.9356904142271318  0.6735893362236347  0.0917312379445989   T   T   T
  0.5535478723599558  0.0940935058650227  0.1005630162915375   T   T   T
  0.4202110332216105  0.3349416480957392  0.0995110339146640   T   T   T
  0.4178855366301790  0.6776069561053407  0.1005728438191308   T   T   T
  0.3042122606535463  0.9236493210770969  0.0923219720250091   T   T   T
  0.5574128228157048  0.5072160944096106  0.1086440890692458   T   T   T
 
  0.00000000E+00  0.00000000E+00  0.00000000E+00
  0.00000000E+00  0.00000000E+00  0.00000000E+00
  0.00000000E+00  0.00000000E+00  0.00000000E+00
  0.00000000E+00  0.00000000E+00  0.00000000E+00
  0.00000000E+00  0.00000000E+00  0.00000000E+00
  0.00000000E+00  0.00000000E+00  0.00000000E+00
  0.00000000E+00  0.00000000E+00  0.00000000E+00
  0.00000000E+00  0.00000000E+00  0.00000000E+00
  0.00000000E+00  0.00000000E+00  0.00000000E+00
  0.00000000E+00  0.00000000E+00  0.00000000E+00
  0.00000000E+00  0.00000000E+00  0.00000000E+00
  0.00000000E+00  0.00000000E+00  0.00000000E+00
  0.00000000E+00  0.00000000E+00  0.00000000E+00
  0.00000000E+00  0.00000000E+00  0.00000000E+00
  0.00000000E+00  0.00000000E+00  0.00000000E+00
  0.00000000E+00  0.00000000E+00  0.00000000E+00
  0.00000000E+00  0.00000000E+00  0.00000000E+00
  0.00000000E+00  0.00000000E+00  0.00000000E+00
  0.00000000E+00  0.00000000E+00  0.00000000E+00
  0.00000000E+00  0.00000000E+00  0.00000000E+00
  0.00000000E+00  0.00000000E+00  0.00000000E+00
  0.00000000E+00  0.00000000E+00  0.00000000E+00
  0.00000000E+00  0.00000000E+00  0.00000000E+00
  0.00000000E+00  0.00000000E+00  0.00000000E+00
  0.00000000E+00  0.00000000E+00  0.00000000E+00
  0.00000000E+00  0.00000000E+00  0.00000000E+00
  0.00000000E+00  0.00000000E+00  0.00000000E+00
  0.00000000E+00  0.00000000E+00  0.00000000E+00
  0.00000000E+00  0.00000000E+00  0.00000000E+00
  0.00000000E+00  0.00000000E+00  0.00000000E+00
  0.00000000E+00  0.00000000E+00  0.00000000E+00
