Title                                   
   1.00000000000000     
     9.8694509999999998    0.0000000000000000    0.0000000000000000
     0.0000000000000000    8.5490480000000009    0.0000000000000000
     0.0000000000000000    0.0000000000000000   20.0000000000000000
    29     2     1
Selective dynamics
Direct
  0.0563392080103371  0.0902392943680638  0.0820008534239215   T   T   T
  0.9312473263736921  0.1732649802021526  0.0831088807725465   T   T   T
  0.0572623511829080  0.9238075792454514  0.0826726020333451   T   T   T
  0.9307562475623199  0.3405956139656738  0.0860508759331865   T   T   T
  0.0571182054276880  0.5906548873026478  0.0844822220069100   T   T   T
  0.9322308384571389  0.6731107875299215  0.0873826816444825   T   T   T
  0.0572595277674436  0.4232643240522236  0.0845623178096391   T   T   T
  0.9321719571409726  0.8398515276489268  0.0852163296062822   T   T   T
  0.3057695211546366  0.0882978623491691  0.0876682826002093   T   T   T
  0.1827059143851453  0.1724741437135482  0.0843317007342917   T   T   T
  0.1825044632836876  0.3400365284525044  0.0866879424059908   T   T   T
  0.3039896732920761  0.5891226400627623  0.1011636579639608   T   T   T
  0.1823966697472339  0.6740346429861664  0.0880174349295561   T   T   T
  0.3064727574967828  0.4214904871084407  0.0980647868571950   T   T   T
  0.1822354886951879  0.8411779923777583  0.0860450887172568   T   T   T
  0.5551570837407692  0.0870627302679989  0.0936225500382731   T   T   T
  0.5544781729517765  0.9235933640051106  0.1004552063739028   T   T   T
  0.4303363904313141  0.3326263476676970  0.1047650897120772   T   T   T
  0.4266180044482470  0.8415173745463512  0.1044299305814959   T   T   T
  0.8060907199634416  0.0890906865819898  0.0850816434586395   T   T   T
  0.6803622162856774  0.1713746271123358  0.0908978048509470   T   T   T
  0.8065740995432609  0.9234755065982932  0.0879865541016443   T   T   T
  0.6819742903233170  0.3351957334911277  0.1013345367569022   T   T   T
  0.8088780053773724  0.5909569401888861  0.0994705473077521   T   T   T
  0.8064746210304590  0.4222264237206402  0.0963258651362247   T   T   T
  0.6827730641999444  0.8420082505024309  0.1008352739174626   T   T   T
  0.4178237536698955  0.6818495263631077  0.1203780076009745   T   T   T
  0.5556587067594733  0.4039451795134973  0.1203502749461143   T   T   T
  0.6925171664053514  0.6801626875351056  0.1169342361920513   T   T   T
  0.3060376777522549  0.9257163124452138  0.0898468189081791   T   T   T
  0.4295227029975853  0.1685353838620077  0.0932862321258104   T   T   T
  0.5579021741426173  0.5894856342327962  0.1722187705527911   T   T   T
 
  0.00000000E+00  0.00000000E+00  0.00000000E+00
  0.00000000E+00  0.00000000E+00  0.00000000E+00
  0.00000000E+00  0.00000000E+00  0.00000000E+00
  0.00000000E+00  0.00000000E+00  0.00000000E+00
  0.00000000E+00  0.00000000E+00  0.00000000E+00
  0.00000000E+00  0.00000000E+00  0.00000000E+00
  0.00000000E+00  0.00000000E+00  0.00000000E+00
  0.00000000E+00  0.00000000E+00  0.00000000E+00
  0.00000000E+00  0.00000000E+00  0.00000000E+00
  0.00000000E+00  0.00000000E+00  0.00000000E+00
  0.00000000E+00  0.00000000E+00  0.00000000E+00
  0.00000000E+00  0.00000000E+00  0.00000000E+00
  0.00000000E+00  0.00000000E+00  0.00000000E+00
  0.00000000E+00  0.00000000E+00  0.00000000E+00
  0.00000000E+00  0.00000000E+00  0.00000000E+00
  0.00000000E+00  0.00000000E+00  0.00000000E+00
  0.00000000E+00  0.00000000E+00  0.00000000E+00
  0.00000000E+00  0.00000000E+00  0.00000000E+00
  0.00000000E+00  0.00000000E+00  0.00000000E+00
  0.00000000E+00  0.00000000E+00  0.00000000E+00
  0.00000000E+00  0.00000000E+00  0.00000000E+00
  0.00000000E+00  0.00000000E+00  0.00000000E+00
  0.00000000E+00  0.00000000E+00  0.00000000E+00
  0.00000000E+00  0.00000000E+00  0.00000000E+00
  0.00000000E+00  0.00000000E+00  0.00000000E+00
  0.00000000E+00  0.00000000E+00  0.00000000E+00
  0.00000000E+00  0.00000000E+00  0.00000000E+00
  0.00000000E+00  0.00000000E+00  0.00000000E+00
  0.00000000E+00  0.00000000E+00  0.00000000E+00
  0.00000000E+00  0.00000000E+00  0.00000000E+00
  0.00000000E+00  0.00000000E+00  0.00000000E+00
  0.00000000E+00  0.00000000E+00  0.00000000E+00
