Title                                   
   1.00000000000000     
     4.9440799999999996    0.0000000000000000    0.0000000000000000
     0.0000000000000000   17.1295089999999988    0.0000000000000000
     0.0000000000000000    0.0000000000000000   20.0000000000000000
    30     1     1
Selective dynamics
Direct
 -0.0001697088196690  0.1044832606974580  0.2769720223136196   T   T   T
  0.2498847100586829  0.1459961624389741  0.2825836570135929   T   T   T
  0.2499027047904369  0.2277286432455198  0.2969480426355905   T   T   T
 -0.0000225564626219  0.3483657803144312  0.3246390050453236   T   T   T
 -0.0013109897407423  0.2685359480788425  0.3044321766994426   T   T   T
 -0.0028881476386725  0.6083896878352096  0.3172116441266893   T   T   T
  0.2499229222673614  0.7297942035605137  0.2912509843777080   T   T   T
  0.0002070950057997  0.8540969967756927  0.2741261649381548   T   T   T
  0.2499102415418610  0.8959348956579123  0.2713572827070250   T   T   T
  0.2498715704041199  0.9794304238753975  0.2695305497663866   T   T   T
  0.0003679092250349  0.7712603692741385  0.2837166826085051   T   T   T
  0.4999333686317499  0.1044849957030661  0.2769720060458558   T   T   T
  0.7498914629594691  0.1459780480535378  0.2816788109967279   T   T   T
  0.7499106997150277  0.2279455952902495  0.2948602004226822   T   T   T
  0.4998991228591332  0.0212918734626345  0.2705532783228719   T   T   T
  0.4998221717535744  0.3483650665034196  0.3246392722426360   T   T   T
  0.7499003947292991  0.3937745314695538  0.3313688786047175   T   T   T
  0.7498790011432971  0.4806348948996775  0.3368693682792206   T   T   T
  0.5011257454397415  0.2685355923430927  0.3044324858366773   T   T   T
  0.5027438264077665  0.6084042337728786  0.3172414574291689   T   T   T
  0.7499348641452055  0.7303735006456182  0.2895064094014191   T   T   T
  0.4996233098381889  0.8540954658835036  0.2741198481960217   T   T   T
  0.7499040865018127  0.8957720351760182  0.2710343552416707   T   T   T
  0.7498638003836064  0.9793717691405519  0.2692500382119856   T   T   T
  0.4994848311751053  0.7712578985758726  0.2837106472645872   T   T   T
  0.7499343317692220  0.6489598916618795  0.3051667556410898   T   T   T
  0.2499273097087608  0.6486464659128872  0.3093139649108924   T   T   T
 -0.0001677645174605  0.0212917426239205  0.2705545866950093   T   T   T
  0.5099027601885591  0.5286062106938281  0.3384671849689181   T   T   T
  0.9898992761751075  0.5285865188141995  0.3384126011696813   T   T   T
  0.2499139264909866  0.3810230763633476  0.3414703464625174   T   T   T
  0.2498207238702626  0.4771352212561634  0.4001742914235623   T   T   T
 
  0.00000000E+00  0.00000000E+00  0.00000000E+00
  0.00000000E+00  0.00000000E+00  0.00000000E+00
  0.00000000E+00  0.00000000E+00  0.00000000E+00
  0.00000000E+00  0.00000000E+00  0.00000000E+00
  0.00000000E+00  0.00000000E+00  0.00000000E+00
  0.00000000E+00  0.00000000E+00  0.00000000E+00
  0.00000000E+00  0.00000000E+00  0.00000000E+00
  0.00000000E+00  0.00000000E+00  0.00000000E+00
  0.00000000E+00  0.00000000E+00  0.00000000E+00
  0.00000000E+00  0.00000000E+00  0.00000000E+00
  0.00000000E+00  0.00000000E+00  0.00000000E+00
  0.00000000E+00  0.00000000E+00  0.00000000E+00
  0.00000000E+00  0.00000000E+00  0.00000000E+00
  0.00000000E+00  0.00000000E+00  0.00000000E+00
  0.00000000E+00  0.00000000E+00  0.00000000E+00
  0.00000000E+00  0.00000000E+00  0.00000000E+00
  0.00000000E+00  0.00000000E+00  0.00000000E+00
  0.00000000E+00  0.00000000E+00  0.00000000E+00
  0.00000000E+00  0.00000000E+00  0.00000000E+00
  0.00000000E+00  0.00000000E+00  0.00000000E+00
  0.00000000E+00  0.00000000E+00  0.00000000E+00
  0.00000000E+00  0.00000000E+00  0.00000000E+00
  0.00000000E+00  0.00000000E+00  0.00000000E+00
  0.00000000E+00  0.00000000E+00  0.00000000E+00
  0.00000000E+00  0.00000000E+00  0.00000000E+00
  0.00000000E+00  0.00000000E+00  0.00000000E+00
  0.00000000E+00  0.00000000E+00  0.00000000E+00
  0.00000000E+00  0.00000000E+00  0.00000000E+00
  0.00000000E+00  0.00000000E+00  0.00000000E+00
  0.00000000E+00  0.00000000E+00  0.00000000E+00
  0.00000000E+00  0.00000000E+00  0.00000000E+00
  0.00000000E+00  0.00000000E+00  0.00000000E+00
