Title                                   
   1.00000000000000     
     9.8694509999999998    0.0000000000000000    0.0000000000000000
     0.0000000000000000    8.5490480000000009    0.0000000000000000
     0.0000000000000000    0.0000000000000000   20.0000000000000000
    29     2     1
Selective dynamics
Direct
  0.0565968938543861  0.0906419413364766  0.0855968296675514   T   T   T
  0.9314276297653696  0.1727735761828325  0.0885150413066347   T   T   T
  0.0558504382140495  0.9234327417370549  0.0855176368747738   T   T   T
  0.9314400355922861  0.3398411215441286  0.0924049757349339   T   T   T
  0.0566193232124834  0.5892901050067544  0.0890831066013763   T   T   T
  0.9319350872109228  0.6723490815162719  0.0921854180989514   T   T   T
  0.0570607069412193  0.4229776855304735  0.0899906673271680   T   T   T
  0.9308483410870625  0.8389025020278448  0.0887278563486453   T   T   T
  0.3057792230314967  0.0899207830407484  0.0870367499787259   T   T   T
  0.1820316516974328  0.1743483141821367  0.0868237385357900   T   T   T
  0.3058836289697103  0.9244355926948904  0.0873894182241115   T   T   T
  0.1830821563841776  0.3417421022367861  0.0898794224758566   T   T   T
  0.3055128834290511  0.5936269913143873  0.0966706087281917   T   T   T
  0.1807158585074190  0.6738120900985367  0.0890299878045866   T   T   T
  0.3086000757890007  0.4255232110427983  0.0961942089240276   T   T   T
  0.1805529635697871  0.8401796023681795  0.0867672526855177   T   T   T
  0.5559027595632540  0.0860547478175682  0.0951857430257535   T   T   T
  0.4316069114735955  0.1697825830156407  0.0929211203073106   T   T   T
  0.4326160558157516  0.3359756432992593  0.1008762944958213   T   T   T
  0.5573802465870253  0.4081969338179260  0.1150049023321535   T   T   T
  0.4283668884178940  0.8406644937953863  0.0959680481373746   T   T   T
  0.8074036444984867  0.0882243313399916  0.0896289251902794   T   T   T
  0.6816690238284047  0.1678804156189308  0.0955505486997048   T   T   T
  0.8055463160892604  0.9226623241456646  0.0899995917888778   T   T   T
  0.6824974978543626  0.3338718020620444  0.1042885612115470   T   T   T
  0.8084924612481406  0.5899843362610900  0.1035710948477308   T   T   T
  0.6891729497948965  0.6797560885209106  0.1158352818353256   T   T   T
  0.8073180654425729  0.4216961794501756  0.1015299352449298   T   T   T
  0.6819297725917065  0.8391009528117599  0.0997718948861314   T   T   T
  0.4225206895708840  0.6832103234285435  0.1078946544613683   T   T   T
  0.5546529476117180  0.9195974631809254  0.0970912725360856   T   T   T
  0.5486258723561991  0.5897899395738696  0.1667442116828088   T   T   T
 
  0.00000000E+00  0.00000000E+00  0.00000000E+00
  0.00000000E+00  0.00000000E+00  0.00000000E+00
  0.00000000E+00  0.00000000E+00  0.00000000E+00
  0.00000000E+00  0.00000000E+00  0.00000000E+00
  0.00000000E+00  0.00000000E+00  0.00000000E+00
  0.00000000E+00  0.00000000E+00  0.00000000E+00
  0.00000000E+00  0.00000000E+00  0.00000000E+00
  0.00000000E+00  0.00000000E+00  0.00000000E+00
  0.00000000E+00  0.00000000E+00  0.00000000E+00
  0.00000000E+00  0.00000000E+00  0.00000000E+00
  0.00000000E+00  0.00000000E+00  0.00000000E+00
  0.00000000E+00  0.00000000E+00  0.00000000E+00
  0.00000000E+00  0.00000000E+00  0.00000000E+00
  0.00000000E+00  0.00000000E+00  0.00000000E+00
  0.00000000E+00  0.00000000E+00  0.00000000E+00
  0.00000000E+00  0.00000000E+00  0.00000000E+00
  0.00000000E+00  0.00000000E+00  0.00000000E+00
  0.00000000E+00  0.00000000E+00  0.00000000E+00
  0.00000000E+00  0.00000000E+00  0.00000000E+00
  0.00000000E+00  0.00000000E+00  0.00000000E+00
  0.00000000E+00  0.00000000E+00  0.00000000E+00
  0.00000000E+00  0.00000000E+00  0.00000000E+00
  0.00000000E+00  0.00000000E+00  0.00000000E+00
  0.00000000E+00  0.00000000E+00  0.00000000E+00
  0.00000000E+00  0.00000000E+00  0.00000000E+00
  0.00000000E+00  0.00000000E+00  0.00000000E+00
  0.00000000E+00  0.00000000E+00  0.00000000E+00
  0.00000000E+00  0.00000000E+00  0.00000000E+00
  0.00000000E+00  0.00000000E+00  0.00000000E+00
  0.00000000E+00  0.00000000E+00  0.00000000E+00
  0.00000000E+00  0.00000000E+00  0.00000000E+00
  0.00000000E+00  0.00000000E+00  0.00000000E+00
