Title                                   
   1.00000000000000     
     8.5490480000000009    0.0000000000000000    0.0000000000000000
     0.0000000000000000    8.5490480000000009    0.0000000000000000
     0.0000000000000000    0.0000000000000000   20.0000000000000000
    20     4     1
Selective dynamics
Direct
  0.9100141259391236  0.2068358852070539  0.0977629478930102   T   T   T
  0.9115748393651939  0.8011341237232144  0.0977723991678883   T   T   T
  0.1999520615302730  0.0825198310810805  0.0979769269961318   T   T   T
  0.0751018478472617  0.2036438459066143  0.0979397490402506   T   T   T
  0.1559098742625757  0.6503500654549099  0.0980001061625760   T   T   T
  0.0741279810103485  0.5024973401846395  0.0980192481352029   T   T   T
  0.1561665759044868  0.3559675944416154  0.0980438764013015   T   T   T
  0.0789279851622719  0.7998591799604758  0.0978740809839689   T   T   T
  0.3473413869867716  0.1639340127099835  0.0979964036560834   T   T   T
  0.4938636496521220  0.9153738450531466  0.0979729378464500   T   T   T
  0.3466986693936391  0.8342753902654922  0.0981007217429877   T   T   T
  0.7870564365592333  0.0847870646449270  0.0976501221974678   T   T   T
  0.6390684439819065  0.1645524254968743  0.0977699850841770   T   T   T
  0.7903419258829902  0.9189050393857031  0.0977324540222652   T   T   T
  0.8286830291864399  0.6519527040082279  0.0979582626661416   T   T   T
  0.8246506694240092  0.3571383919502024  0.0978588117506318   T   T   T
  0.6423585678366879  0.8358106189370218  0.0979294323788235   T   T   T
  0.3250708459725756  0.3340508845670193  0.0980648261088797   T   T   T
  0.3230724554682891  0.6700817310173268  0.0981263907993342   T   T   T
  0.6593304855981649  0.3342230176944048  0.0979057684334437   T   T   T
  0.4952406272453903  0.0838188015262329  0.0979620238134856   T   T   T
  0.9052150998341737  0.5040378786740429  0.0980056096531637   T   T   T
  0.6679751897273213  0.6735575828635543  0.0980847998168246   T   T   T
  0.1970276534478730  0.9170206552863875  0.0980402190174991   T   T   T
  0.4906415727808707  0.4984620899598627  0.0981568962319938   T   T   T
 
  0.00000000E+00  0.00000000E+00  0.00000000E+00
  0.00000000E+00  0.00000000E+00  0.00000000E+00
  0.00000000E+00  0.00000000E+00  0.00000000E+00
  0.00000000E+00  0.00000000E+00  0.00000000E+00
  0.00000000E+00  0.00000000E+00  0.00000000E+00
  0.00000000E+00  0.00000000E+00  0.00000000E+00
  0.00000000E+00  0.00000000E+00  0.00000000E+00
  0.00000000E+00  0.00000000E+00  0.00000000E+00
  0.00000000E+00  0.00000000E+00  0.00000000E+00
  0.00000000E+00  0.00000000E+00  0.00000000E+00
  0.00000000E+00  0.00000000E+00  0.00000000E+00
  0.00000000E+00  0.00000000E+00  0.00000000E+00
  0.00000000E+00  0.00000000E+00  0.00000000E+00
  0.00000000E+00  0.00000000E+00  0.00000000E+00
  0.00000000E+00  0.00000000E+00  0.00000000E+00
  0.00000000E+00  0.00000000E+00  0.00000000E+00
  0.00000000E+00  0.00000000E+00  0.00000000E+00
  0.00000000E+00  0.00000000E+00  0.00000000E+00
  0.00000000E+00  0.00000000E+00  0.00000000E+00
  0.00000000E+00  0.00000000E+00  0.00000000E+00
  0.00000000E+00  0.00000000E+00  0.00000000E+00
  0.00000000E+00  0.00000000E+00  0.00000000E+00
  0.00000000E+00  0.00000000E+00  0.00000000E+00
  0.00000000E+00  0.00000000E+00  0.00000000E+00
  0.00000000E+00  0.00000000E+00  0.00000000E+00
