Title                                   
   1.00000000000000     
     9.8694509999999998    0.0000000000000000    0.0000000000000000
     0.0000000000000000    8.5490480000000009    0.0000000000000000
     0.0000000000000000    0.0000000000000000   20.0000000000000000
    27     4     1
Selective dynamics
Direct
  0.0555643764752492  0.0927454493917866  0.0902935310449189   T   T   T
  0.9306333308966066  0.1746768968191668  0.0914379367190192   T   T   T
  0.0567224734923058  0.9256163587434200  0.0898987728171723   T   T   T
  0.9293109122630636  0.3424543003482708  0.0934393436126912   T   T   T
  0.0563636391646661  0.5908602557036656  0.0904023989069906   T   T   T
  0.9321486562206789  0.6739733171505339  0.0927466289807250   T   T   T
  0.0567145615291677  0.4238910372721028  0.0911618487151045   T   T   T
  0.9324852671429099  0.8404841242829360  0.0917340153923226   T   T   T
  0.3052910659774989  0.0882826299825063  0.0908639903839506   T   T   T
  0.1817270470231223  0.1743661769779722  0.0906399402249997   T   T   T
  0.1839415046443762  0.3417034489949103  0.0908034920034090   T   T   T
  0.3070180983502953  0.5942592294976213  0.0903321408259719   T   T   T
  0.1808491074470042  0.6753104195940489  0.0894463129248475   T   T   T
  0.3105293659416083  0.4258589501884872  0.0920890653657565   T   T   T
  0.1806011043070311  0.8416728305999015  0.0894561756855508   T   T   T
  0.5561338698805584  0.0829808583989380  0.0936012787271855   T   T   T
  0.4313021531990722  0.1678747820214738  0.0927296619969598   T   T   T
  0.5548767023237515  0.9163688754069282  0.0942511684749900   T   T   T
  0.4349600564057400  0.3352168968960080  0.0962626839434146   T   T   T
  0.4261732871539681  0.8353049878450068  0.0914373263335192   T   T   T
  0.8063276388588966  0.0887984461704594  0.0916785416217888   T   T   T
  0.6804520983729561  0.1688864428683325  0.0940185710517628   T   T   T
  0.8070240461903201  0.9229954308105478  0.0927902554234923   T   T   T
  0.6769065863299136  0.3352084894338879  0.0994638039116297   T   T   T
  0.8059251613022994  0.5938436658522644  0.0996452105966654   T   T   T
  0.8028066990137800  0.4247949600894424  0.0985181765643176   T   T   T
  0.6838719444496051  0.8350125727664228  0.0980288262674354   T   T   T
  0.4232403944589841  0.6801777673635991  0.0910505549046726   T   T   T
  0.5557817148938383  0.4094647285011133  0.1047864694033184   T   T   T
  0.6896959091391438  0.6777361426525732  0.1070705326067349   T   T   T
  0.3041820950923089  0.9248585917777538  0.0904308587815146   T   T   T
  0.5600781320592847  0.5845669355979216  0.1851654857871841   T   T   T
 
  0.00000000E+00  0.00000000E+00  0.00000000E+00
  0.00000000E+00  0.00000000E+00  0.00000000E+00
  0.00000000E+00  0.00000000E+00  0.00000000E+00
  0.00000000E+00  0.00000000E+00  0.00000000E+00
  0.00000000E+00  0.00000000E+00  0.00000000E+00
  0.00000000E+00  0.00000000E+00  0.00000000E+00
  0.00000000E+00  0.00000000E+00  0.00000000E+00
  0.00000000E+00  0.00000000E+00  0.00000000E+00
  0.00000000E+00  0.00000000E+00  0.00000000E+00
  0.00000000E+00  0.00000000E+00  0.00000000E+00
  0.00000000E+00  0.00000000E+00  0.00000000E+00
  0.00000000E+00  0.00000000E+00  0.00000000E+00
  0.00000000E+00  0.00000000E+00  0.00000000E+00
  0.00000000E+00  0.00000000E+00  0.00000000E+00
  0.00000000E+00  0.00000000E+00  0.00000000E+00
  0.00000000E+00  0.00000000E+00  0.00000000E+00
  0.00000000E+00  0.00000000E+00  0.00000000E+00
  0.00000000E+00  0.00000000E+00  0.00000000E+00
  0.00000000E+00  0.00000000E+00  0.00000000E+00
  0.00000000E+00  0.00000000E+00  0.00000000E+00
  0.00000000E+00  0.00000000E+00  0.00000000E+00
  0.00000000E+00  0.00000000E+00  0.00000000E+00
  0.00000000E+00  0.00000000E+00  0.00000000E+00
  0.00000000E+00  0.00000000E+00  0.00000000E+00
  0.00000000E+00  0.00000000E+00  0.00000000E+00
  0.00000000E+00  0.00000000E+00  0.00000000E+00
  0.00000000E+00  0.00000000E+00  0.00000000E+00
  0.00000000E+00  0.00000000E+00  0.00000000E+00
  0.00000000E+00  0.00000000E+00  0.00000000E+00
  0.00000000E+00  0.00000000E+00  0.00000000E+00
  0.00000000E+00  0.00000000E+00  0.00000000E+00
  0.00000000E+00  0.00000000E+00  0.00000000E+00
