Title                                   
   1.00000000000000     
     4.9440799999999996    0.0000000000000000    0.0000000000000000
     0.0000000000000000   17.1295089999999988    0.0000000000000000
     0.0000000000000000    0.0000000000000000   20.0000000000000000
    28     3     1
Selective dynamics
Direct
 -0.0000970003955795  0.1042665105613546  0.2868376345373747   T   T   T
  0.2498268453762434  0.1460296775927032  0.2895751650967399   T   T   T
  0.2498866540715540  0.2291140879747689  0.2974092558958183   T   T   T
  0.0031215581005256  0.3524354963046261  0.3147679373134014   T   T   T
 -0.0009660781442634  0.2704120269584990  0.3016327430091508   T   T   T
 -0.0049886315877034  0.6039040473616879  0.3069334460482334   T   T   T
  0.2498731970503583  0.7277720440070986  0.2944136783514862   T   T   T
  0.0004698855619415  0.8535974816089580  0.2860105692169594   T   T   T
  0.2498336131822460  0.8955587431072434  0.2847731535756580   T   T   T
  0.2497975920143532  0.9790741070743247  0.2837503931717912   T   T   T
  0.0008453620173896  0.7701754954898834  0.2904310634828340   T   T   T
  0.4997707541113771  0.1042682387215770  0.2868352964049005   T   T   T
  0.7498477698532670  0.1460950909537110  0.2889677780618963   T   T   T
  0.7498945356947297  0.2289463600056501  0.2958086728522834   T   T   T
  0.4998589485601966  0.0208415205023887  0.2840420067842477   T   T   T
  0.4968019348406277  0.3524304589965518  0.3147446885591283   T   T   T
  0.7499743282639483  0.3977481652770817  0.3180985021330164   T   T   T
  0.7499909560127284  0.4836128802943818  0.3180499943793416   T   T   T
  0.5007998704387332  0.2704169563376878  0.3016195657151126   T   T   T
  0.5047865247641132  0.6038997038140257  0.3068477918899308   T   T   T
  0.7498633748667274  0.7292377943907746  0.2925711246701233   T   T   T
  0.4991856767662597  0.8535927096548447  0.2859974593317651   T   T   T
  0.7498266153224473  0.8953036222214462  0.2844715422875000   T   T   T
  0.7498032762187975  0.9788348717575589  0.2834880077188507   T   T   T
  0.4988664485018399  0.7701738256144307  0.2904086879631206   T   T   T
  0.7498872993225966  0.6465699517722187  0.2997909858017965   T   T   T
  0.2498847946331053  0.6441551769512092  0.3033821437212844   T   T   T
 -0.0002444701692213  0.0208415791418519  0.2840467469591028   T   T   T
  0.5129349628606951  0.5247422923244903  0.3179451817795954   T   T   T
  0.9868569996570535  0.5248098930640759  0.3183240453253655   T   T   T
  0.2499725754183929  0.3871918202212657  0.3259862247586474   T   T   T
  0.2506568268145256  0.4824983699416227  0.3846035132034955   T   T   T
 
  0.00000000E+00  0.00000000E+00  0.00000000E+00
  0.00000000E+00  0.00000000E+00  0.00000000E+00
  0.00000000E+00  0.00000000E+00  0.00000000E+00
  0.00000000E+00  0.00000000E+00  0.00000000E+00
  0.00000000E+00  0.00000000E+00  0.00000000E+00
  0.00000000E+00  0.00000000E+00  0.00000000E+00
  0.00000000E+00  0.00000000E+00  0.00000000E+00
  0.00000000E+00  0.00000000E+00  0.00000000E+00
  0.00000000E+00  0.00000000E+00  0.00000000E+00
  0.00000000E+00  0.00000000E+00  0.00000000E+00
  0.00000000E+00  0.00000000E+00  0.00000000E+00
  0.00000000E+00  0.00000000E+00  0.00000000E+00
  0.00000000E+00  0.00000000E+00  0.00000000E+00
  0.00000000E+00  0.00000000E+00  0.00000000E+00
  0.00000000E+00  0.00000000E+00  0.00000000E+00
  0.00000000E+00  0.00000000E+00  0.00000000E+00
  0.00000000E+00  0.00000000E+00  0.00000000E+00
  0.00000000E+00  0.00000000E+00  0.00000000E+00
  0.00000000E+00  0.00000000E+00  0.00000000E+00
  0.00000000E+00  0.00000000E+00  0.00000000E+00
  0.00000000E+00  0.00000000E+00  0.00000000E+00
  0.00000000E+00  0.00000000E+00  0.00000000E+00
  0.00000000E+00  0.00000000E+00  0.00000000E+00
  0.00000000E+00  0.00000000E+00  0.00000000E+00
  0.00000000E+00  0.00000000E+00  0.00000000E+00
  0.00000000E+00  0.00000000E+00  0.00000000E+00
  0.00000000E+00  0.00000000E+00  0.00000000E+00
  0.00000000E+00  0.00000000E+00  0.00000000E+00
  0.00000000E+00  0.00000000E+00  0.00000000E+00
  0.00000000E+00  0.00000000E+00  0.00000000E+00
  0.00000000E+00  0.00000000E+00  0.00000000E+00
  0.00000000E+00  0.00000000E+00  0.00000000E+00
