Title                                   
   1.00000000000000     
     9.8694509999999998    0.0000000000000000    0.0000000000000000
     0.0000000000000000    8.5490480000000009    0.0000000000000000
     0.0000000000000000    0.0000000000000000   20.0000000000000000
    23     7     1
Selective dynamics
Direct
  0.0556747401103883  0.0895177369845531  0.0961731733441754   T   T   T
  0.9310842656276170  0.1715913642636643  0.0962008300268880   T   T   T
  0.0573218821014645  0.9209704685527762  0.0962959625055756   T   T   T
  0.9321621507959177  0.3389359093883898  0.0959082621134969   T   T   T
  0.0554537679123532  0.5904813918252231  0.0956557030792955   T   T   T
  0.0557256327799746  0.4236909182504250  0.0955755109356087   T   T   T
  0.9314217575850480  0.8385974910037001  0.0962759785352999   T   T   T
  0.3086726552774521  0.0898116146877385  0.0970123461067612   T   T   T
  0.1813511208421583  0.1712280054718371  0.0962849251044809   T   T   T
  0.1804947575409721  0.3390455903538923  0.0959920177867992   T   T   T
  0.3030000407722249  0.5897427383247591  0.0968428355867249   T   T   T
  0.1799042665747480  0.6736909496737733  0.0962034390444419   T   T   T
  0.3040444142286081  0.4214472480636278  0.0967602598781119   T   T   T
  0.1818354510976906  0.8410851772482367  0.0964988593162911   T   T   T
  0.4306369086133007  0.1792876399098033  0.0975014605493127   T   T   T
  0.5553292336795006  0.9187673618183079  0.0976624630692901   T   T   T
  0.4299267408392027  0.8332609720976273  0.0976135829918742   T   T   T
  0.8040105511352953  0.0896284923124605  0.0968249556719497   T   T   T
  0.6819236468305915  0.1808295244878085  0.0973561629353931   T   T   T
  0.8051778265707461  0.9201597388311135  0.0968669055691707   T   T   T
  0.8091090740165852  0.5909163072597045  0.0965993509308206   T   T   T
  0.8095431330427167  0.4214777813319573  0.0965491052981066   T   T   T
  0.6808151343904183  0.8333750754022524  0.0973991522682400   T   T   T
  0.9322907375891311  0.6723458755057472  0.0959600620159517   T   T   T
  0.5567107601146283  0.0968947940432535  0.0977546870226287   T   T   T
  0.4273968825319422  0.3430294577930853  0.0975786937104060   T   T   T
  0.4253945686020443  0.6707771816381179  0.0977422394118015   T   T   T
  0.6854475740857419  0.3441618841174521  0.0974022222053710   T   T   T
  0.6878404327568540  0.6677135063731349  0.0974855032774368   T   T   T
  0.3068977894518460  0.9216157481079339  0.0971677410139855   T   T   T
  0.5565381025028381  0.5067970548776412  0.0978206086943676   T   T   T
 
  0.00000000E+00  0.00000000E+00  0.00000000E+00
  0.00000000E+00  0.00000000E+00  0.00000000E+00
  0.00000000E+00  0.00000000E+00  0.00000000E+00
  0.00000000E+00  0.00000000E+00  0.00000000E+00
  0.00000000E+00  0.00000000E+00  0.00000000E+00
  0.00000000E+00  0.00000000E+00  0.00000000E+00
  0.00000000E+00  0.00000000E+00  0.00000000E+00
  0.00000000E+00  0.00000000E+00  0.00000000E+00
  0.00000000E+00  0.00000000E+00  0.00000000E+00
  0.00000000E+00  0.00000000E+00  0.00000000E+00
  0.00000000E+00  0.00000000E+00  0.00000000E+00
  0.00000000E+00  0.00000000E+00  0.00000000E+00
  0.00000000E+00  0.00000000E+00  0.00000000E+00
  0.00000000E+00  0.00000000E+00  0.00000000E+00
  0.00000000E+00  0.00000000E+00  0.00000000E+00
  0.00000000E+00  0.00000000E+00  0.00000000E+00
  0.00000000E+00  0.00000000E+00  0.00000000E+00
  0.00000000E+00  0.00000000E+00  0.00000000E+00
  0.00000000E+00  0.00000000E+00  0.00000000E+00
  0.00000000E+00  0.00000000E+00  0.00000000E+00
  0.00000000E+00  0.00000000E+00  0.00000000E+00
  0.00000000E+00  0.00000000E+00  0.00000000E+00
  0.00000000E+00  0.00000000E+00  0.00000000E+00
  0.00000000E+00  0.00000000E+00  0.00000000E+00
  0.00000000E+00  0.00000000E+00  0.00000000E+00
  0.00000000E+00  0.00000000E+00  0.00000000E+00
  0.00000000E+00  0.00000000E+00  0.00000000E+00
  0.00000000E+00  0.00000000E+00  0.00000000E+00
  0.00000000E+00  0.00000000E+00  0.00000000E+00
  0.00000000E+00  0.00000000E+00  0.00000000E+00
  0.00000000E+00  0.00000000E+00  0.00000000E+00
