Title                                   
   1.00000000000000     
     9.8694509999999998    0.0000000000000000    0.0000000000000000
     0.0000000000000000    8.5490480000000009    0.0000000000000000
     0.0000000000000000    0.0000000000000000   20.0000000000000000
    25     6     1
Selective dynamics
Direct
  0.0562428550888874  0.0932097952424718  0.0885363057510893   T   T   T
  0.9300818107486920  0.1756830093223043  0.0906491868588098   T   T   T
  0.0562294937501972  0.9243991874377896  0.0870227137595501   T   T   T
  0.9296273250429734  0.3416779993579908  0.0940087528583666   T   T   T
  0.0561859368711520  0.5899757227663838  0.0887098269975918   T   T   T
  0.9320431240551283  0.6717027885427398  0.0896841825114144   T   T   T
  0.0562244510037891  0.4231197511149676  0.0925535195023425   T   T   T
  0.9314709633196453  0.8399295524994329  0.0884574269600189   T   T   T
  0.3054284911306537  0.0893873967955621  0.0886477959992563   T   T   T
  0.1824291482359987  0.1756430643588751  0.0898796969776531   T   T   T
  0.3059568055007543  0.9239159236010194  0.0887031750411980   T   T   T
  0.1828597626907552  0.3416386072722723  0.0930151744174276   T   T   T
  0.3061963597015245  0.5934807342617774  0.0959117980500444   T   T   T
  0.1803924747454272  0.6716986086760217  0.0885706202867695   T   T   T
  0.1810524811137869  0.8399168231415168  0.0875229053136266   T   T   T
  0.5562208227764517  0.0846059603284146  0.0955702690454837   T   T   T
  0.4314119568761096  0.1687873488199208  0.0934976195452052   T   T   T
  0.4349578174123813  0.3340875840780048  0.0996532220713136   T   T   T
  0.4272994279570071  0.8370960663230816  0.0959384303994160   T   T   T
  0.8071104518112383  0.0894532190076503  0.0896409697250095   T   T   T
  0.6810935989013341  0.1688999643352551  0.0942026963636169   T   T   T
  0.8066611029567557  0.9239593887794117  0.0897978966351149   T   T   T
  0.6775150557908547  0.3341932151947984  0.1005715452617507   T   T   T
  0.8064944868815045  0.5936056270753887  0.0979990861943055   T   T   T
  0.6853549029222264  0.8372469119034014  0.0972135023610979   T   T   T
  0.4200963200253621  0.6797954011667415  0.1066184370641433   T   T   T
  0.5560491867403500  0.4060071793582899  0.1120873424453692   T   T   T
  0.6929689465929066  0.6803385076050574  0.1092137062263355   T   T   T
  0.5562941813224174  0.9155986629994599  0.0962926454580094   T   T   T
  0.3113994718498775  0.4245818859026663  0.0962706603656260   T   T   T
  0.8012077081857191  0.4246816628269591  0.0981685244861889   T   T   T
  0.5550820779981441  0.5919284499043758  0.1610653650668711   T   T   T
 
  0.00000000E+00  0.00000000E+00  0.00000000E+00
  0.00000000E+00  0.00000000E+00  0.00000000E+00
  0.00000000E+00  0.00000000E+00  0.00000000E+00
  0.00000000E+00  0.00000000E+00  0.00000000E+00
  0.00000000E+00  0.00000000E+00  0.00000000E+00
  0.00000000E+00  0.00000000E+00  0.00000000E+00
  0.00000000E+00  0.00000000E+00  0.00000000E+00
  0.00000000E+00  0.00000000E+00  0.00000000E+00
  0.00000000E+00  0.00000000E+00  0.00000000E+00
  0.00000000E+00  0.00000000E+00  0.00000000E+00
  0.00000000E+00  0.00000000E+00  0.00000000E+00
  0.00000000E+00  0.00000000E+00  0.00000000E+00
  0.00000000E+00  0.00000000E+00  0.00000000E+00
  0.00000000E+00  0.00000000E+00  0.00000000E+00
  0.00000000E+00  0.00000000E+00  0.00000000E+00
  0.00000000E+00  0.00000000E+00  0.00000000E+00
  0.00000000E+00  0.00000000E+00  0.00000000E+00
  0.00000000E+00  0.00000000E+00  0.00000000E+00
  0.00000000E+00  0.00000000E+00  0.00000000E+00
  0.00000000E+00  0.00000000E+00  0.00000000E+00
  0.00000000E+00  0.00000000E+00  0.00000000E+00
  0.00000000E+00  0.00000000E+00  0.00000000E+00
  0.00000000E+00  0.00000000E+00  0.00000000E+00
  0.00000000E+00  0.00000000E+00  0.00000000E+00
  0.00000000E+00  0.00000000E+00  0.00000000E+00
  0.00000000E+00  0.00000000E+00  0.00000000E+00
  0.00000000E+00  0.00000000E+00  0.00000000E+00
  0.00000000E+00  0.00000000E+00  0.00000000E+00
  0.00000000E+00  0.00000000E+00  0.00000000E+00
  0.00000000E+00  0.00000000E+00  0.00000000E+00
  0.00000000E+00  0.00000000E+00  0.00000000E+00
  0.00000000E+00  0.00000000E+00  0.00000000E+00
