Title                                   
   1.00000000000000     
     8.5490480000000009    0.0000000000000000    0.0000000000000000
     0.0000000000000000    8.5490480000000009    0.0000000000000000
     0.0000000000000000    0.0000000000000000   20.0000000000000000
    20     4     1
Selective dynamics
Direct
  0.9095591328495836  0.2065934093358633  0.0954567964504839   T   T   T
  0.9067008732661451  0.5018146262578639  0.0953103505221189   T   T   T
  0.9095726068738530  0.7969970692026741  0.0954712999664851   T   T   T
  0.1978413573801488  0.0852085304970195  0.0954887712739696   T   T   T
  0.0764609339392004  0.2065686586059433  0.0954683084528835   T   T   T
  0.1978565624059898  0.9183177772964142  0.0954969347527389   T   T   T
  0.1592665209963113  0.6493414188584524  0.0953386824916124   T   T   T
  0.0793698329956398  0.5017866061232024  0.0953310589452871   T   T   T
  0.1592469498690599  0.3542146598349211  0.0953264892110268   T   T   T
  0.0764795167856025  0.7969652721758526  0.0954777521854162   T   T   T
  0.4929917777328246  0.0881257987416006  0.0953544764687849   T   T   T
  0.3454581076111510  0.1680147191925835  0.0953506806732260   T   T   T
  0.4929960378446612  0.9154750713485382  0.0953617301319335   T   T   T
  0.3454759297689591  0.8355438413849861  0.0953604570515969   T   T   T
  0.7881694147098878  0.0852537457016006  0.0954700814293250   T   T   T
  0.6405372130396771  0.1680567574113438  0.0953212461569975   T   T   T
  0.7881856596668960  0.9183560772640258  0.0954775790243119   T   T   T
  0.8267863225774220  0.6493711575400023  0.0953164672736711   T   T   T
  0.8267897608696180  0.3542523204351029  0.0952968215554174   T   T   T
  0.6405460638035315  0.8355658813518024  0.0953342840934261   T   T   T
  0.3226922874850725  0.3314342075369655  0.0951993192379785   T   T   T
  0.3227149744433394  0.6721216856229860  0.0952115918342715   T   T   T
  0.6633413791731680  0.3314712962481703  0.0951727919856960   T   T   T
  0.6633448896145957  0.6721427192566377  0.0951872843155497   T   T   T
  0.4930278942976544  0.5017966927754607  0.0951237445157692   T   T   T
 
  0.00000000E+00  0.00000000E+00  0.00000000E+00
  0.00000000E+00  0.00000000E+00  0.00000000E+00
  0.00000000E+00  0.00000000E+00  0.00000000E+00
  0.00000000E+00  0.00000000E+00  0.00000000E+00
  0.00000000E+00  0.00000000E+00  0.00000000E+00
  0.00000000E+00  0.00000000E+00  0.00000000E+00
  0.00000000E+00  0.00000000E+00  0.00000000E+00
  0.00000000E+00  0.00000000E+00  0.00000000E+00
  0.00000000E+00  0.00000000E+00  0.00000000E+00
  0.00000000E+00  0.00000000E+00  0.00000000E+00
  0.00000000E+00  0.00000000E+00  0.00000000E+00
  0.00000000E+00  0.00000000E+00  0.00000000E+00
  0.00000000E+00  0.00000000E+00  0.00000000E+00
  0.00000000E+00  0.00000000E+00  0.00000000E+00
  0.00000000E+00  0.00000000E+00  0.00000000E+00
  0.00000000E+00  0.00000000E+00  0.00000000E+00
  0.00000000E+00  0.00000000E+00  0.00000000E+00
  0.00000000E+00  0.00000000E+00  0.00000000E+00
  0.00000000E+00  0.00000000E+00  0.00000000E+00
  0.00000000E+00  0.00000000E+00  0.00000000E+00
  0.00000000E+00  0.00000000E+00  0.00000000E+00
  0.00000000E+00  0.00000000E+00  0.00000000E+00
  0.00000000E+00  0.00000000E+00  0.00000000E+00
  0.00000000E+00  0.00000000E+00  0.00000000E+00
  0.00000000E+00  0.00000000E+00  0.00000000E+00
