Title                                   
   1.00000000000000     
     4.9440799999999996    0.0000000000000000    0.0000000000000000
     0.0000000000000000   17.1295089999999988    0.0000000000000000
     0.0000000000000000    0.0000000000000000   20.0000000000000000
    26     4     1
Selective dynamics
Direct
  0.0013850860085371  0.1058551048882918  0.2979746673950226   T   T   T
  0.2503319133457539  0.1487001107079685  0.2986064945380418   T   T   T
  0.2502753191329641  0.2333226948622122  0.2999806296760119   T   T   T
 -0.0020289163100500  0.2744128127919822  0.3007053529169330   T   T   T
 -0.0019904001953618  0.6005254417674577  0.3011556464245196   T   T   T
  0.2503440588152009  0.7262186498209197  0.2990274742586663   T   T   T
  0.0009089103608868  0.8530718016645181  0.2972202430412579   T   T   T
  0.2503560577289017  0.8954224213371763  0.2968233789184136   T   T   T
  0.2503568033221648  0.9795122658979040  0.2967134283797438   T   T   T
  0.0013949181261321  0.7690542111854162  0.2983351130441033   T   T   T
  0.4992707006512705  0.1058546566020413  0.2979866002188222   T   T   T
  0.7503228629112402  0.1478205314685557  0.2985836564136068   T   T   T
  0.7502995519904024  0.2310476229208723  0.2999062470839685   T   T   T
  0.4997774151198537  0.0218442246343523  0.2970381371402342   T   T   T
  0.7502881043498624  0.3945784000760430  0.3025858102710310   T   T   T
  0.7503000138267263  0.4803340611553308  0.3027513411314631   T   T   T
  0.5025790255442172  0.2744034129303294  0.3007242524999287   T   T   T
  0.5026580971516190  0.6005344685899859  0.3011726687885860   T   T   T
  0.7503394979358373  0.7270934704265777  0.2989997493168072   T   T   T
  0.4997742150410858  0.8530767561349456  0.2972270202484534   T   T   T
  0.7503420171916154  0.8954620447271634  0.2969253937788496   T   T   T
  0.7503519042389403  0.9794405070685510  0.2968127003566573   T   T   T
  0.4992909026674708  0.7690514420069438  0.2983398639539158   T   T   T
  0.7503636179566888  0.6438760244581809  0.3003935913452742   T   T   T
  0.2503399207526303  0.6416079154168656  0.3004621975687012   T   T   T
  0.0009036570527931  0.0218522176534247  0.2970242050781723   T   T   T
  0.5157031417298571  0.5208028310322562  0.3024764980597742   T   T   T
  0.9848985315861478  0.5207984758579297  0.3024155750429607   T   T   T
  0.5156256940478745  0.3541290791850903  0.3021740462698436   T   T   T
 -0.0150605739741165  0.3541296416802702  0.3021151368075792   T   T   T
  0.2503049518928574  0.4375087010504401  0.3024028800326086   T   T   T
 
  0.00000000E+00  0.00000000E+00  0.00000000E+00
  0.00000000E+00  0.00000000E+00  0.00000000E+00
  0.00000000E+00  0.00000000E+00  0.00000000E+00
  0.00000000E+00  0.00000000E+00  0.00000000E+00
  0.00000000E+00  0.00000000E+00  0.00000000E+00
  0.00000000E+00  0.00000000E+00  0.00000000E+00
  0.00000000E+00  0.00000000E+00  0.00000000E+00
  0.00000000E+00  0.00000000E+00  0.00000000E+00
  0.00000000E+00  0.00000000E+00  0.00000000E+00
  0.00000000E+00  0.00000000E+00  0.00000000E+00
  0.00000000E+00  0.00000000E+00  0.00000000E+00
  0.00000000E+00  0.00000000E+00  0.00000000E+00
  0.00000000E+00  0.00000000E+00  0.00000000E+00
  0.00000000E+00  0.00000000E+00  0.00000000E+00
  0.00000000E+00  0.00000000E+00  0.00000000E+00
  0.00000000E+00  0.00000000E+00  0.00000000E+00
  0.00000000E+00  0.00000000E+00  0.00000000E+00
  0.00000000E+00  0.00000000E+00  0.00000000E+00
  0.00000000E+00  0.00000000E+00  0.00000000E+00
  0.00000000E+00  0.00000000E+00  0.00000000E+00
  0.00000000E+00  0.00000000E+00  0.00000000E+00
  0.00000000E+00  0.00000000E+00  0.00000000E+00
  0.00000000E+00  0.00000000E+00  0.00000000E+00
  0.00000000E+00  0.00000000E+00  0.00000000E+00
  0.00000000E+00  0.00000000E+00  0.00000000E+00
  0.00000000E+00  0.00000000E+00  0.00000000E+00
  0.00000000E+00  0.00000000E+00  0.00000000E+00
  0.00000000E+00  0.00000000E+00  0.00000000E+00
  0.00000000E+00  0.00000000E+00  0.00000000E+00
  0.00000000E+00  0.00000000E+00  0.00000000E+00
  0.00000000E+00  0.00000000E+00  0.00000000E+00
