Title                                   
   1.00000000000000     
     4.9440799999999996    0.0000000000000000    0.0000000000000000
     0.0000000000000000   17.1295089999999988    0.0000000000000000
     0.0000000000000000    0.0000000000000000   20.0000000000000000
    27     3     1
Selective dynamics
Direct
  0.0006367576240913  0.1055609199892697  0.2972734614516812   T   T   T
  0.2503978492541353  0.1483076951446808  0.2981192659640419   T   T   T
  0.2509025960069463  0.2325737998352123  0.2999855567972870   T   T   T
 -0.0036482991482570  0.2723301420804485  0.3003070842931628   T   T   T
 -0.0035075065214605  0.6016090609712470  0.3011049119741229   T   T   T
  0.2484593407790415  0.7273290766614527  0.2986557800160978   T   T   T
 -0.0004845890914721  0.8537603583139542  0.2969530661583917   T   T   T
  0.2494866356496979  0.8957068579104444  0.2967625956282797   T   T   T
  0.2495865145407115  0.9794395240442089  0.2965714894406897   T   T   T
 -0.0005793497269735  0.7699705312839749  0.2978188686160754   T   T   T
  0.4990553318308439  0.1053454028372613  0.2973662011270775   T   T   T
  0.7494495592890917  0.1465707910793101  0.2977116585284993   T   T   T
  0.7493035973667217  0.2300749655611007  0.2992524137208120   T   T   T
  0.4991574785385836  0.0215197341004629  0.2966518826239168   T   T   T
  0.7564967372654968  0.3914980687653990  0.3028684800203358   T   T   T
  0.7559410742587565  0.4812962705014430  0.3029352033946177   T   T   T
  0.5042101165439996  0.2736562467416937  0.3010147370702066   T   T   T
  0.5007723315909512  0.6025829447361200  0.3013793300218386   T   T   T
  0.7497567991689242  0.7283161169056246  0.2983434926629184   T   T   T
  0.4992756258290615  0.8536271565818018  0.2969839926456407   T   T   T
  0.7493784219496545  0.8956859454387153  0.2966474161974057   T   T   T
  0.7496400161763088  0.9796898022140790  0.2964541683682060   T   T   T
  0.4989717906897059  0.7696541707286156  0.2978708648520256   T   T   T
  0.7485818644186381  0.6445864317107838  0.2999374422694282   T   T   T
  0.2488731133666542  0.6433662360721455  0.3005078126977149   T   T   T
  0.0001541565818022  0.0216386278157513  0.2965939470334868   T   T   T
  0.5110380081593899  0.5194956436228485  0.3039089879564332   T   T   T
  0.9905672304053080  0.5209008856503416  0.3026723001690918   T   T   T
  0.5182787664434875  0.3544848803656898  0.3037761570848261   T   T   T
 -0.0132967550527424  0.3520569243870725  0.3017448438247450   T   T   T
  0.2531517858129029  0.4387067879488447  0.3068865873908936   T   T   T
 
  0.00000000E+00  0.00000000E+00  0.00000000E+00
  0.00000000E+00  0.00000000E+00  0.00000000E+00
  0.00000000E+00  0.00000000E+00  0.00000000E+00
  0.00000000E+00  0.00000000E+00  0.00000000E+00
  0.00000000E+00  0.00000000E+00  0.00000000E+00
  0.00000000E+00  0.00000000E+00  0.00000000E+00
  0.00000000E+00  0.00000000E+00  0.00000000E+00
  0.00000000E+00  0.00000000E+00  0.00000000E+00
  0.00000000E+00  0.00000000E+00  0.00000000E+00
  0.00000000E+00  0.00000000E+00  0.00000000E+00
  0.00000000E+00  0.00000000E+00  0.00000000E+00
  0.00000000E+00  0.00000000E+00  0.00000000E+00
  0.00000000E+00  0.00000000E+00  0.00000000E+00
  0.00000000E+00  0.00000000E+00  0.00000000E+00
  0.00000000E+00  0.00000000E+00  0.00000000E+00
  0.00000000E+00  0.00000000E+00  0.00000000E+00
  0.00000000E+00  0.00000000E+00  0.00000000E+00
  0.00000000E+00  0.00000000E+00  0.00000000E+00
  0.00000000E+00  0.00000000E+00  0.00000000E+00
  0.00000000E+00  0.00000000E+00  0.00000000E+00
  0.00000000E+00  0.00000000E+00  0.00000000E+00
  0.00000000E+00  0.00000000E+00  0.00000000E+00
  0.00000000E+00  0.00000000E+00  0.00000000E+00
  0.00000000E+00  0.00000000E+00  0.00000000E+00
  0.00000000E+00  0.00000000E+00  0.00000000E+00
  0.00000000E+00  0.00000000E+00  0.00000000E+00
  0.00000000E+00  0.00000000E+00  0.00000000E+00
  0.00000000E+00  0.00000000E+00  0.00000000E+00
  0.00000000E+00  0.00000000E+00  0.00000000E+00
  0.00000000E+00  0.00000000E+00  0.00000000E+00
  0.00000000E+00  0.00000000E+00  0.00000000E+00
