Title                                   
   1.00000000000000     
     8.5490480000000009    0.0000000000000000    0.0000000000000000
     0.0000000000000000    8.5490480000000009    0.0000000000000000
     0.0000000000000000    0.0000000000000000   20.0000000000000000
    17     7     1
Selective dynamics
Direct
  0.9077101209508932  0.2055279319974923  0.0975055795248085   T   T   T
  0.9107148434057875  0.8014265054761029  0.0975487398020468   T   T   T
  0.1965124409533259  0.0831837872411312  0.0976248328165010   T   T   T
  0.0765845543183772  0.2003336599833999  0.0975480337917992   T   T   T
  0.1582621324291161  0.6520136638197448  0.0977627919607563   T   T   T
  0.0786102958719949  0.5000423228079007  0.0977886938552981   T   T   T
  0.1581883626718947  0.3497439023468733  0.0977368870696973   T   T   T
  0.0788311503050761  0.7991533317534182  0.0975990096886840   T   T   T
  0.3440312784800028  0.1664580539741536  0.0978206941596783   T   T   T
  0.4933967063137358  0.9175370762807440  0.0978049274944976   T   T   T
  0.3431274463620186  0.8362014882392194  0.0978251288849154   T   T   T
  0.7877848879718975  0.0868835188216084  0.0975452275440049   T   T   T
  0.6413871996934728  0.1696763494307256  0.0977660209219543   T   T   T
  0.7904814012218900  0.9187220920778776  0.0975532676708646   T   T   T
  0.8280723513071577  0.6515495968260083  0.0977414592941802   T   T   T
  0.8260677791996045  0.3528438018018781  0.0977118839961316   T   T   T
  0.6427391150568171  0.8363142130953946  0.0977251565522786   T   T   T
  0.4929646502900902  0.0893313129980660  0.0979132891382661   T   T   T
  0.9063102603010443  0.5024168138838183  0.0978638838574686   T   T   T
  0.3211670456916437  0.3258692955164607  0.0979619439979054   T   T   T
  0.3198931017379719  0.6780486743672249  0.0979022484302907   T   T   T
  0.6644491236014567  0.3307412462990774  0.0979355730245807   T   T   T
  0.6683031641264690  0.6732126757380139  0.0978709982961988   T   T   T
  0.1967065005988649  0.9155207782550863  0.0976832627527573   T   T   T
  0.4931160871393896  0.5020379069685771  0.0979654654744161   T   T   T
 
  0.00000000E+00  0.00000000E+00  0.00000000E+00
  0.00000000E+00  0.00000000E+00  0.00000000E+00
  0.00000000E+00  0.00000000E+00  0.00000000E+00
  0.00000000E+00  0.00000000E+00  0.00000000E+00
  0.00000000E+00  0.00000000E+00  0.00000000E+00
  0.00000000E+00  0.00000000E+00  0.00000000E+00
  0.00000000E+00  0.00000000E+00  0.00000000E+00
  0.00000000E+00  0.00000000E+00  0.00000000E+00
  0.00000000E+00  0.00000000E+00  0.00000000E+00
  0.00000000E+00  0.00000000E+00  0.00000000E+00
  0.00000000E+00  0.00000000E+00  0.00000000E+00
  0.00000000E+00  0.00000000E+00  0.00000000E+00
  0.00000000E+00  0.00000000E+00  0.00000000E+00
  0.00000000E+00  0.00000000E+00  0.00000000E+00
  0.00000000E+00  0.00000000E+00  0.00000000E+00
  0.00000000E+00  0.00000000E+00  0.00000000E+00
  0.00000000E+00  0.00000000E+00  0.00000000E+00
  0.00000000E+00  0.00000000E+00  0.00000000E+00
  0.00000000E+00  0.00000000E+00  0.00000000E+00
  0.00000000E+00  0.00000000E+00  0.00000000E+00
  0.00000000E+00  0.00000000E+00  0.00000000E+00
  0.00000000E+00  0.00000000E+00  0.00000000E+00
  0.00000000E+00  0.00000000E+00  0.00000000E+00
  0.00000000E+00  0.00000000E+00  0.00000000E+00
  0.00000000E+00  0.00000000E+00  0.00000000E+00
