Title                                   
   1.00000000000000     
     9.8694509999999998    0.0000000000000000    0.0000000000000000
     0.0000000000000000    8.5490480000000009    0.0000000000000000
     0.0000000000000000    0.0000000000000000   20.0000000000000000
    30     1     1
Selective dynamics
Direct
  0.0564702765845671  0.0907012094635874  0.0819310005461246   T   T   T
  0.9313409934518888  0.1727681247833650  0.0844900200806878   T   T   T
  0.0558189887630695  0.9234534740887503  0.0817381465150259   T   T   T
  0.9313661016255764  0.3392754961043530  0.0881544489716293   T   T   T
  0.0565675668072621  0.5889522549137325  0.0845713633680030   T   T   T
  0.9325432784767207  0.6722940585612985  0.0878188371840658   T   T   T
  0.0568785573313970  0.4227183193080136  0.0858322490067141   T   T   T
  0.9313820402401582  0.8390681824111721  0.0850678440854424   T   T   T
  0.3059059382400489  0.0901974220883310  0.0859961129751028   T   T   T
  0.1816206866269952  0.1742020834538706  0.0841668980332305   T   T   T
  0.3045877209401770  0.9240839396115207  0.0869948726733959   T   T   T
  0.1825614431044298  0.3413737438069725  0.0873156341850113   T   T   T
  0.3034961648308908  0.5931526981203786  0.0965604300192902   T   T   T
  0.1801070951692697  0.6737024446816902  0.0858807393926042   T   T   T
  0.3075754408639290  0.4248696566528619  0.0961283404698774   T   T   T
  0.1798751207025202  0.8405230029843568  0.0840784629058479   T   T   T
  0.5557075756694302  0.0863042483251054  0.0942980245677960   T   T   T
  0.4310207953883170  0.1712554852392610  0.0923766400687631   T   T   T
  0.5549656005381843  0.9196544330795865  0.0985472995212072   T   T   T
  0.4315462927696447  0.3364786113148229  0.1017274543895413   T   T   T
  0.5574259563241153  0.4065662390357038  0.1187406802326596   T   T   T
  0.4263299228973095  0.8402715062876863  0.0979441637851758   T   T   T
  0.8067910279289537  0.0885265116546874  0.0868012579031928   T   T   T
  0.6819995827072820  0.1693550494388594  0.0935094811906979   T   T   T
  0.8066168515170307  0.9223547736673831  0.0882611061643478   T   T   T
  0.6831973921952567  0.3340913707788298  0.1035017380970940   T   T   T
  0.8104904104960861  0.5891054965497995  0.1008690228081824   T   T   T
  0.6943793447054430  0.6788531161083782  0.1166591029677503   T   T   T
  0.8077106785737247  0.4210402976663173  0.0989031241207464   T   T   T
  0.6836000435171492  0.8396348041181678  0.1004829137084972   T   T   T
  0.4173785871097339  0.6815999332989012  0.1105655530935645   T   T   T
  0.5523815239034454  0.5938180124022644  0.1757620369687652   T   T   T
 
  0.00000000E+00  0.00000000E+00  0.00000000E+00
  0.00000000E+00  0.00000000E+00  0.00000000E+00
  0.00000000E+00  0.00000000E+00  0.00000000E+00
  0.00000000E+00  0.00000000E+00  0.00000000E+00
  0.00000000E+00  0.00000000E+00  0.00000000E+00
  0.00000000E+00  0.00000000E+00  0.00000000E+00
  0.00000000E+00  0.00000000E+00  0.00000000E+00
  0.00000000E+00  0.00000000E+00  0.00000000E+00
  0.00000000E+00  0.00000000E+00  0.00000000E+00
  0.00000000E+00  0.00000000E+00  0.00000000E+00
  0.00000000E+00  0.00000000E+00  0.00000000E+00
  0.00000000E+00  0.00000000E+00  0.00000000E+00
  0.00000000E+00  0.00000000E+00  0.00000000E+00
  0.00000000E+00  0.00000000E+00  0.00000000E+00
  0.00000000E+00  0.00000000E+00  0.00000000E+00
  0.00000000E+00  0.00000000E+00  0.00000000E+00
  0.00000000E+00  0.00000000E+00  0.00000000E+00
  0.00000000E+00  0.00000000E+00  0.00000000E+00
  0.00000000E+00  0.00000000E+00  0.00000000E+00
  0.00000000E+00  0.00000000E+00  0.00000000E+00
  0.00000000E+00  0.00000000E+00  0.00000000E+00
  0.00000000E+00  0.00000000E+00  0.00000000E+00
  0.00000000E+00  0.00000000E+00  0.00000000E+00
  0.00000000E+00  0.00000000E+00  0.00000000E+00
  0.00000000E+00  0.00000000E+00  0.00000000E+00
  0.00000000E+00  0.00000000E+00  0.00000000E+00
  0.00000000E+00  0.00000000E+00  0.00000000E+00
  0.00000000E+00  0.00000000E+00  0.00000000E+00
  0.00000000E+00  0.00000000E+00  0.00000000E+00
  0.00000000E+00  0.00000000E+00  0.00000000E+00
  0.00000000E+00  0.00000000E+00  0.00000000E+00
  0.00000000E+00  0.00000000E+00  0.00000000E+00
