Title                                   
   1.00000000000000     
     9.8694509999999998    0.0000000000000000    0.0000000000000000
     0.0000000000000000    8.5490480000000009    0.0000000000000000
     0.0000000000000000    0.0000000000000000   20.0000000000000000
    25     5     1
Selective dynamics
Direct
  0.0550882368934721  0.0907181291598664  0.0868494227190548   T   T   T
  0.9301769760496950  0.1727970423885018  0.0878719172241004   T   T   T
  0.0573736464171910  0.9239408872457058  0.0870837400342130   T   T   T
  0.9335029827402875  0.3406209540429782  0.0863285372599884   T   T   T
  0.0574780780482383  0.5898936387761019  0.0820685708804352   T   T   T
  0.9339439383185242  0.6744890369707104  0.0871920951565949   T   T   T
  0.0577583137311633  0.4235358346854048  0.0820741410471767   T   T   T
  0.9321946594871653  0.8411349778430710  0.0890114474551594   T   T   T
  0.3069689940011964  0.0885166512182312  0.0944884817940119   T   T   T
  0.1814273588484332  0.1713635336842023  0.0885225255911253   T   T   T
  0.1812465667664301  0.3387681605658285  0.0864754571377951   T   T   T
  0.3021634374029152  0.5898745887181297  0.0950220927976249   T   T   T
  0.1812320066214336  0.6738251964889441  0.0857250557045463   T   T   T
  0.3022189123457311  0.4209389296659886  0.0961494095972999   T   T   T
  0.1815968558058954  0.8410927968803839  0.0880787505104425   T   T   T
  0.4287485813857685  0.1750598553792458  0.1039326728780101   T   T   T
  0.5541525166506558  0.9178836531124630  0.1061920328500622   T   T   T
  0.4280047240240465  0.8354939601791773  0.1034686076506467   T   T   T
  0.8028336637280344  0.0898660167239113  0.0936566081719398   T   T   T
  0.6802887657395595  0.1761556731522968  0.1016155500310947   T   T   T
  0.8056367243285955  0.9213812798753975  0.0948012804543926   T   T   T
  0.6876145638287732  0.3437035681711388  0.1091037360790466   T   T   T
  0.8140651763462962  0.5923133745611182  0.0975572075220126   T   T   T
  0.8128820292348589  0.4240462388824088  0.0957886502272996   T   T   T
  0.6833293725537067  0.8338442365473424  0.1050798182750472   T   T   T
  0.5548536743070780  0.0915714631371109  0.1051372582063980   T   T   T
  0.4208530314188782  0.3373209468254788  0.1126238678661748   T   T   T
  0.6934080918877317  0.6707845481493454  0.1136583832978837   T   T   T
  0.4190045711385418  0.6741385393586314  0.1099418220709877   T   T   T
  0.3063529578616622  0.9224792901206914  0.0935779674439182   T   T   T
  0.5567355920880506  0.5033219974902059  0.1318878920655537   T   T   T
 
  0.00000000E+00  0.00000000E+00  0.00000000E+00
  0.00000000E+00  0.00000000E+00  0.00000000E+00
  0.00000000E+00  0.00000000E+00  0.00000000E+00
  0.00000000E+00  0.00000000E+00  0.00000000E+00
  0.00000000E+00  0.00000000E+00  0.00000000E+00
  0.00000000E+00  0.00000000E+00  0.00000000E+00
  0.00000000E+00  0.00000000E+00  0.00000000E+00
  0.00000000E+00  0.00000000E+00  0.00000000E+00
  0.00000000E+00  0.00000000E+00  0.00000000E+00
  0.00000000E+00  0.00000000E+00  0.00000000E+00
  0.00000000E+00  0.00000000E+00  0.00000000E+00
  0.00000000E+00  0.00000000E+00  0.00000000E+00
  0.00000000E+00  0.00000000E+00  0.00000000E+00
  0.00000000E+00  0.00000000E+00  0.00000000E+00
  0.00000000E+00  0.00000000E+00  0.00000000E+00
  0.00000000E+00  0.00000000E+00  0.00000000E+00
  0.00000000E+00  0.00000000E+00  0.00000000E+00
  0.00000000E+00  0.00000000E+00  0.00000000E+00
  0.00000000E+00  0.00000000E+00  0.00000000E+00
  0.00000000E+00  0.00000000E+00  0.00000000E+00
  0.00000000E+00  0.00000000E+00  0.00000000E+00
  0.00000000E+00  0.00000000E+00  0.00000000E+00
  0.00000000E+00  0.00000000E+00  0.00000000E+00
  0.00000000E+00  0.00000000E+00  0.00000000E+00
  0.00000000E+00  0.00000000E+00  0.00000000E+00
  0.00000000E+00  0.00000000E+00  0.00000000E+00
  0.00000000E+00  0.00000000E+00  0.00000000E+00
  0.00000000E+00  0.00000000E+00  0.00000000E+00
  0.00000000E+00  0.00000000E+00  0.00000000E+00
  0.00000000E+00  0.00000000E+00  0.00000000E+00
  0.00000000E+00  0.00000000E+00  0.00000000E+00
