Title                                   
   1.00000000000000     
     4.9440799999999996    0.0000000000000000    0.0000000000000000
     0.0000000000000000   17.1295089999999988    0.0000000000000000
     0.0000000000000000    0.0000000000000000   20.0000000000000000
    30     1     1
Selective dynamics
Direct
 -0.0002732880629694  0.1043707466624054  0.2777137371756074   T   T   T
  0.2498370452489757  0.1458978743960143  0.2821704585740577   T   T   T
  0.2498729697202540  0.2279590803543514  0.2945335991618120   T   T   T
 -0.0002205653667121  0.3491047877965885  0.3202097437897358   T   T   T
 -0.0007900994186197  0.2689936031477430  0.3012069460328886   T   T   T
 -0.0030610014486973  0.6085226840920733  0.3182614052332054   T   T   T
  0.2499042115987650  0.7296578968277317  0.2932177110088933   T   T   T
  0.0001551690683188  0.8541310141963966  0.2775946777716823   T   T   T
  0.2498469521656421  0.8958609065556772  0.2750155032029303   T   T   T
  0.2498132379020017  0.9793004004904138  0.2728708893934254   T   T   T
  0.0003284202101922  0.7711682260394360  0.2864017587012289   T   T   T
  0.4999375598197816  0.1043716337765788  0.2777077510781688   T   T   T
  0.7498520564572486  0.1459359000346502  0.2813639675625202   T   T   T
  0.7498937837666798  0.2283729700202940  0.2924330181685153   T   T   T
  0.4999075124783697  0.0210410379737972  0.2732899980287096   T   T   T
  0.5000439913293100  0.3490987623238250  0.3202022664812422   T   T   T
  0.7499312956881790  0.3938536699152645  0.3260639080664193   T   T   T
  0.7499985191669059  0.4794909260307288  0.3322759606199772   T   T   T
  0.5005651822056506  0.2689880148700722  0.3012002953379441   T   T   T
  0.5029664515988912  0.6085578747791480  0.3182734441656399   T   T   T
  0.7499332312344456  0.7305242738188563  0.2918366059673296   T   T   T
  0.4995882168425901  0.8541353309925926  0.2775978633758105   T   T   T
  0.7498690893840122  0.8956709133026596  0.2747944491315862   T   T   T
  0.7498316220742143  0.9792319483395379  0.2726583943664648   T   T   T
  0.4994916884287298  0.7711688302684740  0.2864080225381960   T   T   T
  0.7499718999318098  0.6488985223791118  0.3069713284792111   T   T   T
  0.2499083166314620  0.6481343890602571  0.3103586323700977   T   T   T
 -0.0002763123680278  0.0210403961404218  0.2732929707673614   T   T   T
  0.5148700584490639  0.5279038416907847  0.3385548122255072   T   T   T
  0.9851317145338188  0.5278825465988914  0.3385741370307983   T   T   T
  0.2499227778213820  0.3825319020581058  0.3377000234165718   T   T   T
  0.2500712929083380  0.4767500950671095  0.3918107207764132   T   T   T
 
  0.00000000E+00  0.00000000E+00  0.00000000E+00
  0.00000000E+00  0.00000000E+00  0.00000000E+00
  0.00000000E+00  0.00000000E+00  0.00000000E+00
  0.00000000E+00  0.00000000E+00  0.00000000E+00
  0.00000000E+00  0.00000000E+00  0.00000000E+00
  0.00000000E+00  0.00000000E+00  0.00000000E+00
  0.00000000E+00  0.00000000E+00  0.00000000E+00
  0.00000000E+00  0.00000000E+00  0.00000000E+00
  0.00000000E+00  0.00000000E+00  0.00000000E+00
  0.00000000E+00  0.00000000E+00  0.00000000E+00
  0.00000000E+00  0.00000000E+00  0.00000000E+00
  0.00000000E+00  0.00000000E+00  0.00000000E+00
  0.00000000E+00  0.00000000E+00  0.00000000E+00
  0.00000000E+00  0.00000000E+00  0.00000000E+00
  0.00000000E+00  0.00000000E+00  0.00000000E+00
  0.00000000E+00  0.00000000E+00  0.00000000E+00
  0.00000000E+00  0.00000000E+00  0.00000000E+00
  0.00000000E+00  0.00000000E+00  0.00000000E+00
  0.00000000E+00  0.00000000E+00  0.00000000E+00
  0.00000000E+00  0.00000000E+00  0.00000000E+00
  0.00000000E+00  0.00000000E+00  0.00000000E+00
  0.00000000E+00  0.00000000E+00  0.00000000E+00
  0.00000000E+00  0.00000000E+00  0.00000000E+00
  0.00000000E+00  0.00000000E+00  0.00000000E+00
  0.00000000E+00  0.00000000E+00  0.00000000E+00
  0.00000000E+00  0.00000000E+00  0.00000000E+00
  0.00000000E+00  0.00000000E+00  0.00000000E+00
  0.00000000E+00  0.00000000E+00  0.00000000E+00
  0.00000000E+00  0.00000000E+00  0.00000000E+00
  0.00000000E+00  0.00000000E+00  0.00000000E+00
  0.00000000E+00  0.00000000E+00  0.00000000E+00
  0.00000000E+00  0.00000000E+00  0.00000000E+00
