Title                                   
   1.00000000000000     
     4.9440799999999996    0.0000000000000000    0.0000000000000000
     0.0000000000000000    8.5647549999999999    0.0000000000000000
     0.0000000000000000    0.0000000000000000   20.0000000000000000
    10     4     1
Selective dynamics
Direct
  0.2500000000000000  0.2103289505914548  0.1004239111749414   T   T   T
 -0.0025824089830353  0.2951786834910796  0.1004620744143451   T   T   T
  0.2500000000000000  0.0392659134222187  0.1004512038195937   T   T   T
 -0.0025518049005283  0.9543837318270562  0.1004832457592117   T   T   T
  0.7500000000000000  0.2082071814367744  0.1004329104325716   T   T   T
  0.5025824089830353  0.2951786834910796  0.1004620744143451   T   T   T
  0.7500000000000000  0.0413694872941166  0.1004424632876038   T   T   T
  0.7500000000000000  0.7135170131043687  0.1006611854537860   T   T   T
  0.7500000000000000  0.5361066968466659  0.1006142874975147   T   T   T
  0.5025518049005281  0.9543837318270562  0.1004832457592117   T   T   T
  0.5135696173490449  0.4562827800347016  0.1005997007854084   T   T   T
 -0.0135696173490449  0.4562827800347016  0.1005997007854084   T   T   T
 -0.0135219673356920  0.7932720390617062  0.1006190124528809   T   T   T
  0.5135219673356921  0.7932720390617062  0.1006190124528809   T   T   T
  0.2500000000000000  0.6246512884753159  0.1006259715103000   T   T   T
 
  0.00000000E+00  0.00000000E+00  0.00000000E+00
  0.00000000E+00  0.00000000E+00  0.00000000E+00
  0.00000000E+00  0.00000000E+00  0.00000000E+00
  0.00000000E+00  0.00000000E+00  0.00000000E+00
  0.00000000E+00  0.00000000E+00  0.00000000E+00
  0.00000000E+00  0.00000000E+00  0.00000000E+00
  0.00000000E+00  0.00000000E+00  0.00000000E+00
  0.00000000E+00  0.00000000E+00  0.00000000E+00
  0.00000000E+00  0.00000000E+00  0.00000000E+00
  0.00000000E+00  0.00000000E+00  0.00000000E+00
  0.00000000E+00  0.00000000E+00  0.00000000E+00
  0.00000000E+00  0.00000000E+00  0.00000000E+00
  0.00000000E+00  0.00000000E+00  0.00000000E+00
  0.00000000E+00  0.00000000E+00  0.00000000E+00
  0.00000000E+00  0.00000000E+00  0.00000000E+00
