Title                                   
   1.00000000000000     
     9.8694509999999998    0.0000000000000000    0.0000000000000000
     0.0000000000000000    8.5490480000000009    0.0000000000000000
     0.0000000000000000    0.0000000000000000   20.0000000000000000
    29     2     1
Selective dynamics
Direct
  0.0563029941824917  0.0904747786650678  0.0846420861706105   T   T   T
  0.9316144519053356  0.1721699434700949  0.0869409079392768   T   T   T
  0.0569337980919031  0.9235479987176685  0.0843085598066972   T   T   T
  0.9320061263029104  0.3391456280584471  0.0892370751335754   T   T   T
  0.0573561569395801  0.5893726519937773  0.0845191930975120   T   T   T
  0.9328202688634281  0.6717561204518075  0.0878253222383299   T   T   T
  0.0576996888969581  0.4224018076617310  0.0861512553115437   T   T   T
  0.9318473992852850  0.8387398790049093  0.0866018199556036   T   T   T
  0.3059398421882130  0.0889117922522590  0.0893530500302501   T   T   T
  0.1819584749496928  0.1730448706526875  0.0865468737461023   T   T   T
  0.1834896928760800  0.3402687750333482  0.0881369688980572   T   T   T
  0.3036805592552061  0.5920767300369227  0.0963554710974204   T   T   T
  0.1811876147364402  0.6743046814090855  0.0859833499485205   T   T   T
  0.3082902875113444  0.4251919011633604  0.0966942133576690   T   T   T
  0.1807539679441392  0.8408027263199092  0.0859255592275496   T   T   T
  0.5559496229873684  0.0864138410194214  0.0967748524477211   T   T   T
  0.4307078540750411  0.1701706437036634  0.0955847467453596   T   T   T
  0.5536044512120949  0.9192073314036122  0.0996349425448111   T   T   T
  0.4318978905751439  0.3364481877860281  0.1039871598164225   T   T   T
  0.5575340002439414  0.4096061435642891  0.1192044157408331   T   T   T
  0.4253185251442647  0.8407616407394912  0.0996102430579140   T   T   T
  0.8067019953961344  0.0879477182844803  0.0893891074509158   T   T   T
  0.6816554694675673  0.1694713969611758  0.0958518023005499   T   T   T
  0.8065000579622300  0.9221114088840229  0.0901898004833979   T   T   T
  0.6827659058925686  0.3349896854479790  0.1046284049734875   T   T   T
  0.8105145651763029  0.5884088780378024  0.0994763421440109   T   T   T
  0.6924914915905489  0.6755223264593639  0.1138746639547377   T   T   T
  0.8078847879851427  0.4207742354481401  0.0987290708624216   T   T   T
  0.6826424284715599  0.8373685913037769  0.1009870774306838   T   T   T
  0.4156073029817484  0.6835061099389096  0.1126286077552270   T   T   T
  0.3048696215520083  0.9247201134843032  0.0894129228093569   T   T   T
  0.5511117053573314  0.6006074626424502  0.1744891335234766   T   T   T
 
  0.00000000E+00  0.00000000E+00  0.00000000E+00
  0.00000000E+00  0.00000000E+00  0.00000000E+00
  0.00000000E+00  0.00000000E+00  0.00000000E+00
  0.00000000E+00  0.00000000E+00  0.00000000E+00
  0.00000000E+00  0.00000000E+00  0.00000000E+00
  0.00000000E+00  0.00000000E+00  0.00000000E+00
  0.00000000E+00  0.00000000E+00  0.00000000E+00
  0.00000000E+00  0.00000000E+00  0.00000000E+00
  0.00000000E+00  0.00000000E+00  0.00000000E+00
  0.00000000E+00  0.00000000E+00  0.00000000E+00
  0.00000000E+00  0.00000000E+00  0.00000000E+00
  0.00000000E+00  0.00000000E+00  0.00000000E+00
  0.00000000E+00  0.00000000E+00  0.00000000E+00
  0.00000000E+00  0.00000000E+00  0.00000000E+00
  0.00000000E+00  0.00000000E+00  0.00000000E+00
  0.00000000E+00  0.00000000E+00  0.00000000E+00
  0.00000000E+00  0.00000000E+00  0.00000000E+00
  0.00000000E+00  0.00000000E+00  0.00000000E+00
  0.00000000E+00  0.00000000E+00  0.00000000E+00
  0.00000000E+00  0.00000000E+00  0.00000000E+00
  0.00000000E+00  0.00000000E+00  0.00000000E+00
  0.00000000E+00  0.00000000E+00  0.00000000E+00
  0.00000000E+00  0.00000000E+00  0.00000000E+00
  0.00000000E+00  0.00000000E+00  0.00000000E+00
  0.00000000E+00  0.00000000E+00  0.00000000E+00
  0.00000000E+00  0.00000000E+00  0.00000000E+00
  0.00000000E+00  0.00000000E+00  0.00000000E+00
  0.00000000E+00  0.00000000E+00  0.00000000E+00
  0.00000000E+00  0.00000000E+00  0.00000000E+00
  0.00000000E+00  0.00000000E+00  0.00000000E+00
  0.00000000E+00  0.00000000E+00  0.00000000E+00
  0.00000000E+00  0.00000000E+00  0.00000000E+00
