Title                                   
   1.00000000000000     
     9.8694509999999998    0.0000000000000000    0.0000000000000000
     0.0000000000000000    8.5490480000000009    0.0000000000000000
     0.0000000000000000    0.0000000000000000   20.0000000000000000
    26     5     1
Selective dynamics
Direct
  0.0566612322460372  0.0928791749538064  0.0925958255982395   T   T   T
  0.9307835754052441  0.1751384166960636  0.0928438086398172   T   T   T
  0.0570155711374148  0.9252522972503618  0.0930226637523630   T   T   T
  0.9290591993142269  0.3426853757665237  0.0930572000916225   T   T   T
  0.0558928171849900  0.5905427135286491  0.0926479304330401   T   T   T
  0.9319054163357126  0.6738971845928339  0.0937743989125105   T   T   T
  0.0575058910061633  0.4242964480669716  0.0924920419278667   T   T   T
  0.9321403717836548  0.8412401331716525  0.0936744394124721   T   T   T
  0.3057307856916023  0.0884676009692857  0.0920430127225286   T   T   T
  0.1831366316892647  0.1762638635332346  0.0920097677228069   T   T   T
  0.3065067671941550  0.9231685893110329  0.0930071266538488   T   T   T
  0.1842770743864105  0.3426063493960167  0.0919403209260374   T   T   T
  0.3086380333954742  0.5942704549604145  0.0935691172862110   T   T   T
  0.1812984981380954  0.6727415159366772  0.0930632586679792   T   T   T
  0.1815604596443562  0.8393705469518695  0.0931585084566331   T   T   T
  0.5558177169859042  0.0821694339737718  0.0932067950678767   T   T   T
  0.4316695104949516  0.1677081205653581  0.0928111004098279   T   T   T
  0.4368742984738522  0.3353288975661042  0.0936052969632034   T   T   T
  0.4280548522970088  0.8335573883649535  0.0939754954941900   T   T   T
  0.8070524727284082  0.0895480794886940  0.0932313877024159   T   T   T
  0.6798026376661956  0.1680654443017368  0.0938561472941645   T   T   T
  0.8071674717011682  0.9244329547209007  0.0937931019610632   T   T   T
  0.6752174476085765  0.3351541895255316  0.0947767673378190   T   T   T
  0.8041838838667631  0.5950686645536469  0.0953716309071709   T   T   T
  0.8013916910985901  0.4254506394808880  0.0942198939824600   T   T   T
  0.6846764999257745  0.8348394196061435  0.0950227901071582   T   T   T
  0.4257132497390624  0.6759882507224048  0.0956559882140275   T   T   T
  0.5537732420501535  0.4123680434230292  0.0958631149689016   T   T   T
  0.6860981525892849  0.6791683638884334  0.0977785161062889   T   T   T
  0.5562680992980621  0.9147751194839885  0.0927620563674511   T   T   T
  0.3114249900767020  0.4254274987886462  0.0915445524238588   T   T   T
  0.5523404588467454  0.5883748264603762  0.1853009434881622   T   T   T
 
  0.00000000E+00  0.00000000E+00  0.00000000E+00
  0.00000000E+00  0.00000000E+00  0.00000000E+00
  0.00000000E+00  0.00000000E+00  0.00000000E+00
  0.00000000E+00  0.00000000E+00  0.00000000E+00
  0.00000000E+00  0.00000000E+00  0.00000000E+00
  0.00000000E+00  0.00000000E+00  0.00000000E+00
  0.00000000E+00  0.00000000E+00  0.00000000E+00
  0.00000000E+00  0.00000000E+00  0.00000000E+00
  0.00000000E+00  0.00000000E+00  0.00000000E+00
  0.00000000E+00  0.00000000E+00  0.00000000E+00
  0.00000000E+00  0.00000000E+00  0.00000000E+00
  0.00000000E+00  0.00000000E+00  0.00000000E+00
  0.00000000E+00  0.00000000E+00  0.00000000E+00
  0.00000000E+00  0.00000000E+00  0.00000000E+00
  0.00000000E+00  0.00000000E+00  0.00000000E+00
  0.00000000E+00  0.00000000E+00  0.00000000E+00
  0.00000000E+00  0.00000000E+00  0.00000000E+00
  0.00000000E+00  0.00000000E+00  0.00000000E+00
  0.00000000E+00  0.00000000E+00  0.00000000E+00
  0.00000000E+00  0.00000000E+00  0.00000000E+00
  0.00000000E+00  0.00000000E+00  0.00000000E+00
  0.00000000E+00  0.00000000E+00  0.00000000E+00
  0.00000000E+00  0.00000000E+00  0.00000000E+00
  0.00000000E+00  0.00000000E+00  0.00000000E+00
  0.00000000E+00  0.00000000E+00  0.00000000E+00
  0.00000000E+00  0.00000000E+00  0.00000000E+00
  0.00000000E+00  0.00000000E+00  0.00000000E+00
  0.00000000E+00  0.00000000E+00  0.00000000E+00
  0.00000000E+00  0.00000000E+00  0.00000000E+00
  0.00000000E+00  0.00000000E+00  0.00000000E+00
  0.00000000E+00  0.00000000E+00  0.00000000E+00
  0.00000000E+00  0.00000000E+00  0.00000000E+00
