Title                                   
   1.00000000000000     
     9.8694509999999998    0.0000000000000000    0.0000000000000000
     0.0000000000000000    8.5490480000000009    0.0000000000000000
     0.0000000000000000    0.0000000000000000   20.0000000000000000
    29     2     1
Selective dynamics
Direct
  0.0562474339755328  0.0902782793587936  0.0814941685430146   T   T   T
  0.9310195842577923  0.1734904180802940  0.0822442110542224   T   T   T
  0.0572363894156568  0.9237137309262852  0.0829169750840909   T   T   T
  0.9307674319516966  0.3407349418984770  0.0847181845894083   T   T   T
  0.0572641200027708  0.5904510995288376  0.0841359908147009   T   T   T
  0.9323240105443203  0.6728509660839768  0.0878450962062843   T   T   T
  0.0571884336558003  0.4233137368062484  0.0834667689036796   T   T   T
  0.9322002761734823  0.8400181898735886  0.0858319148023348   T   T   T
  0.3056303298332851  0.0882544788763416  0.0873547202795770   T   T   T
  0.1825353381673457  0.1725732890248183  0.0835387902455653   T   T   T
  0.1826344459111904  0.3397898881613785  0.0853609746740683   T   T   T
  0.3042345532860642  0.5889338115989864  0.1009337991030878   T   T   T
  0.1829179278880859  0.6737540722225741  0.0878488866570463   T   T   T
  0.3069027068291164  0.4212771435953482  0.0971473223988876   T   T   T
  0.1824903953704063  0.8410893542923811  0.0863339263986641   T   T   T
  0.5550861298720556  0.0874720908757538  0.0928047722064255   T   T   T
  0.5542989453512459  0.9232319024625868  0.1003093451888909   T   T   T
  0.4300090019066967  0.3319634593827805  0.1043369891802510   T   T   T
  0.4264903827819031  0.8420677538219983  0.1048205068652935   T   T   T
  0.8060226472959166  0.0892561183137984  0.0845885001850730   T   T   T
  0.6801915756405720  0.1718305010605418  0.0900780873767970   T   T   T
  0.8064032757704648  0.9236676481047795  0.0883439333626623   T   T   T
  0.6819376556701638  0.3354023453210800  0.1007196154138057   T   T   T
  0.8093833329909017  0.5907029555689632  0.0998745115705823   T   T   T
  0.8062765208997306  0.4228217808659200  0.0955724101543110   T   T   T
  0.6825736151866281  0.8423978459844057  0.1014547854088027   T   T   T
  0.4175741346643296  0.6815751348961037  0.1222506337661932   T   T   T
  0.5561493579779582  0.4038591676194768  0.1218259266059619   T   T   T
  0.6924754974615436  0.6800938860530037  0.1191460141181616   T   T   T
  0.3063105250056585  0.9255653694992216  0.0903410259209705   T   T   T
  0.4294854484476339  0.1691120474204602  0.0932659358628217   T   T   T
  0.5573775758140563  0.5887025924207990  0.1747702770583803   T   T   T
 
  0.00000000E+00  0.00000000E+00  0.00000000E+00
  0.00000000E+00  0.00000000E+00  0.00000000E+00
  0.00000000E+00  0.00000000E+00  0.00000000E+00
  0.00000000E+00  0.00000000E+00  0.00000000E+00
  0.00000000E+00  0.00000000E+00  0.00000000E+00
  0.00000000E+00  0.00000000E+00  0.00000000E+00
  0.00000000E+00  0.00000000E+00  0.00000000E+00
  0.00000000E+00  0.00000000E+00  0.00000000E+00
  0.00000000E+00  0.00000000E+00  0.00000000E+00
  0.00000000E+00  0.00000000E+00  0.00000000E+00
  0.00000000E+00  0.00000000E+00  0.00000000E+00
  0.00000000E+00  0.00000000E+00  0.00000000E+00
  0.00000000E+00  0.00000000E+00  0.00000000E+00
  0.00000000E+00  0.00000000E+00  0.00000000E+00
  0.00000000E+00  0.00000000E+00  0.00000000E+00
  0.00000000E+00  0.00000000E+00  0.00000000E+00
  0.00000000E+00  0.00000000E+00  0.00000000E+00
  0.00000000E+00  0.00000000E+00  0.00000000E+00
  0.00000000E+00  0.00000000E+00  0.00000000E+00
  0.00000000E+00  0.00000000E+00  0.00000000E+00
  0.00000000E+00  0.00000000E+00  0.00000000E+00
  0.00000000E+00  0.00000000E+00  0.00000000E+00
  0.00000000E+00  0.00000000E+00  0.00000000E+00
  0.00000000E+00  0.00000000E+00  0.00000000E+00
  0.00000000E+00  0.00000000E+00  0.00000000E+00
  0.00000000E+00  0.00000000E+00  0.00000000E+00
  0.00000000E+00  0.00000000E+00  0.00000000E+00
  0.00000000E+00  0.00000000E+00  0.00000000E+00
  0.00000000E+00  0.00000000E+00  0.00000000E+00
  0.00000000E+00  0.00000000E+00  0.00000000E+00
  0.00000000E+00  0.00000000E+00  0.00000000E+00
  0.00000000E+00  0.00000000E+00  0.00000000E+00
