Title                                   
   1.00000000000000     
     8.5490480000000009    0.0000000000000000    0.0000000000000000
     0.0000000000000000    8.5490480000000009    0.0000000000000000
     0.0000000000000000    0.0000000000000000   20.0000000000000000
    19     5     1
Selective dynamics
Direct
  0.9090480860951460  0.2055132747503198  0.0950271410537909   T   T   T
  0.9105439475731731  0.8007884708933973  0.0946953696666870   T   T   T
  0.1956841729669252  0.0841541565150977  0.0947488314138204   T   T   T
  0.0758056720527832  0.2008978298136905  0.0944246762098642   T   T   T
  0.1542683732401876  0.6522978638525204  0.0973742550436165   T   T   T
  0.0751682214652733  0.5011501761889539  0.0966934480915109   T   T   T
  0.1548391068001555  0.3532731499635232  0.0960139109027461   T   T   T
  0.0780748225732485  0.7993073642477734  0.0952384960800017   T   T   T
  0.4940063338522140  0.0854022460941332  0.0973619961745827   T   T   T
  0.3451868702919587  0.1649181170010401  0.0965653744952923   T   T   T
  0.4931465670445803  0.9156847113757930  0.0969290543314348   T   T   T
  0.3418749145540229  0.8371376831424054  0.0975378876452657   T   T   T
  0.7885570417507075  0.0869906230450496  0.0956608366856140   T   T   T
  0.6424986383002256  0.1667466267617954  0.0980487909698282   T   T   T
  0.7890634139795387  0.9183520659552022  0.0950221937840948   T   T   T
  0.8309897602493680  0.6517964898558049  0.0958009639091152   T   T   T
  0.8297094478673142  0.3532630320110378  0.0970341295914156   T   T   T
  0.6432929048861737  0.8356084941630756  0.0962008390146827   T   T   T
  0.3212494728529956  0.3305445451793628  0.0976023625333716   T   T   T
  0.9070879090913352  0.5026927542713545  0.0963910634926797   T   T   T
  0.3166695034362117  0.6783583244917095  0.1000672002337228   T   T   T
  0.6684965590697407  0.3313918643162605  0.1004634139795695   T   T   T
  0.6709152139795821  0.6725976623240036  0.0968276513129273   T   T   T
  0.1966745376202682  0.9163743990338128  0.0952592621454154   T   T   T
  0.4925605084068627  0.4995480747529040  0.1267158512389230   T   T   T
 
  0.00000000E+00  0.00000000E+00  0.00000000E+00
  0.00000000E+00  0.00000000E+00  0.00000000E+00
  0.00000000E+00  0.00000000E+00  0.00000000E+00
  0.00000000E+00  0.00000000E+00  0.00000000E+00
  0.00000000E+00  0.00000000E+00  0.00000000E+00
  0.00000000E+00  0.00000000E+00  0.00000000E+00
  0.00000000E+00  0.00000000E+00  0.00000000E+00
  0.00000000E+00  0.00000000E+00  0.00000000E+00
  0.00000000E+00  0.00000000E+00  0.00000000E+00
  0.00000000E+00  0.00000000E+00  0.00000000E+00
  0.00000000E+00  0.00000000E+00  0.00000000E+00
  0.00000000E+00  0.00000000E+00  0.00000000E+00
  0.00000000E+00  0.00000000E+00  0.00000000E+00
  0.00000000E+00  0.00000000E+00  0.00000000E+00
  0.00000000E+00  0.00000000E+00  0.00000000E+00
  0.00000000E+00  0.00000000E+00  0.00000000E+00
  0.00000000E+00  0.00000000E+00  0.00000000E+00
  0.00000000E+00  0.00000000E+00  0.00000000E+00
  0.00000000E+00  0.00000000E+00  0.00000000E+00
  0.00000000E+00  0.00000000E+00  0.00000000E+00
  0.00000000E+00  0.00000000E+00  0.00000000E+00
  0.00000000E+00  0.00000000E+00  0.00000000E+00
  0.00000000E+00  0.00000000E+00  0.00000000E+00
  0.00000000E+00  0.00000000E+00  0.00000000E+00
  0.00000000E+00  0.00000000E+00  0.00000000E+00
