Title                                   
   1.00000000000000     
     9.8694509999999998    0.0000000000000000    0.0000000000000000
     0.0000000000000000    8.5490480000000009    0.0000000000000000
     0.0000000000000000    0.0000000000000000   20.0000000000000000
    27     4     1
Selective dynamics
Direct
  0.0558294788058250  0.0924081752217777  0.0859541009088222   T   T   T
  0.9311951934772267  0.1744331874065762  0.0876266060062717   T   T   T
  0.0573865824783512  0.9248006713412229  0.0860648370688568   T   T   T
  0.9300908689288965  0.3417102631529139  0.0902970232496870   T   T   T
  0.0568271730085455  0.5900705793665532  0.0865924053280478   T   T   T
  0.9327478542705814  0.6734624059281030  0.0890736265852097   T   T   T
  0.0566829250256702  0.4229325644710892  0.0883009701591586   T   T   T
  0.9329924312174803  0.8403571926239257  0.0880958852699573   T   T   T
  0.3056776921443572  0.0883557053121066  0.0888333319015988   T   T   T
  0.1819493093321792  0.1735091661315043  0.0873406149179171   T   T   T
  0.1834313193059943  0.3405001517709641  0.0893582226957409   T   T   T
  0.3039866745868009  0.5924328371208016  0.0974957004546242   T   T   T
  0.1807359994693596  0.6743368397425744  0.0882720119934861   T   T   T
  0.3097716336966076  0.4250529653008404  0.0959273053277791   T   T   T
  0.1807538495726446  0.8411284548456234  0.0879176408893945   T   T   T
  0.5567291206383523  0.0843154747299659  0.0948821641011897   T   T   T
  0.4308041275762259  0.1678289520417667  0.0933083469282721   T   T   T
  0.5550701441821236  0.9171481682283757  0.0988308965626501   T   T   T
  0.4326590214529044  0.3332414712792180  0.0996218647849087   T   T   T
  0.4254959361518633  0.8398551089616343  0.1002995903740075   T   T   T
  0.8067687652576774  0.0893101954979070  0.0885467088547687   T   T   T
  0.6809962401619151  0.1688335400200051  0.0929536879478886   T   T   T
  0.8076364155624547  0.9234794668630980  0.0900683041285427   T   T   T
  0.6794142185734905  0.3345687606095821  0.0999452787185687   T   T   T
  0.8088170447416941  0.5930576921514737  0.0987733515257750   T   T   T
  0.8031437153519253  0.4245036718669309  0.0973060344120792   T   T   T
  0.6851290026605764  0.8382691257182866  0.0995936873020973   T   T   T
  0.4157840701308109  0.6838522827076098  0.1135259005483188   T   T   T
  0.5558723779583444  0.4043766201208362  0.1121797825877169   T   T   T
  0.6946039290953535  0.6805224577424632  0.1123597927343916   T   T   T
  0.3051262784650103  0.9236968091181501  0.0901077265574413   T   T   T
  0.5555296067187625  0.5878950426061211  0.1662215991748473   T   T   T
 
  0.00000000E+00  0.00000000E+00  0.00000000E+00
  0.00000000E+00  0.00000000E+00  0.00000000E+00
  0.00000000E+00  0.00000000E+00  0.00000000E+00
  0.00000000E+00  0.00000000E+00  0.00000000E+00
  0.00000000E+00  0.00000000E+00  0.00000000E+00
  0.00000000E+00  0.00000000E+00  0.00000000E+00
  0.00000000E+00  0.00000000E+00  0.00000000E+00
  0.00000000E+00  0.00000000E+00  0.00000000E+00
  0.00000000E+00  0.00000000E+00  0.00000000E+00
  0.00000000E+00  0.00000000E+00  0.00000000E+00
  0.00000000E+00  0.00000000E+00  0.00000000E+00
  0.00000000E+00  0.00000000E+00  0.00000000E+00
  0.00000000E+00  0.00000000E+00  0.00000000E+00
  0.00000000E+00  0.00000000E+00  0.00000000E+00
  0.00000000E+00  0.00000000E+00  0.00000000E+00
  0.00000000E+00  0.00000000E+00  0.00000000E+00
  0.00000000E+00  0.00000000E+00  0.00000000E+00
  0.00000000E+00  0.00000000E+00  0.00000000E+00
  0.00000000E+00  0.00000000E+00  0.00000000E+00
  0.00000000E+00  0.00000000E+00  0.00000000E+00
  0.00000000E+00  0.00000000E+00  0.00000000E+00
  0.00000000E+00  0.00000000E+00  0.00000000E+00
  0.00000000E+00  0.00000000E+00  0.00000000E+00
  0.00000000E+00  0.00000000E+00  0.00000000E+00
  0.00000000E+00  0.00000000E+00  0.00000000E+00
  0.00000000E+00  0.00000000E+00  0.00000000E+00
  0.00000000E+00  0.00000000E+00  0.00000000E+00
  0.00000000E+00  0.00000000E+00  0.00000000E+00
  0.00000000E+00  0.00000000E+00  0.00000000E+00
  0.00000000E+00  0.00000000E+00  0.00000000E+00
  0.00000000E+00  0.00000000E+00  0.00000000E+00
  0.00000000E+00  0.00000000E+00  0.00000000E+00
