Title                                   
   1.00000000000000     
     9.8694509999999998    0.0000000000000000    0.0000000000000000
     0.0000000000000000    8.5490480000000009    0.0000000000000000
     0.0000000000000000    0.0000000000000000   20.0000000000000000
    27     4     1
Selective dynamics
Direct
  0.0556636183842062  0.0906638652346647  0.0847639843435873   T   T   T
  0.9309962625985224  0.1755510713365076  0.0862302911402947   T   T   T
  0.0578004984959018  0.9228370930676453  0.0851228649526241   T   T   T
  0.9295072427729488  0.3429734368109418  0.0881539965742976   T   T   T
  0.0559445959397771  0.5913790023867093  0.0856921288851519   T   T   T
  0.0546958659643431  0.4245306623555949  0.0859055145597246   T   T   T
  0.9340625084056382  0.8404674102464609  0.0871725103324903   T   T   T
  0.3061919938175787  0.0863859617092015  0.0891507255741739   T   T   T
  0.1817717511063866  0.1713804820214720  0.0861335616704769   T   T   T
  0.1803844923828546  0.3387866112214697  0.0874432441634856   T   T   T
  0.3019716615785223  0.5859357085582302  0.0989189504318524   T   T   T
  0.1803869985995288  0.6735400547902317  0.0887367481675745   T   T   T
  0.3040240625740805  0.4192311070583670  0.0964708442032216   T   T   T
  0.1833715199669715  0.8402541156736250  0.0874702806392822   T   T   T
  0.5565967195548124  0.0862157373580094  0.0949022643070301   T   T   T
  0.5572344047239549  0.9192102424344447  0.1004429286867870   T   T   T
  0.4285558984446834  0.3310471523554899  0.1028636359247995   T   T   T
  0.4289576433316568  0.8362721412101460  0.1036579036258495   T   T   T
  0.8064930673666102  0.0907678973994145  0.0881814041615777   T   T   T
  0.6796913462012071  0.1729465449177358  0.0931581392142692   T   T   T
  0.8086559098532327  0.9249941086872259  0.0896829043788220   T   T   T
  0.6799900801912008  0.3404816925500013  0.1013184844142962   T   T   T
  0.8105112700653120  0.5967972243741042  0.0999344418766965   T   T   T
  0.8048457705752485  0.4278013045281862  0.0968553369849941   T   T   T
  0.6865646095990525  0.8417879179378250  0.1008077531740051   T   T   T
  0.4179192171088112  0.6753798106282796  0.1151633427986783   T   T   T
  0.5507510384024497  0.4069300533196688  0.1150234886635300   T   T   T
  0.7009810715239460  0.6840626481599845  0.1158020446804276   T   T   T
  0.3065298162437512  0.9226395453208631  0.0909008522961938   T   T   T
  0.4290672701726471  0.1653564295766091  0.0939214244187243   T   T   T
  0.9331182889489782  0.6749557349833366  0.0875603660938341   T   T   T
  0.5564025051051912  0.5886832317875551  0.1581326386612632   T   T   T
 
  0.00000000E+00  0.00000000E+00  0.00000000E+00
  0.00000000E+00  0.00000000E+00  0.00000000E+00
  0.00000000E+00  0.00000000E+00  0.00000000E+00
  0.00000000E+00  0.00000000E+00  0.00000000E+00
  0.00000000E+00  0.00000000E+00  0.00000000E+00
  0.00000000E+00  0.00000000E+00  0.00000000E+00
  0.00000000E+00  0.00000000E+00  0.00000000E+00
  0.00000000E+00  0.00000000E+00  0.00000000E+00
  0.00000000E+00  0.00000000E+00  0.00000000E+00
  0.00000000E+00  0.00000000E+00  0.00000000E+00
  0.00000000E+00  0.00000000E+00  0.00000000E+00
  0.00000000E+00  0.00000000E+00  0.00000000E+00
  0.00000000E+00  0.00000000E+00  0.00000000E+00
  0.00000000E+00  0.00000000E+00  0.00000000E+00
  0.00000000E+00  0.00000000E+00  0.00000000E+00
  0.00000000E+00  0.00000000E+00  0.00000000E+00
  0.00000000E+00  0.00000000E+00  0.00000000E+00
  0.00000000E+00  0.00000000E+00  0.00000000E+00
  0.00000000E+00  0.00000000E+00  0.00000000E+00
  0.00000000E+00  0.00000000E+00  0.00000000E+00
  0.00000000E+00  0.00000000E+00  0.00000000E+00
  0.00000000E+00  0.00000000E+00  0.00000000E+00
  0.00000000E+00  0.00000000E+00  0.00000000E+00
  0.00000000E+00  0.00000000E+00  0.00000000E+00
  0.00000000E+00  0.00000000E+00  0.00000000E+00
  0.00000000E+00  0.00000000E+00  0.00000000E+00
  0.00000000E+00  0.00000000E+00  0.00000000E+00
  0.00000000E+00  0.00000000E+00  0.00000000E+00
  0.00000000E+00  0.00000000E+00  0.00000000E+00
  0.00000000E+00  0.00000000E+00  0.00000000E+00
  0.00000000E+00  0.00000000E+00  0.00000000E+00
  0.00000000E+00  0.00000000E+00  0.00000000E+00
