Title                                   
   1.00000000000000     
     8.5490480000000009    0.0000000000000000    0.0000000000000000
     0.0000000000000000    8.5490480000000009    0.0000000000000000
     0.0000000000000000    0.0000000000000000   20.0000000000000000
    19     5     1
Selective dynamics
Direct
  0.9080704143027719  0.2062489954802194  0.0975287234035679   T   T   T
  0.9109415443379916  0.8004616971445530  0.0975710456517075   T   T   T
  0.1977601200242497  0.0840864167811243  0.0978316324765101   T   T   T
  0.0772722921505522  0.2014992755417558  0.0976744912153510   T   T   T
  0.1561260396070359  0.6488026976666296  0.0977820876634418   T   T   T
  0.0728708859891229  0.5001598063613437  0.0977430540652569   T   T   T
  0.1559574566336284  0.3542759955205010  0.0977302427435992   T   T   T
  0.0798833101250197  0.7988426891549183  0.0977391002125519   T   T   T
  0.3478270343493142  0.1676885513860779  0.0978637910449149   T   T   T
  0.4945156125108001  0.9190573183935857  0.0978106975874224   T   T   T
  0.3462995551901004  0.8355804738228794  0.0978710539077777   T   T   T
  0.7880011344139949  0.0867139983783648  0.0974884222667971   T   T   T
  0.6410991697661551  0.1674760535623135  0.0977095307724394   T   T   T
  0.7901462750126731  0.9186446790845108  0.0975033627566988   T   T   T
  0.8272247257561475  0.6520251784031424  0.0977047729640991   T   T   T
  0.8251499934920635  0.3526558897607459  0.0976688975034196   T   T   T
  0.6426418254430165  0.8376334975483563  0.0977081849212254   T   T   T
  0.3253248301240619  0.3336592949212753  0.0978021722040628   T   T   T
  0.3233863526432778  0.6705633474036377  0.0977747635990134   T   T   T
  0.4955124449375080  0.0868605935642349  0.0979119613981033   T   T   T
  0.9032952616380175  0.5018116819009668  0.0978052110638850   T   T   T
  0.6620009365623136  0.3297397567294664  0.0978604409964724   T   T   T
  0.6666821461087841  0.6736123596070466  0.0978243410340105   T   T   T
  0.1972571665769078  0.9156472463334984  0.0979049014298423   T   T   T
  0.4901654723044846  0.5010425055488729  0.0978921171178027   T   T   T
 
  0.00000000E+00  0.00000000E+00  0.00000000E+00
  0.00000000E+00  0.00000000E+00  0.00000000E+00
  0.00000000E+00  0.00000000E+00  0.00000000E+00
  0.00000000E+00  0.00000000E+00  0.00000000E+00
  0.00000000E+00  0.00000000E+00  0.00000000E+00
  0.00000000E+00  0.00000000E+00  0.00000000E+00
  0.00000000E+00  0.00000000E+00  0.00000000E+00
  0.00000000E+00  0.00000000E+00  0.00000000E+00
  0.00000000E+00  0.00000000E+00  0.00000000E+00
  0.00000000E+00  0.00000000E+00  0.00000000E+00
  0.00000000E+00  0.00000000E+00  0.00000000E+00
  0.00000000E+00  0.00000000E+00  0.00000000E+00
  0.00000000E+00  0.00000000E+00  0.00000000E+00
  0.00000000E+00  0.00000000E+00  0.00000000E+00
  0.00000000E+00  0.00000000E+00  0.00000000E+00
  0.00000000E+00  0.00000000E+00  0.00000000E+00
  0.00000000E+00  0.00000000E+00  0.00000000E+00
  0.00000000E+00  0.00000000E+00  0.00000000E+00
  0.00000000E+00  0.00000000E+00  0.00000000E+00
  0.00000000E+00  0.00000000E+00  0.00000000E+00
  0.00000000E+00  0.00000000E+00  0.00000000E+00
  0.00000000E+00  0.00000000E+00  0.00000000E+00
  0.00000000E+00  0.00000000E+00  0.00000000E+00
  0.00000000E+00  0.00000000E+00  0.00000000E+00
  0.00000000E+00  0.00000000E+00  0.00000000E+00
