Title                                   
   1.00000000000000     
     4.9440799999999996    0.0000000000000000    0.0000000000000000
     0.0000000000000000   17.1295089999999988    0.0000000000000000
     0.0000000000000000    0.0000000000000000   20.0000000000000000
    29     2     1
Selective dynamics
Direct
  0.0002142430344649  0.1039726533578372  0.2857950204253829   T   T   T
  0.2499110183231956  0.1459213720073200  0.2849753605408574   T   T   T
  0.2498950943811335  0.2294211166651993  0.2843893006960094   T   T   T
  0.0084711661450213  0.3535825395329263  0.2871499104420841   T   T   T
 -0.0014745211690046  0.2708858468524579  0.2856602346611877   T   T   T
 -0.0039660652219784  0.6049869241722757  0.3208844641584328   T   T   T
  0.2498875220149590  0.7287028761086599  0.3074676005798315   T   T   T
  0.0002152356824141  0.8539968033927940  0.2960348048670130   T   T   T
  0.2499043695614057  0.8958447969778761  0.2935948784713736   T   T   T
  0.2499119188461854  0.9789322728138764  0.2892922762413871   T   T   T
  0.0002303800919718  0.7710527702231080  0.3023693624373180   T   T   T
  0.4996253887671748  0.1039747508862892  0.2857942781137764   T   T   T
  0.7499222009965744  0.1458522504025487  0.2856482219806421   T   T   T
  0.7498857880016895  0.2286327654270207  0.2860755315132190   T   T   T
  0.4999207667266187  0.0207508780645464  0.2877825162021242   T   T   T
  0.4913324813411947  0.3535827046758707  0.2871539909845871   T   T   T
  0.7498881427108529  0.4773309510743987  0.3134553618249408   T   T   T
  0.5012625674885810  0.2708871674750694  0.2856639791775376   T   T   T
  0.5037585090836184  0.6049870592748836  0.3208824956279268   T   T   T
  0.7498867654680293  0.7300804449675182  0.3052169253964316   T   T   T
  0.4995872691712382  0.8539972401365553  0.2960366163479409   T   T   T
  0.7499036237745256  0.8956617109177041  0.2932872633849644   T   T   T
  0.7499015966376005  0.9788692035498894  0.2893029779727488   T   T   T
  0.4995354504925856  0.7710514773265656  0.3023690759200567   T   T   T
  0.7498949936073678  0.6476236459119844  0.3138710210336723   T   T   T
  0.2498963888818395  0.6463427802124434  0.3180410999117375   T   T   T
 -0.0001082903772363  0.0207490840968510  0.2877822067350575   T   T   T
  0.5165732395344635  0.5227402605177265  0.3279061249921141   T   T   T
  0.9832123509565193  0.5227394967110461  0.3278997305547134   T   T   T
  0.2498986601690193  0.3916574152941119  0.2850480539113905   T   T   T
  0.7499060270894609  0.3965806517663259  0.2946219973788489   T   T   T
  0.2499387177885199  0.4771590892063121  0.3911123175146438   T   T   T
 
  0.00000000E+00  0.00000000E+00  0.00000000E+00
  0.00000000E+00  0.00000000E+00  0.00000000E+00
  0.00000000E+00  0.00000000E+00  0.00000000E+00
  0.00000000E+00  0.00000000E+00  0.00000000E+00
  0.00000000E+00  0.00000000E+00  0.00000000E+00
  0.00000000E+00  0.00000000E+00  0.00000000E+00
  0.00000000E+00  0.00000000E+00  0.00000000E+00
  0.00000000E+00  0.00000000E+00  0.00000000E+00
  0.00000000E+00  0.00000000E+00  0.00000000E+00
  0.00000000E+00  0.00000000E+00  0.00000000E+00
  0.00000000E+00  0.00000000E+00  0.00000000E+00
  0.00000000E+00  0.00000000E+00  0.00000000E+00
  0.00000000E+00  0.00000000E+00  0.00000000E+00
  0.00000000E+00  0.00000000E+00  0.00000000E+00
  0.00000000E+00  0.00000000E+00  0.00000000E+00
  0.00000000E+00  0.00000000E+00  0.00000000E+00
  0.00000000E+00  0.00000000E+00  0.00000000E+00
  0.00000000E+00  0.00000000E+00  0.00000000E+00
  0.00000000E+00  0.00000000E+00  0.00000000E+00
  0.00000000E+00  0.00000000E+00  0.00000000E+00
  0.00000000E+00  0.00000000E+00  0.00000000E+00
  0.00000000E+00  0.00000000E+00  0.00000000E+00
  0.00000000E+00  0.00000000E+00  0.00000000E+00
  0.00000000E+00  0.00000000E+00  0.00000000E+00
  0.00000000E+00  0.00000000E+00  0.00000000E+00
  0.00000000E+00  0.00000000E+00  0.00000000E+00
  0.00000000E+00  0.00000000E+00  0.00000000E+00
  0.00000000E+00  0.00000000E+00  0.00000000E+00
  0.00000000E+00  0.00000000E+00  0.00000000E+00
  0.00000000E+00  0.00000000E+00  0.00000000E+00
  0.00000000E+00  0.00000000E+00  0.00000000E+00
  0.00000000E+00  0.00000000E+00  0.00000000E+00
