Title                                   
   1.00000000000000     
     9.8694509999999998    0.0000000000000000    0.0000000000000000
     0.0000000000000000    8.5490480000000009    0.0000000000000000
     0.0000000000000000    0.0000000000000000   20.0000000000000000
    27     3     1
Selective dynamics
Direct
  0.0547472707048864  0.0886222098399750  0.0866501153850818   T   T   T
  0.9297506648559269  0.1730256556508913  0.0872283155432985   T   T   T
  0.0573199952164703  0.9224591505080150  0.0874655740085319   T   T   T
  0.9323968256378133  0.3400417572727872  0.0857659912163077   T   T   T
  0.0577537194694317  0.5897485990849813  0.0842157529740094   T   T   T
  0.9334463420592592  0.6739884072901684  0.0879348741255808   T   T   T
  0.0571131753826640  0.4226009283888615  0.0834553149641796   T   T   T
  0.9314631852917130  0.8411480695694137  0.0894142532102617   T   T   T
  0.3063319126445265  0.0859829121225925  0.0921788411219143   T   T   T
  0.1808598961386729  0.1693012834687352  0.0873214599117181   T   T   T
  0.1806019139320550  0.3361256591139773  0.0852692919408006   T   T   T
  0.3067026657166162  0.5853399716780531  0.0907607373336208   T   T   T
  0.1832488412358282  0.6717066980103685  0.0857518114862889   T   T   T
  0.3041525703689017  0.4168289956132162  0.0912900090919047   T   T   T
  0.1830813846659234  0.8383901993593562  0.0878160376771671   T   T   T
  0.4278648128799711  0.1750777842751891  0.0987322004158352   T   T   T
  0.5549585080617732  0.9247676737572111  0.1024531788653564   T   T   T
  0.4300030511001295  0.6665989361031940  0.1023613100674662   T   T   T
  0.4319003267294085  0.8351617392873121  0.0995792938004049   T   T   T
  0.8025079448094514  0.0923572985275257  0.0921690520480924   T   T   T
  0.6780521582174699  0.1812681585700356  0.0977771844052409   T   T   T
  0.8049613153384254  0.9244860035423925  0.0939069574775842   T   T   T
  0.6828580634988363  0.3482378326218049  0.1016294315002257   T   T   T
  0.8108812341846749  0.5920304873289799  0.0949016785819347   T   T   T
  0.6866618062668096  0.6708570687032250  0.1104090588009457   T   T   T
  0.8097870787900227  0.4242458238284790  0.0922563106924481   T   T   T
  0.6801009088863825  0.8397474625315180  0.1020503821131034   T   T   T
  0.5539292988761800  0.0942236815132752  0.1008774280577334   T   T   T
  0.4232408282233582  0.3354919118215464  0.1023903049712226   T   T   T
  0.3070450522627971  0.9202395736980608  0.0920646374522959   T   T   T
  0.5594122485536391  0.5107730669188781  0.1448882107594927   T   T   T
 
  0.00000000E+00  0.00000000E+00  0.00000000E+00
  0.00000000E+00  0.00000000E+00  0.00000000E+00
  0.00000000E+00  0.00000000E+00  0.00000000E+00
  0.00000000E+00  0.00000000E+00  0.00000000E+00
  0.00000000E+00  0.00000000E+00  0.00000000E+00
  0.00000000E+00  0.00000000E+00  0.00000000E+00
  0.00000000E+00  0.00000000E+00  0.00000000E+00
  0.00000000E+00  0.00000000E+00  0.00000000E+00
  0.00000000E+00  0.00000000E+00  0.00000000E+00
  0.00000000E+00  0.00000000E+00  0.00000000E+00
  0.00000000E+00  0.00000000E+00  0.00000000E+00
  0.00000000E+00  0.00000000E+00  0.00000000E+00
  0.00000000E+00  0.00000000E+00  0.00000000E+00
  0.00000000E+00  0.00000000E+00  0.00000000E+00
  0.00000000E+00  0.00000000E+00  0.00000000E+00
  0.00000000E+00  0.00000000E+00  0.00000000E+00
  0.00000000E+00  0.00000000E+00  0.00000000E+00
  0.00000000E+00  0.00000000E+00  0.00000000E+00
  0.00000000E+00  0.00000000E+00  0.00000000E+00
  0.00000000E+00  0.00000000E+00  0.00000000E+00
  0.00000000E+00  0.00000000E+00  0.00000000E+00
  0.00000000E+00  0.00000000E+00  0.00000000E+00
  0.00000000E+00  0.00000000E+00  0.00000000E+00
  0.00000000E+00  0.00000000E+00  0.00000000E+00
  0.00000000E+00  0.00000000E+00  0.00000000E+00
  0.00000000E+00  0.00000000E+00  0.00000000E+00
  0.00000000E+00  0.00000000E+00  0.00000000E+00
  0.00000000E+00  0.00000000E+00  0.00000000E+00
  0.00000000E+00  0.00000000E+00  0.00000000E+00
  0.00000000E+00  0.00000000E+00  0.00000000E+00
  0.00000000E+00  0.00000000E+00  0.00000000E+00
