Title                                   
   1.00000000000000     
     9.8694509999999998    0.0000000000000000    0.0000000000000000
     0.0000000000000000    8.5490480000000009    0.0000000000000000
     0.0000000000000000    0.0000000000000000   20.0000000000000000
    30     1
Selective dynamics
Direct
  0.0562161329674540  0.0890049853541988  0.0844658668552565   T   T   T
  0.9311888458911686  0.1721109892648227  0.0867200772532398   T   T   T
  0.0562216044350130  0.9233532355306550  0.0844665809006527   T   T   T
  0.9322223722941495  0.3386720057579182  0.0858452232010972   T   T   T
  0.0562383273505367  0.5894616002993710  0.0831451677244465   T   T   T
  0.9322383597600455  0.6736902527852614  0.0858576411305017   T   T   T
  0.0562245022534136  0.4228565478618025  0.0831415315522172   T   T   T
  0.9312139936380990  0.8402585863446962  0.0867189137551321   T   T   T
  0.3057734510602771  0.0896614788358434  0.0933040370935800   T   T   T
  0.1812376485241156  0.1720737554483489  0.0868063474633091   T   T   T
  0.3057870682223683  0.9226329854575565  0.0932898208868532   T   T   T
  0.1801884969186159  0.3386417925467188  0.0859480714299353   T   T   T
  0.3034180178848288  0.5910778442704950  0.0936694658054725   T   T   T
  0.1802167893203407  0.6736750890236680  0.0859459304994130   T   T   T
  0.3033895469162260  0.4211645864241767  0.0936776768456743   T   T   T
  0.1812415799924143  0.8402556267821337  0.0868015244474118   T   T   T
  0.5562242021849373  0.0884885201899919  0.1037395952011286   T   T   T
  0.4301431819421841  0.1746437822957767  0.1013479242967762   T   T   T
  0.5562377825753404  0.9238301019355665  0.1037345221711857   T   T   T
  0.4239094724196849  0.3382537736220435  0.1051363141283515   T   T   T
  0.4239541325460791  0.6740166544311167  0.1050956051839307   T   T   T
  0.4301775165107961  0.8376278364268015  0.1013341827983325   T   T   T
  0.8066682526055486  0.0896786977734146  0.0931972362859643   T   T   T
  0.6822838723082694  0.1746651906890379  0.1012385581561316   T   T   T
  0.8066723661156863  0.9226580932653317  0.0932042067122068   T   T   T
  0.6885544567627528  0.3382620009317855  0.1049706754165682   T   T   T
  0.8090492463802443  0.5911022093736356  0.0935356945540630   T   T   T
  0.6885678579937738  0.6740559945312831  0.1050341771241781   T   T   T
  0.8090343248464813  0.4212122277948736  0.0935054673424403   T   T   T
  0.6823195322666633  0.8376526168218065  0.1012683381904013   T   T   T
  0.5563220651125002  0.5061359379298805  0.1348186255941889   T   T   T
 
  0.00000000E+00  0.00000000E+00  0.00000000E+00
  0.00000000E+00  0.00000000E+00  0.00000000E+00
  0.00000000E+00  0.00000000E+00  0.00000000E+00
  0.00000000E+00  0.00000000E+00  0.00000000E+00
  0.00000000E+00  0.00000000E+00  0.00000000E+00
  0.00000000E+00  0.00000000E+00  0.00000000E+00
  0.00000000E+00  0.00000000E+00  0.00000000E+00
  0.00000000E+00  0.00000000E+00  0.00000000E+00
  0.00000000E+00  0.00000000E+00  0.00000000E+00
  0.00000000E+00  0.00000000E+00  0.00000000E+00
  0.00000000E+00  0.00000000E+00  0.00000000E+00
  0.00000000E+00  0.00000000E+00  0.00000000E+00
  0.00000000E+00  0.00000000E+00  0.00000000E+00
  0.00000000E+00  0.00000000E+00  0.00000000E+00
  0.00000000E+00  0.00000000E+00  0.00000000E+00
  0.00000000E+00  0.00000000E+00  0.00000000E+00
  0.00000000E+00  0.00000000E+00  0.00000000E+00
  0.00000000E+00  0.00000000E+00  0.00000000E+00
  0.00000000E+00  0.00000000E+00  0.00000000E+00
  0.00000000E+00  0.00000000E+00  0.00000000E+00
  0.00000000E+00  0.00000000E+00  0.00000000E+00
  0.00000000E+00  0.00000000E+00  0.00000000E+00
  0.00000000E+00  0.00000000E+00  0.00000000E+00
  0.00000000E+00  0.00000000E+00  0.00000000E+00
  0.00000000E+00  0.00000000E+00  0.00000000E+00
  0.00000000E+00  0.00000000E+00  0.00000000E+00
  0.00000000E+00  0.00000000E+00  0.00000000E+00
  0.00000000E+00  0.00000000E+00  0.00000000E+00
  0.00000000E+00  0.00000000E+00  0.00000000E+00
  0.00000000E+00  0.00000000E+00  0.00000000E+00
  0.00000000E+00  0.00000000E+00  0.00000000E+00
