Title                                   
   1.00000000000000     
     9.8694509999999998    0.0000000000000000    0.0000000000000000
     0.0000000000000000    8.5490480000000009    0.0000000000000000
     0.0000000000000000    0.0000000000000000   20.0000000000000000
    27     3     1
Selective dynamics
Direct
  0.0550127238113674  0.0895898658927234  0.0897231601058848   T   T   T
  0.9303662396249305  0.1742614579822737  0.0940660917360877   T   T   T
  0.0586311008271259  0.9232531163931141  0.0904019487443769   T   T   T
  0.9321441659534706  0.3421457835069073  0.0945648238865489   T   T   T
  0.0577194084988306  0.5905019313764798  0.0906930137180458   T   T   T
  0.9345395391985427  0.6762447327793429  0.0963729085294242   T   T   T
  0.0564718497221209  0.4232269860050220  0.0899615476013366   T   T   T
  0.9339198463084074  0.8424404858636261  0.0960172778393217   T   T   T
  0.3060990710335129  0.0851529565842224  0.0861119825222939   T   T   T
  0.1799879358536149  0.1690343791174737  0.0865498639890818   T   T   T
  0.1787745858039767  0.3358596409410270  0.0862313892623577   T   T   T
  0.3069487747132972  0.5851354604621577  0.0824970142587966   T   T   T
  0.1827731350598922  0.6721298730197551  0.0868916827804958   T   T   T
  0.3027233066386996  0.4156506595993495  0.0844862897573757   T   T   T
  0.1838065288875673  0.8382679790291350  0.0867657649723149   T   T   T
  0.5562060200918980  0.0910288515950269  0.0982284433697651   T   T   T
  0.4280939367054096  0.1703344805845717  0.0907598001800896   T   T   T
  0.5575696540527556  0.9214439619327496  0.0983134811139903   T   T   T
  0.4316162218078627  0.6689921915321853  0.0823300367156715   T   T   T
  0.4339507849381854  0.8349334750589705  0.0873847929938084   T   T   T
  0.8041361643521027  0.0934722545198563  0.0987071136127956   T   T   T
  0.6790463279168427  0.1817691746598557  0.1022163028608705   T   T   T
  0.8067889390749419  0.9246785496640266  0.0999092930404376   T   T   T
  0.6839313583292405  0.3517096074027037  0.1068746351351550   T   T   T
  0.8115909969309784  0.5960731737530635  0.1047576290427381   T   T   T
  0.8101105787748029  0.4283303093380477  0.1017030794212194   T   T   T
  0.6843216216145143  0.8356623820920027  0.1053549953308631   T   T   T
  0.4214636784308519  0.3322746312114176  0.0921274401457437   T   T   T
  0.6902966601608249  0.6733681460133168  0.1151211718411316   T   T   T
  0.3087029873906436  0.9196401270562399  0.0851670399438444   T   T   T
  0.5353908574927910  0.5042683750333843  0.1306749855481671   T   T   T
 
  0.00000000E+00  0.00000000E+00  0.00000000E+00
  0.00000000E+00  0.00000000E+00  0.00000000E+00
  0.00000000E+00  0.00000000E+00  0.00000000E+00
  0.00000000E+00  0.00000000E+00  0.00000000E+00
  0.00000000E+00  0.00000000E+00  0.00000000E+00
  0.00000000E+00  0.00000000E+00  0.00000000E+00
  0.00000000E+00  0.00000000E+00  0.00000000E+00
  0.00000000E+00  0.00000000E+00  0.00000000E+00
  0.00000000E+00  0.00000000E+00  0.00000000E+00
  0.00000000E+00  0.00000000E+00  0.00000000E+00
  0.00000000E+00  0.00000000E+00  0.00000000E+00
  0.00000000E+00  0.00000000E+00  0.00000000E+00
  0.00000000E+00  0.00000000E+00  0.00000000E+00
  0.00000000E+00  0.00000000E+00  0.00000000E+00
  0.00000000E+00  0.00000000E+00  0.00000000E+00
  0.00000000E+00  0.00000000E+00  0.00000000E+00
  0.00000000E+00  0.00000000E+00  0.00000000E+00
  0.00000000E+00  0.00000000E+00  0.00000000E+00
  0.00000000E+00  0.00000000E+00  0.00000000E+00
  0.00000000E+00  0.00000000E+00  0.00000000E+00
  0.00000000E+00  0.00000000E+00  0.00000000E+00
  0.00000000E+00  0.00000000E+00  0.00000000E+00
  0.00000000E+00  0.00000000E+00  0.00000000E+00
  0.00000000E+00  0.00000000E+00  0.00000000E+00
  0.00000000E+00  0.00000000E+00  0.00000000E+00
  0.00000000E+00  0.00000000E+00  0.00000000E+00
  0.00000000E+00  0.00000000E+00  0.00000000E+00
  0.00000000E+00  0.00000000E+00  0.00000000E+00
  0.00000000E+00  0.00000000E+00  0.00000000E+00
  0.00000000E+00  0.00000000E+00  0.00000000E+00
  0.00000000E+00  0.00000000E+00  0.00000000E+00
