Title                                   
   1.00000000000000     
     9.8694509999999998    0.0000000000000000    0.0000000000000000
     0.0000000000000000    8.5490480000000009    0.0000000000000000
     0.0000000000000000    0.0000000000000000   20.0000000000000000
    28     3     1
Selective dynamics
Direct
  0.0561383478821472  0.0915017525243437  0.0822260630090346   T   T   T
  0.9303650577803368  0.1738788375154195  0.0858193410268368   T   T   T
  0.0558049250517332  0.9244366501844595  0.0808434314310549   T   T   T
  0.9290866530355583  0.3408251780138294  0.0916710708450663   T   T   T
  0.0563102569073636  0.5893958088576258  0.0849711571650290   T   T   T
  0.9315515452421566  0.6728682490616595  0.0881865218003826   T   T   T
  0.0565003991194665  0.4234097728890794  0.0881524630836682   T   T   T
  0.9308917873235839  0.8396413688384808  0.0839124160301724   T   T   T
  0.3053004606329336  0.0897267572568224  0.0859250307249732   T   T   T
  0.1818697178863428  0.1746685106015178  0.0848537006551508   T   T   T
  0.3056316034552084  0.9241260233111833  0.0854186804341050   T   T   T
  0.1837740015344927  0.3422888436867875  0.0883454947429340   T   T   T
  0.3065727086980570  0.5948561341858850  0.0931998896189594   T   T   T
  0.1808213417389289  0.6733938979050329  0.0841969220733847   T   T   T
  0.3106823237696722  0.4251885938413846  0.0940659990021375   T   T   T
  0.1807341554135648  0.8404335519858180  0.0824230107971054   T   T   T
  0.5554331955375629  0.0828878550119634  0.0961999049765063   T   T   T
  0.4317699002109146  0.1678891644072667  0.0921493727694323   T   T   T
  0.4355473429796227  0.3339181608744305  0.0986037706466084   T   T   T
  0.4272328196206617  0.8376487221278898  0.0959171590945976   T   T   T
  0.8067500243282372  0.0888693905103758  0.0867782289755139   T   T   T
  0.6804613819045012  0.1671965959789045  0.0945103066200195   T   T   T
  0.8057473899967401  0.9230101085031346  0.0866406584754407   T   T   T
  0.6777729394016778  0.3330435755055786  0.1035581321438710   T   T   T
  0.8090275451798717  0.5931633798341266  0.1050736530658975   T   T   T
  0.6955723296629441  0.6851227251307760  0.1238081102424597   T   T   T
  0.8042170943594643  0.4229170652211245  0.1024823396849939   T   T   T
  0.6849135276652281  0.8387565319957664  0.1026251722940567   T   T   T
  0.4218569436173739  0.6820985099376503  0.1045062515504186   T   T   T
  0.5554516316580290  0.4052342203579166  0.1122439897552607   T   T   T
  0.5547392340170976  0.9185740446309886  0.1008182319573769   T   T   T
  0.5511104143885323  0.5892760193127866  0.1755485253075857   T   T   T
 
  0.00000000E+00  0.00000000E+00  0.00000000E+00
  0.00000000E+00  0.00000000E+00  0.00000000E+00
  0.00000000E+00  0.00000000E+00  0.00000000E+00
  0.00000000E+00  0.00000000E+00  0.00000000E+00
  0.00000000E+00  0.00000000E+00  0.00000000E+00
  0.00000000E+00  0.00000000E+00  0.00000000E+00
  0.00000000E+00  0.00000000E+00  0.00000000E+00
  0.00000000E+00  0.00000000E+00  0.00000000E+00
  0.00000000E+00  0.00000000E+00  0.00000000E+00
  0.00000000E+00  0.00000000E+00  0.00000000E+00
  0.00000000E+00  0.00000000E+00  0.00000000E+00
  0.00000000E+00  0.00000000E+00  0.00000000E+00
  0.00000000E+00  0.00000000E+00  0.00000000E+00
  0.00000000E+00  0.00000000E+00  0.00000000E+00
  0.00000000E+00  0.00000000E+00  0.00000000E+00
  0.00000000E+00  0.00000000E+00  0.00000000E+00
  0.00000000E+00  0.00000000E+00  0.00000000E+00
  0.00000000E+00  0.00000000E+00  0.00000000E+00
  0.00000000E+00  0.00000000E+00  0.00000000E+00
  0.00000000E+00  0.00000000E+00  0.00000000E+00
  0.00000000E+00  0.00000000E+00  0.00000000E+00
  0.00000000E+00  0.00000000E+00  0.00000000E+00
  0.00000000E+00  0.00000000E+00  0.00000000E+00
  0.00000000E+00  0.00000000E+00  0.00000000E+00
  0.00000000E+00  0.00000000E+00  0.00000000E+00
  0.00000000E+00  0.00000000E+00  0.00000000E+00
  0.00000000E+00  0.00000000E+00  0.00000000E+00
  0.00000000E+00  0.00000000E+00  0.00000000E+00
  0.00000000E+00  0.00000000E+00  0.00000000E+00
  0.00000000E+00  0.00000000E+00  0.00000000E+00
  0.00000000E+00  0.00000000E+00  0.00000000E+00
  0.00000000E+00  0.00000000E+00  0.00000000E+00
