Title                                   
   1.00000000000000     
     8.5490480000000009    0.0000000000000000    0.0000000000000000
     0.0000000000000000    8.5490480000000009    0.0000000000000000
     0.0000000000000000    0.0000000000000000   20.0000000000000000
    24     1
Selective dynamics
Direct
  0.9112459444410604  0.2059487883114514  0.0954435939621147   T   T   T
  0.9091466715180365  0.5017983387391006  0.0953093013478485   T   T   T
  0.9112548488630959  0.7976164137163442  0.0954590603007196   T   T   T
  0.1971996319617795  0.0835283732061211  0.0954742292399231   T   T   T
  0.0747457130107417  0.2059456649160311  0.0954561740026787   T   T   T
  0.1971930902317365  0.9200294523220722  0.0954823781682331   T   T   T
  0.1565856040309453  0.6488595897017528  0.0953639846470313   T   T   T
  0.0768365454495231  0.5017979847372853  0.0953326407473688   T   T   T
  0.1565788517412648  0.3547157002087821  0.0953536168859611   T   T   T
  0.0747518365188285  0.7976038476921241  0.0954705949478688   T   T   T
  0.4929698060083581  0.0856297135712724  0.0953616462328587   T   T   T
  0.3459362070173327  0.1654203868992086  0.0953749994911680   T   T   T
  0.4929681904173603  0.9179529025607006  0.0953687799075370   T   T   T
  0.3459411382665703  0.8381683526325781  0.0953808905014618   T   T   T
  0.7888129887014230  0.0835374445321662  0.0954599850087449   T   T   T
  0.6400496229881096  0.1653336649581660  0.0953449664776057   T   T   T
  0.7888307374005294  0.9200437956703003  0.0954682970672776   T   T   T
  0.8294259189809570  0.6488782932167062  0.0953250069441215   T   T   T
  0.8294218100566366  0.3547138538544186  0.0953083704258293   T   T   T
  0.6400562493904621  0.8382604864499870  0.0953512020929924   T   T   T
  0.3233072718469030  0.3321600616706595  0.0952392983934322   T   T   T
  0.3233034535595242  0.6714299472309712  0.0952563233707461   T   T   T
  0.6626941388747537  0.3320025682884518  0.0951864133766119   T   T   T
  0.6627068812887424  0.6715891685420287  0.0951964384511269   T   T   T
  0.4934488474353185  0.5018252063713335  0.0949368080087162   T   T   T
 
  0.00000000E+00  0.00000000E+00  0.00000000E+00
  0.00000000E+00  0.00000000E+00  0.00000000E+00
  0.00000000E+00  0.00000000E+00  0.00000000E+00
  0.00000000E+00  0.00000000E+00  0.00000000E+00
  0.00000000E+00  0.00000000E+00  0.00000000E+00
  0.00000000E+00  0.00000000E+00  0.00000000E+00
  0.00000000E+00  0.00000000E+00  0.00000000E+00
  0.00000000E+00  0.00000000E+00  0.00000000E+00
  0.00000000E+00  0.00000000E+00  0.00000000E+00
  0.00000000E+00  0.00000000E+00  0.00000000E+00
  0.00000000E+00  0.00000000E+00  0.00000000E+00
  0.00000000E+00  0.00000000E+00  0.00000000E+00
  0.00000000E+00  0.00000000E+00  0.00000000E+00
  0.00000000E+00  0.00000000E+00  0.00000000E+00
  0.00000000E+00  0.00000000E+00  0.00000000E+00
  0.00000000E+00  0.00000000E+00  0.00000000E+00
  0.00000000E+00  0.00000000E+00  0.00000000E+00
  0.00000000E+00  0.00000000E+00  0.00000000E+00
  0.00000000E+00  0.00000000E+00  0.00000000E+00
  0.00000000E+00  0.00000000E+00  0.00000000E+00
  0.00000000E+00  0.00000000E+00  0.00000000E+00
  0.00000000E+00  0.00000000E+00  0.00000000E+00
  0.00000000E+00  0.00000000E+00  0.00000000E+00
  0.00000000E+00  0.00000000E+00  0.00000000E+00
  0.00000000E+00  0.00000000E+00  0.00000000E+00
