Title                                   
   1.00000000000000     
     4.9440799999999996    0.0000000000000000    0.0000000000000000
     0.0000000000000000   17.1295089999999988    0.0000000000000000
     0.0000000000000000    0.0000000000000000   20.0000000000000000
    26     4     1
Selective dynamics
Direct
  0.0008904451692349  0.1058973924893987  0.2986543538865262   T   T   T
  0.2507592686156041  0.1486772887363071  0.2992319828782889   T   T   T
  0.2514535704537670  0.2333522525456591  0.3003075707169923   T   T   T
 -0.0020073906995516  0.2740049321199358  0.3006322764676671   T   T   T
 -0.0015099626584383  0.6008707592639647  0.3002757876146331   T   T   T
  0.2481385670853090  0.7264805153851549  0.2988640869379106   T   T   T
  0.0005958136253684  0.8529806699446038  0.2976609837076509   T   T   T
  0.2493371775579868  0.8951978418933620  0.2975045487708037   T   T   T
  0.2497905371591497  0.9794289527027802  0.2975794258073024   T   T   T
  0.0006933795299098  0.7686104322264562  0.2983638725112991   T   T   T
  0.4995330828502287  0.1056856417834974  0.2986420561569464   T   T   T
  0.7497744580185909  0.1476503846414897  0.2990863209517463   T   T   T
  0.7494018896405065  0.2313155892541352  0.3000765576119028   T   T   T
  0.4993899933276937  0.0215729652981957  0.2978156135464988   T   T   T
  0.7562994701078446  0.3949527992961284  0.3015463692031359   T   T   T
  0.7550187519087326  0.4793591681681053  0.3014577654707991   T   T   T
  0.5030756316912849  0.2751379038897605  0.3007797531908927   T   T   T
  0.4991827377990355  0.6008472605798972  0.3003952079687385   T   T   T
  0.7499875532995880  0.7270154401011260  0.2987933162335663   T   T   T
  0.4980264901186816  0.8526291066705076  0.2977069999912645   T   T   T
  0.7494022396536253  0.8949456802237180  0.2974774736830825   T   T   T
  0.7497272150346911  0.9791356796678894  0.2975351811747415   T   T   T
  0.4973434306745524  0.7683345631446992  0.2984126421489560   T   T   T
  0.7485336684352818  0.6443416705983970  0.2997217306771646   T   T   T
  0.0002543694236910  0.0216933225097901  0.2978276150054124   T   T   T
  0.5081596857295388  0.5194651733275343  0.3016009803361133   T   T   T
 -0.0011147796591185  0.5214648283049391  0.3012489499227926   T   T   T
  0.5124934985484738  0.3560665820923016  0.3019791633061387   T   T   T
 -0.0090484394834002  0.3537767235655845  0.3013198052027826   T   T   T
  0.2464051362098580  0.6425442602860719  0.2998148857267681   T   T   T
  0.2500195108322795  0.4379062192886068  0.3027467231914356   T   T   T
 
  0.00000000E+00  0.00000000E+00  0.00000000E+00
  0.00000000E+00  0.00000000E+00  0.00000000E+00
  0.00000000E+00  0.00000000E+00  0.00000000E+00
  0.00000000E+00  0.00000000E+00  0.00000000E+00
  0.00000000E+00  0.00000000E+00  0.00000000E+00
  0.00000000E+00  0.00000000E+00  0.00000000E+00
  0.00000000E+00  0.00000000E+00  0.00000000E+00
  0.00000000E+00  0.00000000E+00  0.00000000E+00
  0.00000000E+00  0.00000000E+00  0.00000000E+00
  0.00000000E+00  0.00000000E+00  0.00000000E+00
  0.00000000E+00  0.00000000E+00  0.00000000E+00
  0.00000000E+00  0.00000000E+00  0.00000000E+00
  0.00000000E+00  0.00000000E+00  0.00000000E+00
  0.00000000E+00  0.00000000E+00  0.00000000E+00
  0.00000000E+00  0.00000000E+00  0.00000000E+00
  0.00000000E+00  0.00000000E+00  0.00000000E+00
  0.00000000E+00  0.00000000E+00  0.00000000E+00
  0.00000000E+00  0.00000000E+00  0.00000000E+00
  0.00000000E+00  0.00000000E+00  0.00000000E+00
  0.00000000E+00  0.00000000E+00  0.00000000E+00
  0.00000000E+00  0.00000000E+00  0.00000000E+00
  0.00000000E+00  0.00000000E+00  0.00000000E+00
  0.00000000E+00  0.00000000E+00  0.00000000E+00
  0.00000000E+00  0.00000000E+00  0.00000000E+00
  0.00000000E+00  0.00000000E+00  0.00000000E+00
  0.00000000E+00  0.00000000E+00  0.00000000E+00
  0.00000000E+00  0.00000000E+00  0.00000000E+00
  0.00000000E+00  0.00000000E+00  0.00000000E+00
  0.00000000E+00  0.00000000E+00  0.00000000E+00
  0.00000000E+00  0.00000000E+00  0.00000000E+00
  0.00000000E+00  0.00000000E+00  0.00000000E+00
