Title                                   
   1.00000000000000     
     9.8694509999999998    0.0000000000000000    0.0000000000000000
     0.0000000000000000    8.5490480000000009    0.0000000000000000
     0.0000000000000000    0.0000000000000000   20.0000000000000000
    26     4     1
Selective dynamics
Direct
  0.0553469479871753  0.0891999458704084  0.0912672148464394   T   T   T
  0.9305024540838270  0.1725029540157981  0.0913899995915287   T   T   T
  0.0570872128333204  0.9236382199730118  0.0913656494035030   T   T   T
  0.9333496205538253  0.3403950423223309  0.0905571479312156   T   T   T
  0.0565857984038920  0.5897162013973489  0.0896960997920938   T   T   T
  0.9331149786493086  0.6739681858672975  0.0907344655183230   T   T   T
  0.0571927075570213  0.4231946687567729  0.0896750693582090   T   T   T
  0.9322682152214639  0.8408488369457239  0.0916766047020957   T   T   T
  0.3066286095488693  0.0881614298744258  0.0950198599328226   T   T   T
  0.1814870494252620  0.1704502995265014  0.0924003875641147   T   T   T
  0.1805698072368737  0.3373444106083382  0.0918668667317580   T   T   T
  0.3029730091550554  0.5876793680434453  0.0961627208618453   T   T   T
  0.1808269194495629  0.6732829924124080  0.0918636662312387   T   T   T
  0.3021865247263251  0.4189524833730228  0.0959975055208482   T   T   T
  0.1825233849392745  0.8400785402557771  0.0923956868533280   T   T   T
  0.4308124831631447  0.1762738076039696  0.0983137841098581   T   T   T
  0.5554052197421262  0.9214770813582955  0.0986368677906997   T   T   T
  0.4258752514372452  0.6714978015338079  0.1013194208877982   T   T   T
  0.4296038959370603  0.8367065452120602  0.0988229072501224   T   T   T
  0.8042915644995179  0.0890388654262322  0.0935968511077220   T   T   T
  0.6807338391432434  0.1783271816139551  0.0964975231402830   T   T   T
  0.8060354138254577  0.9220334039074412  0.0939195252371022   T   T   T
  0.6850536549246250  0.3425320575202693  0.0976529360280993   T   T   T
  0.8108166631249485  0.5925019961778855  0.0934858934700021   T   T   T
  0.8105757294507813  0.4238547673219222  0.0931932738208340   T   T   T
  0.6808890814394589  0.8349146147701121  0.0971867561455844   T   T   T
  0.5553748008055384  0.0932552066464646  0.0984548236164055   T   T   T
  0.4252904643032130  0.3382331788389891  0.1005149218710087   T   T   T
  0.6871783327999768  0.6704283335897767  0.0982371088340438   T   T   T
  0.3061071338183284  0.9230898604402630  0.0949439090628522   T   T   T
  0.5564482318142814  0.5072967187959714  0.1041195527882548   T   T   T
 
  0.00000000E+00  0.00000000E+00  0.00000000E+00
  0.00000000E+00  0.00000000E+00  0.00000000E+00
  0.00000000E+00  0.00000000E+00  0.00000000E+00
  0.00000000E+00  0.00000000E+00  0.00000000E+00
  0.00000000E+00  0.00000000E+00  0.00000000E+00
  0.00000000E+00  0.00000000E+00  0.00000000E+00
  0.00000000E+00  0.00000000E+00  0.00000000E+00
  0.00000000E+00  0.00000000E+00  0.00000000E+00
  0.00000000E+00  0.00000000E+00  0.00000000E+00
  0.00000000E+00  0.00000000E+00  0.00000000E+00
  0.00000000E+00  0.00000000E+00  0.00000000E+00
  0.00000000E+00  0.00000000E+00  0.00000000E+00
  0.00000000E+00  0.00000000E+00  0.00000000E+00
  0.00000000E+00  0.00000000E+00  0.00000000E+00
  0.00000000E+00  0.00000000E+00  0.00000000E+00
  0.00000000E+00  0.00000000E+00  0.00000000E+00
  0.00000000E+00  0.00000000E+00  0.00000000E+00
  0.00000000E+00  0.00000000E+00  0.00000000E+00
  0.00000000E+00  0.00000000E+00  0.00000000E+00
  0.00000000E+00  0.00000000E+00  0.00000000E+00
  0.00000000E+00  0.00000000E+00  0.00000000E+00
  0.00000000E+00  0.00000000E+00  0.00000000E+00
  0.00000000E+00  0.00000000E+00  0.00000000E+00
  0.00000000E+00  0.00000000E+00  0.00000000E+00
  0.00000000E+00  0.00000000E+00  0.00000000E+00
  0.00000000E+00  0.00000000E+00  0.00000000E+00
  0.00000000E+00  0.00000000E+00  0.00000000E+00
  0.00000000E+00  0.00000000E+00  0.00000000E+00
  0.00000000E+00  0.00000000E+00  0.00000000E+00
  0.00000000E+00  0.00000000E+00  0.00000000E+00
  0.00000000E+00  0.00000000E+00  0.00000000E+00
