Title                                   
   1.00000000000000     
     9.8694509999999998    0.0000000000000000    0.0000000000000000
     0.0000000000000000    8.5490480000000009    0.0000000000000000
     0.0000000000000000    0.0000000000000000   20.0000000000000000
    28     3     1
Selective dynamics
Direct
  0.0564387393134168  0.0917941137282609  0.0846493046584657   T   T   T
  0.9310707430211118  0.1752913574538181  0.0880713787189618   T   T   T
  0.0578722418243692  0.9241284217458562  0.0823567837584618   T   T   T
  0.9291415969754581  0.3426540439727223  0.0922248680031315   T   T   T
  0.0558609310706830  0.5899277961059061  0.0871019078184538   T   T   T
  0.9326871025501144  0.6741802582984349  0.0869997085200999   T   T   T
  0.0563645347531241  0.4235847977243468  0.0906794348454480   T   T   T
  0.9328267316846831  0.8413834148606144  0.0840231988799137   T   T   T
  0.3059046027414578  0.0873388338351920  0.0869441407268770   T   T   T
  0.1823722972325607  0.1741927420846226  0.0876111647495807   T   T   T
  0.3079883350160131  0.9220810823854501  0.0862238190583010   T   T   T
  0.1817099105589318  0.3398999796073907  0.0928769681641639   T   T   T
  0.3045542512420856  0.5885418174982612  0.0996595498902269   T   T   T
  0.1814027015397358  0.6710872251290272  0.0870968769350139   T   T   T
  0.1829376436097921  0.8378170924160382  0.0840859308408028   T   T   T
  0.5565435080512079  0.0850474987379290  0.0947359630027436   T   T   T
  0.4306149807474214  0.1680766204910980  0.0935935065692501   T   T   T
  0.4300432874613972  0.3330049411262430  0.1057887889315066   T   T   T
  0.4307619314362137  0.8363189274946804  0.0970262427428363   T   T   T
  0.8072055061183295  0.0911174440218138  0.0878894110977171   T   T   T
  0.6804945182027904  0.1704148117001634  0.0945637956931473   T   T   T
  0.8082260829821679  0.9264595235132028  0.0862040276300490   T   T   T
  0.6778391242306138  0.3357749180325754  0.1057646484783928   T   T   T
  0.8067443689604659  0.5958536150891721  0.0968495596334038   T   T   T
  0.8029255526141429  0.4261600728703844  0.0997023509932452   T   T   T
  0.6864396094856636  0.8392716442672933  0.0946958959247966   T   T   T
  0.4204946835415737  0.6770333370936057  0.1135789375026031   T   T   T
  0.5513046894660250  0.4036290423877785  0.1237171493418816   T   T   T
  0.6920912736538255  0.6850478883927670  0.1044452224051472   T   T   T
  0.5581225568617166  0.9184180525714597  0.0958931787596466   T   T   T
  0.3052279254155358  0.4211630404076676  0.1013429146067079   T   T   T
  0.5554270376373782  0.5935516449562271  0.1692783711190387   T   T   T
 
  0.00000000E+00  0.00000000E+00  0.00000000E+00
  0.00000000E+00  0.00000000E+00  0.00000000E+00
  0.00000000E+00  0.00000000E+00  0.00000000E+00
  0.00000000E+00  0.00000000E+00  0.00000000E+00
  0.00000000E+00  0.00000000E+00  0.00000000E+00
  0.00000000E+00  0.00000000E+00  0.00000000E+00
  0.00000000E+00  0.00000000E+00  0.00000000E+00
  0.00000000E+00  0.00000000E+00  0.00000000E+00
  0.00000000E+00  0.00000000E+00  0.00000000E+00
  0.00000000E+00  0.00000000E+00  0.00000000E+00
  0.00000000E+00  0.00000000E+00  0.00000000E+00
  0.00000000E+00  0.00000000E+00  0.00000000E+00
  0.00000000E+00  0.00000000E+00  0.00000000E+00
  0.00000000E+00  0.00000000E+00  0.00000000E+00
  0.00000000E+00  0.00000000E+00  0.00000000E+00
  0.00000000E+00  0.00000000E+00  0.00000000E+00
  0.00000000E+00  0.00000000E+00  0.00000000E+00
  0.00000000E+00  0.00000000E+00  0.00000000E+00
  0.00000000E+00  0.00000000E+00  0.00000000E+00
  0.00000000E+00  0.00000000E+00  0.00000000E+00
  0.00000000E+00  0.00000000E+00  0.00000000E+00
  0.00000000E+00  0.00000000E+00  0.00000000E+00
  0.00000000E+00  0.00000000E+00  0.00000000E+00
  0.00000000E+00  0.00000000E+00  0.00000000E+00
  0.00000000E+00  0.00000000E+00  0.00000000E+00
  0.00000000E+00  0.00000000E+00  0.00000000E+00
  0.00000000E+00  0.00000000E+00  0.00000000E+00
  0.00000000E+00  0.00000000E+00  0.00000000E+00
  0.00000000E+00  0.00000000E+00  0.00000000E+00
  0.00000000E+00  0.00000000E+00  0.00000000E+00
  0.00000000E+00  0.00000000E+00  0.00000000E+00
  0.00000000E+00  0.00000000E+00  0.00000000E+00
