Title                                   
   1.00000000000000     
     8.5490480000000009    0.0000000000000000    0.0000000000000000
     0.0000000000000000    8.5490480000000009    0.0000000000000000
     0.0000000000000000    0.0000000000000000   20.0000000000000000
    18     6     1
Selective dynamics
Direct
  0.9084549560882145  0.2058508319865641  0.0975207639671550   T   T   T
  0.9108723722320475  0.8010757483575959  0.0974172831336509   T   T   T
  0.1986617448776852  0.0842314670495061  0.0976966966812508   T   T   T
  0.0768401101722857  0.2021504406360618  0.0976074442030026   T   T   T
  0.1566910790552335  0.6517001999811409  0.0978288315664458   T   T   T
  0.0753440901891365  0.5007693418579009  0.0977377495708757   T   T   T
  0.1568772307166665  0.3549468441359846  0.0977412936949327   T   T   T
  0.0791424093839790  0.7996280907023245  0.0975792544358918   T   T   T
  0.3482915715669287  0.1662546192744835  0.0978092068223753   T   T   T
  0.4940107646716005  0.9154230985501218  0.0978037801041427   T   T   T
  0.3439380714214006  0.8344484298053531  0.0979470373764206   T   T   T
  0.7883984471330188  0.0862517840874721  0.0974634355987379   T   T   T
  0.6408545339727241  0.1668732069503284  0.0977102339653470   T   T   T
  0.7906278729982009  0.9188111664219966  0.0974103255317434   T   T   T
  0.8273374671442796  0.6519267252484734  0.0976925582709983   T   T   T
  0.8242075968935908  0.3534801487647588  0.0977350285647819   T   T   T
  0.6428106442485185  0.8360480057036506  0.0977271174152867   T   T   T
  0.3274056759791107  0.3343547785889427  0.0978420765281501   T   T   T
  0.4947344508812074  0.0861453102405546  0.0978150173388560   T   T   T
  0.9032486323359241  0.5026356181161874  0.0977744477468256   T   T   T
  0.3194751893694602  0.6746109800906267  0.0980694922986480   T   T   T
  0.6617888308314295  0.3295084776049486  0.0979483343368480   T   T   T
  0.6677118384824879  0.6733417715012305  0.0979726696493908   T   T   T
  0.1972687508483087  0.9157346656047398  0.0977521039665917   T   T   T
  0.4904176685065535  0.4985882487390733  0.0981028172316233   T   T   T
 
  0.00000000E+00  0.00000000E+00  0.00000000E+00
  0.00000000E+00  0.00000000E+00  0.00000000E+00
  0.00000000E+00  0.00000000E+00  0.00000000E+00
  0.00000000E+00  0.00000000E+00  0.00000000E+00
  0.00000000E+00  0.00000000E+00  0.00000000E+00
  0.00000000E+00  0.00000000E+00  0.00000000E+00
  0.00000000E+00  0.00000000E+00  0.00000000E+00
  0.00000000E+00  0.00000000E+00  0.00000000E+00
  0.00000000E+00  0.00000000E+00  0.00000000E+00
  0.00000000E+00  0.00000000E+00  0.00000000E+00
  0.00000000E+00  0.00000000E+00  0.00000000E+00
  0.00000000E+00  0.00000000E+00  0.00000000E+00
  0.00000000E+00  0.00000000E+00  0.00000000E+00
  0.00000000E+00  0.00000000E+00  0.00000000E+00
  0.00000000E+00  0.00000000E+00  0.00000000E+00
  0.00000000E+00  0.00000000E+00  0.00000000E+00
  0.00000000E+00  0.00000000E+00  0.00000000E+00
  0.00000000E+00  0.00000000E+00  0.00000000E+00
  0.00000000E+00  0.00000000E+00  0.00000000E+00
  0.00000000E+00  0.00000000E+00  0.00000000E+00
  0.00000000E+00  0.00000000E+00  0.00000000E+00
  0.00000000E+00  0.00000000E+00  0.00000000E+00
  0.00000000E+00  0.00000000E+00  0.00000000E+00
  0.00000000E+00  0.00000000E+00  0.00000000E+00
  0.00000000E+00  0.00000000E+00  0.00000000E+00
