Title                                   
   1.00000000000000     
     8.5490480000000009    0.0000000000000000    0.0000000000000000
     0.0000000000000000    8.5490480000000009    0.0000000000000000
     0.0000000000000000    0.0000000000000000   20.0000000000000000
    23     1     1
Selective dynamics
Direct
  0.9104824224556971  0.2057598269039877  0.0975905224104917   T   T   T
  0.9096688421484301  0.5025924346485060  0.0976274285686172   T   T   T
  0.9121654860216956  0.8003690597504992  0.0976139972226885   T   T   T
  0.1986642715126979  0.0820243635453743  0.0977823969345213   T   T   T
  0.0744376395277569  0.2041174457265702  0.0976790745299226   T   T   T
  0.1583907175854320  0.6498449238452889  0.0977552434627394   T   T   T
  0.0775697721306481  0.5016799333269687  0.0976676264815339   T   T   T
  0.1573677367055003  0.3544969954894813  0.0977512536504302   T   T   T
  0.0773486915032824  0.7984670724416847  0.0977336745342734   T   T   T
  0.4926722262933998  0.0853733661689338  0.0977761638067760   T   T   T
  0.3454669766875847  0.1637449115231816  0.0978463519636342   T   T   T
  0.4917218132801977  0.9178554083529885  0.0977075548644028   T   T   T
  0.3453936845523408  0.8366105152340763  0.0977787214753770   T   T   T
  0.7875489329318671  0.0837886349040801  0.0976172608833129   T   T   T
  0.6386812849251926  0.1664909363529324  0.0977967916186350   T   T   T
  0.7878647623900897  0.9206712854042191  0.0975936824099548   T   T   T
  0.8307029634809143  0.6501434043165900  0.0976589412250786   T   T   T
  0.8285613490187943  0.3554291129370200  0.0976810321977815   T   T   T
  0.6385275372366906  0.8367519039115845  0.0976903862619128   T   T   T
  0.3235794422418609  0.3326921152066756  0.0979128200457965   T   T   T
  0.3234752896898629  0.6717792262019474  0.0978479414253099   T   T   T
  0.6612685182355188  0.3333041285690612  0.0979059325835799   T   T   T
  0.6621009601174378  0.6710139568448523  0.0978067526715385   T   T   T
  0.1980913027210382  0.9186942678038021  0.0978166811754207   T   T   T
  0.4936593766060554  0.5010947705897012  0.0980667675962507   T   T   T
 
  0.00000000E+00  0.00000000E+00  0.00000000E+00
  0.00000000E+00  0.00000000E+00  0.00000000E+00
  0.00000000E+00  0.00000000E+00  0.00000000E+00
  0.00000000E+00  0.00000000E+00  0.00000000E+00
  0.00000000E+00  0.00000000E+00  0.00000000E+00
  0.00000000E+00  0.00000000E+00  0.00000000E+00
  0.00000000E+00  0.00000000E+00  0.00000000E+00
  0.00000000E+00  0.00000000E+00  0.00000000E+00
  0.00000000E+00  0.00000000E+00  0.00000000E+00
  0.00000000E+00  0.00000000E+00  0.00000000E+00
  0.00000000E+00  0.00000000E+00  0.00000000E+00
  0.00000000E+00  0.00000000E+00  0.00000000E+00
  0.00000000E+00  0.00000000E+00  0.00000000E+00
  0.00000000E+00  0.00000000E+00  0.00000000E+00
  0.00000000E+00  0.00000000E+00  0.00000000E+00
  0.00000000E+00  0.00000000E+00  0.00000000E+00
  0.00000000E+00  0.00000000E+00  0.00000000E+00
  0.00000000E+00  0.00000000E+00  0.00000000E+00
  0.00000000E+00  0.00000000E+00  0.00000000E+00
  0.00000000E+00  0.00000000E+00  0.00000000E+00
  0.00000000E+00  0.00000000E+00  0.00000000E+00
  0.00000000E+00  0.00000000E+00  0.00000000E+00
  0.00000000E+00  0.00000000E+00  0.00000000E+00
  0.00000000E+00  0.00000000E+00  0.00000000E+00
  0.00000000E+00  0.00000000E+00  0.00000000E+00
