Title                                   
   1.00000000000000     
     8.5490480000000009    0.0000000000000000    0.0000000000000000
     0.0000000000000000    8.5490480000000009    0.0000000000000000
     0.0000000000000000    0.0000000000000000   20.0000000000000000
    20     4     1
Selective dynamics
Direct
  0.9087699563335193  0.2063676650610710  0.0976352657012386   T   T   T
  0.9115199898413830  0.8007035533970640  0.0977189902488653   T   T   T
  0.1977889562858369  0.0847997775307870  0.0979189758556451   T   T   T
  0.0767448215210731  0.2012491395346880  0.0977961526985167   T   T   T
  0.1556713379436565  0.6465321104113871  0.0975723922241807   T   T   T
  0.0709691702092670  0.5012641673704026  0.0977391200612551   T   T   T
  0.1548912678263761  0.3568377558578632  0.0978237765283958   T   T   T
  0.0802934602119349  0.7986480425087673  0.0977459553731124   T   T   T
  0.4955252859466049  0.0878449222877433  0.0978015804794628   T   T   T
  0.3483285302102743  0.1690333525907918  0.0979588864281977   T   T   T
  0.4953086849814128  0.9161617685858102  0.0976596145348952   T   T   T
  0.3489532249062255  0.8310673687888918  0.0976245199912616   T   T   T
  0.7892599499519632  0.0878866981462741  0.0975723936205781   T   T   T
  0.6418836645777685  0.1692414889835788  0.0977498677910539   T   T   T
  0.7903821736964302  0.9186723388007036  0.0976056333609479   T   T   T
  0.8265115703447450  0.6510069393509083  0.0977862190711366   T   T   T
  0.8242053428131307  0.3551334925676509  0.0977556868034795   T   T   T
  0.6430360233159993  0.8357668683706279  0.0976879573073793   T   T   T
  0.3202860325779275  0.3360056832974742  0.0979830161922852   T   T   T
  0.3219098550963801  0.6665534351579465  0.0974003791314402   T   T   T
  0.9024938463570539  0.5028740342594377  0.0978472443147020   T   T   T
  0.6641422956542871  0.3334016995783216  0.0979350995500479   T   T   T
  0.6667955130881552  0.6719754504396291  0.0978809545205475   T   T   T
  0.1988988091907040  0.9143093805779547  0.0978722749514293   T   T   T
  0.4908422371178836  0.5014528665442449  0.0976330432599184   T   T   T
 
  0.00000000E+00  0.00000000E+00  0.00000000E+00
  0.00000000E+00  0.00000000E+00  0.00000000E+00
  0.00000000E+00  0.00000000E+00  0.00000000E+00
  0.00000000E+00  0.00000000E+00  0.00000000E+00
  0.00000000E+00  0.00000000E+00  0.00000000E+00
  0.00000000E+00  0.00000000E+00  0.00000000E+00
  0.00000000E+00  0.00000000E+00  0.00000000E+00
  0.00000000E+00  0.00000000E+00  0.00000000E+00
  0.00000000E+00  0.00000000E+00  0.00000000E+00
  0.00000000E+00  0.00000000E+00  0.00000000E+00
  0.00000000E+00  0.00000000E+00  0.00000000E+00
  0.00000000E+00  0.00000000E+00  0.00000000E+00
  0.00000000E+00  0.00000000E+00  0.00000000E+00
  0.00000000E+00  0.00000000E+00  0.00000000E+00
  0.00000000E+00  0.00000000E+00  0.00000000E+00
  0.00000000E+00  0.00000000E+00  0.00000000E+00
  0.00000000E+00  0.00000000E+00  0.00000000E+00
  0.00000000E+00  0.00000000E+00  0.00000000E+00
  0.00000000E+00  0.00000000E+00  0.00000000E+00
  0.00000000E+00  0.00000000E+00  0.00000000E+00
  0.00000000E+00  0.00000000E+00  0.00000000E+00
  0.00000000E+00  0.00000000E+00  0.00000000E+00
  0.00000000E+00  0.00000000E+00  0.00000000E+00
  0.00000000E+00  0.00000000E+00  0.00000000E+00
  0.00000000E+00  0.00000000E+00  0.00000000E+00
