Title                                   
   1.00000000000000     
     8.5490480000000009    0.0000000000000000    0.0000000000000000
     0.0000000000000000    8.5490480000000009    0.0000000000000000
     0.0000000000000000    0.0000000000000000   20.0000000000000000
    20     4     1
Selective dynamics
Direct
  0.9089708884024363  0.2055245545696900  0.0975445929280575   T   T   T
  0.9110750546976124  0.8005367667920849  0.0976286707108333   T   T   T
  0.1964080967136635  0.0843490054239177  0.0977293006515404   T   T   T
  0.0760096162669637  0.2017950136659412  0.0977007919639947   T   T   T
  0.1566956140481453  0.6490068774080353  0.0977467609619613   T   T   T
  0.0763140126478625  0.5017748136423090  0.0978317813712136   T   T   T
  0.1562986027887207  0.3527939609939336  0.0979468444490185   T   T   T
  0.0786397601600626  0.7997681405391645  0.0976273293383898   T   T   T
  0.4939712634965201  0.0873038298488013  0.0977365310464925   T   T   T
  0.3436491556203440  0.1658165869733888  0.0979269969893114   T   T   T
  0.4930102306819641  0.9162824407492092  0.0976919344969120   T   T   T
  0.3457056423695637  0.8348051420031694  0.0977302849611930   T   T   T
  0.7891722993297560  0.0865423801475275  0.0975015480697626   T   T   T
  0.6391900194376138  0.1681894497649362  0.0976501482691210   T   T   T
  0.7894174919244692  0.9185859658030580  0.0975709349623646   T   T   T
  0.8304837024504177  0.6497436071379942  0.0977671143724290   T   T   T
  0.8274421617518454  0.3572769475950347  0.0976624808912434   T   T   T
  0.6414607611154542  0.8358055241413812  0.0977254741502084   T   T   T
  0.3214872082827016  0.6722961865125131  0.0977474737833967   T   T   T
  0.6644340410767799  0.3349301675987664  0.0976929085305363   T   T   T
  0.9083427173426467  0.5032644561033165  0.0978261055687813   T   T   T
  0.3182023179389182  0.3284510426197120  0.0981929495498774   T   T   T
  0.6693184879564450  0.6719022484782501  0.0979521528959949   T   T   T
  0.1964630255187104  0.9160546033626483  0.0976721278252121   T   T   T
  0.4932498279803686  0.5019902881252296  0.0979017612621343   T   T   T
 
  0.00000000E+00  0.00000000E+00  0.00000000E+00
  0.00000000E+00  0.00000000E+00  0.00000000E+00
  0.00000000E+00  0.00000000E+00  0.00000000E+00
  0.00000000E+00  0.00000000E+00  0.00000000E+00
  0.00000000E+00  0.00000000E+00  0.00000000E+00
  0.00000000E+00  0.00000000E+00  0.00000000E+00
  0.00000000E+00  0.00000000E+00  0.00000000E+00
  0.00000000E+00  0.00000000E+00  0.00000000E+00
  0.00000000E+00  0.00000000E+00  0.00000000E+00
  0.00000000E+00  0.00000000E+00  0.00000000E+00
  0.00000000E+00  0.00000000E+00  0.00000000E+00
  0.00000000E+00  0.00000000E+00  0.00000000E+00
  0.00000000E+00  0.00000000E+00  0.00000000E+00
  0.00000000E+00  0.00000000E+00  0.00000000E+00
  0.00000000E+00  0.00000000E+00  0.00000000E+00
  0.00000000E+00  0.00000000E+00  0.00000000E+00
  0.00000000E+00  0.00000000E+00  0.00000000E+00
  0.00000000E+00  0.00000000E+00  0.00000000E+00
  0.00000000E+00  0.00000000E+00  0.00000000E+00
  0.00000000E+00  0.00000000E+00  0.00000000E+00
  0.00000000E+00  0.00000000E+00  0.00000000E+00
  0.00000000E+00  0.00000000E+00  0.00000000E+00
  0.00000000E+00  0.00000000E+00  0.00000000E+00
  0.00000000E+00  0.00000000E+00  0.00000000E+00
  0.00000000E+00  0.00000000E+00  0.00000000E+00
