Title                                   
   1.00000000000000     
     4.9440799999999996    0.0000000000000000    0.0000000000000000
     0.0000000000000000   17.1295089999999988    0.0000000000000000
     0.0000000000000000    0.0000000000000000   20.0000000000000000
    28     2     1
Selective dynamics
Direct
 -0.0035687049502548  0.1052835459768546  0.2914902989442966   T   T   T
  0.2443430069383734  0.1478024042830405  0.2936164787808536   T   T   T
  0.2422105730096788  0.2316248845444024  0.2994902507491288   T   T   T
 -0.0090123623563574  0.2736616472341007  0.3034453213237700   T   T   T
  0.0077406184323736  0.6019580660830686  0.3021261859933363   T   T   T
  0.2560612485958724  0.7271308601222021  0.2937794449318507   T   T   T
  0.0024443200733791  0.8532718535148009  0.2891252541286869   T   T   T
  0.2514170909448973  0.8955135618656609  0.2887143876518529   T   T   T
  0.2489777430050324  0.9794146498018134  0.2887463284581706   T   T   T
  0.0049243960649851  0.7692862688664330  0.2914172290832835   T   T   T
  0.4955431076994928  0.1056696984007907  0.2912543839265934   T   T   T
  0.7461893572589919  0.1473459943554634  0.2927022922781096   T   T   T
  0.7435421487798997  0.2309566369806631  0.2973844361201746   T   T   T
  0.4979202668727591  0.0216832420467368  0.2891178484210118   T   T   T
  0.7443867631083108  0.3943005858733368  0.3131372854956460   T   T   T
  0.7559616704346573  0.4806403506488447  0.3137174625455960   T   T   T
  0.4927353702328213  0.2730342166931130  0.3008723970574670   T   T   T
  0.5094943761535793  0.6012991735798491  0.3034654834841980   T   T   T
  0.7543476674536452  0.7275939138968155  0.2928805442563466   T   T   T
  0.5019110107223184  0.8534723405775577  0.2891680834338994   T   T   T
  0.7514052238288409  0.8954563767397392  0.2884804002814437   T   T   T
  0.7489031207664520  0.9794761863042053  0.2885292916860921   T   T   T
  0.5040156374499877  0.7696230898607040  0.2914904689854350   T   T   T
  0.7570314898184226  0.6440137242805515  0.2978702582153385   T   T   T
  0.2582548304195030  0.6433446482302057  0.2999362485196234   T   T   T
 -0.0015231098272599  0.0214331502874008  0.2892239137479283   T   T   T
  0.0024022735198620  0.5197957203841589  0.3104587846655755   T   T   T
  0.4984039341888436  0.3552974788751236  0.3079802003023417   T   T   T
  0.5125356061897297  0.5211687399546464  0.3137123097282881   T   T   T
 -0.0122966793919936  0.3536536502313799  0.3147126908402397   T   T   T
  0.2533050045631582  0.4371353395063314  0.3570140359633745   T   T   T
 
  0.00000000E+00  0.00000000E+00  0.00000000E+00
  0.00000000E+00  0.00000000E+00  0.00000000E+00
  0.00000000E+00  0.00000000E+00  0.00000000E+00
  0.00000000E+00  0.00000000E+00  0.00000000E+00
  0.00000000E+00  0.00000000E+00  0.00000000E+00
  0.00000000E+00  0.00000000E+00  0.00000000E+00
  0.00000000E+00  0.00000000E+00  0.00000000E+00
  0.00000000E+00  0.00000000E+00  0.00000000E+00
  0.00000000E+00  0.00000000E+00  0.00000000E+00
  0.00000000E+00  0.00000000E+00  0.00000000E+00
  0.00000000E+00  0.00000000E+00  0.00000000E+00
  0.00000000E+00  0.00000000E+00  0.00000000E+00
  0.00000000E+00  0.00000000E+00  0.00000000E+00
  0.00000000E+00  0.00000000E+00  0.00000000E+00
  0.00000000E+00  0.00000000E+00  0.00000000E+00
  0.00000000E+00  0.00000000E+00  0.00000000E+00
  0.00000000E+00  0.00000000E+00  0.00000000E+00
  0.00000000E+00  0.00000000E+00  0.00000000E+00
  0.00000000E+00  0.00000000E+00  0.00000000E+00
  0.00000000E+00  0.00000000E+00  0.00000000E+00
  0.00000000E+00  0.00000000E+00  0.00000000E+00
  0.00000000E+00  0.00000000E+00  0.00000000E+00
  0.00000000E+00  0.00000000E+00  0.00000000E+00
  0.00000000E+00  0.00000000E+00  0.00000000E+00
  0.00000000E+00  0.00000000E+00  0.00000000E+00
  0.00000000E+00  0.00000000E+00  0.00000000E+00
  0.00000000E+00  0.00000000E+00  0.00000000E+00
  0.00000000E+00  0.00000000E+00  0.00000000E+00
  0.00000000E+00  0.00000000E+00  0.00000000E+00
  0.00000000E+00  0.00000000E+00  0.00000000E+00
  0.00000000E+00  0.00000000E+00  0.00000000E+00
