Title                                   
   1.00000000000000     
     9.8694509999999998    0.0000000000000000    0.0000000000000000
     0.0000000000000000    8.5490480000000009    0.0000000000000000
     0.0000000000000000    0.0000000000000000   20.0000000000000000
    26     4     1
Selective dynamics
Direct
  0.0549001774543251  0.0895785285856946  0.0864470048368902   T   T   T
  0.9290763471960788  0.1740431722491597  0.0858173237836280   T   T   T
  0.0582229305282757  0.9234677974313106  0.0868815494443532   T   T   T
  0.9320000664187330  0.3419047399539988  0.0848044178314742   T   T   T
  0.0568491875170951  0.5899237072744657  0.0841107078914891   T   T   T
  0.9338910723346592  0.6757336113637445  0.0875148159302218   T   T   T
  0.0564580851763434  0.4232031295669526  0.0838136429972680   T   T   T
  0.9329830263604370  0.8425450832439817  0.0892065521435907   T   T   T
  0.3066797064816920  0.0862792013721705  0.0938448633067080   T   T   T
  0.1803559977124394  0.1686473224112063  0.0893676601941319   T   T   T
  0.1796680724322662  0.3360201988053344  0.0883274336757072   T   T   T
  0.3029830915121171  0.5843638844741134  0.0927810571335171   T   T   T
  0.1817625213823748  0.6717936881415257  0.0866628612553535   T   T   T
  0.3001707863506117  0.4158791646833814  0.0973858942354009   T   T   T
  0.1836267474241114  0.8391214306155799  0.0875042693655987   T   T   T
  0.4279796068402001  0.1738874873261153  0.1028734429258733   T   T   T
  0.5568426823400842  0.9210795603505075  0.1021342158661227   T   T   T
  0.4275706448700588  0.6648358888919872  0.0988910849555718   T   T   T
  0.4329632787288534  0.8335401045004764  0.0975345979217054   T   T   T
  0.8026935046259687  0.0927035295257360  0.0902803120156977   T   T   T
  0.6774309159485774  0.1807770344725733  0.0943286976332104   T   T   T
  0.8066668130820404  0.9243359222654968  0.0935259498655158   T   T   T
  0.6828114368646410  0.3487896100712305  0.0947139762104431   T   T   T
  0.8122949789110041  0.5957720780561245  0.0953393888392079   T   T   T
  0.8095477525426993  0.4273648354713114  0.0897326096208964   T   T   T
  0.6839635384838261  0.8376425151782007  0.1031278240065774   T   T   T
  0.5546924717097802  0.0932386109142271  0.1009478888865532   T   T   T
  0.4197539504713053  0.3351896103848217  0.1150032234824788   T   T   T
  0.6934918467214320  0.6738963759104604  0.1133403320337356   T   T   T
  0.3079637323515422  0.9199333223855369  0.0916909094773654   T   T   T
  0.5568400292264285  0.5053838541225999  0.1330304922337469   T   T   T
 
  0.00000000E+00  0.00000000E+00  0.00000000E+00
  0.00000000E+00  0.00000000E+00  0.00000000E+00
  0.00000000E+00  0.00000000E+00  0.00000000E+00
  0.00000000E+00  0.00000000E+00  0.00000000E+00
  0.00000000E+00  0.00000000E+00  0.00000000E+00
  0.00000000E+00  0.00000000E+00  0.00000000E+00
  0.00000000E+00  0.00000000E+00  0.00000000E+00
  0.00000000E+00  0.00000000E+00  0.00000000E+00
  0.00000000E+00  0.00000000E+00  0.00000000E+00
  0.00000000E+00  0.00000000E+00  0.00000000E+00
  0.00000000E+00  0.00000000E+00  0.00000000E+00
  0.00000000E+00  0.00000000E+00  0.00000000E+00
  0.00000000E+00  0.00000000E+00  0.00000000E+00
  0.00000000E+00  0.00000000E+00  0.00000000E+00
  0.00000000E+00  0.00000000E+00  0.00000000E+00
  0.00000000E+00  0.00000000E+00  0.00000000E+00
  0.00000000E+00  0.00000000E+00  0.00000000E+00
  0.00000000E+00  0.00000000E+00  0.00000000E+00
  0.00000000E+00  0.00000000E+00  0.00000000E+00
  0.00000000E+00  0.00000000E+00  0.00000000E+00
  0.00000000E+00  0.00000000E+00  0.00000000E+00
  0.00000000E+00  0.00000000E+00  0.00000000E+00
  0.00000000E+00  0.00000000E+00  0.00000000E+00
  0.00000000E+00  0.00000000E+00  0.00000000E+00
  0.00000000E+00  0.00000000E+00  0.00000000E+00
  0.00000000E+00  0.00000000E+00  0.00000000E+00
  0.00000000E+00  0.00000000E+00  0.00000000E+00
  0.00000000E+00  0.00000000E+00  0.00000000E+00
  0.00000000E+00  0.00000000E+00  0.00000000E+00
  0.00000000E+00  0.00000000E+00  0.00000000E+00
  0.00000000E+00  0.00000000E+00  0.00000000E+00
