Title                                   
   1.00000000000000     
     4.9440799999999996    0.0000000000000000    0.0000000000000000
     0.0000000000000000    8.5647549999999999    0.0000000000000000
     0.0000000000000000    0.0000000000000000   20.0000000000000000
    11     3     1
Selective dynamics
Direct
  0.0018708647184001  0.2936427424144930  0.0963589988448998   T   T   T
  0.2500000000000000  0.0373796231842258  0.0963828362913367   T   T   T
 -0.0012943143359308  0.9549331524579358  0.0969308996620935   T   T   T
  0.7500000000000000  0.2076823913460341  0.0945949213246600   T   T   T
  0.4981291352815997  0.2936427424144930  0.0963589988448998   T   T   T
  0.7500000000000000  0.0397941096822750  0.0951396097462350   T   T   T
  0.7500000000000000  0.7151332327536609  0.1002296078376313   T   T   T
  0.7500000000000000  0.5411987602868829  0.1004403662157224   T   T   T
  0.5012943143359307  0.9549331524579358  0.0969308996620935   T   T   T
  0.4982004139471365  0.4593920354922746  0.1010407811403167   T   T   T
  0.0017995860528634  0.4593920354922746  0.1010407811403167   T   T   T
 -0.0086723959139378  0.7911986429705232  0.1006100023401052   T   T   T
  0.5086723959139379  0.7911986429705232  0.1006100023401052   T   T   T
  0.2500000000000000  0.2072965262212508  0.0958209505157799   T   T   T
  0.2500000000000000  0.6248632098552186  0.1354903440938081   T   T   T
 
  0.00000000E+00  0.00000000E+00  0.00000000E+00
  0.00000000E+00  0.00000000E+00  0.00000000E+00
  0.00000000E+00  0.00000000E+00  0.00000000E+00
  0.00000000E+00  0.00000000E+00  0.00000000E+00
  0.00000000E+00  0.00000000E+00  0.00000000E+00
  0.00000000E+00  0.00000000E+00  0.00000000E+00
  0.00000000E+00  0.00000000E+00  0.00000000E+00
  0.00000000E+00  0.00000000E+00  0.00000000E+00
  0.00000000E+00  0.00000000E+00  0.00000000E+00
  0.00000000E+00  0.00000000E+00  0.00000000E+00
  0.00000000E+00  0.00000000E+00  0.00000000E+00
  0.00000000E+00  0.00000000E+00  0.00000000E+00
  0.00000000E+00  0.00000000E+00  0.00000000E+00
  0.00000000E+00  0.00000000E+00  0.00000000E+00
  0.00000000E+00  0.00000000E+00  0.00000000E+00
