Title                                   
   1.00000000000000     
     8.5490480000000009    0.0000000000000000    0.0000000000000000
     0.0000000000000000    8.5490480000000009    0.0000000000000000
     0.0000000000000000    0.0000000000000000   20.0000000000000000
    21     3     1
Selective dynamics
Direct
  0.9119218742916531  0.2047499708484382  0.0954324089424947   T   T   T
  0.9047698453314482  0.5029321319386983  0.0952832843009371   T   T   T
  0.9085774137585659  0.7978698048536261  0.0954458117787271   T   T   T
  0.1995650548359672  0.0843909238014725  0.0954718663226920   T   T   T
  0.0756563413377710  0.2082633854374228  0.0954413373529092   T   T   T
  0.1960301559370425  0.9206337112024443  0.0954683233636292   T   T   T
  0.1565565330361534  0.6523650475902343  0.0953259185156814   T   T   T
  0.0759282847294743  0.5041407782563463  0.0953192867290556   T   T   T
  0.1578451349484948  0.3580917470074496  0.0953816077874452   T   T   T
  0.0745677468937855  0.7987343380208012  0.0954554944147439   T   T   T
  0.4953502720459919  0.0847327586572382  0.0953605796945218   T   T   T
  0.3493210991814737  0.1666625458447219  0.0954017496812429   T   T   T
  0.4941382848877018  0.9135592271038806  0.0953435786126365   T   T   T
  0.3453383824326962  0.8344955346302547  0.0953459478642885   T   T   T
  0.7900112806102016  0.0833139334219334  0.0954325497499236   T   T   T
  0.6436094323363531  0.1653361325690123  0.0953072424656913   T   T   T
  0.7891349454512718  0.9173274995543138  0.0954449824979653   T   T   T
  0.8246270277821379  0.6498004811915922  0.0952883011583465   T   T   T
  0.8257656662789569  0.3540889610106100  0.0952827650680098   T   T   T
  0.6410013242724115  0.8334058242172134  0.0953047771188496   T   T   T
  0.3244441034144557  0.3332669810930832  0.0953939996005555   T   T   T
  0.3193317498189703  0.6759258116050866  0.0951968644411767   T   T   T
  0.6671934827154914  0.3280703079607497  0.0951551945581382   T   T   T
  0.6637949092393739  0.6726207454620350  0.0951659536508564   T   T   T
  0.4909316544321494  0.5000114167213552  0.0952551743294598   T   T   T
 
  0.00000000E+00  0.00000000E+00  0.00000000E+00
  0.00000000E+00  0.00000000E+00  0.00000000E+00
  0.00000000E+00  0.00000000E+00  0.00000000E+00
  0.00000000E+00  0.00000000E+00  0.00000000E+00
  0.00000000E+00  0.00000000E+00  0.00000000E+00
  0.00000000E+00  0.00000000E+00  0.00000000E+00
  0.00000000E+00  0.00000000E+00  0.00000000E+00
  0.00000000E+00  0.00000000E+00  0.00000000E+00
  0.00000000E+00  0.00000000E+00  0.00000000E+00
  0.00000000E+00  0.00000000E+00  0.00000000E+00
  0.00000000E+00  0.00000000E+00  0.00000000E+00
  0.00000000E+00  0.00000000E+00  0.00000000E+00
  0.00000000E+00  0.00000000E+00  0.00000000E+00
  0.00000000E+00  0.00000000E+00  0.00000000E+00
  0.00000000E+00  0.00000000E+00  0.00000000E+00
  0.00000000E+00  0.00000000E+00  0.00000000E+00
  0.00000000E+00  0.00000000E+00  0.00000000E+00
  0.00000000E+00  0.00000000E+00  0.00000000E+00
  0.00000000E+00  0.00000000E+00  0.00000000E+00
  0.00000000E+00  0.00000000E+00  0.00000000E+00
  0.00000000E+00  0.00000000E+00  0.00000000E+00
  0.00000000E+00  0.00000000E+00  0.00000000E+00
  0.00000000E+00  0.00000000E+00  0.00000000E+00
  0.00000000E+00  0.00000000E+00  0.00000000E+00
  0.00000000E+00  0.00000000E+00  0.00000000E+00
