Title                                   
   1.00000000000000     
     9.8694509999999998    0.0000000000000000    0.0000000000000000
     0.0000000000000000    8.5490480000000009    0.0000000000000000
     0.0000000000000000    0.0000000000000000   20.0000000000000000
    26     4     1
Selective dynamics
Direct
  0.0551551395074781  0.0884789235322162  0.0874964150021895   T   T   T
  0.9303762130671976  0.1722946724505313  0.0870973514769863   T   T   T
  0.0572673094825183  0.9204886308356345  0.0881986093719027   T   T   T
  0.9329959617028887  0.3391278121799972  0.0864288505987027   T   T   T
  0.0564439854126941  0.5904757604209816  0.0865432959095514   T   T   T
  0.0563688600200659  0.4234585851617045  0.0855840389874529   T   T   T
  0.9316443489544808  0.8388404106379752  0.0893099637727399   T   T   T
  0.3074763232144227  0.0883249628081603  0.0927451254418361   T   T   T
  0.1801772501864776  0.1701245730006890  0.0890838342469099   T   T   T
  0.1799098890735273  0.3372720406648285  0.0878871845740102   T   T   T
  0.3036308802457708  0.5859743215858368  0.0933797383934630   T   T   T
  0.1807860470468780  0.6725039711631803  0.0883611335132319   T   T   T
  0.3025656195971219  0.4191429417220605  0.0938490875008036   T   T   T
  0.1828994081720586  0.8395181711304019  0.0892709602208023   T   T   T
  0.4287114963093226  0.1756199455194629  0.0984234217760412   T   T   T
  0.5548525929096290  0.9247584229284707  0.0993769133206227   T   T   T
  0.4278558334037046  0.6690166235732288  0.1042657501137091   T   T   T
  0.4312125809452136  0.8361398047146819  0.0991300303108455   T   T   T
  0.8038047221984483  0.0900113912781951  0.0902395505989767   T   T   T
  0.6795283696701627  0.1786550692850741  0.0950801885750878   T   T   T
  0.8054264202333550  0.9220540618900699  0.0917897980576860   T   T   T
  0.6848574967327140  0.3449652628643962  0.0986835325481067   T   T   T
  0.8115552263373306  0.5923159410676846  0.0946675724611830   T   T   T
  0.6872708628740002  0.6721276065977502  0.1059267398761246   T   T   T
  0.8112475371976151  0.4235410939778185  0.0914882931744809   T   T   T
  0.6792888348859555  0.8401598468224096  0.0983762452540542   T   T   T
  0.9331541679120035  0.6728969944063586  0.0888091700862123   T   T   T
  0.5546456591400902  0.0951342991543618  0.0984790352176326   T   T   T
  0.4239658112374408  0.3389775889823717  0.1046915735932992   T   T   T
  0.3067479100839766  0.9210621074550541  0.0920886929530483   T   T   T
  0.5613122422454748  0.5074131621884348  0.1442129030723549   T   T   T
 
  0.00000000E+00  0.00000000E+00  0.00000000E+00
  0.00000000E+00  0.00000000E+00  0.00000000E+00
  0.00000000E+00  0.00000000E+00  0.00000000E+00
  0.00000000E+00  0.00000000E+00  0.00000000E+00
  0.00000000E+00  0.00000000E+00  0.00000000E+00
  0.00000000E+00  0.00000000E+00  0.00000000E+00
  0.00000000E+00  0.00000000E+00  0.00000000E+00
  0.00000000E+00  0.00000000E+00  0.00000000E+00
  0.00000000E+00  0.00000000E+00  0.00000000E+00
  0.00000000E+00  0.00000000E+00  0.00000000E+00
  0.00000000E+00  0.00000000E+00  0.00000000E+00
  0.00000000E+00  0.00000000E+00  0.00000000E+00
  0.00000000E+00  0.00000000E+00  0.00000000E+00
  0.00000000E+00  0.00000000E+00  0.00000000E+00
  0.00000000E+00  0.00000000E+00  0.00000000E+00
  0.00000000E+00  0.00000000E+00  0.00000000E+00
  0.00000000E+00  0.00000000E+00  0.00000000E+00
  0.00000000E+00  0.00000000E+00  0.00000000E+00
  0.00000000E+00  0.00000000E+00  0.00000000E+00
  0.00000000E+00  0.00000000E+00  0.00000000E+00
  0.00000000E+00  0.00000000E+00  0.00000000E+00
  0.00000000E+00  0.00000000E+00  0.00000000E+00
  0.00000000E+00  0.00000000E+00  0.00000000E+00
  0.00000000E+00  0.00000000E+00  0.00000000E+00
  0.00000000E+00  0.00000000E+00  0.00000000E+00
  0.00000000E+00  0.00000000E+00  0.00000000E+00
  0.00000000E+00  0.00000000E+00  0.00000000E+00
  0.00000000E+00  0.00000000E+00  0.00000000E+00
  0.00000000E+00  0.00000000E+00  0.00000000E+00
  0.00000000E+00  0.00000000E+00  0.00000000E+00
  0.00000000E+00  0.00000000E+00  0.00000000E+00
