Title                                   
   1.00000000000000     
     9.8694509999999998    0.0000000000000000    0.0000000000000000
     0.0000000000000000    8.5490480000000009    0.0000000000000000
     0.0000000000000000    0.0000000000000000   20.0000000000000000
    28     2     1
Selective dynamics
Direct
  0.0555460342633362  0.0894029644611267  0.0854886774215849   T   T   T
  0.9298001925717638  0.1736920583301479  0.0863062258653182   T   T   T
  0.0567526228593335  0.9229574809329072  0.0855998002810884   T   T   T
  0.9318280028678620  0.3409317900220176  0.0850713011170436   T   T   T
  0.0563962679540995  0.5892618622630378  0.0825107427010256   T   T   T
  0.9331222401858768  0.6752375485752700  0.0868419715417105   T   T   T
  0.0559473668793463  0.4231116947635202  0.0824399576858336   T   T   T
  0.9324580438741646  0.8421433433350786  0.0883253788101414   T   T   T
  0.3062741397890612  0.0885755439644557  0.0931506324499385   T   T   T
  0.1799582124206598  0.1702034532947255  0.0877833011069359   T   T   T
  0.3081181572627317  0.9198089415562145  0.0916950983274452   T   T   T
  0.1792376685161362  0.3370285361485806  0.0861718331843062   T   T   T
  0.3031512544944525  0.5859411569667672  0.0910293608241082   T   T   T
  0.1805387877120103  0.6714630340775071  0.0846963365430508   T   T   T
  0.3007012666844728  0.4177251441572312  0.0942123511006475   T   T   T
  0.1825652137857341  0.8386899383238955  0.0861279926608197   T   T   T
  0.5550922420275959  0.0914310318343401  0.1026029792235906   T   T   T
  0.4281360887126418  0.1751653026030970  0.1018413275482995   T   T   T
  0.5573275534969496  0.9206880188619383  0.1028686820842442   T   T   T
  0.4278532700190590  0.6648867058491194  0.0999577034564121   T   T   T
  0.4326744151221996  0.8327672448964095  0.0985869179788514   T   T   T
  0.8042877003470872  0.0924087968909993  0.0919339023415363   T   T   T
  0.6796610913070137  0.1792427654637990  0.0985436660805874   T   T   T
  0.8061547545935042  0.9237454354492926  0.0936799635742257   T   T   T
  0.6845581600016550  0.3470751552362480  0.1003990739286708   T   T   T
  0.8119224280913372  0.5944520388589895  0.0952135873702478   T   T   T
  0.8093074422495011  0.4263654901984168  0.0918859366867776   T   T   T
  0.6843089673427801  0.8374293754965051  0.1025716335291391   T   T   T
  0.4208118828578773  0.3394149201013513  0.1092623326526719   T   T   T
  0.6918830027593029  0.6731215396451586  0.1108784173566609   T   T   T
  0.5567605289504660  0.5065066874418648  0.1432879145671278   T   T   T
 
  0.00000000E+00  0.00000000E+00  0.00000000E+00
  0.00000000E+00  0.00000000E+00  0.00000000E+00
  0.00000000E+00  0.00000000E+00  0.00000000E+00
  0.00000000E+00  0.00000000E+00  0.00000000E+00
  0.00000000E+00  0.00000000E+00  0.00000000E+00
  0.00000000E+00  0.00000000E+00  0.00000000E+00
  0.00000000E+00  0.00000000E+00  0.00000000E+00
  0.00000000E+00  0.00000000E+00  0.00000000E+00
  0.00000000E+00  0.00000000E+00  0.00000000E+00
  0.00000000E+00  0.00000000E+00  0.00000000E+00
  0.00000000E+00  0.00000000E+00  0.00000000E+00
  0.00000000E+00  0.00000000E+00  0.00000000E+00
  0.00000000E+00  0.00000000E+00  0.00000000E+00
  0.00000000E+00  0.00000000E+00  0.00000000E+00
  0.00000000E+00  0.00000000E+00  0.00000000E+00
  0.00000000E+00  0.00000000E+00  0.00000000E+00
  0.00000000E+00  0.00000000E+00  0.00000000E+00
  0.00000000E+00  0.00000000E+00  0.00000000E+00
  0.00000000E+00  0.00000000E+00  0.00000000E+00
  0.00000000E+00  0.00000000E+00  0.00000000E+00
  0.00000000E+00  0.00000000E+00  0.00000000E+00
  0.00000000E+00  0.00000000E+00  0.00000000E+00
  0.00000000E+00  0.00000000E+00  0.00000000E+00
  0.00000000E+00  0.00000000E+00  0.00000000E+00
  0.00000000E+00  0.00000000E+00  0.00000000E+00
  0.00000000E+00  0.00000000E+00  0.00000000E+00
  0.00000000E+00  0.00000000E+00  0.00000000E+00
  0.00000000E+00  0.00000000E+00  0.00000000E+00
  0.00000000E+00  0.00000000E+00  0.00000000E+00
  0.00000000E+00  0.00000000E+00  0.00000000E+00
  0.00000000E+00  0.00000000E+00  0.00000000E+00
