Title                                   
   1.00000000000000     
     8.5490480000000009    0.0000000000000000    0.0000000000000000
     0.0000000000000000    8.5490480000000009    0.0000000000000000
     0.0000000000000000    0.0000000000000000   20.0000000000000000
    23     1     1
Selective dynamics
Direct
  0.9097064196887228  0.2062290163655277  0.0988151728854486   T   T   T
  0.9061728677530243  0.5039718420207894  0.0970369401547897   T   T   T
  0.9111465866047094  0.7993621411549907  0.0982237448028315   T   T   T
  0.1968090316413964  0.0817267950137456  0.0981830154735216   T   T   T
  0.0729251097892622  0.2055623031720780  0.0981777216947956   T   T   T
  0.1975101287454515  0.9184832686998409  0.0988275623461152   T   T   T
  0.1561201608204818  0.6479494228742106  0.0976275839559221   T   T   T
  0.0748860498015991  0.5024376669009448  0.0968375955011594   T   T   T
  0.1551669972748833  0.3548745290994541  0.0959339038119034   T   T   T
  0.0761943974599304  0.7967878498002420  0.0987696804480983   T   T   T
  0.4936141440787574  0.0836861031664050  0.0968475416368164   T   T   T
  0.3460856357621183  0.1639911336665194  0.0959415130035106   T   T   T
  0.4951985540202975  0.9149541288546288  0.0970494076376049   T   T   T
  0.3487667436867994  0.8346204802798336  0.0976905481018678   T   T   T
  0.7879889442751163  0.0849376902749503  0.0987580620250192   T   T   T
  0.6391445710233243  0.1648839820254422  0.0976229919345891   T   T   T
  0.7906303265942015  0.9198938359666702  0.0982277169428357   T   T   T
  0.8287343108212567  0.6520318124933828  0.0963895379054350   T   T   T
  0.8258522208567656  0.3575275699800477  0.0976704060132827   T   T   T
  0.6432586786237855  0.8375205188529550  0.0963986252164343   T   T   T
  0.3213354081795774  0.3301440176402197  0.0921641402391138   T   T   T
  0.3243190171529244  0.6702563648147911  0.0963958116101370   T   T   T
  0.6614780700783004  0.3330729440873129  0.0963799140292140   T   T   T
  0.6671096581721373  0.6758815019136263  0.0937210742519727   T   T   T
  0.4952579670951707  0.5040030808814059  0.0540147883775594   T   T   T
 
  0.00000000E+00  0.00000000E+00  0.00000000E+00
  0.00000000E+00  0.00000000E+00  0.00000000E+00
  0.00000000E+00  0.00000000E+00  0.00000000E+00
  0.00000000E+00  0.00000000E+00  0.00000000E+00
  0.00000000E+00  0.00000000E+00  0.00000000E+00
  0.00000000E+00  0.00000000E+00  0.00000000E+00
  0.00000000E+00  0.00000000E+00  0.00000000E+00
  0.00000000E+00  0.00000000E+00  0.00000000E+00
  0.00000000E+00  0.00000000E+00  0.00000000E+00
  0.00000000E+00  0.00000000E+00  0.00000000E+00
  0.00000000E+00  0.00000000E+00  0.00000000E+00
  0.00000000E+00  0.00000000E+00  0.00000000E+00
  0.00000000E+00  0.00000000E+00  0.00000000E+00
  0.00000000E+00  0.00000000E+00  0.00000000E+00
  0.00000000E+00  0.00000000E+00  0.00000000E+00
  0.00000000E+00  0.00000000E+00  0.00000000E+00
  0.00000000E+00  0.00000000E+00  0.00000000E+00
  0.00000000E+00  0.00000000E+00  0.00000000E+00
  0.00000000E+00  0.00000000E+00  0.00000000E+00
  0.00000000E+00  0.00000000E+00  0.00000000E+00
  0.00000000E+00  0.00000000E+00  0.00000000E+00
  0.00000000E+00  0.00000000E+00  0.00000000E+00
  0.00000000E+00  0.00000000E+00  0.00000000E+00
  0.00000000E+00  0.00000000E+00  0.00000000E+00
  0.00000000E+00  0.00000000E+00  0.00000000E+00
