Title                                   
   1.00000000000000     
     8.5490480000000009    0.0000000000000000    0.0000000000000000
     0.0000000000000000    8.5490480000000009    0.0000000000000000
     0.0000000000000000    0.0000000000000000   20.0000000000000000
    24     1
Selective dynamics
Direct
  0.9108004568701816  0.2064292157237721  0.0979764653154394   T   T   T
  0.9088751746673918  0.5018053787141424  0.0972492034359182   T   T   T
  0.9109121779670436  0.7970779310096721  0.0979978244520580   T   T   T
  0.1977493914299230  0.0840059158570241  0.0979865151794567   T   T   T
  0.0751691462457386  0.2064364794469895  0.0979715215083866   T   T   T
  0.1978029623975367  0.9195930058374138  0.0979823230873311   T   T   T
  0.1578070081348891  0.6474614025754326  0.0968885347838881   T   T   T
  0.0770067630868065  0.5018053101615902  0.0972325243889538   T   T   T
  0.1576517302510689  0.3561524485369850  0.0968425391227793   T   T   T
  0.0752877343725467  0.7971069193178492  0.0979808526697439   T   T   T
  0.4929676728788525  0.0858745412614558  0.0973100470444045   T   T   T
  0.3473507021258181  0.1666433059442659  0.0968947427508635   T   T   T
  0.4930373523004941  0.9177782854470360  0.0973153835601348   T   T   T
  0.3474052627878527  0.8370108205522336  0.0969286993494163   T   T   T
  0.7883533818376768  0.0839387265863252  0.0979874959196626   T   T   T
  0.6386743440310495  0.1664830315265077  0.0968888307072709   T   T   T
  0.7884259338311602  0.9195712363794079  0.0979863349425788   T   T   T
  0.8282255031927752  0.6474799067879360  0.0968850273230128   T   T   T
  0.8281978869388309  0.3561041538423473  0.0968552843894260   T   T   T
  0.6387073727960995  0.8370967745865735  0.0968775676684462   T   T   T
  0.3250248077320388  0.3339778652777003  0.0943492701723536   T   T   T
  0.3251988896234271  0.6696392838403745  0.0944318562996102   T   T   T
  0.6608531218021765  0.3338111630027967  0.0943631201237091   T   T   T
  0.6608844256528514  0.6697735962226350  0.0943457824660403   T   T   T
  0.4930427970457631  0.5017333015615471  0.0581772533390928   T   T   T
 
  0.00000000E+00  0.00000000E+00  0.00000000E+00
  0.00000000E+00  0.00000000E+00  0.00000000E+00
  0.00000000E+00  0.00000000E+00  0.00000000E+00
  0.00000000E+00  0.00000000E+00  0.00000000E+00
  0.00000000E+00  0.00000000E+00  0.00000000E+00
  0.00000000E+00  0.00000000E+00  0.00000000E+00
  0.00000000E+00  0.00000000E+00  0.00000000E+00
  0.00000000E+00  0.00000000E+00  0.00000000E+00
  0.00000000E+00  0.00000000E+00  0.00000000E+00
  0.00000000E+00  0.00000000E+00  0.00000000E+00
  0.00000000E+00  0.00000000E+00  0.00000000E+00
  0.00000000E+00  0.00000000E+00  0.00000000E+00
  0.00000000E+00  0.00000000E+00  0.00000000E+00
  0.00000000E+00  0.00000000E+00  0.00000000E+00
  0.00000000E+00  0.00000000E+00  0.00000000E+00
  0.00000000E+00  0.00000000E+00  0.00000000E+00
  0.00000000E+00  0.00000000E+00  0.00000000E+00
  0.00000000E+00  0.00000000E+00  0.00000000E+00
  0.00000000E+00  0.00000000E+00  0.00000000E+00
  0.00000000E+00  0.00000000E+00  0.00000000E+00
  0.00000000E+00  0.00000000E+00  0.00000000E+00
  0.00000000E+00  0.00000000E+00  0.00000000E+00
  0.00000000E+00  0.00000000E+00  0.00000000E+00
  0.00000000E+00  0.00000000E+00  0.00000000E+00
  0.00000000E+00  0.00000000E+00  0.00000000E+00
