Title                                   
   1.00000000000000     
     8.5490480000000009    0.0000000000000000    0.0000000000000000
     0.0000000000000000    8.5490480000000009    0.0000000000000000
     0.0000000000000000    0.0000000000000000   20.0000000000000000
    22     2     1
Selective dynamics
Direct
  0.9116636930409928  0.2065263403841913  0.0976173637404394   T   T   T
  0.9137042910266143  0.8000427849837143  0.0976073522803746   T   T   T
  0.1972734205619383  0.0821171787654430  0.0977814396524676   T   T   T
  0.0740931656668672  0.2016720404258456  0.0977391167610664   T   T   T
  0.1566241561331564  0.6489607733923161  0.0978939891736783   T   T   T
  0.0751588609229270  0.5017391502624222  0.0978729684409135   T   T   T
  0.1556928172753143  0.3549683324606432  0.0979278115135138   T   T   T
  0.0776463722766247  0.7998404362859690  0.0977342090507670   T   T   T
  0.4932202980200284  0.0859725652970626  0.0977287011680126   T   T   T
  0.3439734407664178  0.1642413294286450  0.0978999917760188   T   T   T
  0.4924462677091686  0.9175608009982191  0.0976675165094327   T   T   T
  0.3449965573438085  0.8355969062422940  0.0978066564333243   T   T   T
  0.7879283904144723  0.0840835639842289  0.0975547993066160   T   T   T
  0.6388117258774542  0.1670733310097168  0.0976612940938545   T   T   T
  0.7889054559690458  0.9208962981700504  0.0975343805952089   T   T   T
  0.8317965182279189  0.6493662971642117  0.0976189576714736   T   T   T
  0.8296386647358517  0.3569997598768008  0.0976697496941189   T   T   T
  0.6393409439753143  0.8363325011731337  0.0975768399674462   T   T   T
  0.3185974835515358  0.3310625987576388  0.0980377700297940   T   T   T
  0.3200752572214379  0.6725092026340775  0.0979333019863493   T   T   T
  0.6661297746956812  0.3333070474599551  0.0977452457756414   T   T   T
  0.6670555927568876  0.6717046718478700  0.0976232655076640   T   T   T
  0.9104712501267240  0.5030490200264385  0.0977735070737619   T   T   T
  0.1972099057951055  0.9173632313868545  0.0977867600675355   T   T   T
  0.4929576959086978  0.5018038375822645  0.0979120117305071   T   T   T
 
  0.00000000E+00  0.00000000E+00  0.00000000E+00
  0.00000000E+00  0.00000000E+00  0.00000000E+00
  0.00000000E+00  0.00000000E+00  0.00000000E+00
  0.00000000E+00  0.00000000E+00  0.00000000E+00
  0.00000000E+00  0.00000000E+00  0.00000000E+00
  0.00000000E+00  0.00000000E+00  0.00000000E+00
  0.00000000E+00  0.00000000E+00  0.00000000E+00
  0.00000000E+00  0.00000000E+00  0.00000000E+00
  0.00000000E+00  0.00000000E+00  0.00000000E+00
  0.00000000E+00  0.00000000E+00  0.00000000E+00
  0.00000000E+00  0.00000000E+00  0.00000000E+00
  0.00000000E+00  0.00000000E+00  0.00000000E+00
  0.00000000E+00  0.00000000E+00  0.00000000E+00
  0.00000000E+00  0.00000000E+00  0.00000000E+00
  0.00000000E+00  0.00000000E+00  0.00000000E+00
  0.00000000E+00  0.00000000E+00  0.00000000E+00
  0.00000000E+00  0.00000000E+00  0.00000000E+00
  0.00000000E+00  0.00000000E+00  0.00000000E+00
  0.00000000E+00  0.00000000E+00  0.00000000E+00
  0.00000000E+00  0.00000000E+00  0.00000000E+00
  0.00000000E+00  0.00000000E+00  0.00000000E+00
  0.00000000E+00  0.00000000E+00  0.00000000E+00
  0.00000000E+00  0.00000000E+00  0.00000000E+00
  0.00000000E+00  0.00000000E+00  0.00000000E+00
  0.00000000E+00  0.00000000E+00  0.00000000E+00
