Title                                   
   1.00000000000000     
     9.8694509999999998    0.0000000000000000    0.0000000000000000
     0.0000000000000000    8.5490480000000009    0.0000000000000000
     0.0000000000000000    0.0000000000000000   20.0000000000000000
    30     1     1
Selective dynamics
Direct
  0.0564613503537577  0.0905463177804374  0.0848060533465428   T   T   T
  0.9312697013780127  0.1726035641574747  0.0875014543069755   T   T   T
  0.0562062666123702  0.9235037193430117  0.0838507627300699   T   T   T
  0.9310062050921123  0.3394953703167344  0.0909886112343923   T   T   T
  0.0563556061466696  0.5890300612708134  0.0867306482328237   T   T   T
  0.9323769624180773  0.6727047104770569  0.0897556205433151   T   T   T
  0.0567301278986554  0.4229594735575923  0.0881447482353666   T   T   T
  0.9314978587936041  0.8392248307197260  0.0870257956099093   T   T   T
  0.3058875017259350  0.0902127328018141  0.0870070265675319   T   T   T
  0.1815305248693313  0.1738018904756871  0.0865212120140831   T   T   T
  0.3049439015690045  0.9237713470438275  0.0868011201385953   T   T   T
  0.1822523285790790  0.3414746761267148  0.0889880115532537   T   T   T
  0.3045771144229872  0.5926327319643817  0.0934435985193026   T   T   T
  0.1803044945622661  0.6736071625498378  0.0864498345006812   T   T   T
  0.3071337543367684  0.4247331226780368  0.0951599823187144   T   T   T
  0.1801408568474686  0.8405567999573407  0.0847343231288060   T   T   T
  0.5556446044611060  0.0864419188024554  0.0940417596567574   T   T   T
  0.4312899191835300  0.1711130613908330  0.0923415943372447   T   T   T
  0.5549887968168838  0.9198021610908553  0.0964049280227212   T   T   T
  0.4316844806157949  0.3369630291322397  0.1011232116021887   T   T   T
  0.5566052004764789  0.4058361291715118  0.1177765184115543   T   T   T
  0.4277627980918484  0.8393955252783473  0.0939392048279040   T   T   T
  0.8068266886930778  0.0888563048467543  0.0889642855393160   T   T   T
  0.6816446418874081  0.1696188442660707  0.0946927798207424   T   T   T
  0.8071075333424196  0.9222928100961346  0.0898043034817842   T   T   T
  0.6826776493046316  0.3349864819191845  0.1043542563425370   T   T   T
  0.8094498753795277  0.5891435688758688  0.1018388638140371   T   T   T
  0.6941467737080541  0.6796615856888565  0.1156460886977414   T   T   T
  0.8078290196165794  0.4209089556686142  0.1005553295170038   T   T   T
  0.6832065115293786  0.8393093808170656  0.0999913069941814   T   T   T
  0.4219118202000399  0.6788140628265974  0.0999106284986300   T   T   T
  0.5481881310871479  0.5962436689081340  0.1663811374553272   T   T   T
 
  0.00000000E+00  0.00000000E+00  0.00000000E+00
  0.00000000E+00  0.00000000E+00  0.00000000E+00
  0.00000000E+00  0.00000000E+00  0.00000000E+00
  0.00000000E+00  0.00000000E+00  0.00000000E+00
  0.00000000E+00  0.00000000E+00  0.00000000E+00
  0.00000000E+00  0.00000000E+00  0.00000000E+00
  0.00000000E+00  0.00000000E+00  0.00000000E+00
  0.00000000E+00  0.00000000E+00  0.00000000E+00
  0.00000000E+00  0.00000000E+00  0.00000000E+00
  0.00000000E+00  0.00000000E+00  0.00000000E+00
  0.00000000E+00  0.00000000E+00  0.00000000E+00
  0.00000000E+00  0.00000000E+00  0.00000000E+00
  0.00000000E+00  0.00000000E+00  0.00000000E+00
  0.00000000E+00  0.00000000E+00  0.00000000E+00
  0.00000000E+00  0.00000000E+00  0.00000000E+00
  0.00000000E+00  0.00000000E+00  0.00000000E+00
  0.00000000E+00  0.00000000E+00  0.00000000E+00
  0.00000000E+00  0.00000000E+00  0.00000000E+00
  0.00000000E+00  0.00000000E+00  0.00000000E+00
  0.00000000E+00  0.00000000E+00  0.00000000E+00
  0.00000000E+00  0.00000000E+00  0.00000000E+00
  0.00000000E+00  0.00000000E+00  0.00000000E+00
  0.00000000E+00  0.00000000E+00  0.00000000E+00
  0.00000000E+00  0.00000000E+00  0.00000000E+00
  0.00000000E+00  0.00000000E+00  0.00000000E+00
  0.00000000E+00  0.00000000E+00  0.00000000E+00
  0.00000000E+00  0.00000000E+00  0.00000000E+00
  0.00000000E+00  0.00000000E+00  0.00000000E+00
  0.00000000E+00  0.00000000E+00  0.00000000E+00
  0.00000000E+00  0.00000000E+00  0.00000000E+00
  0.00000000E+00  0.00000000E+00  0.00000000E+00
  0.00000000E+00  0.00000000E+00  0.00000000E+00
