Title                                   
   1.00000000000000     
     8.5490480000000009    0.0000000000000000    0.0000000000000000
     0.0000000000000000    8.5490480000000009    0.0000000000000000
     0.0000000000000000    0.0000000000000000   20.0000000000000000
    19     5     1
Selective dynamics
Direct
  0.9091333156075592  0.2053513985783832  0.0970740102929065   T   T   T
  0.9109498298262017  0.8001574612726502  0.0973677909114035   T   T   T
  0.2002424754142271  0.0836708187048760  0.0975953885607276   T   T   T
  0.0766786515758079  0.2036567431771647  0.0973386182798638   T   T   T
  0.1547831903761386  0.6494874815674445  0.0975850916404952   T   T   T
  0.0721475670505811  0.5009425588797188  0.0977941683103233   T   T   T
  0.1534629031531627  0.3548983007314667  0.0977865715573516   T   T   T
  0.0792385060387347  0.7988471448312400  0.0974958332107121   T   T   T
  0.3479034630999696  0.1659401754990991  0.0978392629853635   T   T   T
  0.4937755877055521  0.9179520984320430  0.0977615784840631   T   T   T
  0.3469955419162206  0.8362988711204418  0.0977837287654195   T   T   T
  0.7887884726554162  0.0855712622475766  0.0969685690660378   T   T   T
  0.6421385181125716  0.1659049675788009  0.0975906301291109   T   T   T
  0.7903183115412565  0.9182768513779178  0.0970013427610178   T   T   T
  0.8268760543635688  0.6516779861685725  0.0979084020604408   T   T   T
  0.8251847593978238  0.3526189086639179  0.0975929616351092   T   T   T
  0.6427582303076257  0.8381618054028460  0.0974893234081815   T   T   T
  0.3258462302308931  0.3361039296006289  0.0982656490525803   T   T   T
  0.3243286317767807  0.6689406562008745  0.0974831871703406   T   T   T
  0.4956424453738290  0.0877588907087371  0.0978571603129155   T   T   T
  0.9012136468413685  0.5019028322547963  0.0979801787647949   T   T   T
  0.6639736307512060  0.3284187302160749  0.0984381839507149   T   T   T
  0.6662263604926233  0.6747686781584187  0.0981891089888502   T   T   T
  0.1975169841717802  0.9168790777408445  0.0976553813613527   T   T   T
  0.4892886922190932  0.5006023708854849  0.0998628783398962   T   T   T
 
  0.00000000E+00  0.00000000E+00  0.00000000E+00
  0.00000000E+00  0.00000000E+00  0.00000000E+00
  0.00000000E+00  0.00000000E+00  0.00000000E+00
  0.00000000E+00  0.00000000E+00  0.00000000E+00
  0.00000000E+00  0.00000000E+00  0.00000000E+00
  0.00000000E+00  0.00000000E+00  0.00000000E+00
  0.00000000E+00  0.00000000E+00  0.00000000E+00
  0.00000000E+00  0.00000000E+00  0.00000000E+00
  0.00000000E+00  0.00000000E+00  0.00000000E+00
  0.00000000E+00  0.00000000E+00  0.00000000E+00
  0.00000000E+00  0.00000000E+00  0.00000000E+00
  0.00000000E+00  0.00000000E+00  0.00000000E+00
  0.00000000E+00  0.00000000E+00  0.00000000E+00
  0.00000000E+00  0.00000000E+00  0.00000000E+00
  0.00000000E+00  0.00000000E+00  0.00000000E+00
  0.00000000E+00  0.00000000E+00  0.00000000E+00
  0.00000000E+00  0.00000000E+00  0.00000000E+00
  0.00000000E+00  0.00000000E+00  0.00000000E+00
  0.00000000E+00  0.00000000E+00  0.00000000E+00
  0.00000000E+00  0.00000000E+00  0.00000000E+00
  0.00000000E+00  0.00000000E+00  0.00000000E+00
  0.00000000E+00  0.00000000E+00  0.00000000E+00
  0.00000000E+00  0.00000000E+00  0.00000000E+00
  0.00000000E+00  0.00000000E+00  0.00000000E+00
  0.00000000E+00  0.00000000E+00  0.00000000E+00
