Title                                   
   1.00000000000000     
     4.9440799999999996    0.0000000000000000    0.0000000000000000
     0.0000000000000000    8.5647549999999999    0.0000000000000000
     0.0000000000000000    0.0000000000000000   20.0000000000000000
    10     4     1
Selective dynamics
Direct
 -0.0020224567019349  0.2975350047296346  0.1004846167613600   T   T   T
  0.2485337614002616  0.0371830946695407  0.1005537926870854   T   T   T
 -0.0017682932776295  0.9542306835544885  0.1005415863800865   T   T   T
  0.7469416833978614  0.2095641908243576  0.1004116430331046   T   T   T
  0.4963979502384774  0.2963668015511488  0.1003829076345260   T   T   T
  0.7492973719338633  0.0394587426454193  0.1005038551477293   T   T   T
  0.7550941405106602  0.7135362835068964  0.1006056764971155   T   T   T
  0.7532769096263150  0.5396151465629737  0.1005609813287541   T   T   T
  0.5002483851717614  0.9523794219863052  0.1005975042899555   T   T   T
  0.5037197085706682  0.4631508212865173  0.1003949077662519   T   T   T
 -0.0021326503058218  0.4587810322802391  0.1006532505597380   T   T   T
 -0.0069384414930587  0.7899673828520810  0.1005414626003895   T   T   T
  0.5110255782404181  0.7873538333152601  0.1006672608163866   T   T   T
  0.2469613429381720  0.2108698691002086  0.1004517747944159   T   T   T
  0.2513650097499865  0.6216886911349322  0.1006287797031045   T   T   T
 
  0.00000000E+00  0.00000000E+00  0.00000000E+00
  0.00000000E+00  0.00000000E+00  0.00000000E+00
  0.00000000E+00  0.00000000E+00  0.00000000E+00
  0.00000000E+00  0.00000000E+00  0.00000000E+00
  0.00000000E+00  0.00000000E+00  0.00000000E+00
  0.00000000E+00  0.00000000E+00  0.00000000E+00
  0.00000000E+00  0.00000000E+00  0.00000000E+00
  0.00000000E+00  0.00000000E+00  0.00000000E+00
  0.00000000E+00  0.00000000E+00  0.00000000E+00
  0.00000000E+00  0.00000000E+00  0.00000000E+00
  0.00000000E+00  0.00000000E+00  0.00000000E+00
  0.00000000E+00  0.00000000E+00  0.00000000E+00
  0.00000000E+00  0.00000000E+00  0.00000000E+00
  0.00000000E+00  0.00000000E+00  0.00000000E+00
  0.00000000E+00  0.00000000E+00  0.00000000E+00
