Title                                   
   1.00000000000000     
     8.5490480000000009    0.0000000000000000    0.0000000000000000
     0.0000000000000000    8.5490480000000009    0.0000000000000000
     0.0000000000000000    0.0000000000000000   20.0000000000000000
    22     2     1
Selective dynamics
Direct
  0.9101397317380243  0.2079560773050418  0.0945008137492777   T   T   T
  0.9114287973696812  0.7982659049509055  0.0951104925933058   T   T   T
  0.1987410337752021  0.0834900609303915  0.0951172615763258   T   T   T
  0.0751126053140898  0.2041577884826722  0.0945925946590379   T   T   T
  0.1576005680707164  0.6492950172920173  0.0974344973394083   T   T   T
  0.0756800002167669  0.5020968117773340  0.0964468907362231   T   T   T
  0.1544194100555499  0.3550668972044934  0.0961676955298143   T   T   T
  0.0781988791293474  0.7980153749507322  0.0954842918345022   T   T   T
  0.4939121158063993  0.0866555380494577  0.0971327165541636   T   T   T
  0.3451251762515909  0.1645621333786454  0.0969414784937715   T   T   T
  0.4929099906614690  0.9182662244759562  0.0967679677728745   T   T   T
  0.3456707612488787  0.8364288288824672  0.0974773110319509   T   T   T
  0.7868805920373229  0.0859078964323896  0.0956960550014594   T   T   T
  0.6394391927140447  0.1678859631832533  0.0978132197997361   T   T   T
  0.7872420866222392  0.9190213396629088  0.0953603463511655   T   T   T
  0.8299595341950539  0.6477451635431404  0.0964053064832829   T   T   T
  0.8307827742738968  0.3580039807418830  0.0953717560461491   T   T   T
  0.6386958682514389  0.8358518028793253  0.0967102420075526   T   T   T
  0.3219238609045768  0.3344545233312225  0.1008309956912710   T   T   T
  0.3251020235214704  0.6713911258686951  0.1013831360126997   T   T   T
  0.6642797223307220  0.3387676619134415  0.1011226460435024   T   T   T
  0.6614857914464651  0.6666099804903485  0.1009217452023785   T   T   T
  0.9102642974005012  0.5030776380550304  0.0957766052011283   T   T   T
  0.1981582452199434  0.9171866754566581  0.0953035664562332   T   T   T
  0.4922589414445968  0.4946295907615956  0.1178353678327658   T   T   T
 
  0.00000000E+00  0.00000000E+00  0.00000000E+00
  0.00000000E+00  0.00000000E+00  0.00000000E+00
  0.00000000E+00  0.00000000E+00  0.00000000E+00
  0.00000000E+00  0.00000000E+00  0.00000000E+00
  0.00000000E+00  0.00000000E+00  0.00000000E+00
  0.00000000E+00  0.00000000E+00  0.00000000E+00
  0.00000000E+00  0.00000000E+00  0.00000000E+00
  0.00000000E+00  0.00000000E+00  0.00000000E+00
  0.00000000E+00  0.00000000E+00  0.00000000E+00
  0.00000000E+00  0.00000000E+00  0.00000000E+00
  0.00000000E+00  0.00000000E+00  0.00000000E+00
  0.00000000E+00  0.00000000E+00  0.00000000E+00
  0.00000000E+00  0.00000000E+00  0.00000000E+00
  0.00000000E+00  0.00000000E+00  0.00000000E+00
  0.00000000E+00  0.00000000E+00  0.00000000E+00
  0.00000000E+00  0.00000000E+00  0.00000000E+00
  0.00000000E+00  0.00000000E+00  0.00000000E+00
  0.00000000E+00  0.00000000E+00  0.00000000E+00
  0.00000000E+00  0.00000000E+00  0.00000000E+00
  0.00000000E+00  0.00000000E+00  0.00000000E+00
  0.00000000E+00  0.00000000E+00  0.00000000E+00
  0.00000000E+00  0.00000000E+00  0.00000000E+00
  0.00000000E+00  0.00000000E+00  0.00000000E+00
  0.00000000E+00  0.00000000E+00  0.00000000E+00
  0.00000000E+00  0.00000000E+00  0.00000000E+00
