Title                                   
   1.00000000000000     
     9.8694509999999998    0.0000000000000000    0.0000000000000000
     0.0000000000000000    8.5490480000000009    0.0000000000000000
     0.0000000000000000    0.0000000000000000   20.0000000000000000
    25     5     1
Selective dynamics
Direct
  0.0551553731357671  0.0893888604167949  0.0839733066754731   T   T   T
  0.9302524920369087  0.1739134691120328  0.0838912437794528   T   T   T
  0.0575951706556354  0.9210697399457572  0.0845258949560261   T   T   T
  0.9320777672391860  0.3410506595417419  0.0835523643933761   T   T   T
  0.0563616547238110  0.5907387478548723  0.0840768100759208   T   T   T
  0.0560189271574775  0.4236281287197703  0.0831763276896201   T   T   T
  0.9324948534335178  0.8398021596153925  0.0859453999594717   T   T   T
  0.3064202441107082  0.0869328199641523  0.0915426126603808   T   T   T
  0.1801226440300154  0.1704091066218298  0.0872329380814118   T   T   T
  0.1799236050902334  0.3375867797798025  0.0874172720521113   T   T   T
  0.3043936090725787  0.5863019039834027  0.0966937162148592   T   T   T
  0.1805502139392061  0.6717589833531195  0.0878470981067852   T   T   T
  0.3034735822686271  0.4170180031861757  0.0972272293631494   T   T   T
  0.1828582931632589  0.8393330929007693  0.0869491290071259   T   T   T
  0.4279602194725124  0.1720604381068845  0.1000625751159209   T   T   T
  0.5563910480499382  0.9219702688393960  0.1009920763242550   T   T   T
  0.4247535377223341  0.6742740162337941  0.1076670716782441   T   T   T
  0.4293275869545570  0.8366007046048938  0.1008484776608611   T   T   T
  0.8045555081829170  0.0898789047341140  0.0879759674753667   T   T   T
  0.6810067549479151  0.1783215873552262  0.0953628467705871   T   T   T
  0.8072369381490939  0.9232473144717543  0.0896703861760636   T   T   T
  0.6848151969067531  0.3423161624418666  0.0997010472669688   T   T   T
  0.8101301710799358  0.5953450094771283  0.0930602730113666   T   T   T
  0.8082213722668844  0.4254075845097545  0.0906568099921173   T   T   T
  0.6827766025897731  0.8395396276658732  0.0986260236274329   T   T   T
  0.9327664049281006  0.6738404899700360  0.0852115304367844   T   T   T
  0.5553288623448803  0.0930311330682300  0.1002662048612515   T   T   T
  0.4215709462649557  0.3321681766855248  0.1092402043332610   T   T   T
  0.6935292833551587  0.6767862204925473  0.1052471960447465   T   T   T
  0.3056908463589291  0.9217248042467312  0.0902831754421453   T   T   T
  0.5593752903684330  0.5054301021006583  0.1620417907674967   T   T   T
 
  0.00000000E+00  0.00000000E+00  0.00000000E+00
  0.00000000E+00  0.00000000E+00  0.00000000E+00
  0.00000000E+00  0.00000000E+00  0.00000000E+00
  0.00000000E+00  0.00000000E+00  0.00000000E+00
  0.00000000E+00  0.00000000E+00  0.00000000E+00
  0.00000000E+00  0.00000000E+00  0.00000000E+00
  0.00000000E+00  0.00000000E+00  0.00000000E+00
  0.00000000E+00  0.00000000E+00  0.00000000E+00
  0.00000000E+00  0.00000000E+00  0.00000000E+00
  0.00000000E+00  0.00000000E+00  0.00000000E+00
  0.00000000E+00  0.00000000E+00  0.00000000E+00
  0.00000000E+00  0.00000000E+00  0.00000000E+00
  0.00000000E+00  0.00000000E+00  0.00000000E+00
  0.00000000E+00  0.00000000E+00  0.00000000E+00
  0.00000000E+00  0.00000000E+00  0.00000000E+00
  0.00000000E+00  0.00000000E+00  0.00000000E+00
  0.00000000E+00  0.00000000E+00  0.00000000E+00
  0.00000000E+00  0.00000000E+00  0.00000000E+00
  0.00000000E+00  0.00000000E+00  0.00000000E+00
  0.00000000E+00  0.00000000E+00  0.00000000E+00
  0.00000000E+00  0.00000000E+00  0.00000000E+00
  0.00000000E+00  0.00000000E+00  0.00000000E+00
  0.00000000E+00  0.00000000E+00  0.00000000E+00
  0.00000000E+00  0.00000000E+00  0.00000000E+00
  0.00000000E+00  0.00000000E+00  0.00000000E+00
  0.00000000E+00  0.00000000E+00  0.00000000E+00
  0.00000000E+00  0.00000000E+00  0.00000000E+00
  0.00000000E+00  0.00000000E+00  0.00000000E+00
  0.00000000E+00  0.00000000E+00  0.00000000E+00
  0.00000000E+00  0.00000000E+00  0.00000000E+00
  0.00000000E+00  0.00000000E+00  0.00000000E+00
