Title                                   
   1.00000000000000     
     9.8694509999999998    0.0000000000000000    0.0000000000000000
     0.0000000000000000    8.5490480000000009    0.0000000000000000
     0.0000000000000000    0.0000000000000000   20.0000000000000000
    30     1
Selective dynamics
Direct
  0.0562492365394756  0.0889734035698186  0.0898128934584819   T   T   T
  0.9313983132407255  0.1719982252566717  0.0907486965440516   T   T   T
  0.0562364190017294  0.9233492824075086  0.0897820911767286   T   T   T
  0.9326195410262152  0.3385871810145158  0.0930307218241424   T   T   T
  0.0562351923833310  0.5896814121002570  0.0931442567049878   T   T   T
  0.9326359263710541  0.6737252322486625  0.0929829222414483   T   T   T
  0.0562305944442230  0.4226178709389256  0.0931925410151776   T   T   T
  0.9313979958000279  0.8403245399270879  0.0907188401642766   T   T   T
  0.3063708602913452  0.0898129052061822  0.0904190322952595   T   T   T
  0.1810827605522979  0.1719979380413847  0.0908409615365410   T   T   T
  0.3063486120377511  0.9224993409190941  0.0904039069634838   T   T   T
  0.1798396324284007  0.3385804899010059  0.0931057095911262   T   T   T
  0.3036751003311493  0.5909476029979084  0.0955902973702753   T   T   T
  0.1798388436528037  0.6737426516201968  0.0930304224384579   T   T   T
  0.3036960920742096  0.4213676823247995  0.0956062968308062   T   T   T
  0.1810537267268447  0.8403350357397465  0.0907926849472983   T   T   T
  0.5562453446173061  0.0891393008118782  0.0939807264851897   T   T   T
  0.4311428004881343  0.1752253798188081  0.0935161707875434   T   T   T
  0.5562483820858580  0.9231725478319429  0.0939910315830841   T   T   T
  0.4283041451451325  0.3406229817443610  0.0978852860647423   T   T   T
  0.4283001929901568  0.6716874645281088  0.0979247235866162   T   T   T
  0.4311263491236633  0.8370876319933079  0.0935251126973648   T   T   T
  0.8061067639575169  0.0898317875093636  0.0903186961787053   T   T   T
  0.6813314938526921  0.1752450412494296  0.0934877716021253   T   T   T
  0.8061221105864788  0.9224971647447252  0.0903133761286156   T   T   T
  0.6841480151640102  0.3406509317425624  0.0979106896891751   T   T   T
  0.8087717913049142  0.5909483997101219  0.0955580054753593   T   T   T
  0.6841564055372068  0.6716691221367164  0.0979651326479806   T   T   T
  0.8087564650777672  0.4213695126279963  0.0955533863909735   T   T   T
  0.6813389366989552  0.8370647746113119  0.0935059037924379   T   T   T
  0.5561269564686349  0.5061221647256133  0.1423267117875855   T   T   T
 
  0.00000000E+00  0.00000000E+00  0.00000000E+00
  0.00000000E+00  0.00000000E+00  0.00000000E+00
  0.00000000E+00  0.00000000E+00  0.00000000E+00
  0.00000000E+00  0.00000000E+00  0.00000000E+00
  0.00000000E+00  0.00000000E+00  0.00000000E+00
  0.00000000E+00  0.00000000E+00  0.00000000E+00
  0.00000000E+00  0.00000000E+00  0.00000000E+00
  0.00000000E+00  0.00000000E+00  0.00000000E+00
  0.00000000E+00  0.00000000E+00  0.00000000E+00
  0.00000000E+00  0.00000000E+00  0.00000000E+00
  0.00000000E+00  0.00000000E+00  0.00000000E+00
  0.00000000E+00  0.00000000E+00  0.00000000E+00
  0.00000000E+00  0.00000000E+00  0.00000000E+00
  0.00000000E+00  0.00000000E+00  0.00000000E+00
  0.00000000E+00  0.00000000E+00  0.00000000E+00
  0.00000000E+00  0.00000000E+00  0.00000000E+00
  0.00000000E+00  0.00000000E+00  0.00000000E+00
  0.00000000E+00  0.00000000E+00  0.00000000E+00
  0.00000000E+00  0.00000000E+00  0.00000000E+00
  0.00000000E+00  0.00000000E+00  0.00000000E+00
  0.00000000E+00  0.00000000E+00  0.00000000E+00
  0.00000000E+00  0.00000000E+00  0.00000000E+00
  0.00000000E+00  0.00000000E+00  0.00000000E+00
  0.00000000E+00  0.00000000E+00  0.00000000E+00
  0.00000000E+00  0.00000000E+00  0.00000000E+00
  0.00000000E+00  0.00000000E+00  0.00000000E+00
  0.00000000E+00  0.00000000E+00  0.00000000E+00
  0.00000000E+00  0.00000000E+00  0.00000000E+00
  0.00000000E+00  0.00000000E+00  0.00000000E+00
  0.00000000E+00  0.00000000E+00  0.00000000E+00
  0.00000000E+00  0.00000000E+00  0.00000000E+00
