Title                                   
   1.00000000000000     
     9.8694509999999998    0.0000000000000000    0.0000000000000000
     0.0000000000000000    8.5490480000000009    0.0000000000000000
     0.0000000000000000    0.0000000000000000   20.0000000000000000
    25     6     1
Selective dynamics
Direct
  0.0557881437665762  0.0913008859464914  0.0895408304372375   T   T   T
  0.9308781744734146  0.1742931863160012  0.0894959646950494   T   T   T
  0.0569671215542082  0.9230974995576832  0.0900221935294742   T   T   T
  0.9296669245066566  0.3416176996286347  0.0917074237743294   T   T   T
  0.0561452311924761  0.5915176332586612  0.0906590675964065   T   T   T
  0.0557447107663966  0.4240345553851800  0.0911755191283165   T   T   T
  0.9327178408142994  0.8395041821979486  0.0916243430039141   T   T   T
  0.3062932512999304  0.0887004660219649  0.0909653130617529   T   T   T
  0.1822256485326430  0.1734559340006846  0.0904973793332060   T   T   T
  0.1827558109595193  0.3413638544614789  0.0914217227937230   T   T   T
  0.3055396409503955  0.5916399889205827  0.0955782870117783   T   T   T
  0.1803279947072184  0.6744761642022834  0.0914498326097495   T   T   T
  0.3099031502810998  0.4231513932880749  0.0941571095813876   T   T   T
  0.1815988339044738  0.8419649247489437  0.0910223229158833   T   T   T
  0.5559269381517670  0.0846432764560568  0.0921979614364083   T   T   T
  0.5548011942342050  0.9177631276407147  0.0949263102883491   T   T   T
  0.4342056467956968  0.3338837045754111  0.0956631504469179   T   T   T
  0.4267731476288147  0.8363397520714784  0.0954276558020652   T   T   T
  0.8061054676328291  0.0885055568400701  0.0889361878787966   T   T   T
  0.6796759435410147  0.1697543620324864  0.0907196416368259   T   T   T
  0.8074198534205573  0.9221467907251568  0.0913837410742934   T   T   T
  0.6784487098023280  0.3367517997768239  0.0959307691366281   T   T   T
  0.8080083056937051  0.5943799533535048  0.0993744274400887   T   T   T
  0.8029518556902954  0.4253107999165852  0.0959831795727797   T   T   T
  0.6836296268829186  0.8384253218276488  0.0976977380287428   T   T   T
  0.4215884763213702  0.6807261646077101  0.1021786165450776   T   T   T
  0.5540908758329456  0.4065830739096017  0.1037343715502806   T   T   T
  0.6935748154089653  0.6794809349841486  0.1096658988439444   T   T   T
  0.3052450386417485  0.9247020750983022  0.0918615906512544   T   T   T
  0.4302267732756003  0.1664820592917913  0.0921655204401833   T   T   T
  0.9322140312596502  0.6731628371514440  0.0928955944173299   T   T   T
  0.5581998220762844  0.5910860418064537  0.1756153353378420   T   T   T
 
  0.00000000E+00  0.00000000E+00  0.00000000E+00
  0.00000000E+00  0.00000000E+00  0.00000000E+00
  0.00000000E+00  0.00000000E+00  0.00000000E+00
  0.00000000E+00  0.00000000E+00  0.00000000E+00
  0.00000000E+00  0.00000000E+00  0.00000000E+00
  0.00000000E+00  0.00000000E+00  0.00000000E+00
  0.00000000E+00  0.00000000E+00  0.00000000E+00
  0.00000000E+00  0.00000000E+00  0.00000000E+00
  0.00000000E+00  0.00000000E+00  0.00000000E+00
  0.00000000E+00  0.00000000E+00  0.00000000E+00
  0.00000000E+00  0.00000000E+00  0.00000000E+00
  0.00000000E+00  0.00000000E+00  0.00000000E+00
  0.00000000E+00  0.00000000E+00  0.00000000E+00
  0.00000000E+00  0.00000000E+00  0.00000000E+00
  0.00000000E+00  0.00000000E+00  0.00000000E+00
  0.00000000E+00  0.00000000E+00  0.00000000E+00
  0.00000000E+00  0.00000000E+00  0.00000000E+00
  0.00000000E+00  0.00000000E+00  0.00000000E+00
  0.00000000E+00  0.00000000E+00  0.00000000E+00
  0.00000000E+00  0.00000000E+00  0.00000000E+00
  0.00000000E+00  0.00000000E+00  0.00000000E+00
  0.00000000E+00  0.00000000E+00  0.00000000E+00
  0.00000000E+00  0.00000000E+00  0.00000000E+00
  0.00000000E+00  0.00000000E+00  0.00000000E+00
  0.00000000E+00  0.00000000E+00  0.00000000E+00
  0.00000000E+00  0.00000000E+00  0.00000000E+00
  0.00000000E+00  0.00000000E+00  0.00000000E+00
  0.00000000E+00  0.00000000E+00  0.00000000E+00
  0.00000000E+00  0.00000000E+00  0.00000000E+00
  0.00000000E+00  0.00000000E+00  0.00000000E+00
  0.00000000E+00  0.00000000E+00  0.00000000E+00
  0.00000000E+00  0.00000000E+00  0.00000000E+00
