Title                                   
   1.00000000000000     
     4.9440799999999996    0.0000000000000000    0.0000000000000000
     0.0000000000000000   17.1295089999999988    0.0000000000000000
     0.0000000000000000    0.0000000000000000   20.0000000000000000
    30     1
Selective dynamics
Direct
 -0.0001469433431733  0.1043546937690224  0.2974289119152763   T   T   T
  0.2503129031032963  0.1462972497932594  0.2979686988649317   T   T   T
  0.2503171179940510  0.2292526347111496  0.2996325349437589   T   T   T
  0.0005863611472503  0.2717989842237466  0.3005750112173357   T   T   T
  0.0006571901759026  0.6031259061572687  0.3010368593378099   T   T   T
  0.2503985822966022  0.7286202156035240  0.2984816068346319   T   T   T
  0.0000859734105099  0.8539396415539030  0.2971317982440486   T   T   T
  0.2503500717135271  0.8957582990171639  0.2968307777217650   T   T   T
  0.2503291973127713  0.9791466155965272  0.2966933893462325   T   T   T
 -0.0000591769645837  0.7705547191349450  0.2979385221744092   T   T   T
  0.5007615461756411  0.1043522310192737  0.2974300144323526   T   T   T
  0.7502944001470608  0.1461324745168432  0.2980233076214365   T   T   T
  0.7503009666092907  0.2296420928858221  0.2997222321203591   T   T   T
  0.5005955353019373  0.0209679791105429  0.2968333529652875   T   T   T
  0.7502780004099568  0.3947724847418752  0.2997855198157314   T   T   T
  0.7502840058948405  0.4801621318214970  0.2999137357495273   T   T   T
  0.5000053861502305  0.2718089147249368  0.3005719556095336   T   T   T
  0.5000326373133273  0.6031183281149017  0.3010287996853305   T   T   T
  0.7504006525666523  0.7287721426824965  0.2985259145890524   T   T   T
  0.5006401088109932  0.8539457255783347  0.2971283537632179   T   T   T
  0.7503642639139049  0.8957332373436531  0.2968726051476225   T   T   T
  0.7503359674896063  0.9791845859647773  0.2967363454400407   T   T   T
  0.5008497347896267  0.7705603366902933  0.2979387989089908   T   T   T
  0.7503530118777729  0.6452716040230039  0.3002241019731922   T   T   T
  0.2503572396262760  0.6456771553780285  0.3001365697270130   T   T   T
  0.0000523609765357  0.0209666976855625  0.2968319377294804   T   T   T
  0.5037115466922146  0.5208190212421600  0.3024043892545760   T   T   T
  0.9968374407756044  0.5208322942994040  0.3024106521916390   T   T   T
  0.5036404363381510  0.3541072670194779  0.3021349506959184   T   T   T
 -0.0031309214664086  0.3540920095802156  0.3021373931982913   T   T   T
  0.2502114027606333  0.4375743260163870  0.3145509587811592   T   T   T
 
  0.00000000E+00  0.00000000E+00  0.00000000E+00
  0.00000000E+00  0.00000000E+00  0.00000000E+00
  0.00000000E+00  0.00000000E+00  0.00000000E+00
  0.00000000E+00  0.00000000E+00  0.00000000E+00
  0.00000000E+00  0.00000000E+00  0.00000000E+00
  0.00000000E+00  0.00000000E+00  0.00000000E+00
  0.00000000E+00  0.00000000E+00  0.00000000E+00
  0.00000000E+00  0.00000000E+00  0.00000000E+00
  0.00000000E+00  0.00000000E+00  0.00000000E+00
  0.00000000E+00  0.00000000E+00  0.00000000E+00
  0.00000000E+00  0.00000000E+00  0.00000000E+00
  0.00000000E+00  0.00000000E+00  0.00000000E+00
  0.00000000E+00  0.00000000E+00  0.00000000E+00
  0.00000000E+00  0.00000000E+00  0.00000000E+00
  0.00000000E+00  0.00000000E+00  0.00000000E+00
  0.00000000E+00  0.00000000E+00  0.00000000E+00
  0.00000000E+00  0.00000000E+00  0.00000000E+00
  0.00000000E+00  0.00000000E+00  0.00000000E+00
  0.00000000E+00  0.00000000E+00  0.00000000E+00
  0.00000000E+00  0.00000000E+00  0.00000000E+00
  0.00000000E+00  0.00000000E+00  0.00000000E+00
  0.00000000E+00  0.00000000E+00  0.00000000E+00
  0.00000000E+00  0.00000000E+00  0.00000000E+00
  0.00000000E+00  0.00000000E+00  0.00000000E+00
  0.00000000E+00  0.00000000E+00  0.00000000E+00
  0.00000000E+00  0.00000000E+00  0.00000000E+00
  0.00000000E+00  0.00000000E+00  0.00000000E+00
  0.00000000E+00  0.00000000E+00  0.00000000E+00
  0.00000000E+00  0.00000000E+00  0.00000000E+00
  0.00000000E+00  0.00000000E+00  0.00000000E+00
  0.00000000E+00  0.00000000E+00  0.00000000E+00
