Title                                   
   1.00000000000000     
     4.9440799999999996    0.0000000000000000    0.0000000000000000
     0.0000000000000000   17.1295089999999988    0.0000000000000000
     0.0000000000000000    0.0000000000000000   20.0000000000000000
    30     1     1
Selective dynamics
Direct
  0.0003646129137374  0.1050278460161184  0.2814120504708871   T   T   T
  0.2499034286607029  0.1469166344898240  0.2862236588294473   T   T   T
  0.2498899987033454  0.2292492502731906  0.2992955177655116   T   T   T
  0.0015165006080640  0.3488144931550146  0.3293952062461880   T   T   T
 -0.0024383328685505  0.2697347090016478  0.3065131275481159   T   T   T
 -0.0048639206961394  0.6059673730631840  0.3092100971847447   T   T   T
  0.2498909681549077  0.7283689411413194  0.2878868881351432   T   T   T
  0.0004332197759115  0.8542806579993393  0.2765538690636475   T   T   T
  0.2498986518728433  0.8963705762031111  0.2750504348348019   T   T   T
  0.2499178967302558  0.9797809657683511  0.2747453118136353   T   T   T
  0.0006181252908819  0.7710481948962720  0.2825030057238924   T   T   T
  0.4994627608291993  0.1050292807758127  0.2814148727170915   T   T   T
  0.7499128859903330  0.1464104466660074  0.2852640646541761   T   T   T
  0.7499018397717305  0.2285561094717297  0.2969762688794463   T   T   T
  0.4997694665340235  0.0217202617588965  0.2759292725286616   T   T   T
  0.4982748496911133  0.3488109962854494  0.3294000466980225   T   T   T
  0.7498915709499535  0.4773171847961898  0.3296306602626811   T   T   T
  0.5022196047922087  0.2697312836810771  0.3065169824689677   T   T   T
  0.5046327642458485  0.6059720937753135  0.3092098051323770   T   T   T
  0.7498983924248654  0.7303827343738353  0.2865596910383508   T   T   T
  0.4993846667190667  0.8542804021564950  0.2765487677147819   T   T   T
  0.7499076499264483  0.8960668054202851  0.2749283655273351   T   T   T
  0.7499239032347932  0.9798116135850697  0.2746120112674681   T   T   T
  0.4992148808203796  0.7710458219855871  0.2825009301145481   T   T   T
  0.7499090649119946  0.6485738966762046  0.2994529717807629   T   T   T
  0.2498839832698705  0.6463839233043605  0.3014673689686059   T   T   T
  0.0000577674530680  0.0217197014093618  0.2759291518423219   T   T   T
  0.5230988019954900  0.5269927866676750  0.3294322850374510   T   T   T
  0.9766748993254776  0.5269866429880170  0.3294354229161837   T   T   T
  0.2498905723709435  0.3815299992871199  0.3499757908235225   T   T   T
  0.7498887148286785  0.3919321501182939  0.3341419075379079   T   T   T
  0.2498928107685589  0.4837372228098397  0.3844491944732740   T   T   T
 
  0.00000000E+00  0.00000000E+00  0.00000000E+00
  0.00000000E+00  0.00000000E+00  0.00000000E+00
  0.00000000E+00  0.00000000E+00  0.00000000E+00
  0.00000000E+00  0.00000000E+00  0.00000000E+00
  0.00000000E+00  0.00000000E+00  0.00000000E+00
  0.00000000E+00  0.00000000E+00  0.00000000E+00
  0.00000000E+00  0.00000000E+00  0.00000000E+00
  0.00000000E+00  0.00000000E+00  0.00000000E+00
  0.00000000E+00  0.00000000E+00  0.00000000E+00
  0.00000000E+00  0.00000000E+00  0.00000000E+00
  0.00000000E+00  0.00000000E+00  0.00000000E+00
  0.00000000E+00  0.00000000E+00  0.00000000E+00
  0.00000000E+00  0.00000000E+00  0.00000000E+00
  0.00000000E+00  0.00000000E+00  0.00000000E+00
  0.00000000E+00  0.00000000E+00  0.00000000E+00
  0.00000000E+00  0.00000000E+00  0.00000000E+00
  0.00000000E+00  0.00000000E+00  0.00000000E+00
  0.00000000E+00  0.00000000E+00  0.00000000E+00
  0.00000000E+00  0.00000000E+00  0.00000000E+00
  0.00000000E+00  0.00000000E+00  0.00000000E+00
  0.00000000E+00  0.00000000E+00  0.00000000E+00
  0.00000000E+00  0.00000000E+00  0.00000000E+00
  0.00000000E+00  0.00000000E+00  0.00000000E+00
  0.00000000E+00  0.00000000E+00  0.00000000E+00
  0.00000000E+00  0.00000000E+00  0.00000000E+00
  0.00000000E+00  0.00000000E+00  0.00000000E+00
  0.00000000E+00  0.00000000E+00  0.00000000E+00
  0.00000000E+00  0.00000000E+00  0.00000000E+00
  0.00000000E+00  0.00000000E+00  0.00000000E+00
  0.00000000E+00  0.00000000E+00  0.00000000E+00
  0.00000000E+00  0.00000000E+00  0.00000000E+00
  0.00000000E+00  0.00000000E+00  0.00000000E+00
