Title                                   
   1.00000000000000     
     9.8694509999999998    0.0000000000000000    0.0000000000000000
     0.0000000000000000    8.5490480000000009    0.0000000000000000
     0.0000000000000000    0.0000000000000000   20.0000000000000000
    25     6     1
Selective dynamics
Direct
  0.0560885150905922  0.0917919783580663  0.0844974828582127   T   T   T
  0.9309521966633206  0.1750430382186881  0.0850117570042454   T   T   T
  0.0571643385783439  0.9234724385184839  0.0849498212023986   T   T   T
  0.9299380518207926  0.3419278272993644  0.0883923173772949   T   T   T
  0.0564880288238333  0.5917756045429950  0.0876099222129802   T   T   T
  0.0560211797894636  0.4242196332287873  0.0883892031292277   T   T   T
  0.9330164134794681  0.8398481097609769  0.0870856587614671   T   T   T
  0.3061607011910589  0.0887267810100891  0.0887691202099235   T   T   T
  0.1822758293799232  0.1742030332338840  0.0872372455374338   T   T   T
  0.1829518811961162  0.3415747419858219  0.0900523922752585   T   T   T
  0.3036086855975400  0.5923155774394555  0.1007950873168519   T   T   T
  0.1800886565249705  0.6746893629956764  0.0897172725544457   T   T   T
  0.3105371625261008  0.4232882282446104  0.0982859921866657   T   T   T
  0.1816714552729349  0.8423683596158251  0.0876265895239398   T   T   T
  0.5562916579950768  0.0842766648217736  0.0929336142908283   T   T   T
  0.5548150789438629  0.9169912892716320  0.0988957679763783   T   T   T
  0.4327399597002489  0.3314037195176981  0.1017684793734579   T   T   T
  0.4257329105273367  0.8389662725524798  0.1024643234152247   T   T   T
  0.8064875086014217  0.0886429973738140  0.0851626150965056   T   T   T
  0.6797908940669710  0.1687569258661815  0.0894477087457611   T   T   T
  0.8079808431453305  0.9227155892968062  0.0879907484236921   T   T   T
  0.6794172214525882  0.3349156781741071  0.0987308220192030   T   T   T
  0.8099447767606135  0.5949047224537560  0.1002371948076542   T   T   T
  0.8028479379168293  0.4259444207263251  0.0962612892101354   T   T   T
  0.6852666498105725  0.8395515488384613  0.0996503497776278   T   T   T
  0.4134668823996399  0.6856816292390423  0.1173267547762485   T   T   T
  0.5550323657089606  0.3980998475917446  0.1150640474472592   T   T   T
  0.6992063537617054  0.6827804011563646  0.1157040978565138   T   T   T
  0.3048325797999555  0.9255312872649922  0.0895625845638707   T   T   T
  0.4296439199604187  0.1658445750892815  0.0929053745602108   T   T   T
  0.9329029766698982  0.6731533957161637  0.0890865035493706   T   T   T
  0.5562753868441167  0.5868403205966537  0.1640628619597284   T   T   T
 
  0.00000000E+00  0.00000000E+00  0.00000000E+00
  0.00000000E+00  0.00000000E+00  0.00000000E+00
  0.00000000E+00  0.00000000E+00  0.00000000E+00
  0.00000000E+00  0.00000000E+00  0.00000000E+00
  0.00000000E+00  0.00000000E+00  0.00000000E+00
  0.00000000E+00  0.00000000E+00  0.00000000E+00
  0.00000000E+00  0.00000000E+00  0.00000000E+00
  0.00000000E+00  0.00000000E+00  0.00000000E+00
  0.00000000E+00  0.00000000E+00  0.00000000E+00
  0.00000000E+00  0.00000000E+00  0.00000000E+00
  0.00000000E+00  0.00000000E+00  0.00000000E+00
  0.00000000E+00  0.00000000E+00  0.00000000E+00
  0.00000000E+00  0.00000000E+00  0.00000000E+00
  0.00000000E+00  0.00000000E+00  0.00000000E+00
  0.00000000E+00  0.00000000E+00  0.00000000E+00
  0.00000000E+00  0.00000000E+00  0.00000000E+00
  0.00000000E+00  0.00000000E+00  0.00000000E+00
  0.00000000E+00  0.00000000E+00  0.00000000E+00
  0.00000000E+00  0.00000000E+00  0.00000000E+00
  0.00000000E+00  0.00000000E+00  0.00000000E+00
  0.00000000E+00  0.00000000E+00  0.00000000E+00
  0.00000000E+00  0.00000000E+00  0.00000000E+00
  0.00000000E+00  0.00000000E+00  0.00000000E+00
  0.00000000E+00  0.00000000E+00  0.00000000E+00
  0.00000000E+00  0.00000000E+00  0.00000000E+00
  0.00000000E+00  0.00000000E+00  0.00000000E+00
  0.00000000E+00  0.00000000E+00  0.00000000E+00
  0.00000000E+00  0.00000000E+00  0.00000000E+00
  0.00000000E+00  0.00000000E+00  0.00000000E+00
  0.00000000E+00  0.00000000E+00  0.00000000E+00
  0.00000000E+00  0.00000000E+00  0.00000000E+00
  0.00000000E+00  0.00000000E+00  0.00000000E+00
