Title                                   
   1.00000000000000     
     4.9440799999999996    0.0000000000000000    0.0000000000000000
     0.0000000000000000   17.1295089999999988    0.0000000000000000
     0.0000000000000000    0.0000000000000000   20.0000000000000000
    29     2     1
Selective dynamics
Direct
 -0.0014859265934982  0.1042800775278842  0.2803024723018277   T   T   T
  0.2485231557072317  0.1458429530297388  0.2849939387652199   T   T   T
  0.2478779059825382  0.2281601861712821  0.2974804859266988   T   T   T
 -0.0032184796019490  0.3489785863222307  0.3227034645438663   T   T   T
 -0.0045718194603516  0.2685709093638506  0.3035555078800425   T   T   T
 -0.0019912523725705  0.6048051807898205  0.3081246699530115   T   T   T
  0.2515420468616226  0.7284077875543243  0.2930281538191590   T   T   T
  0.0014506054281739  0.8537346805658474  0.2781860636076595   T   T   T
  0.2505084734357351  0.8957392851482550  0.2764540927702386   T   T   T
  0.2496152653104487  0.9790735718850416  0.2747949955620574   T   T   T
  0.0025900135590578  0.7706674263162215  0.2854299477577751   T   T   T
  0.4984706505847238  0.1041290802001184  0.2804547050296424   T   T   T
  0.7479609880236716  0.1456213840396528  0.2840559407953154   T   T   T
  0.7468709824387026  0.2280900933267628  0.2953208199780712   T   T   T
  0.4994588323141194  0.0208274470429694  0.2754973977535936   T   T   T
  0.4958705599862553  0.3499768835531231  0.3242980088596829   T   T   T
  0.7485917865786074  0.3953282401176527  0.3289267926329432   T   T   T
  0.7545700494570341  0.4851826073485259  0.3312922973227519   T   T   T
  0.4990265479568389  0.2690541233252118  0.3045611420366916   T   T   T
  0.5099826766168699  0.6083289676611704  0.3197060856381725   T   T   T
  0.7522127651510104  0.7302034313843121  0.2905021700503235   T   T   T
  0.5002193760046525  0.8537723767657969  0.2791187546913666   T   T   T
  0.7505810855473349  0.8953531830303931  0.2760716068011879   T   T   T
  0.7496910410173847  0.9790089785058795  0.2744766059303843   T   T   T
  0.5007888581528174  0.7708673944548184  0.2872990849155837   T   T   T
  0.7530537975705218  0.6484144582321018  0.3030657272011335   T   T   T
  0.2534112326910641  0.6464461491699023  0.3078825708346337   T   T   T
 -0.0006641018212768  0.0209287775866390  0.2753416596327757   T   T   T
  0.5343086125308155  0.5327336396077503  0.3482420334253655   T   T   T
  0.9860994481688937  0.5250388547607794  0.3119406936698755   T   T   T
  0.2442341722871219  0.3804753193048387  0.3391533928484908   T   T   T
  0.2312436504864022  0.4805089659070975  0.3803037170644102   T   T   T
 
  0.00000000E+00  0.00000000E+00  0.00000000E+00
  0.00000000E+00  0.00000000E+00  0.00000000E+00
  0.00000000E+00  0.00000000E+00  0.00000000E+00
  0.00000000E+00  0.00000000E+00  0.00000000E+00
  0.00000000E+00  0.00000000E+00  0.00000000E+00
  0.00000000E+00  0.00000000E+00  0.00000000E+00
  0.00000000E+00  0.00000000E+00  0.00000000E+00
  0.00000000E+00  0.00000000E+00  0.00000000E+00
  0.00000000E+00  0.00000000E+00  0.00000000E+00
  0.00000000E+00  0.00000000E+00  0.00000000E+00
  0.00000000E+00  0.00000000E+00  0.00000000E+00
  0.00000000E+00  0.00000000E+00  0.00000000E+00
  0.00000000E+00  0.00000000E+00  0.00000000E+00
  0.00000000E+00  0.00000000E+00  0.00000000E+00
  0.00000000E+00  0.00000000E+00  0.00000000E+00
  0.00000000E+00  0.00000000E+00  0.00000000E+00
  0.00000000E+00  0.00000000E+00  0.00000000E+00
  0.00000000E+00  0.00000000E+00  0.00000000E+00
  0.00000000E+00  0.00000000E+00  0.00000000E+00
  0.00000000E+00  0.00000000E+00  0.00000000E+00
  0.00000000E+00  0.00000000E+00  0.00000000E+00
  0.00000000E+00  0.00000000E+00  0.00000000E+00
  0.00000000E+00  0.00000000E+00  0.00000000E+00
  0.00000000E+00  0.00000000E+00  0.00000000E+00
  0.00000000E+00  0.00000000E+00  0.00000000E+00
  0.00000000E+00  0.00000000E+00  0.00000000E+00
  0.00000000E+00  0.00000000E+00  0.00000000E+00
  0.00000000E+00  0.00000000E+00  0.00000000E+00
  0.00000000E+00  0.00000000E+00  0.00000000E+00
  0.00000000E+00  0.00000000E+00  0.00000000E+00
  0.00000000E+00  0.00000000E+00  0.00000000E+00
  0.00000000E+00  0.00000000E+00  0.00000000E+00
