Title                                   
   1.00000000000000     
     9.8694509999999998    0.0000000000000000    0.0000000000000000
     0.0000000000000000    8.5490480000000009    0.0000000000000000
     0.0000000000000000    0.0000000000000000   20.0000000000000000
    28     3     1
Selective dynamics
Direct
  0.0559134255894999  0.0919448209118386  0.0842960069623687   T   T   T
  0.9311505294269653  0.1733292174622406  0.0860926517283156   T   T   T
  0.0569053680205112  0.9245657439150433  0.0846615291672383   T   T   T
  0.9303093296283095  0.3405316998998634  0.0899020233547243   T   T   T
  0.0566385497632045  0.5902224986057424  0.0857777952624973   T   T   T
  0.9322151930369537  0.6729548700471880  0.0899548781545645   T   T   T
  0.0571776681612243  0.4229674909253768  0.0872478344130972   T   T   T
  0.9321020773126849  0.8395233998932051  0.0879288470021516   T   T   T
  0.3055545399647619  0.0887964728142068  0.0873736611800796   T   T   T
  0.1819375894495902  0.1738506096178913  0.0854057157778601   T   T   T
  0.1839933090202604  0.3412971183149129  0.0870372562586301   T   T   T
  0.3053582083042112  0.5939635168635701  0.0931013952554486   T   T   T
  0.1804959752417025  0.6750567263338660  0.0858750193328791   T   T   T
  0.3103492965167788  0.4261456815587277  0.0916910539468040   T   T   T
  0.1803221256358009  0.8415321932182216  0.0858758233523522   T   T   T
  0.5558849714483806  0.0847325593309036  0.0944234963567041   T   T   T
  0.4309537676253145  0.1687787126202857  0.0908423882682357   T   T   T
  0.5540613335786690  0.9195125662927583  0.1015898414228418   T   T   T
  0.4346525732540223  0.3351820007341500  0.0946600522953170   T   T   T
  0.4255495172747468  0.8397205948500468  0.0994525538664851   T   T   T
  0.8065815143564228  0.0881837397304579  0.0880094543299630   T   T   T
  0.6812022312261208  0.1684612730787855  0.0921386862018429   T   T   T
  0.8066498353291314  0.9223279109946505  0.0908613930090599   T   T   T
  0.6792164860201931  0.3345135794974915  0.0983836739516345   T   T   T
  0.8093850388919631  0.5908479638641814  0.1040724250105041   T   T   T
  0.6963665047791939  0.6808088638984986  0.1236389458593707   T   T   T
  0.8051817961115966  0.4224050866416407  0.0991123438181982   T   T   T
  0.6839244900177843  0.8388984158272903  0.1052436005554674   T   T   T
  0.4182307420779012  0.6831892667536760  0.1065161108519753   T   T   T
  0.5566947732174534  0.4079949829245562  0.1043420967723710   T   T   T
  0.3049097785254453  0.9249576778317463  0.0885090811123166   T   T   T
  0.5497704611932088  0.5830487447469958  0.1716573651687356   T   T   T
 
  0.00000000E+00  0.00000000E+00  0.00000000E+00
  0.00000000E+00  0.00000000E+00  0.00000000E+00
  0.00000000E+00  0.00000000E+00  0.00000000E+00
  0.00000000E+00  0.00000000E+00  0.00000000E+00
  0.00000000E+00  0.00000000E+00  0.00000000E+00
  0.00000000E+00  0.00000000E+00  0.00000000E+00
  0.00000000E+00  0.00000000E+00  0.00000000E+00
  0.00000000E+00  0.00000000E+00  0.00000000E+00
  0.00000000E+00  0.00000000E+00  0.00000000E+00
  0.00000000E+00  0.00000000E+00  0.00000000E+00
  0.00000000E+00  0.00000000E+00  0.00000000E+00
  0.00000000E+00  0.00000000E+00  0.00000000E+00
  0.00000000E+00  0.00000000E+00  0.00000000E+00
  0.00000000E+00  0.00000000E+00  0.00000000E+00
  0.00000000E+00  0.00000000E+00  0.00000000E+00
  0.00000000E+00  0.00000000E+00  0.00000000E+00
  0.00000000E+00  0.00000000E+00  0.00000000E+00
  0.00000000E+00  0.00000000E+00  0.00000000E+00
  0.00000000E+00  0.00000000E+00  0.00000000E+00
  0.00000000E+00  0.00000000E+00  0.00000000E+00
  0.00000000E+00  0.00000000E+00  0.00000000E+00
  0.00000000E+00  0.00000000E+00  0.00000000E+00
  0.00000000E+00  0.00000000E+00  0.00000000E+00
  0.00000000E+00  0.00000000E+00  0.00000000E+00
  0.00000000E+00  0.00000000E+00  0.00000000E+00
  0.00000000E+00  0.00000000E+00  0.00000000E+00
  0.00000000E+00  0.00000000E+00  0.00000000E+00
  0.00000000E+00  0.00000000E+00  0.00000000E+00
  0.00000000E+00  0.00000000E+00  0.00000000E+00
  0.00000000E+00  0.00000000E+00  0.00000000E+00
  0.00000000E+00  0.00000000E+00  0.00000000E+00
  0.00000000E+00  0.00000000E+00  0.00000000E+00
