Title                                   
   1.00000000000000     
     4.9440799999999996    0.0000000000000000    0.0000000000000000
     0.0000000000000000   17.1295089999999988    0.0000000000000000
     0.0000000000000000    0.0000000000000000   20.0000000000000000
    29     2     1
Selective dynamics
Direct
  0.0001674617448142  0.1051233397644011  0.2794804595637375   T   T   T
  0.2499577809592411  0.1468112658213911  0.2848717729571769   T   T   T
  0.2499456466573827  0.2284628734653423  0.2997316662752479   T   T   T
  0.0040933417224845  0.3471063239277395  0.3306513886616189   T   T   T
 -0.0020038339819879  0.2690756894613668  0.3073650371819230   T   T   T
 -0.0045960385842679  0.6065156002347099  0.3104852714977251   T   T   T
  0.2498671518036629  0.7290918677625624  0.2894362211820181   T   T   T
  0.0003347357340692  0.8546053315329899  0.2765053055484045   T   T   T
  0.2499111363907848  0.8966854700677079  0.2744441846434797   T   T   T
  0.2499409441237795  0.9800045812521484  0.2731005600287505   T   T   T
  0.0003867746173874  0.7716137992544743  0.2836014624179402   T   T   T
  0.4997457189330666  0.1051227525421635  0.2794806604329333   T   T   T
  0.7499516361301877  0.1468208890408377  0.2837128149904056   T   T   T
  0.7499394676340759  0.2283796179990760  0.2965409960509192   T   T   T
  0.4999518088413571  0.0219999284349249  0.2739130049194760   T   T   T
  0.4957393813018305  0.3471050211351880  0.3306543402253987   T   T   T
  0.7498362464124286  0.4794936904092171  0.3301497207181084   T   T   T
  0.5018756686072067  0.2690717614706427  0.3073670312037680   T   T   T
  0.5042725525974934  0.6065206045769067  0.3104966295934311   T   T   T
  0.7498647133462478  0.7307230929991373  0.2879161633159115   T   T   T
  0.4994731646147291  0.8546083178044968  0.2765030378483517   T   T   T
  0.7499096094130363  0.8964552369259098  0.2741739662295000   T   T   T
  0.7499432315708545  0.9799496836913382  0.2728025638985363   T   T   T
  0.4993590882712721  0.7716123218038019  0.2836006421738316   T   T   T
  0.7498418656555773  0.6488583492977550  0.3006288232209537   T   T   T
  0.2498467547455324  0.6472728506158811  0.3032480908854413   T   T   T
 -0.0000540751900623  0.0220011428724391  0.2739128524460114   T   T   T
  0.5174857959379646  0.5269695329144899  0.3291381933684216   T   T   T
  0.9821951538769185  0.5269657351597153  0.3291150149803011   T   T   T
  0.2499102910393425  0.3779992734540081  0.3493051060440454   T   T   T
  0.7498980746571947  0.3918838391777561  0.3366905948648475   T   T   T
  0.2498317504163989  0.4836412151294751  0.3835414226313373   T   T   T
 
  0.00000000E+00  0.00000000E+00  0.00000000E+00
  0.00000000E+00  0.00000000E+00  0.00000000E+00
  0.00000000E+00  0.00000000E+00  0.00000000E+00
  0.00000000E+00  0.00000000E+00  0.00000000E+00
  0.00000000E+00  0.00000000E+00  0.00000000E+00
  0.00000000E+00  0.00000000E+00  0.00000000E+00
  0.00000000E+00  0.00000000E+00  0.00000000E+00
  0.00000000E+00  0.00000000E+00  0.00000000E+00
  0.00000000E+00  0.00000000E+00  0.00000000E+00
  0.00000000E+00  0.00000000E+00  0.00000000E+00
  0.00000000E+00  0.00000000E+00  0.00000000E+00
  0.00000000E+00  0.00000000E+00  0.00000000E+00
  0.00000000E+00  0.00000000E+00  0.00000000E+00
  0.00000000E+00  0.00000000E+00  0.00000000E+00
  0.00000000E+00  0.00000000E+00  0.00000000E+00
  0.00000000E+00  0.00000000E+00  0.00000000E+00
  0.00000000E+00  0.00000000E+00  0.00000000E+00
  0.00000000E+00  0.00000000E+00  0.00000000E+00
  0.00000000E+00  0.00000000E+00  0.00000000E+00
  0.00000000E+00  0.00000000E+00  0.00000000E+00
  0.00000000E+00  0.00000000E+00  0.00000000E+00
  0.00000000E+00  0.00000000E+00  0.00000000E+00
  0.00000000E+00  0.00000000E+00  0.00000000E+00
  0.00000000E+00  0.00000000E+00  0.00000000E+00
  0.00000000E+00  0.00000000E+00  0.00000000E+00
  0.00000000E+00  0.00000000E+00  0.00000000E+00
  0.00000000E+00  0.00000000E+00  0.00000000E+00
  0.00000000E+00  0.00000000E+00  0.00000000E+00
  0.00000000E+00  0.00000000E+00  0.00000000E+00
  0.00000000E+00  0.00000000E+00  0.00000000E+00
  0.00000000E+00  0.00000000E+00  0.00000000E+00
  0.00000000E+00  0.00000000E+00  0.00000000E+00
