Title                                   
   1.00000000000000     
     8.5490480000000009    0.0000000000000000    0.0000000000000000
     0.0000000000000000    8.5490480000000009    0.0000000000000000
     0.0000000000000000    0.0000000000000000   20.0000000000000000
    19     5     1
Selective dynamics
Direct
  0.9098555711855929  0.2059940058499634  0.0975220180993731   T   T   T
  0.9110429173247522  0.8010863171673742  0.0973675897804255   T   T   T
  0.1989859319285096  0.0843816324068689  0.0976989462961942   T   T   T
  0.0756075537009373  0.2040070365222055  0.0976237645420897   T   T   T
  0.1550152657518681  0.6521493481218767  0.0978145135121981   T   T   T
  0.0743414172241160  0.5019407960078212  0.0977423058441394   T   T   T
  0.1549577659588613  0.3561039931532041  0.0977991580791592   T   T   T
  0.0783649198347697  0.7999690706548682  0.0975387789292015   T   T   T
  0.4947101337997962  0.0848333041612026  0.0977323968575917   T   T   T
  0.3466106990022553  0.1644249077463643  0.0978442862869657   T   T   T
  0.4937508819268277  0.9131307706470644  0.0977207325680915   T   T   T
  0.3440000354969997  0.8328395829513157  0.0979475700496723   T   T   T
  0.7893056294445397  0.0863487162626891  0.0974429142600293   T   T   T
  0.6424246730603924  0.1664625294336258  0.0977525904340998   T   T   T
  0.7897513707946162  0.9187403597595329  0.0973580902170352   T   T   T
  0.8288834944312816  0.6521010699438449  0.0976105427513613   T   T   T
  0.8254630575866305  0.3548806735201784  0.0977667138598345   T   T   T
  0.6431386036958384  0.8344017668490185  0.0976601763390394   T   T   T
  0.3246755705897550  0.3355683340563089  0.0979638408006156   T   T   T
  0.9042425976540996  0.5034066795269559  0.0977521789550197   T   T   T
  0.3175175773391868  0.6740234362833649  0.0981201626052397   T   T   T
  0.6657338037289878  0.3314733196052128  0.0980208864356168   T   T   T
  0.6693221620044926  0.6724330862668123  0.0978987303657467   T   T   T
  0.1975958972392519  0.9163009910707561  0.0977339384720691   T   T   T
  0.4901144692956337  0.4977882720315898  0.0982721736591637   T   T   T
 
  0.00000000E+00  0.00000000E+00  0.00000000E+00
  0.00000000E+00  0.00000000E+00  0.00000000E+00
  0.00000000E+00  0.00000000E+00  0.00000000E+00
  0.00000000E+00  0.00000000E+00  0.00000000E+00
  0.00000000E+00  0.00000000E+00  0.00000000E+00
  0.00000000E+00  0.00000000E+00  0.00000000E+00
  0.00000000E+00  0.00000000E+00  0.00000000E+00
  0.00000000E+00  0.00000000E+00  0.00000000E+00
  0.00000000E+00  0.00000000E+00  0.00000000E+00
  0.00000000E+00  0.00000000E+00  0.00000000E+00
  0.00000000E+00  0.00000000E+00  0.00000000E+00
  0.00000000E+00  0.00000000E+00  0.00000000E+00
  0.00000000E+00  0.00000000E+00  0.00000000E+00
  0.00000000E+00  0.00000000E+00  0.00000000E+00
  0.00000000E+00  0.00000000E+00  0.00000000E+00
  0.00000000E+00  0.00000000E+00  0.00000000E+00
  0.00000000E+00  0.00000000E+00  0.00000000E+00
  0.00000000E+00  0.00000000E+00  0.00000000E+00
  0.00000000E+00  0.00000000E+00  0.00000000E+00
  0.00000000E+00  0.00000000E+00  0.00000000E+00
  0.00000000E+00  0.00000000E+00  0.00000000E+00
  0.00000000E+00  0.00000000E+00  0.00000000E+00
  0.00000000E+00  0.00000000E+00  0.00000000E+00
  0.00000000E+00  0.00000000E+00  0.00000000E+00
  0.00000000E+00  0.00000000E+00  0.00000000E+00
