Title                                   
   1.00000000000000     
     9.8694509999999998    0.0000000000000000    0.0000000000000000
     0.0000000000000000    8.5490480000000009    0.0000000000000000
     0.0000000000000000    0.0000000000000000   20.0000000000000000
    26     5     1
Selective dynamics
Direct
  0.0564099066053248  0.0921676384133640  0.0834772841922535   T   T   T
  0.9307298474086606  0.1750263967246213  0.0838293967067415   T   T   T
  0.0576221063164664  0.9248712736730694  0.0847325161096051   T   T   T
  0.9298887931868565  0.3422189155831873  0.0858059535158955   T   T   T
  0.0572070114237519  0.5908124191422403  0.0837360814514854   T   T   T
  0.9328665310504733  0.6736713646952474  0.0885812221823048   T   T   T
  0.0568869114187253  0.4236533228131586  0.0842071104898953   T   T   T
  0.9331292828785052  0.8411617622227024  0.0877199902935569   T   T   T
  0.3059417085628107  0.0883360217210229  0.0884428370925953   T   T   T
  0.1825712259954639  0.1740251017104130  0.0851315433936912   T   T   T
  0.1833658011034026  0.3408345263476607  0.0858582296004531   T   T   T
  0.3039627489880012  0.5911379152959980  0.0979636087647423   T   T   T
  0.1820907643031754  0.6743157525973360  0.0869012914853874   T   T   T
  0.3108954703279450  0.4232891409220365  0.0948551881388040   T   T   T
  0.1815419220436968  0.8416826631458878  0.0870448960222332   T   T   T
  0.5558086280337771  0.0845332261199349  0.0939191279605068   T   T   T
  0.5545376121337564  0.9179858121219242  0.0992786212485590   T   T   T
  0.4309690315301097  0.3299599952884548  0.1016293818921906   T   T   T
  0.4259699601697868  0.8404759526051696  0.1016879583875431   T   T   T
  0.8062677543981297  0.0897271110963259  0.0852224027877449   T   T   T
  0.6796411924223995  0.1697430020100352  0.0903664825123924   T   T   T
  0.8076667937146085  0.9242953469575874  0.0894976390666360   T   T   T
  0.6806222908531244  0.3332398182787709  0.0994352253283073   T   T   T
  0.8102008014151312  0.5930865913294329  0.0995281209841245   T   T   T
  0.8021417097278963  0.4250396508304413  0.0949165746570615   T   T   T
  0.6851847508147012  0.8416121439400347  0.1011153278955053   T   T   T
  0.4125470449224742  0.6856621727136230  0.1204059814295327   T   T   T
  0.5547747469625756  0.3945704126811881  0.1218380431559169   T   T   T
  0.6974973394053470  0.6835610739153613  0.1193814990267432   T   T   T
  0.3059188757062964  0.9255052306428112  0.0904569382633185   T   T   T
  0.4291066822147737  0.1667850709825403  0.0940110539113931   T   T   T
  0.5556737539618605  0.5872591734784205  0.1746974720528957   T   T   T
 
  0.00000000E+00  0.00000000E+00  0.00000000E+00
  0.00000000E+00  0.00000000E+00  0.00000000E+00
  0.00000000E+00  0.00000000E+00  0.00000000E+00
  0.00000000E+00  0.00000000E+00  0.00000000E+00
  0.00000000E+00  0.00000000E+00  0.00000000E+00
  0.00000000E+00  0.00000000E+00  0.00000000E+00
  0.00000000E+00  0.00000000E+00  0.00000000E+00
  0.00000000E+00  0.00000000E+00  0.00000000E+00
  0.00000000E+00  0.00000000E+00  0.00000000E+00
  0.00000000E+00  0.00000000E+00  0.00000000E+00
  0.00000000E+00  0.00000000E+00  0.00000000E+00
  0.00000000E+00  0.00000000E+00  0.00000000E+00
  0.00000000E+00  0.00000000E+00  0.00000000E+00
  0.00000000E+00  0.00000000E+00  0.00000000E+00
  0.00000000E+00  0.00000000E+00  0.00000000E+00
  0.00000000E+00  0.00000000E+00  0.00000000E+00
  0.00000000E+00  0.00000000E+00  0.00000000E+00
  0.00000000E+00  0.00000000E+00  0.00000000E+00
  0.00000000E+00  0.00000000E+00  0.00000000E+00
  0.00000000E+00  0.00000000E+00  0.00000000E+00
  0.00000000E+00  0.00000000E+00  0.00000000E+00
  0.00000000E+00  0.00000000E+00  0.00000000E+00
  0.00000000E+00  0.00000000E+00  0.00000000E+00
  0.00000000E+00  0.00000000E+00  0.00000000E+00
  0.00000000E+00  0.00000000E+00  0.00000000E+00
  0.00000000E+00  0.00000000E+00  0.00000000E+00
  0.00000000E+00  0.00000000E+00  0.00000000E+00
  0.00000000E+00  0.00000000E+00  0.00000000E+00
  0.00000000E+00  0.00000000E+00  0.00000000E+00
  0.00000000E+00  0.00000000E+00  0.00000000E+00
  0.00000000E+00  0.00000000E+00  0.00000000E+00
  0.00000000E+00  0.00000000E+00  0.00000000E+00
