Title                                   
   1.00000000000000     
     9.8694509999999998    0.0000000000000000    0.0000000000000000
     0.0000000000000000    8.5490480000000009    0.0000000000000000
     0.0000000000000000    0.0000000000000000   20.0000000000000000
    27     4     1
Selective dynamics
Direct
  0.0561451413162832  0.0920518745453585  0.0832109419975022   T   T   T
  0.9304096472894764  0.1749379781084921  0.0859045958151893   T   T   T
  0.0572275904739241  0.9241612361530757  0.0832130489293519   T   T   T
  0.9286842783394177  0.3421288486870561  0.0899690534991223   T   T   T
  0.0556590279966332  0.5897273003868899  0.0865818984394481   T   T   T
  0.9320955468112013  0.6737457309124915  0.0888465094987443   T   T   T
  0.0563493732921815  0.4235741157782486  0.0889708189461639   T   T   T
  0.9320575093104331  0.8414988860342171  0.0859669987029673   T   T   T
  0.3055443016679056  0.0884692189663273  0.0846998355373486   T   T   T
  0.1822392290157020  0.1746423601726926  0.0849185768534199   T   T   T
  0.3076072307087954  0.9229268359748729  0.0869364719404712   T   T   T
  0.1822420088147045  0.3402460720462108  0.0898429005025748   T   T   T
  0.3045057703992340  0.5894725516769498  0.0995443576710097   T   T   T
  0.1817115249273394  0.6712355595299516  0.0879797913214654   T   T   T
  0.1823454350766273  0.8388807904129134  0.0855602917678123   T   T   T
  0.5560095008056235  0.0848213237463751  0.0949231797570551   T   T   T
  0.4308097670349260  0.1688865983986306  0.0912085436906342   T   T   T
  0.4313029715121278  0.3331566177711072  0.0995166241671970   T   T   T
  0.4293838459146014  0.8387829840373328  0.0989293722295919   T   T   T
  0.8067983858448989  0.0902575541319538  0.0865302715479681   T   T   T
  0.6804307700101395  0.1696842325119653  0.0934013192807663   T   T   T
  0.8069245704695124  0.9248236646134064  0.0871971150160323   T   T   T
  0.6778448652647829  0.3331216530011796  0.1018847411082647   T   T   T
  0.8081420635669541  0.5945567221369492  0.1001215965855840   T   T   T
  0.8013233115526870  0.4260372877149818  0.0981406375336883   T   T   T
  0.6838572400058139  0.8414506259840737  0.0976495927756446   T   T   T
  0.4202924980867909  0.6795572206788401  0.1200458607092662   T   T   T
  0.5518605277250554  0.4021005853622622  0.1187978317035143   T   T   T
  0.6938411132874983  0.6868558391081642  0.1167592389556335   T   T   T
  0.5572357497667296  0.9197440919548969  0.0979437053503500   T   T   T
  0.3077997950119322  0.4222015047436010  0.0971382197182661   T   T   T
  0.5609584087000752  0.5865081347185350  0.1733410584479683   T   T   T
 
  0.00000000E+00  0.00000000E+00  0.00000000E+00
  0.00000000E+00  0.00000000E+00  0.00000000E+00
  0.00000000E+00  0.00000000E+00  0.00000000E+00
  0.00000000E+00  0.00000000E+00  0.00000000E+00
  0.00000000E+00  0.00000000E+00  0.00000000E+00
  0.00000000E+00  0.00000000E+00  0.00000000E+00
  0.00000000E+00  0.00000000E+00  0.00000000E+00
  0.00000000E+00  0.00000000E+00  0.00000000E+00
  0.00000000E+00  0.00000000E+00  0.00000000E+00
  0.00000000E+00  0.00000000E+00  0.00000000E+00
  0.00000000E+00  0.00000000E+00  0.00000000E+00
  0.00000000E+00  0.00000000E+00  0.00000000E+00
  0.00000000E+00  0.00000000E+00  0.00000000E+00
  0.00000000E+00  0.00000000E+00  0.00000000E+00
  0.00000000E+00  0.00000000E+00  0.00000000E+00
  0.00000000E+00  0.00000000E+00  0.00000000E+00
  0.00000000E+00  0.00000000E+00  0.00000000E+00
  0.00000000E+00  0.00000000E+00  0.00000000E+00
  0.00000000E+00  0.00000000E+00  0.00000000E+00
  0.00000000E+00  0.00000000E+00  0.00000000E+00
  0.00000000E+00  0.00000000E+00  0.00000000E+00
  0.00000000E+00  0.00000000E+00  0.00000000E+00
  0.00000000E+00  0.00000000E+00  0.00000000E+00
  0.00000000E+00  0.00000000E+00  0.00000000E+00
  0.00000000E+00  0.00000000E+00  0.00000000E+00
  0.00000000E+00  0.00000000E+00  0.00000000E+00
  0.00000000E+00  0.00000000E+00  0.00000000E+00
  0.00000000E+00  0.00000000E+00  0.00000000E+00
  0.00000000E+00  0.00000000E+00  0.00000000E+00
  0.00000000E+00  0.00000000E+00  0.00000000E+00
  0.00000000E+00  0.00000000E+00  0.00000000E+00
  0.00000000E+00  0.00000000E+00  0.00000000E+00
