Title                                   
   1.00000000000000     
     4.9440799999999996    0.0000000000000000    0.0000000000000000
     0.0000000000000000    8.5647549999999999    0.0000000000000000
     0.0000000000000000    0.0000000000000000   20.0000000000000000
    14     1     1
Selective dynamics
Direct
 -0.0007747359571254  0.2889354237913542  0.0919796283825233   T   T   T
  0.2500000000000000  0.0427882475278331  0.0871620214569563   T   T   T
 -0.0008540466549515  0.7959761406666078  0.1008721345853390   T   T   T
  0.0002073206303070  0.9604011158695472  0.0870746142419794   T   T   T
  0.7500000000000000  0.2057025839856084  0.0826925876055623   T   T   T
  0.5007747359571256  0.2889354237913542  0.0919796283825233   T   T   T
  0.7500000000000000  0.0414139293651099  0.0808700102094421   T   T   T
  0.7500000000000000  0.7095732269968540  0.1025732613717338   T   T   T
  0.5008540466549514  0.7959761406666078  0.1008721345853390   T   T   T
  0.7500000000000000  0.5412519034992616  0.1050128456467488   T   T   T
  0.4997926793696931  0.9604011158695472  0.0870746142419794   T   T   T
  0.5133886677694087  0.4471877268278804  0.1081591240202170   T   T   T
 -0.0133886677694089  0.4471877268278804  0.1081591240202170   T   T   T
  0.2500000000000000  0.7296116489018877  0.1180187183846448   T   T   T
  0.2500000000000000  0.2064603406773304  0.0889452515580153   T   T   T
  0.2500000000000000  0.5381973047353353  0.1710663013067888   T   T   T
 
  0.00000000E+00  0.00000000E+00  0.00000000E+00
  0.00000000E+00  0.00000000E+00  0.00000000E+00
  0.00000000E+00  0.00000000E+00  0.00000000E+00
  0.00000000E+00  0.00000000E+00  0.00000000E+00
  0.00000000E+00  0.00000000E+00  0.00000000E+00
  0.00000000E+00  0.00000000E+00  0.00000000E+00
  0.00000000E+00  0.00000000E+00  0.00000000E+00
  0.00000000E+00  0.00000000E+00  0.00000000E+00
  0.00000000E+00  0.00000000E+00  0.00000000E+00
  0.00000000E+00  0.00000000E+00  0.00000000E+00
  0.00000000E+00  0.00000000E+00  0.00000000E+00
  0.00000000E+00  0.00000000E+00  0.00000000E+00
  0.00000000E+00  0.00000000E+00  0.00000000E+00
  0.00000000E+00  0.00000000E+00  0.00000000E+00
  0.00000000E+00  0.00000000E+00  0.00000000E+00
  0.00000000E+00  0.00000000E+00  0.00000000E+00
