Title                                   
   1.00000000000000     
     9.8694509999999998    0.0000000000000000    0.0000000000000000
     0.0000000000000000    8.5490480000000009    0.0000000000000000
     0.0000000000000000    0.0000000000000000   20.0000000000000000
    24     6     1
Selective dynamics
Direct
  0.0558097130577839  0.0897693053655606  0.0905243809304689   T   T   T
  0.9314830228175424  0.1718318934271763  0.0914519284014560   T   T   T
  0.0571449886307690  0.9229990900408496  0.0906562997138014   T   T   T
  0.9335435658013952  0.3391989189437244  0.0902265205483199   T   T   T
  0.0567979725548511  0.5893974994038782  0.0873556704232457   T   T   T
  0.9337071254301916  0.6728829533606103  0.0901899475986533   T   T   T
  0.0568060736414204  0.4230415243856922  0.0874038986016504   T   T   T
  0.9322303222754068  0.8400843486681026  0.0914861225717829   T   T   T
  0.3070615562403845  0.0880651104284717  0.0952252720406261   T   T   T
  0.1813531813988881  0.1709617705659223  0.0913629010057822   T   T   T
  0.1796527538477174  0.3381336058375801  0.0901948556636776   T   T   T
  0.3004767612590066  0.5901462912110045  0.0970691264240688   T   T   T
  0.1800229446641254  0.6740926347760229  0.0902261079588890   T   T   T
  0.3004038793323567  0.4214820470698700  0.0966470067071027   T   T   T
  0.1812202160021126  0.8407609239043321  0.0916654552925835   T   T   T
  0.4289128054351924  0.1764759634876800  0.1009353988065564   T   T   T
  0.5546754482419620  0.9195763972219291  0.1028757568093503   T   T   T
  0.4283934604987925  0.8370335871828332  0.1020772918616458   T   T   T
  0.8049261850225988  0.0894828209225747  0.0948901288942393   T   T   T
  0.6830038452309025  0.1779360249346336  0.1004318627641284   T   T   T
  0.8061078744634631  0.9220455393523462  0.0951252487343090   T   T   T
  0.8122574889301768  0.5904751752336884  0.0963977417327285   T   T   T
  0.8123546469698476  0.4212480568109773  0.0962225886310521   T   T   T
  0.6830619075672959  0.8353157747300289  0.1013995580952734   T   T   T
  0.5565148663514644  0.0958304814774878  0.1024191468490678   T   T   T
  0.4212148829893416  0.3380394229393308  0.1058653589610377   T   T   T
  0.4200135497392177  0.6739592390691631  0.1077110009363938   T   T   T
  0.6905052872125299  0.3392386988697037  0.1050668431489406   T   T   T
  0.6915040558649035  0.6721545171930594  0.1058591844959373   T   T   T
  0.3058564164946690  0.9226376613046886  0.0954177644162505   T   T   T
  0.5561192020336908  0.5065777218810759  0.1165846309810381   T   T   T
 
  0.00000000E+00  0.00000000E+00  0.00000000E+00
  0.00000000E+00  0.00000000E+00  0.00000000E+00
  0.00000000E+00  0.00000000E+00  0.00000000E+00
  0.00000000E+00  0.00000000E+00  0.00000000E+00
  0.00000000E+00  0.00000000E+00  0.00000000E+00
  0.00000000E+00  0.00000000E+00  0.00000000E+00
  0.00000000E+00  0.00000000E+00  0.00000000E+00
  0.00000000E+00  0.00000000E+00  0.00000000E+00
  0.00000000E+00  0.00000000E+00  0.00000000E+00
  0.00000000E+00  0.00000000E+00  0.00000000E+00
  0.00000000E+00  0.00000000E+00  0.00000000E+00
  0.00000000E+00  0.00000000E+00  0.00000000E+00
  0.00000000E+00  0.00000000E+00  0.00000000E+00
  0.00000000E+00  0.00000000E+00  0.00000000E+00
  0.00000000E+00  0.00000000E+00  0.00000000E+00
  0.00000000E+00  0.00000000E+00  0.00000000E+00
  0.00000000E+00  0.00000000E+00  0.00000000E+00
  0.00000000E+00  0.00000000E+00  0.00000000E+00
  0.00000000E+00  0.00000000E+00  0.00000000E+00
  0.00000000E+00  0.00000000E+00  0.00000000E+00
  0.00000000E+00  0.00000000E+00  0.00000000E+00
  0.00000000E+00  0.00000000E+00  0.00000000E+00
  0.00000000E+00  0.00000000E+00  0.00000000E+00
  0.00000000E+00  0.00000000E+00  0.00000000E+00
  0.00000000E+00  0.00000000E+00  0.00000000E+00
  0.00000000E+00  0.00000000E+00  0.00000000E+00
  0.00000000E+00  0.00000000E+00  0.00000000E+00
  0.00000000E+00  0.00000000E+00  0.00000000E+00
  0.00000000E+00  0.00000000E+00  0.00000000E+00
  0.00000000E+00  0.00000000E+00  0.00000000E+00
  0.00000000E+00  0.00000000E+00  0.00000000E+00
