Title                                   
   1.00000000000000     
     9.8694509999999998    0.0000000000000000    0.0000000000000000
     0.0000000000000000    8.5490480000000009    0.0000000000000000
     0.0000000000000000    0.0000000000000000   20.0000000000000000
    27     4     1
Selective dynamics
Direct
  0.0563297281378387  0.0912993153050192  0.0893510475084117   T   T   T
  0.9304611986966745  0.1747619760296170  0.0883693406749716   T   T   T
  0.0577526955035359  0.9236130884258374  0.0901940730655733   T   T   T
  0.9280095296617166  0.3425045231766680  0.0879544585812904   T   T   T
  0.0567038360945376  0.5897057957715484  0.0889553102560864   T   T   T
  0.9319918298406498  0.6735437508296582  0.0895038934488912   T   T   T
  0.0567250916437435  0.4230471026014005  0.0898280404511849   T   T   T
  0.9324485043022559  0.8408314692864235  0.0902836254155218   T   T   T
  0.3060411029156391  0.0864050277002169  0.0934568134378711   T   T   T
  0.1827506110474303  0.1736360741177901  0.0910154666177536   T   T   T
  0.3082383463201694  0.9207677120495169  0.0952011140478524   T   T   T
  0.1831108171109541  0.3397264132208359  0.0922450591253886   T   T   T
  0.3085557518331793  0.5877374117101162  0.1030045041536765   T   T   T
  0.1835629839584751  0.6708365539707772  0.0925770768379751   T   T   T
  0.1830026058287559  0.8375332141294527  0.0928764936660271   T   T   T
  0.5564998314208214  0.0838028767722487  0.0951545226962761   T   T   T
  0.4312837781273925  0.1669409333337427  0.0943736170303968   T   T   T
  0.4355171028952968  0.3337898716782617  0.0902499748563818   T   T   T
  0.4316190004113175  0.8362590865625339  0.1056162643293990   T   T   T
  0.8065512436482266  0.0903160480039799  0.0901078217953148   T   T   T
  0.6793957426038750  0.1698711116968302  0.0903657737837665   T   T   T
  0.8073164272729180  0.9250345092828159  0.0917296367490667   T   T   T
  0.6727405952780874  0.3367249000867401  0.0851075210966908   T   T   T
  0.8034365697725472  0.5949745675007386  0.0914066603776095   T   T   T
  0.7996139426911414  0.4261698538525759  0.0870528896605316   T   T   T
  0.6847322914643613  0.8380624860724820  0.0975828194751880   T   T   T
  0.4234667236150006  0.6760432803066290  0.1246565458442259   T   T   T
  0.5502093649640876  0.4121805381260882  0.0821129553531441   T   T   T
  0.6858911537438559  0.6811444682890954  0.1002518144995719   T   T   T
  0.5581034732769878  0.9186841926748009  0.1012384404296606   T   T   T
  0.3093253238641049  0.4211291315565875  0.0965940098408147   T   T   T
  0.5582518020544263  0.6031687158789737  0.1872574148935016   T   T   T
 
  0.00000000E+00  0.00000000E+00  0.00000000E+00
  0.00000000E+00  0.00000000E+00  0.00000000E+00
  0.00000000E+00  0.00000000E+00  0.00000000E+00
  0.00000000E+00  0.00000000E+00  0.00000000E+00
  0.00000000E+00  0.00000000E+00  0.00000000E+00
  0.00000000E+00  0.00000000E+00  0.00000000E+00
  0.00000000E+00  0.00000000E+00  0.00000000E+00
  0.00000000E+00  0.00000000E+00  0.00000000E+00
  0.00000000E+00  0.00000000E+00  0.00000000E+00
  0.00000000E+00  0.00000000E+00  0.00000000E+00
  0.00000000E+00  0.00000000E+00  0.00000000E+00
  0.00000000E+00  0.00000000E+00  0.00000000E+00
  0.00000000E+00  0.00000000E+00  0.00000000E+00
  0.00000000E+00  0.00000000E+00  0.00000000E+00
  0.00000000E+00  0.00000000E+00  0.00000000E+00
  0.00000000E+00  0.00000000E+00  0.00000000E+00
  0.00000000E+00  0.00000000E+00  0.00000000E+00
  0.00000000E+00  0.00000000E+00  0.00000000E+00
  0.00000000E+00  0.00000000E+00  0.00000000E+00
  0.00000000E+00  0.00000000E+00  0.00000000E+00
  0.00000000E+00  0.00000000E+00  0.00000000E+00
  0.00000000E+00  0.00000000E+00  0.00000000E+00
  0.00000000E+00  0.00000000E+00  0.00000000E+00
  0.00000000E+00  0.00000000E+00  0.00000000E+00
  0.00000000E+00  0.00000000E+00  0.00000000E+00
  0.00000000E+00  0.00000000E+00  0.00000000E+00
  0.00000000E+00  0.00000000E+00  0.00000000E+00
  0.00000000E+00  0.00000000E+00  0.00000000E+00
  0.00000000E+00  0.00000000E+00  0.00000000E+00
  0.00000000E+00  0.00000000E+00  0.00000000E+00
  0.00000000E+00  0.00000000E+00  0.00000000E+00
  0.00000000E+00  0.00000000E+00  0.00000000E+00
