Title                                   
   1.00000000000000     
     9.8694509999999998    0.0000000000000000    0.0000000000000000
     0.0000000000000000    8.5490480000000009    0.0000000000000000
     0.0000000000000000    0.0000000000000000   20.0000000000000000
    27     3     1
Selective dynamics
Direct
  0.0562570714139851  0.0902383328946327  0.0876252753887318   T   T   T
  0.9307116410514078  0.1735218742608574  0.0885565337018225   T   T   T
  0.0567315665254432  0.9233539331604154  0.0875671654403047   T   T   T
  0.9325412473564153  0.3403311252402869  0.0886906255650878   T   T   T
  0.0568582904473434  0.5894642049085482  0.0871119075117867   T   T   T
  0.9334654964562673  0.6746973110330121  0.0891132898675003   T   T   T
  0.0566425534194752  0.4230294024346034  0.0870852563108643   T   T   T
  0.9321262570480555  0.8409934633717868  0.0890991119843669   T   T   T
  0.3066622492954444  0.0890405896583969  0.0921730196777821   T   T   T
  0.1806903973936490  0.1721306273656774  0.0892334303072325   T   T   T
  0.3069318057441743  0.9214447239169932  0.0913305855633599   T   T   T
  0.1801409409697159  0.3392060956917025  0.0891203291942549   T   T   T
  0.3042378585953359  0.5894459310466128  0.0928095929620826   T   T   T
  0.1803369477250497  0.6725297936448086  0.0884430508513467   T   T   T
  0.3038610710132369  0.4209535059097035  0.0943226487334276   T   T   T
  0.1810359397127069  0.8395188318288669  0.0884217067609526   T   T   T
  0.5547727728668149  0.0899069959969034  0.0989233531395438   T   T   T
  0.4296107857754700  0.1747501776374720  0.0981343721682455   T   T   T
  0.5555592292267715  0.9181334908703244  0.0984423793207932   T   T   T
  0.4298699342228514  0.8338723032504788  0.0961940834685748   T   T   T
  0.8052200288024360  0.0902887135538259  0.0915852783285352   T   T   T
  0.6808572883844809  0.1756600517796857  0.0972078160300633   T   T   T
  0.8062785551390310  0.9229737303035088  0.0920661582735016   T   T   T
  0.6852299018655897  0.3418423917062060  0.1007955601960108   T   T   T
  0.8103825511441510  0.5936126208768567  0.0946202797518587   T   T   T
  0.8085221726390167  0.4241728104515985  0.0941590730636906   T   T   T
  0.6833897692139450  0.8359371805117627  0.0976503213685211   T   T   T
  0.4244884078427958  0.3389586862811639  0.1033502779819430   T   T   T
  0.6896418328591819  0.6738479301341778  0.1019281862394407   T   T   T
  0.4255306998518279  0.6707894686529010  0.0988580279439566   T   T   T
  0.5545497359979394  0.5062287016262439  0.1463463029044587   T   T   T
 
  0.00000000E+00  0.00000000E+00  0.00000000E+00
  0.00000000E+00  0.00000000E+00  0.00000000E+00
  0.00000000E+00  0.00000000E+00  0.00000000E+00
  0.00000000E+00  0.00000000E+00  0.00000000E+00
  0.00000000E+00  0.00000000E+00  0.00000000E+00
  0.00000000E+00  0.00000000E+00  0.00000000E+00
  0.00000000E+00  0.00000000E+00  0.00000000E+00
  0.00000000E+00  0.00000000E+00  0.00000000E+00
  0.00000000E+00  0.00000000E+00  0.00000000E+00
  0.00000000E+00  0.00000000E+00  0.00000000E+00
  0.00000000E+00  0.00000000E+00  0.00000000E+00
  0.00000000E+00  0.00000000E+00  0.00000000E+00
  0.00000000E+00  0.00000000E+00  0.00000000E+00
  0.00000000E+00  0.00000000E+00  0.00000000E+00
  0.00000000E+00  0.00000000E+00  0.00000000E+00
  0.00000000E+00  0.00000000E+00  0.00000000E+00
  0.00000000E+00  0.00000000E+00  0.00000000E+00
  0.00000000E+00  0.00000000E+00  0.00000000E+00
  0.00000000E+00  0.00000000E+00  0.00000000E+00
  0.00000000E+00  0.00000000E+00  0.00000000E+00
  0.00000000E+00  0.00000000E+00  0.00000000E+00
  0.00000000E+00  0.00000000E+00  0.00000000E+00
  0.00000000E+00  0.00000000E+00  0.00000000E+00
  0.00000000E+00  0.00000000E+00  0.00000000E+00
  0.00000000E+00  0.00000000E+00  0.00000000E+00
  0.00000000E+00  0.00000000E+00  0.00000000E+00
  0.00000000E+00  0.00000000E+00  0.00000000E+00
  0.00000000E+00  0.00000000E+00  0.00000000E+00
  0.00000000E+00  0.00000000E+00  0.00000000E+00
  0.00000000E+00  0.00000000E+00  0.00000000E+00
  0.00000000E+00  0.00000000E+00  0.00000000E+00
