Title                                   
   1.00000000000000     
     9.8694509999999998    0.0000000000000000    0.0000000000000000
     0.0000000000000000    8.5490480000000009    0.0000000000000000
     0.0000000000000000    0.0000000000000000   20.0000000000000000
    23     7     1
Selective dynamics
Direct
  0.0559148831569754  0.0897951029722371  0.0919928382375936   T   T   T
  0.9319724816229420  0.1720650889504685  0.0926731980984837   T   T   T
  0.0572440685274887  0.9209099183745847  0.0922388627681870   T   T   T
  0.9333291581373222  0.3390671898977414  0.0923414526683135   T   T   T
  0.0555756173843870  0.5905205957754849  0.0916430015296322   T   T   T
  0.0558030233015453  0.4240707741965000  0.0910503474007587   T   T   T
  0.9323865817931832  0.8385725444919465  0.0930786298637189   T   T   T
  0.3067417331274184  0.0883011748303031  0.0951174361855722   T   T   T
  0.1806686907330278  0.1713419164167687  0.0929288563459037   T   T   T
  0.1795165318653576  0.3393602365857827  0.0926450463705636   T   T   T
  0.3014190163539268  0.5905428551687865  0.0971715892141817   T   T   T
  0.1788976171660054  0.6736655720738214  0.0932775150782997   T   T   T
  0.3022361715057384  0.4207747000689644  0.0970079505837774   T   T   T
  0.1810948064140991  0.8411450443991934  0.0933326088601084   T   T   T
  0.4284366100758499  0.1736390135680212  0.0993113744213715   T   T   T
  0.5549628797276268  0.9201482814281501  0.1006611526956749   T   T   T
  0.4280261754136346  0.8387972098918782  0.1001394384076030   T   T   T
  0.8061500392735022  0.0883106200389476  0.0947995309776260   T   T   T
  0.6838692171813007  0.1756647115900243  0.0987957269560097   T   T   T
  0.8072012434841868  0.9213816341028918  0.0950654663858416   T   T   T
  0.8111147865102081  0.5913021180080683  0.0966985444260332   T   T   T
  0.8113732494390755  0.4214483628625741  0.0964220113930077   T   T   T
  0.6829804530216624  0.8379516778406102  0.0996287706551078   T   T   T
  0.9334919929736457  0.6722586695974935  0.0928388837787616   T   T   T
  0.5570071215834549  0.0952350621548144  0.1003928553083904   T   T   T
  0.4217333965551967  0.3346195356121902  0.1030841897531485   T   T   T
  0.4201884158993195  0.6786687374205550  0.1041913956555912   T   T   T
  0.6906106875558402  0.3363221947103851  0.1023662024902684   T   T   T
  0.6933069758949616  0.6755212044391322  0.1031873000225227   T   T   T
  0.3044267263668524  0.9227880608146489  0.0948013034176303   T   T   T
  0.5554556479542647  0.5066851917170301  0.1120815200503748   T   T   T
 
  0.00000000E+00  0.00000000E+00  0.00000000E+00
  0.00000000E+00  0.00000000E+00  0.00000000E+00
  0.00000000E+00  0.00000000E+00  0.00000000E+00
  0.00000000E+00  0.00000000E+00  0.00000000E+00
  0.00000000E+00  0.00000000E+00  0.00000000E+00
  0.00000000E+00  0.00000000E+00  0.00000000E+00
  0.00000000E+00  0.00000000E+00  0.00000000E+00
  0.00000000E+00  0.00000000E+00  0.00000000E+00
  0.00000000E+00  0.00000000E+00  0.00000000E+00
  0.00000000E+00  0.00000000E+00  0.00000000E+00
  0.00000000E+00  0.00000000E+00  0.00000000E+00
  0.00000000E+00  0.00000000E+00  0.00000000E+00
  0.00000000E+00  0.00000000E+00  0.00000000E+00
  0.00000000E+00  0.00000000E+00  0.00000000E+00
  0.00000000E+00  0.00000000E+00  0.00000000E+00
  0.00000000E+00  0.00000000E+00  0.00000000E+00
  0.00000000E+00  0.00000000E+00  0.00000000E+00
  0.00000000E+00  0.00000000E+00  0.00000000E+00
  0.00000000E+00  0.00000000E+00  0.00000000E+00
  0.00000000E+00  0.00000000E+00  0.00000000E+00
  0.00000000E+00  0.00000000E+00  0.00000000E+00
  0.00000000E+00  0.00000000E+00  0.00000000E+00
  0.00000000E+00  0.00000000E+00  0.00000000E+00
  0.00000000E+00  0.00000000E+00  0.00000000E+00
  0.00000000E+00  0.00000000E+00  0.00000000E+00
  0.00000000E+00  0.00000000E+00  0.00000000E+00
  0.00000000E+00  0.00000000E+00  0.00000000E+00
  0.00000000E+00  0.00000000E+00  0.00000000E+00
  0.00000000E+00  0.00000000E+00  0.00000000E+00
  0.00000000E+00  0.00000000E+00  0.00000000E+00
  0.00000000E+00  0.00000000E+00  0.00000000E+00
