Title                                   
   1.00000000000000     
     9.8694509999999998    0.0000000000000000    0.0000000000000000
     0.0000000000000000    8.5490480000000009    0.0000000000000000
     0.0000000000000000    0.0000000000000000   20.0000000000000000
    26     5     1
Selective dynamics
Direct
  0.0563095817620921  0.0926508083457191  0.0896598212549310   T   T   T
  0.9305436762237336  0.1751465865945956  0.0910875472958438   T   T   T
  0.0567343737829050  0.9246804416428337  0.0892246958909237   T   T   T
  0.9290358007348576  0.3423854789690104  0.0933317130823139   T   T   T
  0.0558670050078748  0.5901525592008509  0.0904909871512753   T   T   T
  0.9319281575874495  0.6737179133077996  0.0914393095958523   T   T   T
  0.0571950819226957  0.4237083852312933  0.0920347344648547   T   T   T
  0.9318801950090813  0.8410880522461871  0.0898939446356332   T   T   T
  0.3052843873517578  0.0885789262798653  0.0894429382246312   T   T   T
  0.1825816863791654  0.1756004654357737  0.0901223854359395   T   T   T
  0.3064104947431838  0.9230511227110793  0.0905596425388624   T   T   T
  0.1830676294383827  0.3419007052742087  0.0918961889325072   T   T   T
  0.3076391860896444  0.5931587413058215  0.0946427879958796   T   T   T
  0.1811101529869177  0.6720790352861361  0.0907041741789588   T   T   T
  0.1814185580757620  0.8391905903055839  0.0901048532602378   T   T   T
  0.5555996520389078  0.0835640728406944  0.0936845533145292   T   T   T
  0.4311509029892849  0.1685184030581354  0.0918000739293407   T   T   T
  0.4343566456001319  0.3346515756229295  0.0959558549744555   T   T   T
  0.4280231315315458  0.8349011687756731  0.0948342584519052   T   T   T
  0.8067975729505711  0.0902669212691414  0.0905796566889861   T   T   T
  0.6797905198839758  0.1685872156850641  0.0940620591839769   T   T   T
  0.8067128614085376  0.9246252848614459  0.0898398054859386   T   T   T
  0.6760901528387944  0.3348858091272696  0.0991386457826987   T   T   T
  0.8052699577852679  0.5948778461678617  0.0973208791909937   T   T   T
  0.8012549353445555  0.4254331702831712  0.0972219331545104   T   T   T
  0.6843433091394541  0.8376959407539825  0.0944032068882334   T   T   T
  0.4246000699653493  0.6764363097776961  0.1010142072672051   T   T   T
  0.5527239844852656  0.4098354383448937  0.1064751186961623   T   T   T
  0.6877710775790880  0.6814338378048445  0.1037008162895275   T   T   T
  0.5561810024492652  0.9157840147728135  0.0941080807359724   T   T   T
  0.3110449523322212  0.4247775455406146  0.0938850940205223   T   T   T
  0.5609223045822879  0.5868816331770131  0.1830150320064137   T   T   T
 
  0.00000000E+00  0.00000000E+00  0.00000000E+00
  0.00000000E+00  0.00000000E+00  0.00000000E+00
  0.00000000E+00  0.00000000E+00  0.00000000E+00
  0.00000000E+00  0.00000000E+00  0.00000000E+00
  0.00000000E+00  0.00000000E+00  0.00000000E+00
  0.00000000E+00  0.00000000E+00  0.00000000E+00
  0.00000000E+00  0.00000000E+00  0.00000000E+00
  0.00000000E+00  0.00000000E+00  0.00000000E+00
  0.00000000E+00  0.00000000E+00  0.00000000E+00
  0.00000000E+00  0.00000000E+00  0.00000000E+00
  0.00000000E+00  0.00000000E+00  0.00000000E+00
  0.00000000E+00  0.00000000E+00  0.00000000E+00
  0.00000000E+00  0.00000000E+00  0.00000000E+00
  0.00000000E+00  0.00000000E+00  0.00000000E+00
  0.00000000E+00  0.00000000E+00  0.00000000E+00
  0.00000000E+00  0.00000000E+00  0.00000000E+00
  0.00000000E+00  0.00000000E+00  0.00000000E+00
  0.00000000E+00  0.00000000E+00  0.00000000E+00
  0.00000000E+00  0.00000000E+00  0.00000000E+00
  0.00000000E+00  0.00000000E+00  0.00000000E+00
  0.00000000E+00  0.00000000E+00  0.00000000E+00
  0.00000000E+00  0.00000000E+00  0.00000000E+00
  0.00000000E+00  0.00000000E+00  0.00000000E+00
  0.00000000E+00  0.00000000E+00  0.00000000E+00
  0.00000000E+00  0.00000000E+00  0.00000000E+00
  0.00000000E+00  0.00000000E+00  0.00000000E+00
  0.00000000E+00  0.00000000E+00  0.00000000E+00
  0.00000000E+00  0.00000000E+00  0.00000000E+00
  0.00000000E+00  0.00000000E+00  0.00000000E+00
  0.00000000E+00  0.00000000E+00  0.00000000E+00
  0.00000000E+00  0.00000000E+00  0.00000000E+00
  0.00000000E+00  0.00000000E+00  0.00000000E+00
