Title                                   
   1.00000000000000     
     4.9440799999999996    0.0000000000000000    0.0000000000000000
     0.0000000000000000    8.5647549999999999    0.0000000000000000
     0.0000000000000000    0.0000000000000000   20.0000000000000000
    13     1     1
Selective dynamics
Direct
  0.0011846470424223  0.2928637664294133  0.1005222704237771   T   T   T
  0.2500000000000000  0.0434983739924936  0.1005289460255570   T   T   T
  0.0008521476947651  0.9578979110498678  0.1005925307384896   T   T   T
  0.7500000000000000  0.2076671813371417  0.1006255419460276   T   T   T
  0.4988153529575777  0.2928637664294133  0.1005222704237771   T   T   T
  0.7500000000000000  0.0409655896218032  0.1006937259870241   T   T   T
  0.7500000000000000  0.7104693791587283  0.1006083909269568   T   T   T
  0.7500000000000000  0.5368826196226912  0.1006020354326792   T   T   T
  0.4991478523052350  0.9578979110498678  0.1005925307384896   T   T   T
  0.5053864851656533  0.4564776322992748  0.1004855524822344   T   T   T
 -0.0053864851656532  0.4564776322992748  0.1004855524822344   T   T   T
 -0.0070037892332008  0.7922697267919940  0.1005212049317020   T   T   T
  0.5070037892332008  0.7922697267919940  0.1005212049317020   T   T   T
  0.2500000000000000  0.2078730090045553  0.1004502618560479   T   T   T
  0.2500000000000000  0.6253067741214891  0.1002279806733049   T   T   T
 
  0.00000000E+00  0.00000000E+00  0.00000000E+00
  0.00000000E+00  0.00000000E+00  0.00000000E+00
  0.00000000E+00  0.00000000E+00  0.00000000E+00
  0.00000000E+00  0.00000000E+00  0.00000000E+00
  0.00000000E+00  0.00000000E+00  0.00000000E+00
  0.00000000E+00  0.00000000E+00  0.00000000E+00
  0.00000000E+00  0.00000000E+00  0.00000000E+00
  0.00000000E+00  0.00000000E+00  0.00000000E+00
  0.00000000E+00  0.00000000E+00  0.00000000E+00
  0.00000000E+00  0.00000000E+00  0.00000000E+00
  0.00000000E+00  0.00000000E+00  0.00000000E+00
  0.00000000E+00  0.00000000E+00  0.00000000E+00
  0.00000000E+00  0.00000000E+00  0.00000000E+00
  0.00000000E+00  0.00000000E+00  0.00000000E+00
  0.00000000E+00  0.00000000E+00  0.00000000E+00
