Title                                   
   1.00000000000000     
     9.8694509999999998    0.0000000000000000    0.0000000000000000
     0.0000000000000000    8.5490480000000009    0.0000000000000000
     0.0000000000000000    0.0000000000000000   20.0000000000000000
    27     4     1
Selective dynamics
Direct
  0.0558344618974330  0.0921564981127632  0.0844337985520894   T   T   T
  0.9308879370533238  0.1745566740735992  0.0857712429027705   T   T   T
  0.0573347196122019  0.9247622669115287  0.0848627927773690   T   T   T
  0.9300818410860852  0.3414839435011222  0.0881837127680617   T   T   T
  0.0569184123988670  0.5897355842091071  0.0843873853073816   T   T   T
  0.9327714997440041  0.6731763872150207  0.0870109560274079   T   T   T
  0.0567223518024324  0.4228267601660901  0.0860778456618534   T   T   T
  0.9329347232850899  0.8404734949863452  0.0864623130173738   T   T   T
  0.3054876569564699  0.0882844453032451  0.0881589363980682   T   T   T
  0.1818062297674105  0.1732434387622465  0.0860823356938236   T   T   T
  0.1833972487587046  0.3403380072142378  0.0877641040148145   T   T   T
  0.3034000721171685  0.5920889726537096  0.0979411373130195   T   T   T
  0.1811463537240219  0.6737480220691551  0.0874593893129287   T   T   T
  0.3098680337564239  0.4247962327738454  0.0957217121558839   T   T   T
  0.1810098409080020  0.8411387370617879  0.0876257491554260   T   T   T
  0.5565403946582494  0.0844511001581395  0.0945447982616104   T   T   T
  0.4307630892216088  0.1680172599965776  0.0931631788104150   T   T   T
  0.5549708873454496  0.9168386205743873  0.0983545621211181   T   T   T
  0.4320318212371250  0.3327580275084419  0.1002739297998782   T   T   T
  0.4250932970444562  0.8404159129643537  0.1005863156263835   T   T   T
  0.8066474103835949  0.0895781935510478  0.0869071136484864   T   T   T
  0.6809764250042517  0.1691564621570733  0.0923542025075146   T   T   T
  0.8073936700088841  0.9235141767596117  0.0885236532262759   T   T   T
  0.6797563553494291  0.3342045904635526  0.1002672805418325   T   T   T
  0.8095644955875719  0.5927386809021902  0.0974721089998386   T   T   T
  0.8029318172261756  0.4245723446678565  0.0962162379649737   T   T   T
  0.6850666060300320  0.8388786113672531  0.0987288792543525   T   T   T
  0.4132016015922652  0.6849363284792996  0.1182525058916388   T   T   T
  0.5557463739883631  0.4024738784516281  0.1162229203847353   T   T   T
  0.6963945756520191  0.6811743396458948  0.1141478233358149   T   T   T
  0.3052406068195707  0.9235784122732777  0.0902695983838012   T   T   T
  0.5577181899833226  0.5901495950656106  0.1814464801830753   T   T   T
 
  0.00000000E+00  0.00000000E+00  0.00000000E+00
  0.00000000E+00  0.00000000E+00  0.00000000E+00
  0.00000000E+00  0.00000000E+00  0.00000000E+00
  0.00000000E+00  0.00000000E+00  0.00000000E+00
  0.00000000E+00  0.00000000E+00  0.00000000E+00
  0.00000000E+00  0.00000000E+00  0.00000000E+00
  0.00000000E+00  0.00000000E+00  0.00000000E+00
  0.00000000E+00  0.00000000E+00  0.00000000E+00
  0.00000000E+00  0.00000000E+00  0.00000000E+00
  0.00000000E+00  0.00000000E+00  0.00000000E+00
  0.00000000E+00  0.00000000E+00  0.00000000E+00
  0.00000000E+00  0.00000000E+00  0.00000000E+00
  0.00000000E+00  0.00000000E+00  0.00000000E+00
  0.00000000E+00  0.00000000E+00  0.00000000E+00
  0.00000000E+00  0.00000000E+00  0.00000000E+00
  0.00000000E+00  0.00000000E+00  0.00000000E+00
  0.00000000E+00  0.00000000E+00  0.00000000E+00
  0.00000000E+00  0.00000000E+00  0.00000000E+00
  0.00000000E+00  0.00000000E+00  0.00000000E+00
  0.00000000E+00  0.00000000E+00  0.00000000E+00
  0.00000000E+00  0.00000000E+00  0.00000000E+00
  0.00000000E+00  0.00000000E+00  0.00000000E+00
  0.00000000E+00  0.00000000E+00  0.00000000E+00
  0.00000000E+00  0.00000000E+00  0.00000000E+00
  0.00000000E+00  0.00000000E+00  0.00000000E+00
  0.00000000E+00  0.00000000E+00  0.00000000E+00
  0.00000000E+00  0.00000000E+00  0.00000000E+00
  0.00000000E+00  0.00000000E+00  0.00000000E+00
  0.00000000E+00  0.00000000E+00  0.00000000E+00
  0.00000000E+00  0.00000000E+00  0.00000000E+00
  0.00000000E+00  0.00000000E+00  0.00000000E+00
  0.00000000E+00  0.00000000E+00  0.00000000E+00
