Title                                   
   1.00000000000000     
     4.9440799999999996    0.0000000000000000    0.0000000000000000
     0.0000000000000000   17.1295089999999988    0.0000000000000000
     0.0000000000000000    0.0000000000000000   20.0000000000000000
    28     2     1
Selective dynamics
Direct
 -0.0076742777097805  0.1055867256785751  0.2931334884640805   T   T   T
  0.2401407559317458  0.1480614610015560  0.2946198618065304   T   T   T
  0.2358798908136043  0.2319620198539434  0.2993416422880851   T   T   T
 -0.0160642283437441  0.2737949389810198  0.3035016268140893   T   T   T
  0.0159245302076300  0.6009024473834748  0.2997268063694457   T   T   T
  0.2602027965195238  0.7268808433634417  0.2947698444544918   T   T   T
  0.0041091886372601  0.8532038508802169  0.2916217228468334   T   T   T
  0.2524988521507435  0.8954886063905021  0.2915622745904071   T   T   T
  0.2479709791667172  0.9794855915826399  0.2915125238760794   T   T   T
  0.0085969031188484  0.7691252348207207  0.2927784675644040   T   T   T
  0.4918745986305647  0.1058601080416281  0.2925265114216331   T   T   T
  0.7412803344351726  0.1477386141810526  0.2934001857496330   T   T   T
  0.7361250114214583  0.2316874792638301  0.2967989821314174   T   T   T
  0.4963685009444558  0.0217704465042277  0.2914631885093923   T   T   T
  0.7402686553784752  0.3945311604873880  0.3097974822965788   T   T   T
  0.7597314744432149  0.4803629505280119  0.3098260048826564   T   T   T
  0.4844325300701222  0.2738953591751653  0.2989780884506438   T   T   T
  0.5164831287415486  0.6013030120180908  0.3031720119699307   T   T   T
  0.7593394948484163  0.7272254300924894  0.2935989365090086   T   T   T
  0.5038158800619407  0.8533155641486710  0.2917877689248954   T   T   T
  0.7525425239933806  0.8954151994926219  0.2912776841460847   T   T   T
  0.7479084620831040  0.9795392122408314  0.2912319632537763   T   T   T
  0.5081652164596921  0.7693236765097674  0.2932376066803100   T   T   T
  0.7645563552342183  0.6432959539556247  0.2970400902990833   T   T   T
  0.2643196460847550  0.6430062467925496  0.2994712415291781   T   T   T
 -0.0033422940600922  0.0216089109090868  0.2917228822334905   T   T   T
  0.0082880923399825  0.5176562173577964  0.3043621565094795   T   T   T
  0.4926618265651447  0.3570690721795812  0.3027085032584800   T   T   T
  0.5213404737911549  0.5218666816164872  0.3154436463778781   T   T   T
 -0.0211000268666342  0.3531500518974939  0.3169150006892951   T   T   T
  0.2533617249073775  0.4372289326715104  0.3477318051026594   T   T   T
 
  0.00000000E+00  0.00000000E+00  0.00000000E+00
  0.00000000E+00  0.00000000E+00  0.00000000E+00
  0.00000000E+00  0.00000000E+00  0.00000000E+00
  0.00000000E+00  0.00000000E+00  0.00000000E+00
  0.00000000E+00  0.00000000E+00  0.00000000E+00
  0.00000000E+00  0.00000000E+00  0.00000000E+00
  0.00000000E+00  0.00000000E+00  0.00000000E+00
  0.00000000E+00  0.00000000E+00  0.00000000E+00
  0.00000000E+00  0.00000000E+00  0.00000000E+00
  0.00000000E+00  0.00000000E+00  0.00000000E+00
  0.00000000E+00  0.00000000E+00  0.00000000E+00
  0.00000000E+00  0.00000000E+00  0.00000000E+00
  0.00000000E+00  0.00000000E+00  0.00000000E+00
  0.00000000E+00  0.00000000E+00  0.00000000E+00
  0.00000000E+00  0.00000000E+00  0.00000000E+00
  0.00000000E+00  0.00000000E+00  0.00000000E+00
  0.00000000E+00  0.00000000E+00  0.00000000E+00
  0.00000000E+00  0.00000000E+00  0.00000000E+00
  0.00000000E+00  0.00000000E+00  0.00000000E+00
  0.00000000E+00  0.00000000E+00  0.00000000E+00
  0.00000000E+00  0.00000000E+00  0.00000000E+00
  0.00000000E+00  0.00000000E+00  0.00000000E+00
  0.00000000E+00  0.00000000E+00  0.00000000E+00
  0.00000000E+00  0.00000000E+00  0.00000000E+00
  0.00000000E+00  0.00000000E+00  0.00000000E+00
  0.00000000E+00  0.00000000E+00  0.00000000E+00
  0.00000000E+00  0.00000000E+00  0.00000000E+00
  0.00000000E+00  0.00000000E+00  0.00000000E+00
  0.00000000E+00  0.00000000E+00  0.00000000E+00
  0.00000000E+00  0.00000000E+00  0.00000000E+00
  0.00000000E+00  0.00000000E+00  0.00000000E+00
