Title                                   
   1.00000000000000     
     8.5490480000000009    0.0000000000000000    0.0000000000000000
     0.0000000000000000    8.5490480000000009    0.0000000000000000
     0.0000000000000000    0.0000000000000000   20.0000000000000000
    20     4     1
Selective dynamics
Direct
  0.9092296760749220  0.2061904547965664  0.0954550685754331   T   T   T
  0.9073099126268751  0.5018150696274287  0.0953126655947579   T   T   T
  0.9092436071298675  0.7974065674541746  0.0954722629168664   T   T   T
  0.1974374144315715  0.0855475816180467  0.0954924948033630   T   T   T
  0.0767920492969459  0.2061640204205709  0.0954710947058471   T   T   T
  0.1974531140909969  0.9179936137337469  0.0954959242681250   T   T   T
  0.1575696133297537  0.6503150222344546  0.0953451883156769   T   T   T
  0.0787483544357239  0.5017929457567640  0.0953285745545819   T   T   T
  0.1575454518022072  0.3532500001794404  0.0953370428683218   T   T   T
  0.0768104577504829  0.7973817979170046  0.0954817351198544   T   T   T
  0.4929937601387795  0.0875165113790038  0.0953520820754017   T   T   T
  0.3444879939102445  0.1663195528983954  0.0953535644763181   T   T   T
  0.4929883432628582  0.9160924766216060  0.0953602445316318   T   T   T
  0.3445182829487293  0.8372493258136388  0.0953604400188289   T   T   T
  0.7885813347045346  0.0855814030010219  0.0954745905934524   T   T   T
  0.6415001964235751  0.1663513647946729  0.0953256612520468   T   T   T
  0.7885881601023591  0.9180235663596275  0.0954784385024843   T   T   T
  0.8284795006136255  0.6503415811534732  0.0953193871302366   T   T   T
  0.8284873474464286  0.3532826642597708  0.0952988910848048   T   T   T
  0.6415094056270942  0.8372631165820356  0.0953373280154704   T   T   T
  0.3214163704652752  0.3301677828835077  0.0952011251951868   T   T   T
  0.3214472080110325  0.6733936812714009  0.0952158321557062   T   T   T
  0.6646247904729524  0.3301881893826876  0.0951737962750547   T   T   T
  0.6646141143516632  0.6734142381444652  0.0951881369136775   T   T   T
  0.4930355405514950  0.5017474717165086  0.0950734300568490   T   T   T
 
  0.00000000E+00  0.00000000E+00  0.00000000E+00
  0.00000000E+00  0.00000000E+00  0.00000000E+00
  0.00000000E+00  0.00000000E+00  0.00000000E+00
  0.00000000E+00  0.00000000E+00  0.00000000E+00
  0.00000000E+00  0.00000000E+00  0.00000000E+00
  0.00000000E+00  0.00000000E+00  0.00000000E+00
  0.00000000E+00  0.00000000E+00  0.00000000E+00
  0.00000000E+00  0.00000000E+00  0.00000000E+00
  0.00000000E+00  0.00000000E+00  0.00000000E+00
  0.00000000E+00  0.00000000E+00  0.00000000E+00
  0.00000000E+00  0.00000000E+00  0.00000000E+00
  0.00000000E+00  0.00000000E+00  0.00000000E+00
  0.00000000E+00  0.00000000E+00  0.00000000E+00
  0.00000000E+00  0.00000000E+00  0.00000000E+00
  0.00000000E+00  0.00000000E+00  0.00000000E+00
  0.00000000E+00  0.00000000E+00  0.00000000E+00
  0.00000000E+00  0.00000000E+00  0.00000000E+00
  0.00000000E+00  0.00000000E+00  0.00000000E+00
  0.00000000E+00  0.00000000E+00  0.00000000E+00
  0.00000000E+00  0.00000000E+00  0.00000000E+00
  0.00000000E+00  0.00000000E+00  0.00000000E+00
  0.00000000E+00  0.00000000E+00  0.00000000E+00
  0.00000000E+00  0.00000000E+00  0.00000000E+00
  0.00000000E+00  0.00000000E+00  0.00000000E+00
  0.00000000E+00  0.00000000E+00  0.00000000E+00
