Title                                   
   1.00000000000000     
     9.8694509999999998    0.0000000000000000    0.0000000000000000
     0.0000000000000000    8.5490480000000009    0.0000000000000000
     0.0000000000000000    0.0000000000000000   20.0000000000000000
    26     4     1
Selective dynamics
Direct
  0.0562164534501065  0.0891080462987457  0.0937999270657993   T   T   T
  0.9318911264538389  0.1717397615923130  0.0940876184797222   T   T   T
  0.0562056130304339  0.9231989136247225  0.0937998375376178   T   T   T
  0.9336285410235918  0.3389352300415594  0.0940192059641892   T   T   T
  0.0562343268747418  0.5889314168430372  0.0935997147841680   T   T   T
  0.9336212487332542  0.6733562176160849  0.0939850601552055   T   T   T
  0.0562397539848644  0.4233721101576370  0.0936103323053070   T   T   T
  0.9318858096310886  0.8405588237944692  0.0940698058934105   T   T   T
  0.3057775650367377  0.0902357750922636  0.0948475339299786   T   T   T
  0.1805474494861848  0.1717493736303284  0.0941194391722760   T   T   T
  0.3057629149008531  0.9220687268263490  0.0948501331609972   T   T   T
  0.1788451846196907  0.3389455121511237  0.0940639438101397   T   T   T
  0.3008932689788011  0.5916008931821025  0.0950120131292206   T   T   T
  0.1788391050827735  0.6733603029718470  0.0940745097559702   T   T   T
  0.3009195456829932  0.4206801836626848  0.0949922595931575   T   T   T
  0.1805249348668486  0.8405643333828338  0.0941283409510826   T   T   T
  0.5562068505288021  0.0927157407714808  0.0959038406567205   T   T   T
  0.4287808713841604  0.1781700872311152  0.0956420107899519   T   T   T
  0.5561978913849654  0.9195585283453996  0.0959066877293948   T   T   T
  0.4287529987281755  0.8341460171767806  0.0956657714429588   T   T   T
  0.8066523268186717  0.0902264073906745  0.0948065806131153   T   T   T
  0.6836609081082347  0.1781567295014247  0.0956244550428091   T   T   T
  0.8066447983726610  0.9220666936412498  0.0947963490964301   T   T   T
  0.8116015895631775  0.5916002748010821  0.0948876523334223   T   T   T
  0.8115840423802219  0.4206799797811661  0.0949168951423979   T   T   T
  0.6836603463480170  0.8341518263978132  0.0955990383446139   T   T   T
  0.4213641649171054  0.3401532709987650  0.0959004810361923   T   T   T
  0.4213210598326763  0.6722013598118030  0.0959174703824025   T   T   T
  0.6911741790865069  0.3401319642336366  0.0958478594599628   T   T   T
  0.6912012965521664  0.6722102435857952  0.0958224842726352   T   T   T
  0.5562998341576619  0.5063002554637110  0.0966677479687917   T   T   T
 
  0.00000000E+00  0.00000000E+00  0.00000000E+00
  0.00000000E+00  0.00000000E+00  0.00000000E+00
  0.00000000E+00  0.00000000E+00  0.00000000E+00
  0.00000000E+00  0.00000000E+00  0.00000000E+00
  0.00000000E+00  0.00000000E+00  0.00000000E+00
  0.00000000E+00  0.00000000E+00  0.00000000E+00
  0.00000000E+00  0.00000000E+00  0.00000000E+00
  0.00000000E+00  0.00000000E+00  0.00000000E+00
  0.00000000E+00  0.00000000E+00  0.00000000E+00
  0.00000000E+00  0.00000000E+00  0.00000000E+00
  0.00000000E+00  0.00000000E+00  0.00000000E+00
  0.00000000E+00  0.00000000E+00  0.00000000E+00
  0.00000000E+00  0.00000000E+00  0.00000000E+00
  0.00000000E+00  0.00000000E+00  0.00000000E+00
  0.00000000E+00  0.00000000E+00  0.00000000E+00
  0.00000000E+00  0.00000000E+00  0.00000000E+00
  0.00000000E+00  0.00000000E+00  0.00000000E+00
  0.00000000E+00  0.00000000E+00  0.00000000E+00
  0.00000000E+00  0.00000000E+00  0.00000000E+00
  0.00000000E+00  0.00000000E+00  0.00000000E+00
  0.00000000E+00  0.00000000E+00  0.00000000E+00
  0.00000000E+00  0.00000000E+00  0.00000000E+00
  0.00000000E+00  0.00000000E+00  0.00000000E+00
  0.00000000E+00  0.00000000E+00  0.00000000E+00
  0.00000000E+00  0.00000000E+00  0.00000000E+00
  0.00000000E+00  0.00000000E+00  0.00000000E+00
  0.00000000E+00  0.00000000E+00  0.00000000E+00
  0.00000000E+00  0.00000000E+00  0.00000000E+00
  0.00000000E+00  0.00000000E+00  0.00000000E+00
  0.00000000E+00  0.00000000E+00  0.00000000E+00
  0.00000000E+00  0.00000000E+00  0.00000000E+00
