Title                                   
   1.00000000000000     
     4.9440799999999996    0.0000000000000000    0.0000000000000000
     0.0000000000000000    8.5647549999999999    0.0000000000000000
     0.0000000000000000    0.0000000000000000   20.0000000000000000
    11     3     1
Selective dynamics
Direct
  0.0007677195780941  0.2922594965509988  0.0943350041657209   T   T   T
  0.2500000000000000  0.0379694525345273  0.0949844187361915   T   T   T
 -0.0018959730716616  0.9556995587822176  0.0945586914455440   T   T   T
  0.7500000000000000  0.2057462858941088  0.0898457635447729   T   T   T
  0.4992322804219058  0.2922594965509988  0.0943350041657209   T   T   T
  0.7500000000000000  0.0409668219845173  0.0903038063666906   T   T   T
  0.7500000000000000  0.7161180278458139  0.0992456781425300   T   T   T
  0.7500000000000000  0.5412758048741788  0.0992426314452928   T   T   T
  0.5018959730716617  0.9556995587822176  0.0945586914455440   T   T   T
  0.5014840892299361  0.4553671040878746  0.1015717064602813   T   T   T
 -0.0014840892299358  0.4553671040878746  0.1015717064602813   T   T   T
 -0.0091512609792523  0.7946879313961228  0.1001612247409406   T   T   T
  0.5091512609792521  0.7946879313961228  0.1001612247409406   T   T   T
  0.2500000000000000  0.2062422612331464  0.0946371788894927   T   T   T
  0.2500000000000000  0.6273341639992829  0.1584672692500594   T   T   T
 
  0.00000000E+00  0.00000000E+00  0.00000000E+00
  0.00000000E+00  0.00000000E+00  0.00000000E+00
  0.00000000E+00  0.00000000E+00  0.00000000E+00
  0.00000000E+00  0.00000000E+00  0.00000000E+00
  0.00000000E+00  0.00000000E+00  0.00000000E+00
  0.00000000E+00  0.00000000E+00  0.00000000E+00
  0.00000000E+00  0.00000000E+00  0.00000000E+00
  0.00000000E+00  0.00000000E+00  0.00000000E+00
  0.00000000E+00  0.00000000E+00  0.00000000E+00
  0.00000000E+00  0.00000000E+00  0.00000000E+00
  0.00000000E+00  0.00000000E+00  0.00000000E+00
  0.00000000E+00  0.00000000E+00  0.00000000E+00
  0.00000000E+00  0.00000000E+00  0.00000000E+00
  0.00000000E+00  0.00000000E+00  0.00000000E+00
  0.00000000E+00  0.00000000E+00  0.00000000E+00
