Title                                   
   1.00000000000000     
     9.8694509999999998    0.0000000000000000    0.0000000000000000
     0.0000000000000000    8.5490480000000009    0.0000000000000000
     0.0000000000000000    0.0000000000000000   20.0000000000000000
    26     4     1
Selective dynamics
Direct
  0.0558895332002546  0.0882006423314854  0.0918484284399556   T   T   T
  0.9314606387438688  0.1720475005367086  0.0958242752092202   T   T   T
  0.0579047477276672  0.9205822052831927  0.0920076389047224   T   T   T
  0.9334565767133256  0.3395914607685143  0.0979870668462178   T   T   T
  0.0576200641682127  0.5904809167069305  0.0941695047358520   T   T   T
  0.0571456785435708  0.4235269246714651  0.0939269018556474   T   T   T
  0.9326498402608171  0.8387095900091363  0.0966829536082638   T   T   T
  0.3079665914618681  0.0878872244832319  0.0858013952898237   T   T   T
  0.1811362197402246  0.1709814314616485  0.0884780655736387   T   T   T
  0.1803574581099855  0.3371189504598984  0.0890687325436016   T   T   T
  0.3072172613489243  0.5863831235208972  0.0821004811971482   T   T   T
  0.1817335014425965  0.6727568176626719  0.0890971481457409   T   T   T
  0.3051740670728400  0.4177067798080639  0.0833785283224395   T   T   T
  0.1837190526579146  0.8386875094282943  0.0882358136288410   T   T   T
  0.4303925918777980  0.1716741793568539  0.0865736192142446   T   T   T
  0.5565036358394803  0.9248553091969119  0.0946611773673353   T   T   T
  0.4306413188808679  0.6758559619566002  0.0806966727404168   T   T   T
  0.4322877788767505  0.8399857861606759  0.0855812782486417   T   T   T
  0.8052062174773047  0.0899509831421322  0.0971546637131320   T   T   T
  0.6805316130376029  0.1794100807887627  0.0997073357620263   T   T   T
  0.8065708473794004  0.9217203184465363  0.0982123140704197   T   T   T
  0.6840598827588076  0.3449132548973823  0.1082620892068065   T   T   T
  0.8116472965277794  0.5924629798462774  0.1063797543629653   T   T   T
  0.6864498815949260  0.6712388235931621  0.1124888220355822   T   T   T
  0.8115013492250626  0.4227823528453422  0.1047797662224796   T   T   T
  0.6800491341134156  0.8387412966822346  0.1021152229927422   T   T   T
  0.9341101593389441  0.6724227861189765  0.0986164371359627   T   T   T
  0.5568092530619630  0.0944608604987712  0.0932382685493743   T   T   T
  0.4272346924467503  0.3337941594579362  0.0840260213424413   T   T   T
  0.3065846564769855  0.9220876460461073  0.0843976300709631   T   T   T
  0.5291234598941068  0.5098571438332181  0.1354669926634024   T   T   T
 
  0.00000000E+00  0.00000000E+00  0.00000000E+00
  0.00000000E+00  0.00000000E+00  0.00000000E+00
  0.00000000E+00  0.00000000E+00  0.00000000E+00
  0.00000000E+00  0.00000000E+00  0.00000000E+00
  0.00000000E+00  0.00000000E+00  0.00000000E+00
  0.00000000E+00  0.00000000E+00  0.00000000E+00
  0.00000000E+00  0.00000000E+00  0.00000000E+00
  0.00000000E+00  0.00000000E+00  0.00000000E+00
  0.00000000E+00  0.00000000E+00  0.00000000E+00
  0.00000000E+00  0.00000000E+00  0.00000000E+00
  0.00000000E+00  0.00000000E+00  0.00000000E+00
  0.00000000E+00  0.00000000E+00  0.00000000E+00
  0.00000000E+00  0.00000000E+00  0.00000000E+00
  0.00000000E+00  0.00000000E+00  0.00000000E+00
  0.00000000E+00  0.00000000E+00  0.00000000E+00
  0.00000000E+00  0.00000000E+00  0.00000000E+00
  0.00000000E+00  0.00000000E+00  0.00000000E+00
  0.00000000E+00  0.00000000E+00  0.00000000E+00
  0.00000000E+00  0.00000000E+00  0.00000000E+00
  0.00000000E+00  0.00000000E+00  0.00000000E+00
  0.00000000E+00  0.00000000E+00  0.00000000E+00
  0.00000000E+00  0.00000000E+00  0.00000000E+00
  0.00000000E+00  0.00000000E+00  0.00000000E+00
  0.00000000E+00  0.00000000E+00  0.00000000E+00
  0.00000000E+00  0.00000000E+00  0.00000000E+00
  0.00000000E+00  0.00000000E+00  0.00000000E+00
  0.00000000E+00  0.00000000E+00  0.00000000E+00
  0.00000000E+00  0.00000000E+00  0.00000000E+00
  0.00000000E+00  0.00000000E+00  0.00000000E+00
  0.00000000E+00  0.00000000E+00  0.00000000E+00
  0.00000000E+00  0.00000000E+00  0.00000000E+00
