Title                                   
   1.00000000000000     
     4.9440799999999996    0.0000000000000000    0.0000000000000000
     0.0000000000000000    8.5647549999999999    0.0000000000000000
     0.0000000000000000    0.0000000000000000   20.0000000000000000
    14     1     1
Selective dynamics
Direct
 -0.0007264987829656  0.2893411493803708  0.0906489972016818   T   T   T
  0.2500000000000000  0.0430894357119532  0.0850976849719802   T   T   T
 -0.0006931201362734  0.7966594172154104  0.1000591952743727   T   T   T
 -0.0007936462862546  0.9605039137383838  0.0856414698803467   T   T   T
  0.7500000000000000  0.2069070378200988  0.0805542596355728   T   T   T
  0.5007264987829656  0.2893411493803708  0.0906489972016818   T   T   T
  0.7500000000000000  0.0422369919736287  0.0797465970159359   T   T   T
  0.7500000000000000  0.7085374041058862  0.1040699088233856   T   T   T
  0.5006931201362733  0.7966594172154104  0.1000591952743727   T   T   T
  0.7500000000000000  0.5383777196520708  0.1078019533812722   T   T   T
  0.5007936462862547  0.9605039137383838  0.0856414698803467   T   T   T
  0.5072990396721413  0.4460712785999665  0.1113044400581061   T   T   T
 -0.0072990396721412  0.4460712785999665  0.1113044400581061   T   T   T
  0.2500000000000000  0.7271818118203836  0.1163063781215764   T   T   T
  0.2500000000000000  0.2065499143074834  0.0876340487903346   T   T   T
  0.2500000000000000  0.5419681667402324  0.1759929644309372   T   T   T
 
  0.00000000E+00  0.00000000E+00  0.00000000E+00
  0.00000000E+00  0.00000000E+00  0.00000000E+00
  0.00000000E+00  0.00000000E+00  0.00000000E+00
  0.00000000E+00  0.00000000E+00  0.00000000E+00
  0.00000000E+00  0.00000000E+00  0.00000000E+00
  0.00000000E+00  0.00000000E+00  0.00000000E+00
  0.00000000E+00  0.00000000E+00  0.00000000E+00
  0.00000000E+00  0.00000000E+00  0.00000000E+00
  0.00000000E+00  0.00000000E+00  0.00000000E+00
  0.00000000E+00  0.00000000E+00  0.00000000E+00
  0.00000000E+00  0.00000000E+00  0.00000000E+00
  0.00000000E+00  0.00000000E+00  0.00000000E+00
  0.00000000E+00  0.00000000E+00  0.00000000E+00
  0.00000000E+00  0.00000000E+00  0.00000000E+00
  0.00000000E+00  0.00000000E+00  0.00000000E+00
  0.00000000E+00  0.00000000E+00  0.00000000E+00
