Title                                   
   1.00000000000000     
     9.8694509999999998    0.0000000000000000    0.0000000000000000
     0.0000000000000000    8.5490480000000009    0.0000000000000000
     0.0000000000000000    0.0000000000000000   20.0000000000000000
    26     5     1
Selective dynamics
Direct
  0.0554962593694718  0.0906873182876285  0.0827607938089548   T   T   T
  0.9302872357381656  0.1753729654328655  0.0821359707394600   T   T   T
  0.0576682716044157  0.9229605593488458  0.0846689315776145   T   T   T
  0.9288345745907219  0.3421771488462472  0.0840406365318495   T   T   T
  0.0561351305943612  0.5916899050398020  0.0863113007620796   T   T   T
  0.0551148829094392  0.4244991260485619  0.0852084594403961   T   T   T
  0.9330651520895333  0.8396403900105130  0.0872839441573440   T   T   T
  0.3052470952890011  0.0884308004722789  0.0879559725801848   T   T   T
  0.1812277771695631  0.1730941534517441  0.0851192451129908   T   T   T
  0.1811291134646199  0.3401555734347283  0.0872185944260674   T   T   T
  0.3030229974433409  0.5887824115876692  0.1019596850124698   T   T   T
  0.1809429800851866  0.6737145837776757  0.0902387373332915   T   T   T
  0.3082133642851553  0.4206270469386051  0.0973592437878613   T   T   T
  0.1826509083025894  0.8416203473968658  0.0882103044076980   T   T   T
  0.5560811985246131  0.0863186657750454  0.0923066269886803   T   T   T
  0.5556238815697470  0.9209369548242397  0.0996580516326784   T   T   T
  0.4294677934064944  0.3298850163816615  0.1021270508664214   T   T   T
  0.4272543716398499  0.8419953189478049  0.1048903689385997   T   T   T
  0.8063012706339281  0.0893320904203839  0.0835553429003508   T   T   T
  0.6798837919874440  0.1711621703765903  0.0877782458890168   T   T   T
  0.8079604560807836  0.9238123938875862  0.0884241728022265   T   T   T
  0.6799064351903448  0.3354317464227105  0.0960359969576077   T   T   T
  0.8103487360399076  0.5946550329513894  0.0982262161308171   T   T   T
  0.8016877847510058  0.4275197648247282  0.0919925988954284   T   T   T
  0.6847205399310733  0.8430701605514137  0.1006202635998602   T   T   T
  0.4169107537061925  0.6826009863527686  0.1210002511046670   T   T   T
  0.5542157241807946  0.3950450670514509  0.1199996601127187   T   T   T
  0.7002760035330826  0.6856463976133169  0.1197311790240226   T   T   T
  0.3060738424683305  0.9256653879683885  0.0905668476328966   T   T   T
  0.4288672483941955  0.1667313602676973  0.0930518602374170   T   T   T
  0.9326278665053946  0.6739734980066582  0.0889454932049362   T   T   T
  0.5623955585212596  0.5830116573021396  0.1762929534034086   T   T   T
 
  0.00000000E+00  0.00000000E+00  0.00000000E+00
  0.00000000E+00  0.00000000E+00  0.00000000E+00
  0.00000000E+00  0.00000000E+00  0.00000000E+00
  0.00000000E+00  0.00000000E+00  0.00000000E+00
  0.00000000E+00  0.00000000E+00  0.00000000E+00
  0.00000000E+00  0.00000000E+00  0.00000000E+00
  0.00000000E+00  0.00000000E+00  0.00000000E+00
  0.00000000E+00  0.00000000E+00  0.00000000E+00
  0.00000000E+00  0.00000000E+00  0.00000000E+00
  0.00000000E+00  0.00000000E+00  0.00000000E+00
  0.00000000E+00  0.00000000E+00  0.00000000E+00
  0.00000000E+00  0.00000000E+00  0.00000000E+00
  0.00000000E+00  0.00000000E+00  0.00000000E+00
  0.00000000E+00  0.00000000E+00  0.00000000E+00
  0.00000000E+00  0.00000000E+00  0.00000000E+00
  0.00000000E+00  0.00000000E+00  0.00000000E+00
  0.00000000E+00  0.00000000E+00  0.00000000E+00
  0.00000000E+00  0.00000000E+00  0.00000000E+00
  0.00000000E+00  0.00000000E+00  0.00000000E+00
  0.00000000E+00  0.00000000E+00  0.00000000E+00
  0.00000000E+00  0.00000000E+00  0.00000000E+00
  0.00000000E+00  0.00000000E+00  0.00000000E+00
  0.00000000E+00  0.00000000E+00  0.00000000E+00
  0.00000000E+00  0.00000000E+00  0.00000000E+00
  0.00000000E+00  0.00000000E+00  0.00000000E+00
  0.00000000E+00  0.00000000E+00  0.00000000E+00
  0.00000000E+00  0.00000000E+00  0.00000000E+00
  0.00000000E+00  0.00000000E+00  0.00000000E+00
  0.00000000E+00  0.00000000E+00  0.00000000E+00
  0.00000000E+00  0.00000000E+00  0.00000000E+00
  0.00000000E+00  0.00000000E+00  0.00000000E+00
  0.00000000E+00  0.00000000E+00  0.00000000E+00
