Title                                   
   1.00000000000000     
     9.8694509999999998    0.0000000000000000    0.0000000000000000
     0.0000000000000000    8.5490480000000009    0.0000000000000000
     0.0000000000000000    0.0000000000000000   20.0000000000000000
    30     1     1
Selective dynamics
Direct
  0.0558446108609970  0.0901075052710972  0.0842191522239707   T   T   T
  0.9314188266211053  0.1721591488941413  0.0855372394717023   T   T   T
  0.0566011698359720  0.9235464240327118  0.0842329186198010   T   T   T
  0.9317986197723653  0.3395099388615913  0.0878735408013364   T   T   T
  0.0567394941679302  0.5899645171594172  0.0853655077353746   T   T   T
  0.9321332203082284  0.6724118982623818  0.0873679293781471   T   T   T
  0.0571820089932084  0.4228258394062400  0.0864834426890714   T   T   T
  0.9315685760330091  0.8388976692055434  0.0859537327345749   T   T   T
  0.3053380783862485  0.0893975389681156  0.0883350059747923   T   T   T
  0.1811943216624763  0.1725916751587214  0.0862182855673782   T   T   T
  0.1825325661388494  0.3398692783558279  0.0885461723928092   T   T   T
  0.3043727820907335  0.5906624870854591  0.0987967396112230   T   T   T
  0.1814062023429627  0.6743992369799090  0.0877250905189192   T   T   T
  0.3062851187198088  0.4231398043936617  0.0967782611747687   T   T   T
  0.1813531270801956  0.8412056591447784  0.0866448400534338   T   T   T
  0.5562265967150332  0.0879480807923507  0.0929205817256546   T   T   T
  0.4306517066078495  0.1708006440117772  0.0927393473475768   T   T   T
  0.5542070160216714  0.9228688925023345  0.0964244285942234   T   T   T
  0.4310698283257867  0.3374885708955134  0.1007778686161276   T   T   T
  0.4183246674968993  0.6831024522470668  0.1129198919646245   T   T   T
  0.5582479510797345  0.4080050341326016  0.1125475361296073   T   T   T
  0.4266163212238146  0.8426106597234621  0.1000329329909673   T   T   T
  0.8065178136371802  0.0880017667099320  0.0868895373152335   T   T   T
  0.6818528265853576  0.1702022619472371  0.0915065461495549   T   T   T
  0.8060659181667377  0.9218404875486924  0.0881679252605753   T   T   T
  0.6828367538202702  0.3360336385470981  0.0994706081992032   T   T   T
  0.8080331667523954  0.5886523243256994  0.0968163982652528   T   T   T
  0.6903116451079818  0.6765606501401885  0.1084442259748526   T   T   T
  0.8078169171018579  0.4211807817164746  0.0950494721796155   T   T   T
  0.6804979721010380  0.8387953342888093  0.0973706764822390   T   T   T
  0.3043112711488333  0.9254795798605235  0.0894395630944169   T   T   T
  0.5602819050934749  0.5899862194306508  0.1840796007630061   T   T   T
 
  0.00000000E+00  0.00000000E+00  0.00000000E+00
  0.00000000E+00  0.00000000E+00  0.00000000E+00
  0.00000000E+00  0.00000000E+00  0.00000000E+00
  0.00000000E+00  0.00000000E+00  0.00000000E+00
  0.00000000E+00  0.00000000E+00  0.00000000E+00
  0.00000000E+00  0.00000000E+00  0.00000000E+00
  0.00000000E+00  0.00000000E+00  0.00000000E+00
  0.00000000E+00  0.00000000E+00  0.00000000E+00
  0.00000000E+00  0.00000000E+00  0.00000000E+00
  0.00000000E+00  0.00000000E+00  0.00000000E+00
  0.00000000E+00  0.00000000E+00  0.00000000E+00
  0.00000000E+00  0.00000000E+00  0.00000000E+00
  0.00000000E+00  0.00000000E+00  0.00000000E+00
  0.00000000E+00  0.00000000E+00  0.00000000E+00
  0.00000000E+00  0.00000000E+00  0.00000000E+00
  0.00000000E+00  0.00000000E+00  0.00000000E+00
  0.00000000E+00  0.00000000E+00  0.00000000E+00
  0.00000000E+00  0.00000000E+00  0.00000000E+00
  0.00000000E+00  0.00000000E+00  0.00000000E+00
  0.00000000E+00  0.00000000E+00  0.00000000E+00
  0.00000000E+00  0.00000000E+00  0.00000000E+00
  0.00000000E+00  0.00000000E+00  0.00000000E+00
  0.00000000E+00  0.00000000E+00  0.00000000E+00
  0.00000000E+00  0.00000000E+00  0.00000000E+00
  0.00000000E+00  0.00000000E+00  0.00000000E+00
  0.00000000E+00  0.00000000E+00  0.00000000E+00
  0.00000000E+00  0.00000000E+00  0.00000000E+00
  0.00000000E+00  0.00000000E+00  0.00000000E+00
  0.00000000E+00  0.00000000E+00  0.00000000E+00
  0.00000000E+00  0.00000000E+00  0.00000000E+00
  0.00000000E+00  0.00000000E+00  0.00000000E+00
  0.00000000E+00  0.00000000E+00  0.00000000E+00
