Title                                   
   1.00000000000000     
     9.8694509999999998    0.0000000000000000    0.0000000000000000
     0.0000000000000000    8.5490480000000009    0.0000000000000000
     0.0000000000000000    0.0000000000000000   20.0000000000000000
    25     5     1
Selective dynamics
Direct
  0.0557648166726021  0.0890838095255294  0.0923783138328931   T   T   T
  0.9310404925032092  0.1737612805766137  0.0958573493991531   T   T   T
  0.0583386780582742  0.9212853140783455  0.0921752630479007   T   T   T
  0.9326494456579815  0.3410631536081927  0.0972712407362800   T   T   T
  0.0573807319188107  0.5906722624313659  0.0939974972999099   T   T   T
  0.0566357665572108  0.4237190039025756  0.0941144768467506   T   T   T
  0.9333399809877220  0.8401851543817959  0.0968348349192373   T   T   T
  0.3078543052376428  0.0866114948921536  0.0867175933766344   T   T   T
  0.1810218746410440  0.1706417091087327  0.0898652704961498   T   T   T
  0.1800733378737090  0.3369594820419223  0.0908634048482807   T   T   T
  0.3069412828655829  0.5859602466150479  0.0817051896376595   T   T   T
  0.1814097720302476  0.6722463791741240  0.0890985894863131   T   T   T
  0.3052162073031945  0.4169930988337276  0.0853232746360242   T   T   T
  0.1838290715086510  0.8387058752647162  0.0882087421937052   T   T   T
  0.4306425366826049  0.1687996699981516  0.0876566855244411   T   T   T
  0.5580302675918124  0.9215904322641055  0.0942676205954804   T   T   T
  0.4300472835344465  0.6752876046432871  0.0782196188206688   T   T   T
  0.4322554479715041  0.8388081774561903  0.0842262373509216   T   T   T
  0.8048757981352076  0.0906775331584100  0.0973364865475610   T   T   T
  0.6805528552023059  0.1798709315865176  0.0996070370967725   T   T   T
  0.8075957552715467  0.9226596655476654  0.0985650226155605   T   T   T
  0.6829578732031574  0.3462139379868507  0.1072899309307240   T   T   T
  0.8112392454881076  0.5944454891592030  0.1050064550379385   T   T   T
  0.8094972416437693  0.4263610145883137  0.1032024850151772   T   T   T
  0.6823043224707160  0.8375645247480341  0.1018573931196112   T   T   T
  0.9335127821240040  0.6740132123909730  0.0980510193755800   T   T   T
  0.5572899665841058  0.0925007217451161  0.0937645482852659   T   T   T
  0.4265907290938185  0.3308851057300642  0.0872770453780923   T   T   T
  0.6907576640637130  0.6736279704636918  0.1125793411086148   T   T   T
  0.3070228056399250  0.9212558019661421  0.0848010158093267   T   T   T
  0.5264666614833774  0.5084249421324688  0.1328460166314059   T   T   T
 
  0.00000000E+00  0.00000000E+00  0.00000000E+00
  0.00000000E+00  0.00000000E+00  0.00000000E+00
  0.00000000E+00  0.00000000E+00  0.00000000E+00
  0.00000000E+00  0.00000000E+00  0.00000000E+00
  0.00000000E+00  0.00000000E+00  0.00000000E+00
  0.00000000E+00  0.00000000E+00  0.00000000E+00
  0.00000000E+00  0.00000000E+00  0.00000000E+00
  0.00000000E+00  0.00000000E+00  0.00000000E+00
  0.00000000E+00  0.00000000E+00  0.00000000E+00
  0.00000000E+00  0.00000000E+00  0.00000000E+00
  0.00000000E+00  0.00000000E+00  0.00000000E+00
  0.00000000E+00  0.00000000E+00  0.00000000E+00
  0.00000000E+00  0.00000000E+00  0.00000000E+00
  0.00000000E+00  0.00000000E+00  0.00000000E+00
  0.00000000E+00  0.00000000E+00  0.00000000E+00
  0.00000000E+00  0.00000000E+00  0.00000000E+00
  0.00000000E+00  0.00000000E+00  0.00000000E+00
  0.00000000E+00  0.00000000E+00  0.00000000E+00
  0.00000000E+00  0.00000000E+00  0.00000000E+00
  0.00000000E+00  0.00000000E+00  0.00000000E+00
  0.00000000E+00  0.00000000E+00  0.00000000E+00
  0.00000000E+00  0.00000000E+00  0.00000000E+00
  0.00000000E+00  0.00000000E+00  0.00000000E+00
  0.00000000E+00  0.00000000E+00  0.00000000E+00
  0.00000000E+00  0.00000000E+00  0.00000000E+00
  0.00000000E+00  0.00000000E+00  0.00000000E+00
  0.00000000E+00  0.00000000E+00  0.00000000E+00
  0.00000000E+00  0.00000000E+00  0.00000000E+00
  0.00000000E+00  0.00000000E+00  0.00000000E+00
  0.00000000E+00  0.00000000E+00  0.00000000E+00
  0.00000000E+00  0.00000000E+00  0.00000000E+00
