Title                                   
   1.00000000000000     
     4.9440799999999996    0.0000000000000000    0.0000000000000000
     0.0000000000000000    8.5647549999999999    0.0000000000000000
     0.0000000000000000    0.0000000000000000   20.0000000000000000
    10     4     1
Selective dynamics
Direct
  0.2500000000000000  0.2110318690112542  0.0961365605250319   T   T   T
 -0.0035901944962630  0.2953403619408782  0.0959785996157508   T   T   T
  0.2500000000000000  0.0385258168810063  0.0961618247610700   T   T   T
 -0.0035666785583094  0.9542153675197081  0.0960105753403575   T   T   T
  0.7500000000000000  0.2086785796255897  0.0952196285652167   T   T   T
  0.5035901944962631  0.2953403619408782  0.0959785996157508   T   T   T
  0.7500000000000000  0.0408633381088173  0.0952478546239251   T   T   T
  0.7500000000000000  0.7188603068702601  0.0956825929352052   T   T   T
  0.7500000000000000  0.5307337034518500  0.0956673913493611   T   T   T
  0.5035666785583096  0.9542153675197081  0.0960105753403575   T   T   T
  0.5115952315800520  0.4571929097807101  0.0965499596938305   T   T   T
 -0.0115952315800518  0.4571929097807101  0.0965499596938305   T   T   T
 -0.0115777219782322  0.7923752347380051  0.0965851610121684   T   T   T
  0.5115777219782320  0.7923752347380051  0.0965851610121684   T   T   T
  0.2500000000000000  0.6247396380926217  0.1636155559159792   T   T   T
 
  0.00000000E+00  0.00000000E+00  0.00000000E+00
  0.00000000E+00  0.00000000E+00  0.00000000E+00
  0.00000000E+00  0.00000000E+00  0.00000000E+00
  0.00000000E+00  0.00000000E+00  0.00000000E+00
  0.00000000E+00  0.00000000E+00  0.00000000E+00
  0.00000000E+00  0.00000000E+00  0.00000000E+00
  0.00000000E+00  0.00000000E+00  0.00000000E+00
  0.00000000E+00  0.00000000E+00  0.00000000E+00
  0.00000000E+00  0.00000000E+00  0.00000000E+00
  0.00000000E+00  0.00000000E+00  0.00000000E+00
  0.00000000E+00  0.00000000E+00  0.00000000E+00
  0.00000000E+00  0.00000000E+00  0.00000000E+00
  0.00000000E+00  0.00000000E+00  0.00000000E+00
  0.00000000E+00  0.00000000E+00  0.00000000E+00
  0.00000000E+00  0.00000000E+00  0.00000000E+00
