Title                                   
   1.00000000000000     
     9.8694509999999998    0.0000000000000000    0.0000000000000000
     0.0000000000000000    8.5490480000000009    0.0000000000000000
     0.0000000000000000    0.0000000000000000   20.0000000000000000
    28     3     1
Selective dynamics
Direct
  0.0561884653213449  0.0920408593804173  0.0874118954737165   T   T   T
  0.9308652521668596  0.1746729874391879  0.0888035430091460   T   T   T
  0.0561379143163453  0.9246948338464760  0.0869751927223028   T   T   T
  0.9295917726047770  0.3414160240739190  0.0911031990392100   T   T   T
  0.0561837992183498  0.5894357170064577  0.0885718355519128   T   T   T
  0.9325363890409931  0.6737689548711904  0.0898385034832797   T   T   T
  0.0562499900385346  0.4232453003338072  0.0900456092977295   T   T   T
  0.9323452945452577  0.8403072816230760  0.0886450026564056   T   T   T
  0.3055573447277681  0.0892717994561839  0.0895491914911157   T   T   T
  0.1815567323894914  0.1747117919319393  0.0887866890199018   T   T   T
  0.3046873564771743  0.9237150280470967  0.0902670110880505   T   T   T
  0.1829530566111378  0.3414667676938368  0.0909230424962393   T   T   T
  0.3050948760486731  0.5933324116455817  0.0963024975680081   T   T   T
  0.1798097215836101  0.6738558813694444  0.0896082153476454   T   T   T
  0.3096137449848629  0.4248034717250654  0.0953401733022490   T   T   T
  0.1799750601580414  0.8403648675141165  0.0884347171000223   T   T   T
  0.5562244679357321  0.0837483485513073  0.0945272063453462   T   T   T
  0.4314302863387592  0.1688682693412179  0.0929720057421641   T   T   T
  0.5561883285970496  0.9167914826352483  0.0977601796268740   T   T   T
  0.4342025844627069  0.3345127740522841  0.0972399679618361   T   T   T
  0.4268318088883206  0.8376534099557090  0.0975295600145080   T   T   T
  0.8068428098206349  0.0892054242550516  0.0895991041814857   T   T   T
  0.6810311002028104  0.1688203900155810  0.0930333305038056   T   T   T
  0.8076364250673401  0.9236306774203981  0.0905009074793024   T   T   T
  0.6783313606537902  0.3343926111840693  0.0975068022603179   T   T   T
  0.8074865649257734  0.5930790256560995  0.0971897997453964   T   T   T
  0.8029673357590345  0.4246729608089815  0.0959400316046466   T   T   T
  0.6854688083453472  0.8377219694034465  0.0981774642401837   T   T   T
  0.4208418258283974  0.6794094222974704  0.1049862644361864   T   T   T
  0.5563523540581368  0.4084138873105758  0.1041738215054608   T   T   T
  0.6922454545297690  0.6796185704057954  0.1068254964935105   T   T   T
  0.5562107143531824  0.5886027987489769  0.1671067392120746   T   T   T
 
  0.00000000E+00  0.00000000E+00  0.00000000E+00
  0.00000000E+00  0.00000000E+00  0.00000000E+00
  0.00000000E+00  0.00000000E+00  0.00000000E+00
  0.00000000E+00  0.00000000E+00  0.00000000E+00
  0.00000000E+00  0.00000000E+00  0.00000000E+00
  0.00000000E+00  0.00000000E+00  0.00000000E+00
  0.00000000E+00  0.00000000E+00  0.00000000E+00
  0.00000000E+00  0.00000000E+00  0.00000000E+00
  0.00000000E+00  0.00000000E+00  0.00000000E+00
  0.00000000E+00  0.00000000E+00  0.00000000E+00
  0.00000000E+00  0.00000000E+00  0.00000000E+00
  0.00000000E+00  0.00000000E+00  0.00000000E+00
  0.00000000E+00  0.00000000E+00  0.00000000E+00
  0.00000000E+00  0.00000000E+00  0.00000000E+00
  0.00000000E+00  0.00000000E+00  0.00000000E+00
  0.00000000E+00  0.00000000E+00  0.00000000E+00
  0.00000000E+00  0.00000000E+00  0.00000000E+00
  0.00000000E+00  0.00000000E+00  0.00000000E+00
  0.00000000E+00  0.00000000E+00  0.00000000E+00
  0.00000000E+00  0.00000000E+00  0.00000000E+00
  0.00000000E+00  0.00000000E+00  0.00000000E+00
  0.00000000E+00  0.00000000E+00  0.00000000E+00
  0.00000000E+00  0.00000000E+00  0.00000000E+00
  0.00000000E+00  0.00000000E+00  0.00000000E+00
  0.00000000E+00  0.00000000E+00  0.00000000E+00
  0.00000000E+00  0.00000000E+00  0.00000000E+00
  0.00000000E+00  0.00000000E+00  0.00000000E+00
  0.00000000E+00  0.00000000E+00  0.00000000E+00
  0.00000000E+00  0.00000000E+00  0.00000000E+00
  0.00000000E+00  0.00000000E+00  0.00000000E+00
  0.00000000E+00  0.00000000E+00  0.00000000E+00
  0.00000000E+00  0.00000000E+00  0.00000000E+00
