Title                                   
   1.00000000000000     
     9.8694509999999998    0.0000000000000000    0.0000000000000000
     0.0000000000000000    8.5490480000000009    0.0000000000000000
     0.0000000000000000    0.0000000000000000   20.0000000000000000
    29     2     1
Selective dynamics
Direct
  0.0564447577152820  0.0911498574712963  0.0855993019660587   T   T   T
  0.9315255964598188  0.1709855605340782  0.0862510371004001   T   T   T
  0.0561370181119943  0.9244665391564033  0.0854374124387304   T   T   T
  0.9330720127760223  0.3383885314492407  0.0872413186127969   T   T   T
  0.0573723458444107  0.5898729087126902  0.0846093108239857   T   T   T
  0.9327245953947783  0.6718304810741145  0.0867250620354826   T   T   T
  0.0587278688098905  0.4229703830521486  0.0863890040824301   T   T   T
  0.9310347122110962  0.8382386159267101  0.0867300220537547   T   T   T
  0.3057237610403199  0.0911515360489008  0.0917678269432079   T   T   T
  0.1820664537862860  0.1748310967776528  0.0885084487164609   T   T   T
  0.1845130194099509  0.3424203356720398  0.0905993123136446   T   T   T
  0.3022087970609577  0.5958584125122915  0.1021799416463045   T   T   T
  0.1803022066575097  0.6761176056340632  0.0882495887434369   T   T   T
  0.3084576541347672  0.4284337016767210  0.1004415955822188   T   T   T
  0.1796277651080818  0.8426783066020315  0.0882142268217334   T   T   T
  0.5553927332879117  0.0859148296057001  0.0970378615718464   T   T   T
  0.4314138180518651  0.1719281032451541  0.0970202290444056   T   T   T
  0.5515252061173299  0.9188024699594848  0.1011721537206397   T   T   T
  0.4336509420598649  0.3401854250764719  0.1044001315813321   T   T   T
  0.5628909538027431  0.4088355699285717  0.1137778149244648   T   T   T
  0.4224760623056665  0.8425314416406957  0.1046136741325358   T   T   T
  0.8066217253875435  0.0855933670833421  0.0889719701900641   T   T   T
  0.6819708091909369  0.1672958656865857  0.0941540907101181   T   T   T
  0.8051452726605800  0.9195112150646375  0.0904965062231019   T   T   T
  0.6849801199595495  0.3332467103884517  0.0997910857993016   T   T   T
  0.8101758675177737  0.5865553411295091  0.0958835071889851   T   T   T
  0.6926057421846074  0.6713766766842867  0.1100561730736788   T   T   T
  0.8097230095044969  0.4191374460759283  0.0938689809710917   T   T   T
  0.6797565750395730  0.8343634806602319  0.1006065711726069   T   T   T
  0.4096551151338103  0.6893758983676267  0.1212388678514448   T   T   T
  0.3032844328510001  0.9272639075923168  0.0922020092335790   T   T   T
  0.5584320504235875  0.5889343795106108  0.1594399627302023   T   T   T
 
  0.00000000E+00  0.00000000E+00  0.00000000E+00
  0.00000000E+00  0.00000000E+00  0.00000000E+00
  0.00000000E+00  0.00000000E+00  0.00000000E+00
  0.00000000E+00  0.00000000E+00  0.00000000E+00
  0.00000000E+00  0.00000000E+00  0.00000000E+00
  0.00000000E+00  0.00000000E+00  0.00000000E+00
  0.00000000E+00  0.00000000E+00  0.00000000E+00
  0.00000000E+00  0.00000000E+00  0.00000000E+00
  0.00000000E+00  0.00000000E+00  0.00000000E+00
  0.00000000E+00  0.00000000E+00  0.00000000E+00
  0.00000000E+00  0.00000000E+00  0.00000000E+00
  0.00000000E+00  0.00000000E+00  0.00000000E+00
  0.00000000E+00  0.00000000E+00  0.00000000E+00
  0.00000000E+00  0.00000000E+00  0.00000000E+00
  0.00000000E+00  0.00000000E+00  0.00000000E+00
  0.00000000E+00  0.00000000E+00  0.00000000E+00
  0.00000000E+00  0.00000000E+00  0.00000000E+00
  0.00000000E+00  0.00000000E+00  0.00000000E+00
  0.00000000E+00  0.00000000E+00  0.00000000E+00
  0.00000000E+00  0.00000000E+00  0.00000000E+00
  0.00000000E+00  0.00000000E+00  0.00000000E+00
  0.00000000E+00  0.00000000E+00  0.00000000E+00
  0.00000000E+00  0.00000000E+00  0.00000000E+00
  0.00000000E+00  0.00000000E+00  0.00000000E+00
  0.00000000E+00  0.00000000E+00  0.00000000E+00
  0.00000000E+00  0.00000000E+00  0.00000000E+00
  0.00000000E+00  0.00000000E+00  0.00000000E+00
  0.00000000E+00  0.00000000E+00  0.00000000E+00
  0.00000000E+00  0.00000000E+00  0.00000000E+00
  0.00000000E+00  0.00000000E+00  0.00000000E+00
  0.00000000E+00  0.00000000E+00  0.00000000E+00
  0.00000000E+00  0.00000000E+00  0.00000000E+00
