Title                                   
   1.00000000000000     
     8.5490480000000009    0.0000000000000000    0.0000000000000000
     0.0000000000000000    8.5490480000000009    0.0000000000000000
     0.0000000000000000    0.0000000000000000   20.0000000000000000
    21     3     1
Selective dynamics
Direct
  0.9071481932106337  0.2065806530099985  0.0945470220359013   T   T   T
  0.9093334831355913  0.5038637010512170  0.0964355922323102   T   T   T
  0.9119302961940867  0.8016149141871186  0.0971672834793049   T   T   T
  0.1965473927344289  0.0822350339055225  0.0971497785164545   T   T   T
  0.0741282763493117  0.2020275105351821  0.0967495852424183   T   T   T
  0.1600233836243125  0.6478436308804536  0.0942871120416699   T   T   T
  0.0783300053667651  0.5007513213986297  0.0965014081979916   T   T   T
  0.1561822456648937  0.3509199929045616  0.0991355159607309   T   T   T
  0.0799212571557550  0.7971597700785322  0.0951509765137980   T   T   T
  0.4921415491210939  0.0868030725051433  0.0967780109195443   T   T   T
  0.3421858408187111  0.1630041173091515  0.0996618133107027   T   T   T
  0.4933945364391107  0.9174655500532133  0.0970194092652132   T   T   T
  0.3474071307973636  0.8359296297543779  0.0943383997413345   T   T   T
  0.7860882738513715  0.0871817025185173  0.0947006842098474   T   T   T
  0.6368011199384884  0.1682733027385915  0.0939426083672332   T   T   T
  0.7888024902390072  0.9206020300273237  0.0970604662361936   T   T   T
  0.8312876679403645  0.6525447712323427  0.0994029000675511   T   T   T
  0.8275731989040145  0.3576082698043988  0.0937688712659641   T   T   T
  0.6416209946762188  0.8376702780584923  0.0995285788545889   T   T   T
  0.3262728484345497  0.6715324582351800  0.0927938636741631   T   T   T
  0.6609393084080557  0.3364974133683271  0.0927718182616014   T   T   T
  0.3189892255198050  0.3273971575928163  0.1045904488775654   T   T   T
  0.6664369337479971  0.6740308510972102  0.1047740609573353   T   T   T
  0.1991414347462976  0.9156094953012317  0.0948099441793688   T   T   T
  0.4927849129817575  0.4996433724524805  0.1206388475911935   T   T   T
 
  0.00000000E+00  0.00000000E+00  0.00000000E+00
  0.00000000E+00  0.00000000E+00  0.00000000E+00
  0.00000000E+00  0.00000000E+00  0.00000000E+00
  0.00000000E+00  0.00000000E+00  0.00000000E+00
  0.00000000E+00  0.00000000E+00  0.00000000E+00
  0.00000000E+00  0.00000000E+00  0.00000000E+00
  0.00000000E+00  0.00000000E+00  0.00000000E+00
  0.00000000E+00  0.00000000E+00  0.00000000E+00
  0.00000000E+00  0.00000000E+00  0.00000000E+00
  0.00000000E+00  0.00000000E+00  0.00000000E+00
  0.00000000E+00  0.00000000E+00  0.00000000E+00
  0.00000000E+00  0.00000000E+00  0.00000000E+00
  0.00000000E+00  0.00000000E+00  0.00000000E+00
  0.00000000E+00  0.00000000E+00  0.00000000E+00
  0.00000000E+00  0.00000000E+00  0.00000000E+00
  0.00000000E+00  0.00000000E+00  0.00000000E+00
  0.00000000E+00  0.00000000E+00  0.00000000E+00
  0.00000000E+00  0.00000000E+00  0.00000000E+00
  0.00000000E+00  0.00000000E+00  0.00000000E+00
  0.00000000E+00  0.00000000E+00  0.00000000E+00
  0.00000000E+00  0.00000000E+00  0.00000000E+00
  0.00000000E+00  0.00000000E+00  0.00000000E+00
  0.00000000E+00  0.00000000E+00  0.00000000E+00
  0.00000000E+00  0.00000000E+00  0.00000000E+00
  0.00000000E+00  0.00000000E+00  0.00000000E+00
