Title                                   
   1.00000000000000     
     9.8694509999999998    0.0000000000000000    0.0000000000000000
     0.0000000000000000    8.5490480000000009    0.0000000000000000
     0.0000000000000000    0.0000000000000000   20.0000000000000000
    28     3     1
Selective dynamics
Direct
  0.0562510508282492  0.0920548402025076  0.0828135837293196   T   T   T
  0.9308447003575334  0.1747177164964689  0.0849593889291512   T   T   T
  0.0562443868691302  0.9247632900714627  0.0826778188942528   T   T   T
  0.9295946680975522  0.3412521158117810  0.0887570776487766   T   T   T
  0.0562265909305727  0.5894226738336285  0.0856538959590812   T   T   T
  0.9326439067320828  0.6740873703519150  0.0877506394180860   T   T   T
  0.0562199487497263  0.4231777548845214  0.0873401216422630   T   T   T
  0.9324134254346227  0.8404547481088220  0.0855200602046471   T   T   T
  0.3057910612297397  0.0892978473289198  0.0861345076396245   T   T   T
  0.1816474243600454  0.1747119970624044  0.0849348762750276   T   T   T
  0.3048604019974608  0.9238378340776711  0.0878713202525726   T   T   T
  0.1828490925914689  0.3412446075234956  0.0887372396364168   T   T   T
  0.3032747958325740  0.5927054373225171  0.0987872372705842   T   T   T
  0.1798177373954325  0.6740858994062016  0.0876963249006785   T   T   T
  0.3092303646929740  0.4245000238221536  0.0970186457557775   T   T   T
  0.1800654438769677  0.8404495034956433  0.0854824307332762   T   T   T
  0.5562496668064487  0.0834178433612556  0.0950813905465408   T   T   T
  0.4313603151704055  0.1688400611313941  0.0924396400620815   T   T   T
  0.5562412733934464  0.9174399340980121  0.0997229599405045   T   T   T
  0.4325221190862991  0.3327334464542971  0.1008193255317072   T   T   T
  0.4263050139739649  0.8394589555021855  0.0997302383015420   T   T   T
  0.8067077531090860  0.0893006526502321  0.0861684352101566   T   T   T
  0.6811496923617805  0.1688456237283407  0.0924597644246411   T   T   T
  0.8076293577769920  0.9238419359935032  0.0879227439807235   T   T   T
  0.6799475672540547  0.3327388526396366  0.1008413264605961   T   T   T
  0.8092144217806999  0.5927036633477890  0.0988773788080873   T   T   T
  0.8032256178904438  0.4245038160615976  0.0970613110631852   T   T   T
  0.6861910440551630  0.8394603275557446  0.0997788933093863   T   T   T
  0.4152357374316339  0.6832690912789962  0.1143381174848892   T   T   T
  0.5562202629680227  0.4000030294047463  0.1166651664892579   T   T   T
  0.6972627183798067  0.6832825570951715  0.1144104028023292   T   T   T
  0.5562014385856270  0.5896425498969928  0.1672227366948704   T   T   T
 
  0.00000000E+00  0.00000000E+00  0.00000000E+00
  0.00000000E+00  0.00000000E+00  0.00000000E+00
  0.00000000E+00  0.00000000E+00  0.00000000E+00
  0.00000000E+00  0.00000000E+00  0.00000000E+00
  0.00000000E+00  0.00000000E+00  0.00000000E+00
  0.00000000E+00  0.00000000E+00  0.00000000E+00
  0.00000000E+00  0.00000000E+00  0.00000000E+00
  0.00000000E+00  0.00000000E+00  0.00000000E+00
  0.00000000E+00  0.00000000E+00  0.00000000E+00
  0.00000000E+00  0.00000000E+00  0.00000000E+00
  0.00000000E+00  0.00000000E+00  0.00000000E+00
  0.00000000E+00  0.00000000E+00  0.00000000E+00
  0.00000000E+00  0.00000000E+00  0.00000000E+00
  0.00000000E+00  0.00000000E+00  0.00000000E+00
  0.00000000E+00  0.00000000E+00  0.00000000E+00
  0.00000000E+00  0.00000000E+00  0.00000000E+00
  0.00000000E+00  0.00000000E+00  0.00000000E+00
  0.00000000E+00  0.00000000E+00  0.00000000E+00
  0.00000000E+00  0.00000000E+00  0.00000000E+00
  0.00000000E+00  0.00000000E+00  0.00000000E+00
  0.00000000E+00  0.00000000E+00  0.00000000E+00
  0.00000000E+00  0.00000000E+00  0.00000000E+00
  0.00000000E+00  0.00000000E+00  0.00000000E+00
  0.00000000E+00  0.00000000E+00  0.00000000E+00
  0.00000000E+00  0.00000000E+00  0.00000000E+00
  0.00000000E+00  0.00000000E+00  0.00000000E+00
  0.00000000E+00  0.00000000E+00  0.00000000E+00
  0.00000000E+00  0.00000000E+00  0.00000000E+00
  0.00000000E+00  0.00000000E+00  0.00000000E+00
  0.00000000E+00  0.00000000E+00  0.00000000E+00
  0.00000000E+00  0.00000000E+00  0.00000000E+00
  0.00000000E+00  0.00000000E+00  0.00000000E+00
