Title                                   
   1.00000000000000     
     9.8694509999999998    0.0000000000000000    0.0000000000000000
     0.0000000000000000    8.5490480000000009    0.0000000000000000
     0.0000000000000000    0.0000000000000000   20.0000000000000000
    30     1     1
Selective dynamics
Direct
  0.0558251364176329  0.0900859533440018  0.0814515727549337   T   T   T
  0.9312121375200243  0.1730778517348002  0.0830139062213243   T   T   T
  0.0569871710977801  0.9233802470606802  0.0821071958475339   T   T   T
  0.9310812061724252  0.3401891622095623  0.0857119156999650   T   T   T
  0.0569751000261499  0.5897384486994276  0.0834616921320436   T   T   T
  0.9324146354609186  0.6723224733952472  0.0866700328894889   T   T   T
  0.0568483370364753  0.4228031784922318  0.0838031057590579   T   T   T
  0.9320992236376321  0.8394523370548871  0.0847935710128889   T   T   T
  0.3053992857062971  0.0882742879162522  0.0870929271096841   T   T   T
  0.1813510759304425  0.1721082578594144  0.0836639916907024   T   T   T
  0.1823984277453695  0.3391093550643407  0.0856806045323087   T   T   T
  0.3035613498101052  0.5895595806934858  0.0983393086215393   T   T   T
  0.1819996833024067  0.6736088973125136  0.0860074921708649   T   T   T
  0.3061342483223832  0.4222714220827923  0.0962727911982464   T   T   T
  0.1819750712121614  0.8405156816475650  0.0848703486993858   T   T   T
  0.5562899559537694  0.0875798086858494  0.0934297297710512   T   T   T
  0.4302046202028716  0.1698302812682551  0.0930922846009066   T   T   T
  0.5548328990762575  0.9222299814770891  0.0988334195544717   T   T   T
  0.4297769192712455  0.3347860231138290  0.1027176991300960   T   T   T
  0.4174581299967661  0.6813151001850306  0.1178209126416995   T   T   T
  0.5561088129260228  0.4067208864463967  0.1201596776763238   T   T   T
  0.4266228965413966  0.8422702642177567  0.1017460266630948   T   T   T
  0.8065837106981304  0.0891804645094943  0.0854772448321911   T   T   T
  0.6815660927835411  0.1710585608196592  0.0918039034945233   T   T   T
  0.8066957705541451  0.9232800415111043  0.0877392647896306   T   T   T
  0.6821164350447705  0.3355719956901055  0.1020032441408197   T   T   T
  0.8098764135599624  0.5896243021015447  0.0986829285504427   T   T   T
  0.6935030982460140  0.6794204427159831  0.1166284402710422   T   T   T
  0.8067613769631635  0.4222275078025273  0.0963005096575426   T   T   T
  0.6829505665665756  0.8407770371252283  0.1001717157041990   T   T   T
  0.3050901485608998  0.9244099955809467  0.0886482949487345   T   T   T
  0.5569390636562699  0.5934661721820078  0.1774792472332969   T   T   T
 
  0.00000000E+00  0.00000000E+00  0.00000000E+00
  0.00000000E+00  0.00000000E+00  0.00000000E+00
  0.00000000E+00  0.00000000E+00  0.00000000E+00
  0.00000000E+00  0.00000000E+00  0.00000000E+00
  0.00000000E+00  0.00000000E+00  0.00000000E+00
  0.00000000E+00  0.00000000E+00  0.00000000E+00
  0.00000000E+00  0.00000000E+00  0.00000000E+00
  0.00000000E+00  0.00000000E+00  0.00000000E+00
  0.00000000E+00  0.00000000E+00  0.00000000E+00
  0.00000000E+00  0.00000000E+00  0.00000000E+00
  0.00000000E+00  0.00000000E+00  0.00000000E+00
  0.00000000E+00  0.00000000E+00  0.00000000E+00
  0.00000000E+00  0.00000000E+00  0.00000000E+00
  0.00000000E+00  0.00000000E+00  0.00000000E+00
  0.00000000E+00  0.00000000E+00  0.00000000E+00
  0.00000000E+00  0.00000000E+00  0.00000000E+00
  0.00000000E+00  0.00000000E+00  0.00000000E+00
  0.00000000E+00  0.00000000E+00  0.00000000E+00
  0.00000000E+00  0.00000000E+00  0.00000000E+00
  0.00000000E+00  0.00000000E+00  0.00000000E+00
  0.00000000E+00  0.00000000E+00  0.00000000E+00
  0.00000000E+00  0.00000000E+00  0.00000000E+00
  0.00000000E+00  0.00000000E+00  0.00000000E+00
  0.00000000E+00  0.00000000E+00  0.00000000E+00
  0.00000000E+00  0.00000000E+00  0.00000000E+00
  0.00000000E+00  0.00000000E+00  0.00000000E+00
  0.00000000E+00  0.00000000E+00  0.00000000E+00
  0.00000000E+00  0.00000000E+00  0.00000000E+00
  0.00000000E+00  0.00000000E+00  0.00000000E+00
  0.00000000E+00  0.00000000E+00  0.00000000E+00
  0.00000000E+00  0.00000000E+00  0.00000000E+00
  0.00000000E+00  0.00000000E+00  0.00000000E+00
