Title                                   
   1.00000000000000     
     9.8694509999999998    0.0000000000000000    0.0000000000000000
     0.0000000000000000    8.5490480000000009    0.0000000000000000
     0.0000000000000000    0.0000000000000000   20.0000000000000000
    27     4     1
Selective dynamics
Direct
  0.0564703406993023  0.0918030337695920  0.0894686110062281   T   T   T
  0.9307068622784328  0.1754766704866215  0.0893221198596470   T   T   T
  0.0579844548266236  0.9242426869860485  0.0896794211607664   T   T   T
  0.9281581203554597  0.3431306562685856  0.0887702532912011   T   T   T
  0.0562729114177493  0.5902293492294010  0.0890893524957720   T   T   T
  0.9321155109473366  0.6742060839512815  0.0888365544874053   T   T   T
  0.0567305470467954  0.4236266022505870  0.0899847265280120   T   T   T
  0.9327177918302528  0.8414616162706853  0.0895925492109437   T   T   T
  0.3058975036120594  0.0868317637239596  0.0926955453065967   T   T   T
  0.1827811510374078  0.1741544169835327  0.0909198447855095   T   T   T
  0.3082846479915178  0.9213287036715010  0.0940461161910717   T   T   T
  0.1828223919173501  0.3401354343898411  0.0924563848692887   T   T   T
  0.3077966400134205  0.5886876491619532  0.1022741250372582   T   T   T
  0.1827568956805524  0.6711787739229842  0.0922624127049315   T   T   T
  0.1830720132204519  0.8379176376619809  0.0919833315405167   T   T   T
  0.5566194654259230  0.0842129320086787  0.0959169705382790   T   T   T
  0.4312408177214812  0.1672717346171769  0.0951461077920016   T   T   T
  0.4347293289660031  0.3340544181128478  0.0945564949293279   T   T   T
  0.4316757564438088  0.8361541840241264  0.1039427660139074   T   T   T
  0.8069499794519759  0.0908685727991723  0.0911199406644015   T   T   T
  0.6797332534436253  0.1702582312360898  0.0925421668105665   T   T   T
  0.8078905126669793  0.9257363894594733  0.0915365904977407   T   T   T
  0.6736322687566163  0.3372563573665515  0.0899976897061452   T   T   T
  0.8033347072363459  0.5964191149560525  0.0894222504406637   T   T   T
  0.8000074172283153  0.4269401198229312  0.0882930914840439   T   T   T
  0.6852175825006768  0.8378249029426792  0.0946676066882733   T   T   T
  0.4237813554751928  0.6761245830218831  0.1205945453742835   T   T   T
  0.5507904715000433  0.4129795891497036  0.0914994578520423   T   T   T
  0.6854384422241699  0.6820075794748731  0.0934478988192360   T   T   T
  0.5582845191659614  0.9186878095558861  0.0995624210525975   T   T   T
  0.3089165937140373  0.4215532605292497  0.0972557372642571   T   T   T
  0.5568287452041374  0.5874851421940727  0.1847919155971001   T   T   T
 
  0.00000000E+00  0.00000000E+00  0.00000000E+00
  0.00000000E+00  0.00000000E+00  0.00000000E+00
  0.00000000E+00  0.00000000E+00  0.00000000E+00
  0.00000000E+00  0.00000000E+00  0.00000000E+00
  0.00000000E+00  0.00000000E+00  0.00000000E+00
  0.00000000E+00  0.00000000E+00  0.00000000E+00
  0.00000000E+00  0.00000000E+00  0.00000000E+00
  0.00000000E+00  0.00000000E+00  0.00000000E+00
  0.00000000E+00  0.00000000E+00  0.00000000E+00
  0.00000000E+00  0.00000000E+00  0.00000000E+00
  0.00000000E+00  0.00000000E+00  0.00000000E+00
  0.00000000E+00  0.00000000E+00  0.00000000E+00
  0.00000000E+00  0.00000000E+00  0.00000000E+00
  0.00000000E+00  0.00000000E+00  0.00000000E+00
  0.00000000E+00  0.00000000E+00  0.00000000E+00
  0.00000000E+00  0.00000000E+00  0.00000000E+00
  0.00000000E+00  0.00000000E+00  0.00000000E+00
  0.00000000E+00  0.00000000E+00  0.00000000E+00
  0.00000000E+00  0.00000000E+00  0.00000000E+00
  0.00000000E+00  0.00000000E+00  0.00000000E+00
  0.00000000E+00  0.00000000E+00  0.00000000E+00
  0.00000000E+00  0.00000000E+00  0.00000000E+00
  0.00000000E+00  0.00000000E+00  0.00000000E+00
  0.00000000E+00  0.00000000E+00  0.00000000E+00
  0.00000000E+00  0.00000000E+00  0.00000000E+00
  0.00000000E+00  0.00000000E+00  0.00000000E+00
  0.00000000E+00  0.00000000E+00  0.00000000E+00
  0.00000000E+00  0.00000000E+00  0.00000000E+00
  0.00000000E+00  0.00000000E+00  0.00000000E+00
  0.00000000E+00  0.00000000E+00  0.00000000E+00
  0.00000000E+00  0.00000000E+00  0.00000000E+00
  0.00000000E+00  0.00000000E+00  0.00000000E+00
