Title                                   
   1.00000000000000     
     8.5490480000000009    0.0000000000000000    0.0000000000000000
     0.0000000000000000    8.5490480000000009    0.0000000000000000
     0.0000000000000000    0.0000000000000000   20.0000000000000000
    17     7     1
Selective dynamics
Direct
  0.9079910880626368  0.2051717020710795  0.0971261723115225   T   T   T
  0.9109064503578445  0.8006512969127393  0.0971306830051696   T   T   T
  0.1966914889969024  0.0830996513881019  0.0972220941575893   T   T   T
  0.0767918541048537  0.2008807386932734  0.0971947645938051   T   T   T
  0.1554568343922702  0.6520850598091553  0.0978615321905893   T   T   T
  0.0786503916169827  0.5011568276958636  0.0978494046214032   T   T   T
  0.1557274284108194  0.3496736906654541  0.0976817301395523   T   T   T
  0.0786644694249723  0.7998378717333731  0.0972749874513876   T   T   T
  0.3436362276850857  0.1631520179967116  0.0976900536711639   T   T   T
  0.4911557329819978  0.9168580022686685  0.0978243210142380   T   T   T
  0.3441662130082223  0.8400414251631992  0.0979341531614568   T   T   T
  0.7879958386171443  0.0869347644515704  0.0970989425744724   T   T   T
  0.6420780697446393  0.1671469922115653  0.0976748109158749   T   T   T
  0.7896118618678021  0.9178901096206503  0.0971059372447161   T   T   T
  0.8316245256514950  0.6512374920376139  0.0976532092064519   T   T   T
  0.8292807207217385  0.3528090487470232  0.0976880494049300   T   T   T
  0.6437173345259520  0.8380664321624697  0.0976414406059893   T   T   T
  0.4934687427307293  0.0903690493581983  0.0978277761841686   T   T   T
  0.9064335628483808  0.5022060223334039  0.0978546984806651   T   T   T
  0.3192166530159254  0.3235106218156610  0.0981171442818503   T   T   T
  0.3188679511415344  0.6788736238039731  0.0985726630466986   T   T   T
  0.6667956446933361  0.3294038528641858  0.0982005746961471   T   T   T
  0.6706853291495557  0.6745530986026669  0.0981289875805449   T   T   T
  0.1950012523806439  0.9158267202077539  0.0973368095103136   T   T   T
  0.4907963338685287  0.5033538873856435  0.1000140599492796   T   T   T
 
  0.00000000E+00  0.00000000E+00  0.00000000E+00
  0.00000000E+00  0.00000000E+00  0.00000000E+00
  0.00000000E+00  0.00000000E+00  0.00000000E+00
  0.00000000E+00  0.00000000E+00  0.00000000E+00
  0.00000000E+00  0.00000000E+00  0.00000000E+00
  0.00000000E+00  0.00000000E+00  0.00000000E+00
  0.00000000E+00  0.00000000E+00  0.00000000E+00
  0.00000000E+00  0.00000000E+00  0.00000000E+00
  0.00000000E+00  0.00000000E+00  0.00000000E+00
  0.00000000E+00  0.00000000E+00  0.00000000E+00
  0.00000000E+00  0.00000000E+00  0.00000000E+00
  0.00000000E+00  0.00000000E+00  0.00000000E+00
  0.00000000E+00  0.00000000E+00  0.00000000E+00
  0.00000000E+00  0.00000000E+00  0.00000000E+00
  0.00000000E+00  0.00000000E+00  0.00000000E+00
  0.00000000E+00  0.00000000E+00  0.00000000E+00
  0.00000000E+00  0.00000000E+00  0.00000000E+00
  0.00000000E+00  0.00000000E+00  0.00000000E+00
  0.00000000E+00  0.00000000E+00  0.00000000E+00
  0.00000000E+00  0.00000000E+00  0.00000000E+00
  0.00000000E+00  0.00000000E+00  0.00000000E+00
  0.00000000E+00  0.00000000E+00  0.00000000E+00
  0.00000000E+00  0.00000000E+00  0.00000000E+00
  0.00000000E+00  0.00000000E+00  0.00000000E+00
  0.00000000E+00  0.00000000E+00  0.00000000E+00
