Title                                   
   1.00000000000000     
     9.8694509999999998    0.0000000000000000    0.0000000000000000
     0.0000000000000000    8.5490480000000009    0.0000000000000000
     0.0000000000000000    0.0000000000000000   20.0000000000000000
    29     2     1
Selective dynamics
Direct
  0.0558426203731506  0.0907589768190193  0.0854005292499737   T   T   T
  0.9308274099887410  0.1742684940127991  0.0883267769489191   T   T   T
  0.0565126191164094  0.9231988950009222  0.0838803306277763   T   T   T
  0.9301221056842544  0.3405969509759859  0.0929439248945640   T   T   T
  0.0562054909142789  0.5898190500593647  0.0886135785366010   T   T   T
  0.9325982762433220  0.6732019361610884  0.0878663395670544   T   T   T
  0.0563793919980632  0.4230861089322589  0.0916319560651873   T   T   T
  0.9308441082978257  0.8403496531836926  0.0840204192175349   T   T   T
  0.3043563450238460  0.0874092255651328  0.0868256385879402   T   T   T
  0.1814047047610534  0.1738828743080429  0.0875258685438589   T   T   T
  0.3065068075616686  0.9221125607408351  0.0886139388115166   T   T   T
  0.1809610209686734  0.3401686826321891  0.0920462763748552   T   T   T
  0.3060399033499304  0.5899107192844759  0.1011598195414386   T   T   T
  0.1821005483841710  0.6710074727432049  0.0896733952303274   T   T   T
  0.1815738113328642  0.8380123033866087  0.0870607423122847   T   T   T
  0.5544650123173751  0.0881803724009544  0.0925445097322875   T   T   T
  0.4286263958230223  0.1697793052981875  0.0907124671371626   T   T   T
  0.4276835350851453  0.3351009479788508  0.0989311341252646   T   T   T
  0.4295594862767722  0.8385013467097039  0.0997437072929168   T   T   T
  0.8066073138195049  0.0907525234338883  0.0870047371619076   T   T   T
  0.6803019468744266  0.1699773230172770  0.0927422473063399   T   T   T
  0.8059889789536804  0.9259282895620814  0.0843984608022313   T   T   T
  0.6781205562253438  0.3353784306467084  0.1018322321110018   T   T   T
  0.8067012843880841  0.5926078426656827  0.0972465376376700   T   T   T
  0.8038798445809776  0.4238368190772879  0.0993175881943007   T   T   T
  0.6811440030854621  0.8442318949483643  0.0928364607452780   T   T   T
  0.4251091866558724  0.6771184097744704  0.1176189264588732   T   T   T
  0.5503358929947523  0.4084740851304322  0.1126420514966866   T   T   T
  0.6878552149269610  0.6844401191453026  0.1053714917081550   T   T   T
  0.5548565287978686  0.9227753154929075  0.0956501975827986   T   T   T
  0.3053288919813724  0.4223726069672248  0.0986814096290952   T   T   T
  0.5807997632151324  0.5830064639450567  0.1828113063682149   T   T   T
 
  0.00000000E+00  0.00000000E+00  0.00000000E+00
  0.00000000E+00  0.00000000E+00  0.00000000E+00
  0.00000000E+00  0.00000000E+00  0.00000000E+00
  0.00000000E+00  0.00000000E+00  0.00000000E+00
  0.00000000E+00  0.00000000E+00  0.00000000E+00
  0.00000000E+00  0.00000000E+00  0.00000000E+00
  0.00000000E+00  0.00000000E+00  0.00000000E+00
  0.00000000E+00  0.00000000E+00  0.00000000E+00
  0.00000000E+00  0.00000000E+00  0.00000000E+00
  0.00000000E+00  0.00000000E+00  0.00000000E+00
  0.00000000E+00  0.00000000E+00  0.00000000E+00
  0.00000000E+00  0.00000000E+00  0.00000000E+00
  0.00000000E+00  0.00000000E+00  0.00000000E+00
  0.00000000E+00  0.00000000E+00  0.00000000E+00
  0.00000000E+00  0.00000000E+00  0.00000000E+00
  0.00000000E+00  0.00000000E+00  0.00000000E+00
  0.00000000E+00  0.00000000E+00  0.00000000E+00
  0.00000000E+00  0.00000000E+00  0.00000000E+00
  0.00000000E+00  0.00000000E+00  0.00000000E+00
  0.00000000E+00  0.00000000E+00  0.00000000E+00
  0.00000000E+00  0.00000000E+00  0.00000000E+00
  0.00000000E+00  0.00000000E+00  0.00000000E+00
  0.00000000E+00  0.00000000E+00  0.00000000E+00
  0.00000000E+00  0.00000000E+00  0.00000000E+00
  0.00000000E+00  0.00000000E+00  0.00000000E+00
  0.00000000E+00  0.00000000E+00  0.00000000E+00
  0.00000000E+00  0.00000000E+00  0.00000000E+00
  0.00000000E+00  0.00000000E+00  0.00000000E+00
  0.00000000E+00  0.00000000E+00  0.00000000E+00
  0.00000000E+00  0.00000000E+00  0.00000000E+00
  0.00000000E+00  0.00000000E+00  0.00000000E+00
  0.00000000E+00  0.00000000E+00  0.00000000E+00
