Title                                   
   1.00000000000000     
     9.8694509999999998    0.0000000000000000    0.0000000000000000
     0.0000000000000000    8.5490480000000009    0.0000000000000000
     0.0000000000000000    0.0000000000000000   20.0000000000000000
    26     5     1
Selective dynamics
Direct
  0.0565233143848293  0.0925125458733369  0.0856691792232881   T   T   T
  0.9307275133713446  0.1750278970881056  0.0885031889954953   T   T   T
  0.0567423335207852  0.9241881128127130  0.0851201650442557   T   T   T
  0.9294803583037703  0.3418414378832829  0.0926045458683937   T   T   T
  0.0559749164379285  0.5897436251363825  0.0883934078032340   T   T   T
  0.9320561084428953  0.6734054541846571  0.0902360316787231   T   T   T
  0.0570870768784056  0.4232275518349015  0.0908139107573658   T   T   T
  0.9318107365072457  0.8410551850453956  0.0873195712564531   T   T   T
  0.3057542643972315  0.0886523058884613  0.0855185163663518   T   T   T
  0.1826568934206703  0.1751509801811806  0.0867374063081344   T   T   T
  0.3067839398742594  0.9230976307037002  0.0868296640999956   T   T   T
  0.1827420565901599  0.3412258987768494  0.0905065747375074   T   T   T
  0.3064045457183411  0.5919110525454971  0.0951536678451167   T   T   T
  0.1811528552913952  0.6714795281212277  0.0880097264943631   T   T   T
  0.1815945659299471  0.8390052209363642  0.0863434646248365   T   T   T
  0.5554334000416191  0.0845337552332068  0.0952281808956518   T   T   T
  0.4311004318065523  0.1690954568681459  0.0912238141061402   T   T   T
  0.4325313011564105  0.3338263132854394  0.0983647584872342   T   T   T
  0.4282030945889655  0.8363427482333408  0.0949373688583358   T   T   T
  0.8066840346681565  0.0906322758492766  0.0881269956641601   T   T   T
  0.6802287437270766  0.1689043496678754  0.0950501142832402   T   T   T
  0.8063314715461370  0.9246883732036839  0.0875609950069541   T   T   T
  0.6777499171409391  0.3335455519041916  0.1036481790480954   T   T   T
  0.8073805795568454  0.5942851477656750  0.1003320184947500   T   T   T
  0.8014159707744938  0.4251156758682453  0.0998033875289963   T   T   T
  0.6843218734668708  0.8397540076158365  0.0956982240225055   T   T   T
  0.4220751469294374  0.6781408525916889  0.1064970097983804   T   T   T
  0.5518456087974962  0.4033907471847013  0.1187918587923131   T   T   T
  0.6922065109598959  0.6848541666672510  0.1128243979010135   T   T   T
  0.5559270025300224  0.9162675024552588  0.0957311028713339   T   T   T
  0.3107465387402870  0.4242390933942868  0.0946309574543457   T   T   T
  0.5579658944995922  0.5911055551998432  0.1794666156830512   T   T   T
 
  0.00000000E+00  0.00000000E+00  0.00000000E+00
  0.00000000E+00  0.00000000E+00  0.00000000E+00
  0.00000000E+00  0.00000000E+00  0.00000000E+00
  0.00000000E+00  0.00000000E+00  0.00000000E+00
  0.00000000E+00  0.00000000E+00  0.00000000E+00
  0.00000000E+00  0.00000000E+00  0.00000000E+00
  0.00000000E+00  0.00000000E+00  0.00000000E+00
  0.00000000E+00  0.00000000E+00  0.00000000E+00
  0.00000000E+00  0.00000000E+00  0.00000000E+00
  0.00000000E+00  0.00000000E+00  0.00000000E+00
  0.00000000E+00  0.00000000E+00  0.00000000E+00
  0.00000000E+00  0.00000000E+00  0.00000000E+00
  0.00000000E+00  0.00000000E+00  0.00000000E+00
  0.00000000E+00  0.00000000E+00  0.00000000E+00
  0.00000000E+00  0.00000000E+00  0.00000000E+00
  0.00000000E+00  0.00000000E+00  0.00000000E+00
  0.00000000E+00  0.00000000E+00  0.00000000E+00
  0.00000000E+00  0.00000000E+00  0.00000000E+00
  0.00000000E+00  0.00000000E+00  0.00000000E+00
  0.00000000E+00  0.00000000E+00  0.00000000E+00
  0.00000000E+00  0.00000000E+00  0.00000000E+00
  0.00000000E+00  0.00000000E+00  0.00000000E+00
  0.00000000E+00  0.00000000E+00  0.00000000E+00
  0.00000000E+00  0.00000000E+00  0.00000000E+00
  0.00000000E+00  0.00000000E+00  0.00000000E+00
  0.00000000E+00  0.00000000E+00  0.00000000E+00
  0.00000000E+00  0.00000000E+00  0.00000000E+00
  0.00000000E+00  0.00000000E+00  0.00000000E+00
  0.00000000E+00  0.00000000E+00  0.00000000E+00
  0.00000000E+00  0.00000000E+00  0.00000000E+00
  0.00000000E+00  0.00000000E+00  0.00000000E+00
  0.00000000E+00  0.00000000E+00  0.00000000E+00
