Title                                   
   1.00000000000000     
     4.9440799999999996    0.0000000000000000    0.0000000000000000
     0.0000000000000000    8.5647549999999999    0.0000000000000000
     0.0000000000000000    0.0000000000000000   20.0000000000000000
    15     1
Selective dynamics
Direct
  0.2500000000000000  0.2066588954697584  0.0864612056042680   T   T   T
 -0.0025211735589414  0.2895773307265345  0.0911449772664148   T   T   T
  0.2500000000000000  0.0417168466102322  0.0823925150387952   T   T   T
  0.0000990347042253  0.7961917411955831  0.1002384146784249   T   T   T
 -0.0011126515932183  0.9584473752771523  0.0841418664186967   T   T   T
  0.7500000000000000  0.2060348246962559  0.0823346225742848   T   T   T
  0.5025211735589414  0.2895773307265345  0.0911449772664148   T   T   T
  0.7500000000000000  0.0405110850545310  0.0792724639756069   T   T   T
  0.7500000000000000  0.7111777614524658  0.1062263683154415   T   T   T
  0.4999009652957745  0.7961917411955831  0.1002384146784249   T   T   T
  0.7500000000000000  0.5413967057335799  0.1089643697527678   T   T   T
  0.5011126515932186  0.9584473752771523  0.0841418664186967   T   T   T
  0.5092878810539112  0.4482356595785650  0.1094165834692195   T   T   T
 -0.0092878810539110  0.4482356595785650  0.1094165834692195   T   T   T
  0.2500000000000000  0.7249878800302119  0.1155792426389620   T   T   T
  0.2500000000000000  0.5426117873972959  0.1913975284343696   T   T   T
 
  0.00000000E+00  0.00000000E+00  0.00000000E+00
  0.00000000E+00  0.00000000E+00  0.00000000E+00
  0.00000000E+00  0.00000000E+00  0.00000000E+00
  0.00000000E+00  0.00000000E+00  0.00000000E+00
  0.00000000E+00  0.00000000E+00  0.00000000E+00
  0.00000000E+00  0.00000000E+00  0.00000000E+00
  0.00000000E+00  0.00000000E+00  0.00000000E+00
  0.00000000E+00  0.00000000E+00  0.00000000E+00
  0.00000000E+00  0.00000000E+00  0.00000000E+00
  0.00000000E+00  0.00000000E+00  0.00000000E+00
  0.00000000E+00  0.00000000E+00  0.00000000E+00
  0.00000000E+00  0.00000000E+00  0.00000000E+00
  0.00000000E+00  0.00000000E+00  0.00000000E+00
  0.00000000E+00  0.00000000E+00  0.00000000E+00
  0.00000000E+00  0.00000000E+00  0.00000000E+00
  0.00000000E+00  0.00000000E+00  0.00000000E+00
