Title                                   
   1.00000000000000     
     4.9440799999999996    0.0000000000000000    0.0000000000000000
     0.0000000000000000    8.5647549999999999    0.0000000000000000
     0.0000000000000000    0.0000000000000000   20.0000000000000000
    13     1     1
Selective dynamics
Direct
  0.2509680315502026  0.2063607113493398  0.0984791431938505   T   T   T
  0.0005795638934073  0.2946283157472131  0.0993115590832358   T   T   T
  0.2527738855856826  0.0396158207616289  0.0985390515626399   T   T   T
  0.0027073956737127  0.9541601056402467  0.0982715914899119   T   T   T
  0.7507114208981005  0.2089609726244297  0.0980242068940740   T   T   T
  0.4995239124739095  0.2932194397186122  0.0982569860098659   T   T   T
  0.7528940184993355  0.0398614671619618  0.0978463270694035   T   T   T
  0.7464614432586067  0.7135231833071792  0.0997458911065950   T   T   T
  0.7435909637507711  0.5411877798921356  0.0998900294612681   T   T   T
  0.5047553692145438  0.9536742457010181  0.0990653198857444   T   T   T
  0.4984876784992368  0.4592676838228230  0.0996768125927997   T   T   T
 -0.0041866563269278  0.4618417684944364  0.1024769149910028   T   T   T
 -0.0051636546404928  0.7885687490976603  0.0995397593509776   T   T   T
  0.5075719627120071  0.7921527569265640  0.1013426434254168   T   T   T
  0.2483246649579041  0.6246579997547528  0.1175137638832176   T   T   T
 
  0.00000000E+00  0.00000000E+00  0.00000000E+00
  0.00000000E+00  0.00000000E+00  0.00000000E+00
  0.00000000E+00  0.00000000E+00  0.00000000E+00
  0.00000000E+00  0.00000000E+00  0.00000000E+00
  0.00000000E+00  0.00000000E+00  0.00000000E+00
  0.00000000E+00  0.00000000E+00  0.00000000E+00
  0.00000000E+00  0.00000000E+00  0.00000000E+00
  0.00000000E+00  0.00000000E+00  0.00000000E+00
  0.00000000E+00  0.00000000E+00  0.00000000E+00
  0.00000000E+00  0.00000000E+00  0.00000000E+00
  0.00000000E+00  0.00000000E+00  0.00000000E+00
  0.00000000E+00  0.00000000E+00  0.00000000E+00
  0.00000000E+00  0.00000000E+00  0.00000000E+00
  0.00000000E+00  0.00000000E+00  0.00000000E+00
  0.00000000E+00  0.00000000E+00  0.00000000E+00
