Title                                   
   1.00000000000000     
     9.8694509999999998    0.0000000000000000    0.0000000000000000
     0.0000000000000000    8.5490480000000009    0.0000000000000000
     0.0000000000000000    0.0000000000000000   20.0000000000000000
    31     1
Selective dynamics
Direct
  0.0562555029433101  0.0892246556113862  0.0866584369705525   T   T   T
  0.9314242483438246  0.1723436011796566  0.0879676210032604   T   T   T
  0.0562345846716724  0.9227731043801576  0.0870667767425392   T   T   T
  0.9312052777110863  0.3392951745744037  0.0893770713157574   T   T   T
  0.0562244442414919  0.5886716102387655  0.0879934896817431   T   T   T
  0.9318880339454331  0.6727408001623921  0.0900210008370584   T   T   T
  0.0562207694897204  0.4224815023563279  0.0880350515380500   T   T   T
  0.9314174040382007  0.8393710670549995  0.0891883055603442   T   T   T
  0.3056927089030527  0.0896001663659045  0.0900513835219664   T   T   T
  0.1810857279172386  0.1723178441513623  0.0879210413990999   T   T   T
  0.3054358781290179  0.9231571819186568  0.0912943761676551   T   T   T
  0.1812405540047870  0.3392726436381829  0.0893261994774353   T   T   T
  0.3049214401025210  0.5887293616788880  0.0967652895678664   T   T   T
  0.1805680718811257  0.6727420999160302  0.0898808625304509   T   T   T
  0.3049207730322409  0.4216147564899890  0.0951991972901669   T   T   T
  0.1810650372062694  0.8393631485236533  0.0890456976862676   T   T   T
  0.5562508504595941  0.0890649001465993  0.0949213749783584   T   T   T
  0.4307579320510236  0.1718665886862563  0.0940144018516809   T   T   T
  0.5562510901374789  0.9240844043100674  0.0969045045615910   T   T   T
  0.4300219003952436  0.3380660727495491  0.0994071387756116   T   T   T
  0.4224668990887844  0.6783728162281263  0.1070056642586397   T   T   T
  0.5562211555041148  0.4101401833118822  0.1107626761448280   T   T   T
  0.4308036283406693  0.8409340645235078  0.0980409882116490   T   T   T
  0.8068274009518533  0.0896281888394823  0.0901227130390738   T   T   T
  0.6817425956558929  0.1718683595609616  0.0940423617272841   T   T   T
  0.8070679638824017  0.9232026981494161  0.0914508570612367   T   T   T
  0.6824248564430476  0.3380613596802894  0.0994343588877722   T   T   T
  0.8075611203121336  0.5887171073513923  0.0969623391623456   T   T   T
  0.6901365036601058  0.6784774353500379  0.1073335490468534   T   T   T
  0.8075082509550836  0.4216256790859638  0.0952979905874869   T   T   T
  0.6817130647793949  0.8409852980261837  0.0982234556511801   T   T   T
  0.5560833308221916  0.5914521257595359  0.1559588247642289   T   T   T
 
  0.00000000E+00  0.00000000E+00  0.00000000E+00
  0.00000000E+00  0.00000000E+00  0.00000000E+00
  0.00000000E+00  0.00000000E+00  0.00000000E+00
  0.00000000E+00  0.00000000E+00  0.00000000E+00
  0.00000000E+00  0.00000000E+00  0.00000000E+00
  0.00000000E+00  0.00000000E+00  0.00000000E+00
  0.00000000E+00  0.00000000E+00  0.00000000E+00
  0.00000000E+00  0.00000000E+00  0.00000000E+00
  0.00000000E+00  0.00000000E+00  0.00000000E+00
  0.00000000E+00  0.00000000E+00  0.00000000E+00
  0.00000000E+00  0.00000000E+00  0.00000000E+00
  0.00000000E+00  0.00000000E+00  0.00000000E+00
  0.00000000E+00  0.00000000E+00  0.00000000E+00
  0.00000000E+00  0.00000000E+00  0.00000000E+00
  0.00000000E+00  0.00000000E+00  0.00000000E+00
  0.00000000E+00  0.00000000E+00  0.00000000E+00
  0.00000000E+00  0.00000000E+00  0.00000000E+00
  0.00000000E+00  0.00000000E+00  0.00000000E+00
  0.00000000E+00  0.00000000E+00  0.00000000E+00
  0.00000000E+00  0.00000000E+00  0.00000000E+00
  0.00000000E+00  0.00000000E+00  0.00000000E+00
  0.00000000E+00  0.00000000E+00  0.00000000E+00
  0.00000000E+00  0.00000000E+00  0.00000000E+00
  0.00000000E+00  0.00000000E+00  0.00000000E+00
  0.00000000E+00  0.00000000E+00  0.00000000E+00
  0.00000000E+00  0.00000000E+00  0.00000000E+00
  0.00000000E+00  0.00000000E+00  0.00000000E+00
  0.00000000E+00  0.00000000E+00  0.00000000E+00
  0.00000000E+00  0.00000000E+00  0.00000000E+00
  0.00000000E+00  0.00000000E+00  0.00000000E+00
  0.00000000E+00  0.00000000E+00  0.00000000E+00
  0.00000000E+00  0.00000000E+00  0.00000000E+00
