Title                                   
   1.00000000000000     
     4.9440799999999996    0.0000000000000000    0.0000000000000000
     0.0000000000000000   17.1295089999999988    0.0000000000000000
     0.0000000000000000    0.0000000000000000   20.0000000000000000
    27     3     1
Selective dynamics
Direct
  0.0011920439643175  0.1048167750343882  0.2976574605484908   T   T   T
  0.2503456104101831  0.1476367373615527  0.2983299990062576   T   T   T
  0.2503186209350171  0.2317687912105789  0.2999684583171837   T   T   T
 -0.0039090939616500  0.2722296951597750  0.3009521301182797   T   T   T
 -0.0001677645329927  0.6037069075268446  0.3014700060660808   T   T   T
  0.2503221373590782  0.7271446698781349  0.2989354649067595   T   T   T
  0.0014263083817414  0.8534657904934443  0.2972016317181621   T   T   T
  0.2503471165061184  0.8955763937052449  0.2968006359411887   T   T   T
  0.2503572377677398  0.9791544441743402  0.2966026489900846   T   T   T
  0.0009437838011544  0.7696526551284980  0.2982936472858704   T   T   T
  0.4994959504972621  0.1048099422920210  0.2976207417453812   T   T   T
  0.7503402128588387  0.1458273532434406  0.2982597981634429   T   T   T
  0.7503489576858107  0.2291348239007095  0.2998985968267661   T   T   T
  0.4998762774696441  0.0210684324884334  0.2967797249113148   T   T   T
  0.7502688191788898  0.3912456312948436  0.3028848261657376   T   T   T
  0.7502883038586439  0.4814145955470454  0.3030907370447893   T   T   T
  0.5045416059539195  0.2722218597795913  0.3007121139116170   T   T   T
  0.5007636498948408  0.6037008974396803  0.3012864310796148   T   T   T
  0.7503304742519454  0.7289599678969805  0.2989512624922407   T   T   T
  0.4992654787256491  0.8534663520934210  0.2971802355214130   T   T   T
  0.7503539134691835  0.8951662272005688  0.2968008901079774   T   T   T
  0.7503710077123631  0.9791596324416777  0.2965820799659707   T   T   T
  0.4997217536764582  0.7696493574788402  0.2982573379401691   T   T   T
  0.7503036065005683  0.6460606849439734  0.3006087615986859   T   T   T
  0.0008466414039304  0.0210786723293408  0.2968000541883601   T   T   T
  0.5071489253118092  0.5217674284123288  0.3023582005067143   T   T   T
  0.9934021897181889  0.5217863943642325  0.3027805570875070   T   T   T
  0.5181036298198437  0.3519530459903489  0.3020739433706938   T   T   T
 -0.0175186125212587  0.3519430929314382  0.3027652260040342   T   T   T
  0.2503142540974129  0.6458798942613251  0.3004593069541882   T   T   T
  0.2502639598053508  0.4398948539969549  0.3026970915149760   T   T   T
 
  0.00000000E+00  0.00000000E+00  0.00000000E+00
  0.00000000E+00  0.00000000E+00  0.00000000E+00
  0.00000000E+00  0.00000000E+00  0.00000000E+00
  0.00000000E+00  0.00000000E+00  0.00000000E+00
  0.00000000E+00  0.00000000E+00  0.00000000E+00
  0.00000000E+00  0.00000000E+00  0.00000000E+00
  0.00000000E+00  0.00000000E+00  0.00000000E+00
  0.00000000E+00  0.00000000E+00  0.00000000E+00
  0.00000000E+00  0.00000000E+00  0.00000000E+00
  0.00000000E+00  0.00000000E+00  0.00000000E+00
  0.00000000E+00  0.00000000E+00  0.00000000E+00
  0.00000000E+00  0.00000000E+00  0.00000000E+00
  0.00000000E+00  0.00000000E+00  0.00000000E+00
  0.00000000E+00  0.00000000E+00  0.00000000E+00
  0.00000000E+00  0.00000000E+00  0.00000000E+00
  0.00000000E+00  0.00000000E+00  0.00000000E+00
  0.00000000E+00  0.00000000E+00  0.00000000E+00
  0.00000000E+00  0.00000000E+00  0.00000000E+00
  0.00000000E+00  0.00000000E+00  0.00000000E+00
  0.00000000E+00  0.00000000E+00  0.00000000E+00
  0.00000000E+00  0.00000000E+00  0.00000000E+00
  0.00000000E+00  0.00000000E+00  0.00000000E+00
  0.00000000E+00  0.00000000E+00  0.00000000E+00
  0.00000000E+00  0.00000000E+00  0.00000000E+00
  0.00000000E+00  0.00000000E+00  0.00000000E+00
  0.00000000E+00  0.00000000E+00  0.00000000E+00
  0.00000000E+00  0.00000000E+00  0.00000000E+00
  0.00000000E+00  0.00000000E+00  0.00000000E+00
  0.00000000E+00  0.00000000E+00  0.00000000E+00
  0.00000000E+00  0.00000000E+00  0.00000000E+00
  0.00000000E+00  0.00000000E+00  0.00000000E+00
