Title                                   
   1.00000000000000     
     4.9440799999999996    0.0000000000000000    0.0000000000000000
     0.0000000000000000    8.5647549999999999    0.0000000000000000
     0.0000000000000000    0.0000000000000000   20.0000000000000000
    14     1     1
Selective dynamics
Direct
  0.2500000000000000  0.2063183374937008  0.0899433007984462   T   T   T
 -0.0026541772968274  0.2880555258998402  0.0941534425706717   T   T   T
  0.2500000000000000  0.0419679379598062  0.0846831613179821   T   T   T
  0.0011791016487136  0.7971620615541037  0.0994837411425940   T   T   T
 -0.0007526414810714  0.9586743125032000  0.0853433455739450   T   T   T
  0.7500000000000000  0.2056856459946485  0.0846907577479991   T   T   T
  0.5026541772968277  0.2880555258998402  0.0941534425706717   T   T   T
  0.7500000000000000  0.0405140760973218  0.0809009177155934   T   T   T
  0.7500000000000000  0.7093528526433456  0.1058209090480812   T   T   T
  0.4988208983512862  0.7971620615541037  0.0994837411425940   T   T   T
  0.7500000000000000  0.5391744637319756  0.1107706047708321   T   T   T
  0.5007526414810717  0.9586743125032000  0.0853433455739450   T   T   T
  0.5088263604530848  0.4475172021093837  0.1116330129817471   T   T   T
 -0.0088263604530848  0.4475172021093837  0.1116330129817471   T   T   T
  0.2500000000000000  0.7284278740233254  0.1128640112549254   T   T   T
  0.2500000000000000  0.5457406079228212  0.1716112528082324   T   T   T
 
  0.00000000E+00  0.00000000E+00  0.00000000E+00
  0.00000000E+00  0.00000000E+00  0.00000000E+00
  0.00000000E+00  0.00000000E+00  0.00000000E+00
  0.00000000E+00  0.00000000E+00  0.00000000E+00
  0.00000000E+00  0.00000000E+00  0.00000000E+00
  0.00000000E+00  0.00000000E+00  0.00000000E+00
  0.00000000E+00  0.00000000E+00  0.00000000E+00
  0.00000000E+00  0.00000000E+00  0.00000000E+00
  0.00000000E+00  0.00000000E+00  0.00000000E+00
  0.00000000E+00  0.00000000E+00  0.00000000E+00
  0.00000000E+00  0.00000000E+00  0.00000000E+00
  0.00000000E+00  0.00000000E+00  0.00000000E+00
  0.00000000E+00  0.00000000E+00  0.00000000E+00
  0.00000000E+00  0.00000000E+00  0.00000000E+00
  0.00000000E+00  0.00000000E+00  0.00000000E+00
  0.00000000E+00  0.00000000E+00  0.00000000E+00
