Title                                   
   1.00000000000000     
     4.9440799999999996    0.0000000000000000    0.0000000000000000
     0.0000000000000000   17.1295089999999988    0.0000000000000000
     0.0000000000000000    0.0000000000000000   20.0000000000000000
    25     5     1
Selective dynamics
Direct
  0.0008052816411965  0.1067771009115755  0.2982357088622156   T   T   T
  0.2503170000224284  0.1499303932082908  0.2989043722431921   T   T   T
  0.2502918284389572  0.2349509387710913  0.3002096055122803   T   T   T
 -0.0012894339829545  0.2768278029093713  0.3007910745292962   T   T   T
 -0.0008592218084547  0.5983320516119413  0.3009404728207211   T   T   T
  0.2503322309404617  0.7248608192451627  0.2991536421057882   T   T   T
  0.0016866871037128  0.8520028998058871  0.2974259625822619   T   T   T
  0.2503856083827412  0.8948119292488946  0.2971048194959595   T   T   T
  0.2503660756044272  0.9795472650440419  0.2970247420047890   T   T   T
  0.0022063066315895  0.7671526433665142  0.2985086008448416   T   T   T
  0.4998536883911798  0.1067748094552470  0.2982334911821868   T   T   T
  0.7503245152334109  0.1491916053286227  0.2988603930673848   T   T   T
  0.7502845075003715  0.2334660703534451  0.3000950705705379   T   T   T
  0.5000337920167617  0.0221158380857440  0.2972902989684103   T   T   T
  0.7502849708919737  0.3963455501086059  0.3019820947765320   T   T   T
  0.7503026461232376  0.4801551654168630  0.3020782119418617   T   T   T
  0.5018675918807582  0.2768211580184496  0.3007111612473228   T   T   T
  0.5014645232383459  0.5983409294638471  0.3008545538471856   T   T   T
  0.7503549509623072  0.7253497696936989  0.2991396125182284   T   T   T
  0.4990660114070348  0.8519943186281963  0.2974261817352506   T   T   T
  0.7503557136244593  0.8945268188073682  0.2971250051792392   T   T   T
  0.7503427990865011  0.9791725382107405  0.2970685479293571   T   T   T
  0.4985074126563939  0.7671479200942007  0.2985055484217906   T   T   T
  0.7503120057894922  0.6424774451830687  0.3003163169184765   T   T   T
  0.0006536792494890  0.0221134329234616  0.2972893024320442   T   T   T
  0.5069586563863001  0.5189283810123678  0.3017357977707644   T   T   T
 -0.0063644070340973  0.5189248639725428  0.3019817768936692   T   T   T
  0.5085419891640888  0.3577667336322079  0.3016407188330320   T   T   T
 -0.0079683662415881  0.3577704286648092  0.3018966282966976   T   T   T
  0.2502984436107021  0.6396129428908597  0.3003480675017775   T   T   T
  0.2502895130887762  0.4371514359328785  0.3021822189668572   T   T   T
 
  0.00000000E+00  0.00000000E+00  0.00000000E+00
  0.00000000E+00  0.00000000E+00  0.00000000E+00
  0.00000000E+00  0.00000000E+00  0.00000000E+00
  0.00000000E+00  0.00000000E+00  0.00000000E+00
  0.00000000E+00  0.00000000E+00  0.00000000E+00
  0.00000000E+00  0.00000000E+00  0.00000000E+00
  0.00000000E+00  0.00000000E+00  0.00000000E+00
  0.00000000E+00  0.00000000E+00  0.00000000E+00
  0.00000000E+00  0.00000000E+00  0.00000000E+00
  0.00000000E+00  0.00000000E+00  0.00000000E+00
  0.00000000E+00  0.00000000E+00  0.00000000E+00
  0.00000000E+00  0.00000000E+00  0.00000000E+00
  0.00000000E+00  0.00000000E+00  0.00000000E+00
  0.00000000E+00  0.00000000E+00  0.00000000E+00
  0.00000000E+00  0.00000000E+00  0.00000000E+00
  0.00000000E+00  0.00000000E+00  0.00000000E+00
  0.00000000E+00  0.00000000E+00  0.00000000E+00
  0.00000000E+00  0.00000000E+00  0.00000000E+00
  0.00000000E+00  0.00000000E+00  0.00000000E+00
  0.00000000E+00  0.00000000E+00  0.00000000E+00
  0.00000000E+00  0.00000000E+00  0.00000000E+00
  0.00000000E+00  0.00000000E+00  0.00000000E+00
  0.00000000E+00  0.00000000E+00  0.00000000E+00
  0.00000000E+00  0.00000000E+00  0.00000000E+00
  0.00000000E+00  0.00000000E+00  0.00000000E+00
  0.00000000E+00  0.00000000E+00  0.00000000E+00
  0.00000000E+00  0.00000000E+00  0.00000000E+00
  0.00000000E+00  0.00000000E+00  0.00000000E+00
  0.00000000E+00  0.00000000E+00  0.00000000E+00
  0.00000000E+00  0.00000000E+00  0.00000000E+00
  0.00000000E+00  0.00000000E+00  0.00000000E+00
