Title                                   
   1.00000000000000     
     8.5490480000000009    0.0000000000000000    0.0000000000000000
     0.0000000000000000    8.5490480000000009    0.0000000000000000
     0.0000000000000000    0.0000000000000000   20.0000000000000000
    23     1     1
Selective dynamics
Direct
  0.9110358729459338  0.2073930858657169  0.0954360812948810   T   T   T
  0.9054040612352858  0.5024465728038935  0.0952980101793404   T   T   T
  0.9107596082466486  0.7994514508715757  0.0954458131815805   T   T   T
  0.1983298074801885  0.0838733085392819  0.0954596593575576   T   T   T
  0.0750913694586338  0.2070800565539202  0.0954343638000177   T   T   T
  0.1986375126222622  0.9198271375813265  0.0954750827995012   T   T   T
  0.1552889278009850  0.6488522504895623  0.0953625845425446   T   T   T
  0.0746093519555084  0.5027918220926887  0.0953222142997722   T   T   T
  0.1570755291956300  0.3565167571781984  0.0953429836335091   T   T   T
  0.0755948378170702  0.7973566490565687  0.0954583444789134   T   T   T
  0.4939673918565279  0.0833837102341004  0.0953573593487572   T   T   T
  0.3477224257452817  0.1658774972092140  0.0953751127889415   T   T   T
  0.4936529347812000  0.9141737944802562  0.0953488122537005   T   T   T
  0.3472870560800935  0.8355190627633250  0.0953915131523796   T   T   T
  0.7885444706447645  0.0843525673515107  0.0954512462765451   T   T   T
  0.6400180162581194  0.1640604786913083  0.0953444241971898   T   T   T
  0.7906828928861490  0.9195171072409291  0.0954535185536542   T   T   T
  0.8270176178317169  0.6515926332207410  0.0952886409068162   T   T   T
  0.8267373601712115  0.3560629329900826  0.0953240868065741   T   T   T
  0.6428022082647101  0.8357477452845613  0.0953030111740723   T   T   T
  0.3250652668393824  0.3338376700122558  0.0952689506366311   T   T   T
  0.3229235239787683  0.6686769823605112  0.0952938414153835   T   T   T
  0.6598736555080785  0.3316710261043446  0.0952331443849552   T   T   T
  0.6672491900493309  0.6759882824028571  0.0951456365048691   T   T   T
  0.4900411103465106  0.4987394186212842  0.0950905640318909   T   T   T
 
  0.00000000E+00  0.00000000E+00  0.00000000E+00
  0.00000000E+00  0.00000000E+00  0.00000000E+00
  0.00000000E+00  0.00000000E+00  0.00000000E+00
  0.00000000E+00  0.00000000E+00  0.00000000E+00
  0.00000000E+00  0.00000000E+00  0.00000000E+00
  0.00000000E+00  0.00000000E+00  0.00000000E+00
  0.00000000E+00  0.00000000E+00  0.00000000E+00
  0.00000000E+00  0.00000000E+00  0.00000000E+00
  0.00000000E+00  0.00000000E+00  0.00000000E+00
  0.00000000E+00  0.00000000E+00  0.00000000E+00
  0.00000000E+00  0.00000000E+00  0.00000000E+00
  0.00000000E+00  0.00000000E+00  0.00000000E+00
  0.00000000E+00  0.00000000E+00  0.00000000E+00
  0.00000000E+00  0.00000000E+00  0.00000000E+00
  0.00000000E+00  0.00000000E+00  0.00000000E+00
  0.00000000E+00  0.00000000E+00  0.00000000E+00
  0.00000000E+00  0.00000000E+00  0.00000000E+00
  0.00000000E+00  0.00000000E+00  0.00000000E+00
  0.00000000E+00  0.00000000E+00  0.00000000E+00
  0.00000000E+00  0.00000000E+00  0.00000000E+00
  0.00000000E+00  0.00000000E+00  0.00000000E+00
  0.00000000E+00  0.00000000E+00  0.00000000E+00
  0.00000000E+00  0.00000000E+00  0.00000000E+00
  0.00000000E+00  0.00000000E+00  0.00000000E+00
  0.00000000E+00  0.00000000E+00  0.00000000E+00
