Title                                   
   1.00000000000000     
     4.9440799999999996    0.0000000000000000    0.0000000000000000
     0.0000000000000000    8.5647549999999999    0.0000000000000000
     0.0000000000000000    0.0000000000000000   20.0000000000000000
    15     1
Selective dynamics
Direct
  0.2500000000000000  0.2070870028345503  0.0940938776365862   T   T   T
 -0.0013287554807876  0.2894446707690115  0.0973089087124576   T   T   T
  0.2500000000000000  0.0420873280931319  0.0899401115540951   T   T   T
 -0.0013117084656304  0.7937278785242494  0.0981668070645532   T   T   T
 -0.0006588470503486  0.9592630826753871  0.0901264580538057   T   T   T
  0.7500000000000000  0.2069653170320312  0.0911360300489069   T   T   T
  0.5013287554807876  0.2894446707690115  0.0973089087124576   T   T   T
  0.7500000000000000  0.0412957480056712  0.0878921012715701   T   T   T
  0.7500000000000000  0.7100030714745165  0.1011417541706952   T   T   T
  0.5013117084656307  0.7937278785242494  0.0981668070645532   T   T   T
  0.7500000000000000  0.5422160470601152  0.1050792689071790   T   T   T
  0.5006588470503488  0.9592630826753871  0.0901264580538057   T   T   T
  0.5119057194646960  0.4518325676799683  0.1093670492873924   T   T   T
 -0.0119057194646959  0.4518325676799683  0.1093670492873924   T   T   T
  0.2500000000000000  0.7195643660106767  0.1086383350520957   T   T   T
  0.2500000000000000  0.5422447201920754  0.1546520751224619   T   T   T
 
  0.00000000E+00  0.00000000E+00  0.00000000E+00
  0.00000000E+00  0.00000000E+00  0.00000000E+00
  0.00000000E+00  0.00000000E+00  0.00000000E+00
  0.00000000E+00  0.00000000E+00  0.00000000E+00
  0.00000000E+00  0.00000000E+00  0.00000000E+00
  0.00000000E+00  0.00000000E+00  0.00000000E+00
  0.00000000E+00  0.00000000E+00  0.00000000E+00
  0.00000000E+00  0.00000000E+00  0.00000000E+00
  0.00000000E+00  0.00000000E+00  0.00000000E+00
  0.00000000E+00  0.00000000E+00  0.00000000E+00
  0.00000000E+00  0.00000000E+00  0.00000000E+00
  0.00000000E+00  0.00000000E+00  0.00000000E+00
  0.00000000E+00  0.00000000E+00  0.00000000E+00
  0.00000000E+00  0.00000000E+00  0.00000000E+00
  0.00000000E+00  0.00000000E+00  0.00000000E+00
  0.00000000E+00  0.00000000E+00  0.00000000E+00
