Title                                   
   1.00000000000000     
     4.9440799999999996    0.0000000000000000    0.0000000000000000
     0.0000000000000000   17.1295089999999988    0.0000000000000000
     0.0000000000000000    0.0000000000000000   20.0000000000000000
    30     1
Selective dynamics
Direct
  0.0000022428558264  0.1048714286202709  0.2936727000854767   T   T   T
  0.2503533436860861  0.1467716595743287  0.2949535329618106   T   T   T
  0.2502880164965852  0.2298482656906098  0.2990419601683424   T   T   T
  0.0022152376664896  0.2724579323597981  0.3011545375908960   T   T   T
  0.0021284940864326  0.6024791974496011  0.3014755783728510   T   T   T
  0.2502748319319581  0.7281539253040986  0.2953047037605223   T   T   T
  0.0001835336646704  0.8536954335717992  0.2929259362882718   T   T   T
  0.2504306460886763  0.8956881336812056  0.2926792035730840   T   T   T
  0.2504605375976052  0.9792550548547457  0.2925411444936045   T   T   T
 -0.0000550350146918  0.7700560187423063  0.2940189394416606   T   T   T
  0.5007290256518482  0.1048692689963351  0.2936841995786188   T   T   T
  0.7503502449445142  0.1469176161598127  0.2945030655296029   T   T   T
  0.7503006730541915  0.2307914498071415  0.2979694767334448   T   T   T
  0.5006834240359077  0.0212421281988060  0.2926815989964127   T   T   T
  0.7502732402492460  0.3947808975463231  0.3054873760570047   T   T   T
  0.7502580198394659  0.4801421349288501  0.3056966829794216   T   T   T
  0.4984043523541005  0.2724550950900950  0.3012172012561918   T   T   T
  0.4983388752867782  0.6024749812782726  0.3015263961455401   T   T   T
  0.7502807679793791  0.7280060315064337  0.2948230416330652   T   T   T
  0.5006395265399995  0.8536971886472523  0.2929357388379215   T   T   T
  0.7504440982570370  0.8956129695680456  0.2926481830165655   T   T   T
  0.7504751539837067  0.9793187759848646  0.2925158115494104   T   T   T
  0.5006601624945038  0.7700576689899230  0.2940253045743977   T   T   T
  0.7502444670083244  0.6441423051310090  0.2982677516559561   T   T   T
  0.2502418571455238  0.6450780771939527  0.2993324902698916   T   T   T
  0.0002318332160019  0.0212388200339946  0.2926746165094364   T   T   T
  0.5056937908097813  0.5198863296289397  0.3091303466738171   T   T   T
  0.9947917423336525  0.5198894047589420  0.3090366732642450   T   T   T
  0.5057152115586208  0.3550286023504000  0.3088509507381768   T   T   T
 -0.0051032647134252  0.3550385845146014  0.3087051674098203   T   T   T
  0.2500719489112067  0.4373966198372389  0.3415796898544904   T   T   T
 
  0.00000000E+00  0.00000000E+00  0.00000000E+00
  0.00000000E+00  0.00000000E+00  0.00000000E+00
  0.00000000E+00  0.00000000E+00  0.00000000E+00
  0.00000000E+00  0.00000000E+00  0.00000000E+00
  0.00000000E+00  0.00000000E+00  0.00000000E+00
  0.00000000E+00  0.00000000E+00  0.00000000E+00
  0.00000000E+00  0.00000000E+00  0.00000000E+00
  0.00000000E+00  0.00000000E+00  0.00000000E+00
  0.00000000E+00  0.00000000E+00  0.00000000E+00
  0.00000000E+00  0.00000000E+00  0.00000000E+00
  0.00000000E+00  0.00000000E+00  0.00000000E+00
  0.00000000E+00  0.00000000E+00  0.00000000E+00
  0.00000000E+00  0.00000000E+00  0.00000000E+00
  0.00000000E+00  0.00000000E+00  0.00000000E+00
  0.00000000E+00  0.00000000E+00  0.00000000E+00
  0.00000000E+00  0.00000000E+00  0.00000000E+00
  0.00000000E+00  0.00000000E+00  0.00000000E+00
  0.00000000E+00  0.00000000E+00  0.00000000E+00
  0.00000000E+00  0.00000000E+00  0.00000000E+00
  0.00000000E+00  0.00000000E+00  0.00000000E+00
  0.00000000E+00  0.00000000E+00  0.00000000E+00
  0.00000000E+00  0.00000000E+00  0.00000000E+00
  0.00000000E+00  0.00000000E+00  0.00000000E+00
  0.00000000E+00  0.00000000E+00  0.00000000E+00
  0.00000000E+00  0.00000000E+00  0.00000000E+00
  0.00000000E+00  0.00000000E+00  0.00000000E+00
  0.00000000E+00  0.00000000E+00  0.00000000E+00
  0.00000000E+00  0.00000000E+00  0.00000000E+00
  0.00000000E+00  0.00000000E+00  0.00000000E+00
  0.00000000E+00  0.00000000E+00  0.00000000E+00
  0.00000000E+00  0.00000000E+00  0.00000000E+00
