Title                                   
   1.00000000000000     
     4.9440799999999996    0.0000000000000000    0.0000000000000000
     0.0000000000000000    8.5647549999999999    0.0000000000000000
     0.0000000000000000    0.0000000000000000   20.0000000000000000
    12     2     1
Selective dynamics
Direct
  0.2459189646652276  0.2094414273673906  0.0980842487957854   T   T   T
 -0.0090164565817435  0.2944573995014940  0.1003633418949755   T   T   T
  0.2541228981824146  0.0400940109875472  0.0980772257478906   T   T   T
  0.0079560057269996  0.9559883069840921  0.0943713453376691   T   T   T
  0.7450595948907305  0.2091757835347871  0.0940127635554209   T   T   T
  0.4920742879281412  0.2935604752009633  0.0943596680991347   T   T   T
  0.7549833356764154  0.0403898932355159  0.0940156453660177   T   T   T
  0.7550938669962446  0.7127792654890261  0.1009116770419339   T   T   T
  0.7448502476811364  0.5367884663729291  0.1009025277453600   T   T   T
  0.5090528906422027  0.9551003392890572  0.1003598367366842   T   T   T
  0.5022908921761620  0.4607276079500145  0.0939211860857690   T   T   T
 -0.0023060188718693  0.7888334154020988  0.0939417873143528   T   T   T
 -0.0208801766621038  0.4552726514631361  0.1108346132119519   T   T   T
  0.5208242936523927  0.7942880086453280  0.1108257375211795   T   T   T
  0.2499753738976486  0.6247839485766222  0.1229983955458784   T   T   T
 
  0.00000000E+00  0.00000000E+00  0.00000000E+00
  0.00000000E+00  0.00000000E+00  0.00000000E+00
  0.00000000E+00  0.00000000E+00  0.00000000E+00
  0.00000000E+00  0.00000000E+00  0.00000000E+00
  0.00000000E+00  0.00000000E+00  0.00000000E+00
  0.00000000E+00  0.00000000E+00  0.00000000E+00
  0.00000000E+00  0.00000000E+00  0.00000000E+00
  0.00000000E+00  0.00000000E+00  0.00000000E+00
  0.00000000E+00  0.00000000E+00  0.00000000E+00
  0.00000000E+00  0.00000000E+00  0.00000000E+00
  0.00000000E+00  0.00000000E+00  0.00000000E+00
  0.00000000E+00  0.00000000E+00  0.00000000E+00
  0.00000000E+00  0.00000000E+00  0.00000000E+00
  0.00000000E+00  0.00000000E+00  0.00000000E+00
  0.00000000E+00  0.00000000E+00  0.00000000E+00
