Title                                   
   1.00000000000000     
     8.5490480000000009    0.0000000000000000    0.0000000000000000
     0.0000000000000000    8.5490480000000009    0.0000000000000000
     0.0000000000000000    0.0000000000000000   20.0000000000000000
    21     3     1
Selective dynamics
Direct
  0.9080970844735154  0.2063171939384159  0.0951135063403667   T   T   T
  0.9096384590917390  0.5037595408319521  0.0960149822543225   T   T   T
  0.9123529941358213  0.8023757885948581  0.0972252381475733   T   T   T
  0.1959891277009627  0.0819646122839858  0.0974161526454483   T   T   T
  0.0741635860537123  0.2014770380922040  0.0966063796698556   T   T   T
  0.1611203235389373  0.6484366667832621  0.0955441716317338   T   T   T
  0.0788509274240356  0.5011635694068838  0.0964758519000487   T   T   T
  0.1564437963552471  0.3506483483983853  0.0979891842174778   T   T   T
  0.0799528509125620  0.7979089299926505  0.0961396201950180   T   T   T
  0.4922965416076276  0.0872980056441796  0.0979640044223325   T   T   T
  0.3416730280009941  0.1632579434442030  0.0992919018849104   T   T   T
  0.4932040811066909  0.9179994865424670  0.0980028975487867   T   T   T
  0.3471654713787597  0.8365303861577621  0.0962520152784997   T   T   T
  0.7867088977808756  0.0870089276565006  0.0964141270162309   T   T   T
  0.6371933557825378  0.1694086824505724  0.0963316100521088   T   T   T
  0.7897604938691971  0.9211610309484493  0.0977144208430740   T   T   T
  0.8300903910364412  0.6533611939952185  0.0983680059026124   T   T   T
  0.8289560908557323  0.3573118591499923  0.0938072724294342   T   T   T
  0.6420518802204053  0.8365996753191928  0.0993758826817346   T   T   T
  0.3270863791388457  0.6728598708461583  0.0952805970454813   T   T   T
  0.6624935575885131  0.3370359980193646  0.0938706293874133   T   T   T
  0.3178676221225628  0.3264979440266640  0.1015986178790239   T   T   T
  0.6670681861650094  0.6748893771313847  0.1017852750647445   T   T   T
  0.1982855019725253  0.9162494156514585  0.0962155043636507   T   T   T
  0.4869013716867350  0.4932685146938481  0.1129071511980973   T   T   T
 
  0.00000000E+00  0.00000000E+00  0.00000000E+00
  0.00000000E+00  0.00000000E+00  0.00000000E+00
  0.00000000E+00  0.00000000E+00  0.00000000E+00
  0.00000000E+00  0.00000000E+00  0.00000000E+00
  0.00000000E+00  0.00000000E+00  0.00000000E+00
  0.00000000E+00  0.00000000E+00  0.00000000E+00
  0.00000000E+00  0.00000000E+00  0.00000000E+00
  0.00000000E+00  0.00000000E+00  0.00000000E+00
  0.00000000E+00  0.00000000E+00  0.00000000E+00
  0.00000000E+00  0.00000000E+00  0.00000000E+00
  0.00000000E+00  0.00000000E+00  0.00000000E+00
  0.00000000E+00  0.00000000E+00  0.00000000E+00
  0.00000000E+00  0.00000000E+00  0.00000000E+00
  0.00000000E+00  0.00000000E+00  0.00000000E+00
  0.00000000E+00  0.00000000E+00  0.00000000E+00
  0.00000000E+00  0.00000000E+00  0.00000000E+00
  0.00000000E+00  0.00000000E+00  0.00000000E+00
  0.00000000E+00  0.00000000E+00  0.00000000E+00
  0.00000000E+00  0.00000000E+00  0.00000000E+00
  0.00000000E+00  0.00000000E+00  0.00000000E+00
  0.00000000E+00  0.00000000E+00  0.00000000E+00
  0.00000000E+00  0.00000000E+00  0.00000000E+00
  0.00000000E+00  0.00000000E+00  0.00000000E+00
  0.00000000E+00  0.00000000E+00  0.00000000E+00
  0.00000000E+00  0.00000000E+00  0.00000000E+00
