Title                                   
   1.00000000000000     
     8.5490480000000009    0.0000000000000000    0.0000000000000000
     0.0000000000000000    8.5490480000000009    0.0000000000000000
     0.0000000000000000    0.0000000000000000   20.0000000000000000
    18     6     1
Selective dynamics
Direct
  0.9074201194197890  0.2071051395370981  0.0975307431017585   T   T   T
  0.9101439463599783  0.7998027919246312  0.0975377652642913   T   T   T
  0.1966859198165474  0.0846687992957101  0.0976532189494158   T   T   T
  0.0762313211704930  0.2024060923376493  0.0975658152670244   T   T   T
  0.1586713768422141  0.6501750032434382  0.0976610178339368   T   T   T
  0.0778586423309942  0.5007315201631327  0.0976803492103895   T   T   T
  0.1585073740178156  0.3522804875203323  0.0977262725827384   T   T   T
  0.0791675272997805  0.7976581378983904  0.0975716232052677   T   T   T
  0.4933581894333932  0.0882733463770805  0.0978205117022159   T   T   T
  0.3440579660174218  0.1680626989343970  0.0978609956589585   T   T   T
  0.4930608709048301  0.9161878295440956  0.0977418373930123   T   T   T
  0.3446234325367347  0.8332403905666470  0.0977737647887291   T   T   T
  0.7873726268051928  0.0883448795042626  0.0975412619891574   T   T   T
  0.6402652820343343  0.1712590537049446  0.0978506658660076   T   T   T
  0.7882737447197832  0.9180332361710093  0.0975116571412002   T   T   T
  0.8278290132105860  0.6498891990963501  0.0977552868832565   T   T   T
  0.8256232763106565  0.3557886143976851  0.0977853445609893   T   T   T
  0.6415905559969133  0.8336224420296228  0.0977511418053215   T   T   T
  0.9072017473364554  0.5023960847297848  0.0978240894831804   T   T   T
  0.3214282422407340  0.3302281754617747  0.0979501644271100   T   T   T
  0.3218518542125556  0.6737757278480525  0.0977841358985091   T   T   T
  0.6639143983915896  0.3360086135496008  0.0981041848489707   T   T   T
  0.6667212624387252  0.6691031972487304  0.0980323776254640   T   T   T
  0.1982654406314330  0.9146986574596232  0.0976817389813496   T   T   T
  0.4952878695210425  0.5010498814559551  0.0980090355317255   T   T   T
 
  0.00000000E+00  0.00000000E+00  0.00000000E+00
  0.00000000E+00  0.00000000E+00  0.00000000E+00
  0.00000000E+00  0.00000000E+00  0.00000000E+00
  0.00000000E+00  0.00000000E+00  0.00000000E+00
  0.00000000E+00  0.00000000E+00  0.00000000E+00
  0.00000000E+00  0.00000000E+00  0.00000000E+00
  0.00000000E+00  0.00000000E+00  0.00000000E+00
  0.00000000E+00  0.00000000E+00  0.00000000E+00
  0.00000000E+00  0.00000000E+00  0.00000000E+00
  0.00000000E+00  0.00000000E+00  0.00000000E+00
  0.00000000E+00  0.00000000E+00  0.00000000E+00
  0.00000000E+00  0.00000000E+00  0.00000000E+00
  0.00000000E+00  0.00000000E+00  0.00000000E+00
  0.00000000E+00  0.00000000E+00  0.00000000E+00
  0.00000000E+00  0.00000000E+00  0.00000000E+00
  0.00000000E+00  0.00000000E+00  0.00000000E+00
  0.00000000E+00  0.00000000E+00  0.00000000E+00
  0.00000000E+00  0.00000000E+00  0.00000000E+00
  0.00000000E+00  0.00000000E+00  0.00000000E+00
  0.00000000E+00  0.00000000E+00  0.00000000E+00
  0.00000000E+00  0.00000000E+00  0.00000000E+00
  0.00000000E+00  0.00000000E+00  0.00000000E+00
  0.00000000E+00  0.00000000E+00  0.00000000E+00
  0.00000000E+00  0.00000000E+00  0.00000000E+00
  0.00000000E+00  0.00000000E+00  0.00000000E+00
