Title                                   
   1.00000000000000     
     9.8694509999999998    0.0000000000000000    0.0000000000000000
     0.0000000000000000    8.5490480000000009    0.0000000000000000
     0.0000000000000000    0.0000000000000000   20.0000000000000000
    28     3     1
Selective dynamics
Direct
  0.0565062780991696  0.0912889468813830  0.0818480176330881   T   T   T
  0.9309534675533596  0.1736780440727053  0.0840917371820017   T   T   T
  0.0557036274542364  0.9240124375977181  0.0827160288984480   T   T   T
  0.9302255493821502  0.3403760400458680  0.0890761671759839   T   T   T
  0.0566605184246801  0.5892886646714262  0.0876643249791712   T   T   T
  0.9318507697297823  0.6723925992077019  0.0902075743720835   T   T   T
  0.0569084057053608  0.4232197152151800  0.0882765762498946   T   T   T
  0.9307572709591724  0.8395555938726176  0.0859674133731401   T   T   T
  0.3055018369163977  0.0902168235056719  0.0838208320782528   T   T   T
  0.1821120147368232  0.1748571540395928  0.0837127601524814   T   T   T
  0.3056688399172446  0.9244260811850046  0.0859036505970822   T   T   T
  0.1840384326084341  0.3421829461102207  0.0883083924469149   T   T   T
  0.3051114885132080  0.5946111071419138  0.0994270324049024   T   T   T
  0.1809946650717494  0.6737142790274049  0.0892286483987357   T   T   T
  0.3108479429306085  0.4257265125623089  0.0964437325264893   T   T   T
  0.1805837057134682  0.8407465550941302  0.0858106648798521   T   T   T
  0.5557791657478170  0.0845248393529968  0.0924066104053934   T   T   T
  0.4317101914765628  0.1692750813961960  0.0898607373883223   T   T   T
  0.4341099107988701  0.3334481922288957  0.0990052575104867   T   T   T
  0.4277802008555500  0.8413545965644720  0.0969314657353138   T   T   T
  0.8072927841409698  0.0889610200001779  0.0846262233796869   T   T   T
  0.6810953482402593  0.1675505435030301  0.0910953422716019   T   T   T
  0.8053345385162114  0.9230804297261965  0.0864299997839903   T   T   T
  0.6803291170242963  0.3318329260715307  0.1007736311282207   T   T   T
  0.8087624758084647  0.5910196257541716  0.1025210133994568   T   T   T
  0.6919790703670807  0.6833812395324100  0.1193478470938341   T   T   T
  0.8044296717733448  0.4223839646748282  0.0986726182670249   T   T   T
  0.6823088524239610  0.8406542164823938  0.0983881937490822   T   T   T
  0.4189889174188806  0.6869680319391395  0.1158969361520970   T   T   T
  0.5570476428649872  0.4012561256981990  0.1162321120696290   T   T   T
  0.5546967254546853  0.9194964211880022  0.0961106046943213   T   T   T
  0.5535695733722201  0.5847652456565212  0.1748728536230511   T   T   T
 
  0.00000000E+00  0.00000000E+00  0.00000000E+00
  0.00000000E+00  0.00000000E+00  0.00000000E+00
  0.00000000E+00  0.00000000E+00  0.00000000E+00
  0.00000000E+00  0.00000000E+00  0.00000000E+00
  0.00000000E+00  0.00000000E+00  0.00000000E+00
  0.00000000E+00  0.00000000E+00  0.00000000E+00
  0.00000000E+00  0.00000000E+00  0.00000000E+00
  0.00000000E+00  0.00000000E+00  0.00000000E+00
  0.00000000E+00  0.00000000E+00  0.00000000E+00
  0.00000000E+00  0.00000000E+00  0.00000000E+00
  0.00000000E+00  0.00000000E+00  0.00000000E+00
  0.00000000E+00  0.00000000E+00  0.00000000E+00
  0.00000000E+00  0.00000000E+00  0.00000000E+00
  0.00000000E+00  0.00000000E+00  0.00000000E+00
  0.00000000E+00  0.00000000E+00  0.00000000E+00
  0.00000000E+00  0.00000000E+00  0.00000000E+00
  0.00000000E+00  0.00000000E+00  0.00000000E+00
  0.00000000E+00  0.00000000E+00  0.00000000E+00
  0.00000000E+00  0.00000000E+00  0.00000000E+00
  0.00000000E+00  0.00000000E+00  0.00000000E+00
  0.00000000E+00  0.00000000E+00  0.00000000E+00
  0.00000000E+00  0.00000000E+00  0.00000000E+00
  0.00000000E+00  0.00000000E+00  0.00000000E+00
  0.00000000E+00  0.00000000E+00  0.00000000E+00
  0.00000000E+00  0.00000000E+00  0.00000000E+00
  0.00000000E+00  0.00000000E+00  0.00000000E+00
  0.00000000E+00  0.00000000E+00  0.00000000E+00
  0.00000000E+00  0.00000000E+00  0.00000000E+00
  0.00000000E+00  0.00000000E+00  0.00000000E+00
  0.00000000E+00  0.00000000E+00  0.00000000E+00
  0.00000000E+00  0.00000000E+00  0.00000000E+00
  0.00000000E+00  0.00000000E+00  0.00000000E+00
