Title                                   
   1.00000000000000     
     4.9440799999999996    0.0000000000000000    0.0000000000000000
     0.0000000000000000    8.5647549999999999    0.0000000000000000
     0.0000000000000000    0.0000000000000000   20.0000000000000000
    10     4     1
Selective dynamics
Direct
 -0.0011643157731402  0.2935576328961059  0.0937308195230056   T   T   T
  0.2523450889139632  0.0375892080086073  0.0964515188429628   T   T   T
  0.0005746330628365  0.9559800207742386  0.0921644157144424   T   T   T
  0.7497343803712366  0.2068183859640811  0.0940049424138125   T   T   T
  0.5006906723100019  0.2958025290842954  0.1006098540482925   T   T   T
  0.7521138395042988  0.0410565976076566  0.0940348666118560   T   T   T
  0.7573990269622508  0.7127831596994558  0.0983321968847249   T   T   T
  0.7555525703638369  0.5385022387056294  0.1009104221324715   T   T   T
  0.5049771906826860  0.9543238316264863  0.0995126024965318   T   T   T
  0.5071062165296447  0.4574513101910312  0.1117435862187268   T   T   T
 -0.0023621387738944  0.4527006251604232  0.0919497309629405   T   T   T
 -0.0058542446553634  0.7941649419595214  0.0865994833189119   T   T   T
  0.5164161295448679  0.7924457074076522  0.1100080308079973   T   T   T
  0.2492984407667996  0.2100871566119164  0.0973432665210054   T   T   T
  0.2131725101899732  0.6284176543029010  0.1405842635023215   T   T   T
 
  0.00000000E+00  0.00000000E+00  0.00000000E+00
  0.00000000E+00  0.00000000E+00  0.00000000E+00
  0.00000000E+00  0.00000000E+00  0.00000000E+00
  0.00000000E+00  0.00000000E+00  0.00000000E+00
  0.00000000E+00  0.00000000E+00  0.00000000E+00
  0.00000000E+00  0.00000000E+00  0.00000000E+00
  0.00000000E+00  0.00000000E+00  0.00000000E+00
  0.00000000E+00  0.00000000E+00  0.00000000E+00
  0.00000000E+00  0.00000000E+00  0.00000000E+00
  0.00000000E+00  0.00000000E+00  0.00000000E+00
  0.00000000E+00  0.00000000E+00  0.00000000E+00
  0.00000000E+00  0.00000000E+00  0.00000000E+00
  0.00000000E+00  0.00000000E+00  0.00000000E+00
  0.00000000E+00  0.00000000E+00  0.00000000E+00
  0.00000000E+00  0.00000000E+00  0.00000000E+00
