Title                                   
   1.00000000000000     
     9.8694509999999998    0.0000000000000000    0.0000000000000000
     0.0000000000000000    8.5490480000000009    0.0000000000000000
     0.0000000000000000    0.0000000000000000   20.0000000000000000
    26     4     1
Selective dynamics
Direct
  0.0561966107053219  0.0908225918399042  0.0960988245002423   T   T   T
  0.9305902350425476  0.1728285703756151  0.0960893467252424   T   T   T
  0.0577657391004976  0.9240677091317300  0.0961356529942624   T   T   T
  0.9331165152443965  0.3401199224952410  0.0957778955674282   T   T   T
  0.0570060414364115  0.5904074375353366  0.0953667623055711   T   T   T
  0.9334915097456796  0.6751926116535355  0.0958108402619493   T   T   T
  0.0575081859553298  0.4232002200207221  0.0953814200692086   T   T   T
  0.9319719673319354  0.8412472705640488  0.0961748657238708   T   T   T
  0.3073219651069271  0.0893970452338610  0.0970466079869688   T   T   T
  0.1809375191999900  0.1710278070210709  0.0963336567956637   T   T   T
  0.1813027711230961  0.3394215555090155  0.0960069955746618   T   T   T
  0.3031768503888941  0.5902506504435592  0.0969548819605730   T   T   T
  0.1806040032649794  0.6734540754891726  0.0960344261756464   T   T   T
  0.3047848750146562  0.4216630095601362  0.0969008411113832   T   T   T
  0.1813902801077589  0.8414155378498621  0.0963900650346436   T   T   T
  0.5549789017130337  0.0896168986307193  0.0975831398681531   T   T   T
  0.4304062611146833  0.1768451767107729  0.0976106225160452   T   T   T
  0.5543200299642488  0.9175586126496085  0.0977189736576577   T   T   T
  0.4287757103222161  0.8318019207250326  0.0977121260576870   T   T   T
  0.8042019591820732  0.0908340070288924  0.0966230798479598   T   T   T
  0.6797911027047605  0.1780107314943589  0.0972187941639547   T   T   T
  0.8049751574502469  0.9210548696061599  0.0967064687465208   T   T   T
  0.6842150873216819  0.3466154604935904  0.0973977180043975   T   T   T
  0.8108560423522765  0.5931910336503586  0.0966251302341346   T   T   T
  0.8100269100565786  0.4241511921291835  0.0965165203131220   T   T   T
  0.6816217793396611  0.8309200295619099  0.0974596763822511   T   T   T
  0.4269997034204450  0.3425081235625663  0.0979877465853587   T   T   T
  0.6880962082181667  0.6671900334203573  0.0977690043253559   T   T   T
  0.4237618420930955  0.6713266462693815  0.0980870910617792   T   T   T
  0.3069759895389257  0.9217651999469229  0.0970906717600212   T   T   T
  0.5559672464394947  0.5029690493973883  0.0983551536883222   T   T   T
 
  0.00000000E+00  0.00000000E+00  0.00000000E+00
  0.00000000E+00  0.00000000E+00  0.00000000E+00
  0.00000000E+00  0.00000000E+00  0.00000000E+00
  0.00000000E+00  0.00000000E+00  0.00000000E+00
  0.00000000E+00  0.00000000E+00  0.00000000E+00
  0.00000000E+00  0.00000000E+00  0.00000000E+00
  0.00000000E+00  0.00000000E+00  0.00000000E+00
  0.00000000E+00  0.00000000E+00  0.00000000E+00
  0.00000000E+00  0.00000000E+00  0.00000000E+00
  0.00000000E+00  0.00000000E+00  0.00000000E+00
  0.00000000E+00  0.00000000E+00  0.00000000E+00
  0.00000000E+00  0.00000000E+00  0.00000000E+00
  0.00000000E+00  0.00000000E+00  0.00000000E+00
  0.00000000E+00  0.00000000E+00  0.00000000E+00
  0.00000000E+00  0.00000000E+00  0.00000000E+00
  0.00000000E+00  0.00000000E+00  0.00000000E+00
  0.00000000E+00  0.00000000E+00  0.00000000E+00
  0.00000000E+00  0.00000000E+00  0.00000000E+00
  0.00000000E+00  0.00000000E+00  0.00000000E+00
  0.00000000E+00  0.00000000E+00  0.00000000E+00
  0.00000000E+00  0.00000000E+00  0.00000000E+00
  0.00000000E+00  0.00000000E+00  0.00000000E+00
  0.00000000E+00  0.00000000E+00  0.00000000E+00
  0.00000000E+00  0.00000000E+00  0.00000000E+00
  0.00000000E+00  0.00000000E+00  0.00000000E+00
  0.00000000E+00  0.00000000E+00  0.00000000E+00
  0.00000000E+00  0.00000000E+00  0.00000000E+00
  0.00000000E+00  0.00000000E+00  0.00000000E+00
  0.00000000E+00  0.00000000E+00  0.00000000E+00
  0.00000000E+00  0.00000000E+00  0.00000000E+00
  0.00000000E+00  0.00000000E+00  0.00000000E+00
