Title                                   
   1.00000000000000     
     9.8694509999999998    0.0000000000000000    0.0000000000000000
     0.0000000000000000    8.5490480000000009    0.0000000000000000
     0.0000000000000000    0.0000000000000000   20.0000000000000000
    26     5     1
Selective dynamics
Direct
  0.0564309400501971  0.0915869991567124  0.0877779785331736   T   T   T
  0.9312916590638890  0.1744528072225023  0.0891961083567893   T   T   T
  0.0578522291698741  0.9242001191860042  0.0872680050285956   T   T   T
  0.9303563349870004  0.3415810111061951  0.0911516496177129   T   T   T
  0.0571803521902677  0.5903547824604715  0.0873556183924661   T   T   T
  0.9329247714660536  0.6730337376008143  0.0902591734135453   T   T   T
  0.0567787844169764  0.4226739861111102  0.0889809397643670   T   T   T
  0.9330849991623689  0.8404295715492455  0.0895765194623943   T   T   T
  0.3064721774043594  0.0886895301770922  0.0897485154626852   T   T   T
  0.1828007774064958  0.1736001022399522  0.0888967891049672   T   T   T
  0.1829169849510866  0.3398553638006233  0.0897182187607154   T   T   T
  0.3060750174702362  0.5910971152133258  0.0929561781994307   T   T   T
  0.1815384442278504  0.6739135600397610  0.0871041508660448   T   T   T
  0.3108610491488062  0.4224372226776760  0.0939336785277864   T   T   T
  0.1815910466070701  0.8409090660994099  0.0871602559976792   T   T   T
  0.5562730197984666  0.0854644063172928  0.0959326784698881   T   T   T
  0.5549006001463920  0.9181887403217140  0.0987161420271376   T   T   T
  0.4322814383613670  0.3318486992571271  0.0993391170595161   T   T   T
  0.4273256086885088  0.8385934830491041  0.0964209692221152   T   T   T
  0.8063053725173692  0.0895525891190963  0.0899322160512211   T   T   T
  0.6799275273633647  0.1697928401736725  0.0937874633220766   T   T   T
  0.8081541686005578  0.9238581368096231  0.0915474630259172   T   T   T
  0.6796204051052133  0.3352832594035702  0.1001203816229692   T   T   T
  0.8085562743256824  0.5931677092969010  0.0989228347780497   T   T   T
  0.8022720018242647  0.4244881802758778  0.0973757918959427   T   T   T
  0.6850415949285943  0.8388195948538772  0.0999016476662678   T   T   T
  0.4197701155225319  0.6816835014179130  0.1024861554764776   T   T   T
  0.5538399965613880  0.4024299335576518  0.1132549189508885   T   T   T
  0.6934819714554413  0.6802385315323962  0.1112817306568420   T   T   T
  0.3063242084987684  0.9254159496695091  0.0887778795245463   T   T   T
  0.4298594172879326  0.1675573448619129  0.0939512627565943   T   T   T
  0.5475497112916299  0.5950481254418666  0.1728425680052134   T   T   T
 
  0.00000000E+00  0.00000000E+00  0.00000000E+00
  0.00000000E+00  0.00000000E+00  0.00000000E+00
  0.00000000E+00  0.00000000E+00  0.00000000E+00
  0.00000000E+00  0.00000000E+00  0.00000000E+00
  0.00000000E+00  0.00000000E+00  0.00000000E+00
  0.00000000E+00  0.00000000E+00  0.00000000E+00
  0.00000000E+00  0.00000000E+00  0.00000000E+00
  0.00000000E+00  0.00000000E+00  0.00000000E+00
  0.00000000E+00  0.00000000E+00  0.00000000E+00
  0.00000000E+00  0.00000000E+00  0.00000000E+00
  0.00000000E+00  0.00000000E+00  0.00000000E+00
  0.00000000E+00  0.00000000E+00  0.00000000E+00
  0.00000000E+00  0.00000000E+00  0.00000000E+00
  0.00000000E+00  0.00000000E+00  0.00000000E+00
  0.00000000E+00  0.00000000E+00  0.00000000E+00
  0.00000000E+00  0.00000000E+00  0.00000000E+00
  0.00000000E+00  0.00000000E+00  0.00000000E+00
  0.00000000E+00  0.00000000E+00  0.00000000E+00
  0.00000000E+00  0.00000000E+00  0.00000000E+00
  0.00000000E+00  0.00000000E+00  0.00000000E+00
  0.00000000E+00  0.00000000E+00  0.00000000E+00
  0.00000000E+00  0.00000000E+00  0.00000000E+00
  0.00000000E+00  0.00000000E+00  0.00000000E+00
  0.00000000E+00  0.00000000E+00  0.00000000E+00
  0.00000000E+00  0.00000000E+00  0.00000000E+00
  0.00000000E+00  0.00000000E+00  0.00000000E+00
  0.00000000E+00  0.00000000E+00  0.00000000E+00
  0.00000000E+00  0.00000000E+00  0.00000000E+00
  0.00000000E+00  0.00000000E+00  0.00000000E+00
  0.00000000E+00  0.00000000E+00  0.00000000E+00
  0.00000000E+00  0.00000000E+00  0.00000000E+00
  0.00000000E+00  0.00000000E+00  0.00000000E+00
