Title                                   
   1.00000000000000     
     9.8694509999999998    0.0000000000000000    0.0000000000000000
     0.0000000000000000    8.5490480000000009    0.0000000000000000
     0.0000000000000000    0.0000000000000000   20.0000000000000000
    26     4     1
Selective dynamics
Direct
  0.0545384758166631  0.0880000281345533  0.0843382267811426   T   T   T
  0.9293515639368353  0.1727605272552623  0.0841368870269970   T   T   T
  0.0576279040512670  0.9209973405693735  0.0857837105751690   T   T   T
  0.9327903427965650  0.3400403721022646  0.0835214130440220   T   T   T
  0.0568725079117170  0.5905242384030770  0.0836993992727393   T   T   T
  0.0562941113321704  0.4241479956805150  0.0820457703987633   T   T   T
  0.9322492053436001  0.8398972332444238  0.0883586884374868   T   T   T
  0.3063772014081149  0.0865262783215128  0.0919815439327074   T   T   T
  0.1797694219508827  0.1688929887911384  0.0866073577842622   T   T   T
  0.1797790043054044  0.3365512705147710  0.0854907237875236   T   T   T
  0.3030653320613146  0.5843987383151966  0.0934521074422328   T   T   T
  0.1817257759325135  0.6723345413121883  0.0863845909718856   T   T   T
  0.3005752812643460  0.4165410298305587  0.0959830769341093   T   T   T
  0.1836522755624294  0.8389488301913914  0.0872111333014476   T   T   T
  0.4269686637369740  0.1750778792649370  0.1015529778979956   T   T   T
  0.5555740904257774  0.9242705600258962  0.1026501500707720   T   T   T
  0.4275070823904586  0.6655471989344833  0.1040340821419955   T   T   T
  0.4324910156887770  0.8348028077018167  0.0996482855693112   T   T   T
  0.8027413677380102  0.0919585994849520  0.0894685995557671   T   T   T
  0.6782501425990465  0.1813714545143540  0.0952276531302819   T   T   T
  0.8055180273298970  0.9225554683389837  0.0926932957463229   T   T   T
  0.6846501280769348  0.3497826575318556  0.0983837671698391   T   T   T
  0.8148560749744562  0.5941605151524371  0.0973176505353924   T   T   T
  0.6916833235139414  0.6718471244305824  0.1154208189289561   T   T   T
  0.8125337311240197  0.4257486306740433  0.0908486335707930   T   T   T
  0.6815267951703804  0.8400741709600622  0.1031943039474634   T   T   T
  0.9344688062192957  0.6739895731215578  0.0877195006885615   T   T   T
  0.5538141915227236  0.0953363691436948  0.1009342024815318   T   T   T
  0.4186613768210006  0.3348803406614990  0.1133464344215921   T   T   T
  0.3074364533876537  0.9203278468107651  0.0914603026121118   T   T   T
  0.5597853256068482  0.5085823905818722  0.1380697118408723   T   T   T
 
  0.00000000E+00  0.00000000E+00  0.00000000E+00
  0.00000000E+00  0.00000000E+00  0.00000000E+00
  0.00000000E+00  0.00000000E+00  0.00000000E+00
  0.00000000E+00  0.00000000E+00  0.00000000E+00
  0.00000000E+00  0.00000000E+00  0.00000000E+00
  0.00000000E+00  0.00000000E+00  0.00000000E+00
  0.00000000E+00  0.00000000E+00  0.00000000E+00
  0.00000000E+00  0.00000000E+00  0.00000000E+00
  0.00000000E+00  0.00000000E+00  0.00000000E+00
  0.00000000E+00  0.00000000E+00  0.00000000E+00
  0.00000000E+00  0.00000000E+00  0.00000000E+00
  0.00000000E+00  0.00000000E+00  0.00000000E+00
  0.00000000E+00  0.00000000E+00  0.00000000E+00
  0.00000000E+00  0.00000000E+00  0.00000000E+00
  0.00000000E+00  0.00000000E+00  0.00000000E+00
  0.00000000E+00  0.00000000E+00  0.00000000E+00
  0.00000000E+00  0.00000000E+00  0.00000000E+00
  0.00000000E+00  0.00000000E+00  0.00000000E+00
  0.00000000E+00  0.00000000E+00  0.00000000E+00
  0.00000000E+00  0.00000000E+00  0.00000000E+00
  0.00000000E+00  0.00000000E+00  0.00000000E+00
  0.00000000E+00  0.00000000E+00  0.00000000E+00
  0.00000000E+00  0.00000000E+00  0.00000000E+00
  0.00000000E+00  0.00000000E+00  0.00000000E+00
  0.00000000E+00  0.00000000E+00  0.00000000E+00
  0.00000000E+00  0.00000000E+00  0.00000000E+00
  0.00000000E+00  0.00000000E+00  0.00000000E+00
  0.00000000E+00  0.00000000E+00  0.00000000E+00
  0.00000000E+00  0.00000000E+00  0.00000000E+00
  0.00000000E+00  0.00000000E+00  0.00000000E+00
  0.00000000E+00  0.00000000E+00  0.00000000E+00
