Title                                   
   1.00000000000000     
     9.8694509999999998    0.0000000000000000    0.0000000000000000
     0.0000000000000000    8.5490480000000009    0.0000000000000000
     0.0000000000000000    0.0000000000000000   20.0000000000000000
    30     1     1
Selective dynamics
Direct
  0.0567662286962675  0.0905653608233719  0.0816842636022335   T   T   T
  0.9315139295409064  0.1724266338558335  0.0850045475383070   T   T   T
  0.0561322593354018  0.9234272781312203  0.0800811404386337   T   T   T
  0.9312625598132980  0.3391485807345334  0.0894433437455499   T   T   T
  0.0565624894550695  0.5887442187502275  0.0836672712144557   T   T   T
  0.9324850221763002  0.6719870878532659  0.0859443443146803   T   T   T
  0.0570911719985398  0.4226466443545562  0.0864116925306339   T   T   T
  0.9314372307349801  0.8388703659653823  0.0829867847718125   T   T   T
  0.3061975003767469  0.0901829536483436  0.0856085624387413   T   T   T
  0.1818993684627933  0.1739982006071742  0.0845694341808447   T   T   T
  0.3047685610109166  0.9240496162534341  0.0854930829645976   T   T   T
  0.1828549372862604  0.3414427335749900  0.0885199033918564   T   T   T
  0.3037054687951174  0.5933477610082439  0.0956352765740306   T   T   T
  0.1801724455970480  0.6733322372209065  0.0842700004802537   T   T   T
  0.3077293208685698  0.4246725592991675  0.0973082658454299   T   T   T
  0.1801545515598064  0.8404177057596683  0.0821244509037785   T   T   T
  0.5558213050341261  0.0856007069574624  0.0941980355579321   T   T   T
  0.4315768974389378  0.1708052468581824  0.0922613635123132   T   T   T
  0.5551250252183307  0.9186229550219522  0.0984231505959864   T   T   T
  0.4331615388266124  0.3363430130762107  0.1029419432969168   T   T   T
  0.5576373225440957  0.4084071826839885  0.1188650117419481   T   T   T
  0.4264097701385633  0.8391913527107288  0.0965164887694479   T   T   T
  0.8070926004554756  0.0882459531876168  0.0866981944746666   T   T   T
  0.6820326035964226  0.1690319342533572  0.0936728232043512   T   T   T
  0.8070874337795759  0.9219762131851784  0.0869372315701936   T   T   T
  0.6822740524836529  0.3337440150239839  0.1046681594710372   T   T   T
  0.8102846495763494  0.5896269747203485  0.1002686144894540   T   T   T
  0.6933389497059254  0.6773119453635917  0.1145754259640252   T   T   T
  0.8081544797236495  0.4205567570539067  0.1001810424878305   T   T   T
  0.6843264017495774  0.8377770383491334  0.0998245320810292   T   T   T
  0.4180234109667939  0.6807457096128645  0.1080669962630800   T   T   T
  0.5465595130538937  0.6029990641011836  0.1888236215839834   T   T   T
 
  0.00000000E+00  0.00000000E+00  0.00000000E+00
  0.00000000E+00  0.00000000E+00  0.00000000E+00
  0.00000000E+00  0.00000000E+00  0.00000000E+00
  0.00000000E+00  0.00000000E+00  0.00000000E+00
  0.00000000E+00  0.00000000E+00  0.00000000E+00
  0.00000000E+00  0.00000000E+00  0.00000000E+00
  0.00000000E+00  0.00000000E+00  0.00000000E+00
  0.00000000E+00  0.00000000E+00  0.00000000E+00
  0.00000000E+00  0.00000000E+00  0.00000000E+00
  0.00000000E+00  0.00000000E+00  0.00000000E+00
  0.00000000E+00  0.00000000E+00  0.00000000E+00
  0.00000000E+00  0.00000000E+00  0.00000000E+00
  0.00000000E+00  0.00000000E+00  0.00000000E+00
  0.00000000E+00  0.00000000E+00  0.00000000E+00
  0.00000000E+00  0.00000000E+00  0.00000000E+00
  0.00000000E+00  0.00000000E+00  0.00000000E+00
  0.00000000E+00  0.00000000E+00  0.00000000E+00
  0.00000000E+00  0.00000000E+00  0.00000000E+00
  0.00000000E+00  0.00000000E+00  0.00000000E+00
  0.00000000E+00  0.00000000E+00  0.00000000E+00
  0.00000000E+00  0.00000000E+00  0.00000000E+00
  0.00000000E+00  0.00000000E+00  0.00000000E+00
  0.00000000E+00  0.00000000E+00  0.00000000E+00
  0.00000000E+00  0.00000000E+00  0.00000000E+00
  0.00000000E+00  0.00000000E+00  0.00000000E+00
  0.00000000E+00  0.00000000E+00  0.00000000E+00
  0.00000000E+00  0.00000000E+00  0.00000000E+00
  0.00000000E+00  0.00000000E+00  0.00000000E+00
  0.00000000E+00  0.00000000E+00  0.00000000E+00
  0.00000000E+00  0.00000000E+00  0.00000000E+00
  0.00000000E+00  0.00000000E+00  0.00000000E+00
  0.00000000E+00  0.00000000E+00  0.00000000E+00
