Title                                   
   1.00000000000000     
     4.9440799999999996    0.0000000000000000    0.0000000000000000
     0.0000000000000000    8.5647549999999999    0.0000000000000000
     0.0000000000000000    0.0000000000000000   20.0000000000000000
    13     2     1
Selective dynamics
Direct
  0.2460272465554331  0.2092014915877566  0.0916946478002737   T   T   T
 -0.0092273749441635  0.2898067804265458  0.0949545751489160   T   T   T
  0.2498667069899508  0.0436144980663241  0.0863760328522610   T   T   T
  0.0078357754478150  0.7963126631201110  0.0990657341224473   T   T   T
  0.0010086672894260  0.9594138189279299  0.0862519627283928   T   T   T
  0.7454808568868190  0.2066856221310060  0.0873127308143851   T   T   T
  0.4982893342850834  0.2893151397660129  0.0971124816165207   T   T   T
  0.7505378622424526  0.0411138462865287  0.0828215795235016   T   T   T
  0.7572890801458600  0.7073878346262189  0.1041478724710032   T   T   T
  0.5030656993006157  0.7965594233169508  0.0993970557387977   T   T   T
  0.7511350641809942  0.5370407651777953  0.1090865864817006   T   T   T
  0.5019293409283921  0.9596787228694413  0.0867447041619174   T   T   T
  0.5120356523978012  0.4486043325876297  0.1163887675903837   T   T   T
 -0.0155226876937104  0.4464835773663782  0.1086138243147629   T   T   T
  0.2571261480395054  0.7283295984956156  0.1129020005812436   T   T   T
  0.2431226279477245  0.5404518852477562  0.1596414440535007   T   T   T
 
  0.00000000E+00  0.00000000E+00  0.00000000E+00
  0.00000000E+00  0.00000000E+00  0.00000000E+00
  0.00000000E+00  0.00000000E+00  0.00000000E+00
  0.00000000E+00  0.00000000E+00  0.00000000E+00
  0.00000000E+00  0.00000000E+00  0.00000000E+00
  0.00000000E+00  0.00000000E+00  0.00000000E+00
  0.00000000E+00  0.00000000E+00  0.00000000E+00
  0.00000000E+00  0.00000000E+00  0.00000000E+00
  0.00000000E+00  0.00000000E+00  0.00000000E+00
  0.00000000E+00  0.00000000E+00  0.00000000E+00
  0.00000000E+00  0.00000000E+00  0.00000000E+00
  0.00000000E+00  0.00000000E+00  0.00000000E+00
  0.00000000E+00  0.00000000E+00  0.00000000E+00
  0.00000000E+00  0.00000000E+00  0.00000000E+00
  0.00000000E+00  0.00000000E+00  0.00000000E+00
  0.00000000E+00  0.00000000E+00  0.00000000E+00
