Title                                   
   1.00000000000000     
     4.9440799999999996    0.0000000000000000    0.0000000000000000
     0.0000000000000000    8.5647549999999999    0.0000000000000000
     0.0000000000000000    0.0000000000000000   20.0000000000000000
    12     2     1
Selective dynamics
Direct
  0.2455651611537047  0.2096458824026006  0.0965515657691033   T   T   T
 -0.0094358724601478  0.2939715497005217  0.0990268154515538   T   T   T
  0.2545330761071471  0.0398876622524994  0.0965717570761572   T   T   T
  0.0087107136665907  0.9555649374815859  0.0932910905107833   T   T   T
  0.7445671639412184  0.2095330333605892  0.0928111178317157   T   T   T
  0.4913914579535410  0.2939585027263712  0.0932516022386448   T   T   T
  0.7555719855446887  0.0400153676447107  0.0928401755554350   T   T   T
  0.7596408950084469  0.7120263945169616  0.1021246962031090   T   T   T
  0.7402119892267260  0.5375412312626359  0.1021142304458715   T   T   T
  0.5095191659980407  0.9556172159751681  0.0990652352380843   T   T   T
  0.4962129878630022  0.4626042953634719  0.0924461388215200   T   T   T
  0.0036610816532712  0.7869354640932935  0.0924640849001909   T   T   T
 -0.0205903795095694  0.4547208646979375  0.1122509520901640   T   T   T
  0.5205231427435518  0.7948860602697837  0.1122665495437363   T   T   T
  0.2499174311097878  0.6247725382518716  0.1309039883239343   T   T   T
 
  0.00000000E+00  0.00000000E+00  0.00000000E+00
  0.00000000E+00  0.00000000E+00  0.00000000E+00
  0.00000000E+00  0.00000000E+00  0.00000000E+00
  0.00000000E+00  0.00000000E+00  0.00000000E+00
  0.00000000E+00  0.00000000E+00  0.00000000E+00
  0.00000000E+00  0.00000000E+00  0.00000000E+00
  0.00000000E+00  0.00000000E+00  0.00000000E+00
  0.00000000E+00  0.00000000E+00  0.00000000E+00
  0.00000000E+00  0.00000000E+00  0.00000000E+00
  0.00000000E+00  0.00000000E+00  0.00000000E+00
  0.00000000E+00  0.00000000E+00  0.00000000E+00
  0.00000000E+00  0.00000000E+00  0.00000000E+00
  0.00000000E+00  0.00000000E+00  0.00000000E+00
  0.00000000E+00  0.00000000E+00  0.00000000E+00
  0.00000000E+00  0.00000000E+00  0.00000000E+00
