Title                                   
   1.00000000000000     
     9.8694509999999998    0.0000000000000000    0.0000000000000000
     0.0000000000000000    8.5490480000000009    0.0000000000000000
     0.0000000000000000    0.0000000000000000   20.0000000000000000
    23     7     1
Selective dynamics
Direct
  0.0557146870730666  0.0902009339676614  0.0934297768112229   T   T   T
  0.9315908281717551  0.1733404731576723  0.0939987284762089   T   T   T
  0.0573178489490720  0.9210251080139428  0.0930881611285431   T   T   T
  0.9326480198681443  0.3395381209936569  0.0952119900125534   T   T   T
  0.0564352150297311  0.5905353048806147  0.0944661647432869   T   T   T
  0.0561737793838895  0.4236641470066433  0.0949629668592097   T   T   T
  0.9315515322570112  0.8390371006057824  0.0932665559901046   T   T   T
  0.3079776480590770  0.0886113006344342  0.0934127626676785   T   T   T
  0.1812074256799122  0.1721794913625078  0.0941240621020749   T   T   T
  0.1805999048943469  0.3392596016098460  0.0950995341164482   T   T   T
  0.3050313267973526  0.5896602054979238  0.0956026890006857   T   T   T
  0.1794765311371720  0.6725687941381495  0.0947270677651338   T   T   T
  0.3064333211580187  0.4211810221615382  0.0956716600467980   T   T   T
  0.1812825276058678  0.8405393313715175  0.0935793192675819   T   T   T
  0.4295837697629005  0.1726430132952278  0.0948685714552032   T   T   T
  0.5554355609165880  0.9205573642792743  0.0950214715555448   T   T   T
  0.4284481688582704  0.8392527261933010  0.0951407218241410   T   T   T
  0.8047471247255636  0.0891831987159355  0.0931120774507386   T   T   T
  0.6830453602926814  0.1759509404223470  0.0953389898216464   T   T   T
  0.8071559009532504  0.9210837646489434  0.0928565442700588   T   T   T
  0.8081885233484789  0.5905126124267541  0.0963626596394991   T   T   T
  0.8077578722664032  0.4228482023254790  0.0968948147441164   T   T   T
  0.6814760903292804  0.8370942685214917  0.0953159119134918   T   T   T
  0.9324814001796852  0.6716847480757689  0.0936073104550006   T   T   T
  0.5569194792105022  0.0945283581853739  0.0947900961124762   T   T   T
  0.4266060228694387  0.3349979379465071  0.0982639271518541   T   T   T
  0.4243516504949442  0.6782858105883454  0.0989577513782224   T   T   T
  0.6859307376724567  0.3381129160868002  0.1004570604260685   T   T   T
  0.6891578618507126  0.6744234804133794  0.1007718495765409   T   T   T
  0.3056098784952798  0.9217262930479703  0.0928133855564808   T   T   T
  0.5528000017091471  0.5066484294252085  0.1457504176814438   T   T   T
 
  0.00000000E+00  0.00000000E+00  0.00000000E+00
  0.00000000E+00  0.00000000E+00  0.00000000E+00
  0.00000000E+00  0.00000000E+00  0.00000000E+00
  0.00000000E+00  0.00000000E+00  0.00000000E+00
  0.00000000E+00  0.00000000E+00  0.00000000E+00
  0.00000000E+00  0.00000000E+00  0.00000000E+00
  0.00000000E+00  0.00000000E+00  0.00000000E+00
  0.00000000E+00  0.00000000E+00  0.00000000E+00
  0.00000000E+00  0.00000000E+00  0.00000000E+00
  0.00000000E+00  0.00000000E+00  0.00000000E+00
  0.00000000E+00  0.00000000E+00  0.00000000E+00
  0.00000000E+00  0.00000000E+00  0.00000000E+00
  0.00000000E+00  0.00000000E+00  0.00000000E+00
  0.00000000E+00  0.00000000E+00  0.00000000E+00
  0.00000000E+00  0.00000000E+00  0.00000000E+00
  0.00000000E+00  0.00000000E+00  0.00000000E+00
  0.00000000E+00  0.00000000E+00  0.00000000E+00
  0.00000000E+00  0.00000000E+00  0.00000000E+00
  0.00000000E+00  0.00000000E+00  0.00000000E+00
  0.00000000E+00  0.00000000E+00  0.00000000E+00
  0.00000000E+00  0.00000000E+00  0.00000000E+00
  0.00000000E+00  0.00000000E+00  0.00000000E+00
  0.00000000E+00  0.00000000E+00  0.00000000E+00
  0.00000000E+00  0.00000000E+00  0.00000000E+00
  0.00000000E+00  0.00000000E+00  0.00000000E+00
  0.00000000E+00  0.00000000E+00  0.00000000E+00
  0.00000000E+00  0.00000000E+00  0.00000000E+00
  0.00000000E+00  0.00000000E+00  0.00000000E+00
  0.00000000E+00  0.00000000E+00  0.00000000E+00
  0.00000000E+00  0.00000000E+00  0.00000000E+00
  0.00000000E+00  0.00000000E+00  0.00000000E+00
