Title                                   
   1.00000000000000     
     9.8694509999999998    0.0000000000000000    0.0000000000000000
     0.0000000000000000    8.5490480000000009    0.0000000000000000
     0.0000000000000000    0.0000000000000000   20.0000000000000000
    28     3     1
Selective dynamics
Direct
  0.0562593522642375  0.0906941705361470  0.0850482359498257   T   T   T
  0.9305177626161044  0.1740024457726027  0.0884237735856144   T   T   T
  0.0562756798219849  0.9226244537199007  0.0826128713972489   T   T   T
  0.9307451363614505  0.3399368573404688  0.0931806275146914   T   T   T
  0.0562280044891090  0.5892976752669329  0.0868614948041979   T   T   T
  0.9315224700062029  0.6705037602408165  0.0871031428848029   T   T   T
  0.0563037874162519  0.4225937798670535  0.0914602369074701   T   T   T
  0.9306478730382018  0.8384390437574757  0.0844717254053942   T   T   T
  0.3055191006291622  0.0891122674339147  0.0866977949441761   T   T   T
  0.1820818413532309  0.1739684973674843  0.0876836238338958   T   T   T
  0.3066757496695660  0.9237242048821784  0.0856445349583893   T   T   T
  0.1818774901870716  0.3398386002750948  0.0923049121534308   T   T   T
  0.3058805656734984  0.5898931762749078  0.0965083005419660   T   T   T
  0.1809570576166732  0.6704464031796347  0.0859206209099474   T   T   T
  0.1819766574343918  0.8383916826821818  0.0834580630149960   T   T   T
  0.5563285583463569  0.0883972345502162  0.0945747748620019   T   T   T
  0.4307635000261291  0.1707310998078518  0.0928369067088539   T   T   T
  0.4323219112032786  0.3360172548422633  0.1022333856982919   T   T   T
  0.4296811198697527  0.8394322599020611  0.0960031886587000   T   T   T
  0.8071092093225247  0.0890969285938567  0.0877285249243476   T   T   T
  0.6818885655144620  0.1708381961027930  0.0936280093998460   T   T   T
  0.8060179965565784  0.9236969658451503  0.0869005427219266   T   T   T
  0.6803045874544214  0.3361607885655629  0.1030952527315949   T   T   T
  0.8068909244831787  0.5900801734439970  0.0984554090292321   T   T   T
  0.6830662729439856  0.8394648500971135  0.0973692140541998   T   T   T
  0.4239867821524901  0.6776112358551264  0.1089444019788608   T   T   T
  0.5560587437904975  0.4116531353312002  0.1171504565312136   T   T   T
  0.6889318772444954  0.6779459447296646  0.1111765402186776   T   T   T
  0.5563533345670537  0.9213604881348422  0.0972093438847751   T   T   T
  0.3072975911803520  0.4222037230811677  0.0984559212027466   T   T   T
  0.8054161331287117  0.4223403685043458  0.0999976272779523   T   T   T
  0.5537533636386023  0.5997483340159964  0.1825355413107484   T   T   T
 
  0.00000000E+00  0.00000000E+00  0.00000000E+00
  0.00000000E+00  0.00000000E+00  0.00000000E+00
  0.00000000E+00  0.00000000E+00  0.00000000E+00
  0.00000000E+00  0.00000000E+00  0.00000000E+00
  0.00000000E+00  0.00000000E+00  0.00000000E+00
  0.00000000E+00  0.00000000E+00  0.00000000E+00
  0.00000000E+00  0.00000000E+00  0.00000000E+00
  0.00000000E+00  0.00000000E+00  0.00000000E+00
  0.00000000E+00  0.00000000E+00  0.00000000E+00
  0.00000000E+00  0.00000000E+00  0.00000000E+00
  0.00000000E+00  0.00000000E+00  0.00000000E+00
  0.00000000E+00  0.00000000E+00  0.00000000E+00
  0.00000000E+00  0.00000000E+00  0.00000000E+00
  0.00000000E+00  0.00000000E+00  0.00000000E+00
  0.00000000E+00  0.00000000E+00  0.00000000E+00
  0.00000000E+00  0.00000000E+00  0.00000000E+00
  0.00000000E+00  0.00000000E+00  0.00000000E+00
  0.00000000E+00  0.00000000E+00  0.00000000E+00
  0.00000000E+00  0.00000000E+00  0.00000000E+00
  0.00000000E+00  0.00000000E+00  0.00000000E+00
  0.00000000E+00  0.00000000E+00  0.00000000E+00
  0.00000000E+00  0.00000000E+00  0.00000000E+00
  0.00000000E+00  0.00000000E+00  0.00000000E+00
  0.00000000E+00  0.00000000E+00  0.00000000E+00
  0.00000000E+00  0.00000000E+00  0.00000000E+00
  0.00000000E+00  0.00000000E+00  0.00000000E+00
  0.00000000E+00  0.00000000E+00  0.00000000E+00
  0.00000000E+00  0.00000000E+00  0.00000000E+00
  0.00000000E+00  0.00000000E+00  0.00000000E+00
  0.00000000E+00  0.00000000E+00  0.00000000E+00
  0.00000000E+00  0.00000000E+00  0.00000000E+00
  0.00000000E+00  0.00000000E+00  0.00000000E+00
