Title                                   
   1.00000000000000     
     9.8694509999999998    0.0000000000000000    0.0000000000000000
     0.0000000000000000    8.5490480000000009    0.0000000000000000
     0.0000000000000000    0.0000000000000000   20.0000000000000000
    29     2     1
Selective dynamics
Direct
  0.0560788778478152  0.0914260682612077  0.0820724728976834   T   T   T
  0.9305259353493516  0.1733126364109499  0.0850589441232184   T   T   T
  0.0554322505399657  0.9243396825421729  0.0813252675388238   T   T   T
  0.9295811775922638  0.3401233529562333  0.0896704518534131   T   T   T
  0.0559212124251618  0.5891935421868910  0.0838344219698490   T   T   T
  0.9317932059897772  0.6728472626060766  0.0872585673151253   T   T   T
  0.0564965373622629  0.4232175670357834  0.0865416459566195   T   T   T
  0.9311618235739347  0.8395870667040157  0.0846499194766989   T   T   T
  0.3054569306107456  0.0901296976400637  0.0857744554572836   T   T   T
  0.1816226777326487  0.1747284849217779  0.0839710270172287   T   T   T
  0.3043446003378960  0.9237851594613553  0.0871232247162619   T   T   T
  0.1837321981453910  0.3422368340158581  0.0867359780817068   T   T   T
  0.3057700383002842  0.5951315172675431  0.0935621294888565   T   T   T
  0.1800280758470741  0.6739734879421003  0.0842289748685510   T   T   T
  0.3101259435862223  0.4254430511527090  0.0921736870178625   T   T   T
  0.1797233350828647  0.8407057495173073  0.0832929755726670   T   T   T
  0.5550804293245322  0.0838798917241669  0.0949139008736593   T   T   T
  0.4312285976246169  0.1700066192019089  0.0904390835832702   T   T   T
  0.5544550180450650  0.9187560060097447  0.1020726121631331   T   T   T
  0.4357855198750469  0.3361734157384579  0.0952691490526793   T   T   T
  0.4253392293440760  0.8375245702374751  0.0990822101615936   T   T   T
  0.8063843155178119  0.0884959042765290  0.0871855009769418   T   T   T
  0.6807673429257295  0.1685874000317596  0.0926049166156078   T   T   T
  0.8065442396185949  0.9223032839090561  0.0887842837803386   T   T   T
  0.6779041802717214  0.3337172542554910  0.0995489279447283   T   T   T
  0.8092846053197452  0.5906418322601942  0.1032040759373819   T   T   T
  0.6990911934370564  0.6827429991630404  0.1226576658571209   T   T   T
  0.8048411529904905  0.4216182271254516  0.0994933925440977   T   T   T
  0.6840586304853320  0.8394340106497948  0.1045899423504605   T   T   T
  0.4196517165523277  0.6795377286208044  0.1068919299284310   T   T   T
  0.5566346885803057  0.4091032342730798  0.1064050878563388   T   T   T
  0.5547933197638942  0.5875424619010085  0.1952581770224023   T   T   T
 
  0.00000000E+00  0.00000000E+00  0.00000000E+00
  0.00000000E+00  0.00000000E+00  0.00000000E+00
  0.00000000E+00  0.00000000E+00  0.00000000E+00
  0.00000000E+00  0.00000000E+00  0.00000000E+00
  0.00000000E+00  0.00000000E+00  0.00000000E+00
  0.00000000E+00  0.00000000E+00  0.00000000E+00
  0.00000000E+00  0.00000000E+00  0.00000000E+00
  0.00000000E+00  0.00000000E+00  0.00000000E+00
  0.00000000E+00  0.00000000E+00  0.00000000E+00
  0.00000000E+00  0.00000000E+00  0.00000000E+00
  0.00000000E+00  0.00000000E+00  0.00000000E+00
  0.00000000E+00  0.00000000E+00  0.00000000E+00
  0.00000000E+00  0.00000000E+00  0.00000000E+00
  0.00000000E+00  0.00000000E+00  0.00000000E+00
  0.00000000E+00  0.00000000E+00  0.00000000E+00
  0.00000000E+00  0.00000000E+00  0.00000000E+00
  0.00000000E+00  0.00000000E+00  0.00000000E+00
  0.00000000E+00  0.00000000E+00  0.00000000E+00
  0.00000000E+00  0.00000000E+00  0.00000000E+00
  0.00000000E+00  0.00000000E+00  0.00000000E+00
  0.00000000E+00  0.00000000E+00  0.00000000E+00
  0.00000000E+00  0.00000000E+00  0.00000000E+00
  0.00000000E+00  0.00000000E+00  0.00000000E+00
  0.00000000E+00  0.00000000E+00  0.00000000E+00
  0.00000000E+00  0.00000000E+00  0.00000000E+00
  0.00000000E+00  0.00000000E+00  0.00000000E+00
  0.00000000E+00  0.00000000E+00  0.00000000E+00
  0.00000000E+00  0.00000000E+00  0.00000000E+00
  0.00000000E+00  0.00000000E+00  0.00000000E+00
  0.00000000E+00  0.00000000E+00  0.00000000E+00
  0.00000000E+00  0.00000000E+00  0.00000000E+00
  0.00000000E+00  0.00000000E+00  0.00000000E+00
