Title                                   
   1.00000000000000     
     4.9440799999999996    0.0000000000000000    0.0000000000000000
     0.0000000000000000    8.5647549999999999    0.0000000000000000
     0.0000000000000000    0.0000000000000000   20.0000000000000000
    11     3     1
Selective dynamics
Direct
  0.0046109806239665  0.2931436727844403  0.0926584964194124   T   T   T
  0.2495553313422181  0.0410478645750437  0.0995631033409121   T   T   T
 -0.0045141078563702  0.9566913227822486  0.0979284066578531   T   T   T
  0.7537482437140005  0.2078707189185160  0.0950847060779397   T   T   T
  0.5073209571546622  0.2958691133868440  0.1011038394882121   T   T   T
  0.7466772253232277  0.0406359048125208  0.0965953711464365   T   T   T
  0.7472737527884361  0.7125092720817418  0.1002861821768126   T   T   T
  0.7565627494662079  0.5356603634675866  0.0984858755319281   T   T   T
  0.4967891230207018  0.9570015884311512  0.1012713847532953   T   T   T
  0.5021528821551321  0.7892371119972037  0.1075173170961118   T   T   T
 -0.0015181654099013  0.4566989152290795  0.0871231786099633   T   T   T
  0.5142783937656774  0.4549845914381387  0.1110129767076793   T   T   T
 -0.0110825640149646  0.7941184432185393  0.0988415436782408   T   T   T
  0.2549043867098285  0.2109968306994082  0.0981971190610115   T   T   T
  0.2332408112171775  0.6252152861775397  0.1223104992541951   T   T   T
 
  0.00000000E+00  0.00000000E+00  0.00000000E+00
  0.00000000E+00  0.00000000E+00  0.00000000E+00
  0.00000000E+00  0.00000000E+00  0.00000000E+00
  0.00000000E+00  0.00000000E+00  0.00000000E+00
  0.00000000E+00  0.00000000E+00  0.00000000E+00
  0.00000000E+00  0.00000000E+00  0.00000000E+00
  0.00000000E+00  0.00000000E+00  0.00000000E+00
  0.00000000E+00  0.00000000E+00  0.00000000E+00
  0.00000000E+00  0.00000000E+00  0.00000000E+00
  0.00000000E+00  0.00000000E+00  0.00000000E+00
  0.00000000E+00  0.00000000E+00  0.00000000E+00
  0.00000000E+00  0.00000000E+00  0.00000000E+00
  0.00000000E+00  0.00000000E+00  0.00000000E+00
  0.00000000E+00  0.00000000E+00  0.00000000E+00
  0.00000000E+00  0.00000000E+00  0.00000000E+00
