Title                                   
   1.00000000000000     
     9.8694509999999998    0.0000000000000000    0.0000000000000000
     0.0000000000000000    8.5490480000000009    0.0000000000000000
     0.0000000000000000    0.0000000000000000   20.0000000000000000
    27     4     1
Selective dynamics
Direct
  0.0561155439076224  0.0917552829760541  0.0825485536557924   T   T   T
  0.9306336159958496  0.1748877704634218  0.0833589703248868   T   T   T
  0.0577568148956764  0.9247619712339811  0.0832926341734799   T   T   T
  0.9293660125694657  0.3425506504029877  0.0859859663294783   T   T   T
  0.0571427030081003  0.5912178543355608  0.0841184485288616   T   T   T
  0.9326126944367447  0.6741756114399995  0.0875638224603170   T   T   T
  0.0564417778318535  0.4239199155396103  0.0848641649382281   T   T   T
  0.9330956899100425  0.8410873519886879  0.0862226135277994   T   T   T
  0.3058504092852058  0.0884406126387493  0.0881756080694060   T   T   T
  0.1823069013293800  0.1735841135035853  0.0847541581699360   T   T   T
  0.1825724493970654  0.3402198382584219  0.0869627943328727   T   T   T
  0.3034285552526155  0.5894937649085997  0.1018245915011718   T   T   T
  0.1822754477471851  0.6744458427912570  0.0879675863321458   T   T   T
  0.3081429358449663  0.4220509333944483  0.0975762917866108   T   T   T
  0.1823538786020093  0.8416037071214846  0.0864086605119891   T   T   T
  0.5565062175524764  0.0846169312887669  0.0932969071788081   T   T   T
  0.5549008354745005  0.9205103381273524  0.1010860632708074   T   T   T
  0.4306953849353335  0.3308755699105735  0.1027305392562451   T   T   T
  0.4267404399508304  0.8421693933638940  0.1066654961613329   T   T   T
  0.8061050744997613  0.0895577772400778  0.0846480495481850   T   T   T
  0.6794939322237336  0.1699809695641790  0.0891751380072197   T   T   T
  0.8076385698193069  0.9241359118459560  0.0884408071674669   T   T   T
  0.6798568201791867  0.3337287274080263  0.0982922278580568   T   T   T
  0.8092216714586770  0.5938788788948348  0.0984551181366814   T   T   T
  0.8020423614178508  0.4251947711024868  0.0947992973723728   T   T   T
  0.6849682484113819  0.8412670629682385  0.1008609912585381   T   T   T
  0.4152921251539415  0.6827703693617830  0.1240459149019180   T   T   T
  0.5544434110850832  0.3967906182363284  0.1188840665664831   T   T   T
  0.6961894781636195  0.6836006436242559  0.1169679777457348   T   T   T
  0.3059400362464004  0.9261051139226454  0.0904979669608853   T   T   T
  0.4288736738146781  0.1667903832690767  0.0936024233177077   T   T   T
  0.5606352895994621  0.5840773188746774  0.1716011506485969   T   T   T
 
  0.00000000E+00  0.00000000E+00  0.00000000E+00
  0.00000000E+00  0.00000000E+00  0.00000000E+00
  0.00000000E+00  0.00000000E+00  0.00000000E+00
  0.00000000E+00  0.00000000E+00  0.00000000E+00
  0.00000000E+00  0.00000000E+00  0.00000000E+00
  0.00000000E+00  0.00000000E+00  0.00000000E+00
  0.00000000E+00  0.00000000E+00  0.00000000E+00
  0.00000000E+00  0.00000000E+00  0.00000000E+00
  0.00000000E+00  0.00000000E+00  0.00000000E+00
  0.00000000E+00  0.00000000E+00  0.00000000E+00
  0.00000000E+00  0.00000000E+00  0.00000000E+00
  0.00000000E+00  0.00000000E+00  0.00000000E+00
  0.00000000E+00  0.00000000E+00  0.00000000E+00
  0.00000000E+00  0.00000000E+00  0.00000000E+00
  0.00000000E+00  0.00000000E+00  0.00000000E+00
  0.00000000E+00  0.00000000E+00  0.00000000E+00
  0.00000000E+00  0.00000000E+00  0.00000000E+00
  0.00000000E+00  0.00000000E+00  0.00000000E+00
  0.00000000E+00  0.00000000E+00  0.00000000E+00
  0.00000000E+00  0.00000000E+00  0.00000000E+00
  0.00000000E+00  0.00000000E+00  0.00000000E+00
  0.00000000E+00  0.00000000E+00  0.00000000E+00
  0.00000000E+00  0.00000000E+00  0.00000000E+00
  0.00000000E+00  0.00000000E+00  0.00000000E+00
  0.00000000E+00  0.00000000E+00  0.00000000E+00
  0.00000000E+00  0.00000000E+00  0.00000000E+00
  0.00000000E+00  0.00000000E+00  0.00000000E+00
  0.00000000E+00  0.00000000E+00  0.00000000E+00
  0.00000000E+00  0.00000000E+00  0.00000000E+00
  0.00000000E+00  0.00000000E+00  0.00000000E+00
  0.00000000E+00  0.00000000E+00  0.00000000E+00
  0.00000000E+00  0.00000000E+00  0.00000000E+00
