Title                                   
   1.00000000000000     
     8.5490480000000009    0.0000000000000000    0.0000000000000000
     0.0000000000000000    8.5490480000000009    0.0000000000000000
     0.0000000000000000    0.0000000000000000   20.0000000000000000
    23     1     1
Selective dynamics
Direct
  0.9097245800690044  0.2072063371899218  0.0988165460406283   T   T   T
  0.9059673688806698  0.5031538879254421  0.0966572231293731   T   T   T
  0.9108804654247995  0.7990483296479177  0.0979412355011814   T   T   T
  0.1979956794887236  0.0838733275734497  0.0976900907199188   T   T   T
  0.0750697337910950  0.2067837817381399  0.0976465699934167   T   T   T
  0.1984667470856235  0.9185280038199438  0.0989048097876334   T   T   T
  0.1562124396354337  0.6477057695814286  0.0975333731821608   T   T   T
  0.0747708804240661  0.5023411391723089  0.0966820365588601   T   T   T
  0.1556607100862060  0.3557723024898231  0.0950729148891623   T   T   T
  0.0767739750382052  0.7971029316625519  0.0990617414959312   T   T   T
  0.4934744954584920  0.0835585817121496  0.0967112260354301   T   T   T
  0.3469577325518791  0.1644991224014210  0.0951046539888635   T   T   T
  0.4943510373199456  0.9147435996490878  0.0967186325481425   T   T   T
  0.3480513367288725  0.8355972261262613  0.0974611890887687   T   T   T
  0.7882779378477741  0.0855388717790268  0.0989967296395881   T   T   T
  0.6388654825312500  0.1649559306745579  0.0974956215831611   T   T   T
  0.7902726850479815  0.9196485625760590  0.0979271542928977   T   T   T
  0.8281419824228883  0.6518484051152481  0.0952553647660931   T   T   T
  0.8268565865906857  0.3568049604278025  0.0973600851869984   T   T   T
  0.6430433509426406  0.8369203752214638  0.0952524395233935   T   T   T
  0.3247388078349520  0.3335440796186819  0.0890241023424052   T   T   T
  0.3240086402308642  0.6686491379773865  0.0937409052611024   T   T   T
  0.6598942176266335  0.3326978816702130  0.0936682588398662   T   T   T
  0.6666795459513638  0.6754436314071621  0.0907636666908283   T   T   T
  0.4902755809899439  0.4988238228425649  0.0722184289141727   T   T   T
 
  0.00000000E+00  0.00000000E+00  0.00000000E+00
  0.00000000E+00  0.00000000E+00  0.00000000E+00
  0.00000000E+00  0.00000000E+00  0.00000000E+00
  0.00000000E+00  0.00000000E+00  0.00000000E+00
  0.00000000E+00  0.00000000E+00  0.00000000E+00
  0.00000000E+00  0.00000000E+00  0.00000000E+00
  0.00000000E+00  0.00000000E+00  0.00000000E+00
  0.00000000E+00  0.00000000E+00  0.00000000E+00
  0.00000000E+00  0.00000000E+00  0.00000000E+00
  0.00000000E+00  0.00000000E+00  0.00000000E+00
  0.00000000E+00  0.00000000E+00  0.00000000E+00
  0.00000000E+00  0.00000000E+00  0.00000000E+00
  0.00000000E+00  0.00000000E+00  0.00000000E+00
  0.00000000E+00  0.00000000E+00  0.00000000E+00
  0.00000000E+00  0.00000000E+00  0.00000000E+00
  0.00000000E+00  0.00000000E+00  0.00000000E+00
  0.00000000E+00  0.00000000E+00  0.00000000E+00
  0.00000000E+00  0.00000000E+00  0.00000000E+00
  0.00000000E+00  0.00000000E+00  0.00000000E+00
  0.00000000E+00  0.00000000E+00  0.00000000E+00
  0.00000000E+00  0.00000000E+00  0.00000000E+00
  0.00000000E+00  0.00000000E+00  0.00000000E+00
  0.00000000E+00  0.00000000E+00  0.00000000E+00
  0.00000000E+00  0.00000000E+00  0.00000000E+00
  0.00000000E+00  0.00000000E+00  0.00000000E+00
