Title                                   
   1.00000000000000     
     9.8694509999999998    0.0000000000000000    0.0000000000000000
     0.0000000000000000    8.5490480000000009    0.0000000000000000
     0.0000000000000000    0.0000000000000000   20.0000000000000000
    25     5     1
Selective dynamics
Direct
  0.0542165396486789  0.0891983224215265  0.0884791171397595   T   T   T
  0.9291422995349402  0.1748682678149800  0.0857556395005266   T   T   T
  0.0578673595882083  0.9216835045578406  0.0887641819987625   T   T   T
  0.9312040618880753  0.3416909165051166  0.0858750260772269   T   T   T
  0.0564205571560704  0.5905692065618836  0.0888109733139116   T   T   T
  0.0553455310483334  0.4239792169212969  0.0884940432444607   T   T   T
  0.9327838255184218  0.8412489820654045  0.0888227458890119   T   T   T
  0.3063541391536619  0.0858817534633553  0.0961940813771787   T   T   T
  0.1794110288625504  0.1688357304907686  0.0929299445792682   T   T   T
  0.1790536543429448  0.3361636275386786  0.0930073235846990   T   T   T
  0.3032408237788939  0.5830425349783631  0.0975045067733490   T   T   T
  0.1809914050901497  0.6715907653586319  0.0913780728161290   T   T   T
  0.3015220604714082  0.4155355272481985  0.1013775342955618   T   T   T
  0.1836928961577130  0.8386728075584819  0.0908667149813796   T   T   T
  0.4274965722597077  0.1734195385618066  0.1028925030933383   T   T   T
  0.5564253554970882  0.9212444941005278  0.0986387057812965   T   T   T
  0.4282340113842709  0.6636918477535249  0.1029113665273737   T   T   T
  0.4325312687167087  0.8320675296560283  0.0991726621996470   T   T   T
  0.8024613925885099  0.0927930209311819  0.0868267784283425   T   T   T
  0.6770020495158783  0.1800107594660730  0.0888986173631167   T   T   T
  0.8068820826884455  0.9247299736498635  0.0895328765679625   T   T   T
  0.6797119285496345  0.3477444223763712  0.0868669527548545   T   T   T
  0.8111953645937580  0.5968683164783030  0.0912091875385759   T   T   T
  0.8074181406517452  0.4278928101843592  0.0860608195131919   T   T   T
  0.6831722545428396  0.8410113552813082  0.0963941247777786   T   T   T
  0.9337298583191667  0.6750759885689469  0.0883168446903244   T   T   T
  0.5540670044390484  0.0932930833398245  0.0976784442270604   T   T   T
  0.4216078962351925  0.3340390481091998  0.1148068473163987   T   T   T
  0.6940775902128009  0.6783128072839528  0.1039787743433826   T   T   T
  0.3073358525087433  0.9188629943092517  0.0940275205940845   T   T   T
  0.5685401950564144  0.5068558464649777  0.1344920687120796   T   T   T
 
  0.00000000E+00  0.00000000E+00  0.00000000E+00
  0.00000000E+00  0.00000000E+00  0.00000000E+00
  0.00000000E+00  0.00000000E+00  0.00000000E+00
  0.00000000E+00  0.00000000E+00  0.00000000E+00
  0.00000000E+00  0.00000000E+00  0.00000000E+00
  0.00000000E+00  0.00000000E+00  0.00000000E+00
  0.00000000E+00  0.00000000E+00  0.00000000E+00
  0.00000000E+00  0.00000000E+00  0.00000000E+00
  0.00000000E+00  0.00000000E+00  0.00000000E+00
  0.00000000E+00  0.00000000E+00  0.00000000E+00
  0.00000000E+00  0.00000000E+00  0.00000000E+00
  0.00000000E+00  0.00000000E+00  0.00000000E+00
  0.00000000E+00  0.00000000E+00  0.00000000E+00
  0.00000000E+00  0.00000000E+00  0.00000000E+00
  0.00000000E+00  0.00000000E+00  0.00000000E+00
  0.00000000E+00  0.00000000E+00  0.00000000E+00
  0.00000000E+00  0.00000000E+00  0.00000000E+00
  0.00000000E+00  0.00000000E+00  0.00000000E+00
  0.00000000E+00  0.00000000E+00  0.00000000E+00
  0.00000000E+00  0.00000000E+00  0.00000000E+00
  0.00000000E+00  0.00000000E+00  0.00000000E+00
  0.00000000E+00  0.00000000E+00  0.00000000E+00
  0.00000000E+00  0.00000000E+00  0.00000000E+00
  0.00000000E+00  0.00000000E+00  0.00000000E+00
  0.00000000E+00  0.00000000E+00  0.00000000E+00
  0.00000000E+00  0.00000000E+00  0.00000000E+00
  0.00000000E+00  0.00000000E+00  0.00000000E+00
  0.00000000E+00  0.00000000E+00  0.00000000E+00
  0.00000000E+00  0.00000000E+00  0.00000000E+00
  0.00000000E+00  0.00000000E+00  0.00000000E+00
  0.00000000E+00  0.00000000E+00  0.00000000E+00
