Title                                   
   1.00000000000000     
     4.9440799999999996    0.0000000000000000    0.0000000000000000
     0.0000000000000000    8.5647549999999999    0.0000000000000000
     0.0000000000000000    0.0000000000000000   20.0000000000000000
    13     1     1
Selective dynamics
Direct
 -0.0005874184268444  0.2903880432840816  0.1000536366270856   T   T   T
  0.2500000000000000  0.0445737559274258  0.1008088560373054   T   T   T
 -0.0013150241236810  0.9602450682889848  0.1005896141964274   T   T   T
  0.7500000000000000  0.2064692139846457  0.0993597508310787   T   T   T
  0.5005874184268444  0.2903880432840816  0.1000536366270856   T   T   T
  0.7500000000000000  0.0425285463617261  0.0997097108424261   T   T   T
  0.7500000000000000  0.7122532450054940  0.0996150842009632   T   T   T
  0.7500000000000000  0.5353348705326872  0.0994119325191471   T   T   T
  0.5013150241236807  0.9602450682889848  0.1005896141964274   T   T   T
  0.5086171739755403  0.4519041938779048  0.1005139524193084   T   T   T
 -0.0086171739755401  0.4519041938779048  0.1005139524193084   T   T   T
 -0.0107380596529550  0.7969531782934524  0.1011488788661872   T   T   T
  0.5107380596529547  0.7969531782934524  0.1011488788661872   T   T   T
  0.2500000000000000  0.2060803598760149  0.1005841835701241   T   T   T
  0.2500000000000000  0.6254600408231599  0.1038783177809416   T   T   T
 
  0.00000000E+00  0.00000000E+00  0.00000000E+00
  0.00000000E+00  0.00000000E+00  0.00000000E+00
  0.00000000E+00  0.00000000E+00  0.00000000E+00
  0.00000000E+00  0.00000000E+00  0.00000000E+00
  0.00000000E+00  0.00000000E+00  0.00000000E+00
  0.00000000E+00  0.00000000E+00  0.00000000E+00
  0.00000000E+00  0.00000000E+00  0.00000000E+00
  0.00000000E+00  0.00000000E+00  0.00000000E+00
  0.00000000E+00  0.00000000E+00  0.00000000E+00
  0.00000000E+00  0.00000000E+00  0.00000000E+00
  0.00000000E+00  0.00000000E+00  0.00000000E+00
  0.00000000E+00  0.00000000E+00  0.00000000E+00
  0.00000000E+00  0.00000000E+00  0.00000000E+00
  0.00000000E+00  0.00000000E+00  0.00000000E+00
  0.00000000E+00  0.00000000E+00  0.00000000E+00
