Title                                   
   1.00000000000000     
     4.9440799999999996    0.0000000000000000    0.0000000000000000
     0.0000000000000000   17.1295089999999988    0.0000000000000000
     0.0000000000000000    0.0000000000000000   20.0000000000000000
    28     3     1
Selective dynamics
Direct
 -0.0019685459055576  0.1044783964664925  0.2847071637992344   T   T   T
  0.2477834873880443  0.1461388422885006  0.2884729389321213   T   T   T
  0.2465336958955138  0.2290574474359209  0.2987834927118048   T   T   T
 -0.0029622128195428  0.3511550006983881  0.3215544131631674   T   T   T
 -0.0054685328920636  0.2699493637960025  0.3039091820845066   T   T   T
 -0.0004478169480665  0.6030634793949787  0.3034703429310145   T   T   T
  0.2538689540305710  0.7271430112302323  0.2913241310255021   T   T   T
  0.0026991810483132  0.8534106718267395  0.2817488133612643   T   T   T
  0.2515356273757730  0.8955219253425101  0.2809083438641993   T   T   T
  0.2499970772563994  0.9790837967505323  0.2803215495846996   T   T   T
  0.0044476295692478  0.7698651959237612  0.2861522882300659   T   T   T
  0.4980862886331250  0.1043935466805805  0.2848306117695021   T   T   T
  0.7474524831131989  0.1460818942975164  0.2875534127343357   T   T   T
  0.7458608144607539  0.2290769480118533  0.2966319636553741   T   T   T
  0.4996798708360373  0.0208427318044971  0.2809843367467825   T   T   T
  0.4916468725913892  0.3518234516699590  0.3225079393192343   T   T   T
  0.7449389894763566  0.3971662324077455  0.3255245160159292   T   T   T
  0.7538866435970267  0.4859517855625551  0.3241382960038713   T   T   T
  0.4970937752014793  0.2702197714157246  0.3045116715192533   T   T   T
  0.5121979434736121  0.6052799090704675  0.3116499965741688   T   T   T
  0.7536424009855672  0.7292597587866528  0.2894695752923387   T   T   T
  0.5013280626855193  0.8534983322804655  0.2823590710858905   T   T   T
  0.7515906567559701  0.8951533044860969  0.2806240760161729   T   T   T
  0.7500600862114889  0.9789390057754573  0.2800615561947652   T   T   T
  0.5023799349384290  0.7700404290411689  0.2873719762322672   T   T   T
  0.7551919443514844  0.6468248042047929  0.2990002112922666   T   T   T
  0.2555249692125613  0.6439412259096700  0.3022304499863543   T   T   T
 -0.0005468554728593  0.0209035085060496  0.2808604402453748   T   T   T
  0.5292937106592124  0.5304873458342273  0.3360659604302132   T   T   T
  0.9879809927568289  0.5231841909937622  0.3067830019564918   T   T   T
  0.2428252927711506  0.3830481903146035  0.3381573728495935   T   T   T
  0.2306895787630439  0.4835675017920873  0.3798959043921908   T   T   T
 
  0.00000000E+00  0.00000000E+00  0.00000000E+00
  0.00000000E+00  0.00000000E+00  0.00000000E+00
  0.00000000E+00  0.00000000E+00  0.00000000E+00
  0.00000000E+00  0.00000000E+00  0.00000000E+00
  0.00000000E+00  0.00000000E+00  0.00000000E+00
  0.00000000E+00  0.00000000E+00  0.00000000E+00
  0.00000000E+00  0.00000000E+00  0.00000000E+00
  0.00000000E+00  0.00000000E+00  0.00000000E+00
  0.00000000E+00  0.00000000E+00  0.00000000E+00
  0.00000000E+00  0.00000000E+00  0.00000000E+00
  0.00000000E+00  0.00000000E+00  0.00000000E+00
  0.00000000E+00  0.00000000E+00  0.00000000E+00
  0.00000000E+00  0.00000000E+00  0.00000000E+00
  0.00000000E+00  0.00000000E+00  0.00000000E+00
  0.00000000E+00  0.00000000E+00  0.00000000E+00
  0.00000000E+00  0.00000000E+00  0.00000000E+00
  0.00000000E+00  0.00000000E+00  0.00000000E+00
  0.00000000E+00  0.00000000E+00  0.00000000E+00
  0.00000000E+00  0.00000000E+00  0.00000000E+00
  0.00000000E+00  0.00000000E+00  0.00000000E+00
  0.00000000E+00  0.00000000E+00  0.00000000E+00
  0.00000000E+00  0.00000000E+00  0.00000000E+00
  0.00000000E+00  0.00000000E+00  0.00000000E+00
  0.00000000E+00  0.00000000E+00  0.00000000E+00
  0.00000000E+00  0.00000000E+00  0.00000000E+00
  0.00000000E+00  0.00000000E+00  0.00000000E+00
  0.00000000E+00  0.00000000E+00  0.00000000E+00
  0.00000000E+00  0.00000000E+00  0.00000000E+00
  0.00000000E+00  0.00000000E+00  0.00000000E+00
  0.00000000E+00  0.00000000E+00  0.00000000E+00
  0.00000000E+00  0.00000000E+00  0.00000000E+00
  0.00000000E+00  0.00000000E+00  0.00000000E+00
