Title                                   
   1.00000000000000     
     9.8694509999999998    0.0000000000000000    0.0000000000000000
     0.0000000000000000    8.5490480000000009    0.0000000000000000
     0.0000000000000000    0.0000000000000000   20.0000000000000000
    28     2     1
Selective dynamics
Direct
  0.0560655268461291  0.0891255668734837  0.0895882573882802   T   T   T
  0.9310415088264924  0.1719379510453925  0.0902305890040624   T   T   T
  0.0572271070457729  0.9240999000172663  0.0898048487821072   T   T   T
  0.9329765426625037  0.3386948105451568  0.0892307406261390   T   T   T
  0.0565791580127226  0.5901302747747796  0.0877675244336730   T   T   T
  0.9330090829598227  0.6738851055209938  0.0895189309991992   T   T   T
  0.0566832700658567  0.4231180923455289  0.0876630296753711   T   T   T
  0.9317492233846275  0.8406047914055012  0.0905933730271651   T   T   T
  0.3071967353273219  0.0884303760758047  0.0944585029498491   T   T   T
  0.1817538708097390  0.1707615324456066  0.0906256882570892   T   T   T
  0.1800482720280061  0.3380648731374317  0.0900113206170594   T   T   T
  0.3015171808990085  0.5901819613885961  0.0957014610368203   T   T   T
  0.1807074934347567  0.6743522411399948  0.0903314550305875   T   T   T
  0.3019481872482697  0.4207628557446490  0.0955883938560503   T   T   T
  0.1822440207073020  0.8419255800725584  0.0911195535100054   T   T   T
  0.4307877253825741  0.1762814696132367  0.0993984758369638   T   T   T
  0.5556614476495383  0.9245403093047982  0.1007347893118514   T   T   T
  0.4280946435404943  0.3419458775126021  0.1020126799430558   T   T   T
  0.4269625972045565  0.6699821072119687  0.1023030128252000   T   T   T
  0.4291467192257356  0.8357445139073953  0.0999656076842955   T   T   T
  0.8051226412032272  0.0896566425989968  0.0939005806117320   T   T   T
  0.6813804618360352  0.1779059815776420  0.0981813646619431   T   T   T
  0.8062810026860360  0.9222199229938494  0.0942266233352489   T   T   T
  0.6836427766660265  0.3440800034478897  0.0997012862387573   T   T   T
  0.8109415346593140  0.5906435219204418  0.0937748913834030   T   T   T
  0.6843104591614202  0.6672799272730302  0.1002894788905181   T   T   T
  0.8107829582273901  0.4211119316211180  0.0935541227839422   T   T   T
  0.6811867264561334  0.8351808613615788  0.0989497607179604   T   T   T
  0.5568548570179681  0.0885706269790110  0.1005263680886475   T   T   T
  0.3053112735406923  0.9227823543286104  0.0946310592328646   T   T   T
  0.5559199952845313  0.5068730358151075  0.1065812292601854   T   T   T
 
  0.00000000E+00  0.00000000E+00  0.00000000E+00
  0.00000000E+00  0.00000000E+00  0.00000000E+00
  0.00000000E+00  0.00000000E+00  0.00000000E+00
  0.00000000E+00  0.00000000E+00  0.00000000E+00
  0.00000000E+00  0.00000000E+00  0.00000000E+00
  0.00000000E+00  0.00000000E+00  0.00000000E+00
  0.00000000E+00  0.00000000E+00  0.00000000E+00
  0.00000000E+00  0.00000000E+00  0.00000000E+00
  0.00000000E+00  0.00000000E+00  0.00000000E+00
  0.00000000E+00  0.00000000E+00  0.00000000E+00
  0.00000000E+00  0.00000000E+00  0.00000000E+00
  0.00000000E+00  0.00000000E+00  0.00000000E+00
  0.00000000E+00  0.00000000E+00  0.00000000E+00
  0.00000000E+00  0.00000000E+00  0.00000000E+00
  0.00000000E+00  0.00000000E+00  0.00000000E+00
  0.00000000E+00  0.00000000E+00  0.00000000E+00
  0.00000000E+00  0.00000000E+00  0.00000000E+00
  0.00000000E+00  0.00000000E+00  0.00000000E+00
  0.00000000E+00  0.00000000E+00  0.00000000E+00
  0.00000000E+00  0.00000000E+00  0.00000000E+00
  0.00000000E+00  0.00000000E+00  0.00000000E+00
  0.00000000E+00  0.00000000E+00  0.00000000E+00
  0.00000000E+00  0.00000000E+00  0.00000000E+00
  0.00000000E+00  0.00000000E+00  0.00000000E+00
  0.00000000E+00  0.00000000E+00  0.00000000E+00
  0.00000000E+00  0.00000000E+00  0.00000000E+00
  0.00000000E+00  0.00000000E+00  0.00000000E+00
  0.00000000E+00  0.00000000E+00  0.00000000E+00
  0.00000000E+00  0.00000000E+00  0.00000000E+00
  0.00000000E+00  0.00000000E+00  0.00000000E+00
  0.00000000E+00  0.00000000E+00  0.00000000E+00
