Title                                   
   1.00000000000000     
     9.8694509999999998    0.0000000000000000    0.0000000000000000
     0.0000000000000000    8.5490480000000009    0.0000000000000000
     0.0000000000000000    0.0000000000000000   20.0000000000000000
    28     3     1
Selective dynamics
Direct
  0.0564225202140222  0.0915415937944021  0.0854418697460499   T   T   T
  0.9309043420385757  0.1745712407072920  0.0880855271915457   T   T   T
  0.0575165265134082  0.9239928742880837  0.0837095370461245   T   T   T
  0.9296254573963901  0.3422076653987703  0.0913489231064055   T   T   T
  0.0560595045330094  0.5898751264231108  0.0876369395932473   T   T   T
  0.9322537990191887  0.6738518694727712  0.0865446972279094   T   T   T
  0.0566757067052250  0.4235331229258129  0.0906321867147188   T   T   T
  0.9323922415548905  0.8411341800101261  0.0843007746365690   T   T   T
  0.3061678900404952  0.0878386188804090  0.0874482814402358   T   T   T
  0.1825472374163613  0.1741332459916398  0.0882527249541950   T   T   T
  0.3079338187239050  0.9222484559236951  0.0875185498785700   T   T   T
  0.1819320316963071  0.3400491147740825  0.0933621981892582   T   T   T
  0.3048173420480210  0.5886503670252027  0.1016130593564580   T   T   T
  0.1819050580780779  0.6716334456214337  0.0890195771113959   T   T   T
  0.1827368914401206  0.8382822142566543  0.0859916441512445   T   T   T
  0.5565369659355179  0.0857135212288886  0.0942737506875817   T   T   T
  0.4312171033826094  0.1694322239659240  0.0933320994508348   T   T   T
  0.4301284831253472  0.3347996069643125  0.1041880794327895   T   T   T
  0.4306052564394184  0.8372087688780323  0.0982771234336908   T   T   T
  0.8069417873437212  0.0904070295632595  0.0876564981730799   T   T   T
  0.6804299919108298  0.1702310325004023  0.0937765094902862   T   T   T
  0.8072352947212990  0.9252225776377090  0.0859823227399555   T   T   T
  0.6786713876871756  0.3356392148452197  0.1035527906554260   T   T   T
  0.8060054863885122  0.5944772138768861  0.0934059275963617   T   T   T
  0.8034832069901701  0.4257769494280014  0.0971696926433101   T   T   T
  0.6843586747201060  0.8389344964553570  0.0919334943611065   T   T   T
  0.4210108946251738  0.6783550750472011  0.1183855247699857   T   T   T
  0.5529298839391218  0.4061888914714652  0.1217182467828993   T   T   T
  0.6878090342697432  0.6816905136223069  0.0984551346613066   T   T   T
  0.5577696562057316  0.9187747436620670  0.0956788562395146   T   T   T
  0.3052444851710366  0.4217688319156629  0.1018774763557248   T   T   T
  0.5593710397264946  0.5920821734438226  0.1751049821822346   T   T   T
 
  0.00000000E+00  0.00000000E+00  0.00000000E+00
  0.00000000E+00  0.00000000E+00  0.00000000E+00
  0.00000000E+00  0.00000000E+00  0.00000000E+00
  0.00000000E+00  0.00000000E+00  0.00000000E+00
  0.00000000E+00  0.00000000E+00  0.00000000E+00
  0.00000000E+00  0.00000000E+00  0.00000000E+00
  0.00000000E+00  0.00000000E+00  0.00000000E+00
  0.00000000E+00  0.00000000E+00  0.00000000E+00
  0.00000000E+00  0.00000000E+00  0.00000000E+00
  0.00000000E+00  0.00000000E+00  0.00000000E+00
  0.00000000E+00  0.00000000E+00  0.00000000E+00
  0.00000000E+00  0.00000000E+00  0.00000000E+00
  0.00000000E+00  0.00000000E+00  0.00000000E+00
  0.00000000E+00  0.00000000E+00  0.00000000E+00
  0.00000000E+00  0.00000000E+00  0.00000000E+00
  0.00000000E+00  0.00000000E+00  0.00000000E+00
  0.00000000E+00  0.00000000E+00  0.00000000E+00
  0.00000000E+00  0.00000000E+00  0.00000000E+00
  0.00000000E+00  0.00000000E+00  0.00000000E+00
  0.00000000E+00  0.00000000E+00  0.00000000E+00
  0.00000000E+00  0.00000000E+00  0.00000000E+00
  0.00000000E+00  0.00000000E+00  0.00000000E+00
  0.00000000E+00  0.00000000E+00  0.00000000E+00
  0.00000000E+00  0.00000000E+00  0.00000000E+00
  0.00000000E+00  0.00000000E+00  0.00000000E+00
  0.00000000E+00  0.00000000E+00  0.00000000E+00
  0.00000000E+00  0.00000000E+00  0.00000000E+00
  0.00000000E+00  0.00000000E+00  0.00000000E+00
  0.00000000E+00  0.00000000E+00  0.00000000E+00
  0.00000000E+00  0.00000000E+00  0.00000000E+00
  0.00000000E+00  0.00000000E+00  0.00000000E+00
  0.00000000E+00  0.00000000E+00  0.00000000E+00
