Title                                   
   1.00000000000000     
     4.9440799999999996    0.0000000000000000    0.0000000000000000
     0.0000000000000000    8.5647549999999999    0.0000000000000000
     0.0000000000000000    0.0000000000000000   20.0000000000000000
    10     4     1
Selective dynamics
Direct
  0.2500000000000000  0.2113952885927776  0.0956722093277721   T   T   T
 -0.0019060618132159  0.2953294543470821  0.0951809124292058   T   T   T
  0.2500000000000000  0.0381372366052557  0.0956795905672315   T   T   T
 -0.0019263958119449  0.9542213864815461  0.0951755755252808   T   T   T
  0.7500000000000000  0.2080751424709099  0.0916663418755163   T   T   T
  0.5019060618132161  0.2953294543470821  0.0951809124292058   T   T   T
  0.7500000000000000  0.0414677086822149  0.0916644352965019   T   T   T
  0.7500000000000000  0.7115223317708459  0.0987740973160899   T   T   T
  0.7500000000000000  0.5380020725750494  0.0987565721445842   T   T   T
  0.5019263958119448  0.9542213864815461  0.0951755755252808   T   T   T
  0.5086506244287681  0.4565672055402558  0.0999905746875556   T   T   T
 -0.0086506244287682  0.4565672055402558  0.0999905746875556   T   T   T
 -0.0086905081790840  0.7930097796878121  0.0999980119444633   T   T   T
  0.5086905081790839  0.7930097796878121  0.0999980119444633   T   T   T
  0.2500000000000000  0.6248255671895561  0.1550766042992965   T   T   T
 
  0.00000000E+00  0.00000000E+00  0.00000000E+00
  0.00000000E+00  0.00000000E+00  0.00000000E+00
  0.00000000E+00  0.00000000E+00  0.00000000E+00
  0.00000000E+00  0.00000000E+00  0.00000000E+00
  0.00000000E+00  0.00000000E+00  0.00000000E+00
  0.00000000E+00  0.00000000E+00  0.00000000E+00
  0.00000000E+00  0.00000000E+00  0.00000000E+00
  0.00000000E+00  0.00000000E+00  0.00000000E+00
  0.00000000E+00  0.00000000E+00  0.00000000E+00
  0.00000000E+00  0.00000000E+00  0.00000000E+00
  0.00000000E+00  0.00000000E+00  0.00000000E+00
  0.00000000E+00  0.00000000E+00  0.00000000E+00
  0.00000000E+00  0.00000000E+00  0.00000000E+00
  0.00000000E+00  0.00000000E+00  0.00000000E+00
  0.00000000E+00  0.00000000E+00  0.00000000E+00
