Title                                   
   1.00000000000000     
     8.5490480000000009    0.0000000000000000    0.0000000000000000
     0.0000000000000000    8.5490480000000009    0.0000000000000000
     0.0000000000000000    0.0000000000000000   20.0000000000000000
    22     2     1
Selective dynamics
Direct
  0.9101165374319200  0.2052589415899875  0.0954355672010021   T   T   T
  0.9022704008230722  0.5018170356655166  0.0952820262704263   T   T   T
  0.9101278697743543  0.7983347053542484  0.0954455352643154   T   T   T
  0.2002495785027692  0.0842612227789246  0.0954519155909208   T   T   T
  0.0757581015842529  0.2072743295809006  0.0954280749393257   T   T   T
  0.2002644788711749  0.9192864739359740  0.0954656447927486   T   T   T
  0.1564129891712177  0.6466951114570639  0.0953630428738578   T   T   T
  0.0719867083798965  0.5018099411167154  0.0953206129104336   T   T   T
  0.1564000402491002  0.3569058441267079  0.0953449570683281   T   T   T
  0.0757764860033513  0.7962940341649493  0.0954568052632946   T   T   T
  0.4954410452406147  0.0874772267146760  0.0953352852592776   T   T   T
  0.3500856938514199  0.1694651436510280  0.0953636676522934   T   T   T
  0.4954452516987152  0.9160984670274146  0.0953429314195863   T   T   T
  0.3501112019751294  0.8340939946561654  0.0953782016333658   T   T   T
  0.7893708361157198  0.0856495995077055  0.0954464609710628   T   T   T
  0.6430068113848306  0.1676256880952500  0.0953042757480288   T   T   T
  0.7893819654901512  0.9179422027252266  0.0954472665693244   T   T   T
  0.8229739593410760  0.6491806704810530  0.0952933788954873   T   T   T
  0.8229761776863110  0.3544356752943424  0.0952871897592442   T   T   T
  0.6430094108212465  0.8359707860079411  0.0953103836622570   T   T   T
  0.3254300476083244  0.3389511509993868  0.0953140122557484   T   T   T
  0.3254587604501455  0.6646301805068356  0.0953156822471859   T   T   T
  0.6633065960071277  0.3311519891321048  0.0951695094657335   T   T   T
  0.6633040153787022  0.6724307616940177  0.0951773114127624   T   T   T
  0.4867470361593700  0.5017488237358777  0.0952252608739668   T   T   T
 
  0.00000000E+00  0.00000000E+00  0.00000000E+00
  0.00000000E+00  0.00000000E+00  0.00000000E+00
  0.00000000E+00  0.00000000E+00  0.00000000E+00
  0.00000000E+00  0.00000000E+00  0.00000000E+00
  0.00000000E+00  0.00000000E+00  0.00000000E+00
  0.00000000E+00  0.00000000E+00  0.00000000E+00
  0.00000000E+00  0.00000000E+00  0.00000000E+00
  0.00000000E+00  0.00000000E+00  0.00000000E+00
  0.00000000E+00  0.00000000E+00  0.00000000E+00
  0.00000000E+00  0.00000000E+00  0.00000000E+00
  0.00000000E+00  0.00000000E+00  0.00000000E+00
  0.00000000E+00  0.00000000E+00  0.00000000E+00
  0.00000000E+00  0.00000000E+00  0.00000000E+00
  0.00000000E+00  0.00000000E+00  0.00000000E+00
  0.00000000E+00  0.00000000E+00  0.00000000E+00
  0.00000000E+00  0.00000000E+00  0.00000000E+00
  0.00000000E+00  0.00000000E+00  0.00000000E+00
  0.00000000E+00  0.00000000E+00  0.00000000E+00
  0.00000000E+00  0.00000000E+00  0.00000000E+00
  0.00000000E+00  0.00000000E+00  0.00000000E+00
  0.00000000E+00  0.00000000E+00  0.00000000E+00
  0.00000000E+00  0.00000000E+00  0.00000000E+00
  0.00000000E+00  0.00000000E+00  0.00000000E+00
  0.00000000E+00  0.00000000E+00  0.00000000E+00
  0.00000000E+00  0.00000000E+00  0.00000000E+00
