Title                                   
   1.00000000000000     
     8.5490480000000009    0.0000000000000000    0.0000000000000000
     0.0000000000000000    8.5490480000000009    0.0000000000000000
     0.0000000000000000    0.0000000000000000   20.0000000000000000
    23     1     1
Selective dynamics
Direct
  0.9108880606901550  0.2044621022375981  0.0929743768395168   T   T   T
  0.9102098468139741  0.5031022819195569  0.0961924078263648   T   T   T
  0.9135181416830619  0.8023235976461053  0.0933908677907564   T   T   T
  0.1963130364181538  0.0812328045131116  0.0937166644064826   T   T   T
  0.0736623396789922  0.2014133267384545  0.0931686318299210   T   T   T
  0.1582883178550938  0.6501662684026183  0.0961340211468586   T   T   T
  0.0774333825077649  0.5015763476518936  0.0960846211292693   T   T   T
  0.1568611322071111  0.3531207577758548  0.0965724300958779   T   T   T
  0.0775397797309945  0.8002181546721067  0.0931978539317403   T   T   T
  0.4920229675346957  0.0852937168421870  0.0962167013965907   T   T   T
  0.3433845992492071  0.1624083536953059  0.0970138387002776   T   T   T
  0.4916146409302519  0.9180057312423849  0.0960391886203476   T   T   T
  0.3445504864346409  0.8369155219089857  0.0964042899463559   T   T   T
  0.7886320253076600  0.0835711476302178  0.0929415531911159   T   T   T
  0.6389680651340879  0.1660133576289231  0.0962035930534140   T   T   T
  0.7898062871967373  0.9217715857357759  0.0930577306440622   T   T   T
  0.8324228123189532  0.6519201921848771  0.0967134654314418   T   T   T
  0.8293027827402746  0.3546715183631428  0.0961956374796728   T   T   T
  0.6397678459185556  0.8376709214019755  0.0963937385473211   T   T   T
  0.3196005156384619  0.3288352607019229  0.1017849355815403   T   T   T
  0.3214619881260452  0.6741912888034122  0.0995443470564039   T   T   T
  0.6644884267830438  0.3304870356724707  0.1009345391447423   T   T   T
  0.6664523898057104  0.6749045789643779  0.1015308230584618   T   T   T
  0.1964017548425227  0.9181556286019821  0.0932450729949849   T   T   T
  0.4918203744538362  0.5023585190647655  0.1380536701564594   T   T   T
 
  0.00000000E+00  0.00000000E+00  0.00000000E+00
  0.00000000E+00  0.00000000E+00  0.00000000E+00
  0.00000000E+00  0.00000000E+00  0.00000000E+00
  0.00000000E+00  0.00000000E+00  0.00000000E+00
  0.00000000E+00  0.00000000E+00  0.00000000E+00
  0.00000000E+00  0.00000000E+00  0.00000000E+00
  0.00000000E+00  0.00000000E+00  0.00000000E+00
  0.00000000E+00  0.00000000E+00  0.00000000E+00
  0.00000000E+00  0.00000000E+00  0.00000000E+00
  0.00000000E+00  0.00000000E+00  0.00000000E+00
  0.00000000E+00  0.00000000E+00  0.00000000E+00
  0.00000000E+00  0.00000000E+00  0.00000000E+00
  0.00000000E+00  0.00000000E+00  0.00000000E+00
  0.00000000E+00  0.00000000E+00  0.00000000E+00
  0.00000000E+00  0.00000000E+00  0.00000000E+00
  0.00000000E+00  0.00000000E+00  0.00000000E+00
  0.00000000E+00  0.00000000E+00  0.00000000E+00
  0.00000000E+00  0.00000000E+00  0.00000000E+00
  0.00000000E+00  0.00000000E+00  0.00000000E+00
  0.00000000E+00  0.00000000E+00  0.00000000E+00
  0.00000000E+00  0.00000000E+00  0.00000000E+00
  0.00000000E+00  0.00000000E+00  0.00000000E+00
  0.00000000E+00  0.00000000E+00  0.00000000E+00
  0.00000000E+00  0.00000000E+00  0.00000000E+00
  0.00000000E+00  0.00000000E+00  0.00000000E+00
