Title                                   
   1.00000000000000     
     4.9440799999999996    0.0000000000000000    0.0000000000000000
     0.0000000000000000   17.1295089999999988    0.0000000000000000
     0.0000000000000000    0.0000000000000000   20.0000000000000000
    30     1     1
Selective dynamics
Direct
  0.0002986282220318  0.1047942111262447  0.2828965815830825   T   T   T
  0.2498869101495302  0.1466906875081150  0.2873793790582634   T   T   T
  0.2498754965143495  0.2291808895606947  0.2989443254150069   T   T   T
 -0.0008344513525041  0.3501411314836077  0.3235501032069098   T   T   T
 -0.0020926322137656  0.2701507790122311  0.3047438964297650   T   T   T
 -0.0042811488021439  0.6057511827377330  0.3092212348906144   T   T   T
  0.2499053785597179  0.7286328955162753  0.2902018375016250   T   T   T
  0.0002680187449479  0.8541311121577150  0.2794046926118573   T   T   T
  0.2498803987263084  0.8960108724034845  0.2779726209046994   T   T   T
  0.2498926832689234  0.9795483075652076  0.2773348633385393   T   T   T
  0.0004772801862151  0.7707166970212402  0.2851689885724606   T   T   T
  0.4994919248933980  0.1047944592174558  0.2828929674197742   T   T   T
  0.7498938766802971  0.1463199332743244  0.2860894248642167   T   T   T
  0.7498863655432499  0.2287250904790195  0.2959427220712091   T   T   T
  0.4996749085698933  0.0214340268999895  0.2781740441829788   T   T   T
  0.5006109940863912  0.3501432420524310  0.3235446339604994   T   T   T
  0.7499305438112926  0.4767200030727563  0.3212795266126947   T   T   T
  0.5018678277013662  0.2701549164634332  0.3047374261550024   T   T   T
  0.5041138971167505  0.6057518949836854  0.3092142117034665   T   T   T
  0.7499059591032126  0.7298570574419622  0.2886744342643286   T   T   T
  0.4994932857589985  0.8541298467121000  0.2794039061062277   T   T   T
  0.7498794667908084  0.8958584558142544  0.2776917831658978   T   T   T
  0.7498901916363218  0.9795752220293175  0.2770498761166004   T   T   T
  0.4993224872305063  0.7707147240682112  0.2851711286024433   T   T   T
  0.7499165278365794  0.6473164848059437  0.2996351727428161   T   T   T
  0.2499011523288142  0.6458356613952472  0.3034531167978035   T   T   T
  0.0001203647222860  0.0214322979344727  0.2781764508307858   T   T   T
  0.5159759431292763  0.5242063248962717  0.3283112050114959   T   T   T
  0.9839062359998180  0.5242027293391952  0.3283209635306305   T   T   T
  0.2499018186817943  0.3858569310822949  0.3437081169571980   T   T   T
  0.7499008147018570  0.3931944553979151  0.3250762777556788   T   T   T
  0.2499618516734831  0.4865784765471626  0.3891990876353802   T   T   T
 
  0.00000000E+00  0.00000000E+00  0.00000000E+00
  0.00000000E+00  0.00000000E+00  0.00000000E+00
  0.00000000E+00  0.00000000E+00  0.00000000E+00
  0.00000000E+00  0.00000000E+00  0.00000000E+00
  0.00000000E+00  0.00000000E+00  0.00000000E+00
  0.00000000E+00  0.00000000E+00  0.00000000E+00
  0.00000000E+00  0.00000000E+00  0.00000000E+00
  0.00000000E+00  0.00000000E+00  0.00000000E+00
  0.00000000E+00  0.00000000E+00  0.00000000E+00
  0.00000000E+00  0.00000000E+00  0.00000000E+00
  0.00000000E+00  0.00000000E+00  0.00000000E+00
  0.00000000E+00  0.00000000E+00  0.00000000E+00
  0.00000000E+00  0.00000000E+00  0.00000000E+00
  0.00000000E+00  0.00000000E+00  0.00000000E+00
  0.00000000E+00  0.00000000E+00  0.00000000E+00
  0.00000000E+00  0.00000000E+00  0.00000000E+00
  0.00000000E+00  0.00000000E+00  0.00000000E+00
  0.00000000E+00  0.00000000E+00  0.00000000E+00
  0.00000000E+00  0.00000000E+00  0.00000000E+00
  0.00000000E+00  0.00000000E+00  0.00000000E+00
  0.00000000E+00  0.00000000E+00  0.00000000E+00
  0.00000000E+00  0.00000000E+00  0.00000000E+00
  0.00000000E+00  0.00000000E+00  0.00000000E+00
  0.00000000E+00  0.00000000E+00  0.00000000E+00
  0.00000000E+00  0.00000000E+00  0.00000000E+00
  0.00000000E+00  0.00000000E+00  0.00000000E+00
  0.00000000E+00  0.00000000E+00  0.00000000E+00
  0.00000000E+00  0.00000000E+00  0.00000000E+00
  0.00000000E+00  0.00000000E+00  0.00000000E+00
  0.00000000E+00  0.00000000E+00  0.00000000E+00
  0.00000000E+00  0.00000000E+00  0.00000000E+00
  0.00000000E+00  0.00000000E+00  0.00000000E+00
