Title                                   
   1.00000000000000     
     4.9440799999999996    0.0000000000000000    0.0000000000000000
     0.0000000000000000    8.5647549999999999    0.0000000000000000
     0.0000000000000000    0.0000000000000000   20.0000000000000000
    12     3     1
Selective dynamics
Direct
  0.2500000000000000  0.2111583072280496  0.0904439068493636   T   T   T
 -0.0038485422528826  0.2895147902477272  0.0953833487705615   T   T   T
  0.2500000000000000  0.0434549398865287  0.0840096239298486   T   T   T
  0.0005814888744267  0.7955453145267489  0.0955447975925948   T   T   T
 -0.0011744565506088  0.9594727468776698  0.0834993854776595   T   T   T
  0.7500000000000000  0.2082135647267660  0.0861009381066742   T   T   T
  0.5038485422528826  0.2895147902477272  0.0953833487705615   T   T   T
  0.7500000000000000  0.0419786492458036  0.0799076915657315   T   T   T
  0.7500000000000000  0.7037729980674861  0.1016399773796849   T   T   T
  0.4994185111255731  0.7955453145267489  0.0955447975925948   T   T   T
  0.7500000000000000  0.5345382206585806  0.1114155419987701   T   T   T
  0.5011744565506085  0.9594727468776698  0.0834993854776595   T   T   T
  0.5149456809141125  0.4453823821855457  0.1170140238121509   T   T   T
 -0.0149456809141128  0.4453823821855457  0.1170140238121509   T   T   T
  0.2500000000000000  0.7279419437122583  0.1102975237818355   T   T   T
  0.2500000000000000  0.5491109087991431  0.1758136850821656   T   T   T
 
  0.00000000E+00  0.00000000E+00  0.00000000E+00
  0.00000000E+00  0.00000000E+00  0.00000000E+00
  0.00000000E+00  0.00000000E+00  0.00000000E+00
  0.00000000E+00  0.00000000E+00  0.00000000E+00
  0.00000000E+00  0.00000000E+00  0.00000000E+00
  0.00000000E+00  0.00000000E+00  0.00000000E+00
  0.00000000E+00  0.00000000E+00  0.00000000E+00
  0.00000000E+00  0.00000000E+00  0.00000000E+00
  0.00000000E+00  0.00000000E+00  0.00000000E+00
  0.00000000E+00  0.00000000E+00  0.00000000E+00
  0.00000000E+00  0.00000000E+00  0.00000000E+00
  0.00000000E+00  0.00000000E+00  0.00000000E+00
  0.00000000E+00  0.00000000E+00  0.00000000E+00
  0.00000000E+00  0.00000000E+00  0.00000000E+00
  0.00000000E+00  0.00000000E+00  0.00000000E+00
  0.00000000E+00  0.00000000E+00  0.00000000E+00
