Title                                   
   1.00000000000000     
     9.8694509999999998    0.0000000000000000    0.0000000000000000
     0.0000000000000000    8.5490480000000009    0.0000000000000000
     0.0000000000000000    0.0000000000000000   20.0000000000000000
    23     7     1
Selective dynamics
Direct
  0.0557507353894309  0.0892720093130982  0.0952178674970771   T   T   T
  0.9320816817666466  0.1720473688069621  0.0953838081759387   T   T   T
  0.0571603942939810  0.9212453259644540  0.0952378145068816   T   T   T
  0.9341888235672284  0.3381234011567113  0.0950952232522415   T   T   T
  0.0556794711588496  0.5906469553230316  0.0947273284290348   T   T   T
  0.0558212187314389  0.4237077700313459  0.0946033843156177   T   T   T
  0.9320885882721217  0.8386852182396998  0.0953627783932128   T   T   T
  0.3077758643129412  0.0889511581829794  0.0968100256286147   T   T   T
  0.1809209794679332  0.1712722740735365  0.0956505369362867   T   T   T
  0.1787589460091857  0.3382603803006681  0.0954204812814594   T   T   T
  0.2998392126903247  0.5897808881784891  0.0970908592450678   T   T   T
  0.1777605487811411  0.6743062261848372  0.0955540499018891   T   T   T
  0.3010341261904295  0.4214775035141389  0.0970288531003106   T   T   T
  0.1809456562254879  0.8407773110576678  0.0957799636939052   T   T   T
  0.4289333785688145  0.1757900033288271  0.0981334795878419   T   T   T
  0.5551702394301317  0.9187771215307807  0.0984884122665112   T   T   T
  0.4286295783210733  0.8360197794527088  0.0983077736767311   T   T   T
  0.8054916516565808  0.0886912503690189  0.0963898130885182   T   T   T
  0.6830100277054754  0.1777680563293220  0.0978036773381841   T   T   T
  0.8068594695634616  0.9213769617899088  0.0964445823805310   T   T   T
  0.8123203373953544  0.5907134161697246  0.0966546445777244   T   T   T
  0.8125100669182704  0.4219781266421124  0.0965598730127655   T   T   T
  0.6822123387811525  0.8356645818824247  0.0980169296895313   T   T   T
  0.9337412227152376  0.6735025632029341  0.0950216543262452   T   T   T
  0.5568828932310107  0.0965257406075072  0.0986555038821060   T   T   T
  0.4211061965959776  0.3384025437575864  0.0987953226557862   T   T   T
  0.4193938261302059  0.6756223373127368  0.0990266694708012   T   T   T
  0.6913436861586680  0.3389786211735841  0.0984398374415340   T   T   T
  0.6937889954839108  0.6733788994779479  0.0986629430513117   T   T   T
  0.3053474312468978  0.9218428690638500  0.0968924115222554   T   T   T
  0.5565884132406377  0.5072883375814043  0.0997084976741415   T   T   T
 
  0.00000000E+00  0.00000000E+00  0.00000000E+00
  0.00000000E+00  0.00000000E+00  0.00000000E+00
  0.00000000E+00  0.00000000E+00  0.00000000E+00
  0.00000000E+00  0.00000000E+00  0.00000000E+00
  0.00000000E+00  0.00000000E+00  0.00000000E+00
  0.00000000E+00  0.00000000E+00  0.00000000E+00
  0.00000000E+00  0.00000000E+00  0.00000000E+00
  0.00000000E+00  0.00000000E+00  0.00000000E+00
  0.00000000E+00  0.00000000E+00  0.00000000E+00
  0.00000000E+00  0.00000000E+00  0.00000000E+00
  0.00000000E+00  0.00000000E+00  0.00000000E+00
  0.00000000E+00  0.00000000E+00  0.00000000E+00
  0.00000000E+00  0.00000000E+00  0.00000000E+00
  0.00000000E+00  0.00000000E+00  0.00000000E+00
  0.00000000E+00  0.00000000E+00  0.00000000E+00
  0.00000000E+00  0.00000000E+00  0.00000000E+00
  0.00000000E+00  0.00000000E+00  0.00000000E+00
  0.00000000E+00  0.00000000E+00  0.00000000E+00
  0.00000000E+00  0.00000000E+00  0.00000000E+00
  0.00000000E+00  0.00000000E+00  0.00000000E+00
  0.00000000E+00  0.00000000E+00  0.00000000E+00
  0.00000000E+00  0.00000000E+00  0.00000000E+00
  0.00000000E+00  0.00000000E+00  0.00000000E+00
  0.00000000E+00  0.00000000E+00  0.00000000E+00
  0.00000000E+00  0.00000000E+00  0.00000000E+00
  0.00000000E+00  0.00000000E+00  0.00000000E+00
  0.00000000E+00  0.00000000E+00  0.00000000E+00
  0.00000000E+00  0.00000000E+00  0.00000000E+00
  0.00000000E+00  0.00000000E+00  0.00000000E+00
  0.00000000E+00  0.00000000E+00  0.00000000E+00
  0.00000000E+00  0.00000000E+00  0.00000000E+00
