Title                                   
   1.00000000000000     
     4.9440799999999996    0.0000000000000000    0.0000000000000000
     0.0000000000000000   17.1295089999999988    0.0000000000000000
     0.0000000000000000    0.0000000000000000   20.0000000000000000
    26     4     1
Selective dynamics
Direct
  0.0010520895310656  0.1063759052231376  0.2976828017144322   T   T   T
  0.2502801025786556  0.1492160951407211  0.2983843573744524   T   T   T
  0.2502838592359086  0.2339673448777783  0.2999458129327188   T   T   T
 -0.0014319497775334  0.2754306048692179  0.3006191392269742   T   T   T
 -0.0013948430958007  0.5994787805628671  0.3009826930017884   T   T   T
  0.2503161380325692  0.7257073278797914  0.2988441579707938   T   T   T
  0.0007679188616301  0.8528885895019600  0.2972255040603037   T   T   T
  0.2503410635495107  0.8953309391274596  0.2970024374541997   T   T   T
  0.2503156810539908  0.9796357741138434  0.2968704404388950   T   T   T
  0.0011154833176529  0.7685617471007069  0.2981033669910929   T   T   T
  0.4995053254067098  0.1063795287611495  0.2976696924818771   T   T   T
  0.7502754045406201  0.1484807463942713  0.2980728377509332   T   T   T
  0.7502802304234234  0.2322572843366862  0.2993574671299306   T   T   T
  0.4998640612589382  0.0220770019990753  0.2969769748130435   T   T   T
  0.7503592129237684  0.3958804171849451  0.3022247492932233   T   T   T
  0.7503795722305311  0.4790183728579668  0.3023284989670744   T   T   T
  0.5020327684241025  0.2754295195174256  0.3005050198859594   T   T   T
  0.5020893324076078  0.5994786710129086  0.3008767682812417   T   T   T
  0.7503193143206642  0.7264545782830785  0.2985435626749776   T   T   T
  0.4998856373515755  0.8528849964664722  0.2972177007363725   T   T   T
  0.7503183614711706  0.8953241072464361  0.2969275051147689   T   T   T
  0.7502873966098225  0.9796333737931008  0.2967884934960189   T   T   T
  0.4995340876210942  0.7685588985156646  0.2980882381708304   T   T   T
  0.7503288671095100  0.6426677723297678  0.2997786293872342   T   T   T
  0.2503338423732286  0.6409474903769543  0.3003800723127136   T   T   T
  0.0007230049640414  0.0220694282732926  0.2969859501632445   T   T   T
  0.5093781159539530  0.5190850733482699  0.3026655168631986   T   T   T
  0.9913533414838045  0.5190891236455230  0.3029651498967438   T   T   T
  0.5093631437061372  0.3557979973612754  0.3024763805342470   T   T   T
 -0.0086675372333119  0.3557935477491003  0.3027932853505285   T   T   T
  0.2504179733649602  0.4374409621491495  0.3057767955301386   T   T   T
 
  0.00000000E+00  0.00000000E+00  0.00000000E+00
  0.00000000E+00  0.00000000E+00  0.00000000E+00
  0.00000000E+00  0.00000000E+00  0.00000000E+00
  0.00000000E+00  0.00000000E+00  0.00000000E+00
  0.00000000E+00  0.00000000E+00  0.00000000E+00
  0.00000000E+00  0.00000000E+00  0.00000000E+00
  0.00000000E+00  0.00000000E+00  0.00000000E+00
  0.00000000E+00  0.00000000E+00  0.00000000E+00
  0.00000000E+00  0.00000000E+00  0.00000000E+00
  0.00000000E+00  0.00000000E+00  0.00000000E+00
  0.00000000E+00  0.00000000E+00  0.00000000E+00
  0.00000000E+00  0.00000000E+00  0.00000000E+00
  0.00000000E+00  0.00000000E+00  0.00000000E+00
  0.00000000E+00  0.00000000E+00  0.00000000E+00
  0.00000000E+00  0.00000000E+00  0.00000000E+00
  0.00000000E+00  0.00000000E+00  0.00000000E+00
  0.00000000E+00  0.00000000E+00  0.00000000E+00
  0.00000000E+00  0.00000000E+00  0.00000000E+00
  0.00000000E+00  0.00000000E+00  0.00000000E+00
  0.00000000E+00  0.00000000E+00  0.00000000E+00
  0.00000000E+00  0.00000000E+00  0.00000000E+00
  0.00000000E+00  0.00000000E+00  0.00000000E+00
  0.00000000E+00  0.00000000E+00  0.00000000E+00
  0.00000000E+00  0.00000000E+00  0.00000000E+00
  0.00000000E+00  0.00000000E+00  0.00000000E+00
  0.00000000E+00  0.00000000E+00  0.00000000E+00
  0.00000000E+00  0.00000000E+00  0.00000000E+00
  0.00000000E+00  0.00000000E+00  0.00000000E+00
  0.00000000E+00  0.00000000E+00  0.00000000E+00
  0.00000000E+00  0.00000000E+00  0.00000000E+00
  0.00000000E+00  0.00000000E+00  0.00000000E+00
