Title                                   
   1.00000000000000     
     4.9440799999999996    0.0000000000000000    0.0000000000000000
     0.0000000000000000    8.5647549999999999    0.0000000000000000
     0.0000000000000000    0.0000000000000000   20.0000000000000000
    15     1
Selective dynamics
Direct
  0.2500000000000000  0.2066248592634120  0.0905659659420248   T   T   T
 -0.0018738175364176  0.2889614697576852  0.0942864259861566   T   T   T
  0.2500000000000000  0.0415893144518979  0.0859132301397367   T   T   T
 -0.0015410802263031  0.7954471624031981  0.0993340713227319   T   T   T
 -0.0013200120803493  0.9589962109675850  0.0868984371546061   T   T   T
  0.7500000000000000  0.2066713491620870  0.0859282857506074   T   T   T
  0.5018738175364175  0.2889614697576852  0.0942864259861566   T   T   T
  0.7500000000000000  0.0414413722689415  0.0833031428110358   T   T   T
  0.7500000000000000  0.7097791396997293  0.1044873876066308   T   T   T
  0.5015410802263034  0.7954471624031981  0.0993340713227319   T   T   T
  0.7500000000000000  0.5403893052580879  0.1089279421819091   T   T   T
  0.5013200120803492  0.9589962109675850  0.0868984371546061   T   T   T
  0.5081541438961300  0.4496531449937946  0.1099298121569910   T   T   T
 -0.0081541438961299  0.4496531449937946  0.1099298121569910   T   T   T
  0.2500000000000000  0.7232971448585730  0.1117167854074337   T   T   T
  0.2500000000000000  0.5440915387927459  0.1707717669196579   T   T   T
 
  0.00000000E+00  0.00000000E+00  0.00000000E+00
  0.00000000E+00  0.00000000E+00  0.00000000E+00
  0.00000000E+00  0.00000000E+00  0.00000000E+00
  0.00000000E+00  0.00000000E+00  0.00000000E+00
  0.00000000E+00  0.00000000E+00  0.00000000E+00
  0.00000000E+00  0.00000000E+00  0.00000000E+00
  0.00000000E+00  0.00000000E+00  0.00000000E+00
  0.00000000E+00  0.00000000E+00  0.00000000E+00
  0.00000000E+00  0.00000000E+00  0.00000000E+00
  0.00000000E+00  0.00000000E+00  0.00000000E+00
  0.00000000E+00  0.00000000E+00  0.00000000E+00
  0.00000000E+00  0.00000000E+00  0.00000000E+00
  0.00000000E+00  0.00000000E+00  0.00000000E+00
  0.00000000E+00  0.00000000E+00  0.00000000E+00
  0.00000000E+00  0.00000000E+00  0.00000000E+00
  0.00000000E+00  0.00000000E+00  0.00000000E+00
