Title                                   
   1.00000000000000     
     4.9440799999999996    0.0000000000000000    0.0000000000000000
     0.0000000000000000   17.1295089999999988    0.0000000000000000
     0.0000000000000000    0.0000000000000000   20.0000000000000000
    26     4     1
Selective dynamics
Direct
  0.0029485089669354  0.1062623468849660  0.2946764022483108   T   T   T
  0.2534227439075544  0.1489966097836088  0.2965551853104477   T   T   T
  0.2554351584406306  0.2338362438019674  0.2998363919576721   T   T   T
  0.0019402604260938  0.2741936861206071  0.2969445674767314   T   T   T
 -0.0031632986281084  0.6013191395651544  0.2970681422986723   T   T   T
  0.2484930654299264  0.7260130650281801  0.2960646558103548   T   T   T
  0.0011317496120519  0.8527826882255618  0.2938221464936343   T   T   T
  0.2502061201545536  0.8951528293526990  0.2939700881165410   T   T   T
  0.2511167496390740  0.9794993941293171  0.2940274928473385   T   T   T
  0.0005233273023146  0.7681962405600080  0.2945198565603521   T   T   T
  0.5016808256045034  0.1059646004411374  0.2957184180130281   T   T   T
  0.7518960835581591  0.1480939937478655  0.2954875605131894   T   T   T
  0.7523590764321645  0.2318891238317348  0.2974052446601751   T   T   T
  0.5010678704488442  0.0216652114947445  0.2944631486202824   T   T   T
  0.7593270431216580  0.3949985871635510  0.3040257792393353   T   T   T
  0.7564314690957287  0.4797697645784580  0.3053070696728418   T   T   T
  0.5071204302682847  0.2759743640073435  0.3042716953191559   T   T   T
  0.4977352667372097  0.5993972180665196  0.3035759300569313   T   T   T
  0.7489817955586150  0.7267590814109285  0.2950829469438071   T   T   T
  0.4987802688154511  0.8526364040554323  0.2943296106289092   T   T   T
  0.7503329653037834  0.8948838710227344  0.2938315680289746   T   T   T
  0.7511151526729239  0.9792439256250394  0.2938631485026649   T   T   T
  0.4977445458654886  0.7681914442014222  0.2953247795934711   T   T   T
  0.7472092962484688  0.6438577459093593  0.2967208215123129   T   T   T
  0.0017715644067187  0.0218946575130003  0.2939038503798174   T   T   T
  0.5046068566756948  0.5186753717134549  0.3158689295897392   T   T   T
  0.9985024083867043  0.5221352716882326  0.2976246295110668   T   T   T
  0.5169888802725237  0.3561523955635081  0.3169919715280480   T   T   T
 -0.0046265570660930  0.3540918659908118  0.2940360950569381   T   T   T
  0.2471272485111708  0.6420773246774881  0.2988925976063702   T   T   T
  0.2118001238309732  0.4367375338451601  0.3408492759028389   T   T   T
 
  0.00000000E+00  0.00000000E+00  0.00000000E+00
  0.00000000E+00  0.00000000E+00  0.00000000E+00
  0.00000000E+00  0.00000000E+00  0.00000000E+00
  0.00000000E+00  0.00000000E+00  0.00000000E+00
  0.00000000E+00  0.00000000E+00  0.00000000E+00
  0.00000000E+00  0.00000000E+00  0.00000000E+00
  0.00000000E+00  0.00000000E+00  0.00000000E+00
  0.00000000E+00  0.00000000E+00  0.00000000E+00
  0.00000000E+00  0.00000000E+00  0.00000000E+00
  0.00000000E+00  0.00000000E+00  0.00000000E+00
  0.00000000E+00  0.00000000E+00  0.00000000E+00
  0.00000000E+00  0.00000000E+00  0.00000000E+00
  0.00000000E+00  0.00000000E+00  0.00000000E+00
  0.00000000E+00  0.00000000E+00  0.00000000E+00
  0.00000000E+00  0.00000000E+00  0.00000000E+00
  0.00000000E+00  0.00000000E+00  0.00000000E+00
  0.00000000E+00  0.00000000E+00  0.00000000E+00
  0.00000000E+00  0.00000000E+00  0.00000000E+00
  0.00000000E+00  0.00000000E+00  0.00000000E+00
  0.00000000E+00  0.00000000E+00  0.00000000E+00
  0.00000000E+00  0.00000000E+00  0.00000000E+00
  0.00000000E+00  0.00000000E+00  0.00000000E+00
  0.00000000E+00  0.00000000E+00  0.00000000E+00
  0.00000000E+00  0.00000000E+00  0.00000000E+00
  0.00000000E+00  0.00000000E+00  0.00000000E+00
  0.00000000E+00  0.00000000E+00  0.00000000E+00
  0.00000000E+00  0.00000000E+00  0.00000000E+00
  0.00000000E+00  0.00000000E+00  0.00000000E+00
  0.00000000E+00  0.00000000E+00  0.00000000E+00
  0.00000000E+00  0.00000000E+00  0.00000000E+00
  0.00000000E+00  0.00000000E+00  0.00000000E+00
