Title                                   
   1.00000000000000     
     9.8694509999999998    0.0000000000000000    0.0000000000000000
     0.0000000000000000    8.5490480000000009    0.0000000000000000
     0.0000000000000000    0.0000000000000000   20.0000000000000000
    27     3     1
Selective dynamics
Direct
  0.0555367432180627  0.0897569748530633  0.0851741204819279   T   T   T
  0.9309250550911808  0.1719068718185206  0.0879495706543228   T   T   T
  0.0569842929197327  0.9231558980387248  0.0855751197151493   T   T   T
  0.9336974656431349  0.3389894212061826  0.0873393765152179   T   T   T
  0.0575546833002417  0.5901603418410885  0.0816263835856732   T   T   T
  0.9337550929349314  0.6738507470183602  0.0873096415313079   T   T   T
  0.0576157963428043  0.4229320715924367  0.0815117849200081   T   T   T
  0.9313742770322198  0.8403082773227857  0.0880345190510533   T   T   T
  0.3058449231817266  0.0882203968427885  0.0905079557897958   T   T   T
  0.1807005332046092  0.1712838747789018  0.0849940157264044   T   T   T
  0.1812704788915167  0.3388804527408396  0.0827710230394594   T   T   T
  0.3045874575191787  0.5902355673620662  0.0887786594438440   T   T   T
  0.1816229413093348  0.6736304053836143  0.0830739824525767   T   T   T
  0.3049939641626085  0.4215903408035920  0.0888964363559677   T   T   T
  0.1811471744868040  0.8404819553917559  0.0857405091194007   T   T   T
  0.5541444053193925  0.0911983177738784  0.1030638700875021   T   T   T
  0.4279230065712871  0.1751457857331769  0.0986537307540773   T   T   T
  0.5530000324365781  0.9214117610208236  0.1028004520437086   T   T   T
  0.4274974494375092  0.8362581430636182  0.0986366588247794   T   T   T
  0.8047597673904687  0.0898425483134245  0.0939651923964569   T   T   T
  0.6810935739890751  0.1759040296145784  0.1032797469016175   T   T   T
  0.8048979614069627  0.9221584354457769  0.0937926122875514   T   T   T
  0.6896647760223306  0.3419666594916392  0.1122755907202449   T   T   T
  0.8130659819629281  0.5905315242147984  0.0985075437214153   T   T   T
  0.6897623675679367  0.6705875697128825  0.1121353132559099   T   T   T
  0.8131090459740284  0.4221963082724378  0.0985611630783430   T   T   T
  0.6807723533569603  0.8358384312817495  0.1029537038503984   T   T   T
  0.4227178150898985  0.3377414165375405  0.1011001607057811   T   T   T
  0.4219329503554373  0.6758899291203659  0.1010885401159761   T   T   T
  0.3060917837800230  0.9230651410645997  0.0906149921117280   T   T   T
  0.5550908501011139  0.5057554023439950  0.1402526307624491   T   T   T
 
  0.00000000E+00  0.00000000E+00  0.00000000E+00
  0.00000000E+00  0.00000000E+00  0.00000000E+00
  0.00000000E+00  0.00000000E+00  0.00000000E+00
  0.00000000E+00  0.00000000E+00  0.00000000E+00
  0.00000000E+00  0.00000000E+00  0.00000000E+00
  0.00000000E+00  0.00000000E+00  0.00000000E+00
  0.00000000E+00  0.00000000E+00  0.00000000E+00
  0.00000000E+00  0.00000000E+00  0.00000000E+00
  0.00000000E+00  0.00000000E+00  0.00000000E+00
  0.00000000E+00  0.00000000E+00  0.00000000E+00
  0.00000000E+00  0.00000000E+00  0.00000000E+00
  0.00000000E+00  0.00000000E+00  0.00000000E+00
  0.00000000E+00  0.00000000E+00  0.00000000E+00
  0.00000000E+00  0.00000000E+00  0.00000000E+00
  0.00000000E+00  0.00000000E+00  0.00000000E+00
  0.00000000E+00  0.00000000E+00  0.00000000E+00
  0.00000000E+00  0.00000000E+00  0.00000000E+00
  0.00000000E+00  0.00000000E+00  0.00000000E+00
  0.00000000E+00  0.00000000E+00  0.00000000E+00
  0.00000000E+00  0.00000000E+00  0.00000000E+00
  0.00000000E+00  0.00000000E+00  0.00000000E+00
  0.00000000E+00  0.00000000E+00  0.00000000E+00
  0.00000000E+00  0.00000000E+00  0.00000000E+00
  0.00000000E+00  0.00000000E+00  0.00000000E+00
  0.00000000E+00  0.00000000E+00  0.00000000E+00
  0.00000000E+00  0.00000000E+00  0.00000000E+00
  0.00000000E+00  0.00000000E+00  0.00000000E+00
  0.00000000E+00  0.00000000E+00  0.00000000E+00
  0.00000000E+00  0.00000000E+00  0.00000000E+00
  0.00000000E+00  0.00000000E+00  0.00000000E+00
  0.00000000E+00  0.00000000E+00  0.00000000E+00
