Title                                   
   1.00000000000000     
     4.9440799999999996    0.0000000000000000    0.0000000000000000
     0.0000000000000000   17.1295089999999988    0.0000000000000000
     0.0000000000000000    0.0000000000000000   20.0000000000000000
    28     2     1
Selective dynamics
Direct
 -0.0010070035754762  0.1048246297404609  0.2910055351144537   T   T   T
  0.2474339722709503  0.1474959811875068  0.2942754579286264   T   T   T
  0.2467376092053377  0.2309505997642858  0.3010737096421158   T   T   T
 -0.0062059016101267  0.2732452357330046  0.3000431202756060   T   T   T
  0.0066213921606113  0.6025001147180675  0.2969888323621723   T   T   T
  0.2551784806747450  0.7271000647202660  0.2933082117088081   T   T   T
  0.0040839826581849  0.8532902291781754  0.2882871255305456   T   T   T
  0.2524205627277493  0.8954744856958196  0.2885296096070539   T   T   T
  0.2508651255099394  0.9792066133347389  0.2887335781171735   T   T   T
  0.0055044725162234  0.7692493697748487  0.2898228483004125   T   T   T
  0.4981164948418557  0.1049759598058024  0.2921356766835922   T   T   T
  0.7485566782851961  0.1464056725379162  0.2926922132224726   T   T   T
  0.7466018450400768  0.2298697708492871  0.2976244640459098   T   T   T
  0.4999767903649446  0.0212114975226735  0.2894658769914678   T   T   T
  0.7479001507812384  0.3926703369876544  0.3105658949674505   T   T   T
  0.7539637692870028  0.4817335677943602  0.3096490547565868   T   T   T
  0.4990079839729209  0.2717907301595181  0.3067530256529335   T   T   T
  0.5081619938411581  0.6036735249186270  0.3061651157020801   T   T   T
  0.7546953829993780  0.7284437116631858  0.2911727787173715   T   T   T
  0.5017843838804091  0.8533380823659846  0.2891112800516320   T   T   T
  0.7523514869843678  0.8950507673724317  0.2880592776542102   T   T   T
  0.7507679249528426  0.9790717466635540  0.2882929144430119   T   T   T
  0.5034765768819012  0.7694579893069244  0.2914420248265859   T   T   T
  0.7560801626644346  0.6457207062084160  0.2954526488580960   T   T   T
  0.0005755208378772  0.0210878510653281  0.2888340222129341   T   T   T
  0.5104153900090307  0.5243341596940287  0.3246091353904821   T   T   T
  0.0011132892483920  0.5207539756408857  0.2975215732545272   T   T   T
  0.5073969052281561  0.3527401216371730  0.3223774117347243   T   T   T
 -0.0124930712801963  0.3534995526654727  0.3015440767152587   T   T   T
  0.2570991538325438  0.6453864059377503  0.2996397412907303   T   T   T
  0.2128254948083335  0.4367885453558462  0.3698837642409276   T   T   T
 
  0.00000000E+00  0.00000000E+00  0.00000000E+00
  0.00000000E+00  0.00000000E+00  0.00000000E+00
  0.00000000E+00  0.00000000E+00  0.00000000E+00
  0.00000000E+00  0.00000000E+00  0.00000000E+00
  0.00000000E+00  0.00000000E+00  0.00000000E+00
  0.00000000E+00  0.00000000E+00  0.00000000E+00
  0.00000000E+00  0.00000000E+00  0.00000000E+00
  0.00000000E+00  0.00000000E+00  0.00000000E+00
  0.00000000E+00  0.00000000E+00  0.00000000E+00
  0.00000000E+00  0.00000000E+00  0.00000000E+00
  0.00000000E+00  0.00000000E+00  0.00000000E+00
  0.00000000E+00  0.00000000E+00  0.00000000E+00
  0.00000000E+00  0.00000000E+00  0.00000000E+00
  0.00000000E+00  0.00000000E+00  0.00000000E+00
  0.00000000E+00  0.00000000E+00  0.00000000E+00
  0.00000000E+00  0.00000000E+00  0.00000000E+00
  0.00000000E+00  0.00000000E+00  0.00000000E+00
  0.00000000E+00  0.00000000E+00  0.00000000E+00
  0.00000000E+00  0.00000000E+00  0.00000000E+00
  0.00000000E+00  0.00000000E+00  0.00000000E+00
  0.00000000E+00  0.00000000E+00  0.00000000E+00
  0.00000000E+00  0.00000000E+00  0.00000000E+00
  0.00000000E+00  0.00000000E+00  0.00000000E+00
  0.00000000E+00  0.00000000E+00  0.00000000E+00
  0.00000000E+00  0.00000000E+00  0.00000000E+00
  0.00000000E+00  0.00000000E+00  0.00000000E+00
  0.00000000E+00  0.00000000E+00  0.00000000E+00
  0.00000000E+00  0.00000000E+00  0.00000000E+00
  0.00000000E+00  0.00000000E+00  0.00000000E+00
  0.00000000E+00  0.00000000E+00  0.00000000E+00
  0.00000000E+00  0.00000000E+00  0.00000000E+00
