Title                                   
   1.00000000000000     
     9.8694509999999998    0.0000000000000000    0.0000000000000000
     0.0000000000000000    8.5490480000000009    0.0000000000000000
     0.0000000000000000    0.0000000000000000   20.0000000000000000
    25     6     1
Selective dynamics
Direct
  0.0538784654634751  0.0906278101754094  0.0906389007190094   T   T   T
  0.9283930180848178  0.1731817564133638  0.0905289279911005   T   T   T
  0.0544007850646806  0.9222034365980584  0.0919442936100668   T   T   T
  0.9268380298130787  0.3411209516820121  0.0919888662577098   T   T   T
  0.0537029158117976  0.5906254649866591  0.0907071989249733   T   T   T
  0.0534635365191449  0.4236503185860377  0.0905934818876659   T   T   T
  0.9305851789078092  0.8378417104829906  0.0946677169794811   T   T   T
  0.3044461852597138  0.0878734931678953  0.0907289548095253   T   T   T
  0.1804031922636975  0.1732426893995158  0.0898174996855140   T   T   T
  0.1815949484258352  0.3413746139693994  0.0887167621367504   T   T   T
  0.3058347070042552  0.5920020613402008  0.0870394584802659   T   T   T
  0.1782561905196762  0.6739776924711708  0.0892407525232703   T   T   T
  0.3085426312588206  0.4236984354610288  0.0868589096679728   T   T   T
  0.1794819294442306  0.8406813394164794  0.0907631443326468   T   T   T
  0.5537056514214522  0.0821567521437424  0.0919912509366792   T   T   T
  0.5528704038979509  0.9152891161063013  0.0955738013723116   T   T   T
  0.4356257460409742  0.3350840109258378  0.0879224917754585   T   T   T
  0.4250139965112130  0.8313635588236531  0.0912340517226990   T   T   T
  0.8040146424059824  0.0866659634694241  0.0913593152868335   T   T   T
  0.6775400688028546  0.1682390207763399  0.0917349351137284   T   T   T
  0.8046657898438682  0.9201268484449008  0.0947403705734362   T   T   T
  0.6747594665163358  0.3360533786765645  0.0924006412768820   T   T   T
  0.8049221224284596  0.5928768161764368  0.1045042154522364   T   T   T
  0.8001755086612971  0.4245328289789195  0.0961236553007336   T   T   T
  0.6811008727169334  0.8361815185040842  0.1027081790785269   T   T   T
  0.4215049291512185  0.6792011835208289  0.0873376694686699   T   T   T
  0.5524656266167840  0.4081158244875269  0.0892008160945516   T   T   T
  0.6925154338653911  0.6789721771896468  0.1202679189273914   T   T   T
  0.3025818857806863  0.9238202049158257  0.0913310492308707   T   T   T
  0.4282680548604602  0.1649016412196959  0.0902639269556542   T   T   T
  0.9294189902063467  0.6722908730548404  0.0948925492316649   T   T   T
  0.6186680964307668  0.6222725084352140  0.2078532941957360   T   T   T
 
  0.00000000E+00  0.00000000E+00  0.00000000E+00
  0.00000000E+00  0.00000000E+00  0.00000000E+00
  0.00000000E+00  0.00000000E+00  0.00000000E+00
  0.00000000E+00  0.00000000E+00  0.00000000E+00
  0.00000000E+00  0.00000000E+00  0.00000000E+00
  0.00000000E+00  0.00000000E+00  0.00000000E+00
  0.00000000E+00  0.00000000E+00  0.00000000E+00
  0.00000000E+00  0.00000000E+00  0.00000000E+00
  0.00000000E+00  0.00000000E+00  0.00000000E+00
  0.00000000E+00  0.00000000E+00  0.00000000E+00
  0.00000000E+00  0.00000000E+00  0.00000000E+00
  0.00000000E+00  0.00000000E+00  0.00000000E+00
  0.00000000E+00  0.00000000E+00  0.00000000E+00
  0.00000000E+00  0.00000000E+00  0.00000000E+00
  0.00000000E+00  0.00000000E+00  0.00000000E+00
  0.00000000E+00  0.00000000E+00  0.00000000E+00
  0.00000000E+00  0.00000000E+00  0.00000000E+00
  0.00000000E+00  0.00000000E+00  0.00000000E+00
  0.00000000E+00  0.00000000E+00  0.00000000E+00
  0.00000000E+00  0.00000000E+00  0.00000000E+00
  0.00000000E+00  0.00000000E+00  0.00000000E+00
  0.00000000E+00  0.00000000E+00  0.00000000E+00
  0.00000000E+00  0.00000000E+00  0.00000000E+00
  0.00000000E+00  0.00000000E+00  0.00000000E+00
  0.00000000E+00  0.00000000E+00  0.00000000E+00
  0.00000000E+00  0.00000000E+00  0.00000000E+00
  0.00000000E+00  0.00000000E+00  0.00000000E+00
  0.00000000E+00  0.00000000E+00  0.00000000E+00
  0.00000000E+00  0.00000000E+00  0.00000000E+00
  0.00000000E+00  0.00000000E+00  0.00000000E+00
  0.00000000E+00  0.00000000E+00  0.00000000E+00
  0.00000000E+00  0.00000000E+00  0.00000000E+00
