Title                                   
   1.00000000000000     
     9.8694509999999998    0.0000000000000000    0.0000000000000000
     0.0000000000000000    8.5490480000000009    0.0000000000000000
     0.0000000000000000    0.0000000000000000   20.0000000000000000
    27     4     1
Selective dynamics
Direct
  0.0555907283545904  0.0901493419800850  0.0837219478980666   T   T   T
  0.9308072929918181  0.1747761607075963  0.0844421084886436   T   T   T
  0.0572440156997607  0.9226050686312349  0.0841975908593672   T   T   T
  0.9299539401974632  0.3417054982569241  0.0868364106767123   T   T   T
  0.0560790068441039  0.5910729259285786  0.0866945529250218   T   T   T
  0.0552836527703671  0.4240907291278518  0.0867966017146854   T   T   T
  0.9331257609662569  0.8394788273425382  0.0860540306292115   T   T   T
  0.3057576251344655  0.0878433233746904  0.0883220319174438   T   T   T
  0.1815828773835770  0.1722270372906109  0.0864176257497859   T   T   T
  0.1807709385302768  0.3395570940499771  0.0894165104755897   T   T   T
  0.3025387079863597  0.5879230992486624  0.1028185100106643   T   T   T
  0.1803505238190131  0.6735518420928702  0.0905126879671519   T   T   T
  0.3052602317091044  0.4201938890100413  0.1000316110086920   T   T   T
  0.1827785719371877  0.8406389240025963  0.0874237138709105   T   T   T
  0.5559666371203382  0.0867232591044268  0.0925847717785434   T   T   T
  0.5557696496477529  0.9198530032338709  0.0982184075115445   T   T   T
  0.4295525329015269  0.3316245785417974  0.1045106903216910   T   T   T
  0.4273353226547575  0.8390291041555330  0.1033242522759592   T   T   T
  0.8062498574157880  0.0892978110218360  0.0857495914731921   T   T   T
  0.6799764923599315  0.1717727687190977  0.0902200873639551   T   T   T
  0.8077975241108735  0.9235227320545191  0.0878969446535931   T   T   T
  0.6805147915017481  0.3381770048208205  0.0994517292500882   T   T   T
  0.8096724574527143  0.5948456102165707  0.0977361055418844   T   T   T
  0.8047909890886638  0.4264434490120277  0.0949530806053371   T   T   T
  0.6845294045578194  0.8409404782683121  0.0982011615879816   T   T   T
  0.4182446778283668  0.6800049146574089  0.1186780984671059   T   T   T
  0.5537678788330637  0.4054279684901170  0.1167205045446192   T   T   T
  0.6975945129803210  0.6820697807345353  0.1127519243865598   T   T   T
  0.3058407483598907  0.9239662525195204  0.0895541195477589   T   T   T
  0.4289924729263354  0.1662024724066932  0.0931580110585613   T   T   T
  0.9324787675504851  0.6738517263476583  0.0872179095995981   T   T   T
  0.5634404083852841  0.5906793246510006  0.1710616758400962   T   T   T
 
  0.00000000E+00  0.00000000E+00  0.00000000E+00
  0.00000000E+00  0.00000000E+00  0.00000000E+00
  0.00000000E+00  0.00000000E+00  0.00000000E+00
  0.00000000E+00  0.00000000E+00  0.00000000E+00
  0.00000000E+00  0.00000000E+00  0.00000000E+00
  0.00000000E+00  0.00000000E+00  0.00000000E+00
  0.00000000E+00  0.00000000E+00  0.00000000E+00
  0.00000000E+00  0.00000000E+00  0.00000000E+00
  0.00000000E+00  0.00000000E+00  0.00000000E+00
  0.00000000E+00  0.00000000E+00  0.00000000E+00
  0.00000000E+00  0.00000000E+00  0.00000000E+00
  0.00000000E+00  0.00000000E+00  0.00000000E+00
  0.00000000E+00  0.00000000E+00  0.00000000E+00
  0.00000000E+00  0.00000000E+00  0.00000000E+00
  0.00000000E+00  0.00000000E+00  0.00000000E+00
  0.00000000E+00  0.00000000E+00  0.00000000E+00
  0.00000000E+00  0.00000000E+00  0.00000000E+00
  0.00000000E+00  0.00000000E+00  0.00000000E+00
  0.00000000E+00  0.00000000E+00  0.00000000E+00
  0.00000000E+00  0.00000000E+00  0.00000000E+00
  0.00000000E+00  0.00000000E+00  0.00000000E+00
  0.00000000E+00  0.00000000E+00  0.00000000E+00
  0.00000000E+00  0.00000000E+00  0.00000000E+00
  0.00000000E+00  0.00000000E+00  0.00000000E+00
  0.00000000E+00  0.00000000E+00  0.00000000E+00
  0.00000000E+00  0.00000000E+00  0.00000000E+00
  0.00000000E+00  0.00000000E+00  0.00000000E+00
  0.00000000E+00  0.00000000E+00  0.00000000E+00
  0.00000000E+00  0.00000000E+00  0.00000000E+00
  0.00000000E+00  0.00000000E+00  0.00000000E+00
  0.00000000E+00  0.00000000E+00  0.00000000E+00
  0.00000000E+00  0.00000000E+00  0.00000000E+00
