Title                                   
   1.00000000000000     
     8.5490480000000009    0.0000000000000000    0.0000000000000000
     0.0000000000000000    8.5490480000000009    0.0000000000000000
     0.0000000000000000    0.0000000000000000   20.0000000000000000
    22     2     1
Selective dynamics
Direct
  0.9076780524684336  0.2082998866382606  0.0954254233255554   T   T   T
  0.9081283011005039  0.5039989825567032  0.0952856919516425   T   T   T
  0.9161719074398046  0.8023935504895963  0.0954728081162491   T   T   T
  0.1924178170553740  0.0787043748820471  0.0954816650897944   T   T   T
  0.0698866719634024  0.2011808325256493  0.0954709762016380   T   T   T
  0.1995725010210814  0.9164945311797943  0.0954714058239967   T   T   T
  0.1601260157743054  0.6451024208336160  0.0953718007860510   T   T   T
  0.0779192768122365  0.4995803998076804  0.0953180984100919   T   T   T
  0.1545348662788644  0.3482897665298975  0.0953128023519575   T   T   T
  0.0783712580842501  0.7953094375702905  0.0954589465141747   T   T   T
  0.4907795345006175  0.0866766544803114  0.0953337261971939   T   T   T
  0.3395190725012163  0.1633639210078282  0.0953159211447089   T   T   T
  0.4952544886389469  0.9168869621433590  0.0953361460342247   T   T   T
  0.3497457013158490  0.8346814215892818  0.0953853486626961   T   T   T
  0.7864918144720783  0.0871104826152352  0.0954400723954890   T   T   T
  0.6362788798676640  0.1688913919920025  0.0953391880095939   T   T   T
  0.7936713487212934  0.9249015827794851  0.0954649035470185   T   T   T
  0.8315002619848119  0.6552884393021567  0.0953041782362845   T   T   T
  0.8258848141521327  0.3585003791318243  0.0953158244423460   T   T   T
  0.6465624244456432  0.8402425088754280  0.0953015749776275   T   T   T
  0.3258702997185404  0.6689385357075830  0.0953844100551913   T   T   T
  0.6601091763721607  0.3346372662867892  0.0953053731526604   T   T   T
  0.3122960154664671  0.3211147777116611  0.0951102133933927   T   T   T
  0.6737599020117332  0.6824737225396965  0.0950920923010645   T   T   T
  0.4928815978325822  0.5017277708238355  0.0952064088793345   T   T   T
 
  0.00000000E+00  0.00000000E+00  0.00000000E+00
  0.00000000E+00  0.00000000E+00  0.00000000E+00
  0.00000000E+00  0.00000000E+00  0.00000000E+00
  0.00000000E+00  0.00000000E+00  0.00000000E+00
  0.00000000E+00  0.00000000E+00  0.00000000E+00
  0.00000000E+00  0.00000000E+00  0.00000000E+00
  0.00000000E+00  0.00000000E+00  0.00000000E+00
  0.00000000E+00  0.00000000E+00  0.00000000E+00
  0.00000000E+00  0.00000000E+00  0.00000000E+00
  0.00000000E+00  0.00000000E+00  0.00000000E+00
  0.00000000E+00  0.00000000E+00  0.00000000E+00
  0.00000000E+00  0.00000000E+00  0.00000000E+00
  0.00000000E+00  0.00000000E+00  0.00000000E+00
  0.00000000E+00  0.00000000E+00  0.00000000E+00
  0.00000000E+00  0.00000000E+00  0.00000000E+00
  0.00000000E+00  0.00000000E+00  0.00000000E+00
  0.00000000E+00  0.00000000E+00  0.00000000E+00
  0.00000000E+00  0.00000000E+00  0.00000000E+00
  0.00000000E+00  0.00000000E+00  0.00000000E+00
  0.00000000E+00  0.00000000E+00  0.00000000E+00
  0.00000000E+00  0.00000000E+00  0.00000000E+00
  0.00000000E+00  0.00000000E+00  0.00000000E+00
  0.00000000E+00  0.00000000E+00  0.00000000E+00
  0.00000000E+00  0.00000000E+00  0.00000000E+00
  0.00000000E+00  0.00000000E+00  0.00000000E+00
