Title                                   
   1.00000000000000     
     9.8694509999999998    0.0000000000000000    0.0000000000000000
     0.0000000000000000    8.5490480000000009    0.0000000000000000
     0.0000000000000000    0.0000000000000000   20.0000000000000000
    30     1
Selective dynamics
Direct
  0.0562339556662896  0.0888902315867823  0.0935226930880161   T   T   T
  0.9316416420746217  0.1716620032846859  0.0938391769347303   T   T   T
  0.0562280480447022  0.9234474966332038  0.0935315610301708   T   T   T
  0.9334047764684179  0.3378806672953308  0.0938329173873757   T   T   T
  0.0562451181922045  0.5899830379953420  0.0935466274527555   T   T   T
  0.9334158186296043  0.6744175064311381  0.0938375915449874   T   T   T
  0.0562348956970232  0.4223175986376171  0.0935383410225848   T   T   T
  0.9316364790266297  0.8406421783767732  0.0938404780850185   T   T   T
  0.3061421925463566  0.0898497186532101  0.0947662912085091   T   T   T
  0.1808258685384967  0.1716721509550819  0.0938658546973047   T   T   T
  0.3061324259362284  0.9224766519586787  0.0947606567832857   T   T   T
  0.1790607986932613  0.3378891632019753  0.0938723589220114   T   T   T
  0.3019519544148826  0.5909472482495820  0.0950117509947382   T   T   T
  0.1790630495423877  0.6744422398697195  0.0938880556383655   T   T   T
  0.3019474158288256  0.4213503387398685  0.0950019493755506   T   T   T
  0.1808140072834495  0.8406629154985793  0.0938786303216107   T   T   T
  0.5562234337216990  0.0890944778558102  0.0960540675706449   T   T   T
  0.4303134233771218  0.1764618515979861  0.0958126439705234   T   T   T
  0.5562214073956786  0.9231974345129998  0.0960254506091919   T   T   T
  0.4253581838394896  0.3415777631214514  0.0962450069200081   T   T   T
  0.4253648501001788  0.6707601515786235  0.0962276500570661   T   T   T
  0.4303077616837206  0.8358604787611514  0.0957806895277742   T   T   T
  0.8063056384629113  0.0898401016880398  0.0947295489887672   T   T   T
  0.6821294463564119  0.1764556794708877  0.0957706331301333   T   T   T
  0.8063033001984931  0.9224609273185936  0.0947130794041997   T   T   T
  0.6871130729267038  0.3415710286105473  0.0961497228878489   T   T   T
  0.8105244890638815  0.5909400496578590  0.0948948350910229   T   T   T
  0.6871163675059827  0.6707532018372115  0.0961008455981193   T   T   T
  0.8105163332885554  0.4213605537208850  0.0949103746569787   T   T   T
  0.6821283126914702  0.8358487497880048  0.0957182430151055   T   T   T
  0.5562305328043303  0.5061614031123941  0.0972972740856421   T   T   T
 
  0.00000000E+00  0.00000000E+00  0.00000000E+00
  0.00000000E+00  0.00000000E+00  0.00000000E+00
  0.00000000E+00  0.00000000E+00  0.00000000E+00
  0.00000000E+00  0.00000000E+00  0.00000000E+00
  0.00000000E+00  0.00000000E+00  0.00000000E+00
  0.00000000E+00  0.00000000E+00  0.00000000E+00
  0.00000000E+00  0.00000000E+00  0.00000000E+00
  0.00000000E+00  0.00000000E+00  0.00000000E+00
  0.00000000E+00  0.00000000E+00  0.00000000E+00
  0.00000000E+00  0.00000000E+00  0.00000000E+00
  0.00000000E+00  0.00000000E+00  0.00000000E+00
  0.00000000E+00  0.00000000E+00  0.00000000E+00
  0.00000000E+00  0.00000000E+00  0.00000000E+00
  0.00000000E+00  0.00000000E+00  0.00000000E+00
  0.00000000E+00  0.00000000E+00  0.00000000E+00
  0.00000000E+00  0.00000000E+00  0.00000000E+00
  0.00000000E+00  0.00000000E+00  0.00000000E+00
  0.00000000E+00  0.00000000E+00  0.00000000E+00
  0.00000000E+00  0.00000000E+00  0.00000000E+00
  0.00000000E+00  0.00000000E+00  0.00000000E+00
  0.00000000E+00  0.00000000E+00  0.00000000E+00
  0.00000000E+00  0.00000000E+00  0.00000000E+00
  0.00000000E+00  0.00000000E+00  0.00000000E+00
  0.00000000E+00  0.00000000E+00  0.00000000E+00
  0.00000000E+00  0.00000000E+00  0.00000000E+00
  0.00000000E+00  0.00000000E+00  0.00000000E+00
  0.00000000E+00  0.00000000E+00  0.00000000E+00
  0.00000000E+00  0.00000000E+00  0.00000000E+00
  0.00000000E+00  0.00000000E+00  0.00000000E+00
  0.00000000E+00  0.00000000E+00  0.00000000E+00
  0.00000000E+00  0.00000000E+00  0.00000000E+00
