Title                                   
   1.00000000000000     
     9.8694509999999998    0.0000000000000000    0.0000000000000000
     0.0000000000000000    8.5490480000000009    0.0000000000000000
     0.0000000000000000    0.0000000000000000   20.0000000000000000
    27     3     1
Selective dynamics
Direct
  0.0555413841738039  0.0898962958778735  0.0848881059216541   T   T   T
  0.9309251511384273  0.1719681277559746  0.0873281824712183   T   T   T
  0.0561284766660845  0.9241147300790529  0.0845494629080966   T   T   T
  0.9340870747025803  0.3394914640535870  0.0864025317387908   T   T   T
  0.0566904782455911  0.5889598956892506  0.0818318880093685   T   T   T
  0.9343136344464866  0.6747563922557053  0.0858927366429612   T   T   T
  0.0571724124392101  0.4236070602600710  0.0821194144313196   T   T   T
  0.9320507636115939  0.8411504179273155  0.0869639777345300   T   T   T
  0.3054549408593372  0.0910623537330695  0.0933104990908509   T   T   T
  0.1806059507005389  0.1722985894263677  0.0870951479081601   T   T   T
  0.3052500548354363  0.9229843743143734  0.0927874493404392   T   T   T
  0.1800999154564811  0.3392031694029012  0.0862134913362142   T   T   T
  0.3000419067569377  0.5920519870147612  0.0945602777426593   T   T   T
  0.1792366788725678  0.6738918946793327  0.0854522969017492   T   T   T
  0.3007463072785335  0.4210256314016040  0.0951326648096412   T   T   T
  0.1806209092068294  0.8412755061598735  0.0864802606713064   T   T   T
  0.5559658175825863  0.0890065338640684  0.1050793544669551   T   T   T
  0.4280173405463318  0.1773151163889996  0.1023940251959163   T   T   T
  0.5554520717259666  0.9179766135099522  0.1048020006541934   T   T   T
  0.4265462344033856  0.8343474507996550  0.1013110140986719   T   T   T
  0.8056409863092731  0.0893923847831829  0.0939483071403699   T   T   T
  0.6825176688692304  0.1748939247846966  0.1026812782782217   T   T   T
  0.8065610436534681  0.9212801636182359  0.0937042104540242   T   T   T
  0.6898714211094082  0.3427521820011326  0.1071808560059812   T   T   T
  0.8149596683763449  0.5921960734839257  0.0956806504521487   T   T   T
  0.8146078236785834  0.4231912937315845  0.0956330883577340   T   T   T
  0.6844769667544046  0.8325696425831421  0.1024607788815834   T   T   T
  0.4210241713432407  0.3401250143577695  0.1064477638806641   T   T   T
  0.6941142657448383  0.6706208145508196  0.1069258257137975   T   T   T
  0.4178528236220699  0.6741793054029219  0.1047819444138701   T   T   T
  0.5565606568904357  0.5032905961088118  0.1169255143469499   T   T   T
 
  0.00000000E+00  0.00000000E+00  0.00000000E+00
  0.00000000E+00  0.00000000E+00  0.00000000E+00
  0.00000000E+00  0.00000000E+00  0.00000000E+00
  0.00000000E+00  0.00000000E+00  0.00000000E+00
  0.00000000E+00  0.00000000E+00  0.00000000E+00
  0.00000000E+00  0.00000000E+00  0.00000000E+00
  0.00000000E+00  0.00000000E+00  0.00000000E+00
  0.00000000E+00  0.00000000E+00  0.00000000E+00
  0.00000000E+00  0.00000000E+00  0.00000000E+00
  0.00000000E+00  0.00000000E+00  0.00000000E+00
  0.00000000E+00  0.00000000E+00  0.00000000E+00
  0.00000000E+00  0.00000000E+00  0.00000000E+00
  0.00000000E+00  0.00000000E+00  0.00000000E+00
  0.00000000E+00  0.00000000E+00  0.00000000E+00
  0.00000000E+00  0.00000000E+00  0.00000000E+00
  0.00000000E+00  0.00000000E+00  0.00000000E+00
  0.00000000E+00  0.00000000E+00  0.00000000E+00
  0.00000000E+00  0.00000000E+00  0.00000000E+00
  0.00000000E+00  0.00000000E+00  0.00000000E+00
  0.00000000E+00  0.00000000E+00  0.00000000E+00
  0.00000000E+00  0.00000000E+00  0.00000000E+00
  0.00000000E+00  0.00000000E+00  0.00000000E+00
  0.00000000E+00  0.00000000E+00  0.00000000E+00
  0.00000000E+00  0.00000000E+00  0.00000000E+00
  0.00000000E+00  0.00000000E+00  0.00000000E+00
  0.00000000E+00  0.00000000E+00  0.00000000E+00
  0.00000000E+00  0.00000000E+00  0.00000000E+00
  0.00000000E+00  0.00000000E+00  0.00000000E+00
  0.00000000E+00  0.00000000E+00  0.00000000E+00
  0.00000000E+00  0.00000000E+00  0.00000000E+00
  0.00000000E+00  0.00000000E+00  0.00000000E+00
