Title                                   
   1.00000000000000     
     4.9440799999999996    0.0000000000000000    0.0000000000000000
     0.0000000000000000   17.1295089999999988    0.0000000000000000
     0.0000000000000000    0.0000000000000000   20.0000000000000000
    28     2     1
Selective dynamics
Direct
  0.9954149612186176  0.1049620737858072  0.2943350877720805   T   T   T
  0.2433194648077372  0.1476040339351135  0.2955793733822726   T   T   T
  0.2406248174621270  0.2313647510853117  0.2994365470014003   T   T   T
  0.9874474007914328  0.2731835766025697  0.3026570541770284   T   T   T
  0.0087184603333843  0.6021988630710291  0.2998637595683181   T   T   T
  0.2569546314232741  0.7273800490851328  0.2962190372627769   T   T   T
  0.0028176975185503  0.8535387099633399  0.2936737513504768   T   T   T
  0.2514850176393919  0.8956587288360192  0.2936111383190150   T   T   T
  0.2485966317493006  0.9793264753064976  0.2934216682759569   T   T   T
  0.0057862448963904  0.7697120784582866  0.2945790834953803   T   T   T
  0.4944941093627023  0.1052756175201409  0.2937266752720896   T   T   T
  0.7447824194855985  0.1466830404467454  0.2941349789616275   T   T   T
  0.7410254597104672  0.2302880368845722  0.2964664646446183   T   T   T
  0.4973495192887239  0.0214411824439727  0.2932004187011844   T   T   T
  0.7437428528051009  0.3933272924140287  0.3052083711405217   T   T   T
  0.7571738716523356  0.4814987815429895  0.3054853193756344   T   T   T
  0.4914179921210699  0.2728657666695821  0.2979569604859765   T   T   T
  0.5125915909098897  0.6016770200637952  0.3018813079941925   T   T   T
  0.7555483327442489  0.7283069320012998  0.2949400913259299   T   T   T
  0.5021500560156463  0.8537147088466270  0.2937561152776532   T   T   T
  0.7515876651240303  0.8955361021485253  0.2933010958610945   T   T   T
  0.7485794229209322  0.9794258498095674  0.2931081528673363   T   T   T
  0.5048650398466362  0.7700247262586734  0.2948065388702888   T   T   T
  0.7592954096102195  0.6446946601696628  0.2972143502130754   T   T   T
  0.2594647433035612  0.6436500625001156  0.2999279425432568   T   T   T
  0.9979830021227393  0.0212831954338868  0.2934668018336552   T   T   T
  0.0029548277059094  0.5193603310570359  0.3030846049704489   T   T   T
  0.4985150932581351  0.3557799496627463  0.2983686111602454   T   T   T
  0.5174245487973184  0.5217211790457439  0.3089919048924499   T   T   T
  0.9822647436880636  0.3527527484782094  0.3128362922101084   T   T   T
  0.2556309716864815  0.4371054764729829  0.3498205007938651   T   T   T
 
  0.00000000E+00  0.00000000E+00  0.00000000E+00
  0.00000000E+00  0.00000000E+00  0.00000000E+00
  0.00000000E+00  0.00000000E+00  0.00000000E+00
  0.00000000E+00  0.00000000E+00  0.00000000E+00
  0.00000000E+00  0.00000000E+00  0.00000000E+00
  0.00000000E+00  0.00000000E+00  0.00000000E+00
  0.00000000E+00  0.00000000E+00  0.00000000E+00
  0.00000000E+00  0.00000000E+00  0.00000000E+00
  0.00000000E+00  0.00000000E+00  0.00000000E+00
  0.00000000E+00  0.00000000E+00  0.00000000E+00
  0.00000000E+00  0.00000000E+00  0.00000000E+00
  0.00000000E+00  0.00000000E+00  0.00000000E+00
  0.00000000E+00  0.00000000E+00  0.00000000E+00
  0.00000000E+00  0.00000000E+00  0.00000000E+00
  0.00000000E+00  0.00000000E+00  0.00000000E+00
  0.00000000E+00  0.00000000E+00  0.00000000E+00
  0.00000000E+00  0.00000000E+00  0.00000000E+00
  0.00000000E+00  0.00000000E+00  0.00000000E+00
  0.00000000E+00  0.00000000E+00  0.00000000E+00
  0.00000000E+00  0.00000000E+00  0.00000000E+00
  0.00000000E+00  0.00000000E+00  0.00000000E+00
  0.00000000E+00  0.00000000E+00  0.00000000E+00
  0.00000000E+00  0.00000000E+00  0.00000000E+00
  0.00000000E+00  0.00000000E+00  0.00000000E+00
  0.00000000E+00  0.00000000E+00  0.00000000E+00
  0.00000000E+00  0.00000000E+00  0.00000000E+00
  0.00000000E+00  0.00000000E+00  0.00000000E+00
  0.00000000E+00  0.00000000E+00  0.00000000E+00
  0.00000000E+00  0.00000000E+00  0.00000000E+00
  0.00000000E+00  0.00000000E+00  0.00000000E+00
  0.00000000E+00  0.00000000E+00  0.00000000E+00
