Title                                   
   1.00000000000000     
     4.9440799999999996    0.0000000000000000    0.0000000000000000
     0.0000000000000000    8.5647549999999999    0.0000000000000000
     0.0000000000000000    0.0000000000000000   20.0000000000000000
    12     3     1
Selective dynamics
Direct
 -0.0021322370582634  0.2895839932646243  0.0880956551167320   T   T   T
  0.2523578463176953  0.0441673507756621  0.0863925935108804   T   T   T
  0.0061212383456463  0.7969313684054360  0.0966128358976289   T   T   T
  0.0025219253326970  0.9612871932243326  0.0849010173076358   T   T   T
  0.7484211429537003  0.2069865128829899  0.0846035793362409   T   T   T
  0.5024110614481366  0.2911343776322193  0.0969309154790927   T   T   T
  0.7516090476501481  0.0415811360175721  0.0814876486996192   T   T   T
  0.7565287400297506  0.7064131951032105  0.1020948838779894   T   T   T
  0.5040418332125168  0.7951302406938769  0.0986153053429165   T   T   T
  0.7599896254697210  0.5331626055429833  0.1125316248345394   T   T   T
  0.5028362529152204  0.9605478908957299  0.0872999776956134   T   T   T
  0.5154642022954956  0.4438615976431092  0.1263880706227672   T   T   T
 -0.0049998655534873  0.4477317557897621  0.0945674743020286   T   T   T
  0.2543255337033044  0.7277106966372385  0.1118844966321031   T   T   T
  0.2504987448861720  0.2098098854961593  0.0888285957234074   T   T   T
  0.2000049080515455  0.5439601999950944  0.1712773256208149   T   T   T
 
  0.00000000E+00  0.00000000E+00  0.00000000E+00
  0.00000000E+00  0.00000000E+00  0.00000000E+00
  0.00000000E+00  0.00000000E+00  0.00000000E+00
  0.00000000E+00  0.00000000E+00  0.00000000E+00
  0.00000000E+00  0.00000000E+00  0.00000000E+00
  0.00000000E+00  0.00000000E+00  0.00000000E+00
  0.00000000E+00  0.00000000E+00  0.00000000E+00
  0.00000000E+00  0.00000000E+00  0.00000000E+00
  0.00000000E+00  0.00000000E+00  0.00000000E+00
  0.00000000E+00  0.00000000E+00  0.00000000E+00
  0.00000000E+00  0.00000000E+00  0.00000000E+00
  0.00000000E+00  0.00000000E+00  0.00000000E+00
  0.00000000E+00  0.00000000E+00  0.00000000E+00
  0.00000000E+00  0.00000000E+00  0.00000000E+00
  0.00000000E+00  0.00000000E+00  0.00000000E+00
  0.00000000E+00  0.00000000E+00  0.00000000E+00
