Title                                   
   1.00000000000000     
     4.9440799999999996    0.0000000000000000    0.0000000000000000
     0.0000000000000000    8.5647549999999999    0.0000000000000000
     0.0000000000000000    0.0000000000000000   20.0000000000000000
    13     2     1
Selective dynamics
Direct
  0.2494856572201322  0.2090826862919110  0.0918449401654785   T   T   T
 -0.0054646624900714  0.2899631830797007  0.0928263083812208   T   T   T
  0.2509581386855085  0.0436128440218229  0.0862456435085640   T   T   T
  0.0050564618924603  0.7968084047343256  0.0980686941323406   T   T   T
  0.0014099592768365  0.9592858739306485  0.0850492603494949   T   T   T
  0.7482117042522017  0.2067085067868138  0.0858969771072337   T   T   T
  0.5029415240692340  0.2884967663147874  0.0978173923850727   T   T   T
  0.7511275549724771  0.0406851310380473  0.0813087407371786   T   T   T
  0.7550091724851113  0.7073202057963905  0.1030112158386704   T   T   T
  0.5025080652267243  0.7957321663977247  0.0994662556178283   T   T   T
  0.7504381088037834  0.5365569361184761  0.1075830600505031   T   T   T
  0.5019134113125429  0.9594744621102912  0.0864583024402997   T   T   T
  0.5163290409814878  0.4474321002896474  0.1199842186513221   T   T   T
 -0.0156975143513416  0.4476749217428011  0.1042917477186210   T   T   T
  0.2536566929937493  0.7296610871741288  0.1145066178002515   T   T   T
  0.2321166846691644  0.5415047241724823  0.1681526251159275   T   T   T
 
  0.00000000E+00  0.00000000E+00  0.00000000E+00
  0.00000000E+00  0.00000000E+00  0.00000000E+00
  0.00000000E+00  0.00000000E+00  0.00000000E+00
  0.00000000E+00  0.00000000E+00  0.00000000E+00
  0.00000000E+00  0.00000000E+00  0.00000000E+00
  0.00000000E+00  0.00000000E+00  0.00000000E+00
  0.00000000E+00  0.00000000E+00  0.00000000E+00
  0.00000000E+00  0.00000000E+00  0.00000000E+00
  0.00000000E+00  0.00000000E+00  0.00000000E+00
  0.00000000E+00  0.00000000E+00  0.00000000E+00
  0.00000000E+00  0.00000000E+00  0.00000000E+00
  0.00000000E+00  0.00000000E+00  0.00000000E+00
  0.00000000E+00  0.00000000E+00  0.00000000E+00
  0.00000000E+00  0.00000000E+00  0.00000000E+00
  0.00000000E+00  0.00000000E+00  0.00000000E+00
  0.00000000E+00  0.00000000E+00  0.00000000E+00
