Title                                   
   1.00000000000000     
     4.9440799999999996    0.0000000000000000    0.0000000000000000
     0.0000000000000000    8.5647549999999999    0.0000000000000000
     0.0000000000000000    0.0000000000000000   20.0000000000000000
    10     4     1
Selective dynamics
Direct
  0.2500000000000000  0.2115623473106598  0.0945753455398465   T   T   T
 -0.0014616981917196  0.2937677728017996  0.0951733906238700   T   T   T
  0.2500000000000000  0.0379655542445258  0.0946021887687972   T   T   T
 -0.0014957116311257  0.9557889855373375  0.0951796004130051   T   T   T
  0.7500000000000000  0.2098093951101242  0.0911336952206008   T   T   T
  0.5014616981917198  0.2937677728017996  0.0951733906238700   T   T   T
  0.7500000000000000  0.0397920360020712  0.0911437000680339   T   T   T
  0.7500000000000000  0.7090687482696656  0.0993891062841845   T   T   T
  0.7500000000000000  0.5404868657264890  0.0993775485297157   T   T   T
  0.5014957116311258  0.9557889855373375  0.0951796004130051   T   T   T
  0.5081406917733542  0.4574246166024292  0.1045851809863033   T   T   T
 -0.0081406917733542  0.4574246166024292  0.1045851809863033   T   T   T
 -0.0081725387759556  0.7921465356454753  0.1046169185727011   T   T   T
  0.5081725387759554  0.7921465356454753  0.1046169185727011   T   T   T
  0.2500000000000000  0.6247402321623836  0.1386482343970656   T   T   T
 
  0.00000000E+00  0.00000000E+00  0.00000000E+00
  0.00000000E+00  0.00000000E+00  0.00000000E+00
  0.00000000E+00  0.00000000E+00  0.00000000E+00
  0.00000000E+00  0.00000000E+00  0.00000000E+00
  0.00000000E+00  0.00000000E+00  0.00000000E+00
  0.00000000E+00  0.00000000E+00  0.00000000E+00
  0.00000000E+00  0.00000000E+00  0.00000000E+00
  0.00000000E+00  0.00000000E+00  0.00000000E+00
  0.00000000E+00  0.00000000E+00  0.00000000E+00
  0.00000000E+00  0.00000000E+00  0.00000000E+00
  0.00000000E+00  0.00000000E+00  0.00000000E+00
  0.00000000E+00  0.00000000E+00  0.00000000E+00
  0.00000000E+00  0.00000000E+00  0.00000000E+00
  0.00000000E+00  0.00000000E+00  0.00000000E+00
  0.00000000E+00  0.00000000E+00  0.00000000E+00
