Title                                   
   1.00000000000000     
     4.9440799999999996    0.0000000000000000    0.0000000000000000
     0.0000000000000000   17.1295089999999988    0.0000000000000000
     0.0000000000000000    0.0000000000000000   20.0000000000000000
    27     3     1
Selective dynamics
Direct
 -0.0045845073362000  0.1053282210893558  0.2965257147224041   T   T   T
  0.2430109670387079  0.1482942708897138  0.2970175518026557   T   T   T
  0.2398639907970443  0.2324298362060597  0.2992413046254651   T   T   T
 -0.0102383336309042  0.2757033781447454  0.3035462048125318   T   T   T
  0.0078679137722724  0.6000355819473377  0.3026134832954162   T   T   T
  0.2548243715645349  0.7263227638784530  0.2964166466708209   T   T   T
  0.0026212136770661  0.8527185511843887  0.2949027251629404   T   T   T
  0.2507632682390394  0.8951329095710722  0.2947265568477968   T   T   T
  0.2484073710190085  0.9792876726466017  0.2950246192122368   T   T   T
  0.0052578922230411  0.7682897372212908  0.2957124741580647   T   T   T
  0.4949774635738061  0.1059434571459602  0.2953941845460782   T   T   T
  0.7458414052418638  0.1477520667355622  0.2959926677701891   T   T   T
  0.7435833344994178  0.2318780460277434  0.2971137251145531   T   T   T
  0.4973765195411871  0.0216484867197526  0.2949110298434828   T   T   T
  0.7417453456568063  0.3956063195442964  0.3034181171860045   T   T   T
  0.7510707714723986  0.4811147565978222  0.3053709086848096   T   T   T
  0.4910806036465068  0.2734871513823792  0.2955186363120258   T   T   T
  0.5082155297405996  0.6014682966546091  0.2984600874769018   T   T   T
  0.7543451851050028  0.7270009233763683  0.2955857684517791   T   T   T
  0.5002067696536723  0.8527592956635324  0.2945168405551183   T   T   T
  0.7505197840226311  0.8946947951726082  0.2945859425103530   T   T   T
  0.7481798715222091  0.9790240990580376  0.2948541191050003   T   T   T
  0.5023434738692528  0.7682986109869665  0.2950817887544858   T   T   T
  0.7577147256358157  0.6439416613921700  0.2975695679699375   T   T   T
 -0.0022862618650999  0.0212504934384555  0.2954970483765096   T   T   T
  0.0022657826132850  0.5184596107105737  0.3119375613247397   T   T   T
  0.4988747991710651  0.3557037391085678  0.2925806237581604   T   T   T
  0.5085326581791496  0.5223332653272624  0.3004732746668449   T   T   T
 -0.0143073120671481  0.3564498339644703  0.3155153880358153   T   T   T
  0.2572100674282628  0.6425181935897415  0.2989811532050998   T   T   T
  0.2847223359957062  0.4364659746240976  0.3359742850417314   T   T   T
 
  0.00000000E+00  0.00000000E+00  0.00000000E+00
  0.00000000E+00  0.00000000E+00  0.00000000E+00
  0.00000000E+00  0.00000000E+00  0.00000000E+00
  0.00000000E+00  0.00000000E+00  0.00000000E+00
  0.00000000E+00  0.00000000E+00  0.00000000E+00
  0.00000000E+00  0.00000000E+00  0.00000000E+00
  0.00000000E+00  0.00000000E+00  0.00000000E+00
  0.00000000E+00  0.00000000E+00  0.00000000E+00
  0.00000000E+00  0.00000000E+00  0.00000000E+00
  0.00000000E+00  0.00000000E+00  0.00000000E+00
  0.00000000E+00  0.00000000E+00  0.00000000E+00
  0.00000000E+00  0.00000000E+00  0.00000000E+00
  0.00000000E+00  0.00000000E+00  0.00000000E+00
  0.00000000E+00  0.00000000E+00  0.00000000E+00
  0.00000000E+00  0.00000000E+00  0.00000000E+00
  0.00000000E+00  0.00000000E+00  0.00000000E+00
  0.00000000E+00  0.00000000E+00  0.00000000E+00
  0.00000000E+00  0.00000000E+00  0.00000000E+00
  0.00000000E+00  0.00000000E+00  0.00000000E+00
  0.00000000E+00  0.00000000E+00  0.00000000E+00
  0.00000000E+00  0.00000000E+00  0.00000000E+00
  0.00000000E+00  0.00000000E+00  0.00000000E+00
  0.00000000E+00  0.00000000E+00  0.00000000E+00
  0.00000000E+00  0.00000000E+00  0.00000000E+00
  0.00000000E+00  0.00000000E+00  0.00000000E+00
  0.00000000E+00  0.00000000E+00  0.00000000E+00
  0.00000000E+00  0.00000000E+00  0.00000000E+00
  0.00000000E+00  0.00000000E+00  0.00000000E+00
  0.00000000E+00  0.00000000E+00  0.00000000E+00
  0.00000000E+00  0.00000000E+00  0.00000000E+00
  0.00000000E+00  0.00000000E+00  0.00000000E+00
