Title                                   
   1.00000000000000     
     4.9440799999999996    0.0000000000000000    0.0000000000000000
     0.0000000000000000    8.5647549999999999    0.0000000000000000
     0.0000000000000000    0.0000000000000000   20.0000000000000000
    10     4     1
Selective dynamics
Direct
 -0.0011674732275448  0.2905038906048882  0.0927510741678688   T   T   T
  0.2531706152381907  0.0380318169400847  0.0969609620232743   T   T   T
  0.0009808402057663  0.9592044106501602  0.0915688719312159   T   T   T
  0.7486257213467555  0.2079572969127979  0.0937847095879169   T   T   T
  0.4998523705592154  0.2972565341601550  0.1016255303871689   T   T   T
  0.7490960189824709  0.0396488193205756  0.0944138387666577   T   T   T
  0.7597968996920749  0.7107449496429739  0.0966366478073688   T   T   T
  0.7580636323243530  0.5399540308225377  0.0979795601399090   T   T   T
  0.5047377518379058  0.9536817943657460  0.1017564324527439   T   T   T
  0.5079515101334114  0.4612698154683367  0.1138042177549369   T   T   T
  0.0001484394789764  0.4515791032989205  0.0911479250757533   T   T   T
 -0.0038828845978603  0.7962322466621152  0.0862486786766699   T   T   T
  0.5167123072354886  0.7876962976889584  0.1155847831361798   T   T   T
  0.2512829363988316  0.2101143275090595  0.0973235543500176   T   T   T
  0.2046313143919647  0.6278056659526918  0.1363932137423219   T   T   T
 
  0.00000000E+00  0.00000000E+00  0.00000000E+00
  0.00000000E+00  0.00000000E+00  0.00000000E+00
  0.00000000E+00  0.00000000E+00  0.00000000E+00
  0.00000000E+00  0.00000000E+00  0.00000000E+00
  0.00000000E+00  0.00000000E+00  0.00000000E+00
  0.00000000E+00  0.00000000E+00  0.00000000E+00
  0.00000000E+00  0.00000000E+00  0.00000000E+00
  0.00000000E+00  0.00000000E+00  0.00000000E+00
  0.00000000E+00  0.00000000E+00  0.00000000E+00
  0.00000000E+00  0.00000000E+00  0.00000000E+00
  0.00000000E+00  0.00000000E+00  0.00000000E+00
  0.00000000E+00  0.00000000E+00  0.00000000E+00
  0.00000000E+00  0.00000000E+00  0.00000000E+00
  0.00000000E+00  0.00000000E+00  0.00000000E+00
  0.00000000E+00  0.00000000E+00  0.00000000E+00
