Title                                   
   1.00000000000000     
     9.8694509999999998    0.0000000000000000    0.0000000000000000
     0.0000000000000000    8.5490480000000009    0.0000000000000000
     0.0000000000000000    0.0000000000000000   20.0000000000000000
    29     2     1
Selective dynamics
Direct
  0.0560963797846832  0.0912115048145045  0.0865063216717556   T   T   T
  0.9307163622178254  0.1728328527203419  0.0878025947873299   T   T   T
  0.0548051918899948  0.9241500488424849  0.0871248316168924   T   T   T
  0.9303185905921892  0.3398374743193886  0.0901153371821932   T   T   T
  0.0560377712616320  0.5892896958478174  0.0883355419849373   T   T   T
  0.9314333103436708  0.6721408835146180  0.0919037405509036   T   T   T
  0.0569554216556857  0.4232365196945681  0.0889303492355121   T   T   T
  0.9306880508207374  0.8391927458582649  0.0907213739010319   T   T   T
  0.3052701236883574  0.0907439582356887  0.0878563775245448   T   T   T
  0.1816267718953006  0.1750690171871908  0.0869471075027783   T   T   T
  0.3034642916815637  0.9244854333467679  0.0887566814751524   T   T   T
  0.1843985730197342  0.3427041047909673  0.0884781473011426   T   T   T
  0.3072670275227902  0.5958673804898529  0.0925006461948213   T   T   T
  0.1800741280646612  0.6742840710836135  0.0880716211209103   T   T   T
  0.3109833983657327  0.4261010430892195  0.0912385370240346   T   T   T
  0.1792688843137285  0.8408992252278996  0.0874661475566558   T   T   T
  0.5552129687748167  0.0845644505000662  0.0925861641993858   T   T   T
  0.4314783283283590  0.1708722960658592  0.0900188987719891   T   T   T
  0.5539097252041427  0.9189444974859694  0.0973623635906408   T   T   T
  0.4370065993286692  0.3375503484852136  0.0925903510891257   T   T   T
  0.4256309160992432  0.8376453979861855  0.0950445503067023   T   T   T
  0.8064991873796623  0.0879953252471499  0.0898772023476063   T   T   T
  0.6807393572746925  0.1681150291773107  0.0918300648452959   T   T   T
  0.8059355708417746  0.9219024129295100  0.0928524536380923   T   T   T
  0.6780380925730477  0.3339096691937384  0.0947957495220535   T   T   T
  0.8070498177435932  0.5883679936402324  0.1013733691696488   T   T   T
  0.6931766555735641  0.6789643544007379  0.1177946589904749   T   T   T
  0.8047097739218696  0.4208472485468326  0.0959005993322390   T   T   T
  0.6810492690692531  0.8384608772275329  0.1023654991625595   T   T   T
  0.4235603756942506  0.6799212960694493  0.0990765651085946   T   T   T
  0.5587780185435829  0.4120608186562167  0.0975491601271887   T   T   T
  0.5574600665311992  0.5880780253248177  0.1919019931678412   T   T   T
 
  0.00000000E+00  0.00000000E+00  0.00000000E+00
  0.00000000E+00  0.00000000E+00  0.00000000E+00
  0.00000000E+00  0.00000000E+00  0.00000000E+00
  0.00000000E+00  0.00000000E+00  0.00000000E+00
  0.00000000E+00  0.00000000E+00  0.00000000E+00
  0.00000000E+00  0.00000000E+00  0.00000000E+00
  0.00000000E+00  0.00000000E+00  0.00000000E+00
  0.00000000E+00  0.00000000E+00  0.00000000E+00
  0.00000000E+00  0.00000000E+00  0.00000000E+00
  0.00000000E+00  0.00000000E+00  0.00000000E+00
  0.00000000E+00  0.00000000E+00  0.00000000E+00
  0.00000000E+00  0.00000000E+00  0.00000000E+00
  0.00000000E+00  0.00000000E+00  0.00000000E+00
  0.00000000E+00  0.00000000E+00  0.00000000E+00
  0.00000000E+00  0.00000000E+00  0.00000000E+00
  0.00000000E+00  0.00000000E+00  0.00000000E+00
  0.00000000E+00  0.00000000E+00  0.00000000E+00
  0.00000000E+00  0.00000000E+00  0.00000000E+00
  0.00000000E+00  0.00000000E+00  0.00000000E+00
  0.00000000E+00  0.00000000E+00  0.00000000E+00
  0.00000000E+00  0.00000000E+00  0.00000000E+00
  0.00000000E+00  0.00000000E+00  0.00000000E+00
  0.00000000E+00  0.00000000E+00  0.00000000E+00
  0.00000000E+00  0.00000000E+00  0.00000000E+00
  0.00000000E+00  0.00000000E+00  0.00000000E+00
  0.00000000E+00  0.00000000E+00  0.00000000E+00
  0.00000000E+00  0.00000000E+00  0.00000000E+00
  0.00000000E+00  0.00000000E+00  0.00000000E+00
  0.00000000E+00  0.00000000E+00  0.00000000E+00
  0.00000000E+00  0.00000000E+00  0.00000000E+00
  0.00000000E+00  0.00000000E+00  0.00000000E+00
  0.00000000E+00  0.00000000E+00  0.00000000E+00
