Title                                   
   1.00000000000000     
     4.9440799999999996    0.0000000000000000    0.0000000000000000
     0.0000000000000000    8.5647549999999999    0.0000000000000000
     0.0000000000000000    0.0000000000000000   20.0000000000000000
    13     2     1
Selective dynamics
Direct
 -0.0008451373428837  0.2884279427830378  0.0923388093455326   T   T   T
  0.2500000000000000  0.0439848077132435  0.0848861317809562   T   T   T
  0.0023168306560920  0.7968566424722674  0.0981071089492173   T   T   T
 -0.0000682825236334  0.9605139433678027  0.0846889833702399   T   T   T
  0.7500000000000000  0.2066563506606927  0.0824957356393647   T   T   T
  0.5008451373428842  0.2884279427830378  0.0923388093455326   T   T   T
  0.7500000000000000  0.0411033613510789  0.0796370207415707   T   T   T
  0.7500000000000000  0.7083455949331774  0.1035754947704129   T   T   T
  0.4976831693439080  0.7968566424722674  0.0981071089492173   T   T   T
  0.7500000000000000  0.5376972091580774  0.1096020312221389   T   T   T
  0.5000682825236332  0.9605139433678027  0.0846889833702399   T   T   T
  0.5080711800102766  0.4453463240827076  0.1145593220232252   T   T   T
 -0.0080711800102768  0.4453463240827076  0.1145593220232252   T   T   T
  0.2500000000000000  0.7290959997102862  0.1133935215048112   T   T   T
  0.2500000000000000  0.2064622967696799  0.0886147200822689   T   T   T
  0.2500000000000000  0.5443646742921329  0.1709188968820557   T   T   T
 
  0.00000000E+00  0.00000000E+00  0.00000000E+00
  0.00000000E+00  0.00000000E+00  0.00000000E+00
  0.00000000E+00  0.00000000E+00  0.00000000E+00
  0.00000000E+00  0.00000000E+00  0.00000000E+00
  0.00000000E+00  0.00000000E+00  0.00000000E+00
  0.00000000E+00  0.00000000E+00  0.00000000E+00
  0.00000000E+00  0.00000000E+00  0.00000000E+00
  0.00000000E+00  0.00000000E+00  0.00000000E+00
  0.00000000E+00  0.00000000E+00  0.00000000E+00
  0.00000000E+00  0.00000000E+00  0.00000000E+00
  0.00000000E+00  0.00000000E+00  0.00000000E+00
  0.00000000E+00  0.00000000E+00  0.00000000E+00
  0.00000000E+00  0.00000000E+00  0.00000000E+00
  0.00000000E+00  0.00000000E+00  0.00000000E+00
  0.00000000E+00  0.00000000E+00  0.00000000E+00
  0.00000000E+00  0.00000000E+00  0.00000000E+00
