Title                                   
   1.00000000000000     
     9.8694509999999998    0.0000000000000000    0.0000000000000000
     0.0000000000000000    8.5490480000000009    0.0000000000000000
     0.0000000000000000    0.0000000000000000   20.0000000000000000
    27     3     1
Selective dynamics
Direct
  0.0560963623542179  0.0895149653422262  0.0873371288040959   T   T   T
  0.9312172040197922  0.1716399116028285  0.0899940781118527   T   T   T
  0.0576855586858161  0.9231945507488238  0.0877644413453207   T   T   T
  0.9352463388836433  0.3378810018548213  0.0887558142474920   T   T   T
  0.0576873450695461  0.5902074822179582  0.0831603744868303   T   T   T
  0.9353296723682185  0.6747895024600241  0.0888780952119844   T   T   T
  0.0577232189749108  0.4226538161075633  0.0830622955922148   T   T   T
  0.9316578480199330  0.8404890050285249  0.0902065210057500   T   T   T
  0.3050909348201439  0.0880764823538333  0.0923601246521231   T   T   T
  0.1799235391924367  0.1707080456637229  0.0871641271543839   T   T   T
  0.1798697386104373  0.3390106859481894  0.0848819154322430   T   T   T
  0.3017878197760257  0.5903426807885731  0.0910616879349874   T   T   T
  0.1802945707421729  0.6730726680241418  0.0852943917088977   T   T   T
  0.3024496168779341  0.4213748519311576  0.0909845689045773   T   T   T
  0.1804732428626586  0.8409888003828606  0.0879992115614182   T   T   T
  0.5535884739863018  0.0910633514761731  0.1029897160363235   T   T   T
  0.4270603360503293  0.1744147734482364  0.0992488076823316   T   T   T
  0.5525645579719463  0.9217184096703517  0.1028456792430916   T   T   T
  0.4263797306969978  0.8370088080174622  0.0993269210006989   T   T   T
  0.8057698766764618  0.0900528867808801  0.0961904936035174   T   T   T
  0.6815676166773224  0.1759809119699297  0.1031543615905216   T   T   T
  0.8059578546253463  0.9221001591043082  0.0961392012500204   T   T   T
  0.6939301745151089  0.3405862384460460  0.1073390305997571   T   T   T
  0.8152970905668326  0.5911406428702849  0.0982610824405788   T   T   T
  0.6939681807325734  0.6720495669936877  0.1075584827994340   T   T   T
  0.8152595401776680  0.4215958402087573  0.0981881948775194   T   T   T
  0.6811015945266050  0.8361932497250342  0.1030252476112556   T   T   T
  0.4189647635298872  0.3357400853129365  0.1010152945652004   T   T   T
  0.4181710371684944  0.6780409464630278  0.1015238550150150   T   T   T
  0.3053708572502049  0.9228956459621966  0.0925526226341806   T   T   T
  0.5556503035900475  0.5063490330954433  0.1127012328964310   T   T   T
 
  0.00000000E+00  0.00000000E+00  0.00000000E+00
  0.00000000E+00  0.00000000E+00  0.00000000E+00
  0.00000000E+00  0.00000000E+00  0.00000000E+00
  0.00000000E+00  0.00000000E+00  0.00000000E+00
  0.00000000E+00  0.00000000E+00  0.00000000E+00
  0.00000000E+00  0.00000000E+00  0.00000000E+00
  0.00000000E+00  0.00000000E+00  0.00000000E+00
  0.00000000E+00  0.00000000E+00  0.00000000E+00
  0.00000000E+00  0.00000000E+00  0.00000000E+00
  0.00000000E+00  0.00000000E+00  0.00000000E+00
  0.00000000E+00  0.00000000E+00  0.00000000E+00
  0.00000000E+00  0.00000000E+00  0.00000000E+00
  0.00000000E+00  0.00000000E+00  0.00000000E+00
  0.00000000E+00  0.00000000E+00  0.00000000E+00
  0.00000000E+00  0.00000000E+00  0.00000000E+00
  0.00000000E+00  0.00000000E+00  0.00000000E+00
  0.00000000E+00  0.00000000E+00  0.00000000E+00
  0.00000000E+00  0.00000000E+00  0.00000000E+00
  0.00000000E+00  0.00000000E+00  0.00000000E+00
  0.00000000E+00  0.00000000E+00  0.00000000E+00
  0.00000000E+00  0.00000000E+00  0.00000000E+00
  0.00000000E+00  0.00000000E+00  0.00000000E+00
  0.00000000E+00  0.00000000E+00  0.00000000E+00
  0.00000000E+00  0.00000000E+00  0.00000000E+00
  0.00000000E+00  0.00000000E+00  0.00000000E+00
  0.00000000E+00  0.00000000E+00  0.00000000E+00
  0.00000000E+00  0.00000000E+00  0.00000000E+00
  0.00000000E+00  0.00000000E+00  0.00000000E+00
  0.00000000E+00  0.00000000E+00  0.00000000E+00
  0.00000000E+00  0.00000000E+00  0.00000000E+00
  0.00000000E+00  0.00000000E+00  0.00000000E+00
