Title                                   
   1.00000000000000     
     9.8694509999999998    0.0000000000000000    0.0000000000000000
     0.0000000000000000    8.5490480000000009    0.0000000000000000
     0.0000000000000000    0.0000000000000000   20.0000000000000000
    29     1     1
Selective dynamics
Direct
  0.0558892865430108  0.0892429464148527  0.0864197430763593   T   T   T
  0.9311424388913688  0.1712799062639672  0.0877106000301755   T   T   T
  0.0569697652123867  0.9238093182746901  0.0866824122361299   T   T   T
  0.9330993790547729  0.3384298831248192  0.0865881501149218   T   T   T
  0.0565725960332353  0.5902675830068591  0.0843344750976596   T   T   T
  0.9324793464009365  0.6734880672018031  0.0862992621078239   T   T   T
  0.0570045993206996  0.4229597414973767  0.0842307638733271   T   T   T
  0.9310182626710448  0.8397254184144960  0.0874317509165476   T   T   T
  0.3073353487184724  0.0904328270034588  0.0929764691903961   T   T   T
  0.1818829680675787  0.1712221305939897  0.0874387310768074   T   T   T
  0.1810137290921916  0.3385590583946326  0.0862231930827052   T   T   T
  0.3023401783110942  0.5912061725886610  0.0936956600566939   T   T   T
  0.1807824585667955  0.6753113191987598  0.0868367511482354   T   T   T
  0.3031624718502278  0.4230202521457078  0.0926626018232051   T   T   T
  0.1821549171517401  0.8420760307252171  0.0883136314572810   T   T   T
  0.5565408503713561  0.0894942991669825  0.1018257806070281   T   T   T
  0.4318145862154725  0.1775142694678946  0.0998672224261395   T   T   T
  0.5545273049529397  0.9229015083562246  0.1016794161481983   T   T   T
  0.4275236195119572  0.3459076359006519  0.1031939194110263   T   T   T
  0.4247388950123945  0.6701134765432792  0.1066756640319066   T   T   T
  0.4292742049239729  0.8360494750065151  0.1010085102239155   T   T   T
  0.8049331833632107  0.0891874336198994  0.0923951330427580   T   T   T
  0.6810232043156472  0.1763359093534917  0.0995062107389205   T   T   T
  0.8044027170468251  0.9205907273877795  0.0920348093555585   T   T   T
  0.6867492704841460  0.3436039147527681  0.1053464247749740   T   T   T
  0.8096610041958919  0.5893203426999010  0.0917891546554803   T   T   T
  0.6842429473660109  0.6654956626946003  0.1011048687632799   T   T   T
  0.8105813263370003  0.4212596376525637  0.0928073279212970   T   T   T
  0.6787429496117875  0.8331205901894679  0.0982282611063762   T   T   T
  0.3066096338885245  0.9231704103447640  0.0932189217040613   T   T   T
  0.5589215565173117  0.5057790520139471  0.1424391798008378   T   T   T
 
  0.00000000E+00  0.00000000E+00  0.00000000E+00
  0.00000000E+00  0.00000000E+00  0.00000000E+00
  0.00000000E+00  0.00000000E+00  0.00000000E+00
  0.00000000E+00  0.00000000E+00  0.00000000E+00
  0.00000000E+00  0.00000000E+00  0.00000000E+00
  0.00000000E+00  0.00000000E+00  0.00000000E+00
  0.00000000E+00  0.00000000E+00  0.00000000E+00
  0.00000000E+00  0.00000000E+00  0.00000000E+00
  0.00000000E+00  0.00000000E+00  0.00000000E+00
  0.00000000E+00  0.00000000E+00  0.00000000E+00
  0.00000000E+00  0.00000000E+00  0.00000000E+00
  0.00000000E+00  0.00000000E+00  0.00000000E+00
  0.00000000E+00  0.00000000E+00  0.00000000E+00
  0.00000000E+00  0.00000000E+00  0.00000000E+00
  0.00000000E+00  0.00000000E+00  0.00000000E+00
  0.00000000E+00  0.00000000E+00  0.00000000E+00
  0.00000000E+00  0.00000000E+00  0.00000000E+00
  0.00000000E+00  0.00000000E+00  0.00000000E+00
  0.00000000E+00  0.00000000E+00  0.00000000E+00
  0.00000000E+00  0.00000000E+00  0.00000000E+00
  0.00000000E+00  0.00000000E+00  0.00000000E+00
  0.00000000E+00  0.00000000E+00  0.00000000E+00
  0.00000000E+00  0.00000000E+00  0.00000000E+00
  0.00000000E+00  0.00000000E+00  0.00000000E+00
  0.00000000E+00  0.00000000E+00  0.00000000E+00
  0.00000000E+00  0.00000000E+00  0.00000000E+00
  0.00000000E+00  0.00000000E+00  0.00000000E+00
  0.00000000E+00  0.00000000E+00  0.00000000E+00
  0.00000000E+00  0.00000000E+00  0.00000000E+00
  0.00000000E+00  0.00000000E+00  0.00000000E+00
  0.00000000E+00  0.00000000E+00  0.00000000E+00
