Title                                   
   1.00000000000000     
     9.8694509999999998    0.0000000000000000    0.0000000000000000
     0.0000000000000000    8.5490480000000009    0.0000000000000000
     0.0000000000000000    0.0000000000000000   20.0000000000000000
    26     4     1
Selective dynamics
Direct
  0.0548884036656466  0.0879697996771795  0.0818719975694533   T   T   T
  0.9306426642298862  0.1722175511216932  0.0855570186219962   T   T   T
  0.0568084172706270  0.9213904353763485  0.0828104937109633   T   T   T
  0.9324604110731379  0.3400736957160014  0.0874218215641846   T   T   T
  0.0563043249063069  0.5906545794929738  0.0830267064273296   T   T   T
  0.0562742354595371  0.4241444646329270  0.0817287748139488   T   T   T
  0.9319311804336581  0.8382882445417740  0.0875587610574167   T   T   T
  0.3062687466734750  0.0874528954630999  0.0861324271823337   T   T   T
  0.1811308436937228  0.1709586083360844  0.0819318052402994   T   T   T
  0.1805220492427278  0.3380678389877814  0.0811646559688722   T   T   T
  0.3065467377952904  0.5874871403794949  0.0876225680421891   T   T   T
  0.1812082499044983  0.6730994294125103  0.0823275939943277   T   T   T
  0.3051176156539467  0.4179534880530660  0.0871216469629199   T   T   T
  0.1832036591032671  0.8391838918646577  0.0827407093476074   T   T   T
  0.4293741650800688  0.1744446466251880  0.0945704185796682   T   T   T
  0.5552917338687502  0.9249828224857842  0.1029730329602072   T   T   T
  0.4260677121136392  0.6747897948928487  0.1000620947182255   T   T   T
  0.4300476741409660  0.8385030374850563  0.0972510883656775   T   T   T
  0.8055477492508164  0.0891031005372942  0.0910573300969867   T   T   T
  0.6825401518781876  0.1778266433463441  0.1016068798808386   T   T   T
  0.8065787300880072  0.9218790964192421  0.0928966569667505   T   T   T
  0.6888970755196641  0.3393148621144683  0.1137255277426055   T   T   T
  0.8113712120481485  0.5936730373763170  0.1038549692542753   T   T   T
  0.6915537659698889  0.6753579188064999  0.1177199670886656   T   T   T
  0.8121477576452087  0.4213845111450883  0.1017851461414334   T   T   T
  0.6817767035920822  0.8405105653273411  0.1052361704923422   T   T   T
  0.9333031194171361  0.6726564246850606  0.0890705782585442   T   T   T
  0.5552234712559094  0.0943224737037691  0.1006979464600594   T   T   T
  0.4237642736554567  0.3336309268189454  0.0980230122573574   T   T   T
  0.3058650319188184  0.9233382646019599  0.0857707558591595   T   T   T
  0.5404771334515391  0.5062148105732196  0.1656464443734096   T   T   T
 
  0.00000000E+00  0.00000000E+00  0.00000000E+00
  0.00000000E+00  0.00000000E+00  0.00000000E+00
  0.00000000E+00  0.00000000E+00  0.00000000E+00
  0.00000000E+00  0.00000000E+00  0.00000000E+00
  0.00000000E+00  0.00000000E+00  0.00000000E+00
  0.00000000E+00  0.00000000E+00  0.00000000E+00
  0.00000000E+00  0.00000000E+00  0.00000000E+00
  0.00000000E+00  0.00000000E+00  0.00000000E+00
  0.00000000E+00  0.00000000E+00  0.00000000E+00
  0.00000000E+00  0.00000000E+00  0.00000000E+00
  0.00000000E+00  0.00000000E+00  0.00000000E+00
  0.00000000E+00  0.00000000E+00  0.00000000E+00
  0.00000000E+00  0.00000000E+00  0.00000000E+00
  0.00000000E+00  0.00000000E+00  0.00000000E+00
  0.00000000E+00  0.00000000E+00  0.00000000E+00
  0.00000000E+00  0.00000000E+00  0.00000000E+00
  0.00000000E+00  0.00000000E+00  0.00000000E+00
  0.00000000E+00  0.00000000E+00  0.00000000E+00
  0.00000000E+00  0.00000000E+00  0.00000000E+00
  0.00000000E+00  0.00000000E+00  0.00000000E+00
  0.00000000E+00  0.00000000E+00  0.00000000E+00
  0.00000000E+00  0.00000000E+00  0.00000000E+00
  0.00000000E+00  0.00000000E+00  0.00000000E+00
  0.00000000E+00  0.00000000E+00  0.00000000E+00
  0.00000000E+00  0.00000000E+00  0.00000000E+00
  0.00000000E+00  0.00000000E+00  0.00000000E+00
  0.00000000E+00  0.00000000E+00  0.00000000E+00
  0.00000000E+00  0.00000000E+00  0.00000000E+00
  0.00000000E+00  0.00000000E+00  0.00000000E+00
  0.00000000E+00  0.00000000E+00  0.00000000E+00
  0.00000000E+00  0.00000000E+00  0.00000000E+00
