Title                                   
   1.00000000000000     
     9.8694509999999998    0.0000000000000000    0.0000000000000000
     0.0000000000000000    8.5490480000000009    0.0000000000000000
     0.0000000000000000    0.0000000000000000   20.0000000000000000
    29     2     1
Selective dynamics
Direct
  0.0563446243604874  0.0906676567790074  0.0831544346854543   T   T   T
  0.9315911167933266  0.1723025890302068  0.0846960384280690   T   T   T
  0.0568028849962983  0.9237846883386810  0.0837688662724563   T   T   T
  0.9322381015917854  0.3391785644577467  0.0876725261002643   T   T   T
  0.0573098277050668  0.5894372626082144  0.0842945198367389   T   T   T
  0.9327514553308702  0.6717669359577539  0.0877995611054649   T   T   T
  0.0579507952524645  0.4225808042252436  0.0851818831797047   T   T   T
  0.9319025351240864  0.8387409251032169  0.0859314623292279   T   T   T
  0.3056616589737476  0.0891717946332510  0.0883848302218155   T   T   T
  0.1820600282574116  0.1733112461503850  0.0852721080288830   T   T   T
  0.1839079341196282  0.3406801919523927  0.0870958679052080   T   T   T
  0.3026657666899306  0.5924205429139870  0.0989406664776081   T   T   T
  0.1811835887801100  0.6744741198447767  0.0872234953097762   T   T   T
  0.3087585409961855  0.4254429409985233  0.0969545420244852   T   T   T
  0.1806489884060968  0.8412390909303099  0.0868840359742906   T   T   T
  0.5561846339910421  0.0863244908809994  0.0946492134608607   T   T   T
  0.4308639632992563  0.1703930026814101  0.0941853652556273   T   T   T
  0.5536314126116522  0.9194719217366434  0.0988696382351709   T   T   T
  0.4318012042564902  0.3354956837822488  0.1035119478687136   T   T   T
  0.5587674524228493  0.4064953385262284  0.1206635150531265   T   T   T
  0.4245656029448726  0.8429087276449684  0.1013451976768790   T   T   T
  0.8068928240874419  0.0876926586952685  0.0866703410837895   T   T   T
  0.6821358038041238  0.1690728010671914  0.0932917680305834   T   T   T
  0.8062676788837236  0.9217536367780662  0.0884122534243472   T   T   T
  0.6838562742635782  0.3335107888897013  0.1037868811650643   T   T   T
  0.8109170660394404  0.5883879173990115  0.1002166162355401   T   T   T
  0.6933553614337770  0.6766432588700126  0.1165813484204840   T   T   T
  0.8081802727927820  0.4207654672783634  0.0982960886308989   T   T   T
  0.6826933705197222  0.8381216191162327  0.1003216183446619   T   T   T
  0.4118911430697607  0.6869729935652762  0.1198901677529070   T   T   T
  0.3045203316146156  0.9252594479302563  0.0902129711209719   T   T   T
  0.5513367565873820  0.5957768912344138  0.1795152303609724   T   T   T
 
  0.00000000E+00  0.00000000E+00  0.00000000E+00
  0.00000000E+00  0.00000000E+00  0.00000000E+00
  0.00000000E+00  0.00000000E+00  0.00000000E+00
  0.00000000E+00  0.00000000E+00  0.00000000E+00
  0.00000000E+00  0.00000000E+00  0.00000000E+00
  0.00000000E+00  0.00000000E+00  0.00000000E+00
  0.00000000E+00  0.00000000E+00  0.00000000E+00
  0.00000000E+00  0.00000000E+00  0.00000000E+00
  0.00000000E+00  0.00000000E+00  0.00000000E+00
  0.00000000E+00  0.00000000E+00  0.00000000E+00
  0.00000000E+00  0.00000000E+00  0.00000000E+00
  0.00000000E+00  0.00000000E+00  0.00000000E+00
  0.00000000E+00  0.00000000E+00  0.00000000E+00
  0.00000000E+00  0.00000000E+00  0.00000000E+00
  0.00000000E+00  0.00000000E+00  0.00000000E+00
  0.00000000E+00  0.00000000E+00  0.00000000E+00
  0.00000000E+00  0.00000000E+00  0.00000000E+00
  0.00000000E+00  0.00000000E+00  0.00000000E+00
  0.00000000E+00  0.00000000E+00  0.00000000E+00
  0.00000000E+00  0.00000000E+00  0.00000000E+00
  0.00000000E+00  0.00000000E+00  0.00000000E+00
  0.00000000E+00  0.00000000E+00  0.00000000E+00
  0.00000000E+00  0.00000000E+00  0.00000000E+00
  0.00000000E+00  0.00000000E+00  0.00000000E+00
  0.00000000E+00  0.00000000E+00  0.00000000E+00
  0.00000000E+00  0.00000000E+00  0.00000000E+00
  0.00000000E+00  0.00000000E+00  0.00000000E+00
  0.00000000E+00  0.00000000E+00  0.00000000E+00
  0.00000000E+00  0.00000000E+00  0.00000000E+00
  0.00000000E+00  0.00000000E+00  0.00000000E+00
  0.00000000E+00  0.00000000E+00  0.00000000E+00
  0.00000000E+00  0.00000000E+00  0.00000000E+00
