Title                                   
   1.00000000000000     
     9.8694509999999998    0.0000000000000000    0.0000000000000000
     0.0000000000000000    8.5490480000000009    0.0000000000000000
     0.0000000000000000    0.0000000000000000   20.0000000000000000
    27     4     1
Selective dynamics
Direct
  0.0558929808642052  0.0916550526669906  0.0869797940303917   T   T   T
  0.9298930385612084  0.1756761392920216  0.0884720032604644   T   T   T
  0.0570731877979595  0.9234170986192541  0.0853953381552059   T   T   T
  0.9295720740735249  0.3419994637676053  0.0914214507296127   T   T   T
  0.0563368575958778  0.5895816587250612  0.0879161213498386   T   T   T
  0.9325650184877873  0.6725088247885080  0.0871284770372635   T   T   T
  0.0553987548955303  0.4228334394740659  0.0913231330864429   T   T   T
  0.9320144268338444  0.8402807787476458  0.0859167510076464   T   T   T
  0.3053810141568563  0.0877350331470857  0.0895712086593093   T   T   T
  0.1817627169225828  0.1731556205541454  0.0898791862405873   T   T   T
  0.3077155975035742  0.9217563873628816  0.0892171635566513   T   T   T
  0.1807541319866522  0.3392512286633505  0.0937373150626136   T   T   T
  0.3044136133228003  0.5877749211375606  0.1004533140814244   T   T   T
  0.1808684023865866  0.6701743118320685  0.0893589191323153   T   T   T
  0.1825283004902549  0.8380823382563114  0.0873294463770227   T   T   T
  0.5566653202313956  0.0872641703674321  0.0950113119316553   T   T   T
  0.4302968249487080  0.1691014195624471  0.0951098197008563   T   T   T
  0.4296020157246797  0.3345155516354769  0.1042746566999631   T   T   T
  0.4312956006842474  0.8373121880692397  0.0980175961939710   T   T   T
  0.8066801382939813  0.0909011379554846  0.0877402797497813   T   T   T
  0.6809088266839157  0.1726971819107616  0.0928142743256214   T   T   T
  0.8071086799770162  0.9255273007585797  0.0875870666359111   T   T   T
  0.6789903468765124  0.3387360130949407  0.1004616191473360   T   T   T
  0.8070247612862889  0.5942032694258166  0.0935362449003985   T   T   T
  0.6856373797399756  0.8391041927502539  0.0942413930315499   T   T   T
  0.4221964341663102  0.6750051162864249  0.1133873914440622   T   T   T
  0.5534589897957799  0.4109308318351121  0.1177945303999778   T   T   T
  0.6916950260601350  0.6799346771498193  0.1018689540014240   T   T   T
  0.5580668018983422  0.9184293731979279  0.0958177223161212   T   T   T
  0.3053922792170839  0.4205248036363277  0.1005389791339683   T   T   T
  0.8030450289773463  0.4262372626192102  0.0951562856157154   T   T   T
  0.5594044295590436  0.5939392127101918  0.1682172530049132   T   T   T
 
  0.00000000E+00  0.00000000E+00  0.00000000E+00
  0.00000000E+00  0.00000000E+00  0.00000000E+00
  0.00000000E+00  0.00000000E+00  0.00000000E+00
  0.00000000E+00  0.00000000E+00  0.00000000E+00
  0.00000000E+00  0.00000000E+00  0.00000000E+00
  0.00000000E+00  0.00000000E+00  0.00000000E+00
  0.00000000E+00  0.00000000E+00  0.00000000E+00
  0.00000000E+00  0.00000000E+00  0.00000000E+00
  0.00000000E+00  0.00000000E+00  0.00000000E+00
  0.00000000E+00  0.00000000E+00  0.00000000E+00
  0.00000000E+00  0.00000000E+00  0.00000000E+00
  0.00000000E+00  0.00000000E+00  0.00000000E+00
  0.00000000E+00  0.00000000E+00  0.00000000E+00
  0.00000000E+00  0.00000000E+00  0.00000000E+00
  0.00000000E+00  0.00000000E+00  0.00000000E+00
  0.00000000E+00  0.00000000E+00  0.00000000E+00
  0.00000000E+00  0.00000000E+00  0.00000000E+00
  0.00000000E+00  0.00000000E+00  0.00000000E+00
  0.00000000E+00  0.00000000E+00  0.00000000E+00
  0.00000000E+00  0.00000000E+00  0.00000000E+00
  0.00000000E+00  0.00000000E+00  0.00000000E+00
  0.00000000E+00  0.00000000E+00  0.00000000E+00
  0.00000000E+00  0.00000000E+00  0.00000000E+00
  0.00000000E+00  0.00000000E+00  0.00000000E+00
  0.00000000E+00  0.00000000E+00  0.00000000E+00
  0.00000000E+00  0.00000000E+00  0.00000000E+00
  0.00000000E+00  0.00000000E+00  0.00000000E+00
  0.00000000E+00  0.00000000E+00  0.00000000E+00
  0.00000000E+00  0.00000000E+00  0.00000000E+00
  0.00000000E+00  0.00000000E+00  0.00000000E+00
  0.00000000E+00  0.00000000E+00  0.00000000E+00
  0.00000000E+00  0.00000000E+00  0.00000000E+00
