Title                                   
   1.00000000000000     
     4.9440799999999996    0.0000000000000000    0.0000000000000000
     0.0000000000000000   17.1295089999999988    0.0000000000000000
     0.0000000000000000    0.0000000000000000   20.0000000000000000
    27     3     1
Selective dynamics
Direct
  0.0005313160288228  0.1056555867009041  0.2967437992977052   T   T   T
  0.2491681519244026  0.1485070839875204  0.2972519653764959   T   T   T
  0.2484234836373781  0.2331712883496830  0.2999989544602938   T   T   T
 -0.0014755980435087  0.2756624774693295  0.3049967246127941   T   T   T
 -0.0011436990699601  0.5999338347621939  0.3033897961917048   T   T   T
  0.2471787136826399  0.7266933445066874  0.2962100137226676   T   T   T
 -0.0002992860505811  0.8532282142741898  0.2959951771908794   T   T   T
  0.2491814629833311  0.8953856314788432  0.2957678412239541   T   T   T
  0.2497601214991569  0.9795647435694897  0.2958116167916625   T   T   T
 -0.0009350366944132  0.7689805632156788  0.2963444777105948   T   T   T
  0.4997171954223872  0.1062066982351842  0.2955366822149539   T   T   T
  0.7513901981522965  0.1477065682957337  0.2959491560244699   T   T   T
  0.7525825739338453  0.2317659273198921  0.2971340590499101   T   T   T
  0.4994476894188021  0.0218846113226605  0.2953800545080320   T   T   T
  0.7470017533802346  0.3941802586783613  0.3016143323563184   T   T   T
  0.7428396661751526  0.4781292019156480  0.3020324301457946   T   T   T
  0.5020158641754935  0.2723903224890005  0.2957752462779739   T   T   T
  0.4949365727627956  0.6033910998716452  0.2928589931530851   T   T   T
  0.7492654729419557  0.7272198560507410  0.2951996591843209   T   T   T
  0.4978886287261044  0.8529046950361429  0.2952279859551477   T   T   T
  0.7487261174320370  0.8950885313878696  0.2954986534324768   T   T   T
  0.7492272518194529  0.9793768087019339  0.2955215049183686   T   T   T
  0.4975601844128280  0.7684886502020949  0.2949127129409271   T   T   T
  0.7493109791559940  0.6440499705002602  0.2953285794026458   T   T   T
 -0.0001625066954526  0.0215042921858537  0.2960604550443717   T   T   T
  0.4968437048727495  0.5216080887060230  0.2926247333372090   T   T   T
 -0.0032260395575694  0.5174999604561992  0.3183987237864153   T   T   T
  0.5094572188351865  0.3525434923145758  0.2932526256248500   T   T   T
 -0.0122149498792524  0.3568392322135954  0.3186222216623299   T   T   T
  0.2455724681409168  0.6438111443345536  0.2976572501072655   T   T   T
  0.3014373264767760  0.4379698214675079  0.3379635742943332   T   T   T
 
  0.00000000E+00  0.00000000E+00  0.00000000E+00
  0.00000000E+00  0.00000000E+00  0.00000000E+00
  0.00000000E+00  0.00000000E+00  0.00000000E+00
  0.00000000E+00  0.00000000E+00  0.00000000E+00
  0.00000000E+00  0.00000000E+00  0.00000000E+00
  0.00000000E+00  0.00000000E+00  0.00000000E+00
  0.00000000E+00  0.00000000E+00  0.00000000E+00
  0.00000000E+00  0.00000000E+00  0.00000000E+00
  0.00000000E+00  0.00000000E+00  0.00000000E+00
  0.00000000E+00  0.00000000E+00  0.00000000E+00
  0.00000000E+00  0.00000000E+00  0.00000000E+00
  0.00000000E+00  0.00000000E+00  0.00000000E+00
  0.00000000E+00  0.00000000E+00  0.00000000E+00
  0.00000000E+00  0.00000000E+00  0.00000000E+00
  0.00000000E+00  0.00000000E+00  0.00000000E+00
  0.00000000E+00  0.00000000E+00  0.00000000E+00
  0.00000000E+00  0.00000000E+00  0.00000000E+00
  0.00000000E+00  0.00000000E+00  0.00000000E+00
  0.00000000E+00  0.00000000E+00  0.00000000E+00
  0.00000000E+00  0.00000000E+00  0.00000000E+00
  0.00000000E+00  0.00000000E+00  0.00000000E+00
  0.00000000E+00  0.00000000E+00  0.00000000E+00
  0.00000000E+00  0.00000000E+00  0.00000000E+00
  0.00000000E+00  0.00000000E+00  0.00000000E+00
  0.00000000E+00  0.00000000E+00  0.00000000E+00
  0.00000000E+00  0.00000000E+00  0.00000000E+00
  0.00000000E+00  0.00000000E+00  0.00000000E+00
  0.00000000E+00  0.00000000E+00  0.00000000E+00
  0.00000000E+00  0.00000000E+00  0.00000000E+00
  0.00000000E+00  0.00000000E+00  0.00000000E+00
  0.00000000E+00  0.00000000E+00  0.00000000E+00
