Title                                   
   1.00000000000000     
     9.8694509999999998    0.0000000000000000    0.0000000000000000
     0.0000000000000000    8.5490480000000009    0.0000000000000000
     0.0000000000000000    0.0000000000000000   20.0000000000000000
    28     3     1
Selective dynamics
Direct
  0.0558685194881358  0.0905970455478596  0.0838022587618130   T   T   T
  0.9307900849184890  0.1745144674961204  0.0856709602725719   T   T   T
  0.0579257962364056  0.9234878371416331  0.0832105401336989   T   T   T
  0.9297604150081260  0.3418786352265579  0.0876853919784299   T   T   T
  0.0568543618879603  0.5899222239991809  0.0834480698978619   T   T   T
  0.9327044861349993  0.6734920858775159  0.0860863230735893   T   T   T
  0.0558196109157926  0.4226508948282703  0.0851530519198238   T   T   T
  0.9332360393114080  0.8405074129108370  0.0854882661241448   T   T   T
  0.3058548111996274  0.0874660095197348  0.0880459071939429   T   T   T
  0.1820017751100746  0.1717362316851948  0.0859431558532591   T   T   T
  0.1809894208365367  0.3383279657208209  0.0876492322555477   T   T   T
  0.3040182922481402  0.5871878500333305  0.0977935819555860   T   T   T
  0.1819258881873592  0.6726882468064823  0.0857329038632230   T   T   T
  0.3054141001571503  0.4196213676371044  0.0973203773941456   T   T   T
  0.1825528139651086  0.8397807312242315  0.0846917069606459   T   T   T
  0.5560008746992894  0.0868271770231716  0.0944931137827808   T   T   T
  0.5558647309395152  0.9202622064466855  0.0995000117787832   T   T   T
  0.4288073336603029  0.3310484695748785  0.1044274826856529   T   T   T
  0.4278484680860147  0.8387887598516260  0.1012773090342769   T   T   T
  0.8058406180137216  0.0903021685951334  0.0872356983586993   T   T   T
  0.6796392503171613  0.1719926086698088  0.0926622242028027   T   T   T
  0.8080359008346145  0.9248187467451231  0.0886672042862186   T   T   T
  0.6799899897982853  0.3375721829936701  0.1024617419594798   T   T   T
  0.8093968648587887  0.5935962858204173  0.0973510026243241   T   T   T
  0.8037582291367483  0.4254591380463750  0.0966626990436195   T   T   T
  0.6854646185552379  0.8412403113410369  0.0995330298412595   T   T   T
  0.4185825645723317  0.6788513593926526  0.1142726240725439   T   T   T
  0.5522459881837604  0.4044005514111128  0.1194091445877967   T   T   T
  0.6963987577028168  0.6827989661441731  0.1140096872288510   T   T   T
  0.3069572649439051  0.9239577997208117  0.0879484678141051   T   T   T
  0.4286970773861347  0.1668733441700287  0.0936609861840835   T   T   T
  0.5603940527060663  0.5975969183984216  0.1843808448764547   T   T   T
 
  0.00000000E+00  0.00000000E+00  0.00000000E+00
  0.00000000E+00  0.00000000E+00  0.00000000E+00
  0.00000000E+00  0.00000000E+00  0.00000000E+00
  0.00000000E+00  0.00000000E+00  0.00000000E+00
  0.00000000E+00  0.00000000E+00  0.00000000E+00
  0.00000000E+00  0.00000000E+00  0.00000000E+00
  0.00000000E+00  0.00000000E+00  0.00000000E+00
  0.00000000E+00  0.00000000E+00  0.00000000E+00
  0.00000000E+00  0.00000000E+00  0.00000000E+00
  0.00000000E+00  0.00000000E+00  0.00000000E+00
  0.00000000E+00  0.00000000E+00  0.00000000E+00
  0.00000000E+00  0.00000000E+00  0.00000000E+00
  0.00000000E+00  0.00000000E+00  0.00000000E+00
  0.00000000E+00  0.00000000E+00  0.00000000E+00
  0.00000000E+00  0.00000000E+00  0.00000000E+00
  0.00000000E+00  0.00000000E+00  0.00000000E+00
  0.00000000E+00  0.00000000E+00  0.00000000E+00
  0.00000000E+00  0.00000000E+00  0.00000000E+00
  0.00000000E+00  0.00000000E+00  0.00000000E+00
  0.00000000E+00  0.00000000E+00  0.00000000E+00
  0.00000000E+00  0.00000000E+00  0.00000000E+00
  0.00000000E+00  0.00000000E+00  0.00000000E+00
  0.00000000E+00  0.00000000E+00  0.00000000E+00
  0.00000000E+00  0.00000000E+00  0.00000000E+00
  0.00000000E+00  0.00000000E+00  0.00000000E+00
  0.00000000E+00  0.00000000E+00  0.00000000E+00
  0.00000000E+00  0.00000000E+00  0.00000000E+00
  0.00000000E+00  0.00000000E+00  0.00000000E+00
  0.00000000E+00  0.00000000E+00  0.00000000E+00
  0.00000000E+00  0.00000000E+00  0.00000000E+00
  0.00000000E+00  0.00000000E+00  0.00000000E+00
  0.00000000E+00  0.00000000E+00  0.00000000E+00
