Title                                   
   1.00000000000000     
     8.5490480000000009    0.0000000000000000    0.0000000000000000
     0.0000000000000000    8.5490480000000009    0.0000000000000000
     0.0000000000000000    0.0000000000000000   20.0000000000000000
    21     3     1
Selective dynamics
Direct
  0.9101988017513186  0.2059859911061726  0.0954435825747388   T   T   T
  0.9047887559825807  0.5030053138566515  0.0952978571503689   T   T   T
  0.9100753678046933  0.7992901408007019  0.0954693220487325   T   T   T
  0.1985957321418902  0.0844382083834587  0.0954831510762156   T   T   T
  0.0756722123935852  0.2073193993292321  0.0954530169760995   T   T   T
  0.1972526008290379  0.9189649224984854  0.0954759165719178   T   T   T
  0.1556248950265335  0.6512333408432129  0.0953337447048824   T   T   T
  0.0753491658604225  0.5028512463787819  0.0953196979054236   T   T   T
  0.1555921734727791  0.3563705935439664  0.0953646636569293   T   T   T
  0.0762495127060928  0.7985475544877511  0.0954627168202434   T   T   T
  0.4940460275125396  0.0841662986484988  0.0953630976665572   T   T   T
  0.3475886913067622  0.1644241205179837  0.0953996756751500   T   T   T
  0.4942085183568590  0.9135796302347603  0.0953527735230931   T   T   T
  0.3450577360952458  0.8353752128542008  0.0953517040550996   T   T   T
  0.7897680473695403  0.0850097409753148  0.0954608469717337   T   T   T
  0.6424382554126953  0.1644261303062182  0.0953163091330247   T   T   T
  0.7905154371569505  0.9188503391654994  0.0954745069602039   T   T   T
  0.8277103927321608  0.6517097759588559  0.0953173966203893   T   T   T
  0.8266257162876968  0.3538153588134184  0.0952871501754153   T   T   T
  0.6429105079290239  0.8364718796476123  0.0953242243522375   T   T   T
  0.3242488443132732  0.3330643748434509  0.0953093977244955   T   T   T
  0.3187624403618913  0.6739510656144804  0.0952095442122138   T   T   T
  0.6651961863368979  0.3275077011212473  0.0951646120994473   T   T   T
  0.6670964717617300  0.6758623259439103  0.0951736454189949   T   T   T
  0.4898395090977920  0.4985693341261465  0.0950964459263702   T   T   T
 
  0.00000000E+00  0.00000000E+00  0.00000000E+00
  0.00000000E+00  0.00000000E+00  0.00000000E+00
  0.00000000E+00  0.00000000E+00  0.00000000E+00
  0.00000000E+00  0.00000000E+00  0.00000000E+00
  0.00000000E+00  0.00000000E+00  0.00000000E+00
  0.00000000E+00  0.00000000E+00  0.00000000E+00
  0.00000000E+00  0.00000000E+00  0.00000000E+00
  0.00000000E+00  0.00000000E+00  0.00000000E+00
  0.00000000E+00  0.00000000E+00  0.00000000E+00
  0.00000000E+00  0.00000000E+00  0.00000000E+00
  0.00000000E+00  0.00000000E+00  0.00000000E+00
  0.00000000E+00  0.00000000E+00  0.00000000E+00
  0.00000000E+00  0.00000000E+00  0.00000000E+00
  0.00000000E+00  0.00000000E+00  0.00000000E+00
  0.00000000E+00  0.00000000E+00  0.00000000E+00
  0.00000000E+00  0.00000000E+00  0.00000000E+00
  0.00000000E+00  0.00000000E+00  0.00000000E+00
  0.00000000E+00  0.00000000E+00  0.00000000E+00
  0.00000000E+00  0.00000000E+00  0.00000000E+00
  0.00000000E+00  0.00000000E+00  0.00000000E+00
  0.00000000E+00  0.00000000E+00  0.00000000E+00
  0.00000000E+00  0.00000000E+00  0.00000000E+00
  0.00000000E+00  0.00000000E+00  0.00000000E+00
  0.00000000E+00  0.00000000E+00  0.00000000E+00
  0.00000000E+00  0.00000000E+00  0.00000000E+00
