Title                                   
   1.00000000000000     
     4.9440799999999996    0.0000000000000000    0.0000000000000000
     0.0000000000000000    8.5647549999999999    0.0000000000000000
     0.0000000000000000    0.0000000000000000   20.0000000000000000
    12     3     1
Selective dynamics
Direct
  0.2500000000000000  0.2126785251152861  0.0904270352074998   T   T   T
 -0.0048735227131732  0.2925205323029015  0.0909843750148220   T   T   T
  0.2500000000000000  0.0439863287768984  0.0911416023365498   T   T   T
  0.0025985337820466  0.7951252039501122  0.1032273417872338   T   T   T
  0.0003233011453917  0.9595591234243539  0.0921196339781748   T   T   T
  0.7500000000000000  0.2071011593940028  0.0870332952283249   T   T   T
  0.5048735227131730  0.2925205323029015  0.0909843750148220   T   T   T
  0.7500000000000000  0.0407206037297126  0.0872222935978237   T   T   T
  0.7500000000000000  0.7055961195343669  0.1051328503985353   T   T   T
  0.4974014662179533  0.7951252039501122  0.1032273417872338   T   T   T
  0.7500000000000000  0.5354042091667714  0.1008157798304879   T   T   T
  0.4996766988546084  0.9595591234243539  0.0921196339781748   T   T   T
  0.5132717047633037  0.4533015666232222  0.0994416269506447   T   T   T
 -0.0132717047633036  0.4533015666232222  0.0994416269506447   T   T   T
  0.2500000000000000  0.7262452795432309  0.1168626873074554   T   T   T
  0.2500000000000000  0.5272549221385519  0.1723305006315804   T   T   T
 
  0.00000000E+00  0.00000000E+00  0.00000000E+00
  0.00000000E+00  0.00000000E+00  0.00000000E+00
  0.00000000E+00  0.00000000E+00  0.00000000E+00
  0.00000000E+00  0.00000000E+00  0.00000000E+00
  0.00000000E+00  0.00000000E+00  0.00000000E+00
  0.00000000E+00  0.00000000E+00  0.00000000E+00
  0.00000000E+00  0.00000000E+00  0.00000000E+00
  0.00000000E+00  0.00000000E+00  0.00000000E+00
  0.00000000E+00  0.00000000E+00  0.00000000E+00
  0.00000000E+00  0.00000000E+00  0.00000000E+00
  0.00000000E+00  0.00000000E+00  0.00000000E+00
  0.00000000E+00  0.00000000E+00  0.00000000E+00
  0.00000000E+00  0.00000000E+00  0.00000000E+00
  0.00000000E+00  0.00000000E+00  0.00000000E+00
  0.00000000E+00  0.00000000E+00  0.00000000E+00
  0.00000000E+00  0.00000000E+00  0.00000000E+00
