Title                                   
   1.00000000000000     
     8.5490480000000009    0.0000000000000000    0.0000000000000000
     0.0000000000000000    8.5490480000000009    0.0000000000000000
     0.0000000000000000    0.0000000000000000   20.0000000000000000
    23     1     1
Selective dynamics
Direct
  0.9098139844235004  0.2062739213469114  0.0957163793025597   T   T   T
  0.9098606828517219  0.5022994321246528  0.0965527299968179   T   T   T
  0.9116064194119988  0.8000134610480134  0.0951989895423504   T   T   T
  0.1993640511995093  0.0830959348641579  0.0953216282363113   T   T   T
  0.0748705138200595  0.2043196275583553  0.0955355347476189   T   T   T
  0.1587593822069346  0.6492526601655536  0.0969850948545805   T   T   T
  0.0773518791831722  0.5014082397992181  0.0966176135574097   T   T   T
  0.1576864207241691  0.3549020940048792  0.0969185707216026   T   T   T
  0.0773540054059829  0.7979417423262589  0.0952555489638162   T   T   T
  0.4927616137471403  0.0857602296726855  0.0962199660189318   T   T   T
  0.3459197933226810  0.1642753853410749  0.0965043153991277   T   T   T
  0.4917700120063742  0.9177298247758414  0.0963592332343962   T   T   T
  0.3454597741518295  0.8366587436287850  0.0974298070189603   T   T   T
  0.7862040535957917  0.0849678877495879  0.0954461242420874   T   T   T
  0.6382213034881786  0.1665666470624845  0.0967442251327222   T   T   T
  0.7865731637133447  0.9200484187320698  0.0953382559281964   T   T   T
  0.8300213665953553  0.6492653851032867  0.0965709390336302   T   T   T
  0.8284145102380762  0.3560357805793155  0.0972600815514839   T   T   T
  0.6385365937098425  0.8369849116277382  0.0965500416170782   T   T   T
  0.3249074659620366  0.3340643724134642  0.1011080252813981   T   T   T
  0.3240308449516180  0.6702098303902904  0.1013279111608969   T   T   T
  0.6602894906877979  0.3353159591276275  0.1018018846687897   T   T   T
  0.6621208617367581  0.6685903906207774  0.1007179958535015   T   T   T
  0.1992831492364290  0.9183447221260590  0.0955609176087941   T   T   T
  0.4942306636296841  0.5004643978109177  0.1146631863269181   T   T   T
 
  0.00000000E+00  0.00000000E+00  0.00000000E+00
  0.00000000E+00  0.00000000E+00  0.00000000E+00
  0.00000000E+00  0.00000000E+00  0.00000000E+00
  0.00000000E+00  0.00000000E+00  0.00000000E+00
  0.00000000E+00  0.00000000E+00  0.00000000E+00
  0.00000000E+00  0.00000000E+00  0.00000000E+00
  0.00000000E+00  0.00000000E+00  0.00000000E+00
  0.00000000E+00  0.00000000E+00  0.00000000E+00
  0.00000000E+00  0.00000000E+00  0.00000000E+00
  0.00000000E+00  0.00000000E+00  0.00000000E+00
  0.00000000E+00  0.00000000E+00  0.00000000E+00
  0.00000000E+00  0.00000000E+00  0.00000000E+00
  0.00000000E+00  0.00000000E+00  0.00000000E+00
  0.00000000E+00  0.00000000E+00  0.00000000E+00
  0.00000000E+00  0.00000000E+00  0.00000000E+00
  0.00000000E+00  0.00000000E+00  0.00000000E+00
  0.00000000E+00  0.00000000E+00  0.00000000E+00
  0.00000000E+00  0.00000000E+00  0.00000000E+00
  0.00000000E+00  0.00000000E+00  0.00000000E+00
  0.00000000E+00  0.00000000E+00  0.00000000E+00
  0.00000000E+00  0.00000000E+00  0.00000000E+00
  0.00000000E+00  0.00000000E+00  0.00000000E+00
  0.00000000E+00  0.00000000E+00  0.00000000E+00
  0.00000000E+00  0.00000000E+00  0.00000000E+00
  0.00000000E+00  0.00000000E+00  0.00000000E+00
