Title                                   
   1.00000000000000     
     8.5490480000000009    0.0000000000000000    0.0000000000000000
     0.0000000000000000    8.5490480000000009    0.0000000000000000
     0.0000000000000000    0.0000000000000000   20.0000000000000000
    21     3     1
Selective dynamics
Direct
  0.9083409686748531  0.2065778806046828  0.0938391929171900   T   T   T
  0.9126363186022303  0.8020387928855203  0.0947907653426260   T   T   T
  0.1956106331322948  0.0822340221398139  0.0951910676186636   T   T   T
  0.0737250559288373  0.2006069541917939  0.0949499619295739   T   T   T
  0.1562692570962117  0.6485296562534274  0.0951696256010455   T   T   T
  0.0741571023992141  0.5016221036081592  0.0964892431382464   T   T   T
  0.1535143448259112  0.3531823206380836  0.0983399869554272   T   T   T
  0.0799039481479778  0.7986910574894452  0.0939451296651791   T   T   T
  0.4937068818839664  0.0845272003876009  0.0972127106980762   T   T   T
  0.3435189642738805  0.1622492475469796  0.0984925682384818   T   T   T
  0.4947731160540604  0.9153138269326563  0.0970003550801044   T   T   T
  0.3462941000613770  0.8341817885526591  0.0954324049916129   T   T   T
  0.7875666864357045  0.0878912405577441  0.0946702541150204   T   T   T
  0.6387734751663977  0.1677729136109060  0.0961253304819803   T   T   T
  0.7906303052326773  0.9200696392418689  0.0956132502004875   T   T   T
  0.8319799024543649  0.6526860500466285  0.0969436501682210   T   T   T
  0.8269804803920314  0.3585915438466130  0.0947577577541168   T   T   T
  0.6441708279576271  0.8366298999466669  0.0982205142366255   T   T   T
  0.3193812705745130  0.3298247308217169  0.1035439262382407   T   T   T
  0.3231765524921436  0.6709773801356401  0.0958680087084401   T   T   T
  0.6628850125815214  0.3377547518003557  0.0965949866255988   T   T   T
  0.9077566322348606  0.5050853588176791  0.0958075214712639   T   T   T
  0.6714274670104484  0.6726024905760433  0.1013718258706334   T   T   T
  0.1974928555305387  0.9150297324114528  0.0938494628931675   T   T   T
  0.4907398408563493  0.5001194169558763  0.1344854990599597   T   T   T
 
  0.00000000E+00  0.00000000E+00  0.00000000E+00
  0.00000000E+00  0.00000000E+00  0.00000000E+00
  0.00000000E+00  0.00000000E+00  0.00000000E+00
  0.00000000E+00  0.00000000E+00  0.00000000E+00
  0.00000000E+00  0.00000000E+00  0.00000000E+00
  0.00000000E+00  0.00000000E+00  0.00000000E+00
  0.00000000E+00  0.00000000E+00  0.00000000E+00
  0.00000000E+00  0.00000000E+00  0.00000000E+00
  0.00000000E+00  0.00000000E+00  0.00000000E+00
  0.00000000E+00  0.00000000E+00  0.00000000E+00
  0.00000000E+00  0.00000000E+00  0.00000000E+00
  0.00000000E+00  0.00000000E+00  0.00000000E+00
  0.00000000E+00  0.00000000E+00  0.00000000E+00
  0.00000000E+00  0.00000000E+00  0.00000000E+00
  0.00000000E+00  0.00000000E+00  0.00000000E+00
  0.00000000E+00  0.00000000E+00  0.00000000E+00
  0.00000000E+00  0.00000000E+00  0.00000000E+00
  0.00000000E+00  0.00000000E+00  0.00000000E+00
  0.00000000E+00  0.00000000E+00  0.00000000E+00
  0.00000000E+00  0.00000000E+00  0.00000000E+00
  0.00000000E+00  0.00000000E+00  0.00000000E+00
  0.00000000E+00  0.00000000E+00  0.00000000E+00
  0.00000000E+00  0.00000000E+00  0.00000000E+00
  0.00000000E+00  0.00000000E+00  0.00000000E+00
  0.00000000E+00  0.00000000E+00  0.00000000E+00
