Title                                   
   1.00000000000000     
     8.5490480000000009    0.0000000000000000    0.0000000000000000
     0.0000000000000000    8.5490480000000009    0.0000000000000000
     0.0000000000000000    0.0000000000000000   20.0000000000000000
    21     3     1
Selective dynamics
Direct
  0.9083674479292114  0.2071707198521538  0.0945731875943557   T   T   T
  0.9112056419132308  0.7998606162834263  0.0944070456966953   T   T   T
  0.1979941524510699  0.0828919796815954  0.0942358359653736   T   T   T
  0.0762112689156100  0.2022617986057725  0.0949781999315893   T   T   T
  0.1579403664418339  0.6492680238560897  0.0959609502439760   T   T   T
  0.0769723176545047  0.5001685508610526  0.0962430587132506   T   T   T
  0.1574272441837491  0.3534043625248183  0.0971864210219614   T   T   T
  0.0788669274753003  0.7982827430736336  0.0942745389953998   T   T   T
  0.3469959742189465  0.1634767952430465  0.0961614059661609   T   T   T
  0.4938251481697749  0.9198971506051143  0.0968192334031974   T   T   T
  0.3454764394891272  0.8386055403040199  0.0962411524425695   T   T   T
  0.7864983728777636  0.0864394467696457  0.0953197796386012   T   T   T
  0.6371682782325926  0.1686715431371504  0.0969569738280806   T   T   T
  0.7890460176722516  0.9192399291003147  0.0955792107015533   T   T   T
  0.8298990644457329  0.6480665036110091  0.0959451881852701   T   T   T
  0.8279330269368060  0.3573342672442823  0.0955065788817708   T   T   T
  0.6391408881459406  0.8368302938202169  0.0978700001654679   T   T   T
  0.3271691568399597  0.3294977545766368  0.1009534298878029   T   T   T
  0.3253963751337040  0.6738603226365362  0.0984468434553449   T   T   T
  0.6592469080422297  0.3378715484084934  0.0996688732996716   T   T   T
  0.6633243216788354  0.6666976343182023  0.1010688638230114   T   T   T
  0.4941748885742370  0.0857905630328161  0.0963652103286286   T   T   T
  0.9100336078733279  0.5017127086541371  0.0954896308860968   T   T   T
  0.1972072344794890  0.9163799692665056  0.0941528771476687   T   T   T
  0.4878909302247578  0.5011092345333377  0.1293005097964817   T   T   T
 
  0.00000000E+00  0.00000000E+00  0.00000000E+00
  0.00000000E+00  0.00000000E+00  0.00000000E+00
  0.00000000E+00  0.00000000E+00  0.00000000E+00
  0.00000000E+00  0.00000000E+00  0.00000000E+00
  0.00000000E+00  0.00000000E+00  0.00000000E+00
  0.00000000E+00  0.00000000E+00  0.00000000E+00
  0.00000000E+00  0.00000000E+00  0.00000000E+00
  0.00000000E+00  0.00000000E+00  0.00000000E+00
  0.00000000E+00  0.00000000E+00  0.00000000E+00
  0.00000000E+00  0.00000000E+00  0.00000000E+00
  0.00000000E+00  0.00000000E+00  0.00000000E+00
  0.00000000E+00  0.00000000E+00  0.00000000E+00
  0.00000000E+00  0.00000000E+00  0.00000000E+00
  0.00000000E+00  0.00000000E+00  0.00000000E+00
  0.00000000E+00  0.00000000E+00  0.00000000E+00
  0.00000000E+00  0.00000000E+00  0.00000000E+00
  0.00000000E+00  0.00000000E+00  0.00000000E+00
  0.00000000E+00  0.00000000E+00  0.00000000E+00
  0.00000000E+00  0.00000000E+00  0.00000000E+00
  0.00000000E+00  0.00000000E+00  0.00000000E+00
  0.00000000E+00  0.00000000E+00  0.00000000E+00
  0.00000000E+00  0.00000000E+00  0.00000000E+00
  0.00000000E+00  0.00000000E+00  0.00000000E+00
  0.00000000E+00  0.00000000E+00  0.00000000E+00
  0.00000000E+00  0.00000000E+00  0.00000000E+00
