Title                                   
   1.00000000000000     
     9.8694509999999998    0.0000000000000000    0.0000000000000000
     0.0000000000000000    8.5490480000000009    0.0000000000000000
     0.0000000000000000    0.0000000000000000   20.0000000000000000
    25     6     1
Selective dynamics
Direct
  0.0559632774037368  0.0913347915103813  0.0900699431923850   T   T   T
  0.9311280638540710  0.1746785447789656  0.0902830484257148   T   T   T
  0.0572186133296793  0.9233749445116241  0.0901664580382975   T   T   T
  0.9300813315257732  0.3419443550776646  0.0917042339071291   T   T   T
  0.0565879714678752  0.5917080766148649  0.0904215627785240   T   T   T
  0.0558919098287409  0.4242520166423011  0.0910325490521170   T   T   T
  0.9330153904951651  0.8397023731161258  0.0910546038771346   T   T   T
  0.3064604467922649  0.0886384529511156  0.0913147722146654   T   T   T
  0.1824112482846850  0.1738842118065589  0.0907478434766273   T   T   T
  0.1828213776750085  0.3411736144404898  0.0914228419386638   T   T   T
  0.3059998403219401  0.5916935488314049  0.0948755123380286   T   T   T
  0.1805418125321979  0.6747127154431645  0.0910507256487302   T   T   T
  0.3102622201481336  0.4231404321579774  0.0939990427389850   T   T   T
  0.1819163211098994  0.8417690844726465  0.0908629056318673   T   T   T
  0.5564192002014805  0.0849478456916300  0.0933501841086129   T   T   T
  0.5550634285919324  0.9174290374480301  0.0954989698971663   T   T   T
  0.4338434699573313  0.3335389003205697  0.0959146719133362   T   T   T
  0.4273863439251075  0.8365129362453042  0.0959882444363463   T   T   T
  0.8065373065261582  0.0888150150267341  0.0901608757020795   T   T   T
  0.6797439531301657  0.1697154579025068  0.0920854770488091   T   T   T
  0.8079522074149539  0.9226053551472044  0.0914692601199579   T   T   T
  0.6784718574879814  0.3373939380926392  0.0960374297361767   T   T   T
  0.8077577413840871  0.5950144052093674  0.0964194249304942   T   T   T
  0.8029941276853951  0.4259591701833548  0.0950291610698628   T   T   T
  0.6841700576289786  0.8377232683677751  0.0963470488742343   T   T   T
  0.4215848648302500  0.6805122111360377  0.1021354771763279   T   T   T
  0.5539980996072004  0.4074198674324974  0.1032631623181217   T   T   T
  0.6923934491622444  0.6780286179201968  0.1042556624703038   T   T   T
  0.3053993529955298  0.9250692998757416  0.0916590942984825   T   T   T
  0.4301890606402506  0.1666416849832263  0.0929130282577664   T   T   T
  0.9327623469947208  0.6734545041669778  0.0915212383890479   T   T   T
  0.5526723070670655  0.5874573224949209  0.1826205459940202   T   T   T
 
  0.00000000E+00  0.00000000E+00  0.00000000E+00
  0.00000000E+00  0.00000000E+00  0.00000000E+00
  0.00000000E+00  0.00000000E+00  0.00000000E+00
  0.00000000E+00  0.00000000E+00  0.00000000E+00
  0.00000000E+00  0.00000000E+00  0.00000000E+00
  0.00000000E+00  0.00000000E+00  0.00000000E+00
  0.00000000E+00  0.00000000E+00  0.00000000E+00
  0.00000000E+00  0.00000000E+00  0.00000000E+00
  0.00000000E+00  0.00000000E+00  0.00000000E+00
  0.00000000E+00  0.00000000E+00  0.00000000E+00
  0.00000000E+00  0.00000000E+00  0.00000000E+00
  0.00000000E+00  0.00000000E+00  0.00000000E+00
  0.00000000E+00  0.00000000E+00  0.00000000E+00
  0.00000000E+00  0.00000000E+00  0.00000000E+00
  0.00000000E+00  0.00000000E+00  0.00000000E+00
  0.00000000E+00  0.00000000E+00  0.00000000E+00
  0.00000000E+00  0.00000000E+00  0.00000000E+00
  0.00000000E+00  0.00000000E+00  0.00000000E+00
  0.00000000E+00  0.00000000E+00  0.00000000E+00
  0.00000000E+00  0.00000000E+00  0.00000000E+00
  0.00000000E+00  0.00000000E+00  0.00000000E+00
  0.00000000E+00  0.00000000E+00  0.00000000E+00
  0.00000000E+00  0.00000000E+00  0.00000000E+00
  0.00000000E+00  0.00000000E+00  0.00000000E+00
  0.00000000E+00  0.00000000E+00  0.00000000E+00
  0.00000000E+00  0.00000000E+00  0.00000000E+00
  0.00000000E+00  0.00000000E+00  0.00000000E+00
  0.00000000E+00  0.00000000E+00  0.00000000E+00
  0.00000000E+00  0.00000000E+00  0.00000000E+00
  0.00000000E+00  0.00000000E+00  0.00000000E+00
  0.00000000E+00  0.00000000E+00  0.00000000E+00
  0.00000000E+00  0.00000000E+00  0.00000000E+00
