Title                                   
   1.00000000000000     
     9.8694509999999998    0.0000000000000000    0.0000000000000000
     0.0000000000000000    8.5490480000000009    0.0000000000000000
     0.0000000000000000    0.0000000000000000   20.0000000000000000
    29     1     1
Selective dynamics
Direct
  0.0563601250286551  0.0895540391408343  0.0905620846458528   T   T   T
  0.9320352359254942  0.1715138781037618  0.0967888115551243   T   T   T
  0.0577841631443324  0.9234754590170542  0.0908758729567983   T   T   T
  0.9336825891881474  0.3388408967930659  0.0978797882634442   T   T   T
  0.0578588259564086  0.5906248599195979  0.0932357682519076   T   T   T
  0.9338119201845080  0.6738058887404809  0.0977199710399435   T   T   T
  0.0575866530269585  0.4224643002162322  0.0927591111158882   T   T   T
  0.9326140983571694  0.8403537879704605  0.0964237318717909   T   T   T
  0.3078691336402735  0.0887611521072313  0.0821519872200443   T   T   T
  0.1818021026573585  0.1713146140781884  0.0853606454889336   T   T   T
  0.1805356272962073  0.3379969646345091  0.0869961179140983   T   T   T
  0.3051555264490775  0.5908536657477566  0.0833072264438209   T   T   T
  0.1813223692162496  0.6748603149779464  0.0889062603407323   T   T   T
  0.3048072671683749  0.4214266846574584  0.0819918617526632   T   T   T
  0.1828461919411536  0.8409736454876700  0.0872400108737130   T   T   T
  0.5586767738685813  0.0901918553141136  0.0952778457005605   T   T   T
  0.4332597019195316  0.1713037221529826  0.0835164825804199   T   T   T
  0.5569895577768484  0.9228012092736865  0.0954588376525241   T   T   T
  0.4293542213826612  0.3380706386220690  0.0826283709561458   T   T   T
  0.4288149399623530  0.6756257806264080  0.0844493668606254   T   T   T
  0.4319951239554352  0.8408749135386551  0.0855319805897082   T   T   T
  0.8052016892482246  0.0901819329360786  0.1007456352072739   T   T   T
  0.6808884833645913  0.1790140307308729  0.1046809697490129   T   T   T
  0.8052501850179601  0.9212328820938130  0.1000609256224050   T   T   T
  0.6845188634647321  0.3485452567472074  0.1142695137030020   T   T   T
  0.8119749008339396  0.5898527167369489  0.1058040582710616   T   T   T
  0.6843113267083758  0.6636055311332449  0.1124191005278575   T   T   T
  0.8119268712779725  0.4225343691683427  0.1063193067639192   T   T   T
  0.6803977464264834  0.8319964885282466  0.1034934995449991   T   T   T
  0.3075886573610470  0.9232175061394365  0.0834663688588486   T   T   T
  0.5259141282508945  0.5050060146656644  0.1306434876769076   T   T   T
 
  0.00000000E+00  0.00000000E+00  0.00000000E+00
  0.00000000E+00  0.00000000E+00  0.00000000E+00
  0.00000000E+00  0.00000000E+00  0.00000000E+00
  0.00000000E+00  0.00000000E+00  0.00000000E+00
  0.00000000E+00  0.00000000E+00  0.00000000E+00
  0.00000000E+00  0.00000000E+00  0.00000000E+00
  0.00000000E+00  0.00000000E+00  0.00000000E+00
  0.00000000E+00  0.00000000E+00  0.00000000E+00
  0.00000000E+00  0.00000000E+00  0.00000000E+00
  0.00000000E+00  0.00000000E+00  0.00000000E+00
  0.00000000E+00  0.00000000E+00  0.00000000E+00
  0.00000000E+00  0.00000000E+00  0.00000000E+00
  0.00000000E+00  0.00000000E+00  0.00000000E+00
  0.00000000E+00  0.00000000E+00  0.00000000E+00
  0.00000000E+00  0.00000000E+00  0.00000000E+00
  0.00000000E+00  0.00000000E+00  0.00000000E+00
  0.00000000E+00  0.00000000E+00  0.00000000E+00
  0.00000000E+00  0.00000000E+00  0.00000000E+00
  0.00000000E+00  0.00000000E+00  0.00000000E+00
  0.00000000E+00  0.00000000E+00  0.00000000E+00
  0.00000000E+00  0.00000000E+00  0.00000000E+00
  0.00000000E+00  0.00000000E+00  0.00000000E+00
  0.00000000E+00  0.00000000E+00  0.00000000E+00
  0.00000000E+00  0.00000000E+00  0.00000000E+00
  0.00000000E+00  0.00000000E+00  0.00000000E+00
  0.00000000E+00  0.00000000E+00  0.00000000E+00
  0.00000000E+00  0.00000000E+00  0.00000000E+00
  0.00000000E+00  0.00000000E+00  0.00000000E+00
  0.00000000E+00  0.00000000E+00  0.00000000E+00
  0.00000000E+00  0.00000000E+00  0.00000000E+00
  0.00000000E+00  0.00000000E+00  0.00000000E+00
