Title                                   
   1.00000000000000     
     9.8694509999999998    0.0000000000000000    0.0000000000000000
     0.0000000000000000    8.5490480000000009    0.0000000000000000
     0.0000000000000000    0.0000000000000000   20.0000000000000000
    27     3     1
Selective dynamics
Direct
  0.0553789912623398  0.0880878981211929  0.0844889560348599   T   T   T
  0.9308599686818955  0.1713363301993645  0.0863066430600219   T   T   T
  0.0568820959777172  0.9231763701232709  0.0849449750007086   T   T   T
  0.9350127436191717  0.3385883039271895  0.0849914634386605   T   T   T
  0.0573299230283622  0.5899472209732743  0.0804090128599148   T   T   T
  0.9347667729138658  0.6739423054256262  0.0858201104444603   T   T   T
  0.0576706602055394  0.4227763744784004  0.0797555916577250   T   T   T
  0.9317375336386969  0.8401966125914722  0.0873017360711409   T   T   T
  0.3048473609517750  0.0874244738246475  0.0928849580287957   T   T   T
  0.1811392517782679  0.1697618338905895  0.0861210188587803   T   T   T
  0.1798439237332328  0.3375621206616471  0.0840808449819271   T   T   T
  0.3016531594268856  0.5889780916139551  0.0949192080988249   T   T   T
  0.1804536685545509  0.6734773585826785  0.0846570288167324   T   T   T
  0.3000265802750981  0.4180277161354730  0.0940948460866132   T   T   T
  0.1819129080019886  0.8400151679609134  0.0867856293656576   T   T   T
  0.4283539293414165  0.1746227308014024  0.1013349157264492   T   T   T
  0.5535932911311098  0.9244761977953813  0.1051487438746839   T   T   T
  0.4191391727258541  0.6755027792533961  0.1083680239044024   T   T   T
  0.4281781021768074  0.8401982947186514  0.1034714770283873   T   T   T
  0.8051753710276558  0.0889935126376238  0.0930999640535924   T   T   T
  0.6819848096907722  0.1773020686238880  0.1021042847299957   T   T   T
  0.8062482907054783  0.9224895130529567  0.0940989511428311   T   T   T
  0.6934356485406531  0.3393952633582386  0.1084741611664848   T   T   T
  0.8147089001820933  0.5910125717654715  0.0967333400418549   T   T   T
  0.6934124290680603  0.6732621080947790  0.1090773432288455   T   T   T
  0.8157055542331572  0.4207521109384523  0.0962661958681873   T   T   T
  0.6807945653701222  0.8387286510837257  0.1039180295132185   T   T   T
  0.5540847931504628  0.0948447963843706  0.1038827626239372   T   T   T
  0.4174284976637829  0.3335556694038710  0.1059060824711943   T   T   T
  0.3045308330722882  0.9230053520302313  0.0934225939135331   T   T   T
  0.5568452698709146  0.5094352015478861  0.1180961079076277   T   T   T
 
  0.00000000E+00  0.00000000E+00  0.00000000E+00
  0.00000000E+00  0.00000000E+00  0.00000000E+00
  0.00000000E+00  0.00000000E+00  0.00000000E+00
  0.00000000E+00  0.00000000E+00  0.00000000E+00
  0.00000000E+00  0.00000000E+00  0.00000000E+00
  0.00000000E+00  0.00000000E+00  0.00000000E+00
  0.00000000E+00  0.00000000E+00  0.00000000E+00
  0.00000000E+00  0.00000000E+00  0.00000000E+00
  0.00000000E+00  0.00000000E+00  0.00000000E+00
  0.00000000E+00  0.00000000E+00  0.00000000E+00
  0.00000000E+00  0.00000000E+00  0.00000000E+00
  0.00000000E+00  0.00000000E+00  0.00000000E+00
  0.00000000E+00  0.00000000E+00  0.00000000E+00
  0.00000000E+00  0.00000000E+00  0.00000000E+00
  0.00000000E+00  0.00000000E+00  0.00000000E+00
  0.00000000E+00  0.00000000E+00  0.00000000E+00
  0.00000000E+00  0.00000000E+00  0.00000000E+00
  0.00000000E+00  0.00000000E+00  0.00000000E+00
  0.00000000E+00  0.00000000E+00  0.00000000E+00
  0.00000000E+00  0.00000000E+00  0.00000000E+00
  0.00000000E+00  0.00000000E+00  0.00000000E+00
  0.00000000E+00  0.00000000E+00  0.00000000E+00
  0.00000000E+00  0.00000000E+00  0.00000000E+00
  0.00000000E+00  0.00000000E+00  0.00000000E+00
  0.00000000E+00  0.00000000E+00  0.00000000E+00
  0.00000000E+00  0.00000000E+00  0.00000000E+00
  0.00000000E+00  0.00000000E+00  0.00000000E+00
  0.00000000E+00  0.00000000E+00  0.00000000E+00
  0.00000000E+00  0.00000000E+00  0.00000000E+00
  0.00000000E+00  0.00000000E+00  0.00000000E+00
  0.00000000E+00  0.00000000E+00  0.00000000E+00
