Title                                   
   1.00000000000000     
     9.8694509999999998    0.0000000000000000    0.0000000000000000
     0.0000000000000000    8.5490480000000009    0.0000000000000000
     0.0000000000000000    0.0000000000000000   20.0000000000000000
    24     6     1
Selective dynamics
Direct
  0.0553759297576483  0.0903189310026272  0.0877438199112811   T   T   T
  0.9305636738057016  0.1726672275873619  0.0880027251690838   T   T   T
  0.0573016760902719  0.9219071958804247  0.0884280826004665   T   T   T
  0.9334978768789823  0.3400037373310540  0.0877776414884393   T   T   T
  0.0563643295726462  0.5909311414555830  0.0866954138516148   T   T   T
  0.0565354413047913  0.4240851637453182  0.0858056817060554   T   T   T
  0.9326192674015018  0.8395531899046094  0.0899528449611440   T   T   T
  0.3071195830946245  0.0888132434056880  0.0941103642539226   T   T   T
  0.1805586875474313  0.1715796686160491  0.0898064142012806   T   T   T
  0.1804454097570271  0.3392992020778348  0.0887489082140587   T   T   T
  0.3015403809603603  0.5896343132529657  0.0960839855014123   T   T   T
  0.1794715188249598  0.6739609374627681  0.0889556925768631   T   T   T
  0.3026369942422399  0.4211193066019620  0.0966979589699362   T   T   T
  0.1816640045578239  0.8413169879689262  0.0899195206461201   T   T   T
  0.4287767020279646  0.1731680541882940  0.1022701133582939   T   T   T
  0.5541208897357424  0.9181871010063299  0.1032907466241252   T   T   T
  0.4275903811993040  0.8370160778426449  0.1021388179205482   T   T   T
  0.8041647810917427  0.0887243225471788  0.0915989320867758   T   T   T
  0.6814175559614641  0.1746235957959246  0.0991894004933795   T   T   T
  0.8061944533183276  0.9206681648262832  0.0930899996230813   T   T   T
  0.6882255625540851  0.3402463611042919  0.1069431912520989   T   T   T
  0.8139754298059007  0.5929285136350663  0.0974130398925330   T   T   T
  0.8123863910018999  0.4245212674590236  0.0955692482840963   T   T   T
  0.6829926478255537  0.8367384828526022  0.1020360439385756   T   T   T
  0.9340114513556562  0.6737971367811838  0.0897486192058026   T   T   T
  0.5552275423211440  0.0919683155181120  0.1028470617719629   T   T   T
  0.4216865520250803  0.3357664059784646  0.1106542502045866   T   T   T
  0.6951750543251206  0.6736905304492954  0.1102865101737593   T   T   T
  0.4182221474078008  0.6766883979901842  0.1096467207650490   T   T   T
  0.3053668432324898  0.9224814038420520  0.0931083332862764   T   T   T
  0.5579058410147220  0.5044706218899080  0.1324049170674132   T   T   T
 
  0.00000000E+00  0.00000000E+00  0.00000000E+00
  0.00000000E+00  0.00000000E+00  0.00000000E+00
  0.00000000E+00  0.00000000E+00  0.00000000E+00
  0.00000000E+00  0.00000000E+00  0.00000000E+00
  0.00000000E+00  0.00000000E+00  0.00000000E+00
  0.00000000E+00  0.00000000E+00  0.00000000E+00
  0.00000000E+00  0.00000000E+00  0.00000000E+00
  0.00000000E+00  0.00000000E+00  0.00000000E+00
  0.00000000E+00  0.00000000E+00  0.00000000E+00
  0.00000000E+00  0.00000000E+00  0.00000000E+00
  0.00000000E+00  0.00000000E+00  0.00000000E+00
  0.00000000E+00  0.00000000E+00  0.00000000E+00
  0.00000000E+00  0.00000000E+00  0.00000000E+00
  0.00000000E+00  0.00000000E+00  0.00000000E+00
  0.00000000E+00  0.00000000E+00  0.00000000E+00
  0.00000000E+00  0.00000000E+00  0.00000000E+00
  0.00000000E+00  0.00000000E+00  0.00000000E+00
  0.00000000E+00  0.00000000E+00  0.00000000E+00
  0.00000000E+00  0.00000000E+00  0.00000000E+00
  0.00000000E+00  0.00000000E+00  0.00000000E+00
  0.00000000E+00  0.00000000E+00  0.00000000E+00
  0.00000000E+00  0.00000000E+00  0.00000000E+00
  0.00000000E+00  0.00000000E+00  0.00000000E+00
  0.00000000E+00  0.00000000E+00  0.00000000E+00
  0.00000000E+00  0.00000000E+00  0.00000000E+00
  0.00000000E+00  0.00000000E+00  0.00000000E+00
  0.00000000E+00  0.00000000E+00  0.00000000E+00
  0.00000000E+00  0.00000000E+00  0.00000000E+00
  0.00000000E+00  0.00000000E+00  0.00000000E+00
  0.00000000E+00  0.00000000E+00  0.00000000E+00
  0.00000000E+00  0.00000000E+00  0.00000000E+00
