Title                                   
   1.00000000000000     
     9.8694509999999998    0.0000000000000000    0.0000000000000000
     0.0000000000000000    8.5490480000000009    0.0000000000000000
     0.0000000000000000    0.0000000000000000   20.0000000000000000
    28     3     1
Selective dynamics
Direct
  0.0558120647450200  0.0912640379174058  0.0845857767268001   T   T   T
  0.9309604321568954  0.1752436913925341  0.0863842699128309   T   T   T
  0.0582163976710189  0.9244014956972251  0.0842284146702908   T   T   T
  0.9294833869233463  0.3431616544608924  0.0886752103324471   T   T   T
  0.0568106403604424  0.5908308398079447  0.0845094247227768   T   T   T
  0.9331852335273484  0.6749832330499934  0.0867158388823232   T   T   T
  0.0558444150542037  0.4234275724652584  0.0857063162131896   T   T   T
  0.9336775930017732  0.8415502259507415  0.0859514678484295   T   T   T
  0.3059947299942698  0.0861457966656935  0.0897830677505758   T   T   T
  0.1823598445919043  0.1716198201719522  0.0863568084581617   T   T   T
  0.1809751564433536  0.3386276235324361  0.0875038980564266   T   T   T
  0.3034210381125083  0.5865880861704466  0.0989030765096676   T   T   T
  0.1820357333851896  0.6735038502877051  0.0876987742514101   T   T   T
  0.3046325966470240  0.4196516034646011  0.0965492757888102   T   T   T
  0.1827946525501932  0.8402483563563009  0.0867897322494585   T   T   T
  0.5562486020497945  0.0856899012392910  0.0960134745829067   T   T   T
  0.5567252397190358  0.9202380607254165  0.1011604220417492   T   T   T
  0.4283047520075142  0.3309070208760061  0.1036328630709827   T   T   T
  0.4289693488218623  0.8368477158486555  0.1039594361837243   T   T   T
  0.8057492586279933  0.0910742373349568  0.0881082936555252   T   T   T
  0.6795338555081720  0.1726110294302612  0.0936641012909533   T   T   T
  0.8083349098185300  0.9256931901595482  0.0891743527935282   T   T   T
  0.6795075336170543  0.3390068660592231  0.1022944432228320   T   T   T
  0.8090371265483625  0.5957106489462382  0.0983943106632637   T   T   T
  0.8042000642047720  0.4266492910178813  0.0974290096346175   T   T   T
  0.6866216387652119  0.8410979432836437  0.1006325951684877   T   T   T
  0.4189564221912958  0.6758803790279175  0.1157025101308997   T   T   T
  0.5510567092887013  0.4060632385229208  0.1165363692366846   T   T   T
  0.6970317547572006  0.6837899948129880  0.1137901600687706   T   T   T
  0.3070335629290589  0.9233244936031622  0.0909950051826016   T   T   T
  0.4288721628042737  0.1658214030290956  0.0950648319795948   T   T   T
  0.5572521431766819  0.5885926986916682  0.1587814687192954   T   T   T
 
  0.00000000E+00  0.00000000E+00  0.00000000E+00
  0.00000000E+00  0.00000000E+00  0.00000000E+00
  0.00000000E+00  0.00000000E+00  0.00000000E+00
  0.00000000E+00  0.00000000E+00  0.00000000E+00
  0.00000000E+00  0.00000000E+00  0.00000000E+00
  0.00000000E+00  0.00000000E+00  0.00000000E+00
  0.00000000E+00  0.00000000E+00  0.00000000E+00
  0.00000000E+00  0.00000000E+00  0.00000000E+00
  0.00000000E+00  0.00000000E+00  0.00000000E+00
  0.00000000E+00  0.00000000E+00  0.00000000E+00
  0.00000000E+00  0.00000000E+00  0.00000000E+00
  0.00000000E+00  0.00000000E+00  0.00000000E+00
  0.00000000E+00  0.00000000E+00  0.00000000E+00
  0.00000000E+00  0.00000000E+00  0.00000000E+00
  0.00000000E+00  0.00000000E+00  0.00000000E+00
  0.00000000E+00  0.00000000E+00  0.00000000E+00
  0.00000000E+00  0.00000000E+00  0.00000000E+00
  0.00000000E+00  0.00000000E+00  0.00000000E+00
  0.00000000E+00  0.00000000E+00  0.00000000E+00
  0.00000000E+00  0.00000000E+00  0.00000000E+00
  0.00000000E+00  0.00000000E+00  0.00000000E+00
  0.00000000E+00  0.00000000E+00  0.00000000E+00
  0.00000000E+00  0.00000000E+00  0.00000000E+00
  0.00000000E+00  0.00000000E+00  0.00000000E+00
  0.00000000E+00  0.00000000E+00  0.00000000E+00
  0.00000000E+00  0.00000000E+00  0.00000000E+00
  0.00000000E+00  0.00000000E+00  0.00000000E+00
  0.00000000E+00  0.00000000E+00  0.00000000E+00
  0.00000000E+00  0.00000000E+00  0.00000000E+00
  0.00000000E+00  0.00000000E+00  0.00000000E+00
  0.00000000E+00  0.00000000E+00  0.00000000E+00
  0.00000000E+00  0.00000000E+00  0.00000000E+00
