Title                                   
   1.00000000000000     
     4.9440799999999996    0.0000000000000000    0.0000000000000000
     0.0000000000000000   17.1295089999999988    0.0000000000000000
     0.0000000000000000    0.0000000000000000   20.0000000000000000
    25     5     1
Selective dynamics
Direct
  0.0003221627917399  0.1060154334680561  0.2969556431897890   T   T   T
  0.2491048917351806  0.1491883179526614  0.2972511653692292   T   T   T
  0.2484268567360602  0.2341157232320500  0.2992548516208428   T   T   T
 -0.0030951156330001  0.2765871916050682  0.3030005024759214   T   T   T
 -0.0036878292376836  0.5992523442141444  0.3033910059407028   T   T   T
  0.2484879906312435  0.7252698399452309  0.2973186892055096   T   T   T
  0.0005610363245832  0.8525036389193242  0.2967441987188522   T   T   T
  0.2496001934279984  0.8948939522626524  0.2965072391882722   T   T   T
  0.2497528957573833  0.9793685556667547  0.2964306963211991   T   T   T
  0.0003987920533824  0.7677263373853713  0.2971105017288798   T   T   T
  0.4992431266380158  0.1063885634628605  0.2959172631362218   T   T   T
  0.7505893122890486  0.1482323059627868  0.2961143981170161   T   T   T
  0.7511252573056248  0.2321948636923637  0.2965988912040609   T   T   T
  0.4994302565816522  0.0218436662363436  0.2960000054727480   T   T   T
  0.7473968059755701  0.3961022881659936  0.3007413639935185   T   T   T
  0.7458718806657331  0.4802619977433730  0.3012118138316254   T   T   T
  0.5022501949500207  0.2745204046729014  0.2957578220049317   T   T   T
  0.5003634533216204  0.6009864589271624  0.2950415052070166   T   T   T
  0.7497017224093168  0.7266873260590802  0.2964582123453910   T   T   T
  0.4981927074435025  0.8522916237511906  0.2962562256492630   T   T   T
  0.7492841009205021  0.8944876913822292  0.2963224324901989   T   T   T
  0.7494313181452930  0.9791642217937262  0.2961938123925551   T   T   T
  0.4978568691989696  0.7674210073661012  0.2963523646269348   T   T   T
  0.7496630562136036  0.6433206425053920  0.2971879633444178   T   T   T
 -0.0001351234276178  0.0215850820437845  0.2965846312857871   T   T   T
  0.5053741333841991  0.5214136126764644  0.2906326032006343   T   T   T
  0.9885398215637765  0.5196536664564452  0.3168400648210922   T   T   T
  0.5084035543780081  0.3543639750447674  0.2928300877548242   T   T   T
 -0.0114413763671818  0.3567921524513518  0.3141996869603905   T   T   T
  0.2472291188758651  0.6401142330553173  0.2984834821254563   T   T   T
  0.2917649349475923  0.4385948818990477  0.3353708762766697   T   T   T
 
  0.00000000E+00  0.00000000E+00  0.00000000E+00
  0.00000000E+00  0.00000000E+00  0.00000000E+00
  0.00000000E+00  0.00000000E+00  0.00000000E+00
  0.00000000E+00  0.00000000E+00  0.00000000E+00
  0.00000000E+00  0.00000000E+00  0.00000000E+00
  0.00000000E+00  0.00000000E+00  0.00000000E+00
  0.00000000E+00  0.00000000E+00  0.00000000E+00
  0.00000000E+00  0.00000000E+00  0.00000000E+00
  0.00000000E+00  0.00000000E+00  0.00000000E+00
  0.00000000E+00  0.00000000E+00  0.00000000E+00
  0.00000000E+00  0.00000000E+00  0.00000000E+00
  0.00000000E+00  0.00000000E+00  0.00000000E+00
  0.00000000E+00  0.00000000E+00  0.00000000E+00
  0.00000000E+00  0.00000000E+00  0.00000000E+00
  0.00000000E+00  0.00000000E+00  0.00000000E+00
  0.00000000E+00  0.00000000E+00  0.00000000E+00
  0.00000000E+00  0.00000000E+00  0.00000000E+00
  0.00000000E+00  0.00000000E+00  0.00000000E+00
  0.00000000E+00  0.00000000E+00  0.00000000E+00
  0.00000000E+00  0.00000000E+00  0.00000000E+00
  0.00000000E+00  0.00000000E+00  0.00000000E+00
  0.00000000E+00  0.00000000E+00  0.00000000E+00
  0.00000000E+00  0.00000000E+00  0.00000000E+00
  0.00000000E+00  0.00000000E+00  0.00000000E+00
  0.00000000E+00  0.00000000E+00  0.00000000E+00
  0.00000000E+00  0.00000000E+00  0.00000000E+00
  0.00000000E+00  0.00000000E+00  0.00000000E+00
  0.00000000E+00  0.00000000E+00  0.00000000E+00
  0.00000000E+00  0.00000000E+00  0.00000000E+00
  0.00000000E+00  0.00000000E+00  0.00000000E+00
  0.00000000E+00  0.00000000E+00  0.00000000E+00
