Title                                   
   1.00000000000000     
     9.8694509999999998    0.0000000000000000    0.0000000000000000
     0.0000000000000000    8.5490480000000009    0.0000000000000000
     0.0000000000000000    0.0000000000000000   20.0000000000000000
    27     4     1
Selective dynamics
Direct
  0.0561993562514660  0.0919238706047547  0.0901433685238012   T   T   T
  0.9304871672737559  0.1757909438937604  0.0898935959485068   T   T   T
  0.0576404866976526  0.9242636989776662  0.0904872756565292   T   T   T
  0.9281296871181813  0.3432458646569316  0.0890965811182614   T   T   T
  0.0562289863998398  0.5905889484365427  0.0892961085491674   T   T   T
  0.9318069700541435  0.6745998392905598  0.0900246571374427   T   T   T
  0.0563740951567937  0.4238095706981523  0.0901403650196068   T   T   T
  0.9324519274399158  0.8419033635952178  0.0906906111387163   T   T   T
  0.3055655218507931  0.0869357151508527  0.0937783825251111   T   T   T
  0.1823006656491002  0.1739023622237649  0.0913954770771535   T   T   T
  0.3082025316655086  0.9215049447344916  0.0948302761604815   T   T   T
  0.1819438335636527  0.3400674489771902  0.0922293336139605   T   T   T
  0.3075064887450332  0.5878716576594888  0.1006102251709479   T   T   T
  0.1825256189717605  0.6713022605392562  0.0921190697664124   T   T   T
  0.1830247333081267  0.8381675303186983  0.0924576532351588   T   T   T
  0.5562275021593965  0.0853327396858649  0.0968310319271756   T   T   T
  0.4307279280813196  0.1681529468997198  0.0965322096194880   T   T   T
  0.4328698488353906  0.3341268978763619  0.0953357140513303   T   T   T
  0.4322375150281715  0.8365582861025874  0.1036092573997634   T   T   T
  0.8066454038878351  0.0915548848601645  0.0918514655602476   T   T   T
  0.6794954710881735  0.1713319608408288  0.0933855490146558   T   T   T
  0.8074571973361082  0.9264238757217435  0.0926097612053934   T   T   T
  0.6743581473054270  0.3374518273819997  0.0899829680703430   T   T   T
  0.8041717098141300  0.5964774349117076  0.0908331054180397   T   T   T
  0.8000134013147585  0.4271651732431067  0.0884894965629708   T   T   T
  0.6844192507413430  0.8402035389360152  0.0968795025385393   T   T   T
  0.4247276957263807  0.6749499695643859  0.1199734495632389   T   T   T
  0.5499246618270230  0.4149815344115598  0.0899276828734963   T   T   T
  0.6852958204944288  0.6828893911928526  0.0963857441460912   T   T   T
  0.5582443814068375  0.9196854296718844  0.1003795497063631   T   T   T
  0.3079314114514181  0.4214497749169043  0.0958880132163229   T   T   T
  0.5645035833561414  0.5756323140249876  0.1695875184852997   T   T   T
 
  0.00000000E+00  0.00000000E+00  0.00000000E+00
  0.00000000E+00  0.00000000E+00  0.00000000E+00
  0.00000000E+00  0.00000000E+00  0.00000000E+00
  0.00000000E+00  0.00000000E+00  0.00000000E+00
  0.00000000E+00  0.00000000E+00  0.00000000E+00
  0.00000000E+00  0.00000000E+00  0.00000000E+00
  0.00000000E+00  0.00000000E+00  0.00000000E+00
  0.00000000E+00  0.00000000E+00  0.00000000E+00
  0.00000000E+00  0.00000000E+00  0.00000000E+00
  0.00000000E+00  0.00000000E+00  0.00000000E+00
  0.00000000E+00  0.00000000E+00  0.00000000E+00
  0.00000000E+00  0.00000000E+00  0.00000000E+00
  0.00000000E+00  0.00000000E+00  0.00000000E+00
  0.00000000E+00  0.00000000E+00  0.00000000E+00
  0.00000000E+00  0.00000000E+00  0.00000000E+00
  0.00000000E+00  0.00000000E+00  0.00000000E+00
  0.00000000E+00  0.00000000E+00  0.00000000E+00
  0.00000000E+00  0.00000000E+00  0.00000000E+00
  0.00000000E+00  0.00000000E+00  0.00000000E+00
  0.00000000E+00  0.00000000E+00  0.00000000E+00
  0.00000000E+00  0.00000000E+00  0.00000000E+00
  0.00000000E+00  0.00000000E+00  0.00000000E+00
  0.00000000E+00  0.00000000E+00  0.00000000E+00
  0.00000000E+00  0.00000000E+00  0.00000000E+00
  0.00000000E+00  0.00000000E+00  0.00000000E+00
  0.00000000E+00  0.00000000E+00  0.00000000E+00
  0.00000000E+00  0.00000000E+00  0.00000000E+00
  0.00000000E+00  0.00000000E+00  0.00000000E+00
  0.00000000E+00  0.00000000E+00  0.00000000E+00
  0.00000000E+00  0.00000000E+00  0.00000000E+00
  0.00000000E+00  0.00000000E+00  0.00000000E+00
  0.00000000E+00  0.00000000E+00  0.00000000E+00
